# x y z rho theta phi s1 s2 stress_xx np intf bulk
-0.721227 -10.914186 -14.397615 18.081232 1.504811 2.491907 -0.001024 0.005487 1225240.000000 1 0 0
2.198273 -13.391886 -12.991615 18.787152 -1.408098 2.334382 -0.001663 0.004429 -800767.000000 1 0 0
2.256373 -11.113386 -14.627015 18.508056 -1.370487 2.482103 0.001874 0.002361 823810.000000 1 0 0
-5.477527 -6.269986 -16.405915 18.397556 0.852754 2.671981 0.011941 -0.006969 197327.000000 1 0 0
4.528173 -14.098686 -11.398215 18.686803 -1.260026 2.226807 -0.003386 -0.001523 2142650.000000 1 0 0
14.000673 -10.648586 -7.825315 19.252189 -0.650236 1.989377 0.032129 -0.011103 -724134.000000 1 0 0
7.089173 10.755714 -10.750615 16.778483 0.988045 2.266256 0.019019 -0.016720 -1745880.000000 1 0 0
5.785273 -4.202686 -12.584015 14.473748 -0.628255 2.624858 -0.002797 0.002575 2237360.000000 1 0 0
13.683573 0.474814 -9.924915 16.910635 0.034686 2.198026 0.021152 -0.001305 349976.000000 1 0 0
14.183773 5.005314 -10.300815 18.230178 0.339247 2.171280 0.016752 -0.013301 273461.000000 1 0 0
4.160073 4.328314 -13.414115 14.696224 0.805216 2.720785 0.002331 0.003600 2875120.000000 1 0 0
10.326673 -5.116386 -13.761115 17.949537 -0.460004 2.444412 0.027884 0.000586 262226.000000 1 0 0
2.579373 -7.537586 -12.065115 14.458056 -1.241086 2.558004 -0.001924 0.002853 630880.000000 1 0 0
-5.531827 -2.078486 -15.090915 16.206694 0.359413 2.768359 0.008194 -0.004284 844755.000000 1 0 0
10.772073 0.039814 -9.623915 14.445030 0.003696 2.299957 0.006295 0.001732 265874.000000 1 0 0
-1.652527 -9.650286 -16.883615 19.517052 1.401200 2.616086 0.016800 -0.009002 790065.000000 1 0 0
8.806473 1.724314 -17.994015 20.107506 0.193355 2.678982 0.037634 0.001243 -1189460.000000 1 0 0
16.548473 -5.979586 -8.719515 19.637651 -0.346739 2.030877 0.062039 -0.007782 -97423.300000 1 0 0
10.164473 7.535814 -9.875315 16.050759 0.637966 2.233506 0.013996 -0.010709 960517.000000 1 0 0
13.862173 -2.337286 -10.583815 17.596587 -0.167038 2.216136 0.040624 -0.002210 -1737950.000000 1 0 0
7.303973 -1.861486 -13.617215 15.564116 -0.249547 2.636048 0.010781 -0.000123 391516.000000 1 0 0
-2.706927 6.703614 -13.823115 15.599500 -1.187017 2.659713 0.002881 0.000114 1430380.000000 1 0 0
11.236773 1.869414 -13.875615 17.952506 0.164856 2.454206 0.020975 -0.005998 -204405.000000 1 0 0
-2.192927 10.840614 -12.903215 16.994729 -1.371202 2.432953 0.010745 -0.001043 -3277310.000000 1 0 0
3.024073 -1.001486 -15.275015 15.603656 -0.319803 2.935990 0.004827 0.002959 -449698.000000 1 0 0
-8.978527 0.488614 -15.191915 17.653526 -0.054367 2.607164 0.004228 -0.003897 -289785.000000 1 0 0
2.419073 -1.798386 -18.006415 18.256974 -0.639276 2.975728 0.017902 -0.003217 1134220.000000 1 0 0
1.083073 7.963914 -13.172915 15.431224 1.435628 2.593756 0.004133 -0.000266 -954119.000000 1 0 0
9.382573 -9.046986 -9.821215 16.319831 -0.767191 2.216545 0.024497 -0.002405 -722701.000000 1 0 0
3.968973 7.311914 -13.448615 15.813984 1.073491 2.587590 -0.000078 -0.001631 1129880.000000 1 0 0
-2.672927 9.169114 -15.521515 18.224561 -1.287143 2.589981 0.012104 -0.000306 64105.500000 1 0 0
5.585673 -7.718286 -15.295415 18.020028 -0.944345 2.584509 0.005106 0.002581 -319111.000000 1 0 0
4.266173 7.473214 -16.268415 18.404089 1.052078 2.655054 0.009366 0.000703 269925.000000 1 0 0
-0.068727 5.141914 -13.418815 14.370407 -1.557431 2.775634 0.005396 -0.001565 1001370.000000 1 0 0
8.863973 4.269014 -16.568115 19.269067 0.448831 2.605732 0.027480 -0.002505 -2011760.000000 1 0 0
5.464273 0.344214 -14.343915 15.353327 0.062910 2.776959 0.001667 0.005917 591469.000000 1 0 0
6.281073 7.896714 -11.536415 15.326410 0.898864 2.422972 0.005068 -0.008465 -168955.000000 1 0 0
2.757873 -8.285986 -15.083515 17.429167 -1.249494 2.616780 0.000448 0.002021 268573.000000 1 0 0
4.183173 11.478714 -13.751015 18.394299 1.221326 2.415191 0.015510 -0.013634 -1843230.000000 1 0 0
0.701673 -4.517686 -13.727515 14.468811 -1.416711 2.820103 0.003545 -0.000107 25518.300000 1 0 0
8.597373 -0.065086 -11.618015 14.453281 -0.007570 2.504506 0.001462 0.001990 -978188.000000 1 0 0
-0.789027 -5.048286 -16.275615 17.058822 1.415755 2.837396 0.008399 -0.008720 -979228.000000 1 0 0
4.559073 0.896114 -11.703815 12.592357 0.194082 2.763683 -0.000768 -0.000432 1426440.000000 1 0 0
-2.841827 -7.195686 -15.674915 17.480184 1.194664 2.683109 0.007284 -0.002346 1977340.000000 1 0 0
11.438373 -3.824186 -11.432115 16.617883 -0.322647 2.329444 0.029497 0.003488 2081700.000000 1 0 0
6.495673 -7.081386 -12.565515 15.818722 -0.828511 2.488724 0.004405 0.003229 -1245040.000000 1 0 0
3.500473 -3.918886 -14.576215 15.494419 -0.841733 2.795601 0.004527 -0.000130 3429120.000000 1 0 0
-0.572027 -1.602986 -18.352415 18.431167 1.228031 3.049118 0.020004 -0.008974 2458360.000000 1 0 0
15.061973 2.824814 -8.417815 17.484342 0.185392 2.073103 0.017421 -0.008281 -831298.000000 1 0 0
6.954273 4.345214 -14.382215 16.555691 0.558475 2.623403 0.006006 0.002754 1420870.000000 1 0 0
10.109173 -9.732486 -14.002115 19.823619 -0.766416 2.355104 0.033135 -0.007686 -132817.000000 1 0 0
9.037273 -3.234086 -15.565515 18.287069 -0.343661 2.589018 0.033225 -0.006233 22445.800000 1 0 0
-5.341727 -2.120286 -18.072815 18.964607 0.377856 2.833706 0.009623 0.003203 -1300950.000000 1 0 0
5.008173 -9.127886 -11.183415 15.279688 -1.068977 2.391923 -0.006982 0.004257 1296160.000000 1 0 0
-2.399327 4.138114 -17.026315 17.685479 -1.045353 2.867712 0.005003 0.002576 1442460.000000 1 0 0
9.514873 9.406714 -14.413815 19.666651 0.779682 2.393381 0.033293 -0.021107 923137.000000 1 0 0
9.840073 9.909214 -11.542415 18.117586 0.788899 2.261505 0.018068 -0.021132 -48155.300000 1 0 0
12.047273 -5.985086 -9.646615 16.553405 -0.461084 2.192914 0.032438 -0.003009 -311624.000000 1 0 0
8.223973 6.916714 -13.688715 17.402746 0.699271 2.476053 0.011568 -0.006292 965700.000000 1 0 0
3.959373 -4.276386 -17.503415 18.448134 -0.823871 2.820181 0.012649 -0.004760 419132.000000 1 0 0
9.328073 -7.521086 -12.371615 17.223140 -0.678562 2.372172 0.024614 -0.001932 -148572.000000 1 0 0
11.948373 -8.663886 -8.765715 17.165789 -0.627380 2.106737 0.033107 -0.005874 104846.000000 1 0 0
-2.876127 -2.510486 -13.858215 14.374449 0.717623 2.872779 0.005307 -0.003080 -2692140.000000 1 0 0
-0.329027 6.297814 -17.569515 18.667045 -1.518599 2.796976 0.014415 0.004095 1722990.000000 1 0 0
1.053373 -8.633486 -17.562915 19.598537 -1.449386 2.681776 0.011350 -0.005572 578501.000000 1 0 0
0.120273 8.723414 -15.973115 18.200352 1.557010 2.641685 0.015259 0.001878 -1175420.000000 1 0 0
1.854773 3.419714 -15.030115 15.525430 1.073825 2.888316 0.011495 0.003329 829261.000000 1 0 0
-1.853127 -0.513086 -15.824115 15.940513 0.270109 3.020672 0.011390 -0.002705 1691920.000000 1 0 0
14.161373 -4.356486 -8.393915 17.028836 -0.298443 2.086243 0.040080 -0.005446 637429.000000 1 0 0
0.663873 0.692214 -14.624815 14.656231 0.806294 3.076106 0.006476 -0.001226 1490540.000000 1 0 0
8.817373 2.761614 -12.558815 15.591549 0.303524 2.507296 0.003308 0.001462 2049710.000000 1 0 0
6.136673 0.926314 -17.073215 18.166218 0.149816 2.792938 0.018826 0.007214 386050.000000 1 0 0
15.377273 1.530614 -12.251815 19.720808 0.099211 2.241150 0.033353 -0.010288 986468.000000 1 0 0
8.928273 -11.203086 -11.785615 18.550577 -0.897919 2.259223 0.031580 -0.007236 401837.000000 1 0 0
-4.558727 0.743714 -15.087115 15.778344 -0.161716 2.844499 0.007696 -0.003195 1337690.000000 1 0 0
2.406573 5.292414 -17.310015 18.260281 1.144023 2.817562 0.017099 0.003520 2475300.000000 1 0 0
6.048073 -11.719486 -12.300315 18.033948 -1.094376 2.321378 0.011709 -0.001598 1726520.000000 1 0 0
12.894873 7.158014 -8.599615 17.072443 0.506754 2.098688 0.022045 -0.012287 191714.000000 1 0 0
-4.989727 3.573414 -15.692515 16.849976 -0.621486 2.768784 0.004478 0.001771 1299400.000000 1 0 0
-0.366327 -4.488486 -19.085315 19.609435 1.489362 2.909869 0.020417 -0.012701 75698.200000 1 0 0
9.826573 4.413514 -10.198915 14.834369 0.422139 2.328864 0.002740 -0.006003 1357880.000000 1 0 0
13.389373 3.642814 -12.748215 18.843099 0.265638 2.313858 0.022942 -0.015407 -216987.000000 1 0 0
-6.049327 5.934514 -17.140015 19.120485 -0.775818 2.682425 0.003787 0.003190 -1664150.000000 1 0 0
-10.060627 3.158114 -15.363015 18.633629 -0.304167 2.540075 0.010307 -0.008244 1900440.000000 1 0 0
10.836673 13.224614 -8.195915 18.960404 0.884318 2.017799 0.030729 -0.014402 -348639.000000 1 0 0
7.511273 13.324614 -12.238815 19.589619 1.057485 2.245621 0.032395 -0.017432 -736368.000000 1 0 0
5.394173 15.236714 -11.308315 19.726443 1.230541 2.181271 0.027187 -0.012273 -980189.000000 1 0 0
14.245173 9.283614 -9.977815 19.714645 0.577571 2.101467 0.055609 -0.022392 -1123360.000000 1 0 0
8.273273 -17.289386 -2.079915 19.279418 -1.124482 1.678889 0.032698 0.001429 987020.000000 1 0 0
0.774473 -16.014486 -0.048315 16.033275 -1.522473 1.573810 0.007951 -0.005634 2227950.000000 1 0 0
-9.279927 -11.713886 7.475785 16.709863 0.900820 1.106954 0.013086 -0.001763 498069.000000 1 0 0
2.051373 -15.900086 -2.640115 16.247802 -1.442489 1.734011 0.007527 -0.006429 1977890.000000 1 0 0
-1.227527 -11.014986 -9.421115 14.546276 1.459813 2.275312 0.000341 0.004263 273975.000000 1 0 0
-4.675527 -12.779186 -12.954815 18.788171 1.220054 2.331622 0.019802 -0.005305 -104443.000000 1 0 0
-8.242027 -17.872486 -1.898415 19.772727 1.138703 1.666956 0.020351 -0.013420 -1889190.000000 1 0 0
-11.414927 -7.128286 -8.880415 16.123734 0.558219 2.154079 0.022212 -0.009228 2011950.000000 1 0 0
-13.562927 -11.512886 -4.697815 18.400244 0.703826 1.828967 0.020696 -0.006979 -1193770.000000 1 0 0
-5.782227 -13.528986 9.730685 17.639553 1.166898 0.986467 0.010918 -0.006983 1441930.000000 1 0 0
0.172973 -14.008986 -3.707015 14.492190 -1.558450 1.829465 0.004468 -0.001334 -202821.000000 1 0 0
-14.812027 -11.623186 1.919485 18.925618 0.665350 1.469199 0.015589 0.001786 2506860.000000 1 0 0
-3.942927 -16.513686 -7.610915 18.605766 1.336417 1.992222 0.006625 -0.012029 1161050.000000 1 0 0
0.543073 -15.279686 -9.261015 17.875406 -1.535269 2.115409 0.003036 0.001486 965311.000000 1 0 0
4.527273 -14.216886 -2.583615 15.142362 -1.262506 1.742257 0.002793 0.000412 620265.000000 1 0 0
-3.459027 -18.070386 -2.472015 18.563797 1.381665 1.704356 0.002445 -0.015335 676952.000000 1 0 0
-0.924927 -13.458086 0.634685 13.504754 1.502178 1.523782 0.010053 -0.003094 2604550.000000 1 0 0
-8.370927 -11.422186 -10.516415 17.638983 0.938352 2.209560 0.029053 -0.011605 1488720.000000 1 0 0
-3.676627 -14.157386 -0.536415 14.636834 1.316712 1.607453 0.005337 -0.000256 4001880.000000 1 0 0
-1.552827 -14.899586 -7.343215 16.683277 1.466952 2.026567 0.001857 -0.001920 78781.700000 1 0 0
-14.199727 -7.909986 -1.864915 16.360869 0.508241 1.685031 0.012797 -0.004847 919310.000000 1 0 0
-10.639627 -7.404886 -11.666215 17.439454 0.608018 2.303599 0.030951 -0.012162 -567138.000000 1 0 0
-9.538727 -14.730286 6.665085 18.772107 0.996139 1.207826 0.003731 0.000137 593243.000000 1 0 0
-2.410327 -14.488386 -12.362815 19.197974 1.405943 2.270465 0.010664 0.000124 726869.000000 1 0 0
2.408273 -17.762886 -4.876115 18.576770 -1.436039 1.836392 0.014622 -0.009297 -506301.000000 1 0 0
-6.534327 -9.734386 -9.247015 14.931945 0.979619 2.238618 0.008124 -0.006795 -221301.000000 1 0 0
-10.984227 -15.559886 0.223385 19.047656 0.956100 1.559068 0.017331 0.003435 1094120.000000 1 0 0
-12.631027 -10.999486 3.993185 17.218509 0.716464 1.336753 0.012083 -0.001821 243285.000000 1 0 0
-16.986827 -8.939286 -1.710715 19.271473 0.484425 1.659683 0.019598 -0.007815 -49368.600000 1 0 0
-1.303727 -19.219386 -4.045615 19.683788 1.503066 1.777802 0.022509 -0.013518 101743.000000 1 0 0
3.253373 -14.285286 -8.708315 17.043726 -1.346873 2.107074 -0.004379 -0.000573 -99953.600000 1 0 0
-4.272027 -8.056886 -13.090815 15.954092 1.083256 2.533134 0.007876 -0.002630 1919260.000000 1 0 0
5.649473 -16.613486 1.409285 17.604276 -1.243010 1.490657 0.033306 -0.000479 5171940.000000 1 0 0
-2.801327 -13.771486 -3.342115 14.445449 1.370119 1.804273 0.002535 -0.003706 -112281.000000 1 0 0
-0.403727 -13.938486 3.634385 14.410175 1.541840 1.315833 0.012353 -0.002058 -3128700.000000 1 0 0
1.238373 -16.137286 6.985785 17.628011 -1.494207 1.163325 0.031895 -0.011026 2287460.000000 1 0 0
-5.396327 -10.502986 -14.565215 18.750428 1.096178 2.460355 0.020738 -0.008779 -202945.000000 1 0 0
-0.301627 -17.186186 -5.873915 18.164769 1.553248 1.900083 0.015979 -0.013561 -285087.000000 1 0 0
-6.501527 -13.465286 -1.366415 15.015021 1.120974 1.661926 0.004587 -0.000567 2061450.000000 1 0 0
-1.703527 -17.674686 -0.170415 17.757409 1.474711 1.580393 0.006296 -0.009724 2336270.000000 1 0 0
-9.482327 -9.755986 -4.914215 14.465244 0.799622 1.917422 0.014957 -0.006206 2725490.000000 1 0 0
-0.821427 -16.596586 4.825885 17.303484 1.521343 1.288151 0.023653 -0.010421 2316980.000000 1 0 0
-6.746727 -9.933886 -6.377315 13.596711 0.974192 2.058993 0.011901 -0.007039 1875830.000000 1 0 0
-6.020427 -14.586386 -8.662115 18.001123 1.179353 2.072818 0.010395 -0.006886 -606430.000000 1 0 0
-5.622927 -12.239286 -10.290615 16.950345 1.140139 2.223207 0.012178 -0.006371 1880910.000000 1 0 0
-10.531627 -12.471086 -8.726015 18.509092 0.869514 2.061725 0.042750 -0.015538 808267.000000 1 0 0
3.947973 -17.179286 6.573885 18.813036 -1.344908 1.213831 0.049678 -0.011814 439661.000000 1 0 0
-6.698127 -14.438386 -4.202615 16.461891 1.136434 1.828948 0.015129 -0.011586 -881191.000000 1 0 0
-2.848627 -12.191086 -7.151215 14.417945 1.341250 2.089776 0.004629 0.000320 3143490.000000 1 0 0
-7.100727 -12.838086 4.420485 15.322450 1.065577 1.278139 0.001074 -0.001487 1993200.000000 1 0 0
2.621273 -16.430786 2.368485 16.806294 -1.412595 1.429397 0.021728 -0.005762 2275300.000000 1 0 0
-6.288227 -12.075886 7.251785 15.425862 1.090706 1.081386 0.004456 0.001492 2459160.000000 1 0 0
-11.313427 -12.864186 -0.981415 17.159373 0.849451 1.628022 0.014284 0.003716 -588602.000000 1 0 0
-14.263127 -8.664986 4.488585 17.281961 0.545923 1.308057 0.012465 -0.002306 658406.000000 1 0 0
-7.991527 -15.568686 4.301685 18.020904 1.096559 1.329764 0.001957 0.004407 422026.000000 1 0 0
-16.513327 -9.231186 1.084285 18.949418 0.509738 1.513545 0.016013 -0.002993 -737135.000000 1 0 0
-6.558227 -17.094086 2.278085 18.450143 1.204460 1.447008 -0.006280 0.004220 573883.000000 1 0 0
-11.523327 -14.905586 -4.706315 19.419396 0.912682 1.815585 0.046887 -0.009826 -1220360.000000 1 0 0
-10.037027 -10.033286 -12.531815 18.932911 0.785212 2.294156 0.037123 -0.014184 -185983.000000 1 0 0
-4.323327 -16.024086 -4.614915 17.226721 1.307269 1.842002 0.003858 -0.009414 -813696.000000 1 0 0
-11.793427 -8.220686 -0.033115 14.375872 0.608748 1.573100 0.002372 0.001316 2144860.000000 1 0 0
-9.673127 -11.228886 3.457285 15.218741 0.859692 1.341623 0.005386 0.006527 983396.000000 1 0 0
-14.212327 -13.003286 -0.660315 19.274639 0.741003 1.605061 0.023428 0.008549 328991.000000 1 0 0
5.567273 -14.848386 -7.050715 17.354587 -1.212077 1.989169 0.000778 -0.010357 23646.300000 1 0 0
-7.531827 -10.606786 -1.382215 13.082157 0.953327 1.676650 0.002756 0.001375 582474.000000 1 0 0
-11.674427 -8.275086 -6.117815 15.562678 0.616622 1.974806 0.019402 -0.007243 160213.000000 1 0 0
-14.374527 -6.582286 -9.304915 18.344889 0.429415 2.102754 0.041326 -0.015019 595451.000000 1 0 0
-3.840127 -16.342286 1.357085 16.842166 1.340002 1.490132 0.003492 -0.008419 67028.700000 1 0 0
-7.944727 -15.607586 0.075185 17.513454 1.099951 1.566503 0.009973 0.000463 1102520.000000 1 0 0
1.096173 -18.503686 3.646285 18.891357 -1.511625 1.376564 0.031841 -0.012239 1135970.000000 1 0 0
-14.102527 -8.707886 -4.698715 17.227492 0.553166 1.847042 0.017394 -0.009379 -831945.000000 1 0 0
-3.260327 -14.648686 11.106985 18.670266 1.351798 0.933652 -0.000833 -0.007883 1422570.000000 1 0 0
-10.837227 -12.123786 -3.805215 16.700639 0.841372 1.800664 0.020387 -0.009711 1805500.000000 1 0 0
-10.053327 -10.756486 0.468285 14.730603 0.819175 1.539001 0.005372 0.005109 2865670.000000 1 0 0
-0.021727 -13.224086 -11.136415 17.288628 1.569153 2.270704 0.003703 0.001654 -103037.000000 1 0 0
-5.907127 -12.661086 -6.441715 15.384828 1.134259 2.002816 0.004801 -0.010324 2596680.000000 1 0 0
1.724373 -15.899186 9.832485 18.773261 -1.462762 1.019550 0.026956 -0.009720 682129.000000 1 0 0
-8.975027 -15.749186 -5.496315 18.941949 1.052824 1.865197 0.035943 -0.016128 -955099.000000 1 0 0
-3.388427 -15.491686 5.832085 16.896360 1.355462 1.218378 0.003973 -0.004676 -1171320.000000 1 0 0
-17.460627 -5.439086 -6.600615 19.442872 0.301979 1.917168 0.036602 -0.014420 -372845.000000 1 0 0
18.815073 5.580314 -2.869715 19.833864 0.288323 1.715994 0.012825 0.008868 -1390310.000000 1 0 0
12.876173 -12.444386 -5.771215 18.813971 -0.768347 1.882574 0.037336 -0.004725 -843987.000000 1 0 0
11.036873 -13.488286 -1.603615 17.501943 -0.885022 1.662550 0.033932 -0.010240 2142810.000000 1 0 0
18.667473 -2.712286 4.365385 19.362015 -0.144285 1.343380 0.047900 -0.016475 -148348.000000 1 0 0
9.116473 -16.746286 4.908885 19.688711 -1.072272 1.318813 0.052805 -0.023186 534225.000000 1 0 0
18.141073 -1.148886 6.801585 19.408246 -0.063246 1.212747 0.061103 -0.018287 -740841.000000 1 0 0
17.990073 -4.214786 -5.075415 19.161602 -0.230133 1.838870 0.051034 -0.011394 1227300.000000 1 0 0
5.329773 -11.733486 14.723285 19.566714 -1.144425 0.718998 0.009153 0.002022 -1186960.000000 1 0 0
16.034873 -8.959386 -0.758215 18.383760 -0.509532 1.612052 0.050658 -0.011544 -650102.000000 1 0 0
13.922073 -12.646186 -1.400615 18.860325 -0.737412 1.645127 0.051374 -0.009650 738140.000000 1 0 0
11.073973 -2.062686 13.813385 17.824061 -0.184154 0.684105 0.031024 -0.010165 -519781.000000 1 0 0
17.028573 -6.191886 -1.446815 18.177047 -0.348754 1.650476 0.045670 -0.015209 -118506.000000 1 0 0
17.668773 3.622114 -0.897315 18.058528 0.202199 1.620506 0.014517 0.000016 -154927.000000 1 0 0
9.649773 -11.131086 9.332185 17.438718 -0.856560 1.006121 0.015752 -0.005997 -218828.000000 1 0 0
9.080173 -11.117886 4.254885 14.972006 -0.885945 1.282636 0.011800 -0.009215 -1237280.000000 1 0 0
14.201173 -10.191086 6.805485 18.757563 -0.622456 1.199512 0.046438 -0.014515 188345.000000 1 0 0
16.166873 -0.560786 -4.686115 16.841673 -0.034673 1.852763 0.010548 -0.002647 -1738480.000000 1 0 0
15.790773 -0.587586 -1.670515 15.889757 -0.037194 1.676123 0.010576 -0.003961 445196.000000 1 0 0
12.911373 -5.165786 -0.224815 13.908251 -0.380589 1.586961 0.011767 -0.008516 1919080.000000 1 0 0
14.280273 -7.570986 1.129385 16.202516 -0.487492 1.501035 0.039195 -0.009627 1989630.000000 1 0 0
15.408373 2.401114 3.663285 16.018832 0.154588 1.340068 0.015940 -0.012228 2341330.000000 1 0 0
15.908673 -7.135886 4.987485 18.135097 -0.421650 1.292188 0.044137 -0.015090 -297231.000000 1 0 0
13.757473 -12.124386 3.110785 18.599618 -0.722384 1.402757 0.037756 -0.014083 1959620.000000 1 0 0
13.997273 -0.900186 9.153985 16.749013 -0.064223 0.992571 0.038173 -0.016800 738160.000000 1 0 0
14.178273 -2.846886 -1.588515 14.548250 -0.198157 1.680204 0.007543 -0.005383 364162.000000 1 0 0
15.078773 1.888214 9.119185 17.722705 0.124575 1.030316 0.047816 -0.009432 -1367280.000000 1 0 0
14.296873 -10.115386 -2.933015 17.757370 -0.615758 1.736728 0.049497 -0.015093 -1247480.000000 1 0 0
7.274073 -12.614386 6.039885 15.764361 -1.047724 1.177608 0.012537 -0.007810 -759966.000000 1 0 0
12.372073 -4.742986 6.989485 14.980554 -0.366082 1.085387 0.021879 -0.009079 1942070.000000 1 0 0
14.909773 -8.921586 -5.611915 18.258960 -0.539221 1.883205 0.049409 -0.013645 869598.000000 1 0 0
14.237073 -4.537886 4.670785 15.655762 -0.308557 1.267840 0.021230 -0.010776 964053.000000 1 0 0
17.120873 -4.343486 0.974385 17.690099 -0.248454 1.515688 0.031539 -0.017090 -1392770.000000 1 0 0
10.233173 -14.519886 1.105185 17.797931 -0.956877 1.508660 0.033372 -0.011932 1333170.000000 1 0 0
16.296273 -2.666486 8.651485 18.642072 -0.162188 1.088196 0.050213 -0.016277 1023530.000000 1 0 0
15.965273 -2.693486 3.194385 16.502997 -0.167135 1.376003 0.021904 -0.012071 191843.000000 1 0 0
7.933873 -15.224386 2.756885 17.387601 -1.090389 1.411570 0.023216 -0.007068 2382080.000000 1 0 0
16.679573 -6.958586 7.731385 19.657171 -0.395239 1.166566 0.051201 -0.016854 358898.000000 1 0 0
10.249173 -8.622486 5.149285 14.349493 -0.699413 1.203763 0.013409 -0.007094 1436320.000000 1 0 0
10.895373 -11.867686 2.184185 16.257976 -0.828087 1.436043 0.023913 -0.012742 1334780.000000 1 0 0
12.272873 -7.390286 11.949085 18.655304 -0.542009 0.875622 0.041038 -0.015303 1417680.000000 1 0 0
15.191073 -9.896786 4.192285 18.608878 -0.577420 1.343562 0.043815 -0.015413 -1366440.000000 1 0 0
7.283673 -10.192886 7.731085 14.721294 -0.950349 1.017889 0.009414 -0.002464 845398.000000 1 0 0
15.187773 -3.331986 -4.386415 16.155842 -0.215965 1.845754 0.027097 -0.005544 142874.000000 1 0 0
11.685673 -9.068086 9.703885 17.690408 -0.659935 0.990180 0.030182 -0.013158 -449532.000000 1 0 0
17.061873 -6.775586 2.396085 18.513706 -0.378020 1.441010 0.050833 -0.011752 2490560.000000 1 0 0
17.506773 3.887114 2.150885 18.061646 0.218490 1.451427 0.017384 -0.006165 -805109.000000 1 0 0
14.735073 -5.065386 8.762385 17.876239 -0.331108 1.058512 0.046366 -0.019755 -613880.000000 1 0 0
12.956673 -12.668286 5.995985 19.086977 -0.774144 1.251246 0.031367 -0.016166 -615559.000000 1 0 0
18.136773 0.686114 -0.627315 18.160584 0.037812 1.605346 0.015586 -0.007176 -562073.000000 1 0 0
11.771973 -2.182286 10.917885 16.203146 -0.183299 0.831440 0.027749 -0.007775 1002750.000000 1 0 0
5.837373 -12.410286 10.542085 17.298141 -1.131136 0.915449 0.009913 0.000021 -1715950.000000 1 0 0
10.724873 -5.049986 11.091185 16.233904 -0.440071 0.818645 0.030428 -0.009141 785617.000000 1 0 0
17.636673 1.214214 5.309585 18.458555 0.068738 1.279025 0.034041 -0.010606 -450146.000000 1 0 0
12.340873 -7.794986 7.129785 16.244777 -0.563360 1.116426 0.027951 -0.013616 -664687.000000 1 0 0
10.650573 -7.914686 14.265785 19.483059 -0.639085 0.749228 0.053391 -0.009615 -1052320.000000 1 0 0
14.132773 -0.354386 3.661885 14.603776 -0.025070 1.317342 0.007207 -0.008215 3230550.000000 1 0 0
11.692573 -7.740086 2.568685 14.255642 -0.584741 1.389620 0.017331 -0.008081 1761010.000000 1 0 0
9.242673 6.092314 3.586685 11.636477 0.582781 1.257467 0.001456 0.000396 992498.000000 1 0 0
-3.862627 14.822214 -9.783515 18.175123 -1.315869 2.139205 0.005625 -0.007381 297012.000000 1 0 0
8.798273 -6.267686 9.244385 14.218022 -0.618984 0.862965 0.007974 -0.005907 122033.000000 1 0 0
5.804873 -10.525686 -8.525715 14.736839 -1.066805 2.187723 -0.004947 -0.001621 904716.000000 1 0 0
5.396573 1.041614 0.562185 5.524854 0.190669 1.468864 -0.001733 -0.000663 2780640.000000 1 0 0
-0.615327 10.011214 10.981585 14.872735 -1.509410 0.740146 0.000290 0.002964 2037820.000000 1 0 0
-6.362027 -5.129986 1.045085 8.239196 0.678598 1.443611 0.002607 -0.001237 3157530.000000 1 0 0
-0.921527 4.113614 -10.822315 11.614368 -1.350416 2.770148 0.006821 -0.002808 1535490.000000 1 0 0
10.910573 5.760014 1.292785 12.405227 0.485741 1.466394 0.001950 0.002360 1560150.000000 1 0 0
-10.049727 -1.771686 -13.519715 16.938671 0.174499 2.495026 0.010283 -0.009050 667477.000000 1 0 0
7.431373 10.856714 -5.977915 14.450917 0.970552 1.997278 0.003238 -0.003007 1682830.000000 1 0 0
-12.372527 -2.849986 -9.685815 15.969247 0.226399 2.222484 0.015418 -0.007349 2321120.000000 1 0 0
-3.984227 -8.676286 2.421685 9.849699 1.140311 1.322386 0.010560 0.000192 -545691.000000 1 0 0
7.998073 -6.625986 -5.886115 11.938141 -0.691848 2.086390 -0.001121 -0.004736 1710360.000000 1 0 0
14.352573 3.176214 -4.146915 15.273559 0.217789 1.845757 0.007812 0.000904 477905.000000 1 0 0
-2.592927 -4.960786 9.709685 11.207616 1.089166 0.522955 0.002030 -0.000589 1279500.000000 1 0 0
3.581073 -1.780586 -4.597815 6.093806 -0.461422 2.425698 -0.000877 -0.003863 -3757700.000000 1 0 0
-3.975727 8.409414 -3.485515 9.933452 -1.129168 1.929314 -0.003407 0.001681 759434.000000 1 0 0
5.734473 0.151014 11.785885 13.107787 0.026328 0.452970 0.002857 -0.003593 783974.000000 1 0 0
6.996873 4.697914 12.453685 15.037317 0.591293 0.594934 0.006755 0.001236 1524380.000000 1 0 0
1.119473 -14.596886 12.330185 19.140422 -1.494254 0.870825 0.009399 -0.005654 30389.600000 1 0 0
3.044073 8.765214 -9.079615 12.982094 1.236538 2.345347 0.001351 -0.001055 86534.300000 1 0 0
-4.444827 -8.865286 -4.593715 10.929410 1.106050 2.004581 0.011504 -0.002328 1216590.000000 1 0 0
5.672073 -6.488386 -4.032715 9.514954 -0.852426 2.008465 -0.003258 -0.002761 2097100.000000 1 0 0
-3.181227 3.427714 8.623885 9.810241 -0.822677 0.496889 0.000116 0.002935 2311900.000000 1 0 0
-3.702027 3.118114 -11.088015 12.098418 -0.699990 2.730000 0.001423 -0.003134 937515.000000 1 0 0
2.999173 -6.157886 8.595285 10.990611 -1.117566 0.672837 -0.001346 -0.000442 -155222.000000 1 0 0
-5.189227 -8.713386 10.478785 14.582733 1.033658 0.769045 0.006601 -0.003229 1636910.000000 1 0 0
-13.206527 -2.539486 6.368185 14.880024 0.189971 1.128552 0.010539 -0.006152 756011.000000 1 0 0
4.016173 -5.916386 -8.305315 10.959540 -0.974426 2.430756 -0.004403 -0.001006 1792480.000000 1 0 0
2.874773 -0.441286 12.452985 12.788115 -0.152314 0.229441 0.001301 -0.000853 1090570.000000 1 0 0
1.526473 -1.361286 -7.589815 7.860567 -0.728258 2.878367 0.001564 -0.006069 681249.000000 1 0 0
3.592173 -3.480486 3.446485 6.074187 -0.769608 0.967453 -0.000391 -0.002686 1822620.000000 1 0 0
1.588173 0.445814 -11.847915 11.962196 0.273666 3.003254 0.005161 -0.005190 322558.000000 1 0 0
4.217073 3.560314 -10.565115 11.919782 0.701153 2.660201 -0.003089 0.002480 1076050.000000 1 0 0
2.849473 3.245014 3.477185 5.544405 0.850209 0.892905 -0.006935 0.002229 -756509.000000 1 0 0
-5.346027 0.929414 2.623585 6.027189 -0.172131 1.120434 -0.000087 -0.002571 2736570.000000 1 0 0
-9.533727 -9.277886 5.629185 14.445028 0.771799 1.170494 0.006170 -0.001287 -735994.000000 1 0 0
-3.044227 3.825914 -0.544015 4.919440 -0.898691 1.681608 -0.003868 -0.004623 406133.000000 1 0 0
-16.021927 -6.491186 4.802685 17.941667 0.384933 1.299809 0.029669 -0.008244 1169300.000000 1 0 0
1.096773 6.708414 -8.085015 10.562821 1.408738 2.442493 0.002873 -0.001540 345225.000000 1 0 0
-1.434027 6.643214 -9.476715 11.661769 -1.358195 2.519449 0.001722 -0.000526 -243046.000000 1 0 0
2.055573 -0.349386 5.303985 5.699097 -0.168361 0.374553 -0.001985 -0.000952 3511390.000000 1 0 0
-3.427027 -0.532286 -6.241915 7.140682 0.154089 2.634447 0.007964 -0.009016 50384.800000 1 0 0
1.904173 -1.173486 -2.404815 3.284217 -0.552297 2.392393 0.005086 -0.004775 1774460.000000 1 0 0
2.487073 -8.566286 -7.698715 11.782911 -1.288232 2.282837 -0.004960 0.000735 306500.000000 1 0 0
-2.387927 14.046914 -5.531215 15.284382 -1.402410 1.941087 0.003661 0.003066 520184.000000 1 0 0
6.892573 -5.047186 -8.175815 11.824788 -0.632053 2.334240 -0.001963 -0.002364 3637710.000000 1 0 0
-14.161927 -4.915286 -2.200015 15.151247 0.334069 1.716515 0.010238 -0.001444 -686371.000000 1 0 0
-2.696927 6.892214 -6.832915 10.072972 -1.197812 2.316299 0.001843 -0.000097 -3558090.000000 1 0 0
-5.559727 -1.160986 -8.083915 9.879683 0.205862 2.529133 0.010888 -0.011035 -396564.000000 1 0 0
-5.813627 -10.586486 3.372385 12.539734 1.068602 1.298508 0.003894 0.001492 -3411460.000000 1 0 0
8.144673 -7.441686 6.681385 12.897879 -0.740326 1.026259 0.005351 -0.004532 2757500.000000 1 0 0
8.738373 -5.932286 13.206285 16.910267 -0.596409 0.674591 0.030939 -0.003052 695163.000000 1 0 0
-4.778727 9.573414 -0.783115 10.728455 -1.107816 1.643856 -0.005065 0.001255 1429430.000000 1 0 0
2.679673 6.618714 12.199685 14.135782 1.186105 0.529548 0.004827 0.000986 -89927.300000 1 0 0
5.967573 -2.754986 10.931485 12.755361 -0.432507 0.541355 0.002569 -0.002225 -630779.000000 1 0 0
-9.658127 -6.434286 -1.154015 11.662384 0.587682 1.669910 0.003787 -0.000603 -916475.000000 1 0 0
0.827673 -13.325886 6.261685 14.746965 -1.508766 1.132267 0.013746 -0.003052 1108350.000000 1 0 0
-0.509527 -3.251086 8.658985 9.263217 1.415336 0.363183 -0.000613 -0.001515 1331610.000000 1 0 0
4.176773 0.736214 3.443385 5.462998 0.174472 0.888843 -0.005723 0.001281 570220.000000 1 0 0
-10.238027 5.620314 8.306785 14.332055 -0.502048 0.952565 -0.001737 -0.001563 973783.000000 1 0 0
9.369873 7.986114 0.004585 12.311481 0.705838 1.570424 0.002169 0.003480 37214.200000 1 0 0
4.264473 2.861314 8.226885 9.698169 0.590973 0.558044 -0.004267 0.000952 3245430.000000 1 0 0
1.411073 2.687914 -9.757215 10.218574 1.087373 2.839954 0.006134 -0.004419 2845830.000000 1 0 0
-1.450227 -10.168586 2.963985 10.690580 1.429133 1.289864 0.010891 -0.000738 -520128.000000 1 0 0
-9.978927 9.597014 9.001985 16.514157 -0.765891 0.994279 0.000496 -0.009064 180427.000000 1 0 0
9.836073 -1.915286 -7.631215 12.595717 -0.192314 2.221640 0.006690 -0.001034 945362.000000 1 0 0
-5.216227 -1.935486 6.769585 8.762557 0.355304 0.687936 0.001782 -0.002513 1797170.000000 1 0 0
3.107673 -7.791686 -4.941315 9.735738 -1.191286 2.103128 -0.007022 -0.001628 1463430.000000 1 0 0
-4.980927 4.888414 -13.120415 14.861074 -0.776025 2.652738 0.000836 -0.004635 3026020.000000 1 0 0
-5.698627 9.630514 5.482685 12.461179 -1.036483 1.115219 -0.003557 0.000329 381193.000000 1 0 0
-0.450127 -1.675886 -9.343015 9.502796 1.308399 2.957955 0.008083 -0.006424 -783953.000000 1 0 0
-16.712227 0.059414 6.343685 17.875805 -0.003555 1.208015 0.015319 -0.007034 -806021.000000 1 0 0
-5.990327 -2.915286 4.114585 7.830244 0.452923 1.017525 -0.002923 -0.002608 3078670.000000 1 0 0
1.071473 -5.582386 -5.165015 7.680395 -1.381164 2.308369 0.002712 -0.002721 79179.100000 1 0 0
-6.987727 1.401314 -8.403515 11.018669 -0.197914 2.438214 0.000899 -0.003548 483865.000000 1 0 0
7.933073 2.015114 4.821785 9.499681 0.248753 1.038430 -0.004525 -0.001025 347385.000000 1 0 0
0.486073 -8.008186 -0.628415 8.047497 -1.510174 1.648964 0.005271 -0.000218 1011970.000000 1 0 0
5.450073 5.487214 -3.335015 8.422300 0.788794 1.977925 -0.001535 0.000274 -152362.000000 1 0 0
-0.775327 -0.356586 -1.178515 1.455054 0.431070 2.514856 0.005586 -0.006141 1114010.000000 1 0 0
9.156873 6.433114 -6.250315 12.817945 0.612432 2.080160 0.004048 -0.002104 1575470.000000 1 0 0
-15.015227 -7.066986 2.319685 16.756499 0.439897 1.431915 0.007822 -0.004741 651566.000000 1 0 0
-6.517627 6.862314 8.886385 12.982244 -0.811154 0.816875 -0.000637 0.001633 -1047820.000000 1 0 0
-9.374027 -3.249186 -9.580615 13.791946 0.333657 2.338734 0.008269 -0.007513 847420.000000 1 0 0
14.824173 3.366314 -1.146615 15.244766 0.223296 1.646081 -0.004540 0.002344 2201450.000000 1 0 0
12.071573 1.712014 -5.730215 13.471794 0.140882 2.010144 0.004229 -0.001800 -406379.000000 1 0 0
1.634173 -9.536986 12.805785 16.050319 -1.401093 0.647072 -0.006396 0.006300 -76572.300000 1 0 0
-3.670027 6.362714 7.921485 10.802923 -1.047609 0.747674 -0.001617 0.003339 2228130.000000 1 0 0
-3.946627 13.173314 -12.283615 18.439069 -1.279713 2.299862 0.002960 -0.003039 1160000.000000 1 0 0
-10.201427 7.810614 6.437185 14.370531 -0.653435 1.106333 -0.004952 -0.004142 -1399170.000000 1 0 0
8.020473 -9.258386 -7.134215 14.175427 -0.856919 2.098187 0.003001 -0.003999 -281772.000000 1 0 0
5.827073 -3.810286 -0.314215 6.969347 -0.579108 1.615897 0.001845 -0.002994 -974813.000000 1 0 0
-1.686927 -4.508286 4.179385 6.374765 1.212742 0.855801 0.005435 -0.001691 1235140.000000 1 0 0
9.922973 -2.042486 -2.652515 10.472487 -0.202999 1.826870 0.001754 -0.004194 -2548840.000000 1 0 0
13.555173 6.964614 1.444285 15.307989 0.474625 1.476307 0.002310 0.003432 -321008.000000 1 0 0
5.353173 -3.689686 -3.220815 7.255611 -0.603476 2.030750 0.001145 -0.005932 -2758720.000000 1 0 0
-12.313427 -5.909786 1.865385 13.784981 0.447476 1.435060 0.003561 -0.001602 2271330.000000 1 0 0
3.748873 -5.742586 -0.284315 6.863831 -0.992441 1.612230 0.003447 -0.001752 -657368.000000 1 0 0
-5.157727 3.719914 -8.675215 10.756359 -0.624833 2.509038 0.001294 -0.004963 404810.000000 1 0 0
-1.737927 -9.307786 7.253285 11.927507 1.386204 0.917114 0.006696 -0.002155 1293010.000000 1 0 0
-7.459927 -7.373486 2.604785 10.807577 0.779571 1.327385 0.005395 -0.002655 -4200250.000000 1 0 0
-5.669627 13.110614 -8.488515 16.615889 -1.162636 2.106990 0.009913 -0.007515 2239960.000000 1 0 0
9.196773 -13.806986 -4.173015 17.106360 -0.983189 1.817228 0.021907 -0.002014 1535630.000000 1 0 0
-6.540427 -5.140686 -6.820115 10.757221 0.666137 2.257515 0.009675 -0.006173 -298072.000000 1 0 0
3.439873 0.527814 -6.204115 7.113533 0.152253 2.630390 0.002402 -0.008065 442403.000000 1 0 0
-3.582527 5.749614 5.049185 8.449073 -1.013572 0.930289 -0.003527 0.002835 134201.000000 1 0 0
-2.673427 -10.772886 -2.922715 11.478003 1.327548 1.828268 0.010438 0.000344 1718570.000000 1 0 0
-12.587227 -0.363286 1.754485 12.714105 0.028853 1.432359 0.002164 -0.002868 556583.000000 1 0 0
8.382773 -11.955886 -6.068615 15.812722 -0.959304 1.964683 0.012534 -0.005224 1061840.000000 1 0 0
6.080873 3.876414 1.082985 7.292219 0.567521 1.421733 -0.003220 0.000606 -293165.000000 1 0 0
3.504873 -4.834486 -10.913515 12.440305 -0.943506 2.640942 -0.004662 -0.000688 -1108320.000000 1 0 0
-7.668527 4.285614 8.681285 12.350607 -0.509618 0.791325 -0.004149 0.004533 1487540.000000 1 0 0
8.171373 8.768414 4.115085 12.672425 0.820628 1.240073 0.006169 0.000253 1331640.000000 1 0 0
0.343773 10.560914 -6.255215 12.279202 1.538256 2.105302 -0.000227 0.002099 610578.000000 1 0 0
5.375173 8.172414 3.316985 10.328757 0.989012 1.243863 0.001851 0.002189 3049630.000000 1 0 0
8.114473 6.712614 -3.731015 11.172481 0.691131 1.911284 0.001937 -0.000997 788784.000000 1 0 0
10.560873 2.525314 -8.219915 13.618967 0.234713 2.218760 0.001813 -0.001828 -1234810.000000 1 0 0
3.310873 -12.483486 -0.243815 12.917382 -1.311545 1.589672 0.001075 -0.000241 -2278480.000000 1 0 0
0.615873 2.144514 5.228285 5.684470 1.291137 0.403356 -0.001102 -0.000229 1238520.000000 1 0 0
-4.963227 13.486814 1.513085 14.450509 -1.218172 1.465896 -0.004671 0.008013 826463.000000 1 0 0
8.317273 4.133614 -7.969415 12.238275 0.461238 2.279945 -0.000944 -0.001260 -501632.000000 1 0 0
-13.823127 -0.483186 -3.683415 14.313625 0.034941 1.831061 0.005051 -0.002265 211488.000000 1 0 0
-8.569727 0.036214 -0.492015 8.583916 -0.004226 1.628146 -0.003122 -0.003365 -117157.000000 1 0 0
1.831873 -3.799186 -1.120915 4.364175 -1.121510 1.830552 0.003205 -0.001819 -206257.000000 1 0 0
8.052673 -5.605786 -0.193715 9.813659 -0.608131 1.590537 0.003875 -0.003733 2569970.000000 1 0 0
-2.351227 -1.213086 7.345485 7.807432 0.476316 0.345718 0.002208 -0.000876 1568090.000000 1 0 0
-5.702827 8.908814 -11.765715 15.821544 -1.001389 2.409312 0.003104 0.000900 -551426.000000 1 0 0
-6.137427 9.254714 -8.925915 14.247445 -0.985220 2.247841 0.005851 -0.001831 527836.000000 1 0 0
-1.454327 14.041314 -8.304415 16.377939 -1.467589 2.102554 0.015461 -0.003938 -1431420.000000 1 0 0
-1.516027 7.248114 9.809185 12.290387 -1.364607 0.646630 0.001783 0.001280 1081630.000000 1 0 0
9.982973 2.363414 -4.050315 11.029530 0.232465 1.946820 0.000001 -0.003387 -2345070.000000 1 0 0
-2.958927 -7.467386 -6.912315 10.597037 1.193530 2.281395 0.007740 -0.002426 1135910.000000 1 0 0
-5.574327 -4.939586 -1.632615 7.624832 0.725100 1.786585 0.005945 -0.002770 -188679.000000 1 0 0
5.704473 7.369014 -8.762415 12.791532 0.912039 2.325423 -0.003379 -0.001019 233662.000000 1 0 0
-9.480527 5.289514 -7.519515 13.206152 -0.508915 2.176566 -0.000342 -0.000435 935960.000000 1 0 0
-0.423027 6.117714 -5.334315 8.127748 -1.501758 2.286713 0.002264 -0.000883 -1479820.000000 1 0 0
-8.200627 2.860314 -6.368115 10.769613 -0.335598 2.203471 0.000297 -0.003149 1533880.000000 1 0 0
3.710173 1.368214 -1.967515 4.416844 0.353301 2.032481 -0.002008 -0.003861 2408720.000000 1 0 0
-6.722727 12.517414 -3.540015 14.642828 -1.077934 1.814973 0.002760 0.001562 201518.000000 1 0 0
-6.520027 3.153314 -2.289915 7.595910 -0.450470 1.877027 -0.003224 -0.002218 -912713.000000 1 0 0
12.037473 3.976314 -0.758315 12.699877 0.319043 1.630542 -0.002535 0.000375 -835086.000000 1 0 0
2.361573 12.332014 -5.453715 13.689361 1.381588 1.980558 0.005482 -0.001139 -196010.000000 1 0 0
-9.124327 -1.349686 -4.338115 10.192852 0.146857 2.010425 0.001299 -0.002606 -591147.000000 1 0 0
-1.167527 5.769114 3.457285 6.826318 -1.371118 1.039717 -0.001855 0.000366 474133.000000 1 0 0
11.404973 2.568114 12.068485 16.802290 0.221481 0.769492 0.026673 0.000929 -771042.000000 1 0 0
-7.055427 -2.355686 -5.755815 9.405196 0.322245 2.229361 0.008589 -0.006978 652919.000000 1 0 0
7.440973 -7.272786 10.824085 15.014070 -0.773968 0.765654 0.008676 -0.002470 16235.900000 1 0 0
-5.383127 -1.969886 -10.933515 12.345050 0.350802 2.658709 0.009392 -0.005931 -334654.000000 1 0 0
0.789973 -6.224086 4.417885 7.673396 -1.444549 0.957287 0.002637 -0.000187 92139.100000 1 0 0
-4.889427 -9.379586 7.385585 12.900775 1.090267 0.961255 0.003207 -0.001893 3405670.000000 1 0 0
-8.715427 9.314314 1.666385 12.864367 -0.818603 1.440896 0.000305 -0.003202 996779.000000 1 0 0
-8.045627 7.264714 -9.160515 14.192365 -0.734437 2.272414 0.004260 -0.000621 458220.000000 1 0 0
-1.313427 -10.592786 -0.170115 10.675259 1.447433 1.586732 0.008391 0.000744 -1046080.000000 1 0 0
-4.030827 10.348814 7.787485 13.564308 -1.199377 0.959272 0.002167 0.000755 2452250.000000 1 0 0
-7.520027 12.079314 2.031685 14.373183 -1.013958 1.428969 -0.001586 0.000314 37210.200000 1 0 0
-8.156327 -8.207786 -2.902015 11.929590 0.788543 1.816524 0.009645 -0.002383 151593.000000 1 0 0
5.477473 4.575614 -7.948515 10.682595 0.695928 2.409926 -0.000893 0.001244 1011220.000000 1 0 0
-8.869027 -0.207186 -10.114315 13.453696 0.023356 2.421564 0.001444 -0.007499 -1467770.000000 1 0 0
-15.138727 -2.176186 -1.642815 15.382317 0.142772 1.677799 0.005819 -0.002341 -75342.900000 1 0 0
-7.249427 -5.835186 8.709485 12.745929 0.677732 0.818503 0.004367 -0.004217 -1420740.000000 1 0 0
8.123773 3.402214 -0.974615 8.861186 0.396605 1.681006 -0.000251 0.000879 188600.000000 1 0 0
11.937073 7.306414 -5.736015 15.125451 0.549253 1.959760 0.004578 -0.003822 -772145.000000 1 0 0
3.878673 13.363414 -9.518215 16.858866 1.288312 2.170723 0.006686 -0.008991 1221830.000000 1 0 0
-9.665027 5.454614 -0.544715 11.111358 -0.513806 1.619839 -0.001637 -0.002616 1590610.000000 1 0 0
11.378173 -1.232686 -5.119315 12.537533 -0.107917 1.991408 0.011320 -0.006532 -2103630.000000 1 0 0
10.526373 1.692314 -1.134915 10.721776 0.159405 1.676846 0.000846 -0.002331 -3266080.000000 1 0 0
14.547373 5.018414 4.820585 16.126022 0.332187 1.267223 0.012454 -0.008096 2009790.000000 1 0 0
0.872373 -0.886686 10.333385 10.407982 -0.793535 0.119799 -0.000241 -0.001404 3275440.000000 1 0 0
-7.767927 1.298014 -12.442215 14.725293 -0.165569 2.577278 -0.000838 -0.006840 -2740670.000000 1 0 0
3.147673 -11.549686 -7.758315 14.265151 -1.304725 2.145832 -0.004852 0.001889 461275.000000 1 0 0
2.898873 5.019414 -6.688915 8.850964 1.047061 2.427560 -0.000020 -0.000043 -1525960.000000 1 0 0
6.393773 8.017314 0.557885 10.269805 0.897584 1.516447 0.002224 -0.000762 254176.000000 1 0 0
-9.113027 -5.447786 6.678185 12.542878 0.538802 1.009329 0.001193 -0.003790 -66918.400000 1 0 0
-0.265527 -6.814486 -11.800615 13.629462 1.531851 2.617576 -0.001688 0.005816 2383650.000000 1 0 0
6.410573 -13.381086 -4.586415 15.530103 -1.124027 1.870591 0.003572 -0.003495 598390.000000 1 0 0
-3.308227 -0.398786 10.039185 10.577742 0.119965 0.320475 0.000177 0.001419 -493083.000000 1 0 0
8.595373 8.418614 7.008585 13.923856 0.775009 1.043324 0.007222 0.000565 -174518.000000 1 0 0
-7.888727 5.658914 -2.715015 10.081003 -0.622270 1.843483 -0.001729 -0.002731 9551.690000 1 0 0
-5.314627 5.876814 -6.420415 10.198232 -0.835590 2.251785 -0.000032 -0.000081 -997083.000000 1 0 0
3.329773 -13.668086 2.546885 14.296524 -1.331835 1.391693 0.015075 -0.006165 -1936740.000000 1 0 0
-11.311827 -7.031286 6.454685 14.800654 0.556141 1.119527 0.010679 -0.003852 -936992.000000 1 0 0
-12.839527 -3.722586 -6.831215 15.012548 0.282194 2.043206 0.012032 -0.005468 -775187.000000 1 0 0
6.040273 0.424514 -7.292115 9.478399 0.070165 2.448604 -0.002334 -0.000804 446747.000000 1 0 0
-1.372927 2.198514 -2.472015 3.581794 -1.012571 2.332508 0.001431 -0.006651 3471070.000000 1 0 0
7.580873 0.922414 -5.032315 9.145747 0.121081 2.153443 -0.001385 -0.002765 -329061.000000 1 0 0
3.632173 -4.444986 10.881185 12.302470 -0.885692 0.485436 -0.001347 0.000742 -762416.000000 1 0 0
5.960673 -2.477986 2.063785 6.777112 -0.393986 1.261359 0.000415 -0.004320 -1273640.000000 1 0 0
-6.251827 7.754314 1.180485 10.030367 -0.892263 1.452832 -0.007579 -0.000867 627540.000000 1 0 0
5.990973 -3.380186 7.969185 10.527361 -0.513690 0.712091 0.002172 -0.005248 117132.000000 1 0 0
6.853473 -2.254586 -7.782015 10.611928 -0.317818 2.393999 -0.004057 -0.002510 547202.000000 1 0 0
12.008573 -8.132586 -5.781315 15.613084 -0.595281 1.950114 0.028230 -0.010486 -1210250.000000 1 0 0
5.561073 -9.592986 9.966885 14.909383 -1.045436 0.838610 0.000905 0.003392 2629040.000000 1 0 0
-6.627027 7.589814 -4.480015 11.026935 -0.853017 1.989175 -0.001159 0.000404 707688.000000 1 0 0
-1.354727 -7.636786 9.784985 12.486061 1.395228 0.670240 0.000221 -0.000873 -1326350.000000 1 0 0
10.078573 -9.272686 0.758385 13.716249 -0.743777 1.515477 0.013731 -0.007133 707279.000000 1 0 0
11.052373 6.040314 9.918185 16.031554 0.500165 0.903752 0.014133 0.000731 1998310.000000 1 0 0
-15.249227 -4.191186 -5.065215 16.606064 0.268223 1.880758 0.017714 -0.006633 1374710.000000 1 0 0
-4.832427 -4.668486 7.816485 10.307500 0.768145 0.710049 0.003014 -0.003103 -1352150.000000 1 0 0
3.086873 11.004714 -10.985215 15.852680 1.297320 2.336378 0.002213 -0.004115 -977078.000000 1 0 0
9.902673 -1.410786 1.535685 10.119861 -0.141513 1.418458 0.000917 -0.002797 -2431310.000000 1 0 0
-1.682427 -2.619486 0.709385 3.193038 0.999872 1.346761 0.006471 -0.005865 695159.000000 1 0 0
1.672473 3.010714 0.930885 3.567648 1.063735 1.306817 -0.006278 -0.001855 649895.000000 1 0 0
-9.009227 -2.333186 4.289985 10.247629 0.253410 1.138858 -0.000428 -0.001969 5017990.000000 1 0 0
9.950973 4.863814 -2.645915 11.387687 0.454630 1.805288 0.003135 -0.000566 1294120.000000 1 0 0
2.514873 8.471314 2.499985 9.183554 1.282214 1.295093 -0.001290 0.000397 1952610.000000 1 0 0
-8.113127 -0.098786 2.422185 8.467560 0.012175 1.280689 -0.003775 -0.003841 1689750.000000 1 0 0
6.968373 2.033814 13.846085 15.633576 0.283976 0.482876 0.009061 -0.002049 -1047070.000000 1 0 0
6.832973 4.407614 3.843585 8.993872 0.572888 1.129230 -0.003255 0.001458 -621185.000000 1 0 0
-0.341627 3.282014 7.827285 8.494393 -1.467079 0.398962 -0.002568 0.001979 412522.000000 1 0 0
2.709573 -10.198486 9.227785 14.017950 -1.311112 0.852260 0.000016 0.000626 893105.000000 1 0 0
1.377673 -4.601086 6.821585 8.342781 -1.279869 0.613456 -0.001482 -0.001304 162906.000000 1 0 0
-0.181027 10.773014 -1.902015 10.941127 -1.553994 1.745525 0.001729 -0.000422 4157720.000000 1 0 0
8.789573 5.526114 8.132985 13.188631 0.561264 0.906295 0.000101 0.001467 -1883890.000000 1 0 0
2.601573 11.460314 -2.823315 12.086277 1.347572 1.806571 0.007485 -0.005904 1883050.000000 1 0 0
1.511773 2.453614 -6.715215 7.307516 1.018593 2.736197 0.003447 -0.004900 32649.700000 1 0 0
-13.690427 -2.218986 3.477585 14.298436 0.160686 1.325118 0.008550 -0.004306 -87324.300000 1 0 0
-0.932627 -10.546386 -5.351115 11.862988 1.482595 2.038767 0.001632 0.001262 1151130.000000 1 0 0
-5.633627 2.848814 0.439485 6.328241 -0.468181 1.501292 -0.001217 -0.003433 -1072520.000000 1 0 0
3.768173 7.233514 -4.926915 9.528764 1.090543 2.114206 -0.000556 -0.001121 -1815050.000000 1 0 0
3.011773 9.706214 -6.410915 12.015873 1.269923 2.133574 0.004213 -0.001098 400155.000000 1 0 0
-12.166727 1.736214 -2.582915 12.558469 -0.141745 1.777946 0.003289 -0.002978 303263.000000 1 0 0
-2.418727 9.640214 -5.753415 11.484152 -1.324971 2.095536 -0.003337 0.001062 1685130.000000 1 0 0
-1.247927 3.322814 1.758585 3.961191 -1.211532 1.110790 -0.003767 -0.001781 -860800.000000 1 0 0
12.851173 3.679314 9.705485 16.519275 0.278843 0.942800 0.028523 -0.003289 457277.000000 1 0 0
-2.696027 -9.646286 11.662585 15.373200 1.298262 0.709587 -0.001149 -0.003975 -67556.400000 1 0 0
-0.400927 -8.796186 -7.549315 11.598525 1.525248 2.279547 0.001509 0.001101 2312470.000000 1 0 0
2.302673 7.657714 -0.447815 8.008959 1.278698 1.626740 0.000103 0.000617 1832960.000000 1 0 0
-11.830327 -1.229786 -5.594115 13.143939 0.103580 2.010426 0.004870 0.001581 -962048.000000 1 0 0
-6.192127 -7.297586 -11.025815 14.600198 0.867164 2.426729 0.011460 -0.000485 -47999.200000 1 0 0
-4.763827 -2.144986 -1.374715 5.402301 0.423075 1.828094 0.003967 -0.004656 -1686980.000000 1 0 0
-10.389827 3.769614 4.514385 11.938935 -0.348048 1.183028 0.002043 -0.000602 3562790.000000 1 0 0
6.759873 9.360314 -3.560615 12.082605 0.945336 1.869927 0.004423 0.001293 1185280.000000 1 0 0
1.294873 -2.694686 -11.465015 11.848401 -1.122847 2.886510 0.002259 -0.003789 -1453670.000000 1 0 0
1.121973 8.755314 7.618585 11.660068 1.443343 0.858741 -0.004289 0.004988 201282.000000 1 0 0
10.334573 0.291014 10.423685 14.681325 0.028152 0.781304 0.014398 -0.004373 1310260.000000 1 0 0
-5.236027 -0.796786 -3.926915 6.593293 0.151015 2.208799 0.005452 -0.007438 -1854320.000000 1 0 0
11.630573 5.606114 5.488685 14.029412 0.449157 1.168832 0.001550 0.000705 2648610.000000 1 0 0
9.945173 -3.479186 3.634785 11.145531 -0.336529 1.238600 0.008870 -0.008457 -2823550.000000 1 0 0
7.328673 -1.675286 -3.432215 8.264147 -0.224732 1.999084 -0.001510 -0.003307 -2827670.000000 1 0 0
2.332173 9.278214 10.496785 14.202351 1.324538 0.739081 0.000516 0.004070 2291300.000000 1 0 0
2.375073 -10.799786 6.354985 12.753909 -1.354324 1.049185 0.001599 0.001232 736178.000000 1 0 0
5.930073 -7.588586 -1.289415 9.716738 -0.907471 1.703889 -0.002737 -0.003024 2853430.000000 1 0 0
-0.267927 -5.450786 -2.373415 5.951130 1.521682 1.981023 0.006958 -0.000090 2165690.000000 1 0 0
7.598873 -4.986286 2.769785 9.501454 -0.580713 1.274990 0.002073 -0.004985 1595500.000000 1 0 0
-2.739127 -12.484386 4.639585 13.597370 1.354814 1.222590 0.010929 0.000165 116006.000000 1 0 0
4.801473 -10.315786 -1.144215 11.435856 -1.135169 1.671019 -0.000272 -0.002606 778561.000000 1 0 0
0.958273 0.204014 1.120885 1.488722 0.209766 0.718312 -0.001919 -0.002591 -1851640.000000 1 0 0
-1.679827 8.479014 2.438085 8.981078 -1.375213 1.295877 -0.003903 0.001701 -509130.000000 1 0 0
-7.490527 0.646414 -3.163515 8.156818 -0.086084 1.969080 -0.001615 -0.001745 -2962150.000000 1 0 0
4.330873 -6.358486 12.904585 15.023818 -0.972856 0.537597 0.006830 0.000368 -1130690.000000 1 0 0
-5.248527 13.109914 8.532685 16.499200 -1.189990 1.027270 0.011171 -0.005277 1243880.000000 1 0 0
0.578173 6.022714 8.341385 10.304663 1.475091 0.627536 -0.002843 0.004283 2958960.000000 1 0 0
7.989973 -0.533386 -0.738015 8.041694 -0.066658 1.662699 -0.000432 -0.002876 4502200.000000 1 0 0
2.403273 -9.230386 -2.497215 9.859606 -1.316086 1.826863 -0.002782 0.000582 1881920.000000 1 0 0
-7.290327 12.095314 4.920485 14.955155 -1.028365 1.235535 0.002505 -0.002313 -4254.160000 1 0 0
-14.965127 0.357514 0.087085 14.969650 -0.023885 1.564979 0.007196 -0.006374 -111032.000000 1 0 0
6.846173 -0.496486 3.944285 7.916689 -0.072393 1.049247 -0.002572 -0.001714 2048440.000000 1 0 0
-4.214327 -5.076586 5.090885 8.333630 0.877940 0.913619 0.006184 -0.003184 803113.000000 1 0 0
2.906273 5.204914 6.959085 9.163319 1.061549 0.708329 -0.006280 0.002261 -280782.000000 1 0 0
2.090673 -7.204886 1.745485 7.702468 -1.288378 1.342197 0.000906 -0.000043 1794740.000000 1 0 0
-2.498427 6.399114 -1.797815 7.100911 -1.198564 1.826763 -0.002137 0.000858 818576.000000 1 0 0
2.779173 -3.708886 -6.568715 8.039133 -0.927725 2.527146 -0.002309 -0.004614 315670.000000 1 0 0
-4.953527 0.880614 -12.095615 13.100260 -0.175937 2.747411 0.003219 -0.001483 540133.000000 1 0 0
-7.389227 6.461314 -11.953615 15.467326 -0.718503 2.454085 0.005287 -0.003311 3702010.000000 1 0 0
-0.902727 11.265714 -8.950215 14.416573 -1.490837 2.240595 0.002697 0.000447 820671.000000 1 0 0
4.586473 5.829914 -0.587315 7.441006 0.904209 1.649808 -0.000945 0.000065 1831630.000000 1 0 0
-2.740327 13.329814 3.615085 14.080560 -1.368042 1.311146 -0.002843 0.006507 1599190.000000 1 0 0
1.379173 -7.913286 10.375785 13.121704 -1.398244 0.658788 -0.000930 0.000569 -776420.000000 1 0 0
12.960773 -0.268086 -1.037315 13.004981 -0.020681 1.650644 0.006551 -0.005873 1490290.000000 1 0 0
-1.073127 3.084614 -5.411415 6.320590 -1.235997 2.598581 0.005127 -0.007421 1331910.000000 1 0 0
6.469773 1.075614 7.308785 9.820043 0.164745 0.731352 -0.000550 -0.000382 761287.000000 1 0 0
5.396873 -6.079786 6.925285 10.679401 -0.844833 0.865222 -0.000935 -0.001660 1332000.000000 1 0 0
12.182073 -4.950486 2.611585 13.406364 -0.385990 1.374741 0.012409 -0.007946 88833.100000 1 0 0
4.334173 -9.164086 13.884085 17.191083 -1.129020 0.630669 0.003527 0.005123 206034.000000 1 0 0
-2.800327 -4.232786 -1.420115 5.270203 0.986323 1.843630 0.010082 -0.005231 2027670.000000 1 0 0
-9.274127 -5.345386 -7.568315 13.109614 0.522868 2.186227 0.010782 -0.002194 116066.000000 1 0 0
-10.618127 -3.194986 7.836885 13.578266 0.292282 0.955545 0.004339 -0.002999 81681.000000 1 0 0
12.010773 -0.707586 1.596985 12.137121 -0.058845 1.438835 0.002771 -0.003638 -834878.000000 1 0 0
-7.557527 4.710114 4.331285 9.902596 -0.557329 1.118103 -0.000665 -0.001818 2725360.000000 1 0 0
-1.144327 10.624214 6.992585 12.770264 -1.463501 0.991342 -0.000706 0.004529 1608050.000000 1 0 0
7.385773 -9.942486 1.877785 12.527121 -0.931887 1.420332 0.007148 -0.004966 2599970.000000 1 0 0
-4.379927 -1.705886 1.713585 5.003017 0.371403 1.221209 -0.000231 -0.003069 724841.000000 1 0 0
6.692073 -15.037086 -0.914415 16.484355 -1.152077 1.626297 0.022805 -0.003494 -234824.000000 1 0 0
-10.395927 1.710614 2.355585 10.795845 -0.163085 1.350833 -0.002912 -0.000290 137474.000000 1 0 0
-2.864327 8.394114 -11.422215 14.461415 -1.241955 2.481346 0.000692 0.000317 -530056.000000 1 0 0
-1.229027 -5.061986 -6.842415 8.599584 1.332610 2.490906 0.001109 -0.002941 50411.700000 1 0 0
12.806273 -0.563386 6.381485 14.319266 -0.043965 1.108888 0.012516 -0.010687 2484170.000000 1 0 0
5.964473 -13.264786 3.646885 14.994307 -1.148236 1.325114 0.013231 -0.005323 1070310.000000 1 0 0
-5.518427 3.531314 -4.909415 8.186915 -0.569252 2.213880 0.002535 -0.004624 1379290.000000 1 0 0
-4.430827 8.026314 3.464185 9.800741 -1.066390 1.209527 -0.005665 0.001277 20081.900000 1 0 0
14.109573 6.137714 -3.996115 15.897186 0.410313 1.824894 0.023343 -0.000181 798668.000000 1 0 0
-6.722727 -8.474786 5.284685 12.039309 0.900177 1.116364 0.007772 -0.001591 1658280.000000 1 0 0
1.637273 11.392414 2.675685 11.816389 1.428058 1.342377 0.001927 -0.000840 2032760.000000 1 0 0
-7.387627 7.265514 5.962185 11.954596 -0.777065 1.048657 -0.001582 -0.002484 638895.000000 1 0 0
-17.530327 -4.013486 5.119385 18.698356 0.225066 1.293467 0.032007 -0.009931 454734.000000 1 0 0
7.499173 -13.040286 -8.516915 17.286541 -1.048904 2.085975 0.016165 -0.007650 -600489.000000 1 0 0
-2.366727 12.829314 -2.752415 13.332985 -1.388369 1.778728 -0.003668 0.003213 1148740.000000 1 0 0
-5.433027 14.028114 -5.751815 16.105562 -1.201290 1.935992 0.010975 0.000116 3069290.000000 1 0 0
-5.666827 2.469114 7.437585 9.670942 -0.410910 0.693419 0.000335 0.000677 1564530.000000 1 0 0
-7.391427 5.087814 1.382485 9.079114 -0.602857 1.417931 -0.002092 -0.001708 2160710.000000 1 0 0
10.666973 -5.680086 -4.950915 13.059834 -0.489303 1.959614 0.011149 -0.006037 1822160.000000 1 0 0
-9.509227 -0.767286 6.863685 11.752629 0.080514 0.947133 -0.001344 -0.000033 150744.000000 1 0 0
-11.268027 -4.540386 -2.629815 12.429781 0.383042 1.783981 0.001920 -0.000696 2528830.000000 1 0 0
6.427473 -4.312686 13.546485 15.601889 -0.590981 0.519114 0.010986 -0.006962 -24329.200000 1 0 0
0.384973 10.387714 -11.617315 15.588932 1.533753 2.411674 0.003302 -0.000350 -96196.700000 1 0 0
-11.799727 -3.141886 1.407385 12.291694 0.260230 1.456046 0.000772 -0.003028 4202780.000000 1 0 0
5.214473 6.013514 5.433685 9.637324 0.856443 0.971796 -0.003315 0.002226 -4424290.000000 1 0 0
-7.133627 -0.051886 8.123885 10.811514 0.007273 0.720599 -0.002181 0.001234 296542.000000 1 0 0
1.695773 2.035214 9.664385 10.020882 0.876127 0.267538 -0.000274 -0.000603 2713000.000000 1 0 0
10.487073 -4.919386 -1.971315 11.750112 -0.438616 1.739363 0.006030 -0.004671 1948340.000000 1 0 0
-9.648227 -2.388086 -1.751615 10.092541 0.242639 1.745235 -0.000787 -0.000871 59623.100000 1 0 0
-1.953327 -5.156486 -9.867915 11.304007 1.208690 2.632029 0.007212 -0.003141 239386.000000 1 0 0
7.620673 -1.627486 6.539285 10.172788 -0.210401 0.872621 0.002413 -0.005207 2275040.000000 1 0 0
1.560873 -11.855486 -2.605215 12.238301 -1.439891 1.785312 -0.000032 0.000928 -3401560.000000 1 0 0
-0.736627 -1.556986 4.789785 5.090075 1.128891 0.345209 0.003420 -0.001769 1392360.000000 1 0 0
7.553273 1.463514 9.947685 12.575780 0.191387 0.658323 0.001391 -0.000611 454434.000000 1 0 0
-3.770827 10.766914 -8.035015 13.953746 -1.233922 2.184418 0.003442 0.001579 2549190.000000 1 0 0
-9.723827 12.634714 6.386085 17.174717 -0.914861 1.189816 0.004447 -0.004232 496860.000000 1 0 0
-2.435727 -2.421286 -11.061215 11.582136 0.782425 2.840536 0.012385 -0.005776 -2864500.000000 1 0 0
1.139973 -11.928686 11.007485 16.271380 -1.475520 0.827805 -0.002200 0.004156 2213940.000000 1 0 0
1.441773 3.477114 -1.916315 4.223896 1.177728 2.041692 0.000403 -0.003305 2399380.000000 1 0 0
-1.848227 -9.385186 -12.094315 15.419796 1.376354 2.472423 -0.000486 0.004066 326657.000000 1 0 0
1.264473 -2.634886 1.586185 3.325282 -1.123360 1.073549 0.006360 -0.002464 2866320.000000 1 0 0
-1.006627 -2.168086 -6.621415 7.039676 1.136120 2.795146 0.005352 -0.008610 -4242.720000 1 0 0
1.765973 5.808214 4.075885 7.312103 1.275630 0.979526 -0.007752 0.002972 -18947.600000 1 0 0
-10.980127 8.630414 3.579785 14.417423 -0.666148 1.319876 -0.003757 -0.003825 1698100.000000 1 0 0
-16.426927 -1.525886 3.868185 16.945062 0.092624 1.340488 0.017547 -0.005145 -384095.000000 1 0 0
-12.206127 0.230814 6.727585 13.939269 -0.018907 1.067135 0.000577 0.000478 -1232610.000000 1 0 0
-5.056227 3.058814 4.624685 7.503965 -0.544058 0.906762 -0.003479 0.000589 1571820.000000 1 0 0
5.097873 -6.034286 3.970285 8.841045 -0.869318 1.105067 0.000176 -0.002968 187579.000000 1 0 0
9.869273 3.408814 6.354585 12.223065 0.332568 1.024080 -0.001667 0.003457 21740.800000 1 0 0
-12.066327 5.861314 3.149485 13.779351 -0.452189 1.340192 0.002169 -0.000440 1728220.000000 1 0 0
-4.948827 12.334014 -1.249315 13.348392 -1.189227 1.664526 -0.008400 0.006713 1930490.000000 1 0 0
-1.774127 -12.235786 10.275985 16.076624 1.426805 0.877354 0.007455 -0.003607 2153100.000000 1 0 0
5.081773 6.358014 13.978085 16.175154 0.896500 0.527298 0.006429 0.001035 1041950.000000 1 0 0
12.876073 -3.743686 -5.878115 14.641061 -0.282947 1.983930 0.012330 -0.005827 963987.000000 1 0 0
3.509873 -2.544386 6.441785 7.764644 -0.627257 0.592351 -0.005226 -0.001233 -236382.000000 1 0 0
7.204573 -11.811686 -0.662315 13.851370 -1.023091 1.618630 0.008716 -0.000559 -412281.000000 1 0 0
-6.082927 -6.529886 -4.146215 9.840351 0.820820 2.005728 0.010770 -0.003164 -411875.000000 1 0 0
0.236073 -8.938486 5.014885 10.251894 -1.544392 1.059662 0.007328 -0.001777 2228810.000000 1 0 0
-10.230127 2.483814 -0.398415 10.534874 -0.238185 1.608624 -0.000098 -0.001392 -656710.000000 1 0 0
-1.921227 8.954614 -0.407315 9.167450 -1.359449 1.615242 -0.001965 -0.000153 -335712.000000 1 0 0
-3.556527 2.289314 -6.608415 7.846081 -0.571929 2.572252 0.006059 -0.007594 -804965.000000 1 0 0
-12.679127 3.031714 6.336585 14.494960 -0.234704 1.118360 0.003559 0.000269 -514984.000000 1 0 0
11.379973 1.603714 7.954385 13.976692 0.140002 0.965364 0.008193 -0.006380 -2460280.000000 1 0 0
6.034673 2.595314 -3.187615 7.301632 0.406155 2.022570 -0.001062 -0.001628 867792.000000 1 0 0
10.449473 -2.501086 6.420285 12.516668 -0.234931 1.032192 0.010011 -0.009649 2669480.000000 1 0 0
-1.048827 10.955714 4.069985 11.734244 -1.475354 1.216589 0.000916 0.002653 1983720.000000 1 0 0
-1.675327 -12.199586 7.369885 14.351022 1.434323 1.031486 0.008482 0.001312 -341856.000000 1 0 0
8.097573 8.656614 -7.717815 14.144692 0.818753 2.147941 0.003313 -0.002875 1947370.000000 1 0 0
-4.666727 -5.956286 -8.715015 11.541541 0.906200 2.426603 0.010817 -0.005357 693165.000000 1 0 0
-8.463127 -5.370086 -11.598515 15.329315 0.565421 2.428929 0.010591 -0.003674 1774000.000000 1 0 0
6.116773 -0.673586 -9.962615 11.709924 -0.109679 2.588271 -0.001989 0.000940 -82547.000000 1 0 0
-11.145127 -5.470286 -5.422715 13.547831 0.456279 1.982602 0.004025 -0.004121 -362478.000000 1 0 0
3.906973 8.953914 -2.693415 10.133681 1.159358 1.839818 0.006594 -0.002791 -22542.700000 1 0 0
11.632173 -10.395386 -3.974715 16.098753 -0.729310 1.820272 0.025076 -0.011358 -1094730.000000 1 0 0
3.954773 -11.314486 3.990585 12.632600 -1.234539 1.249396 0.004396 -0.002658 184358.000000 1 0 0
-1.007827 0.847814 3.188585 3.449866 -0.699380 0.391695 0.001426 -0.001859 -400059.000000 1 0 0
-10.634727 -5.075186 4.452185 12.596701 0.445264 1.209550 0.007320 -0.004846 2278130.000000 1 0 0
4.591273 -8.649186 2.725785 10.164552 -1.082788 1.299308 -0.000181 -0.000907 5077070.000000 1 0 0
-3.705727 -5.770486 2.586385 7.329414 0.999934 1.210152 0.006724 -0.001662 2258960.000000 1 0 0
9.924173 5.053914 12.409985 16.674501 0.471023 0.731386 0.014195 0.004295 2017220.000000 1 0 0
1.654173 -12.313186 -5.258415 13.490803 -1.437254 1.971187 -0.001115 -0.001306 2480040.000000 1 0 0
9.856873 -10.771386 -1.705415 14.699971 -0.829702 1.687073 0.014571 -0.006392 -340059.000000 1 0 0
9.676773 -4.418886 -9.169915 14.044708 -0.428369 2.282215 0.015138 -0.002226 1832400.000000 1 0 0
-7.404627 -3.158686 -13.040215 15.324915 0.403210 2.588523 0.002970 -0.003430 2857160.000000 1 0 0
0.408873 6.192914 -2.534015 6.703775 1.504869 1.958429 -0.000819 -0.000090 2422400.000000 1 0 0
-6.049027 -9.425886 0.877085 11.234204 1.000245 1.492644 0.005888 0.002814 -194583.000000 1 0 0
-8.948527 -4.041586 0.559985 9.834843 0.424224 1.513827 -0.005797 -0.000574 1302890.000000 1 0 0
1.770673 3.868214 12.115985 12.841162 1.141517 0.337676 0.004588 -0.002105 835315.000000 1 0 0
6.655673 4.268314 9.652285 12.477303 0.570238 0.686313 -0.001126 0.003621 2156620.000000 1 0 0
-8.207927 9.902914 -3.559515 13.345708 -0.878716 1.840780 -0.003233 0.000904 2885310.000000 1 0 0
16.492073 2.108814 -5.944015 17.656922 0.127178 1.914142 0.027569 -0.004852 -345374.000000 1 0 0
-10.897727 2.687014 -5.140015 12.345050 -0.241744 2.000237 0.000012 -0.000721 889091.000000 1 0 0
-13.695627 4.028314 1.438785 14.348087 -0.286064 1.470350 0.004091 0.001148 311627.000000 1 0 0
-17.482027 10.439814 3.301385 20.627897 -0.538339 1.410060 0.032426 -0.007180 354046.000000 1 0 0
-14.269427 2.898514 -1.207115 14.610786 -0.200401 1.653509 0.004356 -0.004493 37937.400000 1 0 0
-14.402927 5.079814 5.047085 16.084834 -0.339072 1.251626 -0.000015 0.001947 1624870.000000 1 0 0
-17.401727 7.545714 2.962885 19.197307 -0.409148 1.415838 0.013458 0.001369 -136679.000000 1 0 0
-14.643027 12.608214 -3.654215 19.665670 -0.710868 1.757700 0.025482 -0.021881 -1057840.000000 1 0 0
-8.480527 12.515514 -9.550115 17.881894 -0.975262 2.134199 0.025352 -0.016940 2843280.000000 1 0 0
-12.451827 8.781014 -9.980915 18.214633 -0.614207 2.150722 0.015921 -0.006245 -1299760.000000 1 0 0
-13.783827 -3.486986 -12.349515 18.832511 0.247778 2.285979 0.026421 -0.003315 -576572.000000 1 0 0
-14.754527 5.785414 -7.789515 17.659095 -0.373687 2.027626 0.018982 0.000324 -184202.000000 1 0 0
-10.915227 13.523614 -8.395115 19.300473 -0.891727 2.020801 0.031489 -0.022747 758707.000000 1 0 0
-10.960427 13.566614 3.910685 17.873932 -0.891259 1.350219 0.000761 0.002880 -350190.000000 1 0 0
-15.224627 3.323014 2.939785 15.857932 -0.214895 1.384335 0.003574 0.005145 199681.000000 1 0 0
-11.071127 9.496814 -12.587615 19.266743 -0.709005 2.282776 0.024053 -0.012364 -46068.700000 1 0 0
-13.108127 11.537314 -9.076715 19.680431 -0.721748 2.050149 0.037479 -0.027433 521225.000000 1 0 0
-8.903527 14.642214 -3.568315 17.504288 -1.024462 1.776089 0.006154 -0.008427 1939470.000000 1 0 0
-16.670527 8.227214 -4.338615 19.089712 -0.458449 1.800075 0.033414 -0.006091 -1864820.000000 1 0 0
-16.827427 6.849714 0.140985 18.168675 -0.386575 1.563036 0.021219 -0.000718 971182.000000 1 0 0
-10.206627 2.819614 -12.385615 16.295058 -0.269531 2.434239 -0.000522 -0.012134 1200710.000000 1 0 0
-16.886927 0.923114 2.229585 17.058473 -0.054610 1.439719 0.014511 -0.004271 -1097380.000000 1 0 0
-12.689927 1.298914 -7.014015 14.557398 -0.102003 2.073524 0.007314 -0.003130 2169460.000000 1 0 0
-12.285527 9.010514 -5.461415 16.184888 -0.632809 1.914992 0.012564 -0.004529 -1443020.000000 1 0 0
-9.687327 13.966714 1.239185 17.042564 -0.964378 1.498021 0.003659 -0.000063 731531.000000 1 0 0
-12.243227 11.090114 2.728685 16.743147 -0.736019 1.407093 0.000696 0.002870 -239490.000000 1 0 0
-12.515727 6.855014 -3.667715 14.733865 -0.501085 1.822373 0.002646 0.000427 2020660.000000 1 0 0
-15.648027 3.640714 -9.515515 18.672455 -0.228596 2.105518 0.017022 -0.004129 -1828220.000000 1 0 0
-15.010827 5.818414 -4.815915 16.803925 -0.369784 1.861467 0.011105 0.002235 1410010.000000 1 0 0
-18.035027 5.230914 7.398985 20.183400 -0.282296 1.195458 0.021865 -0.003320 -463128.000000 1 0 0
-15.566727 10.131414 -2.517515 18.743170 -0.576964 1.705520 0.023736 -0.007701 -1303620.000000 1 0 0
-8.720127 9.939014 -8.312915 15.618232 -0.850629 2.132061 0.009895 -0.006815 -191977.000000 1 0 0
-16.916427 4.260914 -1.325315 17.495066 -0.246748 1.646623 0.008141 -0.004201 60388.200000 1 0 0
-10.112427 5.427614 -4.635115 12.377579 -0.492596 1.954629 -0.000325 -0.000765 -343594.000000 1 0 0
-18.135327 2.649214 6.045385 19.299096 -0.145054 1.252186 0.018291 -0.007735 29771.600000 1 0 0
-10.342527 10.210914 -5.726515 15.621255 -0.778995 1.946132 0.003461 -0.004887 2842160.000000 1 0 0
-15.347227 0.511014 -5.945815 16.466670 -0.033285 1.940224 0.009891 -0.002506 816691.000000 1 0 0
-16.306527 -4.105686 -8.936015 19.042370 0.246655 2.059260 0.033085 -0.017467 -335571.000000 1 0 0
-9.858027 9.648314 -1.094715 13.837235 -0.774648 1.649993 -0.008270 -0.000096 2793420.000000 1 0 0
-17.320127 -2.896486 -3.345115 17.876415 0.165699 1.759030 0.022181 -0.005340 -742579.000000 1 0 0
-11.784427 5.049314 -11.653315 17.325358 -0.404809 2.308535 0.007097 -0.004046 -283228.000000 1 0 0
-16.424627 6.943114 5.750485 18.736149 -0.399943 1.258842 0.016028 -0.001627 147165.000000 1 0 0
-12.028127 6.011114 -8.923315 16.137995 -0.463451 2.156683 0.009499 -0.000209 2051690.000000 1 0 0
-14.464927 8.514814 -0.296715 16.787621 -0.532034 1.588472 0.019500 -0.002976 49900.800000 1 0 0
-14.929227 11.894714 3.855585 19.473869 -0.672750 1.371492 0.007903 -0.003467 1569560.000000 1 0 0
-17.263427 4.059114 -4.125515 18.207751 -0.230933 1.799361 0.013532 -0.004365 -881865.000000 1 0 0
-13.881027 13.382914 -0.858815 19.300851 -0.767130 1.615307 0.023848 -0.011311 -861911.000000 1 0 0
-9.985027 6.871314 -13.239915 17.950239 -0.602737 2.400291 0.006484 -0.009418 3067750.000000 1 0 0
-15.794327 -1.078786 -8.383615 17.913948 0.068196 2.057815 0.018807 -0.012912 -1149290.000000 1 0 0
-11.489527 11.894814 -0.041615 16.537762 -0.802728 1.573313 0.006442 -0.003408 619983.000000 1 0 0
-11.902127 7.414514 -0.954515 14.055132 -0.557129 1.638761 -0.000572 0.002126 1668430.000000 1 0 0
-11.305027 0.217114 -11.674115 16.252253 -0.019203 2.372163 0.007287 -0.010634 -673976.000000 1 0 0
-19.136427 -1.212186 -4.799315 19.766276 0.063260 1.816051 0.029355 -0.005643 -1745880.000000 1 0 0
-18.003127 1.446514 -5.173215 18.787420 -0.080176 1.849756 0.012940 -0.001281 -730345.000000 1 0 0
-13.233827 -0.084786 -9.516015 16.300181 0.006407 2.194195 0.014806 -0.009404 -75686.300000 1 0 0
-6.051527 11.324614 -13.185315 18.404358 -1.080033 2.369459 -0.000397 -0.003678 920437.000000 1 0 0
16.331973 5.820814 7.105485 18.737746 0.342370 1.181857 0.040638 -0.012243 798275.000000 1 0 0
14.883073 10.132214 -5.466815 18.816315 0.597715 1.865583 0.042519 -0.010030 -91889.200000 1 0 0
2.375673 16.861714 4.374585 17.581189 1.430826 1.319333 0.018906 -0.009572 2346430.000000 1 0 0
-3.980627 18.321814 -5.868515 19.646214 -1.356859 1.874137 0.011795 -0.007857 1160760.000000 1 0 0
5.368673 14.515514 5.712185 16.497026 1.216542 1.217220 0.013564 -0.007722 -674572.000000 1 0 0
9.791173 5.927314 15.197085 19.025023 0.544361 0.645508 0.022587 0.000650 -519406.000000 1 0 0
4.622473 12.793914 -1.077615 13.645979 1.224088 1.649848 0.006777 -0.006180 1925370.000000 1 0 0
3.592373 13.729914 13.072885 19.295492 1.314887 0.826425 0.011074 -0.001415 -597257.000000 1 0 0
-0.821627 12.454914 9.176385 15.492127 -1.504924 0.936854 0.006801 0.001575 837176.000000 1 0 0
-7.925127 13.948614 8.423785 18.119923 -1.054113 1.087285 0.014997 -0.013766 805155.000000 1 0 0
11.426173 12.854214 -4.070115 17.673542 0.844145 1.803176 0.019129 -0.005365 439627.000000 1 0 0
-5.946927 16.176014 0.827085 17.254374 -1.218495 1.522843 0.000804 0.004868 276589.000000 1 0 0
3.106073 10.561914 6.801585 12.940760 1.284777 1.017383 -0.000615 0.005421 3095120.000000 1 0 0
-1.269727 15.492614 2.496485 15.743752 -1.489022 1.411554 0.004195 -0.000926 -741628.000000 1 0 0
9.819573 8.837214 9.564385 16.309440 0.732792 0.944149 0.018608 -0.002713 3802080.000000 1 0 0
7.113073 12.220414 6.261485 15.464169 1.043669 1.153924 0.016145 -0.004623 448452.000000 1 0 0
11.853373 14.139414 -1.474415 18.509440 0.873121 1.650538 0.016059 -0.002774 -10157.200000 1 0 0
9.647873 16.090014 -1.074315 18.791598 1.030657 1.627997 0.013896 -0.006726 2109020.000000 1 0 0
10.018173 13.772914 3.092485 17.309547 0.941928 1.391174 0.023449 -0.006261 2344960.000000 1 0 0
-6.188227 14.561614 6.266485 17.017743 -1.168952 1.193689 0.002540 -0.003783 3716.990000 1 0 0
-0.981927 18.301314 -6.175915 19.340222 -1.517194 1.895819 0.022608 -0.002599 2161800.000000 1 0 0
-3.641227 15.679614 5.504685 17.012066 -1.342614 1.241291 -0.001665 -0.000958 2988460.000000 1 0 0
7.012773 12.301914 10.648685 17.717521 1.052686 0.926013 0.012343 0.001717 2421890.000000 1 0 0
1.392673 14.577014 6.215285 15.907817 1.475546 1.169398 0.008022 -0.001716 1298530.000000 1 0 0
17.452173 7.675514 -1.397115 19.116584 0.414342 1.643945 0.027235 0.008333 136313.000000 1 0 0
2.079373 16.306014 -3.401315 16.786269 1.443959 1.774834 0.012415 -0.007316 2204620.000000 1 0 0
6.702173 11.184314 0.598085 13.052422 1.030930 1.524959 0.011281 -0.003567 1986590.000000 1 0 0
12.654573 9.232614 3.201585 15.988419 0.630308 1.369189 0.015919 0.003518 -1195780.000000 1 0 0
6.059873 14.335714 -3.359115 15.922262 1.170866 1.783363 0.009263 -0.005049 692366.000000 1 0 0
2.972173 16.465514 1.482385 16.797155 1.392210 1.482429 0.016055 -0.017013 -1624900.000000 1 0 0
2.880473 18.913114 -2.458215 19.288490 1.419657 1.698589 0.028502 -0.020951 -413354.000000 1 0 0
3.925973 11.952314 10.722685 16.530186 1.253429 0.864957 0.006676 0.001258 2522490.000000 1 0 0
7.999573 11.545314 3.404785 14.452682 0.964862 1.332979 0.011318 -0.000858 1057250.000000 1 0 0
0.700373 12.523314 0.203785 12.544538 1.514929 1.554551 0.007163 -0.003902 -720858.000000 1 0 0
12.090073 9.929114 -4.483015 16.274354 0.687572 1.849870 0.014475 -0.000821 -36234.100000 1 0 0
-1.394627 16.514614 9.913885 19.312239 -1.486548 1.031716 0.015778 -0.006944 201622.000000 1 0 0
8.339673 14.722714 -7.893915 18.671431 1.055412 2.007308 0.017925 -0.005168 1531980.000000 1 0 0
14.535073 7.555014 -1.336115 16.435686 0.479345 1.652180 0.010412 0.004917 1324130.000000 1 0 0
12.482173 8.326514 5.983485 16.153562 0.588283 1.191343 0.019161 -0.003655 -1848870.000000 1 0 0
-3.048827 14.224314 10.229585 17.784006 -1.359652 0.957932 0.010436 -0.007816 1088430.000000 1 0 0
-4.644827 17.112414 -3.174915 18.013584 -1.305752 1.747973 0.011474 -0.007703 -1006720.000000 1 0 0
-7.158327 16.484114 -1.801315 18.061351 -1.161112 1.670696 0.006289 -0.000631 295320.000000 1 0 0
8.340773 11.227414 -1.883415 14.112780 0.931859 1.704650 0.014679 -0.002440 -1612530.000000 1 0 0
8.560373 12.906314 -4.129015 16.028153 0.985149 1.831344 0.014493 -0.005686 3286230.000000 1 0 0
2.618673 14.847514 -7.266115 16.736264 1.396221 2.019895 0.004090 -0.004272 -617296.000000 1 0 0
11.337073 11.366414 9.745585 18.780336 0.786691 1.025203 0.032531 -0.008243 405014.000000 1 0 0
8.488573 15.731514 1.496785 17.938137 1.075980 1.487258 0.016013 -0.008514 -68720.300000 1 0 0
5.945873 9.857814 7.721085 13.861640 1.028054 0.980014 0.007559 0.005262 4542950.000000 1 0 0
14.402073 11.361814 2.649085 18.534513 0.667937 1.427378 0.028540 -0.000642 2277720.000000 1 0 0
11.995173 12.663614 1.175285 17.482351 0.812499 1.503519 0.021441 -0.001519 3870070.000000 1 0 0
5.121473 15.965514 8.260885 18.691424 1.260383 1.113012 0.023665 -0.002268 -875749.000000 1 0 0
11.596073 15.074914 5.099585 19.690803 0.915101 1.308827 0.043413 -0.008699 845762.000000 1 0 0
5.850573 16.793814 1.739285 17.868590 1.235568 1.473304 0.010906 -0.019297 1433360.000000 1 0 0
-0.687427 16.212714 -4.173815 16.755458 -1.528421 1.822549 0.008684 -0.003391 149818.000000 1 0 0
16.027873 6.427114 2.690785 17.476866 0.381365 1.416219 0.004605 0.001600 309631.000000 1 0 0
7.573773 16.806614 -3.068615 18.687983 1.147408 1.735746 0.014227 -0.006360 1327720.000000 1 0 0
14.766073 8.170414 7.485185 18.461326 0.505391 1.153323 0.041956 -0.007576 145593.000000 1 0 0
2.063573 12.999014 8.661785 15.756244 1.413362 0.988747 0.008158 0.002665 1346850.000000 1 0 0
15.996873 7.419214 -5.920515 18.601000 0.434264 1.894722 0.026033 -0.000057 -1007540.000000 1 0 0
-3.107427 16.981514 0.743485 17.279488 -1.389810 1.527756 -0.002208 0.001208 1338220.000000 1 0 0
-3.054227 18.536214 4.581385 19.336717 -1.407493 1.331595 0.001087 -0.004140 1102620.000000 1 0 0
-0.969127 19.036014 0.953585 19.084506 -1.519930 1.520809 0.012561 -0.009383 1411940.000000 1 0 0
7.088973 16.781514 -5.999515 19.179857 1.171107 1.888939 0.021133 -0.005915 289705.000000 1 0 0
10.962973 10.081614 0.843285 14.917669 0.743542 1.514237 0.009937 0.002943 -2417510.000000 1 0 0
9.134573 8.688014 14.224585 19.006863 0.760348 0.725162 0.025862 -0.003959 -237366.000000 1 0 0
6.515773 12.399614 -8.299215 16.281360 1.086972 2.105676 0.015584 -0.009341 2041540.000000 1 0 0
6.294773 8.995214 13.318485 17.260362 0.960210 0.689408 0.012503 -0.002145 927360.000000 1 0 0
16.650273 9.429014 2.935485 19.358589 0.515270 1.418572 0.025442 0.001188 -247087.000000 1 0 0
2.482873 14.718514 -0.852715 14.950801 1.403679 1.627862 0.010660 -0.009317 242373.000000 1 0 0
9.020173 12.920614 8.336785 17.827164 0.961331 1.084172 0.023530 -0.009441 1795660.000000 1 0 0
7.060073 9.308614 10.522485 15.723155 0.921912 0.837618 0.007639 -0.002023 1800820.000000 1 0 0
4.418873 15.834214 -5.281015 17.266670 1.298649 1.881628 0.017718 -0.007174 2134090.000000 1 0 0
0.308673 16.414714 -8.040715 18.280897 1.551994 2.026220 0.013315 -0.006412 770550.000000 1 0 0
-2.463827 15.665814 -1.937915 15.976348 -1.414800 1.692395 -0.002465 0.001600 1020050.000000 1 0 0
13.244973 10.539514 7.575285 18.544423 0.672136 1.149993 0.050039 -0.010208 595010.000000 1 0 0
-1.089427 15.932014 7.099085 17.476067 -1.502523 1.152485 0.010058 -0.001451 2294450.000000 1 0 0
13.415573 13.346014 6.543985 20.022923 0.782799 1.237855 0.054936 -0.015291 -738165.000000 1 0 0
5.322673 17.335214 4.506885 18.685623 1.272890 1.327199 0.015920 -0.017197 1942390.000000 1 0 0
10.770073 9.510014 -1.847015 14.486073 0.723345 1.698647 0.005891 0.005369 130502.000000 1 0 0
3.134573 12.633714 4.788685 13.869671 1.327596 1.218277 0.004247 0.000143 1273600.000000 1 0 0
-0.266527 17.954414 3.628685 18.319372 -1.555953 1.371399 0.011331 -0.010229 2798620.000000 1 0 0
-7.703427 15.847914 -5.880715 18.576382 -1.118343 1.892907 0.029424 -0.018344 -1447750.000000 1 0 0
-12.514027 -9.072786 8.181585 17.488701 0.627314 1.083972 0.015945 -0.003557 1821580.000000 1 0 0
-13.262727 -11.675686 6.724085 18.905948 0.721845 1.207176 0.021531 -0.003350 -2405150.000000 1 0 0
-6.448927 -12.371186 12.238185 18.558235 1.090265 0.850713 0.016406 -0.006261 149913.000000 1 0 0
-1.909527 -10.863986 14.450885 18.179674 1.396807 0.651966 -0.000866 -0.001863 1192190.000000 1 0 0
-8.917827 2.803014 11.023185 14.453205 -0.304538 0.703348 -0.001344 0.005498 -272313.000000 1 0 0
0.453173 10.022614 15.242185 18.247804 1.525612 0.582139 -0.006422 -0.005744 527529.000000 1 0 0
0.950973 -6.822386 16.523285 17.901627 -1.432299 0.394979 0.003059 -0.005906 1113650.000000 1 0 0
6.066373 2.206414 17.933385 19.059786 0.348838 0.345513 0.025695 -0.005092 1726740.000000 1 0 0
-5.146027 -2.996486 17.604685 18.584549 0.527297 0.326174 0.015519 -0.007576 -399600.000000 1 0 0
-4.528027 8.175514 13.030985 16.035854 -1.065000 0.622170 0.001245 -0.002225 1250380.000000 1 0 0
-0.039327 -4.907386 18.494985 19.135006 1.562783 0.259368 0.007944 -0.015661 462781.000000 1 0 0
-11.649027 1.971214 11.095685 16.208015 -0.167629 0.816769 0.006759 -0.001241 1179640.000000 1 0 0
-3.406427 -6.144486 14.297785 15.930634 1.064591 0.456723 0.009090 -0.007618 117892.000000 1 0 0
-7.474227 -2.319786 14.563785 16.533279 0.300944 0.493085 0.008004 -0.004218 1900000.000000 1 0 0
-6.164427 -1.211086 10.658485 12.372154 0.193993 0.532600 0.003600 -0.003439 1232950.000000 1 0 0
-3.985027 2.394514 11.195785 12.122695 -0.541065 0.393587 -0.002140 0.005506 1680070.000000 1 0 0
-6.585227 6.173914 13.605785 16.327884 -0.753173 0.585773 -0.007934 0.001196 881674.000000 1 0 0
-9.177027 5.366614 12.547585 16.445676 -0.529159 0.702899 0.003762 0.000708 -67437.100000 1 0 0
-12.305427 -2.326586 15.700085 20.083058 0.186864 0.673317 0.017209 -0.007461 -79091.400000 1 0 0
-3.504127 -7.609186 16.959385 18.915585 1.139234 0.458804 0.020277 -0.011320 -2067040.000000 1 0 0
-0.583727 -5.370486 14.365685 15.347826 1.462530 0.359685 -0.000453 -0.000412 1160630.000000 1 0 0
-14.298827 -2.352586 13.608885 19.879458 0.163069 0.816782 0.014096 -0.007297 -959772.000000 1 0 0
-6.530327 1.427714 12.141785 13.860248 -0.215242 0.503260 -0.002754 0.002631 1745540.000000 1 0 0
2.067873 -2.167186 14.603185 14.907240 -0.808844 0.202317 0.002813 -0.000959 1615410.000000 1 0 0
-12.672727 4.020014 9.123685 16.124520 -0.307177 0.969361 0.001055 0.003635 651531.000000 1 0 0
-9.131427 -3.128886 12.537585 15.822892 0.330112 0.656112 0.001980 -0.000402 605611.000000 1 0 0
-7.120027 -7.277086 15.200785 18.295208 0.796307 0.590142 0.016645 -0.012545 -1524520.000000 1 0 0
-3.088627 6.010514 19.438285 20.579427 -1.096114 0.334577 0.007468 -0.016249 -306052.000000 1 0 0
0.496073 5.570614 16.131985 17.073921 1.481979 0.333715 0.007945 -0.009096 -183277.000000 1 0 0
3.386973 1.511914 16.814385 17.218624 0.419849 0.217114 0.014153 -0.007682 2013940.000000 1 0 0
-11.900927 11.306314 7.783185 18.167079 -0.759782 1.128050 0.002574 -0.016268 -950843.000000 1 0 0
0.537173 -9.565886 15.567485 18.279533 -1.514700 0.551700 -0.001386 0.005161 -93325.600000 1 0 0
-2.564127 -3.631386 18.953585 19.467925 0.955987 0.230378 0.019709 -0.010575 1871150.000000 1 0 0
-12.897827 2.315514 13.680985 18.944258 -0.177635 0.763861 0.010764 -0.007646 1978080.000000 1 0 0
-5.471427 -0.633886 15.804185 16.736505 0.115340 0.335353 0.007995 0.001230 1332870.000000 1 0 0
-4.562927 -5.958486 11.582285 13.801202 0.917268 0.574944 0.001925 -0.001074 -598506.000000 1 0 0
2.407073 1.909114 14.090485 14.421528 0.670536 0.214677 0.003794 -0.001399 97753.300000 1 0 0
-0.007327 3.397914 14.300685 14.698825 -1.568640 0.233280 0.008761 -0.005710 -1386810.000000 1 0 0
-13.053027 7.140014 12.234185 19.262310 -0.500538 0.882612 0.006745 0.000235 1781260.000000 1 0 0
0.682773 1.588914 18.119485 18.201829 1.164943 0.095156 0.014469 -0.009899 1709840.000000 1 0 0
-2.190727 6.507314 12.470785 14.236042 -1.246058 0.503289 -0.005658 -0.000075 1148970.000000 1 0 0
-13.509627 -2.760386 10.816485 17.525013 0.201553 0.905614 0.017367 -0.007225 -57926.400000 1 0 0
-2.558227 3.639414 13.445785 14.162591 -0.958111 0.319517 -0.000810 -0.001436 -1512670.000000 1 0 0
3.364473 6.238914 16.401385 17.867545 1.076227 0.407933 0.009653 -0.004557 1693550.000000 1 0 0
-3.762727 12.455714 12.349585 17.939208 -1.277425 0.811497 0.012531 -0.005674 -613298.000000 1 0 0
3.627473 -1.495186 17.074385 17.519383 -0.390965 0.225870 0.019653 -0.007287 1269990.000000 1 0 0
-15.845127 0.340414 9.176685 18.313806 -0.021481 1.045950 0.021631 -0.005294 -483447.000000 1 0 0
-4.703027 4.562914 15.193485 16.546318 -0.770278 0.407184 -0.000055 -0.003171 513245.000000 1 0 0
-8.092327 -8.174586 10.580085 15.628430 0.790455 0.827149 0.011474 -0.003151 3836120.000000 1 0 0
-2.735227 -0.459086 14.675885 14.935656 0.166292 0.186780 0.007393 0.000801 828415.000000 1 0 0
-2.039227 1.078514 17.230985 17.384720 -0.486487 0.133088 0.006279 -0.005451 1396480.000000 1 0 0
-0.838727 -2.497286 14.381185 14.620478 1.246778 0.181173 0.004657 -0.000633 747732.000000 1 0 0
5.015773 -8.244186 16.542185 19.151200 -1.024222 0.528097 0.011181 -0.001382 314020.000000 1 0 0
-4.599027 10.048114 10.682585 15.369882 -1.141557 0.802330 0.003023 -0.001877 -859499.000000 1 0 0
-6.246527 2.067314 15.173385 16.538576 -0.319608 0.409163 -0.001340 0.000822 -1239510.000000 1 0 0
-4.972727 6.706914 17.349785 19.254240 -0.932801 0.448522 0.005212 -0.001857 -611550.000000 1 0 0
-4.298127 9.156314 15.802685 18.762645 -1.131913 0.569368 0.006363 -0.004687 -193912.000000 1 0 0
-4.639227 -9.871086 18.361085 21.356269 1.131451 0.536013 0.033283 -0.018442 396481.000000 1 0 0
-6.884327 -4.143586 11.124485 13.722880 0.541806 0.625531 0.003122 -0.001506 944678.000000 1 0 0
-2.485627 -0.811086 19.614485 19.787982 0.315417 0.132519 0.017436 -0.004917 671566.000000 1 0 0
-5.618427 -4.569586 15.171585 16.811449 0.682811 0.445360 0.009703 -0.004880 1403510.000000 1 0 0
-12.958727 -0.084786 9.665885 16.166791 0.006543 0.929936 0.006576 -0.001600 1209780.000000 1 0 0
-14.451127 8.951614 10.383385 19.919366 -0.554592 1.022457 -0.002730 -0.003133 -1064280.000000 1 0 0
-8.475927 10.474014 12.915585 18.664368 -0.890450 0.806552 0.006708 -0.012232 -423429.000000 1 0 0
-10.502227 7.244414 10.779885 16.702821 -0.603846 0.869259 0.002623 -0.000513 -860665.000000 1 0 0
-9.839327 -6.560486 14.785385 18.933038 0.588068 0.674642 0.016997 -0.011014 126494.000000 1 0 0
-0.729127 -13.599086 14.460185 19.863628 1.517232 0.755436 0.002093 -0.002709 433213.000000 1 0 0
3.721373 -5.712086 16.960185 18.279070 -0.993374 0.382198 0.017595 -0.007430 1745490.000000 1 0 0
-7.414327 9.509214 10.306185 15.862372 -0.908557 0.863573 -0.000105 -0.003427 1220820.000000 1 0 0
-10.433227 -6.793186 11.869585 17.201356 0.577156 0.809255 0.018196 -0.006729 762260.000000 1 0 0
-11.007627 -4.050886 10.631785 15.830742 0.352626 0.834442 0.015234 -0.005291 -1143800.000000 1 0 0
-10.179427 -10.239186 9.761985 17.428655 0.788325 0.976276 0.017109 -0.006730 2468310.000000 1 0 0
-9.883727 -3.717486 15.237085 18.538514 0.359754 0.606031 0.020485 -0.013308 2777730.000000 1 0 0
5.417773 -3.397886 16.045585 17.273063 -0.560161 0.379265 0.017415 -0.009124 52242.800000 1 0 0
-11.371027 0.422514 15.293485 19.062252 -0.037140 0.639672 0.014690 -0.005531 -296955.000000 1 0 0
-3.317227 3.206814 18.802685 19.360491 -0.768476 0.240628 0.011966 -0.010233 -321038.000000 1 0 0
0.385673 7.413714 13.948585 15.801105 1.518822 0.489091 0.002201 -0.005428 2518500.000000 1 0 0
-13.257327 -7.498986 12.095185 19.449550 0.514778 0.899662 0.023782 -0.008515 967587.000000 1 0 0
-1.566827 -1.125086 12.087385 12.240328 0.622749 0.158248 0.001808 0.000479 326283.000000 1 0 0
1.948273 -4.820486 13.114685 14.107722 -1.186704 0.377442 -0.003025 0.000424 1556710.000000 1 0 0
-14.677627 -4.053986 8.514285 17.445933 0.269483 1.060955 0.019023 -0.013497 -1366240.000000 1 0 0
8.115673 0.884414 16.260985 18.195218 0.108548 0.465281 0.026592 -0.009787 1672880.000000 1 0 0
-1.370927 11.360314 13.411585 17.629713 -1.450700 0.706348 0.002017 -0.002821 1557440.000000 1 0 0
2.914173 -12.204486 -13.760615 18.622471 -1.336406 2.402270 0.001014 0.004665 -512812.000000 1 0 0
0.828573 -10.651386 -14.026915 17.632155 -1.493163 2.490679 -0.000798 0.006423 147393.000000 1 0 0
3.287473 -14.312786 -12.337115 19.179878 -1.345024 2.269509 0.000193 0.000053 -1488240.000000 1 0 0
-5.141227 -10.370986 -16.130115 19.853719 1.110569 2.519135 0.019651 -0.010879 10576.100000 1 0 0
-0.968627 -12.419486 -14.941115 19.452989 1.492961 2.446607 0.001739 0.000525 -136459.000000 1 0 0
5.816273 -15.091286 -11.753715 19.993143 -1.202934 2.199241 0.007628 -0.001100 1861480.000000 1 0 0
2.080873 -11.873586 -16.051615 20.074024 -1.397306 2.497460 0.008365 -0.000659 -320295.000000 1 0 0
1.493773 -14.415086 -14.005615 20.153990 -1.467539 2.339119 0.003926 0.009752 -482424.000000 1 0 0
-1.039727 -10.766186 -15.941615 19.264654 1.474522 2.545447 0.008687 -0.005312 -169863.000000 1 0 0
-5.695427 -5.557386 -14.995715 16.976275 0.773132 2.653723 0.010188 -0.006080 -352224.000000 1 0 0
-6.254827 -7.672486 -16.464615 19.211284 0.886839 2.600271 0.012608 -0.005670 245461.000000 1 0 0
5.104473 -12.584386 -11.325115 17.682778 -1.185455 2.265894 0.000148 0.002013 269104.000000 1 0 0
-1.720527 -15.697986 -13.105215 20.521541 1.461630 2.263484 0.009814 -0.000604 25747.900000 1 0 0
15.905773 -7.474786 -8.765815 19.639388 -0.439313 2.033466 0.042383 0.000240 577598.000000 1 0 0
19.267573 -3.510686 -4.386115 20.069935 -0.180230 1.791116 0.052050 -0.015763 487195.000000 1 0 0
14.869273 -11.511386 -8.847815 20.781990 -0.658793 2.010581 0.034205 -0.012699 201960.000000 1 0 0
17.757073 -3.578386 -6.534715 19.256713 -0.198856 1.917019 0.049236 -0.009537 454618.000000 1 0 0
9.534273 -9.199486 -15.420315 20.330249 -0.767529 2.431791 0.041298 -0.012110 100275.000000 1 0 0
1.355773 1.946914 -15.333715 15.516166 0.962511 2.988088 0.009915 0.000415 173796.000000 1 0 0
4.934273 -4.296286 -13.944115 15.402710 -0.716391 2.702888 -0.000854 0.004320 102852.000000 1 0 0
13.251473 -5.619686 -8.702615 16.820164 -0.401091 2.114597 0.034878 -0.002485 -899234.000000 1 0 0
3.035573 0.964314 -12.240215 12.647825 0.307589 2.887025 0.002500 -0.002349 -1448720.000000 1 0 0
0.727673 6.432914 -12.959915 14.486935 1.458158 2.678317 0.008984 -0.000983 -484708.000000 1 0 0
3.204173 -1.081986 -16.852215 17.188210 -0.325658 2.943542 0.012269 0.001610 -106080.000000 1 0 0
13.260573 4.172414 -11.284015 17.904771 0.304841 2.252638 0.009965 -0.014234 671377.000000 1 0 0
-3.901227 9.456514 -16.487315 19.403010 -1.179523 2.586269 0.011062 -0.002027 -564504.000000 1 0 0
-0.067727 -5.071986 -17.659415 18.373475 1.557444 2.861886 0.014612 -0.010240 250419.000000 1 0 0
-0.518427 -8.810486 -17.656215 19.739183 1.512022 2.678053 0.013808 -0.005660 -1220140.000000 1 0 0
5.598173 -10.155586 -12.272215 16.884393 -1.067001 2.384503 0.003516 0.002368 641087.000000 1 0 0
1.753073 -9.957386 -18.083215 20.717757 -1.396525 2.631781 0.020937 -0.005268 -360563.000000 1 0 0
11.055273 8.870214 -14.536015 20.302598 0.676173 2.368806 0.044275 -0.028304 729603.000000 1 0 0
10.980773 -3.884086 -12.958915 17.424035 -0.339982 2.409441 0.026160 0.000379 380614.000000 1 0 0
4.881273 7.489914 -12.151315 15.085758 0.993218 2.507286 -0.006252 -0.003166 -537699.000000 1 0 0
9.650773 -6.040486 -12.694915 17.052441 -0.559251 2.410527 0.024734 -0.000037 -1158920.000000 1 0 0
-3.240127 0.291814 -15.875515 16.205417 -0.089820 2.939469 0.010520 -0.002182 -732952.000000 1 0 0
-0.674827 10.939614 -12.731415 16.799389 -1.509188 2.430808 0.006106 -0.001255 -2744210.000000 1 0 0
6.681973 -5.519486 -12.437515 15.159329 -0.690410 2.532999 0.004910 0.002129 84070.000000 1 0 0
17.965773 -6.068686 -7.973215 20.571099 -0.325758 1.968815 0.053257 -0.015824 354026.000000 1 0 0
13.300273 4.811814 -13.816815 19.772587 0.347133 2.344496 0.027980 -0.018912 312983.000000 1 0 0
14.270373 0.751014 -11.389215 18.273527 0.052579 2.243705 0.023162 -0.001439 264941.000000 1 0 0
15.112373 6.053314 -11.065815 19.684478 0.380983 2.167791 0.037921 -0.024537 152874.000000 1 0 0
8.390473 1.519314 -11.678415 14.460074 0.179135 2.510921 -0.004663 0.003711 547285.000000 1 0 0
10.034473 1.187514 -8.849015 13.431527 0.117796 2.290051 -0.001772 -0.000614 126215.000000 1 0 0
-0.061827 -5.694986 -12.978315 14.172980 1.559940 2.728063 -0.000555 0.001778 196638.000000 1 0 0
10.622373 -5.695486 -9.001615 15.043352 -0.492170 2.212272 0.021664 -0.005357 -468337.000000 1 0 0
10.334573 8.418714 -11.209015 17.416089 0.683590 2.269991 0.020635 -0.018163 853977.000000 1 0 0
8.505873 8.150214 -14.622615 18.777559 0.764048 2.463432 0.024852 -0.011475 811353.000000 1 0 0
8.633173 10.468614 -10.666415 17.259663 0.881191 2.236988 0.024080 -0.015871 -1706240.000000 1 0 0
7.230073 1.715614 -17.921215 19.400702 0.232980 2.748531 0.026529 0.005283 -1573300.000000 1 0 0
12.150373 2.689414 -12.817915 17.865147 0.217832 2.370977 0.016558 -0.009704 -1233480.000000 1 0 0
2.588273 -0.955686 -19.348815 19.544542 -0.353709 2.999951 0.022733 -0.002588 -433095.000000 1 0 0
10.380273 -2.345786 -15.454215 18.763943 -0.222252 2.538547 0.039857 -0.004814 473569.000000 1 0 0
8.358673 -0.799886 -13.059115 15.525712 -0.095405 2.570162 0.006694 0.001004 150549.000000 1 0 0
0.657673 4.395414 -14.622615 15.283097 1.422271 2.846528 0.009249 0.001442 -257137.000000 1 0 0
4.077673 -7.669886 -15.724215 17.964006 -1.082153 2.636889 0.005990 -0.001377 -1524680.000000 1 0 0
11.438573 -5.984386 -14.554715 19.454911 -0.482016 2.416029 0.042511 -0.001307 -110041.000000 1 0 0
-5.742127 4.347914 -16.871915 18.344969 -0.648090 2.738119 0.007512 0.002657 -117210.000000 1 0 0
11.491173 7.801414 -9.048615 16.576687 0.596427 2.148216 0.021523 -0.013257 -563317.000000 1 0 0
9.617773 6.114914 -13.408215 17.597556 0.566323 2.437094 0.016281 -0.005805 480532.000000 1 0 0
12.125173 0.611714 -10.164015 15.833547 0.050407 2.267808 0.012668 0.004270 -2767780.000000 1 0 0
5.532473 -7.303686 -13.776115 16.544891 -0.922518 2.554673 0.002627 0.004952 -755845.000000 1 0 0
8.612973 -10.147786 -10.660815 17.053265 -0.867026 2.246118 0.020379 -0.003289 -143593.000000 1 0 0
10.187573 4.758814 -15.876115 19.454665 0.436999 2.525352 0.037236 -0.007263 -745037.000000 1 0 0
9.941573 -0.392086 -10.920615 14.773234 -0.039419 2.402702 0.003057 0.003727 -1880070.000000 1 0 0
-1.514127 5.562314 -13.963015 15.106214 -1.305024 2.750053 0.003528 -0.002282 1296940.000000 1 0 0
1.517973 -0.610886 -15.020115 15.108980 -0.382604 3.033081 0.006039 0.000132 -1113300.000000 1 0 0
11.451773 -10.617286 -14.222615 21.122326 -0.747604 2.309520 0.050331 -0.012829 470676.000000 1 0 0
9.433873 -7.758586 -10.778615 16.290247 -0.688262 2.293828 0.026159 -0.000283 -400222.000000 1 0 0
13.962673 -1.048586 -9.658215 17.009906 -0.074959 2.174626 0.021300 0.001650 623783.000000 1 0 0
4.153273 11.242614 -12.143715 17.062118 1.216925 2.362762 0.010519 -0.010944 -1494480.000000 1 0 0
-1.209527 3.053914 -16.899515 17.215776 -1.193693 2.949619 0.009145 0.000109 345655.000000 1 0 0
6.254473 -0.625086 -17.480115 18.575887 -0.099611 2.796402 0.015812 0.004034 231550.000000 1 0 0
6.509973 -6.701686 -16.104815 18.618738 -0.799908 2.615905 0.017598 0.003369 69849.300000 1 0 0
-1.501627 -5.408686 -19.802315 20.582528 1.299984 2.865374 0.024736 -0.017413 325739.000000 1 0 0
0.040473 -4.243086 -15.157515 15.740257 -1.561258 2.868634 0.002783 -0.004732 61958.800000 1 0 0
0.649373 0.837614 -13.062815 13.105740 0.911321 3.060635 0.005567 -0.003812 373663.000000 1 0 0
15.832573 0.587214 -13.475315 20.799022 0.037072 2.275597 0.047553 -0.014596 495283.000000 1 0 0
0.097073 7.247614 -16.396215 17.926885 1.557403 2.725353 0.015237 0.004596 -730415.000000 1 0 0
-4.828527 -0.654586 -18.275415 18.913856 0.134745 2.881029 0.007776 -0.001829 -492680.000000 1 0 0
10.409473 -8.468486 -13.073115 18.734426 -0.682941 2.343135 0.027161 -0.010480 556267.000000 1 0 0
4.230273 8.946314 -16.862515 19.551884 1.129103 2.610886 0.016049 -0.012992 -57533.000000 1 0 0
9.481473 0.505314 -17.173015 19.623102 0.053245 2.636527 0.036464 0.008911 144598.000000 1 0 0
3.348673 5.037014 -18.599615 19.558395 0.984078 2.827181 0.021167 0.006203 -159074.000000 1 0 0
1.506673 -8.250786 -16.064115 18.121847 -1.390177 2.660414 0.002462 -0.001273 143841.000000 1 0 0
4.696073 7.639114 -14.791415 17.297258 1.019609 2.596599 0.005240 -0.006479 229090.000000 1 0 0
-5.597627 -0.499886 -15.084015 16.096920 0.089067 2.784951 0.007034 -0.003394 262282.000000 1 0 0
2.927573 3.394514 -13.894315 14.599500 0.859123 2.829516 0.004944 0.001118 -487424.000000 1 0 0
-2.479227 -10.391286 -18.034015 20.960703 1.336588 2.606797 0.033630 -0.009763 -76050.500000 1 0 0
6.286673 -9.168586 -15.469515 19.049701 -0.969749 2.518471 0.005522 0.003381 598555.000000 1 0 0
-1.721127 5.582314 -17.158715 18.125838 -1.271726 2.813454 0.004344 -0.001419 943338.000000 1 0 0
10.165773 -12.079786 -11.290315 19.409672 -0.871227 2.191595 0.046415 -0.016821 -95727.600000 1 0 0
10.945673 3.579114 -9.339115 14.826897 0.316030 2.252191 0.003922 -0.005169 -873780.000000 1 0 0
4.919273 -0.519686 -11.026715 12.085436 -0.105252 2.719899 -0.000375 -0.003679 571987.000000 1 0 0
6.364773 9.496314 -11.390015 16.137619 0.980327 2.354355 0.012011 -0.012800 -10767.700000 1 0 0
10.802773 -9.603586 -9.390015 17.236622 -0.726700 2.146913 0.034794 -0.006157 -1163110.000000 1 0 0
3.334273 -2.327186 -14.471415 15.031800 -0.609355 2.867680 0.004249 0.001164 -109474.000000 1 0 0
9.219273 -4.591486 -14.812415 18.041186 -0.462071 2.534015 0.027833 -0.001873 566318.000000 1 0 0
-3.938527 -6.650186 -16.684215 18.387496 1.036100 2.707774 0.006927 -0.005487 -496414.000000 1 0 0
5.838773 -7.753686 -11.294115 14.891875 -0.925358 2.431663 -0.001280 -0.000216 -87712.800000 1 0 0
5.501173 6.765014 -16.982615 19.090247 0.888070 2.667257 0.014798 0.006442 -654167.000000 1 0 0
9.261073 1.502014 -19.507115 21.646040 0.160786 2.693295 0.051295 -0.000638 418643.000000 1 0 0
13.124873 5.725414 -9.305215 17.077169 0.411341 2.147057 0.011528 -0.010582 1248670.000000 1 0 0
-1.622127 -0.862086 -17.381215 17.478018 0.488493 3.036296 0.011832 -0.003000 384231.000000 1 0 0
-0.396127 -0.577886 -19.589915 19.602440 0.969885 3.105844 0.019327 -0.006678 -234308.000000 1 0 0
2.897673 6.622714 -16.463115 17.980295 1.158356 2.727843 0.011384 0.003228 -92426.900000 1 0 0
7.668073 3.785914 -15.668515 17.850346 0.458614 2.641986 0.016118 0.002977 -457970.000000 1 0 0
3.152873 -9.826386 -14.877915 18.106651 -1.260315 2.535153 0.005234 0.001246 94461.300000 1 0 0
9.071073 -10.719486 -13.283115 19.329586 -0.868499 2.328411 0.030973 -0.004151 -209958.000000 1 0 0
3.957673 0.188814 -14.810015 15.330863 0.047672 2.880181 0.002829 0.004081 -2078390.000000 1 0 0
-1.012427 -2.985886 -19.029315 19.288736 1.243891 2.977400 0.019402 -0.004043 643629.000000 1 0 0
9.324573 10.071914 -12.998215 18.903563 0.823909 2.328984 0.032515 -0.024131 -36115.100000 1 0 0
4.712773 2.103314 -10.694915 11.874989 0.419773 2.692002 -0.003697 -0.000525 90541.800000 1 0 0
-0.511227 7.151214 -18.873315 20.189186 -1.499430 2.778557 0.024319 0.002663 277069.000000 1 0 0
0.868773 -1.782486 -17.600915 17.712262 -1.117284 3.029405 0.017405 -0.003782 128888.000000 1 0 0
-4.404527 -2.304086 -13.993915 14.850533 0.481970 2.800284 0.007734 -0.006572 -3780690.000000 1 0 0
10.098473 5.982214 -10.408415 15.687611 0.534804 2.296257 0.011778 -0.005142 105279.000000 1 0 0
8.267573 5.474014 -17.404315 20.030671 0.584839 2.623738 0.034266 -0.011252 -45332.600000 1 0 0
11.296673 0.301614 -13.547815 17.642253 0.026693 2.446382 0.018195 0.003018 183028.000000 1 0 0
6.814373 11.982814 -11.730315 18.100381 1.053726 2.275844 0.027755 -0.019758 -690338.000000 1 0 0
-0.795027 0.485514 -15.212915 15.241410 -0.548242 3.080435 0.009018 -0.002839 -904684.000000 1 0 0
-4.379827 -3.083186 -18.941115 19.683871 0.613373 2.866006 0.011775 -0.003166 249782.000000 1 0 0
5.927673 -12.206986 -13.860215 19.397252 -1.118738 2.366770 0.014528 -0.002714 24803.100000 1 0 0
2.261073 -4.769186 -13.928415 14.894910 -1.128082 2.779373 0.001968 0.000382 -83264.200000 1 0 0
11.828373 2.002114 -15.354015 19.484985 0.167674 2.478337 0.044993 -0.006343 208381.000000 1 0 0
9.734073 2.334414 -13.777315 17.029858 0.235374 2.513261 0.013813 -0.003776 -1282510.000000 1 0 0
-2.076027 -4.200086 -16.429715 17.084676 1.111734 2.863803 0.001875 -0.007981 -2190050.000000 1 0 0
-2.704727 10.247514 -14.309315 17.806841 -1.312741 2.504091 0.012010 -0.004111 256650.000000 1 0 0
3.563473 5.779814 -13.506215 15.116959 1.018305 2.675760 0.002741 -0.000601 -267200.000000 1 0 0
-5.162627 -2.624586 -16.565615 17.548811 0.470331 2.805267 0.012353 -0.002322 645590.000000 1 0 0
-4.176427 6.201914 -13.587015 15.508490 -0.978140 2.638513 0.001486 0.000388 -980010.000000 1 0 0
5.979473 -1.097886 -14.033715 15.293940 -0.181587 2.732796 0.005721 0.003056 -1796850.000000 1 0 0
6.853673 -3.033586 -12.606315 14.666106 -0.416701 2.605193 0.003547 0.001151 681063.000000 1 0 0
2.937873 -3.283386 -18.210215 18.735625 -0.840879 2.904209 0.019088 -0.009100 -156044.000000 1 0 0
7.569973 -12.004086 -11.820315 18.469500 -1.008168 2.265283 0.021737 -0.006106 -472658.000000 1 0 0
-6.133127 -5.491686 -17.652515 19.477812 0.730275 2.705215 0.029350 -0.006340 315770.000000 1 0 0
0.601473 8.812714 -11.930515 14.844625 1.502651 2.504271 0.002225 -0.000164 -38835.000000 1 0 0
0.432073 8.656314 -14.412815 16.818076 1.520924 2.600184 0.007089 0.001073 -9885.710000 1 0 0
7.806673 -2.428686 -14.971215 17.058134 -0.301612 2.641751 0.017855 -0.006512 -158147.000000 1 0 0
14.288073 1.415914 -8.802215 16.841402 0.098775 2.120757 0.010504 -0.002154 957578.000000 1 0 0
2.815973 10.928914 -14.386415 18.284961 1.318619 2.476386 0.016065 -0.004820 -126735.000000 1 0 0
6.354773 1.092414 -15.473015 16.762777 0.170241 2.746752 0.013541 0.005944 784109.000000 1 0 0
16.920173 -5.538686 -10.199615 20.518320 -0.316349 2.091047 0.083427 -0.014393 701015.000000 1 0 0
4.928073 -4.241986 -11.157615 12.914051 -0.710719 2.613938 -0.002316 0.000378 -1580070.000000 1 0 0
8.707273 -3.534186 -17.096215 19.508656 -0.385573 2.639007 0.023242 -0.005698 272543.000000 1 0 0
13.274773 -9.508986 -8.666315 18.486358 -0.621595 2.058723 0.039108 -0.009731 -692096.000000 1 0 0
2.339773 -7.747186 -13.653315 15.871561 -1.277491 2.606532 -0.002240 0.004602 278830.000000 1 0 0
-6.854627 -2.301486 -18.509715 19.871897 0.323930 2.769179 0.013896 -0.002445 -1569100.000000 1 0 0
-1.407127 -6.455286 -15.754815 17.084055 1.356173 2.744513 0.003934 -0.005710 1308210.000000 1 0 0
1.561573 -7.480986 -18.542115 20.055266 -1.365012 2.750652 0.019144 -0.004730 -81313.700000 1 0 0
5.439973 10.735014 -14.386115 18.756176 1.101763 2.444959 0.023698 -0.026280 -664312.000000 1 0 0
5.456073 -3.681686 -17.379815 18.584443 -0.593603 2.779566 0.011561 -0.003533 -5570.400000 1 0 0
4.360273 13.061914 -13.996715 19.635010 1.248612 2.364343 0.024981 -0.017058 32390.900000 1 0 0
9.277973 10.513814 -15.521715 20.917569 0.847759 2.406908 0.041992 -0.026372 -16246.100000 1 0 0
2.591273 4.014714 -16.340315 17.024645 0.997631 2.857098 0.014417 0.004142 776593.000000 1 0 0
16.659673 1.871114 -11.276715 20.204209 0.111845 2.162935 0.041425 -0.016153 914886.000000 1 0 0
10.098673 -3.686486 -10.526715 15.046099 -0.350016 2.345677 0.020049 0.001205 569452.000000 1 0 0
14.826873 -2.213686 -11.830315 19.096935 -0.148208 2.238886 0.061131 -0.008518 -93991.500000 1 0 0
-2.623127 -8.689586 -16.090115 18.473806 1.277625 2.627968 0.011346 -0.001700 -129783.000000 1 0 0
14.131573 8.095214 -8.908515 18.563283 0.520214 2.071337 0.045016 -0.016210 246316.000000 1 0 0
-8.157327 0.146514 -16.529115 18.432989 -0.017959 2.683084 0.000242 -0.003284 -232762.000000 1 0 0
-3.452127 3.998014 -15.835515 16.693257 -0.858540 2.819634 0.004955 -0.001226 -784170.000000 1 0 0
15.200073 3.978214 -9.534515 18.378667 0.255982 2.116222 0.024368 -0.013232 1021040.000000 1 0 0
5.487173 1.091214 -12.963215 14.118950 0.196305 2.734165 -0.000630 0.002787 -116729.000000 1 0 0
7.863473 -7.851986 -12.826115 16.970478 -0.784667 2.427656 0.019640 -0.000853 -3004590.000000 1 0 0
3.332873 -6.133586 -11.796915 13.707521 -1.073049 2.607275 -0.002128 0.001351 -809207.000000 1 0 0
-3.175227 3.789614 -18.428215 19.079894 -0.873383 2.879480 0.007166 0.002394 78143.900000 1 0 0
0.855473 5.234814 -17.769415 18.544196 1.408808 2.851508 0.020498 -0.001814 200171.000000 1 0 0
6.428373 7.168414 -10.172715 14.006937 0.839772 2.383666 -0.001753 -0.002194 496191.000000 1 0 0
9.730273 3.732714 -11.645215 15.627617 0.366305 2.411585 0.010224 -0.003996 295040.000000 1 0 0
4.673573 1.452614 -17.513215 18.184198 0.301349 2.869091 0.012576 0.006441 62290.300000 1 0 0
2.652773 8.194514 -13.289015 15.836199 1.257718 2.566523 0.003899 -0.000250 -1218180.000000 1 0 0
14.416373 -3.568386 -9.768715 17.776192 -0.242646 2.152609 0.046586 -0.002637 514293.000000 1 0 0
-1.273427 9.389814 -16.246715 18.808136 -1.436001 2.613586 0.018785 0.001309 -2051270.000000 1 0 0
-5.253627 1.971114 -15.807415 16.773797 -0.358938 2.800493 0.007036 -0.001875 509124.000000 1 0 0
4.641973 4.218814 -11.896615 13.449006 0.737678 2.656372 -0.003739 0.001627 306504.000000 1 0 0
9.404773 3.058414 -17.454915 20.061847 0.314411 2.626111 0.039467 -0.004916 826804.000000 1 0 0
-4.140627 14.450114 -13.258415 20.043357 -1.291728 2.293596 0.005128 -0.006484 -387430.000000 1 0 0
15.587273 -4.895586 -7.961315 18.174498 -0.304320 2.024223 0.048914 -0.006563 -7682.830000 1 0 0
1.230473 9.606814 -16.715415 19.318645 1.443407 2.616441 0.021278 0.003762 -324202.000000 1 0 0
0.517573 -3.219286 -12.785615 13.194834 -1.411388 2.891892 0.003144 -0.001509 232680.000000 1 0 0
7.489273 3.530814 -13.113515 15.508712 0.440547 2.578406 -0.001278 0.004626 574123.000000 1 0 0
-2.813727 7.640114 -15.093215 17.149156 -1.217927 2.646899 0.006106 0.000736 274893.000000 1 0 0
12.251473 -5.153886 -11.023015 17.267542 -0.398201 2.263170 0.042204 -0.001956 -183188.000000 1 0 0
0.985573 -4.530186 -19.985315 20.516012 -1.356578 2.913646 0.038100 -0.013399 -208497.000000 1 0 0
3.398473 -4.513586 -16.040215 17.006192 -0.925414 2.802926 0.005567 -0.004622 591203.000000 1 0 0
-5.683627 4.184614 -14.362315 16.002834 -0.634648 2.684832 0.000950 -0.002190 1115570.000000 1 0 0
12.272773 -7.528986 -9.896315 17.471223 -0.550266 2.172970 0.029655 0.001251 236330.000000 1 0 0
-1.940827 -1.838186 -14.949315 15.186433 0.758244 2.964648 0.007491 -0.001635 715550.000000 1 0 0
7.201373 5.900914 -14.365315 17.118494 0.686468 2.566550 0.008566 0.000824 -317087.000000 1 0 0
4.013273 -5.643086 -18.343615 19.607116 -0.952604 2.780635 0.022133 -0.010119 186007.000000 1 0 0
7.579873 7.415214 -12.334215 16.265692 0.774418 2.431492 0.008350 -0.010912 5719.000000 1 0 0
12.376573 -2.542986 -11.101315 16.819201 -0.202647 2.291666 0.028731 0.004760 -512294.000000 1 0 0
7.523573 -0.741986 -10.663015 13.071136 -0.098304 2.524852 -0.002350 0.001406 -1585890.000000 1 0 0
5.406973 4.026414 -14.415415 15.913879 0.640082 2.704153 -0.000033 0.004028 -638268.000000 1 0 0
14.786473 2.880614 -12.819915 19.781000 0.192404 2.275873 0.023608 -0.019915 -106701.000000 1 0 0
-6.250927 6.720614 -15.743515 18.223584 -0.821591 2.613776 0.001289 0.002421 359395.000000 1 0 0
-11.330427 3.850014 -16.132415 20.086214 -0.327554 2.503374 0.046292 -0.027735 697556.000000 1 0 0
-4.892627 6.586414 -18.019115 19.799171 -0.931896 2.714308 0.007234 0.014763 -449604.000000 1 0 0
-10.063827 1.600114 -15.539415 18.582637 -0.157677 2.561174 0.021975 -0.011750 62133.700000 1 0 0
-7.428427 6.030614 -17.931815 20.324857 -0.681912 2.651439 0.008005 -0.001058 -647240.000000 1 0 0
-8.652827 3.850414 -15.856215 18.469344 -0.418679 2.603164 0.008354 0.008221 365482.000000 1 0 0
9.009373 13.436514 -11.758015 19.998991 0.980135 2.199294 0.050232 -0.027298 -2099020.000000 1 0 0
13.958173 8.837814 -11.497015 20.127566 0.564449 2.178772 0.049282 -0.022420 534740.000000 1 0 0
8.570373 15.854114 -9.024015 20.155324 1.075216 2.035014 0.036814 -0.012774 351911.000000 1 0 0
7.434373 13.398214 -13.872215 20.669310 1.064216 2.306556 0.037626 -0.019959 -94637.300000 1 0 0
4.953873 15.954314 -12.660915 20.961387 1.269731 2.219321 0.046534 -0.021198 40066.600000 1 0 0
11.075973 10.931314 -11.459715 19.326041 0.778825 2.205536 0.041851 -0.022282 -36243.400000 1 0 0
15.754373 9.807114 -9.902315 21.034153 0.556800 2.060963 0.064460 -0.012887 -130223.000000 1 0 0
13.266173 10.523614 -9.550215 19.440792 0.670622 2.084316 0.068099 -0.024993 645704.000000 1 0 0
10.421773 11.674214 -8.172315 17.654670 0.842019 2.052058 0.016597 -0.008463 65696.500000 1 0 0
5.485273 16.258414 -10.060815 19.890808 1.245408 2.101108 0.028587 -0.016111 256768.000000 1 0 0
6.803973 14.558914 -11.480115 19.749660 1.133616 2.191099 0.027858 -0.010356 -1297460.000000 1 0 0
10.947373 13.603814 -9.786115 20.016912 0.893179 2.081616 0.045719 -0.015820 -465728.000000 1 0 0
8.250173 -18.697386 -1.240315 20.474276 -1.155245 1.631413 0.053822 0.005148 -3829.600000 1 0 0
7.271573 -17.432386 -3.371915 19.186810 -1.175610 1.747455 0.027433 -0.000283 511293.000000 1 0 0
4.526173 -18.410886 5.753885 19.812980 -1.329735 1.276141 0.050777 0.004607 -31497.600000 1 0 0
9.819573 -17.178886 -2.574215 19.954065 -1.051516 1.700164 0.041337 0.002041 376103.000000 1 0 0
-9.488227 -12.430486 -9.960615 18.540693 0.918836 2.137946 0.038998 -0.015378 331456.000000 1 0 0
-5.216227 -7.032386 -12.231615 15.042469 0.932600 2.520321 0.007273 -0.000713 337098.000000 1 0 0
-10.867927 -9.575286 -5.677015 15.557199 0.722251 1.944335 0.017724 -0.005728 -614773.000000 1 0 0
-4.463327 -11.707286 -14.075915 18.844448 1.206563 2.414264 0.016244 -0.004247 437876.000000 1 0 0
-3.020827 -15.460186 7.409185 17.408009 1.377834 1.131150 -0.000377 -0.001369 100703.000000 1 0 0
-4.610027 -12.113086 -11.519215 17.339882 1.207141 2.297379 0.008506 -0.003377 454513.000000 1 0 0
-14.530727 -12.713786 -4.282515 19.776813 0.718807 1.789068 0.041330 -0.008653 363901.000000 1 0 0
-3.216727 -12.203486 -3.408815 13.072583 1.313068 1.834606 0.007887 -0.001496 808247.000000 1 0 0
-2.443327 -17.294786 -1.533515 17.533714 1.430450 1.658369 -0.002540 -0.009211 -989868.000000 1 0 0
-5.848727 -12.119086 3.751885 13.969842 1.121162 1.298888 -0.000980 0.000544 192063.000000 1 0 0
-8.828427 -10.837886 -11.931115 18.378041 0.887223 2.277335 0.031881 -0.010059 -252629.000000 1 0 0
-9.828227 -12.214686 -7.331015 17.307119 0.893242 2.008194 0.034084 -0.011357 -217400.000000 1 0 0
-10.903527 -15.141486 5.930685 19.578675 0.946701 1.263046 0.033145 -0.004336 -650079.000000 1 0 0
-9.439427 -15.770986 0.583485 18.389324 1.031458 1.539061 0.014293 0.004191 -1152770.000000 1 0 0
-14.800227 -7.675886 -8.207315 18.582948 0.478443 2.028243 0.030713 -0.013656 -143264.000000 1 0 0
-2.399227 -16.532586 5.086585 17.462990 1.426681 1.275234 0.009336 -0.004506 145627.000000 1 0 0
4.594273 -15.874186 5.944385 17.562256 -1.289076 1.225501 0.041782 -0.008765 -114331.000000 1 0 0
4.109873 -14.597686 -9.983115 18.156158 -1.296358 2.152978 -0.005378 -0.003021 -635630.000000 1 0 0
-7.550127 -14.119186 -0.348815 16.014915 1.079743 1.592579 0.007694 0.003929 861063.000000 1 0 0
3.036573 -14.995386 9.504185 18.011438 -1.370998 1.014935 0.026546 -0.009004 448883.000000 1 0 0
2.357573 -17.288886 10.322785 20.273717 -1.435269 1.036575 0.053272 -0.013584 -458868.000000 1 0 0
-8.208927 -17.171286 -5.751015 19.882498 1.124853 1.864240 0.035506 -0.014083 36449.400000 1 0 0
-6.452527 -9.180286 -7.731715 13.626891 0.958148 2.174125 0.010356 -0.006017 278844.000000 1 0 0
-6.101127 -13.166486 -4.930515 15.326124 1.136869 1.898328 0.006325 -0.008982 210706.000000 1 0 0
2.153073 -19.329186 -4.918515 20.061031 -1.459864 1.818499 0.014435 -0.015380 -203207.000000 1 0 0
-5.491227 -13.051886 8.263385 16.394781 1.172554 1.042543 0.004892 -0.001193 1067620.000000 1 0 0
2.268373 -17.419386 3.572685 17.926087 -1.441304 1.370152 0.029643 -0.010072 -155504.000000 1 0 0
-17.612827 -9.970386 -2.753115 20.425472 0.515110 1.705996 0.042468 -0.015440 815578.000000 1 0 0
-3.518727 -15.325286 2.505885 15.922477 1.345105 1.412759 0.004959 -0.003643 -26118.200000 1 0 0
-10.097327 -10.355786 -14.065015 20.174810 0.798034 2.342221 0.044712 -0.019139 168109.000000 1 0 0
5.992773 -14.549586 -5.544115 16.683555 -1.180085 1.909548 -0.003320 -0.007346 340594.000000 1 0 0
-7.141727 -12.344886 -10.831115 17.908476 1.046323 2.220316 0.020758 -0.012786 -1655520.000000 1 0 0
-7.193627 -14.288686 3.824585 16.448169 1.104393 1.336125 0.000843 0.004265 830795.000000 1 0 0
3.181473 -14.890786 -3.150715 15.549414 -1.360307 1.774835 0.004424 -0.005784 -742445.000000 1 0 0
-7.703327 -11.492486 7.722485 15.844723 0.980288 1.061704 0.006962 -0.003804 -434579.000000 1 0 0
-12.801727 -12.343486 -1.024715 17.812802 0.767176 1.628355 0.016335 0.004346 -1663150.000000 1 0 0
-1.875827 -13.680886 4.064985 14.394772 1.434533 1.284508 0.005635 0.000962 -3613730.000000 1 0 0
-3.188027 -13.967986 5.210485 15.245239 1.346402 1.221988 0.001307 0.000227 220139.000000 1 0 0
-14.431727 -10.240886 -4.431115 18.242403 0.617146 1.816153 0.016738 -0.009389 620916.000000 1 0 0
-6.217127 -8.807086 -10.541915 15.078110 0.956106 2.345009 0.011089 -0.002079 193205.000000 1 0 0
0.766973 -19.321186 2.289385 19.471460 -1.531121 1.452947 0.030843 -0.014115 74961.300000 1 0 0
6.313973 -13.987086 -8.132015 17.367628 -1.146767 2.058081 0.009480 -0.007729 -2618800.000000 1 0 0
-3.958027 -16.760586 -6.027515 18.245935 1.338894 1.907469 0.006134 -0.011910 201083.000000 1 0 0
-3.504027 -13.780986 -13.295615 19.467079 1.321807 2.322630 0.018201 -0.003088 -916807.000000 1 0 0
-8.198627 -14.757186 -4.584315 17.493083 1.063688 1.835957 0.017282 -0.010495 -2039450.000000 1 0 0
-4.636827 -14.491186 10.261085 18.351689 1.261115 0.977453 0.009473 -0.002593 104570.000000 1 0 0
-0.245127 -12.104086 -10.036615 15.725859 1.550548 2.262985 0.003421 0.004025 258053.000000 1 0 0
2.354273 -17.203886 6.604085 18.577681 -1.434796 1.207364 0.038537 -0.015193 -1467130.000000 1 0 0
-2.770227 -19.149286 -3.391815 19.643669 1.427128 1.744333 0.007345 -0.014821 -498815.000000 1 0 0
0.629273 -15.443186 -3.186515 15.781060 -1.530071 1.774114 0.001134 -0.003410 -473710.000000 1 0 0
6.058673 -17.980386 0.694985 18.986437 -1.245785 1.534184 0.034515 -0.002838 -275970.000000 1 0 0
-6.991727 -16.770686 3.776485 18.558071 1.175805 1.365869 -0.002236 0.006229 1074400.000000 1 0 0
-5.169427 -13.607586 -9.559215 17.414591 1.207743 2.151868 0.007474 -0.005921 2597.960000 1 0 0
5.671573 -15.201986 -2.143315 16.366457 -1.213709 1.702131 0.016226 -0.001328 -862323.000000 1 0 0
-8.946427 -10.397886 -0.650315 13.732352 0.860291 1.618170 0.002991 0.002013 -18188.400000 1 0 0
-7.214327 -18.181786 -3.072415 19.800596 1.193061 1.726594 0.012826 -0.022258 44340.200000 1 0 0
7.946473 -16.019286 -1.156215 17.919285 -1.110308 1.635365 0.023507 0.000972 280157.000000 1 0 0
-8.006127 -10.249386 -9.481815 16.095117 0.907666 2.200755 0.025347 -0.010251 -1347310.000000 1 0 0
-9.142127 -15.177986 -7.014415 19.056541 1.028667 1.947744 0.045892 -0.017703 -277853.000000 1 0 0
-11.485127 -10.481086 -11.946815 19.608358 0.739722 2.225938 0.053827 -0.009341 722525.000000 1 0 0
6.716873 -16.284786 2.606285 17.807396 -1.179592 1.423909 0.035405 -0.001825 894111.000000 1 0 0
-2.222627 -11.052986 -6.162115 12.848355 1.372354 2.070999 0.005308 -0.000657 324263.000000 1 0 0
-12.386727 -15.163986 -3.393615 19.871942 0.885864 1.742412 0.032127 -0.014906 -503369.000000 1 0 0
-0.217927 -19.563886 -2.904815 19.779562 1.559658 1.718189 0.032821 -0.017770 -299431.000000 1 0 0
-5.849627 -15.696686 -4.737215 17.408196 1.214073 1.846398 0.008344 -0.010674 -2710440.000000 1 0 0
2.016173 -15.936386 -1.024115 16.096029 -1.444951 1.634465 0.010584 -0.007383 -71214.400000 1 0 0
-13.140527 -11.940986 5.149885 18.487345 0.737609 1.288499 0.016570 -0.002444 211983.000000 1 0 0
2.032873 -15.281286 -8.716015 17.709297 -1.438543 2.085379 0.001423 0.001825 -2105600.000000 1 0 0
-11.711427 -16.892786 -0.356215 20.558469 0.964595 1.588124 0.056124 -0.005578 378427.000000 1 0 0
-7.610527 -16.629186 -1.114015 18.321872 1.141590 1.631636 0.012992 -0.004253 614386.000000 1 0 0
-2.922027 -14.434486 -1.892015 14.848311 1.371062 1.698567 0.003184 -0.002089 272803.000000 1 0 0
-1.805027 -10.333486 -13.362815 16.988345 1.397864 2.476059 0.002093 0.005815 240261.000000 1 0 0
1.495873 -19.566286 4.764285 20.193454 -1.494493 1.332619 0.047571 -0.012193 -74269.600000 1 0 0
-17.471827 -9.347386 2.375085 19.956938 0.491252 1.451503 0.034775 -0.005780 -268935.000000 1 0 0
-2.641927 -15.721686 -8.119215 17.890580 1.404308 2.041851 0.004182 -0.003138 -634845.000000 1 0 0
-10.635927 -12.232986 0.234985 16.211851 0.855120 1.556301 0.008234 0.005382 18923.100000 1 0 0
-6.963227 -11.489486 -6.689615 15.008190 1.025939 2.032787 0.008849 -0.009213 271490.000000 1 0 0
-2.266227 -13.600986 -6.748015 15.351166 1.405691 2.025924 -0.002274 0.000254 460618.000000 1 0 0
-14.279427 -14.518386 -1.178815 20.397921 0.793696 1.628619 0.044271 0.003982 -173951.000000 1 0 0
-9.584627 -11.264586 -4.372615 15.423221 0.865801 1.858247 0.017578 -0.009194 1492550.000000 1 0 0
9.493973 -15.048686 -5.178515 18.531473 -1.007977 1.854012 0.023133 -0.003526 244498.000000 1 0 0
-5.474027 -10.922686 -9.380815 15.403562 1.106220 2.225599 0.008448 -0.005113 -503677.000000 1 0 0
-10.400127 -15.997586 -4.880715 19.695349 0.994347 1.821216 0.048435 -0.014717 -1951610.000000 1 0 0
2.254773 -17.332986 -3.309515 17.789584 -1.441437 1.757923 0.013433 -0.009045 322708.000000 1 0 0
-0.365127 -14.456386 -8.257115 16.652338 1.545545 2.089613 0.002067 0.001089 -1074430.000000 1 0 0
-0.572927 -18.172186 -7.129915 19.529267 1.539279 1.944524 0.019093 -0.014269 89399.100000 1 0 0
-1.813527 -10.054786 -10.606215 14.726826 1.392350 2.374882 0.002226 0.002656 619276.000000 1 0 0
-5.009927 -17.203286 1.963985 18.025250 1.287415 1.461622 0.001558 -0.004974 -1903970.000000 1 0 0
0.252773 -12.773486 -2.698315 13.057823 -1.551010 1.778940 0.002798 -0.001246 -1070110.000000 1 0 0
2.647773 -14.980786 3.087485 15.523119 -1.395858 1.370565 0.021767 -0.002821 -991978.000000 1 0 0
-9.644427 -13.105586 6.745985 17.614757 0.936379 1.177783 0.007679 -0.000245 -158560.000000 1 0 0
-1.050227 -17.757586 -4.626615 18.380435 1.511723 1.825247 0.016576 -0.016143 -424155.000000 1 0 0
-9.668227 -17.492186 -2.440215 20.134692 1.065870 1.692290 0.042399 -0.020488 -1444940.000000 1 0 0
1.399273 -16.346186 1.344685 16.460982 -1.485402 1.489016 0.013318 -0.007390 123094.000000 1 0 0
-0.346427 -17.954186 4.114585 18.422883 1.551504 1.345556 0.023784 -0.010656 530191.000000 1 0 0
-17.400627 -9.353086 -0.240515 19.756515 0.493207 1.582971 0.022563 -0.005557 943253.000000 1 0 0
-14.848827 -7.088686 -10.778715 19.670227 0.445397 2.150733 0.058600 -0.021760 781187.000000 1 0 0
2.784673 -12.758286 -8.718315 15.701506 -1.355903 2.159464 -0.005897 0.001380 466506.000000 1 0 0
-11.783627 -15.016786 1.497985 19.146845 0.905456 1.492480 0.028290 0.012598 147681.000000 1 0 0
-2.314627 -15.764886 10.462585 19.061868 1.425016 0.989778 0.011006 -0.006216 -265139.000000 1 0 0
-6.986727 -15.902786 1.290485 17.417758 1.156843 1.496638 0.003126 0.002288 -1425510.000000 1 0 0
-12.502327 -14.930186 -5.955515 20.363860 0.873671 1.867590 0.045813 -0.016660 10481.100000 1 0 0
1.037373 -13.771386 -5.067915 14.710914 -1.495610 1.922503 0.002631 -0.001473 596822.000000 1 0 0
5.972173 -16.364986 -7.384615 18.921209 -1.220878 1.971735 0.013840 -0.012642 -7122.420000 1 0 0
-6.633127 -12.912186 5.962185 15.693010 1.096240 1.181080 0.003644 -0.001366 194394.000000 1 0 0
-2.535027 -13.587886 0.483185 13.830780 1.386352 1.535854 0.007769 -0.002099 1551120.000000 1 0 0
-4.246427 -15.519386 0.020485 16.089870 1.303713 1.569523 0.006099 -0.004929 70097.200000 1 0 0
-17.612827 -7.490086 -2.090615 19.253149 0.402094 1.679596 0.017938 -0.007009 548069.000000 1 0 0
1.244373 -12.741086 -11.943915 17.508308 -1.473439 2.321544 -0.002937 0.006452 -1160130.000000 1 0 0
1.270973 -17.051586 -5.743315 18.037672 -1.496397 1.894845 0.018642 -0.009011 -1290400.000000 1 0 0
-12.804127 -6.378086 -9.193015 17.004034 0.462148 2.141991 0.030215 -0.006593 -185396.000000 1 0 0
-11.391627 -13.832586 -8.681915 19.911937 0.881868 2.021963 0.050953 -0.014555 359326.000000 1 0 0
-4.421827 -9.885586 3.454085 11.366973 1.150190 1.262044 0.006919 0.000837 -4322740.000000 1 0 0
-7.215327 -14.305486 9.623585 18.690138 1.103655 1.029903 0.013506 -0.008785 167290.000000 1 0 0
-5.310027 -15.950686 -8.239215 18.721790 1.249433 2.026492 0.004811 -0.010819 -225893.000000 1 0 0
-0.282327 -13.409986 2.120185 13.579493 1.549746 1.414024 0.010268 -0.004061 764255.000000 1 0 0
-10.887827 -13.466286 -4.659515 17.933118 0.890879 1.833640 0.037999 -0.008076 -855257.000000 1 0 0
-9.855827 -10.563886 6.551385 15.863595 0.820060 1.145070 0.010951 -0.000148 -561442.000000 1 0 0
-15.537627 -8.039986 -4.916015 18.172133 0.477512 1.844735 0.036242 -0.011740 -63911.900000 1 0 0
-14.647927 -7.278286 5.259185 17.181218 0.461150 1.259702 0.017837 -0.004956 1125450.000000 1 0 0
-1.685827 -19.259086 0.008685 19.332731 1.483485 1.570347 0.019467 -0.012337 -543710.000000 1 0 0
-15.370927 -12.188686 -1.377915 19.665404 0.670440 1.640922 0.033673 0.004969 192542.000000 1 0 0
-4.438027 -12.123886 -6.886315 14.632362 1.219890 2.060792 0.005711 -0.003744 464354.000000 1 0 0
-7.184327 -18.482586 1.822885 19.913399 1.200062 1.479127 0.005409 0.001846 -135537.000000 1 0 0
-2.436227 -11.773086 -8.642215 14.806371 1.366744 2.194052 0.002134 0.002110 930164.000000 1 0 0
-1.242027 -20.324986 -5.164015 21.007492 1.509764 1.819160 0.030560 -0.013002 -94292.000000 1 0 0
-5.202527 -9.069586 -13.890215 17.385677 1.049997 2.496337 0.010350 -0.005231 131467.000000 1 0 0
-8.449027 -19.160486 -0.918815 20.960785 1.155485 1.614645 0.023983 -0.005750 283671.000000 1 0 0
-17.295127 -7.225486 5.458185 19.522317 0.395736 1.287432 0.044766 -0.011385 -97699.000000 1 0 0
-3.593327 -14.621486 -4.404415 15.687534 1.329815 1.855381 0.003651 -0.005811 -2514600.000000 1 0 0
-3.006927 -15.057486 -11.007215 18.892546 1.373693 2.192748 0.009037 0.002345 -243091.000000 1 0 0
-0.138627 -16.529186 6.261585 17.675991 1.562410 1.208693 0.036494 -0.015111 -622365.000000 1 0 0
-11.162427 -11.544886 3.836285 16.510640 0.802240 1.336301 0.011591 0.001675 -2842120.000000 1 0 0
-0.093927 -14.608686 -0.158715 14.609850 1.564367 1.581660 0.004293 -0.003101 1675940.000000 1 0 0
-7.332527 -9.527786 -2.536415 12.287313 0.914873 1.778717 0.006969 -0.000039 -228297.000000 1 0 0
-11.093327 -14.455986 -0.910915 18.244649 0.916260 1.620745 0.018981 -0.003056 222434.000000 1 0 0
0.436473 -14.655686 -10.636615 18.114006 -1.541023 2.198396 0.000505 0.001710 -1675.850000 1 0 0
-1.358427 -14.014486 -3.959915 14.626417 1.474168 1.844955 -0.002789 -0.002142 -3161360.000000 1 0 0
-11.446327 -8.151386 -7.700315 16.023681 0.618827 2.072088 0.021018 -0.006220 644096.000000 1 0 0
-0.191327 -17.195886 -0.423415 17.202162 1.559670 1.595413 0.009676 -0.010951 -369234.000000 1 0 0
-12.868627 -9.474686 4.449985 16.588357 0.634651 1.299210 0.008848 -0.001197 -480167.000000 1 0 0
4.057473 -16.807786 1.774985 17.381465 -1.333924 1.468499 0.028874 -0.006902 1533490.000000 1 0 0
-3.704127 -17.928586 -8.306815 20.103679 1.367058 1.996760 0.020342 -0.015356 238909.000000 1 0 0
-13.357127 -11.284786 2.609385 17.679596 0.701497 1.422662 0.007516 0.000838 1345850.000000 1 0 0
-8.579227 -12.177986 4.181585 15.472302 0.957066 1.297131 0.007514 -0.000526 1008440.000000 1 0 0
-8.212327 -9.505286 -5.918815 13.886149 0.858245 2.011127 0.013782 -0.006829 890705.000000 1 0 0
3.866373 -17.405686 -5.365215 18.619674 -1.352213 1.863088 -0.002896 -0.001245 -1121740.000000 1 0 0
-2.506827 -13.242486 11.261585 17.563340 1.383708 0.874737 0.002029 -0.003597 288263.000000 1 0 0
0.150573 -16.813686 -9.470815 19.298162 -1.561841 2.083761 0.011788 -0.000912 -245301.000000 1 0 0
-6.962727 -10.886786 -14.534915 19.449047 1.001797 2.414835 0.018778 -0.003806 -504801.000000 1 0 0
-4.438127 -19.008986 -1.608115 19.586336 1.341430 1.652993 0.009067 -0.012892 -675302.000000 1 0 0
-2.451727 -17.091186 1.114985 17.302104 1.428319 1.506309 0.010605 -0.014409 186192.000000 1 0 0
4.021473 -14.663286 -7.356715 16.890987 -1.303123 2.021435 -0.000522 -0.004043 -1014310.000000 1 0 0
-0.865527 -15.739086 -6.208515 16.941476 1.515859 1.946007 0.004445 -0.007298 -94515.100000 1 0 0
-9.586427 -15.299086 8.189585 19.825007 1.011046 1.144948 0.016335 -0.006569 -331725.000000 1 0 0
-7.150527 -12.055286 -1.785515 14.129686 1.035433 1.697501 0.006473 -0.000487 878966.000000 1 0 0
-7.317127 -15.091686 -9.441415 19.246809 1.119346 2.083511 0.029418 -0.015701 -534011.000000 1 0 0
-5.017527 -13.279486 -0.746715 14.215411 1.209538 1.623349 0.005899 0.000910 1564220.000000 1 0 0
-6.426427 -13.834486 -7.335615 16.926406 1.135932 2.019039 0.007595 -0.011658 197079.000000 1 0 0
5.777673 -15.375886 0.373285 16.429812 -1.211358 1.548074 0.023156 -0.002152 364543.000000 1 0 0
-14.647927 -12.801586 0.899685 19.474388 0.718236 1.524582 0.025587 0.002516 1102380.000000 1 0 0
0.723373 -15.389586 10.995485 18.927845 -1.523827 0.950943 0.017388 -0.009139 696816.000000 1 0 0
-9.393227 -10.844386 1.952385 14.479131 0.856982 1.435543 0.006596 0.004374 79904.700000 1 0 0
-9.454827 -8.781786 -3.640515 13.407717 0.748509 1.845772 0.009941 -0.003786 -352485.000000 1 0 0
-12.059927 -7.270086 -12.393415 18.758804 0.542498 2.292510 0.042472 -0.009913 -532197.000000 1 0 0
-13.269127 -8.354186 -0.658815 15.693826 0.561897 1.612788 0.005787 -0.001202 -243867.000000 1 0 0
-11.301527 -9.691686 0.457685 14.895058 0.708864 1.540064 0.001719 0.005145 1462700.000000 1 0 0
-15.874427 -12.140486 3.033385 20.213616 0.652895 1.420161 0.036580 0.003415 385563.000000 1 0 0
-10.513627 -12.381086 -2.253115 16.398298 0.866785 1.708632 0.020321 -0.006767 538659.000000 1 0 0
-3.343627 -8.883586 -12.080215 15.363253 1.210814 2.475603 0.003729 0.001753 -1246220.000000 1 0 0
-0.207227 -15.522586 3.832585 15.990070 1.557447 1.328755 0.020981 -0.006880 -868418.000000 1 0 0
-15.831027 -7.756486 1.125385 17.664965 0.455579 1.507046 0.015187 -0.003719 702646.000000 1 0 0
-6.036427 -13.569286 -13.263415 19.911860 1.152225 2.299772 0.021369 -0.011583 -590205.000000 1 0 0
-15.373427 -10.351686 1.109985 18.566952 0.592615 1.510978 0.019774 -0.001071 145304.000000 1 0 0
-9.778627 -8.477686 -12.481115 17.979737 0.714259 2.338072 0.026105 -0.010695 487385.000000 1 0 0
-13.261027 -11.564886 -6.273815 18.680529 0.717183 1.913302 0.036793 -0.012690 -80191.900000 1 0 0
-12.235727 -11.347486 -3.874415 17.131537 0.747752 1.798927 0.018982 -0.005084 -1684550.000000 1 0 0
-11.609027 -11.249686 -8.964915 18.484984 0.769679 2.077141 0.041309 -0.017835 1149630.000000 1 0 0
-13.226327 -8.514686 -5.956315 16.820026 0.571982 1.932770 0.018603 -0.009323 -2220280.000000 1 0 0
-13.455127 -8.208586 -3.293315 16.101778 0.547792 1.776781 0.012008 -0.006730 652837.000000 1 0 0
-4.285627 -17.019286 -3.370215 17.871235 1.324115 1.760516 0.002157 -0.012749 130776.000000 1 0 0
-15.393527 -8.924886 -1.836615 17.888192 0.525420 1.673649 0.024055 -0.004722 -2049290.000000 1 0 0
-9.362627 -15.627186 3.507285 18.551786 1.031021 1.380598 0.009328 0.002163 -1583060.000000 1 0 0
4.429573 -17.250886 8.105085 19.567999 -1.319453 1.143732 0.057170 -0.023354 -423542.000000 1 0 0
-8.278727 -15.419286 5.880685 18.462778 1.078061 1.246633 0.002838 0.002643 358786.000000 1 0 0
0.929073 -16.075986 8.504785 18.210762 -1.513068 1.084879 0.022588 -0.008468 -276442.000000 1 0 0
-10.857227 -7.881786 -10.140915 16.817850 0.627930 2.218034 0.029566 -0.011101 945875.000000 1 0 0
-4.889827 -15.958686 5.710085 17.640724 1.273473 1.241172 0.003316 -0.005629 -1707510.000000 1 0 0
-1.248527 -13.438386 -12.059715 18.099330 1.478155 2.300042 0.002274 0.003394 -1523720.000000 1 0 0
-6.399827 -14.393686 -2.657915 15.974996 1.152419 1.737953 0.010417 -0.006084 391865.000000 1 0 0
-17.515827 -6.912786 -7.296615 20.194836 0.375894 1.940470 0.039068 -0.021826 185147.000000 1 0 0
-17.211527 -4.313586 -10.273815 20.503535 0.245564 2.095637 0.046513 -0.016706 1109970.000000 1 0 0
-15.190627 -5.256586 -8.864715 18.356743 0.333144 2.074775 0.029159 -0.025540 -211457.000000 1 0 0
-16.163027 -5.325586 -5.655015 17.932777 0.318289 1.891617 0.033095 -0.011423 414747.000000 1 0 0
-15.185027 -4.312286 -12.382415 20.062529 0.276698 2.235964 0.048507 -0.018420 72470.700000 1 0 0
-18.789527 -5.236486 -5.749215 20.335205 0.271795 1.857427 0.047147 -0.015822 -473165.000000 1 0 0
-17.391527 -4.252886 -7.713015 19.494688 0.239831 1.977569 0.036338 -0.015550 1820820.000000 1 0 0
12.135173 -7.895286 8.723885 16.902785 -0.576805 1.028480 0.033615 -0.015023 453365.000000 1 0 0
16.019273 -3.563686 1.821085 16.511612 -0.218898 1.460280 0.024957 -0.010734 -326432.000000 1 0 0
11.940873 -2.136686 12.462585 17.391547 -0.177065 0.771897 0.038769 -0.010899 193803.000000 1 0 0
9.628573 -10.083386 5.244485 14.895929 -0.808467 1.211009 0.011449 -0.009176 -121639.000000 1 0 0
17.316773 -2.375886 7.431585 18.993260 -0.136350 1.168780 0.063116 -0.017002 520253.000000 1 0 0
5.242273 -12.720786 9.110785 16.501704 -1.179900 0.985901 0.016727 -0.002641 -496413.000000 1 0 0
15.071073 -9.130286 -2.008415 17.735081 -0.544684 1.684285 0.039934 -0.010548 333573.000000 1 0 0
11.225973 -8.612086 6.407385 15.532066 -0.654392 1.145571 0.021894 -0.009183 -1730840.000000 1 0 0
19.857973 -2.849786 3.286385 20.328815 -0.142535 1.408422 0.065919 -0.021665 737501.000000 1 0 0
13.712773 -8.597986 6.855985 17.577544 -0.560040 1.170119 0.036445 -0.012969 -744337.000000 1 0 0
8.214373 -11.140286 8.666085 16.330429 -0.935436 1.011404 0.009554 -0.003833 -1390100.000000 1 0 0
16.708673 0.025614 -0.536715 16.717311 0.001533 1.602907 0.010446 -0.004712 -1440220.000000 1 0 0
12.440273 -12.305086 2.212885 17.637245 -0.779935 1.444998 0.029382 -0.015827 -216030.000000 1 0 0
10.344173 -11.760886 3.645085 16.081262 -0.849401 1.342143 0.015755 -0.010343 -1180500.000000 1 0 0
16.322373 2.876114 2.411785 16.748391 0.174416 1.426293 0.011026 -0.006841 -920511.000000 1 0 0
18.282873 -3.295386 0.533785 18.585154 -0.178330 1.542071 0.038157 -0.017001 422885.000000 1 0 0
13.490073 -11.650286 -0.238315 17.826049 -0.712348 1.584166 0.050440 -0.010864 -585584.000000 1 0 0
16.987373 -7.726186 -0.927315 18.684879 -0.426854 1.620446 0.049948 -0.012842 -121777.000000 1 0 0
10.162673 -5.644786 9.740085 15.166173 -0.507013 0.873400 0.023700 -0.010237 -671234.000000 1 0 0
11.470573 -13.272286 6.119385 18.578872 -0.858087 1.235157 0.027043 -0.013075 -269549.000000 1 0 0
13.188773 -1.750586 10.294785 16.822333 -0.131962 0.912246 0.041252 -0.010018 819084.000000 1 0 0
15.577073 -2.108586 -1.301915 15.772962 -0.134547 1.653431 0.007283 -0.008310 114745.000000 1 0 0
10.436773 -12.454086 8.860985 18.508040 -0.873299 1.071550 0.025577 -0.018168 136735.000000 1 0 0
14.370073 1.196414 3.236285 14.778496 0.083066 1.350021 0.009041 -0.008746 1374090.000000 1 0 0
14.877473 -5.901986 5.228685 16.837808 -0.377664 1.255043 0.031978 -0.012924 -275.261000 1 0 0
14.313973 -3.430886 -3.053615 15.032810 -0.235250 1.775350 0.014214 -0.005822 1026300.000000 1 0 0
14.132173 0.647414 9.569985 17.079873 0.045779 0.976039 0.038534 -0.009459 775418.000000 1 0 0
15.339973 -3.463686 4.450885 16.343876 -0.222071 1.294985 0.021568 -0.011737 -1200830.000000 1 0 0
18.525873 4.910514 -4.282615 19.638277 0.259104 1.790638 0.012438 0.005099 461349.000000 1 0 0
18.290273 -5.794086 -5.151315 19.865588 -0.306784 1.833102 0.070757 -0.012417 649417.000000 1 0 0
17.266073 0.040814 6.286385 18.374917 0.002364 1.221627 0.043791 -0.010584 -152838.000000 1 0 0
16.998373 -6.608086 3.963985 18.663458 -0.370769 1.356773 0.045677 -0.016653 35985.700000 1 0 0
9.575873 -6.737586 14.286885 18.471803 -0.613138 0.686541 0.039229 -0.005282 -512295.000000 1 0 0
8.536073 -12.306986 5.135085 15.833368 -0.964381 1.240503 0.014334 -0.008557 -2117710.000000 1 0 0
16.860373 -10.293786 -0.425315 19.758925 -0.548127 1.592323 0.052786 -0.008927 82317.600000 1 0 0
15.004473 -8.803986 0.427385 17.401926 -0.530625 1.546234 0.052138 -0.014170 416331.000000 1 0 0
10.012673 -13.007986 1.502485 16.483895 -0.914785 1.479521 0.021743 -0.012977 80737.100000 1 0 0
17.187073 -7.974486 8.831185 20.904012 -0.434420 1.134635 0.068521 -0.021261 171384.000000 1 0 0
19.125173 -0.134086 -1.576815 19.190533 -0.007011 1.653055 0.044386 -0.012267 -482261.000000 1 0 0
13.377973 -1.192386 7.719985 15.491614 -0.088896 1.049121 0.021222 -0.013512 -238810.000000 1 0 0
12.763773 -9.775786 -3.057715 16.365498 -0.653600 1.758740 0.028400 -0.010845 -2300860.000000 1 0 0
8.853973 -15.320286 1.477085 17.756289 -1.046767 1.487514 0.030527 -0.002391 131527.000000 1 0 0
11.300673 -8.431486 11.130685 17.963500 -0.641003 0.902528 0.037212 -0.012692 940772.000000 1 0 0
13.967873 -3.975786 -0.448615 14.529611 -0.277304 1.601677 0.010956 -0.010908 -365169.000000 1 0 0
7.183173 -13.276186 10.731385 18.520737 -1.074845 0.952773 0.023981 0.000550 -140605.000000 1 0 0
15.515673 -6.896486 1.866385 17.081599 -0.418258 1.461315 0.043978 -0.014098 806542.000000 1 0 0
15.968973 -6.226986 -2.657315 17.344878 -0.371806 1.724607 0.046659 -0.012526 130926.000000 1 0 0
11.153773 -8.616186 3.797685 14.596840 -0.657740 1.307596 0.020267 -0.010861 771973.000000 1 0 0
10.736473 -14.481286 -0.396415 18.031546 -0.932820 1.592783 0.043700 -0.009534 611734.000000 1 0 0
13.466573 -12.924086 4.511085 19.202356 -0.764845 1.333656 0.028256 -0.015073 243388.000000 1 0 0
12.981173 -11.189486 6.523685 18.337773 -0.711407 1.207079 0.027270 -0.012512 -36374.400000 1 0 0
10.834173 -10.531186 1.370285 15.171119 -0.771218 1.480351 0.018972 -0.010656 244295.000000 1 0 0
13.851673 -7.768486 11.806485 19.789172 -0.511123 0.931522 0.048450 -0.021046 704770.000000 1 0 0
15.233873 -1.806286 -4.860015 16.092026 -0.118019 1.877601 0.015337 -0.003331 -1173030.000000 1 0 0
12.941973 -11.453186 -6.993815 18.643594 -0.724446 1.955336 0.039227 -0.005823 -304884.000000 1 0 0
17.816973 -5.514086 1.803185 18.737693 -0.300136 1.474414 0.057876 -0.011309 527389.000000 1 0 0
10.419473 -9.831786 9.063985 16.952441 -0.756387 1.006678 0.011700 -0.008585 -979172.000000 1 0 0
16.552573 1.819414 9.725085 19.284066 0.109478 1.042217 0.067234 -0.016483 -171746.000000 1 0 0
18.027473 3.827714 0.621885 18.439846 0.209220 1.537065 0.008915 -0.005471 516082.000000 1 0 0
13.151073 -4.036386 5.773385 14.918951 -0.297797 1.173439 0.019591 -0.013263 -951747.000000 1 0 0
12.157673 -6.283586 6.605585 15.196257 -0.477030 1.121108 0.022610 -0.012616 -322426.000000 1 0 0
16.551673 -10.282286 3.433585 19.785671 -0.555879 1.396374 0.036523 -0.011574 -265491.000000 1 0 0
16.180273 -7.966186 -5.654515 18.900659 -0.457500 1.874619 0.052243 -0.011310 -101331.000000 1 0 0
13.948473 -0.444186 5.257185 14.912920 -0.031834 1.210528 0.012692 -0.010805 535545.000000 1 0 0
18.472473 -4.207186 4.876485 19.563046 -0.223935 1.318870 0.076114 -0.017095 249135.000000 1 0 0
13.825973 -13.553586 7.024185 20.596029 -0.775450 1.222767 0.050095 -0.017058 -133900.000000 1 0 0
15.042573 -13.652586 -0.849915 20.332104 -0.736996 1.612610 0.052803 -0.008831 160936.000000 1 0 0
17.779273 -5.766686 7.619485 20.184493 -0.313643 1.183710 0.057370 -0.021930 178137.000000 1 0 0
14.377573 3.302814 9.375685 17.479321 0.225802 1.004646 0.036590 -0.007787 221157.000000 1 0 0
18.752173 3.601714 3.098885 19.344752 0.189758 1.409911 0.038121 -0.010908 -453278.000000 1 0 0
15.020873 -10.478786 8.144585 20.044098 -0.609123 1.152359 0.049009 -0.020141 -409490.000000 1 0 0
14.695173 -4.923086 10.356785 18.639954 -0.323262 0.981684 0.047327 -0.021710 14999.100000 1 0 0
17.931673 -8.045486 2.027185 19.758143 -0.421751 1.468015 0.074878 -0.018233 -187066.000000 1 0 0
18.507473 -5.850986 -2.039515 19.517178 -0.306199 1.675486 0.054240 -0.017600 828378.000000 1 0 0
14.337573 -12.895686 -5.341015 20.009777 -0.732502 1.840992 0.042569 -0.011125 -1108480.000000 1 0 0
15.531973 -1.311886 9.043285 18.020661 -0.084264 1.045085 0.058427 -0.020661 -502070.000000 1 0 0
12.926173 -10.059186 9.960785 19.170039 -0.661308 1.024412 0.027158 -0.024836 -1139060.000000 1 0 0
16.277273 1.965614 4.931685 17.121179 0.120176 1.278611 0.023535 -0.009567 -684029.000000 1 0 0
14.945673 2.301314 0.080585 15.122026 0.152779 1.565467 -0.000318 -0.001770 -1283750.000000 1 0 0
15.018973 -9.973786 -6.786315 19.263957 -0.586209 1.930803 0.045174 -0.014395 808675.000000 1 0 0
16.315673 -0.207186 -3.124215 16.613393 -0.012698 1.759977 0.016426 -0.001950 103249.000000 1 0 0
11.898973 2.449414 13.595685 18.232604 0.203015 0.729242 0.036299 -0.001538 -75014.500000 1 0 0
17.256973 -3.113486 9.870385 20.122659 -0.178499 1.058120 0.028537 -0.009373 434470.000000 1 0 0
8.287273 -18.058286 4.499885 20.372274 -1.140551 1.348077 0.066245 -0.016254 -482931.000000 1 0 0
6.786473 -11.172986 6.554885 14.623897 -1.024953 1.106011 0.013365 -0.007076 -203644.000000 1 0 0
17.927173 2.119214 -1.326015 18.100633 0.117666 1.644120 0.010808 -0.002579 312676.000000 1 0 0
17.367273 -2.135286 3.619885 17.868553 -0.122335 1.366800 0.018540 -0.011013 -2080760.000000 1 0 0
12.621173 -13.514486 -1.866115 18.585417 -0.819565 1.671373 0.044032 -0.005200 606358.000000 1 0 0
15.004973 -8.300586 4.338585 17.688196 -0.505288 1.322986 0.037142 -0.011343 -126038.000000 1 0 0
11.395173 -3.322386 14.755885 18.937380 -0.283697 0.677418 0.039957 -0.014294 139780.000000 1 0 0
12.110173 -13.822186 -6.332015 19.437169 -0.851321 1.902621 0.031124 -0.006510 534714.000000 1 0 0
10.701473 -12.016286 -1.210215 16.136210 -0.843210 1.645867 0.026668 -0.010334 -989954.000000 1 0 0
13.224073 -8.026386 2.215285 15.627107 -0.545516 1.428558 0.034320 -0.010902 -1171060.000000 1 0 0
8.735773 -7.709986 9.952585 15.323562 -0.723105 0.863876 0.013489 -0.002925 -751770.000000 1 0 0
15.385673 -3.825786 8.117385 17.811443 -0.243716 1.097593 0.042467 -0.018602 -1716500.000000 1 0 0
10.718273 -16.959486 4.948685 20.663858 -1.007184 1.328961 0.058963 -0.027244 213798.000000 1 0 0
15.225473 -6.436686 8.201785 18.453055 -0.399970 1.110216 0.045811 -0.015094 -189937.000000 1 0 0
16.631673 -5.084986 -0.347415 17.395124 -0.296715 1.590770 0.035558 -0.014962 -548004.000000 1 0 0
14.009173 -10.563186 3.413085 17.874199 -0.646068 1.378666 0.045359 -0.016195 -677825.000000 1 0 0
14.979573 -9.846786 -4.291415 18.432663 -0.581523 1.805768 0.049680 -0.021709 302115.000000 1 0 0
13.646473 -6.583586 -0.012215 15.151567 -0.449500 1.571603 0.027599 -0.009764 423334.000000 1 0 0
17.635673 -1.030086 -5.090515 18.384542 -0.058343 1.851353 0.021908 -0.004472 -937116.000000 1 0 0
14.395773 0.145114 -1.562015 14.480996 0.010080 1.678873 0.004198 -0.003692 -1969640.000000 1 0 0
4.836273 -12.771286 11.726785 18.000355 -1.208800 0.861269 0.009443 0.000775 -498908.000000 1 0 0
11.927873 -7.488186 13.505885 19.512970 -0.560602 0.806334 0.045549 -0.011413 -1027010.000000 1 0 0
12.017873 -5.879386 11.482185 17.630571 -0.454987 0.861545 0.039126 -0.015701 335965.000000 1 0 0
13.249773 -4.786186 8.340985 16.371808 -0.346642 1.036225 0.037340 -0.015110 -1938390.000000 1 0 0
15.253673 -1.314286 2.976485 15.596838 -0.085950 1.378780 0.020447 -0.009516 6438.750000 1 0 0
15.247073 -10.459386 5.654085 19.334960 -0.601263 1.274031 0.049820 -0.017190 -413147.000000 1 0 0
13.558873 -7.978286 -5.629715 16.708973 -0.531860 1.914448 0.038211 -0.012467 -1018600.000000 1 0 0
9.536073 -2.105486 13.349685 16.540370 -0.217305 0.631578 0.019807 -0.013301 -619127.000000 1 0 0
9.980273 -9.255086 13.699285 19.311470 -0.747715 0.782170 0.051589 -0.004401 -120431.000000 1 0 0
20.295973 6.158514 -2.917915 21.409532 0.294605 1.707512 0.051281 0.001481 -631278.000000 1 0 0
11.406473 -3.698286 10.603385 16.006771 -0.313533 0.846737 0.029391 -0.007697 985208.000000 1 0 0
10.231573 -13.946686 -2.929515 17.543580 -0.937861 1.738567 0.024995 -0.004378 1032530.000000 1 0 0
15.038473 -12.733686 2.325385 19.842123 -0.702599 1.453332 0.043732 -0.014439 662563.000000 1 0 0
11.399673 -0.684786 14.520185 18.473149 -0.059999 0.666459 0.047727 -0.005033 202764.000000 1 0 0
19.014673 -1.715686 5.551985 19.882804 -0.089986 1.287798 0.072153 -0.020470 872536.000000 1 0 0
19.126273 -0.573586 7.906885 20.704158 -0.029980 1.178947 0.078866 -0.017210 -210329.000000 1 0 0
18.755873 0.658114 0.848085 18.786568 0.035074 1.525638 0.026723 -0.011809 29080.500000 1 0 0
18.505873 0.824814 3.990885 18.949270 0.044541 1.358599 0.038391 -0.016230 475281.000000 1 0 0
16.660273 -3.932386 -4.167515 17.618074 -0.231791 1.809607 0.031207 -0.008725 1032290.000000 1 0 0
11.058873 -8.068786 15.849285 20.942870 -0.630330 0.712413 0.072338 -0.012529 460012.000000 1 0 0
16.624173 -7.633186 6.307385 19.349723 -0.430447 1.238761 0.049822 -0.013317 295522.000000 1 0 0
18.426273 2.289914 6.190685 19.572834 0.123640 1.248981 0.032660 -0.011479 106106.000000 1 0 0
15.151973 1.834814 7.552185 17.028926 0.120507 1.111306 0.030639 -0.009700 -88877.900000 1 0 0
8.864073 -15.497486 4.023485 18.301156 -1.051243 1.349137 0.031419 -0.021610 283371.000000 1 0 0
11.426873 -15.170086 1.979585 19.095122 -0.925218 1.466940 0.040269 -0.008192 291135.000000 1 0 0
8.568273 -16.120986 6.329985 19.322790 -1.082269 1.237043 0.044457 -0.013975 191336.000000 1 0 0
14.450773 -11.646086 -2.533015 18.731586 -0.678337 1.706439 0.044938 -0.010782 334493.000000 1 0 0
13.671873 -4.831086 3.176985 14.844283 -0.339665 1.355107 0.015513 -0.007182 -1430040.000000 1 0 0
-0.969427 10.203514 -5.474815 11.620030 -1.476072 2.061394 -0.003884 0.003912 -1872710.000000 1 0 0
8.320473 -1.653586 -7.973415 11.642163 -0.196181 2.325227 -0.004150 -0.001445 -3276720.000000 1 0 0
2.915973 -10.040186 7.650285 12.955118 -1.288142 0.939091 -0.001794 -0.000814 707945.000000 1 0 0
-6.356927 1.308514 8.298585 10.535143 -0.203005 0.663722 -0.002499 0.002425 90261.500000 1 0 0
7.323073 -6.256886 -7.263415 12.063715 -0.707047 2.216910 -0.003608 -0.003347 -61854.000000 1 0 0
-11.193427 -4.517486 -4.171215 12.771042 0.383592 1.903516 0.006047 -0.001897 523151.000000 1 0 0
2.082573 -3.139286 2.917085 4.764621 -0.985065 0.911908 0.002471 -0.002817 1749540.000000 1 0 0
-3.617527 -4.279986 8.745785 10.387181 0.869084 0.569856 0.002249 -0.002734 -2131880.000000 1 0 0
-4.840927 -0.942586 -2.393115 5.481792 0.192306 2.022565 0.002267 -0.004778 -364294.000000 1 0 0
4.847373 -5.169086 -3.543415 7.922895 -0.817506 2.034471 0.002483 -0.004666 540829.000000 1 0 0
2.851873 14.345714 -8.759515 17.048806 1.374559 2.110394 0.013340 -0.007535 489413.000000 1 0 0
5.429073 -5.556086 13.685285 15.736326 -0.796960 0.516279 0.009687 -0.004676 -1047500.000000 1 0 0
-4.756327 -0.978286 9.966685 11.086681 0.202852 0.453365 0.004370 -0.000364 -3293430.000000 1 0 0
-1.019327 11.967914 -2.657515 12.301723 -1.485830 1.788541 -0.003013 -0.000192 659964.000000 1 0 0
3.157873 9.493714 -10.508915 14.509999 1.249681 2.380747 0.002601 -0.001046 -781722.000000 1 0 0
-10.572627 2.639114 1.127885 10.955249 -0.244619 1.467660 -0.002193 -0.000017 188458.000000 1 0 0
5.701873 -9.070286 -0.747215 10.739636 -1.009589 1.640428 -0.001672 -0.002847 432684.000000 1 0 0
-6.989027 5.458414 9.454585 12.962637 -0.663046 0.753393 -0.002874 0.002260 104765.000000 1 0 0
-5.616427 -1.855886 5.213285 7.884599 0.319143 0.848381 0.000216 -0.003402 602382.000000 1 0 0
6.718273 -3.766786 -7.283915 10.600910 -0.511004 2.328290 -0.002477 -0.002804 270568.000000 1 0 0
6.113273 4.741714 11.109985 13.538380 0.659711 0.608286 0.003430 0.004182 658497.000000 1 0 0
3.775173 -9.897386 3.302185 11.095702 -1.206399 1.268609 -0.002390 -0.000291 1342130.000000 1 0 0
-6.510927 6.768114 -5.825015 11.051260 -0.804764 2.125970 -0.001996 -0.001359 -76693.100000 1 0 0
-11.012327 8.477414 5.197785 14.837616 -0.656060 1.212893 -0.001061 -0.006346 480281.000000 1 0 0
-9.230427 -5.512786 5.041285 11.874601 0.538388 1.132339 0.001627 -0.003843 -2195810.000000 1 0 0
3.313673 9.831314 -7.935715 13.061805 1.245702 2.223770 0.004190 -0.001585 608190.000000 1 0 0
-8.141427 -8.588186 6.045485 13.288629 0.812097 1.098495 0.002726 -0.001305 -236831.000000 1 0 0
-7.753027 -5.857786 -7.575515 12.321181 0.647043 2.232975 0.009200 -0.002480 -641850.000000 1 0 0
9.196973 -1.682286 7.007185 11.683965 -0.180917 0.927637 0.005228 -0.008415 1936360.000000 1 0 0
-4.049227 -0.322286 -4.805215 6.292074 0.079425 2.439811 0.008191 -0.008744 -1491290.000000 1 0 0
9.066073 1.172614 -4.583315 10.226215 0.128627 2.035539 -0.001598 -0.002315 -3124240.000000 1 0 0
-1.940227 -10.792786 10.865085 15.436929 1.392925 0.790011 0.001109 -0.001802 139941.000000 1 0 0
-12.839127 0.326714 -2.715215 13.127159 -0.025441 1.779140 0.003638 -0.004082 -609608.000000 1 0 0
-9.737027 -5.190386 -6.100015 12.607933 0.489742 2.075815 0.006944 -0.002874 -1286640.000000 1 0 0
-5.511927 8.363214 -0.107115 10.016794 -0.988073 1.581490 -0.005636 0.001326 203110.000000 1 0 0
6.154473 9.633914 0.434485 11.440219 1.002311 1.532808 0.009307 -0.002193 826375.000000 1 0 0
-0.551227 -12.028186 -0.022615 12.040831 1.525000 1.572675 0.009146 -0.000373 -68267.100000 1 0 0
6.323873 4.736814 2.375785 8.250644 0.642884 1.278709 -0.001153 -0.000011 276133.000000 1 0 0
3.521373 -7.465686 -8.267915 11.683106 -1.130065 2.357007 -0.003486 -0.002209 326876.000000 1 0 0
-6.642927 -9.855086 4.522785 12.716398 0.977692 1.207170 0.006533 0.001875 -2304790.000000 1 0 0
0.110073 6.557014 -9.284215 11.366758 1.554011 2.526615 0.004083 -0.001968 -2819450.000000 1 0 0
-17.388927 -2.754686 4.174485 18.093905 0.157111 1.337987 0.029074 -0.007538 338999.000000 1 0 0
-8.349827 0.908414 -9.109115 12.390351 -0.108368 2.396726 -0.000597 -0.003375 1131120.000000 1 0 0
-9.956027 -5.916586 -11.866815 16.581609 0.536197 2.368367 0.013769 -0.001623 276375.000000 1 0 0
2.008073 9.404514 6.431185 11.568811 1.360433 0.981342 -0.003009 0.004457 504227.000000 1 0 0
-11.344627 1.679314 -1.245515 11.535682 -0.146960 1.678978 0.001678 -0.003148 -1498150.000000 1 0 0
-5.986327 -5.315586 -3.117615 8.591338 0.726120 1.942152 0.011237 -0.004221 654807.000000 1 0 0
-7.091627 -8.282986 1.332585 10.985209 0.862732 1.449190 0.006322 0.001360 397757.000000 1 0 0
0.119773 10.973614 -7.756115 13.438447 1.559882 2.186041 0.000013 0.001599 476447.000000 1 0 0
-2.894627 9.289014 -4.285115 10.631409 -1.268715 1.985656 -0.003019 0.001473 80731.900000 1 0 0
3.383273 -4.806486 9.339685 11.035332 -0.957459 0.561713 -0.000577 -0.002447 -975648.000000 1 0 0
-8.892227 1.613914 -0.419015 9.047209 -0.179543 1.617127 -0.002324 -0.001290 -1529230.000000 1 0 0
2.617073 3.562114 -10.416815 11.315819 0.937162 2.740291 0.001338 -0.001460 487065.000000 1 0 0
-13.665727 0.537714 1.005785 13.713236 -0.039327 1.497386 0.003327 -0.004057 -75710.000000 1 0 0
9.409673 -12.502386 -4.963515 16.416092 -0.925614 1.877960 0.025018 -0.005891 -1617980.000000 1 0 0
-4.647327 9.475214 -8.415015 13.497770 -1.114800 2.243928 0.002577 0.000526 -439688.000000 1 0 0
-2.388927 7.192314 8.458585 11.357113 -1.250111 0.730587 0.000056 0.001913 35440.300000 1 0 0
-10.684627 -1.176286 -4.489415 11.649023 0.109650 1.966427 0.001789 -0.002411 -2210820.000000 1 0 0
2.553573 -7.102786 9.746685 12.327537 -1.225668 0.658937 -0.001760 0.001089 -1780880.000000 1 0 0
-16.182527 -6.488086 3.217985 17.729209 0.381309 1.388277 0.026427 -0.008961 -173122.000000 1 0 0
-10.764427 -0.024386 6.246385 12.445514 0.002265 1.045004 0.001306 -0.000170 -3429620.000000 1 0 0
-8.530727 10.120414 9.344485 16.202329 -0.870425 0.956067 0.001782 -0.005693 -647833.000000 1 0 0
0.297573 -5.926786 -3.833215 7.064622 -1.520630 2.144317 0.003473 -0.000578 480844.000000 1 0 0
4.942073 1.445514 -2.932415 5.925593 0.284554 2.088485 -0.001355 -0.001913 -591608.000000 1 0 0
0.252473 5.287014 3.914485 6.583271 1.523079 0.934015 -0.004051 0.001428 -1798660.000000 1 0 0
5.936673 -11.341286 -1.490615 12.887622 -1.088560 1.686718 -0.001890 -0.001779 -2604140.000000 1 0 0
6.243673 -13.472386 5.177785 15.725714 -1.136820 1.235281 0.015798 -0.008347 -444943.000000 1 0 0
8.110673 -8.215586 -5.941515 12.983854 -0.791824 2.046099 -0.001538 -0.005083 748008.000000 1 0 0
-13.124127 -1.326686 -4.780615 14.030577 0.100745 1.918488 0.005834 0.000665 -4116250.000000 1 0 0
-6.689227 -1.524686 -7.046815 9.835041 0.224103 2.369570 0.008248 -0.007519 -638024.000000 1 0 0
-5.630927 13.016914 -4.538215 14.891030 -1.162518 1.880484 0.001491 0.002022 -404759.000000 1 0 0
-4.232227 6.999614 -6.678915 10.560031 -1.026974 2.255536 0.001211 -0.000450 -3790440.000000 1 0 0
-9.305627 -3.839786 -8.129615 12.939447 0.391347 2.250139 0.006533 -0.004143 590712.000000 1 0 0
-2.183527 -6.365686 9.200285 11.398903 1.240358 0.631538 0.000634 -0.000007 96046.000000 1 0 0
7.379673 -5.917486 9.962085 13.737516 -0.675876 0.759510 0.004350 -0.002276 796306.000000 1 0 0
9.632273 -4.998086 12.267785 16.378648 -0.478645 0.724228 0.028552 -0.003369 -358295.000000 1 0 0
-6.436927 2.793514 -9.022815 11.430177 -0.409454 2.480604 -0.000042 -0.004776 -118985.000000 1 0 0
7.489973 5.462314 9.036385 12.945765 0.630110 0.798170 -0.000520 0.003475 -966508.000000 1 0 0
12.537173 3.291214 11.246485 17.160892 0.256724 0.856143 0.026729 -0.000186 -661868.000000 1 0 0
-7.461927 -7.232586 -3.935415 11.112072 0.769792 1.932809 0.011011 -0.005201 -1827240.000000 1 0 0
2.313073 1.500814 -5.751715 6.378478 0.575559 2.694569 0.002285 -0.004452 -638259.000000 1 0 0
12.743673 6.893714 -7.024815 16.101942 0.495870 2.022247 0.014520 -0.005426 172623.000000 1 0 0
0.836273 -7.703086 0.864985 7.796479 -1.462656 1.459622 0.002713 0.000266 1026170.000000 1 0 0
-10.160427 -6.245586 -8.511115 14.651986 0.551156 2.190612 0.010571 -0.003959 -630578.000000 1 0 0
-6.710027 0.205214 3.176085 7.426580 -0.030574 1.128889 -0.000565 -0.003862 1026210.000000 1 0 0
10.764073 -7.918286 1.266285 13.422667 -0.634235 1.476317 0.011403 -0.008575 257446.000000 1 0 0
6.158273 1.075114 10.576985 12.286285 0.172839 0.533805 0.003555 -0.001539 -809544.000000 1 0 0
-12.749027 5.292214 1.824885 13.923915 -0.393462 1.439357 0.005186 -0.000382 548644.000000 1 0 0
2.059573 7.355314 3.610785 8.448684 1.297777 1.129205 -0.005475 0.002186 -24124.900000 1 0 0
10.072273 -9.447286 -0.796915 13.832461 -0.753391 1.628440 0.009427 -0.006697 854148.000000 1 0 0
6.824073 -11.671186 -9.051715 16.270160 -1.041707 2.160769 0.001341 -0.005165 -20933.700000 1 0 0
10.149473 3.509714 12.008785 16.110270 0.332931 0.729644 0.014008 0.001866 -1585680.000000 1 0 0
-11.051427 -3.117686 -1.939815 11.645466 0.274962 1.738149 -0.002360 0.000373 -240392.000000 1 0 0
12.265573 0.911914 6.802685 14.055333 0.074211 1.065584 0.009096 -0.005944 -206748.000000 1 0 0
-9.521527 9.150914 3.067085 13.557497 -0.765553 1.342593 -0.001002 -0.004046 1311000.000000 1 0 0
-6.533927 7.714414 -8.931215 13.489662 -0.868060 2.294385 0.004345 -0.002771 -839202.000000 1 0 0
8.362873 5.478514 12.179785 15.757504 0.579952 0.687316 0.008833 0.002973 -92906.800000 1 0 0
1.324973 4.879614 -2.668615 5.717315 1.305657 2.056420 -0.000299 -0.002622 588732.000000 1 0 0
1.438373 0.428514 9.578685 9.695553 0.289544 0.155422 0.001126 -0.000987 772614.000000 1 0 0
2.582873 12.541214 -3.941615 13.397373 1.367685 1.869423 0.006800 -0.003862 491570.000000 1 0 0
2.098273 0.797814 13.061785 13.253282 0.363343 0.170200 0.000420 -0.002834 -285253.000000 1 0 0
-12.136127 -1.660286 0.874585 12.280351 0.135961 1.499518 -0.002047 -0.003588 -4534.000000 1 0 0
3.259873 8.716614 -1.229915 9.387163 1.212917 1.702195 0.004358 -0.001575 497842.000000 1 0 0
3.783473 -2.689586 -5.881615 7.492792 -0.617989 2.473444 -0.001766 -0.004133 -1022930.000000 1 0 0
-7.910227 -7.172886 9.341585 14.187572 0.736552 0.852060 0.005301 -0.003901 42910.600000 1 0 0
-6.956827 10.924014 -3.510715 13.418519 -1.003730 1.835509 0.000479 0.002615 316899.000000 1 0 0
0.429173 0.499614 2.548685 2.632413 0.861095 0.252890 -0.002164 -0.001298 -1596220.000000 1 0 0
-7.065827 4.591214 -1.948915 8.648897 -0.576219 1.798085 -0.001748 -0.002993 -1572680.000000 1 0 0
-7.036727 -3.941086 -5.920615 10.005067 0.510544 2.204039 0.004678 -0.004788 -529019.000000 1 0 0
2.888573 -6.054986 13.456885 15.036438 -1.125671 0.462473 -0.000552 0.000564 -1591020.000000 1 0 0
-5.319527 -0.622286 -11.734615 12.899062 0.116452 2.713421 0.006352 -0.006567 -637442.000000 1 0 0
11.773773 2.403914 -0.520015 12.027924 0.201407 1.614044 -0.004128 0.000123 -1898650.000000 1 0 0
6.145473 -10.834286 10.785585 16.476572 -1.054825 0.857141 0.009710 0.001612 278932.000000 1 0 0
-8.120727 6.444914 -10.538215 14.783000 -0.670849 2.364365 0.004417 -0.002700 254473.000000 1 0 0
2.745073 7.929814 11.303585 14.077941 1.237537 0.638604 0.002436 0.003023 656112.000000 1 0 0
-6.353327 -10.075686 -0.516115 11.922692 1.008209 1.614098 0.011427 0.004978 -588669.000000 1 0 0
11.210973 4.257114 6.217685 13.508092 0.362909 1.092471 0.002282 -0.000256 -259945.000000 1 0 0
-7.792027 10.628414 1.490185 13.262712 -0.938179 1.458200 -0.006516 -0.000270 959067.000000 1 0 0
4.351573 -2.583786 -3.558615 6.186750 -0.535818 2.183644 0.000471 -0.004824 -5616180.000000 1 0 0
6.395573 6.368414 6.373685 11.049159 0.783270 0.955932 0.001160 0.002108 -5224910.000000 1 0 0
-0.262327 10.433014 -10.134415 14.547267 -1.545658 2.341520 0.000753 0.000509 45722.800000 1 0 0
14.104873 6.479214 -2.426215 15.710321 0.430610 1.725851 0.011219 0.005545 861559.000000 1 0 0
1.447773 9.424714 -6.151915 11.347570 1.418373 2.143772 0.002672 -0.001081 -590433.000000 1 0 0
0.574673 7.296314 7.310185 10.344334 1.492196 0.785995 -0.003194 0.003587 -271507.000000 1 0 0
12.286873 6.217114 1.931285 13.905021 0.468433 1.431455 0.002124 0.000955 -1890170.000000 1 0 0
-6.730527 6.651014 -3.201215 9.989182 -0.779456 1.897020 -0.005445 -0.001684 578173.000000 1 0 0
1.005373 9.853614 11.205985 14.955888 1.469117 0.723839 0.001354 0.003016 1660030.000000 1 0 0
-3.483827 13.700514 -10.839015 17.813629 -1.321789 2.224924 0.004997 -0.002391 -364248.000000 1 0 0
-10.023127 -5.532186 -2.363415 11.689905 0.504333 1.774375 0.003726 -0.000445 392250.000000 1 0 0
-3.935027 3.882614 -12.472215 13.642407 -0.778694 2.724385 0.000224 -0.004304 -180079.000000 1 0 0
-3.248727 8.397114 2.441685 9.328857 -1.201646 1.305977 -0.004803 0.002104 -2740320.000000 1 0 0
7.047273 8.888614 7.050885 13.356141 0.900435 1.014655 0.007864 0.003528 477658.000000 1 0 0
-1.364727 -2.193386 -8.145115 8.544959 1.014212 2.834469 0.007681 -0.008021 -755886.000000 1 0 0
0.841573 -1.316686 4.813985 5.061261 -1.002079 0.313878 0.001916 -0.002359 -652019.000000 1 0 0
2.758073 -8.777586 -6.137015 11.059654 -1.266347 2.159041 -0.005903 -0.001139 381611.000000 1 0 0
5.404773 3.855614 8.734285 10.971101 0.619644 0.649944 -0.003120 -0.000032 11420.300000 1 0 0
6.251773 -7.402786 -2.801315 10.086291 -0.869494 1.852232 -0.001956 -0.003575 1297430.000000 1 0 0
1.844173 2.253814 -8.288715 8.785411 0.885029 2.803725 0.003260 -0.004012 85555.600000 1 0 0
-5.480927 10.971814 -0.707915 12.285048 -1.107512 1.628452 -0.004911 0.002906 281304.000000 1 0 0
-5.341327 3.393114 -3.323715 7.147732 -0.565941 2.054434 -0.001763 -0.002916 125560.000000 1 0 0
2.105573 13.621614 -6.398015 15.195934 1.417434 2.005382 0.000322 -0.004224 659453.000000 1 0 0
-5.351727 -2.568886 2.679985 6.513254 0.447529 1.146734 -0.004003 -0.003698 410722.000000 1 0 0
10.340973 -3.320586 -1.819315 11.012353 -0.310709 1.736764 0.000222 -0.003199 65851.800000 1 0 0
2.287273 -3.310486 7.014385 8.086565 -0.966192 0.520819 -0.002505 -0.001882 -2262600.000000 1 0 0
-2.677527 9.970114 -11.677615 15.586501 -1.308432 2.417670 0.003861 0.000521 -2492400.000000 1 0 0
0.504273 -2.153186 9.320185 9.578953 -1.340744 0.232967 -0.000459 -0.000508 432670.000000 1 0 0
9.385573 2.685614 5.005585 10.970751 0.278696 1.097001 -0.003970 -0.001517 -77187.900000 1 0 0
13.422173 2.136914 -4.959415 14.467789 0.157883 1.920682 0.007077 -0.003073 -822723.000000 1 0 0
-6.476827 3.844014 7.727385 10.790654 -0.535628 0.772571 -0.003049 0.001740 349623.000000 1 0 0
10.608473 0.012414 1.803385 10.760672 0.001170 1.402411 -0.002467 -0.001195 442501.000000 1 0 0
15.509973 6.715514 -4.581815 17.511437 0.408611 1.835525 0.030471 0.002481 1145720.000000 1 0 0
8.115173 -4.743986 -9.229915 13.173943 -0.529006 2.347061 0.004815 -0.002212 809625.000000 1 0 0
4.417873 5.558214 -2.116815 7.408931 0.899212 1.860545 -0.000112 -0.001692 401201.000000 1 0 0
-1.716427 -10.456086 1.360885 10.683064 1.408092 1.443062 0.011332 0.000310 -940163.000000 1 0 0
-2.765327 12.271214 -12.864315 17.992230 -1.349148 2.367410 0.008025 -0.003980 -625603.000000 1 0 0
8.375973 4.253114 -9.515615 13.371344 0.469849 2.362630 0.000259 -0.002575 -624104.000000 1 0 0
4.157773 7.614214 -8.971415 12.479969 1.070988 2.372965 -0.000113 -0.002782 -1583770.000000 1 0 0
-1.766627 -4.864386 -2.488615 5.742510 1.222432 2.019022 0.009348 -0.003342 469780.000000 1 0 0
-3.299027 -9.134586 7.193085 12.085723 1.224216 0.933317 0.007248 -0.000389 -919855.000000 1 0 0
1.051873 7.229714 -1.409615 7.440579 1.426317 1.761398 -0.000091 -0.000648 1167770.000000 1 0 0
0.335373 -0.958686 -2.161715 2.388423 -1.234277 2.702365 0.006519 -0.004201 -425024.000000 1 0 0
4.207873 -6.791886 7.722985 11.112174 -1.016130 0.802373 -0.003810 -0.000196 17235.800000 1 0 0
-13.925527 3.776614 5.809085 15.554054 -0.264831 1.188042 0.000888 0.004906 -1455520.000000 1 0 0
4.108173 6.267514 12.730385 14.772323 0.990585 0.532042 0.007258 0.002782 -2644850.000000 1 0 0
8.255273 10.083314 -7.109915 14.844987 0.884753 2.070248 0.010098 -0.005721 -208060.000000 1 0 0
12.440473 5.229314 9.600485 16.561413 0.397923 0.952448 0.021905 0.000397 1256470.000000 1 0 0
7.415073 4.062414 0.283285 8.459714 0.501198 1.537304 0.002728 0.002883 -1544010.000000 1 0 0
-10.836027 -7.483686 -1.074715 13.212874 0.604410 1.652225 0.007370 -0.002798 -1434670.000000 1 0 0
10.420973 6.828114 0.192085 12.460205 0.580042 1.555380 0.004258 0.002885 -477269.000000 1 0 0
14.540373 3.651514 4.004285 15.517419 0.246041 1.309792 0.012270 -0.008316 -111876.000000 1 0 0
2.187473 5.650614 8.294385 10.271869 1.201441 0.630920 -0.004938 0.004158 1787750.000000 1 0 0
4.168773 0.169414 11.753385 12.471946 0.040616 0.341104 0.002285 -0.001419 -2512450.000000 1 0 0
-1.614327 -1.470386 -0.381315 2.216639 0.738769 1.743680 0.009551 -0.007457 -829935.000000 1 0 0
3.133773 -5.173086 -9.419115 11.193797 -1.026135 2.570773 -0.003768 0.000639 762378.000000 1 0 0
-4.024827 -5.254286 -1.431815 6.771768 0.917128 1.783843 0.006731 -0.004246 -1131870.000000 1 0 0
-1.213027 -8.707886 8.622285 12.314321 1.432385 0.795142 0.002323 -0.000142 -262084.000000 1 0 0
3.944373 8.530314 -5.870415 11.080889 1.137683 2.129136 0.002780 -0.001015 23747.000000 1 0 0
-14.168927 -1.723886 -2.812215 14.547812 0.121072 1.765329 0.003931 -0.002174 -739195.000000 1 0 0
8.835473 -10.513286 -6.555615 15.217452 -0.871896 2.016171 0.002125 -0.005102 528423.000000 1 0 0
14.865173 6.077114 1.654785 16.144442 0.388083 1.468117 -0.000392 0.003541 -469551.000000 1 0 0
-5.774627 0.377514 -8.384315 10.187520 -0.065282 2.537466 0.006088 -0.007432 -479219.000000 1 0 0
-7.928027 -4.646886 -12.939015 15.870264 0.530162 2.524042 0.007103 -0.006134 623549.000000 1 0 0
0.895773 -10.733886 12.032485 16.149285 -1.487536 0.730144 -0.002408 0.004587 -300431.000000 1 0 0
0.179073 11.679614 3.321185 12.143958 1.555465 1.293782 0.001285 0.000818 418453.000000 1 0 0
5.170173 -13.208086 -3.676415 14.652653 -1.197691 1.824411 0.000670 -0.001416 -652533.000000 1 0 0
-7.376327 1.610114 -6.895315 10.224873 -0.214910 2.310903 0.000467 -0.004448 671431.000000 1 0 0
1.487273 2.737214 4.086085 5.138133 1.073071 0.651381 -0.002878 0.000211 -2430800.000000 1 0 0
17.233373 5.396414 2.570385 18.240540 0.303465 1.429410 0.011615 -0.002815 -221709.000000 1 0 0
2.385773 -8.199686 -3.641115 9.283560 -1.287654 1.973830 -0.004398 0.000344 128836.000000 1 0 0
-0.469027 -9.335286 -0.691315 9.372591 1.520596 1.644623 0.009439 0.001915 -368969.000000 1 0 0
0.860673 11.818514 -5.559815 13.089292 1.498101 2.009494 0.005375 0.000781 -1309720.000000 1 0 0
5.877373 -4.917086 7.847485 10.968330 -0.696671 0.773503 -0.000171 -0.002241 -1215560.000000 1 0 0
-5.901927 -1.912486 -9.427115 11.285426 0.313367 2.559539 0.011381 -0.008297 -14337.300000 1 0 0
2.128873 -1.270986 11.287385 11.556495 -0.538228 0.216228 -0.005135 -0.000967 160415.000000 1 0 0
18.068573 2.147114 -5.708815 19.070239 0.118277 1.874815 0.029950 -0.002523 -625151.000000 1 0 0
-8.955627 4.742814 7.835685 12.809976 -0.487039 0.912606 -0.001646 -0.001481 210018.000000 1 0 0
11.444073 -7.046486 -4.816215 14.276404 -0.551907 1.914902 0.019516 -0.009596 -179166.000000 1 0 0
10.858973 0.478114 8.956985 14.084512 0.044001 0.881563 0.006771 -0.004448 -64218.800000 1 0 0
-8.451327 -7.381986 -1.523715 11.324326 0.717963 1.705758 0.005879 -0.002333 -1222500.000000 1 0 0
10.261873 -10.407686 -3.208915 14.964060 -0.792453 1.786916 0.018324 -0.007033 -530521.000000 1 0 0
7.651073 -13.920186 -3.754515 16.321975 -1.068231 1.802903 0.015079 -0.004621 -1622650.000000 1 0 0
1.810073 -1.151786 -11.608115 11.804716 -0.566698 2.958831 0.002129 -0.006065 333384.000000 1 0 0
-11.828627 -2.550886 -6.425915 13.700942 0.212401 2.058969 0.007266 -0.003404 307910.000000 1 0 0
2.814773 -12.028086 -6.295915 13.864932 -1.340916 2.042146 -0.002626 -0.002092 522802.000000 1 0 0
-5.613027 1.486714 1.185685 5.926402 -0.258923 1.369369 -0.001277 -0.003671 242183.000000 1 0 0
0.123273 6.827114 -3.970815 7.898864 1.552742 2.097524 0.002983 -0.001672 1004200.000000 1 0 0
5.443673 -11.777286 3.627485 13.472071 -1.137829 1.298172 0.003779 -0.007690 -2466400.000000 1 0 0
-4.511527 -9.152986 0.991785 10.252544 1.112843 1.473909 0.008457 0.001172 -1614110.000000 1 0 0
7.010273 -6.102086 -4.730015 10.428443 -0.716247 2.041562 -0.003266 -0.003653 -645203.000000 1 0 0
-7.032727 -5.944786 2.208685 9.469848 0.701761 1.335395 0.002410 -0.001706 -157917.000000 1 0 0
-6.153927 -0.740086 7.117685 9.438219 0.119688 0.716461 0.000403 -0.000454 -655292.000000 1 0 0
4.132373 -5.004586 3.234385 7.251457 -0.880570 1.108469 -0.001378 -0.001692 -788849.000000 1 0 0
-2.345027 10.660114 -8.722415 13.972033 -1.354264 2.245002 -0.000445 0.001270 -1243620.000000 1 0 0
-2.336427 -4.892686 2.764185 6.085884 1.125282 1.099327 0.004578 -0.001682 367560.000000 1 0 0
15.103873 5.008414 6.344085 17.130634 0.320188 1.191426 0.025923 -0.010384 1313360.000000 1 0 0
6.822173 0.331714 0.112785 6.831164 0.048585 1.554285 -0.000302 -0.001645 4448950.000000 1 0 0
-9.673427 9.274314 0.425885 13.407814 -0.764337 1.539027 -0.006725 -0.002272 -1634170.000000 1 0 0
7.110073 10.493414 -2.518115 12.923072 0.975280 1.766905 0.006226 -0.000110 -730068.000000 1 0 0
1.711773 -4.108186 -5.397915 6.996059 -1.175999 2.452094 0.000380 -0.004234 105439.000000 1 0 0
0.997173 -8.045286 -7.824315 11.266805 -1.447480 2.338462 -0.004387 0.000956 -367638.000000 1 0 0
-10.344027 0.215814 -10.441815 14.699557 -0.020861 2.360790 0.004045 -0.010047 -4596170.000000 1 0 0
5.826073 -2.450786 0.487885 6.339362 -0.398187 1.493759 0.000367 -0.002799 -46387.400000 1 0 0
-3.412727 5.237614 -1.190915 6.363771 -0.993311 1.759046 -0.004703 -0.003407 1106910.000000 1 0 0
-0.346227 4.506814 -5.074315 6.795581 -1.494124 2.413895 0.002440 -0.003777 -326458.000000 1 0 0
3.957873 -9.706786 10.061785 14.530174 -1.183633 0.805882 -0.002984 0.002144 -1519180.000000 1 0 0
7.260373 -13.455986 -0.737615 15.307536 -1.076000 1.619001 0.017661 -0.006303 759147.000000 1 0 0
13.022673 -0.116186 0.519285 13.033540 -0.008922 1.530944 0.001238 -0.005558 553837.000000 1 0 0
9.285573 2.435914 -0.540615 9.614978 0.256552 1.627052 0.000732 -0.000710 -2366510.000000 1 0 0
-0.736527 -5.789486 4.469785 7.351163 1.444258 0.917210 0.003691 -0.000462 -556333.000000 1 0 0
11.419873 -3.753186 3.298085 12.465042 -0.317533 1.303021 0.012531 -0.008136 -3124560.000000 1 0 0
1.593273 -8.188786 11.944685 14.569497 -1.378630 0.609661 -0.004409 0.003042 98469.700000 1 0 0
9.403673 -5.887286 -5.902115 12.566788 -0.559363 2.059702 0.000782 -0.006471 -1216000.000000 1 0 0
3.113573 6.318014 -0.166115 7.045512 1.112918 1.594376 -0.002463 0.001730 -15327.400000 1 0 0
6.278173 -1.329986 11.554585 13.217139 -0.208757 0.506985 0.002326 -0.003377 359422.000000 1 0 0
-4.885627 -7.546486 -3.832315 9.772688 0.996248 1.973759 0.012260 -0.003301 67097.900000 1 0 0
-3.365327 -8.422686 -5.720615 10.723456 1.190674 2.133491 0.012121 -0.000038 -48267.000000 1 0 0
9.752373 5.377014 2.286285 11.368736 0.503882 1.368313 -0.000444 0.001818 -323283.000000 1 0 0
8.808973 -1.453886 0.358885 8.935356 -0.163571 1.530621 -0.001229 -0.002931 644238.000000 1 0 0
-3.997327 9.665414 9.225185 13.946429 -1.178647 0.848015 0.001730 0.000531 537023.000000 1 0 0
-14.282727 -3.578386 -6.184415 15.970226 0.245486 1.968440 0.017169 -0.002264 -829848.000000 1 0 0
10.697673 6.331914 -5.740015 13.692374 0.534440 2.003374 0.003110 -0.003910 -629489.000000 1 0 0
-1.745127 4.431114 2.743785 5.496235 -1.195616 1.048107 -0.004658 -0.000888 470634.000000 1 0 0
6.786173 -3.676886 2.616685 8.149765 -0.496541 1.243932 0.001939 -0.005439 -2123110.000000 1 0 0
8.368173 -11.207386 -1.619415 14.080281 -0.929432 1.686064 0.012779 -0.006249 -2121200.000000 1 0 0
4.538973 0.482414 1.825185 4.915923 0.105885 1.190409 -0.003319 0.000008 109327.000000 1 0 0
-10.718827 2.498914 3.676485 11.604067 -0.229042 1.248414 -0.002636 0.000468 212515.000000 1 0 0
-0.873927 -3.112086 4.366685 5.432933 1.297030 0.637236 0.003095 -0.002023 427803.000000 1 0 0
8.626273 -8.603386 -8.445815 14.824393 -0.784070 2.176967 0.012292 -0.002171 -558103.000000 1 0 0
12.050873 -4.738486 1.061585 12.992450 -0.374637 1.488997 0.008491 -0.006698 376896.000000 1 0 0
2.905973 4.820514 3.612985 6.688475 1.028295 1.000145 -0.005918 0.001095 -851413.000000 1 0 0
6.021673 7.545614 2.022885 9.863514 0.897254 1.364243 -0.000257 0.000934 -94359.300000 1 0 0
-1.587927 -1.280286 -10.320415 10.520058 0.678548 2.946464 0.010880 -0.006103 203847.000000 1 0 0
-1.035327 -8.707386 5.968685 10.607341 1.452450 0.973155 0.003656 -0.000777 -10450.500000 1 0 0
-4.270427 -0.252786 2.392885 4.901668 0.059126 1.060796 0.000373 -0.003940 958048.000000 1 0 0
-8.287527 6.200014 -8.033115 13.101687 -0.642293 2.230820 0.001650 -0.001333 -697562.000000 1 0 0
6.504673 11.168514 -9.347515 15.950627 1.043410 2.196945 0.009454 -0.008161 40185.600000 1 0 0
-11.229527 -5.708886 3.087785 12.970276 0.470330 1.330422 0.003881 -0.002862 1434820.000000 1 0 0
1.517773 -6.363186 3.017585 7.204137 -1.336647 1.138598 0.000702 -0.001219 446807.000000 1 0 0
10.129773 2.129114 7.232185 12.627348 0.207168 0.960952 0.003370 -0.000679 -2390660.000000 1 0 0
-3.947927 -2.543286 -10.702415 11.687434 0.572293 2.728092 0.009303 -0.008030 -3546360.000000 1 0 0
-8.443927 11.834214 5.940685 15.704785 -0.951055 1.182867 0.006001 -0.003204 -1202380.000000 1 0 0
6.869273 6.051014 -2.990715 9.630476 0.722151 1.886565 0.002521 -0.000436 -2757830.000000 1 0 0
3.869073 -9.864986 -2.373915 10.859243 -1.197030 1.791184 -0.004826 -0.001797 -1386050.000000 1 0 0
8.553373 -12.863786 -7.351515 17.107950 -0.984005 2.014972 0.013490 -0.004675 723465.000000 1 0 0
-1.208227 9.388914 3.647285 10.144664 -1.442813 1.203035 -0.002640 0.002305 -28231.300000 1 0 0
0.506273 -13.118586 4.685885 13.939553 -1.532223 1.227962 0.011348 -0.002642 -991569.000000 1 0 0
-11.239027 -7.060186 -5.154315 14.238290 0.560886 1.941213 0.008724 -0.006535 -54166.100000 1 0 0
3.644073 10.359714 -3.294315 11.465403 1.232560 1.862231 0.008842 -0.002662 -294783.000000 1 0 0
11.553373 -8.076286 -7.305215 15.876807 -0.610082 2.048925 0.034077 -0.006683 217569.000000 1 0 0
11.563273 -4.691886 -5.765915 13.746594 -0.385460 2.003628 0.017809 -0.008258 289948.000000 1 0 0
1.234273 -10.322586 -2.652215 10.729094 -1.451791 1.820584 -0.001482 0.000543 -378182.000000 1 0 0
2.438773 -12.025586 -3.875015 12.867714 -1.370711 1.876687 -0.002912 0.000395 -1610290.000000 1 0 0
-7.625427 -5.758986 7.150385 11.934867 0.646843 0.928398 0.003491 -0.003122 -1906260.000000 1 0 0
-7.290927 -0.903786 9.540385 12.041320 0.123331 0.656220 0.000047 -0.000006 706666.000000 1 0 0
16.286273 2.566714 -7.458315 18.095778 0.156314 1.995617 0.025944 -0.007098 -748578.000000 1 0 0
-1.996527 6.335214 -5.492915 8.619349 -1.265501 2.261756 0.000600 0.000625 -629667.000000 1 0 0
7.555473 1.256914 8.421385 11.383529 0.164848 0.738043 -0.000334 -0.001850 -199045.000000 1 0 0
7.933073 8.303814 -3.765215 12.085687 0.808227 1.887613 0.005087 0.000705 -83017.400000 1 0 0
7.945773 0.653314 4.030285 8.933383 0.082037 1.102744 -0.004582 -0.002583 347617.000000 1 0 0
-6.978527 5.812614 5.358985 10.545380 -0.694499 1.037722 0.002741 -0.004852 68087.300000 1 0 0
-6.028727 -1.990586 -4.529415 7.798947 0.318913 2.190474 0.005513 -0.005993 -469654.000000 1 0 0
-15.216227 -2.186986 3.043585 15.670988 0.142750 1.375336 0.013003 -0.003708 -1118060.000000 1 0 0
1.163873 1.309914 -10.574915 10.719109 0.844365 2.977383 0.006555 -0.007701 500007.000000 1 0 0
1.512373 -9.187686 9.432685 13.254297 -1.407651 0.778924 0.001084 0.000778 -1133130.000000 1 0 0
-0.223827 -6.714186 -1.287315 6.840144 1.537472 1.760125 0.007376 -0.000333 799058.000000 1 0 0
-0.377827 -10.087886 -8.541315 13.223549 1.533360 2.273020 -0.001119 0.002582 -939725.000000 1 0 0
-4.363327 6.482114 3.897585 8.731987 -0.978330 1.108106 -0.005064 0.002269 -453828.000000 1 0 0
10.898673 -1.159086 -8.578215 13.917986 -0.105953 2.234883 0.009643 -0.000680 659990.000000 1 0 0
3.118273 -1.015586 6.311885 7.113012 -0.314855 0.479184 -0.005264 -0.000463 907647.000000 1 0 0
1.766073 -12.174586 6.854385 14.082690 -1.426739 1.062461 0.012379 -0.001019 -27444.400000 1 0 0
2.957373 -4.923386 -1.383615 5.907637 -1.029878 1.807200 0.003121 -0.002539 -1375250.000000 1 0 0
-1.043927 9.443614 -1.671615 9.647068 -1.460700 1.744952 -0.001974 -0.001419 286667.000000 1 0 0
4.500173 -2.507886 2.626185 5.782551 -0.508420 1.099371 0.000472 -0.002118 -2353690.000000 1 0 0
17.820173 6.807514 -2.611015 19.254044 0.364904 1.706824 0.021352 0.011530 125949.000000 1 0 0
-7.057027 3.547414 -5.429615 9.584701 -0.465788 2.173034 -0.000359 -0.004186 856954.000000 1 0 0
-13.917227 -5.920686 2.091785 15.268245 0.402228 1.433362 -0.002519 -0.001810 1041760.000000 1 0 0
6.649473 -5.951886 3.602285 9.623767 -0.730097 1.187142 0.000671 -0.004341 -227398.000000 1 0 0
-4.532327 1.957214 3.575785 6.095811 -0.407645 0.943946 -0.001458 -0.002489 1065500.000000 1 0 0
6.879873 -12.125386 -5.450515 14.968826 -1.054697 1.943489 0.004669 -0.004555 247730.000000 1 0 0
2.940973 -12.346386 3.321785 13.119330 -1.336949 1.314812 0.009876 -0.004214 -965500.000000 1 0 0
3.352573 11.207514 -5.975615 13.136061 1.280132 2.043058 0.003369 -0.001173 -1207840.000000 1 0 0
-5.557427 -8.338686 6.381685 11.880428 0.982935 1.003730 0.008033 -0.001127 -210764.000000 1 0 0
-4.018327 6.528914 6.362185 9.962483 -1.019082 0.878100 -0.001164 0.001503 282234.000000 1 0 0
4.312473 4.355014 -6.934215 9.254562 0.790306 2.417764 -0.000618 -0.000557 -2302760.000000 1 0 0
-0.341927 -2.698186 1.580085 3.145440 1.444743 1.044492 0.004580 -0.003489 -428268.000000 1 0 0
-13.148727 -0.982786 6.360885 14.639527 0.074605 1.121312 0.006918 -0.002854 -143868.000000 1 0 0
-0.435327 -9.178786 -5.989115 10.968551 1.523404 2.148410 0.000312 0.002113 237982.000000 1 0 0
2.181773 -1.605186 -3.929415 4.772532 -0.634303 2.538067 -0.000612 -0.004435 -1950890.000000 1 0 0
11.280573 -2.033786 1.063285 11.511655 -0.178375 1.478299 0.004353 -0.005476 -522999.000000 1 0 0
0.491173 -4.116886 -1.954515 4.583681 -1.452051 2.011313 0.004968 -0.003503 -566559.000000 1 0 0
1.173973 -7.411986 -11.362215 13.616743 -1.413713 2.557894 -0.002902 0.003377 -705964.000000 1 0 0
-4.434727 4.118414 -10.031715 11.715948 -0.748433 2.598751 -0.000316 -0.002734 354778.000000 1 0 0
-1.089727 5.808214 -2.121415 6.278794 -1.385334 1.915449 -0.000547 -0.001116 -1923680.000000 1 0 0
-11.257127 1.797714 -3.870415 12.038887 -0.158358 1.898102 0.001722 -0.001342 -216608.000000 1 0 0
-1.818027 -11.263686 4.074585 12.115201 1.410770 1.227790 0.013317 -0.000953 -207107.000000 1 0 0
-3.472627 -5.462186 -9.652815 11.622024 1.004498 2.550913 0.005558 -0.001825 -1890310.000000 1 0 0
-12.819127 -3.704186 -8.419615 15.777862 0.281296 2.133689 0.019559 -0.006018 40728.600000 1 0 0
11.350973 4.417714 0.583285 12.194302 0.371155 1.522945 0.002407 0.001994 252140.000000 1 0 0
-8.915527 -2.333086 -3.138015 9.735350 0.255948 1.898988 -0.000176 -0.001627 -395533.000000 1 0 0
-2.407327 -6.083286 -6.416715 9.163832 1.193978 2.346504 0.004660 -0.003424 283019.000000 1 0 0
0.019173 2.702014 -1.783115 3.237398 1.563701 2.154103 0.002285 -0.005428 733233.000000 1 0 0
8.140973 5.997114 -5.168515 11.355808 0.634907 2.043329 0.003613 -0.001456 -773753.000000 1 0 0
-9.759927 -0.930386 -0.979415 9.852971 0.095040 1.670364 -0.002959 -0.001723 -186772.000000 1 0 0
6.168973 0.524914 -8.880015 10.825268 0.084885 2.532739 -0.003405 -0.001501 416329.000000 1 0 0
-4.147727 2.457414 7.845785 9.208630 -0.534866 0.550996 -0.002262 0.003284 -1878780.000000 1 0 0
-10.159827 -3.367786 1.408985 10.795800 0.320082 1.439911 -0.000559 -0.002946 2533470.000000 1 0 0
-1.795027 -8.052786 -7.809915 11.360645 1.351474 2.328773 0.002657 -0.000506 -137480.000000 1 0 0
-9.481527 -9.800286 4.101985 14.239777 0.801928 1.278590 0.003719 0.001341 -342531.000000 1 0 0
-1.121027 -10.740186 7.327285 13.049805 1.466796 0.974616 0.010931 -0.001154 -68627.200000 1 0 0
9.419273 3.780714 -3.692415 10.800483 0.381696 1.919708 0.001439 -0.001106 -902967.000000 1 0 0
12.738573 -0.947486 3.012085 13.124086 -0.074243 1.339224 0.003704 -0.005749 783682.000000 1 0 0
6.511873 11.933014 -6.763715 15.183845 1.071259 2.032478 0.006909 -0.002426 696519.000000 1 0 0
-11.855027 -0.042486 -6.611315 13.573981 0.003584 2.079514 0.002778 -0.002114 912423.000000 1 0 0
-7.601327 -6.677986 -11.328215 15.188947 0.720825 2.412561 0.015747 -0.006027 -2830650.000000 1 0 0
4.146273 6.096714 6.597385 9.893785 0.973563 0.840861 -0.006050 0.002118 -2675770.000000 1 0 0
-4.184427 -1.422286 -7.329415 8.558776 0.327649 2.598980 0.007665 -0.010545 -1384680.000000 1 0 0
9.653073 9.229014 0.900985 13.385376 0.762944 1.503434 0.008563 0.001131 -2141350.000000 1 0 0
-8.814927 3.813514 4.881985 10.774024 -0.408307 1.100528 0.002327 -0.002302 1579140.000000 1 0 0
-6.819827 7.910414 -12.284515 16.124329 -0.859301 2.436979 0.002363 -0.001931 -231592.000000 1 0 0
11.114173 -3.748586 7.283785 13.806892 -0.325298 1.015086 0.016664 -0.010353 740829.000000 1 0 0
11.843173 6.889514 6.460985 15.148283 0.526876 1.130159 0.015627 -0.003513 337942.000000 1 0 0
-9.805427 -0.765686 -14.705815 17.691627 0.077930 2.552113 0.002149 -0.003857 49117.500000 1 0 0
1.699573 -13.136886 11.930085 17.826757 -1.442137 0.837633 0.003577 0.001956 500570.000000 1 0 0
2.851173 3.191214 13.178085 13.855503 0.841615 0.313991 0.003249 -0.001025 -194884.000000 1 0 0
-2.607227 -1.517286 10.958285 11.365905 0.527045 0.268626 0.003451 0.000039 -332684.000000 1 0 0
2.536873 -10.096186 -8.236315 13.274245 -1.324622 2.240142 -0.006919 0.003359 -984180.000000 1 0 0
13.975973 3.519614 -7.469615 16.233011 0.246703 2.048960 0.013370 -0.007257 -2287300.000000 1 0 0
7.360273 -1.606886 4.971085 9.025929 -0.214946 0.987527 -0.000017 -0.003455 231141.000000 1 0 0
-1.254127 8.770014 10.215285 13.521761 -1.428758 0.714425 0.002903 0.001934 176411.000000 1 0 0
-12.279727 -4.593086 0.846785 13.137929 0.357927 1.506298 0.003561 -0.002041 64311.000000 1 0 0
-4.851627 4.916714 -5.283015 8.696126 -0.792061 2.223723 0.001814 -0.003544 -196846.000000 1 0 0
-11.298327 0.436814 2.170085 11.513135 -0.038643 1.381174 -0.001241 0.001514 -2141790.000000 1 0 0
-1.320227 2.160614 -4.084315 4.805505 -1.022297 2.586638 0.003229 -0.007347 701686.000000 1 0 0
3.120073 -9.903986 13.206085 16.799538 -1.265606 0.666326 0.001346 0.007744 -2918090.000000 1 0 0
8.868873 4.692514 -1.490815 10.143921 0.486655 1.718297 0.001285 -0.002515 -622598.000000 1 0 0
4.095773 2.325514 3.871385 6.096802 0.516394 0.882806 -0.007692 0.003608 20625.900000 1 0 0
-5.622427 -3.332086 7.396585 9.870357 0.534992 0.723681 0.002749 -0.002916 -169165.000000 1 0 0
1.813973 -5.876486 7.653385 9.818243 -1.271392 0.676919 -0.000335 -0.000952 -1629170.000000 1 0 0
-5.738027 -6.405886 -9.764815 13.011992 0.840338 2.419535 0.012542 -0.004023 -753837.000000 1 0 0
-11.764727 -5.833386 5.412885 14.203398 0.460312 1.179813 0.008788 -0.004651 -236982.000000 1 0 0
10.476373 6.163114 4.567585 12.984652 0.531762 1.211337 0.002925 0.000147 -1507080.000000 1 0 0
1.505773 -3.695286 0.432585 4.013679 -1.183854 1.462809 0.007105 -0.002677 -452465.000000 1 0 0
8.733873 4.343014 7.007185 12.010119 0.461454 0.947838 -0.002755 0.004592 -61914.200000 1 0 0
-8.005527 12.067114 3.518785 14.902535 -0.985047 1.332425 -0.001522 0.000716 -140461.000000 1 0 0
-6.073627 13.208614 -6.981415 16.127510 -1.139804 2.018491 0.013828 -0.007388 396498.000000 1 0 0
4.499473 -6.867986 -1.006115 8.272047 -0.990818 1.692727 0.002083 -0.003837 307817.000000 1 0 0
-1.929827 -8.317786 11.120585 14.020599 1.342818 0.654815 -0.003159 -0.000721 40742.200000 1 0 0
11.665573 8.907114 -5.654715 15.728893 0.652110 1.938540 0.008460 -0.003540 435472.000000 1 0 0
-3.401527 -2.816086 -1.844915 4.785858 0.691516 1.966538 0.008954 -0.005424 -2580040.000000 1 0 0
-2.017127 5.995114 4.796085 7.938049 -1.246233 0.922048 -0.004227 0.002416 -148912.000000 1 0 0
0.364173 -11.426086 -5.691915 12.770511 -1.538935 2.032761 -0.002959 -0.001492 1198850.000000 1 0 0
-8.852827 6.259414 -1.650415 10.967072 -0.615444 1.721858 -0.002460 0.000648 -1237310.000000 1 0 0
2.860773 -0.006086 3.920685 4.853435 -0.002127 0.630358 -0.004991 0.000066 -886574.000000 1 0 0
-9.987327 3.970414 -1.033515 10.797177 -0.378388 1.666664 0.005785 -0.002940 51075.400000 1 0 0
6.307073 5.393314 13.714585 16.029874 0.707460 0.544157 0.010348 0.002571 -765040.000000 1 0 0
-8.835627 -1.590686 5.689285 10.628572 0.178123 1.005955 -0.000176 -0.002441 -208144.000000 1 0 0
12.946573 -1.835186 -1.444015 13.155487 -0.140813 1.680783 0.008326 -0.006483 -1621840.000000 1 0 0
4.955573 -5.611486 5.489385 9.283309 -0.847390 0.938104 0.000606 -0.003776 198900.000000 1 0 0
-9.054727 -1.180286 3.165685 9.664508 0.129619 1.237079 -0.005841 -0.000859 343695.000000 1 0 0
2.001573 5.497814 5.652085 8.135006 1.221645 0.802675 -0.004361 0.001155 -1081580.000000 1 0 0
9.304973 3.025614 -7.447415 12.296376 0.314377 2.221391 0.001728 -0.002415 -2164840.000000 1 0 0
2.380573 -2.401486 -1.528015 3.710673 -0.789771 1.995213 0.001487 -0.002395 -92326.100000 1 0 0
-6.206627 0.379814 -3.980515 7.383155 -0.061119 2.140206 -0.001255 -0.001953 -3835640.000000 1 0 0
-3.934027 4.172514 4.996585 7.606070 -0.814809 0.854069 -0.003084 0.000454 600796.000000 1 0 0
-6.308327 1.742714 -12.190315 13.836033 -0.269534 2.648886 0.001630 -0.002735 -3293670.000000 1 0 0
-0.186427 3.058014 6.274985 6.982954 -1.509908 0.454194 -0.001295 0.000720 1572020.000000 1 0 0
-8.559127 9.491414 -2.044915 12.943233 -0.837001 1.729452 -0.006418 0.001466 508203.000000 1 0 0
-1.209327 -3.664786 -6.150815 7.261243 1.252062 2.581253 0.001158 -0.004284 86309.500000 1 0 0
-3.355127 7.065514 -2.996815 8.376113 -1.127463 1.936687 -0.002585 0.002061 687914.000000 1 0 0
6.982573 -0.397186 -4.348515 8.235513 -0.056821 2.127064 -0.001847 -0.002722 -141130.000000 1 0 0
-5.268427 -10.888786 6.899885 13.925889 1.120160 1.052418 0.000911 -0.000216 572303.000000 1 0 0
9.742473 8.376014 -1.485315 12.933660 0.710123 1.685891 0.005139 0.003370 -149580.000000 1 0 0
13.802073 4.613714 -4.415215 15.207817 0.322600 1.865363 0.005436 -0.001081 878612.000000 1 0 0
4.734173 1.200714 -6.800715 8.372803 0.248389 2.518776 -0.001725 -0.003937 -1131400.000000 1 0 0
8.932873 -4.660186 3.576285 10.691275 -0.480848 1.229716 0.003879 -0.006456 -507827.000000 1 0 0
-8.674227 -3.224386 -0.755615 9.284925 0.355892 1.652267 -0.003556 0.000772 837076.000000 1 0 0
-8.427327 -4.282286 -10.362915 14.026682 0.470141 2.402085 0.008409 -0.007694 -89503.100000 1 0 0
10.513773 -1.280186 10.534685 14.938470 -0.121166 0.788084 0.018479 -0.003292 452636.000000 1 0 0
2.197073 -11.604186 9.809985 15.353178 -1.383677 0.877658 -0.001446 0.000334 731204.000000 1 0 0
-6.504127 -10.522586 1.923485 12.519116 1.017166 1.416541 0.006881 0.002011 -527031.000000 1 0 0
-3.637627 -1.686786 6.577985 7.703730 0.434192 0.547420 0.004595 -0.004002 -1453580.000000 1 0 0
4.641173 -7.541286 3.884785 9.669697 -1.019105 1.157371 -0.002267 -0.000707 212233.000000 1 0 0
11.477573 -9.504086 -5.277815 15.808784 -0.691616 1.911185 0.025142 -0.009076 265772.000000 1 0 0
11.205573 1.072214 11.504085 16.095294 0.095395 0.774532 0.020165 -0.001204 -111634.000000 1 0 0
-10.277327 -3.451886 4.443385 11.716767 0.324035 1.181829 0.004210 -0.003148 1690060.000000 1 0 0
1.973173 8.827514 8.997185 12.758047 1.350886 0.788068 -0.002357 0.003599 -232487.000000 1 0 0
6.561373 8.815714 4.169785 11.753958 0.930965 1.208143 0.004014 0.001221 -110291.000000 1 0 0
-4.214627 3.469414 0.510285 5.482728 -0.688719 1.477590 -0.002151 -0.002653 -1969720.000000 1 0 0
4.837473 7.071214 4.328685 9.598996 0.970816 1.102965 -0.001071 0.002259 -810383.000000 1 0 0
-8.356827 13.084514 1.158785 15.568682 -1.002420 1.496297 -0.002474 0.001562 -203804.000000 1 0 0
8.939373 8.229314 -9.061015 15.157044 0.744064 2.211561 0.003071 -0.010348 242154.000000 1 0 0
7.084073 1.992214 6.209685 9.628769 0.274144 0.869891 -0.004017 0.000809 -855192.000000 1 0 0
11.522373 -6.291886 3.079585 13.484686 -0.499812 1.340387 0.013026 -0.008351 148757.000000 1 0 0
11.415773 4.673314 -2.027915 12.500887 0.388561 1.733738 -0.000052 0.001905 -68204.700000 1 0 0
-3.854527 14.356914 -5.939715 16.008078 -1.308503 1.950930 0.003140 0.003081 -1409560.000000 1 0 0
7.156473 -3.032486 6.980585 10.446992 -0.400803 0.839022 0.003187 -0.006293 -1079740.000000 1 0 0
-7.908927 -0.507286 0.876485 7.973499 0.064053 1.460649 -0.001134 -0.003153 311597.000000 1 0 0
-3.302027 1.051414 10.724985 11.270943 -0.308264 0.312524 0.000662 0.003728 -178162.000000 1 0 0
7.126673 -1.243386 -1.877715 7.474041 -0.172731 1.824749 0.001201 -0.003908 -1607290.000000 1 0 0
-7.834827 5.304114 2.894285 9.894191 -0.595117 1.273931 -0.000951 -0.001264 552905.000000 1 0 0
9.451373 -2.195886 2.852385 10.113677 -0.228285 1.284884 0.002081 -0.005615 -1386010.000000 1 0 0
0.295773 3.506814 1.591785 3.862513 1.486653 1.146026 -0.003529 -0.000470 -3070100.000000 1 0 0
-7.606127 -3.135486 4.081485 9.183842 0.391006 1.110269 -0.001358 -0.002235 1669580.000000 1 0 0
-2.228427 8.404614 -6.784615 11.028800 -1.311617 2.233401 -0.002245 0.000569 -417946.000000 1 0 0
4.356973 9.688814 7.384685 12.937925 1.148199 0.963343 0.000079 0.004867 1784710.000000 1 0 0
-11.824327 -3.220286 6.754685 13.993238 0.265895 1.067049 0.010007 -0.006171 -758659.000000 1 0 0
-4.686227 2.343114 -5.557515 7.637858 -0.463648 2.385653 0.004649 -0.007207 -1613240.000000 1 0 0
-2.668227 2.898614 -1.783615 4.324660 -0.826760 1.995915 0.000043 -0.004294 1289350.000000 1 0 0
2.253673 5.257814 11.429585 12.781200 1.165852 0.464044 0.005199 -0.001640 317348.000000 1 0 0
-0.720527 1.682214 4.486985 4.845827 -1.166116 0.387257 0.002771 -0.001770 635424.000000 1 0 0
4.998973 1.575114 7.656785 9.278851 0.305240 0.600264 -0.005998 0.002087 -37336.800000 1 0 0
3.336473 -8.211886 1.794285 9.043593 -1.184872 1.371067 0.000684 -0.000465 1921300.000000 1 0 0
5.071673 6.404914 -4.585815 9.368804 0.901050 2.082286 0.003058 -0.001918 -2260310.000000 1 0 0
-4.089427 2.787214 -7.989115 9.397762 -0.598247 2.586987 0.005311 -0.007146 -882883.000000 1 0 0
-8.729427 -2.272986 -12.744115 15.613514 0.254726 2.525640 0.009283 -0.007851 487749.000000 1 0 0
-7.772227 8.135514 1.300385 11.326301 -0.808231 1.455731 -0.004842 -0.000932 -2107120.000000 1 0 0
7.405673 0.941714 -6.606215 9.968596 0.126482 2.295218 -0.004036 -0.000916 741605.000000 1 0 0
8.959573 8.793214 5.508285 13.708967 0.776028 1.157313 0.009324 0.001743 419261.000000 1 0 0
9.464273 -1.111586 -1.399315 9.631520 -0.116915 1.716597 0.000358 -0.004393 2218980.000000 1 0 0
5.357473 0.104414 4.300585 6.870841 0.019487 0.894488 -0.007850 0.000932 101848.000000 1 0 0
-4.263027 -7.255486 -7.827115 11.492572 1.039575 2.320004 0.008410 -0.003447 -133762.000000 1 0 0
-2.285327 7.428814 -0.603415 7.795775 -1.272354 1.648277 -0.003898 -0.000519 198915.000000 1 0 0
13.232273 -3.482686 -7.436815 15.573322 -0.257360 2.068644 0.023037 -0.004725 1039160.000000 1 0 0
-4.840927 -5.038986 1.646885 7.179010 0.805442 1.339332 0.005314 -0.003336 1888560.000000 1 0 0
-8.865527 1.304114 2.509085 9.305578 -0.146052 1.297785 -0.001257 -0.001982 -963042.000000 1 0 0
-1.174327 11.277714 10.168785 15.230563 -1.467042 0.839740 0.004101 -0.001074 501961.000000 1 0 0
-8.543727 0.308614 7.467985 11.351710 -0.036106 0.852805 -0.002747 0.000518 -945098.000000 1 0 0
-6.189627 12.955014 -2.109815 14.511898 -1.125083 1.716699 -0.000526 0.003304 1437690.000000 1 0 0
-13.201027 -0.753786 3.150885 13.592769 0.057039 1.336863 0.004412 -0.003368 4135.680000 1 0 0
-6.791727 12.894114 8.802685 17.025657 -1.085993 1.027425 0.014184 -0.008042 -1107500.000000 1 0 0
-7.989527 0.913914 -13.984315 16.131610 -0.113894 2.619724 -0.001886 -0.005921 -555.031000 1 0 0
7.155473 2.868614 3.840985 8.612950 0.381280 1.108556 -0.004299 0.002305 -1194160.000000 1 0 0
-1.634327 0.668914 -2.061015 2.714084 -0.388489 2.433152 0.003589 -0.007994 846579.000000 1 0 0
-6.249227 9.687414 -10.463015 15.568350 -0.997882 2.307797 0.005446 0.000117 -68484.900000 1 0 0
-10.263227 13.738114 5.350185 17.963688 -0.929178 1.268374 0.000104 0.002728 785593.000000 1 0 0
-5.634627 8.335314 2.497285 10.366432 -0.976364 1.327502 -0.005951 -0.000120 -1654610.000000 1 0 0
-2.432627 -10.689586 -1.292115 11.038772 1.347037 1.688118 0.009482 0.001698 -582812.000000 1 0 0
-2.389427 -12.370586 8.801985 15.369310 1.379992 0.961002 0.006420 -0.000806 593621.000000 1 0 0
-14.698127 -6.382586 -1.732315 16.117483 0.409675 1.678485 0.016197 -0.005212 252975.000000 1 0 0
-2.745027 -9.309286 3.204585 10.220927 1.284053 1.251886 0.009743 0.000115 -697782.000000 1 0 0
4.623073 -2.653686 7.562385 9.252271 -0.521089 0.613992 -0.001830 -0.002583 -1404960.000000 1 0 0
-14.926127 -1.172086 -0.383615 14.976989 0.078365 1.596413 0.004313 -0.004042 196806.000000 1 0 0
5.482173 8.812914 -2.719315 10.729229 1.014313 1.827041 0.004299 -0.000994 -963199.000000 1 0 0
-5.692427 -5.770886 8.519685 11.759757 0.792242 0.760520 0.005932 -0.003306 -3245200.000000 1 0 0
3.375773 3.661214 7.131585 8.698266 0.825939 0.609585 -0.005827 0.001703 434069.000000 1 0 0
3.267573 2.366214 9.413585 10.241659 0.626751 0.404888 0.001458 -0.001389 1289090.000000 1 0 0
9.880473 -3.291486 5.191285 11.636454 -0.321568 1.108368 0.009095 -0.008514 -327527.000000 1 0 0
6.472773 10.007214 -4.969915 12.912830 0.996666 1.965876 0.006779 -0.001925 578795.000000 1 0 0
-4.450227 12.091814 -8.534315 15.454806 -1.218145 2.155810 0.004469 -0.001862 -809166.000000 1 0 0
-3.457627 -7.224186 2.108185 8.281817 1.124400 1.313408 0.008384 -0.001316 754497.000000 1 0 0
-7.465027 -3.943886 1.089485 8.512805 0.486042 1.442462 -0.001204 -0.000603 607800.000000 1 0 0
-1.892127 -3.939986 -10.931115 11.772549 1.123084 2.761218 0.009217 -0.004772 -673989.000000 1 0 0
-5.233627 8.352614 -4.453315 10.816147 -1.011058 1.995146 -0.000085 -0.000737 -985240.000000 1 0 0
-10.859927 -3.279886 -10.183315 15.244526 0.293307 2.302312 0.014925 -0.006122 1312120.000000 1 0 0
4.728673 -11.403186 -7.758215 14.580223 -1.177699 2.131882 -0.004153 -0.002473 -1865300.000000 1 0 0
-9.399427 -4.052486 7.343685 12.597681 0.407061 0.948455 0.000731 -0.004203 -1102090.000000 1 0 0
-5.667127 -9.675086 -5.234215 12.374192 1.040925 2.007544 0.011391 -0.005633 -158154.000000 1 0 0
5.089573 4.254314 -9.452815 11.548102 0.696244 2.529696 -0.005031 0.006349 236802.000000 1 0 0
-3.327527 -7.204186 -14.116615 16.194183 1.138100 2.629476 0.003646 -0.000537 344890.000000 1 0 0
0.622773 -0.723986 -8.752815 8.804759 -0.860410 3.032916 0.005804 -0.009128 -499222.000000 1 0 0
-7.667927 2.226014 -2.936215 8.507267 -0.282536 1.923186 -0.001310 -0.003485 -40014.400000 1 0 0
-2.205227 7.622514 -12.633515 14.918829 -1.289181 2.580768 0.001181 -0.001240 -148728.000000 1 0 0
-9.833427 8.898114 7.556285 15.263360 -0.735507 1.052892 0.002320 -0.007809 -437109.000000 1 0 0
-10.693227 -3.064086 -14.231415 18.062860 0.279067 2.478160 0.016475 -0.004288 -274902.000000 1 0 0
-3.252327 4.866714 7.993485 9.907489 -0.981678 0.632060 -0.000227 0.002274 -368064.000000 1 0 0
8.741773 -2.336786 -3.607015 9.741136 -0.261205 1.950114 -0.001209 -0.002641 -4617690.000000 1 0 0
1.883673 -8.418786 -1.269015 8.719781 -1.350675 1.716848 -0.000529 0.001811 -370099.000000 1 0 0
-13.635127 -2.897786 4.893985 14.773792 0.209408 1.233156 0.015093 -0.008667 290633.000000 1 0 0
7.101273 2.656414 -1.978315 7.835710 0.357960 1.826033 -0.000607 -0.001924 621148.000000 1 0 0
-11.194027 4.526514 8.877885 14.987075 -0.384267 0.936800 -0.003192 0.002997 -1977010.000000 1 0 0
-1.712027 -2.465086 8.002285 8.546593 0.963764 0.358817 0.001091 -0.002060 -1091260.000000 1 0 0
3.077473 12.028314 -9.760415 15.792938 1.320317 2.237023 0.002839 -0.008987 669456.000000 1 0 0
3.714073 -4.985586 -7.050515 9.400009 -0.930527 2.418940 -0.005887 -0.003839 436700.000000 1 0 0
8.313873 -13.827386 -9.663915 18.807135 -1.029450 2.110455 0.020544 -0.001230 135309.000000 1 0 0
-6.355727 -5.712286 -0.437015 8.556662 0.732131 1.621892 0.005025 -0.001328 -393792.000000 1 0 0
-1.220727 -4.152486 9.824185 10.735359 1.284876 0.414981 -0.001855 -0.000545 881943.000000 1 0 0
2.889673 3.365914 1.899485 4.825726 0.861382 1.166234 -0.006740 0.001324 -260480.000000 1 0 0
-9.255627 13.332714 7.777085 17.997526 -0.963971 1.123954 0.006335 -0.014811 595627.000000 1 0 0
4.024573 -11.073986 0.065185 11.782810 -1.222211 1.565264 -0.001246 -0.000526 -280165.000000 1 0 0
-12.441827 -1.411286 -9.125415 15.493998 0.112948 2.200573 0.015001 -0.008434 10855.400000 1 0 0
-4.184627 0.963214 -13.505515 14.171726 -0.226239 2.833752 0.005115 -0.001841 665017.000000 1 0 0
3.929173 -3.064286 4.997385 7.057061 -0.662352 0.783936 -0.003245 0.000472 -6717.380000 1 0 0
1.706373 -1.165186 1.149485 2.364463 -0.599119 1.063117 0.000466 -0.002491 100350.000000 1 0 0
8.185473 -8.927386 7.357785 14.171704 -0.828725 1.024895 0.010421 -0.004381 -1257090.000000 1 0 0
-0.020827 2.353914 -6.382915 6.803157 -1.561949 2.788270 0.002726 -0.007722 -938602.000000 1 0 0
-3.806627 -9.681186 -3.333415 10.923709 1.196167 1.880897 0.013642 0.000637 945180.000000 1 0 0
-9.423927 2.294114 -5.558615 11.179068 -0.238790 2.091204 -0.002358 -0.001802 -1462790.000000 1 0 0
8.994473 -7.609186 5.276485 12.908972 -0.702158 1.149717 0.008546 -0.005353 1506430.000000 1 0 0
-5.562027 -4.329386 4.578085 8.404677 0.661420 0.994757 0.001884 -0.002545 242328.000000 1 0 0
-0.182127 -12.516886 10.301885 16.212169 1.556247 0.882216 0.007497 -0.001627 -198626.000000 1 0 0
-14.290927 -8.268186 2.984585 16.777999 0.524507 1.391958 0.006209 -0.002192 -1578930.000000 1 0 0
10.973873 -1.281686 -3.590215 11.617153 -0.116268 1.884984 0.008158 -0.005502 -331975.000000 1 0 0
-13.663227 3.032314 2.680085 14.249967 -0.218393 1.381593 0.003381 0.001109 -854717.000000 1 0 0
-6.189127 6.168514 1.125385 8.810355 -0.783730 1.442712 -0.002541 -0.001351 1633840.000000 1 0 0
7.124873 -6.907086 -0.426615 9.932455 -0.769879 1.613761 0.000445 -0.003645 708054.000000 1 0 0
-6.920027 8.000914 9.944185 14.518547 -0.857713 0.816289 -0.000061 0.000112 19567.800000 1 0 0
-12.626627 -5.138786 -1.989515 13.776683 0.386509 1.715715 0.000369 -0.002913 -2266420.000000 1 0 0
-9.462827 -5.549286 0.189885 10.971587 0.530382 1.553488 0.000193 -0.000458 -910159.000000 1 0 0
-1.769327 1.845514 2.202185 3.374323 -0.806471 0.859746 0.000248 -0.002506 -142866.000000 1 0 0
-7.116527 7.393014 7.536885 12.732095 -0.804451 0.937308 -0.000229 -0.001485 -601282.000000 1 0 0
5.644173 7.049314 -0.419015 9.040193 0.895647 1.617163 0.002526 -0.002148 -738544.000000 1 0 0
-0.030027 -4.233086 7.466285 8.582851 1.563703 0.515782 0.000053 -0.001223 -825158.000000 1 0 0
6.391873 0.719514 13.120985 14.612802 0.112095 0.455798 0.006758 -0.002705 689374.000000 1 0 0
5.796573 6.119714 -7.813715 11.493707 0.812509 2.318321 -0.003966 0.000622 263445.000000 1 0 0
9.929973 5.254114 9.157185 14.493589 0.486669 0.886911 0.005914 0.001726 -3242710.000000 1 0 0
-1.166527 -4.945486 -8.455215 9.864547 1.339153 2.600471 0.006636 -0.004249 1099750.000000 1 0 0
10.026973 -3.490586 -7.877715 13.220544 -0.334999 2.209144 0.010444 -0.005499 417092.000000 1 0 0
8.244173 -5.554486 1.391785 10.037717 -0.592888 1.431693 0.003692 -0.005264 1595380.000000 1 0 0
15.770173 3.051214 -4.875015 16.786126 0.191119 1.865461 0.016282 0.001077 -498168.000000 1 0 0
-6.856327 3.665514 0.999385 7.838621 -0.490957 1.442953 -0.002661 -0.003492 -165114.000000 1 0 0
-1.747427 3.848514 0.353985 4.241446 -1.144578 1.487241 -0.000978 -0.004029 -910654.000000 1 0 0
-2.646027 10.068414 6.993185 12.541095 -1.313803 0.979279 0.000282 0.003150 262728.000000 1 0 0
5.534873 -5.706286 -8.714915 11.796027 -0.800646 2.402086 -0.003926 -0.002006 -1453440.000000 1 0 0
-1.243427 -0.923886 6.202485 6.393004 0.639016 0.244746 0.002421 -0.002372 745544.000000 1 0 0
-5.510827 5.058114 -7.822515 10.823376 -0.742590 2.378559 0.000940 -0.001708 -156200.000000 1 0 0
6.777273 -1.173286 2.525285 7.327011 -0.171422 1.218926 -0.002926 -0.001560 -1160160.000000 1 0 0
8.720173 7.548814 3.243485 11.981077 0.713523 1.296658 0.003981 0.000149 -173658.000000 1 0 0
-5.304927 -4.836786 -7.782115 10.587637 0.739271 2.396491 0.010697 -0.009892 612328.000000 1 0 0
-2.072327 7.951914 -10.073615 13.000200 -1.315859 2.457324 -0.000028 -0.000519 574986.000000 1 0 0
-2.929527 -2.331986 1.691185 4.108576 0.672314 1.146562 0.002118 -0.001694 -546991.000000 1 0 0
6.101173 -2.056786 -9.211915 11.238953 -0.325149 2.531582 -0.004694 -0.000576 1253810.000000 1 0 0
1.090273 -7.589186 5.154885 9.238900 -1.428111 0.978878 0.002234 -0.000225 821744.000000 1 0 0
1.748673 11.920414 1.172985 12.104959 1.425140 1.473743 0.004209 -0.003524 -383036.000000 1 0 0
-1.044727 7.014214 2.521885 7.526656 -1.422939 1.229127 -0.002976 0.001370 627798.000000 1 0 0
8.785573 7.916914 -6.547715 13.518003 0.733437 2.076439 0.007310 -0.006407 -294463.000000 1 0 0
3.696073 -11.138686 5.545685 12.980212 -1.250406 1.129357 0.008180 -0.000064 68880.400000 1 0 0
7.903673 -7.040486 12.367285 16.278398 -0.727701 0.707889 0.019239 -0.003845 317078.000000 1 0 0
-8.607527 0.070014 -4.033815 9.506108 -0.008134 2.009028 0.001123 -0.002720 -2261810.000000 1 0 0
-3.431427 -5.008886 11.045785 12.604483 0.970162 0.502590 0.000720 -0.000269 -382036.000000 1 0 0
-8.107027 0.088614 -11.477215 14.051982 -0.010930 2.526584 -0.001349 -0.007770 -1616520.000000 1 0 0
1.422973 -5.030886 5.302585 7.446615 -1.295149 0.778340 0.001067 -0.001073 -448794.000000 1 0 0
6.843573 3.879414 -7.504515 10.872079 0.515703 2.332639 -0.002299 -0.002406 -1244590.000000 1 0 0
16.210473 4.192014 -1.183915 16.785532 0.253055 1.641387 0.005279 0.007467 -646232.000000 1 0 0
7.882573 7.561414 0.280685 10.926515 0.764606 1.545105 0.003229 -0.000070 -2287660.000000 1 0 0
5.375873 -10.392686 13.928285 18.190796 -1.093425 0.698702 0.007006 0.003327 29331.100000 1 0 0
-5.335227 -9.202386 8.916185 13.879730 1.045388 0.873185 0.004168 -0.003422 445354.000000 1 0 0
-12.604827 -3.106786 2.804285 13.281483 0.241659 1.358053 0.005700 -0.003966 -623121.000000 1 0 0
-2.058727 -1.243686 -5.895715 6.367462 0.543432 2.754242 0.008266 -0.009295 -832934.000000 1 0 0
-2.566127 13.044914 -4.319015 13.978865 -1.376562 1.884904 0.000323 0.003451 326342.000000 1 0 0
4.003873 -0.294186 -4.930015 6.357876 -0.073344 2.458174 -0.000281 -0.004262 -196480.000000 1 0 0
-8.840027 3.820514 -7.448315 12.174555 -0.407939 2.229122 -0.000455 -0.002413 462096.000000 1 0 0
-4.415027 8.102014 -11.341815 14.620939 -1.071854 2.458658 0.002622 0.000952 -2524040.000000 1 0 0
-10.124727 -6.489186 7.362585 14.100613 0.569969 1.021431 0.004202 -0.001497 -1502670.000000 1 0 0
8.076473 5.284814 4.215785 10.532403 0.579425 1.158987 -0.002743 0.002261 -3118760.000000 1 0 0
-6.696827 -7.532486 3.990285 10.840120 0.844059 1.193828 0.007984 -0.000561 -1203200.000000 1 0 0
-4.313427 11.898414 8.023585 14.985187 -1.223011 1.005774 0.006189 -0.002940 684007.000000 1 0 0
-7.178927 9.994814 -7.943715 14.647044 -0.947917 2.144019 0.007580 -0.004724 -1266670.000000 1 0 0
13.024573 5.464914 4.695585 14.884667 0.397275 1.249850 0.002937 -0.003002 -308748.000000 1 0 0
5.470973 3.933314 -3.725315 7.699382 0.623326 2.075840 -0.000829 -0.000909 229079.000000 1 0 0
-2.895627 -4.220186 5.138385 7.252422 0.969435 0.783417 0.004863 -0.001314 -2251840.000000 1 0 0
12.478473 -2.303286 -5.351815 13.771686 -0.182526 1.969919 0.013937 -0.009889 -2622970.000000 1 0 0
-5.305827 9.755614 7.003985 13.129342 -1.072668 1.008110 -0.002013 0.001126 309092.000000 1 0 0
1.750273 3.769414 -0.412515 4.176375 1.136085 1.669731 -0.001815 -0.002346 428874.000000 1 0 0
-0.197427 9.600614 7.748385 12.338891 -1.550235 0.891861 -0.002109 0.004938 -1226610.000000 1 0 0
-5.639727 2.231714 5.860085 8.433722 -0.376805 0.802599 -0.000646 -0.000351 694519.000000 1 0 0
8.808673 0.759014 10.589585 13.795221 0.085954 0.695666 0.009719 0.000093 -903785.000000 1 0 0
0.500673 -2.777886 -10.108415 10.495112 -1.392475 2.869291 0.003585 -0.002957 -1707820.000000 1 0 0
1.233373 10.600114 -2.701415 11.008236 1.454962 1.818728 0.005280 -0.002442 653766.000000 1 0 0
2.272773 -4.239686 11.643485 12.598062 -1.078710 0.391787 -0.002800 0.001566 -990005.000000 1 0 0
6.496073 -2.841286 9.422185 11.791923 -0.412314 0.645104 0.002729 -0.004401 500408.000000 1 0 0
-10.716627 -8.213486 5.554485 14.599991 0.653930 1.180520 0.007639 -0.000884 -1087490.000000 1 0 0
-2.982827 0.846914 -6.890815 7.556312 -0.276649 2.718755 0.008715 -0.009468 587956.000000 1 0 0
11.058873 2.692214 -5.065515 12.458175 0.238799 1.989528 -0.000607 -0.001256 -3403040.000000 1 0 0
-2.053327 -3.993786 -0.013315 4.490730 1.095908 1.573761 0.005159 -0.004018 1129500.000000 1 0 0
-1.195327 -6.377986 -10.581715 12.412905 1.385531 2.591502 0.001747 0.002303 956943.000000 1 0 0
0.265973 6.816214 -6.662615 9.535300 1.531795 2.344419 0.003285 0.000009 -3318250.000000 1 0 0
2.120273 3.790814 -6.126915 7.510321 1.060827 2.524906 0.000983 -0.003086 -1303470.000000 1 0 0
1.632873 -14.680186 6.496185 16.136126 -1.460022 1.156456 0.026272 -0.008494 -26341.600000 1 0 0
-1.613727 5.532914 -10.572415 12.041313 -1.287009 2.642489 0.002687 -0.002246 204460.000000 1 0 0
13.592873 4.303314 -0.714415 14.275682 0.306603 1.620861 0.000549 0.003190 -582452.000000 1 0 0
-2.430527 3.347314 -6.171715 7.429807 -0.942759 2.551106 0.004864 -0.006452 -1172810.000000 1 0 0
5.589873 7.902614 14.178385 17.167545 0.955158 0.599030 0.012614 -0.000313 470376.000000 1 0 0
15.813173 0.660514 -5.677615 16.814519 0.041746 1.915228 0.003627 -0.004209 333890.000000 1 0 0
6.152773 -8.170186 10.473985 14.639430 -0.925329 0.773508 0.001093 0.005324 712009.000000 1 0 0
0.124273 -5.765186 -6.390115 8.607345 -1.549244 2.407446 0.001806 -0.001767 -1383720.000000 1 0 0
8.892373 5.529914 -7.472615 12.864456 0.556346 2.190597 0.001347 -0.000208 154482.000000 1 0 0
-15.977527 -0.771886 5.185985 16.815814 0.048273 1.257287 0.013966 -0.009073 -605398.000000 1 0 0
-0.239027 4.076614 -12.247115 12.909986 -1.512230 2.819751 0.004457 -0.001844 525182.000000 1 0 0
-11.354927 3.754514 5.822885 13.301757 -0.319334 1.117698 0.002552 0.000013 -221216.000000 1 0 0
5.073473 -9.720986 -9.704415 14.642861 -1.089775 2.295269 -0.010967 0.001856 56541.900000 1 0 0
1.702673 11.297914 -11.665415 16.328621 1.421215 2.366584 0.007657 -0.001588 -2250670.000000 1 0 0
6.019873 2.326114 1.241985 6.572078 0.368733 1.380674 -0.001515 0.000781 155881.000000 1 0 0
5.645073 4.619214 4.879185 8.775559 0.685784 0.981234 -0.005089 0.001968 -571722.000000 1 0 0
0.454873 -1.531686 -6.370015 6.567348 -1.282117 2.895831 0.002694 -0.006468 213983.000000 1 0 0
12.842973 6.925514 -4.488615 15.266053 0.494549 1.869233 0.011506 -0.002701 -695528.000000 1 0 0
7.327573 3.182214 12.823185 15.108074 0.409704 0.557153 0.007037 0.000636 -617711.000000 1 0 0
-2.510427 -0.269986 8.617585 8.979861 0.107134 0.285017 -0.001283 0.000904 1001350.000000 1 0 0
2.261373 -15.365086 13.116285 20.328222 -1.424669 0.869478 0.017697 -0.006201 -179664.000000 1 0 0
18.735873 4.478514 -1.713115 19.339721 0.234632 1.659493 0.005902 0.002637 640217.000000 1 0 0
-0.492527 -13.266486 7.159385 15.083071 1.533688 1.076215 0.007497 -0.002464 -1094900.000000 1 0 0
4.364473 1.534014 -0.553815 4.659242 0.337990 1.689942 -0.002011 -0.001422 -21595.900000 1 0 0
2.778473 -0.374386 -7.361015 7.876841 -0.133939 2.777686 0.000681 -0.005006 461932.000000 1 0 0
7.174273 -11.216986 0.884385 13.344404 -1.001774 1.504474 0.005293 -0.001971 359018.000000 1 0 0
-11.774427 -7.294886 1.228585 13.905463 0.554673 1.482328 0.006430 -0.000540 416543.000000 1 0 0
0.064073 -7.083386 10.071985 12.313543 -1.561751 0.612941 -0.001392 -0.000082 -3202440.000000 1 0 0
-4.741427 -7.213986 10.591985 13.664292 0.989338 0.683831 0.002988 -0.000559 -943593.000000 1 0 0
11.812373 0.818514 -1.567215 11.943964 0.069182 1.702390 0.001783 -0.004632 1379720.000000 1 0 0
6.491873 -9.490886 -7.463915 13.708806 -0.970882 2.146543 -0.007747 -0.004054 -736482.000000 1 0 0
-10.788527 5.039114 3.615985 12.444289 -0.436967 1.275970 0.000065 -0.001901 -172713.000000 1 0 0
6.021773 -9.035886 2.035885 11.047797 -0.982959 1.385457 0.002443 -0.002878 2703240.000000 1 0 0
11.545173 -1.451086 5.865285 13.030665 -0.125032 1.103903 0.011589 -0.011488 691833.000000 1 0 0
-6.331927 3.741114 4.013785 8.378526 -0.533652 1.071217 -0.002340 -0.000061 -1414740.000000 1 0 0
9.526173 6.260114 -3.129515 11.820781 0.581384 1.838738 0.006400 0.001064 266496.000000 1 0 0
-2.473827 6.567714 10.939885 12.997529 -1.210567 0.570392 -0.005014 0.000982 790208.000000 1 0 0
1.767473 9.825114 2.995385 10.422531 1.392807 1.279290 -0.002117 0.000160 -24784.000000 1 0 0
2.764073 6.126114 -5.515715 8.694394 1.146949 2.258027 -0.000700 -0.001304 -1849360.000000 1 0 0
12.070173 0.159714 -5.514015 13.270981 0.013231 1.999282 0.007159 -0.005527 640318.000000 1 0 0
-2.687927 -12.477286 6.204485 14.191661 1.358613 1.118322 0.009279 0.001022 -521477.000000 1 0 0
10.724373 1.866214 -2.711515 11.218166 0.172291 1.814921 -0.001890 -0.002829 595959.000000 1 0 0
-8.827727 5.403814 0.784685 10.380063 -0.549299 1.495129 -0.001013 -0.002551 -383421.000000 1 0 0
1.246073 -10.074086 5.525285 11.557192 -1.447730 1.072327 0.004069 -0.000277 -254305.000000 1 0 0
9.458373 -5.691786 -0.994815 11.083632 -0.541722 1.660673 0.007729 -0.005746 939332.000000 1 0 0
-7.847327 8.586314 -4.401815 12.437094 -0.830336 1.932562 -0.001725 -0.000039 -713785.000000 1 0 0
-7.506527 0.040814 -1.672615 7.690725 -0.005437 1.790033 -0.002744 -0.003206 -1631780.000000 1 0 0
4.049173 8.940914 2.790785 10.204128 1.145549 1.293771 0.002180 -0.000817 1298590.000000 1 0 0
-1.357427 -10.420686 -3.788715 11.170840 1.441263 1.916821 0.007255 0.000969 -236024.000000 1 0 0
3.240473 7.863414 -3.619915 9.243253 1.179907 1.973196 0.005101 -0.003332 -433618.000000 1 0 0
-4.153027 1.609614 -10.975415 11.844755 -0.369750 2.756079 0.003488 -0.004147 -548602.000000 1 0 0
1.234773 2.813014 10.996085 11.417162 1.157169 0.272434 0.002180 -0.001184 532564.000000 1 0 0
2.180973 5.543214 -8.025615 9.994717 1.195950 2.503084 -0.001194 0.001257 -61650.000000 1 0 0
15.305373 6.234614 4.079885 17.022641 0.386825 1.328766 0.004155 -0.006396 -140309.000000 1 0 0
-4.479527 9.020814 4.717585 11.121909 -1.109891 1.132751 -0.001892 0.000924 -693495.000000 1 0 0
-0.947127 -8.108186 -12.416415 14.859579 1.454512 2.559990 -0.002216 0.003761 -359264.000000 1 0 0
14.232473 -4.203786 -5.247315 15.740693 -0.287200 1.910661 0.026475 -0.004999 -769657.000000 1 0 0
-5.972427 -6.107686 -5.695715 10.267175 0.796595 2.158859 0.011827 -0.004906 410941.000000 1 0 0
-8.693827 2.463814 -11.999715 15.021523 -0.276157 2.496152 0.002829 -0.009737 -868298.000000 1 0 0
10.390273 5.315714 13.904385 18.153416 0.472888 0.698298 0.014502 0.002888 399720.000000 1 0 0
-0.513327 10.892814 5.565085 12.242838 -1.523706 1.098920 -0.000784 0.006287 691291.000000 1 0 0
0.330473 11.212014 -0.504815 11.228237 1.541330 1.615771 0.003061 -0.001992 16208.800000 1 0 0
-1.450327 -0.591886 3.713085 4.029985 0.387474 0.399220 0.003521 -0.002577 159435.000000 1 0 0
-4.950527 6.753714 8.815185 12.158448 -0.938259 0.759725 -0.000534 0.002416 -1469010.000000 1 0 0
3.470473 -8.765786 -11.465015 14.843509 -1.193820 2.453396 -0.007398 0.005708 490267.000000 1 0 0
6.620873 -3.792786 12.031785 14.247282 -0.520219 0.565171 0.008411 -0.002283 -338523.000000 1 0 0
-2.380427 -1.834086 -12.538815 12.893882 0.656484 2.906370 0.008357 -0.007018 958818.000000 1 0 0
-16.190427 -4.924186 5.188385 17.700194 0.295252 1.273302 0.022949 -0.008959 1273700.000000 1 0 0
-8.972927 7.266814 5.726085 12.888291 -0.680724 1.110419 -0.004981 -0.000565 -3833900.000000 1 0 0
-12.727427 1.491914 5.938785 14.123823 -0.116688 1.136822 0.001391 -0.001505 356130.000000 1 0 0
-3.555127 3.534014 10.173085 11.341069 -0.782420 0.457832 -0.001337 0.004446 577806.000000 1 0 0
2.062973 -12.244786 -1.138215 12.469410 -1.403886 1.662204 0.002536 0.001056 -3169830.000000 1 0 0
10.137873 -5.227986 -3.508515 11.933901 -0.476120 1.869201 0.010728 -0.003812 725431.000000 1 0 0
3.039373 -13.446686 0.974785 13.820324 -1.348500 1.500205 0.006723 0.000595 288955.000000 1 0 0
10.155973 -1.507386 -6.070315 11.927478 -0.147348 2.104744 0.006030 -0.005418 -514029.000000 1 0 0
11.975373 -5.354986 -1.552315 13.209660 -0.420495 1.688582 0.012525 -0.006440 42777.300000 1 0 0
1.447173 0.990514 5.934085 6.187794 0.600212 0.287349 -0.002668 -0.001115 263048.000000 1 0 0
-10.918927 11.626414 6.586285 17.256176 -0.816769 1.179186 -0.004675 -0.006939 -723938.000000 1 0 0
4.783473 -14.072086 3.026485 15.167888 -1.243124 1.369916 0.014865 -0.006007 -3735510.000000 1 0 0
5.268373 -3.361586 -1.701615 6.476998 -0.567942 1.836633 0.001275 -0.003313 -1690910.000000 1 0 0
2.088673 -2.855786 -7.747815 8.517435 -0.939317 2.713217 -0.001153 -0.004292 -228011.000000 1 0 0
-2.751227 14.839114 -8.653615 17.396942 -1.387474 2.091420 0.010175 -0.007929 -2261470.000000 1 0 0
-2.253727 6.144014 -8.188615 10.482443 -1.219219 2.467341 0.006419 -0.002287 25940.700000 1 0 0
2.595573 -3.597386 -11.348415 12.184610 -0.945775 2.768962 0.000130 -0.001190 -1267900.000000 1 0 0
14.534373 2.752114 -2.615915 15.022155 0.187137 1.745826 0.001610 0.001417 763078.000000 1 0 0
-3.624727 13.194614 2.296485 13.874809 -1.302697 1.404516 -0.006301 0.005971 -1179370.000000 1 0 0
7.852973 -4.876086 13.968685 16.750211 -0.555662 0.584586 0.026994 -0.004359 -1244060.000000 1 0 0
-11.525627 7.316214 2.862085 13.948426 -0.565600 1.364138 -0.005248 0.000352 924529.000000 1 0 0
-2.413427 11.821414 4.044185 12.725010 -1.369407 1.247373 -0.002608 0.003734 686812.000000 1 0 0
1.867273 1.419514 0.769785 2.468663 0.650002 1.253686 -0.005178 -0.001841 -1606990.000000 1 0 0
-6.928727 8.648514 5.284485 12.277208 -0.895357 1.125827 -0.004121 -0.002414 -1175560.000000 1 0 0
-1.200927 9.053114 1.032185 9.190566 -1.438913 1.458250 -0.002776 0.001650 329017.000000 1 0 0
5.067873 13.053514 -8.511115 16.386477 1.200470 2.116943 0.008411 -0.011396 -842983.000000 1 0 0
8.889973 6.873114 7.271785 13.384699 0.658141 0.996444 0.000798 0.000430 -1600140.000000 1 0 0
7.307373 -13.724486 2.825385 15.803228 -1.081540 1.391045 0.021094 -0.007370 987248.000000 1 0 0
4.160173 -13.432286 -1.215915 14.114241 -1.270451 1.657051 -0.000837 0.004640 -2770840.000000 1 0 0
12.126673 -11.813086 -4.528615 17.524656 -0.772300 1.832176 0.028377 -0.008152 -1278890.000000 1 0 0
2.918873 -0.019786 -1.896215 3.480782 -0.006779 2.146908 0.000269 -0.005428 1430180.000000 1 0 0
-13.477227 -3.077186 -10.841315 17.568120 0.224477 2.235850 0.026394 -0.010814 679157.000000 1 0 0
-6.686527 13.557714 5.157685 15.972569 -1.112612 1.241995 0.004157 -0.002222 110397.000000 1 0 0
7.310673 -4.273686 -0.633815 8.491882 -0.529005 1.645504 0.000302 -0.002913 -1224580.000000 1 0 0
11.744873 2.062614 -7.268615 13.965285 0.173845 2.118206 0.008177 -0.004199 -1445820.000000 1 0 0
-7.455527 -4.562486 9.658485 13.026415 0.549167 0.735562 0.006712 -0.004035 228105.000000 1 0 0
0.988273 2.785314 8.494085 8.993561 1.229838 0.334840 -0.002162 0.000918 -2376990.000000 1 0 0
1.702473 8.051514 -8.704815 11.979111 1.362418 2.384253 0.003634 -0.001107 -1632360.000000 1 0 0
-8.578127 -1.911186 -5.694015 10.471805 0.219217 2.145692 0.006548 -0.004603 -747972.000000 1 0 0
6.708873 -0.474086 7.150785 9.816693 -0.070548 0.754767 0.000443 -0.002223 -24602.100000 1 0 0
-10.866827 6.557114 7.137185 14.561012 -0.542921 1.058526 -0.000862 -0.001661 265264.000000 1 0 0
-6.092327 11.032914 4.914085 13.527375 -1.066269 1.199021 -0.002960 0.000585 417668.000000 1 0 0
6.087173 -1.125586 -6.902615 9.271824 -0.182846 2.410540 -0.003103 -0.003521 -413613.000000 1 0 0
4.469873 -5.686586 11.443285 13.537570 -0.904627 0.563673 0.002357 -0.000829 -1547270.000000 1 0 0
-9.017827 -7.353086 2.773485 11.961659 0.684058 1.336802 0.005648 -0.002218 -2787680.000000 1 0 0
-1.114027 12.808014 -9.306115 15.871045 -1.484036 2.197352 0.012123 -0.000542 718979.000000 1 0 0
-4.642127 9.325414 -2.335715 10.675591 -1.108916 1.791371 -0.006213 0.001258 766868.000000 1 0 0
-3.267327 9.720614 -0.193915 10.256869 -1.246537 1.589703 -0.002867 0.000496 -961767.000000 1 0 0
-3.459327 10.699514 -6.454015 12.965371 -1.258088 2.091844 0.001098 0.001465 1527850.000000 1 0 0
4.907173 -4.910786 0.388585 6.953213 -0.785766 1.514882 0.000961 -0.002724 -1488860.000000 1 0 0
-2.125827 3.051514 -10.840415 11.460605 -0.962325 2.811108 0.006435 -0.002549 -186393.000000 1 0 0
-3.637727 12.116614 -2.152215 12.832670 -1.279132 1.739306 -0.005240 0.004518 -923002.000000 1 0 0
-0.221827 0.415214 0.071585 0.476166 -1.080128 1.419888 -0.000394 -0.004002 -1243370.000000 1 0 0
-4.948927 -1.722486 0.200485 5.243952 0.334939 1.532555 -0.001348 -0.003547 352465.000000 1 0 0
2.588673 2.504214 -2.415915 4.336930 0.768816 2.161634 -0.005210 -0.004056 1541990.000000 1 0 0
6.009873 -9.636886 8.447285 14.154320 -1.013181 0.931290 0.004059 0.000668 -1038730.000000 1 0 0
-4.369827 -5.535686 6.573985 9.641394 0.902557 0.820508 0.003111 -0.002745 69861.800000 1 0 0
-6.139427 5.377414 -12.061215 14.563037 -0.719329 2.546698 0.000776 -0.003141 2416410.000000 1 0 0
-13.000427 3.084014 7.902585 15.523308 -0.232919 1.036682 0.003583 0.000818 823642.000000 1 0 0
4.672773 -7.443186 -4.865715 10.045447 -1.010192 2.076439 -0.006244 -0.002911 335561.000000 1 0 0
-5.938127 2.382714 -1.027215 6.480266 -0.381589 1.729982 -0.001448 -0.003658 -509989.000000 1 0 0
-6.879727 -2.685386 -14.474315 16.249546 0.372145 2.669793 0.009149 -0.004424 -54972.800000 1 0 0
2.747473 -6.040286 0.911385 6.698081 -1.143910 1.434306 0.002709 -0.001029 -159515.000000 1 0 0
4.747873 -7.894786 13.026385 15.954832 -1.029353 0.615554 0.005719 0.002850 22926.800000 1 0 0
-9.961027 -1.783586 8.051985 12.932042 0.177179 0.898686 0.005194 -0.003313 242197.000000 1 0 0
-4.581027 13.309914 -0.013615 14.076214 -1.239314 1.571764 -0.006944 0.008475 572762.000000 1 0 0
6.839973 2.197314 -4.498815 8.476601 0.310833 2.130262 -0.001347 -0.000609 -1411710.000000 1 0 0
4.944173 4.393914 0.061885 6.614768 0.726540 1.561441 -0.004787 -0.000257 -322750.000000 1 0 0
-5.966227 12.332414 1.929785 13.835041 -1.120205 1.430855 -0.004743 0.006424 -1463590.000000 1 0 0
6.568473 -7.103286 6.557385 11.687635 -0.824496 0.975139 0.000563 -0.001736 -257194.000000 1 0 0
-0.378527 4.879714 7.753785 9.169301 -1.493380 0.563062 -0.003589 0.002162 -488066.000000 1 0 0
-5.839127 -3.331786 -1.568815 6.903433 0.518519 1.800051 0.003048 -0.004202 -570224.000000 1 0 0
2.370673 -6.451186 -5.291715 8.674107 -1.218636 2.226931 -0.002392 -0.000325 -1352250.000000 1 0 0
-14.433227 -4.733386 -3.775515 15.651757 0.316898 1.814419 0.013161 -0.007894 183654.000000 1 0 0
-12.352327 -5.096486 -6.371915 14.803900 0.391315 2.015756 0.015863 -0.009467 -1370650.000000 1 0 0
-14.716927 -3.688486 -1.346115 15.231707 0.245570 1.659288 0.006737 -0.003411 210313.000000 1 0 0
11.959473 2.873414 8.759985 15.100425 0.235793 0.951926 0.014484 -0.001345 -2035680.000000 1 0 0
8.778373 -6.417286 7.694185 13.320731 -0.631252 0.954999 0.009246 -0.006050 105205.000000 1 0 0
-8.863227 -1.727886 -9.622915 13.196321 0.192535 2.387966 0.002288 -0.006571 263060.000000 1 0 0
-8.713127 5.133914 -3.960415 10.860964 -0.532452 1.944050 -0.000115 -0.002292 -1660090.000000 1 0 0
-4.183527 -6.301186 4.059885 8.584259 0.984693 1.078166 0.007156 -0.001467 -1440520.000000 1 0 0
-0.192527 -9.261086 3.475485 9.893623 1.550011 1.211853 0.006968 -0.000349 1067030.000000 1 0 0
7.946973 -10.454586 3.298785 13.540116 -0.920836 1.324689 0.007520 -0.005548 460386.000000 1 0 0
-0.119227 6.456614 9.703785 11.656137 -1.552333 0.587183 -0.001254 0.001353 100421.000000 1 0 0
0.109173 3.653414 -9.713315 10.378239 1.540923 2.781690 0.005580 -0.003150 46857.600000 1 0 0
4.440573 -3.073786 11.008285 12.261696 -0.605475 0.456097 0.004025 -0.002951 -2943800.000000 1 0 0
8.572973 -9.107086 1.259485 12.570648 -0.815599 1.470435 0.007363 -0.005780 -950825.000000 1 0 0
-0.286327 -0.443886 11.396485 11.408720 0.997912 0.046316 0.003733 -0.000240 -470902.000000 1 0 0
10.781873 5.980914 11.479085 16.846053 0.506459 0.821108 0.020122 0.001153 -118436.000000 1 0 0
-6.260127 -2.974886 -11.880615 13.754568 0.443621 2.613476 0.006133 -0.005548 963469.000000 1 0 0
-1.692227 2.798014 8.523085 9.128827 -1.026858 0.366339 0.001707 0.000387 257963.000000 1 0 0
-1.622927 13.516314 -6.827715 15.229653 -1.451297 2.035678 0.008801 -0.001228 417282.000000 1 0 0
7.669873 3.032414 9.858385 12.853414 0.376506 0.696666 0.002285 0.000592 623923.000000 1 0 0
6.518773 8.370214 -7.826115 13.183435 0.909113 2.206362 0.004408 -0.002038 417317.000000 1 0 0
6.610873 -3.040286 -3.887315 8.249739 -0.431049 2.061452 0.000773 -0.003955 -2258000.000000 1 0 0
1.921673 8.247714 0.984885 8.525703 1.341886 1.455018 -0.000030 0.001220 876772.000000 1 0 0
-17.714427 6.109014 6.138285 19.718000 -0.332089 1.254232 0.023714 -0.004928 -305289.000000 1 0 0
-14.420627 3.004214 -10.356215 18.006415 -0.205390 2.183572 0.015078 -0.008721 -419297.000000 1 0 0
-18.485827 0.171214 -4.418515 19.007325 -0.009262 1.805406 0.034095 -0.003717 574441.000000 1 0 0
-13.001027 8.047914 -0.011215 15.290381 -0.554289 1.571530 0.003817 -0.000466 -1910390.000000 1 0 0
-12.666127 -4.478286 -12.879915 18.611234 0.339846 2.335122 0.031279 -0.000310 -735582.000000 1 0 0
-17.277927 -0.631586 -8.732615 19.369673 0.036538 2.038502 0.026033 -0.019469 -555164.000000 1 0 0
-16.625627 -2.066186 -2.200815 16.897461 0.123643 1.701413 0.018263 -0.004104 -546161.000000 1 0 0
-15.294627 4.158814 1.611385 15.931664 -0.265494 1.469480 0.007424 -0.000688 -318119.000000 1 0 0
-13.175927 5.899214 4.351185 15.077751 -0.420962 1.278050 0.002988 0.001787 1405370.000000 1 0 0
-10.053627 14.257414 2.778985 17.665560 -0.956622 1.412829 0.006907 0.003713 251781.000000 1 0 0
-11.833727 2.550114 -6.431715 13.707922 -0.212250 2.059178 0.003837 -0.000536 443946.000000 1 0 0
-15.975427 10.645814 3.899885 19.589710 -0.587809 1.370379 0.013391 -0.004724 1661810.000000 1 0 0
-12.801927 1.181614 -8.602315 15.468852 -0.092039 2.160489 0.010471 -0.006434 577452.000000 1 0 0
-12.361227 14.382414 3.937485 19.368984 -0.860831 1.366081 0.010553 0.000129 204505.000000 1 0 0
-10.436227 11.154914 -1.047015 15.311537 -0.818672 1.639231 -0.002864 -0.000867 988884.000000 1 0 0
-17.416427 5.848714 8.741885 20.346005 -0.323983 1.126679 0.036609 -0.004395 118144.000000 1 0 0
-11.795227 12.463714 -9.190615 19.466354 -0.812948 2.062500 0.031713 -0.020025 -203786.000000 1 0 0
-17.193227 -0.439186 2.996785 17.457968 0.025539 1.398285 0.017327 -0.006619 393480.000000 1 0 0
-13.258227 14.845214 -0.520715 19.910603 -0.841808 1.596952 0.029789 -0.011924 222042.000000 1 0 0
-16.381127 4.583414 -10.563915 20.023619 -0.272822 2.126537 0.045902 -0.007059 425346.000000 1 0 0
-11.859827 7.568414 -9.126915 16.770121 -0.568004 2.146275 0.009281 -0.002621 -250665.000000 1 0 0
-14.701527 13.371614 -2.251815 20.000141 -0.738060 1.683626 0.033824 -0.023644 736152.000000 1 0 0
-11.931527 10.595814 -5.538315 16.890990 -0.726175 1.904861 0.020234 -0.013790 2386300.000000 1 0 0
-17.623527 2.917414 -0.784115 17.880572 -0.164053 1.614663 0.015219 -0.005721 -314841.000000 1 0 0
-9.446327 15.300014 0.401285 17.985676 -1.017676 1.548483 0.008233 -0.007117 -14040.400000 1 0 0
-8.090427 13.266614 -3.814915 16.000363 -1.023178 1.811542 0.003105 -0.003543 -687373.000000 1 0 0
-17.830727 11.531314 2.147185 21.342831 -0.574059 1.470021 0.052664 0.001172 159015.000000 1 0 0
-7.945027 15.668914 -7.457515 19.085409 -1.101519 1.972236 0.048728 -0.029670 -38655.000000 1 0 0
-6.262627 15.346514 -5.480415 17.457690 -1.183343 1.890121 0.010507 -0.004312 -1383370.000000 1 0 0
-17.310827 5.386214 -0.252915 18.131188 -0.301652 1.584746 0.023680 -0.001198 916018.000000 1 0 0
-5.287727 12.306014 -12.165415 18.094070 -1.164963 2.308165 -0.000796 -0.006530 -343295.000000 1 0 0
-10.950627 3.724914 -11.281215 16.157259 -0.327878 2.343695 0.002492 -0.009980 471657.000000 1 0 0
-11.931627 10.994214 1.175985 16.267126 -0.744532 1.498441 0.003837 0.000285 286226.000000 1 0 0
-12.799027 0.194014 -11.034715 16.900227 -0.015157 2.282247 0.009971 -0.011929 1128040.000000 1 0 0
-13.906527 -2.198386 -13.246715 19.331318 0.156786 2.325738 0.022431 -0.005265 223202.000000 1 0 0
-18.691327 -2.192386 -3.645715 19.169337 0.116761 1.762147 0.024049 -0.003004 42380.100000 1 0 0
-18.242227 4.852114 -5.100115 19.553338 -0.259964 1.834679 0.037081 -0.006949 -29716.400000 1 0 0
-8.264727 15.545414 -2.445515 17.774874 -1.082150 1.708817 0.012674 -0.004079 -201069.000000 1 0 0
-16.197927 9.076314 -5.612215 19.397146 -0.510746 1.864325 0.039902 -0.007811 45275.300000 1 0 0
-18.227627 1.649014 1.905885 18.401033 -0.090222 1.467035 0.026038 -0.006243 -1376940.000000 1 0 0
-15.669827 -2.629986 -8.831815 18.178593 0.166288 2.078116 0.021547 -0.007597 72202.000000 1 0 0
-9.672227 10.469514 -7.158415 15.950097 -0.824961 2.036219 0.011721 -0.013730 66977.700000 1 0 0
-14.033927 11.967414 -7.833815 20.038432 -0.706088 1.972448 0.048190 -0.025478 168957.000000 1 0 0
-10.920227 6.563114 -3.877315 13.317635 -0.541158 1.866216 0.001192 -0.001534 778655.000000 1 0 0
-12.890627 4.880914 -12.778515 18.795798 -0.361959 2.318368 0.022359 -0.013951 -58502.700000 1 0 0
-17.613227 9.070714 2.538185 19.973633 -0.475571 1.443375 0.023691 -0.005634 1001100.000000 1 0 0
-13.335527 8.545814 -6.552815 17.140788 -0.569902 1.963074 0.007732 -0.008092 -624004.000000 1 0 0
-15.699527 7.026314 -3.995615 17.658119 -0.420814 1.799050 0.011097 0.000075 -835680.000000 1 0 0
-14.819727 -0.295086 -9.360715 17.530955 0.019909 2.134066 0.022345 -0.014451 -204712.000000 1 0 0
-9.990327 5.819214 -6.145315 13.093311 -0.527441 2.059348 -0.000140 -0.000473 315024.000000 1 0 0
-12.781227 12.223014 -0.887815 17.707344 -0.763077 1.620956 0.016323 -0.007041 -1109520.000000 1 0 0
-10.268627 3.520414 -13.811815 17.567135 -0.330275 2.475481 -0.004736 -0.014362 -27203.900000 1 0 0
-10.826527 6.295814 -12.020415 17.359186 -0.526718 2.335679 0.006728 -0.007010 -663393.000000 1 0 0
-5.642127 11.739214 -14.682415 19.626922 -1.122771 2.415953 0.002559 -0.008551 -274723.000000 1 0 0
-15.601427 13.321914 3.438285 20.801435 -0.706749 1.404744 0.012163 -0.001603 410624.000000 1 0 0
-14.773527 11.041314 -3.540115 18.780312 -0.641817 1.760432 0.021754 -0.011550 599586.000000 1 0 0
-18.145427 7.720014 -4.619215 20.253204 -0.402254 1.800895 0.041492 -0.007508 -724233.000000 1 0 0
-3.884027 16.236414 -10.556015 19.751867 -1.335992 2.134631 0.015607 -0.012018 -155602.000000 1 0 0
-15.749827 4.407914 -4.486415 16.959206 -0.272889 1.838525 0.009412 0.000264 77988.500000 1 0 0
-18.716427 -1.788886 -6.227015 19.806071 0.095289 1.890620 0.034280 -0.007248 380201.000000 1 0 0
-10.754427 8.655714 -5.775215 14.964364 -0.677692 1.967013 0.000771 0.000193 108839.000000 1 0 0
-11.401027 13.584714 -6.845115 19.010089 -0.872574 1.939148 0.032184 -0.016274 402970.000000 1 0 0
-9.431127 10.552714 -4.407015 14.823215 -0.841464 1.872665 -0.006006 -0.002426 479737.000000 1 0 0
-11.063327 6.236614 -0.274315 12.703063 -0.513315 1.592392 -0.001121 0.000026 238816.000000 1 0 0
-14.529527 9.372314 -1.666015 17.370176 -0.572890 1.666856 0.022155 -0.001122 -550269.000000 1 0 0
-18.472427 3.321514 4.620085 19.328947 -0.177908 1.329436 0.012045 -0.005255 402067.000000 1 0 0
-14.878627 12.973714 0.303785 19.742925 -0.717111 1.555409 0.017143 -0.012581 -264205.000000 1 0 0
-16.700627 2.551214 -9.044615 19.163108 -0.151590 2.062332 0.025874 -0.013972 19146.400000 1 0 0
-9.110627 8.494914 -8.932715 15.328421 -0.750440 2.192911 0.009330 0.000407 -1001990.000000 1 0 0
-17.626827 4.684914 -2.682515 18.435003 -0.259777 1.716827 0.016313 -0.001978 1002060.000000 1 0 0
-13.449127 5.857814 -4.534415 15.354280 -0.410775 1.870586 0.003463 0.002767 -804964.000000 1 0 0
-12.135127 9.715914 3.428585 15.919029 -0.675133 1.353719 -0.003606 0.002073 829232.000000 1 0 0
-17.508627 2.494014 -4.112115 18.157137 -0.141493 1.799252 0.015906 -0.002701 894188.000000 1 0 0
-11.096227 1.500014 -12.560615 16.826923 -0.134368 2.413522 0.009663 -0.010391 122564.000000 1 0 0
-11.200927 11.989314 3.500885 16.776788 -0.819382 1.360577 -0.002395 0.002328 -158888.000000 1 0 0
-15.804927 13.248514 -4.567315 21.122954 -0.697634 1.788743 0.025791 -0.016041 137379.000000 1 0 0
-11.025627 4.157614 -4.562915 12.636075 -0.360599 1.940246 -0.001626 -0.002225 -296261.000000 1 0 0
-11.143327 15.004214 -9.025915 20.754935 -0.931997 2.020702 0.049905 -0.029431 402307.000000 1 0 0
-15.416027 7.223314 -0.498715 17.031702 -0.438180 1.600082 0.021182 -0.000366 -263509.000000 1 0 0
-12.736227 8.396914 -4.053315 15.784454 -0.582881 1.830497 0.004799 -0.002941 718982.000000 1 0 0
-19.223327 1.974314 -6.057215 20.251520 -0.102345 1.874545 0.047612 -0.007400 219274.000000 1 0 0
-12.666727 10.004214 -8.983515 18.472515 -0.668492 2.078667 0.023459 -0.018159 804236.000000 1 0 0
-16.507327 11.018714 -1.504615 19.903964 -0.588582 1.646462 0.021970 -0.007944 1017050.000000 1 0 0
-10.703727 6.465114 -14.620515 19.238683 -0.543360 2.434039 0.026047 -0.017572 -131391.000000 1 0 0
-13.270627 12.914814 -4.425115 19.039002 -0.771811 1.805365 0.019236 -0.022649 -52611.700000 1 0 0
-18.047127 7.851414 -0.344515 19.684059 -0.410353 1.588299 0.043267 -0.002015 1527380.000000 1 0 0
-12.688927 6.681114 -2.127915 14.497385 -0.484646 1.718108 0.000824 0.000984 254549.000000 1 0 0
-13.832127 8.422714 -10.682715 19.400780 -0.546955 2.153919 0.024798 -0.009112 -918485.000000 1 0 0
-15.057027 1.505514 -1.025115 15.166789 -0.099656 1.638437 0.009074 -0.003953 -383286.000000 1 0 0
-13.308627 2.844614 -2.450615 13.828120 -0.210574 1.748957 0.002075 -0.000247 -342735.000000 1 0 0
-11.375427 9.249714 -11.056415 18.363057 -0.682697 2.216926 0.027330 -0.010281 -90748.900000 1 0 0
-15.344227 4.391214 -8.153115 17.922091 -0.278730 2.043079 0.018562 -0.004936 196189.000000 1 0 0
-18.538327 10.442614 4.485685 21.744864 -0.512996 1.363017 0.052691 -0.018135 97324.600000 1 0 0
-15.317627 6.089814 -6.322815 17.654844 -0.378409 1.937066 0.015917 0.001153 805990.000000 1 0 0
-7.675727 11.369514 -12.972115 18.880106 -0.976968 2.328257 0.002695 -0.004728 882118.000000 1 0 0
-16.682627 9.162514 -3.091815 19.282661 -0.502248 1.731833 0.029536 -0.005981 1083450.000000 1 0 0
-20.729727 -1.143986 -4.786415 21.305869 0.055130 1.797383 0.058923 -0.011119 -4070.220000 1 0 0
-15.457027 4.404914 4.062585 16.577923 -0.277619 1.323215 0.004628 0.005243 -229315.000000 1 0 0
-6.861627 12.660114 -9.516115 17.260268 -1.074125 2.154755 0.015780 -0.007010 1549240.000000 1 0 0
-17.104627 1.476614 5.830385 18.131245 -0.086115 1.243414 0.011282 -0.007886 -118135.000000 1 0 0
-10.458827 14.337614 -3.191915 18.031710 -0.940566 1.748751 0.022804 -0.018415 1089730.000000 1 0 0
-9.920427 8.487214 -13.121215 18.509834 -0.707695 2.358703 0.009401 -0.008210 538994.000000 1 0 0
-13.709227 11.705214 2.851685 18.250672 -0.706708 1.413902 0.004824 0.002918 -357084.000000 1 0 0
-16.639427 6.837514 1.725385 18.072052 -0.389887 1.475178 0.009264 -0.001243 921047.000000 1 0 0
-9.339727 13.250314 -8.412415 18.263900 -0.956810 2.049471 0.038116 -0.021364 -7893.860000 1 0 0
-5.456627 9.889014 -12.988115 17.212162 -1.066582 2.425825 0.001033 -0.000745 -400126.000000 1 0 0
-15.869727 1.876414 3.012685 16.261778 -0.117692 1.384458 0.003926 0.000901 -596997.000000 1 0 0
-18.845627 -4.848686 4.577385 19.990494 0.251823 1.339769 0.051531 -0.008868 1583240.000000 1 0 0
-5.248327 14.553214 -9.069815 17.933280 -1.224683 2.101051 0.008340 -0.005801 -761903.000000 1 0 0
-15.386127 -0.832886 -6.835315 16.856694 0.054079 1.988317 0.012764 -0.006784 607767.000000 1 0 0
-8.894527 10.961414 -9.527315 17.030412 -0.889119 2.164494 0.014516 -0.012989 445773.000000 1 0 0
-16.761627 1.229814 -6.150515 17.896743 -0.073240 1.921615 0.011178 -0.004516 -209076.000000 1 0 0
-11.063027 8.673914 -1.581115 14.146635 -0.664936 1.682796 0.001174 -0.003463 249843.000000 1 0 0
-10.745527 11.026114 -12.868815 20.066089 -0.798285 2.267016 0.022542 -0.008495 -409786.000000 1 0 0
-13.970827 11.732414 -10.438415 21.018897 -0.698531 2.090497 0.052891 -0.023050 295794.000000 1 0 0
-13.154027 5.756414 -7.785115 16.333179 -0.412508 2.067630 0.008488 0.004161 314687.000000 1 0 0
-8.902227 15.274014 -5.059515 18.388688 -1.043094 1.849535 0.023637 -0.020819 -152644.000000 1 0 0
-8.488927 6.182014 -13.083515 16.776696 -0.629432 2.465242 0.004031 -0.005218 1554290.000000 1 0 0
-16.431527 7.456714 4.226485 18.532696 -0.426014 1.340716 0.017184 0.003975 230660.000000 1 0 0
-12.591427 5.456514 -10.327315 17.174720 -0.408923 2.215935 0.010922 -0.002416 653083.000000 1 0 0
-12.365327 9.226314 -13.461815 20.475513 -0.641029 2.288238 0.037049 -0.014915 -1161130.000000 1 0 0
-10.643727 5.303414 -8.608915 14.680890 -0.462260 2.197407 0.001949 0.000767 -1175780.000000 1 0 0
-17.684227 -4.318086 -2.717415 18.405491 0.239491 1.718980 0.022895 -0.007112 526329.000000 1 0 0
-9.011627 13.170714 -10.913515 19.333441 -0.970742 2.170610 0.044031 -0.019420 72404.400000 1 0 0
-15.103027 6.088514 6.073085 17.379695 -0.383203 1.213828 0.004722 -0.001719 -60625.700000 1 0 0
-16.256227 -3.056186 -4.550415 17.155508 0.185832 1.839254 0.010722 -0.003343 376602.000000 1 0 0
-11.130327 -1.134286 -12.518715 16.789551 0.101559 2.412269 0.010276 -0.005409 507724.000000 1 0 0
-15.380527 6.968414 -8.666115 18.979488 -0.425402 2.044971 0.020702 -0.000285 231580.000000 1 0 0
-14.917927 9.444514 0.899685 17.679163 -0.564402 1.519885 0.015799 -0.003109 -71147.900000 1 0 0
-19.630227 5.293014 7.597985 21.704635 -0.263372 1.213158 0.051653 -0.018447 -257474.000000 1 0 0
-16.311527 0.386314 0.844785 16.337956 -0.023679 1.519066 0.015841 -0.004517 -1351680.000000 1 0 0
-17.531527 3.716514 7.092085 19.273416 -0.208898 1.193969 0.013125 0.000281 777833.000000 1 0 0
-15.329727 4.088714 -1.458415 15.932517 -0.260650 1.662462 0.006529 -0.004664 -326351.000000 1 0 0
-10.905327 13.247614 0.486285 17.165719 -0.882073 1.542464 0.005132 -0.007846 -652690.000000 1 0 0
-13.431127 3.360214 0.033185 13.845119 -0.245149 1.568399 0.004681 -0.001800 -677540.000000 1 0 0
-15.062927 0.264214 -4.372115 15.686841 -0.017539 1.853249 0.008067 -0.001389 190840.000000 1 0 0
-18.826627 6.741114 3.147485 20.243299 -0.343840 1.414680 0.025610 0.001177 1699230.000000 1 0 0
-14.180627 1.472714 -6.453915 15.649667 -0.103483 1.995883 0.009426 -0.001636 -141684.000000 1 0 0
-14.280727 12.032214 5.321285 19.417245 -0.700153 1.293195 0.003246 -0.007654 238371.000000 1 0 0
17.598073 5.553414 6.157685 19.453783 0.305679 1.248728 0.037345 -0.014299 -480849.000000 1 0 0
18.465473 7.419514 -0.187615 19.901208 0.382061 1.580224 0.027747 0.002123 -99845.300000 1 0 0
16.633973 5.152014 8.526385 19.388954 0.300358 1.115471 0.051169 -0.009876 429306.000000 1 0 0
11.675673 12.277414 10.994085 20.197182 0.810515 0.995197 0.037680 -0.009297 544936.000000 1 0 0
-2.405827 16.301714 -0.513415 16.486281 -1.424273 1.601943 -0.002484 0.001678 179806.000000 1 0 0
15.079773 12.571314 3.449585 19.933317 0.694928 1.396864 0.040066 -0.007666 104085.000000 1 0 0
13.591273 11.763914 6.584885 19.143487 0.713452 1.219649 0.052806 -0.006081 888563.000000 1 0 0
-0.730227 15.945514 8.632885 18.147158 -1.525033 1.075019 0.009596 -0.000411 -213846.000000 1 0 0
0.672273 12.949414 9.442585 16.040626 1.518928 0.941388 0.002943 0.001223 -739855.000000 1 0 0
0.770073 15.660414 -4.142815 16.217413 1.521663 1.829114 0.009524 -0.001400 -605902.000000 1 0 0
5.530073 10.385514 13.578385 17.967002 1.081504 0.714013 0.010246 -0.002416 202993.000000 1 0 0
-1.330727 16.452814 -2.740315 16.732461 -1.490091 1.735310 0.003131 -0.002232 128506.000000 1 0 0
8.585773 10.109014 3.334385 13.675737 0.866698 1.324496 0.010210 -0.000626 156188.000000 1 0 0
12.691673 13.606114 -4.702915 19.191725 0.820157 1.818367 0.041963 -0.014546 67530.900000 1 0 0
2.366373 11.603114 7.895285 14.232621 1.369612 0.982756 0.005713 0.003929 1037340.000000 1 0 0
-0.268727 15.013314 -8.611215 17.309675 -1.552899 2.091488 0.013126 -0.003044 -1373290.000000 1 0 0
2.280273 15.840414 0.204185 16.005001 1.427826 1.558038 0.016554 -0.012321 -707931.000000 1 0 0
1.789473 13.300214 5.305285 14.430660 1.437055 1.194327 0.006221 0.002568 -34151.900000 1 0 0
17.502573 9.206214 -1.822215 19.859882 0.484224 1.662679 0.017197 0.005817 196678.000000 1 0 0
-7.362027 14.974814 7.251685 18.194269 -1.113869 1.160840 0.011746 -0.011860 -830987.000000 1 0 0
8.404073 15.891514 -0.075315 17.977050 1.084344 1.574986 0.013744 -0.013270 126690.000000 1 0 0
15.523573 10.302714 2.139285 18.753767 0.585933 1.456475 0.019902 -0.001306 297689.000000 1 0 0
14.035373 7.504114 8.709585 18.142775 0.490987 1.070075 0.033559 -0.008988 -1062150.000000 1 0 0
4.127173 18.347414 -1.608415 18.874537 1.349534 1.656116 0.027006 -0.026817 -818965.000000 1 0 0
-0.630127 17.709314 -4.793015 18.357283 -1.535230 1.834954 0.015222 -0.000635 419112.000000 1 0 0
1.226473 13.703514 -0.751015 13.778772 1.481534 1.625329 0.004781 -0.006914 377958.000000 1 0 0
10.218873 14.790414 4.280985 18.479950 0.966196 1.337017 0.027870 -0.012267 929723.000000 1 0 0
-1.738827 15.391414 -5.076315 16.299942 -1.458299 1.887495 0.008135 -0.002473 2820.240000 1 0 0
15.093773 8.678514 -6.071215 18.439041 0.521814 1.906315 0.035851 -0.007762 -293857.000000 1 0 0
-2.489227 18.424114 0.992485 18.617982 -1.436503 1.517463 0.007417 -0.005153 947054.000000 1 0 0
-4.003427 19.356214 3.556985 20.083391 -1.366843 1.392746 0.016444 -0.007975 417165.000000 1 0 0
1.817473 17.742214 -2.697615 18.037918 1.468715 1.720912 0.013805 -0.010050 52562.500000 1 0 0
2.883873 12.126914 3.309685 12.897007 1.337325 1.311268 0.004754 -0.000024 261487.000000 1 0 0
-2.647627 16.077014 1.928885 16.407343 -1.407577 1.452962 -0.000417 -0.000809 -695663.000000 1 0 0
11.837073 12.923314 -2.515315 17.704665 0.829240 1.713349 0.010814 0.003626 836866.000000 1 0 0
7.100373 11.662914 4.751585 14.457400 1.023932 1.235911 0.011770 -0.000532 53666.300000 1 0 0
7.017473 15.735614 2.061985 17.352414 1.151306 1.451685 0.013278 -0.012995 -1224300.000000 1 0 0
5.448573 12.237714 10.280585 16.886060 1.151918 0.916223 0.010126 0.003389 -220562.000000 1 0 0
-1.389527 14.041114 3.157185 14.458613 -1.472156 1.350663 -0.000722 0.000312 -464046.000000 1 0 0
4.481673 16.007714 1.492985 16.690156 1.297816 1.481224 0.008667 -0.017715 -1918900.000000 1 0 0
7.257573 13.064314 11.995285 19.163390 1.063720 0.894450 0.015931 -0.001062 145054.000000 1 0 0
0.733773 17.382914 -9.238815 19.699234 1.528609 2.058947 0.024249 -0.006885 91989.800000 1 0 0
9.721273 9.629914 15.393285 20.595913 0.780677 0.726664 0.030251 -0.008890 314.311000 1 0 0
13.522873 7.456414 -0.063815 15.442483 0.503912 1.574929 -0.000384 0.006209 679437.000000 1 0 0
12.214473 13.761614 0.053885 18.400497 0.844888 1.567868 0.016389 -0.001696 784405.000000 1 0 0
9.218973 12.544514 3.672685 15.995090 0.937029 1.339116 0.016764 -0.000052 -90943.600000 1 0 0
-0.764327 12.954514 0.779885 13.000456 -1.511864 1.510771 0.002978 -0.002710 896495.000000 1 0 0
16.023473 7.262014 -0.799615 17.610449 0.425521 1.616218 0.020420 0.005298 -708895.000000 1 0 0
-4.356327 18.432814 -2.356515 19.086628 -1.338719 1.694576 0.009761 -0.005972 37619.100000 1 0 0
11.650573 9.226614 -3.124515 15.186469 0.669810 1.778020 0.008568 0.001734 268934.000000 1 0 0
14.623273 9.766114 7.771485 19.225324 0.588820 1.154658 0.045704 -0.009796 -492912.000000 1 0 0
4.367973 13.662314 4.763285 15.113798 1.261357 1.250170 0.010370 -0.001429 385970.000000 1 0 0
2.078773 15.865614 5.615085 16.957835 1.440515 1.233306 0.011833 -0.001693 240823.000000 1 0 0
6.100873 18.330014 5.453585 20.073656 1.249494 1.295659 0.023701 -0.025616 -397394.000000 1 0 0
10.681273 17.221814 -0.530515 20.272196 1.015643 1.596969 0.016974 -0.014269 -337014.000000 1 0 0
10.025773 13.591314 -4.346615 17.439410 0.935239 1.822693 0.021512 -0.009035 1243310.000000 1 0 0
16.604173 7.911814 2.412485 18.550349 0.444668 1.440376 0.013375 0.003830 384254.000000 1 0 0
3.865473 14.049514 -0.506215 14.580363 1.302307 1.605522 0.007780 -0.008611 -564713.000000 1 0 0
5.630773 13.188614 -2.253115 14.516255 1.167282 1.726640 0.008129 -0.005499 -73178.400000 1 0 0
-6.170627 16.884214 -3.014915 18.227535 -1.220409 1.736964 0.008955 -0.007204 -2556890.000000 1 0 0
18.130173 9.982414 2.625385 20.862512 0.503301 1.444620 0.037526 -0.005232 461637.000000 1 0 0
7.804073 12.912314 9.366985 17.758711 1.027155 1.015190 0.025172 -0.005584 105757.000000 1 0 0
-2.660727 15.772614 6.839585 17.396400 -1.403677 1.166729 0.003927 -0.000146 597872.000000 1 0 0
11.308173 16.065614 6.356385 20.649028 0.957475 1.257885 0.043463 -0.012087 -37351.800000 1 0 0
13.479773 11.971014 1.437185 18.085214 0.726186 1.491245 0.029221 0.000358 2387380.000000 1 0 0
17.555773 7.846114 -5.809415 20.087707 0.420294 1.864190 0.031866 0.015682 593102.000000 1 0 0
9.462773 9.205514 8.073085 15.474504 0.771618 1.021951 0.017021 -0.002184 -122679.000000 1 0 0
-2.036127 14.150314 -1.921015 14.424545 -1.427885 1.704370 -0.003625 0.002707 753483.000000 1 0 0
10.805173 11.663014 0.771085 15.917670 0.823560 1.522335 0.016665 0.004802 412424.000000 1 0 0
11.713573 9.777414 -0.544915 15.267696 0.695549 1.606495 0.005263 0.009033 -750757.000000 1 0 0
-0.350827 16.209414 11.090885 19.643724 -1.549156 0.970845 0.016599 -0.009163 -147108.000000 1 0 0
2.102773 19.979314 -1.564315 20.150477 1.465935 1.648506 0.032784 -0.023187 -464348.000000 1 0 0
9.158673 14.334514 1.891285 17.115389 1.002246 1.460068 0.017996 -0.008161 -293924.000000 1 0 0
8.538273 11.597614 -5.049615 15.261238 0.936180 1.908031 0.017361 -0.004583 -430286.000000 1 0 0
10.506373 10.100814 10.290285 17.840972 0.765720 0.956017 0.016118 -0.004149 982828.000000 1 0 0
-5.209027 15.774014 5.896185 17.627208 -1.251843 1.229729 -0.002981 -0.001334 914724.000000 1 0 0
14.493373 9.091114 -1.862815 17.209773 0.560223 1.679251 0.027403 0.007714 -494150.000000 1 0 0
12.148873 9.597114 6.877785 16.941182 0.668588 1.152745 0.024672 -0.006103 -1259640.000000 1 0 0
3.160973 13.035714 9.795085 16.609193 1.332902 0.940061 0.006801 -0.000110 -522168.000000 1 0 0
8.472273 12.650714 -2.571015 15.441182 0.980692 1.738079 0.016653 -0.004446 -1139010.000000 1 0 0
9.247873 16.934114 2.165385 19.415877 1.070945 1.459037 0.015844 -0.017863 -924708.000000 1 0 0
9.791273 14.210914 -7.429015 18.788544 0.967493 1.977301 0.024363 -0.012844 533109.000000 1 0 0
6.277373 11.413414 7.387785 14.975006 1.067953 1.054870 0.011075 0.001516 -342441.000000 1 0 0
5.536573 16.922814 -5.714015 18.699873 1.254606 1.881327 0.025119 -0.005640 -1146530.000000 1 0 0
-4.131127 17.277814 -4.678215 18.370486 -1.336102 1.828292 0.009233 -0.004739 116716.000000 1 0 0
-0.283327 18.657214 -0.431115 18.664345 -1.555612 1.593897 0.011086 -0.004903 -398365.000000 1 0 0
6.614273 15.612114 -2.622015 17.156972 1.170059 1.724223 0.014911 -0.008252 297227.000000 1 0 0
-1.054127 20.622514 1.217485 20.685298 -1.519725 1.511905 0.015099 -0.009724 -34414.700000 1 0 0
-1.483627 18.776714 4.321685 19.324676 -1.491946 1.345253 0.012324 -0.008980 475857.000000 1 0 0
7.249573 13.819214 -4.327415 16.194243 1.087662 1.841303 0.014703 -0.003293 608747.000000 1 0 0
-1.019927 12.004514 7.709685 14.303421 -1.486038 1.001535 0.002946 0.005813 617506.000000 1 0 0
7.516673 10.803214 10.918585 17.100448 0.962907 0.878253 0.014093 0.000117 342687.000000 1 0 0
1.547873 16.061414 -7.094015 17.626400 1.474721 1.985005 0.011338 -0.009383 378326.000000 1 0 0
8.918673 7.234814 14.854885 18.776391 0.681532 0.658114 0.023958 -0.000429 394551.000000 1 0 0
11.354473 11.377014 -4.581515 16.713790 0.786390 1.848467 0.018371 -0.004182 -318155.000000 1 0 0
-3.465327 16.993514 4.572485 17.935875 -1.369634 1.313016 -0.001954 0.000953 -49779.800000 1 0 0
4.021373 15.253814 -6.704615 17.140658 1.313031 1.972680 0.019834 -0.012413 -1156910.000000 1 0 0
-4.500227 14.061514 9.596685 17.608935 -1.261058 0.994420 0.015491 -0.007224 -394917.000000 1 0 0
6.228073 17.801314 0.530285 18.866819 1.234241 1.542686 0.013011 -0.018428 -384115.000000 1 0 0
9.776673 10.668614 -2.112015 14.624065 0.828996 1.715724 0.008929 0.001209 -2189070.000000 1 0 0
6.890173 18.208214 -2.720715 19.657463 1.209039 1.709648 0.017160 -0.012688 35617.800000 1 0 0
3.476173 10.413014 10.387385 15.113319 1.248599 0.813031 0.003547 0.003207 420741.000000 1 0 0
-0.109027 18.404614 2.140985 18.529045 -1.564873 1.454990 0.014139 -0.016996 327.485000 1 0 0
-0.892027 17.162514 -7.297715 18.670947 -1.518868 1.972361 0.020057 -0.006868 273175.000000 1 0 0
10.164773 8.752514 13.012085 18.688057 0.710882 0.800597 0.027734 -0.003200 -181632.000000 1 0 0
3.635873 11.340414 5.523685 13.127668 1.260538 1.136506 0.001398 0.002069 758774.000000 1 0 0
13.094173 13.957014 8.019385 20.750088 0.817284 1.173990 0.050009 -0.017370 52268.100000 1 0 0
-0.659027 17.451014 6.737585 18.718100 -1.533050 1.202582 0.011036 -0.001869 -422080.000000 1 0 0
12.311573 13.702014 5.479985 19.218487 0.838798 1.281642 0.041374 -0.012855 -794503.000000 1 0 0
4.838973 14.627214 -4.338615 16.006081 1.251310 1.845291 0.010066 -0.007636 -856552.000000 1 0 0
3.720573 17.668014 4.659985 18.647167 1.363246 1.318216 0.015902 -0.010972 785540.000000 1 0 0
7.040573 11.714014 2.090685 13.826017 1.029614 1.419000 0.014330 -0.002276 1044990.000000 1 0 0
6.289873 8.684114 11.787285 15.934755 0.943949 0.738140 0.009565 -0.000218 689893.000000 1 0 0
-5.612927 14.945414 1.798685 16.065666 -1.211533 1.458603 -0.000249 0.009187 400635.000000 1 0 0
6.676773 13.730714 6.095385 16.439754 1.118197 1.190957 0.018505 -0.004308 -935554.000000 1 0 0
5.808473 15.877614 4.996285 17.629516 1.220091 1.283454 0.013711 -0.014524 821714.000000 1 0 0
1.163273 17.966914 4.356385 18.524073 1.506141 1.333398 0.020980 -0.010131 871039.000000 1 0 0
7.463573 18.048414 -6.899815 20.713706 1.178680 1.910390 0.026377 -0.005438 482940.000000 1 0 0
-2.487727 18.877614 -6.027115 19.971961 -1.439769 1.877354 0.023343 -0.000530 -470571.000000 1 0 0
13.645273 10.144114 -4.500415 17.588356 0.639274 1.829549 0.026198 -0.002344 -2370560.000000 1 0 0
-1.685027 18.085514 9.795785 20.636922 -1.477895 1.076204 0.021423 -0.010964 -242145.000000 1 0 0
3.432673 11.802114 -1.505815 12.383078 1.287753 1.692701 0.007558 -0.005885 551166.000000 1 0 0
4.422873 14.047014 -10.878115 18.308845 1.265761 2.206999 0.015926 -0.016893 -94351.500000 1 0 0
11.447673 13.294814 2.510685 17.723003 0.859915 1.428656 0.031111 -0.007128 479412.000000 1 0 0
15.859873 6.490714 -7.192715 18.584943 0.388458 1.968192 0.015016 -0.003015 -336592.000000 1 0 0
2.428073 16.133514 2.933585 16.576843 1.421419 1.392890 0.012859 -0.008845 -284321.000000 1 0 0
13.433673 10.566614 3.630985 17.472863 0.666502 1.361464 0.026762 0.003426 -383234.000000 1 0 0
-4.947427 19.599514 -5.637915 20.985806 -1.323536 1.842791 0.009342 -0.010680 350566.000000 1 0 0
5.476673 12.128214 0.131685 13.308075 1.146642 1.560901 0.009971 -0.005331 1089620.000000 1 0 0
4.519273 15.551114 9.703585 18.879103 1.287978 1.030972 0.015814 0.002264 39049.500000 1 0 0
7.805273 9.345414 13.715785 18.340714 0.874958 0.726005 0.016503 -0.008510 -1737810.000000 1 0 0
-5.208527 13.648914 7.118785 16.251114 -1.206245 1.117369 0.005058 -0.001698 -1774820.000000 1 0 0
-4.680527 17.090714 0.588885 17.729823 -1.303487 1.537576 0.001456 0.000686 -1936310.000000 1 0 0
-0.719627 16.453314 3.604085 16.858791 -1.527087 1.355353 0.009009 -0.005542 -1084630.000000 1 0 0
7.921973 16.904614 -4.615315 19.230829 1.132560 1.813158 0.018327 -0.004919 1132570.000000 1 0 0
3.177473 16.484614 -4.529215 17.388290 1.380378 1.834310 0.018020 -0.007383 -541848.000000 1 0 0
9.475173 14.422414 8.131485 19.076320 0.989533 1.130441 0.029312 -0.010903 332472.000000 1 0 0
12.709373 10.987814 9.047285 19.081761 0.712877 1.076818 0.044518 -0.013551 71901.900000 1 0 0
3.855873 12.407214 12.264285 17.866712 1.269482 0.814225 0.011081 -0.000210 638670.000000 1 0 0
-3.321327 19.231014 6.025385 20.424700 -1.399777 1.271336 0.011977 -0.007155 345930.000000 1 0 0
-2.787427 15.765914 10.262685 19.017268 -1.395804 1.000774 0.016307 -0.011511 494575.000000 1 0 0
2.005873 14.264514 7.690985 16.329456 1.431093 1.080385 0.009436 0.000313 -42312.900000 1 0 0
4.390573 17.312314 7.800785 19.489628 1.322423 1.159003 0.024953 -0.009815 114021.000000 1 0 0
-1.956727 13.520514 9.354085 16.556932 -1.427071 0.970406 0.009110 -0.003230 -1509270.000000 1 0 0
5.760373 17.699114 3.033485 18.858488 1.256147 1.409239 0.008302 -0.021166 524367.000000 1 0 0
7.443473 15.369014 -6.719315 18.351051 1.119774 1.945669 0.020336 -0.006050 231989.000000 1 0 0
10.956173 7.595914 9.507385 16.374554 0.606215 0.951307 0.018557 -0.002476 1707950.000000 1 0 0
9.074073 16.706114 -2.411815 19.163765 1.073221 1.696984 0.021859 -0.000716 1787650.000000 1 0 0
14.680973 11.160914 -6.671615 19.611410 0.650016 1.917916 0.059847 -0.016533 457685.000000 1 0 0
11.076473 6.227014 16.141785 20.543154 0.512149 0.666888 0.041513 -0.010980 539639.000000 1 0 0
8.413073 8.458514 10.273085 15.743651 0.788091 0.859888 0.009222 -0.000369 828164.000000 1 0 0
16.442973 9.486714 4.517185 19.513433 0.523296 1.337186 0.046960 -0.002524 52731.600000 1 0 0
-3.424927 14.264414 4.734585 15.414925 -1.335154 1.258607 -0.006240 0.003349 -611923.000000 1 0 0
4.655173 14.855614 12.635485 20.050321 1.267127 0.889000 0.012501 0.004699 -173070.000000 1 0 0
16.236173 10.658714 -4.766615 19.998553 0.580917 1.811461 0.049917 -0.008273 757666.000000 1 0 0
14.825973 13.975714 6.091685 21.265904 0.755886 1.280274 0.063929 -0.013467 -94744.900000 1 0 0
6.031973 9.422014 9.257985 14.521341 1.001341 0.879491 0.002736 0.000876 1249870.000000 1 0 0
10.365673 12.125514 8.757485 18.198044 0.863485 1.068736 0.030670 -0.008918 960520.000000 1 0 0
7.967373 11.474014 -0.352615 13.973417 0.963849 1.596034 0.011885 -0.003987 205933.000000 1 0 0
7.638473 13.511014 -8.601215 17.744708 1.056243 2.076839 0.018254 -0.007045 -1127390.000000 1 0 0
2.663273 15.208814 -2.373215 15.621562 1.397440 1.723306 0.011705 -0.008906 739811.000000 1 0 0
12.285073 13.363514 -7.549115 19.659493 0.827420 1.964914 0.039098 -0.025336 -440851.000000 1 0 0
-8.335427 14.716414 9.795085 19.544715 -1.055447 1.045854 0.032919 -0.021137 399731.000000 1 0 0
11.468873 9.569114 2.224085 15.101309 0.695341 1.422981 0.016517 0.004440 -1966110.000000 1 0 0
12.076573 8.561414 4.487785 15.468731 0.616692 1.276444 0.016752 -0.000073 139413.000000 1 0 0
14.017573 8.008914 6.078085 17.250454 0.519085 1.210722 0.018399 -0.005477 -2898900.000000 1 0 0
16.183773 7.411914 7.299985 19.239043 0.429474 1.181610 0.055889 -0.009010 583019.000000 1 0 0
13.611673 8.277114 2.333185 16.100684 0.546346 1.425372 0.011227 0.005367 -2001780.000000 1 0 0
-4.350427 17.530214 -7.229815 19.455201 -1.327543 1.951543 0.012592 -0.012264 141296.000000 1 0 0
3.218473 19.545314 -3.905115 20.189794 1.407594 1.765443 0.030858 -0.017372 238727.000000 1 0 0
-0.201627 14.835614 6.305685 16.121345 -1.557206 1.168928 0.009239 0.002122 633108.000000 1 0 0
6.685173 16.267714 8.372285 19.478840 1.180888 1.126509 0.034279 -0.002639 -860430.000000 1 0 0
12.912973 15.251014 -1.932215 20.076647 0.868224 1.667187 0.032389 -0.010570 11334.900000 1 0 0
12.594973 15.890514 4.153885 20.697742 0.900578 1.368731 0.038763 -0.011669 -27404.600000 1 0 0
2.819373 18.060814 1.286485 18.324762 1.415942 1.500534 0.022722 -0.017982 -337636.000000 1 0 0
10.370873 14.700914 -1.354815 18.041824 0.956417 1.645960 0.016279 0.000958 -881475.000000 1 0 0
-6.496827 15.716814 -0.593915 17.017043 -1.178819 1.605705 0.001340 0.001963 -419658.000000 1 0 0
-3.960227 15.796214 -2.521315 16.479102 -1.325152 1.724400 0.003900 -0.002020 21478.200000 1 0 0
-6.980227 17.083714 1.639385 18.527397 -1.182907 1.482196 0.006406 0.002895 -287254.000000 1 0 0
0.027373 19.482814 -6.596915 20.569397 1.569391 1.897281 0.027573 -0.007139 110576.000000 1 0 0
4.735773 14.845914 7.141585 17.141498 1.262005 1.141066 0.019255 -0.003661 -478546.000000 1 0 0
8.577873 12.344814 6.885385 16.534294 0.963531 1.141281 0.022928 -0.007982 -305199.000000 1 0 0
-7.647027 17.475314 -5.589915 19.877393 -1.158310 1.855861 0.037377 -0.024760 454883.000000 1 0 0
-7.957727 17.825114 -1.393215 19.570415 -1.150912 1.642046 0.026955 -0.006267 431800.000000 1 0 0
-13.860627 -8.995386 9.095385 18.861601 0.575664 1.067613 0.030604 -0.011023 948763.000000 1 0 0
-12.734027 -12.977186 7.515085 19.673314 0.794855 1.178844 0.033540 -0.000300 -108048.000000 1 0 0
-3.744627 -15.231486 12.506185 20.060535 1.329729 0.897684 0.005706 -0.009567 309922.000000 1 0 0
-2.009027 -14.259786 15.129685 20.887438 1.430830 0.760714 0.022423 -0.000336 -697003.000000 1 0 0
-7.049727 -13.816186 12.707685 20.051706 1.098981 0.884410 0.021677 -0.010258 216005.000000 1 0 0
-9.984027 -11.576686 8.894985 17.686752 0.859133 1.043825 0.017844 -0.002648 385730.000000 1 0 0
-10.802027 -10.765086 11.164585 18.900233 0.783685 0.938856 0.029850 -0.010092 441359.000000 1 0 0
-6.009727 -12.328786 10.693585 17.391623 1.117235 0.908575 0.011613 -0.005483 918585.000000 1 0 0
-12.568027 -10.336786 7.233485 17.808081 0.688291 1.152514 0.013692 -0.000623 -740912.000000 1 0 0
-7.636027 -11.285986 12.429785 18.444022 0.975953 0.831295 0.014420 -0.008234 483799.000000 1 0 0
-14.791027 -11.581086 7.108885 20.085624 0.664277 1.209028 0.029627 -0.006132 -1353990.000000 1 0 0
-11.084827 -9.143186 8.968885 16.938481 0.689704 1.012788 0.010509 -0.006918 1056540.000000 1 0 0
-5.123627 -11.932086 13.053485 18.412488 1.165206 0.782792 0.012707 -0.012566 11660.500000 1 0 0
3.984873 -12.543486 14.515985 19.594185 -1.263195 0.736489 0.008439 -0.000653 -1018180.000000 1 0 0
6.510473 -12.681886 14.210585 20.128518 -1.096512 0.786973 0.018998 0.000567 -507923.000000 1 0 0
6.543373 -8.618786 16.239385 19.514529 -0.921434 0.587789 0.011837 0.000782 -582470.000000 1 0 0
0.542873 -1.690686 14.405885 14.514911 -1.260099 0.122644 0.002493 -0.001845 -1136900.000000 1 0 0
-0.162927 -6.428986 15.461885 16.745993 1.545459 0.394163 0.000084 -0.003518 -300225.000000 1 0 0
-1.606927 -4.676986 18.275285 18.932576 1.239851 0.264274 0.013711 -0.017610 -1358860.000000 1 0 0
-5.183027 12.819514 12.954185 18.947681 -1.186582 0.818000 0.016405 -0.007720 -902231.000000 1 0 0
-4.249627 8.855314 11.637485 15.228492 -1.123361 0.701009 -0.001054 0.002946 -98534.400000 1 0 0
-0.774727 -3.963986 15.022985 15.556461 1.377788 0.262643 0.002890 -0.002699 -63161.600000 1 0 0
-4.641927 9.216214 14.263485 17.604917 -1.104217 0.626305 0.007836 -0.007883 359474.000000 1 0 0
-13.439427 -2.586086 16.797185 21.666829 0.190102 0.683687 0.015872 -0.005002 -689689.000000 1 0 0
-0.426127 1.000514 17.185085 17.219459 -1.168157 0.063196 0.012910 -0.006002 -459976.000000 1 0 0
-3.344127 -7.293586 15.421585 17.384041 1.140894 0.479747 0.012273 -0.007068 232543.000000 1 0 0
-7.589327 5.433914 12.654585 15.724625 -0.621380 0.635521 -0.005659 0.002158 -1325200.000000 1 0 0
-9.956527 9.997314 13.426685 19.477027 -0.787442 0.810191 0.013416 -0.014419 1054360.000000 1 0 0
-5.604727 2.264614 11.163885 12.695423 -0.383997 0.496274 -0.001389 0.004181 -176192.000000 1 0 0
-7.203127 -7.382786 16.808285 19.720776 0.797715 0.550403 0.018371 -0.018770 -239506.000000 1 0 0
-4.926527 3.187414 18.658085 19.558998 -0.574256 0.304694 0.009334 -0.006023 -248199.000000 1 0 0
0.875173 -8.411086 16.600185 18.630041 -1.467119 0.471157 0.002467 0.001266 653350.000000 1 0 0
-15.101027 -3.751586 13.712485 20.740001 0.243503 0.848431 0.025109 -0.015644 168638.000000 1 0 0
-14.378727 2.208314 12.939185 19.469128 -0.152391 0.843838 0.015316 -0.006798 1288900.000000 1 0 0
-5.598927 0.926914 16.099285 17.070270 -0.164064 0.338908 0.007566 -0.000396 311207.000000 1 0 0
4.499973 5.835214 15.371485 17.046467 0.913880 0.447018 0.011761 0.001425 -116178.000000 1 0 0
-1.157027 -12.145486 13.920385 18.510231 1.475819 0.719649 -0.001032 -0.000787 96736.600000 1 0 0
-5.735827 -4.108386 16.647285 18.080670 0.621560 0.400868 0.015878 -0.011078 -173410.000000 1 0 0
-12.859927 -1.644686 9.871985 16.295361 0.127202 0.920006 0.005320 -0.003279 -882170.000000 1 0 0
-14.353227 10.565114 10.184485 20.527067 -0.634532 1.051639 -0.012007 -0.002531 230560.000000 1 0 0
-3.603527 -3.276686 17.797985 18.452380 0.737929 0.267117 0.014528 -0.008703 -2227330.000000 1 0 0
-8.050927 9.404414 11.804585 17.105808 -0.862783 0.809180 -0.001133 -0.006118 279638.000000 1 0 0
-4.608627 10.600014 16.468385 20.119827 -1.160675 0.611975 0.019351 -0.006644 270909.000000 1 0 0
-12.557927 12.607214 8.361685 19.661158 -0.787357 1.131515 0.003761 -0.012994 -617331.000000 1 0 0
-12.581927 3.129514 10.431885 16.641003 -0.243784 0.893256 0.002819 0.003662 858809.000000 1 0 0
-10.133327 -3.529186 13.679185 17.385614 0.335137 0.665172 0.012742 -0.003901 -1900150.000000 1 0 0
-4.336327 -6.510586 17.743585 19.391397 0.983226 0.415230 0.024714 -0.013868 -530593.000000 1 0 0
0.802673 -3.760286 17.744885 18.156679 -1.360492 0.213384 0.008843 -0.017792 -579123.000000 1 0 0
-6.032627 1.836514 13.639085 15.026311 -0.295516 0.433073 -0.003764 0.003209 -479912.000000 1 0 0
-10.545327 8.734614 10.250885 17.104913 -0.691756 0.928176 0.001421 -0.008654 -45889.200000 1 0 0
4.590573 2.431814 17.378485 18.138325 0.487156 0.290473 0.021407 -0.009887 -469225.000000 1 0 0
0.415773 -5.295986 13.130085 14.164020 -1.492450 0.384456 -0.002707 0.001526 -458230.000000 1 0 0
-3.893527 5.730814 20.797685 21.921348 -0.974029 0.321567 0.019352 -0.016612 -558950.000000 1 0 0
-11.013327 10.778214 8.963785 17.827302 -0.774609 1.043947 0.006104 -0.014198 -455152.000000 1 0 0
0.589573 4.239614 13.078685 13.761320 1.432620 0.316294 0.010697 -0.002661 -3431980.000000 1 0 0
-3.329727 7.157814 13.362985 15.520656 -1.135384 0.533602 -0.000965 0.000013 -835092.000000 1 0 0
0.754573 8.922314 14.134785 16.732281 1.486426 0.564677 0.000718 -0.002317 497381.000000 1 0 0
-4.178327 -6.656186 12.974785 15.169320 1.010232 0.544608 0.008336 -0.003353 55242.800000 1 0 0
-5.186727 8.023814 16.505985 19.071740 -0.996944 0.524712 0.011270 -0.006443 -92318.800000 1 0 0
1.502773 -10.808686 15.933385 19.312141 -1.432648 0.600515 0.002444 0.004570 143791.000000 1 0 0
-15.152527 -1.182486 14.263785 20.843534 0.077881 0.817117 0.016355 -0.007788 198173.000000 1 0 0
-13.733027 -5.295986 8.250685 16.873568 0.368065 1.059887 0.023774 -0.011348 -712038.000000 1 0 0
-14.125627 -2.029586 12.079185 18.696504 0.142704 0.868377 0.014633 -0.008482 558290.000000 1 0 0
9.358173 1.350814 17.187285 19.616393 0.143356 0.502940 0.034291 -0.002194 -152300.000000 1 0 0
4.965673 -6.674586 16.896585 18.833550 -0.931167 0.457514 0.017856 -0.007689 -271273.000000 1 0 0
-6.035727 -2.772686 11.100985 12.936369 0.430626 0.539195 0.004687 -0.001970 633836.000000 1 0 0
0.454473 -6.286186 17.937685 19.012712 -1.498625 0.337886 0.010769 -0.013694 -109343.000000 1 0 0
-8.601927 11.925114 12.264285 19.147171 -0.945899 0.875612 0.008808 -0.012236 410306.000000 1 0 0
-6.511327 -5.829986 14.795085 17.183732 0.730246 0.533576 0.012095 -0.008385 -1183480.000000 1 0 0
-4.402827 -8.893286 17.117985 19.786380 1.111098 0.525367 0.027841 -0.014290 -47387.100000 1 0 0
2.405573 -6.251286 16.199285 17.529466 -1.203451 0.392077 0.007424 -0.005136 -562594.000000 1 0 0
2.037673 5.359914 16.057485 17.050619 1.207502 0.342989 0.009332 -0.008238 -2060260.000000 1 0 0
0.873473 -9.077886 14.111985 16.802354 -1.474872 0.573732 -0.003438 0.005617 -481970.000000 1 0 0
-10.061227 -2.911886 11.186385 15.324574 0.281719 0.752527 0.003439 -0.004083 529292.000000 1 0 0
-1.359327 10.128014 12.380185 16.052832 -1.437379 0.690049 0.000287 -0.000699 -135855.000000 1 0 0
-12.468927 -3.893186 11.238185 17.231594 0.302640 0.860333 0.017811 -0.006038 -1311500.000000 1 0 0
-1.705227 6.590814 19.983985 21.111757 -1.317620 0.328334 0.010937 -0.022300 -1014050.000000 1 0 0
0.420273 -13.611186 15.575885 20.689350 -1.539929 0.718422 0.002084 -0.005218 -441863.000000 1 0 0
4.006873 -8.755586 15.380485 18.145926 -1.141610 0.559351 0.010175 0.000375 81685.500000 1 0 0
4.209273 -4.432286 16.179985 17.296099 -0.811199 0.361209 0.013684 -0.004419 -731152.000000 1 0 0
8.142773 1.705914 14.870785 17.039810 0.206514 0.510074 0.015585 0.000706 101833.000000 1 0 0
-6.371027 -0.141886 11.842185 13.447954 0.022267 0.493682 0.001743 0.001669 367995.000000 1 0 0
-3.490327 -11.068286 18.370385 21.729252 1.265322 0.563442 0.040299 -0.013986 988097.000000 1 0 0
3.138573 -1.403386 13.655685 14.081827 -0.420474 0.246640 0.005307 -0.001638 780152.000000 1 0 0
-2.717227 8.828714 15.938785 18.422117 -1.272225 0.525251 -0.000112 -0.002160 -214325.000000 1 0 0
-3.290827 3.973114 14.812385 15.685086 -0.879051 0.335150 0.002089 -0.001584 -1080340.000000 1 0 0
-4.495927 -9.139586 19.802285 22.268271 1.113635 0.475071 0.039552 -0.018726 24193.600000 1 0 0
-5.828027 -3.230286 19.012485 20.146345 0.506114 0.337097 0.024745 -0.013477 -1355510.000000 1 0 0
-6.667927 -8.643686 11.166285 15.616033 0.913726 0.774097 0.011463 -0.006048 592084.000000 1 0 0
-11.671127 2.317114 12.656685 17.371698 -0.195985 0.754549 0.009836 -0.004541 -236845.000000 1 0 0
-11.725727 -7.666686 11.591085 18.183069 0.579066 0.879592 0.020210 -0.004977 -228950.000000 1 0 0
-10.940927 -7.358686 15.606685 20.430926 0.592088 0.701499 0.021660 -0.020369 -475614.000000 1 0 0
0.100173 5.884414 17.678185 18.632085 1.553775 0.321371 0.009787 -0.012425 -9266.560000 1 0 0
-2.285427 -0.194086 13.175385 13.373542 0.084720 0.172359 0.001162 0.002960 -166033.000000 1 0 0
-6.103727 -10.530986 18.246085 21.933462 1.045514 0.588303 0.041815 -0.016156 -50761.900000 1 0 0
0.171473 2.856714 18.963185 19.177920 1.510844 0.149786 0.024029 -0.019227 -611723.000000 1 0 0
-0.807427 10.970314 14.854385 18.483844 -1.497328 0.637407 0.000395 -0.000803 761936.000000 1 0 0
-12.843827 -2.495286 14.229185 19.330288 0.191889 0.743494 0.017175 -0.008387 -1071030.000000 1 0 0
-13.721027 8.486314 11.734185 19.949316 -0.553904 0.941965 0.005122 -0.007459 339341.000000 1 0 0
-18.036427 -0.733686 6.807885 19.292441 0.040656 1.210151 0.037096 -0.013498 -123556.000000 1 0 0
-2.134927 -7.847386 17.702785 19.481478 1.305169 0.430641 0.015545 -0.010928 -2257670.000000 1 0 0
5.764473 2.600014 14.660385 15.966093 0.423719 0.407234 0.008733 -0.003001 -3102930.000000 1 0 0
-14.122827 -6.784786 10.929385 19.103377 0.447855 0.961710 0.025977 -0.013074 767151.000000 1 0 0
3.053173 7.830014 16.346985 18.380830 1.198999 0.474875 0.008494 -0.010068 -215212.000000 1 0 0
0.970773 2.235814 14.687185 14.888071 1.161166 0.164460 0.009551 -0.007028 -1997120.000000 1 0 0
-14.420427 0.529414 9.756485 17.418898 -0.036696 0.976279 0.013040 -0.002337 -3441370.000000 1 0 0
-9.504627 -5.227386 15.552985 18.962037 0.502830 0.609006 0.014686 -0.005935 -271924.000000 1 0 0
-2.578727 -0.107186 18.162185 18.344653 0.041542 0.141161 0.012276 -0.004729 327218.000000 1 0 0
6.897573 3.620414 17.793585 19.424098 0.483355 0.412660 0.033712 -0.002048 65453.900000 1 0 0
-4.253827 -0.894186 14.777985 15.404008 0.207191 0.286072 0.009747 0.001110 -1147920.000000 1 0 0
4.562473 -9.014686 17.835385 20.498334 -1.102268 0.515412 0.019292 -0.003225 -205165.000000 1 0 0
1.793273 6.805314 13.483585 15.209707 1.313143 0.481045 0.005315 -0.002526 -1047570.000000 1 0 0
-3.972827 -0.946086 20.296285 20.703082 0.233785 0.198564 0.029517 -0.008250 424425.000000 1 0 0
-10.563527 1.414914 16.273185 19.452677 -0.133151 0.579836 0.019278 -0.003564 -84413.300000 1 0 0
-3.861427 7.018814 18.455085 20.118761 -1.067835 0.409532 0.002776 -0.008397 -34610.400000 1 0 0
-12.686827 1.098614 14.732485 19.473280 -0.086379 0.712777 0.017641 -0.007828 -77483.800000 1 0 0
-16.182627 -4.567886 8.327885 18.764239 0.275113 1.110943 0.027340 -0.014127 -746836.000000 1 0 0
-2.421827 0.811414 15.646485 15.853584 -0.323288 0.161813 0.008389 -0.001723 363057.000000 1 0 0
-13.849727 -8.939786 12.539185 20.711491 0.573194 0.920501 0.032487 -0.016209 429669.000000 1 0 0
5.976573 -3.195886 14.556785 16.057182 -0.491048 0.435737 0.010455 -0.005760 719297.000000 1 0 0
-15.787227 0.247914 7.606285 17.525797 -0.015702 1.121863 0.020398 -0.008828 78455.300000 1 0 0
-14.182827 5.980214 12.411185 19.772533 -0.399031 0.892203 0.020969 -0.007658 219548.000000 1 0 0
0.256173 9.362114 16.714485 19.159562 1.543440 0.510739 -0.003439 -0.012851 -116531.000000 1 0 0
-10.454727 -5.553886 10.859585 16.064792 0.488320 0.828494 0.015938 -0.007899 192213.000000 1 0 0
-3.288727 -11.250586 15.165285 19.167088 1.286404 0.658003 0.016684 -0.001073 -596223.000000 1 0 0
-3.494627 2.669414 12.653985 13.396325 -0.652314 0.334464 -0.000101 0.002839 -1397220.000000 1 0 0
-12.469727 -7.706886 7.323285 16.386601 0.553584 1.107492 0.015967 -0.006113 57038.400000 1 0 0
-8.200427 -2.034086 13.138085 15.620300 0.243139 0.571500 0.004672 -0.003982 -970158.000000 1 0 0
-9.838127 6.500314 9.552385 15.175338 -0.583879 0.889928 -0.001641 -0.001957 -588466.000000 1 0 0
-17.989127 -3.487886 6.511685 19.446750 0.191512 1.229354 0.034531 -0.016019 283187.000000 1 0 0
-1.552127 -0.011986 20.618285 20.676627 0.007722 0.075140 0.020037 -0.002283 -1054190.000000 1 0 0
-2.796227 2.636614 20.215685 20.577768 -0.756027 0.187871 0.017604 -0.010960 -526129.000000 1 0 0
-3.871927 11.313914 11.230885 16.405159 -1.241063 0.816749 0.007226 -0.006234 -1169610.000000 1 0 0
-4.082427 -4.759586 14.741385 16.019622 0.861833 0.402185 0.011804 -0.008271 126791.000000 1 0 0
-0.221127 -14.492286 13.210885 19.611291 1.555539 0.831678 0.008788 -0.007198 388579.000000 1 0 0
-12.185827 0.415814 8.343385 14.774280 -0.034110 0.970698 0.002276 0.000772 -117813.000000 1 0 0
-7.786427 2.113514 15.481085 17.457359 -0.265049 0.480434 0.003478 0.002241 -1958430.000000 1 0 0
3.340273 -2.210086 18.473385 18.902589 -0.584520 0.213507 0.023503 -0.009684 13980.600000 1 0 0
-2.177727 4.910514 12.617685 13.713556 -1.153376 0.402490 -0.001639 0.001356 -679845.000000 1 0 0
-10.474927 -6.271086 13.351985 18.092156 0.539445 0.740697 0.012375 -0.008164 -474532.000000 1 0 0
2.253273 -3.699186 14.270585 14.913444 -1.023693 0.294684 0.000061 -0.000653 -433989.000000 1 0 0
6.738673 1.024914 17.113885 18.421325 0.150938 0.379025 0.017078 -0.003817 -35339.100000 1 0 0
-1.947127 -5.865086 13.789385 15.110846 1.250259 0.421323 0.000698 -0.001849 -3124700.000000 1 0 0
-12.797727 3.708314 14.488185 19.683519 -0.282039 0.743570 0.001395 0.002325 181274.000000 1 0 0
-13.354027 -6.479186 13.347385 19.961527 0.451726 0.838397 0.021161 -0.016966 -621307.000000 1 0 0
-9.599927 6.811914 12.039485 16.837754 -0.617126 0.774131 0.002131 0.000025 -120472.000000 1 0 0
-1.145327 -2.451286 12.848785 13.130569 1.133702 0.207545 -0.001410 0.003280 224017.000000 1 0 0
-0.124727 6.760614 15.312685 16.739169 -1.552349 0.415829 0.004483 -0.007382 526287.000000 1 0 0
-16.553527 -0.920486 9.886185 19.302932 0.055549 1.033099 0.032737 -0.004701 130706.000000 1 0 0
-1.328527 2.769214 13.820385 14.157562 -1.123481 0.218683 0.002959 -0.001047 -3964390.000000 1 0 0
-11.228827 -3.400186 16.099285 19.920713 0.294032 0.629761 0.020737 -0.010210 -63572.400000 1 0 0
-5.382727 -1.499586 17.134585 18.022667 0.271703 0.315233 0.022239 -0.000885 244343.000000 1 0 0
-11.974227 6.750814 11.074185 17.652002 -0.513360 0.892636 0.007369 0.000945 -1110420.000000 1 0 0
-2.833827 4.681014 18.657785 19.443647 -1.026425 0.285281 0.008304 -0.012735 -262176.000000 1 0 0
5.061973 -1.934586 16.448285 17.317975 -0.365051 0.318261 0.017115 -0.007055 732581.000000 1 0 0
-8.150627 -4.296686 12.116585 15.221888 0.485139 0.650143 0.010177 -0.002881 -1205590.000000 1 0 0
-11.790327 -0.919486 16.042585 19.930424 0.077829 0.635240 0.032927 -0.010240 100455.000000 1 0 0
2.034573 2.093014 17.389185 17.632469 0.799556 0.166309 0.014237 -0.010783 -672935.000000 1 0 0
-9.045827 -7.543586 11.721185 16.616824 0.695090 0.787836 0.013497 -0.003680 -80308.300000 1 0 0
-7.328027 6.767814 14.938685 17.962951 -0.745676 0.588744 0.003399 -0.000430 -134354.000000 1 0 0
-5.711527 3.482114 15.729285 17.092603 -0.547495 0.402105 -0.002045 -0.001501 -266413.000000 1 0 0
-9.510427 4.154414 11.569785 15.542435 -0.411846 0.731161 -0.001699 0.002836 -375382.000000 1 0 0
-10.381327 -0.026386 14.086085 17.498298 0.002542 0.635125 0.010953 -0.004343 225589.000000 1 0 0
8.222273 -0.708086 15.908085 17.921337 -0.085906 0.478554 0.022766 -0.009867 224436.000000 1 0 0
-8.534127 -7.451886 14.555085 18.444848 0.717802 0.661431 0.019253 -0.013093 -2349140.000000 1 0 0
-0.193127 4.191414 15.681285 16.232928 -1.524752 0.261447 0.008670 -0.008728 51235.900000 1 0 0
-8.089327 3.132314 9.715785 13.024787 -0.369437 0.728843 -0.007049 0.005826 -421960.000000 1 0 0
-2.344827 -9.853486 13.219285 16.653495 1.337172 0.653790 0.000112 0.002615 1019910.000000 1 0 0
-6.147827 10.433714 10.620285 16.107409 -1.038336 0.850854 0.008511 -0.006233 -1202030.000000 1 0 0
-8.596227 -2.825686 15.620685 18.052297 0.317586 0.525044 0.014183 -0.009532 785822.000000 1 0 0
3.929073 5.809014 17.836285 19.165472 0.976103 0.374620 0.016072 -0.008638 451614.000000 1 0 0
-6.828127 -1.039886 15.115585 16.618832 0.151133 0.428607 0.006184 -0.000737 -995120.000000 1 0 0
-0.958627 -10.073986 15.502485 18.513001 1.475923 0.578317 -0.007677 0.002998 -771328.000000 1 0 0
-4.385327 5.622514 16.370285 17.855811 -0.908396 0.410793 -0.000360 -0.001177 132731.000000 1 0 0
3.590573 0.037114 17.392585 17.759381 0.010336 0.203593 0.017999 -0.009065 37355.500000 1 0 0
1.089073 0.503314 19.292485 19.329754 0.432911 0.062108 0.019077 -0.006587 138765.000000 1 0 0
-6.324027 6.133914 18.020085 20.058457 -0.770139 0.454733 0.010642 -0.000494 -831060.000000 1 0 0
-12.217027 0.523914 10.902985 16.383080 -0.042858 0.842629 0.011794 -0.003865 -474877.000000 1 0 0
-5.375027 5.201914 13.912085 15.795472 -0.769033 0.493323 -0.005409 0.002556 -1060520.000000 1 0 0
-8.752227 -9.510386 9.956285 16.314917 0.826889 0.914412 0.013916 -0.002390 221955.000000 1 0 0
6.670073 -3.765386 16.991085 18.637730 -0.513922 0.423515 0.012750 -0.009538 -339775.000000 1 0 0
-16.633527 1.665114 9.664185 19.309150 -0.099773 1.046623 0.023957 -0.006459 540098.000000 1 0 0
-4.220427 -9.592586 11.301985 15.413130 1.156317 0.747678 0.003427 -0.003569 -2232430.000000 1 0 0
-11.146927 -3.955686 9.060285 14.899335 0.341005 0.917131 0.009450 -0.004588 -448902.000000 1 0 0
3.396373 -5.299686 18.496285 19.538029 -1.000871 0.328023 0.007835 -0.012465 -533868.000000 1 0 0
2.382173 -1.823986 16.117885 16.394752 -0.653462 0.184040 0.011563 -0.005354 133353.000000 1 0 0
-3.333627 -4.349386 20.219185 20.948644 0.916844 0.264671 0.025664 -0.013965 -500527.000000 1 0 0
-6.268527 -3.394986 14.316685 15.993368 0.496365 0.461998 0.008504 -0.001623 911458.000000 1 0 0
-9.764027 5.011714 13.967085 17.763247 -0.474218 0.666013 0.012257 -0.001069 -113256.000000 1 0 0
-5.975127 -5.260386 11.699485 14.151034 0.721869 0.597476 0.004736 -0.001562 -1580090.000000 1 0 0
6.082873 1.804114 19.467085 20.474950 0.288325 0.315067 0.036618 -0.013743 207498.000000 1 0 0
-2.867027 11.966314 13.569885 18.318141 -1.335638 0.736552 0.010459 -0.008282 200896.000000 1 0 0
3.373873 1.494614 15.236685 15.677164 0.417015 0.237611 0.010393 -0.003093 -1614310.000000 1 0 0
-5.900027 7.368814 12.836985 15.934175 -0.895644 0.634065 -0.006887 -0.004050 85887.800000 1 0 0
-1.949927 -1.705786 15.265585 15.483863 0.718714 0.168109 0.006229 -0.000032 356444.000000 1 0 0
-7.381527 10.535414 14.080985 19.072389 -0.959641 0.740262 0.024806 -0.016676 -124317.000000 1 0 0
-10.146727 2.005214 10.515985 14.750013 -0.195108 0.777104 -0.002431 0.004907 -1277990.000000 1 0 0
-13.885427 5.099214 9.173985 17.406007 -0.351946 1.015661 0.009099 0.001597 1040220.000000 1 0 0
0.357473 -4.977986 20.028485 20.640938 -1.499109 0.244212 0.017600 -0.020714 -199071.000000 1 0 0
-14.401927 -2.936786 7.405085 16.458296 0.201158 1.104109 0.015559 -0.010573 1352010.000000 1 0 0
-2.640827 2.506714 17.576285 17.949467 -0.759350 0.204270 0.005675 -0.006813 -104521.000000 1 0 0
-6.248027 -8.503786 14.664585 18.066606 0.937137 0.623747 0.013344 -0.005036 -428550.000000 1 0 0
-8.055127 1.916014 12.000885 14.580035 -0.233523 0.603941 -0.005657 0.004825 24246.000000 1 0 0
-14.685727 -3.509286 10.017085 18.119814 0.234560 0.985046 0.021633 -0.010498 752653.000000 1 0 0
-0.756027 7.129114 12.830485 14.697523 -1.465143 0.509540 0.004755 -0.002212 412068.000000 1 0 0
-1.830527 -2.279086 19.342785 19.562423 0.894117 0.149991 0.020978 -0.007932 317966.000000 1 0 0
-12.902727 10.163214 7.259085 17.957327 -0.667183 1.154648 -0.001854 -0.016280 -67540.800000 1 0 0
-19.546227 2.109914 6.679485 20.763483 -0.107528 1.243278 0.045395 -0.013401 1515050.000000 1 0 0
-16.306227 8.221414 6.735285 19.464037 -0.466993 1.217452 0.016163 -0.001694 464446.000000 1 0 0
-12.343127 7.419414 13.648085 19.841137 -0.541226 0.812249 0.012750 -0.005123 112507.000000 1 0 0
-16.008227 8.590514 10.471285 20.969217 -0.492521 1.047931 0.012182 0.002829 -680513.000000 1 0 0
1.806673 10.878914 15.328885 18.883579 1.406227 0.623641 -0.001734 -0.006294 -314059.000000 1 0 0
2.085173 14.183714 12.761485 19.193259 1.424830 0.843444 0.004136 -0.007391 -848504.000000 1 0 0
-3.011527 13.714114 11.761485 18.316079 -1.354634 0.873510 -0.002044 -0.008325 -134187.000000 1 0 0
8.934273 4.698514 15.826085 18.771314 0.484151 0.567775 0.022838 0.000870 69054.800000 1 0 0
-0.402327 12.514914 12.868285 17.954879 -1.538660 0.771736 0.002316 -0.005702 -734445.000000 1 0 0
3.731273 13.402314 14.634685 20.192039 1.299267 0.760089 0.008129 -0.002820 61982.400000 1 0 0
-2.794427 -4.111086 -13.738615 14.610250 0.973805 2.794427 0.003353 -0.003339 -164503.000000 1 0 0
5.539973 -11.488686 16.278485 20.680191 -1.121481 0.664616 0.012616 -0.003137 58067.900000 1 0 0
7.668173 -13.549686 7.320785 17.204324 -1.055805 1.131260 0.004527 -0.009760 -354929.000000 1 0 0
-0.166827 15.554814 1.339085 15.613239 -1.560072 1.484925 0.007488 -0.003840 -2335150.000000 1 0 0
-13.820027 8.158114 9.134585 18.465877 -0.533265 1.053337 -0.001563 0.001306 599214.000000 1 0 0
-15.442427 -9.726686 4.835385 18.880093 0.562092 1.311800 0.018377 -0.003088 -844701.000000 1 0 0
9.372573 -11.256986 10.900585 18.258905 -0.876491 0.931039 0.016710 -0.008872 -111349.000000 1 0 0
-5.875227 -10.378286 -16.733215 20.548177 1.055671 2.522388 0.032429 -0.008923 -82864.100000 1 0 0
-1.861227 -12.711586 -15.083715 19.813305 1.425410 2.436100 0.008239 0.001444 -92961.100000 1 0 0
5.538073 -15.654186 -12.466615 20.763918 -1.230762 2.214795 0.011807 -0.007420 292422.000000 1 0 0
2.834173 -12.280786 -16.463115 20.733654 -1.343986 2.488204 0.013851 0.001721 85994.400000 1 0 0
0.807973 -14.068386 -14.564115 20.265383 -1.513428 2.372683 0.017539 0.009920 101208.000000 1 0 0
-6.258727 -6.014186 -14.382115 16.798432 0.765476 2.598584 0.006336 -0.008229 -30031.300000 1 0 0
-5.909427 -8.196086 -17.178015 19.929409 0.946111 2.609886 0.004115 -0.008297 -124135.000000 1 0 0
-2.296727 -16.453186 -13.116915 21.166855 1.432101 2.239146 0.013686 -0.005463 379840.000000 1 0 0
16.536173 -8.134886 -9.029115 20.521850 -0.457183 2.026368 0.059961 -0.005933 38715.200000 1 0 0
19.062073 -2.933186 -3.660315 19.630693 -0.152678 1.758353 0.047881 -0.017162 178285.000000 1 0 0
15.802873 -11.365686 -8.748815 21.341307 -0.623507 1.993193 0.043093 -0.015474 182589.000000 1 0 0
18.262873 -2.774286 -6.546515 19.598114 -0.150756 1.911381 0.125082 -0.008456 -212455.000000 1 0 0
8.866873 -9.767386 -15.787315 20.573346 -0.833686 2.445522 0.043223 -0.001944 157215.000000 1 0 0
-4.620727 9.758114 -15.945315 19.256816 -1.128551 2.546390 0.006719 -0.006332 395437.000000 1 0 0
2.586573 -9.792986 -18.508415 21.098682 -1.312568 2.640860 0.021002 0.002001 335537.000000 1 0 0
11.251173 7.946914 -14.428015 19.947680 0.614954 2.379355 0.054249 -0.061341 407214.000000 1 0 0
18.743373 -5.803886 -8.450315 21.363683 -0.300286 1.977458 0.066102 -0.015791 192234.000000 1 0 0
12.424573 5.167314 -13.913615 19.356132 0.394133 2.372903 0.023047 -0.013533 108477.000000 1 0 0
15.757073 6.417214 -10.470515 19.977429 0.386749 2.122475 0.023887 -0.032447 169577.000000 1 0 0
3.092473 -0.156886 -19.247915 19.495390 -0.050688 2.982087 0.025247 0.002467 187768.000000 1 0 0
10.212973 -1.451586 -15.180315 18.353580 -0.141186 2.544731 0.026673 0.007500 218780.000000 1 0 0
12.322573 -5.891386 -14.219515 19.716715 -0.445972 2.376316 0.050716 0.003048 426250.000000 1 0 0
10.230473 6.514314 -12.802015 17.634921 0.567008 2.383206 0.022143 -0.014390 455166.000000 1 0 0
10.609973 5.323614 -16.512615 20.336638 0.465051 2.518305 0.037416 -0.011385 169668.000000 1 0 0
12.127373 -10.354386 -14.836615 21.780992 -0.706698 2.320159 0.063441 -0.018537 405286.000000 1 0 0
-1.381227 2.206014 -17.291915 17.486698 -1.011393 2.992196 0.007750 -0.006177 309611.000000 1 0 0
5.928173 -1.228386 -16.822815 17.879018 -0.204320 2.796148 0.004214 0.004883 -12431.200000 1 0 0
7.395473 -6.757486 -15.765415 18.678998 -0.740351 2.575528 0.021461 0.001931 239891.000000 1 0 0
-1.960527 -5.006686 -20.530615 21.223023 1.197568 2.885451 0.030471 -0.018708 386248.000000 1 0 0
15.897773 -0.336486 -13.263115 20.706584 -0.021162 2.265980 0.035293 -0.007656 115858.000000 1 0 0
-3.887627 -0.523786 -18.282215 18.698326 0.133925 2.930231 0.006150 -0.012232 -99509.100000 1 0 0
3.881973 8.981914 -17.745715 20.264622 1.162844 2.637678 0.020823 -0.014612 138432.000000 1 0 0
10.030473 -0.048986 -17.715115 20.357753 -0.004884 2.626384 0.046518 0.012199 -277415.000000 1 0 0
4.201973 4.663314 -18.413415 19.453969 0.837390 2.813045 0.020259 0.003943 451106.000000 1 0 0
-2.540227 -11.322386 -17.855715 21.294970 1.350096 2.565311 0.033964 -0.019505 230909.000000 1 0 0
5.811673 -9.613286 -16.161715 19.682272 -1.027041 2.534185 0.007169 0.002429 203081.000000 1 0 0
10.373373 -12.188986 -10.369715 19.071162 -0.865696 2.145681 0.033238 -0.014709 319481.000000 1 0 0
6.353373 7.139014 -16.791815 19.320868 0.843561 2.624181 0.023412 -0.015460 343396.000000 1 0 0
8.715473 1.061114 -20.147715 21.977622 0.121154 2.730633 0.057614 -0.002352 -35371.500000 1 0 0
-1.046627 -0.893886 -20.205815 20.252640 0.706848 3.073579 0.026722 -0.009433 260678.000000 1 0 0
-0.779727 6.521414 -19.531915 20.606613 -1.451797 2.817208 0.019341 -0.004216 31197.300000 1 0 0
8.573073 6.366914 -17.294715 20.325903 0.638790 2.588437 0.043788 -0.029793 136987.000000 1 0 0
11.908473 0.077014 -12.856715 17.524634 0.006467 2.394455 0.002348 -0.002740 -57366.300000 1 0 0
-4.161827 -2.775386 -19.813115 20.434850 0.588141 2.894284 0.003441 -0.010395 400980.000000 1 0 0
6.162373 -11.508486 -14.459715 19.480848 -1.079182 2.407222 0.011870 -0.003486 150571.000000 1 0 0
11.241673 2.211214 -16.071415 19.737149 0.194219 2.522271 0.037153 -0.000411 -384594.000000 1 0 0
-2.694527 -4.382686 -17.127215 17.883230 1.019557 2.849783 0.002086 -0.007948 319583.000000 1 0 0
-6.805227 -4.948386 -17.258015 19.199915 0.628713 2.687955 0.020006 -0.013856 7861.080000 1 0 0
3.079773 10.285314 -15.033415 18.473664 1.279859 2.521415 0.009559 -0.019518 423600.000000 1 0 0
16.963873 -6.302986 -10.762215 21.055306 -0.355746 2.107307 0.066550 -0.013407 2920.760000 1 0 0
9.461873 -3.417986 -17.661515 20.325816 -0.346651 2.623813 0.020535 -0.008392 178317.000000 1 0 0
-7.363227 -1.516386 -18.344215 19.824903 0.203101 2.752653 0.014889 -0.007062 586972.000000 1 0 0
1.658573 -7.800586 -19.431415 21.004283 -1.361295 2.752139 0.026198 -0.009108 245609.000000 1 0 0
6.159573 11.346514 -14.282415 19.252821 1.073451 2.406599 0.024781 -0.001073 -10452.200000 1 0 0
6.157573 -4.322186 -17.377315 18.935894 -0.612020 2.733028 0.024715 -0.021530 589218.000000 1 0 0
4.685973 13.334514 -14.846415 20.498382 1.232860 2.380775 0.033980 -0.017284 54754.300000 1 0 0
9.619273 11.383614 -15.350215 21.395004 0.869206 2.370956 0.059909 -0.028258 -192332.000000 1 0 0
17.282773 1.158914 -11.361115 20.715025 0.066956 2.151303 0.062165 -0.006667 28216.000000 1 0 0
15.409473 -2.946286 -11.992915 19.747468 -0.188920 2.223472 0.075384 -0.012867 122671.000000 1 0 0
-8.701027 0.308914 -17.291015 19.359300 -0.035488 2.675127 0.021574 -0.007940 541059.000000 1 0 0
-3.354527 4.535514 -18.988515 19.808772 -0.933976 2.852810 0.013762 0.002081 118329.000000 1 0 0
4.338873 2.111814 -16.916515 17.591306 0.452967 2.863718 0.011481 0.002266 541722.000000 1 0 0
-5.036627 14.620414 -13.524215 20.543332 -1.239036 2.289389 0.009811 -0.014253 271848.000000 1 0 0
1.520673 9.373614 -17.589415 19.989112 1.409968 2.646553 0.040085 -0.009071 373036.000000 1 0 0
1.547773 -5.262886 -19.762615 20.509864 -1.284768 2.870827 0.028189 -0.005616 447693.000000 1 0 0
3.712473 -6.404086 -17.860915 19.334091 -1.045434 2.748697 0.019648 -0.021081 13834.600000 1 0 0
-6.597827 7.600814 -15.829215 18.758138 -0.855921 2.575231 -0.001741 -0.000115 65203.100000 1 0 0
-12.079827 3.277014 -16.244315 20.507043 -0.264904 2.485093 0.069830 -0.035337 396919.000000 1 0 0
-4.449527 7.344214 -17.655915 19.633316 -1.026083 2.688925 0.002354 0.030238 361316.000000 1 0 0
-8.150727 5.743814 -17.385515 20.042003 -0.613873 2.620858 0.015587 -0.010916 391892.000000 1 0 0
-8.369827 4.358614 -15.105115 17.810559 -0.480112 2.583183 -0.000265 -0.013546 369525.000000 1 0 0
9.653173 13.999414 -12.171715 20.912149 0.967124 2.192032 0.052093 -0.027471 480158.000000 1 0 0
14.793873 8.708314 -11.929815 20.904877 0.532027 2.178120 0.102832 -0.033723 -224371.000000 1 0 0
8.440473 15.576614 -9.923215 20.306223 1.074218 2.081371 0.016122 -0.013080 -21158.500000 1 0 0
8.284373 13.216514 -14.255615 21.131248 1.010889 2.311249 0.047947 -0.033866 115335.000000 1 0 0
4.031173 15.785714 -12.811415 20.726106 1.320771 2.237157 0.051253 -0.025020 98157.300000 1 0 0
10.857273 11.815614 -11.729515 19.876384 0.827641 2.202008 0.039682 -0.012795 117017.000000 1 0 0
16.045173 9.964614 -9.011715 20.927306 0.555743 2.015976 0.070654 -0.057602 285587.000000 1 0 0
13.375873 11.299414 -10.087315 20.207540 0.701445 2.093455 0.073715 -0.027821 40039.200000 1 0 0
10.963473 11.122214 -8.723815 17.888721 0.792586 2.080217 0.025258 -0.009140 9451.630000 1 0 0
5.708473 17.163714 -10.242315 20.786649 1.249715 2.086027 0.057232 -0.008683 -1981.730000 1 0 0
11.680473 13.179014 -10.215615 20.358749 0.845606 2.096452 0.059998 -0.044339 123817.000000 1 0 0
8.013873 -19.451686 -1.767415 21.111940 -1.179998 1.654611 0.039929 -0.000683 152604.000000 1 0 0
7.663273 -17.267386 -4.221515 19.357416 -1.153110 1.790646 0.028330 0.006979 237619.000000 1 0 0
3.969673 -18.726386 5.051585 19.797837 -1.361906 1.312785 0.065928 -0.018392 125344.000000 1 0 0
10.282573 -17.893686 -2.153215 20.749738 -1.049227 1.674754 0.043044 -0.003485 345319.000000 1 0 0
-3.583527 -14.893386 7.923485 17.246339 1.334673 1.093443 0.018229 -0.027876 90341.300000 1 0 0
-15.395227 -12.440786 -3.998715 20.193462 0.679657 1.770134 0.042331 -0.012586 227278.000000 1 0 0
-9.540527 -12.936986 -6.785215 17.447819 0.935368 1.970219 0.038874 -0.013089 86372.000000 1 0 0
-11.554027 -15.486686 6.530785 20.395689 0.929820 1.244851 0.035127 0.003662 269386.000000 1 0 0
-14.982427 -7.284386 -7.361115 18.213221 0.452543 1.986860 0.067985 -0.031527 -276180.000000 1 0 0
4.956973 -15.283286 6.593685 17.367415 -1.257162 1.181369 0.042855 -0.017641 324147.000000 1 0 0
2.893773 -14.125286 9.150485 17.077149 -1.368728 1.005303 0.020776 -0.005339 289878.000000 1 0 0
3.305973 -17.323186 10.364785 20.456075 -1.382223 1.039461 0.046810 -0.015319 253078.000000 1 0 0
-7.303727 -17.135886 -6.037115 19.581363 1.167889 1.884212 -0.015353 -0.012849 76741.200000 1 0 0
1.959373 -19.718286 -4.073815 20.229827 -1.471753 1.773559 0.031018 -0.015940 -122180.000000 1 0 0
-16.952327 -10.355686 -3.316815 20.140081 0.548375 1.736237 -0.057517 -0.023575 -127579.000000 1 0 0
-4.270327 -14.913386 2.915685 15.784359 1.291917 1.385009 0.007192 0.000548 63641.200000 1 0 0
-10.840827 -9.964786 -14.508715 20.671800 0.743317 2.348802 0.052045 -0.016228 201096.000000 1 0 0
0.656273 -20.251886 2.444085 20.409388 -1.538402 1.450755 0.034987 -0.012919 328540.000000 1 0 0
5.386573 -18.384786 0.158885 19.158308 -1.285782 1.562503 0.025401 -0.001158 155952.000000 1 0 0
-7.553827 -18.653786 -3.823715 20.485234 1.186031 1.758555 0.015328 -0.029864 -6160.290000 1 0 0
-9.472727 -15.843886 -7.605815 19.965212 1.031938 1.961624 0.059877 -0.015955 70204.700000 1 0 0
-11.824327 -11.276686 -12.339915 20.475641 0.761696 2.217631 0.052493 -0.005701 378282.000000 1 0 0
-13.297127 -14.900586 -3.459415 20.268414 0.842202 1.742316 0.039057 -0.013668 231242.000000 1 0 0
-0.298327 -20.410186 -2.480715 20.562554 1.556181 1.691733 0.038362 -0.016754 299925.000000 1 0 0
-12.237627 -16.712486 -1.126315 20.744524 0.938756 1.625118 0.060032 -0.005501 223713.000000 1 0 0
0.891573 -19.484486 5.492685 20.263506 -1.525070 1.296299 0.048560 -0.031800 236798.000000 1 0 0
-18.394427 -9.516886 2.224385 20.829641 0.477454 1.463803 0.057364 0.001062 69078.100000 1 0 0
-14.989627 -14.910486 -0.684515 21.153725 0.782751 1.603161 0.057121 -0.000071 -14019.100000 1 0 0
10.251573 -15.564386 -4.928115 19.277738 -0.988360 1.829304 0.028894 0.001049 5326.140000 1 0 0
0.007773 -18.920786 -7.059115 20.194735 -1.570386 1.927889 0.029064 -0.018010 169999.000000 1 0 0
-10.108027 -17.972186 -3.132115 20.856218 1.058463 1.721543 0.040221 0.022418 563218.000000 1 0 0
-14.422127 -6.701586 -11.534115 19.645478 0.434990 2.198284 0.044772 -0.017434 -95009.400000 1 0 0
-11.647027 -15.572986 2.255885 19.577031 0.928641 1.455309 0.035802 0.002514 182645.000000 1 0 0
-2.751727 -16.474486 10.006685 19.470861 1.405295 1.031035 0.007699 -0.017354 278323.000000 1 0 0
-12.485527 -14.146486 -6.492215 19.953955 0.847685 1.902189 0.046239 -0.019663 122906.000000 1 0 0
6.039873 -16.902386 -6.604215 19.125542 -1.227599 1.923364 0.019964 -0.017906 -2822.420000 1 0 0
-18.127727 -7.599786 -2.881415 19.866398 0.396978 1.716349 0.051556 -0.009104 -110638.000000 1 0 0
-12.119527 -13.810986 -9.292015 20.590479 0.850536 2.038992 0.069401 -0.023739 70115.600000 1 0 0
-7.963327 -13.853186 9.995585 18.847733 1.049084 1.011802 0.028834 -0.006550 638038.000000 1 0 0
-15.977927 -8.339186 -5.702815 18.903922 0.481029 1.877244 0.055556 -0.005440 287847.000000 1 0 0
-0.789127 -19.571386 -0.020015 19.587299 1.530498 1.571818 0.018621 -0.012638 152426.000000 1 0 0
-15.104227 -11.309586 -1.620015 18.938555 0.642713 1.656442 0.028528 -0.003363 118831.000000 1 0 0
-6.808727 -18.962086 1.093885 20.177117 1.226064 1.516556 -0.000538 -0.008330 36095.300000 1 0 0
-1.307027 -21.215686 -4.840115 21.800008 1.509267 1.794686 0.019222 -0.009044 193028.000000 1 0 0
-8.916927 -19.886586 -1.314215 21.833805 1.149283 1.631024 0.024008 0.001316 163391.000000 1 0 0
-18.064427 -7.217086 4.900885 20.060621 0.380092 1.323995 0.059524 -0.010279 -89501.200000 1 0 0
-2.946827 -16.005486 -10.989515 19.637434 1.388722 2.164724 0.009967 0.007303 178426.000000 1 0 0
-2.825627 -18.289886 -8.316115 20.289452 1.417517 1.993112 0.011059 -0.006671 171581.000000 1 0 0
4.042073 -18.017086 -6.070815 19.437298 -1.350104 1.888439 0.002142 0.033076 430112.000000 1 0 0
0.941673 -17.330886 -9.566515 19.818289 -1.516515 2.074544 0.016501 -0.003076 55619.600000 1 0 0
-7.494227 -10.136386 -14.773615 19.420851 0.934153 2.435201 0.013660 -0.012588 551553.000000 1 0 0
-5.068027 -19.479586 -2.141315 20.241650 1.316268 1.676782 0.012602 -0.016000 341376.000000 1 0 0
-8.873227 -15.914486 8.312885 20.027708 1.062170 1.142777 -0.001540 -0.008704 318670.000000 1 0 0
-7.288527 -15.017186 -10.388015 19.660858 1.118941 2.127464 0.034312 -0.017747 320011.000000 1 0 0
-12.513627 -8.083486 -12.580615 19.498858 0.573540 2.272078 0.045900 -0.014213 280318.000000 1 0 0
-15.688427 -13.025286 3.324885 20.660099 0.692915 1.409161 0.041079 0.003300 152185.000000 1 0 0
-6.069027 -14.471386 -12.967415 20.357012 1.173694 2.261396 0.006864 -0.006059 449721.000000 1 0 0
-13.783327 -10.992086 -6.823015 18.903957 0.673209 1.940062 0.040287 -0.028096 269255.000000 1 0 0
-11.266327 -10.423486 -8.645015 17.615773 0.746559 2.083751 0.023299 -0.011022 274645.000000 1 0 0
-9.889727 -14.874386 3.748185 18.251108 0.984030 1.363957 0.007155 0.002082 419661.000000 1 0 0
4.664073 -18.128286 8.383885 20.510433 -1.318976 1.149699 0.063719 -0.023390 346623.000000 1 0 0
-4.988627 -16.815886 5.312885 18.327225 1.282405 1.276684 0.004186 0.009573 469684.000000 1 0 0
-18.247627 -7.437686 -6.994315 20.909699 0.387039 1.911872 0.044096 -0.022240 112893.000000 1 0 0
-16.989027 -5.017086 -10.872215 20.784688 0.287152 2.121266 0.058338 -0.007365 -281221.000000 1 0 0
-15.938527 -3.756586 -12.542915 20.627004 0.231468 2.224439 0.061517 -0.030546 287344.000000 1 0 0
-19.604227 -5.252186 -6.237615 21.232499 0.261764 1.868972 0.071439 -0.013805 -62225.700000 1 0 0
5.401973 -13.575586 8.728285 17.019424 -1.192086 1.032304 0.034057 -0.006711 174889.000000 1 0 0
19.552273 -2.642086 2.411185 19.876766 -0.134316 1.449190 0.032843 -0.018638 -200469.000000 1 0 0
18.163373 -2.354586 0.589485 18.324838 -0.128915 1.538622 0.037261 -0.024018 170619.000000 1 0 0
14.225873 -11.209986 0.170685 18.112658 -0.667381 1.561373 0.049847 -0.009929 21161.100000 1 0 0
11.268873 -13.699786 5.295285 18.512474 -0.882451 1.280706 0.032216 -0.009134 386169.000000 1 0 0
9.779773 -13.128586 8.734485 18.555187 -0.930553 1.080678 0.017488 -0.018081 236636.000000 1 0 0
17.675973 4.490214 -4.342315 18.747206 0.248767 1.804544 0.001649 0.003770 -261761.000000 1 0 0
19.173673 -5.953486 -4.840315 20.651934 -0.301065 1.807373 0.075216 -0.014708 -39021.700000 1 0 0
17.769973 -10.050186 -0.299715 20.417346 -0.514719 1.585476 0.067841 -0.011339 270212.000000 1 0 0
17.651573 -8.734186 8.500285 21.450382 -0.459488 1.163338 0.088221 -0.025293 53833.100000 1 0 0
19.958873 0.319714 -1.615515 20.026700 0.016017 1.651552 0.062885 -0.016311 90174.400000 1 0 0
7.333173 -13.432686 11.656285 19.237501 -1.071091 0.919881 0.018206 0.002844 320527.000000 1 0 0
16.349273 -6.526586 -3.474715 17.943486 -0.379814 1.765675 0.057972 -0.012241 259775.000000 1 0 0
14.319473 -7.075186 11.355885 19.597492 -0.458913 0.952735 0.053680 -0.044164 322052.000000 1 0 0
17.169273 1.129414 9.510685 19.659925 0.065686 1.065851 0.111630 -0.036689 581299.000000 1 0 0
16.479673 -10.254186 2.486685 19.568126 -0.556607 1.443373 0.024001 -0.011976 174037.000000 1 0 0
16.028073 -7.087786 -5.982715 18.518335 -0.416358 1.899768 0.046835 -0.007894 294838.000000 1 0 0
18.038073 -4.306586 5.715485 19.405812 -0.234363 1.271839 0.075851 -0.020207 -36705.000000 1 0 0
13.412573 -13.690686 7.868385 20.718192 -0.795659 1.181236 0.041372 -0.013915 155870.000000 1 0 0
15.468973 -14.156586 -1.533115 21.024949 -0.741128 1.643780 0.062424 -0.010967 230211.000000 1 0 0
18.660973 -6.116486 7.671985 21.083232 -0.316734 1.198355 0.079214 -0.023130 262459.000000 1 0 0
19.515373 3.440314 2.556785 19.980558 0.174495 1.442481 0.046477 -0.015502 218434.000000 1 0 0
15.715073 -11.127086 8.124485 20.899350 -0.616109 1.171529 0.065770 -0.023331 379303.000000 1 0 0
14.150173 -4.208986 10.665785 18.212686 -0.289117 0.945147 0.048121 -0.021252 -103564.000000 1 0 0
18.861573 -7.972286 2.207385 20.595845 -0.399898 1.463414 0.079476 -0.017546 142211.000000 1 0 0
19.029973 -5.226186 -1.550515 19.795378 -0.268021 1.649204 0.061452 -0.020746 240896.000000 1 0 0
14.701373 -13.434286 -6.033915 20.809098 -0.740394 1.864987 0.049157 -0.012285 373635.000000 1 0 0
13.690473 -9.563986 10.231385 19.585202 -0.609777 1.021129 0.030698 -0.020492 364513.000000 1 0 0
14.198673 2.221214 0.661985 14.386603 0.155180 1.524766 -0.005487 -0.005038 -64618.800000 1 0 0
12.810173 2.184714 13.643385 18.841854 0.168920 0.761068 0.030486 -0.004894 24371.200000 1 0 0
17.880873 -3.784386 9.618985 20.653621 -0.208567 1.086338 0.043233 -0.004965 22.587300 1 0 0
7.461873 -18.040686 4.969885 20.145611 -1.178609 1.321525 0.058399 -0.026315 390414.000000 1 0 0
12.239873 -3.274986 15.188085 19.779230 -0.261443 0.695270 0.041377 0.002226 176609.000000 1 0 0
11.556573 -13.672586 -7.089415 19.254968 -0.869074 1.947854 0.028183 -0.005029 180795.000000 1 0 0
11.228273 -16.264786 4.548985 20.280795 -0.966581 1.344572 0.063442 -0.033435 517780.000000 1 0 0
18.227073 -0.598486 -4.485115 18.780326 -0.032823 1.811947 0.042559 -0.016266 -30242.600000 1 0 0
4.612073 -13.691686 11.798485 18.653089 -1.245882 0.885992 0.020577 -0.000438 331750.000000 1 0 0
8.948173 -2.321186 14.063985 16.830133 -0.253809 0.581494 0.014216 -0.012312 401025.000000 1 0 0
9.130773 -9.445686 14.079485 19.256788 -0.802349 0.750799 0.045357 -0.004687 334470.000000 1 0 0
20.916173 5.509414 -3.228615 21.869245 0.257554 1.718971 0.057939 0.002507 430775.000000 1 0 0
14.729873 -13.353986 1.675385 19.952569 -0.736445 1.486729 0.039542 -0.019827 348286.000000 1 0 0
10.901373 0.096114 14.309485 17.989178 0.008816 0.651047 0.034441 -0.024558 10974.200000 1 0 0
19.774573 -0.024586 7.481785 21.142645 -0.001243 1.209089 0.111172 -0.021821 69105.300000 1 0 0
19.681373 0.846214 0.745985 19.713676 0.042969 1.532946 0.042563 -0.016092 286189.000000 1 0 0
18.094673 0.324314 3.295985 18.395268 0.017921 1.390648 0.037586 -0.010718 -83.411800 1 0 0
10.309973 -8.067486 16.433785 21.010692 -0.663975 0.672667 0.059995 -0.008244 175079.000000 1 0 0
19.054273 2.809514 5.702785 20.086823 0.146393 1.282930 0.050088 -0.010986 110621.000000 1 0 0
15.092473 2.673114 7.109185 16.895822 0.175298 1.136507 0.029728 -0.010418 31781.700000 1 0 0
11.560173 -16.097286 1.821085 19.901673 -0.947997 1.479164 0.028446 -0.002119 328144.000000 1 0 0
9.203973 -16.293186 7.014585 19.984630 -1.056588 1.212159 0.043794 -0.006388 153885.000000 1 0 0
6.210773 6.607114 7.274485 11.625222 0.816309 0.894703 0.001531 0.002927 -1220640.000000 1 0 0
18.589673 2.177514 -6.502615 19.814175 0.116604 1.905173 0.036816 -0.003464 254842.000000 1 0 0
14.232073 4.262514 -6.935815 16.395928 0.290999 2.007573 0.020160 -0.013202 187948.000000 1 0 0
-10.386227 -3.827986 -13.757315 17.657602 0.353116 2.464050 0.011005 -0.008735 -248610.000000 1 0 0
7.850873 -14.404486 -10.259815 19.349140 -1.071777 2.129688 0.011827 0.004321 -46408.200000 1 0 0
1.969673 -16.042886 13.714585 21.197727 -1.448632 0.867174 0.017906 -0.010960 316646.000000 1 0 0
-9.472127 -7.878186 2.125085 12.502119 0.693787 1.399989 0.006042 0.002610 290531.000000 1 0 0
-13.573127 3.090714 -9.935815 17.102711 -0.223891 2.190691 0.011005 -0.005893 325122.000000 1 0 0
-12.960927 -4.830886 -13.711315 19.476223 0.356776 2.351814 0.040380 0.001482 330351.000000 1 0 0
-17.821927 -1.337686 -9.061215 20.037867 0.074918 2.040032 0.054170 -0.028669 312489.000000 1 0 0
-12.902327 14.232514 4.703885 19.777791 -0.834380 1.330658 0.023394 -0.025169 337613.000000 1 0 0
-17.260127 6.782814 8.815585 20.533706 -0.374436 1.127054 0.015328 -0.007163 143409.000000 1 0 0
-13.440827 15.083914 0.380485 20.207055 -0.842937 1.551966 0.025088 -0.034235 77635.400000 1 0 0
-15.784727 4.871214 -11.245015 19.983410 -0.299331 2.168466 0.031284 0.002749 31373.800000 1 0 0
-18.347727 3.118014 -0.202915 18.611885 -0.168332 1.581699 0.046616 -0.005888 -172667.000000 1 0 0
-9.988427 15.406814 -0.371615 18.365094 -0.995608 1.591033 0.011616 -0.007462 19114.500000 1 0 0
-18.755827 11.717314 2.257585 22.230006 -0.558405 1.469065 0.079115 -0.021043 -127499.000000 1 0 0
-8.489527 16.365814 -7.804615 20.020588 -1.092273 1.971243 0.068604 -0.038271 115138.000000 1 0 0
-13.784827 -1.390386 -12.762215 18.836899 0.100524 2.315170 -0.021955 -0.030651 -147917.000000 1 0 0
-18.808727 5.475214 -4.660515 20.136201 -0.283271 1.804364 0.050158 -0.006380 -104242.000000 1 0 0
-16.783727 9.761414 -5.912015 20.296074 -0.526780 1.866370 0.049005 0.004277 -173898.000000 1 0 0
-18.990127 1.088314 1.988085 19.124901 -0.057247 1.466655 0.033208 -0.007878 285805.000000 1 0 0
-13.929227 11.536914 -6.993415 19.391534 -0.691732 1.939753 0.043469 -0.026359 165308.000000 1 0 0
-12.854627 5.568314 -13.433315 19.408800 -0.408775 2.335225 0.040341 -0.021912 -220607.000000 1 0 0
-14.013627 9.199114 -6.679015 18.044796 -0.580890 1.949951 0.021511 -0.015997 98233.700000 1 0 0
-6.218127 12.255314 -15.234015 20.516653 -1.101260 2.407620 -0.000690 -0.001725 -6028.120000 1 0 0
-15.679027 13.398314 2.494485 20.774243 -0.707122 1.450430 0.059315 -0.026294 -40505.700000 1 0 0
-18.674327 8.443714 -4.934015 21.080116 -0.424646 1.807048 0.067922 -0.014306 183976.000000 1 0 0
-4.415527 16.891614 -10.119415 20.179843 -1.315114 2.096084 0.009913 -0.005813 31946.500000 1 0 0
-19.374627 -2.160486 -6.802515 20.647471 0.111052 1.906528 0.041053 -0.011484 -352915.000000 1 0 0
-10.695227 13.595014 -6.209415 18.378496 -0.904217 1.915442 0.029607 -0.032038 48614.100000 1 0 0
-19.305127 3.043414 4.256985 20.001805 -0.156361 1.356326 0.035825 -0.006639 100952.000000 1 0 0
-14.888427 12.026114 0.369385 19.142338 -0.679448 1.551498 0.002213 -0.014013 939.394000 1 0 0
-17.078427 2.826314 -8.217515 19.162157 -0.164004 2.014006 0.007280 -0.017034 -155955.000000 1 0 0
-16.201127 14.016114 -4.171915 21.825051 -0.713214 1.763133 0.022508 0.023904 -18308.000000 1 0 0
-10.859327 15.755014 -8.518015 20.945215 -0.967314 1.989614 0.060205 -0.029036 37967.100000 1 0 0
-19.067427 1.943014 -6.993815 20.402341 -0.101552 1.920687 0.045894 -0.018519 -64989.400000 1 0 0
-17.147027 10.489614 -1.042615 20.128079 -0.549011 1.622619 0.034937 -0.005831 4854.790000 1 0 0
-11.622427 6.693414 -14.700615 19.899515 -0.522514 2.401999 0.035408 -0.021097 377274.000000 1 0 0
-13.408727 13.370514 -5.247115 19.649347 -0.783971 1.841114 0.037724 -0.012739 229888.000000 1 0 0
-18.912927 7.460914 -0.367015 20.334668 -0.375745 1.588846 0.049555 -0.004185 149394.000000 1 0 0
-14.509227 9.086114 -10.621315 20.146649 -0.559483 2.126098 0.030307 -0.005548 479643.000000 1 0 0
-18.771327 11.327414 4.741185 22.431047 -0.542947 1.357823 0.052666 -0.022405 172280.000000 1 0 0
-8.118727 11.817714 -13.683015 19.819107 -0.968851 2.332831 -0.000587 -0.011604 499869.000000 1 0 0
-21.091727 -1.540386 -5.570215 21.869180 0.072903 1.828340 0.058341 -0.010181 46298.100000 1 0 0
-10.659327 13.431814 -3.396715 17.480634 -0.899977 1.766353 0.014435 -0.005382 346340.000000 1 0 0
-18.720927 -4.807186 3.636485 19.667388 0.251351 1.384827 0.038904 -0.011716 58673.700000 1 0 0
-11.295427 11.584114 -12.331615 20.343232 -0.798015 2.222042 0.031506 -0.020420 206319.000000 1 0 0
-14.843327 11.360914 -10.382115 21.381839 -0.653277 2.077797 0.053331 -0.020257 193995.000000 1 0 0
-12.620727 9.983414 -13.975715 21.313656 -0.669249 2.285928 0.050992 -0.019579 233170.000000 1 0 0
-18.101227 -4.896186 -3.345515 19.047822 0.264168 1.747350 0.005324 -0.010236 -187266.000000 1 0 0
-9.287927 12.541214 -11.569115 19.426581 -0.933343 2.208722 0.034341 -0.013305 -80293.000000 1 0 0
-15.594527 7.722514 -8.129515 19.207173 -0.459806 2.007830 0.021318 -0.003441 6655.000000 1 0 0
-14.852427 9.047014 1.760085 17.479730 -0.547104 1.469932 0.020571 -0.000554 -152426.000000 1 0 0
-20.032727 6.146514 7.707485 22.327004 -0.297705 1.218335 0.062308 -0.019681 271181.000000 1 0 0
-18.642827 5.815314 3.254685 19.798127 -0.302368 1.405653 0.011823 -0.003097 277698.000000 1 0 0
-14.607427 12.792614 5.787585 20.261393 -0.719261 1.281116 0.013206 -0.008175 7297.860000 1 0 0
18.009773 6.395914 6.005285 20.033050 0.341243 1.266346 0.036986 -0.010729 -78240.500000 1 0 0
18.427873 8.167814 0.396385 20.160774 0.417211 1.551134 0.038487 0.009103 66379.700000 1 0 0
16.834573 4.226214 8.598385 19.369976 0.245961 1.110847 0.049149 -0.012140 -105489.000000 1 0 0
12.527673 12.684914 10.891585 20.892014 0.791635 1.022390 0.064870 -0.018040 167215.000000 1 0 0
15.470673 12.317314 4.277385 20.232498 0.672402 1.357777 0.045846 -0.010573 248339.000000 1 0 0
5.507573 10.534114 14.516485 18.762443 1.089050 0.686137 0.009874 0.001405 134642.000000 1 0 0
13.201673 13.138114 -5.353615 19.379252 0.782985 1.850692 0.050152 -0.009732 275957.000000 1 0 0
17.380873 9.265314 -2.762515 19.888999 0.489756 1.710143 0.001370 -0.001103 -36291.500000 1 0 0
14.539173 7.679014 9.495785 18.987489 0.485921 1.047073 0.045412 -0.007668 202701.000000 1 0 0
4.837273 18.978314 -1.614715 19.651537 1.321226 1.653056 0.026202 -0.023648 268644.000000 1 0 0
-4.819927 19.712614 3.886785 20.662186 -1.330992 1.381558 0.006290 0.013494 213786.000000 1 0 0
6.764073 12.667814 12.703685 19.173153 1.080353 0.846543 0.017745 0.000901 -46265.900000 1 0 0
0.408473 17.124014 -10.093015 19.881339 1.546947 2.103266 0.021435 -0.002550 -7864.530000 1 0 0
10.671273 9.620414 15.385585 21.051001 0.733657 0.751198 0.040113 -0.012622 -70084.500000 1 0 0
-1.339527 12.294314 1.148485 12.420286 -1.462269 1.478196 -0.002123 0.000283 558784.000000 1 0 0
-4.814427 19.155314 -2.769615 19.944311 -1.324560 1.710114 0.011517 0.001450 77272.100000 1 0 0
6.111973 18.153114 6.386885 20.191188 1.246028 1.248948 0.031472 -0.027236 -48929.400000 1 0 0
11.300073 17.551314 -1.171615 20.907247 0.998770 1.626864 0.018518 -0.011242 469329.000000 1 0 0
18.522373 10.626014 3.203785 21.592932 0.520846 1.421875 0.046960 -0.005296 277930.000000 1 0 0
11.718973 16.920114 6.415485 21.558827 0.965050 1.268639 0.052589 0.000459 -220492.000000 1 0 0
18.088273 7.172714 -5.402715 20.194623 0.377520 1.841627 0.021386 0.011122 364302.000000 1 0 0
0.301873 15.528014 10.980585 19.020610 1.551358 0.955379 0.010033 -0.005156 481648.000000 1 0 0
1.204673 20.014614 -1.872115 20.138044 1.510679 1.663895 0.025584 -0.019178 190121.000000 1 0 0
14.234273 9.688914 -1.171515 17.258680 0.597638 1.638728 0.021139 0.000855 -48996.600000 1 0 0
10.165573 16.728014 2.298785 19.709128 1.024736 1.453895 0.038303 -0.034059 244337.000000 1 0 0
-0.117427 17.740914 -0.619415 17.752112 -1.564177 1.605696 0.010214 -0.005875 87456.800000 1 0 0
-0.179427 20.961414 1.367285 21.006726 -1.562237 1.505662 0.022653 -0.011247 282627.000000 1 0 0
6.041873 17.419814 -0.319615 18.440616 1.236940 1.588129 0.015515 -0.023917 -116356.000000 1 0 0
7.493973 18.846614 -2.359615 20.418675 1.192335 1.686617 0.024255 -0.019547 114685.000000 1 0 0
10.274973 9.634414 12.676385 18.949611 0.753236 0.837998 0.029007 -0.005368 162846.000000 1 0 0
13.373073 14.848714 8.191185 21.596734 0.837638 1.181780 0.061427 -0.013412 109185.000000 1 0 0
0.234973 17.741414 6.874885 19.028322 1.557553 1.201137 0.011830 -0.001993 283300.000000 1 0 0
6.977973 17.946114 -7.709915 20.741213 1.199957 1.951657 0.023385 -0.012345 66675.600000 1 0 0
-1.191127 18.589114 9.159385 20.757367 -1.506807 1.113795 0.040291 -0.016194 55559.800000 1 0 0
16.317173 6.868114 -7.935015 19.400660 0.398404 1.992162 0.058586 -0.004018 -193661.000000 1 0 0
-5.065727 19.962914 -6.507615 21.599273 -1.322285 1.876840 0.006259 -0.011770 194059.000000 1 0 0
3.818673 16.150814 9.931585 19.340823 1.338622 1.031533 0.013960 0.004226 138267.000000 1 0 0
9.359173 14.805514 7.269985 18.964442 1.007078 1.177378 0.037535 -0.011330 2896.020000 1 0 0
-2.473227 19.401314 6.417985 20.584421 -1.444003 1.253722 0.011891 -0.009678 113196.000000 1 0 0
4.958373 18.028614 8.059585 20.361073 1.302404 1.163822 0.028882 -0.015621 132735.000000 1 0 0
13.936573 11.748014 -6.611815 19.389688 0.700394 1.918773 -0.016593 -0.020319 -216846.000000 1 0 0
11.633973 6.880214 15.735485 20.743485 0.534064 0.709673 0.040668 -0.010976 255825.000000 1 0 0
17.100573 8.993614 4.993685 19.956242 0.484172 1.317877 0.059394 -0.007611 190322.000000 1 0 0
5.335173 14.582114 12.031185 19.643104 1.220053 0.911591 0.008983 -0.027343 179955.000000 1 0 0
16.255373 11.600914 -4.647015 20.503978 0.619839 1.799423 0.061361 0.025999 174242.000000 1 0 0
15.528373 13.755314 6.692185 21.797348 0.724924 1.258738 0.068086 -0.002596 368214.000000 1 0 0
12.405673 14.245714 -7.218115 20.222321 0.854330 1.935784 0.049989 -0.022937 326502.000000 1 0 0
-8.378627 15.650214 9.625585 20.193625 -1.079256 1.073940 0.030937 -0.017268 230689.000000 1 0 0
-3.608927 17.176114 -7.706515 19.168558 -1.363696 1.984539 -0.000457 0.012382 31689.300000 1 0 0
2.466273 19.739714 -4.451815 20.385227 1.446501 1.790955 0.026330 -0.018033 69302.400000 1 0 0
7.060773 16.174914 9.239985 19.921337 1.159204 1.088490 0.032784 -0.018149 608211.000000 1 0 0
13.602773 15.391914 -1.294415 20.582079 0.847026 1.633728 0.055375 -0.020197 235092.000000 1 0 0
12.761973 16.750514 4.521485 21.538141 0.919732 1.359294 0.050267 -0.024126 171801.000000 1 0 0
2.299773 18.384314 0.559885 18.536058 1.446348 1.540587 0.017785 -0.020677 6079.380000 1 0 0
-6.772627 17.922814 2.033385 19.267340 -1.209505 1.465064 -0.023740 0.027866 50421.800000 1 0 0
0.138873 20.248414 -6.045715 21.132161 1.563938 1.860941 0.028289 0.004919 147221.000000 1 0 0
-7.425227 18.044214 -6.317615 20.509508 -1.180414 1.883922 0.051021 -0.029115 46698.600000 1 0 0
-7.624327 18.628314 -1.775815 20.206384 -1.182310 1.658794 0.026163 -0.011776 75548.700000 1 0 0
-14.640427 -9.127986 8.569185 19.263778 0.557504 1.109807 0.031438 -0.010117 274508.000000 1 0 0
-13.407727 -13.579786 7.807485 20.618791 0.791774 1.182450 0.039389 0.001204 17500.600000 1 0 0
-3.405727 -16.041386 12.869085 20.845584 1.361594 0.905423 0.012568 -0.002941 -60916.000000 1 0 0
-2.104127 -15.141986 14.790385 21.271168 1.432721 0.801924 0.023185 -0.018571 387041.000000 1 0 0
-7.433127 -13.832286 13.576785 20.758434 1.077698 0.857887 0.010585 -0.006712 81165.900000 1 0 0
-10.063527 -10.908886 11.744685 18.926595 0.825685 0.901367 0.028416 -0.009195 138811.000000 1 0 0
-7.419127 -10.515986 12.942185 18.251837 0.956382 0.782590 0.017073 -0.007995 346891.000000 1 0 0
-15.313927 -12.372386 7.054385 20.913073 0.679550 1.226728 0.037704 -0.009784 335899.000000 1 0 0
-4.510227 -12.644086 13.192785 18.821919 1.228159 0.794100 0.016922 -0.009846 421604.000000 1 0 0
3.482773 -12.432686 13.717185 18.837796 -1.297667 0.755143 0.004146 -0.002222 449696.000000 1 0 0
6.795973 -13.259786 14.908585 21.077786 -1.097179 0.785107 0.034396 -0.000087 338305.000000 1 0 0
6.980073 -9.097786 16.933885 20.451102 -0.916360 0.595232 0.033394 -0.001377 660435.000000 1 0 0
-5.253427 13.477014 13.636285 19.879051 -1.199108 0.814871 0.012700 -0.005929 427059.000000 1 0 0
-13.864827 -1.831186 17.186585 22.157738 0.131314 0.683057 0.032815 -0.017475 356353.000000 1 0 0
-10.499027 10.056214 12.649085 19.270609 -0.763859 0.854769 0.013608 -0.001262 193742.000000 1 0 0
-6.969727 -8.229486 17.170585 20.276354 0.868092 0.560803 0.023028 -0.012119 12890.100000 1 0 0
-5.292127 2.314214 18.578585 19.455745 -0.412237 0.301423 0.017843 0.003644 509740.000000 1 0 0
-16.021527 -3.610386 13.524785 21.275432 0.221644 0.881882 0.043192 -0.026242 -124591.000000 1 0 0
-14.631727 2.823414 12.260785 19.297304 -0.190622 0.882318 0.021472 -0.004771 229259.000000 1 0 0
-13.522127 10.942814 10.447285 20.291349 -0.680357 1.029947 -0.071635 0.039671 -120979.000000 1 0 0
-4.664327 11.326214 15.858485 20.038229 -1.180145 0.657682 0.024283 -0.003708 247464.000000 1 0 0
-13.506327 12.556914 8.386985 20.259281 -0.748987 1.143972 0.010905 -0.029325 134621.000000 1 0 0
-3.928127 -6.343086 18.584885 20.026554 1.016323 0.381755 0.028103 -0.016276 344436.000000 1 0 0
0.647273 -2.895086 18.105085 18.346514 -1.350837 0.162409 0.011988 -0.010964 250134.000000 1 0 0
-4.227727 6.531514 21.184685 22.568235 -0.996335 0.351972 0.027523 -0.012413 280350.000000 1 0 0
1.946373 -10.773686 16.772685 20.029569 -1.392064 0.578294 0.010253 0.004202 349140.000000 1 0 0
-15.045727 -0.417586 13.710685 20.360038 0.027747 0.831982 0.006564 -0.011284 75121.900000 1 0 0
-14.031827 -5.930986 7.610385 17.028996 0.399905 1.107491 0.019317 -0.009441 -109734.000000 1 0 0
10.057873 0.708714 17.214085 19.949632 0.070347 0.529861 0.035333 0.017367 449481.000000 1 0 0
-7.796427 12.350214 11.994185 18.899009 -1.007695 0.883246 0.018765 -0.012628 91316.200000 1 0 0
-1.597127 7.463414 19.624285 21.056256 -1.359982 0.370923 0.011269 -0.038998 457898.000000 1 0 0
1.089973 -14.284986 15.573685 21.161014 -1.494642 0.743711 0.001873 0.008727 665533.000000 1 0 0
-3.600027 -11.716886 17.684985 21.517535 1.272700 0.606080 0.036862 -0.017188 408156.000000 1 0 0
-2.390927 9.022414 16.809685 19.227220 -1.311752 0.506877 0.004356 -0.008661 509714.000000 1 0 0
-4.687527 -9.822486 20.434285 23.151979 1.125535 0.489400 0.060903 -0.021042 284111.000000 1 0 0
-6.772527 -3.137086 18.970085 20.385597 0.433783 0.374848 0.025520 -0.016622 302075.000000 1 0 0
-10.840227 -8.172386 16.086585 21.049385 0.645989 0.700949 0.047226 -0.018380 -106419.000000 1 0 0
-0.030927 6.798814 17.900185 19.147884 -1.566247 0.362991 0.008878 -0.008290 129218.000000 1 0 0
-6.283627 -11.252586 18.837185 22.824202 1.061514 0.600034 0.055310 -0.019964 461886.000000 1 0 0
0.207773 3.590614 18.361085 18.710027 1.512995 0.193434 0.018651 -0.025615 193846.000000 1 0 0
-18.609427 -0.316986 7.440685 20.044327 0.017032 1.190483 0.039642 -0.013547 199176.000000 1 0 0
-1.756227 -8.717686 17.660585 19.773180 1.372002 0.466476 0.013087 -0.004753 313276.000000 1 0 0
5.979073 3.352414 15.199185 16.673429 0.511014 0.423682 0.010808 -0.004304 485385.000000 1 0 0
-13.634227 -6.687186 10.120485 18.249242 0.455995 0.982950 0.013410 -0.011748 50176.200000 1 0 0
3.696473 8.336614 16.828685 19.140734 1.153443 0.496599 0.009443 -0.007845 134886.000000 1 0 0
6.329373 4.381214 17.764485 19.360602 0.605474 0.408901 0.037257 -0.021952 432325.000000 1 0 0
3.904773 -9.694586 17.747385 20.596163 -1.187897 0.532217 -0.011013 -0.010055 347804.000000 1 0 0
-4.678127 -0.764886 19.686185 20.248847 0.162069 0.236292 0.025036 -0.010717 766628.000000 1 0 0
-11.130527 1.909014 16.853585 20.287343 -0.169859 0.590354 0.037362 -0.008355 238406.000000 1 0 0
-16.839027 -3.908786 8.520485 19.272522 0.228087 1.112852 0.028366 -0.021592 215135.000000 1 0 0
-13.148727 -9.571186 12.650185 20.603975 0.629218 0.909718 0.028161 -0.018198 105739.000000 1 0 0
-15.041827 6.280514 12.684185 20.654054 -0.395532 0.909519 0.034309 -0.017133 -91549.200000 1 0 0
1.097873 9.304614 17.151185 19.543396 1.453347 0.499974 -0.000869 -0.014130 213620.000000 1 0 0
-4.073127 -10.795286 14.882585 18.831354 1.210005 0.659483 0.021930 -0.003064 554850.000000 1 0 0
-18.649827 -3.915586 7.043685 20.316529 0.206947 1.216749 0.096815 -0.008815 -264052.000000 1 0 0
-0.705927 -0.442786 20.648085 20.664893 0.560209 0.040335 0.028365 -0.020112 122985.000000 1 0 0
-1.851827 2.556814 20.150385 20.396190 -0.943966 0.155408 0.010589 -0.022019 -199189.000000 1 0 0
-7.918327 2.302514 16.402685 18.358909 -0.282979 0.465838 0.002816 0.013339 532996.000000 1 0 0
2.909073 -1.623386 19.083585 19.372179 -0.508997 0.172826 0.026723 -0.004515 47883.700000 1 0 0
-11.990627 4.196114 14.373185 19.182569 -0.336630 0.723817 -0.014912 0.000938 -107625.000000 1 0 0
-13.253427 -5.589886 13.028785 19.407457 0.399131 0.834796 0.013806 -0.017222 -2291.990000 1 0 0
-17.485927 -0.992186 10.053285 20.194321 0.056681 1.049705 0.043784 -0.013633 -234760.000000 1 0 0
-7.213027 7.683614 15.163585 18.466185 -0.816978 0.607366 0.007433 -0.000859 -261151.000000 1 0 0
-9.604327 0.507414 13.968685 16.959502 -0.052783 0.602980 0.011931 -0.004197 267166.000000 1 0 0
7.452973 -0.985786 15.424785 17.159329 -0.131504 0.453509 0.017646 -0.007207 167136.000000 1 0 0
3.509773 6.218414 18.583985 19.908583 1.056952 0.366838 0.014358 -0.007966 80167.100000 1 0 0
1.660973 0.809114 19.986685 20.071898 0.453301 0.092178 0.024585 -0.009359 112869.000000 1 0 0
-6.966427 6.790014 17.776385 20.264137 -0.772575 0.500727 0.012516 -0.003849 364414.000000 1 0 0
7.391673 -3.175686 16.806785 18.633031 -0.405786 0.446442 0.016864 0.000337 376129.000000 1 0 0
-16.219227 2.417414 9.258085 18.831340 -0.147957 1.056834 0.016164 -0.004765 253546.000000 1 0 0
4.054073 -5.572686 19.125185 20.328872 -0.941858 0.345845 0.028871 -0.017237 234339.000000 1 0 0
-3.897227 -3.816086 20.767285 21.471633 0.774879 0.256845 0.026526 -0.006917 446931.000000 1 0 0
-9.709427 5.724214 14.593085 18.439027 -0.532702 0.657662 0.011260 -0.000465 -110798.000000 1 0 0
6.854373 2.165814 19.887085 21.146379 0.306048 0.346848 0.046837 -0.013216 50821.100000 1 0 0
-6.818227 11.299714 14.115085 19.323752 -1.027882 0.751812 0.008659 -0.025982 275637.000000 1 0 0
-14.375327 5.026214 9.984685 18.210074 -0.336356 0.990460 0.006871 0.007102 321656.000000 1 0 0
1.046473 -5.591386 20.255485 21.039092 -1.385779 0.273784 0.026319 -0.023817 254353.000000 1 0 0
-6.005127 -8.553686 13.747485 17.269060 0.958695 0.650013 0.009390 0.000226 282770.000000 1 0 0
-13.105827 10.171614 6.331185 17.756924 -0.660006 1.206227 -0.009005 -0.014947 110390.000000 1 0 0
-19.527627 2.332214 7.602885 21.084859 -0.118868 1.201901 0.026349 -0.013273 67604.600000 1 0 0
-15.979327 9.052314 6.410985 19.452095 -0.515424 1.234940 0.007426 -0.007207 44360.000000 1 0 0
-13.014327 7.582914 14.300185 20.769415 -0.527571 0.811348 0.022470 -0.009542 359269.000000 1 0 0
-16.601527 9.332314 10.454485 21.725539 -0.512113 1.068765 0.020378 -0.014426 251290.000000 1 0 0
2.549173 10.296514 15.438585 18.731428 1.328100 0.601995 0.004103 -0.019435 378720.000000 1 0 0
1.638273 14.805714 13.323585 19.985270 1.460593 0.841064 0.005779 -0.010946 854329.000000 1 0 0
9.032173 4.611514 16.766985 19.595357 0.472064 0.543969 0.031448 -0.001288 115187.000000 1 0 0
0.251773 12.796814 13.496985 18.600818 1.551124 0.758872 0.004039 -0.000154 92362.600000 1 0 0
3.729573 12.454714 14.703085 19.626776 1.279844 0.724043 0.006481 -0.010232 86303.100000 1 0 0
-3.610827 -4.557686 -13.547415 14.742558 0.900799 2.736162 0.002741 -0.007026 80079.200000 1 0 0
5.827873 -12.304586 16.670885 21.524064 -1.128463 0.684836 0.003626 0.009376 135692.000000 1 0 0
8.555773 -13.887886 7.309085 17.874489 -1.018652 1.149535 0.011608 -0.006487 172658.000000 1 0 0
-0.487327 15.277914 0.488685 15.293494 -1.538910 1.538837 0.005128 -0.001644 -287842.000000 1 0 0
-14.477627 7.749714 8.583985 18.529559 -0.491479 1.089127 0.009296 0.002566 14515.500000 1 0 0
-16.298627 -9.453886 4.526985 19.378204 0.525615 1.335005 0.040554 -0.003822 247271.000000 1 0 0
8.793673 -10.580786 11.232385 17.760861 -0.877379 0.886119 0.005242 -0.001537 105301.000000 1 0 0
-25.770907 5.820014 30.899296 40.654381 -0.222111 0.707409 0.092549 -0.016268 153193.000000 0 0 1
-24.578927 5.072614 30.687506 39.643134 -0.203523 0.685514 0.082825 -0.014860 526193.000000 0 0 1
-23.777427 4.909214 31.844586 40.044276 -0.203604 0.651402 0.077950 -0.002810 -727079.000000 0 0 1
-22.447427 4.252514 31.581266 38.978804 -0.187225 0.626275 0.068918 -0.012692 -903426.000000 0 0 1
-22.463527 2.841014 31.605466 38.879131 -0.125804 0.621655 0.068118 -0.019105 -58764.200000 0 0 1
-21.368127 2.358814 30.870686 37.618613 -0.109944 0.608297 0.049684 -0.017541 -184339.000000 0 0 1
-20.705927 1.131014 31.475026 37.692066 -0.054568 0.582560 0.039360 -0.015209 -75684.200000 0 0 1
-21.570627 0.025814 31.374636 38.074406 -0.001197 0.602300 0.050508 0.003511 209749.000000 0 0 1
-21.510227 -0.722186 32.582517 39.049095 0.033561 0.583755 0.042425 -0.003609 78424.500000 0 0 1
-22.131427 -2.125786 32.626229 39.481512 0.095759 0.598171 0.037900 -0.029614 -250111.000000 0 0 1
-21.231627 -3.012386 32.005106 38.525099 0.140941 0.590325 0.073529 -0.028228 149640.000000 0 0 1
-21.338027 -4.420186 32.238119 38.912025 0.204262 0.594395 0.080943 -0.042145 -197843.000000 0 0 1
-22.692727 -5.137586 31.862616 39.453529 0.222645 0.630728 0.057151 -0.028598 1312180.000000 0 0 1
-23.858327 -4.862586 32.666633 40.742771 0.201057 0.640533 0.037859 -0.019670 1027800.000000 0 0 1
-23.721827 -5.267086 34.032089 41.816866 0.218491 0.620072 0.039753 -0.021261 -719153.000000 0 0 1
-24.899927 -4.664986 -33.371995 41.898192 0.185202 2.492284 0.036606 -0.013886 38916.700000 0 0 1
-25.119447 -5.019486 -32.009665 40.997567 0.197227 2.466693 0.038724 -0.017459 184402.000000 0 0 1
-26.379107 -4.639186 -31.494395 41.343394 0.174086 2.436846 0.039501 -0.015322 -146845.000000 0 0 1
-26.504507 -5.110286 -30.016385 40.368147 0.190471 2.409184 0.025666 -0.013715 -547807.000000 0 0 1
-26.827567 -6.520986 -30.019475 40.784930 0.238446 2.398003 0.026249 -0.010361 616590.000000 0 0 1
-26.480127 -7.132186 -28.799345 39.767669 0.263098 2.380655 0.006642 -0.007752 -186534.000000 0 0 1
-26.760837 -8.664186 -28.869635 40.307150 0.313113 2.369197 0.008341 -0.007129 -96688.500000 0 0 1
-28.069477 -8.991686 -28.445875 40.962346 0.310008 2.338437 0.027294 -0.016245 -120637.000000 0 0 1
-28.311177 -10.370086 -28.683535 41.614981 0.351112 2.331263 0.023425 -0.009526 -621575.000000 0 0 1
-29.625107 -10.913186 -28.202125 42.333255 0.352951 2.299889 0.053725 -0.012858 -541487.000000 0 0 1
-29.653977 -11.226686 -26.835665 41.539737 0.361914 2.273160 0.066246 -0.018048 474818.000000 0 0 1
-31.005007 -11.629386 -26.578425 42.461344 0.358842 2.247138 0.064867 -0.014309 711374.000000 0 0 1
-31.102757 -12.318986 -25.201775 41.883987 0.377117 2.216430 0.076353 -0.018206 -162083.000000 0 0 1
-30.740407 -11.502986 -24.168215 40.760200 0.358067 2.205497 0.087101 -0.019621 101778.000000 0 0 1
-30.686157 -12.162586 -22.934915 40.194266 0.377359 2.178035 0.094492 -0.024702 -263965.000000 0 0 1
-30.155847 -11.305986 -21.744715 38.859144 0.358699 2.164673 0.098145 -0.027870 -15594.100000 0 0 1
-29.964327 -11.964586 -20.457015 38.203425 0.379898 2.135868 0.096579 -0.024458 912565.000000 0 0 1
-28.930317 -12.971786 -20.342415 37.670205 0.421506 2.141249 0.092397 -0.032487 312947.000000 0 0 1
-28.416147 -13.246686 -18.873315 36.594455 0.436217 2.112670 0.100558 -0.039159 43776.600000 0 0 1
-27.997917 -12.182786 -18.097915 35.494199 0.410421 2.105846 0.089680 -0.037127 77459.400000 0 0 1
-27.854217 -12.623786 -16.768115 34.876741 0.425519 2.072343 0.090628 -0.031237 -52623.900000 0 0 1
-27.442377 -11.310186 -15.937215 33.689749 0.390931 2.063555 0.083936 -0.026503 825814.000000 0 0 1
-26.193047 -10.717186 -16.367415 32.692905 0.388379 2.095136 0.084594 -0.032803 1025180.000000 0 0 1
-26.016507 -9.424286 -15.867915 31.897751 0.347539 2.091467 0.078203 -0.028922 761734.000000 0 0 1
-24.526327 -8.891586 -16.073315 30.642331 0.347796 2.122978 0.082064 -0.031159 1163240.000000 0 0 1
-23.716427 -9.254086 -14.970115 29.533225 0.372027 2.102370 0.056147 -0.031142 33028.100000 0 0 1
-22.512127 -8.501486 -15.084515 28.400946 0.361083 2.130727 0.086166 -0.058105 829109.000000 0 0 1
-21.447427 -8.959886 -13.987015 27.127629 0.395723 2.112504 0.068703 -0.031082 597764.000000 0 0 1
-20.662927 -10.126986 -14.297015 27.090903 0.455700 2.126737 0.060103 -0.021983 492305.000000 0 0 1
-19.631727 -10.272186 -13.349515 25.867587 0.482070 2.113054 0.078908 -0.023868 77616.700000 0 0 1
-18.629127 -11.417786 -13.688815 25.783597 0.549851 2.130472 0.082388 -0.018681 1023070.000000 0 0 1
-17.647727 -11.173586 -14.760415 25.576574 0.564436 2.185978 0.103208 -0.030065 1140030.000000 0 0 1
-18.198927 -11.162586 -16.088115 26.732596 0.550189 2.216570 0.084577 -0.039586 -134292.000000 0 0 1
-17.215627 -10.644786 -17.151415 26.530366 0.553782 2.273761 0.081017 -0.038371 -72176.400000 0 0 1
-17.845327 -10.860086 -18.422615 27.853005 0.546695 2.293511 0.072738 -0.025167 614813.000000 0 0 1
-17.326727 -10.091386 -19.491715 27.963878 0.527391 2.342046 0.072965 -0.029762 82626.200000 0 0 1
-18.081627 -10.503586 -20.828015 29.514010 0.526256 2.354206 0.077252 -0.024972 766208.000000 0 0 1
-19.440427 -10.081986 -20.898115 30.270577 0.478424 2.332807 0.083883 -0.038924 481941.000000 0 0 1
-20.139527 -10.920986 -21.797815 31.622986 0.496886 2.331323 0.073631 -0.024124 530928.000000 0 0 1
-21.552027 -10.408986 -22.210115 32.651586 0.449931 2.318853 0.056777 -0.026415 511773.000000 0 0 1
-21.395427 -9.343586 -23.117315 32.855398 0.411747 2.351258 0.064794 -0.024073 760907.000000 0 0 1
-22.636827 -9.009086 -23.728315 34.009153 0.378767 2.342984 0.039216 -0.030787 321340.000000 0 0 1
-22.353027 -8.082286 -24.896215 34.420963 0.346949 2.379346 0.045073 -0.036009 156093.000000 0 0 1
-21.493227 -8.700786 -25.844295 34.721608 0.384651 2.410326 0.061770 -0.033899 287586.000000 0 0 1
-21.185527 -7.808086 -26.928845 35.141933 0.353111 2.443840 0.046893 -0.041115 -1312.110000 0 0 1
-19.892627 -8.273286 -27.649355 35.052114 0.394135 2.479662 0.088576 -0.043370 50497.200000 0 0 1
-19.994927 -9.380286 -28.439965 36.008589 0.438651 2.481296 0.090583 -0.035794 303803.000000 0 0 1
-18.714427 -9.759086 -28.914065 35.797943 0.480679 2.511040 0.060793 -0.025674 111548.000000 0 0 1
-18.671927 -11.055386 -29.759745 36.830759 0.534580 2.511569 0.066071 -0.022300 -193254.000000 0 0 1
-19.223427 -10.807886 -31.056235 38.089897 0.512180 2.524113 0.061382 -0.018795 489576.000000 0 0 1
-18.964527 -11.963786 -31.886545 38.981242 0.562796 2.528717 0.050263 -0.010620 -97958.700000 0 0 1
-19.760327 -11.934486 -33.199055 40.436119 0.543328 2.534000 0.047329 -0.013511 -54722.800000 0 0 1
-19.340427 -10.893186 -34.009325 40.612163 0.512947 2.563337 0.049893 -0.011527 -185125.000000 0 0 1
-19.654327 -11.015086 32.808251 39.799573 0.510824 0.601767 0.049731 -0.020294 26839.400000 0 0 1
-18.970427 -12.084086 31.860256 38.999719 0.567179 0.614719 0.052678 -0.013500 1211920.000000 0 0 1
-17.564327 -11.872186 31.526126 37.991459 0.594386 0.592009 0.050190 -0.016458 1790760.000000 0 0 1
-17.094827 -12.677886 30.430906 37.134915 0.638117 0.610313 0.051251 -0.016062 107575.000000 0 0 1
-17.032927 -14.210886 30.679886 37.859282 0.695319 0.626019 0.053803 -0.011563 -456823.000000 0 0 1
-18.327727 -14.791786 30.527596 38.556927 0.679038 0.657121 0.052923 -0.013012 404289.000000 0 0 1
-18.403127 -16.169186 30.624466 39.217031 0.720871 0.674696 0.062405 -0.017177 -80123.900000 0 0 1
-18.691127 -16.570586 32.103236 40.676286 0.725333 0.661231 0.040098 -0.019980 -147775.000000 0 0 1
-17.629727 -16.193286 32.957925 40.733949 0.742954 0.628174 0.057186 -0.017724 112316.000000 0 0 1
-18.080227 -16.017886 -33.881295 41.610208 0.724989 2.522240 0.047101 -0.016959 -453243.000000 0 0 1
-16.980827 -15.593986 -32.954425 40.218342 0.742850 2.531139 0.047200 -0.017950 -521734.000000 0 0 1
-16.502327 -14.298386 -33.244695 39.774117 0.713965 2.560453 0.046977 -0.016385 648568.000000 0 0 1
-15.331127 -13.883486 -32.491155 38.515838 0.735887 2.574710 0.049928 -0.018361 649578.000000 0 0 1
-15.532327 -13.265586 -31.081485 37.192575 0.706848 2.560185 0.066844 -0.020457 -331861.000000 0 0 1
-15.957727 -14.271686 -30.188605 37.009214 0.729681 2.524743 0.049437 -0.021253 -128909.000000 0 0 1
-16.304927 -13.866486 -28.892825 35.957272 0.704754 2.504002 0.050107 -0.020628 -154948.000000 0 0 1
-16.412727 -15.169186 -28.053405 35.867469 0.746043 2.468890 0.031040 -0.002974 553866.000000 0 0 1
-15.221327 -15.914886 -27.773475 35.444863 0.807669 2.471185 0.046413 -0.014893 237994.000000 0 0 1
-14.630327 -16.596786 -28.862325 36.366655 0.848288 2.487578 0.053905 -0.017873 36622.300000 0 0 1
-13.169727 -16.983686 -28.474025 35.674324 0.911215 2.495041 0.051465 -0.011758 455149.000000 0 0 1
-12.251327 -15.893086 -28.375555 34.754242 0.914079 2.526055 0.044641 -0.022055 273428.000000 0 0 1
-11.067427 -16.400286 -27.752845 34.083394 0.977163 2.522255 0.068244 -0.031337 539346.000000 0 0 1
-9.778927 -15.586686 -27.982355 33.490064 1.010480 2.559915 0.057455 -0.030849 -140666.000000 0 0 1
-9.737527 -14.296486 -27.398215 32.401715 0.972859 2.578445 0.059647 -0.033880 65781.100000 0 0 1
-8.432427 -13.919486 -26.968405 31.498457 1.026123 2.598630 0.076865 -0.035348 299604.000000 0 0 1
-8.188527 -12.396986 -27.217225 31.008298 0.987057 2.641921 0.063602 -0.041010 -120563.000000 0 0 1
-7.760127 -12.159386 -28.564675 32.000170 1.002761 2.673968 0.079676 -0.040592 216984.000000 0 0 1
-7.397627 -10.818186 -28.705335 31.555575 0.971016 2.713299 0.066837 -0.034262 -468675.000000 0 0 1
-6.511727 -10.605286 -29.911845 32.397425 1.020141 2.747326 0.067257 -0.025968 -550399.000000 0 0 1
-5.137227 -10.888486 -29.659735 32.010156 1.129959 2.755992 0.075178 -0.026803 724008.000000 0 0 1
-4.305827 -10.476886 -30.776455 32.794748 1.180857 2.788931 0.065263 -0.023777 328981.000000 0 0 1
-4.153927 -8.969486 -31.118675 32.650861 1.137087 2.834028 0.041811 -0.022673 -1256970.000000 0 0 1
-3.112627 -8.701586 -31.984665 33.293015 1.227271 2.860316 0.038563 -0.022132 -531130.000000 0 0 1
-3.144727 -7.364186 -32.311345 33.288790 1.167208 2.898663 0.021812 -0.019265 206181.000000 0 0 1
-1.814227 -6.797186 -32.880945 33.625135 1.309968 2.930813 0.043398 -0.026346 214327.000000 0 0 1
-1.309327 -7.323986 -34.089783 34.892240 1.393893 2.926712 0.045573 -0.025309 621199.000000 0 0 1
-0.144627 -6.631086 33.594541 34.243034 1.548989 0.194926 0.064032 -0.022760 664376.000000 0 0 1
0.474373 -7.170486 32.347074 33.135692 -1.504736 0.218608 0.056952 -0.017968 -312793.000000 0 0 1
-0.315927 -6.944786 31.196896 31.962105 1.525336 0.219259 0.051737 -0.013439 224834.000000 0 0 1
0.197173 -7.644286 30.065976 31.023167 -1.545009 0.249054 0.049715 -0.020401 76669.700000 0 0 1
-0.360227 -7.079686 28.759816 29.620579 1.519958 0.241667 0.043585 -0.015987 149839.000000 0 0 1
0.440673 -5.939786 28.389396 29.007465 -1.496742 0.206801 0.063116 -0.010935 451506.000000 0 0 1
0.249473 -5.448086 27.040636 27.585138 -1.525037 0.199019 0.067742 -0.009058 190336.000000 0 0 1
-1.063427 -4.627786 26.815486 27.232656 1.344926 0.175260 0.056538 -0.002804 226896.000000 0 0 1
-2.234927 -5.354886 27.040636 27.656205 1.175413 0.211381 0.041271 -0.004959 -1252980.000000 0 0 1
-3.302227 -4.461086 26.961706 27.527069 0.933578 0.203023 0.033192 -0.003035 -567855.000000 0 0 1
-4.648027 -5.058286 27.390076 28.238390 0.827640 0.245735 0.024496 0.004224 -164026.000000 0 0 1
-5.036027 -6.056886 26.463656 27.611094 0.877168 0.289303 0.023696 0.001840 52028.500000 0 0 1
-6.408227 -6.411086 26.597056 28.099302 0.785621 0.328467 0.021738 0.001532 623701.000000 0 0 1
-6.643927 -7.940286 26.659356 28.599146 0.874053 0.370426 0.031052 -0.003629 190343.000000 0 0 1
-5.992827 -8.663286 27.701636 29.636921 0.965629 0.363382 0.032281 -0.009617 -32802.200000 0 0 1
-6.029627 -10.060486 27.453956 29.854471 1.030864 0.403754 0.036984 -0.016993 -40854.700000 0 0 1
-5.374727 -10.765686 28.636056 31.061413 1.107752 0.397795 0.042762 -0.018691 -66385.600000 0 0 1
-5.385627 -12.177586 28.515936 31.471529 1.154400 0.436855 0.059049 -0.018753 326864.000000 0 0 1
-4.707027 -12.703286 29.681926 32.627385 1.215945 0.428177 0.062533 -0.020128 137211.000000 0 0 1
-4.790027 -14.278986 29.792346 33.382895 1.247133 0.468064 0.069929 -0.028361 350784.000000 0 0 1
-6.102627 -14.771286 30.016726 34.006422 1.179013 0.489266 0.088161 -0.028303 91632.300000 0 0 1
-5.984427 -16.159186 30.346366 34.897486 1.216116 0.516433 0.082833 -0.033437 178807.000000 0 0 1
-6.322827 -16.458486 31.855576 36.409306 1.204012 0.505506 0.102396 -0.034313 -392184.000000 0 0 1
-7.672427 -16.438886 32.205798 36.963719 1.134122 0.512989 0.100956 -0.025412 -580849.000000 0 0 1
-7.881227 -16.676786 33.575846 38.308828 1.129319 0.502353 0.113374 -0.024498 223708.000000 0 0 1
-9.338927 -17.160586 33.811272 39.050011 1.072411 0.523959 0.110252 -0.022444 261159.000000 0 0 1
-9.770227 -18.429986 33.345986 39.332893 1.083339 0.558995 0.107876 -0.027893 302373.000000 0 0 1
-10.287027 -18.344686 32.031186 38.319020 1.059727 0.581011 0.098294 -0.027584 -579218.000000 0 0 1
-10.950527 -19.571786 31.452776 38.629599 1.060684 0.619422 0.098796 -0.029382 -681844.000000 0 0 1
-12.211727 -19.800486 32.007716 39.568667 1.018160 0.628491 0.091247 -0.025158 -398200.000000 0 0 1
-12.591727 -21.146786 32.160736 40.497544 1.033734 0.653204 0.086383 -0.024247 -369739.000000 0 0 1
-11.982727 -21.968286 33.279516 41.637933 1.071449 0.644734 0.094809 -0.022319 429802.000000 0 0 1
-10.571527 -22.233186 33.221862 41.349291 1.126953 0.637738 0.088357 -0.026840 783427.000000 0 0 1
-10.091227 -23.173886 -34.007205 42.371592 1.160102 2.502428 0.066195 -0.028256 66224.600000 0 0 1
-10.619827 -24.600086 -34.087393 43.357760 1.163265 2.475414 0.085515 -0.025584 -575133.000000 0 0 1
-9.867327 -25.354636 33.229344 42.946606 1.199659 0.686079 0.083677 -0.021754 -235034.000000 0 0 1
-9.901327 -26.690976 33.566781 44.013330 1.215571 0.703396 0.076036 -0.021163 -562923.000000 0 0 1
-9.128127 -27.599276 32.570618 43.656476 1.251383 0.728662 0.067803 -0.021136 798116.000000 0 0 1
-7.718327 -27.436656 32.416219 43.164266 1.296569 0.721226 0.053717 -0.027541 593300.000000 0 0 1
-6.925827 -27.907966 33.501277 44.149260 1.327544 0.709299 0.059671 -0.030493 -229562.000000 0 0 1
-5.415427 -27.652346 33.304591 43.625392 1.377404 0.702201 0.062472 -0.035795 192148.000000 0 0 1
-4.976027 -26.437966 33.916039 43.290005 1.384758 0.670580 0.073775 -0.029851 81287.400000 0 0 1
-4.803927 -25.420166 32.963293 41.902759 1.384018 0.665413 0.103738 -0.023840 -134148.000000 0 0 1
-4.495727 -24.141186 33.731620 41.723262 1.386679 0.629264 0.102049 -0.033548 739127.000000 0 0 1
-3.123427 -24.047586 -34.043810 41.797406 1.441634 2.522656 0.102001 -0.035602 661441.000000 0 0 1
-2.789527 -22.761686 -33.564435 40.650303 1.448851 2.542216 0.100001 -0.035278 64909.700000 0 0 1
34.533575 -15.112586 2.351785 37.768889 -0.412511 1.508488 0.113346 -0.031285 658922.000000 0 0 1
35.620905 -15.444486 3.226185 38.958816 -0.409115 1.487891 0.098354 -0.032717 989271.000000 0 0 1
34.971235 -15.908486 4.406085 38.671447 -0.426923 1.456612 0.099051 -0.031716 158816.000000 0 0 1
35.919155 -16.156486 5.550285 39.774658 -0.422689 1.430796 0.091986 -0.015049 77571.800000 0 0 1
-36.359597 -17.253586 5.473185 40.616035 0.443062 1.435631 0.098306 -0.019874 474977.000000 0 0 1
-35.610227 -17.231586 6.685685 40.121244 0.450680 1.403378 0.088169 -0.014851 -81632.700000 0 0 1
-34.393823 -18.173186 6.674285 39.468289 0.486097 1.400875 0.079651 -0.018841 -286298.000000 0 0 1
-34.587336 -19.581386 6.657685 40.299370 0.515153 1.404830 0.090412 -0.020996 -685003.000000 0 0 1
-33.447187 -20.200186 7.144385 39.721582 0.543314 1.389951 0.067776 -0.013173 -471501.000000 0 0 1
-33.615417 -21.729986 7.291785 40.686099 0.573861 1.390602 0.062822 -0.010118 -267016.000000 0 0 1
-33.618667 -22.491986 6.106585 40.907146 0.589639 1.420957 0.085868 -0.014522 169264.000000 0 0 1
-33.915957 -23.834286 6.289885 41.927652 0.612566 1.420210 0.088697 -0.018459 -206699.000000 0 0 1
-33.464057 -24.746086 5.124085 41.934093 0.636736 1.448296 0.095146 -0.020212 302289.000000 0 0 1
-34.009197 -24.387786 3.838885 42.025309 0.622106 1.479322 0.101565 -0.021285 302910.000000 0 0 1
-33.397137 -25.220536 2.875585 41.948935 0.646802 1.502193 0.107838 -0.016179 167313.000000 0 0 1
-33.838117 -24.900486 1.449185 42.037513 0.634397 1.536316 0.091936 -0.016349 -959921.000000 0 0 1
-34.883350 -25.671366 0.990485 43.322606 0.634429 1.547931 0.103882 -0.016775 -237839.000000 0 0 1
-35.609233 -25.194176 -0.144615 43.620923 0.615754 1.574112 0.090455 -0.017351 429352.000000 0 0 1
-36.573737 -23.975386 0.086285 43.731737 0.580257 1.568823 0.104982 -0.018729 189463.000000 0 0 1
35.266235 -24.370686 0.147185 42.867929 -0.604693 1.567363 0.078718 -0.009118 486361.000000 0 0 1
34.436185 -23.241286 0.469685 41.547910 -0.593687 1.559491 0.089563 -0.011093 244808.000000 0 0 1
32.930085 -23.465786 0.296385 40.436635 -0.619128 1.563467 0.054380 -0.004643 -48355.800000 0 0 1
32.529825 -23.568686 -1.052515 40.184329 -0.626997 1.596991 0.066315 -0.014955 -420616.000000 0 0 1
31.138975 -23.521286 -1.205815 39.042806 -0.646926 1.601686 0.054961 -0.006229 -53523.200000 0 0 1
30.762515 -23.234286 -2.719615 38.646613 -0.646871 1.641226 0.044342 0.001542 92260.900000 0 0 1
31.065455 -21.910186 -3.205915 38.149661 -0.614268 1.654931 0.073062 -0.021594 65214.200000 0 0 1
30.779305 -21.752786 -4.566715 37.965830 -0.615231 1.691373 0.072962 -0.040387 117994.000000 0 0 1
30.960125 -20.260986 -4.957515 37.331138 -0.579478 1.703988 0.080997 -0.040232 729222.000000 0 0 1
29.911605 -19.508186 -4.321515 35.971502 -0.577916 1.691224 0.096967 -0.037961 509660.000000 0 0 1
29.948715 -18.101286 -4.569915 35.291164 -0.543655 1.700653 0.096589 -0.035445 77096.300000 0 0 1
29.115185 -17.518386 -3.385515 34.147468 -0.541663 1.670103 0.115408 -0.032197 299537.000000 0 0 1
29.686515 -17.459386 -2.021515 34.499360 -0.531642 1.629426 0.108870 -0.027671 146454.000000 0 0 1
30.093885 -18.629286 -1.385515 35.420501 -0.554301 1.609922 0.091920 -0.015678 -397065.000000 0 0 1
29.019015 -19.685386 -1.129415 35.084088 -0.596055 1.602994 0.077901 -0.010947 146070.000000 0 0 1
28.128185 -19.401486 -0.008615 34.170346 -0.603815 1.571048 0.073582 0.001110 555747.000000 0 0 1
27.467285 -20.570686 0.396185 34.318535 -0.642807 1.559252 0.057791 -0.001986 -156716.000000 0 0 1
26.299685 -20.246086 1.397685 33.219437 -0.656067 1.528710 0.046878 0.002432 -907603.000000 0 0 1
25.555985 -21.385886 1.645885 33.364254 -0.696795 1.521446 0.033085 0.011564 -154959.000000 0 0 1
24.684585 -21.240986 2.785485 32.684357 -0.710556 1.485469 0.029905 0.004068 722661.000000 0 0 1
23.322685 -20.577086 2.369685 31.192620 -0.722937 1.494754 0.022978 0.002593 -580189.000000 0 0 1
23.284285 -19.205686 1.986085 30.248320 -0.689702 1.505090 0.049456 -0.010719 59788.400000 0 0 1
23.451085 -18.262586 3.018785 29.876220 -0.661650 1.469581 0.057550 -0.009498 -320793.000000 0 0 1
23.329285 -16.825286 2.574985 28.878649 -0.624819 1.481512 0.057252 -0.001599 -920721.000000 0 0 1
22.023185 -16.443186 2.364185 27.586019 -0.641341 1.484989 0.059760 0.002093 -1060240.000000 0 0 1
21.972985 -15.195386 1.698085 26.769298 -0.605031 1.507320 0.078679 -0.017533 432436.000000 0 0 1
20.521685 -14.865986 1.247685 25.371122 -0.626917 1.521599 0.070855 -0.013721 155377.000000 0 0 1
19.639685 -14.531086 2.288085 24.537829 -0.636995 1.477413 0.074604 -0.017297 562121.000000 0 1 0
18.689585 -13.493086 1.967985 23.135188 -0.625311 1.485629 0.089702 -0.028322 370905.000000 0 1 0
19.226685 -12.083386 2.247385 22.819386 -0.561090 1.472151 0.102530 -0.025352 -450786.000000 0 1 0
20.329385 -11.644586 1.506885 23.476605 -0.520176 1.506566 0.107124 -0.022949 208376.000000 0 1 0
20.640785 -10.275886 1.862985 23.132370 -0.461921 1.490173 0.112711 -0.027005 119880.000000 0 1 0
21.601785 -9.630386 0.845985 23.666372 -0.419368 1.535042 0.128159 -0.023972 371651.000000 0 1 0
20.839585 -9.335186 -0.323515 22.837221 -0.421152 1.584963 0.117968 -0.022059 1050050.000000 0 1 0
21.686585 -8.707386 -1.274515 23.404080 -0.381808 1.625280 0.110280 -0.014806 -179047.000000 0 1 0
20.936985 -8.162386 -2.528015 22.613553 -0.371730 1.682823 0.118699 -0.015654 -155091.000000 0 1 0
21.628285 -7.717586 -3.709915 23.261714 -0.342745 1.730966 0.111626 -0.021694 249839.000000 0 1 0
22.583285 -8.557086 -4.328115 24.534895 -0.362196 1.748131 0.100835 -0.020357 -494347.000000 0 1 0
22.043485 -9.727686 -5.148715 24.638433 -0.415592 1.781319 0.080373 -0.019272 -117107.000000 0 1 0
21.295785 -9.438986 -6.328515 24.138248 -0.417212 1.836075 0.068068 -0.024428 890904.000000 0 1 0
19.926485 -9.053586 -6.198915 22.747720 -0.426465 1.846794 0.064907 -0.018575 190269.000000 0 1 0
19.166985 -9.005886 -7.523315 22.473976 -0.439250 1.912143 0.063788 -0.016345 -472301.000000 0 1 0
19.078385 -10.259386 -8.187315 23.157546 -0.493389 1.932158 0.055884 -0.011856 375685.000000 0 1 0
20.293385 -10.794786 -8.678115 24.569464 -0.488869 1.931794 0.048423 -0.006890 -257452.000000 0 1 0
20.152285 -12.179786 -9.389415 25.350008 -0.543639 1.950226 0.029145 -0.010889 -4454.840000 0 0 1
19.240485 -12.195486 -10.487715 25.078244 -0.564935 2.002259 0.064733 -0.013583 235611.000000 0 0 1
19.226585 -13.452186 -11.132715 25.972297 -0.610502 2.013781 0.068966 -0.011832 -119439.000000 0 0 1
18.053285 -13.738186 -12.091615 25.707314 -0.650491 2.060492 0.067625 -0.020656 -115890.000000 0 0 1
17.867085 -15.111286 -12.269615 26.422096 -0.702028 2.053719 0.064536 -0.018037 503699.000000 0 0 1
16.841185 -15.383286 -13.228115 26.367670 -0.740187 2.096335 0.073437 -0.023990 85545.200000 0 0 1
16.922585 -16.902386 -13.518415 27.473844 -0.784801 2.085236 0.062100 -0.017909 -154320.000000 0 0 1
16.291285 -17.676586 -12.468215 27.079957 -0.826158 2.049267 0.058013 -0.010424 382547.000000 0 0 1
16.239885 -19.102386 -12.684915 28.098792 -0.866215 2.039175 0.056072 -0.008242 -830958.000000 0 0 1
15.321885 -19.858786 -11.766615 27.705320 -0.913650 2.009433 0.054367 -0.009737 -384774.000000 0 0 1
13.977285 -19.747186 -12.145715 27.070912 -0.954847 2.036065 0.056576 -0.010243 -294603.000000 0 0 1
13.035885 -20.577386 -11.506015 26.939775 -1.006104 2.012081 0.051686 -0.010619 -115317.000000 0 0 1
11.582385 -20.341486 -11.904115 26.260915 -1.053183 2.041262 0.038757 -0.015439 -245552.000000 0 0 1
10.701685 -21.041086 -11.030115 26.056032 -1.100285 2.007906 0.039657 -0.015598 -524965.000000 0 0 1
9.384985 -20.819886 -11.439815 25.542415 -1.147302 2.035184 0.021002 -0.013506 -235569.000000 0 0 1
8.302885 -21.541786 -10.599115 25.403301 -1.202912 2.001196 0.019415 -0.006042 -78319.500000 0 0 1
8.478085 -22.965086 -10.559115 26.660233 -1.217144 1.978021 0.020009 -0.008876 -233472.000000 0 0 1
7.573385 -23.649286 -9.735615 26.672591 -1.260878 1.944434 0.025072 -0.014417 -142979.000000 0 0 1
7.807885 -25.184106 -9.706415 28.096561 -1.270161 1.923532 0.028795 -0.015172 -16566.000000 0 0 1
8.894785 -25.511776 -8.868115 28.436093 -1.235321 1.887948 0.008082 -0.007330 -488280.000000 0 0 1
9.361585 -26.729396 -9.332715 29.819448 -1.233912 1.889119 0.014981 -0.008361 -342109.000000 0 0 1
10.850085 -26.976656 -9.064715 30.457074 -1.188392 1.872998 0.020215 -0.002831 -153575.000000 0 0 1
11.096785 -27.305876 -7.692415 30.461825 -1.184795 1.826087 0.025143 -0.006854 130672.000000 0 0 1
12.495185 -27.498326 -7.522015 31.126649 -1.144291 1.814871 0.041334 -0.003546 85803.700000 0 0 1
12.742585 -28.068386 -6.075415 31.418441 -1.144635 1.765393 0.039503 -0.007722 47801.600000 0 0 1
12.183285 -29.327766 -5.704615 32.265972 -1.177070 1.748530 0.041631 -0.013463 -514409.000000 0 0 1
10.793485 -29.353796 -5.570615 31.767537 -1.218438 1.747063 0.041696 -0.011660 -460119.000000 0 0 1
10.175185 -30.380916 -4.616115 32.370403 -1.247618 1.713887 0.053132 -0.020727 -42483.800000 0 0 1
10.502585 -31.716536 -5.008115 33.783490 -1.251022 1.719586 0.068581 -0.024354 -545835.000000 0 0 1
9.791585 -32.267226 -6.034315 34.255831 -1.276175 1.747875 0.067523 -0.024534 -486631.000000 0 0 1
10.069285 -33.764116 -6.076015 35.753657 -1.280969 1.741566 0.076173 -0.028831 -114704.000000 0 0 1
9.680385 33.714906 -4.924015 35.421048 1.291193 1.710262 0.072196 -0.031548 -54036.200000 0 0 1
10.075485 32.394173 -5.061315 34.300360 1.269253 1.718896 0.086892 -0.025333 -44529.500000 0 0 1
9.482285 31.457817 -3.964115 33.094141 1.278029 1.690868 0.098152 -0.020928 405540.000000 0 0 1
8.075385 31.332357 -4.080215 32.612522 1.318553 1.696237 0.090948 -0.020028 -320007.000000 0 0 1
7.669085 30.317807 -3.164815 31.432472 1.323037 1.671653 0.076796 -0.018764 -185492.000000 0 0 1
6.207485 29.911527 -3.383615 30.735666 1.366173 1.681107 0.064119 -0.024002 -257759.000000 0 0 1
6.024785 29.219057 -4.626515 30.190329 1.367452 1.724647 0.074222 -0.031151 87911.200000 0 0 1
5.662685 30.084537 -5.731915 31.144826 1.384747 1.755892 0.065347 -0.033615 -212655.000000 0 0 1
5.564785 29.322057 -7.077915 30.673225 1.383245 1.803647 0.067606 -0.032865 766156.000000 0 0 1
4.351785 28.576817 -7.215315 29.793175 1.419674 1.815409 0.060606 -0.042020 426840.000000 0 0 1
4.677185 27.266647 -6.784015 28.484539 1.400915 1.811272 0.076778 -0.039796 -339945.000000 0 0 1
3.775885 26.121527 -7.191815 27.355322 1.427240 1.836827 0.075390 -0.031546 71635.700000 0 0 1
2.402985 26.115207 -6.793315 27.091096 1.479040 1.824260 0.066197 -0.033104 812993.000000 0 0 1
1.469285 26.685727 -7.742315 27.824993 1.515793 1.852768 0.059253 -0.035506 456046.000000 0 0 1
1.201885 25.819377 -8.994415 27.367576 1.524280 1.905673 0.091758 -0.035995 -1504050.000000 0 0 1
2.288385 25.643877 -9.829515 27.558383 1.481795 1.935508 0.078704 -0.036577 -857982.000000 0 0 1
2.193785 24.815937 -10.993515 27.230512 1.482623 1.986376 0.099139 -0.036708 -557516.000000 0 0 1
2.213485 23.303417 -10.751315 25.759261 1.476095 2.001353 0.101831 -0.032045 -67406.900000 0 0 1
0.982885 22.880007 -10.212215 25.074890 1.527864 1.990258 0.100493 -0.032574 12537.700000 0 0 1
0.739285 21.537907 -10.557815 23.997821 1.536485 2.026338 0.054809 -0.025479 -127146.000000 0 1 0
-0.329215 20.738507 -9.735615 22.912360 -1.554923 2.009655 0.060100 -0.019525 872015.000000 0 1 0
-1.672515 21.185407 -9.965715 23.471988 -1.492013 2.009293 0.069390 -0.019869 -364156.000000 0 1 0
-2.499615 20.420707 -9.206015 22.538945 -1.448996 1.991551 0.052332 -0.015404 -1728660.000000 0 1 0
-3.936415 20.790007 -9.420115 23.161569 -1.383670 1.989650 0.050588 -0.016486 -1251430.000000 0 1 0
-4.890915 19.880507 -8.964515 22.349902 -1.329571 1.983512 0.047076 -0.026490 -762532.000000 0 1 0
-5.771415 19.598407 -9.979615 22.737623 -1.284408 2.025174 0.044739 -0.016367 -577427.000000 0 1 0
-6.831915 18.515207 -9.571015 21.933815 -1.217306 2.022344 0.052716 -0.020132 13922.000000 0 1 0
-7.830815 18.932107 -8.684015 22.252156 -1.178599 1.971705 0.068982 -0.025230 -793229.000000 0 1 0
-9.067415 18.895107 -9.318115 22.936223 -1.123373 1.989156 0.083920 -0.035362 -138622.000000 0 1 0
-10.285615 18.971807 -8.328815 23.132066 -1.073998 1.939123 0.108509 -0.045506 596822.000000 0 1 0
-10.475215 17.732207 -7.566315 21.941066 -1.037210 1.922872 0.087287 -0.047151 -254471.000000 0 1 0
-11.474515 18.011307 -6.619715 22.358271 -1.003562 1.871377 0.091366 -0.042652 -391494.000000 0 1 0
-11.844015 16.950007 -5.553015 21.410731 -0.960902 1.833152 0.066908 -0.042460 213477.000000 0 1 0
-12.879915 17.360707 -4.653315 22.111980 -0.932499 1.782825 0.066457 -0.032604 363595.000000 0 1 0
-13.434715 16.245507 -4.010615 21.459102 -0.879819 1.758798 0.067232 -0.030504 -226514.000000 0 1 0
-14.630315 16.647707 -3.138315 22.383951 -0.849808 1.711464 0.049137 -0.028756 -880817.000000 0 1 0
-15.888315 16.483507 -3.673715 23.187081 -0.803782 1.729905 0.085414 -0.043986 -967060.000000 0 1 0
-16.887315 17.042107 -2.893815 24.165864 -0.789960 1.690832 0.073954 -0.037229 -92865.800000 0 1 0
-18.188315 17.326407 -3.710015 25.392585 -0.761134 1.717427 0.083044 -0.043917 196425.000000 0 0 1
-18.090115 18.234507 -4.798515 26.129968 -0.789373 1.755485 0.071489 -0.045064 -260639.000000 0 0 1
-19.400815 18.540607 -5.184615 27.331775 -0.762730 1.761645 0.060311 -0.038346 -265347.000000 0 0 1
-19.551115 19.360707 -6.446515 28.260230 -0.780505 1.800935 0.041021 -0.015684 -418504.000000 0 0 1
-19.272115 20.746607 -6.208115 28.989253 -0.822227 1.786620 0.042262 -0.021283 166979.000000 0 0 1
-19.153215 21.473007 -7.425415 29.716535 -0.842437 1.823347 0.031746 -0.006974 -19375.300000 0 0 1
-18.947715 22.993207 -7.077715 30.623479 -0.881558 1.804026 0.041826 -0.007907 -304040.000000 0 0 1
-17.666115 23.241477 -6.580215 29.925860 -0.920855 1.792492 0.038241 -0.019891 -216485.000000 0 0 1
-17.756315 24.142537 -5.523815 30.473945 -0.936654 1.753067 0.043154 -0.022962 -135107.000000 0 0 1
-16.357515 24.450327 -4.979615 29.835940 -0.981173 1.738481 0.044932 -0.023287 -297394.000000 0 0 1
-16.449615 25.442377 -3.966615 30.555497 -0.996855 1.700980 0.037736 -0.027539 262075.000000 0 0 1
-15.175115 25.919447 -3.567215 30.246105 -1.041128 1.689011 0.038465 -0.028311 547182.000000 0 0 1
-14.534915 27.032367 -4.478815 31.017292 -1.077457 1.715700 0.039565 -0.021501 -229123.000000 0 0 1
-15.303815 28.179317 -4.462815 32.375876 -1.073276 1.709080 0.038827 -0.022440 -53695.300000 0 0 1
-14.542915 29.273557 -4.992115 33.065975 -1.109717 1.722350 0.032261 -0.018100 66976.100000 0 0 1
-15.207615 30.634627 -4.687315 34.521339 -1.110018 1.706997 0.032267 -0.018694 1263120.000000 0 0 1
-16.546015 30.736607 -5.246215 35.299184 -1.076968 1.719970 0.050896 -0.017007 1018220.000000 0 0 1
-17.156215 31.896757 -4.751315 36.528260 -1.077316 1.701238 0.055216 -0.018045 -518209.000000 0 0 1
12.879773 -8.664686 18.596086 24.223537 -0.592193 0.695573 0.103388 -0.018397 10293.000000 0 1 0
13.467173 -9.817886 19.171886 25.403087 -0.629940 0.715589 0.083188 -0.012790 73926.000000 0 0 1
14.203873 -10.512986 18.169686 25.345815 -0.637167 0.771492 0.091652 -0.014425 137759.000000 0 0 1
14.551273 -11.977786 18.604786 26.482918 -0.688694 0.791864 0.099470 -0.018733 452019.000000 0 0 1
15.538573 -12.059586 19.677986 27.822724 -0.660001 0.785177 0.074960 -0.011745 924546.000000 0 0 1
15.582973 -13.346886 20.316386 28.874278 -0.708258 0.790324 0.065602 -0.003916 -426932.000000 0 0 1
16.261773 -14.486986 19.543586 29.262087 -0.727743 0.839439 0.061934 -0.006859 -701608.000000 0 0 1
15.746973 -14.821886 18.283986 28.318891 -0.755145 0.868927 0.070326 -0.014768 -29690.300000 0 0 1
15.859673 -16.198186 17.906686 28.888749 -0.795957 0.902245 0.072341 -0.017652 -433370.000000 0 0 1
15.203073 -16.441286 16.540086 27.839248 -0.824507 0.934615 0.065740 -0.016187 433493.000000 0 0 1
13.804373 -16.096986 16.565686 26.909025 -0.861921 0.907626 0.086650 -0.013864 768461.000000 0 0 1
13.293573 -15.905086 15.264286 25.742752 -0.874600 0.936073 0.105453 -0.028591 -25274.700000 0 0 1
12.680173 -17.134186 14.558686 25.813222 -0.933693 0.971573 0.069306 -0.017776 202486.000000 0 0 1
13.696373 -17.945086 13.936686 26.530133 -0.918877 1.017711 0.059986 -0.011770 528713.000000 0 0 1
13.185073 -19.166886 13.543986 26.919421 -0.968231 1.043579 0.057171 -0.014916 -124154.000000 0 0 1
14.228373 -20.119186 12.883586 27.806744 -0.955252 1.089052 0.058698 -0.016949 316800.000000 0 0 1
14.882873 -20.939986 13.861286 29.191063 -0.952899 1.076006 0.034142 -0.009996 298750.000000 0 0 1
15.534573 -22.103086 13.322786 30.122516 -0.958178 1.112650 0.029601 -0.006349 -74999.800000 0 0 1
16.153573 -22.996186 14.354586 31.556562 -0.958431 1.098554 0.018540 -0.007346 373253.000000 0 0 1
17.454373 -22.630386 14.821986 32.194421 -0.913814 1.092362 0.013901 -0.007497 269807.000000 0 0 1
17.898873 -23.531786 15.840386 33.541503 -0.920530 1.078941 0.012770 -0.014405 215589.000000 0 0 1
19.331373 -23.054586 16.208786 34.175147 -0.873014 1.076644 0.012670 -0.006308 187245.000000 0 0 1
20.273373 -23.449786 15.225686 34.535831 -0.857919 1.114233 -0.000453 -0.021911 -23795.700000 0 0 1
21.519073 -22.772486 15.470186 34.942571 -0.813690 1.112153 0.006295 -0.014710 538256.000000 0 0 1
22.619373 -23.499686 14.664686 35.762051 -0.804484 1.148273 0.003176 -0.021852 -200824.000000 0 0 1
23.019973 -24.650986 15.380986 37.069731 -0.819599 1.142941 0.002400 -0.020393 -614563.000000 0 0 1
24.221573 -25.108406 14.859186 37.919811 -0.803374 1.168146 0.012049 -0.027402 -616457.000000 0 0 1
24.751373 -26.321896 15.652286 39.375966 -0.816139 1.161996 0.012734 -0.026762 -94902.000000 0 0 1
25.223673 -26.030296 16.989986 40.030858 -0.801135 1.132473 0.013471 -0.018909 234247.000000 0 0 1
25.764573 -27.164126 17.659886 41.395344 -0.811834 1.130049 0.019998 -0.011836 94315.800000 0 0 1
26.000973 -26.872306 19.204186 42.035368 -0.801876 1.096337 0.017610 -0.005934 -881763.000000 0 0 1
24.885973 -26.575226 19.924186 41.503343 -0.818212 1.070071 0.010435 0.003337 -1249060.000000 0 0 1
25.248073 -26.264776 21.231086 42.167080 -0.805132 1.043152 0.012050 0.010834 -26408.700000 0 0 1
24.077373 -26.039696 22.229786 41.856290 -0.824533 1.010901 0.013992 0.009102 -1251.810000 0 0 1
23.410073 -27.303296 22.284986 42.309834 -0.862017 1.016072 0.011735 0.005259 -300203.000000 0 0 1
22.488973 -27.372316 23.334916 42.420701 -0.883025 0.988332 0.016616 0.003305 -271152.000000 0 0 1
21.873073 -28.751466 23.405166 43.045091 -0.920442 0.995914 0.048550 -0.005712 -434619.000000 0 0 1
22.832773 -29.614546 23.935186 44.398761 -0.913991 1.001433 0.056295 -0.013755 124819.000000 0 0 1
22.795173 -30.889526 23.344706 44.930591 -0.935047 1.024446 0.074122 -0.016859 390594.000000 0 0 1
23.931173 -31.864536 23.845676 46.439918 -0.926637 1.031568 0.061700 -0.001882 634153.000000 0 0 1
23.770073 -32.072226 25.277676 47.250449 -0.932988 1.006322 0.062358 -0.011325 591295.000000 0 0 1
24.939173 -32.689046 25.831626 48.557275 -0.919077 1.009856 0.071225 -0.016631 13969.000000 0 0 1
24.798273 -33.099936 27.311916 49.563100 -0.927811 0.987170 0.070878 -0.029857 201552.000000 0 0 1
24.046573 33.975873 27.637846 49.964468 0.954885 0.984656 0.062891 -0.017255 57710.400000 0 0 1
22.658673 33.975674 27.368026 49.160662 0.982626 0.980381 0.066700 -0.014271 -200100.000000 0 0 1
21.932473 32.811304 28.077776 48.435282 0.981565 0.952440 0.098259 -0.025366 -162018.000000 0 0 1
21.467273 33.110839 29.380356 49.197325 0.995585 0.930798 0.073533 -0.031800 42154.200000 0 0 1
20.893573 31.960707 29.921946 48.511349 0.991806 0.906122 0.085371 -0.037121 -127400.000000 0 0 1
20.664973 32.091897 31.425516 49.441824 0.998699 0.882003 0.069368 -0.039481 148387.000000 0 0 1
21.881573 32.362412 32.107026 50.566689 0.976263 0.882860 0.056811 -0.030559 300830.000000 0 0 1
21.641373 32.703268 33.439646 51.537003 0.986206 0.864728 0.037606 -0.026874 -1005050.000000 0 0 1
22.841773 32.509537 -33.900705 52.229057 0.958316 2.277167 0.012804 -0.023312 -1045580.000000 0 0 1
23.227273 31.141187 -33.793845 51.490812 0.929944 2.286712 0.017570 -0.017458 1592940.000000 0 0 1
24.574673 30.889007 -33.259965 51.616573 0.898756 2.270990 0.013625 -0.008895 1660310.000000 0 0 1
24.876173 29.397417 -33.091465 50.774769 0.868511 2.280660 0.025421 -0.005489 -147709.000000 0 0 1
25.093073 28.753207 33.863999 51.021364 0.853268 0.845012 0.037174 -0.016641 93622.800000 0 0 1
24.576473 27.464127 33.890247 50.068254 0.840830 0.827279 0.054570 -0.029973 -97945.500000 0 0 1
24.893373 26.760887 32.520936 48.922759 0.821537 0.843650 0.086299 -0.035430 -398581.000000 0 0 1
26.229973 26.382897 32.395826 49.331108 0.788305 0.854359 0.074409 -0.034708 -211868.000000 0 0 1
26.399873 25.817527 31.113376 48.286024 0.774246 0.870616 0.111358 -0.050104 605375.000000 0 0 1
27.745373 24.998487 31.146766 48.629734 0.733365 0.875663 0.092065 -0.035150 433999.000000 0 0 1
27.684373 24.018637 32.168816 48.766301 0.714617 0.850440 0.112233 -0.039530 -21330.500000 0 0 1
28.771973 24.078417 33.044058 49.995063 0.696822 0.848717 0.111969 -0.045959 -1118450.000000 0 0 1
28.512273 23.195367 -33.907555 50.006970 0.682932 2.315912 0.089476 -0.047455 -314665.000000 0 0 1
27.647873 23.702687 -32.886275 49.068619 0.708720 2.305288 0.093715 -0.041020 1348490.000000 0 0 1
26.254073 23.817857 -33.248525 48.600731 0.736782 2.324187 0.097348 -0.039111 492612.000000 0 0 1
25.425873 22.540707 -33.429075 47.666147 0.725321 2.348040 0.092607 -0.045795 -846375.000000 0 0 1
25.107273 21.960807 -32.228905 46.382696 0.718648 2.339004 0.077845 -0.055167 -55940.000000 0 0 1
24.538873 20.703807 -32.511765 45.692655 0.700834 2.362472 0.075368 -0.036716 -83179.300000 0 0 1
24.568173 19.760307 -31.267665 44.404186 0.677360 2.352036 0.069324 -0.040825 -477716.000000 0 0 1
23.625473 20.075907 -30.300875 43.351448 0.704353 2.344737 0.054494 -0.030373 -291537.000000 0 0 1
23.584373 19.111807 -29.269075 42.168265 0.681026 2.337968 0.063625 -0.023889 483839.000000 0 0 1
22.530473 19.406507 -28.120415 40.926672 0.711044 2.328276 0.081820 -0.025730 282386.000000 0 0 1
22.444773 18.586807 -26.980355 39.713685 0.691649 2.317702 0.081650 -0.013036 783661.000000 0 0 1
23.594973 18.703107 -26.087035 39.837951 0.670257 2.284752 0.064030 -0.002794 764875.000000 0 0 1
23.637773 17.931707 -24.780515 38.657009 0.648985 2.266643 0.072874 0.001540 -203818.000000 0 0 1
23.877573 16.534807 -24.875915 38.240678 0.605663 2.279051 0.064416 -0.020904 228052.000000 0 0 1
23.743973 15.937707 -23.589815 37.071096 0.591156 2.260540 0.065276 -0.009750 -449571.000000 0 0 1
24.699673 14.777507 -23.376015 37.079464 0.539159 2.252904 0.095003 -0.023699 -146577.000000 0 0 1
26.057573 15.164407 -23.201815 38.043141 0.527047 2.226708 0.125009 -0.033456 283244.000000 0 0 1
26.980873 14.099607 -23.125115 38.230058 0.481546 2.220428 0.123594 -0.037020 12760.800000 0 0 1
27.054673 13.220407 -21.828515 37.191646 0.454531 2.198046 0.114033 -0.028946 -668464.000000 0 0 1
25.825773 12.556207 -21.747015 36.021682 0.452538 2.218956 0.097155 -0.022132 -265901.000000 0 0 1
25.458273 12.201507 -20.402815 34.832101 0.446930 2.196598 0.078257 -0.038115 -1034650.000000 0 0 1
24.035073 11.702007 -20.357115 33.601099 0.453090 2.221626 0.071635 -0.025113 -711788.000000 0 0 1
23.139573 12.809407 -20.451815 33.433478 0.505581 2.229025 0.099838 -0.025448 328437.000000 0 0 1
21.848673 12.353307 -20.887815 32.653783 0.514592 2.264872 0.080596 -0.028699 629683.000000 0 0 1
20.784773 13.470907 -20.818215 32.355373 0.575048 2.269759 0.085886 -0.026102 -625380.000000 0 0 1
21.060573 14.505507 -21.720915 33.552282 0.603137 2.274932 0.066373 -0.011497 272246.000000 0 0 1
20.161573 15.605007 -21.764115 33.521366 0.658683 2.277409 0.057237 -0.008757 -16838.700000 0 0 1
18.832873 15.405107 -22.514115 33.149356 0.685615 2.317430 0.055576 0.006342 65362.100000 0 0 1
17.855173 14.614907 -21.839115 31.770264 0.685935 2.328710 0.061455 -0.002072 167449.000000 0 0 1
16.737573 14.375407 -22.647015 31.617811 0.709621 2.369244 0.080266 -0.010775 -117934.000000 0 0 1
15.403773 14.024807 -21.941415 30.255530 0.738574 2.382126 0.046777 -0.008798 110759.000000 0 0 1
14.420073 13.769107 -22.917915 30.376926 0.762309 2.425614 0.053888 -0.003726 -1091500.000000 0 0 1
13.189573 13.457607 -22.349515 29.233078 0.795456 2.441106 0.068714 -0.011282 -261074.000000 0 0 1
12.089673 13.717507 -23.444815 29.731961 0.848391 2.479226 0.053426 -0.005126 45114.000000 0 0 1
11.776073 15.131007 -23.481515 30.315092 0.909444 2.456850 0.057234 0.001920 -3048.240000 0 0 1
10.954573 15.624707 -24.510115 31.062515 0.959329 2.480070 0.062178 -0.002933 -964863.000000 0 0 1
10.900773 17.172707 -24.507815 31.849046 1.005200 2.448853 0.058051 0.004944 443550.000000 0 0 1
12.153873 17.860507 -24.559015 32.708707 0.973286 2.420130 0.066635 0.001758 568507.000000 0 0 1
13.210373 17.520307 -25.451345 33.604257 0.924738 2.430095 0.061538 -0.006397 -136443.000000 0 0 1
12.940873 17.609407 -26.985195 34.724028 0.937040 2.460894 0.069788 -0.015993 -280306.000000 0 0 1
14.029173 17.370107 -27.865525 35.707503 0.891401 2.466074 0.064737 -0.018211 64988.800000 0 0 1
13.565973 17.283007 -29.189955 36.534797 0.905311 2.496365 0.065664 -0.025424 -360714.000000 0 0 1
14.640673 17.552107 -30.221425 37.891428 0.875590 2.494068 0.077112 -0.032747 -694013.000000 0 0 1
15.783173 16.773707 -30.208195 37.986851 0.815813 2.490179 0.061325 -0.025667 -489394.000000 0 0 1
16.495573 16.780707 -31.426255 39.259464 0.793967 2.498885 0.063645 -0.024349 -955338.000000 0 0 1
17.861173 16.180007 -31.358745 39.549779 0.736052 2.486338 0.056658 -0.017646 -707186.000000 0 0 1
18.974473 17.029907 -31.010665 40.146104 0.731441 2.453479 0.063626 -0.021888 496379.000000 0 0 1
20.062873 16.162007 -30.731535 40.101828 0.678127 2.443917 0.063036 -0.014966 -271859.000000 0 0 1
21.345773 16.740407 -31.341685 41.450989 0.665063 2.428151 0.056647 -0.016769 -617874.000000 0 0 1
21.301573 16.815807 -32.762615 42.543123 0.668254 2.449800 0.056758 -0.018310 288232.000000 0 0 1
22.512673 17.350107 -33.278265 43.764021 0.656607 2.434729 0.072520 -0.022519 136887.000000 0 0 1
22.395873 17.994507 33.520499 44.147494 0.676856 0.708584 0.053165 -0.007957 -34407.600000 0 0 1
23.524373 18.755807 33.114756 44.741071 0.673088 0.737515 0.071747 -0.014628 289383.000000 0 0 1
23.333573 19.355607 31.859816 43.978892 0.692482 0.760583 0.090470 -0.014962 198070.000000 0 0 1
24.473773 20.388807 31.658336 44.910124 0.694593 0.788477 0.095510 -0.018508 995950.000000 0 0 1
25.782173 19.884307 31.385046 45.223082 0.656958 0.803759 0.071589 -0.022020 284247.000000 0 0 1
26.722573 20.905407 31.194716 46.089502 0.663863 0.827350 0.076852 -0.035232 96325.400000 0 0 1
28.170973 20.351607 31.188906 46.696247 0.625623 0.839399 0.084281 -0.032153 -196848.000000 0 0 1
28.660673 20.004707 32.433736 47.681964 0.609372 0.822748 0.068912 -0.032939 -1257850.000000 0 0 1
29.927173 19.524607 32.250049 48.134308 0.578063 0.836586 0.048813 -0.025456 -1063840.000000 0 0 1
30.548773 18.734107 33.444860 49.017884 0.550107 0.819893 0.043083 -0.022999 -141508.000000 0 0 1
30.766473 19.551207 -33.550745 49.542689 0.566094 2.314759 0.040927 -0.027824 -644905.000000 0 0 1
29.780473 19.555307 -32.597595 48.289645 0.581035 2.311820 0.050470 -0.033806 -972590.000000 0 0 1
30.262573 20.054907 -31.267995 47.913569 0.585249 2.281796 0.054766 -0.029863 -240179.000000 0 0 1
31.016173 19.072907 -30.598585 47.561036 0.551328 2.269668 0.050561 -0.024099 -132126.000000 0 0 1
31.669573 19.652507 -29.496885 47.531559 0.555392 2.240272 0.047580 -0.023598 174614.000000 0 0 1
33.172273 19.333207 -29.305095 48.300737 0.527686 2.222726 0.042012 -0.010201 -50.548800 0 0 1
34.016673 20.007807 -30.199145 49.693407 0.531680 2.223969 0.013881 -0.015838 -1321960.000000 0 0 1
35.277373 19.934607 -29.637585 50.202271 0.514349 2.202305 0.005466 0.005443 -1222320.000000 0 0 1
36.421173 20.678307 -30.278865 51.680788 0.516372 2.196765 0.007220 0.001367 -230692.000000 0 0 1
-36.253439 20.076507 -31.452735 52.025499 -0.505742 2.220015 0.007968 -0.002905 -52367.400000 0 0 1
-35.097239 20.783907 -31.863585 51.759782 -0.534650 2.233950 0.010146 -0.006464 3978.010000 0 0 1
-34.311839 20.034307 -32.938555 51.610311 -0.528489 2.262976 0.009163 -0.007536 -163128.000000 0 0 1
-33.611839 18.931807 -32.366125 50.356083 -0.512958 2.268873 0.026929 -0.008560 539764.000000 0 0 1
-32.784239 18.321007 -33.382605 50.248024 -0.509602 2.297429 0.039444 -0.011172 116738.000000 0 0 1
-31.973339 17.097907 -32.972275 49.008201 -0.491064 2.308771 0.030463 -0.001000 -408283.000000 0 0 1
-32.786039 15.985607 -32.876355 49.105180 -0.453657 2.304344 0.035100 -0.000943 -197754.000000 0 0 1
-32.090039 14.750707 -32.838135 48.225482 -0.430863 2.319827 0.031094 0.012415 -187187.000000 0 0 1
-32.994139 13.561007 -33.275045 48.782607 -0.389964 2.321439 0.038612 0.007187 -12367.200000 0 0 1
-32.467539 12.215107 -33.344275 48.116428 -0.359844 2.336427 0.046898 -0.005665 -374412.000000 0 0 1
-33.497639 11.300507 -33.605825 48.776477 -0.325363 2.330872 0.052015 -0.009458 -224782.000000 0 0 1
-33.102639 9.824207 -33.719625 48.262955 -0.288500 2.344326 0.047849 -0.001958 -486614.000000 0 0 1
-32.300339 9.488407 33.403311 47.424919 -0.285718 0.789302 0.041014 0.000095 -398600.000000 0 0 1
-32.419339 8.076207 33.111584 47.038449 -0.244147 0.789887 0.060183 -0.012241 494081.000000 0 0 1
-31.311939 7.558707 32.111756 45.483364 -0.236868 0.786947 0.080672 -0.013834 349609.000000 0 0 1
-30.014139 7.530107 32.657799 44.989808 -0.245812 0.758464 0.055573 0.004712 -678554.000000 0 0 1
-29.178239 7.113207 31.636696 43.621644 -0.239120 0.759396 0.066100 -0.014171 -678917.000000 0 0 1
20.551373 -4.596686 -31.714895 38.069975 -0.220046 2.555428 0.027500 -0.041596 459278.000000 0 0 1
21.910673 -4.856086 -32.124265 39.187084 -0.218106 2.531800 0.034980 -0.038590 1225150.000000 0 0 1
22.892773 -3.904286 -31.716085 39.309446 -0.168921 2.509565 0.034701 -0.033990 258904.000000 0 0 1
22.778773 -2.481986 -32.259015 39.568634 -0.108532 2.523987 0.032190 -0.032907 -1371430.000000 0 0 1
23.640573 -1.583086 -31.674595 39.555819 -0.066865 2.499354 0.035800 -0.025894 -209504.000000 0 0 1
23.600373 -0.263686 -32.188455 39.914205 -0.011172 2.508905 0.039521 -0.023751 -367992.000000 0 0 1
24.527973 0.769414 -31.503025 39.933120 0.031359 2.479805 0.042017 -0.015833 -127619.000000 0 0 1
25.732473 1.034014 -32.194625 41.227700 0.040162 2.466898 0.044574 -0.020745 -273572.000000 0 0 1
26.605573 1.716514 -31.344075 41.149167 0.064428 2.436757 0.049161 -0.017166 243460.000000 0 0 1
28.127473 1.733214 -31.683445 42.402824 0.061542 2.414637 0.052385 -0.017912 516363.000000 0 0 1
28.593373 2.405114 -32.828645 43.601439 0.083917 2.423293 0.066270 -0.020436 -25655.600000 0 0 1
28.728973 1.386214 -33.846655 44.417019 0.048214 2.437223 0.058727 -0.021964 -287352.000000 0 0 1
29.455373 1.806314 33.053169 44.310199 0.061247 0.728837 0.055736 -0.025302 -195104.000000 0 0 1
28.704673 2.640414 32.209296 43.224631 0.091727 0.730021 0.048007 -0.016981 -13302.400000 0 0 1
28.958473 3.967314 32.406110 43.640448 0.136153 0.733896 0.052198 -0.010368 -75628.700000 0 0 1
28.147673 4.868114 31.468096 42.499777 0.171255 0.737087 0.053386 -0.013065 -778.715000 0 0 1
28.468473 6.230714 31.758676 43.103239 0.215466 0.742464 0.062576 -0.016616 479875.000000 0 0 1
27.638073 7.145714 31.019816 42.156296 0.253006 0.743907 0.054511 -0.016899 194603.000000 0 0 1
28.066373 8.592714 31.252436 42.875060 0.297096 0.754055 0.048207 -0.013477 -598940.000000 0 0 1
29.196673 8.960514 30.549586 43.197381 0.297777 0.785253 0.037739 -0.017714 -796624.000000 0 0 1
29.467573 10.298914 30.852226 43.889239 0.336229 0.791250 0.039214 -0.013649 1343470.000000 0 0 1
30.946973 10.755014 30.430016 44.714330 0.334473 0.822293 0.036814 -0.008919 208971.000000 0 0 1
31.924373 10.146914 31.240886 45.805222 0.307744 0.820251 0.052596 -0.010619 323119.000000 0 0 1
33.234373 10.240014 30.684636 46.378101 0.298885 0.847820 0.064537 -0.015242 431093.000000 0 0 1
33.858473 11.639914 30.551476 47.066723 0.331124 0.864383 0.069592 -0.016468 -1469850.000000 0 0 1
34.203873 12.120914 31.810286 48.256769 0.340565 0.851058 0.066336 -0.017375 65974.700000 0 0 1
34.617273 13.485414 31.822416 48.917053 0.371472 0.862503 0.070904 -0.017218 -141447.000000 0 0 1
33.436873 14.446414 31.967556 48.462851 0.407827 0.850470 0.066219 -0.019069 -1119240.000000 0 0 1
32.919273 14.860314 30.740146 47.428515 0.424032 0.865662 0.059631 -0.025595 -408400.000000 0 0 1
31.991373 15.884714 30.903096 47.231064 0.460869 0.857545 0.051630 -0.028688 733333.000000 0 0 1
30.537973 15.397014 31.323506 46.376695 0.466996 0.829269 0.052225 -0.019377 60307.900000 0 0 1
29.898273 14.784614 30.218396 45.007144 0.459236 0.834682 0.042928 -0.020648 -105508.000000 0 0 1
28.783673 14.071814 30.722156 44.388812 0.454714 0.806381 0.031801 -0.016894 11399.300000 0 0 1
27.799773 13.567414 29.602276 42.815848 0.454034 0.807391 0.020661 -0.015334 161453.000000 0 0 1
28.251273 12.603714 28.678796 42.183662 0.419630 0.823231 0.028069 -0.024165 491612.000000 0 0 1
27.128673 12.190114 27.889716 40.772540 0.422308 0.817521 0.021859 -0.025820 422658.000000 0 0 1
27.050673 10.649914 27.686156 40.145769 0.375066 0.809804 0.024574 -0.011637 524714.000000 0 0 1
28.093973 10.005914 26.913276 40.171060 0.342151 0.836632 0.035959 -0.012448 685411.000000 0 0 1
27.779873 8.605314 26.899266 39.614937 0.300394 0.824372 0.047319 -0.011532 67251.000000 0 0 1
28.963873 7.706914 26.504446 40.009850 0.260061 0.846714 0.059315 -0.017460 -72777.600000 0 0 1
29.335673 7.866414 25.119196 39.413655 0.261988 0.879778 0.065302 -0.014343 512985.000000 0 0 1
30.533173 7.123514 24.888026 40.030400 0.229204 0.899849 0.074949 -0.010582 292354.000000 0 0 1
31.160473 7.331214 23.486436 39.703078 0.231071 0.937814 0.085723 -0.005875 -96514.600000 0 0 1
31.632773 8.653614 23.285896 40.221267 0.267031 0.953362 0.098039 -0.018242 212641.000000 0 0 1
30.678173 9.625514 22.863286 39.452892 0.304030 0.952671 0.104071 -0.021165 -154967.000000 0 0 1
30.186473 9.596014 21.405386 38.229533 0.307789 0.976510 0.089628 -0.007878 168675.000000 0 0 1
31.165473 10.010014 20.437986 38.590133 0.310781 1.012647 0.120538 -0.022571 493191.000000 0 0 1
30.775173 9.783814 19.100486 37.518833 0.307808 1.036668 0.097577 -0.026323 -1080370.000000 0 0 1
31.587773 10.684014 18.130486 37.955896 0.326153 1.072793 0.110904 -0.052279 -379410.000000 0 0 1
32.882873 10.318614 17.829486 38.802676 0.304068 1.093374 0.108941 -0.045168 167373.000000 0 0 1
33.869373 10.383414 18.904286 40.153726 0.297476 1.080601 0.128448 -0.040863 95084.800000 0 0 1
35.297373 9.945614 18.508786 41.077913 0.274646 1.103384 0.158116 -0.047075 -204031.000000 0 0 1
35.362473 8.609614 18.118086 40.655811 0.238821 1.108901 0.139851 -0.032181 -81384.000000 0 0 1
36.535673 8.178214 17.495186 41.325780 0.220212 1.133659 0.150191 -0.034043 -707904.000000 0 0 1
-36.591039 6.658214 17.363986 41.045633 -0.179994 1.133998 0.144375 -0.036477 -845326.000000 0 0 1
35.544173 6.134514 16.654186 39.728861 0.170905 1.138237 0.103951 -0.036773 -137332.000000 0 0 1
35.794773 4.872314 16.163686 39.576129 0.135287 1.150074 0.109859 -0.036578 -750911.000000 0 0 1
34.572173 3.956414 16.153786 38.364478 0.113944 1.136182 0.074766 -0.025344 -430911.000000 0 0 1
34.305273 3.262414 17.373486 38.591879 0.094814 1.103824 0.080529 -0.020512 -560193.000000 0 0 1
33.048373 2.687014 17.373686 37.433407 0.081127 1.088153 0.052083 -0.012080 -638696.000000 0 0 1
32.889273 1.736114 18.571386 37.810246 0.052738 1.057360 0.039806 -0.013897 -157316.000000 0 0 1
33.660573 0.576914 18.487686 38.407832 0.017137 1.068600 0.042253 -0.017524 -275603.000000 0 0 1
33.275273 -0.245686 19.552986 38.595640 -0.007383 1.039547 0.040313 -0.010406 210593.000000 0 0 1
33.972373 -1.628786 19.600086 39.254789 -0.047908 1.048001 0.044315 0.001235 66036.200000 0 0 1
33.575673 -2.465486 20.638386 39.488573 -0.073299 1.020849 0.037324 0.012731 290573.000000 0 0 1
34.421073 -3.635686 20.739886 40.350605 -0.105234 1.030964 0.041925 0.007804 265660.000000 0 0 1
33.994473 -4.632186 21.829886 40.664791 -0.135429 1.004127 0.036506 0.023227 -73520.700000 0 0 1
34.187173 -4.054086 23.096186 41.456389 -0.118034 0.979883 0.045053 0.009491 352493.000000 0 0 1
33.562473 -4.782086 24.156006 41.627161 -0.141530 0.951706 0.049989 0.008529 165886.000000 0 0 1
33.877173 -4.156886 25.530576 42.623384 -0.122094 0.928569 0.040407 -0.002451 249133.000000 0 0 1
33.058973 -4.623186 26.592626 42.678300 -0.138946 0.898103 0.046160 -0.002469 19204.200000 0 0 1
33.488673 -4.088686 27.853476 43.749568 -0.121490 0.880641 0.060037 -0.003708 217847.000000 0 0 1
32.622873 -4.470486 29.089586 43.936785 -0.136187 0.847208 0.058062 -0.013903 170651.000000 0 0 1
32.809273 -5.826386 29.502866 44.506339 -0.175751 0.846122 0.064781 -0.023145 231698.000000 0 0 1
31.942073 -6.087386 30.597746 44.649461 -0.188318 0.815797 0.070164 -0.034589 -213164.000000 0 0 1
32.071173 -7.576586 30.994176 45.239404 -0.231989 0.816035 0.074425 -0.027618 180724.000000 0 0 1
33.291673 -7.915686 31.623996 46.594749 -0.233433 0.824801 0.086536 -0.034028 -46527.400000 0 0 1
33.837673 -9.128486 31.121466 46.870705 -0.263500 0.844660 0.083859 -0.029813 989896.000000 0 0 1
35.113573 -9.535086 31.986766 48.446197 -0.265156 0.849640 0.093207 -0.029826 1059530.000000 0 0 1
34.829573 -10.068486 33.265659 49.204448 -0.281407 0.828380 0.075690 -0.032286 -66220.700000 0 0 1
36.038773 -10.119786 33.993122 50.564173 -0.273753 0.833516 0.050799 -0.026425 83140.500000 0 0 1
35.959673 -10.211086 -32.629665 49.619144 -0.276676 2.288428 0.053843 -0.022684 -267529.000000 0 0 1
35.531173 -9.039586 -31.918505 48.610383 -0.249128 2.287124 0.051629 -0.029198 122761.000000 0 0 1
36.442773 -7.991986 -31.888875 49.080015 -0.215885 2.278029 0.055580 -0.023023 -417180.000000 0 0 1
35.830373 -6.785686 -31.188165 47.985027 -0.187167 2.278323 0.061406 -0.031704 -195943.000000 0 0 1
35.659173 -6.947486 -29.819205 47.000310 -0.192420 2.258089 0.047823 -0.021738 45592.300000 0 0 1
35.171373 -5.791086 -29.237625 46.102070 -0.163189 2.257761 0.051302 -0.028650 -393254.000000 0 0 1
35.632973 -5.563386 -27.822925 45.549700 -0.154880 2.227899 0.054703 -0.024930 556882.000000 0 0 1
-36.180539 -5.311086 -27.617385 45.825310 0.145753 2.217635 0.056307 -0.024095 545870.000000 0 0 1
-35.955339 -4.946086 -26.250675 44.792277 0.136704 2.196976 0.062787 -0.023064 -77654.900000 0 0 1
-34.457239 -4.824586 -25.954915 43.407782 0.139112 2.211715 0.072289 -0.019855 -1356470.000000 0 0 1
-34.250439 -4.409886 -24.561715 42.377087 0.128050 2.189033 0.084387 -0.021170 296730.000000 0 0 1
-32.919339 -4.418286 -24.069815 41.019022 0.133418 2.197893 0.100678 -0.018941 245549.000000 0 0 1
-31.924339 -3.446786 -24.712215 40.518358 0.107551 2.226733 0.098610 -0.016005 -631137.000000 0 0 1
-31.730339 -3.686986 -26.117675 41.261862 0.115679 2.256185 0.088234 -0.011889 -118417.000000 0 0 1
-30.544839 -3.037286 -26.542435 40.579714 0.099111 2.283764 0.087472 -0.017957 433999.000000 0 0 1
-29.913039 -3.761186 -27.821305 41.023913 0.125081 2.316070 0.085223 -0.010752 272460.000000 0 0 1
-30.689739 -3.620786 -29.008795 42.384907 0.117437 2.324595 0.100383 -0.012645 117738.000000 0 0 1
-30.225539 -4.525886 -30.025525 42.843891 0.148633 2.347332 0.082298 -0.014404 -1239330.000000 0 0 1
-31.269539 -4.859886 -31.103325 44.371380 0.154186 2.347563 0.066743 -0.016861 -1060120.000000 0 0 1
-32.300439 -5.650386 -30.635295 44.875010 0.173180 2.322221 0.069640 -0.016799 112527.000000 0 0 1
-33.314939 -5.087486 -29.800645 44.987177 0.151538 2.294848 0.078065 -0.021941 -188842.000000 0 0 1
-34.309039 -3.998986 -30.389275 46.006631 0.116034 2.292336 0.109647 -0.027237 -246481.000000 0 0 1
-33.779039 -2.798186 -30.984205 45.922481 0.082649 2.311364 0.124545 -0.022511 18478.800000 0 0 1
-33.244639 -1.836386 -30.072115 44.865471 0.055182 2.305373 0.120718 -0.015447 54763.400000 0 0 1
-32.886039 -0.485786 -30.723535 45.007368 0.014771 2.322157 0.128843 -0.014943 -75924.500000 0 0 1
-34.026839 0.113914 -31.273095 46.215206 -0.003348 2.314046 0.137604 -0.015358 -156543.000000 0 0 1
-33.697739 1.306114 -31.982175 46.476909 -0.038740 2.329706 0.139942 -0.010993 363692.000000 0 0 1
-34.960539 2.167314 -32.288185 47.638886 -0.061914 2.315521 0.121051 -0.017017 227770.000000 0 0 1
-35.698639 1.635014 -33.367155 48.892056 -0.045768 2.321927 0.114727 -0.021962 -192498.000000 0 0 1
36.372673 2.439914 -33.602215 49.578558 0.066981 2.315504 0.094867 -0.021328 329356.000000 0 0 1
35.484973 1.908314 33.373241 48.750366 0.053726 0.816777 0.079427 -0.018580 180303.000000 0 0 1
35.841773 2.269314 32.065126 48.145143 0.063230 0.841950 0.071227 -0.021083 -6527.170000 0 0 1
36.551473 1.200014 31.474746 48.250490 0.032819 0.860155 0.069849 -0.019336 -215283.000000 0 0 1
-36.417839 1.403214 29.930626 47.160050 -0.038512 0.883227 0.073151 -0.021150 -247109.000000 0 0 1
-35.536739 2.444914 29.619896 46.326835 -0.068691 0.877120 0.072516 -0.025676 -86107.300000 0 0 1
-35.522239 2.718114 28.238986 45.460509 -0.076370 0.900554 0.047900 -0.016122 -14516.100000 0 0 1
-34.685039 3.989914 28.004926 44.757650 -0.114529 0.894766 0.040873 -0.008147 -186259.000000 0 0 1
-34.431239 4.370214 26.656726 43.762884 -0.126251 0.915849 0.052224 -0.005234 307504.000000 0 0 1
-33.689439 5.592914 26.650846 43.318894 -0.164513 0.908126 0.052421 -0.004977 -278443.000000 0 0 1
-32.946639 5.794714 25.323426 41.956354 -0.174101 0.922830 0.059028 -0.005435 -549076.000000 0 0 1
-31.978939 4.820714 25.087246 40.929961 -0.149620 0.911031 0.042247 -0.003600 -247245.000000 0 0 1
-31.197139 5.066414 23.936836 39.647221 -0.160994 0.922605 0.041859 -0.001880 -81643.800000 0 0 1
-31.702139 4.628614 22.545886 39.176098 -0.144979 0.957580 0.051597 -0.011599 -78726.000000 0 0 1
-31.620639 3.248414 22.337086 38.850514 -0.102372 0.958254 0.056763 -0.011114 -406306.000000 0 0 1
-32.175739 2.944314 21.116186 38.598452 -0.091253 0.991932 0.095416 -0.017725 -440736.000000 0 0 1
-32.020139 1.432914 20.851486 38.237769 -0.044721 0.994036 0.096270 -0.023948 375380.000000 0 0 1
-30.797739 1.042314 20.226186 36.860354 -0.033831 0.989958 0.112850 -0.022496 276056.000000 0 0 1
-30.707639 1.406014 18.853386 36.060867 -0.045755 1.020639 0.123929 -0.029986 -489191.000000 0 0 1
-29.357239 1.085414 18.215786 34.566464 -0.036956 1.015755 0.123024 -0.034832 -625203.000000 0 0 1
-29.186539 -0.342686 18.110286 34.350458 0.011741 1.015469 0.148826 -0.033320 809807.000000 0 0 1
-27.855839 -0.685586 17.681386 33.000745 0.024607 1.005356 0.160810 -0.034536 606835.000000 0 0 1
-27.649439 -0.568986 16.168686 32.035006 0.020576 1.041740 0.178736 -0.028919 -475763.000000 0 0 1
-27.417239 0.766614 15.791986 31.649321 -0.027954 1.048389 0.165527 -0.030044 240848.000000 0 0 1
-27.458639 0.836514 14.390086 31.012113 -0.030455 1.088274 0.148933 -0.028351 -209485.000000 0 0 1
-27.056839 2.169814 13.777386 30.440056 -0.080023 1.101109 0.143980 -0.022017 -152612.000000 0 0 1
-25.660439 2.308314 13.635386 29.149789 -0.089715 1.084031 0.125105 -0.031696 -1917.230000 0 0 1
-25.380839 3.622114 13.236686 28.853363 -0.141753 1.094200 0.116018 -0.027186 -363489.000000 0 0 1
-23.923939 3.856714 12.835886 27.422419 -0.159832 1.083680 0.090570 -0.025343 -298089.000000 0 0 1
-23.004439 3.740314 13.908786 27.141269 -0.161181 1.032750 0.054680 -0.015286 -391499.000000 0 0 1
-21.709839 4.013914 13.477086 25.866203 -0.182825 1.022738 0.049695 -0.020593 -631082.000000 0 0 1
-20.817739 4.597714 14.569286 25.822109 -0.217366 0.971311 0.030725 -0.021227 -448099.000000 0 0 1
-21.223639 5.903814 14.959986 26.628914 -0.271312 0.974243 0.028236 -0.015599 473932.000000 0 0 1
-20.499339 6.342314 16.078786 26.813713 -0.300050 0.927735 0.020246 -0.007112 -170288.000000 0 0 1
-20.918839 7.815014 16.424686 27.720797 -0.357532 0.936633 0.033430 -0.006322 -489710.000000 0 0 1
-20.329439 8.764314 15.620386 27.094201 -0.407038 0.956331 0.042728 -0.013850 390525.000000 0 0 1
-20.686739 10.088214 16.055586 28.062342 -0.453732 0.961684 0.041543 0.000334 -185106.000000 0 0 1
-20.085739 10.674014 17.376286 28.623536 -0.488468 0.918437 0.051139 -0.002007 -215253.000000 0 0 1
-20.564339 10.059714 18.575786 29.481345 -0.454956 0.889132 0.052017 -0.012930 474052.000000 0 0 1
-20.295839 10.809614 19.768886 30.324539 -0.489388 0.860695 0.059035 -0.012686 -402380.000000 0 0 1
-12.165527 -33.491179 -20.320015 41.019046 1.222370 2.089069 0.078510 -0.042065 -81525.100000 0 0 1
-13.343527 -34.010379 -19.719615 41.516488 1.196913 2.065741 0.100577 -0.038708 381844.000000 0 0 1
-14.447327 -33.122379 -19.683115 41.149025 1.159494 2.069557 0.095125 -0.052987 60572.400000 0 0 1
-15.641727 -33.713979 -18.930315 41.709145 1.136399 2.041894 0.092200 -0.043631 -794996.000000 0 0 1
-16.247427 33.410114 -19.636215 42.021370 -1.118167 2.057021 0.080759 -0.048730 132351.000000 0 0 1
-17.140027 32.619414 -18.923415 41.423451 -1.086993 2.045223 0.095285 -0.042219 -323259.000000 0 0 1
-18.501927 33.132514 -18.467815 42.203613 -1.061510 2.023711 0.104597 -0.040133 -1046460.000000 0 0 1
-18.412627 33.965314 -17.332915 42.344980 -1.074038 1.992512 0.102260 -0.040209 585555.000000 0 0 1
-19.660627 -33.672179 -16.942415 42.513542 1.042312 1.980697 0.079028 -0.034961 339937.000000 0 0 1
-20.101927 33.876514 -15.564515 42.355163 -1.035253 1.947090 0.081949 -0.032924 -296195.000000 0 0 1
-20.341627 32.503414 -15.657115 41.417375 -1.011600 1.958467 0.095410 -0.039742 -17686.900000 0 0 1
-20.622427 31.983314 -14.378915 40.681323 -0.998094 1.932056 0.088150 -0.034215 -106924.000000 0 0 1
-20.573427 30.446014 -14.324115 39.438635 -0.976542 1.942497 0.090763 -0.031733 -751551.000000 0 0 1
-19.309627 29.986914 -14.055915 38.335955 -0.998696 1.946203 0.099285 -0.037425 -938948.000000 0 0 1
-19.404527 28.536214 -13.888915 37.198832 -0.973622 1.953435 0.093161 -0.032759 136204.000000 0 0 1
-18.089927 27.929814 -13.365615 35.860279 -0.996045 1.952728 0.092839 -0.031913 458553.000000 0 0 1
-16.996027 27.895914 -14.293615 35.656057 -1.023592 1.983268 0.108491 -0.037018 999479.000000 0 0 1
-16.002227 26.919414 -13.856315 34.245052 -1.034468 1.987362 0.106953 -0.035339 25702.300000 0 0 1
-14.608327 27.100914 -14.406915 33.991498 -1.076411 2.008476 0.096388 -0.037880 -807540.000000 0 0 1
-14.575927 27.170914 -15.814915 34.652962 -1.078413 2.044719 0.101071 -0.044463 422289.000000 0 0 1
-13.378827 27.831314 -16.254215 34.896627 -1.122698 2.055314 0.109846 -0.041826 516878.000000 0 0 1
-13.375827 28.083614 -17.732315 35.805546 -1.126299 2.088907 0.128785 -0.056347 -57916.900000 0 0 1
-13.118327 26.878414 -18.378015 35.104004 -1.116745 2.121786 0.099546 -0.042365 264739.000000 0 0 1
-13.734527 26.785214 -19.662915 35.954348 -1.096989 2.149436 0.088896 -0.042705 -261561.000000 0 0 1
-12.925227 25.892314 -20.538315 35.486558 -1.107796 2.188008 0.069114 -0.027075 230653.000000 0 0 1
-11.531027 26.167414 -20.639815 35.266133 -1.155734 2.195996 0.055810 -0.020043 255783.000000 0 0 1
-10.828827 25.163614 -21.311315 34.707969 -1.164414 2.231937 0.066316 -0.022314 88465.900000 0 0 1
-9.609927 25.618214 -22.120415 35.184604 -1.211920 2.250671 0.077872 -0.017785 17329.700000 0 0 1
-10.014527 26.157714 -23.395915 36.495008 -1.205160 2.266690 0.070602 -0.014505 366530.000000 0 0 1
-8.902827 26.367314 -24.264315 36.922250 -1.245169 2.287859 0.052928 -0.019321 336657.000000 0 0 1
-9.274827 27.082914 -25.612975 38.412643 -1.240854 2.300683 0.047887 -0.019809 371476.000000 0 0 1
-10.086627 26.269514 -26.474885 38.636083 -1.204187 2.325726 0.043863 -0.016961 7365.000000 0 0 1
-10.369127 26.915114 -27.729125 40.010580 -1.203067 2.336501 0.059017 -0.013856 233724.000000 0 0 1
-11.815727 26.651514 -28.219395 40.573992 -1.153493 2.339918 0.052464 -0.005666 183542.000000 0 0 1
-12.107127 27.055814 -29.496025 41.816445 -1.150034 2.353740 0.053326 -0.005799 -805055.000000 0 0 1
-13.294627 26.521014 -29.961065 42.163689 -1.106120 2.361132 0.040203 -0.000280 -794997.000000 0 0 1
-13.402727 26.638814 -31.491545 43.370231 -1.104650 2.383443 0.028285 0.001285 -181087.000000 0 0 1
-12.491727 26.005714 -32.363675 43.356059 -1.122996 2.413526 0.037898 -0.002286 2321.200000 0 0 1
-12.626527 24.599714 -32.415595 42.606876 -1.096582 2.435351 0.043719 -0.004978 18779.900000 0 0 1
-11.761327 24.099414 -33.589545 42.981020 -1.116767 2.467858 0.036563 -0.004999 131958.000000 0 0 1
-12.364927 24.259514 33.286234 43.004520 -1.099424 0.685635 0.034314 -0.000760 78590.400000 0 0 1
-11.721927 23.567314 32.253688 41.630784 -1.109246 0.684468 0.039041 -0.007737 -744000.000000 0 0 1
-12.457727 23.658614 30.867106 40.837522 -1.086126 0.713843 0.043168 -0.001669 -1010580.000000 0 0 1
-13.573327 22.866714 30.844116 40.724455 -1.035107 0.711496 0.057900 -0.007185 -1117740.000000 0 0 1
-14.119327 22.832314 29.588866 39.952108 -1.016963 0.736821 0.066210 -0.008007 788472.000000 0 0 1
-15.527927 22.116514 29.487066 39.996797 -0.958665 0.741827 0.058152 -0.008661 1107440.000000 0 0 1
-15.386827 20.736614 29.561786 39.251252 -0.932427 0.717970 0.059431 -0.009863 -575241.000000 0 0 1
-16.595727 20.187214 29.929146 39.732801 -0.882730 0.717791 0.059269 -0.013026 -737824.000000 0 0 1
-16.367027 18.666914 30.125376 39.036797 -0.850952 0.689259 0.058124 -0.022341 -54013.200000 0 0 1
-16.028527 18.059414 28.910406 37.667860 -0.844906 0.695851 0.061746 -0.023225 187791.000000 0 0 1
-15.666627 16.692614 29.085916 37.014552 -0.817094 0.666813 0.058325 -0.035401 -88344.800000 0 0 1
-15.211627 15.994214 27.795936 35.493978 -0.810471 0.671134 0.049401 -0.032591 421689.000000 0 0 1
-14.021827 16.560414 27.254196 34.837481 -0.868217 0.672408 0.056376 -0.030150 196956.000000 0 0 1
-13.404727 15.787014 26.261536 33.445250 -0.866826 0.667762 0.055930 -0.023801 869994.000000 0 0 1
-12.118527 16.465414 25.642366 32.794808 -0.936316 0.673083 0.053081 -0.014324 732942.000000 0 0 1
-12.430827 17.497714 24.705206 32.726788 -0.953107 0.715306 0.047474 -0.014903 -27482.400000 0 0 1
-12.717527 18.790114 25.249246 33.945961 -0.975797 0.732048 0.034617 -0.010712 437777.000000 0 0 1
-11.533427 19.562514 25.958536 34.489962 -1.038083 0.718733 0.016774 -0.010712 434337.000000 0 0 1
-11.325127 19.256214 27.340926 35.307032 -1.039152 0.685068 0.038626 -0.017958 -366301.000000 0 0 1
-12.426827 19.570714 28.157026 36.472688 -1.005059 0.688810 0.055693 -0.018306 -186792.000000 0 0 1
-12.077227 19.279714 29.587526 37.322760 -1.011175 0.655493 0.055818 -0.017849 276518.000000 0 0 1
-10.957627 20.061114 29.989786 37.708157 -1.070866 0.651273 0.039581 -0.021615 177510.000000 0 0 1
-10.857727 20.049814 31.349386 38.764278 -1.074473 0.628826 0.043518 -0.021906 -508068.000000 0 0 1
-9.602627 20.828214 31.727286 39.149018 -1.138800 0.625922 0.029911 -0.021649 534688.000000 0 0 1
-8.379227 20.060814 31.611616 38.365895 -1.175132 0.602448 0.039609 -0.028478 1300050.000000 0 0 1
-7.242227 20.790114 32.103106 38.926701 -1.235593 0.601113 0.033479 -0.025304 987390.000000 0 0 1
-6.143327 19.897314 32.755401 38.814428 -1.271330 0.566289 0.045194 -0.022611 -282261.000000 0 0 1
-6.553927 19.425814 34.013912 39.714763 -1.245406 0.542433 0.046888 -0.027000 338364.000000 0 0 1
-5.504527 19.062214 -33.280475 38.746069 -1.289677 2.603989 0.045305 -0.024069 943322.000000 0 0 1
-4.344127 18.069314 -33.677685 38.465023 -1.334859 2.637350 0.046445 -0.024330 442374.000000 0 0 1
-4.809127 16.723314 -33.784065 38.002105 -1.290782 2.665964 0.049029 -0.027542 236964.000000 0 0 1
-4.956127 16.291914 33.045720 37.175385 -1.275484 0.475827 0.031175 -0.018220 -386522.000000 0 0 1
-5.698127 14.990614 32.897388 36.598159 -1.207551 0.453587 0.037691 -0.017811 -181734.000000 0 0 1
-4.996127 13.825614 33.399790 36.491846 -1.224031 0.414626 0.046310 -0.019290 453590.000000 0 0 1
-5.764427 12.638214 33.223487 36.010459 -1.142872 0.396012 0.049342 -0.021325 33418.600000 0 0 1
-5.027027 11.322214 33.664946 35.871884 -1.152946 0.352602 0.073596 -0.018939 232823.000000 0 0 1
-4.782927 11.208714 -33.147675 35.316852 -1.167474 2.789287 0.065976 -0.024039 -124264.000000 0 0 1
-3.868127 10.145014 -32.965075 34.707058 -1.206528 2.823421 0.087930 -0.025721 228708.000000 0 0 1
-3.931127 9.715814 -31.487795 33.186323 -1.186321 2.820270 0.079105 -0.028774 148069.000000 0 0 1
-5.163327 9.125614 -31.130485 32.848803 -1.055899 2.816716 0.078768 -0.030494 -2144.280000 0 0 1
-5.031227 8.557514 -29.870115 31.476468 -1.039298 2.820739 0.092860 -0.023842 770859.000000 0 0 1
-6.277627 7.658914 -29.512035 31.129211 -0.884188 2.817844 0.084220 -0.022578 510302.000000 0 0 1
-6.096727 7.013114 -28.285345 29.772716 -0.855185 2.824168 0.085121 -0.021729 402031.000000 0 0 1
-7.050827 5.965814 -28.086325 29.565973 -0.702235 2.823886 0.094013 -0.037793 -437719.000000 0 0 1
-6.789427 5.237414 -26.719105 28.061315 -0.657062 2.831053 0.083672 -0.040745 -50037.500000 0 0 1
-6.780127 5.979114 -25.487345 27.043015 -0.722701 2.800753 0.058741 -0.027151 -515426.000000 0 0 1
-5.745927 6.883014 -25.358325 26.896769 -0.875194 2.801734 0.056135 -0.022887 -784574.000000 0 0 1
-5.989227 7.948614 -24.251215 26.213980 -0.925063 2.752162 0.028972 -0.007773 46080.000000 0 0 1
-6.089627 7.421314 -22.921815 24.850937 -0.883644 2.744973 0.022006 -0.003957 306842.000000 0 1 0
-7.459927 7.357614 -22.498315 24.818525 -0.778493 2.705746 0.026255 -0.004610 637183.000000 0 1 0
-7.502227 7.528514 -20.976315 23.515266 -0.787147 2.672612 0.022672 -0.005396 -91131.600000 0 1 0
-7.156127 8.856814 -20.664515 23.593971 -0.891209 2.637967 0.007104 0.001363 152377.000000 0 1 0
-6.824627 9.048714 -19.246515 22.335691 -0.924607 2.609394 0.007645 0.002522 114384.000000 0 1 0
-8.066627 9.359214 -18.368615 22.137556 -0.859439 2.549454 0.001708 0.001816 -90567.300000 0 1 0
-7.730127 9.552014 -17.043115 21.011035 -0.890430 2.516913 -0.006508 0.002795 368459.000000 0 1 0
-8.896027 9.868514 -16.278615 21.012381 -0.837178 2.457061 0.002865 -0.000815 854491.000000 0 1 0
-9.480427 11.297114 -16.425315 22.074742 -0.872612 2.409949 0.009963 -0.007099 202974.000000 0 1 0
-8.485927 12.258114 -16.033715 21.894116 -0.965277 2.392533 -0.008253 -0.007921 550989.000000 0 1 0
-8.920927 13.609014 -16.205815 22.965553 -0.990553 2.354147 0.012166 -0.012302 -71538.100000 0 1 0
-7.868427 14.661414 -15.803715 22.948347 -1.078240 2.330442 0.016564 -0.015238 -30580.000000 0 1 0
-7.373827 14.617114 -14.442315 21.831487 -1.103583 2.293662 0.023292 -0.015287 671183.000000 0 1 0
-8.282427 15.270214 -13.541215 22.025951 -1.073814 2.232909 0.023158 -0.025869 -146820.000000 0 1 0
-7.571827 16.034014 -12.407115 21.641596 -1.129606 2.181323 0.035683 -0.025848 225317.000000 0 1 0
-7.015327 17.318314 -12.634515 22.555926 -1.185917 2.165353 0.039048 -0.026529 436626.000000 0 1 0
-5.867627 17.369514 -13.491315 22.762791 -1.245021 2.205193 0.034708 -0.025375 68407.400000 0 1 0
-5.681727 18.771114 -14.149115 24.183345 -1.276878 2.195771 0.047950 -0.015783 76828.200000 0 1 0
-5.241027 19.738714 -13.185915 24.309536 -1.311265 2.144108 0.062736 -0.024076 -42967.500000 0 1 0
-5.439027 21.059214 -13.664815 25.686586 -1.318047 2.131737 0.063695 -0.022753 -298319.000000 0 0 1
-5.093027 22.170314 -12.645415 26.026300 -1.344991 2.078155 0.078563 -0.023892 -434002.000000 0 0 1
-5.502527 23.531514 -12.991615 27.437056 -1.341087 2.064064 0.071518 -0.028281 309718.000000 0 0 1
-6.901627 23.738814 -12.880915 27.876185 -1.287864 2.051131 0.083737 -0.030236 -230710.000000 0 0 1
-7.542627 23.852514 -11.513315 27.538883 -1.264527 2.002121 0.049670 -0.026309 -660781.000000 0 0 1
-7.606527 22.562814 -10.904315 26.188622 -1.245636 2.000252 0.057422 -0.023643 -67466.300000 0 0 1
-8.219527 22.487514 -9.618315 25.802343 -1.220367 1.952788 0.066476 -0.026885 87328.600000 0 0 1
-7.519127 23.181314 -8.394815 25.775638 -1.257142 1.902536 0.066676 -0.027305 117565.000000 0 0 1
-7.682727 24.580514 -8.548115 27.134779 -1.267863 1.891279 0.057225 -0.022866 -53602.900000 0 0 1
-7.318527 25.206014 -7.319315 27.248419 -1.288218 1.842750 0.060494 -0.021314 7745.220000 0 0 1
-7.381927 26.771114 -7.445015 28.750889 -1.301740 1.832730 0.062353 -0.029489 -216107.000000 0 0 1
-6.413827 27.459614 -8.191515 29.364409 -1.341337 1.853508 0.049791 -0.028785 -320537.000000 0 0 1
-6.441327 27.250014 -9.621615 29.607929 -1.338678 1.901774 0.049414 -0.019307 -91214.400000 0 0 1
-5.715427 28.430114 -10.294215 30.771876 -1.372406 1.911906 0.047815 -0.019395 261678.000000 0 0 1
-6.387927 29.675714 -10.109315 31.994560 -1.358774 1.892275 0.052120 -0.017197 383755.000000 0 0 1
-7.461027 29.828714 -11.054015 32.674307 -1.325696 1.915916 0.061207 -0.019591 270647.000000 0 0 1
-8.487627 30.917814 -10.745615 33.814483 -1.302874 1.894185 0.059793 -0.021910 32287.700000 0 0 1
-9.634827 30.531914 -10.018715 33.547016 -1.265121 1.874071 0.053249 -0.014696 -99921.400000 0 0 1
-10.662327 31.499214 -10.074015 34.747251 -1.244407 1.864942 0.040219 -0.022622 230041.000000 0 0 1
-11.845127 31.075014 -9.169815 34.497087 -1.206620 1.839845 0.039849 -0.018492 -62585.400000 0 0 1
-12.482527 29.898114 -9.554315 33.778627 -1.175294 1.857561 0.048709 -0.026685 -757590.000000 0 0 1
-13.570627 29.668614 -8.700215 33.765105 -1.141800 1.831405 0.058798 -0.021182 -325999.000000 0 0 1
-14.427027 28.559314 -9.326215 33.327943 -1.103029 1.854415 0.066650 -0.024901 -502453.000000 0 0 1
-14.213827 27.213114 -9.034015 32.003123 -1.089456 1.856972 0.056953 -0.020260 -565236.000000 0 0 1
-15.262127 26.437014 -9.539215 31.981946 -1.047234 1.873675 0.071470 -0.022674 -329892.000000 0 0 1
-15.405527 25.104814 -8.850715 30.755765 -1.020402 1.862698 0.069018 -0.024095 135310.000000 0 0 1
-14.358627 24.175814 -9.101615 29.554687 -1.034856 1.883843 0.068181 -0.018406 479843.000000 0 0 1
-14.802127 22.945114 -8.559715 28.615554 -0.997866 1.874575 0.083138 -0.023226 355829.000000 0 0 1
-13.890327 21.748814 -8.965215 27.318989 -1.002427 1.905160 0.096615 -0.025506 58995.900000 0 0 1
-14.077927 21.348314 -10.291915 27.565595 -0.987814 1.953426 0.091245 -0.021543 143447.000000 0 0 1
-13.375427 20.154614 -10.565115 26.395685 -0.984891 1.982596 0.098341 -0.025847 -295257.000000 0 0 1
-13.304427 19.695514 -12.017715 26.633560 -0.976700 2.038933 0.091658 -0.021659 -139036.000000 0 0 1
-14.572427 19.360014 -12.530515 27.279655 -0.925565 2.048043 0.100699 -0.014527 -175866.000000 0 0 1
-14.569927 18.556014 -13.673115 27.268342 -0.905154 2.096045 0.100653 -0.017965 -717163.000000 0 0 1
-16.002127 18.316214 -14.092015 28.109369 -0.852726 2.095929 0.090412 -0.005241 -636391.000000 0 0 1
-16.600627 19.455714 -14.676615 29.487432 -0.864417 2.091769 0.065541 -0.003364 -10728.800000 0 0 1
-17.994627 19.195114 -14.766515 30.171327 -0.817667 2.082223 0.044601 0.000674 237626.000000 0 0 1
-18.740527 20.332314 -15.558615 31.728234 -0.826115 2.083312 0.045153 -0.007096 11790.500000 0 0 1
-18.959827 21.473814 -14.754415 32.222546 -0.847494 2.046418 0.050540 -0.012390 456187.000000 0 0 1
-19.632127 22.420214 -15.593915 33.634158 -0.851602 2.052888 0.057379 -0.015896 83336.900000 0 0 1
-19.953327 23.788114 -14.968415 34.468291 -0.872844 2.020020 0.055707 -0.008948 840989.000000 0 0 1
-21.125927 23.710614 -14.117915 34.753612 -0.842981 1.989119 0.049413 -0.004060 1054660.000000 0 0 1
-21.557627 24.948814 -13.528715 35.639876 -0.858188 1.960155 0.063848 -0.016960 212764.000000 0 0 1
-25.823007 -0.898586 3.236985 26.040607 0.034784 1.446169 0.147457 -0.044927 -89231.300000 0 0 1
-26.538177 -0.007786 4.035385 26.843234 0.000293 1.419893 0.165242 -0.049908 29355.100000 0 0 1
-27.636437 -0.494886 4.761185 28.047931 0.017905 1.400219 0.162982 -0.043024 -38405.100000 0 0 1
-27.919127 0.354914 6.013185 28.561548 -0.012712 1.358675 0.162893 -0.031558 -144039.000000 0 0 1
-28.666667 1.520514 5.800185 29.287060 -0.052992 1.371432 0.184285 -0.039753 150355.000000 0 0 1
-29.152857 2.200614 6.969485 30.055041 -0.075342 1.336775 0.193107 -0.024910 644206.000000 0 0 1
-28.045847 2.881214 7.901385 29.279734 -0.102373 1.297550 0.196650 -0.032234 601066.000000 0 0 1
-27.377907 1.904314 8.680585 28.784175 -0.069445 1.264452 0.179787 -0.043224 664532.000000 0 0 1
-26.319447 2.424814 9.514685 28.091320 -0.091871 1.225256 0.168794 -0.048739 542828.000000 0 0 1
-25.404737 1.240314 9.998985 27.329814 -0.048783 1.196236 0.147415 -0.040168 -564991.000000 0 0 1
-24.526427 0.783214 9.012985 26.141785 -0.031923 1.218799 0.148774 -0.045653 17187.200000 0 0 1
-24.734827 -0.542086 8.584585 26.187795 0.021912 1.236813 0.113711 -0.036057 -318203.000000 0 0 1
-23.470227 -1.069486 7.880185 24.780893 0.045536 1.247183 0.094864 -0.042507 178816.000000 0 1 0
-22.420727 -1.414286 8.777585 24.119187 0.062996 1.198317 0.099301 -0.059056 133018.000000 0 1 0
-21.308527 -2.011386 8.100085 22.884719 0.094115 1.209003 0.103583 -0.042590 350701.000000 0 1 0
-20.190227 -2.155886 9.171785 22.280367 0.106376 1.146529 0.069310 -0.031890 -73442.300000 0 1 0
-19.616127 -0.922086 9.632985 21.873205 0.046972 1.114751 0.059979 -0.026165 1070460.000000 0 1 0
-20.532427 -0.314486 10.601885 23.110158 0.015315 1.094204 0.083523 -0.035804 -189035.000000 0 1 0
-20.240827 1.137314 10.849585 22.993435 -0.056130 1.079402 0.060053 -0.023458 -214445.000000 0 1 0
-20.520927 2.147514 9.912985 22.890774 -0.104270 1.122916 0.063950 -0.012441 476260.000000 0 1 0
-21.914827 2.364914 9.806985 24.125286 -0.107498 1.152174 0.092962 -0.022780 -568573.000000 0 1 0
-22.163027 3.703514 9.020185 24.213210 -0.165573 1.189061 0.082987 -0.032683 -362721.000000 0 1 0
-22.293027 4.787214 9.915385 24.863856 -0.211528 1.160602 0.080496 -0.032046 523071.000000 0 1 0
-22.403627 6.104814 9.396885 25.049804 -0.266033 1.186261 0.063606 -0.023676 -649236.000000 0 0 1
-22.400127 7.151514 10.536785 25.766910 -0.309034 1.149518 0.061437 -0.022443 786253.000000 0 0 1
-23.610227 7.097014 11.330685 27.132911 -0.291999 1.139995 0.075306 -0.018483 1007960.000000 0 0 1
-23.446127 7.847114 12.517985 27.712777 -0.322968 1.102121 0.069606 -0.018594 42878.300000 0 0 1
-24.251427 7.258314 13.685485 28.776854 -0.290809 1.075181 0.081262 -0.015778 -755914.000000 0 0 1
-25.617657 7.480314 13.685285 29.991773 -0.284100 1.096962 0.088531 -0.016134 -614410.000000 0 0 1
-26.234037 6.813414 14.805285 30.884361 -0.254103 1.070850 0.087992 -0.016768 213065.000000 0 0 1
-27.762317 6.696414 14.599785 32.074007 -0.236684 1.098210 0.115793 -0.017807 -22502.900000 0 0 1
-28.089267 5.713314 13.614285 31.733226 -0.200661 1.127385 0.130985 -0.012761 36755.500000 0 0 1
-29.426867 5.856114 13.197385 32.778126 -0.196439 1.156411 0.159538 -0.023920 21545.300000 0 0 1
-29.996637 4.645714 12.347385 32.769480 -0.153654 1.184462 0.180943 -0.024948 -43383.100000 0 0 1
-30.187157 3.426314 12.995885 33.043866 -0.113019 1.166587 0.176351 -0.028917 590450.000000 0 0 1
-30.866937 2.569914 12.040385 33.231658 -0.083066 1.200044 0.165773 -0.016719 380495.000000 0 0 1
-32.133767 1.877514 12.605085 34.568659 -0.058362 1.197551 0.136608 -0.005951 153285.000000 0 0 1
-31.904037 0.579914 13.206785 34.534375 -0.018175 1.178378 0.150312 -0.019771 34291.700000 0 0 1
-33.126397 0.047514 13.689785 35.843697 -0.001434 1.178913 0.121923 -0.015854 166986.000000 0 0 1
-32.996807 -1.238286 14.540285 36.079669 0.037510 1.155998 0.129885 -0.027449 -11013.300000 0 0 1
-32.913917 -2.466586 13.852285 35.795192 0.074801 1.173434 0.145057 -0.028371 188693.000000 0 0 1
-33.162537 -3.447586 14.803185 36.479775 0.103588 1.152952 0.168513 -0.025955 -137640.000000 0 0 1
-33.145587 -4.889786 14.233085 36.402207 0.146468 1.169084 0.172397 -0.026443 -11936.200000 0 0 1
-34.232385 -5.150286 13.373585 37.111109 0.149331 1.202136 0.124503 -0.030088 108640.000000 0 0 1
-34.226329 -6.492886 12.991885 37.180482 0.187477 1.213836 0.133463 -0.027686 -740034.000000 0 0 1
-35.450994 -6.801086 12.123785 38.079048 0.189542 1.246771 0.134884 -0.018467 852028.000000 0 0 1
36.461305 -6.858986 12.745385 39.229037 -0.185944 1.239894 0.090645 -0.019073 792873.000000 0 0 1
35.888925 -5.697386 13.242385 38.676038 -0.157437 1.221334 0.087374 -0.025272 -332954.000000 0 0 1
34.375375 -5.551886 12.915685 37.138993 -0.160125 1.215609 0.058946 -0.019930 498970.000000 0 0 1
33.462605 -6.379986 13.599485 36.679642 -0.188399 1.190965 0.057712 -0.016429 -539021.000000 0 0 1
32.169625 -6.198886 13.091385 35.280240 -0.190361 1.190637 0.057120 -0.015458 -183158.000000 0 0 1
31.247695 -7.359686 13.570685 34.853220 -0.231312 1.170852 0.036412 -0.015466 -49387.800000 0 0 1
31.001445 -7.267886 14.971685 35.186121 -0.230278 1.131282 0.062292 -0.002762 49511.300000 0 0 1
29.972725 -8.180686 15.284885 34.625361 -0.266448 1.113598 0.074121 0.001961 116431.000000 0 0 1
29.593485 -8.234186 16.806485 35.014770 -0.271379 1.070161 0.049634 0.004090 -372002.000000 0 0 1
30.680175 -8.654486 17.555885 36.392065 -0.274943 1.067393 0.032847 0.012535 -204544.000000 0 0 1
30.289515 -8.831686 18.923185 36.790493 -0.283710 1.030547 0.026205 0.005916 164706.000000 0 0 1
31.413515 -9.570286 19.708385 38.299083 -0.295722 1.030265 0.027179 0.012903 571246.000000 0 0 1
32.407565 -8.672086 20.165185 39.141922 -0.261468 1.029577 0.033023 0.009543 -224299.000000 0 0 1
33.713275 -9.019286 19.765185 40.107293 -0.261408 1.055483 0.010314 0.015579 24220.400000 0 0 1
34.827585 -8.206886 20.440485 41.208338 -0.231421 1.051778 0.017149 0.007235 27728.600000 0 0 1
34.965095 -8.563486 21.817385 42.093817 -0.240187 1.025930 0.026874 -0.001180 -202884.000000 0 0 1
36.269335 -8.338986 22.323985 43.397738 -0.225991 1.030483 0.011220 0.000656 222014.000000 0 0 1
36.523505 -8.981086 23.708685 44.460410 -0.241115 1.008354 0.023071 -0.000001 -150597.000000 0 0 1
35.917575 -8.205686 24.726385 44.371157 -0.224604 0.979711 0.029435 0.004885 103229.000000 0 0 1
35.801755 -8.938186 25.929285 45.099719 -0.244657 0.958275 0.037044 -0.011472 -236034.000000 0 0 1
35.576395 -8.041486 27.149985 45.469408 -0.222299 0.930910 0.052017 -0.011364 -468285.000000 0 0 1
-36.550777 -7.335986 27.644385 46.411076 0.198075 0.932732 0.042361 -0.021897 -896574.000000 0 0 1
36.317015 -6.663486 28.816085 46.836891 -0.181463 0.908102 0.045445 -0.031902 1150600.000000 0 0 1
-35.618361 -6.279086 29.698085 46.798192 0.174495 0.883307 0.069669 -0.021927 1406110.000000 0 0 1
-35.071433 -7.372086 30.451585 47.028206 0.207186 0.866474 0.069161 -0.023926 -529707.000000 0 0 1
-33.736427 -7.099486 30.764685 46.206223 0.207413 0.842214 0.069238 -0.034226 -431200.000000 0 0 1
-33.222547 -7.874986 31.991985 46.789316 0.232742 0.817913 0.051503 -0.027185 -189844.000000 0 0 1
-33.085577 -9.250786 31.805585 46.816959 0.272639 0.823906 0.045910 -0.022171 338873.000000 0 0 1
-32.656277 -10.006586 32.953885 47.460749 0.297338 0.803294 0.035095 -0.012343 -189783.000000 0 0 1
-32.811537 -11.548086 32.887985 47.870396 0.338413 0.813414 0.042698 -0.007193 -1994590.000000 0 0 1
-34.123681 -11.866886 32.959985 48.904082 0.334679 0.831224 0.039462 -0.011938 -1569220.000000 0 0 1
-34.397603 -13.219486 33.226985 49.618368 0.366911 0.837058 0.039155 -0.008953 -474751.000000 0 0 1
-35.873757 -13.570686 33.335085 50.816512 0.361652 0.855304 0.031916 -0.009736 -555668.000000 0 0 1
-36.214647 -14.905086 33.311585 51.413266 0.390446 0.865948 0.031834 -0.019506 -853488.000000 0 0 1
35.639955 -15.069686 33.553185 51.216385 -0.400032 0.856447 0.024014 -0.016938 -819611.000000 0 0 1
35.193545 -16.531986 33.730585 51.474698 -0.439152 0.856237 0.024664 -0.014912 -205045.000000 0 0 1
35.637835 -17.129286 -33.267816 51.674126 -0.448047 2.270251 0.026659 -0.012225 102678.000000 0 0 1
35.390855 -18.499386 -33.349316 52.028038 -0.481655 2.266580 0.026780 -0.024223 -88095.900000 0 0 1
35.933425 -19.358786 -32.186116 51.979993 -0.494157 2.238522 0.027079 -0.006939 -100486.000000 0 0 1
35.148565 -19.161386 -31.057416 50.666985 -0.499115 2.230612 0.032474 -0.008513 -312344.000000 0 0 1
35.662135 -19.796086 -29.947216 50.601469 -0.506751 2.204117 0.028531 -0.009551 -810655.000000 0 0 1
34.708355 -19.609986 -28.751616 49.151570 -0.514281 2.195625 0.048676 -0.012392 654326.000000 0 0 1
33.489165 -20.359186 -28.809316 48.641518 -0.546233 2.204680 0.039785 -0.008862 827885.000000 0 0 1
32.478735 -19.678886 -29.553916 48.120274 -0.544747 2.232127 0.041843 -0.008317 -1524050.000000 0 0 1
31.224105 -20.476986 -29.699316 47.710597 -0.580447 2.242715 0.040709 -0.009422 -1535920.000000 0 0 1
30.211445 -19.849586 -30.407216 47.237022 -0.581296 2.270140 0.039994 -0.005042 -29838.900000 0 0 1
29.079145 -20.727486 -30.425516 46.914149 -0.619262 2.276456 0.038971 -0.003487 -133359.000000 0 0 1
27.883785 -20.186586 -31.180216 46.445770 -0.626622 2.306792 0.039780 -0.003046 -688876.000000 0 0 1
28.115985 -20.040986 -32.557516 47.456734 -0.619263 2.326837 0.035779 -0.006983 917774.000000 0 0 1
26.916385 -19.850286 -33.363116 47.240059 -0.635440 2.354978 0.049647 -0.002805 976670.000000 0 0 1
27.191585 -20.010586 33.306385 47.424900 -0.634423 0.792177 0.040418 -0.008761 -237498.000000 0 0 1
28.124785 -19.123286 32.758885 47.221268 -0.597139 0.804139 0.029515 -0.004026 129984.000000 0 0 1
28.359085 -19.304886 31.384285 46.496125 -0.597676 0.829849 0.029767 -0.005722 58070.900000 0 0 1
27.276985 -18.596986 30.508085 44.951363 -0.598395 0.824818 0.023405 0.002878 65142.800000 0 0 1
27.331885 -17.164586 30.670385 44.523336 -0.560758 0.810880 0.035230 -0.002084 624565.000000 0 0 1
26.357985 -16.530086 29.846285 43.113662 -0.560135 0.806167 0.030008 0.002231 122806.000000 0 0 1
26.093485 -15.092386 30.298185 42.739093 -0.524383 0.782844 0.041409 -0.001403 340272.000000 0 0 1
27.236185 -14.247386 30.211685 43.099231 -0.481960 0.794026 0.051370 -0.008096 415948.000000 0 0 1
26.922185 -13.030186 30.901085 43.005428 -0.450761 0.769097 0.071671 -0.012185 -254184.000000 0 0 1
28.072485 -12.069386 31.196685 43.668841 -0.406044 0.775041 0.071961 -0.018000 -389984.000000 0 0 1
28.621085 -11.506386 30.044585 43.060893 -0.382251 0.798582 0.074940 -0.021349 1308060.000000 0 0 1
29.989275 -11.068986 30.296585 44.042731 -0.353586 0.812217 0.082065 -0.022131 1462580.000000 0 0 1
30.812975 -10.646286 29.049685 43.665399 -0.332672 0.842929 0.080678 -0.018486 97902.400000 0 0 1
30.392975 -9.355986 28.614685 42.779290 -0.298628 0.838080 0.070717 -0.025327 144127.000000 0 0 1
30.812355 -9.139286 27.281585 42.157000 -0.288345 0.866966 0.073276 -0.016611 -22265.200000 0 0 1
30.783055 -7.615586 27.045485 41.677955 -0.242526 0.864638 0.066246 -0.008510 -332980.000000 0 0 1
29.555355 -6.964786 26.871385 40.547486 -0.231430 0.846359 0.078070 -0.010632 -810671.000000 0 0 1
29.585765 -5.526286 26.828385 40.318973 -0.184661 0.842762 0.072506 -0.008820 71258.900000 0 0 1
28.187845 -4.861686 26.780585 39.184057 -0.170794 0.818310 0.069815 -0.012757 -50953.900000 0 0 1
27.561385 -5.032986 25.530985 37.905041 -0.180620 0.831794 0.070346 -0.006041 -1177000.000000 0 0 1
26.338785 -4.402486 25.558585 36.964236 -0.165617 0.807315 0.072604 -0.014715 -1139810.000000 0 0 1
25.502085 -4.872186 24.364885 35.605367 -0.188776 0.817148 0.077137 -0.001642 -416935.000000 0 0 1
25.959185 -4.282586 23.137585 35.036662 -0.163501 0.849469 0.078558 0.007099 53612.800000 0 0 1
25.412785 -4.890286 22.008585 33.972082 -0.190110 0.866046 0.083719 -0.000405 -85193.500000 0 0 1
25.654185 -4.158986 20.691985 33.220365 -0.160719 0.898390 0.084359 -0.005640 151778.000000 0 0 1
24.959885 -2.928386 20.597185 32.493312 -0.116790 0.884224 0.083238 -0.003881 -15766.900000 0 0 1
25.458485 -2.134686 19.545585 32.167083 -0.083654 0.917727 0.078135 -0.007182 66877.800000 0 0 1
24.523285 -0.920686 19.207785 31.163732 -0.037526 0.906696 0.064996 -0.015466 -602326.000000 0 0 1
23.357085 -1.320086 18.620485 29.900142 -0.056458 0.898536 0.067840 -0.019120 -1030290.000000 0 0 1
22.611885 -0.317086 17.952485 28.873684 -0.014022 0.899809 0.071569 -0.023090 213993.000000 0 0 1
21.346985 -0.808286 17.228285 27.443777 -0.037846 0.892116 0.077926 -0.024265 -143674.000000 0 0 1
21.552885 -1.577386 16.054385 26.921335 -0.073057 0.931857 0.080267 -0.028234 360072.000000 0 0 1
20.386385 -2.225786 15.530985 25.724897 -0.108749 0.922620 0.095191 -0.025959 90693.800000 0 0 1
20.659685 -2.892186 14.150785 25.207778 -0.139088 0.974761 0.093918 -0.037921 -663335.000000 0 0 1
19.693485 -3.808286 13.690985 24.285376 -0.191020 0.971872 0.103831 -0.040324 -28824.200000 0 1 0
20.143785 -4.403786 12.493185 24.109025 -0.215231 1.026057 0.093152 -0.031517 -627973.000000 0 1 0
19.124485 -5.341086 11.851585 23.124299 -0.272341 1.032683 0.097104 -0.034248 -856652.000000 0 1 0
18.950885 -6.520486 12.520685 23.630919 -0.331385 1.012381 0.087552 -0.034988 -237091.000000 0 1 0
17.795485 -7.072386 12.004385 22.600956 -0.378285 1.010845 0.079926 -0.033931 -931777.000000 0 1 0
17.686385 -8.585586 12.244985 23.161610 -0.451928 1.013756 0.085272 -0.039918 -280106.000000 0 1 0
18.588085 -9.308486 11.439485 23.728182 -0.464269 1.067740 0.077882 -0.046929 497254.000000 0 1 0
18.238285 -10.675386 11.567985 24.091849 -0.529562 1.069957 0.086046 -0.048161 189315.000000 0 1 0
18.862485 -11.543386 10.433185 24.451881 -0.549179 1.129975 0.082104 -0.039737 376465.000000 0 1 0
18.331285 -11.221886 9.118585 23.347705 -0.549321 1.169561 0.083334 -0.034459 677566.000000 0 1 0
19.191185 -11.702886 8.110685 23.896492 -0.547598 1.224508 0.108099 -0.042978 29576.900000 0 1 0
18.789585 -11.006586 6.825185 22.820530 -0.529899 1.267067 0.099031 -0.034289 17944.300000 0 1 0
19.297985 -9.664986 6.749285 22.613647 -0.464310 1.267717 0.100334 -0.028266 611811.000000 0 1 0
19.534685 -9.317786 5.361385 22.297298 -0.445068 1.327967 0.067012 -0.027291 -60255.900000 0 1 0
20.254585 -7.923786 5.236585 22.370884 -0.372905 1.334524 0.110947 -0.026078 -125869.000000 0 1 0
20.687685 -7.597286 3.958785 22.391317 -0.351948 1.393062 0.095298 -0.029400 526327.000000 0 1 0
21.097985 -6.267486 3.922285 22.355999 -0.288763 1.394437 0.111892 -0.029135 -485519.000000 0 1 0
21.680585 -5.912886 2.548585 22.616483 -0.266252 1.457869 0.111580 -0.031603 -340434.000000 0 1 0
20.736385 -6.088686 1.548185 21.667179 -0.285596 1.499282 0.075033 -0.037607 184756.000000 0 1 0
21.248985 -5.499386 0.384785 21.952464 -0.253250 1.553267 0.080246 -0.029796 125069.000000 0 1 0
-26.587367 -15.469586 0.564185 30.765475 0.526959 1.552457 0.083821 -0.004294 -649792.000000 0 0 1
-25.727827 -14.709086 -0.226215 29.636624 0.519365 1.578429 0.081209 -0.000802 -340623.000000 0 0 1
-24.381227 -15.124186 -0.220315 28.692051 0.555228 1.578475 0.078277 0.003903 851632.000000 0 0 1
-23.502027 -14.663886 1.045985 27.721272 0.557838 1.533055 0.115354 -0.011661 149539.000000 0 0 1
-23.871627 -15.221286 2.289085 28.403909 0.567631 1.490118 0.084125 0.003202 564818.000000 0 0 1
-22.803327 -14.924186 3.208385 27.441151 0.579514 1.453610 0.101304 0.002761 857734.000000 0 0 1
-22.968527 -15.618286 4.558785 28.147231 0.597167 1.408118 0.082274 0.004385 -198451.000000 0 0 1
-22.894327 -17.012486 4.463485 28.870358 0.639062 1.415569 0.099916 -0.013570 238316.000000 0 0 1
-23.394727 -17.707486 5.599785 29.870151 0.647903 1.382210 0.095458 -0.021009 -180178.000000 0 0 1
-23.293327 -19.245286 5.459985 30.704585 0.690522 1.392022 0.065041 -0.017553 -230322.000000 0 0 1
-23.837427 -19.937086 6.528385 31.754214 0.696532 1.363729 0.057099 -0.027236 -156212.000000 0 0 1
-24.026527 -21.304486 6.284785 32.720844 0.725422 1.377522 0.061363 -0.031273 41893.700000 0 0 1
-24.848327 -22.091186 7.337885 34.048560 0.726727 1.353580 0.062389 -0.025172 -108969.000000 0 0 1
-24.144927 -22.297886 8.502785 33.948057 0.745649 1.317636 0.071594 -0.023492 -233169.000000 0 0 1
-25.016527 -22.782986 9.510385 35.147382 0.738705 1.296795 0.084750 -0.023033 436065.000000 0 0 1
-24.275127 -23.173486 10.855685 35.272342 0.762185 1.257950 0.062600 -0.028086 375879.000000 0 0 1
-23.722027 -22.031986 11.488885 34.353129 0.748477 1.229791 0.084218 -0.024009 -233906.000000 0 0 1
-22.949627 -22.443786 12.560785 34.470019 0.774255 1.197811 0.093747 -0.025667 -374632.000000 0 0 1
-23.311327 -21.659586 13.873685 34.713611 0.748686 1.159649 0.077526 -0.015112 -450468.000000 0 0 1
-24.571727 -22.036486 14.331885 35.983043 0.731057 1.161138 0.073471 -0.013997 -424467.000000 0 0 1
-24.880627 -21.360486 15.553785 36.293749 0.709419 1.127906 0.068635 -0.005443 646455.000000 0 0 1
-26.331137 -21.652886 16.109985 37.705541 0.688209 1.129339 0.027055 -0.004989 739536.000000 0 0 1
-27.381757 -21.227586 15.249785 37.854022 0.659463 1.156159 0.026363 -0.004560 372531.000000 0 0 1
-27.872777 -22.248786 14.394685 38.459162 0.673659 1.187171 0.032313 -0.011897 -385574.000000 0 0 1
-28.885727 -23.292786 14.832385 39.961716 0.678617 1.190533 0.034444 -0.018036 -866165.000000 0 0 1
-28.348427 -24.079086 15.845685 40.429215 0.704144 1.168061 0.023191 -0.013619 266654.000000 0 0 1
-29.339817 -24.884186 16.506785 41.863128 0.703412 1.165486 0.009920 -0.007874 411293.000000 0 0 1
-29.337197 -26.332006 15.876485 42.498335 0.731468 1.187932 0.022420 -0.010290 -55782.100000 0 0 1
-29.817907 -26.440816 14.558285 42.428387 0.725442 1.220553 0.025947 -0.013988 232282.000000 0 0 1
-31.139967 -26.981286 14.504785 43.681531 0.713968 1.232312 0.042659 -0.022286 547115.000000 0 0 1
-31.612967 -27.167726 13.021185 43.669397 0.709918 1.268015 0.055539 -0.023261 -101536.000000 0 0 1
-30.945107 -28.248266 12.421285 43.701859 0.739870 1.282595 0.058871 -0.028253 98323.100000 0 0 1
-31.526637 -28.649386 11.182485 44.042753 0.737621 1.314085 0.062808 -0.017890 -21472.400000 0 0 1
-30.791357 -29.869446 10.559685 44.179163 0.770202 1.329440 0.056942 -0.016958 218114.000000 0 0 1
-31.232477 -31.146146 11.005885 45.460747 0.784014 1.326270 0.055112 -0.010038 -44638.200000 0 0 1
-30.638057 -32.151776 10.248985 45.579260 0.809501 1.343996 0.060663 -0.017824 -87680.300000 0 0 1
-30.680117 -33.418576 11.113685 46.707438 0.828095 1.330549 0.060585 -0.012345 -29221.100000 0 0 1
-31.979987 -33.957106 11.100785 47.948222 0.815374 1.337161 0.054606 -0.007797 -93045.400000 0 0 1
-32.003887 33.122486 11.874385 47.564156 -0.802572 1.318478 0.071773 -0.011151 192919.000000 0 0 1
-33.445677 32.729313 12.349085 48.397532 -0.774573 1.312784 0.070788 -0.006837 525677.000000 0 0 1
-34.336214 32.376085 11.323385 48.532520 -0.756025 1.335311 0.036909 -0.005653 -42851.400000 0 0 1
-35.032328 33.481380 10.770685 49.641459 -0.762765 1.352087 0.055757 -0.000239 5539.860000 0 0 1
-36.478607 33.174139 10.264885 50.364473 -0.737992 1.365546 0.037691 0.012008 491897.000000 0 0 1
-36.528417 32.399080 9.076685 49.662982 -0.725561 1.386998 0.015576 0.008780 -289388.000000 0 0 1
35.354205 32.292034 8.627085 48.653077 0.740162 1.392535 0.008007 0.013480 -258556.000000 0 0 1
35.054415 31.557617 7.329885 47.732823 0.732951 1.416626 0.013219 0.011685 -122846.000000 0 0 1
35.299895 30.184847 7.388385 47.029733 0.707446 1.413043 0.036568 0.001296 36497.000000 0 0 1
35.247325 29.672157 6.073385 46.472538 0.699730 1.439734 0.053350 0.004495 -5899.690000 0 0 1
35.602445 28.188327 5.863985 45.787577 0.669692 1.442374 0.059594 -0.001446 -217843.000000 0 0 1
34.668725 27.239737 6.334185 44.542627 0.665970 1.428108 0.054827 0.000152 -17591.000000 0 0 1
35.071075 26.574717 7.536185 44.642916 0.648436 1.401174 0.037735 0.000015 178312.000000 0 0 1
34.009925 25.538727 8.024185 43.281510 0.644090 1.384322 0.043914 -0.001023 290858.000000 0 0 1
33.906425 24.399377 7.245385 42.396590 0.623766 1.399058 0.057118 -0.001313 321511.000000 0 0 1
32.835565 23.532647 7.627185 41.111236 0.621834 1.384190 0.050185 0.004523 -223621.000000 0 0 1
32.857255 22.223207 6.822185 40.249377 0.594681 1.400476 0.063858 -0.000429 699149.000000 0 0 1
33.902055 21.248207 6.998085 40.617839 0.559859 1.397641 0.086239 -0.005716 384726.000000 0 0 1
35.256785 21.610707 6.870485 41.919770 0.549888 1.406157 0.088775 -0.008199 -237489.000000 0 0 1
36.195835 20.403907 6.989785 42.134487 0.513307 1.404134 0.069761 -0.008832 -253187.000000 0 0 1
36.277595 19.662207 5.817385 41.671432 0.496675 1.430738 0.092483 -0.017757 61745.600000 0 0 1
-36.511917 18.347307 6.136385 41.320684 -0.465647 1.421739 0.100892 -0.018913 11515.800000 0 0 1
36.269785 17.413807 4.998785 40.542889 0.447617 1.447186 0.103818 -0.022926 468741.000000 0 0 1
-35.962154 17.296307 3.950585 40.100447 -0.448299 1.472119 0.098230 -0.019140 687126.000000 0 0 1
-36.551237 16.510907 2.917885 40.213393 -0.424283 1.498172 0.110771 -0.021832 636207.000000 0 0 1
-35.502876 16.091807 1.780585 39.020135 -0.425556 1.525148 0.121100 -0.012144 1292640.000000 0 0 1
-34.440234 15.189507 2.106485 37.699975 -0.415378 1.514892 0.126508 -0.023683 939943.000000 0 0 1
-33.315887 15.826507 2.703685 36.982922 -0.443484 1.497625 0.125955 -0.017134 78150.500000 0 0 1
-32.054097 14.952107 2.903285 35.488867 -0.436461 1.488896 0.101631 -0.020088 123612.000000 0 0 1
-32.058517 14.264307 4.174685 35.336199 -0.418643 1.452378 0.110263 -0.027738 1337880.000000 0 0 1
-30.686687 13.922407 4.503785 33.996915 -0.425923 1.437929 0.097723 -0.027121 1114240.000000 0 0 1
-30.514077 13.267807 5.876185 33.788654 -0.410150 1.395998 0.104372 -0.027720 -95647.200000 0 0 1
-30.922257 11.875707 5.888085 33.643542 -0.366682 1.394877 0.114579 -0.026351 633284.000000 0 0 1
-30.474297 11.212107 7.079685 33.234260 -0.352549 1.356128 0.106167 -0.018859 67656.200000 0 0 1
-30.949087 9.705707 6.960285 33.173669 -0.303889 1.359412 0.125770 -0.027098 -49294.500000 0 0 1
-32.302607 9.414107 7.164985 34.400884 -0.283580 1.360981 0.115427 -0.025394 -422355.000000 0 0 1
-32.440157 8.002607 7.019285 34.141995 -0.241859 1.363729 0.136835 -0.025855 24560.800000 0 0 1
-33.892967 7.593707 6.683585 35.370438 -0.220410 1.380694 0.129401 -0.016488 289043.000000 0 0 1
-34.723954 7.600807 7.852085 36.403028 -0.215494 1.353389 0.117512 -0.007211 790218.000000 0 0 1
-35.999767 6.981007 7.586585 37.446948 -0.191541 1.366789 0.088835 -0.005905 1140370.000000 0 0 1
36.503205 6.471407 8.899785 38.125704 0.175460 1.335190 0.086959 -0.006727 351590.000000 0 0 1
35.921455 7.416307 9.813985 37.969288 0.203598 1.309357 0.091581 -0.005398 114849.000000 0 0 1
-36.350737 7.872207 10.759985 38.718535 -0.213269 1.289186 0.106356 -0.017414 -207978.000000 0 0 1
36.282845 8.881207 11.764585 39.162816 0.240057 1.265682 0.095266 -0.025106 -527950.000000 0 0 1
35.580035 8.280807 12.798485 38.708034 0.228667 1.233813 0.072828 -0.024975 405737.000000 0 0 1
34.927645 9.228907 13.643985 38.616984 0.258325 1.209683 0.109339 -0.039002 -50406.000000 0 0 1
34.074315 8.616607 14.792585 38.132997 0.247684 1.172422 0.099553 -0.042670 325969.000000 0 0 1
32.733245 8.165407 14.607485 36.762995 0.244464 1.162178 0.083811 -0.040155 688575.000000 0 0 1
32.362705 7.614807 15.840385 36.827269 0.231092 1.126163 0.083342 -0.033503 -96344.200000 0 0 1
30.855265 7.274307 15.869085 35.451245 0.231528 1.106682 0.063769 -0.022909 -114098.000000 0 0 1
30.026095 8.441407 15.997585 35.053480 0.274062 1.096878 0.059078 -0.026748 363145.000000 0 0 1
28.629865 8.273807 15.954485 33.803412 0.281328 1.079263 0.058212 -0.016530 291543.000000 0 0 1
27.962885 7.513407 17.165185 33.660330 0.262492 1.035666 0.054337 -0.013224 -555497.000000 0 0 1
27.997185 8.378107 18.368085 34.516976 0.290767 1.009663 0.071808 -0.024205 -52049.800000 0 0 1
27.264985 7.911707 19.477885 34.429094 0.282422 0.969467 0.063949 -0.019180 -422963.000000 0 0 1
27.748285 6.748107 20.350985 35.066606 0.238559 0.951635 0.065064 -0.017557 104105.000000 0 0 1
27.041385 6.639107 21.619985 35.252489 0.240754 0.910578 0.048088 -0.001133 278092.000000 0 0 1
27.544185 5.577507 22.387385 35.930290 0.199792 0.898124 0.064460 -0.004630 -732890.000000 0 0 1
26.793285 5.336507 23.705785 36.170743 0.196601 0.856103 0.079184 -0.002301 970494.000000 0 0 1
25.418585 4.902007 23.592085 35.024572 0.190512 0.831745 0.025694 0.002187 594889.000000 0 0 1
24.620785 6.067607 23.612185 34.648726 0.241628 0.821022 0.036566 0.006947 -1028050.000000 0 0 1
23.152685 5.803607 23.262985 33.330094 0.245606 0.798255 0.052502 -0.008336 -285520.000000 0 0 1
23.031985 5.335607 21.945585 32.257553 0.227645 0.822592 0.059396 -0.004631 -347113.000000 0 0 1
21.667685 5.276907 21.670985 31.096076 0.238888 0.799725 0.056992 -0.003219 -1490490.000000 0 0 1
21.015285 3.851807 21.626785 30.400600 0.181274 0.779317 0.065229 -0.010919 784039.000000 0 0 1
19.677485 3.784707 21.102985 29.100918 0.190016 0.759521 0.067097 -0.011010 571221.000000 0 0 1
18.698185 4.329607 21.914385 29.130875 0.227542 0.719290 0.068671 -0.008639 -1356770.000000 0 0 1
17.298285 4.210907 21.299885 27.760539 0.238785 0.696220 0.093221 -0.014528 40487.400000 0 0 1
16.569385 2.958207 21.319485 27.162768 0.176673 0.668296 0.091651 -0.023475 545685.000000 0 0 1
15.483785 2.984907 20.405085 25.788074 0.190440 0.657929 0.103194 -0.031062 -780324.000000 0 0 1
14.469185 1.912607 20.681285 25.312664 0.131423 0.614550 0.106371 -0.031266 -1177940.000000 0 0 1
14.864385 0.572807 20.697985 25.488912 0.038516 0.623159 0.089524 -0.026358 18803.100000 0 0 1
13.898285 -0.212693 21.389885 25.509503 -0.015302 0.576260 0.086172 -0.028768 -253.027000 0 0 1
14.138685 -1.703793 21.620285 25.889034 -0.119928 0.582457 0.059212 -0.016171 -209915.000000 0 0 1
13.768785 -2.419093 20.488385 24.803334 -0.173919 0.598763 0.072117 -0.015690 56248.900000 0 1 0
13.919785 -3.792593 20.727085 25.253836 -0.266004 0.608074 0.069382 -0.003715 -41372.800000 0 0 1
13.756285 -4.505893 19.371085 24.182171 -0.316538 0.641752 0.075980 -0.008452 -669765.000000 0 1 0
12.408685 -4.470193 19.023985 23.148868 -0.345774 0.606215 0.074730 -0.012917 -560660.000000 0 1 0
12.127385 -5.079493 17.731885 22.074747 -0.396646 0.638039 0.078175 -0.012743 1250070.000000 0 1 0
10.576885 -5.065893 17.391685 20.976284 -0.446673 0.593279 0.078367 -0.011203 1231650.000000 0 1 0
9.947785 -6.015493 18.236085 21.626359 -0.543873 0.567525 0.077189 -0.006624 -624653.000000 0 1 0
8.565985 -6.040393 17.947585 20.784087 -0.614181 0.528578 0.057570 -0.019328 -313465.000000 0 1 0
7.943685 -7.063093 18.933985 21.713710 -0.726786 0.511558 0.056793 -0.026306 -542045.000000 0 1 0
8.119285 -8.449993 18.819585 22.169843 -0.805355 0.556929 0.064645 -0.023567 92955.900000 0 1 0
9.187485 -9.125693 19.506185 23.413232 -0.782024 0.586060 0.083505 -0.024761 527080.000000 0 1 0
9.395085 -10.580393 18.959485 23.657439 -0.844667 0.641135 0.092888 -0.024581 213891.000000 0 1 0
9.530985 -10.583293 17.570485 22.617863 -0.837667 0.681163 0.078527 -0.018091 20349.700000 0 1 0
9.835585 -11.896793 17.129285 23.058292 -0.879960 0.733451 0.072089 -0.017834 188825.000000 0 1 0
9.987985 -11.930193 15.572285 22.013301 -0.873779 0.784979 0.070558 -0.021868 272645.000000 0 1 0
10.458785 -13.181593 15.090385 22.602219 -0.900069 0.839748 0.059021 -0.017412 177792.000000 0 1 0
10.034385 -13.321993 13.731685 21.603786 -0.925238 0.881992 0.045119 -0.011691 -103594.000000 0 1 0
10.855185 -14.372593 12.975485 22.198417 -0.923931 0.946504 0.057453 -0.019437 1202030.000000 0 1 0
12.216985 -14.084493 12.563685 22.482746 -0.856283 0.977841 0.039571 -0.023083 1103190.000000 0 1 0
12.353885 -13.194193 11.467185 21.405643 -0.818278 1.005450 0.020375 -0.022272 -82990.800000 0 1 0
13.823785 -12.943993 11.005585 21.903582 -0.752542 1.044359 0.051383 -0.030292 509059.000000 0 1 0
14.305885 -14.127093 10.394585 22.633615 -0.779110 1.093641 0.048931 -0.025576 -444268.000000 0 1 0
15.585585 -13.897893 9.874885 23.099248 -0.728219 1.129073 0.052116 -0.030004 12919.500000 0 1 0
16.496385 -15.150393 9.623885 24.377947 -0.742892 1.164970 0.051157 -0.031206 174693.000000 0 1 0
16.974685 -15.850093 10.749985 25.591553 -0.751151 1.137285 0.058391 -0.021208 -14700.100000 0 0 1
16.050785 -16.590393 11.534685 25.805384 -0.801928 1.107401 0.067111 -0.013648 -16803.600000 0 0 1
16.735385 -17.215193 12.761785 27.190056 -0.799530 1.082236 0.057401 -0.008579 -194156.000000 0 0 1
17.631485 -18.274193 12.494985 28.300885 -0.803296 1.113521 0.066329 -0.017254 -177266.000000 0 0 1
18.148385 -18.721893 13.745085 29.475423 -0.800952 1.085666 0.057506 -0.016314 143081.000000 0 0 1
19.370785 -19.661293 13.532585 30.739627 -0.792841 1.114939 0.032383 -0.021435 414843.000000 0 0 1
20.453985 -18.966193 12.931585 30.745860 -0.747674 1.136694 0.040520 -0.022870 -439779.000000 0 0 1
21.540485 -19.864893 12.736485 31.950345 -0.744952 1.160770 0.031808 -0.026723 501949.000000 0 0 1
22.686585 -19.064893 12.049985 31.989896 -0.698871 1.184586 0.049905 -0.023656 -313750.000000 0 0 1
22.830985 -19.035093 10.650285 31.575580 -0.694978 1.226754 0.033300 -0.018545 -13191.700000 0 0 1
21.781585 -18.570793 9.802085 30.255457 -0.705997 1.240866 0.048017 -0.023672 383309.000000 0 0 1
21.171185 -17.172693 9.816585 28.973882 -0.681494 1.225147 0.097080 -0.030625 222656.000000 0 0 1
22.087885 -16.263493 9.252785 28.948056 -0.634681 1.245453 0.090923 -0.025748 -127586.000000 0 0 1
21.564785 -14.980893 9.197985 27.822115 -0.607155 1.233857 0.111370 -0.037908 -50143.800000 0 0 1
-34.810744 25.052914 8.480385 43.719027 -0.623818 1.375584 0.092580 -0.003909 -292628.000000 0 0 1
-33.909347 24.225914 9.203085 42.678279 -0.620346 1.353451 0.104472 -0.017109 774861.000000 0 0 1
-32.818027 25.017714 9.714085 42.394249 -0.651337 1.339605 0.110216 -0.011441 -364597.000000 0 0 1
-31.744307 24.153514 10.303185 41.197681 -0.650426 1.318022 0.119563 -0.034629 -1045770.000000 0 0 1
-30.983277 23.481614 9.372685 39.989960 -0.648525 1.334220 0.107937 -0.027756 -395911.000000 0 0 1
-30.146517 22.496114 9.906385 38.897610 -0.641081 1.313281 0.103247 -0.031182 -23741.100000 0 0 1
-29.437217 21.657514 8.809785 37.592685 -0.634298 1.334248 0.088200 -0.035418 -681278.000000 0 0 1
-30.230387 20.771914 8.152885 37.574170 -0.602030 1.352075 0.089174 -0.036789 -653058.000000 0 0 1
-29.643827 20.213514 7.004485 36.556879 -0.598461 1.377999 0.086011 -0.039797 -247604.000000 0 0 1
-30.679297 19.476614 6.137285 36.854091 -0.565648 1.403488 0.077288 -0.028142 -284050.000000 0 0 1
-31.161617 18.239814 6.632285 36.711366 -0.529563 1.389139 0.090232 -0.031361 320405.000000 0 0 1
-32.333117 17.880914 5.919385 37.419202 -0.505160 1.411938 0.068418 -0.027952 108332.000000 0 0 1
-32.916777 16.492214 6.334385 37.358155 -0.464469 1.400415 0.077616 -0.019146 53649.400000 0 0 1
-33.620797 16.611614 7.585985 38.260304 -0.458906 1.371201 0.079421 -0.027175 297934.000000 0 0 1
-34.221425 15.416114 8.006585 38.377961 -0.423254 1.360628 0.089035 -0.028123 -110845.000000 0 0 1
-35.176654 15.666714 9.202785 39.592097 -0.418999 1.336211 0.104008 -0.034083 437481.000000 0 0 1
-36.313027 16.496114 8.973585 40.881327 -0.426404 1.349491 0.116957 -0.033345 326384.000000 0 0 1
36.209185 16.815814 10.156585 41.195059 0.434770 1.321679 0.137918 -0.029860 369024.000000 0 0 1
35.198905 17.989414 9.977585 40.769280 0.472471 1.323552 0.121092 -0.030476 127136.000000 0 0 1
34.037205 17.686414 9.252785 39.458264 0.479220 1.334097 0.117243 -0.029364 -334503.000000 0 0 1
33.216135 18.828114 9.257285 39.287490 0.515677 1.332930 0.100307 -0.016774 -600931.000000 0 0 1
31.875895 18.700714 8.542785 37.931103 0.530562 1.343629 0.063559 -0.017504 -320025.000000 0 0 1
31.101185 19.850814 8.914585 37.957982 0.568082 1.333728 0.047860 -0.006964 1016200.000000 0 0 1
29.705995 19.923314 8.563285 36.779267 0.590778 1.335811 0.015270 -0.004893 1245540.000000 0 0 1
29.304895 19.942514 7.036585 36.138543 0.597531 1.374833 0.009589 -0.004076 -788176.000000 0 0 1
29.482685 18.694914 6.295185 35.473341 0.565115 1.392389 0.035929 -0.007342 106611.000000 0 0 1
29.230835 18.783514 4.893085 35.088522 0.571150 1.430891 0.041792 -0.013776 292358.000000 0 0 1
27.756585 19.154514 4.536385 34.027962 0.604043 1.437085 0.064048 -0.014173 33253.500000 0 0 1
26.751285 18.198414 4.964485 32.733158 0.597369 1.418543 0.055428 -0.016825 2159880.000000 0 0 1
25.375885 18.389014 4.527185 31.663651 0.627089 1.427327 0.073030 -0.014972 1616940.000000 0 0 1
24.684085 19.729014 4.929585 31.981852 0.674290 1.416042 0.082942 -0.012701 -1018210.000000 0 0 1
25.237785 20.876214 4.268485 33.030018 0.691096 1.441203 0.072096 -0.009789 79482.400000 0 0 1
24.819985 22.069314 4.813085 33.559679 0.726802 1.426881 0.076595 -0.005362 -155689.000000 0 0 1
25.789785 23.232314 4.446885 34.994689 0.733276 1.443379 0.037858 0.007003 73154.600000 0 0 1
26.976985 23.206414 5.199585 35.962912 0.710403 1.425706 0.040775 0.000099 -464185.000000 0 0 1
27.767785 24.317314 4.970085 37.243569 0.719248 1.436949 0.032180 0.006075 -1515870.000000 0 0 1
29.076585 24.276014 5.773085 38.315808 0.695662 1.419549 0.020170 0.005589 -263681.000000 0 0 1
29.982775 23.218114 5.346785 38.296681 0.658924 1.430724 0.014646 0.004737 740869.000000 0 0 1
30.467915 23.179014 3.969685 38.487907 0.650357 1.467471 0.025371 -0.002066 -604001.000000 0 0 1
31.242085 24.460014 3.572085 39.838674 0.664238 1.481012 0.055314 -0.017059 -661073.000000 0 0 1
30.437685 25.608814 3.262985 39.911291 0.699452 1.488949 0.023547 -0.014717 -31103.800000 0 0 1
31.253895 26.626814 2.729885 41.149064 0.705626 1.504406 0.076341 -0.013447 -627406.000000 0 0 1
30.695025 28.066214 2.688085 41.678805 0.740691 1.506256 0.061311 -0.007699 -685033.000000 0 0 1
29.650225 28.476714 1.871985 41.152927 0.765212 1.525292 0.083900 -0.014910 -824981.000000 0 0 1
28.434485 28.051114 2.409485 40.014879 0.778611 1.510545 0.053252 -0.005568 -1639410.000000 0 0 1
27.198685 28.684414 1.835785 39.571886 0.811978 1.524389 0.019843 -0.007352 -688789.000000 0 0 1
26.905285 30.000914 2.269385 40.362103 0.839743 1.514541 0.017171 -0.014602 -459456.000000 0 0 1
25.536285 30.227114 2.145085 39.628042 0.869321 1.516639 0.022613 -0.008737 -593538.000000 0 0 1
25.263085 31.655014 2.661385 40.587515 0.897230 1.505178 0.039584 -0.021819 -421166.000000 0 0 1
25.226085 31.871214 4.088485 40.851504 0.901259 1.470547 0.025938 -0.038096 -579698.000000 0 0 1
26.450885 31.952914 4.739085 41.750413 0.879328 1.457041 0.020609 -0.032100 -792038.000000 0 0 1
26.415585 31.724314 6.318585 41.762899 0.876455 1.418916 0.039001 -0.040850 -138893.000000 0 0 1
26.008385 30.423614 6.765685 40.593188 0.863479 1.403344 0.045443 -0.041043 265204.000000 0 0 1
26.906185 29.360314 6.501785 40.351506 0.828987 1.408962 0.035811 -0.036962 62136.700000 0 0 1
26.306585 27.996414 6.934785 39.037506 0.816507 1.392204 0.050808 -0.029503 -256057.000000 0 0 1
25.146385 27.544114 6.317885 37.827696 0.830873 1.402992 0.034883 -0.034867 -254186.000000 0 0 1
24.680585 26.272714 6.747685 36.673124 0.816635 1.385747 0.054199 -0.028502 -155794.000000 0 0 1
23.300685 25.888914 6.146885 35.368658 0.837967 1.396115 0.068983 -0.015380 50847.300000 0 0 1
23.234585 25.515414 4.776685 34.838183 0.832150 1.433252 0.039848 -0.013894 167306.000000 0 0 1
23.291585 26.687014 3.910985 35.636926 0.853232 1.460830 0.035575 -0.012974 -302804.000000 0 0 1
23.439785 26.497414 2.377885 35.456887 0.846551 1.503682 0.034010 0.000516 -77659.900000 0 0 1
24.735185 26.119314 1.961285 36.026304 0.812609 1.516329 0.017077 0.018496 172265.000000 0 0 1
24.682885 25.785414 0.630085 35.700552 0.807241 1.553146 0.034403 0.006952 354831.000000 0 0 1
25.932185 25.014214 0.088385 36.030500 0.767382 1.568343 0.045192 0.002495 -865184.000000 0 0 1
27.088485 25.839914 -0.029715 37.436454 0.761813 1.571590 0.057253 0.002391 1012860.000000 0 0 1
28.196775 25.186514 -0.691715 37.813980 0.729068 1.589090 0.068562 0.004335 760140.000000 0 0 1
28.724765 23.837414 -0.102415 37.327536 0.692682 1.573540 0.057078 -0.004869 -1381790.000000 0 0 1
27.804885 22.766714 -0.119015 35.936737 0.686101 1.574108 0.052255 0.000221 123700.000000 0 0 1
28.180855 21.766514 0.866885 35.618720 0.657675 1.546456 0.056211 -0.003639 -650732.000000 0 0 1
27.006785 20.911014 1.223085 34.177959 0.658865 1.535003 0.053055 -0.006573 -810527.000000 0 0 1
26.485785 20.115014 0.203585 33.258864 0.649531 1.564675 0.079811 -0.026254 1048480.000000 0 0 1
25.205285 19.567814 0.573785 31.914495 0.660145 1.552817 0.066346 -0.020639 521801.000000 0 0 1
24.775785 18.295714 -0.133015 30.799194 0.636069 1.575115 0.087661 -0.028907 659320.000000 0 0 1
23.414385 17.987614 0.239585 29.527023 0.655066 1.562682 0.078351 -0.026174 983866.000000 0 0 1
22.896585 16.927514 -0.538115 28.479535 0.636620 1.589692 0.099457 -0.048556 -46551.600000 0 0 1
21.504785 16.527914 -0.018715 27.122465 0.655280 1.571486 0.081041 -0.031856 -755150.000000 0 0 1
20.858785 15.564314 -0.847915 26.039504 0.641049 1.603365 0.079624 -0.030449 -244886.000000 0 0 1
19.487285 15.406514 -0.671915 24.850884 0.668979 1.597837 0.080749 -0.025972 1622.170000 0 1 0
18.584585 16.615114 -1.188415 24.957186 0.729505 1.618432 0.079447 -0.025815 -337325.000000 0 1 0
18.553485 17.746414 -0.411015 25.677538 0.763168 1.586804 0.075662 -0.027847 -124781.000000 0 0 1
17.473385 18.567714 -0.779315 25.508558 0.815752 1.601352 0.051341 -0.026818 -51936.100000 0 0 1
17.499485 20.017714 -0.194215 26.589069 0.852420 1.578101 0.054908 -0.024609 -291515.000000 0 0 1
17.173485 20.092314 1.175185 26.457716 0.863563 1.526364 0.060594 -0.017735 50387.100000 0 0 1
17.284385 21.380114 1.789085 27.551045 0.890935 1.505814 0.083047 -0.018029 -95604.200000 0 0 1
16.222985 22.420614 1.363085 27.707890 0.944423 1.521582 0.069511 -0.023608 774462.000000 0 0 1
14.912285 22.208514 1.916785 26.819180 0.979478 1.499265 0.059616 -0.019757 781635.000000 0 0 1
14.042685 23.268414 1.545685 27.221411 1.027801 1.513984 0.059677 -0.020257 284714.000000 0 0 1
12.561485 23.117214 1.969085 26.383210 1.073048 1.496093 0.060493 -0.022502 341744.000000 0 0 1
12.415185 23.518014 3.304885 26.798434 1.085078 1.447158 0.063890 -0.009932 76730.900000 0 0 1
11.081185 23.316414 3.739985 26.085155 1.127142 1.426925 0.055486 -0.012565 245239.000000 0 0 1
10.805785 23.523114 5.265785 26.416479 1.140179 1.370115 0.058017 -0.014685 104452.000000 0 0 1
11.553585 22.611814 6.084585 26.111332 1.098424 1.335609 0.063082 -0.043570 201403.000000 0 0 1
11.062085 22.588114 7.394685 26.215911 1.115398 1.284847 0.044075 -0.026926 -765023.000000 0 0 1
11.587385 21.364414 8.212285 25.654382 1.073831 1.244948 0.053656 -0.027821 -39275.100000 0 0 1
12.864285 21.523114 8.762685 26.561606 1.032072 1.234598 0.059788 -0.025763 654245.000000 0 0 1
14.020485 21.564714 7.889585 26.904580 0.994310 1.273179 0.078608 -0.029801 617706.000000 0 0 1
15.389985 21.736114 8.580785 27.981068 0.954696 1.259110 0.084608 -0.029103 -262112.000000 0 0 1
15.899985 20.506014 9.095085 27.495940 0.911248 1.233667 0.093964 -0.025247 452867.000000 0 0 1
17.276285 20.510114 9.467485 28.438848 0.870772 1.231412 0.083499 -0.030907 540484.000000 0 0 1
17.492685 21.346114 10.813485 29.640885 0.884290 1.197361 0.054623 -0.012021 -1172380.000000 0 0 1
16.761985 20.884814 11.872485 29.293267 0.894477 1.153492 0.058118 -0.023298 -391812.000000 0 0 1
16.788285 21.641814 13.046085 30.338342 0.911028 1.126282 0.053652 -0.012926 545571.000000 0 0 1
17.854485 21.380914 14.200985 31.266501 0.875036 1.099332 0.045856 -0.008435 669791.000000 0 0 1
19.207485 21.521314 13.839085 31.993979 0.842148 1.123474 0.049040 -0.011197 -355906.000000 0 0 1
20.055085 21.152914 14.904185 32.738157 0.812033 1.098139 0.039193 -0.010634 513278.000000 0 0 1
21.514485 21.649814 14.663085 33.861388 0.788533 1.122942 0.045506 -0.012166 329025.000000 0 0 1
22.091185 21.105314 13.485585 33.396343 0.762579 1.155125 0.039244 -0.011423 -474392.000000 0 0 1
23.452385 21.443414 13.447785 34.506192 0.740681 1.170468 0.050277 -0.019487 -587570.000000 0 0 1
24.191685 20.847914 12.263085 34.209011 0.711293 1.204162 0.056032 -0.016737 -311187.000000 0 0 1
24.078385 21.510314 11.009285 34.112558 0.729126 1.242180 0.077859 -0.019402 495102.000000 0 0 1
25.084285 20.990114 10.148785 34.246227 0.696771 1.269930 0.089338 -0.032221 44655.500000 0 0 1
25.044085 21.665214 8.761185 34.254139 0.713186 1.312152 0.071220 -0.027385 14294.300000 0 0 1
25.336385 23.035014 8.700485 35.330479 0.737857 1.321977 0.058993 -0.020218 -403977.000000 0 0 1
26.676185 23.416214 8.690985 36.544099 0.720411 1.330674 0.044412 -0.022602 -802501.000000 0 0 1
26.919385 24.895314 9.080785 37.774206 0.746354 1.328022 0.070142 -0.019300 -281868.000000 0 0 1
28.267035 25.241914 8.842085 38.914804 0.728923 1.341578 0.052534 -0.012139 138719.000000 0 0 1
28.759215 26.234914 9.718785 40.122537 0.739529 1.326135 0.061864 -0.016691 91573.900000 0 0 1
30.059925 26.827414 9.153985 41.317123 0.728636 1.347388 0.051064 -0.013340 88627.700000 0 0 1
29.775255 27.683914 8.097085 41.455129 0.749017 1.374211 0.055327 -0.014039 -317240.000000 0 0 1
30.977195 28.000914 7.464985 42.418909 0.734977 1.393893 0.054960 -0.002252 -353759.000000 0 0 1
30.922685 29.039714 6.311585 42.887685 0.754006 1.423094 0.072341 -0.005570 -80086.100000 0 0 1
30.765105 30.379914 6.692685 43.751833 0.779099 1.417224 0.070427 -0.008537 70542.900000 0 0 1
30.774485 31.203914 5.602885 44.183091 0.792327 1.443643 0.074608 -0.009852 100982.000000 0 0 1
30.776355 32.749314 5.909785 45.327995 0.816446 1.440046 0.039750 -0.006772 122505.000000 0 0 1
29.520835 33.100214 6.440485 44.817226 0.842495 1.426591 0.038486 -0.015120 -167660.000000 0 0 1
29.468215 -33.729979 6.621085 45.276108 -0.852731 1.424032 0.029099 -0.006737 -362463.000000 0 0 1
28.106985 -33.229979 7.090885 44.096652 -0.868727 1.409292 0.054520 -0.021805 43085.600000 0 0 1
27.111685 -33.304679 6.083585 43.373438 -0.887547 1.430072 0.052874 -0.027461 -229410.000000 0 0 1
25.856085 -32.760979 6.413085 42.224951 -0.902654 1.418327 0.051861 -0.034107 -144840.000000 0 0 1
24.808385 -32.962479 5.339885 41.599223 -0.925617 1.442076 0.063913 -0.034083 -333406.000000 0 0 1
25.195485 -32.373879 4.076185 41.224941 -0.909449 1.471758 0.032417 -0.019662 351955.000000 0 0 1
24.190285 -32.681479 3.111685 40.779057 -0.933608 1.494416 0.041703 -0.021813 367289.000000 0 0 1
24.582585 -31.965879 1.792585 40.365013 -0.915229 1.526372 0.040832 -0.008929 288934.000000 0 0 1
24.554585 -30.552279 2.020685 39.248599 -0.893809 1.519289 0.042219 0.002594 -19208.000000 0 0 1
25.342085 -29.879579 1.069485 39.193804 -0.867383 1.543506 0.029179 0.007889 -592117.000000 0 0 1
25.685885 -28.405279 1.305885 38.318793 -0.835630 1.536710 0.024241 0.006120 -151567.000000 0 0 1
24.615385 -27.480279 1.303985 36.915895 -0.840336 1.535466 0.028291 0.010098 -204305.000000 0 0 1
24.036985 -27.197179 0.060485 36.296926 -0.847001 1.569130 0.030926 0.008494 157642.000000 0 0 1
22.737585 -26.322379 0.156285 34.783471 -0.858338 1.566303 0.019566 0.013312 419038.000000 0 0 1
22.890585 -24.939179 0.315785 33.853231 -0.828203 1.561468 0.017992 0.004513 -287790.000000 0 0 1
23.168085 -24.480079 1.649385 33.745443 -0.812926 1.521900 0.010738 0.008310 -412497.000000 0 0 1
21.966085 -24.251979 2.557985 32.820887 -0.834817 1.492779 0.016969 0.002288 -355952.000000 0 0 1
22.167485 -23.550979 3.779585 32.562728 -0.815650 1.454463 0.020466 -0.005027 -983618.000000 0 0 1
20.931185 -23.300079 4.349185 31.621568 -0.838904 1.432820 0.024450 -0.006340 -556671.000000 0 0 1
20.970885 -22.296979 5.561485 31.110503 -0.816037 1.391065 0.024223 -0.009211 19979.800000 0 0 1
21.177785 -20.899279 5.306985 30.223212 -0.778779 1.394288 0.046136 -0.010607 -120628.000000 0 0 1
20.203585 -20.321879 4.471585 29.002736 -0.788317 1.416001 0.038798 -0.002969 -476134.000000 0 0 1
20.035885 -18.781079 4.746285 27.869209 -0.753083 1.399656 0.049900 -0.003540 348340.000000 0 0 1
19.380285 -18.623679 6.018185 27.543700 -0.765492 1.350523 0.082753 -0.016304 967831.000000 0 0 1
17.944885 -18.491779 5.964485 26.448816 -0.800406 1.343329 0.052237 -0.023876 947814.000000 0 0 1
18.808873 -26.158806 -11.859415 34.332238 -0.947415 1.923494 0.107769 -0.028639 335533.000000 0 0 1
19.254373 -24.889086 -12.255415 33.769701 -0.912357 1.942187 0.111646 -0.029141 -621118.000000 0 0 1
18.184073 -24.323386 -12.919715 33.003131 -0.928835 1.973024 0.085674 -0.024154 -329693.000000 0 0 1
18.292973 -22.785686 -13.287815 32.099632 -0.894334 1.997591 0.073191 -0.026972 -54641.000000 0 0 1
18.204173 -21.879686 -12.161515 30.951818 -0.876838 1.974599 0.077086 -0.025690 -35653.700000 0 0 1
19.390273 -21.675786 -11.408815 31.240734 -0.840995 1.944634 0.071937 -0.029297 -543294.000000 0 0 1
19.449673 -22.558186 -10.134415 31.462166 -0.859262 1.898758 0.075827 -0.022443 60934.700000 0 0 1
18.649373 -22.201986 -9.017515 30.365159 -0.872144 1.872313 0.081290 -0.017922 881558.000000 0 0 1
17.236973 -22.312086 -9.273015 29.680486 -0.913025 1.888544 0.080897 -0.001634 350376.000000 0 0 1
16.318273 -21.668786 -8.224315 28.345400 -0.925329 1.865176 0.066787 -0.002208 -398678.000000 0 0 1
15.986773 -20.293486 -8.434715 27.176219 -0.903552 1.886380 0.054461 -0.010116 322964.000000 0 0 1
15.033273 -19.708486 -7.560515 25.914959 -0.919165 1.866845 0.049581 -0.012699 1077530.000000 0 0 1
13.532573 -19.905786 -7.989615 25.361483 -0.973735 1.891284 0.037583 -0.000398 645435.000000 0 0 1
13.037973 -21.178486 -7.637915 26.016432 -1.018968 1.868766 0.043480 -0.000805 1339180.000000 0 0 1
11.651773 -21.397986 -8.040015 25.656957 -1.072165 1.889532 0.034603 -0.005181 1361500.000000 0 0 1
11.084773 -22.785686 -7.821415 26.518564 -1.118023 1.870190 0.025989 -0.000951 -116064.000000 0 0 1
11.123273 -23.090586 -6.431115 26.424640 -1.121877 1.816641 0.033416 -0.000181 350703.000000 0 0 1
10.509673 -24.335586 -6.116615 27.204539 -1.163126 1.797573 0.023752 0.004939 -5876.280000 0 0 1
11.050273 -24.801986 -4.787715 27.571167 -1.151658 1.745330 0.039659 -0.003981 -516843.000000 0 0 1
10.391973 -25.856626 -4.192415 28.180393 -1.188647 1.720121 0.055515 -0.009866 -539714.000000 0 0 1
11.021873 -26.375706 -3.039815 28.747174 -1.174972 1.676737 0.049359 -0.012504 -173629.000000 0 0 1
10.080873 -27.164616 -2.109315 29.051499 -1.215446 1.643466 0.062906 -0.015608 141341.000000 0 0 1
9.038773 -26.419316 -1.542015 27.965291 -1.241152 1.625965 0.054997 -0.013441 -409429.000000 0 0 1
8.453173 -27.071696 -0.458315 28.364466 -1.268138 1.586955 0.063560 -0.020299 138410.000000 0 0 1
7.644773 -26.150566 0.492485 27.249536 -1.286385 1.552722 0.065609 -0.018895 349473.000000 0 0 1
6.360373 -25.749556 0.048985 26.523506 -1.328635 1.568949 0.069178 -0.024438 -161044.000000 0 0 1
5.660273 -25.316176 1.187385 25.968391 -1.350831 1.525056 0.071063 -0.018673 392345.000000 0 0 1
4.185573 -24.854986 1.010885 25.225210 -1.403962 1.530711 0.056072 -0.021959 517424.000000 0 0 1
3.231173 -25.853156 0.840485 26.067846 -1.446459 1.538549 0.054934 -0.024134 725010.000000 0 0 1
1.871173 -25.350546 0.860385 25.434066 -1.497118 1.536962 0.052416 -0.021774 1680710.000000 0 0 1
0.761073 -26.295926 0.312885 26.308798 -1.541862 1.558903 0.065625 -0.024323 418367.000000 0 0 1
0.418273 -27.390846 1.137685 27.417654 -1.555527 1.529290 0.064169 -0.019269 -178990.000000 0 0 1
1.354273 -28.445916 1.031685 28.496817 -1.523224 1.534585 0.051310 -0.026210 -63590.600000 0 0 1
0.939073 -29.696256 1.845885 29.768385 -1.539184 1.508748 0.065091 -0.019869 51114.100000 0 0 1
1.132973 -29.692136 3.222885 29.888017 -1.532657 1.462754 0.048279 -0.016960 -199401.000000 0 0 1
0.274073 -30.563016 3.911485 30.813516 -1.561829 1.443512 0.065390 -0.011335 -119318.000000 0 0 1
0.479873 -30.462676 5.404285 30.942062 -1.555045 1.395238 0.060559 -0.010318 -107844.000000 0 0 1
1.800273 -30.787446 5.793985 31.379581 -1.512389 1.385089 0.045339 -0.004420 -48112.300000 0 0 1
1.986873 -30.639296 7.173285 31.530464 -1.506040 1.341283 0.048927 -0.003945 -462842.000000 0 0 1
3.449973 -30.971276 7.421685 32.034414 -1.459861 1.336994 0.051085 -0.010104 -516440.000000 0 0 1
3.781573 -32.318096 7.472985 33.385702 -1.454315 1.345046 0.042503 -0.010250 -846930.000000 0 0 1
5.161073 -32.497926 7.586685 33.768471 -1.413299 1.344194 0.019144 -0.014718 -320856.000000 0 0 1
5.346873 -33.982986 7.474285 35.203655 -1.414736 1.356852 0.017663 -0.001588 -41158.100000 0 0 1
5.036573 33.839412 6.125085 34.756143 1.423044 1.393641 0.016460 0.000274 -92215.400000 0 0 1
5.129473 32.445110 6.110385 33.411576 1.413997 1.386879 0.007781 -0.000462 -65860.200000 0 0 1
5.547173 31.744937 4.787685 32.579657 1.397801 1.423309 0.017259 -0.005761 -656465.000000 0 0 1
6.877773 31.953977 4.468185 32.989772 1.358791 1.434937 0.028318 -0.010449 -815912.000000 0 0 1
7.557773 30.708947 4.179185 31.900234 1.329482 1.439411 0.020596 -0.003795 -380017.000000 0 0 1
8.951373 30.947107 3.671785 32.424258 1.289233 1.457311 0.021868 -0.006832 -549997.000000 0 0 1
9.980773 31.365677 4.547185 33.227976 1.262721 1.433517 0.021148 -0.010155 -441758.000000 0 0 1
11.182573 31.598197 3.868785 33.741124 1.230652 1.455883 0.038162 -0.021954 -577248.000000 0 0 1
12.292673 31.935967 4.880585 34.566398 1.203360 1.429128 0.030925 -0.026696 -338388.000000 0 0 1
12.612173 30.935417 5.756785 33.899963 1.183675 1.400153 0.044251 -0.026637 154537.000000 0 0 1
13.850773 31.223707 6.401185 34.752539 1.153279 1.385545 0.064484 -0.033147 375250.000000 0 0 1
14.344173 30.037477 7.255585 34.068296 1.125276 1.356181 0.071449 -0.036975 -98043.900000 0 0 1
13.704273 29.880777 8.517385 33.959001 1.140787 1.317276 0.048624 -0.026322 96538.000000 0 0 1
14.235373 28.755907 9.150685 33.365896 1.111123 1.292984 0.046887 -0.023187 -195846.000000 0 0 1
14.257673 28.880637 10.720885 33.945689 1.112221 1.249471 0.037793 -0.016135 218560.000000 0 0 1
15.123873 29.854457 11.294485 35.321176 1.101893 1.245315 0.052245 -0.021994 179526.000000 0 0 1
14.595073 30.204327 12.525985 35.808069 1.120670 1.213429 0.043668 -0.020243 15301.500000 0 0 1
15.408773 31.312417 13.233985 37.323399 1.113490 1.208336 0.046790 -0.020330 410919.000000 0 0 1
16.568073 30.781717 13.851785 37.601690 1.077024 1.193528 0.041416 -0.023260 274867.000000 0 0 1
17.340273 31.652037 14.642585 38.947937 1.069612 1.185372 0.048085 -0.021703 325700.000000 0 0 1
18.504273 31.053027 15.490385 39.327479 1.033402 1.165945 0.041445 -0.016110 -112608.000000 0 0 1
19.588273 30.627627 14.744385 39.231987 1.001794 1.185509 0.028722 -0.015000 -417904.000000 0 0 1
20.056273 29.308457 15.011085 38.556094 0.970674 1.170891 0.016411 -0.007274 -1235670.000000 0 0 1
21.304973 28.911597 14.292285 38.652965 0.935732 1.192047 0.041327 -0.011237 -462371.000000 0 0 1
22.423173 29.372597 15.080285 39.911942 0.918771 1.183335 0.050364 -0.010496 337692.000000 0 0 1
23.656873 28.928657 14.547885 40.101818 0.885316 1.199554 0.054969 -0.014459 478320.000000 0 0 1
24.822673 28.948347 15.594485 41.199027 0.861975 1.182604 0.080360 -0.021465 201238.000000 0 0 1
24.895573 27.786707 16.391185 40.749989 0.840222 1.156837 0.064149 -0.015696 -21085.900000 0 0 1
25.712273 27.887357 17.529385 41.786421 0.825956 1.137902 0.063264 -0.015040 -255170.000000 0 0 1
26.637873 26.670787 17.810485 41.690773 0.786016 1.129398 0.036499 -0.014308 -174493.000000 0 0 1
26.060773 25.605617 18.510385 40.956634 0.776589 1.101845 0.033933 -0.018709 21882.400000 0 0 1
26.011473 25.775647 19.906185 41.680174 0.780844 1.072883 0.059725 -0.017123 -83680.600000 0 0 1
25.543973 24.456737 20.506785 40.879760 0.763657 1.045307 0.071074 -0.014281 207938.000000 0 0 1
26.521473 23.439517 20.370085 40.837970 0.723789 1.048580 0.035261 -0.013855 136849.000000 0 0 1
25.879373 22.193107 20.578885 39.821683 0.708867 1.027716 0.032459 -0.016176 359946.000000 0 0 1
26.810573 20.925407 20.664585 39.795785 0.662731 1.024805 0.016443 -0.007765 55687.800000 0 0 1
26.055073 19.705207 20.461585 38.546575 0.647515 1.011220 0.001746 0.005210 103635.000000 0 0 1
26.764473 18.514207 20.468485 38.445699 0.605165 1.009363 0.010245 0.001781 -304220.000000 0 0 1
27.335773 18.114507 21.872385 39.418030 0.585228 0.982574 0.023810 0.007437 -265577.000000 0 0 1
26.327373 17.702507 22.726885 39.025897 0.591961 0.949175 0.010207 0.011870 -6790.670000 0 0 1
26.798473 17.726907 24.037085 40.127083 0.584410 0.928515 0.033562 0.013709 51582.400000 0 0 1
25.780273 16.981507 24.946985 39.690630 0.582468 0.891127 0.016879 0.008186 144853.000000 0 0 1
25.501173 15.682007 24.540685 38.710210 0.551341 0.884135 0.018176 0.000431 53100.100000 0 0 1
24.520973 15.105907 25.360185 38.374543 0.552130 0.848833 0.029803 -0.001891 -115224.000000 0 0 1
24.118073 13.761007 24.742185 37.191699 0.518497 0.842953 0.030686 0.000593 -465094.000000 0 0 1
22.933673 13.191707 25.208085 36.543427 0.521993 0.809567 0.017562 0.001328 -135407.000000 0 0 1
22.417073 12.268407 24.250785 35.229810 0.500752 0.811571 0.026409 0.003680 544325.000000 0 0 1
21.085873 11.552607 24.674485 34.451516 0.501217 0.772441 0.019507 0.001242 921975.000000 0 0 1
19.923773 12.384107 24.598085 33.991008 0.556132 0.761699 0.023062 -0.000440 577223.000000 0 0 1
18.767573 11.621407 24.959685 33.320636 0.554438 0.724130 0.029281 -0.002360 -635054.000000 0 0 1
17.565473 12.487307 25.040385 33.037850 0.618004 0.710662 0.015946 -0.010299 -1243540.000000 0 0 1
17.449873 13.101807 26.291885 34.167508 0.644029 0.692739 0.044170 -0.011505 -473880.000000 0 0 1
16.237173 13.772707 26.419885 33.931454 0.703460 0.678324 0.056949 -0.014994 -667492.000000 0 0 1
15.874073 14.215907 27.860385 35.075337 0.730347 0.652940 0.050952 -0.008238 -192452.000000 0 0 1
15.379573 13.211007 28.724585 35.159120 0.709694 0.614628 0.066180 -0.008265 -89793.000000 0 0 1
15.557873 13.454007 30.128385 36.479820 0.713007 0.599014 0.061158 -0.005920 -457225.000000 0 0 1
16.927373 13.062507 30.726285 37.433536 0.657232 0.607947 0.055945 -0.006604 -67982.700000 0 0 1
17.849673 14.010607 30.215285 37.787185 0.665479 0.644139 0.069260 -0.008120 -1053410.000000 0 0 1
19.121373 13.516907 30.025785 38.077309 0.615342 0.662352 0.066275 -0.001656 -1331860.000000 0 0 1
20.085273 14.642507 29.651585 38.691571 0.629936 0.697644 0.055972 -0.003798 -711783.000000 0 0 1
20.006373 15.227807 28.340985 37.886046 0.650598 0.725664 0.067033 -0.008685 75578.800000 0 0 1
20.255773 14.502107 27.172785 36.864179 0.621350 0.742019 0.053379 -0.001052 -339056.000000 0 0 1
19.867973 15.313107 25.932485 36.079376 0.656645 0.768776 0.040448 -0.007834 400265.000000 0 0 1
20.841873 16.375307 25.739385 36.946587 0.665956 0.800058 0.047502 -0.004352 758895.000000 0 0 1
20.782773 16.944507 24.444885 36.284878 0.684010 0.831601 0.040772 -0.007571 181615.000000 0 0 1
22.014073 17.831707 24.098385 37.193028 0.680817 0.865936 0.040959 -0.008910 -21973.500000 0 0 1
21.854873 18.379507 22.775685 36.526341 0.699234 0.897532 0.044124 -0.016245 189021.000000 0 0 1
22.984673 18.994807 22.161785 37.151616 0.690640 0.931635 0.037450 -0.006644 253797.000000 0 0 1
23.484673 20.358607 22.636985 38.450433 0.714218 0.941308 0.057453 -0.025679 443237.000000 0 0 1
22.358873 21.236307 22.506785 38.176633 0.759654 0.940303 0.055041 -0.021251 924914.000000 0 0 1
22.627373 22.352807 23.335385 39.448526 0.779294 0.937829 0.068564 -0.028323 234534.000000 0 0 1
21.703973 23.545167 22.978385 39.413748 0.826066 0.948375 0.068731 -0.037455 -71543.500000 0 0 1
22.115173 24.270437 21.843785 39.437113 0.831829 0.983768 0.064851 -0.033747 -113435.000000 0 0 1
21.132773 25.205947 21.502385 39.297410 0.873073 0.991816 0.067862 -0.032167 -589233.000000 0 0 1
21.524373 26.258947 20.488885 39.656340 0.884160 1.027850 0.062704 -0.027564 -313934.000000 0 0 1
21.476573 25.795097 19.117285 38.627720 0.876501 1.053064 0.045684 -0.029252 330719.000000 0 0 1
22.047073 26.772347 18.202385 39.168339 0.881888 1.087476 0.044596 -0.017523 -9167.790000 0 0 1
21.981373 26.126977 16.801985 38.053993 0.871358 1.113493 0.031328 -0.011568 -1605170.000000 0 0 1
20.737673 26.121547 16.231385 37.092373 0.899791 1.117876 0.027959 -0.015618 -1191900.000000 0 0 1
20.784773 25.412047 15.012385 36.099177 0.885230 1.141903 0.035677 -0.011355 -452738.000000 0 0 1
19.412173 25.120577 14.373685 34.849371 0.912887 1.145653 0.035842 -0.011004 141987.000000 0 0 1
18.548073 26.226917 14.226685 35.132332 0.955244 1.153877 0.032873 -0.006840 78339.500000 0 0 1
17.639573 26.487727 15.290785 35.306689 0.983288 1.122884 0.033801 0.004974 -540805.000000 0 0 1
16.187073 26.261747 14.829385 34.228808 1.018424 1.122709 0.048273 -0.004371 -647769.000000 0 0 1
15.810073 24.895297 14.586485 32.901364 1.004994 1.111475 0.045303 -0.004454 139915.000000 0 0 1
15.536273 24.028007 15.733285 32.653593 0.996822 1.068061 0.054725 -0.001973 62194.600000 0 0 1
14.328973 24.354657 16.674485 32.810169 1.038990 1.037690 0.090070 -0.018935 263957.000000 0 0 1
14.621473 25.644327 17.298585 34.214909 1.052604 1.040735 0.070729 -0.017364 -171218.000000 0 0 1
13.534873 26.217027 17.929785 34.525389 1.094223 1.024739 0.079695 -0.020104 -476841.000000 0 0 1
14.043473 27.496537 18.633285 36.062140 1.098597 1.027805 0.082689 -0.030436 31190.500000 0 0 1
14.385373 28.554217 17.705885 36.548332 1.104120 1.065061 0.076136 -0.030235 184506.000000 0 0 1
15.019573 29.615057 18.367885 37.947574 1.101437 1.065538 0.059070 -0.030171 -264364.000000 0 0 1
14.939973 30.940317 17.532985 38.573457 1.120951 1.098946 0.060655 -0.028411 -954487.000000 0 0 1
13.748273 31.585017 17.761685 38.757009 1.160252 1.094734 0.064950 -0.022131 -757531.000000 0 0 1
13.598773 32.710641 16.930085 39.262456 1.176804 1.124971 0.049750 -0.024117 245680.000000 0 0 1
12.184473 33.360424 17.064485 39.402740 1.220612 1.122891 0.057158 -0.031699 90052.500000 0 0 1
12.058873 -33.557776 16.461885 39.275112 -1.225819 1.138295 0.057057 -0.025147 -615072.000000 0 0 1
12.730673 -32.532666 17.072085 38.883164 -1.197795 1.116243 0.053971 -0.030228 -627595.000000 0 0 1
12.567173 -32.256806 18.580885 39.289753 -1.199290 1.078195 0.063593 -0.038918 -278038.000000 0 0 1
13.166273 -33.264096 19.382885 40.688414 -1.193907 1.074271 0.073270 -0.040537 315413.000000 0 0 1
12.904873 -32.999996 20.777385 41.075969 -1.198023 1.040455 0.069931 -0.034017 -266930.000000 0 0 1
14.047473 -33.529976 21.645885 42.309988 -1.174059 1.033748 0.082807 -0.038159 709114.000000 0 0 1
15.269673 -32.804836 21.451485 42.065263 -1.135152 1.035661 0.085168 -0.036899 843935.000000 0 0 1
16.404473 -33.142136 22.244085 43.154458 -1.111178 1.029260 0.093354 -0.033304 -120114.000000 0 0 1
17.601573 -32.293756 21.892685 42.801772 -1.071765 1.033878 0.103853 -0.038249 -613481.000000 0 0 1
17.659273 -30.960706 22.299985 42.044079 -1.052443 1.011729 0.110943 -0.042587 -4644.890000 0 0 1
18.817373 -30.387996 21.730285 41.829764 -1.016352 1.024538 0.093947 -0.035959 -289451.000000 0 0 1
-4.538727 13.159114 18.673286 23.290640 -1.238662 0.640578 0.010018 0.001722 -428940.000000 0 1 0
-4.379127 14.195114 17.751686 23.147362 -1.271564 0.696801 0.004604 -0.010228 -235979.000000 0 1 0
-5.626527 14.813814 17.623086 23.699790 -1.207810 0.732363 0.013821 -0.010183 -375492.000000 0 1 0
-5.613827 16.338414 17.440086 24.548226 -1.239837 0.780671 0.014154 -0.011045 -289586.000000 0 1 0
-5.037527 16.945714 18.555886 25.629178 -1.281842 0.761192 0.002441 -0.002122 136110.000000 0 0 1
-4.812427 18.290814 18.240986 26.276356 -1.313521 0.803492 0.003138 0.001943 -306324.000000 0 0 1
-4.190727 19.185614 19.321986 27.549757 -1.355743 0.793509 0.003322 -0.003427 -191280.000000 0 0 1
-5.063527 19.487614 20.378386 28.647600 -1.316585 0.779383 -0.012726 -0.002859 -45930.000000 0 0 1
-4.340927 20.138414 21.456886 29.745543 -1.358490 0.765050 -0.018217 0.010162 201756.000000 0 0 1
-5.144727 20.524414 22.729886 31.054267 -1.325193 0.749630 -0.013413 0.014362 -37435.500000 0 0 1
-5.595327 19.379814 23.409366 30.901186 -1.289721 0.711236 -0.006985 0.004479 -86398.000000 0 0 1
-6.375927 19.580614 24.564516 32.054147 -1.256000 0.697665 -0.008795 -0.000109 -89952.600000 0 0 1
-5.633727 20.183214 25.742656 33.193152 -1.298595 0.683224 -0.014353 -0.006514 -992635.000000 0 0 1
-5.328827 21.565314 25.610846 33.902427 -1.328547 0.714489 -0.000884 -0.004042 141196.000000 0 0 1
-4.396827 22.158214 26.511456 34.830673 -1.374912 0.705708 0.014561 -0.003929 602548.000000 0 0 1
-2.925727 21.714914 26.267086 34.206098 -1.436869 0.695230 0.022773 -0.002945 -513733.000000 0 0 1
-2.720827 20.338214 26.700996 33.674753 -1.437807 0.655229 0.034887 -0.000239 -403441.000000 0 0 1
-1.363227 20.043714 26.507186 33.260183 -1.502888 0.648543 0.040014 0.001594 -351951.000000 0 0 1
-0.843027 18.732114 27.079006 32.937446 -1.525822 0.605646 0.035704 0.004554 -490266.000000 0 0 1
-1.203727 17.530914 26.421036 31.730947 -1.502241 0.586906 0.032000 0.007251 -371516.000000 0 0 1
-0.490627 16.416814 26.848216 31.473468 -1.540920 0.549008 0.027503 0.004139 1229060.000000 0 0 1
0.964773 16.288014 26.193176 30.859563 1.511633 0.557111 0.030624 0.006035 1061750.000000 0 0 1
0.939373 15.949114 24.819016 29.516778 1.511966 0.571955 0.023018 -0.000089 -142862.000000 0 0 1
0.737073 14.615814 24.491216 28.530421 1.520409 0.538606 0.027712 -0.000942 -284638.000000 0 0 1
0.898873 14.323114 22.938786 27.058223 1.508122 0.559055 0.028346 -0.013849 -643224.000000 0 0 1
2.206373 14.362814 22.457686 26.748947 1.418371 0.574300 0.027263 -0.015858 -620441.000000 0 0 1
2.330573 13.583914 21.278486 25.352085 1.400882 0.574767 0.014363 -0.017746 -362890.000000 0 0 1
3.765173 13.497514 20.760386 25.047016 1.298759 0.593735 0.011063 -0.016513 -165227.000000 0 0 1
4.231773 14.458414 19.833886 24.906558 1.286063 0.649590 0.014845 -0.020194 343850.000000 0 1 0
5.661973 14.435414 19.800286 25.149362 1.197008 0.664366 0.033883 -0.018518 487746.000000 0 0 1
6.126973 15.588314 18.923586 25.271277 1.196296 0.724520 0.038755 -0.024774 -180907.000000 0 0 1
5.926173 15.256414 17.583086 24.021711 1.200297 0.749593 0.036470 -0.034766 68569.400000 0 1 0
6.306473 16.365214 16.765886 24.262868 1.202975 0.807911 0.042463 -0.025572 10962.800000 0 1 0
6.503873 15.848014 15.335586 22.992175 1.181365 0.840633 0.035996 -0.019264 224690.000000 0 1 0
7.671073 15.083314 15.062686 22.654717 1.100308 0.843462 0.029706 -0.012592 176490.000000 0 1 0
7.728873 13.757614 15.579386 22.174866 1.058947 0.791794 0.026757 -0.018741 836163.000000 0 1 0
8.885673 12.876414 14.903886 21.607476 0.966764 0.809644 0.031847 -0.019956 1285060.000000 0 1 0
10.230873 13.247514 15.170686 22.590199 0.913184 0.834483 0.038954 -0.022705 -114074.000000 0 1 0
11.065773 12.657314 14.227286 22.024409 0.852386 0.868492 0.041193 -0.016361 -611209.000000 0 1 0
12.439173 13.356214 14.266486 23.165796 0.820934 0.907341 0.041724 -0.010520 -1269070.000000 0 1 0
13.046873 13.071114 15.487186 24.102445 0.786326 0.872966 0.047213 -0.019319 1103300.000000 0 1 0
14.419573 13.502114 15.655886 25.205910 0.752552 0.900626 0.040830 -0.019129 1785400.000000 0 0 1
15.531873 13.038414 14.659386 25.022728 0.698344 0.944877 0.048458 -0.023163 -1445800.000000 0 0 1
16.772673 13.615214 14.843186 26.211005 0.681865 0.968792 0.051336 -0.025732 -646965.000000 0 0 1
17.579073 13.235014 13.761786 25.953346 0.645345 1.011900 0.053862 -0.021061 -362223.000000 0 0 1
19.019273 13.770714 13.886886 27.280229 0.626679 1.036721 0.050763 -0.019567 467760.000000 0 0 1
19.861073 13.115714 14.870286 28.064383 0.583633 1.012357 0.029956 -0.018318 917404.000000 0 0 1
21.207773 13.559614 14.785586 29.193258 0.568866 1.039707 0.031769 -0.019935 324673.000000 0 0 1
22.068773 13.409214 16.044786 30.401857 0.545997 1.014839 0.040556 -0.020910 -117081.000000 0 0 1
22.333673 12.032614 16.258986 30.131899 0.494177 1.000842 0.050258 -0.015257 408402.000000 0 0 1
23.263773 11.770914 17.289386 31.283868 0.468417 0.985242 0.036508 -0.012469 -192821.000000 0 0 1
23.501773 10.270314 17.286786 30.929689 0.411992 0.977731 0.053771 -0.014717 -423357.000000 0 0 1
22.410973 9.596214 17.855486 30.218494 0.404572 0.938648 0.026987 -0.008605 207125.000000 0 0 1
22.554073 8.177614 17.836286 29.894693 0.347836 0.931492 0.030390 -0.006812 104278.000000 0 0 1
21.240573 7.417914 18.181786 28.926886 0.335992 0.891118 0.055518 -0.009130 193191.000000 0 0 1
21.299173 6.051414 17.813986 28.418523 0.276820 0.893300 0.075428 -0.020672 535076.000000 0 0 1
20.189573 5.338014 18.352286 27.801432 0.258480 0.849818 0.073249 -0.021017 -36467.300000 0 0 1
19.893673 3.970514 17.718986 26.934841 0.196998 0.852841 0.108170 -0.016821 -439594.000000 0 0 1
19.159573 4.089014 16.487486 25.605594 0.210264 0.871209 0.100833 -0.024587 610543.000000 0 0 1
18.928073 2.845314 15.778786 24.806004 0.149205 0.881379 0.082813 -0.029468 -160098.000000 0 1 0
18.030273 1.772614 16.455586 24.474869 0.097998 0.833423 0.096988 -0.024350 -169406.000000 0 1 0
18.528373 1.177114 17.661386 25.624417 0.063445 0.810356 0.105230 -0.029015 -252401.000000 0 0 1
17.478073 0.629814 18.390386 25.378849 0.036019 0.760293 0.098013 -0.030117 -306400.000000 0 0 1
17.937073 -0.100986 19.719886 26.657507 -0.005630 0.738098 0.105847 -0.028115 12371.700000 0 0 1
18.538173 -1.347586 19.496886 26.937119 -0.072565 0.761513 0.104021 -0.025897 -153557.000000 0 0 1
17.634173 -2.383586 19.743286 26.578993 -0.134354 0.733530 0.086519 -0.015744 -70852.500000 0 0 1
18.042873 -3.716486 19.004186 26.467274 -0.203140 0.769835 0.068775 -0.012418 39663.600000 0 0 1
17.666673 -3.621786 17.661686 25.242104 -0.202205 0.795831 0.081227 -0.024974 342697.000000 0 0 1
17.866973 -4.848086 17.030686 25.155057 -0.264964 0.827079 0.098199 -0.024329 -351084.000000 0 0 1
17.690173 -4.786286 15.517886 24.013653 -0.264235 0.868187 0.086124 -0.029490 -686183.000000 0 1 0
16.345473 -4.732486 15.068486 22.729500 -0.281823 0.846046 0.095092 -0.039166 250196.000000 0 1 0
16.171373 -4.537286 13.698286 21.673562 -0.273542 0.886630 0.088211 -0.032962 -515164.000000 0 1 0
16.457973 -3.138986 13.085886 21.259316 -0.188464 0.907730 0.084923 -0.030552 -277177.000000 0 1 0
15.382473 -2.239786 13.207986 20.398235 -0.144590 0.866489 0.076002 -0.025659 215840.000000 0 1 0
15.803973 -0.968286 12.774886 20.344553 -0.061192 0.891910 0.070748 -0.020913 232657.000000 0 1 0
14.707473 0.118914 12.961286 19.604051 0.008085 0.848441 0.072402 -0.016597 -138212.000000 0 1 0
14.991373 1.432714 12.479486 19.558412 0.095280 0.878817 0.066456 -0.017008 238008.000000 0 1 0
15.854173 2.140914 13.342086 20.831456 0.134226 0.875676 0.079714 -0.021925 -156519.000000 0 1 0
16.043373 3.594714 12.866886 20.877465 0.220422 0.906754 0.071270 -0.018842 -400095.000000 0 1 0
15.023973 4.433114 13.312986 20.557428 0.286927 0.866366 0.059266 -0.005877 -49145.100000 0 1 0
15.110173 5.649114 12.598386 20.468247 0.357772 0.907765 0.069557 -0.013260 -2418.310000 0 1 0
14.048373 6.729814 12.850886 20.193871 0.446744 0.881006 0.054702 -0.011682 -211440.000000 0 1 0
14.441973 7.940514 12.196386 20.503028 0.502707 0.933708 0.051432 -0.016266 672223.000000 0 1 0
13.546673 9.044814 12.427886 20.488371 0.588702 0.919042 0.047143 -0.002050 59975.000000 0 1 0
13.650973 9.784214 13.809986 21.743864 0.621873 0.882631 0.052346 -0.010283 -64360.100000 0 1 0
13.082173 9.059414 14.875586 21.783004 0.605675 0.819073 0.045537 -0.015732 727690.000000 0 1 0
13.506573 9.743614 16.079886 23.150124 0.624943 0.802944 0.058089 -0.016655 -120741.000000 0 1 0
12.956473 9.066114 17.328486 23.459348 0.610549 0.739716 0.052528 -0.019145 -585511.000000 0 1 0
11.617473 9.325414 17.603886 23.061349 0.676389 0.702313 0.024243 -0.025596 -775273.000000 0 1 0
11.045973 8.708314 18.739886 23.431423 0.667609 0.643875 0.039377 -0.013517 -196971.000000 0 1 0
11.592373 8.832714 20.201186 24.909593 0.651100 0.624971 0.049540 -0.011072 463512.000000 0 1 0
12.976273 8.446014 20.220286 25.467210 0.576995 0.653479 0.074938 -0.018478 609275.000000 0 0 1
13.625773 8.625814 21.450786 26.836590 0.564368 0.644648 0.068764 -0.006239 165455.000000 0 0 1
15.151073 8.370214 21.279986 27.430882 0.504722 0.682866 0.064002 -0.005163 232678.000000 0 0 1
15.744673 9.375014 20.496586 27.493556 0.537060 0.729504 0.058966 -0.007819 -132420.000000 0 0 1
16.804073 8.871714 19.720386 27.385722 0.485757 0.766854 0.048748 -0.007427 -321483.000000 0 0 1
17.545973 9.824314 18.807686 27.533749 0.510426 0.818828 0.057095 -0.020073 -139348.000000 0 0 1
18.424073 10.654814 19.532486 28.887532 0.524318 0.828263 0.050152 -0.014084 432974.000000 0 0 1
19.245873 11.538214 18.761686 29.249527 0.540064 0.874428 0.044612 -0.015666 261346.000000 0 0 1
20.230273 12.362214 19.601186 30.761904 0.548523 0.879949 0.035952 -0.006593 -582472.000000 0 0 1
19.573073 13.353814 20.429686 31.285805 0.598717 0.859255 0.023740 -0.006358 157777.000000 0 0 1
20.255073 13.791614 21.573886 32.648264 0.597790 0.848916 0.032607 -0.001067 -217320.000000 0 0 1
21.526773 14.626414 21.246586 33.596895 0.596802 0.886152 0.010600 -0.001569 529862.000000 0 0 1
22.616273 13.954914 20.587886 33.616907 0.552847 0.911670 -0.012594 0.009957 322606.000000 0 0 1
23.721573 14.829714 20.590886 34.736408 0.558712 0.936296 -0.017998 0.000347 973419.000000 0 0 1
25.153573 14.158314 20.670286 35.502406 0.512674 0.949337 -0.013430 -0.000022 956515.000000 0 0 1
25.486573 13.335014 19.548186 34.778148 0.482048 0.973895 -0.000608 -0.008410 -435614.000000 0 0 1
26.559873 12.491514 19.774586 35.390663 0.439619 0.977917 0.035093 -0.017754 -311847.000000 0 0 1
27.115373 11.790914 18.471086 34.863306 0.410178 1.012414 0.073355 -0.025467 119925.000000 0 0 1
27.758173 12.567614 17.452886 35.115015 0.425141 1.050634 0.081576 -0.036133 223971.000000 0 0 1
27.931273 12.009914 16.198886 34.449934 0.406082 1.081262 0.098087 -0.043824 330181.000000 0 0 1
26.687973 11.782314 15.249186 32.918209 0.415750 1.089143 0.083911 -0.045486 529479.000000 0 0 1
26.281273 12.936714 14.517486 32.692832 0.457421 1.110675 0.095985 -0.043011 -468012.000000 0 0 1
25.390573 12.617414 13.530986 31.416045 0.461191 1.125525 0.077111 -0.035772 -579600.000000 0 0 1
24.927873 13.808714 12.663186 31.183901 0.505868 1.152635 0.065509 -0.034558 111035.000000 0 0 1
24.050673 14.739914 13.318586 31.194305 0.549828 1.129673 0.043334 -0.031885 580176.000000 0 0 1
23.890173 15.871414 12.514786 31.293162 0.586396 1.159366 0.025907 -0.024057 -206957.000000 0 0 1
22.844573 16.897014 13.047986 31.267132 0.636845 1.140317 0.024534 -0.025477 -310276.000000 0 0 1
21.553373 16.687114 12.569686 30.016740 0.658824 1.138721 0.039057 -0.037222 -381050.000000 0 0 1
20.641273 17.608314 13.173786 30.160628 0.706270 1.118772 0.028574 -0.026262 -638133.000000 0 0 1
19.825273 18.349914 12.092086 29.596948 0.746770 1.149922 0.054682 -0.015209 625946.000000 0 0 1
18.676573 17.630814 11.613886 28.187627 0.756603 1.146126 0.055915 -0.017636 637291.000000 0 0 1
17.555273 17.589414 12.490086 27.813258 0.786370 1.105073 0.041817 -0.010931 -489963.000000 0 0 1
16.324873 16.928314 11.813486 26.317822 0.803543 1.105287 0.049956 -0.009510 -176724.000000 0 0 1
16.507173 15.543214 11.574586 25.456812 0.755331 1.098789 0.054639 -0.009784 -100433.000000 0 0 1
15.471073 14.989214 10.808286 24.100823 0.769580 1.105753 0.062522 -0.018749 -260075.000000 0 1 0
15.828573 13.711114 10.086486 23.243828 0.713839 1.121932 0.074676 -0.022506 -116136.000000 0 1 0
15.976973 12.548914 10.921886 23.065700 0.665798 1.077522 0.075053 -0.017097 754543.000000 0 1 0
16.734073 11.585414 10.167686 22.751546 0.605556 1.107498 0.090185 -0.014384 145778.000000 0 1 0
16.773973 10.221414 10.844486 22.437610 0.547275 1.066356 0.079123 -0.025018 -1128640.000000 0 1 0
17.623273 9.451414 10.061686 22.386302 0.492266 1.104639 0.094050 -0.017474 399793.000000 0 1 0
18.318173 8.386214 10.715286 22.818882 0.429328 1.081982 0.115875 -0.016744 981507.000000 0 1 0
19.465673 8.822514 11.713786 24.371335 0.425540 1.069414 0.087435 -0.017332 -92142.700000 0 1 0
18.955673 9.476014 12.860086 24.788993 0.463571 1.025371 0.068150 -0.019133 620106.000000 0 1 0
19.990273 9.757214 13.804886 26.179937 0.454081 1.015367 0.072664 -0.014625 97563.100000 0 0 1
19.267573 10.026814 15.174786 26.496235 0.479833 0.960983 0.050241 -0.019445 678056.000000 0 0 1
18.567573 8.985714 15.853986 26.016277 0.450723 0.915509 0.064562 -0.018138 411888.000000 0 0 1
17.404473 8.506014 15.228286 24.640792 0.454588 0.904586 0.069948 -0.023151 -490766.000000 0 1 0
16.975173 7.062314 15.805386 24.245474 0.394255 0.860722 0.081803 -0.023525 -382529.000000 0 1 0
16.402973 7.038014 17.119786 24.732129 0.405312 0.806252 0.090359 -0.019992 104294.000000 0 1 0
16.036673 5.753414 17.541086 24.453350 0.344463 0.770836 0.097223 -0.003580 257150.000000 0 1 0
14.700373 5.283414 16.901586 23.014757 0.345030 0.746043 0.098334 -0.028459 -253939.000000 0 1 0
14.154473 4.064614 17.405886 22.799891 0.279637 0.702205 0.098994 -0.014674 345507.000000 0 1 0
13.407873 3.388314 16.404786 21.456205 0.247528 0.700421 0.072754 -0.012987 95810.600000 0 1 0
13.094073 1.929714 16.862086 21.436149 0.146320 0.665482 0.067168 -0.007954 -153185.000000 0 1 0
14.243173 1.134814 16.760586 22.024373 0.079506 0.705941 0.078373 -0.019421 284598.000000 0 1 0
13.905873 -0.265486 16.643986 21.690229 -0.019089 0.696099 0.072871 -0.010037 -122960.000000 0 1 0
13.208973 -1.122386 17.746086 22.150853 -0.084768 0.641587 0.067046 -0.012392 303976.000000 0 1 0
11.885473 -0.655986 17.924786 21.517266 -0.055136 0.586212 0.056464 0.001705 89619.800000 0 1 0
11.151873 -1.470786 18.843186 21.945230 -0.131130 0.538174 0.058851 -0.013612 52038.700000 0 1 0
-25.915537 13.790514 28.595416 40.981595 -0.489022 0.798527 0.075781 -0.003862 215730.000000 0 0 1
-24.930527 14.004714 29.620816 41.171057 -0.511819 0.767776 0.075876 -0.002276 612072.000000 0 0 1
-24.177627 12.811814 29.776116 40.439056 -0.487283 0.743180 0.062294 0.006368 -79406.800000 0 0 1
-23.070727 12.944514 30.844206 40.634762 -0.511310 0.708929 0.068784 -0.001778 -36316.800000 0 0 1
-23.586627 13.051814 32.162246 41.965329 -0.505417 0.697578 0.061318 -0.003291 -290842.000000 0 0 1
-22.552727 12.922514 33.079549 42.069863 -0.520323 0.665998 0.065939 -0.008940 -534894.000000 0 0 1
-23.007827 13.108914 -33.652425 42.821600 -0.517887 2.474906 0.077483 -0.014808 266779.000000 0 0 1
-23.962027 12.154614 -33.158885 42.678156 -0.469427 2.460606 0.068202 -0.013322 454325.000000 0 0 1
-24.141227 12.390914 -31.797945 41.802427 -0.474205 2.435144 0.044465 -0.018352 186597.000000 0 0 1
-25.063987 11.297814 -31.150275 41.547367 -0.423485 2.418486 0.037710 -0.019888 267183.000000 0 0 1
-24.394827 10.169914 -30.564285 40.406809 -0.394980 2.428610 0.052944 -0.025893 220297.000000 0 0 1
-24.019227 9.150014 -31.411835 40.587552 -0.363973 2.455817 0.051858 -0.018901 -214957.000000 0 0 1
-23.117327 8.136514 -30.724875 39.301802 -0.338425 2.468292 0.050663 -0.006566 416403.000000 0 0 1
-23.882727 7.369914 -29.761325 38.864338 -0.299317 2.443041 0.044665 -0.008672 1054280.000000 0 0 1
-22.931827 6.591614 -29.057125 37.598332 -0.279898 2.454085 0.038533 -0.002569 380733.000000 0 0 1
-23.565727 5.736814 -27.898305 36.967147 -0.238794 2.425960 0.031829 0.004365 -60373.500000 0 0 1
-24.364827 4.677714 -28.328505 37.656739 -0.189678 2.422316 0.042391 0.001771 113806.000000 0 0 1
-24.727727 3.807814 -27.259615 37.000629 -0.152790 2.399024 0.059408 0.004293 -54750.600000 0 0 1
-25.632277 2.566914 -27.571015 37.732791 -0.099811 2.390130 0.068756 0.005793 517145.000000 0 0 1
-26.956557 2.718914 -28.039435 38.990491 -0.100523 2.373353 0.069979 0.002365 321397.000000 0 0 1
-27.086217 3.154214 -29.364065 40.073190 -0.115929 2.393167 0.062655 0.002490 -58332.900000 0 0 1
-28.564317 3.028114 -29.848225 41.424705 -0.105616 2.375379 0.091073 -0.012543 685167.000000 0 0 1
-29.457107 3.977614 -29.283135 41.725826 -0.134219 2.348716 0.080093 0.000057 910090.000000 0 0 1
-30.757847 4.020614 -29.890785 43.077483 -0.129981 2.337666 0.089008 -0.015575 813684.000000 0 0 1
-31.133207 5.435714 -30.424845 43.869064 -0.172853 2.337184 0.095870 -0.035106 -411402.000000 0 0 1
-30.441257 5.894414 -31.577765 44.255728 -0.191265 2.365319 0.094140 -0.025410 -1126.740000 0 0 1
-30.668167 7.252914 -32.021275 44.927756 -0.232230 2.364176 0.093618 -0.027938 -716672.000000 0 0 1
-30.264647 8.445914 -31.096805 44.207393 -0.272145 2.351008 0.064699 -0.034974 -391230.000000 0 0 1
-28.894277 8.645114 -30.852985 43.145381 -0.290721 2.367554 0.045062 -0.045386 50890.200000 0 0 1
-28.338417 7.767814 -29.878595 41.906267 -0.267538 2.364544 0.030108 -0.035004 -911673.000000 0 0 1
-28.304357 8.381214 -28.491655 41.026282 -0.287885 2.338484 0.009386 -0.024602 513243.000000 0 0 1
-29.568107 8.680914 -27.852645 41.537947 -0.285566 2.305726 0.023132 -0.026820 917755.000000 0 0 1
-30.281657 7.547314 -27.390345 41.523146 -0.244261 2.291137 0.030313 -0.018767 200308.000000 0 0 1
-31.625537 8.018414 -26.724145 42.174038 -0.248310 2.257076 0.027065 -0.018151 231581.000000 0 0 1
-31.442397 8.779314 -25.516495 41.434191 -0.272284 2.234238 -0.000306 -0.015072 -16495.700000 0 0 1
-31.324367 7.836514 -24.405315 40.475256 -0.245142 2.218014 0.006504 -0.013867 -10677.400000 0 0 1
-30.717997 8.705214 -23.310815 39.531888 -0.276151 2.201448 0.001720 -0.004195 19019.100000 0 0 1
-31.688187 9.619214 -22.827115 40.221234 -0.294718 2.174310 0.010484 0.000148 410959.000000 0 0 1
-31.038207 10.508414 -21.969015 39.451675 -0.326451 2.161396 0.018765 -0.007453 -104598.000000 0 0 1
-31.998427 11.416614 -21.177315 40.033949 -0.342708 2.128199 0.011434 0.004203 -56143.000000 0 0 1
-32.450047 10.845714 -19.942215 39.602108 -0.322556 2.098516 0.008313 -0.006544 42290.000000 0 0 1
-33.111457 11.756214 -19.080115 39.982846 -0.341166 2.068271 0.004171 0.003611 -112548.000000 0 0 1
-32.247477 12.660614 -18.171415 39.120215 -0.374118 2.053868 0.014780 -0.000901 -194246.000000 0 0 1
-31.603967 11.984714 -17.092815 37.876225 -0.362461 2.038996 0.045305 -0.003725 578121.000000 0 0 1
-32.452397 11.526414 -16.001715 37.974612 -0.341281 2.005762 0.036662 -0.000692 252025.000000 0 0 1
-32.934877 12.653214 -15.017215 38.344839 -0.366802 1.973205 0.020106 -0.002753 -186037.000000 0 0 1
-33.742817 13.598314 -15.647515 39.602229 -0.383089 1.976992 0.011994 -0.001334 -75057.900000 0 0 1
-34.475490 14.405814 -14.763615 40.175256 -0.395805 1.947095 -0.003594 -0.002335 -21711.200000 0 0 1
-35.114608 15.640914 -15.543615 41.464176 -0.419043 1.955051 -0.002590 -0.001345 43785.100000 0 0 1
-36.376677 15.383114 -16.109315 42.654576 -0.400077 1.958074 -0.004852 0.002809 104703.000000 0 0 1
36.394165 16.493614 -16.853915 43.366220 0.425507 1.969953 -0.005784 -0.005141 -575997.000000 0 0 1
36.139205 16.162314 -18.387515 43.650467 0.420543 2.005613 -0.006231 -0.002596 592054.000000 0 0 1
35.043725 15.280814 -18.736215 42.574778 0.411193 2.026482 0.026237 -0.010409 1665570.000000 0 0 1
33.779195 15.996814 -18.686215 41.786442 0.442281 2.034410 0.070985 -0.020574 119336.000000 0 0 1
32.586435 15.139414 -19.055415 40.671691 0.434923 2.058409 0.090264 -0.027664 -615536.000000 0 0 1
32.690085 14.800914 -20.473715 41.314425 0.425151 2.089274 0.098592 -0.025399 437148.000000 0 0 1
31.750335 13.814414 -20.890915 40.439488 0.410390 2.113668 0.067718 -0.024544 -99981.500000 0 0 1
32.196255 12.383314 -20.637515 40.197666 0.367178 2.109939 0.072043 0.002257 -170296.000000 0 0 1
32.277115 12.076114 -19.248815 39.473555 0.358015 2.080179 0.077338 0.006011 109099.000000 0 0 1
32.679765 10.755114 -18.923615 39.265032 0.317941 2.073670 0.049577 0.013683 -257101.000000 0 0 1
32.853555 10.484114 -17.452015 38.650298 0.308901 2.039283 0.033303 0.017790 705676.000000 0 0 1
31.634205 10.245014 -16.701615 37.210579 0.313199 2.036264 0.049989 0.005837 719466.000000 0 0 1
31.917615 9.937314 -15.357015 36.787529 0.301830 2.001435 0.021489 0.009652 -15566.100000 0 0 1
31.357585 10.922414 -14.313715 36.159089 0.335176 1.977794 0.043675 0.002271 271932.000000 0 0 1
29.936765 10.931214 -14.239915 34.906683 0.350101 1.990996 0.059120 0.002378 403017.000000 0 0 1
29.591225 11.820114 -13.220315 34.498296 0.380029 1.964072 0.067115 -0.000363 676372.000000 0 0 1
28.038185 11.933614 -12.995215 33.127430 0.402396 1.973905 0.090066 -0.006581 465822.000000 0 0 1
27.496685 10.757514 -12.431715 32.036531 0.372923 1.969309 0.072150 -0.012313 -51449.000000 0 0 1
26.109185 10.604014 -12.622215 30.878066 0.385789 1.991909 0.072585 -0.003862 -169945.000000 0 0 1
25.680085 10.046314 -14.001715 30.926416 0.372906 2.040635 0.074100 -0.017794 -1034860.000000 0 0 1
26.019185 8.709914 -14.259515 30.922393 0.323025 2.050074 0.071773 -0.017651 725046.000000 0 0 1
27.342785 8.548914 -14.783115 32.237437 0.303028 2.047181 0.079674 -0.019326 426404.000000 0 0 1
28.166785 7.596614 -13.851915 32.294766 0.263433 2.014095 0.089448 -0.022360 -403281.000000 0 0 1
27.798885 6.253514 -13.865915 31.688295 0.221272 2.023693 0.074300 -0.036519 358928.000000 0 0 1
26.806585 5.950714 -12.900215 30.338417 0.218445 2.009991 0.083009 -0.038912 -145052.000000 0 0 1
26.310885 4.523014 -12.931015 29.663639 0.170243 2.021858 0.084957 -0.041818 -355656.000000 0 0 1
25.533685 4.182514 -11.826115 28.448541 0.162362 1.999511 0.085712 -0.044975 274640.000000 0 0 1
24.968185 2.868514 -11.905615 27.809752 0.114385 2.013196 0.086320 -0.044804 -206699.000000 0 0 1
24.087885 2.327314 -10.776615 26.491094 0.096319 1.989746 0.091879 -0.041087 -302313.000000 0 0 1
24.840985 1.894214 -9.659515 26.720195 0.076106 1.940679 0.096948 -0.032997 749929.000000 0 0 1
24.012285 1.581014 -8.536315 25.533471 0.065747 1.911678 0.100031 -0.022439 -274846.000000 0 0 1
24.787385 1.174514 -7.236215 25.848728 0.047348 1.854533 0.116327 -0.010136 2530.420000 0 0 1
25.118285 -0.166686 -6.958615 26.064888 -0.006636 1.841047 0.103956 -0.014621 897240.000000 0 0 1
26.110185 -0.755186 -7.813215 27.264600 -0.028915 1.861441 0.105385 -0.020176 -78209.200000 0 0 1
26.296085 -2.290086 -7.540515 27.451557 -0.086869 1.849058 0.099049 -0.019877 -28402.300000 0 0 1
27.148485 -2.532486 -6.427815 28.013756 -0.093014 1.802311 0.110883 -0.021916 488669.000000 0 0 1
27.182185 -3.932186 -6.084815 28.131091 -0.143664 1.788822 0.116210 -0.029250 266111.000000 0 0 1
28.478795 -4.307986 -5.258115 29.278803 -0.150132 1.751364 0.112432 -0.022465 1022640.000000 0 0 1
29.580705 -4.272086 -6.184115 30.520684 -0.143430 1.774829 0.083542 -0.014520 220648.000000 0 0 1
30.819735 -4.583286 -5.620415 31.661517 -0.147631 1.749258 0.076404 -0.010120 -97270.700000 0 0 1
31.955985 -4.818686 -6.650215 32.994395 -0.149664 1.773742 0.057954 -0.009469 35455.100000 0 0 1
31.979245 -6.079486 -7.270515 33.354050 -0.187865 1.790541 0.056990 -0.027341 -140980.000000 0 0 1
32.676875 -6.031086 -8.479215 34.293575 -0.182513 1.820641 0.058772 -0.027202 -793996.000000 0 0 1
31.964825 -6.874586 -9.590715 34.073330 -0.211840 1.856125 0.063427 -0.031305 405412.000000 0 0 1
30.745145 -6.325786 -10.045515 32.957426 -0.202917 1.880528 0.061899 -0.033198 256233.000000 0 0 1
29.611505 -6.722886 -9.297415 31.756580 -0.223252 1.867920 0.060797 -0.030812 -722418.000000 0 0 1
28.436785 -5.757486 -9.263415 30.456695 -0.199766 1.879843 0.063214 -0.025184 -749664.000000 0 0 1
27.540285 -5.895886 -10.306615 29.990917 -0.210899 1.921606 0.052176 -0.023642 137819.000000 0 0 1
26.452785 -4.989486 -10.236515 28.799845 -0.186428 1.934177 0.086180 -0.024732 1023560.000000 0 0 1
25.020785 -5.572386 -9.975415 27.506364 -0.219134 1.941915 0.105778 -0.024493 -158035.000000 0 0 1
24.947185 -6.180186 -8.676015 27.126186 -0.242842 1.896356 0.101083 -0.030621 515230.000000 0 0 1
23.709985 -6.695086 -8.202215 25.966592 -0.275209 1.892176 0.095386 -0.034217 -204976.000000 0 0 1
22.794885 -5.562486 -7.614515 24.668378 -0.239346 1.884596 0.107966 -0.023459 -334686.000000 0 1 0
22.421385 -4.674286 -8.614015 24.469751 -0.205531 1.930532 0.107530 -0.020960 170262.000000 0 1 0
21.945085 -3.439186 -8.176915 23.670165 -0.155453 1.923517 0.095139 -0.023991 -77552.000000 0 1 0
21.810685 -2.511486 -9.398515 23.881910 -0.114644 1.975277 0.097367 -0.015039 85326.800000 0 1 0
23.105485 -2.140086 -9.832415 25.201583 -0.092359 1.971592 0.089543 -0.021782 851590.000000 0 0 1
22.978185 -1.465186 -11.059615 25.543274 -0.063678 2.018588 0.096530 -0.026613 257915.000000 0 0 1
24.358685 -1.430686 -11.762315 27.087718 -0.058667 2.019980 0.086374 -0.020765 -129419.000000 0 0 1
25.410485 -0.819986 -11.082315 27.734146 -0.032258 1.981867 0.078432 -0.027975 100074.000000 0 0 1
26.587285 -0.902886 -11.854115 29.124199 -0.033946 1.989985 0.063076 -0.024030 -111482.000000 0 0 1
27.661585 0.146514 -11.495615 29.955533 0.005297 1.964657 0.052950 -0.013811 705957.000000 0 0 1
28.901355 -0.095286 -12.173815 31.360791 -0.003297 1.969459 0.045834 -0.016174 1613670.000000 0 0 1
30.080855 0.660014 -11.840115 32.333911 0.021938 1.945700 0.057686 -0.014936 934544.000000 0 0 1
30.382395 1.895614 -12.695115 32.982560 0.062311 1.965900 0.060370 -0.019891 -520794.000000 0 0 1
30.533025 1.567614 -14.042615 33.643990 0.051297 2.001366 0.066497 -0.022129 259324.000000 0 0 1
30.361545 2.763614 -14.865815 33.918335 0.090773 2.024483 0.062129 -0.022930 -198273.000000 0 0 1
30.488225 2.513014 -16.399915 34.710291 0.082240 2.062899 0.055141 -0.027455 183421.000000 0 0 1
29.341675 2.025514 -17.105915 34.024241 0.068923 2.097581 0.049369 -0.012117 406939.000000 0 0 1
29.575195 1.865714 -18.475115 34.921382 0.063000 2.128276 0.041903 -0.017604 -233260.000000 0 0 1
28.358715 1.128414 -19.053115 34.183494 0.039770 2.162020 0.020900 -0.013889 -48350.000000 0 0 1
28.423415 -0.309686 -18.902515 34.136366 -0.010895 2.157640 0.037869 -0.015252 97639.400000 0 0 1
27.929585 -0.949086 -20.094315 34.420110 -0.033968 2.194192 0.032087 -0.012063 37435.500000 0 0 1
27.836485 -2.498786 -20.011815 34.374214 -0.089527 2.192198 0.033902 -0.008500 -154519.000000 0 0 1
26.772585 -2.979886 -19.224915 33.094537 -0.110847 2.190641 0.035747 -0.009945 13186.100000 0 0 1
26.662285 -4.404486 -18.999715 33.034317 -0.163717 2.183585 0.033537 -0.009933 10477.900000 0 0 1
27.626885 -4.965786 -17.922215 33.303297 -0.177846 2.139039 0.031511 -0.007307 -313704.000000 0 0 1
28.985765 -4.890686 -18.208615 34.578130 -0.167153 2.125385 0.029560 -0.005008 -447546.000000 0 0 1
29.769855 -5.457186 -17.149815 34.787086 -0.181300 2.086324 0.031898 -0.005731 -549866.000000 0 0 1
31.251025 -5.345986 -17.449715 36.189760 -0.169426 2.073929 0.042606 -0.000549 -1093660.000000 0 0 1
31.668875 -6.252286 -18.406715 37.159331 -0.194920 2.089029 0.035931 -0.007230 965599.000000 0 0 1
32.984795 -5.896686 -18.918815 38.479724 -0.176901 2.084788 0.056606 -0.004605 845793.000000 0 0 1
33.670845 -7.136486 -19.475315 39.546721 -0.208858 2.085714 0.052318 0.003561 -417858.000000 0 0 1
34.029065 -7.944686 -18.400115 39.492525 -0.229359 2.055463 0.060673 -0.000042 76241.300000 0 0 1
34.356575 -9.238786 -18.836815 40.256118 -0.262695 2.057737 0.059560 0.003829 -91064.300000 0 0 1
35.229825 -10.038686 -17.870715 40.758781 -0.277592 2.024670 0.066887 -0.007997 237407.000000 0 0 1
34.373685 -10.315086 -16.726015 39.594328 -0.291536 2.006926 0.048150 -0.007877 1293720.000000 0 0 1
34.993805 -11.156186 -15.708715 39.947348 -0.308618 1.974944 0.053237 -0.017397 417412.000000 0 0 1
36.309265 -10.579486 -15.051515 40.704255 -0.283522 1.949566 0.082402 -0.022155 475201.000000 0 0 1
-36.250377 -11.273286 -13.978415 40.454578 0.301503 1.923604 0.084590 -0.020777 351725.000000 0 0 1
-35.844438 -12.579486 -14.207715 40.557692 0.337518 1.928697 0.061431 -0.010447 -633977.000000 0 0 1
-34.468806 -12.797886 -14.870815 39.661387 0.355513 1.955133 0.073611 -0.016376 -141737.000000 0 0 1
-34.462247 -12.256286 -16.152415 39.984541 0.341694 1.986645 0.082964 -0.013981 298089.000000 0 0 1
-33.108837 -12.255686 -16.593115 39.009337 0.354524 2.010159 0.098991 -0.016747 249013.000000 0 0 1
-32.784967 -11.490286 -17.941015 39.099370 0.337097 2.047505 0.111009 -0.017084 135160.000000 0 0 1
-32.836607 -10.146086 -17.637215 38.629745 0.299681 2.044933 0.110224 -0.013182 288895.000000 0 0 1
-33.773327 -9.383086 -18.400015 39.588388 0.270991 2.054186 0.107338 -0.010928 272102.000000 0 0 1
-34.269555 -8.122686 -17.643815 39.391428 0.232729 2.035223 0.107755 -0.011357 411159.000000 0 0 1
-35.155911 -7.275986 -18.407315 40.344855 0.204082 2.044572 0.112530 -0.009792 375968.000000 0 0 1
-35.641625 -6.233286 -17.623615 40.246380 0.173137 2.024050 0.103370 -0.013090 43539.700000 0 0 1
25.049173 26.919714 -26.865325 45.539848 0.821376 2.201769 0.067146 0.007474 92230.600000 0 0 1
25.703973 26.162814 -25.870965 44.883114 0.794244 2.185122 0.073842 -0.006508 -381791.000000 0 0 1
26.723173 25.387614 -26.409475 45.344452 0.759775 2.192498 0.062945 -0.010708 -731224.000000 0 0 1
27.515473 24.547914 -25.411915 44.782438 0.728461 2.174205 0.054644 -0.019761 -300607.000000 0 0 1
28.255573 25.350914 -24.514515 45.188579 0.731266 2.144199 0.069112 -0.009185 58179.800000 0 0 1
28.445973 24.558114 -23.368615 44.253435 0.712179 2.127115 0.053930 -0.010311 104510.000000 0 0 1
29.076873 25.330014 -22.186315 44.489400 0.716639 2.092880 0.039669 0.004833 229955.000000 0 0 1
28.169773 26.246414 -21.573115 44.133997 0.750068 2.081521 0.062093 -0.000934 179483.000000 0 0 1
28.736373 26.864414 -20.454915 44.338239 0.751743 2.050299 0.041238 0.003518 -173925.000000 0 0 1
27.782073 27.883114 -19.834115 44.076113 0.787213 2.037558 0.054599 0.009381 -71192.600000 0 0 1
26.926873 27.347814 -18.827515 42.748506 0.793154 2.026868 0.065542 0.007056 -252012.000000 0 0 1
26.057973 28.354614 -18.417015 42.687100 0.827581 2.016887 0.067604 0.005625 423114.000000 0 0 1
24.885973 27.861914 -17.488215 41.248461 0.841757 2.008623 0.055277 0.009736 809562.000000 0 0 1
23.863973 27.058814 -18.085215 40.357696 0.848055 2.035461 0.065063 0.008700 -422834.000000 0 0 1
22.845573 26.937014 -17.152615 39.264935 0.867400 2.022883 0.057401 0.011336 -587027.000000 0 0 1
21.817273 25.926714 -17.687015 38.223270 0.871259 2.051867 0.059105 -0.000374 -207167.000000 0 0 1
21.154473 26.340314 -18.863215 38.692955 0.894155 2.080032 0.053748 -0.000544 -139822.000000 0 0 1
20.299773 25.330514 -19.367015 37.799431 0.895205 2.108730 0.052729 -0.003020 279014.000000 0 0 1
19.528873 25.765714 -20.636515 38.355113 0.922233 2.138904 0.043962 0.001388 -144326.000000 0 0 1
18.573273 26.739514 -20.410015 38.425731 0.963704 2.130759 0.024978 -0.000368 -877376.000000 0 0 1
17.592273 26.706414 -21.419315 38.490358 0.988310 2.160946 0.014694 -0.005553 -61800.500000 0 0 1
16.501673 27.800314 -21.217415 38.669644 1.035112 2.151586 0.023024 0.000136 290109.000000 0 0 1
15.723373 27.539514 -20.039615 37.513137 1.052020 2.134361 0.032733 -0.000733 -522514.000000 0 0 1
14.775473 28.514214 -19.818815 37.738050 1.092711 2.123709 0.023034 -0.011270 -452545.000000 0 0 1
14.294373 28.513914 -18.352115 36.799083 1.106100 2.092908 0.031951 -0.012488 145706.000000 0 0 1
13.463373 27.429414 -18.014315 35.470420 1.114506 2.103505 0.039937 -0.009889 -165419.000000 0 0 1
12.892473 27.443614 -16.713515 34.622383 1.131615 2.074574 0.046055 -0.008721 206119.000000 0 0 1
11.995873 26.213214 -16.434015 33.182984 1.141618 2.088924 0.054291 -0.006116 -88099.500000 0 0 1
12.697473 25.006514 -16.301015 32.438783 1.100955 2.097303 0.053621 -0.005359 -543674.000000 0 0 1
11.858473 23.895614 -16.234015 31.227664 1.110144 2.117483 0.071082 -0.004498 -230479.000000 0 0 1
12.703973 22.618114 -16.215715 30.592800 1.059036 2.129456 0.068090 -0.010985 -374544.000000 0 0 1
13.357573 22.527014 -17.442715 31.466481 1.035571 2.158350 0.073542 -0.007272 -896413.000000 0 0 1
14.185773 21.392514 -17.426915 31.025364 0.985254 2.167234 0.070104 -0.003304 -466424.000000 0 0 1
13.531873 20.014114 -17.671415 29.932512 0.976280 2.202320 0.078063 -0.008355 -180639.000000 0 0 1
12.787573 19.520514 -16.577715 28.625044 0.990856 2.188461 0.074889 -0.014094 60842.600000 0 0 1
12.303373 18.183514 -16.759015 27.620242 0.975933 2.222782 0.070401 -0.012458 503272.000000 0 0 1
13.411273 17.073414 -16.686015 27.382235 0.904956 2.226067 0.070773 -0.011606 215354.000000 0 0 1
14.114273 16.940814 -15.489215 26.946608 0.876165 2.183170 0.064867 -0.022799 -701278.000000 0 0 1
15.154473 16.085514 -15.722315 27.121818 0.815192 2.189148 0.071406 -0.021576 -1576100.000000 0 0 1
15.662173 15.404114 -14.437215 26.287327 0.777092 2.152213 0.111320 -0.018651 -1112790.000000 0 0 1
16.515673 16.004114 -13.531315 26.683246 0.769669 2.102624 0.088328 -0.024550 1679310.000000 0 0 1
17.863473 16.331114 -14.020015 27.970874 0.740615 2.095823 0.072634 -0.019470 1381720.000000 0 0 1
18.791073 15.142714 -14.512815 28.160753 0.678296 2.112219 0.062230 -0.020153 -561257.000000 0 0 1
19.273373 14.166814 -13.592815 27.512291 0.633862 2.087554 0.098639 -0.025495 416999.000000 0 0 1
20.138373 14.637214 -12.601215 27.903274 0.628508 2.039358 0.099050 -0.022296 -433296.000000 0 0 1
21.029773 13.521114 -11.979315 27.723201 0.571404 2.017621 0.121215 -0.032797 66904.300000 0 0 1
20.307473 12.735214 -11.006415 26.376511 0.560122 2.001248 0.168704 -0.039959 550589.000000 0 0 1
20.957973 11.558014 -10.572615 26.164948 0.503983 1.986764 0.174440 -0.025109 -271519.000000 0 0 1
21.042473 10.327314 -11.480315 26.100512 0.456248 2.026228 0.142996 -0.032442 -718449.000000 0 0 1
22.097973 10.377714 -12.395815 27.380168 0.439052 2.040621 0.116597 -0.024843 84702.800000 0 0 1
22.111673 9.433814 -13.459415 27.551384 0.403262 2.081190 0.091902 -0.024723 -376674.000000 0 0 1
22.630573 8.055814 -13.019315 27.322912 0.341984 2.067464 0.091770 -0.011219 -377938.000000 0 0 1
21.725473 7.454314 -12.121415 25.970978 0.330527 2.056385 0.088594 -0.027643 239193.000000 0 0 1
22.362673 6.477314 -11.371615 25.910584 0.281933 2.025147 0.083863 -0.000026 -965056.000000 0 0 1
22.034573 5.055114 -11.866515 25.532152 0.225515 2.054168 0.072910 -0.020966 240476.000000 0 0 1
20.693373 4.583114 -11.732815 24.225597 0.217959 2.076376 0.047875 -0.037184 887006.000000 0 1 0
19.731473 5.250814 -12.547615 23.965490 0.260086 2.121832 0.004496 -0.046347 -971501.000000 0 1 0
18.751273 4.258414 -13.175715 23.309736 0.223312 2.171527 0.006452 -0.049368 -580217.000000 0 1 0
19.285373 3.346714 -14.084015 24.114012 0.171825 2.194517 0.018561 -0.050511 103037.000000 0 1 0
19.401973 2.084214 -13.530315 23.745524 0.107012 2.177065 0.067864 -0.052459 -440227.000000 0 1 0
20.360073 1.205914 -14.340915 24.932883 0.059160 2.183621 0.090078 -0.032679 -682679.000000 0 1 0
21.586773 1.008114 -13.687615 25.580381 0.046667 2.135402 0.113465 -0.029458 757360.000000 0 0 1
22.698273 0.793414 -14.607315 27.003977 0.034941 2.142341 0.077540 -0.025540 718010.000000 0 0 1
22.863973 -0.687286 -15.123915 27.422006 -0.030051 2.154987 0.075045 -0.023842 -534307.000000 0 0 1
21.792073 -1.170586 -15.913015 27.009050 -0.053665 2.200832 0.064818 -0.016729 241519.000000 0 0 1
22.328673 -2.282786 -16.614715 27.925428 -0.101882 2.208021 0.069357 -0.017932 270144.000000 0 0 1
21.381073 -3.169886 -17.506115 27.814790 -0.147185 2.251553 0.063386 -0.009852 75687.200000 0 0 1
20.425573 -3.892186 -16.743915 26.696663 -0.188297 2.248738 0.078472 -0.017399 87694.400000 0 0 1
19.630173 -4.599986 -17.663815 26.805110 -0.230179 2.290247 0.086146 -0.018821 -292129.000000 0 0 1
18.730173 -5.636386 -16.969115 25.894770 -0.292306 2.285390 0.085282 -0.025986 -551254.000000 0 0 1
19.451073 -6.626086 -16.341715 26.254541 -0.328325 2.242645 0.092002 -0.021736 -80445.600000 0 0 1
18.620073 -7.639786 -15.913415 25.657557 -0.389353 2.239824 0.091429 -0.019557 -221849.000000 0 0 1
19.478373 -8.845186 -15.439315 26.382130 -0.426261 2.195946 0.091460 -0.015551 241695.000000 0 0 1
20.174773 -9.509586 -16.477515 27.730168 -0.440474 2.207078 0.094122 -0.021850 446195.000000 0 0 1
21.124873 -10.376686 -15.886815 28.395893 -0.456589 2.164550 0.094021 -0.027655 -126435.000000 0 0 1
21.849873 -11.256786 -16.951915 29.857991 -0.475724 2.174568 0.078080 -0.022877 -571689.000000 0 0 1
22.806973 -10.589986 -17.708415 30.755386 -0.434708 2.184357 0.071252 -0.017386 -73811.100000 0 0 1
23.303573 -11.533786 -18.671915 32.011328 -0.459589 2.193571 0.064285 -0.014556 -442634.000000 0 0 1
22.470273 -11.526086 -19.943315 32.179180 -0.473952 2.239231 0.074802 -0.015549 263342.000000 0 0 1
21.177573 -12.115386 -19.832915 31.442276 -0.519641 2.253344 0.079613 -0.023579 470824.000000 0 0 1
21.077873 -13.584486 -19.951615 32.044999 -0.572492 2.242873 0.063153 -0.010102 -133947.000000 0 0 1
19.598873 -14.043886 -19.934115 31.284429 -0.621758 2.261643 0.056802 -0.012558 275752.000000 0 0 1
18.899173 -13.643586 -21.102915 31.442952 -0.625283 2.306554 0.057510 -0.010031 50285.400000 0 0 1
17.497573 -13.653786 -20.869915 30.465461 -0.662628 2.325448 0.064516 -0.004158 263253.000000 0 0 1
16.819873 -12.937086 -22.070615 30.616799 -0.655648 2.375848 0.061319 -0.015654 -288616.000000 0 0 1
17.004273 -13.689786 -23.242215 31.886613 -0.677830 2.387513 0.057413 -0.004134 257404.000000 0 0 1
16.484973 -13.054586 -24.363015 32.182807 -0.669787 2.429536 0.065117 -0.019228 -308751.000000 0 0 1
16.359673 -13.963486 -25.594945 33.432306 -0.706540 2.442731 0.053914 -0.019577 -622589.000000 0 0 1
15.350873 -14.921786 -25.487705 33.285614 -0.771225 2.442968 0.070581 -0.020709 -102623.000000 0 0 1
15.322773 -15.859986 -26.560245 34.522068 -0.802624 2.448651 0.071180 -0.022276 2481.060000 0 0 1
16.405473 -16.991686 -26.703645 35.650268 -0.802949 2.417415 0.052913 -0.011185 -354805.000000 0 0 1
17.708973 -16.520186 -26.835075 36.147552 -0.750682 2.407406 0.048642 -0.008029 -11628.100000 0 0 1
18.576473 -17.653486 -27.103765 37.300737 -0.759928 2.384198 0.048565 -0.002066 1362790.000000 0 0 1
20.107973 -17.330586 -27.262795 38.051804 -0.711349 2.369519 0.033452 0.004706 1045260.000000 0 0 1
20.693473 -16.833986 -26.059875 37.292358 -0.682914 2.344514 0.028952 0.007609 291721.000000 0 0 1
22.113673 -16.784286 -26.039405 38.062809 -0.649237 2.324188 0.041966 0.009525 425338.000000 0 0 1
22.548473 -16.332286 -24.575615 37.136748 -0.626862 2.293960 0.037688 0.016259 31219.600000 0 0 1
22.340173 -14.951386 -24.215015 36.180025 -0.589796 2.304052 0.042759 0.005531 -327463.000000 0 0 1
20.994973 -14.556986 -24.105615 35.125139 -0.606253 2.327156 0.061015 -0.002381 -133666.000000 0 0 1
20.665273 -13.166186 -23.562415 33.993961 -0.567265 2.336626 0.074070 -0.006878 -100644.000000 0 0 1
21.135273 -12.114686 -24.383715 34.467825 -0.520479 2.356658 0.083332 -0.022101 227209.000000 0 0 1
20.914773 -10.887686 -23.723915 33.448372 -0.479971 2.359258 0.079679 -0.027521 -121830.000000 0 0 1
21.029573 -9.683386 -24.601515 33.782325 -0.431523 2.386541 0.086878 -0.032466 -278597.000000 0 0 1
20.574773 -8.609086 -23.852815 32.655695 -0.396292 2.389753 0.087285 -0.030661 34471.600000 0 0 1
20.475273 -7.347486 -24.541215 32.794719 -0.344534 2.416335 0.065770 -0.029750 -396975.000000 0 0 1
19.775873 -6.330786 -23.644015 31.467498 -0.309818 2.420946 0.069697 -0.034685 -591356.000000 0 0 1
18.528073 -6.801586 -23.232615 30.484512 -0.351823 2.437365 0.075209 -0.029713 -468977.000000 0 0 1
17.898473 -6.030086 -22.210715 29.155328 -0.324962 2.436893 0.068004 -0.022969 -33740.300000 0 0 1
18.427273 -6.259086 -20.782515 28.471977 -0.327438 2.389014 0.077460 -0.033897 -372912.000000 0 0 1
17.964373 -7.357186 -19.953815 27.838851 -0.388706 2.369943 0.083658 -0.038338 244612.000000 0 0 1
18.217173 -8.622086 -20.495315 28.744803 -0.442056 2.364577 0.090630 -0.025211 -21053.100000 0 0 1
17.729473 -9.685986 -19.460715 28.051238 -0.500014 2.337488 0.077641 -0.024543 302074.000000 0 0 1
16.323573 -9.655986 -19.321315 27.074163 -0.534173 2.365483 0.055186 -0.030070 -318536.000000 0 0 1
15.853573 -10.740986 -18.646215 26.727998 -0.595473 2.342879 0.068339 -0.029969 975883.000000 0 0 1
14.285073 -10.687386 -18.376715 25.612247 -0.642316 2.370999 0.061057 -0.026664 1326150.000000 0 0 1
13.774973 -9.848486 -17.263515 24.182049 -0.620693 2.365845 0.067199 -0.025621 510708.000000 0 1 0
13.998673 -8.438486 -17.450115 23.909776 -0.542480 2.388872 0.063610 -0.036589 -581787.000000 0 1 0
12.793373 -7.576986 -17.085915 22.649715 -0.534708 2.425467 0.056814 -0.017222 -30422.500000 0 1 0
11.807173 -7.464886 -18.102715 22.865742 -0.563784 2.484376 0.052900 -0.023952 1680690.000000 0 1 0
10.613673 -6.701486 -17.683015 21.685225 -0.563189 2.524286 0.031716 -0.012020 1508320.000000 0 1 0
9.308073 -7.107786 -18.389215 21.801928 -0.652158 2.574502 0.028362 -0.003962 46929.400000 0 1 0
9.295573 -6.539586 -19.651115 22.701105 -0.613082 2.617235 0.038784 -0.014144 522312.000000 0 1 0
7.972773 -6.065086 -19.909215 22.287378 -0.650330 2.675421 0.042045 -0.009133 605563.000000 0 1 0
7.503773 -5.913086 -21.362915 23.401823 -0.667390 2.721066 0.050050 -0.014493 -209887.000000 0 1 0
7.530473 -7.167586 -22.015915 24.347132 -0.760714 2.700418 0.050677 -0.017582 5521.710000 0 1 0
6.957773 -7.018686 -23.295715 25.305393 -0.789756 2.740367 0.064251 -0.018035 27577.500000 0 0 1
7.019273 -8.311486 -24.140415 26.478494 -0.869488 2.718197 0.062959 -0.022921 -226748.000000 0 0 1
6.074473 -9.268486 -23.740915 26.199907 -0.990641 2.704875 0.060660 -0.022680 164.997000 0 0 1
5.985473 -10.203986 -24.826515 27.500965 -1.040302 2.696918 0.065740 -0.013580 -689070.000000 0 0 1
5.008473 -11.309186 -24.621515 27.553611 -1.153889 2.676067 0.056152 -0.017402 -614427.000000 0 0 1
5.417373 -12.332286 -23.674615 27.238220 -1.156890 2.624316 0.056800 -0.021336 -179919.000000 0 0 1
4.538073 -13.402186 -23.593915 27.511553 -1.244307 2.601382 0.057585 -0.027706 -1014610.000000 0 0 1
5.119373 -14.444686 -22.654015 27.350710 -1.230196 2.546825 0.066110 -0.027184 157182.000000 0 0 1
6.243373 -15.256286 -23.029115 28.320913 -1.182356 2.520338 0.104669 -0.026577 318604.000000 0 0 1
7.474673 -14.623386 -23.267615 28.479748 -1.098272 2.526965 0.091590 -0.028566 -205563.000000 0 0 1
8.206773 -14.058386 -22.017415 27.381671 -1.042401 2.504945 0.081545 -0.013240 -404551.000000 0 0 1
8.855973 -14.964386 -21.091215 27.334968 -1.036426 2.452123 0.089837 -0.009794 285779.000000 0 0 1
7.965373 -15.683386 -20.283815 26.848630 -1.100860 2.427195 0.102140 -0.016889 -41913.600000 0 0 1
8.547873 -15.942686 -18.857015 26.130870 -1.078639 2.376961 0.083904 -0.015367 579133.000000 0 0 1
9.775773 -16.665486 -18.772515 26.939033 -1.040297 2.341795 0.096171 -0.019055 622586.000000 0 0 1
10.328473 -16.883586 -17.443015 26.381653 -1.021785 2.293187 0.081325 -0.021437 226856.000000 0 0 1
9.448773 -17.840786 -16.581115 26.124822 -1.083737 2.258401 0.074113 -0.020466 -436473.000000 0 0 1
9.451573 -19.225886 -16.960215 27.324272 -1.113886 2.240433 0.072316 -0.025273 562944.000000 0 0 1
8.624973 -19.539386 -18.110215 28.002815 -1.155105 2.274084 0.097109 -0.023962 6762.920000 0 0 1
7.093573 -19.478686 -18.087015 27.511418 -1.221553 2.288208 0.094780 -0.020513 -325739.000000 0 0 1
6.606073 -18.245786 -17.620215 26.211083 -1.223418 2.308031 0.087303 -0.016361 -14910.600000 0 0 1
5.178273 -18.182786 -17.637115 25.855290 -1.293352 2.321491 0.061501 -0.013687 686994.000000 0 0 1
4.718773 -16.818086 -17.076115 24.427618 -1.297252 2.344864 0.035814 -0.002130 -62997.300000 0 1 0
4.709973 -16.661586 -15.621015 23.319700 -1.295300 2.304821 0.011946 0.002340 38817.100000 0 1 0
4.762473 -15.267486 -15.275715 22.116165 -1.268426 2.333258 0.013120 0.007134 44886.500000 0 1 0
10.387673 29.864314 -17.742515 36.257107 1.236057 2.082144 0.052890 -0.021817 525342.000000 0 0 1
9.509373 29.480914 -18.862515 36.267712 1.258773 2.117754 0.083373 -0.025547 -615831.000000 0 0 1
8.412373 28.878114 -18.315015 35.215810 1.287334 2.117740 0.078716 -0.016704 -760794.000000 0 0 1
7.574773 28.214714 -19.453515 35.098241 1.308512 2.158269 0.089362 -0.016999 -39921.300000 0 0 1
6.839773 29.097814 -20.243315 36.100652 1.339926 2.166083 0.096235 -0.022885 -852866.000000 0 0 1
5.954373 28.344714 -20.997115 35.773680 1.363737 2.198074 0.095291 -0.030512 -934651.000000 0 0 1
4.746473 29.100914 -21.466415 36.471896 1.409116 2.200090 0.083323 -0.038800 -1190040.000000 0 0 1
3.754073 29.222914 -20.508915 35.898292 1.443033 2.178893 0.087083 -0.031805 -685386.000000 0 0 1
2.836773 30.213814 -20.925915 36.862118 1.477181 2.174482 0.084822 -0.037573 246370.000000 0 0 1
1.353173 29.897514 -20.558315 36.308907 1.525567 2.172692 0.096786 -0.030861 202276.000000 0 0 1
0.782573 28.740914 -21.151415 35.693626 1.543575 2.205057 0.094908 -0.043268 23032.600000 0 0 1
-0.008727 29.038814 -22.296815 36.611484 -1.570496 2.225610 0.113870 -0.060439 -225231.000000 0 0 1
-0.678427 27.749014 -22.826615 35.937757 -1.546353 2.259026 0.103971 -0.046841 316752.000000 0 0 1
-1.708427 27.368814 -21.926415 35.110374 -1.508455 2.245287 0.117629 -0.048705 -59217.900000 0 0 1
-2.274727 26.080614 -22.113615 34.269298 -1.483797 2.272198 0.114334 -0.055294 -154644.000000 0 0 1
-3.216527 25.660014 -20.985515 33.304267 -1.446095 2.252498 0.085473 -0.053206 308908.000000 0 0 1
-4.417827 26.436514 -21.041915 34.075925 -1.405216 2.236358 0.076881 -0.048157 797336.000000 0 0 1
-5.497427 25.796714 -20.343315 33.309798 -1.360831 2.227779 0.063237 -0.045181 1086700.000000 0 0 1
-6.609927 26.735114 -19.771415 33.902305 -1.328419 2.193444 0.054716 -0.049051 663456.000000 0 0 1
-7.658027 26.083814 -19.089515 33.217771 -1.285228 2.183007 0.063126 -0.038299 -191354.000000 0 0 1
-8.561627 26.972714 -18.422215 33.766948 -1.263437 2.147865 0.065649 -0.045908 258144.000000 0 0 1
-9.737027 26.250014 -17.760715 33.155934 -1.215595 2.136100 0.081418 -0.042225 -298396.000000 0 0 1
-9.421827 25.238414 -16.778515 31.737469 -1.213506 2.127824 0.080934 -0.038825 -545412.000000 0 0 1
-10.568027 24.733114 -16.121015 31.357571 -1.166994 2.110758 0.054748 -0.025204 31656.200000 0 0 1
-10.425027 23.941314 -14.819615 30.024801 -1.160115 2.086997 0.058509 -0.020037 -81046.700000 0 0 1
-9.772827 22.701014 -15.020315 28.921515 -1.164275 2.116883 0.069052 -0.021751 -220512.000000 0 0 1
-9.854527 21.998414 -13.785215 27.768221 -1.149636 2.090288 0.076374 -0.019437 -161629.000000 0 0 1
-9.298827 20.530514 -13.707015 26.379015 -1.145511 2.117200 0.087736 -0.013315 40904.200000 0 0 1
-10.100627 19.518114 -14.278415 26.207872 -1.093247 2.146964 0.071738 -0.012061 -254859.000000 0 0 1
-10.425227 19.538914 -15.708715 27.151763 -1.080661 2.187749 0.073404 -0.004580 185867.000000 0 0 1
-9.241727 19.732114 -16.680515 27.440944 -1.132780 2.224171 0.063358 -0.013247 22379.300000 0 0 1
-8.424527 18.598414 -16.844615 26.469128 -1.145475 2.260602 0.057672 -0.017958 9569.280000 0 0 1
-7.671727 18.715314 -18.078715 27.128552 -1.181770 2.300179 0.061397 -0.027091 287922.000000 0 0 1
-7.016927 17.364714 -18.415315 26.265841 -1.186768 2.347753 0.035819 -0.030017 274542.000000 0 0 1
-7.983427 16.328914 -18.570515 25.985237 -1.116057 2.366929 0.037075 -0.028161 423.763000 0 0 1
-7.874827 15.692314 -19.830615 26.486127 -1.105688 2.416921 0.042050 -0.027185 -210618.000000 0 0 1
-6.762827 14.643814 -19.977215 25.676180 -1.138155 2.462344 0.040108 -0.019222 -713408.000000 0 0 1
-7.046927 13.333914 -19.427215 24.594087 -1.084612 2.481465 0.012128 -0.014994 900030.000000 0 1 0
-5.833427 12.655814 -19.037515 23.592912 -1.138891 2.509710 0.017806 -0.007503 860656.000000 0 1 0
-5.094627 13.167714 -17.813615 22.730350 -1.201631 2.471385 0.043327 0.003000 -314129.000000 0 1 0
-4.456227 14.430214 -17.858315 23.388212 -1.271275 2.439605 0.032038 -0.011195 -250267.000000 0 1 0
-4.119327 14.835214 -16.524515 22.585660 -1.299947 2.391517 0.048137 0.004355 -53690.300000 0 1 0
-3.165827 16.014114 -16.367215 23.116229 -1.375623 2.357515 0.065045 -0.008852 -126900.000000 0 1 0
-3.735727 17.232414 -16.801815 24.355959 -1.357315 2.332070 0.041845 -0.015730 -477986.000000 0 1 0
-2.815127 18.275814 -16.760915 24.957135 -1.417962 2.307146 0.055273 -0.023180 -287441.000000 0 1 0
-3.418727 19.565614 -17.253015 26.309076 -1.397811 2.286014 0.073179 -0.027224 100393.000000 0 0 1
-3.577127 19.700014 -18.662615 27.371145 -1.391173 2.321065 0.073733 -0.031710 -217257.000000 0 0 1
-4.002227 20.998114 -19.109915 28.672765 -1.382456 2.300278 0.098805 -0.028597 28299.000000 0 0 1
-2.923827 22.128514 -19.092615 29.372570 -1.439428 2.278401 0.080820 -0.039489 -850377.000000 0 0 1
-2.076127 21.994214 -20.191815 29.929336 -1.476681 2.311286 0.096600 -0.029967 42296.900000 0 0 1
-0.888727 22.794014 -20.226515 30.487191 -1.531827 2.296207 0.090473 -0.034758 967662.000000 0 0 1
0.171373 22.447314 -19.127315 29.491786 1.563162 2.276493 0.107346 -0.038633 -728642.000000 0 0 1
-0.115027 22.822214 -17.787315 28.935363 -1.565756 2.232835 0.104363 -0.036735 -524058.000000 0 0 1
0.791473 22.120914 -16.964315 27.888156 1.535032 2.224711 0.118297 -0.038482 -94268.300000 0 0 1
0.442273 22.110714 -15.454315 26.979902 1.550796 2.180724 0.124836 -0.037298 -743207.000000 0 0 1
-0.680327 21.327614 -15.152815 26.171316 -1.538908 2.188280 0.104256 -0.023588 -336289.000000 0 0 1
-0.842827 21.280514 -13.758215 25.354667 -1.531211 2.144362 0.117341 -0.029590 258165.000000 0 0 1
-1.787827 20.141214 -13.312215 24.209087 -1.482264 2.153023 0.070018 -0.020412 -170055.000000 0 1 0
-1.147527 18.916614 -13.310815 23.158862 -1.510208 2.183109 0.072034 -0.017654 250858.000000 0 1 0
-2.011527 17.888214 -12.777515 22.074857 -1.458817 2.188085 0.049905 -0.013861 236321.000000 0 1 0
-1.397027 16.505814 -12.841015 20.959133 -1.486359 2.230230 0.028106 -0.005536 -621001.000000 0 1 0
-0.156227 16.368614 -12.188715 20.408839 -1.561252 2.210836 0.029402 -0.001254 27653.200000 0 1 0
0.136573 15.010314 -11.936515 19.178336 1.561698 2.242596 0.024288 -0.005425 175181.000000 0 1 0
0.811373 14.193214 -13.024515 19.280655 1.513692 2.312469 0.027104 -0.006552 -643177.000000 0 1 0
-0.097227 13.920814 -14.021315 19.758436 -1.563812 2.359779 0.034107 -0.017822 -320357.000000 0 1 0
0.493273 13.091914 -15.017415 19.928981 1.533136 2.424237 0.034099 -0.015209 -279471.000000 0 1 0
-0.327927 12.945014 -16.315715 20.829870 -1.545469 2.470728 0.039223 -0.014044 -52836.900000 0 1 0
-0.277327 14.081614 -17.191115 22.223933 -1.551105 2.455205 0.052707 -0.019444 63644.100000 0 1 0
-0.638027 13.803914 -18.525615 23.111762 -1.524608 2.500707 0.057520 -0.017024 -189396.000000 0 1 0
-1.212427 15.067614 -19.112115 24.367518 -1.490504 2.472408 0.057763 -0.017978 116112.000000 0 1 0
-0.200027 16.068614 -19.237915 25.066666 -1.558349 2.445682 0.064641 -0.023197 157776.000000 0 0 1
-0.780427 17.286114 -19.619315 26.159823 -1.525679 2.418827 0.084258 -0.030735 -462392.000000 0 0 1
0.176773 18.351814 -20.062415 27.190455 1.561164 2.400672 0.097824 -0.036496 -64207.300000 0 0 1
0.886873 18.109414 -21.301615 27.973134 1.521862 2.436425 0.091786 -0.037442 420766.000000 0 0 1
1.667073 19.217714 -21.730615 29.057173 1.484266 2.415625 0.084955 -0.031648 276055.000000 0 0 1
2.369673 18.937314 -23.136215 29.992027 1.446311 2.451854 0.094154 -0.029715 229216.000000 0 0 1
3.281173 17.862314 -23.137815 29.414059 1.389129 2.476119 0.076707 -0.029507 -307191.000000 0 0 1
3.613673 17.630014 -24.481615 30.384626 1.368624 2.507693 0.079575 -0.037879 7326.600000 0 0 1
4.603173 16.502314 -24.800815 30.142926 1.298770 2.537071 0.053120 -0.024299 1062790.000000 0 0 1
5.960073 16.794814 -24.363615 30.185659 1.229784 2.510063 0.046941 -0.019112 1313890.000000 0 0 1
6.949373 15.838214 -24.704015 30.156776 1.157318 2.530787 0.044665 -0.023890 227667.000000 0 0 1
7.448073 15.776614 -26.177495 31.458490 1.129720 2.553730 0.031252 -0.014758 -572015.000000 0 0 1
8.370273 16.888814 -26.399175 32.437786 1.110667 2.521527 0.024028 -0.011568 563213.000000 0 0 1
8.723373 17.141414 -27.777585 33.786381 1.100049 2.535980 0.031313 -0.016823 161645.000000 0 0 1
9.320473 15.932014 -28.555325 34.001572 1.041468 2.567755 0.018290 -0.019578 -1080960.000000 0 0 1
10.513673 15.446914 -28.044595 33.699314 0.973187 2.553861 0.040329 -0.016661 -562436.000000 0 0 1
10.854273 14.157914 -28.574085 33.685904 0.916719 2.583469 0.027654 -0.008580 -125199.000000 0 0 1
10.391173 12.973414 -27.706175 32.309721 0.895471 2.601222 0.027717 -0.010244 -1101940.000000 0 0 1
9.015373 12.883014 -27.679285 31.833816 0.960213 2.624972 0.029008 -0.012470 -1225450.000000 0 0 1
8.687773 12.206214 -26.494255 30.437060 0.952228 2.626933 0.033182 -0.012446 188109.000000 0 0 1
7.211673 11.767814 -26.350425 29.746169 1.020996 2.659103 0.032739 -0.021046 864568.000000 0 0 1
6.222473 12.832414 -26.354545 29.965848 1.119299 2.645578 0.031469 -0.016044 629712.000000 0 0 1
4.941673 12.256914 -26.158795 29.307587 1.187556 2.673788 0.051261 -0.024377 94630.700000 0 0 1
3.716773 13.064014 -26.578195 29.847669 1.293615 2.669154 0.062505 -0.027557 -643953.000000 0 0 1
3.526173 13.298814 -28.011605 31.208050 1.311611 2.685037 0.069881 -0.031024 244506.000000 0 0 1
4.269773 14.395014 -28.541665 32.250179 1.282448 2.657307 0.068366 -0.029705 111430.000000 0 0 1
4.226673 14.429814 -30.024025 33.578660 1.285854 2.677303 0.066976 -0.030910 -624050.000000 0 0 1
5.062173 13.510314 -30.604075 33.834355 1.212298 2.701065 0.065844 -0.032019 -695564.000000 0 0 1
4.858173 13.294014 -31.978515 34.970818 1.220433 2.724904 0.068578 -0.031315 -543220.000000 0 0 1
5.852173 12.228614 -32.552835 35.262927 1.124444 2.746982 0.058985 -0.022759 1886100.000000 0 0 1
7.278273 12.569214 -32.452425 35.554441 1.045920 2.720770 0.053525 -0.018036 1904660.000000 0 0 1
7.820573 12.476214 -31.109705 34.418469 1.010876 2.699519 0.045870 -0.016767 -844010.000000 0 0 1
7.832773 11.116014 -30.463155 33.360484 0.956964 2.721745 0.047569 -0.017241 -600336.000000 0 0 1
8.957573 10.318614 -30.742585 33.642510 0.855889 2.723344 0.049902 -0.018268 -343285.000000 0 0 1
8.984573 9.129214 -29.988565 32.609495 0.793383 2.737926 0.047045 -0.019743 -96281.500000 0 0 1
10.094873 8.072114 -30.208395 32.857459 0.674512 2.737290 0.030461 -0.011595 203018.000000 0 0 1
11.332773 8.450014 -29.623305 32.823386 0.640696 2.696350 0.041682 -0.017173 275489.000000 0 0 1
12.185473 7.281614 -29.552005 32.784580 0.538627 2.693787 0.015290 -0.004647 -340008.000000 0 0 1
13.441073 7.515214 -28.722815 32.590505 0.509820 2.649455 0.033592 -0.002253 223873.000000 0 0 1
14.214573 6.361714 -28.310715 32.311331 0.420814 2.638686 0.032705 0.006369 577047.000000 0 0 1
14.996173 5.631514 -29.233995 33.335051 0.359235 2.640326 0.027816 0.006151 -62766.700000 0 0 1
15.826073 4.482414 -28.542085 32.942484 0.276001 2.618787 0.034953 0.009687 530879.000000 0 0 1
16.835073 4.901314 -27.617845 32.713727 0.283306 2.575920 0.020049 0.002188 212111.000000 0 0 1
17.537773 3.784914 -27.173055 32.561849 0.212555 2.558032 0.025060 0.011730 -60953.000000 0 0 1
18.468473 4.192514 -25.979905 32.149917 0.223226 2.511692 0.028876 0.009580 -466905.000000 0 0 1
19.502673 5.047314 -26.300655 33.129354 0.253245 2.487956 0.046407 -0.000662 -449468.000000 0 0 1
20.121073 5.510714 -25.101685 32.639242 0.267323 2.448173 0.051331 -0.007760 -602710.000000 0 0 1
21.036373 6.645114 -25.373355 33.622815 0.305967 2.425912 0.042932 -0.007404 -888394.000000 0 0 1
20.367773 7.772314 -25.912645 33.863258 0.364543 2.442170 0.057140 -0.012520 494316.000000 0 0 1
21.273873 8.590814 -26.644165 35.160934 0.383795 2.430697 0.066623 -0.016057 -241889.000000 0 0 1
21.363173 8.181214 -28.149005 36.272357 0.365730 2.459168 0.071208 -0.015547 111292.000000 0 0 1
20.213873 8.478614 -28.925665 36.292997 0.397156 2.493115 0.071602 -0.013221 1088710.000000 0 0 1
19.109073 7.529314 -28.732065 35.318250 0.375339 2.520974 0.061918 -0.004816 1859000.000000 0 0 1
17.755073 8.149214 -29.332905 35.243037 0.430296 2.554047 0.050273 -0.005168 944842.000000 0 0 1
17.642773 8.196914 -30.762485 36.397628 0.434933 2.577695 0.053262 -0.002483 292195.000000 0 0 1
16.480173 8.883814 -31.197095 36.383746 0.494406 2.601082 0.041221 -0.000865 -98403.600000 0 0 1
16.183273 8.691714 -32.685965 37.494220 0.492870 2.629580 0.023650 0.010443 78759.800000 0 0 1
15.584973 7.421014 -32.921295 37.172228 0.444398 2.658672 0.023270 0.017911 -49735.300000 0 0 1
14.199773 7.493414 -33.177405 36.858174 0.485572 2.690880 0.014366 0.007998 -33447.200000 0 0 1
13.480873 6.138114 -33.326165 36.469764 0.427269 2.723346 0.012537 0.003232 -100024.000000 0 0 1
13.145673 5.464614 -32.162615 35.172497 0.393964 2.724882 0.013612 0.007291 482959.000000 0 0 1
12.399073 4.290014 -32.627795 35.166948 0.333102 2.759261 0.010959 0.000197 278045.000000 0 0 1
12.215173 3.147414 -31.669455 34.089163 0.252179 2.762547 0.018743 0.001995 1515430.000000 0 0 1
13.378973 2.251414 -31.392635 34.198879 0.166718 2.733661 0.013715 -0.001026 1661800.000000 0 0 1
13.142073 1.288814 -30.376535 33.122636 0.097755 2.731523 0.028989 0.000116 -6000.810000 0 0 1
12.489873 -0.100486 -30.685885 33.130508 -0.008045 2.755035 0.040619 -0.003704 154067.000000 0 0 1
13.335273 -1.035086 -31.328885 34.064644 -0.077465 2.738085 0.044181 -0.004856 198382.000000 0 0 1
14.350973 -1.631986 -30.532885 33.776780 -0.113233 2.699740 0.049367 -0.012340 136488.000000 0 0 1
14.878173 -2.938386 -31.146755 34.642669 -0.194987 2.688475 0.059977 -0.017703 -131798.000000 0 0 1
13.890073 -3.943386 -31.250955 34.425377 -0.276621 2.708777 0.072754 -0.021468 82749.300000 0 0 1
14.224273 -4.980786 -32.141525 35.499518 -0.336818 2.703135 0.055322 -0.025944 -185407.000000 0 0 1
13.262173 -6.166086 -32.027145 35.208577 -0.435207 2.713214 0.077764 -0.025205 -8739.170000 0 0 1
13.524373 -6.779286 -30.772145 34.289828 -0.464659 2.684667 0.071919 -0.021743 478819.000000 0 0 1
12.967273 -8.094886 -30.713675 34.307538 -0.558063 2.679779 0.084316 -0.028061 43173.700000 0 0 1
13.340473 -8.782986 -29.373945 33.435576 -0.582238 2.643559 0.071608 -0.024658 -1601940.000000 0 0 1
14.672673 -9.051586 -29.300185 33.995873 -0.552754 2.609751 0.084780 -0.026119 -1260310.000000 0 0 1
15.067073 -9.625086 -28.056195 33.268740 -0.568473 2.574228 0.093618 -0.030105 -150193.000000 0 0 1
15.092873 -11.157986 -27.944145 33.662601 -0.636610 2.550127 0.080226 -0.029202 1218260.000000 0 0 1
13.715473 -11.640886 -27.990855 33.273299 -0.703763 2.570370 0.080124 -0.033149 1556640.000000 0 0 1
13.652573 -13.039786 -28.186395 33.924941 -0.762445 2.551422 0.088493 -0.038990 98984.100000 0 0 1
-9.778027 -2.953086 -17.464815 20.232407 0.293302 2.612390 0.004404 -0.006302 -312897.000000 0 1 0
-10.530727 -2.422486 -18.503115 21.427317 0.226106 2.613023 0.008463 -0.009969 265908.000000 0 1 0
-11.536627 -3.301586 -19.012915 22.482997 0.278733 2.578592 0.013480 -0.008002 222019.000000 0 1 0
-12.441627 -2.874886 -20.190215 23.889408 0.227084 2.577648 0.023253 -0.019944 -260461.000000 0 1 0
-13.300727 -1.831086 -19.863015 23.975020 0.136808 2.547199 0.018538 -0.012839 192578.000000 0 1 0
-14.210327 -1.607586 -20.983715 25.393582 0.112649 2.543373 0.021499 -0.005568 688470.000000 0 0 1
-15.166427 -0.428186 -20.733815 25.692313 0.028225 2.509858 0.033454 -0.005401 -14316.600000 0 0 1
-14.546727 0.838414 -20.944515 25.514367 -0.057572 2.533766 0.034399 -0.008977 110855.000000 0 0 1
-15.402927 1.935914 -20.627215 25.816272 -0.125029 2.496428 0.040081 -0.001151 -162317.000000 0 0 1
-15.054727 3.293514 -21.264315 26.261438 -0.215376 2.514465 0.064446 -0.022605 -206161.000000 0 0 1
-13.896727 3.925814 -20.789815 25.312990 -0.275325 2.534500 0.079091 -0.025912 -23706.800000 0 0 1
-13.447627 5.046514 -21.573115 25.917277 -0.359009 2.554191 0.087812 -0.031736 339519.000000 0 0 1
-12.089927 5.529314 -20.971615 24.830390 -0.428948 2.576604 0.068205 -0.026807 220670.000000 0 1 0
-12.254127 6.129114 -19.724515 24.016373 -0.463781 2.534473 0.080190 -0.037724 249685.000000 0 1 0
-10.995827 6.312114 -19.139115 22.957716 -0.521117 2.556513 0.053343 -0.023069 -87388.300000 0 1 0
-11.296527 7.014414 -17.768715 22.193259 -0.555671 2.499152 0.065122 -0.023658 231400.000000 0 1 0
-11.784127 8.368214 -17.803215 22.931357 -0.617490 2.459682 0.055457 -0.027652 -421578.000000 0 1 0
-13.029227 8.378414 -17.195415 23.143917 -0.571472 2.408305 0.077116 -0.018975 -1045310.000000 0 1 0
-13.613727 9.790314 -17.084815 23.938979 -0.623463 2.365537 0.088236 -0.024539 -484281.000000 0 1 0
-12.956227 10.656914 -16.205715 23.325069 -0.688330 2.338906 0.053969 -0.018030 125963.000000 0 1 0
-13.348627 11.981914 -16.393215 24.299992 -0.731495 2.311244 0.054033 -0.024722 -337437.000000 0 1 0
-12.743927 12.945114 -15.380115 23.801924 -0.793230 2.273353 0.063845 -0.025308 18032.500000 0 1 0
-13.323527 12.846014 -14.081115 23.255413 -0.767153 2.221188 0.074760 -0.030009 175035.000000 0 1 0
-12.741227 13.924714 -13.475315 23.190960 -0.829751 2.190826 0.081737 -0.032786 -674334.000000 0 1 0
-13.299927 14.346014 -12.022715 22.961748 -0.823219 2.121864 0.074406 -0.032922 659124.000000 0 1 0
-14.644227 14.793714 -11.968915 24.011711 -0.790476 2.092620 0.079348 -0.024711 402505.000000 0 1 0
-15.655227 13.838614 -12.240715 24.216285 -0.723883 2.100728 0.076647 -0.023299 -664394.000000 0 1 0
-17.070627 14.349114 -11.882015 25.268274 -0.698996 2.060353 0.052802 -0.014351 -131278.000000 0 0 1
-18.055927 13.442014 -12.333015 25.667246 -0.639950 2.072017 0.050501 -0.022746 -54408.500000 0 0 1
-19.290127 13.869014 -11.785615 26.520921 -0.623344 2.031289 0.081177 -0.025729 -823395.000000 0 0 1
-20.518227 13.385214 -12.499215 27.502581 -0.578031 2.042578 0.072918 -0.031531 -944181.000000 0 0 1
-20.781827 12.033214 -12.214415 26.942058 -0.524855 2.041326 0.086416 -0.030527 475855.000000 0 0 1
-21.973027 11.520814 -12.785215 27.910657 -0.482911 2.046626 0.107833 -0.029854 -257308.000000 0 0 1
-22.471527 10.206514 -12.130015 27.500540 -0.426339 2.027601 0.098930 -0.026672 -551854.000000 0 0 1
-21.747227 9.031914 -12.337915 26.584610 -0.393637 2.053415 0.113377 -0.026972 -78050.900000 0 0 1
-22.022227 7.960314 -11.495015 26.086020 -0.346854 2.027128 0.103530 -0.021571 -844371.000000 0 0 1
-20.898127 6.953114 -11.363715 24.783291 -0.321194 2.047129 0.121197 -0.024733 -658677.000000 0 1 0
-20.696427 6.222414 -12.570215 25.001417 -0.292054 2.097608 0.128422 -0.027795 -774260.000000 0 0 1
-19.589327 5.454914 -12.432115 23.833911 -0.271583 2.119539 0.123931 -0.036577 -1229000.000000 0 1 0
-19.619227 4.184914 -13.318315 24.079142 -0.210157 2.156884 0.135279 -0.055351 -73613.100000 0 1 0
-20.613927 3.254114 -12.947515 24.559344 -0.156568 2.126090 0.129513 -0.051170 282135.000000 0 1 0
-20.356227 2.009314 -13.551215 24.536682 -0.098389 2.155898 0.118664 -0.056716 -346853.000000 0 1 0
-21.334327 0.868514 -13.264815 25.136888 -0.040687 2.126691 0.127038 -0.056762 -1162440.000000 0 0 1
-22.573827 0.952214 -13.848115 26.500088 -0.042157 2.120657 0.110579 -0.049185 -621173.000000 0 0 1
-23.105927 -0.336286 -14.047515 27.043107 0.014553 2.117002 0.098480 -0.051018 -711126.000000 0 0 1
-24.391827 -0.434586 -14.857415 28.563838 0.017815 2.117820 0.109338 -0.042094 203109.000000 0 0 1
-25.526747 -0.035586 -14.054415 29.140052 0.001394 2.074081 0.133646 -0.049131 1295390.000000 0 0 1
-26.736167 -0.107286 -14.829015 30.573417 0.004013 2.077193 0.116905 -0.036593 875950.000000 0 0 1
-28.069607 0.293814 -14.151415 31.436471 -0.010467 2.037740 0.119277 -0.031369 121453.000000 0 0 1
-28.481797 -0.701586 -13.225915 31.410664 0.024628 2.005415 0.132559 -0.037239 -392013.000000 0 0 1
-29.698237 -0.335586 -12.651715 32.282562 0.011299 1.973498 0.144367 -0.036889 -305211.000000 0 0 1
-29.756047 -0.669386 -11.111315 31.769982 0.022492 1.928093 0.146889 -0.034583 -266369.000000 0 0 1
-30.049467 -2.007586 -10.678315 31.953517 0.066710 1.911534 0.155273 -0.027674 519138.000000 0 0 1
-29.222477 -3.073486 -11.162215 31.432380 0.104790 1.933837 0.142222 -0.031714 -242336.000000 0 0 1
-29.509777 -4.487886 -10.592715 31.672917 0.150925 1.911808 0.135852 -0.032153 287942.000000 0 0 1
-30.761637 -5.071786 -10.999415 33.060376 0.163404 1.909969 0.133901 -0.026779 734888.000000 0 0 1
-30.906517 -6.469686 -10.782715 33.366698 0.206351 1.899861 0.137873 -0.025937 -241672.000000 0 0 1
-30.022117 -7.530686 -11.482815 33.013539 0.245767 1.926043 0.127314 -0.027408 -957775.000000 0 0 1
-28.687617 -7.544186 -11.148315 31.688784 0.257155 1.930296 0.089897 -0.017870 -813816.000000 0 0 1
-28.005977 -8.622386 -11.778515 31.581857 0.298667 1.952985 0.096074 -0.021244 -277754.000000 0 0 1
-26.507327 -8.769786 -11.526215 30.205979 0.319508 1.962309 0.088818 -0.023823 -830527.000000 0 0 1
-25.761537 -7.650486 -11.940415 29.406806 0.288678 1.988916 0.073859 -0.023108 1527190.000000 0 0 1
-24.357127 -7.636686 -11.571115 28.026404 0.303823 1.996394 0.088501 -0.029989 1164620.000000 0 0 1
-24.112627 -7.363286 -10.034215 27.135258 0.296377 1.949574 0.091061 -0.031503 -729763.000000 0 0 1
-24.483727 -6.100386 -9.530415 26.972141 0.244189 1.931938 0.094795 -0.020859 -153741.000000 0 0 1
-25.837837 -5.981186 -9.227115 28.080386 0.227483 1.905613 0.100807 -0.027933 -841955.000000 0 0 1
-26.179837 -4.584386 -8.620715 27.941317 0.173354 1.884443 0.119818 -0.035432 -365944.000000 0 0 1
-25.977227 -4.543186 -7.237515 27.346636 0.173140 1.838646 0.119051 -0.027521 367421.000000 0 0 1
-26.196557 -3.304086 -6.556815 27.206036 0.125464 1.814198 0.152445 -0.033004 -66238.100000 0 0 1
-25.946407 -3.240986 -5.015915 26.624790 0.124267 1.760322 0.153571 -0.030302 872844.000000 0 0 1
-24.543227 -3.431786 -4.778915 25.238565 0.138925 1.761296 0.117313 -0.020858 673459.000000 0 0 1
-24.138027 -3.120186 -3.475215 24.585708 0.128551 1.712622 0.064725 -0.017488 332733.000000 0 1 0
-22.741727 -3.699186 -3.104615 23.248844 0.161248 1.704735 0.064321 -0.011299 298788.000000 0 1 0
-22.700727 -5.079486 -3.090415 23.466462 0.220133 1.702875 0.082691 -0.009057 193477.000000 0 1 0
-21.495127 -5.536786 -2.533815 22.340920 0.252103 1.684457 0.073421 -0.008926 -204562.000000 0 1 0
-21.530527 -7.062586 -2.288515 22.774569 0.316967 1.671452 0.089948 -0.012236 -235333.000000 0 1 0
-22.484227 -7.372486 -1.298415 23.697677 0.316849 1.625615 0.100595 -0.004245 429144.000000 0 1 0
-23.114527 -8.570486 -1.769215 24.715677 0.355069 1.642440 0.104524 -0.016916 164082.000000 0 1 0
-23.578427 -9.520686 -0.623915 25.435702 0.383768 1.595328 0.104798 -0.018690 996270.000000 0 0 1
-22.385927 -9.941286 0.068085 24.494153 0.417925 1.568017 0.088737 -0.013046 1129340.000000 0 1 0
-22.788727 -10.714486 1.195985 25.210249 0.439497 1.523338 0.081494 -0.009337 9159.290000 0 0 1
-21.670127 -11.309586 2.041685 24.528955 0.481012 1.487464 0.083024 -0.004898 -40835.400000 0 1 0
-20.756627 -12.224786 1.443685 24.132285 0.532261 1.510937 0.085158 -0.007218 -54138.600000 0 1 0
-19.637127 -12.401886 2.250685 23.334290 0.563298 1.474192 0.079626 -0.005797 -602887.000000 0 1 0
-18.736727 -13.449986 1.563285 23.117329 0.622600 1.503121 0.070201 -0.003770 -301668.000000 0 1 0
-19.403827 -14.714686 1.444885 24.395044 0.648817 1.511533 0.071432 0.000554 716217.000000 0 1 0
-18.670727 -15.772886 0.784885 24.453957 0.701463 1.538694 0.063241 -0.003377 495983.000000 0 1 0
-17.433627 -16.428186 1.477985 24.000023 0.755714 1.509175 0.081339 -0.007173 -468068.000000 0 1 0
-16.209627 -15.751586 1.183585 22.633279 0.771068 1.518478 0.068985 -0.007454 1099560.000000 0 1 0
-15.078427 -16.529186 1.654485 22.434578 0.831265 1.496982 0.076057 -0.008130 848076.000000 0 1 0
-14.995627 -16.691586 3.179485 22.662458 0.838869 1.430035 0.068200 -0.001269 -1212280.000000 0 1 0
-14.907227 -15.395986 3.771585 21.759748 0.801526 1.396588 0.055324 -0.004797 1161.110000 0 1 0
-14.219627 -15.303186 4.991585 21.477924 0.822084 1.336246 0.040594 -0.003655 -430274.000000 0 1 0
-14.927327 -15.801086 6.250185 22.617785 0.813825 1.290813 0.056035 -0.004929 -877055.000000 0 1 0
-15.626427 -14.780486 6.948185 22.603656 0.757585 1.258345 0.051138 -0.004070 192804.000000 0 1 0
-15.949327 -15.122886 8.296885 23.492999 0.758807 1.209845 0.059666 -0.003701 -530324.000000 0 1 0
-16.927827 -16.247586 8.597285 24.988971 0.764897 1.219577 0.053269 0.000190 -836064.000000 0 1 0
-16.475527 -17.553286 8.298185 25.464106 0.817060 1.238856 0.059186 -0.000962 -195354.000000 0 0 1
-17.198127 -18.570486 8.967485 26.852454 0.823747 1.230301 0.075912 -0.011185 -48097.900000 0 0 1
-16.802027 -18.827686 10.440685 27.309298 0.842190 1.178499 0.077302 -0.010493 -113658.000000 0 0 1
-15.466027 -19.231786 10.577685 26.850456 0.893505 1.165873 0.080965 -0.011462 -180010.000000 0 0 1
-15.157627 -19.602986 11.976385 27.522073 0.912593 1.120585 0.083681 -0.019337 1054230.000000 0 0 1
-13.715827 -20.180086 12.202885 27.281316 0.973844 1.107054 0.078360 -0.021632 1714550.000000 0 0 1
-12.533427 -19.399386 11.913285 25.987484 0.997186 1.094575 0.076650 -0.026244 823762.000000 0 0 1
-11.386427 -20.228286 12.052585 26.155288 1.058106 1.091890 0.068672 -0.026302 -25793.300000 0 0 1
-10.176527 -19.535586 12.656285 25.404377 1.090551 1.049283 0.069854 -0.022369 39954.400000 0 0 1
-9.349127 -18.863486 11.673185 24.072817 1.110659 1.064534 0.055600 -0.019425 -75068.700000 0 1 0
-8.203227 -18.330286 12.288685 23.543664 1.150004 1.021657 0.040094 -0.007786 -45931.300000 0 1 0
-7.322827 -17.576886 11.274985 22.129076 1.176048 1.036181 0.031691 -0.010552 21576.400000 0 1 0
-6.634627 -18.297486 10.301385 22.021235 1.222943 1.084004 0.021606 -0.016536 -735873.000000 0 1 0
-5.988427 -17.444486 9.456385 20.726663 1.240116 1.097028 0.019680 -0.009259 -567263.000000 0 1 0
-4.991127 -18.142486 8.524085 20.657230 1.302331 1.145441 0.012741 -0.013407 -370043.000000 0 1 0
-3.904027 -18.625986 9.241885 21.156115 1.364186 1.118711 0.023362 -0.002956 -982667.000000 0 1 0
-2.870627 -19.181386 8.478985 21.167410 1.422242 1.158660 0.033596 -0.005163 111648.000000 0 1 0
-1.529027 -19.172986 9.235785 21.336378 1.491216 1.123127 0.027609 -0.014041 47682.700000 0 1 0
-0.439827 -19.523986 8.422385 21.267723 1.548273 1.163621 0.043603 -0.012730 -187717.000000 0 1 0
0.739173 -19.776486 9.168585 21.810977 -1.533437 1.136948 0.055944 -0.017033 585750.000000 0 1 0
1.987773 -20.279086 8.400085 22.039828 -1.473088 1.179776 0.072023 -0.032512 416050.000000 0 1 0
1.842173 -21.543686 7.832485 22.997213 -1.485495 1.223258 0.060474 -0.021652 -359472.000000 0 1 0
2.101473 -22.595386 8.758685 24.324519 -1.478059 1.202447 0.068437 -0.022245 -21077.300000 0 1 0
1.859473 -24.022886 8.301385 25.484695 -1.493546 1.239002 0.059542 -0.016050 153484.000000 0 0 1
1.878473 -24.918086 9.348685 26.680285 -1.495553 1.212802 0.076866 -0.017961 -145935.000000 0 0 1
1.472773 -26.183626 8.912985 27.698242 -1.514608 1.243178 0.083654 -0.017814 -471848.000000 0 0 1
1.578973 -27.260596 10.047785 29.096241 -1.512940 1.218207 0.092814 -0.023715 329878.000000 0 0 1
0.721273 -27.201946 11.173385 29.416163 -1.544287 1.181175 0.077046 -0.025748 -505545.000000 0 0 1
-0.647127 -27.397026 10.962885 29.516108 1.547180 1.190258 0.063170 -0.016861 -360759.000000 0 0 1
-1.417327 -27.698626 12.256285 30.322256 1.519671 1.154691 0.062753 -0.022978 -9587.910000 0 0 1
-0.982527 -28.881806 12.954985 31.669476 1.536791 1.149363 0.058879 -0.022068 -129586.000000 0 0 1
-1.291727 -28.739316 14.341185 32.144773 1.525880 1.108345 0.055250 -0.028968 -38081.800000 0 0 1
-0.420027 -29.621106 15.261985 33.324383 1.556617 1.095072 0.044625 -0.010946 113849.000000 0 0 1
-0.722527 -29.327746 16.610085 33.712515 1.546165 1.055609 0.048789 -0.009482 -66042.000000 0 0 1
-0.091327 -30.187496 17.508485 34.897569 1.567771 1.045221 0.042714 -0.001791 -123705.000000 0 0 1
-0.667227 -29.836826 18.913085 35.332509 1.548438 1.005947 0.045142 -0.008592 513486.000000 0 0 1
-2.082027 -29.957766 18.966685 35.518132 1.501409 1.007472 0.029781 -0.004718 193905.000000 0 0 1
-2.508127 -29.865586 20.306885 36.202396 1.487012 0.975292 0.041567 -0.014372 -283789.000000 0 0 1
-3.999627 -30.150796 20.535385 36.698359 1.438912 0.976927 0.061639 -0.024007 -95887.600000 0 0 1
-4.828127 -29.152886 19.906585 35.629674 1.406672 0.977969 0.046051 -0.021309 221477.000000 0 0 1
-6.122027 -29.005966 20.441885 36.009665 1.362788 0.967114 0.055824 -0.032005 155797.000000 0 0 1
-6.232227 -27.973706 21.615585 35.897108 1.351588 0.924600 0.060253 -0.035571 -102217.000000 0 0 1
-5.415527 -28.294926 22.758185 36.713291 1.381688 0.902194 0.056061 -0.033787 286432.000000 0 0 1
-5.527227 -27.377426 23.817885 36.706475 1.371584 0.864692 0.048176 -0.028940 295429.000000 0 0 1
-4.627827 -27.679546 25.099585 37.650541 1.405136 0.841096 0.053812 -0.030420 495617.000000 0 0 1
-5.027827 -28.849706 25.816885 39.039674 1.398253 0.848248 0.057452 -0.033675 42482.100000 0 0 1
-4.406127 -30.019626 25.374585 39.553274 1.425062 0.874306 0.050226 -0.034687 -113622.000000 0 0 1
-4.723127 -31.250636 26.241685 41.079633 1.420795 0.877858 0.063202 -0.030783 -146274.000000 0 0 1
-4.109127 -31.028326 27.484785 41.653996 1.439131 0.850197 0.052628 -0.032169 163120.000000 0 0 1
-4.528127 -31.952076 28.505785 43.058319 1.430018 0.847276 0.046021 -0.032194 -377524.000000 0 0 1
-3.797327 -31.779396 29.859585 43.771503 1.451870 0.820071 0.062630 -0.036384 -76703.200000 0 0 1
-2.429027 -32.126766 29.887585 43.946524 1.495332 0.822911 0.064561 -0.041030 85946.700000 0 0 1
-1.905227 -31.838486 31.164085 44.592816 1.511027 0.796995 0.071186 -0.047593 -120111.000000 0 0 1
-28.377247 3.092714 -10.419815 30.387589 -0.108557 1.920796 0.157718 -0.031660 -28238.400000 0 0 1
-29.536737 2.736114 -11.180815 31.700406 -0.092371 1.931254 0.138439 -0.042702 809511.000000 0 0 1
-30.441147 3.847214 -11.288715 32.694030 -0.125716 1.923337 0.105003 -0.031404 352738.000000 0 0 1
-31.457417 3.745414 -12.451015 34.038581 -0.118505 1.945279 0.106721 -0.031578 -126333.000000 0 0 1
-32.436157 2.751514 -12.302315 34.799742 -0.084626 1.932125 0.118808 -0.033127 -236175.000000 0 0 1
-33.280597 2.746514 -13.411015 35.986064 -0.082339 1.952684 0.126547 -0.027326 -33264.800000 0 0 1
-34.430639 1.707114 -13.205615 36.915734 -0.049541 1.936625 0.101929 -0.028309 374321.000000 0 0 1
-33.928327 0.359814 -13.150115 36.389372 -0.010605 1.940536 0.123424 -0.028554 -118850.000000 0 0 1
-34.922551 -0.562386 -12.805215 37.200462 0.016102 1.922206 0.097790 -0.025043 -64230.900000 0 0 1
-34.387104 -1.982786 -12.432615 36.619316 0.057597 1.917192 0.108892 -0.029759 48537.900000 0 0 1
-33.748627 -2.551686 -13.550815 36.456899 0.075465 1.951630 0.117773 -0.025295 3532.050000 0 0 1
-33.319917 -3.878286 -13.353415 36.105009 0.115874 1.949643 0.127390 -0.026431 229029.000000 0 0 1
-34.400660 -4.998886 -13.498515 37.290805 0.144304 1.941187 0.118158 -0.019862 132226.000000 0 0 1
-33.820947 -6.221286 -13.087715 36.794689 0.181914 1.934455 0.121426 -0.026372 176005.000000 0 0 1
-34.453188 -7.403586 -13.567515 37.761259 0.211669 1.938311 0.120468 -0.020144 -624782.000000 0 0 1
-34.005627 -8.677386 -12.798015 37.355975 0.249843 1.920475 0.111176 -0.029117 -333421.000000 0 0 1
-32.659917 -9.055786 -12.814815 36.233919 0.270480 1.932287 0.110693 -0.024010 -74234.700000 0 0 1
-32.214867 -9.553386 -14.048615 36.420165 0.288291 1.966803 0.105176 -0.016927 -198073.000000 0 0 1
-31.002897 -10.526386 -13.906415 35.572079 0.327316 1.972445 0.093799 -0.016097 -220263.000000 0 0 1
-31.336537 -11.868386 -13.538315 36.140325 0.362045 1.954766 0.089401 -0.016474 110147.000000 0 0 1
-30.316637 -12.848086 -13.407015 35.551650 0.400851 1.957474 0.100655 -0.017860 -350719.000000 0 0 1
-30.701717 -14.142286 -14.006715 36.589448 0.431663 1.963630 0.113325 -0.021879 -302082.000000 0 0 1
-30.783727 -13.966486 -15.455815 37.169649 0.425924 1.999639 0.111764 -0.028157 -44096.800000 0 0 1
-30.860657 -15.216686 -16.160115 38.014168 0.458094 2.009877 0.113687 -0.032222 57260.100000 0 0 1
-29.729057 -16.292886 -16.080015 37.521219 0.501342 2.013692 0.100621 -0.029026 267551.000000 0 0 1
-28.467077 -15.892986 -16.551215 36.563700 0.509188 2.040551 0.099018 -0.036268 -559893.000000 0 0 1
-27.476757 -16.865486 -16.553415 36.241307 0.550511 2.045141 0.095901 -0.037919 995277.000000 0 0 1
-26.055237 -16.235386 -16.900815 35.044267 0.557242 2.074041 0.102125 -0.043839 1158850.000000 0 0 1
-25.929607 -15.912886 -18.241415 35.472717 0.550429 2.110915 0.095426 -0.049321 -869692.000000 0 0 1
-24.624527 -15.599886 -18.569315 34.562165 0.564696 2.137997 0.086540 -0.040437 -1011850.000000 0 0 1
-24.494627 -15.389086 -20.055715 35.200034 0.560943 2.177015 0.089869 -0.038232 -46648.300000 0 0 1
-24.927027 -16.427686 -20.907215 36.446360 0.582698 2.181743 0.081564 -0.043035 792530.000000 0 0 1
-26.326767 -16.428686 -21.199815 37.582343 0.557901 2.170127 0.079577 -0.046607 238640.000000 0 0 1
-26.901667 -17.687386 -21.890915 38.932704 0.581618 2.167932 0.081188 -0.038992 -31076.500000 0 0 1
-26.487437 -17.748886 -23.238215 39.454048 0.590367 2.200610 0.073657 -0.023100 246971.000000 0 0 1
-27.052317 -18.942586 -23.805615 40.710646 0.610874 2.195370 0.064425 -0.023632 54736.300000 0 0 1
-26.451297 -19.241486 -25.218615 41.302354 0.628900 2.227596 0.061358 -0.024703 1240970.000000 0 0 1
-25.101247 -19.750886 -25.275585 40.731134 0.666670 2.240236 0.072490 -0.022267 975788.000000 0 0 1
-25.080687 -21.169686 -25.032315 41.277273 0.701037 2.222376 0.071916 -0.021025 712040.000000 0 0 1
-23.579627 -21.618986 -24.838215 40.500818 0.742047 2.230999 0.065698 -0.003663 854056.000000 0 0 1
-22.822227 -21.526586 -26.015705 40.756163 0.756192 2.263118 0.060626 -0.006266 1282670.000000 0 0 1
-21.413927 -21.664786 -25.627165 39.807924 0.791221 2.270212 0.052950 -0.010732 1972590.000000 0 0 1
-20.441127 -21.434186 -26.853175 39.979457 0.809108 2.307263 0.033910 -0.008212 -81952.800000 0 0 1
-20.409127 -22.386286 -27.929865 41.203830 0.831566 2.315626 0.049521 -0.009287 -95748.500000 0 0 1
-21.106627 -21.929486 -29.094705 42.105747 0.804516 2.333656 0.070213 -0.011374 -30286.500000 0 0 1
-20.354127 -22.283186 -30.378835 42.821776 0.830611 2.359478 0.066861 -0.017569 -7730.080000 0 0 1
-20.208827 -23.655886 -30.677805 43.693539 0.863821 2.349157 0.064527 -0.027948 176704.000000 0 0 1
-19.463627 -23.828886 -31.861345 44.292143 0.885890 2.373656 0.063081 -0.027409 -130917.000000 0 0 1
-19.123127 -25.254336 -32.315535 45.252285 0.922689 2.366162 0.065262 -0.020655 -162924.000000 0 0 1
-18.433727 -25.193336 -33.554875 45.830515 0.939117 2.392271 0.063222 -0.025545 -174429.000000 0 0 1
-19.224827 -24.877586 33.468536 45.919834 0.912877 0.754160 0.068513 -0.022722 -447904.000000 0 0 1
-18.556527 -24.830486 32.084036 44.612589 0.929007 0.768189 0.068074 -0.026482 -375157.000000 0 0 1
-17.841227 -23.614686 31.902886 43.517317 0.923776 0.747916 0.061894 -0.018901 -272647.000000 0 0 1
-17.458727 -23.433686 30.554026 42.278757 0.930486 0.763124 0.066505 -0.016042 230914.000000 0 0 1
-16.586827 -22.155986 30.264936 41.011911 0.928167 0.740762 0.069451 -0.012647 226328.000000 0 0 1
-17.244627 -20.926086 30.530516 40.833695 0.881548 0.726236 0.069229 -0.016465 131447.000000 0 0 1
-16.528527 -19.739386 30.162016 39.655803 0.873700 0.706567 0.068942 -0.019427 -79969.400000 0 0 1
-15.597427 -19.109286 31.206906 39.778329 0.886242 0.668874 0.075191 -0.019126 53977.100000 0 0 1
-14.980627 -17.897886 30.797476 38.642438 0.873895 0.648508 0.078461 -0.021504 29892.900000 0 0 1
-14.448827 -17.170386 31.870556 38.978495 0.871259 0.613488 0.077611 -0.020355 278348.000000 0 0 1
-13.792327 -15.762486 31.571976 37.887648 0.851961 0.585736 0.074360 -0.019529 419680.000000 0 0 1
-12.687227 -15.681586 30.682866 36.719424 0.890560 0.581567 0.079999 -0.020674 244164.000000 0 0 1
-12.296027 -14.352486 30.425316 35.817397 0.862415 0.555842 0.069596 -0.016956 641927.000000 0 0 1
-10.823627 -14.249086 29.891656 34.838175 0.921179 0.539405 0.087750 -0.016222 763451.000000 0 0 1
-10.382727 -12.906486 29.651576 33.964604 0.893343 0.509448 0.093453 -0.017739 269518.000000 0 0 1
-9.172127 -12.679886 30.372436 34.167122 0.944564 0.475776 0.081685 -0.022344 379720.000000 0 0 1
-8.892327 -11.181986 30.544106 33.720212 0.898967 0.437509 0.082379 -0.023664 -167974.000000 0 0 1
-9.689827 -10.592186 31.544726 34.657710 0.829859 0.427080 0.083761 -0.023643 26769.200000 0 0 1
-9.407427 -9.225986 31.728566 34.355791 0.775661 0.393614 0.063505 -0.020258 -223855.000000 0 0 1
-10.291027 -8.438386 32.726898 35.329328 0.686803 0.386224 0.060552 -0.021651 -1027910.000000 0 0 1
-11.558827 -8.186986 32.230846 35.205974 0.616267 0.414063 0.048373 -0.021802 -842438.000000 0 0 1
-12.444027 -7.645986 33.177737 36.250202 0.550962 0.414686 0.042022 -0.027152 -249316.000000 0 0 1
-12.251027 -6.130886 33.550835 36.239949 0.463998 0.387658 0.034474 -0.023954 -557265.000000 0 0 1
-12.371427 -5.160786 32.512142 35.167105 0.395206 0.391063 0.023904 -0.020343 250247.000000 0 0 1
-12.438227 -3.833786 32.983996 35.459151 0.298986 0.375847 0.025935 -0.021144 -588621.000000 0 0 1
-11.990827 -2.808186 31.961686 34.252229 0.230049 0.367782 0.020406 -0.013448 414700.000000 0 0 1
-10.566527 -2.702086 31.996116 33.803908 0.250356 0.328519 0.019962 -0.010496 543487.000000 0 0 1
-10.101827 -1.648786 31.197376 32.833544 0.161790 0.317023 0.010401 -0.005241 43684.000000 0 0 1
-8.600327 -1.305986 31.314906 32.500685 0.150702 0.270957 0.029886 -0.007320 25014.500000 0 0 1
-8.245227 -0.593086 32.440770 33.477441 0.071807 0.249509 0.035624 -0.022736 -2202.550000 0 0 1
-6.873427 -0.237786 32.460476 33.181064 0.034581 0.208787 0.056162 -0.020939 27301.100000 0 0 1
-6.465427 0.413614 33.830319 34.445076 -0.063886 0.189213 0.078017 -0.031599 -441206.000000 0 0 1
-6.897227 1.771914 34.064612 34.800994 -0.251464 0.206082 0.084571 -0.022828 179120.000000 0 0 1
-6.446427 2.764414 33.126471 33.860914 -0.405109 0.208657 0.086350 -0.023497 -704748.000000 0 0 1
-7.185027 4.028314 33.289956 34.293922 -0.510986 0.242567 0.073092 -0.019360 -337567.000000 0 0 1
-8.490627 3.962414 32.776375 34.089327 -0.436639 0.278442 0.043762 -0.005770 239021.000000 0 0 1
-9.379327 4.974114 33.264258 34.917394 -0.487614 0.308942 0.033559 0.009868 726263.000000 0 0 1
-10.644227 5.184214 32.368891 34.466226 -0.453230 0.350654 0.019031 0.010131 246672.000000 0 0 1
-11.467827 6.229914 32.855109 35.352242 -0.497647 0.378109 0.022353 0.007178 -564208.000000 0 0 1
-12.406627 6.467614 31.877196 34.812498 -0.480545 0.413593 -0.003324 0.009395 -724410.000000 0 0 1
-13.108327 7.817114 32.065336 35.512269 -0.537729 0.444242 0.006373 -0.000325 -155735.000000 0 0 1
-14.030427 7.885714 33.117811 36.821553 -0.512043 0.452370 0.007513 0.006807 -160985.000000 0 0 1
-14.626627 9.156114 33.217592 37.432353 -0.559311 0.479115 0.009959 0.006281 655578.000000 0 0 1
-15.594827 9.565214 -33.774805 38.411319 -0.550184 2.645172 0.010210 0.006605 1232040.000000 0 0 1
-14.837027 9.689514 -32.525515 37.039616 -0.578525 2.642731 0.019059 -0.003109 378006.000000 0 0 1
-15.615927 10.177614 -31.461855 36.568967 -0.577601 2.606739 0.026268 -0.010460 -1201820.000000 0 0 1
-14.839727 10.381414 -30.208655 35.221500 -0.610437 2.601530 0.039002 -0.019632 -58975.900000 0 0 1
-14.026427 11.552314 -30.147325 35.200253 -0.688973 2.599153 0.050603 -0.021476 -72971.700000 0 0 1
-12.729227 11.233814 -30.607775 35.000967 -0.723074 2.635167 0.047338 -0.028133 -267971.000000 0 0 1
-11.795227 12.473614 -30.830175 35.287648 -0.813344 2.633516 0.047433 -0.021025 101045.000000 0 0 1
-12.302727 13.325514 -31.801105 36.609243 -0.825286 2.623294 0.047397 -0.025567 -236429.000000 0 0 1
-11.597827 14.520314 -31.958935 36.969212 -0.896830 2.614900 0.042485 -0.028997 -317146.000000 0 0 1
-11.706127 15.588014 -30.842305 36.486537 -0.926675 2.577935 0.055871 -0.032344 -473203.000000 0 0 1
-13.006527 16.067314 -30.966365 37.232299 -0.890288 2.552972 0.060604 -0.028837 -352344.000000 0 0 1
-13.190727 17.188914 -30.156245 37.132912 -0.916254 2.518566 0.055956 -0.023508 -420377.000000 0 0 1
-14.663627 17.588114 -30.002225 37.742512 -0.875828 2.489670 0.050174 -0.031820 -1008720.000000 0 0 1
-15.089727 18.257114 -31.169985 39.148308 -0.880097 2.491789 0.054529 -0.028749 390445.000000 0 0 1
-16.488127 18.514014 -31.170315 39.827322 -0.843213 2.469686 0.054760 -0.029289 448014.000000 0 0 1
-16.910627 19.646914 -30.262385 39.846988 -0.860108 2.433286 0.029967 -0.018662 -844017.000000 0 0 1
-16.292727 20.841414 -30.794275 40.596858 -0.907284 2.431863 0.029172 -0.012124 292566.000000 0 0 1
-16.878527 22.070114 -30.433545 41.208922 -0.917910 2.401666 0.007762 -0.007809 588436.000000 0 0 1
-18.273927 22.377714 -31.098475 42.447775 -0.886007 2.392973 0.017531 -0.003665 795836.000000 0 0 1
-19.394527 21.925914 -30.340385 42.159606 -0.846584 2.374102 0.022280 -0.016190 -93474.900000 0 0 1
-20.399627 21.580514 -31.261405 43.117732 -0.813520 2.381866 0.051580 -0.015984 -922994.000000 0 0 1
-21.640827 21.075314 -30.485425 42.916843 -0.772160 2.360773 0.071665 -0.025586 -246010.000000 0 0 1
-22.408327 22.052614 -29.755325 43.287761 -0.777398 2.328678 0.102764 -0.025481 517064.000000 0 0 1
-23.067927 23.084214 -30.461985 44.642387 -0.785751 2.321777 0.107538 -0.013059 56176.600000 0 0 1
-24.381027 22.650414 -31.226525 45.635201 -0.748618 2.324390 0.114288 -0.029928 146997.000000 0 0 1
-24.263427 21.872814 -32.385485 45.999495 -0.733628 2.351867 0.101672 -0.023982 312105.000000 0 0 1
-25.540767 21.537514 -32.920255 46.903502 -0.700568 2.348819 0.121379 -0.024846 175441.000000 0 0 1
-25.536587 20.673114 33.963877 47.255051 -0.680536 0.768815 0.112834 -0.011922 -108141.000000 0 0 1
-25.085147 19.357614 -34.012105 46.484461 -0.657230 2.391591 0.109866 -0.018105 207512.000000 0 0 1
-25.028727 18.702814 32.915247 45.383322 -0.641741 0.759367 0.085915 -0.027357 -169905.000000 0 0 1
-24.807027 17.164114 32.869951 44.614225 -0.605273 0.742531 0.079263 -0.008250 51253.100000 0 0 1
-25.839707 16.352314 33.409347 45.290982 -0.564215 0.741198 0.083533 -0.007719 307664.000000 0 0 1
-25.750097 15.107114 32.672450 44.258122 -0.530569 0.740361 0.090573 -0.013785 -227586.000000 0 0 1
-26.663017 13.964514 33.254101 44.852640 -0.482459 0.735630 0.065934 -0.001056 1664960.000000 0 0 1
-28.068707 14.381414 33.297089 45.862550 -0.473490 0.758281 0.059485 0.003581 2021410.000000 0 0 1
-29.127837 13.436214 33.130254 46.114818 -0.432198 0.769254 0.060034 0.005100 684758.000000 0 0 1
-29.198907 12.179514 -34.090606 46.508990 -0.395179 2.393503 0.044554 0.000343 -574425.000000 0 0 1
-28.094107 11.300914 33.997602 45.528303 -0.382446 0.727656 0.058280 -0.009652 -276345.000000 0 0 1
-28.443677 9.942914 33.972972 45.409989 -0.336287 0.725544 0.064686 -0.005304 39742.400000 0 0 1
-27.194497 9.027314 -33.884715 44.375748 -0.320508 2.439646 0.063454 -0.008797 1169940.000000 0 0 1
-26.197487 8.841414 33.300994 43.283196 -0.325488 0.692935 0.078109 -0.006303 313005.000000 0 0 1
-25.401747 9.966514 33.024210 42.838984 -0.373899 0.690557 0.074987 -0.006584 -1006720.000000 0 0 1
-24.115927 9.586214 32.258712 41.401665 -0.378354 0.677464 0.073291 -0.002271 -254016.000000 0 0 1
-24.177127 9.174614 30.882916 40.279790 -0.362688 0.697096 0.062784 -0.000688 455004.000000 0 0 1
-22.893227 8.812614 30.378496 39.046319 -0.367460 0.679301 0.063551 -0.003704 648698.000000 0 0 1
-22.977827 8.704414 28.853296 37.898021 -0.362114 0.705418 0.073998 -0.005341 74462.400000 0 0 1
-23.318527 9.883314 28.141976 37.860327 -0.400887 0.732791 0.062188 -0.001275 219333.000000 0 0 1
-23.266827 9.758314 26.730946 36.757494 -0.397125 0.756527 0.055140 -0.012481 -765529.000000 0 0 1
-23.449027 11.119514 26.027796 36.755225 -0.442795 0.783938 0.054024 -0.011163 338874.000000 0 0 1
-24.752927 11.673714 26.155786 37.856414 -0.440678 0.808034 0.075487 -0.010907 -83524.200000 0 0 1
-25.668647 11.286314 25.195036 37.696819 -0.414249 0.838795 0.070811 -0.006552 -889886.000000 0 0 1
-27.058727 11.825714 25.522686 39.031137 -0.412023 0.858061 0.089182 -0.007976 -456683.000000 0 0 1
-27.175337 13.231314 25.342226 39.443567 -0.453102 0.873049 0.091271 -0.009496 368031.000000 0 0 1
-28.526527 13.648114 25.498926 40.623010 -0.446248 0.892206 0.104558 -0.017677 526646.000000 0 0 1
-28.638147 15.143314 25.225116 41.058128 -0.486407 0.909202 0.116417 -0.024050 -123345.000000 0 0 1
-28.208347 15.963514 26.322746 41.754419 -0.514980 0.888705 0.126136 -0.025310 278072.000000 0 0 1
-27.615147 17.190714 25.862916 41.557278 -0.556807 0.899063 0.118194 -0.010932 -570593.000000 0 0 1
-22.890727 -8.970986 31.731496 40.141646 0.373508 0.659191 0.056351 -0.015309 -252204.000000 0 0 1
-21.842927 -8.699786 30.825486 38.768677 0.379030 0.651602 0.052640 -0.023884 -19077.400000 0 0 1
-22.187527 -8.997486 29.464656 37.965867 0.385256 0.682366 0.045268 -0.016081 -263065.000000 0 0 1
-21.117627 -8.702786 28.403646 36.448041 0.390902 0.677262 0.060316 -0.020282 -779667.000000 0 0 1
-20.855727 -7.266286 28.279286 35.881447 0.335255 0.663030 0.062775 -0.018050 973178.000000 0 0 1
-19.710627 -6.824386 29.075566 35.783649 0.333311 0.622304 0.059184 -0.016213 859724.000000 0 0 1
-18.334327 -7.079186 28.388656 34.527933 0.368481 0.605542 0.054785 -0.010029 -351438.000000 0 0 1
-17.902627 -8.500186 28.355086 34.594336 0.443286 0.610005 0.051344 -0.019000 220720.000000 0 0 1
-17.664927 -9.189686 29.566026 35.646176 0.479694 0.592709 0.057086 -0.021841 337784.000000 0 0 1
-16.299527 -8.699786 30.246256 35.442867 0.490278 0.548360 0.051359 -0.020621 636761.000000 0 0 1
-15.225527 -9.347986 29.636256 34.605045 0.550627 0.542512 0.043639 -0.015046 -861678.000000 0 0 1
-13.952327 -8.958486 30.049406 34.320383 0.570786 0.504212 0.043247 -0.016606 586812.000000 0 0 1
-12.754927 -9.776586 29.427126 33.529472 0.653975 0.499860 0.054133 -0.016278 655855.000000 0 0 1
-12.593327 -9.613186 28.011326 32.181355 0.651994 0.514740 0.053861 -0.013089 -32334.900000 0 0 1
-11.508127 -10.442686 27.650006 31.717653 0.736899 0.512024 0.070637 -0.016610 26210.300000 0 0 1
-10.956327 -10.258986 26.224646 30.216220 0.752540 0.519838 0.057035 -0.015142 225340.000000 0 0 1
-11.842627 -10.746986 25.227316 29.869097 0.736934 0.564986 0.049652 -0.015691 395474.000000 0 0 1
-11.196227 -10.608286 23.966856 28.500902 0.758441 0.571823 0.051305 -0.019813 70762.200000 0 0 1
-12.089027 -11.000386 22.768986 28.028196 0.738284 0.622609 0.058712 -0.027810 -818243.000000 0 0 1
-12.321627 -12.339186 22.890286 28.775739 0.786110 0.651011 0.055051 -0.024962 588383.000000 0 0 1
-13.543927 -12.776986 22.306486 29.056301 0.756268 0.695554 0.054356 -0.021601 306595.000000 0 0 1
-14.863227 -12.417586 23.001886 30.069897 0.695990 0.699837 0.055472 -0.018966 -869990.000000 0 0 1
-15.959927 -13.241886 22.681686 30.733136 0.692588 0.740664 0.045870 -0.016745 208327.000000 0 0 1
-17.070227 -12.956486 23.523866 31.821933 0.649243 0.738864 0.048417 -0.011674 317745.000000 0 0 1
-18.364927 -13.647186 23.004486 32.445687 0.639078 0.782696 0.062762 -0.022291 -317042.000000 0 0 1
-18.210627 -15.045486 22.994386 32.965669 0.690509 0.798858 0.057795 -0.020223 -594007.000000 0 0 1
-19.406427 -15.736586 22.949786 33.925539 0.681349 0.827830 0.054373 -0.016582 -427850.000000 0 0 1
-20.225727 -15.734986 24.303996 35.317899 0.661162 0.811861 0.050362 -0.017480 137794.000000 0 0 1
-19.615027 -16.533786 25.326926 36.049529 0.700366 0.791809 0.055231 -0.014472 -165566.000000 0 0 1
-20.497027 -16.524386 26.373446 37.265830 0.678501 0.784543 0.047119 -0.021737 -717230.000000 0 0 1
-20.050827 -17.403686 27.552226 38.262894 0.714839 0.766883 0.051128 -0.017531 -198613.000000 0 0 1
-20.138727 -18.754686 27.285146 38.752880 0.749828 0.789669 0.052849 -0.010550 180552.000000 0 0 1
-19.916327 -19.488586 28.487836 39.849992 0.774544 0.774348 0.045131 -0.013367 -447900.000000 0 0 1
-19.954927 -21.029086 28.319016 40.526389 0.811601 0.797106 0.051698 -0.002456 -728943.000000 0 0 1
-21.220427 -21.550086 28.060186 41.256354 0.793106 0.822840 0.033065 0.003491 -563545.000000 0 0 1
-21.207027 -22.851686 27.571076 41.618526 0.822710 0.846683 0.036331 0.011521 524.888000 0 0 1
-22.613727 -23.367386 27.213136 42.402478 0.801787 0.873977 0.031399 0.010655 82355.900000 0 0 1
-23.404827 -23.788686 28.326566 43.773072 0.793532 0.866992 0.028027 0.009298 137435.000000 0 0 1
-24.591227 -24.403486 27.860416 44.457410 0.781566 0.893515 0.016670 0.011242 43893.900000 0 0 1
-25.145557 -25.364036 28.955656 45.978945 0.789724 0.889553 -0.003921 0.005373 -442377.000000 0 0 1
-25.732627 -24.657786 30.009256 46.591093 0.764071 0.870952 -0.002990 0.009527 -47887.800000 0 0 1
-26.503197 -25.572616 30.755836 47.982284 0.767530 0.875018 -0.006165 0.017010 -635262.000000 0 0 1
-27.727817 -24.947786 31.387566 48.748365 0.732671 0.871252 0.018022 0.001075 -947448.000000 0 0 1
-28.626607 -24.495986 30.430256 48.430738 0.707798 0.891398 0.024358 -0.002009 -381053.000000 0 0 1
-29.574947 -23.607786 30.991756 48.913127 0.673664 0.884588 0.037008 -0.016907 -149529.000000 0 0 1
-30.860877 -23.540586 30.145106 49.145501 0.651641 0.910457 0.048086 -0.020996 -325937.000000 0 0 1
-31.790457 -24.572186 30.321626 50.337128 0.658023 0.924328 0.049158 -0.019456 -318655.000000 0 0 1
-32.949787 -24.342486 29.578166 50.528338 0.636278 0.945450 0.054151 -0.018707 -496125.000000 0 0 1
-34.211802 -25.091476 29.994846 51.958833 0.632802 0.955401 0.059799 -0.027060 -299384.000000 0 0 1
-34.081515 -26.501556 30.133046 52.648671 0.660928 0.961437 0.066114 -0.027773 -473508.000000 0 0 1
-35.274597 -27.031736 30.613126 53.964575 0.653866 0.967595 0.070615 -0.024457 -309430.000000 0 0 1
-35.116417 -28.563276 30.825616 54.765336 0.682851 0.972946 0.074811 -0.024533 516418.000000 0 0 1
-34.110952 -28.797076 31.828436 54.825887 0.701128 0.951409 0.064497 -0.024978 153826.000000 0 0 1
-33.736617 -30.117726 31.895726 55.340528 0.728785 0.956536 0.065869 -0.029154 200351.000000 0 0 1
-32.677737 -30.311606 33.024339 55.472830 0.747852 0.933127 0.058828 -0.024565 62042.300000 0 0 1
-33.197017 -30.054926 -33.851405 56.136068 0.735763 2.218083 0.057940 -0.023750 -704436.000000 0 0 1
-32.367827 -30.377996 -32.783175 55.183652 0.753696 2.206910 0.050561 -0.021240 -282604.000000 0 0 1
-32.968237 -29.987186 -31.387095 54.509501 0.738082 2.184390 0.052780 -0.024394 -86402.500000 0 0 1
-32.963557 -28.594846 -31.049915 53.557059 0.714548 2.189223 0.036378 -0.020229 -144181.000000 0 0 1
-31.678667 -28.011866 -30.921095 52.386226 0.724045 2.202168 0.040151 -0.010997 40583.800000 0 0 1
-31.699917 -26.504586 -30.797265 51.534933 0.696374 2.211301 0.031848 -0.009331 -54211.600000 0 0 1
-32.376317 -26.160326 -29.615335 51.084798 0.679605 2.189192 0.025188 -0.014541 -218623.000000 0 0 1
-32.335837 -24.764586 -29.323635 50.187316 0.653572 2.194794 0.032925 -0.007110 578652.000000 0 0 1
-30.935067 -24.195186 -28.891125 48.755333 0.663748 2.205046 0.037362 -0.011583 487301.000000 0 0 1
-30.935127 -22.819186 -28.607435 47.917457 0.635548 2.210571 0.036849 -0.001391 957984.000000 0 0 1
-29.621747 -22.404586 -28.163225 46.610949 0.647557 2.219582 0.043207 -0.006365 728696.000000 0 0 1
-29.350727 -20.877186 -28.282325 45.795327 0.618270 2.236460 0.048512 -0.011953 -110201.000000 0 0 1
-29.286257 -20.480686 -29.640855 46.429771 0.610275 2.263217 0.061847 -0.005370 340529.000000 0 0 1
-28.983297 -19.100686 -29.679235 45.669735 0.582693 2.278205 0.044884 -0.009733 -426096.000000 0 0 1
-28.600437 -18.602186 -31.113445 46.174374 0.576668 2.310170 0.061177 -0.003806 -60520.500000 0 0 1
-29.573077 -18.444286 -32.107695 47.388423 0.557653 2.315213 0.057839 -0.012440 599710.000000 0 0 1
-30.594667 -17.439786 -31.815555 47.459555 0.518089 2.305506 0.038937 -0.006557 522421.000000 0 0 1
-31.387287 -16.873686 -33.020235 48.582085 0.493270 2.318122 0.036543 -0.009541 245472.000000 0 0 1
-32.146957 -17.955886 -33.575965 49.831577 0.509389 2.310121 0.054916 -0.014239 157877.000000 0 0 1
-33.470617 -17.531186 -33.834185 50.718604 0.482489 2.301100 0.058972 -0.014939 262740.000000 0 0 1
-34.236956 -18.339186 33.256956 51.132377 0.491763 0.862674 0.052932 -0.021220 -333270.000000 0 0 1
-34.606618 -19.627686 33.715110 52.149522 0.515927 0.867797 0.040680 -0.021771 90234.100000 0 0 1
-35.263021 -20.288986 32.678616 52.182521 0.522106 0.894079 0.047761 -0.025634 -549168.000000 0 0 1
-35.629068 -21.748386 32.996953 53.209225 0.548040 0.901880 0.034793 -0.023697 -285359.000000 0 0 1
-34.522256 -22.600086 33.075438 52.882272 0.579639 0.895083 0.057803 -0.027550 -419502.000000 0 0 1
-34.880476 -23.899286 33.492786 53.940617 0.600708 0.900881 0.057699 -0.031984 387633.000000 0 0 1
-33.609297 -24.844086 33.677002 53.674518 0.636555 0.892548 0.060568 -0.029547 1471070.000000 0 0 1
-32.652337 -24.414586 -33.491145 52.762713 0.642036 2.258482 0.040043 -0.027801 1214450.000000 0 0 1
-31.868807 -23.237586 -33.851705 51.976381 0.630032 2.280080 0.054593 -0.031250 208906.000000 0 0 1
-30.446007 -23.046486 -33.227085 50.617576 0.647942 2.286878 0.054819 -0.024610 836481.000000 0 0 1
-29.466647 -24.035586 -33.528795 50.696871 0.684234 2.293424 0.051290 -0.022426 437364.000000 0 0 1
-28.193917 -23.828886 -32.938765 49.473983 0.701688 2.299334 0.055780 -0.017449 423502.000000 0 0 1
-27.898327 -24.232386 -31.462715 48.532748 0.715192 2.276117 0.053129 -0.005487 -550111.000000 0 0 1
-27.926387 -25.622976 -31.291875 49.148768 0.742410 2.260977 0.050893 -0.009562 -12363.700000 0 0 1
-27.647977 -25.971306 -29.957155 48.335810 0.754138 2.239248 0.049195 -0.011572 -188572.000000 0 0 1
-27.258057 -27.480146 -29.721575 48.800944 0.789455 2.225642 0.048388 -0.015639 186095.000000 0 0 1
-28.281477 -28.450926 -29.953665 50.065149 0.788385 2.212166 0.037101 -0.005754 235118.000000 0 0 1
-28.208937 -29.616426 -29.131925 50.214996 0.809734 2.189702 0.045976 -0.007841 91935.100000 0 0 1
-29.080077 -30.754116 -29.731075 51.724301 0.813369 2.183155 0.047558 0.006068 -46867.900000 0 0 1
-28.750907 -31.050806 -31.070235 52.498826 0.823838 2.204120 0.053968 -0.012923 135665.000000 0 0 1
-29.199687 -32.308076 -31.460835 53.723530 0.835892 2.196424 0.082398 -0.003637 -372233.000000 0 0 1
-28.604197 -32.664776 -32.799985 54.415317 0.851576 2.217766 0.048496 -0.020622 727791.000000 0 0 1
-27.176537 -32.749986 -32.918945 53.803185 0.878136 2.229181 0.055860 -0.023509 678209.000000 0 0 1
-26.771347 -33.244566 34.019188 54.582152 0.892841 0.897884 0.061262 -0.027195 -163845.000000 0 0 1
-25.266397 -33.540506 33.920004 53.980765 0.925180 0.891338 0.071052 -0.031856 -33036.900000 0 0 1
-24.932527 34.022084 32.717621 53.381418 -0.938373 0.911067 0.057600 -0.017766 -175409.000000 0 0 1
-23.911027 33.071152 32.953776 52.453690 -0.944789 0.891501 0.058861 -0.012323 -232684.000000 0 0 1
-23.601927 32.195980 31.715166 50.985133 -0.938218 0.899442 0.063361 -0.019172 170158.000000 0 0 1
-24.672027 31.287667 31.396506 50.728370 -0.903073 0.903437 0.072909 -0.038447 514071.000000 0 0 1
-24.399627 30.429637 30.310636 49.396753 -0.894936 0.910164 0.071794 -0.023902 -494821.000000 0 0 1
-25.692757 29.768417 29.839196 49.362475 -0.858753 0.921669 0.067263 -0.024976 -384268.000000 0 0 1
-26.067467 28.594087 30.591176 49.324990 -0.831588 0.901803 0.065011 -0.027899 182450.000000 0 0 1
-27.393837 28.251257 30.254186 49.637401 -0.800806 0.915362 0.064813 -0.032028 153792.000000 0 0 1
-28.013757 27.116687 31.102276 49.874210 -0.769128 0.897439 0.057375 -0.049229 67129.500000 0 0 1
-27.357107 25.896567 30.807366 48.663510 -0.757979 0.885285 0.068778 -0.040930 10240.200000 0 0 1
-28.094927 24.781557 31.278656 48.803737 -0.722818 0.875117 0.078468 -0.035423 613355.000000 0 0 1
-29.208617 24.328437 30.279006 48.598707 -0.694494 0.898171 0.072722 -0.036546 370633.000000 0 0 1
-28.660297 23.939147 29.035946 47.303081 -0.695881 0.909896 0.076004 -0.034655 135699.000000 0 0 1
-29.672397 23.509347 28.101276 47.146815 -0.670026 0.932239 0.077126 -0.028056 636235.000000 0 0 1
-29.131017 23.203817 26.694846 45.821916 -0.672623 0.948899 0.087469 -0.036594 311108.000000 0 0 1
-28.156967 22.161307 26.649766 44.655888 -0.666803 0.931313 0.086272 -0.032302 263080.000000 0 0 1
-27.492977 22.061607 25.399816 43.448002 -0.676230 0.946406 0.082201 -0.027132 272097.000000 0 0 1
-26.041757 21.535207 25.609296 42.400168 -0.690959 0.922298 0.085509 -0.029653 133414.000000 0 0 1
-25.956137 20.253707 26.084006 42.003679 -0.662616 0.900787 0.109190 -0.032764 388025.000000 0 0 1
-24.639427 19.900907 26.480316 41.283829 -0.679410 0.874447 0.079897 -0.016359 181134.000000 0 0 1
-24.733327 18.992607 27.760556 41.750509 -0.654856 0.843416 0.100910 -0.019654 -23944.200000 0 0 1
-23.548827 18.250307 28.045236 40.916454 -0.659309 0.815607 0.069525 -0.008202 315478.000000 0 0 1
-23.719827 17.152207 28.932196 41.157020 -0.626073 0.791230 0.076683 -0.010532 217178.000000 0 0 1
-22.469427 16.216407 29.050316 40.146828 -0.625148 0.761790 0.056759 -0.013251 556410.000000 0 0 1
-21.446627 16.725807 29.895796 40.416197 -0.662352 0.738174 0.063637 -0.005437 285806.000000 0 0 1
-20.324427 15.854607 29.890196 39.469921 -0.662474 0.711642 0.048545 -0.003377 -126450.000000 0 0 1
-19.156627 16.388707 30.708706 39.731482 -0.707685 0.687388 0.045176 -0.010848 -786307.000000 0 0 1
-19.367327 16.218807 32.046326 40.805760 -0.697152 0.667554 0.042158 -0.009928 195546.000000 0 0 1
-18.262627 16.613007 32.824723 41.072837 -0.738133 0.644861 0.052568 -0.018140 -803499.000000 0 0 1
-18.560227 16.471107 -33.810245 41.939385 -0.725833 2.508445 0.049175 -0.026857 131357.000000 0 0 1
-19.564927 17.231407 -33.153505 42.176565 -0.722066 2.475213 0.056438 -0.025960 373562.000000 0 0 1
-20.855927 16.804707 -33.574425 42.948922 -0.678238 2.468230 0.062487 -0.018593 -372047.000000 0 0 1
-21.976827 17.494607 -32.743095 43.141076 -0.672326 2.432537 0.074946 -0.028649 -6364.680000 0 0 1
-22.180227 16.870907 -31.489995 42.050086 -0.650269 2.417150 0.079200 -0.036676 207742.000000 0 0 1
-22.944627 17.637407 -30.575565 42.099872 -0.655359 2.383666 0.075075 -0.033366 -460777.000000 0 0 1
-22.925627 17.152307 -29.080515 40.810077 -0.642330 2.363968 0.070284 -0.030048 -29542.100000 0 0 1
-23.554627 15.968407 -28.681635 40.403547 -0.595760 2.360123 0.066781 -0.032150 1342080.000000 0 0 1
-24.998527 15.941507 -28.914725 41.413999 -0.567678 2.343659 0.074212 -0.030574 1668720.000000 0 0 1
-25.820817 14.969007 -27.990365 40.917555 -0.525379 2.324121 0.070020 -0.021870 180424.000000 0 0 1
-25.624607 13.589707 -28.280995 40.510681 -0.487623 2.343554 0.055040 -0.020659 595686.000000 0 0 1
-26.505087 12.827307 -27.428515 40.241556 -0.450731 2.320739 0.023475 -0.017118 387647.000000 0 0 1
-26.162307 11.349907 -27.480445 39.603807 -0.409323 2.337665 0.045676 -0.018043 335590.000000 0 0 1
-24.900627 11.031907 -26.912725 38.288888 -0.417049 2.350243 0.041768 -0.017389 137018.000000 0 0 1
-24.411527 9.832307 -27.389105 37.983680 -0.382895 2.376150 0.034944 -0.007784 -303771.000000 0 0 1
-23.296627 9.257607 -26.505895 36.482853 -0.378245 2.384055 0.068652 -0.007145 -174580.000000 0 0 1
-23.716627 8.615707 -25.285085 35.721763 -0.348454 2.357224 0.041228 -0.003103 163595.000000 0 0 1
-22.639827 7.926907 -24.616915 34.371356 -0.336792 2.369145 0.082572 0.002897 244955.000000 0 0 1
-22.930827 6.942107 -23.503615 33.562413 -0.293970 2.346608 0.066817 0.008997 -122678.000000 0 0 1
-23.511627 5.761307 -24.055315 34.126931 -0.240306 2.353047 0.064979 -0.008157 232664.000000 0 0 1
-23.704927 4.904507 -22.945515 33.353776 -0.204020 2.329448 0.059279 -0.004301 -116428.000000 0 0 1
35.609245 24.292914 -10.444915 44.353808 0.598685 1.808520 0.014470 -0.004278 92073.800000 0 0 1
36.382295 23.894614 -9.352215 44.520646 0.581116 1.782437 0.029424 -0.012544 -571778.000000 0 0 1
-35.678530 23.173414 -9.647415 43.623815 -0.576028 1.793790 0.044996 -0.015560 -385140.000000 0 0 1
-34.948126 22.688514 -8.413615 42.507989 -0.575816 1.770042 0.045937 -0.009747 118900.000000 0 0 1
-35.653760 21.642214 -7.752415 42.422588 -0.545558 1.754572 0.045641 -0.019897 719784.000000 0 0 1
-34.749032 21.036314 -6.833815 41.191295 -0.544365 1.737471 0.070534 -0.012903 173201.000000 0 0 1
-35.556686 20.392214 -5.723315 41.386914 -0.520716 1.709529 0.069052 -0.006877 -269222.000000 0 0 1
-36.282397 19.278914 -6.097815 41.536396 -0.488418 1.718135 0.050567 -0.001436 139097.000000 0 0 1
36.518665 18.409414 -5.033815 41.205081 0.466930 1.693267 0.054142 -0.007657 -138938.000000 0 0 1
35.914245 17.086614 -5.523715 40.153416 0.444069 1.708799 0.053522 0.003255 88626.900000 0 0 1
34.722655 17.314514 -6.251715 39.300625 0.462568 1.730549 0.061240 -0.006844 31903.800000 0 0 1
34.327005 16.212814 -7.037515 38.609911 0.441247 1.754093 0.075513 -0.008585 67271.000000 0 0 1
33.389945 16.606214 -8.186715 38.179538 0.461519 1.786901 0.049335 -0.014860 -59173.400000 0 0 1
33.024945 15.522214 -8.998615 37.584055 0.439373 1.812571 0.053408 -0.015046 157499.000000 0 0 1
32.241665 16.069914 -10.055915 37.401718 0.462383 1.843008 0.057022 -0.010511 -455658.000000 0 0 1
31.766965 14.938914 -11.018915 36.793039 0.439578 1.874948 0.059109 -0.012087 1405050.000000 0 0 1
30.512115 14.239214 -10.705115 35.331910 0.436633 1.878622 0.062770 -0.003079 1685090.000000 0 0 1
30.531355 13.639514 -9.407815 34.737688 0.420138 1.845046 0.052515 -0.006246 -777002.000000 0 0 1
29.320455 12.739214 -9.075315 33.231582 0.409875 1.847403 0.053040 0.006122 -143512.000000 0 0 1
29.451815 11.526214 -9.776515 33.103524 0.373035 1.870599 0.058362 0.002635 161738.000000 0 0 1
28.514915 10.528414 -9.501115 31.846806 0.353698 1.873747 0.062477 -0.003717 -939832.000000 0 0 1
28.960105 9.161714 -9.972715 31.969982 0.306394 1.888031 0.084703 -0.004428 218555.000000 0 0 1
30.072735 8.703514 -9.184215 32.626222 0.281718 1.856151 0.083236 -0.006165 801568.000000 0 0 1
30.091045 7.272314 -9.209415 32.298156 0.237130 1.859946 0.084025 -0.010674 -422336.000000 0 0 1
31.241805 6.859914 -8.294115 33.043928 0.216145 1.824512 0.098584 -0.015325 -81705.900000 0 0 1
32.505625 7.063014 -8.885415 34.430400 0.213960 1.831819 0.088488 -0.014832 -14046.700000 0 0 1
33.559565 6.745314 -8.006615 35.154652 0.198352 1.800567 0.095045 -0.017802 285482.000000 0 0 1
35.017885 6.969514 -8.463815 36.694176 0.196460 1.803550 0.097932 -0.012770 308172.000000 0 0 1
35.439935 6.028614 -9.457915 37.172374 0.168495 1.828059 0.095671 -0.017694 1487470.000000 0 0 1
-36.329047 6.053414 -9.644915 38.071878 -0.165110 1.826922 0.092081 -0.017177 817047.000000 0 0 1
-35.765173 5.140914 -10.819115 37.717766 -0.142763 1.861727 0.082662 -0.014254 682460.000000 0 0 1
-34.368092 5.235414 -11.117315 36.498904 -0.151171 1.880308 0.096048 -0.012608 957051.000000 0 0 1
-34.023737 6.428114 -11.839315 36.593780 -0.186729 1.900258 0.077274 -0.009492 -385088.000000 0 0 1
-33.224067 7.450914 -10.956815 35.768793 -0.220612 1.882125 0.069673 -0.004675 -224853.000000 0 0 1
-33.989067 8.193714 -9.986715 36.361079 -0.236556 1.849026 0.073117 -0.011194 495118.000000 0 0 1
-34.508226 9.403814 -10.550015 37.290108 -0.266049 1.857631 0.065666 -0.005688 -93895.400000 0 0 1
-35.380062 10.281814 -9.693815 38.097697 -0.282820 1.828071 0.074477 -0.009297 306950.000000 0 0 1
-34.615590 11.183514 -8.894615 37.448955 -0.312492 1.810601 0.068941 -0.011976 828506.000000 0 0 1
-35.552290 12.050614 -8.239715 38.432740 -0.326801 1.786867 0.075857 -0.010605 213502.000000 0 0 1
-34.844706 12.930614 -7.209715 37.859402 -0.355341 1.762400 0.087066 -0.004866 108459.000000 0 0 1
-34.215387 14.039214 -7.849015 37.807397 -0.389370 1.779923 0.075922 -0.010741 201786.000000 0 0 1
-33.477687 14.857314 -6.917815 37.274005 -0.417684 1.757472 0.087252 -0.010521 79072.300000 0 0 1
-32.533757 15.789314 -7.702215 36.973935 -0.451836 1.780648 0.059261 -0.008286 -15560.200000 0 0 1
-33.201637 16.757514 -8.483915 38.146294 -0.467416 1.795077 0.050031 -0.007128 -35602.300000 0 0 1
-32.256177 17.728414 -8.879015 37.862838 -0.502546 1.807505 0.046881 -0.004999 128177.000000 0 0 1
-32.777557 18.815914 -9.792715 39.042338 -0.521119 1.824327 0.029894 -0.009262 25789.000000 0 0 1
-32.531677 18.350014 -11.094915 38.963190 -0.513578 1.859546 0.018958 -0.012584 -431118.000000 0 0 1
-33.459787 18.866014 -11.994615 40.241205 -0.513408 1.873464 0.020976 -0.013616 -700411.000000 0 0 1
-33.055757 18.849214 -13.484315 40.370815 -0.518238 1.911353 0.003520 -0.005839 -823198.000000 0 0 1
-32.117567 19.827414 -13.735715 40.166333 -0.553071 1.919810 -0.000430 -0.007068 -414027.000000 0 0 1
-32.058807 20.199414 -15.086115 40.784486 -0.562240 1.949696 -0.002292 -0.004076 -175478.000000 0 0 1
-31.219457 21.472114 -15.480115 40.930919 -0.602477 1.958649 0.014740 -0.019312 -309774.000000 0 0 1
-29.884637 21.374014 -15.048815 39.703990 -0.620866 1.959539 0.003105 -0.014628 302267.000000 0 0 1
-29.058167 22.522214 -15.278915 39.812968 -0.659356 1.964669 0.027164 -0.019358 344983.000000 0 0 1
-28.710897 22.935714 -16.709515 40.367939 -0.674040 1.997564 0.007791 -0.017345 246577.000000 0 0 1
-29.779627 23.723014 -17.315415 41.826202 -0.672676 1.997624 0.017692 -0.013332 1012510.000000 0 0 1
-29.250477 24.569714 -18.308215 42.360972 -0.698646 2.017722 0.002744 -0.012898 614319.000000 0 0 1
-28.346167 25.801814 -17.847815 42.282186 -0.738444 2.006570 0.018526 -0.010443 886071.000000 0 0 1
-29.081927 26.908014 -17.349615 43.252848 -0.746591 1.983536 0.032287 -0.008172 110648.000000 0 0 1
-28.272587 28.039814 -17.454815 43.476901 -0.781265 1.983921 0.033810 -0.006949 -56035.700000 0 0 1
-28.973497 29.369114 -17.052415 44.640713 -0.792179 1.962748 0.028970 -0.006930 -53556.800000 0 0 1
-29.400537 29.320714 -15.669215 44.380403 -0.784039 1.931643 0.022224 -0.011041 703257.000000 0 0 1
-28.336847 29.363014 -14.701015 43.373763 -0.803181 1.916584 0.023915 -0.005478 298809.000000 0 0 1
-28.719857 30.276514 -13.543815 43.874052 -0.811778 1.884620 0.017114 0.000297 68838.800000 0 0 1
-28.098567 31.558014 -13.492215 44.356257 -0.843323 1.879872 0.023817 0.003191 -45415.600000 0 0 1
-28.755217 32.338714 -12.573715 45.063879 -0.843987 1.853570 0.011665 -0.000900 -83724.200000 0 0 1
-28.141837 33.764614 -12.543215 45.709347 -0.875977 1.848775 0.004574 -0.003752 129928.000000 0 0 1
-28.401197 -33.567679 -13.607315 46.027992 0.868578 1.870913 -0.003568 -0.020743 -173326.000000 0 0 1
-27.529967 -32.430379 -13.602115 44.661461 0.866944 1.880273 0.025939 -0.022845 60181.800000 0 0 1
-27.648027 -31.640079 -14.900415 44.581726 0.852630 1.911581 0.009462 -0.017798 -34160.400000 0 0 1
-27.233037 -32.364979 -16.042215 45.238068 0.871296 1.933301 0.009784 -0.028126 -72568.400000 0 0 1
-27.529767 -31.685979 -17.238215 45.376705 0.855471 1.960475 0.017238 -0.010676 -208545.000000 0 0 1
-26.813207 -32.218379 -18.493615 45.814690 0.876708 1.986311 0.003181 0.000276 -182737.000000 0 0 1
-27.124907 -33.579579 -18.839715 47.098657 0.891330 1.982319 0.000594 0.002770 136297.000000 0 0 1
-26.337007 33.684714 -18.142215 46.448228 -0.907210 1.972069 0.004028 -0.016056 -455236.000000 0 0 1
-26.303377 32.297414 -18.863515 45.725516 -0.887330 1.996035 0.019086 -0.024616 723703.000000 0 0 1
-27.551387 31.581414 -18.993315 46.013157 -0.853445 1.996301 0.030567 -0.023341 453851.000000 0 0 1
-28.275647 31.912114 -20.134715 47.151903 -0.845744 2.011989 0.039383 -0.006961 -235192.000000 0 0 1
-29.786307 31.605014 -20.123615 47.865028 -0.815014 2.004709 0.037517 -0.012664 55371.800000 0 0 1
-30.162747 30.245114 -20.015315 47.171719 -0.786762 2.008993 0.031935 -0.006907 462704.000000 0 0 1
-31.485057 30.085914 -20.520115 48.140899 -0.762678 2.011141 0.036610 -0.010274 208103.000000 0 0 1
-31.987217 28.659014 -20.497715 47.588627 -0.730574 2.016095 0.039785 -0.006810 339529.000000 0 0 1
-33.342137 28.426214 -20.892115 48.540995 -0.705979 2.015734 0.038590 -0.015058 667052.000000 0 0 1
-33.460267 27.118414 -21.468915 48.123925 -0.681090 2.033219 0.031609 -0.000441 982721.000000 0 0 1
-34.884343 26.552414 -21.907315 49.008964 -0.650603 2.034212 0.028599 0.006215 1126990.000000 0 0 1
-35.530124 27.271614 -22.927015 50.316783 -0.654647 2.043902 0.018359 0.006753 211152.000000 0 0 1
-36.597887 26.509814 -23.497215 50.934219 -0.626884 2.050284 0.017100 0.007970 651176.000000 0 0 1
35.767015 27.086414 -24.648915 51.191037 0.648158 2.073171 0.032455 -0.001058 310153.000000 0 0 1
36.490565 27.178614 -25.865525 52.337977 0.640173 2.087713 0.036416 -0.003022 -360924.000000 0 0 1
35.639035 27.665414 -26.875305 52.514741 0.660101 2.108036 0.077811 -0.010220 194327.000000 0 0 1
36.310725 27.888514 -28.256645 53.802193 0.654954 2.123741 0.078581 -0.008737 256525.000000 0 0 1
36.532995 26.717814 -29.028085 53.769239 0.631447 2.141072 0.044724 0.005489 232230.000000 0 0 1
-35.938102 27.064014 -30.246665 54.211334 -0.645465 2.162698 0.014561 0.010323 -185636.000000 0 0 1
-35.687691 25.784114 -31.151735 53.933871 -0.625663 2.186571 -0.000537 0.009042 312613.000000 0 0 1
-34.873889 24.813414 -30.535275 52.576579 -0.618415 2.190479 -0.007532 0.011863 803659.000000 0 0 1
-33.486667 25.113014 -30.268835 51.654842 -0.643463 2.196888 -0.026613 0.019059 682878.000000 0 0 1
-33.000337 24.076914 -29.242985 50.238155 -0.630314 2.192090 -0.040812 0.024362 -251622.000000 0 0 1
-32.735327 22.816014 -29.832945 49.821449 -0.608699 2.212795 -0.017327 0.007031 -27989.900000 0 0 1
-32.669677 21.888814 -28.750155 48.713441 -0.590310 2.202090 -0.009592 0.014858 -76486.600000 0 0 1
-32.228277 20.488514 -29.107485 48.017567 -0.566279 2.222050 0.001235 0.004887 -1117810.000000 0 0 1
-30.887267 20.245714 -29.276515 47.127768 -0.580212 2.241090 0.055074 -0.005448 -1178480.000000 0 0 1
-30.700877 18.895914 -29.733925 46.730137 -0.551727 2.260476 0.045031 -0.010881 -506790.000000 0 0 1
-29.261807 18.426214 -29.938945 45.739689 -0.561973 2.284384 0.073791 -0.024480 -800542.000000 0 0 1
-28.564247 18.998014 -31.009825 46.243378 -0.586916 2.305785 0.086519 -0.020573 133859.000000 0 0 1
-27.266367 18.461414 -31.212925 45.370974 -0.595175 2.329456 0.093994 -0.030004 -27612.400000 0 0 1
-27.217187 17.113714 -31.939035 45.318390 -0.561315 2.352895 0.087396 -0.028356 -429943.000000 0 0 1
-27.627157 16.041914 -31.077105 44.568927 -0.526076 2.342395 0.055251 -0.019006 202775.000000 0 0 1
-27.814807 14.794714 -31.676545 44.676062 -0.488841 2.358914 0.036813 -0.011227 -90605.100000 0 0 1
-28.482757 13.635114 -30.863085 44.155564 -0.446475 2.344742 0.036182 -0.008883 -884526.000000 0 0 1
-29.819617 13.814114 -30.547815 44.868790 -0.433823 2.319685 0.023254 -0.008754 -812080.000000 0 0 1
-30.510077 12.598614 -30.347905 44.839550 -0.391605 2.314218 0.019130 -0.003109 -60380.400000 0 0 1
-30.158647 11.774114 -29.071605 43.512435 -0.372208 2.302478 0.010429 -0.024496 -458428.000000 0 0 1
-30.621627 12.393714 -27.877555 43.225528 -0.384584 2.271732 0.002930 -0.018600 324535.000000 0 0 1
-30.455987 11.494814 -26.827095 42.182827 -0.360894 2.260064 -0.000210 -0.011278 -116636.000000 0 0 1
-30.326147 12.116414 -25.451215 41.403466 -0.380107 2.232817 -0.003181 -0.017487 868435.000000 0 0 1
-28.968017 12.535914 -25.198375 40.388776 -0.408417 2.244514 0.010432 -0.019674 789350.000000 0 0 1
-28.776567 13.291014 -24.039415 39.782350 -0.432681 2.219650 0.009370 -0.006355 485056.000000 0 0 1
-27.256477 13.434214 -23.695015 38.533717 -0.457937 2.233076 0.030751 -0.002749 18786.200000 0 0 1
-26.631577 14.435714 -24.500815 38.960501 -0.496721 2.250886 0.041201 -0.009969 1124.670000 0 0 1
-25.253137 14.608614 -24.269415 37.949137 -0.524451 2.264676 0.054390 -0.013231 59539.400000 0 0 1
-24.844627 15.144414 -22.845915 36.993845 -0.547423 2.236433 0.050566 -0.007232 -1528090.000000 0 0 1
-25.013227 16.517314 -22.646415 37.567849 -0.583612 2.217819 0.065284 -0.008122 175904.000000 0 0 1
-25.278547 16.901414 -21.306715 37.130026 -0.589345 2.181984 0.058409 -0.000297 107230.000000 0 0 1
-26.799647 16.848014 -21.002115 37.989018 -0.561231 2.156573 0.049009 -0.003738 46292.200000 0 0 1
-27.451237 15.588314 -20.995715 37.912874 -0.516448 2.157704 0.048140 0.000031 393364.000000 0 0 1
-28.651467 15.713614 -20.235415 38.435612 -0.501645 2.125246 0.043314 0.005938 -606972.000000 0 0 1
-29.665877 14.568314 -20.438415 38.859089 -0.456486 2.124642 0.028130 0.000793 43335.300000 0 0 1
-30.368477 14.565114 -21.677415 40.053680 -0.447205 2.142671 0.012051 0.002620 690648.000000 0 0 1
-31.314287 15.636514 -21.842315 41.257386 -0.463120 2.128708 0.007620 0.006316 -351632.000000 0 0 1
-31.947277 15.765414 -23.228815 42.529456 -0.458420 2.148596 -0.004819 0.007457 -334945.000000 0 0 1
-32.943867 14.838614 -23.558715 43.133466 -0.423204 2.148596 0.006761 0.001714 -115929.000000 0 0 1
-33.300057 14.969614 -24.905715 44.195902 -0.422469 2.169449 0.006872 0.004451 1054650.000000 0 0 1
-34.654892 14.160114 -25.174705 45.113591 -0.387901 2.162805 0.006001 -0.001002 961017.000000 0 0 1
-34.548048 12.769314 -25.442375 44.765360 -0.354037 2.175295 0.009807 -0.001196 -20645.900000 0 0 1
-34.381934 11.948914 -24.340515 43.787608 -0.334477 2.160214 0.002350 -0.002771 -252681.000000 0 0 1
-34.318322 10.477914 -24.687315 43.554534 -0.296326 2.173430 0.016237 -0.007807 403414.000000 0 0 1
-35.535798 9.851014 -25.094745 44.604727 -0.270423 2.168327 0.027652 -0.003498 521564.000000 0 0 1
-35.216794 8.714814 -25.854655 44.549228 -0.242588 2.189969 0.029484 -0.004684 -289286.000000 0 0 1
-36.514647 8.247214 -26.505155 45.867845 -0.222133 2.186899 0.052577 -0.005895 -295715.000000 0 0 1
35.806805 7.726914 -25.555555 44.664515 0.212535 2.179942 0.056697 -0.004968 101714.000000 0 0 1
34.667855 7.106214 -26.153775 44.004300 0.202179 2.207248 0.064819 -0.005595 521768.000000 0 0 1
33.759735 6.216314 -25.228755 42.601084 0.182094 2.204594 0.072317 -0.019012 339278.000000 0 0 1
34.486665 5.219414 -24.583815 42.672431 0.150206 2.184752 0.072468 -0.025035 -234416.000000 0 0 1
33.606415 4.277214 -24.053715 41.548368 0.126593 2.188216 0.081451 -0.029987 214202.000000 0 0 1
34.329445 3.242714 -23.144615 41.529498 0.094179 2.161933 0.077889 -0.022051 348008.000000 0 0 1
35.047315 2.216714 -23.801015 42.423065 0.063165 2.166437 0.081667 -0.021151 600504.000000 0 0 1
36.040935 1.584614 -22.966915 42.766099 0.043939 2.137715 0.094453 -0.017275 462568.000000 0 0 1
-36.524027 0.426514 -23.741015 43.564002 -0.011677 2.147148 0.108664 -0.017152 -134347.000000 0 0 1
35.991375 -0.800286 -23.775715 43.142835 -0.022232 2.154470 0.080526 -0.025184 239226.000000 0 0 1
-36.405427 -1.835786 -24.357815 43.840944 0.050383 2.159875 0.086299 -0.022916 379577.000000 0 0 1
-23.042227 29.216414 27.276636 46.136297 -0.903000 0.938227 0.035432 -0.022202 -584668.000000 0 0 1
-24.418627 29.391814 27.011676 46.795071 -0.877557 0.955460 0.019096 -0.020743 337747.000000 0 0 1
-24.652727 29.036914 25.685396 45.941690 -0.866875 0.977512 0.011849 -0.016498 -304368.000000 0 0 1
-24.945227 27.490114 25.324086 44.936400 -0.833894 0.972115 0.025914 -0.023173 74622.700000 0 0 1
-26.149047 26.884214 25.802106 45.522327 -0.799260 0.968179 0.039369 -0.030864 369084.000000 0 0 1
-26.244837 26.431014 27.156976 46.096543 -0.788933 0.940811 0.050666 -0.031738 -1105400.000000 0 0 1
-25.386217 25.251614 27.635986 45.231092 -0.782740 0.913479 0.049721 -0.028484 969511.000000 0 0 1
-24.022027 25.484214 28.034236 44.860019 -0.814925 0.895758 0.049889 -0.024975 742097.000000 0 0 1
-23.890427 26.332414 29.197666 46.007089 -0.833983 0.883261 0.045847 -0.017629 52990.200000 0 0 1
-22.590427 26.135714 30.058186 45.791893 -0.858030 0.854748 0.057593 -0.007625 888298.000000 0 0 1
-21.386527 26.518914 29.405526 45.003569 -0.892127 0.858724 0.065555 -0.010520 670690.000000 0 0 1
-20.197627 26.208114 30.133896 44.753335 -0.914201 0.832089 0.073216 -0.016816 561652.000000 0 0 1
-19.461527 24.940314 29.690786 43.385632 -0.908169 0.817090 0.076827 -0.007271 -247565.000000 0 0 1
-18.967027 24.904614 28.351896 42.235268 -0.919921 0.834855 0.077204 -0.014664 21185.800000 0 0 1
-19.763327 24.194014 27.426426 41.571002 -0.885854 0.850312 0.080678 -0.017726 12353.300000 0 0 1
-19.678027 22.608614 27.436606 40.634240 -0.854590 0.829548 0.071657 -0.001634 191362.000000 0 0 1
-20.249327 22.050614 28.620446 41.417324 -0.827956 0.807889 0.064431 -0.005892 27901.300000 0 0 1
-20.183127 20.623314 28.568286 40.605746 -0.796185 0.790412 0.060678 -0.006322 -129789.000000 0 0 1
-20.649127 20.023514 29.925026 41.507044 -0.770018 0.765606 0.059594 -0.009818 -311865.000000 0 0 1
-19.858627 20.271014 31.068056 42.077347 -0.795674 0.740167 0.055932 -0.013465 -172459.000000 0 0 1
-20.463927 19.931014 32.285490 43.108821 -0.772206 0.724350 0.047509 -0.008028 -48299.800000 0 0 1
-19.635327 20.397414 33.552770 43.902038 -0.804432 0.700896 0.057392 -0.013003 -139581.000000 0 0 1
-19.569327 21.793014 33.749758 44.687136 -0.839108 0.714768 0.049223 -0.007251 304856.000000 0 0 1
-18.710527 22.651514 32.975455 44.165094 -0.880392 0.727799 0.069629 -0.005253 -454128.000000 0 0 1
-17.240727 22.596314 33.353448 43.821097 -0.919034 0.705746 0.053670 -0.000573 -797895.000000 0 0 1
-16.595627 21.392314 33.142765 42.795897 -0.911002 0.684970 0.062984 -0.019411 92314.800000 0 0 1
-15.220527 21.440814 33.498412 42.585403 -0.953466 0.665485 0.052774 -0.019541 328225.000000 0 0 1
-14.314227 20.190414 33.262932 41.460494 -0.954081 0.639691 0.057320 -0.026117 483816.000000 0 0 1
-12.970027 20.197714 33.711672 41.384128 -0.999957 0.618750 0.048308 -0.028585 414983.000000 0 0 1
-12.784827 20.245914 -33.046325 40.809416 -1.007553 2.514560 0.051742 -0.027327 1074720.000000 0 0 1
-11.244627 20.027414 -32.671605 39.937110 -1.059196 2.528855 0.048829 -0.024363 1542720.000000 0 0 1
-10.483927 21.168014 -32.869595 40.477251 -1.110938 2.518455 0.041688 -0.021851 608407.000000 0 0 1
-9.097927 21.069114 -32.480595 39.770201 -1.163169 2.526477 0.040185 -0.020383 882537.000000 0 0 1
-8.289527 22.364014 -32.606765 40.398843 -1.215833 2.510056 0.045037 -0.023344 -130131.000000 0 0 1
-8.354527 23.421014 -31.625565 40.230814 -1.228156 2.475275 0.047336 -0.019325 -66653.900000 0 0 1
-7.911327 22.961214 -30.338545 38.861726 -1.238983 2.466548 0.048054 -0.020908 -77759.600000 0 0 1
-7.524727 24.149414 -29.488355 38.850725 -1.268740 2.432598 0.049599 -0.018387 229407.000000 0 0 1
-6.297227 24.746714 -29.873075 39.299561 -1.321618 2.434321 0.045655 -0.019833 131004.000000 0 0 1
-6.117427 25.996314 -29.247865 39.606425 -1.339682 2.401584 0.056244 -0.012685 -662121.000000 0 0 1
-4.781827 26.584814 -29.676615 40.128789 -1.392829 2.403175 0.051736 -0.013781 -885977.000000 0 0 1
-3.729027 25.805614 -29.097855 39.070712 -1.427285 2.410954 0.051028 -0.017672 -455935.000000 0 0 1
-2.470827 26.033614 -29.634295 39.522721 -1.476171 2.418562 0.056645 -0.020709 -377648.000000 0 0 1
-1.762427 27.341414 -29.213355 40.050957 -1.506425 2.388248 0.061875 -0.032466 -709778.000000 0 0 1
-1.292327 27.355414 -27.834655 39.048134 -1.523589 2.364320 0.073535 -0.042842 741826.000000 0 0 1
-0.498727 28.572614 -27.666815 39.775566 -1.553343 2.340014 0.075161 -0.041965 -317478.000000 0 0 1
0.230473 28.699214 -26.291955 38.922550 1.562766 2.312431 0.090141 -0.051741 359925.000000 0 0 1
1.365973 27.894014 -26.021495 38.171457 1.521865 2.320880 0.129034 -0.057041 526105.000000 0 0 1
2.485673 28.156814 -26.865575 38.996716 1.482745 2.330793 0.138478 -0.055066 -349093.000000 0 0 1
3.803173 28.376614 -26.083405 38.730355 1.437565 2.309678 0.136725 -0.061042 -61653.000000 0 0 1
4.257473 27.208814 -25.451015 37.499331 1.415581 2.316795 0.138223 -0.050737 -458593.000000 0 0 1
5.474573 27.347314 -24.788015 37.313432 1.373221 2.297378 0.103937 -0.042790 -489335.000000 0 0 1
6.098973 26.073714 -24.323115 36.175267 1.341015 2.308200 0.099812 -0.039309 -167875.000000 0 0 1
7.211373 26.237814 -23.477415 35.939057 1.302573 2.282674 0.093422 -0.035101 -453428.000000 0 0 1
7.786773 25.080314 -22.917815 34.855161 1.269759 2.288313 0.085211 -0.022447 814978.000000 0 0 1
9.273773 25.272314 -22.483615 35.074288 1.219098 2.266634 0.081360 -0.005125 148067.000000 0 0 1
9.528573 26.210414 -21.434615 35.174170 1.222109 2.226081 0.079357 -0.008437 -3461.900000 0 0 1
10.895273 26.306214 -21.080315 35.427441 1.178134 2.208097 0.086388 -0.016336 267942.000000 0 0 1
11.595173 25.176814 -20.323015 34.370699 1.139204 2.203453 0.058484 -0.009274 -399757.000000 0 0 1
12.146973 24.234614 -21.199415 34.413379 1.106170 2.234480 0.061920 -0.011030 -208178.000000 0 0 1
12.258573 23.018214 -20.540015 33.196431 1.081442 2.237936 0.053466 0.002184 -176511.000000 0 0 1
12.392773 21.938714 -21.554415 33.158420 1.056600 2.278438 0.065259 -0.002623 784920.000000 0 0 1
11.219173 21.729414 -22.377915 33.148278 1.094184 2.311877 0.064113 -0.014882 708095.000000 0 0 1
11.374273 20.774414 -23.406615 33.298949 1.069864 2.350296 0.070379 -0.009904 109608.000000 0 0 1
10.657373 21.190814 -24.773715 34.298209 1.104812 2.377924 0.082326 -0.013701 1518600.000000 0 0 1
9.261373 20.804314 -24.667515 33.571994 1.151970 2.396116 0.063237 -0.017445 675162.000000 0 0 1
8.588273 21.113114 -25.847775 34.462001 1.184464 2.418914 0.054725 -0.025452 176856.000000 0 0 1
7.119273 20.594614 -25.867975 33.822689 1.237970 2.441545 0.049926 -0.031680 855183.000000 0 0 1
6.071973 21.241014 -25.142025 33.468955 1.292361 2.420681 0.074072 -0.026816 301384.000000 0 0 1
6.180173 21.306414 -23.723415 32.480121 1.288482 2.389701 0.072697 -0.021458 -226104.000000 0 0 1
4.830773 21.683614 -23.036715 32.003214 1.351592 2.374347 0.095697 -0.028183 303080.000000 0 0 1
4.479173 22.980814 -23.466015 33.148675 1.378300 2.357320 0.096968 -0.030505 -1052710.000000 0 0 1
3.131373 23.197414 -23.261115 33.000076 1.436619 2.353051 0.114275 -0.030749 -1072210.000000 0 0 1
2.534273 24.184814 -24.224715 34.324402 1.466390 2.354289 0.104227 -0.033392 -136867.000000 0 0 1
1.240273 23.813014 -24.653715 34.298740 1.518760 2.372862 0.118757 -0.048455 -39282.000000 0 0 1
0.640973 24.732314 -25.533345 35.553480 1.544886 2.371961 0.112973 -0.041795 742816.000000 0 0 1
-0.913627 24.736814 -25.674675 35.664178 -1.533879 2.374456 0.108600 -0.037801 876769.000000 0 0 1
-1.400427 23.479214 -26.247995 35.244743 -1.511222 2.410934 0.116593 -0.039192 39222.100000 0 0 1
-2.721427 23.620114 -26.766985 35.802059 -1.456086 2.415295 0.115635 -0.028847 645948.000000 0 0 1
-3.366827 22.290414 -27.283145 35.391639 -1.420886 2.451037 0.103817 -0.028133 -46488.100000 0 0 1
-2.602227 21.698714 -28.315405 35.768253 -1.451441 2.484277 0.116064 -0.039476 -52200.500000 0 0 1
-3.137827 20.465514 -28.748215 35.427999 -1.418658 2.517433 0.089310 -0.034404 170891.000000 0 0 1
-4.239727 20.493014 -29.872815 36.473607 -1.366788 2.530507 0.083106 -0.031837 203910.000000 0 0 1
-3.970927 20.952514 -31.189255 37.782876 -1.383497 2.541860 0.070538 -0.032052 -417096.000000 0 0 1
-3.443227 22.204614 -31.317205 38.544364 -1.416954 2.519220 0.076597 -0.031499 -262162.000000 0 0 1
-2.987727 22.463314 -32.776405 39.847456 -1.438568 2.536672 0.055226 -0.025585 -22048.600000 0 0 1
-2.021127 21.484514 -33.140345 39.546830 -1.476999 2.564409 0.066618 -0.026332 266183.000000 0 0 1
-1.572927 21.788714 33.736377 40.191607 -1.498731 0.574639 0.058816 -0.016950 -651114.000000 0 0 1
-0.388727 20.965614 33.292170 39.345605 -1.552257 0.562082 0.054846 -0.005808 -769520.000000 0 0 1
-0.738527 19.614814 33.110199 38.491189 -1.533163 0.535131 0.051308 0.001016 47074.800000 0 0 1
0.253873 18.844414 32.471734 37.544505 1.557325 0.525872 0.049327 -0.003338 -294260.000000 0 0 1
-0.258027 17.488014 32.153876 36.602854 -1.556043 0.498182 0.043025 0.007868 -210330.000000 0 0 1
-1.345827 17.435314 31.286626 35.842075 -1.493759 0.509677 0.041301 0.007538 -184927.000000 0 0 1
-1.711127 16.104714 30.909956 34.895775 -1.464943 0.482626 0.037262 0.009213 401229.000000 0 0 1
-2.826627 16.054214 29.816456 33.981592 -1.396515 0.500319 0.038147 0.009378 95601.900000 0 0 1
-4.092327 16.575614 30.086896 34.593632 -1.328748 0.516154 0.027980 -0.000085 -252315.000000 0 0 1
-4.235827 17.834114 29.453906 34.691936 -1.337605 0.556682 0.022865 0.001247 -1040830.000000 0 0 1
-5.600627 18.456514 29.454166 35.207354 -1.276178 0.579765 0.020269 -0.009813 -640533.000000 0 0 1
-6.574127 17.803214 28.664786 34.377951 -1.217062 0.584817 0.010913 -0.003490 -262796.000000 0 0 1
-7.832927 18.437714 28.735826 35.029298 -1.169068 0.608796 0.027912 -0.013750 270883.000000 0 0 1
-8.911327 17.580814 27.950856 34.201566 -1.101662 0.614193 0.032938 -0.015272 16089.000000 0 0 1
-9.250127 16.246314 28.326966 33.940014 -1.053205 0.583356 0.049677 -0.023365 113828.000000 0 0 1
-9.689927 16.140614 29.672456 35.140699 -1.030124 0.565371 0.053309 -0.034520 -346473.000000 0 0 1
-10.432627 14.795414 29.898266 34.952114 -0.956639 0.544461 0.049044 -0.043620 -5011.780000 0 0 1
-9.561827 13.693314 29.824666 34.182540 -0.961223 0.510477 0.040499 -0.022822 279481.000000 0 0 1
-8.731827 13.358514 30.955596 34.827340 -0.991858 0.476010 0.025283 -0.021261 -47425.200000 0 0 1
-9.297727 13.091714 32.391153 36.152835 -0.953258 0.460230 0.037558 -0.032564 -967862.000000 0 0 1
-9.792227 11.871514 32.548548 36.003173 -0.881085 0.441652 0.036874 -0.020176 -43797.900000 0 0 1
-10.344427 11.749414 33.856625 37.300495 -0.848904 0.433092 0.031124 -0.008092 276536.000000 0 0 1
-10.929027 10.345814 -33.913655 37.102769 -0.757992 2.723947 0.034096 -0.010632 187035.000000 0 0 1
-9.860427 9.402214 -33.968205 36.598751 -0.761615 2.760140 0.032977 -0.013174 445395.000000 0 0 1
-9.817927 8.537614 -32.878725 35.359484 -0.715760 2.764779 0.061074 -0.017282 98447.000000 0 0 1
-8.810527 8.956414 -31.774875 34.168486 -0.793609 2.765065 0.043579 -0.021634 -90834.000000 0 0 1
-9.281627 10.182314 -31.148755 34.059845 -0.831640 2.725141 0.043152 -0.019196 105315.000000 0 0 1
-8.353527 10.828514 -30.326775 33.267874 -0.913715 2.717940 0.056671 -0.023828 -556660.000000 0 0 1
-7.425027 11.850114 -30.983165 33.992834 -1.011063 2.717620 0.044734 -0.022744 -348079.000000 0 0 1
-8.036527 13.041414 -31.407695 34.944349 -1.018527 2.687802 0.043944 -0.023788 22872.400000 0 0 1
-7.092727 13.911414 -31.983415 35.591755 -1.099300 2.687407 0.033660 -0.027109 -11077.700000 0 0 1
-7.704927 15.280514 -32.220425 36.483089 -1.103769 2.653354 0.032687 -0.023810 -304874.000000 0 0 1
-8.529427 15.479314 -33.310545 37.708788 -1.067170 2.653786 0.038820 -0.030632 -316625.000000 0 0 1
-8.879627 16.820214 -33.452235 38.481416 -1.085068 2.624599 0.053087 -0.031002 -764292.000000 0 0 1
-9.422527 17.193214 33.305671 38.647876 -1.069461 0.532043 0.051246 -0.039904 571291.000000 0 0 1
-10.553827 16.488314 32.782613 38.183078 -1.001427 0.538334 0.055057 -0.039638 897108.000000 0 0 1
-11.770627 16.883214 33.433701 39.260704 -0.961966 0.551801 0.053671 -0.043864 -924855.000000 0 0 1
-12.982527 16.371014 32.694754 38.800812 -0.900327 0.568646 0.068594 -0.046566 -863915.000000 0 0 1
-13.074227 14.949314 32.640375 38.207479 -0.852210 0.546608 0.056320 -0.043254 652492.000000 0 0 1
-14.262227 14.467114 33.264600 38.977457 -0.792530 0.548262 0.051213 -0.030052 238679.000000 0 0 1
-14.208027 12.943914 33.256945 38.411422 -0.738875 0.524032 0.035232 -0.023274 -187147.000000 0 0 1
-14.467027 12.302814 32.018046 37.226460 -0.704728 0.535353 0.024767 -0.026347 489429.000000 0 0 1
-13.315627 12.046714 31.221896 36.017163 -0.735408 0.521924 0.026658 -0.016929 178893.000000 0 0 1
-13.794427 11.654614 29.822226 34.863754 -0.701513 0.544486 0.027626 -0.014134 -105993.000000 0 0 1
-14.175527 10.347214 29.647536 34.452674 -0.630535 0.534489 0.022337 -0.008550 43764.600000 0 0 1
-14.380727 10.049514 28.283346 33.282813 -0.609932 0.555213 0.022266 -0.003793 5595.550000 0 0 1
-15.178227 8.743814 28.055606 33.074913 -0.522643 0.558135 0.024537 -0.002459 -161995.000000 0 0 1
-14.485227 7.576014 28.388966 32.758986 -0.481891 0.522447 0.001674 0.000944 -95362.900000 0 0 1
-15.240427 6.369714 28.225206 32.703304 -0.395883 0.529482 0.007552 0.011105 -358514.000000 0 0 1
-14.446127 5.068114 28.216826 32.102424 -0.337413 0.497114 0.004765 0.011328 -214627.000000 0 0 1
-13.496027 4.909614 27.209006 30.766492 -0.348900 0.485651 0.007816 0.000032 56574.100000 0 0 1
-14.149827 4.735614 25.976446 29.956959 -0.322959 0.521394 0.011485 0.009228 -679861.000000 0 0 1
-13.158427 4.442214 24.893866 28.505824 -0.325581 0.508880 0.025562 0.016561 -640532.000000 0 0 1
-12.561527 3.174514 25.051386 28.203571 -0.247534 0.477309 0.018355 0.009051 71581.700000 0 0 1
-11.932527 2.800314 23.832616 26.799637 -0.230508 0.475009 0.022087 0.007236 -584518.000000 0 0 1
-10.996627 1.610714 23.989976 26.439348 -0.145439 0.433839 0.017478 0.005326 15224.700000 0 0 1
-9.660627 1.986714 24.289546 26.215582 -0.202823 0.385712 0.020134 0.001459 667900.000000 0 0 1
-8.772227 0.872114 24.473866 26.013124 -0.099092 0.345732 0.014382 0.005238 656999.000000 0 0 1
-7.271927 1.264014 24.553666 25.639055 -0.172102 0.292012 0.046640 -0.005255 40555.800000 0 0 1
-6.801127 1.583714 23.242146 24.268515 -0.228783 0.291869 0.051686 -0.007369 -74833.300000 0 1 0
-5.404327 1.598714 23.051986 23.730922 -0.287619 0.239780 0.038089 -0.008110 79243.400000 0 1 0
-4.649127 2.873414 23.480406 24.108097 -0.553589 0.228693 0.046132 -0.013870 -596093.000000 0 1 0
-4.379727 2.771314 24.818406 25.353805 -0.564160 0.205873 0.050877 -0.014031 210787.000000 0 0 1
-3.767427 3.995314 25.277936 25.867548 -0.814746 0.213919 0.052771 -0.015516 150745.000000 0 0 1
4.827273 -23.372586 13.508685 27.423802 -1.367124 1.055733 0.086677 -0.011842 211135.000000 0 0 1
4.275373 -24.611486 13.881685 28.578055 -1.398798 1.063580 0.094235 -0.018686 -422288.000000 0 0 1
2.901073 -24.706486 13.591285 28.346952 -1.453910 1.070755 0.085092 -0.015878 -337773.000000 0 0 1
2.306873 -26.065316 13.961085 29.658629 -1.482523 1.080683 0.068531 -0.019565 -91418.700000 0 0 1
2.051673 -26.135646 15.347985 30.378315 -1.492456 1.041150 0.080689 -0.016389 -135748.000000 0 0 1
2.549473 -27.292856 15.896585 31.687556 -1.477655 1.045272 0.066011 -0.016036 -363810.000000 0 0 1
2.192173 -27.386806 17.438885 32.541627 -1.490922 1.005229 0.058311 -0.015234 410629.000000 0 0 1
2.999073 -26.504526 18.277685 32.335091 -1.458122 0.970050 0.067655 -0.025222 524746.000000 0 0 1
2.966373 -26.921166 19.628685 33.448973 -1.461052 0.943665 0.051288 -0.019317 -158599.000000 0 0 1
3.837773 -26.118286 20.566785 33.464698 -1.424902 0.908941 0.046992 -0.015099 -543761.000000 0 0 1
3.115373 -25.085986 21.142085 32.954514 -1.447241 0.874275 0.053315 -0.018992 -436220.000000 0 0 1
3.774073 -24.357686 22.112185 33.113279 -1.417075 0.839582 0.065619 -0.030380 -576015.000000 0 0 1
2.874673 -23.216286 22.603485 32.529636 -1.447602 0.802574 0.068798 -0.033847 -144553.000000 0 0 1
2.501373 -22.176386 21.696485 31.125334 -1.458477 0.799496 0.073836 -0.028149 420119.000000 0 0 1
3.568773 -21.421986 21.108985 30.285754 -1.405718 0.799600 0.075954 -0.019707 83739.200000 0 0 1
3.038473 -20.296686 20.240285 28.824589 -1.422197 0.792330 0.065902 -0.015975 277674.000000 0 0 1
2.483873 -19.220086 21.087485 28.640240 -1.442275 0.743227 0.051416 -0.016650 19638.000000 0 0 1
1.500373 -18.551786 20.364785 27.588845 -1.490097 0.740468 0.045070 -0.012741 -343594.000000 0 0 1
1.206073 -17.155686 20.985785 27.132551 -1.500610 0.686524 0.061976 -0.018334 -304332.000000 0 0 1
2.230573 -16.245786 20.782685 26.473024 -1.434348 0.668017 0.027731 -0.003222 -421030.000000 0 0 1
1.920873 -15.053386 21.387985 26.224799 -1.443878 0.617094 0.036111 0.003407 315745.000000 0 0 1
3.040873 -14.011886 21.130385 25.535721 -1.357089 0.596186 0.014332 0.015585 -284694.000000 0 0 1
3.191173 -13.496486 19.755385 24.137397 -1.338616 0.612079 0.004344 0.011419 401767.000000 0 1 0
2.011373 -13.056086 19.061785 23.191780 -1.417942 0.606023 0.012428 0.016993 703957.000000 0 1 0
1.286473 -11.815286 19.623185 22.941782 -1.462341 0.544576 0.006505 0.015141 -172604.000000 0 1 0
1.964173 -10.610086 19.259985 22.076660 -1.387745 0.510677 0.011249 0.010218 -109597.000000 0 1 0
1.730673 -9.530086 20.165885 22.371426 -1.391153 0.447775 0.017964 -0.004352 -209925.000000 0 1 0
0.337973 -8.915786 20.011685 21.910568 -1.532907 0.419397 0.022884 -0.014345 -104907.000000 0 1 0
-0.025527 -7.966986 20.996485 22.457201 1.567592 0.362663 0.029854 -0.025861 147554.000000 0 1 0
-1.420327 -7.705586 21.057485 22.468001 1.388518 0.356222 0.030971 -0.023425 443108.000000 0 1 0
-1.864127 -7.155586 22.451285 23.637631 1.315947 0.318165 0.040555 -0.019497 -191703.000000 0 1 0
-1.735027 -8.185986 23.415185 24.865469 1.361936 0.343224 0.039841 -0.018139 231973.000000 0 1 0
-2.173727 -7.670786 24.651385 25.908625 1.294659 0.312805 0.039837 -0.004519 92308.100000 0 0 1
-2.423227 -8.602686 25.855585 27.356709 1.296228 0.332811 0.037601 -0.010598 -74168.600000 0 0 1
-1.182827 -9.143186 26.214385 27.788323 1.442144 0.338181 0.030569 -0.014737 -118265.000000 0 0 1
-1.343427 -10.190586 27.124685 29.006919 1.439722 0.362225 0.034080 -0.023239 509516.000000 0 0 1
-0.071027 -11.080386 27.326085 29.487199 1.564386 0.385235 0.040126 -0.024111 1205500.000000 0 0 1
1.072173 -10.518186 28.023785 29.951867 -1.469212 0.360764 0.042268 -0.022787 981703.000000 0 0 1
2.051773 -11.567186 28.077685 30.436261 -1.395244 0.396268 0.048647 -0.025898 -271196.000000 0 0 1
3.079573 -11.261986 29.159085 31.409685 -1.303873 0.380856 0.055643 -0.025739 -310712.000000 0 0 1
2.538673 -11.111986 30.433685 32.498158 -1.346189 0.358358 0.048659 -0.024802 103279.000000 0 0 1
3.469973 -10.329386 31.141685 32.993052 -1.246709 0.336591 0.064627 -0.017634 361464.000000 0 0 1
2.895773 -10.074386 32.570485 34.215716 -1.290903 0.311366 0.056379 -0.020109 47149.400000 0 0 1
3.133673 -11.141286 33.492085 35.435405 -1.296613 0.332716 0.041531 -0.022198 272017.000000 0 0 1
2.519173 -11.009986 -33.414616 35.271838 -1.345860 2.815638 0.037092 -0.020091 -261286.000000 0 0 1
2.980873 -9.916386 -32.379116 33.994521 -1.278788 2.832074 0.035302 -0.009823 -321428.000000 0 0 1
2.823073 -8.574786 -32.746716 33.968280 -1.252744 2.872596 0.049023 -0.015911 195268.000000 0 0 1
3.241873 -7.825786 -31.656216 32.769935 -1.178062 2.880134 0.063485 -0.012693 -252467.000000 0 0 1
2.695273 -6.396486 -31.632216 32.384820 -1.172006 2.925583 0.048610 -0.025259 18753.700000 0 0 1
3.363173 -5.572886 -32.563816 33.207982 -1.027816 2.944306 0.087982 -0.026917 174865.000000 0 0 1
3.046773 -4.202886 -32.310416 32.724762 -0.943538 2.982292 0.071275 -0.025354 98970.900000 0 0 1
3.156773 -3.323986 -33.539116 33.850943 -0.811194 3.005755 0.080209 -0.013168 -446152.000000 0 0 1
2.249073 -3.648986 33.644685 33.916637 -1.018437 0.126720 0.081273 -0.024208 -427746.000000 0 0 1
2.311573 -2.564686 32.708385 32.890111 -0.837259 0.105170 0.109746 -0.028937 -110201.000000 0 0 1
1.441673 -2.791886 31.485085 31.641486 -1.094131 0.099468 0.112613 -0.025412 1248600.000000 0 0 1
0.016273 -2.881586 31.754385 31.884867 -1.565149 0.090500 0.091175 -0.023294 894496.000000 0 0 1
-0.551927 -3.748186 30.793785 31.025968 1.424595 0.122416 0.096297 -0.022580 103322.000000 0 0 1
-2.083827 -3.847486 30.952185 31.259930 1.074419 0.140434 0.070038 -0.019450 265196.000000 0 0 1
-2.828127 -2.687986 30.574385 30.822339 0.759998 0.126929 0.054487 -0.018331 -759817.000000 0 0 1
-4.202327 -2.907286 30.612485 31.036045 0.605220 0.165400 0.049259 -0.014155 -221221.000000 0 0 1
-5.030127 -1.817086 29.843085 30.318537 0.346653 0.177331 0.036201 -0.013825 -58350.900000 0 0 1
-4.811027 -1.804786 28.423585 28.884311 0.358889 0.178848 0.030350 -0.008338 -12980.800000 0 0 1
-5.788827 -1.114386 27.655385 28.276716 0.190180 0.210020 0.015378 -0.007763 340886.000000 0 0 1
-6.042027 0.402014 27.866185 28.516521 -0.066438 0.213976 0.036222 -0.011407 160505.000000 0 0 1
-6.696727 0.703314 29.089185 29.858357 -0.104640 0.227473 0.034082 -0.006481 -270414.000000 0 0 1
-7.016727 2.063514 29.198685 30.100760 -0.286021 0.245436 0.038449 -0.007900 -333665.000000 0 0 1
-8.428227 2.383914 29.722785 30.986481 -0.275648 0.286574 0.030487 -0.005280 417650.000000 0 0 1
-9.461627 1.982314 28.797485 30.376753 -0.206524 0.323871 0.017562 0.005929 832905.000000 0 0 1
-10.728227 2.535614 29.203185 31.214583 -0.232091 0.360949 0.003467 0.010542 569149.000000 0 0 1
-11.868527 2.013414 28.298585 30.752653 -0.168043 0.402206 0.001878 0.014429 -172872.000000 0 0 1
-12.073327 0.623214 28.496485 30.954859 -0.051573 0.401228 0.004690 0.011225 81281.200000 0 0 1
-12.363727 -0.091486 27.296485 29.966118 0.007399 0.425308 -0.000003 0.020877 -798289.000000 0 0 1
-12.240327 -1.635986 27.516085 30.160189 0.132868 0.421854 0.005257 0.013629 941484.000000 0 0 1
-10.884927 -2.046586 27.783785 29.910013 0.185850 0.379331 0.008740 0.006045 1527700.000000 0 0 1
-9.874727 -1.900886 26.764785 28.591560 0.190174 0.359400 0.008293 0.002703 -46331.200000 0 0 1
-9.949627 -2.796886 25.496785 27.511883 0.274033 0.385115 0.003654 0.012730 -267508.000000 0 0 1
-10.952327 -2.288086 24.609485 27.033600 0.205951 0.426717 -0.004211 0.016153 604429.000000 0 0 1
-10.870127 -2.877986 23.320185 25.889641 0.258822 0.449295 -0.002003 0.012990 857387.000000 0 0 1
-9.613227 -2.461786 22.414185 24.512654 0.250696 0.416792 0.014301 0.001364 1820970.000000 0 1 0
-8.346727 -2.874886 22.923985 24.565055 0.331707 0.367593 0.024085 0.001645 31135.400000 0 1 0
-7.283227 -2.430786 22.130885 23.424991 0.322127 0.333949 0.021861 -0.002142 1084810.000000 0 1 0
-5.854827 -2.543286 22.818885 23.694911 0.409798 0.272768 0.029923 -0.001098 1474350.000000 0 1 0
-5.097227 -3.768686 22.708485 23.576684 0.636657 0.272223 0.028074 -0.006410 307274.000000 0 1 0
-5.550027 -4.840486 23.554385 24.678779 0.717217 0.303023 0.028152 -0.005668 -45259.900000 0 1 0
-5.404227 -6.250386 23.034885 24.472003 0.857874 0.344409 0.032808 -0.012098 141765.000000 0 1 0
-6.404127 -6.744886 22.129585 24.004684 0.811308 0.397876 0.037508 -0.016504 551017.000000 0 1 0
-6.049527 -6.456486 20.750985 22.558510 0.817928 0.403037 0.034403 -0.022460 -214738.000000 0 1 0
-7.292627 -6.507186 19.868085 22.141966 0.728543 0.457172 0.040167 -0.016940 291300.000000 0 1 0
-8.205327 -5.412586 20.021985 22.304783 0.583124 0.456379 0.036971 -0.015356 -147992.000000 0 1 0
-9.263327 -5.381186 19.108785 21.906895 0.526267 0.510966 0.040911 -0.011414 -17558.300000 0 1 0
-9.954027 -4.036386 19.218085 22.016127 0.385241 0.509662 0.029683 -0.007264 316616.000000 0 1 0
-9.119627 -3.037886 18.589485 20.927620 0.321554 0.477220 0.029412 -0.012890 278854.000000 0 1 0
-9.683227 -1.767586 18.701085 21.133382 0.180553 0.484501 0.023915 -0.017614 -291673.000000 0 1 0
-8.700327 -0.624986 18.405685 20.368003 0.071712 0.442563 0.016896 -0.004464 758853.000000 0 1 0
-7.679227 -0.436286 19.438085 20.904545 0.056753 0.376792 0.021076 0.010356 1042000.000000 0 1 0
-8.097027 0.514314 20.394985 21.949528 -0.063434 0.378618 0.044359 0.004186 -53505.900000 0 1 0
-7.774827 2.038914 20.113985 21.660505 -0.256470 0.380169 0.039444 -0.008213 -38553.200000 0 1 0
-8.580327 2.559114 19.058185 21.056721 -0.289854 0.439210 0.026773 -0.017791 371067.000000 0 1 0
-8.387927 3.905614 18.884285 21.029202 -0.435770 0.455587 0.029482 -0.014503 -419028.000000 0 1 0
-9.271727 4.508214 17.776885 20.550099 -0.452573 0.525544 0.027714 -0.005336 -1407950.000000 0 1 0
-10.594827 4.538314 18.189785 21.534041 -0.404706 0.564794 0.025221 0.003533 -734240.000000 0 1 0
-11.476827 5.072114 17.224185 21.310008 -0.416134 0.629593 0.025035 0.015734 89094.100000 0 1 0
-11.546527 6.597214 17.266785 21.794205 -0.519094 0.656284 0.026805 0.012038 428495.000000 0 1 0
-10.287127 7.199814 16.871985 21.031552 -0.610649 0.639788 0.023208 0.006256 1254310.000000 0 1 0
-10.483527 8.565414 16.537485 21.371922 -0.685042 0.685986 0.024485 -0.007030 24304.000000 0 1 0
-9.177127 9.374714 16.660685 21.205738 -0.796048 0.667020 0.022992 -0.006983 -190323.000000 0 1 0
-8.731327 9.465114 17.999085 22.131234 -0.825702 0.621014 0.042701 0.000024 329862.000000 0 1 0
-7.724027 10.460414 18.178985 22.350757 -0.934757 0.620909 0.040360 -0.005439 223466.000000 0 1 0
-8.255827 11.902614 18.026385 23.125342 -0.964369 0.676917 0.041063 -0.005467 -41673.500000 0 1 0
-8.228327 12.231214 16.676685 22.258027 -0.978607 0.723877 0.029338 -0.012753 -289879.000000 0 1 0
-8.987027 13.369814 16.454185 23.027349 -0.978981 0.774816 0.042290 -0.019387 -366118.000000 0 1 0
-8.867727 13.993214 15.047385 22.380134 -1.005954 0.833411 0.038825 -0.019567 15674.300000 0 1 0
-7.786127 14.872214 14.931685 22.466903 -1.088498 0.843827 0.042706 -0.012457 -354577.000000 0 1 0
-7.659327 15.243114 13.542085 21.780860 -1.105168 0.899831 0.028115 -0.019751 198561.000000 0 1 0
-6.635327 16.395614 13.302185 22.131241 -1.186244 0.925971 0.005035 -0.014563 681269.000000 0 1 0
-5.284727 16.004814 13.558585 21.631404 -1.251872 0.893356 0.003429 -0.021052 -574367.000000 0 1 0
-4.525327 17.159814 13.541985 22.323153 -1.312950 0.918977 0.003851 -0.023668 -827844.000000 0 1 0
-3.061227 16.739714 13.499185 21.721352 -1.389923 0.900178 0.008424 -0.032795 -568748.000000 0 1 0
-2.363727 16.425414 14.710485 22.176109 -1.427871 0.845512 0.007846 -0.022105 18428.200000 0 1 0
-2.544427 15.140614 15.192585 21.599235 -1.404299 0.790647 0.010748 -0.015532 -96193.100000 0 1 0
-1.358827 14.648114 16.060185 21.779421 -1.478296 0.741581 0.009828 -0.006778 -531440.000000 0 1 0
-0.168727 14.348714 15.416485 21.061388 -1.559038 0.749575 -0.005928 -0.017784 -449709.000000 0 1 0
0.889873 13.908014 16.255885 21.412112 1.506901 0.708727 0.001255 -0.010252 424350.000000 0 1 0
1.784873 14.989814 16.868285 22.636681 1.452282 0.729999 0.006058 -0.010966 -629426.000000 0 1 0
1.063473 15.672114 17.840485 23.770339 1.503043 0.721924 -0.005018 -0.007882 -529127.000000 0 1 0
1.707273 16.774314 18.399685 24.956779 1.469367 0.741788 0.005756 -0.007672 -522536.000000 0 1 0
0.652173 17.764114 18.936685 25.972815 1.534100 0.753796 0.012216 -0.010388 371199.000000 0 0 1
0.090773 18.697914 17.985985 25.944477 1.565942 0.804809 -0.000516 -0.009462 270139.000000 0 0 1
-0.902927 18.121614 17.139185 24.959163 -1.521012 0.813872 -0.003274 -0.006276 -402841.000000 0 1 0
-1.530927 19.233914 16.242885 25.221390 -1.491369 0.871065 0.000565 -0.001709 -177388.000000 0 0 1
-2.111127 20.220414 17.054985 26.536664 -1.466768 0.872785 -0.009907 0.000421 209643.000000 0 0 1
-2.796827 21.246314 16.292685 26.919875 -1.439911 0.920743 0.003582 -0.008111 -171900.000000 0 0 1
-3.442927 22.413514 17.110585 28.407595 -1.418378 0.924387 0.001310 0.000637 366130.000000 0 0 1
-4.660527 22.046914 17.752985 28.687199 -1.362472 0.903522 0.004160 0.002187 410137.000000 0 0 1
-5.244427 22.960714 18.645985 30.039493 -1.346240 0.901141 0.009367 -0.001181 -419501.000000 0 0 1
-6.396527 22.474114 19.487585 30.426425 -1.293511 0.875670 0.002864 -0.003287 236629.000000 0 0 1
-7.651527 22.386114 18.792885 30.213515 -1.241447 0.899499 -0.000859 -0.006340 370327.000000 0 0 1
-8.683027 21.993514 19.649085 30.744043 -1.194781 0.877445 -0.028780 -0.006083 183911.000000 0 0 1
-10.138427 22.340214 19.245185 31.180924 -1.144771 0.905604 -0.008478 -0.011369 295078.000000 0 0 1
-10.343627 23.681214 19.698385 32.493336 -1.158985 0.919487 0.002335 -0.005732 -251152.000000 0 0 1
-11.454527 24.170314 19.010585 32.814823 -1.128239 0.952891 -0.003272 -0.008729 -510753.000000 0 0 1
-11.844827 25.626814 19.315185 34.206869 -1.137840 0.970777 0.007796 -0.009259 -336748.000000 0 0 1
-12.416627 25.874314 20.556985 35.302158 -1.123372 0.949223 0.004657 0.002585 168388.000000 0 0 1
-13.197927 27.055314 20.451585 36.392892 -1.116946 0.974035 0.030350 -0.013831 -303120.000000 0 0 1
-14.158227 27.418814 21.601285 37.667788 -1.094139 0.960063 0.056707 -0.018498 -362466.000000 0 0 1
-15.315527 26.627714 21.608885 37.557215 -1.048832 0.957753 0.045995 -0.017060 -120899.000000 0 0 1
-16.258227 27.003514 22.596785 38.783172 -1.028850 0.948818 0.032069 -0.008866 257933.000000 0 0 1
-17.549227 26.169814 22.451485 38.689840 -0.980082 0.951707 0.051880 -0.006288 -94320.900000 0 0 1
-17.529027 24.961714 23.113485 38.269925 -0.958571 0.922337 0.067326 -0.016499 -179989.000000 0 0 1
-18.800927 24.368614 23.207085 38.547023 -0.913663 0.924735 0.079323 -0.007208 -100395.000000 0 0 1
27.649973 24.504114 23.665106 43.874934 0.725153 1.001100 0.063531 -0.028786 -55216.200000 0 0 1
27.339273 23.580014 24.735926 43.764357 0.711704 0.970112 0.062600 -0.034816 304653.000000 0 0 1
27.047473 22.318314 24.183766 42.597271 0.689891 0.967050 0.067431 -0.032634 -345315.000000 0 0 1
26.811773 21.322114 25.379286 42.633459 0.671839 0.933169 0.091575 -0.039910 -8083.050000 0 0 1
25.568873 21.588814 25.992956 42.373080 0.701199 0.910399 0.098569 -0.041365 -72969.200000 0 0 1
25.405273 20.959114 27.224446 42.730350 0.689795 0.880038 0.108395 -0.038931 49832.900000 0 0 1
24.077473 21.183714 27.981826 42.561215 0.721550 0.853368 0.110347 -0.039818 23698.900000 0 0 1
23.782373 22.496814 28.335546 43.296779 0.757627 0.857342 0.119815 -0.050771 250052.000000 0 0 1
22.651873 22.522314 29.204726 43.281381 0.782530 0.830151 0.137747 -0.048347 93582.800000 0 0 1
22.304073 23.957714 29.687846 44.190631 0.821128 0.834142 0.123039 -0.047801 -302370.000000 0 0 1
21.670773 24.838514 28.717086 43.717790 0.853403 0.854131 0.102164 -0.045671 225975.000000 0 0 1
21.221073 26.020914 29.258956 44.536596 0.886652 0.854011 0.104866 -0.042721 -780396.000000 0 0 1
19.859073 25.897914 29.938086 44.287399 0.916616 0.828481 0.089575 -0.039029 -2188890.000000 0 0 1
18.838773 26.167514 28.993386 43.361902 0.946820 0.838422 0.090191 -0.043286 542556.000000 0 0 1
17.678573 26.697514 29.669236 43.652637 0.985906 0.823488 0.085654 -0.034337 904837.000000 0 0 1
16.820273 25.801814 30.648036 43.450630 0.993085 0.787875 0.047690 -0.021824 -923988.000000 0 0 1
17.389673 25.480214 31.866856 44.352435 0.971927 0.769165 0.060270 -0.024684 79055.400000 0 0 1
16.469873 24.693914 32.634688 44.114271 0.982590 0.738059 0.026143 -0.014672 177673.000000 0 0 1
16.922273 24.052314 34.014117 44.964845 0.957684 0.712912 0.046433 -0.024752 -205457.000000 0 0 1
17.327273 25.059814 -33.291445 45.128140 0.965841 2.400467 0.055889 -0.027119 115868.000000 0 0 1
17.708273 24.650414 -31.977045 44.088063 0.947843 2.382266 0.043894 -0.016653 -31444.800000 0 0 1
18.003673 25.970814 -31.159465 44.379361 0.964630 2.349161 0.048268 -0.002805 -361149.000000 0 0 1
16.910373 26.820314 -30.914285 44.282987 1.008247 2.343547 0.043790 -0.014043 97726.100000 0 0 1
17.338273 28.051414 -30.335285 44.807667 1.017182 2.314490 0.059855 -0.016348 -199407.000000 0 0 1
16.674573 28.330614 -29.004655 43.839880 1.038823 2.293753 0.067946 -0.015459 -313933.000000 0 0 1
17.325473 27.672114 -27.909935 42.952094 1.011407 2.278107 0.054990 -0.010315 374081.000000 0 0 1
16.772073 27.982214 -26.640175 42.118947 1.030830 2.255571 0.033550 -0.003104 -204102.000000 0 0 1
17.409473 27.046214 -25.588755 41.101969 0.998867 2.242816 0.024771 0.002638 1123290.000000 0 0 1
18.844573 27.132714 -25.712185 41.861899 0.963749 2.232187 0.043145 0.005395 623929.000000 0 0 1
19.546673 26.739914 -24.567715 41.239157 0.939571 2.208980 0.048598 0.007850 3695.110000 0 0 1
21.077473 26.604014 -24.634115 41.938921 0.900789 2.198615 0.053920 0.003773 129533.000000 0 0 1
21.683473 26.265214 -23.405115 41.325947 0.880664 2.172872 0.063241 0.004126 29013.500000 0 0 1
23.057573 25.959414 -23.590515 41.976842 0.844530 2.167585 0.061943 0.005506 136733.000000 0 0 1
23.787473 25.716414 -22.291315 41.522049 0.824344 2.137501 0.069858 0.003992 -111895.000000 0 0 1
23.475873 24.517514 -21.627915 40.249122 0.807099 2.138090 0.069162 -0.000850 -127851.000000 0 0 1
24.221773 24.471514 -20.442015 40.042793 0.790527 2.106567 0.058825 0.005811 -180084.000000 0 0 1
23.828373 23.331514 -19.389015 38.575702 0.774863 2.097426 0.058553 0.001530 -607547.000000 0 0 1
24.243773 22.053514 -19.805515 38.293295 0.738125 2.114379 0.057138 0.007892 225841.000000 0 0 1
24.019273 21.170514 -18.738315 37.097717 0.722442 2.100302 0.066061 0.009110 -926119.000000 0 0 1
23.976973 19.625214 -19.237215 36.470738 0.685922 2.126416 0.068628 -0.005245 215927.000000 0 0 1
22.986073 19.239614 -20.177615 36.133896 0.696905 2.163267 0.051671 -0.005346 -136222.000000 0 0 1
21.668173 19.437914 -19.745815 35.174415 0.731195 2.166835 0.064913 -0.012173 -904838.000000 0 0 1
20.610673 19.250614 -20.844815 35.069820 0.751292 2.207291 0.045163 0.002369 -144954.000000 0 0 1
20.741673 20.073914 -22.013615 36.301216 0.769039 2.222341 0.048821 0.006527 50492.700000 0 0 1
20.966573 21.488414 -21.895015 37.158321 0.797689 2.200909 0.044126 0.011312 -216987.000000 0 0 1
20.566773 22.157314 -23.164615 38.085931 0.822609 2.224612 0.056054 0.009900 -8291.490000 0 0 1
19.160073 22.119714 -23.206015 37.348484 0.856973 2.241245 0.064209 0.006244 -375017.000000 0 0 1
18.581573 22.565214 -24.420515 38.089701 0.881913 2.266768 0.061035 0.005707 82846.100000 0 0 1
17.062773 22.783914 -24.286015 37.417315 0.928002 2.277142 0.055546 0.000873 -56246.000000 0 0 1
16.608573 23.993614 -23.700515 37.593252 0.965319 2.252924 0.041468 -0.008531 -240642.000000 0 0 1
15.238173 24.100414 -23.987015 37.261358 1.006980 2.270186 0.046587 -0.007455 -117699.000000 0 0 1
14.489473 25.286814 -23.336415 37.335721 1.050463 2.245982 0.044764 -0.007002 68980.800000 0 0 1
14.632673 26.527614 -24.016115 38.660098 1.066724 2.241085 0.036762 -0.007965 -132469.000000 0 0 1
13.509573 27.331414 -23.721215 38.629144 1.111729 2.232011 0.056285 -0.013011 79628.700000 0 0 1
13.642173 28.796514 -24.186515 40.004195 1.128373 2.220059 0.054048 -0.012790 -225073.000000 0 0 1
13.669973 28.931014 -25.585875 40.969607 1.129388 2.245299 0.054949 -0.018100 -14873.600000 0 0 1
13.167173 30.161514 -26.105255 42.006853 1.159179 2.241391 0.079004 -0.031336 -155220.000000 0 0 1
14.094473 31.369314 -25.855835 43.025716 1.148518 2.215472 0.085202 -0.033865 464791.000000 0 0 1
15.348373 31.173214 -26.523095 43.712886 1.113281 2.222771 0.054750 -0.016808 309926.000000 0 0 1
16.076573 32.406914 -26.611685 44.909309 1.110286 2.205036 0.063700 -0.020261 505490.000000 0 0 1
17.506473 32.164214 -27.176095 45.602121 1.072352 2.209231 0.056038 -0.005022 659916.000000 0 0 1
18.296573 31.208314 -26.432605 44.804085 1.040532 2.201805 0.024428 -0.004343 -350326.000000 0 0 1
19.549073 31.007614 -26.992895 45.522025 1.008280 2.205530 0.045030 -0.001719 -334091.000000 0 0 1
20.561973 30.208214 -26.086025 44.897791 0.973158 2.190764 0.023368 0.005548 -152672.000000 0 0 1
21.023573 30.769314 -24.809915 44.769110 0.971391 2.158168 0.031196 0.003875 96789.200000 0 0 1
21.743373 32.018714 -24.916515 46.030479 0.974247 2.142784 0.023047 0.002008 354017.000000 0 0 1
23.179773 31.867914 -25.531515 46.954489 0.941936 2.145696 0.016309 0.013332 -94386.800000 0 0 1
23.180373 31.467214 -26.918385 47.456451 0.935893 2.173926 0.012680 0.016466 -63455.200000 0 0 1
24.395473 31.673014 -27.642625 48.604873 0.914474 2.175747 0.005653 0.024993 -10477.100000 0 0 1
24.428173 30.915214 -28.979535 48.911139 0.902080 2.204947 0.009248 0.013382 -271236.000000 0 0 1
23.542473 31.516714 -29.853675 49.384139 0.929228 2.219959 0.026162 0.002987 72847.800000 0 0 1
22.294773 30.851114 -30.050385 48.496121 0.945026 2.239087 0.020649 -0.004120 364234.000000 0 0 1
21.310573 31.693314 -30.909615 49.132586 0.978835 2.251199 0.013951 -0.000212 -566270.000000 0 0 1
20.592173 32.617914 -30.135715 48.950253 1.007669 2.233994 0.028523 -0.009532 41663.300000 0 0 1
19.835473 33.412814 -31.077375 49.756059 1.035060 2.245409 0.048218 -0.021980 -325303.000000 0 0 1
18.317573 33.317714 -30.915345 49.003695 1.068118 2.253480 0.060780 -0.027099 -88672.500000 0 0 1
17.623973 32.022414 -31.130825 48.012162 1.067674 2.276270 0.084991 -0.031083 747894.000000 0 0 1
17.842073 31.307614 -32.429405 48.478579 1.052807 2.303582 0.085900 -0.038610 -372157.000000 0 0 1
17.295973 32.019114 -33.745855 49.630203 1.075526 2.318485 0.099754 -0.043029 -411184.000000 0 0 1
18.005473 33.199814 34.074086 50.867160 1.073856 0.836771 0.087631 -0.033351 235186.000000 0 0 1
17.575573 33.745914 32.822007 50.249095 1.090631 0.859012 0.088292 -0.034487 -318277.000000 0 0 1
16.154573 -33.885679 32.751602 49.818439 -1.125931 0.853408 0.104470 -0.035468 -676708.000000 0 0 1
15.222273 33.239914 32.783765 49.105852 1.141350 0.839797 0.109776 -0.033601 287624.000000 0 0 1
13.856673 33.679014 32.747791 48.976537 1.180473 0.838415 0.089924 -0.036457 926624.000000 0 0 1
13.300173 -33.837579 31.485406 48.095812 -1.196288 0.857091 0.088746 -0.032236 -995754.000000 0 0 1
13.686773 -32.488579 31.383096 47.198879 -1.172081 0.843420 0.113250 -0.029088 145049.000000 0 0 1
13.318673 -31.918979 30.117826 45.861658 -1.175495 0.854348 0.105901 -0.036897 100.687000 0 0 1
13.672373 -30.396279 29.867546 44.754193 -1.148105 0.840126 0.105041 -0.038770 44208.600000 0 0 1
13.066873 -29.550079 30.832816 44.661089 -1.154453 0.808792 0.105753 -0.032526 209903.000000 0 0 1
13.565773 -28.248279 30.760236 43.911132 -1.123086 0.794683 0.113454 -0.034850 -825797.000000 0 0 1
12.865273 -27.315479 31.760516 43.822152 -1.130626 0.760111 0.089700 -0.027401 -414946.000000 0 0 1
11.475273 -27.259679 31.596526 43.279468 -1.172351 0.752389 0.056763 -0.026222 -335191.000000 0 0 1
10.959773 -26.388379 30.625566 41.885420 -1.177148 0.750754 0.044728 -0.028265 -648492.000000 0 0 1
11.254673 -24.872479 30.748276 41.118904 -1.145869 0.726070 0.029217 -0.019300 -561388.000000 0 0 1
10.488673 -24.263679 31.741926 41.307241 -1.162777 0.694405 0.051560 -0.020334 80731.500000 0 0 1
11.164073 -23.118479 32.242264 41.214853 -1.120916 0.672451 0.041538 -0.016121 90475.700000 0 0 1
10.628073 -22.472979 33.560050 41.764430 -1.129041 0.637551 0.037416 -0.009223 -318082.000000 0 0 1
10.880973 -23.269579 -33.484105 42.202537 -1.133399 2.487195 0.036835 -0.005025 -162764.000000 0 0 1
12.176173 -23.335079 -32.953075 42.174521 -1.089864 2.467623 0.047568 -0.004197 -91278.500000 0 0 1
12.648573 -22.049679 -32.204665 41.028224 -1.049985 2.473394 0.053847 -0.008446 -218844.000000 0 0 1
12.810373 -20.872779 -32.954295 41.058058 -1.020338 2.502482 0.046462 -0.009542 61070.800000 0 0 1
13.730273 -19.958279 -32.396495 40.452270 -0.968204 2.499522 0.064996 -0.020227 -129552.000000 0 0 1
14.054873 -18.862879 -33.430105 40.876883 -0.930434 2.528416 0.057335 -0.017721 -271184.000000 0 0 1
14.782673 -19.368279 33.613709 41.515528 -0.918874 0.627214 0.071107 0.002917 558382.000000 0 0 1
14.837273 -18.531479 32.467242 40.220419 -0.895658 0.631348 0.051783 0.000911 -446556.000000 0 0 1
15.973273 -17.514279 32.464294 40.197335 -0.831383 0.630686 0.056688 -0.001815 -907979.000000 0 0 1
15.814273 -16.522979 33.505943 40.567823 -0.807311 0.598957 0.051905 -0.008516 492332.000000 0 0 1
16.517073 -15.314879 33.219564 40.136002 -0.747649 0.595844 0.045746 -0.016960 603396.000000 0 0 1
18.021073 -15.227679 33.633474 41.083474 -0.701580 0.611719 0.053862 -0.014921 1237710.000000 0 0 1
18.919073 -15.861279 32.659272 40.940683 -0.697706 0.647289 0.054311 -0.010729 496086.000000 0 0 1
20.289373 -15.743179 32.942562 41.769830 -0.659892 0.662156 0.056585 -0.009622 -473270.000000 0 0 1
21.095673 -16.539679 31.918636 41.681983 -0.664928 0.698565 0.057850 -0.008714 -684602.000000 0 0 1
21.238573 -15.817279 30.762616 40.590661 -0.640128 0.710748 0.053982 0.001045 226814.000000 0 0 1
21.791773 -16.573879 29.770116 40.445452 -0.650223 0.743571 0.054116 -0.001296 -417971.000000 0 0 1
21.890473 -15.790979 28.460676 39.224455 -0.624920 0.758912 0.047721 0.005559 -23159.300000 0 0 1
22.865573 -14.770279 28.605036 39.487259 -0.573531 0.760616 0.026329 0.006070 486346.000000 0 0 1
22.800573 -13.915679 27.458876 38.307990 -0.547974 0.771605 0.029043 0.005993 -77822.800000 0 0 1
23.589373 -12.646579 27.632876 38.470382 -0.492119 0.769456 0.033244 0.004584 -488165.000000 0 0 1
22.772973 -11.692979 28.219166 38.100595 -0.474356 0.736761 0.032369 -0.003130 -202920.000000 0 0 1
23.422373 -10.546079 28.696756 38.514038 -0.423067 0.730114 0.046373 -0.015726 151259.000000 0 0 1
22.507473 -9.260579 28.715976 37.642422 -0.390333 0.703068 0.042661 -0.014719 479481.000000 0 0 1
21.504973 -9.248579 29.704316 37.819921 -0.406155 0.667431 0.044266 -0.023936 -226762.000000 0 0 1
20.654573 -8.137379 29.525106 36.939954 -0.375301 0.644712 0.050068 -0.020899 -310999.000000 0 0 1
19.427873 -8.081679 30.435506 37.001024 -0.394209 0.604901 0.035466 -0.015477 -547100.000000 0 0 1
19.598173 -7.855079 31.845936 38.209348 -0.381202 0.585458 0.039517 -0.027433 -69524.600000 0 0 1
19.791273 -9.042579 32.551195 39.154093 -0.428575 0.589244 0.043073 -0.032310 -806260.000000 0 0 1
19.938373 -8.645879 34.029229 40.376705 -0.409158 0.568344 0.038918 -0.038128 70458.200000 0 0 1
18.679773 -8.252579 -33.667305 39.376724 -0.416007 2.596357 0.030064 -0.036582 155127.000000 0 0 1
18.942273 -7.841979 -32.351215 38.300228 -0.392511 2.576753 0.025896 -0.043122 -42897.100000 0 0 1
17.718773 -7.489079 -31.510235 36.917965 -0.399890 2.593501 0.027337 -0.039592 -190828.000000 0 0 1
18.121773 -6.663679 -30.398725 36.012300 -0.352370 2.575719 0.025651 -0.037009 323836.000000 0 0 1
17.000873 -6.264679 -29.619715 34.721800 -0.353052 2.592614 0.036402 -0.030722 49353.200000 0 0 1
17.119873 -5.062879 -28.657485 33.763505 -0.287536 2.584453 0.029570 -0.025685 -83586.700000 0 0 1
17.861873 -5.287279 -27.430215 33.157481 -0.287791 2.545029 0.029168 -0.024342 297079.000000 0 0 1
17.351373 -6.188779 -26.499905 32.274078 -0.342608 2.534113 0.037020 -0.031886 135487.000000 0 0 1
15.944673 -5.954779 -25.854805 30.954207 -0.357424 2.559401 0.043656 -0.027615 561611.000000 0 0 1
15.822673 -4.882879 -24.927715 29.926417 -0.299328 2.555245 0.021532 -0.020068 -852857.000000 0 0 1
14.511173 -4.751079 -24.486615 28.857256 -0.316409 2.584021 0.047286 -0.025578 -505712.000000 0 0 1
14.242673 -3.675479 -23.473615 27.701507 -0.252551 2.581822 0.053225 -0.023426 -199834.000000 0 0 1
14.309773 -2.387779 -24.016815 28.058484 -0.165340 2.598192 0.034446 -0.019668 -5834.600000 0 0 1
13.754473 -1.428779 -23.184215 26.995088 -0.103506 2.603779 0.043004 -0.017737 -262627.000000 0 0 1
14.165773 -0.014779 -23.601415 27.526281 -0.001043 2.601020 0.035479 -0.016924 130824.000000 0 0 1
13.404673 0.532221 -24.698715 28.106850 0.039683 2.644020 0.046505 -0.018701 228010.000000 0 0 1
14.028973 1.697221 -25.159585 28.856496 0.120395 2.629838 0.041132 -0.003808 -115261.000000 0 0 1
13.413373 2.400221 -26.409415 29.717618 0.177068 2.665252 0.036333 0.004276 536133.000000 0 0 1
12.164673 3.076221 -26.169025 29.021721 0.247689 2.694493 0.049644 -0.013137 648814.000000 0 0 1
11.788073 3.690221 -27.354225 30.013831 0.303383 2.717439 0.053115 -0.009332 48644.600000 0 0 1
10.403673 4.383221 -27.419785 29.652886 0.398745 2.751022 0.059427 -0.012854 137293.000000 0 0 1
10.321173 5.647221 -26.766475 29.238022 0.500652 2.727466 0.056323 -0.027947 411635.000000 0 0 1
9.017673 6.192221 -26.960815 29.095491 0.601728 2.756150 0.059447 -0.031396 500701.000000 0 0 1
8.466073 5.046814 -31.104975 32.629192 0.537563 2.834732 0.059060 -0.015345 -116880.000000 0 0 1
8.180973 4.185114 -30.000205 31.376039 0.472858 2.844358 0.050679 -0.003395 517694.000000 0 0 1
8.041973 2.830014 -30.459805 31.630397 0.338371 2.868686 0.039217 -0.006799 -208286.000000 0 0 1
7.920973 1.768114 -29.328445 30.430671 0.219619 2.871623 0.048368 -0.010863 -151958.000000 0 0 1
9.155873 1.498714 -28.696835 30.159319 0.162250 2.828898 0.056228 -0.010357 389583.000000 0 0 1
8.991773 0.497714 -27.683555 29.111491 0.055296 2.827087 0.060847 -0.010360 -330577.000000 0 0 1
10.280573 0.108614 -26.961615 28.855340 0.010565 2.777288 0.061661 -0.020960 -12083.600000 0 0 1
11.148973 -0.773986 -27.689315 29.859619 -0.069311 2.757974 0.049624 -0.012606 597298.000000 0 0 1
12.098973 -1.401586 -26.820525 29.456581 -0.115329 2.715313 0.053184 -0.015434 236671.000000 0 0 1
12.743773 -2.589286 -27.535315 30.451629 -0.200452 2.700372 0.048514 -0.016491 -281655.000000 0 0 1
11.867773 -3.673386 -27.507595 30.182869 -0.300173 2.717383 0.061057 -0.017825 -187366.000000 0 0 1
12.464473 -4.848686 -27.916465 30.954836 -0.370988 2.694817 0.059501 -0.019602 166095.000000 0 0 1
11.601073 -6.116486 -27.495195 30.462798 -0.485197 2.696528 0.058085 -0.022615 455492.000000 0 0 1
11.509473 -6.110286 -26.037025 29.115807 -0.488055 2.677565 0.066910 -0.024038 3451.470000 0 0 1
11.148873 -7.348486 -25.531455 28.812373 -0.582762 2.659719 0.086755 -0.026073 -118459.000000 0 0 1
10.967973 -7.279886 -24.006615 27.379020 -0.585974 2.640015 0.086006 -0.024844 290328.000000 0 0 1
12.185573 -7.111386 -23.298815 27.237746 -0.528266 2.597094 0.050700 -0.023197 362326.000000 0 0 1
11.819173 -6.828586 -21.953215 25.850843 -0.523902 2.585315 0.059033 -0.021639 190242.000000 0 0 1
13.029473 -6.850086 -20.994715 25.641157 -0.484025 2.530096 0.061125 -0.028303 66501.400000 0 0 1
13.660173 -5.601786 -20.924115 25.608571 -0.389167 2.527115 0.053729 -0.030424 -293364.000000 0 0 1
14.698773 -5.698986 -19.964115 25.438126 -0.369874 2.473187 0.066121 -0.029754 -51304.600000 0 0 1
15.126373 -4.316086 -19.471415 25.031416 -0.277949 2.462080 0.069968 -0.024402 247698.000000 0 0 1
15.960573 -3.566086 -20.377715 26.128684 -0.219820 2.465300 0.066737 -0.023311 588694.000000 0 0 1
16.458873 -2.372886 -19.825115 25.875863 -0.143184 2.443645 0.067263 -0.013128 496004.000000 0 0 1
17.567373 -1.599086 -20.643015 27.153338 -0.090776 2.434477 0.032744 -0.005373 64527.400000 0 0 1
18.825773 -2.185586 -20.593415 27.987055 -0.115578 2.397672 0.048514 -0.013217 -785618.000000 0 0 1
19.667273 -1.530486 -21.492715 29.173289 -0.077662 2.399012 0.047965 -0.008996 140580.000000 0 0 1
21.030673 -2.256086 -21.700215 30.303110 -0.106867 2.369003 0.039516 -0.003833 -138556.000000 0 0 1
22.036673 -1.945486 -20.737015 30.322000 -0.088056 2.323882 0.041462 -0.003512 15540.500000 0 0 1
23.193573 -2.721386 -20.879615 31.325806 -0.116800 2.300342 0.048450 -0.007472 291861.000000 0 0 1
24.219273 -2.056186 -21.874715 32.700218 -0.084696 2.303588 0.042015 -0.008409 -1051170.000000 0 0 1
23.829873 -2.145186 -23.219915 33.341103 -0.089779 2.341214 0.046402 -0.015588 -130900.000000 0 0 1
24.723873 -1.591886 -24.135515 34.587962 -0.064298 2.343119 0.049525 -0.015656 230542.000000 0 0 1
26.077873 -2.329386 -24.371615 35.769500 -0.089088 2.320404 0.051833 -0.023238 -1064250.000000 0 0 1
27.002273 -2.077186 -23.388115 35.783256 -0.076775 2.283134 0.048295 -0.019521 902105.000000 0 0 1
28.331973 -2.648086 -23.664115 37.009504 -0.093196 2.264522 0.046903 -0.020830 2051460.000000 0 0 1
29.239173 -1.754586 -24.580415 38.238784 -0.059936 2.268962 0.044546 -0.024191 -1085570.000000 0 0 1
28.701073 -1.547886 -25.835295 38.647251 -0.053879 2.302973 0.051840 -0.024937 -430003.000000 0 0 1
29.341073 -0.605386 -26.596895 39.606311 -0.020630 2.307070 0.049599 -0.026907 -921580.000000 0 0 1
28.732173 -0.441286 -28.068245 40.169128 -0.015357 2.344447 0.046495 -0.025452 -114897.000000 0 0 1
27.372973 -0.114886 -28.146455 39.262142 -0.004197 2.370121 0.042768 -0.020038 -250599.000000 0 0 1
27.081673 1.216314 -27.752975 38.795928 0.044883 2.367933 0.036282 -0.019288 -802269.000000 0 0 1
25.570073 1.463214 -27.896325 37.870498 0.057161 2.398861 0.029535 -0.013339 -370484.000000 0 0 1
24.821373 1.035314 -26.799395 36.542852 0.041686 2.394061 0.031250 -0.013967 167291.000000 0 0 1
23.445573 1.154914 -27.134745 35.879285 0.049220 2.428403 0.026312 -0.009840 622648.000000 0 0 1
22.386173 0.865314 -26.018225 34.334204 0.038635 2.430721 0.027997 -0.007140 305968.000000 0 0 1
22.287473 1.977814 -25.132935 33.649779 0.088509 2.414180 0.033728 -0.007914 100589.000000 0 0 1
21.234973 1.838214 -24.215215 32.259568 0.086350 2.419821 0.038353 -0.006109 -377377.000000 0 0 1
21.576873 2.381714 -22.810315 31.488799 0.109938 2.380952 0.027506 0.004312 -240726.000000 0 0 1
21.494373 3.773014 -22.678015 31.472783 0.173765 2.375405 0.028342 -0.002364 375777.000000 0 0 1
21.621773 4.186014 -21.294415 30.634554 0.191236 2.339371 0.023316 -0.004380 -458622.000000 0 0 1
21.316073 5.647714 -21.126815 30.538729 0.259000 2.334781 0.032043 -0.003846 -333216.000000 0 0 1
22.284673 6.633514 -21.461215 31.641648 0.289319 2.316186 0.023675 -0.002081 -134639.000000 0 0 1
21.992073 7.989714 -21.067915 31.485613 0.348474 2.303832 0.022072 0.000665 -665694.000000 0 0 1
22.237273 8.343314 -19.571815 30.776016 0.358942 2.260027 0.047087 -0.008813 517812.000000 0 0 1
23.648373 8.398214 -19.292915 31.654259 0.341236 2.226212 0.036002 -0.009975 1007010.000000 0 0 1
23.875473 8.394814 -17.863715 30.977789 0.338107 2.185433 0.059628 -0.030263 40466.900000 0 0 1
23.728173 9.778514 -17.144015 30.863616 0.390899 2.159732 0.071635 -0.044292 89563.500000 0 0 1
22.348073 10.098314 -17.057215 29.872410 0.424404 2.178523 0.067539 -0.047497 199670.000000 0 0 1
22.272773 11.549714 -16.889515 30.244471 0.478383 2.163292 0.060833 -0.043265 -724095.000000 0 0 1
20.843073 12.107614 -16.704615 29.326987 0.526252 2.176814 0.063765 -0.046975 -482.239000 0 0 1
20.058773 11.949514 -17.858915 29.395342 0.537270 2.223759 0.067310 -0.045122 39289.700000 0 0 1
19.452273 10.684814 -17.962715 28.551976 0.502293 2.251221 0.063325 -0.047270 -711192.000000 0 0 1
18.616973 10.295614 -19.236315 28.681478 0.505161 2.305932 0.066229 -0.023355 845047.000000 0 0 1
19.428873 10.039414 -20.408915 29.913120 0.476939 2.321664 0.070253 -0.016401 127873.000000 0 0 1
18.563973 9.871214 -21.466315 30.047706 0.488716 2.366574 0.060238 -0.018092 -483572.000000 0 0 1
19.174673 10.094414 -22.882715 31.514821 0.484579 2.383420 0.071661 -0.022523 -87889.600000 0 0 1
19.457973 11.461314 -23.124815 32.322307 0.532314 2.368056 0.073484 -0.028219 63739.100000 0 0 1
20.139873 11.618714 -24.336615 33.658280 0.523262 2.379004 0.075705 -0.025696 -151665.000000 0 0 1
20.354373 13.041814 -24.712615 34.570258 0.569836 2.367209 0.085238 -0.023095 -140742.000000 0 0 1
21.058273 13.297114 -25.907035 35.936591 0.563220 2.375910 0.075784 -0.018839 90763.500000 0 0 1
21.101873 14.627114 -26.314665 36.765515 0.606125 2.368484 0.088283 -0.014911 -54972.000000 0 0 1
19.869873 15.053814 -27.145805 36.855446 0.648360 2.398749 0.082808 -0.020150 173593.000000 0 0 1
18.693573 15.108214 -26.360255 35.673111 0.679723 2.402291 0.074198 -0.011417 -293383.000000 0 0 1
17.581873 15.408114 -27.186955 35.856140 0.719602 2.431380 0.071019 -0.016772 415204.000000 0 0 1
16.235573 14.981714 -26.528655 34.522676 0.745254 2.447198 0.081916 -0.015989 249928.000000 0 0 1
16.004073 13.596414 -26.509155 33.819050 0.704238 2.471643 0.072224 -0.013730 479484.000000 0 0 1
14.654473 13.339214 -26.126195 32.791253 0.738449 2.492682 0.052599 -0.009663 352420.000000 0 0 1
14.340773 11.824614 -26.079495 32.025292 0.689529 2.522388 0.048793 -0.015332 488136.000000 0 0 1
12.975973 11.438414 -25.904145 31.148642 0.722504 2.552833 0.045375 -0.012288 394075.000000 0 0 1
12.814373 10.082114 -25.532235 30.294425 0.666629 2.573267 0.069755 -0.016655 -36833.700000 0 0 1
11.421273 9.414314 -25.487555 29.473552 0.689371 2.615469 0.046284 -0.025173 84914.000000 0 0 1
10.716873 9.778014 -24.315915 28.314743 0.739621 2.603665 0.049531 -0.027437 -409410.000000 0 0 1
9.451273 9.178214 -24.217015 27.568641 0.770742 2.643355 0.046513 -0.028287 -369336.000000 0 0 1
8.746473 9.857914 -23.046215 26.548207 0.845068 2.622137 0.042258 -0.027400 -595783.000000 0 0 1
8.094173 11.031014 -23.416415 27.120608 0.937767 2.612802 0.038859 -0.027228 -199352.000000 0 0 1
7.522273 11.828314 -22.362615 26.392805 1.004358 2.581677 0.043262 -0.016729 273727.000000 0 0 1
8.465573 12.708914 -21.474415 26.350198 0.983177 2.523460 0.048435 -0.020260 -84509.400000 0 0 1
9.207173 11.905714 -20.608215 25.518946 0.912524 2.510809 0.054063 -0.030617 -588555.000000 0 0 1
10.081373 12.714814 -19.860215 25.646222 0.900409 2.456549 0.067116 -0.025211 -235489.000000 0 0 1
11.073473 11.801114 -19.060515 25.003826 0.817197 2.437662 0.080446 -0.031234 19872.600000 0 0 1
12.162073 11.216414 -19.768815 25.778480 0.744970 2.444751 0.090933 -0.029192 254079.000000 0 0 1
11.899473 10.232214 -20.810415 26.064709 0.710207 2.495452 0.082921 -0.034082 -562098.000000 0 0 1
13.186173 9.693914 -21.464715 26.992242 0.633934 2.490163 0.087527 -0.028351 96361.200000 0 0 1
13.863773 8.752314 -20.655115 26.371215 0.563123 2.470664 0.103765 -0.037738 1114720.000000 0 0 1
15.031373 8.266514 -21.385815 27.415881 0.502805 2.465545 0.106395 -0.038452 879139.000000 0 0 1
15.851273 7.125214 -20.763815 27.077067 0.422442 2.444702 0.133778 -0.034967 219458.000000 0 0 1
16.544673 7.536314 -19.569815 26.711419 0.427429 2.392987 0.097049 -0.031205 223440.000000 0 0 1
17.084173 6.338414 -18.990515 26.318893 0.355269 2.376841 0.069861 -0.030719 35106.900000 0 0 1
17.942073 6.502614 -17.746815 26.060534 0.347699 2.319902 0.090827 -0.029609 -1038680.000000 0 0 1
19.210473 7.062014 -17.833415 27.146731 0.352278 2.287532 0.059341 -0.033049 -460295.000000 0 0 1
19.827373 7.236114 -16.605715 26.855834 0.349936 2.237410 0.055558 -0.055401 -63764.500000 0 0 1
20.525373 6.000414 -15.981015 26.696231 0.284416 2.212579 0.057800 -0.053228 -1634280.000000 0 0 1
21.666773 5.605114 -16.625715 27.879755 0.253147 2.209726 0.044486 -0.046388 -819604.000000 0 0 1
22.233773 4.561914 -15.883615 27.702725 0.202371 2.181397 0.066576 -0.050855 -692704.000000 0 0 1
23.557173 4.180814 -16.539915 29.085880 0.175646 2.175670 0.043201 -0.003565 -515095.000000 0 0 1
24.357673 3.381114 -15.688015 29.169196 0.137930 2.138655 0.046382 -0.011995 -412316.000000 0 0 1
25.448073 2.873814 -16.372315 30.395985 0.112452 2.139611 0.048422 -0.021458 -230125.000000 0 0 1
26.337373 1.860814 -15.568715 30.651342 0.070536 2.103576 0.060627 -0.029331 121384.000000 0 0 1
25.834573 0.561914 -15.556315 30.161894 0.021747 2.112691 0.071336 -0.021756 -333689.000000 0 0 1
26.878573 -0.362386 -15.484815 31.022065 -0.013482 2.093420 0.054627 -0.017384 -455257.000000 0 0 1
26.431073 -1.776986 -15.717115 30.802386 -0.067130 2.106279 0.044348 -0.017904 -384345.000000 0 0 1
25.734473 -2.373686 -14.653415 29.708922 -0.091977 2.086598 0.058263 -0.020965 250092.000000 0 0 1
25.589173 -3.754886 -14.936915 29.866643 -0.145698 2.094534 0.051673 -0.014603 -744190.000000 0 0 1
25.001773 -4.499886 -13.708315 28.866166 -0.178076 2.065638 0.060406 -0.020834 633975.000000 0 0 1
23.601973 -4.484186 -13.431015 27.523685 -0.187754 2.080571 0.072240 -0.014583 664999.000000 0 0 1
22.848773 -5.256186 -14.355715 27.491462 -0.226109 2.120211 0.082773 -0.011661 277916.000000 0 0 1
21.336573 -5.365386 -13.943415 26.047179 -0.246356 2.135676 0.098765 -0.011987 567723.000000 0 0 1
21.118973 -6.322886 -12.911115 25.547736 -0.290900 2.100610 0.105758 -0.015642 317919.000000 0 0 1
20.863373 -5.673286 -11.693715 24.580673 -0.265506 2.066588 0.114706 -0.021904 -393064.000000 0 1 0
20.599973 -6.684486 -10.544215 24.087792 -0.313771 2.023881 0.113015 -0.023452 96207.500000 0 1 0
19.373273 -7.406986 -10.519815 23.256261 -0.365182 2.040187 0.108726 -0.017532 755841.000000 0 1 0
19.378473 -8.406686 -11.564415 24.081804 -0.409314 2.071695 0.108286 -0.023375 -453313.000000 0 1 0
18.060973 -9.201486 -11.708015 23.408197 -0.471193 2.094588 0.125899 -0.022166 982797.000000 0 1 0
16.910473 -8.334386 -11.948615 22.320293 -0.457914 2.135689 0.101932 -0.017015 -200989.000000 0 1 0
15.782473 -9.039886 -12.255815 21.931963 -0.520164 2.163747 0.094762 -0.014905 237649.000000 0 1 0
14.530573 -8.049286 -12.448615 20.758048 -0.505875 2.213923 0.062924 -0.009819 905068.000000 0 1 0
14.523273 -7.194986 -13.624815 21.173778 -0.459969 2.269827 0.071845 -0.013058 289821.000000 0 1 0
15.589073 -6.275286 -13.640715 21.644111 -0.382697 2.252643 0.083123 -0.010940 -154771.000000 0 1 0
15.359373 -5.228886 -14.745315 21.924322 -0.328129 2.308452 0.067371 -0.008171 273588.000000 0 1 0
14.326273 -4.291486 -14.424715 20.778146 -0.291047 2.338139 0.070866 -0.008939 450823.000000 0 1 0
14.124673 -3.392186 -15.441215 21.200105 -0.235697 2.386715 0.072969 -0.010017 -51234.000000 0 1 0
15.150173 -2.245586 -15.640815 21.890763 -0.147150 2.366697 0.074683 -0.012900 255020.000000 0 1 0
16.329273 -2.638086 -16.353815 23.260523 -0.160172 2.350504 0.076489 -0.014297 409960.000000 0 1 0
17.382673 -1.721386 -16.227615 23.842315 -0.098707 2.319408 0.076910 -0.007177 25085.900000 0 1 0
18.438673 -1.965286 -15.126515 23.930284 -0.106184 2.255066 0.082819 -0.013761 -645424.000000 0 1 0
17.993773 -1.794386 -13.776015 22.732670 -0.099394 2.221820 0.083374 -0.012454 -169214.000000 0 1 0
18.901973 -2.188586 -12.788315 22.926306 -0.115273 2.162530 0.076597 -0.016125 -463992.000000 0 1 0
18.312773 -2.345186 -11.391715 21.693979 -0.127370 2.123640 0.073140 -0.014365 -443312.000000 0 1 0
18.089473 -1.142486 -10.701915 21.049116 -0.063074 2.104152 0.068384 -0.012975 633166.000000 0 1 0
17.555273 -1.377386 -9.419615 19.970327 -0.078300 2.061992 0.058580 -0.009590 -905894.000000 0 1 0
17.658573 -0.153786 -8.517815 19.606173 -0.008709 2.020219 0.057790 -0.008601 1006520.000000 0 1 0
19.019273 0.116214 -8.048715 20.652556 0.006110 1.971124 0.070050 -0.013945 1765730.000000 0 1 0
20.018873 0.607314 -8.866215 21.902828 0.030328 1.987554 0.070868 -0.008410 -747884.000000 0 1 0
19.749873 1.918414 -9.565115 22.027919 0.096832 2.019976 0.069481 -0.016910 -749031.000000 0 1 0
19.518973 3.027714 -8.725315 21.593714 0.153890 1.986755 0.061132 -0.009850 634543.000000 0 1 0
18.791073 4.060914 -9.364415 21.384287 0.212836 2.024070 0.048688 -0.026208 -350878.000000 0 1 0
18.771773 5.411314 -8.603115 21.346554 0.280660 1.985612 0.056173 -0.015816 -389073.000000 0 1 0
18.235073 6.519414 -9.271415 21.470440 0.343359 2.017309 0.063544 -0.023661 389658.000000 0 1 0
18.979473 7.721614 -9.076315 22.410337 0.386389 1.987781 0.107015 -0.018113 -101319.000000 0 1 0
-26.159947 -28.961126 5.726785 39.444717 0.836173 1.425096 0.066747 -0.001486 81044.000000 0 0 1
-26.503887 -27.925316 6.667885 39.073520 0.811507 1.399307 0.063128 -0.007663 795652.000000 0 0 1
-25.504717 -26.855676 6.508185 37.604180 0.811194 1.396850 0.068478 -0.008333 661849.000000 0 0 1
-25.819097 -25.636416 7.362085 37.122121 0.781848 1.371152 0.060279 -0.016084 275005.000000 0 0 1
-26.982987 -24.862586 7.053885 37.362910 0.744523 1.380863 0.049669 -0.015372 1008520.000000 0 0 1
-28.271577 -25.352986 7.443185 38.696989 0.731025 1.377245 0.054836 -0.014742 646665.000000 0 0 1
-28.633327 -25.384636 8.949285 39.298052 0.725330 1.341052 0.046480 -0.009327 -917420.000000 0 0 1
-27.816457 -26.158336 9.727385 39.403500 0.754688 1.321351 0.033488 -0.010769 -625273.000000 0 0 1
-28.309417 -26.298836 11.061485 40.192142 0.748597 1.291983 0.034170 -0.016204 -164058.000000 0 0 1
-27.467197 -27.265326 11.923685 40.497150 0.781710 1.271934 0.028546 -0.005133 1146380.000000 0 0 1
-26.214247 -26.738586 12.406485 39.446921 0.795300 1.250855 0.036315 -0.006090 623203.000000 0 0 1
-26.429197 -26.037816 13.593685 39.512765 0.777939 1.219588 0.035006 -0.011222 -305314.000000 0 0 1
-25.153597 -25.405416 14.201185 38.468328 0.790379 1.192685 0.060254 -0.016382 283006.000000 0 0 1
-24.182427 -26.379846 14.524785 38.621955 0.828830 1.185239 0.083326 -0.014065 -194659.000000 0 0 1
-23.120327 -25.906666 15.335485 37.958951 0.842170 1.154909 0.092370 -0.023233 174108.000000 0 0 1
-22.306027 -27.060546 15.879985 38.496830 0.881413 1.145598 0.086880 -0.030395 61126.700000 0 0 1
-23.090227 -27.739016 16.886985 39.846980 0.876603 1.133164 0.076295 -0.023948 594965.000000 0 0 1
-22.350527 -28.768006 17.524385 40.425837 0.910286 1.122429 0.089052 -0.018396 -146590.000000 0 0 1
-23.173227 -29.712216 18.430985 41.946578 0.908418 1.115875 0.083529 -0.023302 -153706.000000 0 0 1
-24.184927 -30.397446 17.728985 42.699325 0.898730 1.142628 0.043493 -0.017730 139144.000000 0 0 1
-24.619827 -31.495126 18.497585 44.048150 0.907312 1.137417 0.044413 -0.017376 -770743.000000 0 0 1
-25.576117 -32.335706 17.683285 44.860163 0.901594 1.165613 0.034126 -0.021700 -199632.000000 0 0 1
-24.856527 -33.099096 16.720785 44.642824 0.926673 1.186889 0.028486 -0.020071 228821.000000 0 0 1
-25.771667 -33.776326 15.920685 45.370555 0.919021 1.212261 0.026051 -0.013853 -702087.000000 0 0 1
-25.141027 33.764876 14.671285 44.580093 -0.930766 1.235447 0.031549 -0.022417 -312938.000000 0 0 1
-24.210727 32.768239 14.979985 43.408717 -0.934471 1.218460 0.018558 -0.022600 666771.000000 0 0 1
-22.897027 33.372858 14.937385 43.141012 -0.969462 1.217230 0.033723 -0.025419 1212910.000000 0 0 1
-21.668827 32.351960 14.942185 41.706789 -0.980639 1.204385 0.060731 -0.035206 951729.000000 0 0 1
-21.696827 31.623237 13.745485 40.739658 -0.969458 1.226645 0.057149 -0.021703 113796.000000 0 0 1
-20.627027 30.699037 13.639185 39.419950 -0.979172 1.217495 0.057159 -0.027385 132715.000000 0 0 1
-20.658927 29.943327 12.313485 38.405937 -0.966858 1.244419 0.050786 -0.021656 -51443.100000 0 0 1
-20.216327 30.805327 11.276385 38.533425 -0.990032 1.273811 0.044641 -0.013756 -10132.300000 0 0 1
-20.316227 30.151707 10.031985 37.716246 -0.977871 1.301570 0.044409 -0.010102 63781.100000 0 0 1
-19.795927 31.058467 8.901485 37.891206 -1.003347 1.333658 0.041139 -0.006728 546294.000000 0 0 1
-18.373427 31.043557 8.766085 37.123166 -1.036384 1.332410 0.039496 -0.011303 243187.000000 0 0 1
-17.932527 31.526677 7.521085 37.041512 -1.053630 1.366330 0.063664 -0.014389 -6287.560000 0 0 1
-17.382027 30.498407 6.538285 35.707658 -1.052779 1.386651 0.052235 -0.017497 574119.000000 0 0 1
-18.419927 29.577217 6.108585 35.375419 -1.013799 1.397248 0.031007 -0.013316 834798.000000 0 0 1
-18.368727 28.340777 6.806985 34.452065 -0.995731 1.371909 0.014208 -0.008504 290322.000000 0 0 1
-19.385327 27.332897 6.177485 34.074029 -0.953902 1.388492 0.005987 -0.004629 53635.700000 0 0 1
-18.944327 26.784467 4.964085 33.180375 -0.955196 1.420623 0.009247 -0.012800 -25189.800000 0 0 1
-19.943727 25.989297 4.399885 33.053816 -0.916263 1.437287 0.019934 -0.015371 -1005670.000000 0 0 1
-19.464927 25.160437 3.196485 31.971057 -0.912341 1.470648 0.036897 -0.020818 -1342660.000000 0 0 1
-19.069827 25.835597 2.029485 32.175381 -0.934940 1.507679 0.040741 -0.024864 102551.000000 0 0 1
-17.908827 26.656707 2.021485 32.177515 -0.979226 1.507932 0.028816 -0.020204 113306.000000 0 0 1
-16.579527 25.849427 2.264585 30.792887 -1.000499 1.497187 0.025160 -0.019552 -515605.000000 0 0 1
-16.288727 24.732127 1.472485 29.650783 -0.988395 1.521115 0.044250 -0.024847 -76383.300000 0 0 1
-16.182727 25.013267 0.076385 29.791777 -0.996557 1.568232 0.052034 -0.027141 -436392.000000 0 0 1
-15.938427 23.758297 -0.813015 28.620816 -0.979898 1.599207 0.055065 -0.029246 118357.000000 0 0 1
-16.994327 22.805207 -0.877815 28.454440 -0.930377 1.601651 0.061657 -0.036656 238512.000000 0 0 1
-16.729827 21.741207 -1.776415 27.490413 -0.914932 1.635461 0.058830 -0.036319 931367.000000 0 0 1
-15.616327 20.654907 -1.297315 25.926393 -0.923429 1.620856 0.063414 -0.039950 1183890.000000 0 0 1
-16.032927 19.815707 -0.265915 25.490933 -0.890530 1.581228 0.068467 -0.038621 -290268.000000 0 0 1
-14.944627 19.012107 0.025685 24.182695 -0.904614 1.569734 0.073131 -0.034920 -673099.000000 0 1 0
-15.388927 17.832907 0.843885 23.569976 -0.858831 1.534985 0.051710 -0.028410 -142897.000000 0 1 0
-16.226127 16.920407 0.185485 23.444013 -0.806341 1.562884 0.048658 -0.025678 142426.000000 0 1 0
-16.795527 16.061207 1.149285 23.267422 -0.763053 1.521382 0.050793 -0.036578 248694.000000 0 1 0
-17.566827 14.866207 0.433185 23.017062 -0.702322 1.551975 0.059271 -0.034107 -277450.000000 0 1 0
-18.621527 15.259007 -0.383215 24.077903 -0.686476 1.586713 0.092511 -0.038897 -21427.100000 0 1 0
-19.536727 14.196907 -0.566915 24.156930 -0.628407 1.594266 0.096220 -0.032093 -120954.000000 0 1 0
-20.591427 14.343207 -1.722115 25.153531 -0.608415 1.639314 0.100932 -0.026665 -469704.000000 0 0 1
-21.312327 13.131107 -2.090915 25.119975 -0.552193 1.654130 0.092272 -0.034989 872699.000000 0 0 1
-22.193827 12.573707 -1.135815 25.533392 -0.515454 1.615295 0.101256 -0.035438 -1114000.000000 0 0 1
-23.407127 13.431807 -0.787515 26.998652 -0.520958 1.599969 0.106638 -0.034641 -1592860.000000 0 0 1
-23.218627 14.728207 -0.284315 27.497373 -0.565278 1.581136 0.105519 -0.037705 87831.000000 0 0 1
-24.461927 15.255407 0.133285 28.829344 -0.557620 1.566173 0.083357 -0.032854 -11187.500000 0 0 1
-24.181227 16.536107 0.894385 29.308266 -0.599798 1.540275 0.070519 -0.034638 37233.400000 0 0 1
-23.830227 16.293407 2.228385 28.953765 -0.599722 1.493757 0.075349 -0.037638 177908.000000 0 0 1
-23.368627 17.386907 2.988985 29.280220 -0.639668 1.468536 0.065395 -0.040607 128852.000000 0 0 1
-24.448527 18.504107 3.257585 30.834142 -0.647877 1.464950 0.068122 -0.039014 273942.000000 0 0 1
-25.321837 18.016707 4.329085 31.377350 -0.618408 1.432386 0.076496 -0.037778 1262250.000000 0 0 1
-26.588807 18.688707 4.414385 32.798158 -0.612655 1.435794 0.070541 -0.036733 1410800.000000 0 0 1
-27.612727 18.471207 3.237085 33.378539 -0.589574 1.473663 0.090959 -0.026381 -564080.000000 0 0 1
-28.888557 19.034107 3.379885 34.760172 -0.582593 1.473408 0.086932 -0.020609 183496.000000 0 0 1
-29.671727 18.676607 2.243285 35.132027 -0.561787 1.506900 0.088272 -0.013162 1567280.000000 0 0 1
-31.103777 19.350107 2.013585 36.686865 -0.556522 1.515883 0.091237 -0.020589 1343860.000000 0 0 1
-32.106367 19.144307 2.955985 37.497481 -0.537678 1.491883 0.123850 -0.017177 213121.000000 0 0 1
-33.219707 20.011807 2.765985 38.880226 -0.542188 1.499595 0.114339 -0.017441 310374.000000 0 0 1
-33.795137 20.646807 4.043885 39.808980 -0.548425 1.469039 0.090844 -0.020207 -699996.000000 0 0 1
-32.949127 21.556807 4.618685 39.644333 -0.579354 1.454028 0.094145 -0.025576 -289333.000000 0 0 1
-33.357037 21.879907 5.925285 40.330277 -0.580533 1.423344 0.082453 -0.024839 -184388.000000 0 0 1
-32.469757 22.970707 6.561585 40.311200 -0.615708 1.407296 0.097061 -0.030602 -221131.000000 0 0 1
-32.637737 24.212927 5.938185 41.070059 -0.638277 1.425701 0.080763 -0.022018 119362.000000 0 0 1
-31.609157 25.094757 6.317285 40.850871 -0.671015 1.415531 0.067288 -0.021895 -294724.000000 0 0 1
-31.866437 26.566477 6.080085 41.931073 -0.694944 1.425281 0.063086 -0.016732 22682.600000 0 0 1
-32.946667 26.956607 6.923785 43.128648 -0.685734 1.409561 0.078746 -0.008113 295146.000000 0 0 1
-33.317567 28.279497 6.669885 44.207212 -0.703789 1.419340 0.059205 -0.000473 104473.000000 0 0 1
-34.375565 28.750407 7.700385 45.470444 -0.696523 1.400627 0.057644 0.003655 -119343.000000 0 0 1
-33.729667 29.059197 8.948685 45.411522 -0.711151 1.372441 0.064469 -0.011091 468268.000000 0 0 1
-34.562829 29.577757 9.969785 46.570693 -0.707833 1.355048 0.068547 -0.005428 385490.000000 0 0 1
-35.704498 28.642437 10.570185 46.977965 -0.676086 1.343850 0.061092 -0.000779 529868.000000 0 0 1
-35.362887 27.418117 11.229985 46.134580 -0.659520 1.324908 0.071795 -0.003369 194314.000000 0 0 1
-36.505847 26.699947 11.686885 46.713459 -0.631483 1.317928 0.077905 -0.008892 212308.000000 0 0 1
-36.010635 25.432617 12.388985 45.793785 -0.614910 1.296844 0.111094 -0.014133 54316.100000 0 0 1
-35.040646 25.817117 13.336685 45.521836 -0.634984 1.273461 0.135653 -0.027877 -337172.000000 0 0 1
-34.505396 24.682907 13.937485 44.655590 -0.620944 1.253382 0.153224 -0.028425 739755.000000 0 0 1
-33.203317 25.004627 14.783285 44.116178 -0.645467 1.229086 0.146008 -0.035591 764704.000000 0 0 1
-33.505687 25.848887 15.851985 45.189395 -0.657106 1.212382 0.132477 -0.036280 -282725.000000 0 0 1
-32.352907 26.302017 16.503785 44.842854 -0.682601 1.193900 0.147478 -0.026501 -332659.000000 0 0 1
-32.694237 27.489017 17.449085 46.141410 -0.699123 1.182983 0.133531 -0.027217 48160.100000 0 0 1
-32.679137 28.667687 16.686785 46.564053 -0.720101 1.204284 0.136263 -0.022267 -36643.000000 0 0 1
-33.022927 29.828747 17.404685 47.782747 -0.734621 1.197973 0.113839 -0.019409 14971.900000 0 0 1
-32.676727 31.100377 16.632285 48.079463 -0.760687 1.217563 0.099381 -0.009704 147089.000000 0 0 1
-31.296837 31.364637 16.505885 47.282943 -0.786480 1.214199 0.083082 -0.008200 -303465.000000 0 0 1
-31.093167 32.601262 15.786685 47.737267 -0.809071 1.233752 0.063414 0.007151 329919.000000 0 0 1
-29.603297 32.875952 15.395785 46.842433 -0.837730 1.235899 0.074473 -0.004226 772341.000000 0 0 1
-29.029827 32.199029 14.274085 45.642719 -0.837112 1.252725 0.065228 -0.007602 154887.000000 0 0 1
-28.693477 30.795467 14.464985 44.507439 -0.820718 1.239783 0.067743 -0.009916 -47130.100000 0 0 1
-29.825117 29.829327 14.047985 44.459782 -0.785469 1.249317 0.103658 -0.015653 103506.000000 0 0 1
-29.880497 29.663317 12.704185 43.979004 -0.781751 1.277751 0.115833 -0.024340 -295728.000000 0 0 1
-30.938737 28.893927 12.192785 44.053699 -0.751236 1.290364 0.116515 -0.027492 8928.370000 0 0 1
-30.845807 28.667297 10.644285 43.434761 -0.748809 1.323211 0.107610 -0.019978 340582.000000 0 0 1
-29.774397 27.767167 10.362785 42.010922 -0.750529 1.321555 0.089808 -0.010657 105064.000000 0 0 1
-29.710707 27.662057 8.977385 41.575340 -0.749706 1.353152 0.085401 -0.012374 366246.000000 0 0 1
-28.488907 26.870217 8.419585 40.056407 -0.756167 1.359024 0.093812 -0.015372 441375.000000 0 0 1
-28.322867 27.234037 7.018685 39.914151 -0.765802 1.394033 0.083354 -0.024259 -316574.000000 0 0 1
-27.074807 26.779437 6.572985 38.644372 -0.779914 1.399876 0.062309 -0.022185 -575418.000000 0 0 1
-26.882457 27.089267 5.085385 38.501377 -0.789230 1.438326 0.064102 -0.025138 -308884.000000 0 0 1
-26.690057 28.421197 4.842285 39.288310 -0.816800 1.447232 0.058104 -0.026863 118864.000000 0 0 1
-26.343607 28.635067 3.473885 39.064313 -0.827053 1.481751 0.056259 -0.025434 -744389.000000 0 0 1
-25.234267 29.637767 3.214885 39.057661 -0.865477 1.488392 0.041110 -0.027114 -817732.000000 0 0 1
-24.006227 28.955067 3.352885 37.761576 -0.878570 1.481888 0.037066 -0.025551 -1115290.000000 0 0 1
-23.047227 29.938587 3.183885 37.916102 -0.914733 1.486725 0.041817 -0.030232 -700413.000000 0 0 1
-21.607127 29.400467 3.126085 36.620046 -0.937013 1.485327 0.034545 -0.029738 22966.500000 0 0 1
-20.672527 30.246747 2.507385 36.722010 -0.971256 1.502463 0.037620 -0.024756 -1850020.000000 0 0 1
-19.404027 29.838727 2.765585 35.700341 -0.994213 1.493252 0.047999 -0.024281 -1051520.000000 0 0 1
-18.326327 30.854087 2.287485 35.959164 -1.034824 1.507140 0.038380 -0.030528 204416.000000 0 0 1
-18.139427 32.020727 3.096685 36.931764 -1.055381 1.486849 0.053128 -0.032759 592438.000000 0 0 1
-16.887627 32.668044 2.801585 36.881457 -1.093684 1.494761 0.067866 -0.026164 582197.000000 0 0 1
-16.587427 33.918665 3.659585 37.934300 -1.115959 1.474174 0.068317 -0.033216 -4196.600000 0 0 1
-17.259027 -33.091736 3.357585 37.472795 1.090057 1.481075 0.071963 -0.037864 199576.000000 0 0 1
-16.834127 -32.140356 4.342385 36.541027 1.088315 1.451679 0.086646 -0.024702 32840.400000 0 0 1
-17.912727 -31.099016 4.673085 36.191882 1.048218 1.441315 0.091487 -0.016448 -113409.000000 0 0 1
-18.247627 -30.222556 3.632485 35.490474 1.027606 1.468266 0.075611 -0.013484 -398408.000000 0 0 1
-19.223527 -29.339786 4.077585 35.312798 0.990772 1.455068 0.081434 -0.012265 -529891.000000 0 0 1
-19.818827 -28.346356 3.026985 34.719799 0.960630 1.483502 0.051216 -0.017350 -378145.000000 0 0 1
-18.878327 -27.444816 2.561385 33.409128 0.968261 1.494054 0.050730 -0.020152 -456251.000000 0 0 1
-19.475027 -26.411256 1.733985 32.860886 0.935424 1.518004 0.028505 -0.011837 149273.000000 0 0 1
-18.603527 -25.152286 1.738485 31.332907 0.933961 1.515284 0.053104 -0.009049 -50003.300000 0 0 1
-17.363727 -25.449766 1.160785 30.830780 0.972066 1.533137 0.084266 -0.013075 -1145680.000000 0 0 1
-16.438027 -24.408286 1.263585 29.454538 0.978105 1.527884 0.095566 -0.016836 199183.000000 0 0 1
-15.126227 -24.791786 0.521485 29.046641 1.022961 1.552842 0.098646 -0.024780 -114586.000000 0 0 1
-15.298727 -24.940486 -0.881715 29.272108 1.020575 1.600922 0.082959 -0.019294 68261.500000 0 0 1
-15.401827 -23.712286 -1.573115 28.318960 0.994752 1.626375 0.103803 -0.026025 -187787.000000 0 0 1
-15.445627 -23.950286 -3.117615 28.668853 0.998012 1.679758 0.058268 -0.021491 436519.000000 0 0 1
-14.204727 -24.323486 -3.721915 28.412302 1.042230 1.702171 0.086497 -0.022913 433348.000000 0 0 1
-14.330527 -24.309786 -5.155915 28.686463 1.038136 1.751512 0.064783 -0.017482 -15810.800000 0 0 1
-13.145927 -24.959886 -5.871515 28.814684 1.086032 1.776002 0.081060 -0.025130 -23677.300000 0 0 1
-13.160927 -26.384206 -5.889315 30.066931 1.108094 1.767944 0.051835 -0.027643 229712.000000 0 0 1
-11.954127 -26.771606 -6.551015 30.042234 1.150838 1.790623 0.066812 -0.018716 511259.000000 0 0 1
23.039773 12.284514 28.152456 38.396630 0.489844 0.747779 0.018583 -0.001361 -327604.000000 0 0 1
23.848573 11.141214 28.322236 38.665619 0.437036 0.748822 0.019424 -0.006008 191028.000000 0 0 1
23.458673 10.245914 29.343396 38.939992 0.411793 0.717344 0.031200 -0.011153 -287505.000000 0 0 1
23.639073 10.764014 30.803306 40.292846 0.427293 0.700553 0.045634 -0.014289 813638.000000 0 0 1
22.517773 11.538414 31.272766 40.226496 0.473529 0.680247 0.031541 0.000500 863557.000000 0 0 1
22.994373 12.299114 32.342326 41.545582 0.491157 0.678559 0.040433 -0.006401 -32819.400000 0 0 1
21.990973 13.405914 32.770483 41.680043 0.547456 0.666097 0.036789 -0.001577 242799.000000 0 0 1
20.810073 12.762214 33.244807 41.245005 0.550120 0.633379 0.062134 -0.002952 30164.200000 0 0 1
20.039973 13.702714 33.946278 41.733855 0.599749 0.620825 0.062628 0.002019 -447508.000000 0 0 1
18.858373 13.131614 -33.445595 40.579371 0.608257 2.539588 0.065689 0.004951 -1112910.000000 0 0 1
17.760673 12.850714 33.977485 40.435774 0.626356 0.572992 0.056660 0.005364 -943203.000000 0 0 1
16.829673 12.069514 -33.511105 39.394228 0.622148 2.588036 0.042221 0.000861 136925.000000 0 0 1
15.429573 11.979514 34.007097 39.218148 0.660184 0.521392 0.029803 0.003069 354484.000000 0 0 1
15.303873 11.013114 33.019012 38.023050 0.623779 0.518841 0.031462 0.006563 439874.000000 0 0 1
13.957873 10.849214 32.562819 37.052190 0.660735 0.497378 0.038113 0.001687 549616.000000 0 0 1
13.844473 9.792714 31.481486 35.758224 0.615633 0.494095 0.043062 0.001581 -1388.360000 0 0 1
14.186973 8.485614 31.992276 36.010853 0.539041 0.476934 0.021148 -0.004023 104474.000000 0 0 1
14.711073 7.624214 31.008606 35.157900 0.478152 0.490747 0.019958 -0.019953 -161632.000000 0 0 1
15.123973 6.211814 31.480296 35.472950 0.389719 0.479024 0.046823 -0.022508 -563095.000000 0 0 1
14.187473 5.205714 31.687496 35.106712 0.351671 0.445013 0.040840 -0.019980 -890992.000000 0 0 1
14.736073 3.999214 32.113746 35.558940 0.265006 0.443831 0.037730 -0.024514 -330468.000000 0 0 1
13.691573 2.878014 32.354441 35.249850 0.207187 0.408141 0.023101 -0.015258 -487530.000000 0 0 1
14.219373 1.628314 32.684714 35.680982 0.114017 0.412738 0.025501 -0.017655 -108851.000000 0 0 1
13.180473 0.796914 33.140914 35.674642 0.060388 0.379158 0.028727 -0.015691 -110343.000000 0 0 1
13.765273 -0.598786 33.594598 36.310305 -0.043472 0.389212 0.013238 -0.017813 141379.000000 0 0 1
14.260173 -1.438086 32.561445 35.576232 -0.100507 0.414648 0.015485 -0.018160 130575.000000 0 0 1
14.541173 -2.738086 33.053104 36.213954 -0.186120 0.420910 0.033125 -0.027494 -297226.000000 0 0 1
15.076673 -3.696286 31.950806 35.522142 -0.240424 0.452260 0.039201 -0.025564 -1377670.000000 0 0 1
15.275473 -5.077886 32.403108 36.181299 -0.320929 0.461072 0.045765 -0.028401 54634.300000 0 0 1
16.478973 -5.406286 33.068059 37.340072 -0.317008 0.483030 0.031844 -0.031437 953694.000000 0 0 1
17.830573 -5.031786 32.313906 37.248311 -0.275048 0.520588 0.039973 -0.031187 21888.700000 0 0 1
18.080673 -3.621686 32.432483 37.308086 -0.197691 0.516981 0.039499 -0.030900 -134965.000000 0 0 1
18.861773 -3.031586 31.414996 36.767634 -0.159364 0.546363 0.066469 -0.037639 -233849.000000 0 0 1
18.881473 -1.475686 31.277536 36.564626 -0.077997 0.544466 0.070838 -0.041801 -217927.000000 0 0 1
19.553573 -0.859886 32.361803 37.820205 -0.043948 0.543943 0.045626 -0.037407 8521.260000 0 0 1
19.346873 0.528814 32.444757 37.778875 0.027327 0.537860 0.035923 -0.028630 69006.300000 0 0 1
20.305973 1.464414 31.640036 37.624047 0.071993 0.571755 0.073859 -0.033367 -269525.000000 0 0 1
20.341973 1.269514 30.207376 36.440267 0.062328 0.593558 0.075116 -0.032557 50220.100000 0 0 1
21.311273 2.035314 29.515296 36.461837 0.095215 0.627523 0.071400 -0.027456 15961.000000 0 0 1
21.072673 3.565614 29.465656 36.400495 0.167618 0.627522 0.077915 -0.025010 -406146.000000 0 0 1
20.855673 4.183614 30.704096 37.352419 0.197971 0.605863 0.078147 -0.030284 471932.000000 0 0 1
20.203073 5.460714 30.651016 37.114260 0.263983 0.599079 0.074653 -0.032387 -211574.000000 0 0 1
19.766473 5.847714 32.100486 38.149055 0.287636 0.570837 0.073035 -0.023400 79080.200000 0 0 1
18.674173 5.098714 32.604271 37.917807 0.266539 0.535787 0.070720 -0.014005 238617.000000 0 0 1
18.377373 5.572214 33.887713 38.950667 0.294400 0.515561 0.056143 -0.008182 -195559.000000 0 0 1
17.297173 4.795614 -33.560445 38.059080 0.270455 2.650459 0.061484 -0.008702 -328267.000000 0 0 1
17.696473 3.426914 -33.449885 37.997417 0.191282 2.647333 0.042090 -0.006257 -154697.000000 0 0 1
16.697573 2.664014 -32.857295 36.952777 0.158212 2.666324 0.030420 -0.004022 -351120.000000 0 0 1
16.756573 1.125614 -33.070945 37.090931 0.067074 2.671703 0.021024 -0.006175 -578856.000000 0 0 1
17.720573 0.556614 -32.252795 36.804501 0.031400 2.638981 0.011625 -0.008723 -420973.000000 0 0 1
17.900273 -0.771086 -32.508125 37.118628 -0.043050 2.637866 0.019448 -0.010032 -316541.000000 0 0 1
18.886073 -1.441186 -31.536035 36.786985 -0.076162 2.600722 0.025570 -0.014877 -427644.000000 0 0 1
18.571073 -1.550986 -30.155395 35.449093 -0.083323 2.588050 0.024203 -0.018895 233758.000000 0 0 1
18.290373 -0.364986 -29.453315 34.672305 -0.019952 2.585789 0.008879 -0.004379 -221201.000000 0 0 1
18.108973 -0.526186 -27.968495 33.323393 -0.029048 2.566800 0.018499 -0.005923 290674.000000 0 0 1
16.804773 -0.974886 -27.607705 32.334752 -0.057947 2.594055 0.032888 -0.011162 283334.000000 0 0 1
16.550473 -1.371886 -26.247615 31.060224 -0.082702 2.577465 0.032299 -0.010806 -363395.000000 0 0 1
17.504973 -2.326186 -25.512205 31.027533 -0.132113 2.536139 0.042770 -0.012691 -84203.600000 0 0 1
18.782973 -1.772186 -25.175485 31.460225 -0.094072 2.498479 0.038482 -0.009664 962046.000000 0 0 1
19.844273 -2.747686 -25.115405 32.126757 -0.137588 2.468279 0.038918 -0.012919 853250.000000 0 0 1
20.416173 -3.214986 -26.485115 33.594904 -0.156190 2.478946 0.047879 -0.017683 -833342.000000 0 0 1
21.443573 -2.350086 -26.888695 34.472477 -0.109158 2.465470 0.042241 -0.015295 -410750.000000 0 0 1
21.874873 -2.835786 -28.143915 35.757960 -0.128918 2.476836 0.045794 -0.018287 -682383.000000 0 0 1
23.278373 -2.382986 -28.515065 36.887264 -0.102014 2.454405 0.039762 -0.023323 -533166.000000 0 0 1
24.269973 -3.170386 -27.875905 37.096483 -0.129894 2.421043 0.046239 -0.030631 -505213.000000 0 0 1
25.531473 -2.731886 -28.290155 38.205395 -0.106595 2.404574 0.042479 -0.028721 -195234.000000 0 0 1
26.734573 -3.527386 -27.722355 38.674395 -0.131183 2.370019 0.051525 -0.027898 -34189.900000 0 0 1
26.810273 -4.821686 -28.390655 39.345504 -0.177943 2.376868 0.066021 -0.037604 -13411.200000 0 0 1
27.927573 -5.621286 -28.089145 40.006853 -0.198627 2.349150 0.063618 -0.035689 -231065.000000 0 0 1
27.807373 -6.716186 -27.006885 39.341187 -0.236987 2.327432 0.057220 -0.027813 -282044.000000 0 0 1
27.825573 -6.051886 -25.766675 38.403247 -0.214158 2.306286 0.046120 -0.019887 330105.000000 0 0 1
27.449173 -6.987486 -24.755215 37.617851 -0.249267 2.289050 0.031130 -0.018616 -280784.000000 0 0 1
27.605273 -6.402786 -23.334715 36.709068 -0.227911 2.259668 0.021772 -0.009464 -538810.000000 0 0 1
28.949473 -6.161586 -23.029215 37.501758 -0.209710 2.232021 0.016581 -0.006507 -96663.000000 0 0 1
29.067173 -5.590886 -21.730915 36.720447 -0.190023 2.204078 0.024962 -0.016273 -1667710.000000 0 0 1
30.500973 -5.305386 -21.493215 37.688390 -0.172218 2.177652 0.032695 -0.009678 -1872530.000000 0 0 1
30.979073 -4.220786 -22.231315 38.363386 -0.135413 2.188903 0.041508 -0.015785 -139652.000000 0 0 1
32.252273 -3.839586 -21.757415 39.093946 -0.118491 2.161014 0.046411 -0.012461 226772.000000 0 0 1
32.704573 -2.523986 -22.503015 39.778704 -0.077023 2.172084 0.051991 -0.017201 -73029.900000 0 0 1
31.815573 -1.502586 -22.198915 38.823708 -0.047193 2.179479 0.044263 -0.020284 58422.100000 0 0 1
32.245773 -0.255886 -22.744115 39.460742 -0.007935 2.185080 0.057854 -0.021724 313046.000000 0 0 1
31.197273 0.820114 -22.310415 38.362704 0.026282 2.191448 0.054526 -0.023000 -468180.000000 0 0 1
30.106873 0.771314 -23.135915 37.977484 0.025614 2.225849 0.039329 -0.021350 -569454.000000 0 0 1
29.055073 1.652114 -22.767515 36.949783 0.056800 2.234673 0.035030 -0.015359 910380.000000 0 0 1
27.806873 1.668614 -23.741315 36.601318 0.059935 2.276601 0.030085 -0.013759 183532.000000 0 0 1
26.840573 2.588914 -23.352415 35.671475 0.096158 2.284519 0.022213 -0.005955 -832269.000000 0 0 1
25.993773 2.759314 -24.448215 35.791134 0.105757 2.322768 0.021093 -0.006453 -919525.000000 0 0 1
24.969273 3.820514 -24.089915 34.905371 0.151831 2.332492 0.022668 -0.001603 -559692.000000 0 0 1
25.523473 5.069114 -23.734915 35.220588 0.196055 2.310262 0.022356 -0.000044 78055.800000 0 0 1
24.453973 5.962914 -23.530515 34.456324 0.239175 2.322533 0.029774 -0.004474 -298523.000000 0 0 1
24.894173 7.331214 -22.961115 34.650820 0.286399 2.295138 0.039227 -0.005874 -770814.000000 0 0 1
25.746073 8.004014 -23.836415 35.987487 0.301411 2.294751 0.044505 -0.007686 -7602.250000 0 0 1
25.956673 9.342914 -23.387615 36.166552 0.345505 2.273999 0.056676 -0.013016 -346828.000000 0 0 1
26.768773 10.130214 -24.428215 37.628794 0.361778 2.277315 0.084800 -0.010691 -188113.000000 0 0 1
26.209173 10.454414 -25.717245 38.178426 0.379544 2.309874 0.087104 -0.017401 567018.000000 0 0 1
25.059473 11.313914 -25.629245 37.587765 0.424086 2.321086 0.087040 -0.017098 512306.000000 0 0 1
24.539173 11.765914 -26.992835 38.330417 0.447093 2.352112 0.081008 -0.014400 -77449.600000 0 0 1
24.033473 10.771914 -27.897115 38.365231 0.421360 2.384951 0.073648 -0.014410 438613.000000 0 0 1
25.008473 9.868614 -28.403135 39.109479 0.375852 2.383643 0.066697 -0.015491 355663.000000 0 0 1
25.887773 10.303314 -29.649135 40.686684 0.378780 2.387245 0.073560 -0.016551 -421733.000000 0 0 1
26.799073 11.304514 -29.218755 41.227636 0.399178 2.358475 0.071138 -0.005848 344201.000000 0 0 1
27.637773 11.858614 -30.221855 42.636062 0.405315 2.358639 0.064346 0.005140 294136.000000 0 0 1
28.819673 10.989314 -30.696445 43.515633 0.364294 2.353800 0.054728 -0.005419 -637208.000000 0 0 1
28.316873 9.864114 -31.389825 43.410450 0.335202 2.379067 0.050288 -0.012997 315405.000000 0 0 1
29.207373 8.733314 -31.392105 43.758493 0.290549 2.370852 0.045190 -0.010049 245525.000000 0 0 1
28.816773 7.669214 -32.449995 44.070687 0.260108 2.398407 0.056088 -0.011589 160932.000000 0 0 1
27.605573 6.987014 -32.201005 42.985937 0.247896 2.417507 0.062864 -0.006689 105296.000000 0 0 1
27.326373 5.993814 -33.188075 43.406276 0.215922 2.441204 0.081102 -0.002193 360143.000000 0 0 1
26.090873 5.068314 -32.856555 42.260794 0.191867 2.461431 0.057538 -0.006142 938239.000000 0 0 1
24.818373 5.668514 -33.040355 41.710296 0.224548 2.485102 0.077945 -0.010281 265392.000000 0 0 1
24.290473 6.199614 -31.835375 40.521024 0.249893 2.474544 0.073550 -0.005872 -293977.000000 0 0 1
22.772873 6.452414 -31.857645 39.688121 0.276101 2.502605 0.058987 -0.010665 -128369.000000 0 0 1
22.379173 7.682914 -32.445435 40.156703 0.330699 2.511496 0.067553 -0.003409 431724.000000 0 0 1
20.981473 7.957114 -32.303305 39.332447 0.362487 2.534463 0.072447 -0.004907 682464.000000 0 0 1
20.464473 9.009414 -33.315965 40.123780 0.414713 2.550495 0.071216 -0.001951 -251385.000000 0 0 1
20.159073 8.489714 33.648182 40.133074 0.398593 0.576427 0.073210 -0.012481 -26020.000000 0 0 1
19.943973 9.606814 32.744880 39.525689 0.448893 0.594470 0.063713 -0.009762 1121370.000000 0 0 1
18.620473 9.463614 31.861446 38.097687 0.470216 0.580280 0.046199 -0.008898 1019150.000000 0 0 1
18.641573 8.573814 30.770626 36.984455 0.431081 0.588115 0.040223 -0.022249 175081.000000 0 0 1
19.654573 8.774214 29.777066 36.741839 0.419874 0.625893 0.054069 -0.020489 -155301.000000 0 0 1
19.415273 9.903814 28.754526 36.081312 0.471698 0.648589 0.041069 -0.016298 175776.000000 0 0 1
18.508673 9.575914 27.703136 34.666018 0.477450 0.644927 0.037330 -0.008623 1031020.000000 0 0 1
17.151973 9.891014 28.023696 34.312532 0.523088 0.615094 0.039573 -0.021062 310971.000000 0 0 1
15.955873 9.140114 27.434456 33.026973 0.520207 0.590490 0.049268 -0.019769 -612472.000000 0 0 1
15.847273 9.414714 26.044636 31.907616 0.536063 0.615904 0.049478 -0.012975 627693.000000 0 0 1
14.852673 8.667314 25.305666 30.595767 0.528238 0.596873 0.060927 -0.012157 311827.000000 0 0 1
14.932173 7.167114 25.288436 30.229824 0.447502 0.579860 0.052415 -0.007794 -325279.000000 0 0 1
14.676273 6.558714 26.537306 31.026413 0.420267 0.544641 0.039604 -0.014950 -36154.600000 0 0 1
14.801173 5.146514 26.544506 30.824862 0.334633 0.533289 0.046669 -0.018349 -199103.000000 0 0 1
15.204773 4.425914 27.789706 31.985021 0.283260 0.517952 0.032149 -0.027935 -558235.000000 0 0 1
16.568773 4.572214 28.098246 32.938439 0.269253 0.548987 0.040179 -0.022415 -31999.400000 0 0 1
16.962673 3.864714 29.258296 34.039920 0.224013 0.536449 0.048928 -0.028501 -345894.000000 0 0 1
17.429373 2.388414 28.970346 33.893487 0.136186 0.545734 0.064689 -0.024534 -121610.000000 0 0 1
16.391873 1.460114 28.647226 33.037690 0.088841 0.521431 0.058597 -0.031865 843180.000000 0 0 1
15.497573 1.014014 29.686186 33.503322 0.065337 0.482006 0.038348 -0.028317 292901.000000 0 0 1
15.359973 -0.536486 29.775466 33.508132 -0.034913 0.476503 0.042330 -0.023889 -251007.000000 0 0 1
14.588473 -1.104986 28.713836 32.226214 -0.075599 0.471234 0.040811 -0.019184 210008.000000 0 0 1
15.241173 -1.195686 27.486836 31.452331 -0.078291 0.507586 0.056959 -0.016500 114614.000000 0 0 1
16.514473 -2.150586 27.387766 32.053745 -0.129496 0.546338 0.062110 -0.012870 1224250.000000 0 0 1
17.710873 -1.738186 28.056306 33.224277 -0.097829 0.565255 0.065372 -0.020646 488448.000000 0 0 1
18.412273 -0.860686 27.159616 32.823731 -0.046711 0.596266 0.071766 -0.021050 -489014.000000 0 0 1
19.918673 -0.693486 27.457766 33.928798 -0.034802 0.627878 0.087177 -0.022922 344989.000000 0 0 1
20.809073 -1.556886 26.759516 33.933952 -0.074679 0.662306 0.081910 -0.019559 420091.000000 0 0 1
22.154473 -1.198786 27.037946 34.975824 -0.054058 0.687166 0.077489 -0.022686 946055.000000 0 0 1
23.300973 -1.853586 26.182536 35.098380 -0.079383 0.728798 0.080063 -0.018753 353307.000000 0 0 1
23.356273 -1.477386 24.790546 34.092071 -0.063170 0.756614 0.084276 -0.011233 74067.900000 0 0 1
22.464573 -2.213986 23.980016 32.933265 -0.098237 0.755192 0.090593 0.001085 -137555.000000 0 0 1
22.325873 -1.510986 22.583886 31.792445 -0.067576 0.780796 0.079325 -0.014221 -581551.000000 0 0 1
21.678973 -0.335786 22.748486 31.425853 -0.015488 0.761389 0.072798 -0.013371 -533900.000000 0 0 1
21.475173 0.414314 21.594086 30.457499 0.019290 0.782730 0.069581 -0.014874 -11279.100000 0 0 1
-30.492497 -27.311279 -10.159615 42.177199 0.730419 1.814068 0.029742 0.000619 73449.900000 0 0 1
-30.649147 -26.117179 -9.442315 41.359818 0.705732 1.801124 0.041011 0.003953 -130151.000000 0 0 1
-31.292427 -26.549679 -8.250315 41.858919 0.703586 1.769193 0.061916 -0.005197 -473126.000000 0 0 1
-31.555697 -25.315379 -7.300315 41.108697 0.676108 1.749329 0.087042 -0.013136 -194586.000000 0 0 1
-30.393177 -24.639779 -6.907615 39.731336 0.681232 1.745542 0.074054 -0.013113 -492261.000000 0 0 1
-29.587867 -25.292979 -5.914715 39.372078 0.707299 1.721593 0.076923 -0.013376 36529.600000 0 0 1
-28.402627 -24.393279 -5.552515 37.849329 0.709603 1.718028 0.067197 -0.006220 -512830.000000 0 0 1
-28.542457 -23.359179 -4.639715 37.173243 0.685861 1.695936 0.068490 -0.005587 4226.810000 0 0 1
-29.355087 -22.303579 -5.167015 37.227259 0.649735 1.710042 0.069252 -0.010791 90860.200000 0 0 1
-29.328087 -21.073279 -4.228215 36.360659 0.623058 1.687345 0.070956 -0.016607 -701034.000000 0 0 1
-28.180317 -20.295979 -4.228715 34.984840 0.624167 1.691965 0.069466 -0.016702 -494524.000000 0 0 1
-28.130457 -19.298979 -3.244715 34.268081 0.601304 1.665625 0.080474 -0.015888 257450.000000 0 0 1
-26.916567 -18.357379 -3.527315 32.770976 0.598550 1.678641 0.077970 -0.019219 373457.000000 0 0 1
-27.151847 -17.421379 -4.536815 32.577752 0.570467 1.710512 0.083146 -0.025468 236450.000000 0 0 1
-26.311467 -16.299779 -4.250315 31.241659 0.554630 1.707266 0.085176 -0.025875 327419.000000 0 0 1
-26.557447 -15.132579 -5.238315 31.011818 0.517922 1.740524 0.086291 -0.037436 425318.000000 0 0 1
-27.876337 -14.611379 -5.090315 31.882501 0.482780 1.731141 0.076569 -0.031034 448802.000000 0 0 1
-28.010837 -13.431179 -5.788315 31.599179 0.447113 1.755016 0.109867 -0.043547 323063.000000 0 0 1
-29.507917 -12.984079 -5.699815 32.738225 0.414524 1.745791 0.091483 -0.034881 717860.000000 0 0 1
-30.415007 -13.801779 -6.411215 34.009784 0.425994 1.760442 0.093326 -0.034394 445453.000000 0 0 1
-31.745607 -13.302179 -6.344115 34.999704 0.396798 1.753066 0.083311 -0.029921 442018.000000 0 0 1
-32.754617 -14.036579 -7.273815 36.370302 0.404863 1.772147 0.056617 -0.024604 4539.040000 0 0 1
-33.296577 -15.179679 -6.600515 37.184022 0.427744 1.749251 0.049247 -0.027349 67533.900000 0 0 1
-33.801917 -16.061579 -7.580415 38.183852 0.443585 1.770648 0.057647 -0.019346 -830317.000000 0 0 1
-34.725271 -17.128179 -7.022415 39.351407 0.458232 1.750211 0.038968 -0.025158 16796.400000 0 0 1
-36.052437 -16.790379 -6.659515 40.324238 0.435850 1.736706 0.029030 -0.027013 171344.000000 0 0 1
-36.223617 -15.920079 -5.598415 39.961751 0.414083 1.711353 0.040256 -0.029168 -526102.000000 0 0 1
35.486205 -15.780279 -5.232215 39.187549 -0.418427 1.704714 0.070611 -0.029590 -296544.000000 0 0 1
34.742135 -15.102579 -6.252515 38.395283 -0.410062 1.734371 0.070542 -0.036602 414943.000000 0 0 1
33.333305 -15.230179 -6.263515 37.179285 -0.428582 1.740071 0.082641 -0.035824 275125.000000 0 0 1
32.616195 -14.529579 -5.104715 36.069141 -0.419081 1.712799 0.102781 -0.034518 -1146930.000000 0 0 1
32.582885 -15.264579 -3.898615 36.191863 -0.438119 1.678727 0.097411 -0.029956 428649.000000 0 0 1
31.992375 -14.605379 -2.799515 35.279831 -0.428268 1.650232 0.115284 -0.030093 -1006930.000000 0 0 1
32.125705 -15.372279 -1.450215 35.643667 -0.446303 1.611494 0.112704 -0.027237 471843.000000 0 0 1
33.373825 -15.644679 -0.765415 36.866706 -0.438354 1.591560 0.122021 -0.024839 782564.000000 0 0 1
34.442485 -16.153179 -1.512615 38.072273 -0.438533 1.610537 0.102321 -0.023034 -1022520.000000 0 0 1
34.312585 -17.612079 -1.887715 38.614794 -0.474218 1.619702 0.092439 -0.029091 -751181.000000 0 0 1
34.841755 -18.509479 -0.870615 39.462725 -0.488329 1.592860 0.083437 -0.026555 461578.000000 0 0 1
34.622635 -19.909779 -1.188115 39.956699 -0.521873 1.600536 0.066649 -0.025745 382412.000000 0 0 1
35.623265 -20.501579 -2.245115 41.162754 -0.522218 1.625366 0.070987 -0.032012 138315.000000 0 0 1
35.344395 -20.112879 -3.595915 40.825051 -0.517354 1.658992 0.049726 -0.038970 -344745.000000 0 0 1
36.202585 -20.601779 -4.577115 41.904778 -0.517366 1.680241 0.077018 -0.038602 -667211.000000 0 0 1
35.949085 -19.904579 -5.960815 41.521805 -0.505670 1.714853 0.092039 -0.042369 950501.000000 0 0 1
34.624625 -19.996979 -6.528915 40.513832 -0.523738 1.732655 0.086107 -0.046918 1043250.000000 0 0 1
34.568285 -19.063879 -7.577215 40.197164 -0.503982 1.760432 0.083485 -0.050882 295819.000000 0 0 1
33.400985 -19.367579 -8.573615 39.550421 -0.525472 1.789308 0.103025 -0.056382 199342.000000 0 0 1
33.568795 -20.619679 -9.256915 40.468823 -0.550833 1.801581 0.114853 -0.055769 244217.000000 0 0 1
32.549845 -20.839379 -10.211515 39.975582 -0.569476 1.829103 0.114626 -0.060753 -439122.000000 0 0 1
32.607955 -22.246679 -10.794215 40.923203 -0.598712 1.837722 0.106510 -0.046874 -161986.000000 0 0 1
32.232375 -23.127679 -9.728315 40.846734 -0.622394 1.811274 0.100763 -0.043373 129488.000000 0 0 1
32.022515 -24.477779 -10.064315 41.543875 -0.652649 1.815488 0.075889 -0.026245 -430911.000000 0 0 1
31.245665 -25.288179 -9.031315 41.198886 -0.680407 1.791804 0.056970 -0.025759 -126270.000000 0 0 1
29.911645 -24.829379 -8.910815 39.882417 -0.692822 1.796125 0.053219 -0.024060 -627031.000000 0 0 1
29.119625 -25.846879 -8.387415 39.829166 -0.725928 1.782969 0.027593 -0.013923 -1419130.000000 0 0 1
27.756785 -25.249479 -8.208415 38.410329 -0.738131 1.786161 0.011079 -0.026777 -1300390.000000 0 0 1
27.142585 -25.039479 -9.464815 38.121885 -0.745117 1.821698 0.014337 -0.026639 -99723.300000 0 0 1
25.999285 -24.210879 -9.291815 36.721483 -0.749795 1.826612 0.034151 -0.033365 -43670.600000 0 0 1
25.181085 -23.785179 -10.499915 36.194889 -0.756898 1.865121 0.077823 -0.043024 -411293.000000 0 0 1
24.413985 -24.835579 -11.040115 36.533995 -0.793958 1.877783 0.074350 -0.038828 272304.000000 0 0 1
23.799285 -24.326879 -12.247515 36.169111 -0.796360 1.916244 0.095570 -0.022876 -45065.300000 0 0 1
22.841585 -25.357979 -12.865815 36.473200 -0.837559 1.931302 0.103279 -0.032772 -27777.100000 0 0 1
23.474585 -26.462379 -13.577215 37.890030 -0.845158 1.937277 0.105271 -0.025064 375644.000000 0 0 1
22.653585 -27.626779 -13.659815 38.249371 -0.883987 1.935985 0.107634 -0.012541 -51906.700000 0 0 1
23.381085 -28.856279 -14.205915 39.763903 -0.889831 1.936125 0.096634 -0.021625 -48690.600000 0 0 1
23.792285 -28.711479 -15.599615 40.419919 -0.878818 1.967022 0.108740 -0.015758 337286.000000 0 0 1
24.346985 -29.943979 -15.972515 41.767676 -0.888128 1.963203 0.099531 -0.010063 -198990.000000 0 0 1
24.389185 -30.113279 -17.511915 42.524217 -0.890039 1.995236 0.093316 -0.015641 342824.000000 0 0 1
23.088085 -30.400379 -18.013615 42.210580 -0.921264 2.011699 0.089505 -0.012086 429163.000000 0 0 1
23.084585 -30.518879 -19.439815 42.920932 -0.923210 2.040836 0.071333 -0.007368 197861.000000 0 0 1
21.642585 -30.388279 -19.998015 42.329299 -0.951928 2.062852 0.049247 0.000691 260277.000000 0 0 1
21.577185 -30.004079 -21.356615 42.684009 -0.947339 2.094790 0.035421 0.004734 -376050.000000 0 0 1
20.274585 -30.200979 -21.829215 42.422548 -0.979578 2.111298 0.043425 -0.009754 -520768.000000 0 0 1
20.242485 -30.370679 -23.360615 43.334220 -0.982899 2.140141 0.039387 -0.009822 -346987.000000 0 0 1
20.590185 -29.209379 -24.130815 43.121222 -0.956778 2.164704 0.044216 -0.013805 303560.000000 0 0 1
20.706685 -29.578379 -25.508815 44.207996 -0.960029 2.185869 0.049449 -0.016753 -402804.000000 0 0 1
21.089185 -28.390779 -26.445105 44.160317 -0.931907 2.212852 0.046198 -0.020458 79006.300000 0 0 1
20.208185 -27.302879 -26.593145 43.139463 -0.933630 2.235017 0.061281 -0.025532 -156264.000000 0 0 1
19.065985 -27.499279 -27.416315 43.259409 -0.964563 2.257208 0.080216 -0.029751 -21623.800000 0 0 1
18.327185 -26.201179 -27.762805 42.345730 -0.960420 2.285803 0.075605 -0.030914 -1040770.000000 0 0 1
17.494785 -25.895079 -26.742285 41.131161 -0.976633 2.278606 0.060432 -0.020428 -840207.000000 0 0 1
17.038285 -24.547479 -26.820325 40.152356 -0.964044 2.302266 0.039916 -0.007944 74841.800000 0 0 1
15.946385 -24.079379 -25.836185 38.750640 -0.985863 2.300608 0.045440 -0.010813 -344614.000000 0 0 1
14.722185 -24.756979 -25.903185 38.737911 -1.034307 2.303226 0.079539 -0.025745 -475960.000000 0 0 1
13.654185 -24.241179 -25.143855 37.500466 -1.057827 2.305671 0.077324 -0.033217 316736.000000 0 0 1
13.612185 -24.530979 -23.658015 36.698258 -1.064201 2.271379 0.067158 -0.030505 -199752.000000 0 0 1
14.632785 -23.807679 -22.970915 36.174396 -1.019693 2.258811 0.027799 -0.024016 148022.000000 0 0 1
15.000085 -24.389779 -21.682715 35.916626 -1.019409 2.218925 0.028265 -0.027049 75517.500000 0 0 1
16.242285 -23.758679 -21.060915 35.662989 -0.971138 2.202541 0.028275 -0.033665 -355425.000000 0 0 1
15.988285 -22.384179 -20.794315 34.483043 -0.950559 2.218091 0.016363 -0.036443 246733.000000 0 0 1
17.175585 -21.689679 -20.422215 34.387640 -0.901027 2.206672 0.034485 -0.025754 -427697.000000 0 0 1
17.098785 -20.327679 -19.773115 33.114333 -0.871458 2.210698 0.036960 -0.004907 -130176.000000 0 0 1
16.362885 -20.367079 -18.562715 32.048967 -0.893986 2.188542 0.037612 -0.012848 542329.000000 0 0 1
14.980785 -20.116079 -18.805015 31.348192 -0.930685 2.214142 0.050927 -0.016979 -190184.000000 0 0 1
14.142985 -20.081279 -17.498015 30.157293 -0.957199 2.189801 0.057842 -0.019082 -189002.000000 0 0 1
14.295185 -19.043779 -16.583715 29.017881 -0.926880 2.179129 0.064804 -0.014900 79504.900000 0 0 1
13.360085 -19.077179 -15.517615 27.986193 -0.959857 2.158527 0.072719 -0.019584 -16601.300000 0 0 1
13.344385 -17.873279 -14.582115 26.648917 -0.929468 2.149804 0.071210 -0.017799 -520333.000000 0 0 1
12.628685 -16.803079 -15.135115 25.901715 -0.926291 2.194849 0.074024 -0.028110 85436.300000 0 0 1
12.822185 -15.513179 -14.524415 24.819867 -0.880084 2.195915 0.073958 -0.027744 -102501.000000 0 1 0
11.524885 -14.807979 -14.031415 23.430318 -0.909435 2.212870 0.067204 -0.022662 186196.000000 0 1 0
10.704785 -14.423679 -15.143315 23.493721 -0.932327 2.271255 0.067861 -0.015180 356294.000000 0 1 0
9.450185 -13.927279 -14.714615 22.356095 -0.974620 2.289212 0.066318 -0.017666 668073.000000 0 1 0
8.534285 -13.395279 -15.914615 22.484272 -1.003535 2.357191 0.055148 -0.008673 442763.000000 0 1 0
8.956485 -12.226079 -16.597215 22.475835 -0.938543 2.401561 0.048069 -0.002944 7177.760000 0 1 0
10.190385 -12.336479 -17.275915 23.547609 -0.880380 2.394487 0.065734 -0.008057 56698.000000 0 1 0
10.589585 -11.203279 -18.268515 23.903795 -0.813551 2.440677 0.075619 -0.008522 -331536.000000 0 1 0
9.818285 -11.284879 -19.426315 24.517931 -0.854783 2.485417 0.067079 -0.010085 168807.000000 0 1 0
9.941285 -10.054979 -20.111315 24.584482 -0.791084 2.528807 0.067097 -0.016931 103828.000000 0 1 0
9.339685 -10.013379 -21.530115 25.515551 -0.820195 2.575128 0.055916 -0.020284 -272053.000000 0 0 1
10.215485 -10.624579 -22.410915 26.823253 -0.805026 2.559844 0.063229 -0.014298 -674158.000000 0 0 1
9.597985 -11.006479 -23.616515 27.766953 -0.853651 2.587781 0.085619 -0.019809 230478.000000 0 0 1
10.695785 -11.615579 -24.541215 29.182062 -0.826600 2.569868 0.097438 -0.020177 242730.000000 0 0 1
10.863185 -12.996079 -24.192315 29.532608 -0.874556 2.530764 0.099659 -0.025938 488387.000000 0 0 1
11.956785 -13.621379 -24.887815 30.788147 -0.850385 2.512152 0.096981 -0.033794 448260.000000 0 0 1
12.035385 -15.127779 -24.611615 31.295875 -0.898755 2.475783 0.092053 -0.029869 -36940.900000 0 0 1
11.002885 -15.851279 -25.235895 31.767545 -0.964019 2.488803 0.101213 -0.032401 -197578.000000 0 0 1
10.970085 -17.079779 -24.564115 31.866242 -0.999864 2.450972 0.106679 -0.035163 530867.000000 0 0 1
9.773985 -18.038979 -24.880415 32.248575 -1.074250 2.452023 0.110165 -0.036290 525365.000000 0 0 1
9.917085 -18.537379 -26.218395 33.606357 -1.079560 2.465721 0.105507 -0.043986 67309.800000 0 0 1
8.727585 -19.140579 -26.668505 33.966773 -1.142986 2.473711 0.113626 -0.042618 -97468.400000 0 0 1
8.980685 -19.903479 -27.980815 35.492636 -1.146935 2.478928 0.092800 -0.037917 -262382.000000 0 0 1
9.789285 -21.020479 -27.785075 36.189792 -1.134961 2.446134 0.090600 -0.039270 -115646.000000 0 0 1
9.673985 -21.870579 -28.891905 37.505338 -1.154340 2.450172 0.084781 -0.029054 257369.000000 0 0 1
10.535385 -23.160579 -28.655375 38.321499 -1.143888 2.415482 0.069301 -0.023287 308692.000000 0 0 1
10.408285 -24.140979 -29.656285 39.630979 -1.163732 2.416308 0.071838 -0.013000 75777.400000 0 0 1
11.038085 -25.393479 -29.334275 40.338168 -1.160754 2.385043 0.082659 -0.014907 772313.000000 0 0 1
10.255085 -26.278779 -28.254705 39.925798 -1.198730 2.357006 0.095830 -0.023865 873853.000000 0 0 1
10.950885 -26.093479 -27.036795 39.137959 -1.173441 2.333402 0.099517 -0.029016 205388.000000 0 0 1
10.154385 -26.506679 -25.905535 38.429316 -1.204954 2.310554 0.085777 -0.029995 1043920.000000 0 0 1
9.290685 -25.355779 -25.283175 36.992854 -1.219575 2.323290 0.087268 -0.030821 483754.000000 0 0 1
10.126785 -24.416379 -24.659415 36.149662 -1.177636 2.321492 0.084773 -0.031689 -441242.000000 0 0 1
9.485785 -23.189279 -24.498315 35.041264 -1.182505 2.344973 0.090367 -0.035138 -14348.800000 0 0 1
10.433485 -21.958079 -24.355115 34.412010 -1.127222 2.357105 0.117768 -0.034149 250054.000000 0 0 1
11.029285 -21.903679 -23.059715 33.662542 -1.104324 2.325436 0.117859 -0.035781 -450154.000000 0 0 1
12.195485 -21.150179 -23.038315 33.568197 -1.047750 2.327205 0.107040 -0.034228 -744967.000000 0 0 1
12.731885 -20.869079 -21.658415 32.660470 -1.022995 2.295800 0.082060 -0.024547 -440856.000000 0 0 1
11.893685 -20.250579 -20.703315 31.307714 -1.039748 2.293327 0.076084 -0.024648 -119762.000000 0 0 1
11.527385 -18.839379 -20.884515 30.396805 -1.021689 2.328235 0.069494 -0.017008 590489.000000 0 0 1
12.725685 -17.818179 -20.746515 30.163694 -0.950606 2.329247 0.074587 -0.014450 739018.000000 0 0 1
13.645085 -17.886679 -21.839315 31.354064 -0.919114 2.341358 0.067696 -0.012824 -108144.000000 0 0 1
14.571385 -16.852379 -21.634315 31.054332 -0.857859 2.341528 0.071654 -0.011531 -219520.000000 0 0 1
15.775485 -16.799579 -22.593715 32.273329 -0.816826 2.346297 0.047982 -0.003108 26170.400000 0 0 1
16.887385 -17.614879 -22.317315 33.068569 -0.806480 2.311598 0.038807 0.005895 417599.000000 0 0 1
18.069385 -17.193879 -22.970115 33.908086 -0.760576 2.315050 0.022924 0.008142 -321037.000000 0 0 1
19.354385 -17.616979 -22.286815 34.375170 -0.738439 2.276199 0.014863 0.013991 -591131.000000 0 0 1
19.682885 -18.990579 -22.266515 35.268339 -0.767499 2.254084 0.017931 0.005406 -261493.000000 0 0 1
20.836285 -19.259579 -21.531315 35.618530 -0.746095 2.219931 0.011024 0.005867 -337014.000000 0 0 1
21.168785 -20.775179 -21.355815 36.548548 -0.776014 2.194830 0.022207 -0.005095 -155478.000000 0 0 1
20.479085 -21.431979 -20.320915 35.939703 -0.808130 2.171735 0.020316 -0.002876 285197.000000 0 0 1
21.058685 -22.704879 -20.098215 36.917719 -0.822996 2.146477 0.043033 -0.006961 83.713900 0 0 1
-17.185627 12.983814 28.204676 35.488434 -0.647015 0.652189 0.038601 -0.029238 164439.000000 0 0 1
-18.450127 13.588814 28.000296 36.181205 -0.634815 0.685835 0.028291 -0.028063 94463.700000 0 0 1
-18.783627 13.525914 26.659806 35.306093 -0.624083 0.714982 0.041385 -0.024496 -270271.000000 0 0 1
-20.002627 14.351814 26.238186 35.979467 -0.622372 0.753565 0.045174 -0.022290 -227115.000000 0 0 1
-19.705627 15.696014 26.285316 36.408713 -0.672618 0.764178 0.046514 -0.019014 272223.000000 0 0 1
-20.710527 16.519614 25.692766 36.904495 -0.673302 0.800712 0.046537 -0.015211 -439577.000000 0 0 1
-20.504727 18.049214 25.941656 37.672104 -0.721794 0.811216 0.048427 -0.004973 1507720.000000 0 0 1
-19.256727 18.665014 25.489516 36.998915 -0.769796 0.810790 0.044617 -0.016940 2473670.000000 0 0 1
-18.048027 18.515114 26.281556 36.868155 -0.798172 0.777239 0.059832 -0.016170 534008.000000 0 0 1
-16.823927 19.299214 25.873436 36.399709 -0.853815 0.780141 0.061253 -0.013998 -564985.000000 0 0 1
-16.871627 20.681914 25.948506 37.225237 -0.886515 0.799497 0.066286 -0.010773 40797.100000 0 0 1
-15.686127 21.331414 25.520546 36.774747 -0.936735 0.803809 0.072014 -0.010169 102637.000000 0 0 1
-15.789227 22.894514 25.354546 37.633913 -0.967050 0.831571 0.065188 -0.010943 -15031.200000 0 0 1
-15.501027 23.602414 26.536106 38.749460 -0.989686 0.816450 0.065410 -0.008750 97976.200000 0 0 1
-15.665227 24.978914 26.246286 39.474207 -1.010661 0.843440 0.062866 -0.008943 -86795.700000 0 0 1
-15.144427 25.898614 27.370236 40.610610 -1.041659 0.831230 0.039012 0.001010 329193.000000 0 0 1
-13.735127 26.058314 27.272426 40.143177 -1.085711 0.823881 0.032238 -0.005853 122143.000000 0 0 1
-13.249827 26.886414 28.306216 41.227163 -1.112919 0.814006 0.045153 -0.001545 21617.200000 0 0 1
-11.727227 26.663014 28.476956 40.735502 -1.156431 0.796701 0.054952 -0.004883 77675.800000 0 0 1
-11.085827 27.351714 27.415486 40.281766 -1.185724 0.822225 0.042743 -0.003230 -1453870.000000 0 0 1
-9.728127 27.194214 27.454456 39.848574 -1.227254 0.810730 0.030239 -0.000018 -1462680.000000 0 0 1
-8.929827 27.989714 26.371336 39.479276 -1.261965 0.839306 0.040841 -0.010550 246924.000000 0 0 1
-7.541327 28.063314 26.701876 39.464051 -1.308273 0.827644 0.025300 -0.017405 285177.000000 0 0 1
-6.944327 28.316414 25.428416 38.686526 -1.330302 0.853574 0.040813 -0.018844 -907062.000000 0 0 1
-5.467927 27.980214 25.459206 38.222529 -1.377807 0.841857 0.029214 -0.025558 -1170220.000000 0 0 1
-4.728427 28.909314 26.241936 39.328687 -1.408671 0.840290 0.044755 -0.022701 757730.000000 0 0 1
-3.306427 28.755114 26.142316 39.002688 -1.456313 0.836224 0.037045 -0.016912 786562.000000 0 0 1
-2.685127 29.625014 25.052996 38.890924 -1.480406 0.870838 0.032482 -0.013407 -762365.000000 0 0 1
-3.026027 29.229414 23.725956 37.768194 -1.467637 0.891560 0.021157 -0.008832 60961.000000 0 0 1
-2.520927 30.121414 22.748386 37.830460 -1.487299 0.925638 0.018052 -0.010519 -49053.800000 0 0 1
-3.187727 29.764814 21.394686 36.794542 -1.464106 0.950270 0.018329 -0.006081 1743890.000000 0 0 1
-4.643227 29.717114 21.430686 36.931568 -1.415802 0.951723 0.009724 0.004626 1213580.000000 0 0 1
-5.118827 28.400214 21.531486 36.005269 -1.392472 0.929781 0.020778 0.002314 -1027880.000000 0 0 1
-6.611527 28.393314 21.243186 36.071672 -1.342018 0.941079 0.026168 -0.006339 -810815.000000 0 0 1
-6.817227 28.517414 19.852486 35.409584 -1.336145 0.975622 0.027305 -0.010249 70744.800000 0 0 1
-7.660727 27.527514 19.315986 34.489970 -1.299371 0.976354 0.007928 -0.006324 -714596.000000 0 0 1
-6.977627 26.139714 19.033886 33.079612 -1.309943 0.957708 -0.005105 -0.005103 654323.000000 0 0 1
-5.969127 26.217814 18.006386 32.360998 -1.346938 0.980722 -0.002154 -0.003512 294254.000000 0 0 1
-4.673127 26.529314 18.470086 32.661700 -1.396435 0.969761 0.015937 -0.006065 -614602.000000 0 0 1
-3.856527 26.907414 17.216686 32.176016 -1.428440 1.006196 0.016260 -0.003119 -280258.000000 0 0 1
-3.424227 25.866914 16.370586 30.802900 -1.439183 1.010470 0.019867 -0.011907 301859.000000 0 0 1
-2.477127 26.316314 15.390886 30.586989 -1.476944 1.043517 0.029941 -0.018017 370836.000000 0 0 1
-1.747027 25.126514 14.705086 29.165619 -1.501379 1.042350 0.034346 -0.013628 -295071.000000 0 0 1
-0.800327 24.482514 15.513686 28.994973 -1.538118 1.006232 0.021381 -0.013720 26684.200000 0 0 1
-0.168327 23.420614 14.753586 27.680711 -1.563609 1.008664 0.022980 -0.027462 214598.000000 0 0 1
1.129173 22.852214 15.421786 27.592212 1.521425 0.977716 0.018035 -0.024827 145287.000000 0 0 1
2.232373 23.680114 15.208986 28.231977 1.476802 1.001885 0.028728 -0.029727 -1059300.000000 0 0 1
3.320673 23.242114 15.946186 28.381395 1.428884 0.974172 0.040098 -0.033066 -599401.000000 0 0 1
4.567173 24.109314 15.679986 29.120097 1.383579 1.002189 0.058111 -0.026342 -626398.000000 0 0 1
5.715773 23.547714 16.202286 29.149253 1.332670 0.981425 0.063228 -0.024318 -763961.000000 0 0 1
6.836473 24.380014 16.028786 29.967389 1.297405 1.006437 0.081376 -0.030818 -614534.000000 0 0 1
8.227973 23.732814 16.141986 29.858160 1.237072 0.999620 0.088198 -0.031137 -80221.700000 0 0 1
8.636973 22.969314 15.032586 28.777862 1.211130 1.021173 0.072029 -0.020709 -1097.020000 0 0 1
9.267473 23.829314 14.117386 29.206555 1.199886 1.066303 0.073617 -0.022674 -691295.000000 0 0 1
9.822473 23.220014 12.803486 28.276833 1.170606 1.100904 0.065704 -0.016115 -881391.000000 0 0 1
10.912573 22.463514 13.161986 28.229977 1.118580 1.085759 0.066957 -0.013758 -959791.000000 0 0 1
11.535573 21.992614 12.017186 27.589079 1.087725 1.120116 0.070972 -0.016046 382697.000000 0 0 1
12.758173 21.054414 12.308986 27.523998 1.026005 1.107154 0.069262 -0.016518 592172.000000 0 0 1
12.268773 19.838214 12.912186 26.660871 1.016927 1.065219 0.067231 -0.009838 128467.000000 0 0 1
13.228973 18.818414 13.073886 26.458740 0.958073 1.053970 0.063368 -0.014067 -179811.000000 0 0 1
13.927473 18.732814 14.425486 27.440617 0.931481 1.017261 0.061060 -0.010975 453035.000000 0 0 1
15.088573 17.884614 14.392586 27.471275 0.869993 1.019357 0.062735 -0.009036 546853.000000 0 0 1
15.648973 17.849714 15.712186 28.467094 0.851000 0.986105 0.051726 -0.007282 86073.100000 0 0 1
16.796673 16.810614 15.812086 28.543774 0.785813 0.983684 0.034476 -0.006316 10507.100000 0 0 1
17.416473 16.949114 17.071986 29.699473 0.771799 0.958407 0.040363 -0.014068 -127742.000000 0 0 1
18.505873 16.075914 17.152186 29.918219 0.715246 0.960266 0.040194 -0.014841 -166341.000000 0 0 1
18.969173 15.688014 18.615786 30.862449 0.691005 0.923307 0.042176 -0.018583 -291344.000000 0 0 1
19.587573 16.727314 19.320786 32.198894 0.706798 0.927239 0.057807 -0.010000 551783.000000 0 0 1
18.723473 17.792614 19.787586 32.537580 0.759912 0.917074 0.044727 -0.004045 233896.000000 0 0 1
19.433473 18.833614 20.654686 34.043809 0.769724 0.918882 0.040534 -0.005597 -380988.000000 0 0 1
18.460173 19.753914 21.080886 34.284090 0.819240 0.908552 0.068249 -0.026816 527766.000000 0 0 1
19.061173 20.667514 22.018686 35.711300 0.825809 0.906412 0.069119 -0.017370 319292.000000 0 0 1
18.005673 21.627414 22.608486 36.098378 0.876527 0.893996 0.076137 -0.027327 249638.000000 0 0 1
17.079073 21.092214 23.536786 35.924316 0.890148 0.856379 0.070551 -0.029060 292043.000000 0 0 1
16.221373 22.145914 23.996206 36.460833 0.938605 0.852455 0.065088 -0.034877 120538.000000 0 0 1
15.487773 21.830414 25.284756 36.820605 0.953751 0.813855 0.079948 -0.031871 -646031.000000 0 0 1
14.328773 21.091514 25.118476 35.792506 0.974056 0.792903 0.077803 -0.028421 -920354.000000 0 0 1
13.676173 20.945214 26.349866 36.332563 0.992350 0.759412 0.064283 -0.023017 336193.000000 0 0 1
12.456973 19.950914 26.168106 35.185010 1.012642 0.732165 0.070577 -0.015778 113969.000000 0 0 1
12.706373 18.562314 26.095766 34.452872 0.970532 0.711423 0.078089 -0.021386 -15029.800000 0 0 1
13.337473 18.009614 24.953266 33.539527 0.933354 0.731766 0.084087 -0.023785 -344970.000000 0 0 1
12.572673 18.037314 23.615366 32.266117 0.962062 0.749700 0.088535 -0.022293 -721999.000000 0 0 1
12.742873 19.121714 22.738586 32.327450 0.982972 0.790650 0.103317 -0.020560 519328.000000 0 0 1
14.015873 19.186314 22.079986 32.435861 0.939883 0.822041 0.095880 -0.027464 812529.000000 0 0 1
14.433773 17.963114 21.184286 31.301457 0.893911 0.827413 0.096043 -0.020889 -214230.000000 0 0 1
13.451873 17.767314 20.175186 30.061079 0.922758 0.835051 0.098034 -0.022109 365550.000000 0 0 1
13.863473 16.695314 19.365886 29.085510 0.877803 0.842196 0.063757 -0.015968 -115430.000000 0 0 1
12.754573 16.093314 18.502986 27.641172 0.900622 0.837396 0.071033 -0.011281 -369277.000000 0 0 1
12.129273 16.958714 17.602286 27.286585 0.949926 0.869656 0.083660 -0.013140 -187487.000000 0 0 1
11.083973 16.258314 16.973186 25.986078 0.972430 0.859040 0.069282 -0.017646 -66935.700000 0 0 1
10.620973 17.025414 15.720886 25.491489 1.013038 0.906238 0.065276 -0.011286 -217305.000000 0 0 1
9.891873 18.196214 15.897986 26.109334 1.072863 0.916123 0.071808 -0.019603 -181372.000000 0 0 1
9.543373 18.713614 14.686586 25.631448 1.099205 0.960646 0.054519 -0.005232 -390148.000000 0 0 1
8.595373 19.951714 14.792486 26.282484 1.164016 0.972995 0.063374 -0.004799 -301787.000000 0 0 1
7.322973 19.433414 15.056186 25.650970 1.210428 0.943493 0.034154 -0.014599 -490898.000000 0 0 1
6.304173 20.432114 15.112186 26.183812 1.271521 0.955553 0.043999 -0.021460 231526.000000 0 0 1
5.026673 19.968814 15.809486 25.960755 1.324194 0.916027 0.035458 -0.031666 -165224.000000 0 0 1
4.133273 19.278714 14.973586 24.758050 1.359598 0.921286 0.029017 -0.032077 591282.000000 0 1 0
2.908973 18.809314 15.600286 24.609375 1.417356 0.884190 0.009878 -0.026698 1387260.000000 0 1 0
1.841573 18.421614 14.551186 23.547489 1.471159 0.904663 0.011518 -0.026235 206190.000000 0 1 0
1.106573 19.487214 13.959686 23.996850 1.514073 0.949942 0.017382 -0.024278 29166.900000 0 1 0
0.087273 19.049314 13.083886 23.109999 1.566215 0.968960 0.018248 -0.029456 -33100.600000 0 1 0
-0.606727 20.223714 12.334986 23.696384 -1.540805 1.023310 0.018775 -0.025069 376415.000000 0 1 0
-1.619727 20.858514 13.126186 24.698135 -1.493299 1.010468 0.017178 -0.016923 1441370.000000 0 1 0
-2.845827 20.947514 12.326086 24.470992 -1.435768 1.042918 0.022425 -0.023503 742062.000000 0 1 0
-4.081827 21.566814 12.919186 25.469475 -1.383745 1.038815 0.022826 -0.020657 -406869.000000 0 0 1
-4.658227 20.678014 13.925386 25.361303 -1.349221 0.989533 0.022770 -0.026776 -822461.000000 0 0 1
-5.778627 21.374914 14.347186 26.384109 -1.306762 0.995860 0.017482 -0.016698 -1369750.000000 0 0 1
-6.509827 20.578114 15.440386 26.537561 -1.264410 0.949818 0.003768 -0.013117 -881232.000000 0 0 1
-7.307127 19.521314 14.871486 25.605407 -1.212626 0.951092 0.017606 -0.019210 55590.300000 0 0 1
-7.922927 18.754314 15.873786 25.816160 -1.171080 0.908565 0.020391 -0.012048 2424.510000 0 0 1
-9.076727 19.383014 16.715486 27.156871 -1.132843 0.907756 0.015522 -0.002087 -743486.000000 0 0 1
-10.194927 19.625014 15.912786 27.245081 -1.091681 0.947074 0.007422 -0.008885 280938.000000 0 0 1
-11.378627 19.307914 16.678286 27.936247 -1.038263 0.931025 0.010311 -0.000680 465613.000000 0 0 1
-12.736027 19.405014 15.989186 28.185369 -0.989986 0.967589 0.020362 -0.010358 -246760.000000 0 0 1
-13.300827 20.692914 15.733586 29.200247 -0.999519 1.001764 0.012775 -0.011315 94398.400000 0 0 1
-14.055827 20.539214 14.543386 28.825954 -0.970657 1.041966 0.022263 -0.016225 -94144.800000 0 0 1
-14.987627 21.774314 14.300986 30.054416 -0.967955 1.074882 0.015413 -0.021204 -536517.000000 0 0 1
-16.095127 21.690414 15.129886 30.958692 -0.932410 1.060183 0.008102 -0.027358 -597891.000000 0 0 1
-17.091927 22.648214 14.840086 32.020364 -0.924313 1.088903 0.028991 -0.030194 525255.000000 0 0 1
-18.410027 22.470814 15.656886 33.000070 -0.884406 1.076457 0.073867 -0.038844 -591990.000000 0 0 1
-19.157927 21.348814 15.224986 32.474578 -0.839432 1.082833 0.065515 -0.036513 822345.000000 0 0 1
-20.350227 21.046114 15.989486 33.357672 -0.802207 1.070900 0.063757 -0.031190 1127200.000000 0 0 1
-21.458027 22.123914 15.997086 34.724937 -0.800676 1.092035 0.061645 -0.031014 -1143620.000000 0 0 1
-22.228227 22.226214 14.810986 34.748582 -0.785353 1.130472 0.063410 -0.026885 552928.000000 0 0 1
-23.134927 23.339614 14.879086 36.074224 -0.789802 1.145646 0.072746 -0.033478 301120.000000 0 0 1
-22.608027 24.607414 14.070086 36.257620 -0.827719 1.172272 0.055146 -0.027521 159525.000000 0 0 1
-21.499527 25.289514 14.625886 36.272658 -0.866223 1.155763 0.050354 -0.037037 -82929.200000 0 0 1
-21.003727 26.246314 13.754086 36.320799 -0.895900 1.182423 0.028863 -0.025878 -410221.000000 0 0 1
-19.574627 26.669114 14.102186 35.962193 -0.937626 1.167840 0.038548 -0.024964 -434417.000000 0 0 1
-18.591327 25.816114 13.583786 34.592317 -0.946678 1.167250 0.035824 -0.014950 -829366.000000 0 0 1
-17.307727 26.287114 13.863686 34.391446 -0.988531 1.155879 0.021180 -0.014887 -747144.000000 0 0 1
-16.375827 25.850814 12.714286 33.137371 -1.006126 1.177014 0.032507 -0.020910 -754551.000000 0 0 1
-15.104327 26.406514 12.929086 33.054590 -1.051225 1.168923 0.032457 -0.018932 -399786.000000 0 0 1
-14.238127 25.885314 11.904286 31.850993 -1.067917 1.187748 0.032053 -0.013697 -29975.300000 0 0 1
-12.818627 26.417514 12.170486 31.785578 -1.119033 1.177870 0.033288 -0.008398 -351115.000000 0 0 1
-11.742027 25.619814 11.700886 30.514927 -1.141047 1.177270 0.030825 -0.012173 1108970.000000 0 0 1
-10.408427 26.067614 11.972186 30.515391 -1.190906 1.167630 0.045636 -0.015360 1089180.000000 0 0 1
-9.908627 27.390114 11.216086 31.212174 -1.223684 1.203225 0.045978 -0.015858 -761405.000000 0 0 1
-8.672127 27.888614 11.625386 31.434538 -1.269319 1.191972 0.065162 -0.026171 -212975.000000 0 0 1
-8.434327 29.130414 10.976286 32.252097 -1.288966 1.223531 0.070302 -0.029323 91545.100000 0 0 1
-7.148527 29.777414 11.613086 32.751482 -1.335190 1.208329 0.069127 -0.025971 133767.000000 0 0 1
-5.963627 29.159714 11.207186 31.803377 -1.369062 1.210673 0.081109 -0.029184 -822819.000000 0 0 1
-4.971127 29.560014 12.111486 32.329470 -1.404185 1.186802 0.085655 -0.034036 -149976.000000 0 0 1
-3.506627 29.305914 11.673486 31.739617 -1.451707 1.194166 0.077863 -0.041083 159469.000000 0 0 1
-3.227927 30.099714 10.529886 32.051377 -1.463964 1.236048 0.094766 -0.044520 8192.230000 0 0 1
-1.901527 29.867914 10.108486 31.589390 -1.507218 1.245071 0.090497 -0.037616 136338.000000 0 0 1
-1.604927 30.448314 8.708986 31.709968 -1.518135 1.292576 0.090479 -0.034611 83266.900000 0 0 1
-2.409327 29.882914 7.710786 30.955607 -1.490345 1.319054 0.105315 -0.030591 32273.300000 0 0 1
-2.108327 30.555214 6.475586 31.304941 -1.501905 1.362437 0.100066 -0.024196 252255.000000 0 0 1
11.732173 -33.822979 -27.019135 44.851660 -1.236913 2.217315 0.132910 -0.040605 -90738.600000 0 0 1
12.016873 -33.618279 -25.638875 43.953905 -1.227500 2.193598 0.121558 -0.038905 616770.000000 0 0 1
12.930873 -32.499379 -25.464395 43.264911 -1.192118 2.200084 0.119713 -0.028756 536983.000000 0 0 1
13.701973 -32.495479 -24.101615 42.715197 -1.171760 2.170309 0.103699 -0.035166 -221704.000000 0 0 1
13.025573 -31.938879 -22.960615 41.436064 -1.183560 2.158104 0.105183 -0.037472 402588.000000 0 0 1
13.623573 -32.284079 -21.685915 41.208523 -1.171478 2.124979 0.072969 -0.027762 2077230.000000 0 0 1
15.190573 -32.023579 -21.415515 41.411199 -1.127874 2.114306 0.041691 -0.014722 1909050.000000 0 0 1
16.080173 -32.945679 -22.029215 42.770036 -1.116729 2.111876 0.059131 -0.011196 660239.000000 0 0 1
17.416073 -32.723779 -21.581815 42.894522 -1.081710 2.098021 0.033318 -0.013479 85199.600000 0 0 1
18.436773 -33.798179 -21.920915 44.303025 -1.071418 2.088395 0.016838 -0.001899 -8670.260000 0 0 1
19.774573 -33.452579 -21.556815 44.438778 -1.036930 2.077263 0.017757 0.016100 806740.000000 0 0 1
20.576473 33.651714 -21.931615 45.131196 1.021997 2.078249 0.020818 0.016198 -101148.000000 0 0 1
22.057173 33.525314 -21.521115 45.537061 0.988869 2.063043 0.037945 0.022311 -57492.500000 0 0 1
22.887873 -33.950179 -22.372015 46.658080 -0.977624 2.070868 0.029595 0.021304 -87395.300000 0 0 1
24.193873 -33.903679 -21.837915 47.028688 -0.950997 2.053700 0.031278 0.021653 311747.000000 0 0 1
25.265373 -33.154679 -22.684415 47.456870 -0.919631 2.069173 0.041371 0.016857 233214.000000 0 0 1
25.254873 -31.715579 -22.702915 46.466212 -0.898320 2.081269 0.037771 0.012928 606167.000000 0 0 1
24.078973 -31.128279 -23.321415 45.745547 -0.912399 2.105757 0.023990 0.012943 587940.000000 0 0 1
24.025973 -29.603879 -23.310115 44.687789 -0.889033 2.119547 0.027659 -0.010849 -523044.000000 0 0 1
24.920573 -29.028879 -24.208615 45.274361 -0.861402 2.134960 0.030919 -0.011954 -484663.000000 0 0 1
24.884873 -27.620879 -24.117415 44.315004 -0.837460 2.146264 0.049269 -0.009509 546470.000000 0 0 1
25.581373 -26.899379 -25.297055 44.921311 -0.810507 2.168979 0.049451 -0.007582 564709.000000 0 0 1
24.624673 -26.844579 -26.360335 44.965244 -0.828502 2.197204 0.036727 -0.010424 16915.200000 0 0 1
25.137473 -26.290979 -27.525045 45.615088 -0.807824 2.218579 0.032060 -0.009375 206440.000000 0 0 1
24.011973 -26.038179 -28.606315 45.528923 -0.825860 2.250176 0.033837 -0.015128 862757.000000 0 0 1
23.280773 -24.840579 -28.420185 44.348119 -0.817801 2.266392 0.057976 -0.020878 584490.000000 0 0 1
22.069273 -25.043379 -27.648235 43.343379 -0.848442 2.262549 0.055354 -0.018727 272991.000000 0 0 1
21.280073 -23.763479 -27.453585 42.086147 -0.840476 2.281436 0.057057 -0.015537 -334061.000000 0 0 1
20.818773 -23.158379 -28.635575 42.305177 -0.838549 2.314314 0.067514 -0.014638 -7950.920000 0 0 1
20.213673 -21.957679 -28.294825 41.125775 -0.826730 2.329536 0.052270 -0.001535 -324235.000000 0 0 1
19.214073 -21.235879 -29.230335 40.921335 -0.835339 2.366428 0.059673 -0.005651 353125.000000 0 0 1
18.029773 -22.016679 -29.302115 40.846307 -0.884628 2.370823 0.062485 -0.010842 470611.000000 0 0 1
16.950273 -21.368379 -29.988935 40.537089 -0.900190 2.403555 0.057847 -0.012314 1122050.000000 0 0 1
15.591473 -22.109879 -29.704365 40.178229 -0.956601 2.402849 0.054011 -0.010277 297319.000000 0 0 1
15.547773 -23.302979 -30.505125 41.416479 -0.982424 2.398745 0.063188 -0.006579 49257.600000 0 0 1
14.977373 -24.464279 -29.956075 41.475162 -1.021444 2.377869 0.063542 -0.014129 -43588.800000 0 0 1
14.967873 -25.765779 -30.809295 42.861699 -1.044524 2.372881 0.092771 -0.016344 482698.000000 0 0 1
14.164773 -26.770979 -30.143615 42.731296 -1.084133 2.353815 0.100317 -0.018799 382267.000000 0 0 1
14.451773 -28.106579 -30.607835 43.996285 -1.095871 2.340178 0.149359 -0.022958 439635.000000 0 0 1
13.876073 -29.172079 -29.579615 43.800790 -1.126807 2.312197 0.135979 -0.039721 229970.000000 0 0 1
14.476273 -29.216579 -28.277365 43.159939 -1.110770 2.285212 0.162310 -0.049649 -147330.000000 0 0 1
14.081073 -28.195379 -27.406845 41.765909 -1.107620 2.286570 0.141916 -0.043307 -93770.600000 0 0 1
15.116473 -27.907479 -26.305495 41.222739 -1.074376 2.262864 0.113288 -0.036171 -235809.000000 0 0 1
15.286773 -28.984679 -25.410115 41.466504 -1.085463 2.230378 0.111680 -0.045391 -493830.000000 0 0 1
16.122673 -28.680179 -24.351015 40.932446 -1.058670 2.207947 0.109482 -0.043723 -1137010.000000 0 0 1
15.628173 -27.581879 -23.305015 39.346201 -1.055290 2.204715 0.093100 -0.044393 153082.000000 0 0 1
14.570973 -27.946579 -22.474215 38.709364 -1.090186 2.190248 0.087840 -0.044811 371923.000000 0 0 1
13.318273 -28.381379 -23.044115 38.909000 -1.132041 2.204653 0.099877 -0.038023 -114878.000000 0 0 1
12.154273 -28.090779 -22.092115 37.747579 -1.162440 2.195996 0.073474 -0.028540 -406957.000000 0 0 1
11.867173 -26.721079 -21.989615 36.583999 -1.152849 2.215638 0.050119 -0.029085 -235187.000000 0 0 1
10.575173 -26.610979 -21.454615 35.780986 -1.192534 2.213809 0.051468 -0.028205 -436801.000000 0 0 1
10.207973 -25.163179 -21.135815 34.410913 -1.185411 2.232191 0.073896 -0.031070 -113159.000000 0 0 1
10.871373 -24.585979 -20.026915 33.522148 -1.154466 2.211081 0.057339 -0.033078 174076.000000 0 0 1
10.524773 -23.232179 -19.986815 32.403360 -1.145429 2.235484 0.071700 -0.037593 -592622.000000 0 0 1
11.045673 -22.545779 -18.709515 31.310781 -1.115244 2.211229 0.056952 -0.034510 259805.000000 0 0 1
10.207973 -22.642079 -17.538915 30.405262 -1.147243 2.185649 0.069038 -0.038464 304426.000000 0 0 1
10.831773 -22.079279 -16.459015 29.592584 -1.114709 2.160587 0.061847 -0.031493 -543580.000000 0 0 1
10.056573 -22.320679 -15.148515 28.789319 -1.147485 2.124905 0.033982 -0.020036 74460.800000 0 0 1
10.183073 -23.667979 -14.754415 29.691092 -1.164490 2.090855 0.042411 -0.015251 224462.000000 0 0 1
9.221173 -23.960779 -13.757615 29.127666 -1.203423 2.062719 0.028104 -0.009353 79898.300000 0 0 1
9.170573 -25.474479 -13.455215 30.233943 -1.225249 2.032012 0.036502 -0.011086 262180.000000 0 0 1
10.440773 -26.007079 -13.099115 30.934846 -1.189033 2.008038 0.039339 -0.011246 212848.000000 0 0 1
10.541673 -27.384279 -13.404915 32.260151 -1.203328 1.999317 0.035269 -0.020816 -31318.500000 0 0 1
11.790873 -28.052379 -12.709915 32.977304 -1.172899 1.966453 0.055204 -0.020521 1145310.000000 0 0 1
13.094273 -27.682979 -13.131615 33.320363 -1.128974 1.975887 0.057060 -0.010806 278746.000000 0 0 1
13.447773 -27.927279 -14.502115 34.221146 -1.122035 2.008407 0.054729 -0.014374 237754.000000 0 0 1
14.841973 -27.393579 -15.024015 34.589208 -1.074267 2.020119 0.034473 -0.013667 752697.000000 0 0 1
15.969473 -28.038579 -14.496415 35.374171 -1.053065 1.993034 0.067969 -0.014538 -644587.000000 0 0 1
17.072073 -27.641779 -15.239715 35.885547 -1.017523 2.009400 0.078420 -0.018562 34175.200000 0 0 1
18.388573 -28.472779 -15.136215 37.120665 -0.997358 1.990793 0.072278 -0.016847 649127.000000 0 0 1
18.453773 -29.750779 -15.733415 38.382169 -1.015599 1.993157 0.046863 -0.004059 -1058800.000000 0 0 1
19.805273 -30.038779 -15.756315 39.278983 -0.987895 1.983556 0.056229 0.006848 -553460.000000 0 0 1
20.187473 -31.224879 -16.707115 40.763400 -0.996872 1.993092 0.048200 -0.000172 95380.100000 0 0 1
19.832673 -32.517179 -16.287315 41.424370 -1.023119 1.974886 0.023314 0.019010 -369476.000000 0 0 1
20.398373 -33.363579 -17.234215 42.734531 -1.022039 1.985901 0.029542 0.009112 168099.000000 0 0 1
20.169073 33.344014 -17.006715 42.518739 1.026798 1.982293 0.010072 0.015206 118091.000000 0 0 1
21.005573 32.835114 -16.001415 42.135782 1.001675 1.960331 0.031223 0.012089 -43101.000000 0 0 1
20.619473 31.441514 -15.814615 40.790115 0.990352 1.968939 0.026707 0.001930 -34051.400000 0 0 1
21.464873 30.496114 -14.872315 40.148966 0.957487 1.950266 0.049740 0.002135 -425520.000000 0 0 1
22.827073 30.498814 -15.204915 41.017586 0.928283 1.950551 0.053035 0.007887 281353.000000 0 0 1
23.809273 30.326914 -14.169315 41.077642 0.905215 1.922971 0.057897 -0.003514 783107.000000 0 0 1
23.718573 28.999214 -13.339615 39.767706 0.885233 1.912867 0.052996 0.009659 -1011210.000000 0 0 1
23.879273 27.812714 -14.124015 39.284279 0.861346 1.938564 0.050337 0.015896 41563.700000 0 0 1
23.632673 26.641714 -13.385615 38.045484 0.845179 1.930324 0.031120 0.013199 -308674.000000 0 0 1
22.171173 26.288314 -13.116615 36.806004 0.870155 1.935178 0.042909 0.009762 -1553730.000000 0 0 1
21.393473 26.032814 -14.243615 36.582355 0.882910 1.970730 0.054138 -0.005312 -630293.000000 0 0 1
20.039473 25.862114 -13.919715 35.555420 0.911575 1.973050 0.059158 -0.011319 -539054.000000 0 0 1
19.286373 27.191514 -13.765815 36.067164 0.953870 1.962401 0.051255 -0.012764 -1157270.000000 0 0 1
19.083673 28.080614 -14.853715 37.058606 0.973891 1.983205 0.047787 -0.008403 -48828.400000 0 0 1
18.336273 27.635114 -15.962215 36.806395 0.984980 2.019370 0.032236 -0.004482 -344788.000000 0 0 1
18.517773 28.491014 -17.250515 38.108084 0.994455 2.040558 0.019871 0.000945 172391.000000 0 0 1
17.725173 29.676914 -17.299715 38.654639 1.032386 2.034815 0.023458 -0.002652 76683.200000 0 0 1
17.987173 30.353114 -18.515515 39.845630 1.035838 2.054071 0.013671 -0.001751 -1153860.000000 0 0 1
16.982773 31.330614 -18.942315 40.358806 1.074077 2.059348 0.006486 -0.002760 -1084160.000000 0 0 1
16.922873 32.458514 -18.056115 40.816198 1.090200 2.029043 0.009639 -0.003722 80539.600000 0 0 1
16.274373 33.589214 -18.657415 41.727565 1.119616 2.034344 0.011006 0.002958 179272.000000 0 0 1
16.010973 -33.472079 -17.616915 41.074165 -1.124628 2.014077 0.012030 0.003501 11255.200000 0 0 1
15.184173 -32.470079 -18.146215 40.176489 -1.133374 2.039424 0.013677 0.001402 -153337.000000 0 0 1
14.720473 -31.687879 -17.062315 38.883629 -1.135912 2.025064 0.025569 -0.004309 7851.090000 0 0 1
13.650073 -30.605679 -17.292415 37.710206 -1.151275 2.047171 0.040122 -0.012959 178741.000000 0 0 1
12.389973 -31.126379 -17.655415 37.869203 -1.191969 2.055811 0.034028 -0.005485 75985.400000 0 0 1
11.401373 -30.109679 -17.825515 36.801264 -1.208820 2.076442 0.018869 0.001150 380276.000000 0 0 1
9.994473 -30.633479 -18.153415 36.984402 -1.255425 2.083850 0.040437 -0.013925 -1199010.000000 0 0 1
9.495173 -31.444479 -17.061615 37.013677 -1.277537 2.049867 0.047315 -0.016640 843684.000000 0 0 1
8.380173 -32.326179 -17.368815 37.641531 -1.317142 2.050399 0.076071 -0.014396 457422.000000 0 0 1
7.064173 -31.745579 -17.855715 37.101359 -1.351839 2.072898 0.067014 -0.006337 -1058430.000000 0 0 1
7.182273 -31.166979 -19.124915 37.265641 -1.344305 2.109711 0.052369 -0.001251 -339730.000000 0 0 1
7.139873 -32.127179 -20.183815 38.607250 -1.352113 2.120927 0.059628 -0.013095 -971961.000000 0 0 1
7.246873 -31.557779 -21.604715 38.925239 -1.345072 2.159197 0.067038 0.000816 1565440.000000 0 0 1
8.602773 -31.246679 -22.072815 39.211883 -1.302134 2.168700 0.056785 -0.007951 2332970.000000 0 0 1
9.559073 -32.362179 -22.186215 40.384584 -1.283585 2.152410 0.064425 -0.011358 379819.000000 0 0 1
9.381173 -33.366779 -23.328615 41.780050 -1.296719 2.163213 0.087782 -0.025221 -87226.700000 0 0 1
8.109173 -33.958079 -23.132915 41.881279 -1.336387 2.155971 0.084207 -0.040333 -61085.900000 0 0 1
7.875873 33.231314 -24.084515 41.790112 1.338088 2.185016 0.092288 -0.050949 -819635.000000 0 0 1
6.833473 32.237014 -23.644315 40.558292 1.361912 2.193177 0.101384 -0.055125 126750.000000 0 0 1
5.498573 32.728114 -23.530515 40.682292 1.404343 2.187559 0.104426 -0.049579 478292.000000 0 0 1
5.178073 33.191314 -22.242715 40.289132 1.416037 2.155650 0.082192 -0.040151 -637423.000000 0 0 1
3.782873 33.795514 -22.332315 40.683894 1.459326 2.151871 0.076064 -0.030375 -329103.000000 0 0 1
2.619073 33.011014 -22.407415 39.983482 1.491623 2.165685 0.078759 -0.046210 702648.000000 0 0 1
1.527073 33.795714 -22.922315 40.864591 1.525642 2.166309 0.065147 -0.031222 284948.000000 0 0 1
0.134173 33.350314 -22.472815 40.215530 1.566773 2.163746 0.063160 -0.042077 -338896.000000 0 0 1
-0.167927 33.645314 -21.088915 39.708660 -1.565805 2.130684 0.058770 -0.043062 142645.000000 0 0 1
-1.291627 32.964214 -20.550315 38.866736 -1.531634 2.127909 0.054726 -0.043719 281145.000000 0 0 1
-1.484027 33.219714 -19.046415 38.321243 -1.526153 2.090957 0.063780 -0.037599 539193.000000 0 0 1
-0.472227 32.606214 -18.243215 37.365801 -1.556315 2.080860 0.075139 -0.045904 281222.000000 0 0 1
-0.990527 32.454814 -16.938715 36.622618 -1.540286 2.051632 0.050995 -0.034336 147291.000000 0 0 1
-0.246127 31.417314 -16.084815 35.296310 -1.562962 2.043964 0.024286 -0.020461 1517800.000000 0 0 1
1.111173 31.779514 -15.722815 35.473640 1.535845 2.029990 0.029280 -0.016386 827031.000000 0 0 1
1.691473 31.022814 -14.713515 34.376789 1.516327 2.013083 0.044789 -0.001772 282592.000000 0 0 1
2.637073 31.869714 -13.806215 34.831658 1.488239 1.978356 0.056566 -0.013027 103567.000000 0 0 1
3.636273 32.511714 -14.580715 35.816634 1.459414 1.990066 0.053747 -0.018261 242383.000000 0 0 1
4.443473 33.351414 -13.726615 36.338426 1.438344 1.958155 0.054703 -0.030123 1070430.000000 0 0 1
5.877673 33.695314 -14.292215 37.070050 1.398098 1.966596 0.066781 -0.045131 1212590.000000 0 0 1
6.700573 32.531414 -14.350615 36.181912 1.367665 1.978633 0.071540 -0.029920 -236539.000000 0 0 1
7.932373 32.748514 -15.007715 36.886572 1.333153 1.989812 0.064388 -0.017533 110771.000000 0 0 1
8.781173 31.497914 -15.150415 36.038350 1.298914 2.004679 0.058378 -0.021009 -401560.000000 0 0 1
9.400873 31.235814 -13.921715 35.466416 1.278455 1.974180 0.047757 -0.021380 -371622.000000 0 0 1
10.362973 30.210314 -14.083215 34.905461 1.240346 1.986100 0.049703 -0.019308 481286.000000 0 0 1
9.699573 28.783314 -14.038715 33.461118 1.245762 2.003749 0.056154 -0.016068 -10971.700000 0 0 1
9.032973 28.308414 -15.151415 33.354554 1.261918 2.042330 0.065023 -0.026780 -362047.000000 0 0 1
8.628373 27.020614 -14.859715 32.021454 1.261705 2.053364 0.065103 -0.014929 -211616.000000 0 0 1
7.814673 26.302714 -15.975515 31.750889 1.281997 2.098038 0.064936 -0.007387 32957.700000 0 0 1
8.588273 25.611914 -16.895315 31.861893 1.247256 2.129712 0.068840 -0.004863 -331528.000000 0 0 1
7.783173 24.661414 -17.560015 31.258875 1.265089 2.167309 0.058432 -0.007097 -74062.500000 0 0 1
8.605573 23.704814 -18.377115 31.204045 1.222560 2.200535 0.063993 -0.004856 50624.000000 0 0 1
7.819473 22.860014 -19.208615 30.865762 1.241213 2.242509 0.077375 -0.013836 764188.000000 0 0 1
8.767373 21.987814 -19.853315 30.894739 1.191379 2.268698 0.073937 -0.010974 862241.000000 0 0 1
8.005273 20.855214 -20.661115 30.428704 1.204289 2.317197 0.073171 -0.017869 360107.000000 0 0 1
7.197273 20.060014 -19.825315 29.107525 1.226315 2.320069 0.065864 -0.019886 -289067.000000 0 0 1
6.412573 19.172014 -20.551915 28.828257 1.248018 2.364434 0.059900 -0.027910 -383780.000000 0 0 1
25.739373 -12.667186 -9.223515 30.133804 -0.457334 1.881875 0.082375 -0.012428 -5186.890000 0 0 1
26.187773 -12.056086 -8.003315 29.919922 -0.431445 1.841585 0.094642 -0.022139 701137.000000 0 0 1
25.124373 -12.050086 -7.040215 28.740274 -0.447209 1.818275 0.092260 -0.011732 210529.000000 0 0 1
25.426173 -11.220386 -5.747015 28.379844 -0.415589 1.774710 0.076657 -0.015956 -396933.000000 0 0 1
25.344473 -9.828886 -5.770015 27.789250 -0.369955 1.779953 0.083327 -0.024161 214027.000000 0 0 1
26.116273 -9.157086 -6.729015 28.481425 -0.337234 1.809311 0.061879 -0.030058 -1319430.000000 0 0 1
26.454273 -7.686386 -6.280015 28.255047 -0.282768 1.794930 0.098155 -0.031192 -211213.000000 0 0 1
27.339673 -7.546986 -5.191815 28.833482 -0.269338 1.751846 0.116794 -0.028396 1621230.000000 0 0 1
28.632273 -8.218986 -5.203415 30.239615 -0.279537 1.743730 0.096290 -0.028052 953251.000000 0 0 1
29.312773 -8.217586 -3.761815 30.674397 -0.273325 1.693743 0.107076 -0.035355 143782.000000 0 0 1
29.601573 -6.842486 -3.367515 30.568168 -0.227163 1.681184 0.120397 -0.022857 373696.000000 0 0 1
30.327373 -6.767786 -2.162815 31.148519 -0.219560 1.640288 0.121913 -0.019624 -49052.400000 0 0 1
30.644773 -5.312986 -1.777315 31.152669 -0.171667 1.627879 0.115663 -0.027253 252171.000000 0 0 1
29.541073 -4.554586 -1.256415 29.916514 -0.152974 1.612806 0.141926 -0.022587 285581.000000 0 0 1
29.844973 -3.262786 -0.778915 30.032897 -0.108892 1.596735 0.133806 -0.015260 192884.000000 0 0 1
30.664673 -3.080786 0.567685 30.824271 -0.100131 1.552378 0.126999 -0.029221 603941.000000 0 0 1
29.911173 -3.582186 1.672085 30.171281 -0.119193 1.515348 0.141987 -0.042030 675991.000000 0 0 1
30.656873 -3.344786 2.863885 30.971492 -0.108674 1.478196 0.101714 -0.034706 -60429.100000 0 0 1
30.007873 -3.836286 4.199185 30.542146 -0.127153 1.432871 0.108859 -0.034007 -122183.000000 0 0 1
29.934073 -5.253786 4.315085 30.696432 -0.173742 1.429756 0.098748 -0.043235 176119.000000 0 0 1
30.057073 -5.744386 5.630785 31.114809 -0.188839 1.388826 0.096332 -0.043817 -304092.000000 0 0 1
30.690273 -7.118786 5.620885 32.002567 -0.227925 1.394242 0.066224 -0.034885 1122170.000000 0 0 1
32.126873 -7.088186 5.459285 33.349395 -0.217152 1.406357 0.062956 -0.042083 896373.000000 0 0 1
32.782973 -8.296486 5.644885 34.284395 -0.247869 1.405394 0.066966 -0.042903 107851.000000 0 0 1
34.304273 -8.188886 5.884685 35.755706 -0.234328 1.405464 0.084920 -0.041659 -14702.000000 0 0 1
35.046673 -7.731086 4.792785 36.207869 -0.217117 1.438038 0.091669 -0.037941 -146364.000000 0 0 1
36.417673 -7.617286 5.120785 37.556523 -0.206192 1.434022 0.115335 -0.041729 52619.400000 0 0 1
-35.919039 -7.217586 3.931585 36.847365 0.198300 1.463894 0.110742 -0.036337 -217679.000000 0 0 1
-35.842039 -8.308186 3.024985 36.916504 0.227777 1.488763 0.127708 -0.033417 268876.000000 0 0 1
-34.799139 -8.043986 2.105785 35.778766 0.227165 1.511907 0.139623 -0.034792 -123824.000000 0 0 1
-34.403739 -9.126386 1.134885 35.611742 0.259301 1.538923 0.134348 -0.029658 -146532.000000 0 0 1
-34.057839 -10.298986 1.859685 35.629538 0.293654 1.518578 0.127897 -0.025624 363995.000000 0 0 1
-33.533139 -11.299986 0.999185 35.399993 0.325029 1.542567 0.121643 -0.029693 -251961.000000 0 0 1
-33.246439 -12.682686 1.669485 35.622513 0.364435 1.523913 0.083646 -0.022813 471833.000000 0 0 1
-32.016539 -12.776686 2.369285 34.553089 0.379700 1.502173 0.088712 -0.021592 104006.000000 0 0 1
-30.961439 -13.307886 1.601585 33.738340 0.405947 1.523308 0.078743 -0.008976 79166.600000 0 0 1
-29.731239 -13.723486 2.445285 32.836871 0.432446 1.496260 0.080976 -0.010735 129825.000000 0 0 1
-28.933739 -12.703886 2.957685 31.737956 0.413726 1.477470 0.075828 -0.013712 280040.000000 0 0 1
-27.640039 -13.077786 3.384385 30.764498 0.441935 1.460564 0.073975 -0.004258 517395.000000 0 0 1
-26.905739 -11.979386 4.223985 29.753429 0.418885 1.428349 0.088811 -0.010758 707898.000000 0 0 1
-25.491539 -12.138686 4.419585 28.577946 0.444415 1.415523 0.079124 0.000044 1088090.000000 0 0 1
-24.932239 -10.949586 4.993185 27.684687 0.413814 1.389445 0.074999 -0.002746 744649.000000 0 0 1
-23.473639 -11.263986 5.501485 26.611190 0.447404 1.362559 0.082183 0.004323 822235.000000 0 0 1
-23.430739 -12.119286 6.631385 27.200219 0.477343 1.324515 0.076880 0.000350 -219257.000000 0 0 1
-22.093439 -12.462586 6.892585 26.285810 0.513593 1.305478 0.072963 -0.001950 -180496.000000 0 0 1
-21.722139 -12.281786 8.364285 26.318337 0.514593 1.247375 0.075487 -0.004607 -499036.000000 0 0 1
-21.345939 -10.961786 8.682385 25.518497 0.474413 1.223625 0.066697 -0.001646 119253.000000 0 0 1
-22.386339 -10.068786 8.993985 26.142310 0.422666 1.219581 0.073240 -0.004118 -592892.000000 0 0 1
-22.992939 -10.137786 10.413485 27.200931 0.415268 1.177933 0.081540 -0.006204 -424981.000000 0 0 1
-23.602839 -11.332386 10.800385 28.322523 0.447624 1.179556 0.064908 -0.013816 1175910.000000 0 0 1
-24.943639 -11.535986 10.272985 29.339365 0.433185 1.213072 0.066276 -0.013670 1014850.000000 0 0 1
-26.029639 -11.193486 11.344785 30.521147 0.406122 1.189954 0.084708 -0.017116 -252050.000000 0 0 1
-26.008639 -11.940286 12.536885 31.244091 0.430387 1.157908 0.071298 -0.020429 81852.600000 0 0 1
-27.125739 -11.641486 13.351285 32.397326 0.405395 1.146027 0.070140 -0.028339 109435.000000 0 0 1
-27.163639 -12.455686 14.665485 33.287893 0.429935 1.114568 0.067501 -0.029673 -9700.330000 0 0 1
-27.609539 -13.798386 14.539785 34.118726 0.463463 1.130561 0.056102 -0.020877 276647.000000 0 0 1
-27.065139 -14.489386 15.626985 34.448029 0.491528 1.099951 0.032913 -0.013629 -360695.000000 0 0 1
-27.024339 -16.055986 15.542485 35.066771 0.536093 1.111603 0.038033 -0.011588 -399606.000000 0 0 1
-28.298039 -16.580186 15.769285 36.391646 0.529997 1.122621 0.024518 -0.005086 -336132.000000 0 0 1
-28.131739 -17.984386 15.794485 36.936413 0.568811 1.128946 0.022666 -0.005026 10042.100000 0 0 1
-29.269339 -18.780986 16.471685 38.480333 0.570490 1.128457 0.016228 -0.001497 -85697.300000 0 0 1
-29.355339 -18.682386 17.896685 39.128747 0.566771 1.095750 0.024648 0.000038 37005.400000 0 0 1
-29.926139 -19.785486 18.628985 40.423735 0.584169 1.091852 0.020662 0.000720 -563040.000000 0 0 1
-29.163339 -21.079586 18.691585 40.549040 0.625872 1.091717 0.014399 0.002116 -1459440.000000 0 0 1
-27.948439 -20.856986 19.277285 39.846491 0.641107 1.065818 0.025126 0.006894 -733334.000000 0 0 1
-27.154639 -22.015986 19.489085 40.023774 0.681270 1.062216 0.032439 0.001236 -338857.000000 0 0 1
-25.818939 -21.814386 20.186485 39.369776 0.701525 1.032422 0.041870 0.004397 -797906.000000 0 0 1
-24.797539 -21.461286 19.330185 38.067845 0.713401 1.038188 0.044939 -0.001439 -130922.000000 0 0 1
-23.497839 -21.622886 19.871385 37.610764 0.743868 1.014149 0.063149 -0.001197 773481.000000 0 0 1
-22.298139 -21.296286 18.923985 36.178115 0.762421 1.020338 0.069728 -0.006681 281984.000000 0 0 1
-22.014939 -22.316886 17.972285 36.134526 0.792209 1.050230 0.078687 -0.011732 863584.000000 0 0 1
-20.703439 -22.114286 17.406385 34.937892 0.818336 1.049264 0.086382 -0.017926 764109.000000 0 0 1
-20.352239 -23.107586 16.258685 34.821244 0.848713 1.084993 0.084015 -0.016871 -348705.000000 0 0 1
-20.242039 -24.522486 16.564985 35.853747 0.880730 1.090530 0.094589 -0.020749 88463.500000 0 0 1
-19.146939 -24.893686 17.366985 35.887505 0.915152 1.065658 0.107172 -0.022852 -103310.000000 0 0 1
-17.743639 -24.995086 16.741285 34.926518 0.953467 1.070907 0.114910 -0.023022 -138287.000000 0 0 1
-17.052639 -23.787386 16.634785 33.665239 0.948833 1.053970 0.114810 -0.030930 517117.000000 0 0 1
-15.775739 -23.965886 15.988585 32.846194 0.988638 1.062407 0.108730 -0.028262 658931.000000 0 0 1
-15.038839 -22.605586 15.767385 31.397287 0.983761 1.044668 0.100896 -0.029275 -199849.000000 0 0 1
-15.601539 -21.585886 14.895585 30.516175 0.944954 1.060861 0.108382 -0.025337 -227292.000000 0 0 1
-16.627639 -20.809586 15.452385 30.794374 0.896643 1.045127 0.094914 -0.015914 -287638.000000 0 0 1
-16.168139 -19.659186 16.387685 30.272901 0.882532 0.998776 0.096865 -0.023306 84596.000000 0 0 1
-15.605339 -18.500986 15.701085 28.850254 0.870096 0.995329 0.090462 -0.025088 255429.000000 0 0 1
-15.614839 -17.324186 16.464485 28.548728 0.837246 0.956094 0.081167 -0.027957 -90443.100000 0 0 1
-14.780739 -16.172186 15.771185 26.995187 0.830322 0.946875 0.080129 -0.027794 592393.000000 0 0 1
-15.472239 -15.452286 14.722185 26.361071 0.784753 0.978242 0.057522 -0.025483 329887.000000 0 0 1
-15.570139 -16.158986 13.543185 26.209920 0.803955 1.027781 0.078075 -0.022806 -76512.500000 0 0 1
-16.329739 -15.371786 12.445485 25.648436 0.755189 1.064166 0.059881 -0.018745 2527020.000000 0 0 1
-17.781839 -15.254086 12.743085 26.669592 0.709032 1.072633 0.040048 -0.022517 2541060.000000 0 0 1
-18.507039 -14.372786 11.880785 26.272429 0.660316 1.101549 0.054369 -0.021743 603798.000000 0 0 1
-20.073339 -14.429586 11.951085 27.458702 0.623261 1.120493 0.050270 -0.024731 991782.000000 0 0 1
-20.721439 -15.538286 11.313885 28.263410 0.643415 1.158951 0.062516 -0.026567 -43050.300000 0 0 1
-20.508739 -15.626986 9.928485 27.629439 0.651116 1.203231 0.071094 -0.022626 -691900.000000 0 0 1
-21.249439 -16.767986 9.209485 28.592283 0.668061 1.242853 0.062086 -0.011570 331472.000000 0 0 1
-20.701139 -18.075286 9.465985 29.066441 0.717784 1.239079 0.065266 -0.000061 110948.000000 0 0 1
-21.583039 -19.045486 8.929585 30.137943 0.723022 1.269990 0.056226 -0.016433 242222.000000 0 0 1
-21.048339 -20.467486 9.074985 30.729561 0.771408 1.271008 0.060618 -0.016379 -677884.000000 0 0 1
-19.904039 -20.675386 8.353885 29.890295 0.804404 1.287539 0.081356 -0.014338 -1442250.000000 0 0 1
-19.439439 -21.955886 8.603885 30.561079 0.846114 1.285407 0.081553 -0.020456 182248.000000 0 0 1
-18.162039 -22.280186 7.777385 29.778416 0.886876 1.306557 0.092164 -0.021866 -10080.000000 0 0 1
-16.992839 -21.645586 8.229085 28.722914 0.905239 1.280226 0.080189 -0.024225 -1048360.000000 0 0 1
-15.909639 -22.207486 7.580385 28.350508 0.949142 1.300122 0.100519 -0.016022 -2334020.000000 0 0 1
-14.676939 -21.806686 8.236185 27.545941 0.978389 1.267154 0.067948 -0.008210 -2008030.000000 0 0 1
-13.481939 -22.319486 7.706885 27.190407 1.027409 1.283416 0.085397 -0.005074 -507988.000000 0 0 1
-12.376439 -21.903986 8.447585 26.539076 1.056486 1.246853 0.078057 -0.008868 -543314.000000 0 0 1
-11.031239 -22.237686 7.818085 26.025475 1.110305 1.265683 0.066179 -0.005332 -188515.000000 0 0 1
-10.656539 -23.612386 7.992785 27.110721 1.146852 1.271529 0.052817 0.003011 92626.900000 0 0 1
-9.394639 -24.003086 7.461985 26.834467 1.197732 1.289007 0.057424 -0.003756 452509.000000 0 0 1
-9.350439 -25.535146 7.364585 28.172886 1.219781 1.306317 0.053715 0.002128 -170122.000000 0 0 1
-10.246839 -26.101266 6.430385 28.768449 1.196703 1.345370 0.061252 -0.008204 -262386.000000 0 0 1
-10.280739 -27.517396 6.475085 30.080349 1.213246 1.353839 0.070315 -0.006851 189676.000000 0 0 1
-9.288039 -28.378426 5.646485 30.388905 1.254493 1.383903 0.074913 -0.005195 305835.000000 0 0 1
-7.929139 -28.260916 6.008085 29.960769 1.297260 1.368896 0.066184 -0.002942 -10872.200000 0 0 1
-7.033139 -29.227956 5.440385 30.550552 1.334655 1.391763 0.060761 0.007222 743827.000000 0 0 1
-6.877139 -30.579466 6.197885 31.950157 1.349583 1.375573 0.071457 -0.002325 -193292.000000 0 0 1
-6.533139 -30.429336 7.531385 32.021058 1.359308 1.333371 0.064771 -0.000194 -36032.500000 0 0 1
-6.663139 -31.717556 8.202685 33.431794 1.363730 1.322910 0.096318 -0.012368 -7964.120000 0 0 1
-6.770139 -31.777556 9.755685 33.923756 1.360887 1.279101 0.081877 -0.009652 -193026.000000 0 0 1
-5.666139 -31.329126 10.514985 33.528856 1.391872 1.251804 0.074359 -0.000873 43290.600000 0 0 1
-5.898139 -31.358196 11.905785 34.056897 1.384879 1.213668 0.067380 -0.003273 -36026.600000 0 0 1
-4.955139 -30.456346 12.734285 33.381199 1.409513 1.179399 0.066173 -0.008747 100692.000000 0 0 1
-5.437139 -29.125306 12.735785 32.249747 1.386240 1.164825 0.056736 -0.007865 -74589.300000 0 0 1
-4.863139 -28.280816 13.693485 31.795695 1.400503 1.125560 0.047916 -0.015793 -289326.000000 0 0 1
-5.855139 -27.768396 14.792085 32.002691 1.362984 1.090306 0.056248 -0.018106 -67777.800000 0 0 1
-6.284139 -28.755136 15.681985 33.350756 1.355639 1.081263 0.041208 -0.018360 -77264.500000 0 0 1
-5.338139 -29.392796 16.537085 34.145386 1.391141 1.065218 0.031143 -0.015319 5585.260000 0 0 1
-5.796139 -30.769126 17.093685 35.672516 1.384603 1.071072 0.038037 -0.013532 4326.820000 0 0 1
-6.059139 -31.766446 16.094985 36.122968 1.382320 1.108996 0.040432 -0.007898 209691.000000 0 0 1
-6.419139 -33.044926 16.649385 37.554953 1.378931 1.111482 0.041743 -0.010438 -179340.000000 0 0 1
-5.810139 33.983852 15.927285 37.978129 -1.401466 1.138034 0.032944 -0.014982 -313922.000000 0 0 1
-6.338139 33.727651 14.616085 37.300890 -1.385042 1.168163 0.044092 -0.015996 151808.000000 0 0 1
-5.691139 32.680580 13.960385 35.990300 -1.398381 1.172452 0.053733 -0.023235 -459265.000000 0 0 1
-4.408139 33.060564 13.223185 35.878757 -1.438243 1.193346 0.075861 -0.023500 -457905.000000 0 0 1
-4.610139 33.593731 11.916585 35.941579 -1.434416 1.232846 0.078650 -0.025819 879847.000000 0 0 1
-3.408139 33.844533 11.146685 35.795480 -1.470435 1.254131 0.098463 -0.031724 429612.000000 0 0 1
-3.741139 34.071649 9.623185 35.601672 -1.461432 1.297090 0.087124 -0.027837 -537795.000000 0 0 1
-4.065139 32.982177 8.749285 34.364216 -1.448162 1.313358 0.091960 -0.037053 558995.000000 0 0 1
-5.139139 32.090817 9.027985 33.730339 -1.412001 1.299841 0.112212 -0.039014 295071.000000 0 0 1
-6.555139 32.616613 9.327785 34.551712 -1.372463 1.297439 0.101897 -0.030086 -445042.000000 0 0 1
-7.345139 33.095114 8.291985 34.899780 -1.352396 1.330908 0.095323 -0.022801 -171181.000000 0 0 1
-8.708339 33.187148 8.712885 35.399666 -1.314181 1.322112 0.077283 -0.024388 774340.000000 0 0 1
-9.619439 33.488192 7.469585 35.634075 -1.291079 1.359611 0.092616 -0.033159 36652.700000 0 0 1
-9.427539 -33.489136 6.897985 35.468055 1.296388 1.375064 0.095937 -0.023313 -7876.700000 0 0 1
-9.942439 -33.537896 5.581685 35.423125 1.282596 1.412565 0.083672 -0.013449 -462454.000000 0 0 1
-9.911539 -32.214046 4.787585 34.042684 1.272311 1.429694 0.068206 -0.012950 701515.000000 0 0 1
-10.896739 -31.203276 5.152185 33.450387 1.234819 1.416156 0.075123 -0.015151 1270440.000000 0 0 1
-12.236839 -31.455856 4.667485 34.073399 1.199794 1.433381 0.075332 -0.014940 596670.000000 0 0 1
-13.160339 -30.390346 5.242885 33.529919 1.162133 1.413788 0.079424 -0.019982 -354138.000000 0 0 1
-13.410139 -30.550876 6.669585 34.024568 1.157174 1.373496 0.075326 -0.013734 -67860.400000 0 0 1
-14.350239 -29.593106 7.090885 33.644642 1.119287 1.358446 0.073081 -0.016201 33318.300000 0 0 1
33.559675 -12.738686 -12.582515 38.037424 -0.362783 1.907940 0.046622 -0.029420 -20107.600000 0 0 1
32.658985 -12.829486 -11.480315 36.918866 -0.374312 1.887000 0.049100 -0.032257 377658.000000 0 0 1
32.290345 -14.156786 -11.095615 36.962057 -0.413184 1.875687 0.051054 -0.031630 643634.000000 0 0 1
33.428085 -14.941386 -10.330115 38.044621 -0.420332 1.845775 0.053325 -0.033927 132955.000000 0 0 1
34.558055 -15.300686 -11.039215 39.373017 -0.416811 1.854981 0.052945 -0.040284 -294452.000000 0 0 1
35.495475 -15.933186 -10.133815 40.205589 -0.421922 1.825594 0.048070 -0.038172 -196195.000000 0 0 1
-36.275217 -15.950686 -10.606315 41.022063 0.414266 1.832319 0.026985 -0.038139 -783991.000000 0 0 1
-35.741655 -14.650086 -10.605815 40.057137 0.389002 1.838759 0.036621 -0.030621 433944.000000 0 0 1
-34.385375 -14.578786 -11.043215 38.946728 0.401008 1.858287 0.052345 -0.027079 609069.000000 0 0 1
-33.834727 -13.150386 -11.207415 37.991151 0.370697 1.870253 0.065017 -0.028646 -266097.000000 0 0 1
-33.676167 -12.392986 -9.983215 37.246945 0.352624 1.842142 0.081138 -0.024852 476377.000000 0 0 1
-32.989177 -11.141186 -10.223415 36.289531 0.325696 1.856381 0.085449 -0.022350 108080.000000 0 0 1
-33.316387 -9.941786 -9.300015 35.990430 0.289993 1.832164 0.094244 -0.030902 -215159.000000 0 0 1
-32.582767 -9.937786 -8.128815 35.021050 0.296039 1.805045 0.101282 -0.025415 215968.000000 0 0 1
-33.237807 -9.098286 -7.173315 35.199248 0.267188 1.776026 0.115598 -0.032688 420237.000000 0 0 1
-32.552427 -9.106186 -5.731415 34.284577 0.272767 1.738757 0.103171 -0.024028 152637.000000 0 0 1
-31.274187 -8.475886 -5.718915 32.903213 0.264661 1.745494 0.114001 -0.038640 588711.000000 0 0 1
-30.746067 -8.382186 -4.356615 32.164604 0.266158 1.706661 0.118003 -0.035287 -42310.500000 0 0 1
-30.115597 -9.700686 -3.728915 31.858394 0.311620 1.688112 0.110540 -0.029908 -749630.000000 0 0 1
-30.959957 -10.791986 -3.621615 32.986391 0.335408 1.680809 0.117088 -0.029748 121139.000000 0 0 1
-31.727627 -10.923786 -2.416415 33.642391 0.331587 1.642685 0.090169 -0.024557 214851.000000 0 0 1
-32.474357 -12.278986 -2.311515 34.795121 0.361497 1.637277 0.092708 -0.020391 -176677.000000 0 0 1
-33.702937 -12.378586 -3.017715 36.030875 0.351990 1.654648 0.096223 -0.027982 309200.000000 0 0 1
-34.258037 -13.646386 -2.703615 36.974944 0.379076 1.643982 0.088288 -0.022210 -926278.000000 0 0 1
-35.751872 -13.488886 -2.498815 38.293478 0.360778 1.636097 0.075805 -0.021077 -971674.000000 0 0 1
-36.049677 -12.714286 -1.337415 38.249457 0.339067 1.605769 0.095993 -0.025333 365731.000000 0 0 1
35.780975 -12.519786 -1.101715 37.924095 -0.336586 1.599851 0.115181 -0.026297 39476.300000 0 0 1
35.316685 -11.531086 0.019285 37.151508 -0.315593 1.570277 0.111754 -0.032406 -13335.900000 0 0 1
35.613525 -11.949586 1.327785 37.588280 -0.323731 1.535465 0.123440 -0.024834 120909.000000 0 0 1
35.502665 -10.802286 2.200985 37.174897 -0.295367 1.511555 0.110207 -0.025913 -144912.000000 0 0 1
35.755175 -11.115386 3.675985 37.623094 -0.301404 1.472935 0.118787 -0.040284 -71331.700000 0 0 1
34.687515 -11.747786 4.315585 36.876259 -0.326550 1.453499 0.108079 -0.039846 -76830.100000 0 0 1
35.175825 -12.175886 5.597485 37.642034 -0.333235 1.421540 0.112301 -0.038751 122900.000000 0 0 1
34.119515 -12.283386 6.713085 36.879376 -0.345565 1.387748 0.095613 -0.033992 -178842.000000 0 0 1
33.652185 -11.024086 7.102185 36.117047 -0.316572 1.372863 0.079783 -0.039393 -155785.000000 0 0 1
33.236655 -11.206586 8.448885 36.078338 -0.325205 1.334420 0.064235 -0.027056 -237145.000000 0 0 1
32.394085 -9.949886 8.864885 35.028034 -0.298005 1.314934 0.053625 -0.037213 -209855.000000 0 0 1
31.046035 -9.942286 8.467085 33.680809 -0.309924 1.316678 0.067307 -0.035497 -458820.000000 0 0 1
30.333095 -8.977386 9.163185 32.934087 -0.287746 1.288848 0.066617 -0.021380 -1022260.000000 0 0 1
28.850395 -9.153686 8.883285 31.544382 -0.307235 1.285322 0.071079 -0.023988 -915512.000000 0 0 1
28.375225 -8.535386 7.718085 30.619847 -0.292194 1.315986 0.087078 -0.028691 -229353.000000 0 0 1
27.561385 -9.463186 7.070585 29.986247 -0.330738 1.332761 0.109967 -0.039292 -611292.000000 0 0 1
26.753185 -8.886186 5.908585 28.802927 -0.320689 1.364191 0.117602 -0.038617 -548604.000000 0 0 1
25.677285 -8.137486 6.401285 27.686063 -0.306901 1.337475 0.123064 -0.035963 124115.000000 0 0 1
24.661885 -7.821886 5.455085 26.441415 -0.307129 1.362996 0.137791 -0.039264 194609.000000 0 0 1
24.925085 -6.625186 4.491585 26.178757 -0.259797 1.398370 0.135174 -0.036086 -362918.000000 0 0 1
25.912085 -6.805786 3.485785 27.016765 -0.256848 1.441413 0.127816 -0.032934 220569.000000 0 0 1
26.470185 -5.560686 3.140285 27.229641 -0.207063 1.455213 0.135072 -0.035649 280527.000000 0 0 1
27.160885 -5.586586 1.746285 27.784405 -0.202856 1.507904 0.133367 -0.043119 1212240.000000 0 0 1
26.139085 -5.789986 0.705285 26.781956 -0.217987 1.544459 0.140666 -0.044557 1051770.000000 0 0 1
26.653485 -5.485786 -0.554615 27.217820 -0.202984 1.591175 0.134080 -0.044347 64793.200000 0 0 1
25.644985 -5.879686 -1.694915 26.364914 -0.225377 1.635127 0.129805 -0.041079 1238700.000000 0 0 1
24.474785 -5.027286 -1.749715 25.046960 -0.202589 1.640711 0.132725 -0.034570 659215.000000 0 0 1
23.861285 -5.214486 -2.998715 24.607806 -0.215151 1.692960 0.125010 -0.034398 902590.000000 0 1 0
22.420285 -4.550186 -3.122315 23.089440 -0.200230 1.706439 0.087353 -0.028909 923677.000000 0 1 0
22.404385 -3.088586 -3.078215 22.824795 -0.136993 1.706071 0.086233 -0.029597 201431.000000 0 1 0
23.009785 -2.448286 -4.156615 23.510036 -0.106003 1.748532 0.099434 -0.028129 -163547.000000 0 1 0
22.039485 -1.448586 -4.841815 22.611512 -0.065632 1.786598 0.073595 -0.020237 82172.600000 0 1 0
21.802785 -0.317386 -4.079415 22.183413 -0.014556 1.755744 0.062623 -0.012048 51351.900000 0 1 0
21.032585 0.547414 -4.814315 21.583488 0.026021 1.795744 0.067293 -0.007615 -1121070.000000 0 1 0
20.902485 1.963814 -4.164515 21.403589 0.093676 1.766616 0.068113 0.000597 -258534.000000 0 1 0
21.946285 2.916414 -4.325415 22.557795 0.132115 1.763739 0.087228 -0.000116 202370.000000 0 1 0
23.058685 2.645814 -3.520115 23.475402 0.114243 1.721313 0.121554 0.001922 -167563.000000 0 1 0
24.186585 3.738114 -3.592715 24.736047 0.153340 1.716554 0.127546 -0.002873 173842.000000 0 1 0
23.861985 5.065714 -3.195215 24.602138 0.209187 1.701040 0.104790 0.003477 959719.000000 0 1 0
24.995585 5.738914 -2.621115 25.779540 0.225686 1.672647 0.110092 -0.005746 482390.000000 0 0 1
24.628485 7.212514 -2.422715 25.776970 0.284887 1.664923 0.088427 -0.009429 201590.000000 0 0 1
23.663585 7.378214 -1.377115 24.825385 0.302243 1.626297 0.096308 -0.013256 650384.000000 0 1 0
22.678885 8.263314 -1.882715 24.210717 0.349411 1.648639 0.093817 -0.014815 -228212.000000 0 1 0
21.532585 8.647814 -0.947315 23.223573 0.381898 1.611599 0.074023 -0.009177 -458314.000000 0 1 0
22.056485 9.534214 0.005285 24.028937 0.408007 1.570576 0.054035 -0.013957 1464630.000000 0 1 0
21.042585 10.109614 0.896685 23.362336 0.447874 1.532405 0.035554 -0.010345 407247.000000 0 1 0
21.683285 10.632314 2.145785 24.244904 0.455895 1.482176 0.063785 -0.015081 40544.700000 0 1 0
22.632385 11.722914 2.072885 25.572415 0.477921 1.489648 0.079780 -0.028954 838837.000000 0 0 1
22.087985 12.919614 1.596085 25.638701 0.529254 1.508503 0.074501 -0.020138 -881686.000000 0 0 1
21.015885 13.679414 2.416585 25.191937 0.577013 1.474722 0.059465 -0.009649 965158.000000 0 0 1
19.714185 13.018414 2.331885 23.739543 0.583622 1.472410 0.096176 -0.006234 2061370.000000 0 1 0
18.659885 13.738414 3.018585 23.367653 0.634645 1.441256 0.087805 -0.013789 591661.000000 0 1 0
18.602885 13.585814 4.537485 23.478297 0.630778 1.376310 0.075902 -0.011763 -434959.000000 0 1 0
18.406085 12.293514 5.002485 22.692274 0.588859 1.348522 0.083442 -0.006985 392527.000000 0 1 0
18.679685 12.323214 6.353985 23.262961 0.583172 1.294143 0.089155 -0.018045 -155731.000000 0 1 0
18.488185 10.979914 7.078985 22.638099 0.535913 1.252760 0.052293 -0.018266 -4339.660000 0 1 0
19.371685 10.064214 6.457485 22.765098 0.479151 1.283190 0.029337 -0.023831 482261.000000 0 1 0
19.555185 8.886514 7.118485 22.628483 0.426534 1.250781 0.049556 -0.016914 167008.000000 0 1 0
20.466585 7.932514 6.276785 22.829891 0.369757 1.292272 0.049153 -0.024227 208509.000000 0 1 0
19.867285 7.537114 5.034185 21.837127 0.362599 1.338171 0.025312 -0.024672 572881.000000 0 1 0
20.713285 6.701114 4.289685 22.188883 0.312891 1.376245 0.031915 -0.031522 -166694.000000 0 1 0
20.333885 6.547614 2.783585 21.542667 0.311521 1.441221 0.037776 -0.021317 -1101010.000000 0 1 0
21.236185 5.718914 2.187985 22.101331 0.263060 1.471636 0.035640 -0.021491 -468543.000000 0 1 0
21.033085 5.479014 0.790385 21.749367 0.254832 1.534448 0.044332 -0.011432 -1245930.000000 0 1 0
22.097585 4.727114 0.079485 22.597681 0.210744 1.567279 0.083965 -0.017323 -860736.000000 0 1 0
22.059285 3.364914 0.518985 22.320485 0.151373 1.547543 0.075597 -0.012731 757973.000000 0 1 0
23.218585 2.607514 0.186485 23.365286 0.111834 1.562815 0.101161 -0.013623 125547.000000 0 1 0
23.088685 1.157814 0.585585 23.125113 0.050104 1.545471 0.126707 -0.020132 325194.000000 0 1 0
22.041185 0.379714 -0.038615 22.044490 0.017226 1.572548 0.081623 -0.026885 1252000.000000 0 1 0
22.485685 -0.819486 -0.672815 22.510670 -0.036429 1.600689 0.118212 -0.025821 -1368790.000000 0 1 0
22.414085 -2.061186 0.242185 22.509961 -0.091701 1.560037 0.134734 -0.020381 204271.000000 0 1 0
23.419785 -2.106486 1.241385 23.547073 -0.089703 1.518053 0.144307 -0.021394 830007.000000 0 1 0
24.749085 -2.271786 0.767385 24.864978 -0.091536 1.539929 0.159436 -0.028179 -109646.000000 0 1 0
25.875585 -1.960286 1.800085 26.012092 -0.075614 1.501539 0.159811 -0.028800 161667.000000 0 0 1
25.906185 -0.589786 2.106085 25.998344 -0.022762 1.489699 0.152704 -0.027357 153356.000000 0 0 1
26.534885 -0.372286 3.322385 26.744663 -0.014029 1.446248 0.146235 -0.026531 -252349.000000 0 0 1
26.190985 1.076814 3.817485 26.489629 0.041091 1.426180 0.128928 -0.019148 45698.700000 0 0 1
26.482785 2.192214 2.968585 26.738665 0.082591 1.459545 0.145381 -0.018677 61688.200000 0 0 1
27.838385 2.536114 2.771885 28.090762 0.090851 1.471959 0.150989 -0.021110 107313.000000 0 0 1
28.148385 3.757314 1.838685 28.457508 0.132698 1.506140 0.158931 -0.029910 -229607.000000 0 0 1
27.903185 3.496914 0.443685 28.124954 0.124673 1.555020 0.200073 -0.029156 188768.000000 0 0 1
28.378615 4.394014 -0.530115 28.721668 0.153616 1.589254 0.187509 -0.019890 -682068.000000 0 0 1
29.811745 4.137514 -0.984915 30.113606 0.137907 1.603509 0.160069 -0.022731 -765063.000000 0 0 1
30.753135 4.320914 0.046685 31.055238 0.139589 1.569293 0.141361 -0.031512 -1297850.000000 0 0 1
32.019625 4.141214 -0.473015 32.289779 0.128620 1.585446 0.117648 -0.027865 -984437.000000 0 0 1
33.055965 4.575614 0.589785 33.376353 0.137546 1.553125 0.085890 -0.026701 -402694.000000 0 0 1
33.196515 3.715614 1.713485 33.447727 0.111464 1.519545 0.089294 -0.020671 -43472.300000 0 0 1
32.285585 4.053014 2.722685 32.652702 0.124883 1.487316 0.089877 -0.015058 -220094.000000 0 0 1
32.295175 2.962614 3.794185 32.651972 0.091479 1.454332 0.097381 -0.019100 -180524.000000 0 0 1
31.432265 1.863814 3.518985 31.683503 0.059227 1.459500 0.113620 -0.018392 248057.000000 0 0 1
31.745785 0.607214 4.162485 32.023271 0.019125 1.440444 0.098698 -0.017781 -817295.000000 0 0 1
32.988505 -0.148686 3.766785 33.203197 -0.004507 1.457105 0.099352 -0.026790 -805114.000000 0 0 1
34.151405 0.562214 4.114785 34.402994 0.016461 1.450904 0.091416 -0.021761 209822.000000 0 0 1
35.320805 -0.239686 3.943985 35.541128 -0.006786 1.459598 0.077481 -0.027519 -113976.000000 0 0 1
-36.575697 0.350114 4.517285 36.855258 -0.009572 1.447919 0.088443 -0.039461 317856.000000 0 0 1
-35.979284 1.434914 3.821685 36.210125 -0.039861 1.465058 0.089538 -0.038135 354731.000000 0 0 1
-35.557929 1.152914 2.469885 35.662247 -0.032412 1.501483 0.104211 -0.035476 -921291.000000 0 0 1
-35.624467 2.420814 1.597185 35.742328 -0.067849 1.526095 0.095769 -0.031977 58179.400000 0 0 1
-34.604879 3.375914 1.834385 34.817516 -0.097248 1.518086 0.129349 -0.040450 -41687.800000 0 0 1
-33.445097 3.058314 1.102085 33.602714 -0.091189 1.537993 0.157265 -0.033906 -663498.000000 0 0 1
-32.232347 3.862014 1.636185 32.504099 -0.119249 1.520437 0.156378 -0.030060 -76183.200000 0 0 1
-31.748777 3.349014 2.899585 32.056330 -0.105096 1.480220 0.163449 -0.041729 -46617.500000 0 0 1
-30.975287 4.344514 3.543885 31.478601 -0.139348 1.457976 0.182505 -0.030043 -808926.000000 0 0 1
-31.188337 4.561714 5.055685 31.923057 -0.145234 1.411756 0.178322 -0.028875 466961.000000 0 0 1
-32.538617 4.917814 5.410185 33.349911 -0.150002 1.407851 0.167466 -0.019263 1087800.000000 0 0 1
-33.447147 3.810014 5.352085 34.086253 -0.113423 1.413128 0.156228 -0.020830 -476515.000000 0 0 1
-33.507497 2.950314 6.602585 34.279014 -0.087823 1.376972 0.132611 -0.017335 -589156.000000 0 0 1
-33.856477 3.676014 7.809585 34.939429 -0.108153 1.345374 0.120903 -0.010236 458437.000000 0 0 1
-33.868857 2.922914 9.035585 35.175058 -0.086088 1.311009 0.106846 -0.012863 572066.000000 0 0 1
-35.047838 1.872114 9.221185 36.288924 -0.053365 1.313874 0.088585 -0.007118 241927.000000 0 0 1
-34.900484 0.677214 8.415785 35.907211 -0.019402 1.334220 0.089338 -0.014585 96473.700000 0 0 1
-35.792115 -0.367886 8.766185 36.851823 0.010278 1.330617 0.095919 -0.016187 -153171.000000 0 0 1
-35.429091 -1.173686 10.032085 36.840748 0.033116 1.295004 0.100178 -0.015964 -855807.000000 0 0 1
-34.386300 -2.009686 9.729085 35.792619 0.058378 1.295514 0.112348 -0.026783 -868345.000000 0 0 1
-34.052682 -2.753786 10.856885 35.847461 0.080693 1.263101 0.113708 -0.018579 213119.000000 0 0 1
-32.769027 -3.639586 10.769985 34.684986 0.110615 1.255068 0.150614 -0.019538 300371.000000 0 0 1
-32.870567 -4.592186 9.743085 34.590317 0.138807 1.285261 0.141511 -0.032929 324663.000000 0 0 1
-31.731297 -5.445586 9.686085 33.620676 0.169960 1.278555 0.149985 -0.043574 387961.000000 0 0 1
-31.882237 -6.568086 8.636485 33.677970 0.203168 1.311456 0.136559 -0.030799 251753.000000 0 0 1
-32.886917 -7.517586 8.939285 34.899487 0.224728 1.311766 0.135003 -0.034471 -130488.000000 0 0 1
-33.347687 -8.178086 7.828385 35.216941 0.240491 1.346633 0.113263 -0.038508 274612.000000 0 0 1
-34.460498 -9.206386 8.179485 36.594910 0.261061 1.345378 0.120165 -0.036808 264266.000000 0 0 1
-35.714578 -8.713486 8.570485 37.747968 0.239301 1.341754 0.114865 -0.046111 -219526.000000 0 0 1
-36.553017 -9.691386 9.107685 38.897248 0.259169 1.334455 0.105641 -0.050933 -186864.000000 0 0 1
8.092873 -23.786186 10.641185 27.285748 -1.242848 1.170175 0.105008 -0.028327 57015.500000 0 0 1
7.593773 -24.447086 9.478585 27.297783 -1.269624 1.216182 0.104268 -0.028701 133851.000000 0 0 1
6.193573 -24.686786 9.517485 27.173153 -1.324984 1.212955 0.104960 -0.035799 685973.000000 0 0 1
5.791473 -25.810516 8.551585 27.800243 -1.350068 1.258118 0.084952 -0.017774 55708.300000 0 0 1
5.503873 -25.388736 7.253485 26.972089 -1.357316 1.298519 0.090558 -0.016671 -333444.000000 0 0 1
5.125073 -26.468256 6.428385 27.715683 -1.379532 1.336724 0.070367 -0.012154 -341214.000000 0 0 1
4.314273 -25.996246 5.193885 26.858783 -1.406338 1.376193 0.074276 -0.006659 892076.000000 0 0 1
2.925973 -25.840066 5.517185 26.584011 -1.458043 1.361739 0.064585 -0.012951 281441.000000 0 0 1
2.117673 -26.916516 5.079685 27.473379 -1.492282 1.384832 0.053821 -0.012443 1149040.000000 0 0 1
0.559473 -26.644116 5.024085 27.119428 -1.549801 1.384462 0.061785 -0.014557 880376.000000 0 0 1
0.013673 -26.361336 6.255185 27.093312 -1.570278 1.337819 0.061141 -0.012884 347066.000000 0 0 1
-1.410527 -26.564536 6.364185 27.352642 1.517748 1.335972 0.042541 -0.006450 1315850.000000 0 0 1
-1.927427 -28.005356 6.520885 28.819037 1.502081 1.342550 0.047289 -0.004832 -456336.000000 0 0 1
-1.639827 -28.536806 7.805485 29.630456 1.513396 1.304223 0.050067 -0.005570 177608.000000 0 0 1
-2.228627 -29.850626 7.997385 30.983622 1.496275 1.309724 0.064508 -0.007637 262207.000000 0 0 1
-1.976027 -30.553916 9.364685 32.017867 1.506213 1.273974 0.071417 -0.006462 -294657.000000 0 0 1
-0.717727 -31.125396 9.523485 32.557675 1.547741 1.273944 0.071793 -0.008808 -824017.000000 0 0 1
-0.415227 -31.329436 10.860685 33.161129 1.557544 1.237127 0.068927 -0.002305 711645.000000 0 0 1
1.127473 -31.314646 11.149485 33.259424 -1.534807 1.228949 0.050284 -0.009409 -61081.600000 0 0 1
1.659873 -32.487486 10.622185 34.220210 -1.519748 1.255175 0.055741 -0.015309 -726096.000000 0 0 1
3.038773 -32.606076 10.843585 34.495995 -1.477868 1.251032 0.058357 -0.011109 -208923.000000 0 0 1
3.458073 -33.014896 12.262085 35.387856 -1.466434 1.216953 0.054938 -0.012119 -802752.000000 0 0 1
3.105973 -32.170326 13.299585 34.949333 -1.474547 1.180417 0.047288 -0.004309 -140575.000000 0 0 1
3.754873 -32.594036 14.462485 35.855735 -1.456101 1.155619 0.047267 0.000028 -372118.000000 0 0 1
3.387773 -31.699446 15.692985 35.533107 -1.464329 1.113366 0.050041 -0.000288 200158.000000 0 0 1
3.873073 -30.329756 15.649285 34.348143 -1.443785 1.097741 0.047459 -0.006549 611788.000000 0 0 1
5.267673 -30.088156 15.838285 34.407801 -1.397478 1.092451 0.045159 0.004130 400061.000000 0 0 1
5.714673 -28.855496 15.059585 33.046758 -1.375282 1.097632 0.061195 -0.005182 -383358.000000 0 0 1
6.007873 -28.964886 13.712685 32.605167 -1.366277 1.136725 0.057000 -0.001888 -618941.000000 0 0 1
4.884373 -29.082786 12.896785 32.186839 -1.404402 1.158532 0.050993 0.003330 -552446.000000 0 0 1
5.224773 -29.251546 11.337685 31.803998 -1.394045 1.206292 0.049909 -0.011441 234950.000000 0 0 1
5.597873 -30.527636 10.843385 32.876310 -1.389440 1.234680 0.043817 -0.009436 -783253.000000 0 0 1
6.916673 -30.860096 11.138385 33.529830 -1.350310 1.232168 0.042427 -0.006208 -744023.000000 0 0 1
7.352073 -32.234986 10.646085 34.734513 -1.346555 1.259284 0.020266 -0.004223 -204413.000000 0 0 1
6.854973 -33.277556 11.459785 35.856841 -1.367644 1.245491 0.014505 -0.011834 66735.300000 0 0 1
7.045573 33.710352 10.793885 36.090662 1.364759 1.267071 0.019781 -0.010203 32224.200000 0 0 1
6.705073 32.422419 11.604685 35.083329 1.366867 1.233672 0.014350 -0.008194 1125590.000000 0 0 1
5.319673 32.329635 11.995185 34.891097 1.407713 1.219847 0.025049 -0.005017 736374.000000 0 0 1
5.126973 31.159887 12.765885 34.061594 1.407720 1.186628 0.040831 0.000125 -133628.000000 0 0 1
3.959673 31.176477 13.747685 34.302340 1.444464 1.158428 0.045645 -0.004541 -250907.000000 0 0 1
4.111373 31.969977 14.921385 35.519439 1.442897 1.137251 0.062283 -0.005082 782299.000000 0 0 1
3.052673 31.713877 15.888085 35.602247 1.474835 1.108207 0.053266 -0.001348 736263.000000 0 0 1
3.589473 31.911827 17.286285 36.470051 1.458786 1.076985 0.049979 0.000524 52101.300000 0 0 1
3.716373 33.228484 17.763085 37.861204 1.459416 1.082453 0.052639 0.006572 -28556.500000 0 0 1
4.332273 33.283446 19.014385 38.575940 1.441361 1.055368 0.052615 0.003360 43284.600000 0 0 1
4.644073 -33.528026 19.485785 39.056264 -1.433159 1.048449 0.047399 -0.002049 355958.000000 0 0 1
3.443773 -32.846296 19.817785 38.516014 -1.466333 1.030333 0.043709 -0.003633 55040.200000 0 0 1
3.614573 -31.961926 20.892785 38.355421 -1.458185 0.994747 0.043551 -0.007874 -509682.000000 0 0 1
2.323373 -31.266416 21.265185 37.883967 -1.496624 0.974811 0.042849 -0.007973 50933.000000 0 0 1
1.413273 -32.133966 22.004685 38.971724 -1.526844 0.970809 0.054352 -0.009099 801942.000000 0 0 1
0.314073 -31.352126 22.525085 38.606138 -1.560779 0.947815 0.054627 -0.018275 805468.000000 0 0 1
-0.749027 -32.274726 23.220785 39.767120 1.547593 0.947248 0.039781 -0.013265 557598.000000 0 0 1
-1.607727 -32.935666 22.234085 39.770560 1.522021 0.977546 0.038657 -0.015012 708942.000000 0 0 1
-2.470727 -33.945796 22.742185 40.934442 1.498140 0.981741 0.038564 -0.016160 99884.800000 0 0 1
-3.842727 -33.482006 23.261585 40.950123 1.456526 0.966666 0.053008 -0.014244 -227055.000000 0 0 1
-4.729327 -33.022036 22.252685 40.099917 1.428546 0.982516 0.037086 -0.017846 -209827.000000 0 0 1
-5.915327 -32.604566 22.920585 40.291464 1.391322 0.965666 0.038584 -0.011786 -641854.000000 0 0 1
-6.998327 -32.256426 21.957885 39.643440 1.357148 0.983774 0.016095 -0.006769 -845911.000000 0 0 1
-7.706727 -33.299966 21.324585 40.286714 1.343367 1.012997 0.003511 0.000979 -658253.000000 0 0 1
-8.718527 -32.770066 20.558485 39.655280 1.310768 1.025782 0.023389 -0.014655 -1384610.000000 0 0 1
-9.941827 -33.644046 20.561785 40.663851 1.283473 1.040658 0.043963 -0.013006 -759169.000000 0 0 1
-10.582127 -33.571916 21.810185 41.409409 1.265447 1.016087 0.068601 -0.024898 615714.000000 0 0 1
-11.862627 33.984690 21.821785 42.093602 -1.234961 1.025805 0.055436 -0.016813 987147.000000 0 0 1
-12.366027 33.492842 23.200385 42.578714 -1.217108 0.994548 0.050360 -0.013071 -278531.000000 0 0 1
-12.760327 -33.630906 24.032085 43.259737 1.208154 0.981796 0.049728 -0.010999 -179297.000000 0 0 1
-11.800127 -32.730986 24.575085 42.596892 1.224782 0.955841 0.031127 -0.009883 -313013.000000 0 0 1
-12.289727 -31.335746 25.025885 41.943549 1.197036 0.931468 0.029074 -0.013093 -18599.000000 0 0 1
-12.858727 -31.271546 26.337085 42.859054 1.180676 0.909038 0.030921 -0.004510 279530.000000 0 0 1
-13.561527 -30.044936 26.472985 42.278034 1.146800 0.894173 0.053544 -0.016304 -33746.600000 0 0 1
-14.165027 -29.801316 27.872585 43.193141 1.127091 0.869379 0.055706 -0.019252 -47392.100000 0 0 1
-13.210627 -29.587036 28.871985 43.399365 1.150856 0.842951 0.039821 -0.010348 300475.000000 0 0 1
-13.964227 -29.303086 30.048885 44.233539 1.126089 0.823956 0.049276 -0.015109 88706.100000 0 0 1
-13.119427 -29.068316 31.323885 44.702037 1.146836 0.794382 0.038003 -0.011328 -479730.000000 0 0 1
-13.983627 -28.782966 32.380485 45.524683 1.118549 0.779489 0.046459 -0.013194 103341.000000 0 0 1
-13.465527 -28.537446 33.683585 46.155066 1.129917 0.752779 0.044520 -0.011152 -107939.000000 0 0 1
-12.729827 -29.725106 -33.729816 46.726126 1.166175 2.377286 0.040702 -0.005133 435480.000000 0 0 1
-11.395927 -29.970966 34.057885 46.776762 1.207446 0.755259 0.026416 -0.004929 -196572.000000 0 0 1
-11.018427 -31.168966 -33.521816 47.081018 1.231001 2.363143 0.028825 -0.001058 920708.000000 0 0 1
-9.470927 -31.446036 -33.585116 46.973520 1.278257 2.367391 0.042598 -0.012346 1207670.000000 0 0 1
-8.666627 -30.820896 -32.611116 45.700360 1.296681 2.365399 0.057327 -0.020605 211003.000000 0 0 1
-7.269027 -31.066726 -32.615916 45.626507 1.340950 2.367200 0.057860 -0.029274 703157.000000 0 0 1
-6.516127 -30.226716 -31.532616 44.163561 1.358471 2.365986 0.062535 -0.022197 132171.000000 0 0 1
-6.979027 -30.517446 -30.226616 43.516314 1.345973 2.338666 0.068562 -0.028593 140998.000000 0 0 1
-6.184627 -29.904796 -29.195016 42.248022 1.366861 2.333721 0.059673 -0.015376 144927.000000 0 0 1
-6.629827 -30.164716 -27.745416 41.517138 1.354449 2.302702 0.063065 -0.027362 -123793.000000 0 0 1
-6.478127 -31.528886 -27.393016 42.265992 1.368150 2.275896 0.053367 -0.021410 -306569.000000 0 0 1
-7.045927 -31.930156 -26.175416 41.884751 1.353610 2.245850 0.061332 -0.024535 -141875.000000 0 0 1
-6.396927 -33.163076 -25.593216 42.375972 1.380244 2.219251 0.054875 -0.025440 -55818.800000 0 0 1
-5.411127 -32.832596 -24.647516 41.409657 1.407455 2.208326 0.033455 -0.026372 -276690.000000 0 0 1
-5.162027 -34.019866 -23.934516 41.914900 1.420209 2.178552 0.051049 -0.032202 -387424.000000 0 0 1
-4.402127 -33.791956 -22.583416 40.881361 1.441254 2.156053 0.070152 -0.049000 -176224.000000 0 0 1
-5.008427 -33.056766 -21.523316 39.762888 1.420430 2.142769 0.073052 -0.041277 -10122.000000 0 0 1
-5.145527 -31.694166 -21.824916 38.824265 1.409851 2.167775 0.054491 -0.035568 -176405.000000 0 0 1
-5.777327 -30.828206 -20.735416 37.599378 1.385541 2.154937 0.078439 -0.045208 -1787700.000000 0 0 1
-7.110727 -31.037206 -20.505816 37.872933 1.345580 2.142942 0.088982 -0.052901 -1084050.000000 0 0 1
-7.749327 -29.940956 -19.869716 36.760284 1.317534 2.141853 0.082606 -0.044523 38308.500000 0 0 1
-8.157427 -28.798596 -20.852916 36.479403 1.294769 2.179294 0.090888 -0.044323 -764555.000000 0 0 1
-7.020327 -28.153806 -21.349816 36.024109 1.326424 2.205146 0.089866 -0.031019 -212431.000000 0 0 1
-7.381327 -27.465446 -22.544316 36.291609 1.308250 2.241068 0.097998 -0.039887 -356472.000000 0 0 1
-6.423927 -27.945696 -23.685016 37.191514 1.344850 2.261188 0.089045 -0.033142 843193.000000 0 0 1
-5.095527 -27.453686 -23.777916 36.675040 1.387280 2.276199 0.098444 -0.020109 822482.000000 0 0 1
-4.248327 -27.722956 -22.632316 36.039316 1.418737 2.249764 0.081376 -0.028560 424888.000000 0 0 1
-2.699127 -27.482506 -22.893216 35.870221 1.472898 2.262985 0.083991 -0.032602 1308110.000000 0 0 1
-2.214427 -26.164616 -23.107216 34.977625 1.486363 2.292452 0.091878 -0.030608 232966.000000 0 0 1
-2.507427 -25.255776 -22.020716 33.601389 1.471839 2.285444 0.112576 -0.033973 -925180.000000 0 0 1
-2.477227 -23.753986 -22.450616 32.778326 1.466885 2.325294 0.111551 -0.026202 -31629.100000 0 0 1
-3.343527 -23.407286 -23.496916 33.334445 1.428915 2.353056 0.096632 -0.025317 -838692.000000 0 0 1
-4.699427 -23.409186 -23.193416 33.286771 1.372678 2.341689 0.086828 -0.022710 -779484.000000 0 0 1
-5.500027 -23.504386 -24.574516 34.447253 1.340932 2.365128 0.093592 -0.019548 152064.000000 0 0 1
-5.530727 -22.265186 -25.202216 34.080480 1.327322 2.403111 0.113028 -0.023277 -20540.900000 0 0 1
-6.000727 -22.557386 -26.486716 35.304256 1.310797 2.419223 0.124010 -0.021821 120212.000000 0 0 1
-6.391427 -21.272986 -27.232716 35.142724 1.278929 2.457381 0.132774 -0.020325 81148.500000 0 0 1
-6.724027 -21.433886 -28.650616 36.407167 1.266809 2.476646 0.139248 -0.023461 372567.000000 0 0 1
-5.571027 -21.582986 -29.491416 36.967624 1.318189 2.494373 0.122843 -0.029120 301396.000000 0 0 1
-5.832827 -21.703186 -31.054916 38.333509 1.308246 2.515161 0.131928 -0.040727 348790.000000 0 0 1
-6.606627 -20.614286 -31.623916 38.323209 1.260651 2.541334 0.110859 -0.040798 314900.000000 0 0 1
-7.187727 -21.060986 -32.842516 39.671897 1.241909 2.546066 0.121245 -0.032777 -160272.000000 0 0 1
-6.861427 -20.364586 34.003985 40.225198 1.245813 0.563594 0.118543 -0.034091 593863.000000 0 0 1
-5.491627 -20.616886 33.683285 39.872016 1.310475 0.564633 0.112412 -0.030868 143964.000000 0 0 1
-5.279227 -20.190886 32.398485 38.538344 1.315056 0.572255 0.118482 -0.028789 -1412210.000000 0 0 1
-3.955127 -20.602786 31.901885 38.181777 1.381133 0.581706 0.082620 -0.036906 -2749780.000000 0 0 1
-3.803927 -21.998786 31.636085 38.720257 1.399574 0.614534 0.099731 -0.036040 71039.800000 0 0 1
-2.660027 -22.409486 30.920285 38.279561 1.452648 0.630472 0.088527 -0.029126 205567.000000 0 0 1
-1.250127 -21.990086 31.390385 38.346877 1.514008 0.611844 0.068145 -0.034291 -847397.000000 0 0 1
-0.941827 -20.618686 31.118385 37.341279 1.525150 0.585654 0.048626 -0.035541 344740.000000 0 0 1
0.135473 -20.002286 31.846385 37.607207 -1.564024 0.560826 0.055389 -0.037057 261928.000000 0 0 1
-0.213927 -19.563686 33.259285 38.587091 1.559862 0.531737 0.051394 -0.039991 606357.000000 0 0 1
-1.243727 -18.512686 33.195585 38.029111 1.503715 0.509683 0.057021 -0.042055 965278.000000 0 0 1
-1.854227 -18.475186 -33.686316 38.464770 1.470768 2.637826 0.066890 -0.042125 -131301.000000 0 0 1
-2.919627 -17.404486 -33.581316 37.936066 1.404592 2.657738 0.067283 -0.039195 292977.000000 0 0 1
-2.334027 -16.073386 -33.728916 37.435827 1.426594 2.692818 0.073033 -0.037266 336783.000000 0 0 1
-3.342627 -15.184886 -33.337016 36.784651 1.354123 2.705183 0.072304 -0.034570 5470.560000 0 0 1
-3.007527 -13.786586 -33.693016 36.528543 1.356012 2.744981 0.051408 -0.032361 -474249.000000 0 0 1
-1.867227 -13.252386 -33.084016 35.688435 1.430820 2.757192 0.049332 -0.025264 -356249.000000 0 0 1
-1.748727 -11.847386 -33.253916 35.344611 1.424250 2.795922 0.033536 -0.020584 23606.300000 0 0 1
-1.205327 -11.301486 33.583885 35.454953 1.464546 0.326325 0.027666 -0.019649 -154473.000000 0 0 1
-2.142427 -11.585686 32.547485 34.614403 1.387942 0.347323 0.033162 -0.028865 196882.000000 0 0 1
-1.820027 -11.074886 31.294185 33.245926 1.407914 0.344354 0.036307 -0.023249 -570860.000000 0 0 1
-0.726127 -11.845286 30.558585 32.782086 1.509572 0.370426 0.039495 -0.031327 -321182.000000 0 0 1
-1.165727 -13.036486 29.923185 32.660464 1.481613 0.412329 0.052456 -0.035917 278745.000000 0 0 1
-0.124827 -14.006986 29.862785 32.984802 1.561885 0.438594 0.046791 -0.032338 -30866.700000 0 0 1
-0.559527 -15.396486 30.403485 34.084260 1.534471 0.469025 0.049523 -0.033777 963596.000000 0 0 1
-1.593727 -16.021386 29.573385 33.672093 1.471648 0.498552 0.055156 -0.033789 1029640.000000 0 0 1
-2.152027 -17.131186 30.211385 34.797077 1.445830 0.519200 0.062431 -0.029953 -197649.000000 0 0 1
-2.528327 -18.321086 29.307185 34.654952 1.433662 0.562948 0.062942 -0.021326 -509798.000000 0 0 1
-3.643827 -18.138286 28.503485 33.981223 1.372544 0.575719 0.072875 -0.023079 -516344.000000 0 0 1
-4.048827 -19.395986 27.977385 34.283106 1.365006 0.616220 0.079744 -0.026034 522095.000000 0 0 1
-4.899927 -19.186286 26.668885 33.216747 1.320754 0.638695 0.052613 -0.028679 -483440.000000 0 0 1
-5.462227 -20.280986 26.013185 33.434116 1.307711 0.679251 0.058631 -0.019451 -438738.000000 0 0 1
-4.626227 -21.307186 25.496085 33.547705 1.356994 0.707491 0.059977 -0.022177 -371059.000000 0 0 1
-29.544867 -33.726379 -0.556015 44.840572 0.851391 1.583196 0.048141 -0.035603 19346.900000 0 0 1
-28.653357 -32.674279 -0.220115 43.458852 0.850869 1.575861 0.064025 -0.030931 19043.500000 0 0 1
-28.853247 -32.296379 1.124685 43.322406 0.841645 1.544833 0.061589 -0.022912 471042.000000 0 0 1
-27.954177 -31.044779 1.366685 41.798111 0.837734 1.538093 0.086416 -0.019825 652762.000000 0 0 1
-26.557257 -31.268179 1.429185 41.049110 0.866687 1.535973 0.102084 -0.027075 -297725.000000 0 0 1
-26.007627 -30.013979 1.828185 39.756482 0.856791 1.524796 0.101965 -0.014969 -463536.000000 0 0 1
-24.506527 -30.022879 2.058185 38.809525 0.886218 1.517738 0.066624 -0.014409 -600530.000000 0 0 1
-24.300227 -30.361379 3.429885 39.039447 0.895832 1.482826 0.067734 -0.007973 161945.000000 0 0 1
-22.932527 -30.444779 3.799485 38.304326 0.925219 1.471441 0.052911 -0.004500 116338.000000 0 0 1
-22.662727 -30.891479 5.223185 38.667354 0.937859 1.435302 0.067461 -0.001734 -182181.000000 0 0 1
-23.039327 -29.892479 6.075785 38.226771 0.914153 1.411179 0.075081 0.000038 -187438.000000 0 0 1
-22.835827 -30.357679 7.378785 38.697676 0.925872 1.378944 0.072900 -0.002348 -146427.000000 0 0 1
-23.696927 -29.718879 8.479185 38.944225 0.897661 1.351312 0.069130 -0.008723 -538078.000000 0 0 1
-23.193127 -28.498279 8.956585 37.819220 0.887671 1.331698 0.091892 -0.012618 -59573.000000 0 0 1
-23.811627 -28.172979 10.183185 38.267578 0.869099 1.301446 0.069887 -0.007625 -3896.690000 0 0 1
-22.991827 -27.139279 10.944485 37.214867 0.867942 1.272294 0.082622 -0.017718 628112.000000 0 0 1
-21.687627 -27.555879 11.335685 36.853458 0.904007 1.258139 0.099302 -0.018290 351510.000000 0 0 1
-20.970927 -26.610079 12.121385 35.983385 0.903365 1.227216 0.106064 -0.022613 131150.000000 0 0 1
-19.640927 -26.973879 12.775585 35.729144 0.941429 1.205134 0.114436 -0.024331 -154938.000000 0 0 1
-19.663827 -27.995879 13.731885 36.864617 0.958473 1.189100 0.109087 -0.024176 -413728.000000 0 0 1
-18.374327 -28.149179 14.267785 36.517966 0.992492 1.169398 0.125504 -0.026492 80298.500000 0 0 1
-18.382927 -29.345179 15.237185 37.831776 1.011164 1.156264 0.139257 -0.040995 77328.500000 0 0 1
-18.377327 -30.579579 14.591285 38.545329 1.029666 1.182568 0.133291 -0.032854 -24962.400000 0 0 1
-18.255827 -31.517279 15.621785 39.631480 1.045787 1.165625 0.138708 -0.030268 136340.000000 0 0 1
-17.801427 -32.949979 15.207785 40.421141 1.075465 1.185069 0.133912 -0.032949 159539.000000 0 0 1
-17.845727 -33.928179 16.197885 41.616857 1.086577 1.171018 0.139536 -0.029504 57143.700000 0 0 1
-17.317127 33.120214 15.677985 40.529380 -1.089031 1.173605 0.117643 -0.030319 -19053.900000 0 0 1
-17.466827 32.006814 16.712585 40.110306 -1.071243 1.141022 0.119978 -0.035862 306102.000000 0 0 1
-18.748727 31.399014 16.535885 40.135375 -1.032503 1.146145 0.121629 -0.033086 635296.000000 0 0 1
-18.901827 30.350014 17.504485 39.809665 -1.013784 1.115527 0.092202 -0.023289 309730.000000 0 0 1
-19.687127 30.805014 18.790185 41.104780 -1.002130 1.096032 0.083584 -0.021781 -161644.000000 0 0 1
-18.841127 31.391814 19.704785 41.577790 -1.030235 1.077053 0.095509 -0.013225 -177510.000000 0 0 1
-19.611927 31.778914 20.815685 42.753009 -1.017872 1.062279 0.079927 -0.012294 53046.500000 0 0 1
-19.234727 33.102814 21.564985 43.941092 -1.044420 1.057823 0.077790 -0.008727 56185.900000 0 0 1
-17.927427 32.981014 22.089485 43.555542 -1.072905 1.038914 0.051007 -0.004219 -44816.700000 0 0 1
-17.643927 33.782714 23.233685 44.636129 -1.089487 1.023345 0.050654 -0.010261 75658.600000 0 0 1
-18.153027 33.139914 24.582585 45.078706 -1.069667 0.994018 0.036123 -0.017259 1080410.000000 0 0 1
-19.594827 33.124514 24.624885 45.689995 -1.036613 1.001599 0.025703 -0.013569 752533.000000 0 0 1
-20.087027 32.122414 25.435885 45.632471 -1.011962 0.979536 0.015024 -0.006502 754498.000000 0 0 1
-21.660027 32.190714 25.371085 46.358287 -0.978514 0.991682 0.050029 -0.016105 783386.000000 0 0 1
-22.210727 31.670914 24.191485 45.624458 -0.959200 1.011924 0.022903 -0.006663 929567.000000 0 0 1
-23.585627 32.077714 24.001185 46.489982 -0.936792 1.028311 0.000322 -0.008955 860085.000000 0 0 1
-24.066127 31.653614 22.592385 45.733419 -0.920738 1.054110 -0.005369 -0.011410 -188106.000000 0 0 1
-23.619727 32.477314 21.531385 45.566083 -0.942003 1.078636 -0.009845 -0.011447 -19158.400000 0 0 1
-23.904927 31.982914 20.261085 44.775706 -0.928943 1.101228 -0.013554 -0.008051 -364074.000000 0 0 1
-23.610827 33.017814 19.166685 44.888852 -0.950012 1.129645 0.017920 -0.011323 754345.000000 0 0 1
-22.221427 33.394014 19.089785 44.422650 -0.983649 1.126602 0.061299 -0.011491 914437.000000 0 0 1
-22.033327 -33.729279 18.196285 44.206747 0.992147 1.146568 0.077706 -0.010668 -431848.000000 0 0 1
-20.644427 -33.091079 18.402985 43.126346 1.013012 1.129931 0.088891 -0.017920 45874.100000 0 0 1
-20.595327 -32.208379 19.495185 42.913976 1.001880 1.099227 0.085366 -0.031065 1130390.000000 0 0 1
-19.250727 -31.777379 19.781785 42.091701 1.026123 1.081541 0.095709 -0.035659 860854.000000 0 0 1
-19.305727 -30.827579 21.051685 42.026469 1.011300 1.046141 0.095426 -0.029393 64554.200000 0 0 1
-19.820027 -29.533279 20.710985 41.158145 0.979725 1.043493 0.122107 -0.037099 388138.000000 0 0 1
-20.377227 -28.871579 21.837585 41.541299 0.956196 1.017278 0.107054 -0.027889 111624.000000 0 0 1
-21.214527 -27.589979 21.466885 40.891200 0.915295 1.018110 0.083422 -0.029594 -298140.000000 0 0 1
-20.489427 -26.487179 20.940185 39.495298 0.912386 1.011967 0.088360 -0.030201 262940.000000 0 0 1
-21.249527 -25.357279 20.517785 38.929596 0.873307 1.015673 0.071253 -0.009369 368861.000000 0 0 1
-22.403727 -25.458979 19.448385 39.093813 0.849145 1.050105 0.074500 -0.012184 266152.000000 0 0 1
-23.635127 -25.929579 19.956885 40.363839 0.831657 1.053623 0.067224 -0.011702 -226723.000000 0 0 1
-24.581527 -25.809079 18.924885 40.354817 0.809754 1.082681 0.067279 -0.012970 -2181990.000000 0 0 1
-25.971427 -25.771679 19.477885 41.449758 0.781538 1.081601 0.041769 -0.013764 -1124490.000000 0 0 1
-26.592427 -27.048379 19.763385 42.771057 0.793898 1.090464 0.025709 -0.009626 295702.000000 0 0 1
-26.991617 -27.688979 18.541685 42.883808 0.798151 1.123676 0.035637 -0.019461 -734476.000000 0 0 1
-28.061587 -28.796079 18.737285 44.359358 0.798316 1.134708 0.042566 -0.018847 562399.000000 0 0 1
-29.356697 -28.281479 19.057485 44.998282 0.766746 1.133473 0.011389 -0.017644 619387.000000 0 0 1
-30.322337 -29.023879 18.270185 45.778044 0.763522 1.160257 0.022914 -0.014509 -187783.000000 0 0 1
-31.726007 -28.462979 18.347485 46.403781 0.731238 1.164306 0.036684 -0.014228 -614142.000000 0 0 1
-31.927217 -27.210879 17.725185 45.540765 0.705815 1.171016 0.040660 -0.006865 -318714.000000 0 0 1
-33.240737 -26.792579 17.995085 46.331544 0.678399 1.171904 0.038612 0.006749 -432618.000000 0 0 1
-33.696647 -25.622179 17.138185 45.669218 0.650110 1.186111 0.030601 -0.007002 -472621.000000 0 0 1
-34.092874 -25.815879 15.801185 45.590142 0.648107 1.216861 0.052876 -0.016737 -32107.200000 0 0 1
-34.350269 -24.619979 15.062785 44.866154 0.621868 1.228419 0.039253 -0.017430 206708.000000 0 0 1
-33.191407 -23.618479 14.720485 43.315063 0.618458 1.224042 0.017963 -0.008897 392616.000000 0 0 1
-32.380897 -23.190879 15.798385 42.847734 0.621509 1.193176 0.015463 -0.007172 66374.600000 0 0 1
-31.976557 -21.801179 15.697885 41.763802 0.598397 1.185458 0.017066 -0.005655 48099.000000 0 0 1
-33.137357 -20.771279 15.932685 42.230095 0.559910 1.183936 0.022066 -0.015790 525390.000000 0 0 1
-33.663187 -20.772079 17.274785 43.163730 0.552867 1.159045 0.023559 -0.010283 26619.200000 0 0 1
-34.253593 -19.529179 17.514785 43.144700 0.518171 1.152773 0.028390 -0.015107 -254202.000000 0 0 1
-34.546282 -19.284079 19.047585 43.910497 0.509125 1.122110 0.021346 -0.005820 613808.000000 0 0 1
-35.754826 -19.908079 19.524685 45.342612 0.508044 1.125635 0.029187 -0.000670 752850.000000 0 0 1
-36.148107 -19.393379 20.784285 45.986686 0.492418 1.101832 0.033836 -0.000098 -711237.000000 0 0 1
35.698005 -19.875879 21.280185 46.067824 -0.508032 1.090624 0.053272 0.000565 -642834.000000 0 0 1
35.555195 -21.316979 21.459085 46.680594 -0.540086 1.093139 0.066002 -0.007739 15765.900000 0 0 1
36.274075 -21.862779 22.550685 47.982528 -0.542410 1.081532 0.052739 0.000176 -200475.000000 0 0 1
35.640035 -23.151779 23.164285 48.402490 -0.576094 1.071764 0.058345 0.000960 -20696.200000 0 0 1
34.455385 -22.819379 23.860385 47.720180 -0.584965 1.047190 0.078486 -0.018067 96789.100000 0 0 1
34.193595 -23.982079 24.698485 48.521719 -0.611639 1.036751 0.077358 -0.032245 -37744.800000 0 0 1
33.018795 -23.874179 25.700285 48.173871 -0.626028 1.008075 0.086263 -0.038001 1652240.000000 0 0 1
31.654655 -24.019479 25.197485 47.051735 -0.649108 1.005664 0.093502 -0.034140 1576680.000000 0 0 1
30.799825 -24.185679 26.319585 47.183650 -0.665684 0.979050 0.074057 -0.030888 365151.000000 0 0 1
29.432655 -24.876679 26.039685 46.510166 -0.701705 0.976566 0.067990 -0.025066 557530.000000 0 0 1
28.472735 -24.017479 25.420885 45.097199 -0.700723 0.971949 0.069228 -0.016753 -145421.000000 0 0 1
27.247685 -24.689979 25.262485 44.611933 -0.736192 0.968821 0.051667 -0.006738 270476.000000 0 0 1
26.107885 -23.712679 24.809385 43.120974 -0.737358 0.957772 0.045013 -0.005187 91991.900000 0 0 1
26.348985 -23.100179 23.530985 42.208939 -0.719793 0.979439 0.047393 -0.003974 359229.000000 0 0 1
27.115685 -21.884279 23.494885 42.026083 -0.679038 0.977551 0.054821 0.003560 317220.000000 0 0 1
27.283685 -21.293079 22.105985 41.066644 -0.662695 1.002383 0.064025 -0.005342 -28513.700000 0 0 1
26.229685 -20.443779 21.754785 39.739340 -0.662062 0.991498 0.057856 -0.004368 -143398.000000 0 0 1
26.493685 -19.828279 20.497685 38.925969 -0.642486 1.016222 0.049645 -0.006588 197795.000000 0 0 1
25.871885 -18.385179 20.375185 37.716275 -0.617821 1.000095 0.051870 0.002832 182371.000000 0 0 1
26.366885 -17.295079 21.197285 37.995490 -0.580539 0.978956 0.046983 -0.014163 19202.000000 0 0 1
26.053685 -17.357779 22.540385 38.576624 -0.587701 0.946777 0.050904 -0.012788 -120059.000000 0 0 1
26.073685 -15.979179 23.252385 38.416723 -0.549812 0.920695 0.065938 -0.008359 -77593.100000 0 0 1
24.836285 -15.325079 23.053985 37.191200 -0.552858 0.902210 0.039733 -0.004446 -164348.000000 0 0 1
24.786185 -14.066879 23.696985 37.064527 -0.516201 0.877151 0.036461 0.004043 814650.000000 0 0 1
23.395285 -13.334979 23.511985 35.748769 -0.518058 0.853034 0.018219 0.006516 481559.000000 0 0 1
22.408585 -13.999679 24.239285 35.856361 -0.558417 0.828461 0.032840 0.002446 -429381.000000 0 0 1
21.186185 -13.288779 24.031885 34.683967 -0.560207 0.805318 0.039614 0.005218 313895.000000 0 0 1
19.971285 -14.051979 24.615885 34.673508 -0.613144 0.781393 0.052083 0.004243 -64526.100000 0 0 1
19.607985 -15.193779 23.849085 34.410796 -0.659233 0.805057 0.063236 -0.001393 -1139320.000000 0 0 1
18.539185 -15.850179 24.350185 34.465360 -0.707364 0.786239 0.057832 0.009342 -857743.000000 0 0 1
17.950485 -16.833279 23.294585 33.885349 -0.753291 0.812820 0.061777 -0.002725 500290.000000 0 0 1
18.795985 -17.992779 23.206185 34.864827 -0.763569 0.842493 0.054864 -0.006521 406518.000000 0 0 1
18.187385 -18.927979 22.356085 34.479616 -0.805349 0.865334 0.062328 -0.012421 138451.000000 0 0 1
18.466185 -20.450379 22.646385 35.666185 -0.836340 0.882847 0.051727 -0.008615 -114737.000000 0 0 1
17.678485 -20.848979 23.774585 36.227609 -0.867505 0.854950 0.053635 -0.018041 419809.000000 0 0 1
17.931185 -22.124079 24.351285 37.469819 -0.889696 0.863356 0.066533 -0.025185 -157003.000000 0 0 1
17.557485 -23.392179 23.376185 37.442026 -0.926930 0.896523 0.062700 -0.025465 263213.000000 0 0 1
18.454385 -23.658479 22.324385 37.398745 -0.908350 0.931129 0.046623 -0.016357 94696.000000 0 0 1
19.628285 -24.408279 22.555785 38.597890 -0.893521 0.946682 0.040728 -0.013744 166181.000000 0 0 1
20.599385 -24.542979 21.360485 38.509256 -0.872536 0.982813 0.025303 0.000511 -418347.000000 0 0 1
20.152585 -25.362379 20.304185 38.231360 -0.899365 1.010913 0.016366 -0.009875 134356.000000 0 0 1
21.181685 -25.887679 19.475785 38.705838 -0.885047 1.043528 0.020810 -0.007179 140586.000000 0 0 1
20.589685 -26.523179 18.153785 38.170329 -0.910681 1.075151 0.021817 -0.013411 33807.400000 0 0 1
19.868485 -27.679179 18.455885 38.749365 -0.948215 1.074367 0.036427 -0.029309 -468545.000000 0 0 1
18.999085 -28.033379 17.395385 38.071446 -0.975173 1.096273 0.041270 -0.032659 -292397.000000 0 0 1
18.007085 -29.053979 17.904785 38.587176 -1.015959 1.088281 0.054895 -0.031500 23480.600000 0 0 1
17.050385 -28.731379 18.934885 38.402313 -1.035213 1.055186 0.080090 -0.043999 282692.000000 0 0 1
16.272485 -29.856779 19.192385 39.045725 -1.071786 1.056944 0.092690 -0.046458 -210833.000000 0 0 1
15.004185 -29.597179 20.048285 38.769218 -1.101607 1.027315 0.084190 -0.039917 144452.000000 0 0 1
14.093385 -28.762379 19.391885 37.442531 -1.115186 1.026390 0.083677 -0.029567 450934.000000 0 0 1
12.836385 -28.617679 20.096885 37.250894 -1.149151 1.000952 0.060842 -0.023537 695904.000000 0 0 1
11.746685 -27.979679 19.268485 35.946092 -1.173314 1.005059 0.049848 -0.019072 -598226.000000 0 0 1
11.475685 -28.774979 18.145785 35.902093 -1.191318 1.040923 0.042238 -0.017973 -61670.900000 0 0 1
10.686085 -28.110079 17.185985 34.637076 -1.207517 1.051611 0.055589 -0.011155 -60336.100000 0 0 1
10.658285 -28.842179 15.851685 34.594020 -1.216823 1.094804 0.051737 -0.017412 170944.000000 0 0 1
9.683585 -29.879779 15.902685 35.206084 -1.257392 1.102123 0.064014 -0.015616 227762.000000 0 0 1
9.788185 -30.658079 14.756485 35.404522 -1.261756 1.140878 0.050563 -0.007518 411053.000000 0 0 1
8.502685 -31.513879 14.478385 35.707756 -1.307264 1.153305 0.044982 -0.001648 398418.000000 0 0 1
8.344485 -32.560979 15.424285 36.983190 -1.319923 1.140586 0.050266 -0.009669 -754502.000000 0 0 1
7.428585 -33.471379 14.968385 37.410822 -1.352398 1.159161 0.028520 -0.007904 -625794.000000 0 0 1
7.287285 33.502714 15.875985 37.783373 1.356619 1.137148 0.061865 -0.011203 309816.000000 0 0 1
8.514685 32.808914 15.980085 37.473828 1.316875 1.130251 0.066045 -0.013871 -78138.700000 0 0 1
8.320685 31.708014 16.758285 36.816736 1.314167 1.098221 0.080912 -0.024783 -37699.700000 0 0 1
9.559285 30.879214 17.150685 36.593057 1.270583 1.082993 0.080968 -0.027713 -430223.000000 0 0 1
10.192385 30.185314 16.117785 35.704634 1.245156 1.102440 0.091134 -0.029914 -891744.000000 0 0 1
11.280085 29.507214 16.628685 35.699148 1.205657 1.086257 0.084523 -0.025986 -680836.000000 0 0 1
12.094085 28.928514 15.437385 34.949087 1.174812 1.113292 0.071664 -0.023081 524053.000000 0 0 1
11.298785 27.941114 14.725585 33.544169 1.186521 1.116321 0.076477 -0.028013 1156310.000000 0 0 1
12.228685 27.261214 13.866185 32.939120 1.149128 1.136288 0.074655 -0.016597 694755.000000 0 0 1
-9.597827 -9.527986 19.492386 23.724542 0.781747 0.606562 0.045923 -0.014785 -141700.000000 0 1 0
-9.946027 -9.652186 18.115586 22.809265 0.770406 0.653073 0.048338 -0.015529 76055.900000 0 1 0
-9.561927 -10.935686 17.546586 22.779428 0.852319 0.691513 0.043393 -0.022494 73262.900000 0 1 0
-9.804727 -11.059386 16.010286 21.789262 0.845461 0.745456 0.044400 -0.022479 -292160.000000 0 1 0
-11.158027 -10.922186 15.668686 22.120204 0.774717 0.783649 0.039732 -0.022686 -123994.000000 0 1 0
-11.670727 -11.522086 14.505586 21.894665 0.778989 0.846622 0.049434 -0.020142 -2477.410000 0 1 0
-11.639927 -13.066786 14.370786 22.643946 0.843086 0.883252 0.042194 -0.020255 -342989.000000 0 1 0
-10.386327 -13.552886 13.894786 22.014122 0.916910 0.887728 0.049348 -0.021485 537893.000000 0 1 0
-10.226827 -14.971886 13.909486 22.852115 0.971524 0.916408 0.061700 -0.025926 -2739.920000 0 1 0
-9.917227 -15.614986 15.272786 23.988271 1.004960 0.880615 0.072198 -0.034478 90206.300000 0 1 0
-11.034327 -15.640586 16.139986 25.037640 0.956393 0.870259 0.080474 -0.025109 -49219.900000 0 0 1
-10.637827 -15.278086 17.438686 25.508646 0.962571 0.818060 0.089222 -0.028566 -809567.000000 0 0 1
-11.738827 -14.824286 18.366086 26.360436 0.901036 0.799969 0.067868 -0.029249 -809549.000000 0 0 1
-12.152927 -13.493686 18.055886 25.608362 0.837629 0.788264 0.058281 -0.027655 -279155.000000 0 0 1
-13.319927 -13.288686 17.323686 25.575764 0.784224 0.826645 0.064984 -0.041028 -615134.000000 0 0 1
-14.604627 -13.230386 18.191986 26.819519 0.736067 0.825334 0.044477 -0.029515 -292509.000000 0 0 1
-15.099027 -14.512986 18.625986 28.027392 0.765610 0.843887 0.061523 -0.028326 43446.400000 0 0 1
-16.180827 -14.301386 19.504886 29.099645 0.723819 0.836211 0.064649 -0.023489 -274305.000000 0 0 1
-16.697627 -15.678686 20.024586 30.423937 0.753937 0.852391 0.075438 -0.013538 -606547.000000 0 0 1
-17.732827 -16.152886 19.227386 30.741848 0.738806 0.895093 0.059361 -0.011855 -759148.000000 0 0 1
-18.309927 -17.254286 19.801486 32.016599 0.755724 0.903995 0.078623 -0.014883 39508.400000 0 0 1
-19.564727 -17.730586 18.993886 32.525681 0.736259 0.947191 0.072692 -0.011517 -59564.300000 0 0 1
-19.304727 -18.129786 17.676586 31.840592 0.754022 0.982242 0.071555 -0.013647 92029.900000 0 0 1
-19.471127 -17.026086 16.782986 30.833115 0.718506 0.995222 0.065425 -0.003861 -206026.000000 0 0 1
-19.071727 -17.303886 15.245486 29.926244 0.736837 1.036268 0.070329 -0.015911 288543.000000 0 0 1
-20.073327 -18.166286 14.698786 30.805952 0.735569 1.073398 0.072816 -0.018875 447155.000000 0 0 1
-19.804027 -18.427086 13.299186 30.143412 0.749397 1.113864 0.085633 -0.022697 114625.000000 0 0 1
-20.036327 -19.849686 12.742086 30.948751 0.780719 1.146460 0.080778 -0.018000 346893.000000 0 0 1
-19.057627 -20.765286 13.261286 31.148867 0.828253 1.131018 0.090843 -0.016375 327679.000000 0 0 1
-19.075827 -21.979186 12.498186 31.672961 0.855999 1.165163 0.082311 -0.012649 -148974.000000 0 0 1
-17.815827 -22.837486 12.736786 31.641431 0.908300 1.156512 0.095177 -0.022422 -17819.500000 0 0 1
-17.924927 -24.131086 12.126786 32.414059 0.931910 1.187347 0.115770 -0.034856 303660.000000 0 0 1
-17.041627 -24.149586 11.008186 31.540445 0.956275 1.214273 0.103656 -0.030084 184201.000000 0 0 1
-17.461427 -25.309106 10.076086 32.357067 0.966863 1.254127 0.114892 -0.024148 863999.000000 0 0 1
-18.741227 -25.140766 9.455986 32.752212 0.930212 1.277914 0.099628 -0.019210 262888.000000 0 0 1
-19.163427 -26.240736 8.661186 33.627805 0.940027 1.310300 0.101679 -0.015297 509907.000000 0 0 1
-20.420927 -25.877866 7.832486 33.882533 0.902720 1.337520 0.088508 -0.014938 392123.000000 0 0 1
-20.112027 -25.016386 6.772386 32.805158 0.893649 1.362858 0.086647 -0.027849 -603642.000000 0 0 1
-21.295727 -24.636286 6.164786 33.143011 0.857999 1.383701 0.080457 -0.024134 -617320.000000 0 0 1
-21.061127 -23.689786 4.960886 32.084068 0.844071 1.415552 0.073516 -0.020251 -241424.000000 0 0 1
-22.167227 -23.391386 4.148886 32.492401 0.812262 1.442759 0.055685 -0.014434 -192102.000000 0 0 1
-21.873927 -22.320486 3.271886 31.422572 0.795502 1.466482 0.057756 -0.014960 -117881.000000 0 0 1
-22.543727 -22.483286 1.944786 31.898275 0.784056 1.509790 0.034900 -0.012196 64588.000000 0 0 1
-21.868527 -23.423486 1.051186 32.062395 0.819717 1.538005 0.024100 -0.013991 294068.000000 0 0 1
-22.375627 -23.348786 -0.242914 32.340277 0.806678 1.578308 0.029231 0.003610 -362476.000000 0 0 1
-21.575527 -24.185186 -1.264514 32.434944 0.842365 1.609792 0.036161 0.001935 -58276.700000 0 0 1
-20.227127 -23.737186 -1.394214 31.217535 0.865068 1.615472 0.040437 -0.003743 459983.000000 0 0 1
-19.558127 -24.163986 -2.577614 31.193952 0.890355 1.653523 0.045172 -0.007016 149208.000000 0 0 1
-19.227827 -25.680426 -2.781614 32.201413 0.928105 1.657286 0.050015 -0.001079 248413.000000 0 0 1
-20.370727 -26.497816 -3.095814 33.566126 0.915390 1.663158 0.057520 0.001830 271767.000000 0 0 1
-19.928227 -27.760676 -3.557614 34.357619 0.948185 1.674529 0.059898 0.000869 183975.000000 0 0 1
-20.826827 -28.643126 -4.504014 35.699741 0.942104 1.697297 0.056728 -0.003608 155114.000000 0 0 1
-21.017427 -28.172616 -5.817414 35.626827 0.929845 1.734818 0.051295 0.002604 -176177.000000 0 0 1
-21.949527 -28.983816 -6.498914 36.933443 0.922638 1.747680 0.055912 -0.018127 -380133.000000 0 0 1
-22.469527 -28.337276 -7.772914 36.990526 0.900380 1.782507 0.047093 0.000610 66964.200000 0 0 1
-21.468727 -28.087276 -8.768014 36.423610 0.918169 1.813907 0.059908 -0.003552 312103.000000 0 0 1
-21.994027 -27.880026 -10.063014 36.909312 0.902872 1.846934 0.056706 0.001088 -186431.000000 0 0 1
-22.866427 -26.617046 -10.326214 36.578290 0.861049 1.856992 0.045163 0.007818 -252954.000000 0 0 1
-22.241027 -25.363326 -10.499214 35.329805 0.850893 1.872531 0.038101 0.006829 -102149.000000 0 0 1
-21.947727 -24.649986 -9.317614 34.294934 0.843325 1.845946 0.033780 0.008973 -9712.310000 0 0 1
-21.696627 -23.157086 -9.576714 33.146760 0.817947 1.863893 0.018709 -0.001990 483214.000000 0 0 1
-22.884827 -22.486886 -9.974214 33.598516 0.776628 1.872204 0.026288 -0.001016 359039.000000 0 0 1
-22.508527 -21.165486 -10.384714 32.595305 0.754656 1.895044 0.042566 -0.006844 426129.000000 0 0 1
-23.760727 -20.270486 -10.547014 32.965198 0.706296 1.896467 0.060099 -0.005889 -330063.000000 0 0 1
-24.563227 -20.677286 -11.657014 34.158282 0.699713 1.919058 0.055184 -0.004282 64059.400000 0 0 1
-25.765127 -19.945886 -11.722514 34.627987 0.658774 1.916148 0.053008 -0.005790 -213133.000000 0 0 1
-25.764957 -18.447386 -11.915714 33.854443 0.621375 1.930470 0.056420 -0.014880 -1762690.000000 0 0 1
-25.103897 -18.091186 -13.075214 33.592527 0.624453 1.970592 0.074848 -0.010204 454967.000000 0 0 1
-24.639127 -16.708086 -13.196214 32.563581 0.595884 1.988043 0.071420 -0.016492 567289.000000 0 0 1
-23.552427 -16.271586 -12.141614 31.095018 0.604570 1.971936 0.054319 -0.010597 -814325.000000 0 0 1
-24.131327 -16.121486 -10.845514 30.981421 0.588976 1.928437 0.087343 -0.017333 172169.000000 0 0 1
-23.318627 -16.147286 -9.692314 29.973891 0.605650 1.900073 0.066876 -0.018166 -254984.000000 0 0 1
-24.174527 -16.590986 -8.470614 30.519172 0.601472 1.852040 0.059743 -0.024684 338012.000000 0 0 1
-24.316427 -17.971286 -8.241514 31.339724 0.636462 1.836899 0.056278 -0.021629 155075.000000 0 0 1
-25.343157 -18.152786 -7.287914 32.014261 0.621569 1.800456 0.061886 -0.022053 204298.000000 0 0 1
-25.539057 -19.657586 -6.909014 32.960561 0.655995 1.781977 0.065637 -0.015056 71216.100000 0 0 1
-25.979937 -20.487686 -7.994514 34.038429 0.667749 1.807878 0.056996 -0.026520 118059.000000 0 0 1
-26.295017 -21.752586 -7.493714 34.939357 0.691138 1.786953 0.066884 -0.013273 48901.300000 0 0 1
-25.800387 -22.885486 -8.382414 35.491834 0.725598 1.809228 0.054641 -0.003776 127934.000000 0 0 1
-26.412307 -24.130286 -8.055514 36.671133 0.740278 1.792272 0.054712 0.001994 215212.000000 0 0 1
-25.750147 -25.273506 -8.644914 37.101950 0.776057 1.805962 0.045931 0.009704 8945.630000 0 0 1
-26.529007 -26.544236 -8.306314 38.436695 0.785685 1.788618 0.056036 0.000843 87512.700000 0 0 1
-26.224667 -26.951526 -6.986314 38.248222 0.799066 1.754485 0.068013 -0.013319 207918.000000 0 0 1
-26.829227 -28.208196 -6.669714 39.496770 0.810448 1.740477 0.079457 -0.017806 161633.000000 0 0 1
-26.490337 -28.861376 -5.303714 39.532852 0.828208 1.705362 0.090374 -0.022766 233746.000000 0 0 1
-27.461317 -28.453606 -4.355514 39.783189 0.803143 1.680498 0.064653 -0.019771 149180.000000 0 0 1
-27.080277 -28.889876 -3.046514 39.714576 0.817718 1.647582 0.049940 -0.006552 -85245.200000 0 0 1
-27.340697 -30.405246 -2.646714 40.975576 0.838418 1.635434 0.056903 0.003055 529860.000000 0 0 1
-26.357437 -31.254396 -3.287014 41.016536 0.870194 1.651021 0.084885 -0.025896 316822.000000 0 0 1
-26.240187 -32.498036 -2.579914 41.848844 0.891536 1.632484 0.080070 -0.035056 180368.000000 0 0 1
-25.271347 -32.470436 -1.361214 41.168229 0.909435 1.603867 0.084078 -0.031448 -255528.000000 0 0 1
-23.983327 -32.041436 -1.710414 40.059694 0.928250 1.613506 0.077213 -0.039604 -837778.000000 0 0 1
-23.083127 -32.225016 -0.642114 39.644605 0.949207 1.586994 0.069432 -0.030820 3663.360000 0 0 1
-21.934327 -31.198406 -0.715814 38.144038 0.958020 1.589564 0.068003 -0.025270 -335902.000000 0 0 1
-22.261127 -29.805326 -0.570014 37.205378 0.929292 1.586118 0.061919 -0.014497 -383300.000000 0 0 1
-22.926727 -29.228176 -1.683214 37.185404 0.905637 1.616077 0.070040 -0.011416 -309089.000000 0 0 1
-23.574427 -27.917406 -1.278414 36.561859 0.869542 1.605769 0.039613 -0.007998 -172671.000000 0 0 1
-24.753227 -28.137826 -0.536814 37.479963 0.849303 1.585120 0.055001 -0.012700 -473914.000000 0 0 1
-25.411757 -26.935736 -0.163214 37.031310 0.814503 1.575204 0.064973 -0.008903 252244.000000 0 0 1
-24.836127 -25.992426 0.977586 35.963802 0.808143 1.543610 0.057069 -0.011210 -60088.500000 0 0 1
-24.819727 -26.581966 2.280986 36.439301 0.819668 1.508159 0.057996 -0.015604 -280597.000000 0 0 1
-24.399427 -25.637016 3.261386 35.541880 0.810127 1.478905 0.061064 -0.015756 -28905.500000 0 0 1
-25.394997 -24.559986 3.776286 35.529693 0.768684 1.464310 0.064567 -0.020432 -104850.000000 0 0 1
-25.681817 -23.451586 2.962886 34.904316 0.740038 1.485808 0.059916 -0.022326 -237665.000000 0 0 1
-26.523777 -22.538286 3.624386 34.994589 0.704342 1.467040 0.056539 -0.016078 -52538.300000 0 0 1
-26.602607 -21.280886 2.748886 34.177934 0.674713 1.490281 0.053834 -0.014262 -270234.000000 0 0 1
-25.388527 -20.610286 2.777186 32.818805 0.681892 1.486073 0.030100 -0.012002 -554013.000000 0 0 1
-25.465827 -19.549786 1.824386 32.156350 0.654725 1.514031 0.025165 -0.002061 906957.000000 0 0 1
-24.180327 -18.637486 1.891386 30.587930 0.656662 1.508922 0.048039 0.002416 1213350.000000 0 0 1
-22.950427 -19.329986 1.662586 30.052199 0.699977 1.515445 0.051496 -0.006210 93054.600000 0 0 1
-21.882827 -18.410886 1.603286 28.642440 0.699445 1.514791 0.065831 -0.002428 524506.000000 0 0 1
-20.539927 -19.184186 1.307186 28.135926 0.751282 1.524320 0.066253 -0.010585 345218.000000 0 0 1
-20.385527 -19.499586 -0.086514 28.210123 0.763189 1.573863 0.040934 -0.005946 -358937.000000 0 0 1
-19.401127 -20.450486 -0.283614 28.190540 0.811724 1.580857 0.084622 -0.009323 -427309.000000 0 0 1
-19.121627 -20.736986 -1.806114 28.265195 0.825903 1.634739 0.092832 -0.011140 -63489.400000 0 0 1
-18.692627 -19.598586 -2.504714 27.199126 0.809053 1.663015 0.102690 -0.014623 18301.000000 0 0 1
-18.351327 -20.011186 -3.800314 27.416439 0.828639 1.709859 0.083451 -0.012566 -782817.000000 0 0 1
-17.409227 -19.176886 -4.569214 26.300416 0.833676 1.745414 0.090505 -0.009977 -1116240.000000 0 0 1
-16.093227 -19.202786 -4.100414 25.388035 0.873271 1.733017 0.125873 -0.021126 -392264.000000 0 0 1
-15.318027 -18.439286 -5.049814 24.497956 0.877598 1.778417 0.117319 -0.016359 -155384.000000 0 1 0
-13.826427 -18.375886 -4.723114 23.476607 0.925747 1.773363 0.139511 -0.028372 -292590.000000 0 1 0
-12.966827 -19.422386 -5.066914 23.896470 0.982132 1.784454 0.116741 -0.030901 264076.000000 0 1 0
-11.759727 -18.973786 -5.671214 23.031683 1.015954 1.819590 0.102701 -0.038276 962775.000000 0 1 0
-10.674527 -20.069286 -5.983314 23.505783 1.081968 1.828175 0.085412 -0.045123 877491.000000 0 1 0
-11.195827 -21.015786 -6.856214 24.779376 1.081306 1.851145 0.082869 -0.039182 47801.500000 0 1 0
-10.121427 -21.907986 -7.136014 25.165966 1.138010 1.858299 0.085975 -0.037098 470970.000000 0 0 1
-10.453227 -23.154886 -7.972014 26.626523 1.146739 1.874861 0.066123 -0.021394 9785.790000 0 0 1
-10.913927 -22.886086 -9.304214 27.008427 1.125815 1.922495 0.070490 -0.019229 153305.000000 0 0 1
-10.818227 -24.003386 -10.189814 28.231700 1.147364 1.940067 0.076718 -0.015293 5400.590000 0 0 1
-11.526527 -23.517686 -11.473614 28.593464 1.115083 1.983696 0.097116 -0.021946 92829.800000 0 0 1
-10.824427 -22.546486 -12.279314 27.862050 1.123200 2.027195 0.092967 -0.022960 889518.000000 0 0 1
-11.707827 -21.968386 -13.298614 28.222975 1.081145 2.061445 0.098185 -0.030782 483775.000000 0 0 1
-11.111227 -20.713786 -14.075614 27.397869 1.078441 2.110345 0.080990 -0.024411 -105140.000000 0 0 1
-10.730527 -19.699486 -13.197614 26.026736 1.072023 2.102589 0.094963 -0.034079 -110938.000000 0 0 1
-10.534827 -18.517286 -13.966214 25.474058 1.053544 2.151070 0.090274 -0.022399 -46296.000000 0 0 1
-9.963927 -17.332086 -13.137414 23.922222 1.049050 2.152169 0.094268 -0.028438 -258401.000000 0 1 0
-10.829627 -16.789886 -12.151814 23.384775 0.997938 2.117233 0.090332 -0.033127 129150.000000 0 1 0
-10.344227 -15.552586 -11.665814 22.022198 0.983870 2.129078 0.086570 -0.028927 -117936.000000 0 1 0
-10.291727 -14.298486 -12.530214 21.618802 0.946920 2.189032 0.092060 -0.017697 -137682.000000 0 1 0
-11.542827 -13.739986 -12.839214 22.065119 0.872084 2.191833 0.090915 -0.015119 -209992.000000 0 1 0
-12.007127 -14.078186 -14.119514 23.275032 0.864628 2.222621 0.124366 -0.023716 -1145150.000000 0 1 0
-13.259427 -13.328986 -14.416714 23.692107 0.788014 2.224969 0.126011 -0.029556 -1347830.000000 0 1 0
-13.163227 -11.939886 -14.395914 22.870806 0.736704 2.251635 0.090973 -0.007837 748601.000000 0 1 0
-14.378927 -11.288386 -14.841214 23.546610 0.665567 2.252724 0.099506 -0.021136 618082.000000 0 1 0
-14.480727 -9.892986 -14.258914 22.602638 0.599350 2.253447 0.083448 -0.026746 380838.000000 0 1 0
-13.453727 -8.929886 -14.556514 21.740233 0.585979 2.304420 0.068855 -0.019119 468389.000000 0 1 0
-13.351627 -8.362986 -15.836014 22.337968 0.559580 2.358774 0.063010 -0.018442 67695.800000 0 1 0
-12.221527 -7.284986 -15.891114 21.329891 0.537531 2.411355 0.041899 -0.003819 979559.000000 0 1 0
-10.914227 -7.878486 -15.706114 20.685089 0.625243 2.433028 0.029133 -0.009999 682614.000000 0 1 0
-9.957527 -6.850686 -15.741314 19.846240 0.602620 2.486783 0.019234 0.005461 -44829.200000 0 1 0
11.613573 21.489514 16.274886 29.352107 1.075330 0.983069 0.096458 -0.014181 -356562.000000 0 0 1
12.450573 21.626114 17.385386 30.413109 1.048422 0.962292 0.121702 -0.028137 -127305.000000 0 0 1
12.993073 20.385314 17.814386 30.028875 1.003348 0.935716 0.103172 -0.026990 -23120.000000 0 0 1
14.267673 20.568414 18.662786 31.223800 0.964332 0.930154 0.114528 -0.031145 -327435.000000 0 0 1
15.329973 21.152814 17.966786 31.705757 0.943668 0.968334 0.090798 -0.024947 -443993.000000 0 0 1
16.488073 20.948214 18.750586 32.592464 0.903979 0.957820 0.089529 -0.028135 -486858.000000 0 0 1
17.799273 21.481414 18.210086 33.314749 0.878864 0.992489 0.054449 -0.019568 -1338020.000000 0 0 1
17.978373 22.797514 18.690386 34.529394 0.903039 0.998827 0.058801 -0.019532 943905.000000 0 0 1
19.144373 23.412914 18.074086 35.232714 0.885365 1.032130 0.050554 -0.013188 664507.000000 0 0 1
20.526673 23.040214 18.614286 36.037306 0.843028 1.028005 0.036920 -0.024415 -791888.000000 0 0 1
20.839673 21.644214 18.454586 35.260966 0.804333 1.019993 0.040139 -0.009843 -154518.000000 0 0 1
22.113573 21.347014 18.989986 36.129277 0.767762 1.017362 0.047789 -0.022723 -108055.000000 0 0 1
22.389073 19.931414 18.665086 35.311716 0.727391 1.013869 0.044091 -0.013356 -261658.000000 0 0 1
22.530073 19.666314 17.267186 34.532938 0.717635 1.047174 0.025086 -0.009090 50401.200000 0 0 1
22.200973 18.302814 16.833086 33.335101 0.689452 1.041454 0.024828 -0.001482 -259831.000000 0 0 1
23.020973 17.052214 17.240786 33.436326 0.637539 1.029053 0.017364 -0.006834 296566.000000 0 0 1
24.165773 16.911914 16.382186 33.739790 0.610611 1.063810 0.022039 -0.011375 647469.000000 0 0 1
25.006773 15.876714 16.911186 34.108605 0.565684 1.052036 0.008943 -0.004586 -15646.800000 0 0 1
26.297773 15.699414 16.049886 34.578075 0.538201 1.088106 0.100587 -0.030043 -199469.000000 0 0 1
27.277173 16.715314 16.266086 35.889155 0.549774 1.100409 0.076250 -0.024365 465808.000000 0 0 1
28.309173 16.521514 17.214386 37.023030 0.528281 1.087202 0.087276 -0.036288 -5264.730000 0 0 1
29.352173 15.481014 16.766486 37.179657 0.485345 1.102957 0.093951 -0.044058 -1149650.000000 0 0 1
30.171273 15.774814 15.681586 37.484165 0.481754 1.139166 0.149830 -0.045180 -52356.400000 0 0 1
30.320473 14.754014 14.744586 36.802375 0.452872 1.158579 0.159998 -0.056700 -332585.000000 0 0 1
29.219073 14.773514 13.692486 35.489366 0.468127 1.174701 0.147739 -0.042677 -428140.000000 0 0 1
29.414473 15.750414 12.674786 35.692253 0.491615 1.207761 0.157089 -0.036402 456788.000000 0 0 1
28.614173 15.541114 11.442486 34.514165 0.497551 1.232871 0.132712 -0.036866 1637830.000000 0 0 1
27.287873 16.438914 11.446786 33.851068 0.542201 1.225844 0.106757 -0.037429 448508.000000 0 0 1
27.431373 17.846614 11.293586 34.619748 0.576791 1.238496 0.080717 -0.025628 39545.000000 0 0 1
28.150473 18.567514 12.300386 35.895699 0.583081 1.221039 0.083758 -0.037090 -379599.000000 0 0 1
27.651073 18.590314 13.751286 36.045519 0.591905 1.179380 0.074956 -0.032876 -355470.000000 0 0 1
26.441873 19.314114 13.815186 35.539654 0.630863 1.171548 0.054618 -0.016049 -189929.000000 0 0 1
25.895373 19.244514 15.123686 35.632114 0.639112 1.132453 0.037979 -0.014495 -343943.000000 0 0 1
26.492473 20.104514 16.306686 37.039852 0.649158 1.114923 0.040450 -0.021592 -101966.000000 0 0 1
26.357873 21.556514 16.305186 37.752879 0.685525 1.124206 0.019066 -0.007761 85386.800000 0 0 1
25.019073 21.899514 16.596586 37.161665 0.719007 1.107829 0.032305 -0.008020 -194116.000000 0 0 1
24.767573 23.421714 16.324686 37.795565 0.757477 1.124175 0.031695 -0.007724 -167766.000000 0 0 1
24.672573 23.729314 14.953086 37.355200 0.765913 1.158958 0.040700 -0.018187 176911.000000 0 0 1
24.557473 25.167914 14.851186 38.171339 0.797674 1.171178 0.042294 -0.022229 -902164.000000 0 0 1
24.568873 25.640014 13.409786 37.958691 0.806729 1.209729 0.054701 -0.024591 53576.200000 0 0 1
23.296273 25.533014 12.768786 36.846886 0.831174 1.216920 0.049769 -0.015847 490379.000000 0 0 1
23.308173 26.092614 11.483986 36.823598 0.841703 1.253641 0.049475 -0.031332 -391535.000000 0 0 1
23.055373 25.096014 10.351286 35.616138 0.827753 1.275906 0.066500 -0.029810 -385406.000000 0 0 1
21.706173 24.806414 10.076286 34.468067 0.851954 1.274127 0.060504 -0.026890 -142597.000000 0 0 1
21.280473 23.643414 10.769286 33.583434 0.837949 1.244357 0.056605 -0.018284 -176078.000000 0 0 1
20.912573 22.474514 9.811886 32.229064 0.821383 1.261444 0.076626 -0.020077 153536.000000 0 0 1
19.771873 22.503214 8.955586 31.265382 0.849917 1.280290 0.100954 -0.026038 95505.800000 0 0 1
19.969673 23.326514 7.842886 31.692664 0.862775 1.320731 0.096745 -0.028689 491922.000000 0 0 1
18.608173 23.698414 7.160986 30.970286 0.905140 1.337464 0.100503 -0.028124 1937.280000 0 0 1
18.032873 22.630014 6.462886 29.649130 0.897975 1.351053 0.105016 -0.021498 -46971.200000 0 0 1
17.370673 22.903314 5.265486 29.223747 0.921919 1.389629 0.117944 -0.030954 -29102.400000 0 0 1
15.996873 23.600214 5.343986 29.007382 0.975107 1.385509 0.094723 -0.029806 -311337.000000 0 0 1
16.155673 24.985214 5.427486 30.244409 0.996808 1.390365 0.105170 -0.032370 933933.000000 0 0 1
14.897073 25.614014 5.755286 30.184828 1.044017 1.378954 0.094345 -0.032624 887375.000000 0 0 1
14.793073 27.060114 5.172686 31.270457 1.070510 1.404615 0.086506 -0.033013 -23363.500000 0 0 1
14.415473 27.107214 3.783186 30.934114 1.082038 1.448191 0.082887 -0.014376 238480.000000 0 0 1
14.029673 28.371114 3.383886 31.830842 1.111554 1.464287 0.075408 -0.018597 -369157.000000 0 0 1
13.525973 28.324714 1.929086 31.447778 1.125284 1.509415 0.086670 -0.017302 127725.000000 0 0 1
14.490673 28.105114 0.885886 31.633239 1.094756 1.542788 0.098610 -0.022139 275145.000000 0 0 1
14.746873 26.704514 0.788386 30.515945 1.066247 1.544958 0.082319 -0.017740 -78753.300000 0 0 1
15.800673 26.432914 -0.292014 30.796842 1.032022 1.580278 0.090062 -0.020192 -43513.300000 0 0 1
15.286173 26.645014 -1.594214 30.759801 1.049942 1.622647 0.086126 -0.015715 400132.000000 0 0 1
16.360473 26.632614 -2.546214 31.359917 1.019927 1.652079 0.077552 -0.007535 456241.000000 0 0 1
15.983873 27.273314 -3.905714 31.852354 1.040688 1.693725 0.099040 -0.012830 -320790.000000 0 0 1
14.980673 26.586214 -4.656414 30.869557 1.057666 1.722216 0.109818 -0.021650 -105908.000000 0 0 1
15.144673 27.000014 -6.029814 31.539191 1.059613 1.763165 0.095528 -0.022008 105502.000000 0 0 1
14.037273 26.672614 -7.049914 30.954397 1.086346 1.800564 0.113323 -0.029807 124456.000000 0 0 1
13.888873 25.329314 -7.431914 29.827978 1.069235 1.822608 0.094287 -0.022996 -98329.700000 0 0 1
12.529673 25.104014 -7.745414 29.106626 1.107861 1.840146 0.089321 -0.025904 203594.000000 0 0 1
12.216173 23.645914 -8.085414 27.816147 1.093934 1.865727 0.089374 -0.017877 -19850.100000 0 0 1
12.813573 23.241014 -9.318514 28.127693 1.066929 1.908470 0.078236 -0.017640 85714.500000 0 0 1
12.324373 21.988614 -9.726114 27.018265 1.059936 1.939046 0.072228 -0.014176 -138954.000000 0 0 1
12.674473 21.629214 -11.196814 27.456034 1.040743 1.990849 0.067264 -0.011100 74430.100000 0 0 1
12.137873 20.349014 -11.593114 26.378223 1.032966 2.025833 0.074194 -0.015470 -122841.000000 0 0 1
12.307173 19.881714 -12.938314 26.723567 1.016509 2.076192 0.075961 -0.015257 -210750.000000 0 0 1
13.708473 19.356414 -13.304214 27.195498 0.954579 2.081976 0.069076 -0.018544 -631895.000000 0 0 1
14.673873 20.341814 -13.236414 28.360441 0.945875 2.056376 0.068296 -0.021807 -1139230.000000 0 0 1
15.855973 19.821814 -13.766314 28.876073 0.896101 2.067736 0.059859 -0.017778 -283361.000000 0 0 1
17.113073 20.713914 -13.662214 30.142654 0.880305 2.041206 0.077886 -0.018238 -175703.000000 0 0 1
17.214273 21.895014 -14.484614 31.393103 0.904515 2.050363 0.074445 -0.016586 417215.000000 0 0 1
16.192373 22.901314 -14.392314 31.524623 0.955355 2.044901 0.072605 -0.016690 478572.000000 0 0 1
16.765673 24.359814 -14.760814 33.051021 0.967999 2.033766 0.077291 -0.008803 172188.000000 0 0 1
17.002273 24.595914 -16.158614 33.987308 0.965957 2.066250 0.064952 -0.013514 80753.500000 0 0 1
15.793673 24.610614 -16.916014 33.782747 1.000248 2.095238 0.058156 -0.011344 -42955.400000 0 0 1
15.907773 24.552314 -18.432114 34.577684 0.995889 2.133014 0.051143 -0.007597 -43651.300000 0 0 1
16.399873 23.301114 -18.814014 34.144764 0.957509 2.154367 0.055487 0.002960 -207626.000000 0 0 1
16.574473 23.372514 -20.188414 35.050815 0.953960 2.184593 0.047120 0.007331 -130405.000000 0 0 1
17.044173 21.974914 -20.537614 34.571582 0.911099 2.206894 0.053379 0.007854 9956.880000 0 0 1
15.980573 21.043714 -20.566614 33.484358 0.921307 2.232188 0.071788 0.005699 290165.000000 0 0 1
16.473373 19.865214 -21.115514 33.344620 0.878468 2.256543 0.066691 0.004616 229476.000000 0 0 1
15.318273 18.884214 -21.411114 32.399056 0.889283 2.292755 0.060733 0.007342 -158595.000000 0 0 1
14.876273 18.082214 -20.322614 31.004494 0.882365 2.285605 0.067848 -0.001113 451194.000000 0 0 1
14.015073 16.980614 -20.624014 30.168087 0.880784 2.323531 0.062029 -0.000396 998161.000000 0 0 1
12.539373 17.235914 -21.100614 29.992475 0.941842 2.351149 0.071242 0.002661 -184640.000000 0 0 1
11.646373 17.265814 -20.060014 28.916267 0.977367 2.337448 0.058474 -0.000526 1236330.000000 0 0 1
10.274673 17.457514 -20.570214 28.869836 1.038836 2.363874 0.060337 0.001087 2220000.000000 0 0 1
9.138273 17.065614 -19.580614 27.534409 1.079170 2.361904 0.061524 -0.014359 -205127.000000 0 0 1
9.009173 15.676614 -19.451414 26.557089 1.049196 2.392692 0.054733 -0.011471 1698340.000000 0 0 1
7.673173 15.314414 -18.943514 25.539491 1.106315 2.406449 0.064007 -0.017865 1703910.000000 0 0 1
7.457873 15.523714 -17.461914 24.525987 1.122937 2.363105 0.063540 -0.023625 -226779.000000 0 1 0
7.316373 16.918614 -17.029514 25.095282 1.162636 2.316643 0.081575 -0.022468 -71486.600000 0 0 1
6.882873 16.943814 -15.662514 24.078645 1.184942 2.279004 0.068716 -0.033270 18226.500000 0 1 0
6.554873 18.307114 -15.082314 24.608799 1.226968 2.230500 0.077184 -0.029244 869254.000000 0 1 0
7.726373 19.150714 -14.897414 25.463300 1.187319 2.195743 0.069010 -0.024955 972084.000000 0 0 1
8.293173 19.729014 -16.059714 26.756778 1.172867 2.214561 0.089402 -0.023799 71386.900000 0 0 1
9.357073 20.819614 -15.738614 27.725712 1.148412 2.174450 0.069809 -0.009714 84182.500000 0 0 1
8.926573 22.043014 -15.130814 28.187226 1.186020 2.137432 0.065139 -0.015860 -43819.800000 0 0 1
8.933973 21.952614 -13.741514 27.396393 1.184299 2.096222 0.069104 -0.014329 -59197.500000 0 0 1
8.482073 23.288814 -13.059014 28.015215 1.221517 2.055719 0.069346 -0.021618 744394.000000 0 0 1
7.077673 23.572014 -13.228314 27.941396 1.279103 2.063978 0.072584 -0.019852 917936.000000 0 0 1
6.719873 24.669514 -12.338414 28.389753 1.304853 2.020399 0.061519 -0.018444 38566.800000 0 0 1
5.944973 24.251714 -11.093014 27.322945 1.330401 1.988865 0.058143 -0.019699 -656187.000000 0 0 1
6.754173 23.755314 -10.050014 26.663394 1.293784 1.957267 0.053296 -0.020853 265008.000000 0 0 1
6.003173 23.124214 -9.015314 25.535138 1.316798 1.931631 0.067777 -0.028759 54942.200000 0 0 1
6.919773 22.972914 -7.812214 25.232295 1.278226 1.885581 0.048062 -0.027471 28175.300000 0 0 1
7.202773 24.221914 -7.236214 26.285811 1.281758 1.849687 0.046440 -0.028005 -24104.400000 0 0 1
8.126473 24.170814 -6.188014 26.240414 1.246459 1.808859 0.071210 -0.023544 -106529.000000 0 0 1
8.379373 25.547114 -5.521214 27.447272 1.253856 1.773335 0.064658 -0.027944 70528.900000 0 0 1
9.033873 26.477614 -6.349814 28.687890 1.241992 1.793986 0.087391 -0.033326 -124937.000000 0 0 1
9.539973 27.503714 -5.566014 29.638588 1.236920 1.759714 0.085429 -0.030270 82262.300000 0 0 1
10.008273 28.679814 -6.430914 31.049218 1.235043 1.779427 0.084462 -0.023358 50078.300000 0 0 1
11.080473 28.433014 -7.304914 31.377937 1.199197 1.805756 0.085106 -0.025344 -312197.000000 0 0 1
11.311173 29.702914 -7.970714 32.767942 1.206942 1.816509 0.074162 -0.023166 -395268.000000 0 0 1
12.650073 29.876214 -8.678714 33.584708 1.170268 1.832175 0.082701 -0.025847 135495.000000 0 0 1
13.755273 29.957914 -7.794814 33.873932 1.140357 1.802990 0.065987 -0.018270 257033.000000 0 0 1
14.939173 30.511414 -8.344014 34.982108 1.115483 1.811640 0.058012 -0.020295 955254.000000 0 0 1
16.167773 30.713214 -7.411614 35.491273 1.086244 1.781174 0.053360 -0.014877 395145.000000 0 0 1
17.018373 29.619614 -7.154014 34.901669 1.049290 1.777236 0.061535 -0.012515 -35668.300000 0 0 1
18.016873 30.004314 -6.212514 35.545209 1.030027 1.746476 0.043348 -0.007805 -265492.000000 0 0 1
19.041673 28.935414 -6.019914 35.157970 0.988765 1.742869 0.045970 -0.001226 -885148.000000 0 0 1
18.553073 27.892414 -5.204314 33.901153 0.983834 1.724920 0.074146 -0.015433 -105902.000000 0 0 1
19.561673 26.976714 -4.751214 33.659712 0.943402 1.712424 0.057389 -0.012910 127138.000000 0 0 1
19.984573 25.982014 -5.837514 33.294516 0.915139 1.747037 0.066142 -0.001885 53226.700000 0 0 1
20.543373 26.438114 -7.080414 34.221869 0.910215 1.779199 0.050222 0.005151 261167.000000 0 0 1
20.669273 25.359614 -8.010214 33.682227 0.886948 1.810914 0.057976 -0.003423 -307796.000000 0 0 1
21.437973 25.694914 -9.336214 34.741621 0.875472 1.842874 0.062039 -0.005974 198455.000000 0 0 1
22.835373 25.876114 -9.285614 35.738637 0.847741 1.833632 0.039926 0.001632 67485.700000 0 0 1
23.500173 24.611914 -9.392414 35.301868 0.808501 1.840100 0.064069 0.002102 -799038.000000 0 0 1
25.018573 24.663814 -9.428214 36.374771 0.778258 1.832987 0.021060 0.014323 -481342.000000 0 0 1
25.577173 25.266414 -10.568414 37.473655 0.779286 1.856698 0.029779 0.013286 486400.000000 0 0 1
27.004873 25.327114 -10.479514 38.477865 0.753349 1.846633 0.021220 0.023766 853182.000000 0 0 1
27.725973 25.610614 -11.830914 39.555071 0.745758 1.874545 0.017131 0.018642 141507.000000 0 0 1
27.554273 26.904014 -12.346514 40.441320 0.773458 1.881044 0.022974 0.026442 -28876.800000 0 0 1
28.167473 26.850614 -13.627914 41.232051 0.761468 1.907648 0.009005 0.032570 239728.000000 0 0 1
27.830173 28.061414 -14.546914 42.113824 0.789535 1.923482 0.023852 0.013750 -47531.900000 0 0 1
28.349873 29.284714 -14.139314 43.141975 0.801617 1.904706 0.046505 -0.007037 -103637.000000 0 0 1
28.153473 30.283714 -15.087814 44.015492 0.821836 1.920675 0.062628 -0.005803 -141070.000000 0 0 1
28.641073 31.674814 -14.677614 45.155700 0.835653 1.901855 0.069093 -0.018003 -429825.000000 0 0 1
30.034373 31.763414 -14.652514 46.105035 0.813370 1.894212 0.066703 -0.024016 -573440.000000 0 0 1
30.480873 33.088114 -14.518814 47.272644 0.826390 1.882971 0.073462 -0.031023 -133873.000000 0 0 1
16.156273 -31.839879 -27.477785 45.053654 -1.101228 2.226718 0.099894 -0.048126 271189.000000 0 0 1
17.292773 -32.672579 -27.203805 45.897542 -1.084004 2.205212 0.079468 -0.030153 575475.000000 0 0 1
17.856573 -32.366979 -25.944415 45.161833 -1.066656 2.182761 0.076246 -0.032812 148416.000000 0 0 1
19.129273 -33.217679 -25.580375 46.083607 -1.048304 2.159263 0.013345 -0.026738 237382.000000 0 0 1
20.349973 -32.841779 -26.140205 46.647767 -1.016063 2.165634 0.026784 -0.020409 -104991.000000 0 0 1
20.452873 -33.364279 -27.468075 47.812030 -1.020860 2.182791 0.045143 -0.016282 689134.000000 0 0 1
21.906773 -33.152279 -28.098945 48.667556 -0.986872 2.186294 0.047201 -0.006816 1378870.000000 0 0 1
22.205573 -31.826379 -28.464745 48.127410 -0.961609 2.203647 0.049616 -0.020656 592813.000000 0 0 1
23.481873 -31.408879 -27.949335 48.156841 -0.928821 2.189993 0.007168 -0.009827 267948.000000 0 0 1
23.893573 -30.103379 -28.661625 47.943769 -0.899898 2.211572 -0.007774 0.001584 13651.500000 0 0 1
24.262573 -30.214979 -30.051175 49.037644 -0.894230 2.230419 -0.008386 -0.007711 -26490.200000 0 0 1
24.777873 -29.019279 -30.635845 48.934819 -0.864076 2.247279 0.008985 -0.018912 258291.000000 0 0 1
25.171373 -29.182879 -32.107835 50.161255 -0.859068 2.265415 0.020326 -0.009761 93545.400000 0 0 1
26.134073 -30.180679 -32.338405 51.377384 -0.857132 2.251614 0.022224 -0.020258 -410924.000000 0 0 1
26.315673 -30.367879 -33.755325 52.479945 -0.856765 2.269472 0.022742 -0.029253 -431409.000000 0 0 1
27.575873 -31.137579 34.071972 53.766875 -0.845986 0.884472 0.020497 -0.030474 -630709.000000 0 0 1
28.771473 -30.460079 -33.871315 53.878382 -0.813899 2.250628 0.032943 -0.034902 -516902.000000 0 0 1
29.863773 -31.287179 33.916715 54.964316 -0.808671 0.905785 0.031441 -0.023289 188884.000000 0 0 1
31.185173 -30.509779 33.871596 55.232659 -0.774451 0.910624 0.039446 -0.035484 -293555.000000 0 0 1
31.202873 -29.529179 32.819036 54.061824 -0.757846 0.918435 0.039451 -0.030559 635381.000000 0 0 1
32.329773 -28.625879 32.871942 54.269878 -0.724709 0.920135 0.047316 -0.033790 659986.000000 0 0 1
32.501573 -27.750979 31.591766 53.146107 -0.706716 0.934237 0.048726 -0.033672 -1390380.000000 0 0 1
33.692273 -27.084179 31.516306 53.497659 -0.677096 0.940832 0.050902 -0.038435 -901345.000000 0 0 1
33.829173 -26.146379 30.401636 52.462420 -0.657993 0.952689 0.062138 -0.032374 -350454.000000 0 0 1
34.382573 -26.696579 29.064726 52.341445 -0.660219 0.982084 0.067930 -0.030516 -40951.500000 0 0 1
33.648573 -27.766779 28.439076 52.076880 -0.689919 0.993097 0.063233 -0.040571 837007.000000 0 0 1
32.417673 -27.377279 27.829836 50.743676 -0.701302 0.990299 0.067529 -0.042534 474229.000000 0 0 1
31.625973 -28.415779 26.966196 50.347138 -0.731983 1.005572 0.063225 -0.030675 43171.100000 0 0 1
30.323873 -28.080079 26.569206 49.131973 -0.746999 0.999441 0.068074 -0.023408 -123631.000000 0 0 1
29.946173 -29.015379 25.515596 48.884671 -0.769613 1.021655 0.044869 -0.018546 -288321.000000 0 0 1
28.605973 -28.585879 24.908246 47.496051 -0.785047 1.018753 0.029019 -0.004630 220955.000000 0 0 1
27.543173 -28.662479 25.879306 47.433137 -0.805310 0.993697 0.021111 -0.005452 408360.000000 0 0 1
26.321373 -28.354779 25.218686 46.182142 -0.822571 0.993130 0.018367 0.010054 453154.000000 0 0 1
25.072673 -28.297779 26.126236 45.956320 -0.845753 0.966113 0.027428 0.003233 123650.000000 0 0 1
25.121173 -27.145079 26.951006 45.763362 -0.824102 0.941073 0.014313 -0.000453 87574.400000 0 0 1
23.973873 -27.101579 27.771176 45.612283 -0.846559 0.916182 0.026420 -0.009777 -374564.000000 0 0 1
23.953973 -25.863579 28.673966 45.441323 -0.823711 0.887941 0.036340 -0.002566 -431290.000000 0 0 1
22.838973 -25.920679 29.525266 45.444929 -0.848516 0.863615 0.062438 -0.009901 -317083.000000 0 0 1
22.819873 -24.855179 30.447976 45.448935 -0.828063 0.836671 0.065475 -0.017628 -431600.000000 0 0 1
22.324973 -23.424779 30.126016 44.212006 -0.809433 0.821124 0.065785 -0.017618 -566632.000000 0 0 1
23.023873 -22.829479 29.047666 43.532180 -0.781159 0.840261 0.059478 -0.013672 130504.000000 0 0 1
22.763073 -21.474079 28.775336 42.512510 -0.756268 0.827298 0.074332 -0.007105 -75987.200000 0 0 1
23.528273 -20.463579 29.663526 43.037918 -0.715845 0.810354 0.067929 -0.006894 1888.380000 0 0 1
23.034273 -20.391779 30.996186 43.671110 -0.724623 0.781633 0.070977 -0.008913 506035.000000 0 0 1
23.746273 -19.401279 31.745266 44.136798 -0.685036 0.768078 0.065542 -0.016222 -192164.000000 0 0 1
23.177073 -19.230279 33.148676 44.786327 -0.692597 0.737500 0.067830 -0.003115 -102614.000000 0 0 1
23.539373 -20.296179 34.023709 46.083074 -0.711547 0.740231 0.068733 -0.003510 80956.100000 0 0 1
22.798373 -20.210879 -32.987935 44.904892 -0.725309 2.395900 0.067217 -0.008299 -174939.000000 0 0 1
22.846473 -21.516279 -32.121725 44.907870 -0.755423 2.367822 0.059561 -0.000798 31708.100000 0 0 1
24.129973 -21.684579 -31.565185 45.264086 -0.732073 2.342498 0.050110 -0.007706 4612.680000 0 0 1
24.038473 -22.572879 -30.435805 44.874506 -0.753966 2.316165 0.051026 -0.011658 -13572.400000 0 0 1
25.391773 -22.674379 -29.705425 45.180547 -0.728924 2.288269 0.050377 -0.001853 23131.000000 0 0 1
26.339773 -23.377979 -30.478165 46.575016 -0.725896 2.284170 0.052756 -0.001981 -347098.000000 0 0 1
27.370073 -23.912179 -29.678815 46.922758 -0.718071 2.255578 0.048798 -0.011227 -202682.000000 0 0 1
28.359973 -24.822779 -30.431265 48.440895 -0.718986 2.250052 0.029919 -0.013856 -214633.000000 0 0 1
29.376573 -24.182479 -31.174495 49.189678 -0.688722 2.257202 0.033249 -0.010571 -190.319000 0 0 1
28.994473 -23.864179 -32.492635 49.658331 -0.688644 2.284085 0.037950 -0.006249 -184642.000000 0 0 1
29.097473 -25.061079 -33.448605 50.926710 -0.711006 2.287362 0.030228 -0.006406 -332409.000000 0 0 1
28.201673 -26.099679 -33.169235 50.761459 -0.746708 2.282908 0.049035 -0.018807 -320787.000000 0 0 1
28.313273 -27.324479 -33.946355 51.967524 -0.767628 2.282629 0.039704 -0.022863 -38860.100000 0 0 1
28.002973 -27.381379 32.697819 51.020131 -0.774175 0.875151 0.042254 -0.029096 472004.000000 0 0 1
28.964273 -26.588979 31.989326 50.687472 -0.742667 0.887814 0.029778 -0.032900 442157.000000 0 0 1
28.631473 -26.613079 30.643786 49.669496 -0.748879 0.905930 0.030228 -0.029258 64178.000000 0 0 1
29.727973 -25.918979 29.760746 49.408985 -0.717055 0.924374 0.044230 -0.029939 4512.970000 0 0 1
29.883773 -24.489279 29.806336 48.797360 -0.686509 0.913702 0.048151 -0.028357 201358.000000 0 0 1
30.247673 -23.915979 31.087906 49.531340 -0.669027 0.892277 0.040991 -0.017282 -1168680.000000 0 0 1
30.738573 -22.448979 31.007416 49.094565 -0.630786 0.887200 0.032549 -0.010408 585097.000000 0 0 1
31.984773 -22.176479 30.365986 49.365119 -0.606245 0.908245 0.043533 -0.020525 539418.000000 0 0 1
33.092073 -22.633879 31.109336 50.746118 -0.599884 0.910895 0.040531 -0.021514 -1214110.000000 0 0 1
34.439173 -22.066379 30.704676 51.144489 -0.569834 0.926856 0.044929 -0.028913 -433978.000000 0 0 1
35.082373 -22.486179 29.502946 51.057075 -0.569990 0.954714 0.051922 -0.036115 443136.000000 0 0 1
36.285573 -21.795879 29.228466 51.439346 -0.540917 0.966465 0.039477 -0.032626 -64607.600000 0 0 1
-36.282839 -22.187579 27.927596 50.879108 0.548845 0.989747 0.061676 -0.028780 -424590.000000 0 0 1
-35.823939 -23.523479 27.816556 51.092753 0.581030 0.995084 0.064653 -0.024368 222559.000000 0 0 1
-35.607939 -23.751979 26.466636 50.324592 0.588262 1.017002 0.067161 -0.014631 -287789.000000 0 0 1
-35.388339 -25.284379 26.104636 50.725598 0.620380 1.030227 0.066057 -0.029653 -728241.000000 0 0 1
-36.485639 -26.117979 26.348956 52.034778 0.621280 1.039824 0.073162 -0.030845 -316354.000000 0 0 1
-36.387839 -27.410879 25.948246 52.428452 0.645608 1.053046 0.080261 -0.029361 -384039.000000 0 0 1
-35.498239 -28.271379 26.822116 52.714530 0.672552 1.036985 0.078485 -0.028350 -1256560.000000 0 0 1
-35.496039 -29.675879 26.427816 53.282793 0.696330 1.051820 0.090402 -0.027223 383103.000000 0 0 1
-34.437839 -30.418779 27.042256 53.315574 0.723509 1.038851 0.086075 -0.027771 674735.000000 0 0 1
-33.023739 -29.973879 26.580886 51.918631 0.737024 1.033317 0.085683 -0.017726 -979726.000000 0 0 1
-32.743039 -30.217679 25.242736 51.209476 0.745310 1.055341 0.072772 -0.013319 -1028590.000000 0 0 1
-31.527539 -29.611279 25.025606 49.970936 0.754066 1.046270 0.035203 -0.005407 -786222.000000 0 0 1
-31.119439 -29.407079 23.526676 48.853866 0.757115 1.068348 0.028677 -0.006368 -92772.700000 0 0 1
-30.750839 -30.623679 22.903786 49.071450 0.783326 1.085191 0.037334 -0.008790 219903.000000 0 0 1
-30.034039 -30.494379 21.711286 47.993026 0.793003 1.101359 0.033057 -0.004945 -672213.000000 0 0 1
-29.828539 -31.784179 20.958586 48.365670 0.817128 1.122605 0.052876 -0.003672 -265419.000000 0 0 1
-28.915739 -32.737479 21.367186 48.625293 0.847307 1.115837 0.036481 -0.012204 -269161.000000 0 0 1
-27.544039 -32.425879 21.156586 47.515395 0.866624 1.109335 0.050558 -0.010581 176661.000000 0 0 1
-26.649639 -33.703379 21.203486 47.913555 0.901745 1.112371 0.035252 -0.004834 -606778.000000 0 0 1
-26.843039 33.631714 20.102286 47.494661 -0.897187 1.133763 0.021476 -0.005193 371788.000000 0 0 1
-28.063539 32.899114 19.910686 47.606190 -0.864553 1.139292 0.032247 -0.003539 427049.000000 0 0 1
-28.422839 31.794814 20.930386 47.506305 -0.841336 1.114550 0.036674 -0.005060 -125949.000000 0 0 1
-27.541439 30.688614 20.968486 46.260126 -0.839393 1.100362 0.024041 -0.009794 -108312.000000 0 0 1
-27.687039 29.831614 22.081386 46.304265 -0.822666 1.073699 0.030005 -0.015871 -475287.000000 0 0 1
-26.845539 28.575914 21.950586 44.934330 -0.816610 1.060422 0.023461 -0.015706 -393548.000000 0 0 1
-25.470239 28.869714 21.859086 44.272035 -0.847876 1.054406 0.014309 -0.009633 -353843.000000 0 0 1
-24.776439 27.765814 21.317986 42.886698 -0.842232 1.050570 0.008250 -0.018130 103050.000000 0 0 1
-23.248739 28.011014 21.357286 42.204910 -0.878037 1.040211 0.003658 -0.010615 127317.000000 0 0 1
-22.653139 27.932114 22.669186 42.511877 -0.889380 1.008366 0.020208 -0.006018 271694.000000 0 0 1
-21.396039 28.582014 22.628086 42.269993 -0.928202 1.005907 0.059433 -0.010820 -135761.000000 0 0 1
-20.795239 28.736714 24.027306 42.843344 -0.944376 0.975423 0.051926 -0.003359 -561221.000000 0 0 1
-20.444939 27.473914 24.554096 42.139235 -0.931044 0.948762 0.065141 -0.015729 337034.000000 0 0 1
-20.059739 27.437914 25.947306 42.760904 -0.939504 0.918768 0.057741 -0.014305 -215835.000000 0 0 1
-18.622639 27.820514 26.324746 42.588448 -0.980914 0.904448 0.068418 -0.008816 -530331.000000 0 0 1
-18.332139 29.206914 26.233616 43.327979 -1.010283 0.920445 0.038501 -0.007797 146317.000000 0 0 1
-17.047839 29.634514 26.647926 43.346801 -1.048759 0.908713 0.031444 -0.003379 -11359.800000 0 0 1
-16.770239 29.824414 28.154556 44.310446 -1.058560 0.882279 0.019367 0.003172 -491848.000000 0 0 1
-16.678539 28.586214 28.834316 43.894909 -1.042637 0.854104 0.031983 0.001655 119436.000000 0 0 1
-16.700239 28.721614 30.262256 44.940329 -1.044127 0.832015 0.020164 0.008940 -244441.000000 0 0 1
-16.499139 27.376714 30.887166 44.449106 -1.028416 0.802532 0.021683 0.006538 144464.000000 0 0 1
-15.129539 27.254914 31.263586 44.149123 -1.064037 0.783942 0.033560 0.011298 337170.000000 0 0 1
-14.857739 26.178514 32.104776 44.008904 -1.054575 0.753196 0.047972 0.009023 -57473.100000 0 0 1
-15.434239 26.353614 33.552261 45.370507 -1.040988 0.738444 0.047185 0.013493 -273418.000000 0 0 1
-16.729039 25.955414 33.896996 45.853578 -0.998276 0.738849 0.042091 0.014870 -510765.000000 0 0 1
-17.284539 26.808114 -33.314945 46.122834 -0.998120 2.377932 0.031163 0.018293 -363205.000000 0 0 1
-18.604339 26.290414 -32.773445 45.950038 -0.954956 2.364907 0.017566 0.015848 -306150.000000 0 0 1
-19.717939 26.360514 -33.647405 47.072515 -0.928570 2.367134 0.019753 0.013412 -277463.000000 0 0 1
-20.806739 25.653114 -33.137585 46.787842 -0.889335 2.357815 0.040072 0.008238 -339378.000000 0 0 1
-22.064339 25.794714 -34.040054 48.072108 -0.863186 2.357606 0.076467 -0.017465 -67316.700000 0 0 1
-22.117839 24.961114 33.007159 46.922580 -0.845719 0.790572 0.073419 -0.015307 105231.000000 0 0 1
-22.528039 23.607814 33.342251 46.653479 -0.808798 0.774632 0.066184 -0.012230 -257765.000000 0 0 1
-22.796239 22.784814 32.086966 45.479552 -0.785148 0.787632 0.059020 -0.010566 126477.000000 0 0 1
-24.100439 22.875414 31.540296 45.813819 -0.759326 0.811453 0.072116 -0.019654 -136709.000000 0 0 1
-24.174839 22.350214 30.307566 44.749340 -0.746200 0.826745 0.082575 -0.014592 193234.000000 0 0 1
-25.607739 22.227214 29.738616 45.102002 -0.714845 0.850824 0.088911 -0.026866 468290.000000 0 0 1
-26.347739 21.202014 30.397976 45.472691 -0.677600 0.838622 0.103929 -0.025680 262510.000000 0 0 1
-27.441939 20.648014 29.681836 45.391760 -0.645052 0.858064 0.099553 -0.032855 169961.000000 0 0 1
-27.847039 19.212414 30.138436 45.308937 -0.603933 0.843066 0.121354 -0.031592 -181959.000000 0 0 1
-28.417339 19.097714 31.455996 46.494596 -0.591716 0.827727 0.116485 -0.028559 204745.000000 0 0 1
-28.701239 17.780014 31.966006 46.494253 -0.554624 0.812720 0.106517 -0.015430 160880.000000 0 0 1
-29.803239 16.927414 31.271676 46.397070 -0.516537 0.831185 0.082710 -0.015823 842014.000000 0 0 1
-31.187739 17.240814 31.501176 47.563061 -0.504996 0.846907 0.068580 -0.015864 384399.000000 0 0 1
-31.893339 16.202614 30.876866 47.255588 -0.470047 0.858727 0.063441 0.006011 -818984.000000 0 0 1
-33.398939 16.319014 31.023256 48.417370 -0.454493 0.875326 0.055519 0.004630 -714019.000000 0 0 1
-33.860939 16.123614 32.351571 49.529367 -0.444404 0.859020 0.045372 0.004045 1314230.000000 0 0 1
-35.299439 15.964114 32.428388 50.522308 -0.424722 0.873871 0.057983 -0.001034 1017720.000000 0 0 1
-35.785339 16.713614 33.674923 51.903139 -0.436944 0.864786 0.054423 0.003760 -647667.000000 0 0 1
36.021573 16.778214 33.703016 52.105234 0.435901 0.867381 0.046123 -0.007737 -426726.000000 0 0 1
35.597473 17.392214 -33.284335 51.744721 0.454470 2.269520 0.035699 -0.010531 228044.000000 0 0 1
34.062473 17.502714 -33.118415 50.630292 0.474659 2.283818 0.047819 -0.011012 148806.000000 0 0 1
33.471973 16.193714 -33.013335 49.724135 0.450603 2.296858 0.054959 -0.009891 5070.110000 0 0 1
32.196673 16.435714 -32.434445 48.566981 0.471995 2.302085 0.059817 -0.013509 -358705.000000 0 0 1
31.338273 15.175914 -32.433785 47.585146 0.450978 2.320736 0.063085 -0.017856 -231548.000000 0 0 1
30.618073 15.079314 -33.672525 47.944667 0.457627 2.349448 0.060447 -0.024943 492893.000000 0 0 1
29.832073 13.869014 -33.786555 47.157538 0.435178 2.369513 0.053922 -0.025935 302534.000000 0 0 1
30.724973 12.603014 -34.063395 47.572837 0.389258 2.368889 0.059116 -0.017273 330600.000000 0 0 1
31.384373 12.106214 -32.923565 47.069103 0.368153 2.345456 0.058517 -0.008518 -121099.000000 0 0 1
32.449773 11.280114 -33.293045 47.839895 0.334551 2.340505 0.061655 -0.005493 -587986.000000 0 0 1
17.955873 -20.901586 9.957885 29.299303 -0.861062 1.224020 0.038999 -0.013163 62624.800000 0 0 1
17.644473 -22.230786 10.368185 30.216461 -0.899911 1.220549 0.033592 -0.014690 194589.000000 0 0 1
18.795673 -22.950486 10.795085 31.567958 -0.884597 1.221791 0.025047 -0.010575 -194086.000000 0 0 1
18.497473 -24.218886 11.621885 32.615628 -0.918545 1.206461 0.029027 -0.006627 -296791.000000 0 0 1
17.840773 -25.300286 11.023085 32.861924 -0.956615 1.228728 0.029457 -0.014984 -1046100.000000 0 0 1
16.475873 -25.167126 11.204985 32.099693 -0.991153 1.214220 0.028676 -0.010188 -1478380.000000 0 0 1
15.695073 -26.087666 10.311785 32.143966 -1.029181 1.244222 0.046695 -0.008515 -351916.000000 0 0 1
15.721373 -25.751306 8.926385 31.463815 -1.022686 1.283143 0.047397 -0.013325 -45553.300000 0 0 1
14.626973 -26.413396 8.342185 31.324238 -1.065063 1.301226 0.052456 -0.009886 -59422.100000 0 0 1
14.338673 -25.842806 6.942885 30.358719 -1.064243 1.340059 0.056587 -0.013955 360155.000000 0 0 1
13.378173 -24.770786 7.000585 29.009921 -1.075602 1.327074 0.062723 -0.021559 210755.000000 0 0 1
13.179073 -24.219486 5.722485 28.160581 -1.072454 1.366162 0.066384 -0.010921 -18742.600000 0 0 1
12.576173 -22.818086 5.948285 26.724657 -1.067071 1.346340 0.070958 -0.015438 -68892.200000 0 0 1
12.105773 -22.284686 4.730985 25.798046 -1.073163 1.386367 0.079320 -0.014614 -177924.000000 0 0 1
11.475873 -21.022286 4.968585 24.460560 -1.071113 1.366247 0.091303 -0.015730 167997.000000 0 1 0
10.640973 -20.647786 3.720685 23.524559 -1.094939 1.411968 0.081558 -0.012873 272860.000000 0 1 0
11.459873 -20.196486 2.629485 23.369658 -1.054678 1.458041 0.067722 -0.011716 -96843.800000 0 1 0
10.668973 -19.693186 1.588085 22.453743 -1.074302 1.500010 0.057900 0.007128 -139028.000000 0 1 0
11.424673 -19.102786 0.406585 22.262185 -1.031802 1.552532 0.043612 0.003756 -252905.000000 0 1 0
12.189073 -17.994686 0.740385 21.746963 -0.975420 1.536744 0.044888 0.001549 -578908.000000 0 1 0
13.052973 -17.735286 -0.333115 22.023429 -0.936323 1.585922 0.067428 -0.001596 -160478.000000 0 1 0
14.184173 -16.728086 -0.058715 21.932238 -0.867508 1.573473 0.067073 -0.000024 -150855.000000 0 1 0
15.214973 -17.197886 0.750185 22.974452 -0.846499 1.538138 0.067760 -0.015560 -667893.000000 0 1 0
16.405773 -16.480786 0.633085 23.262985 -0.787679 1.543579 0.063163 -0.022269 166744.000000 0 1 0
17.589773 -17.184586 1.385685 24.629865 -0.773747 1.514506 0.052217 -0.012620 356243.000000 0 1 0
18.039973 -18.385286 0.746785 25.768528 -0.794878 1.541812 0.038023 -0.007026 -416098.000000 0 0 1
19.149673 -18.985286 1.314285 26.997748 -0.781088 1.522096 0.037696 -0.002255 -285692.000000 0 0 1
19.428273 -20.424486 0.712685 28.197967 -0.810390 1.545519 0.019300 0.005063 -233530.000000 0 0 1
18.572673 -21.408186 1.167185 28.365770 -0.856201 1.529637 0.021345 0.003743 -386934.000000 0 0 1
18.728173 -22.530986 0.408285 29.301135 -0.877307 1.556862 0.025591 0.003550 591627.000000 0 0 1
17.709173 -23.711486 0.801585 29.605606 -0.929308 1.543718 0.035204 0.005106 889947.000000 0 0 1
18.071073 -24.210086 2.090985 30.283067 -0.929586 1.501693 0.026590 0.004225 578258.000000 0 0 1
17.084673 -25.221346 2.359985 30.554408 -0.975407 1.493481 0.035982 0.006948 -38564.400000 0 0 1
17.059373 -25.992726 3.751885 31.316460 -0.989996 1.450702 0.037061 -0.004784 101892.000000 0 0 1
18.046973 -26.970396 3.993585 32.696242 -0.981083 1.448349 0.024561 0.003008 -535482.000000 0 0 1
19.335673 -26.428916 4.105785 33.003232 -0.939169 1.446068 0.036183 0.005073 -718913.000000 0 0 1
20.459573 -27.483926 4.275285 34.528805 -0.930876 1.446660 0.060430 0.001554 65581.900000 0 0 1
20.679373 -28.173336 3.083085 35.083882 -0.937611 1.482805 0.040190 0.007070 -218922.000000 0 0 1
21.475773 -29.341446 3.056585 36.489341 -0.938963 1.486932 0.050382 0.004964 -186699.000000 0 0 1
20.768473 -30.597906 3.476085 37.143566 -0.974472 1.477074 0.059097 -0.000077 -174507.000000 0 0 1
20.703973 -30.840896 4.879285 37.464954 -0.979582 1.440189 0.088911 -0.000566 -150455.000000 0 0 1
19.773473 -31.880606 5.127485 37.863629 -1.015631 1.434959 0.076088 -0.016895 -18096.300000 0 0 1
19.746173 -32.384806 6.579785 38.496501 -1.023249 1.399034 0.091261 -0.027222 102728.000000 0 0 1
20.936173 -33.011446 7.020685 39.716104 -1.005602 1.393091 0.084736 -0.042199 107298.000000 0 0 1
20.697773 -33.608316 8.273785 40.328306 -1.018802 1.364168 0.075973 -0.034884 109528.000000 0 0 1
21.938073 33.947867 8.888685 41.385329 0.997077 1.354331 0.086782 -0.040638 -681323.000000 0 0 1
22.951273 -33.454236 9.291885 41.620740 -0.969494 1.345648 0.085591 -0.039215 -859425.000000 0 0 1
24.027473 33.980250 9.730585 42.739456 0.955320 1.341110 0.104742 -0.041052 -228115.000000 0 0 1
25.054873 -33.445136 10.567785 43.104546 -0.927850 1.323105 0.092864 -0.033032 -276433.000000 0 0 1
25.794273 -32.556076 9.749685 42.664962 -0.900766 1.340242 0.068065 -0.027934 21356.800000 0 0 1
26.671273 -31.714966 10.461885 42.739290 -0.871569 1.323500 0.052158 -0.020762 -172105.000000 0 0 1
27.178573 -30.639906 9.520685 42.049044 -0.845192 1.342397 0.049523 -0.024141 -643379.000000 0 0 1
26.278073 -29.638336 9.176485 40.659267 -0.845420 1.343143 0.040205 -0.024771 -313620.000000 0 0 1
26.704273 -28.821806 8.103485 40.118340 -0.823516 1.367407 0.044107 -0.019588 -108041.000000 0 0 1
26.120973 -27.414296 8.238185 38.751988 -0.809552 1.356574 0.034551 -0.019191 -61247.600000 0 0 1
26.687673 -26.844146 9.399685 39.002489 -0.788321 1.327398 0.037776 -0.027032 -44313.200000 0 0 1
26.341273 -25.513616 9.506785 37.883852 -0.769438 1.317139 0.035835 -0.028090 -623608.000000 0 0 1
27.125973 -24.711886 10.518985 38.172566 -0.738862 1.291620 0.048949 -0.036726 237485.000000 0 0 1
28.481373 -24.596286 10.107185 38.965640 -0.712332 1.308409 0.043633 -0.030438 -22083.800000 0 0 1
29.340973 -23.860986 10.960385 39.374730 -0.682757 1.288709 0.043818 -0.035288 1263250.000000 0 0 1
30.760373 -23.580586 10.328085 40.111269 -0.654034 1.310377 0.055617 -0.033240 1144560.000000 0 0 1
30.635173 -22.807986 9.140185 39.271631 -0.639974 1.335899 0.048620 -0.026113 197312.000000 0 0 1
31.928873 -22.648786 8.557885 40.070661 -0.616974 1.355569 0.050551 -0.027683 468644.000000 0 0 1
31.987473 -21.928786 7.199085 39.444859 -0.600957 1.387258 0.053017 -0.010637 224995.000000 0 0 1
31.443773 -20.564886 7.329485 38.279848 -0.579197 1.378136 0.043716 0.000823 329581.000000 0 0 1
31.742973 -19.819486 6.184185 37.929837 -0.558149 1.407022 0.039373 0.004538 -46186.600000 0 0 1
31.220673 -18.386586 6.433185 36.799223 -0.532235 1.395075 0.051493 0.000774 27463.300000 0 0 1
31.832873 -17.644686 7.456985 37.152031 -0.506132 1.368708 0.064241 -0.002739 -107626.000000 0 0 1
31.575973 -16.269986 7.243085 36.252128 -0.475785 1.369645 0.069870 -0.003751 100145.000000 0 0 1
32.208373 -15.543786 8.431285 36.743369 -0.449632 1.339269 0.069222 -0.028944 -624620.000000 0 0 1
33.591173 -15.419986 8.408385 37.905723 -0.430353 1.347112 0.082370 -0.026609 -865793.000000 0 0 1
34.050973 -14.745786 9.583785 38.324351 -0.408670 1.318043 0.077021 -0.035324 533041.000000 0 0 1
35.603073 -14.785386 9.674385 39.746449 -0.393612 1.324924 0.073386 -0.039920 257387.000000 0 0 1
36.284573 -13.839486 8.912685 39.843915 -0.364383 1.345198 0.081601 -0.032850 -1020390.000000 0 0 1
-35.582139 -14.182386 8.881485 39.320599 0.379283 1.342957 0.079695 -0.034812 -504639.000000 0 0 1
-34.605939 -13.189486 8.242285 37.940332 0.364137 1.351807 0.089314 -0.038156 -91528.300000 0 0 1
-34.924339 -13.033986 6.855685 37.902436 0.357197 1.388918 0.106473 -0.042548 1004290.000000 0 0 1
-33.832739 -12.426786 6.098085 36.554971 0.352004 1.403193 0.095091 -0.034518 1239190.000000 0 0 1
-32.808939 -13.465386 5.556685 35.897352 0.389455 1.415378 0.071150 -0.024472 144204.000000 0 0 1
-32.005339 -14.101686 6.526785 35.578058 0.415013 1.386302 0.084618 -0.022673 54360.200000 0 0 1
-31.002239 -14.912486 5.955185 34.913970 0.448343 1.399391 0.078643 -0.009914 33603.000000 0 0 1
-30.355939 -15.790186 7.076585 34.941252 0.479651 1.366858 0.062563 -0.020363 1100.530000 0 0 1
-31.222139 -16.808686 7.558785 36.255884 0.493861 1.360771 0.086793 -0.025782 39749.700000 0 0 1
-30.916339 -16.990486 8.932085 36.390641 0.502508 1.322812 0.059577 -0.023221 72227.400000 0 0 1
-32.045239 -17.704786 9.701785 37.874549 0.504756 1.311753 0.030219 -0.020675 -379220.000000 0 0 1
-33.167339 -16.834586 9.881185 38.485237 0.469681 1.311136 0.050703 -0.023830 -3145.990000 0 0 1
-34.098239 -17.295686 10.793685 39.728256 0.469416 1.295650 0.059123 -0.026891 -181804.000000 0 0 1
-35.084439 -18.428686 10.449785 40.984538 0.483656 1.312981 0.064832 -0.028697 -624709.000000 0 0 1
-34.475539 -19.708286 10.292085 41.023242 0.519321 1.317203 0.064435 -0.025569 -271522.000000 0 0 1
-34.004339 -20.315886 11.524685 41.253469 0.538542 1.287666 0.054882 -0.032258 -325316.000000 0 0 1
-35.037539 -20.836686 12.547785 42.652591 0.536510 1.272193 0.040064 -0.037094 -91999.400000 0 0 1
-35.428239 -22.212386 12.354585 43.602592 0.560014 1.283516 0.048617 -0.037568 -119257.000000 0 0 1
36.534073 -22.229986 11.690585 44.334868 -0.546626 1.303953 0.064984 -0.032619 -332154.000000 0 0 1
36.122873 -23.706786 11.457785 44.700721 -0.580779 1.311581 0.064558 -0.028096 -33773.400000 0 0 1
36.022573 -24.424386 12.676685 45.330726 -0.595828 1.287368 0.082558 -0.021320 50003.800000 0 0 1
35.436273 -25.693106 12.507085 45.522438 -0.627342 1.292471 0.057354 -0.014004 246539.000000 0 0 1
34.304373 -25.974116 13.564285 45.115790 -0.648072 1.265417 0.065625 -0.031551 488595.000000 0 0 1
33.317773 -24.934186 13.420185 43.725153 -0.642460 1.258840 0.064329 -0.031754 -192085.000000 0 0 1
32.598873 -24.895986 14.624685 43.547423 -0.652216 1.228306 0.063827 -0.017278 -503683.000000 0 0 1
32.562573 -23.490786 15.290185 42.964264 -0.624947 1.206939 0.073978 -0.024820 910620.000000 0 0 1
33.805373 -22.993686 15.830285 43.841884 -0.597299 1.201374 0.077636 -0.029062 945490.000000 0 0 1
34.729873 -22.366586 14.935485 43.926040 -0.572157 1.223864 0.068860 -0.031189 24837.100000 0 0 1
36.003773 -21.844386 15.593285 44.906563 -0.545350 1.216172 0.062675 -0.032242 -427208.000000 0 0 1
35.928573 -20.586786 16.250085 44.483069 -0.520324 1.196831 0.058803 -0.019839 205762.000000 0 0 1
34.949673 -20.486986 17.288185 44.046312 -0.530200 1.167448 0.058205 -0.020881 192890.000000 0 0 1
34.868473 -19.139486 17.982785 43.652158 -0.502002 1.146196 0.060701 -0.010468 -442681.000000 0 0 1
34.324873 -18.130486 17.112185 42.423323 -0.485954 1.155602 0.062748 -0.014447 179547.000000 0 0 1
34.172273 -16.799786 17.656485 41.972950 -0.456921 1.136620 0.062101 -0.008870 -454210.000000 0 0 1
35.460973 -16.010686 17.881385 42.820166 -0.424102 1.140002 0.034336 -0.016587 -569124.000000 0 0 1
36.010773 -16.289186 19.119185 43.905086 -0.424800 1.120240 0.035207 -0.004060 324816.000000 0 0 1
-35.925239 -15.664986 19.280085 43.677640 0.411188 1.113618 0.030731 -0.017381 474774.000000 0 0 1
-35.376639 -15.436986 20.716685 43.806257 0.411454 1.078199 0.026742 -0.006967 -98749.600000 0 0 1
-34.980339 -16.659486 21.379685 44.252158 0.444470 1.066567 0.025966 -0.004012 264173.000000 0 0 1
-34.400639 -16.453586 22.677885 44.366777 0.446132 1.034279 0.025118 -0.003286 90062.300000 0 0 1
-33.502439 -17.600586 23.188685 44.383659 0.483723 1.021063 0.026856 0.002273 -712377.000000 0 0 1
-34.089939 -18.875086 23.261085 45.381394 0.505668 1.032623 0.022225 -0.001035 -11247.000000 0 0 1
-33.233539 -19.936886 23.627385 45.389436 0.540348 1.023304 0.015607 0.006382 351747.000000 0 0 1
-32.080239 -20.374186 22.637785 44.234811 0.565830 1.033560 0.014692 0.015031 615890.000000 0 0 1
-30.908439 -19.608486 22.795285 43.121333 0.565334 1.013809 0.018419 0.021209 -227503.000000 0 0 1
-29.744139 -20.348786 22.513285 42.492763 0.599994 1.012414 0.019682 0.014618 354850.000000 0 0 1
-28.476339 -19.446486 22.358385 41.097020 0.599157 0.995553 0.035356 0.008245 267493.000000 0 0 1
-27.978539 -19.013786 23.593085 41.242652 0.596893 0.961787 0.029317 0.007605 482638.000000 0 0 1
-26.857139 -18.137986 23.543785 40.057487 0.593991 0.942521 0.045742 -0.006767 258244.000000 0 0 1
-26.246539 -17.644686 24.901285 40.252823 0.591870 0.903809 0.035194 -0.017667 -764942.000000 0 0 1
-25.284739 -16.623086 24.812585 39.131948 0.581585 0.883985 0.045588 -0.020974 83376.800000 0 0 1
-24.967939 -16.259186 26.175785 39.660192 0.577220 0.849976 0.042792 -0.030744 364145.000000 0 0 1
-23.934539 -17.104186 27.001885 39.931405 0.620473 0.828195 0.029422 -0.023032 -412250.000000 0 0 1
-24.477039 -18.339286 27.444185 41.093043 0.643017 0.839474 0.035611 -0.016530 -33886.100000 0 0 1
-23.521339 -18.997786 28.221585 41.359728 0.679408 0.819831 0.025441 -0.013284 -585994.000000 0 0 1
-24.102839 -20.252686 28.887185 42.726895 0.698813 0.828355 0.014564 -0.001339 -878498.000000 0 0 1
-25.053939 -20.035686 29.857285 43.824491 0.674559 0.821270 0.020663 -0.010770 -340044.000000 0 0 1
-25.371539 -21.268586 30.425885 44.964455 0.697654 0.827572 0.016735 -0.005238 -354618.000000 0 0 1
-26.510139 -21.360586 31.485185 46.372179 0.678238 0.824441 0.036949 -0.010963 -304438.000000 0 0 1
-26.337739 -20.698986 32.737485 46.838739 0.666088 0.796882 0.050062 -0.013093 37640.400000 0 0 1
-27.472739 -20.595786 33.555585 48.009531 0.643297 0.796888 0.051499 -0.017788 1138420.000000 0 0 1
-28.642839 -19.511086 33.229285 48.013332 0.597987 0.806423 0.039050 -0.021026 1053480.000000 0 0 1
-29.461939 -19.968286 32.173785 47.978024 0.595647 0.835787 0.050870 -0.022289 421829.000000 0 0 1
-30.823839 -19.657986 32.441385 48.877284 0.567717 0.845000 0.061946 -0.030181 106631.000000 0 0 1
-31.855439 -20.200386 31.433985 49.101120 0.565135 0.876052 0.056376 -0.003590 -551097.000000 0 0 1
-32.055639 -19.419786 30.234385 48.154025 0.544684 0.891985 0.048938 -0.023384 378131.000000 0 0 1
-33.062439 -20.038486 29.465885 48.609713 0.544878 0.919557 0.047069 -0.023256 207567.000000 0 0 1
-33.596839 -19.143886 28.244785 47.885320 0.517927 0.939933 0.037631 -0.016824 653583.000000 0 0 1
-34.781939 -19.553686 27.559485 48.493867 0.512146 0.966347 0.027994 -0.014938 625981.000000 0 0 1
-35.303039 -18.478886 26.771585 48.005120 0.482220 0.979206 0.035068 -0.014577 -179016.000000 0 0 1
-36.407839 -18.970586 25.811185 48.493620 0.480352 1.009529 0.024735 -0.010653 -283037.000000 0 0 1
35.627173 -19.248486 26.548785 48.421459 -0.495346 0.990484 0.035783 -0.013753 160092.000000 0 0 1
34.635173 -19.723886 25.603885 47.372838 -0.517673 0.999794 0.076328 -0.013570 -158340.000000 0 0 1
33.452573 -20.287286 26.369285 47.180375 -0.545148 0.977733 0.077102 -0.023180 -567320.000000 0 0 1
32.700073 -19.267586 26.997785 46.576980 -0.532456 0.952512 0.070221 -0.031475 180467.000000 0 0 1
31.501273 -19.744986 27.562685 46.280625 -0.559892 0.932839 0.064281 -0.021528 -20699.500000 0 0 1
-29.853477 -6.010186 33.550691 45.310057 0.198667 0.737028 0.038412 -0.010130 130244.000000 0 0 1
-30.852447 -5.705486 32.584270 45.234508 0.182862 0.766503 0.053753 -0.012669 607472.000000 0 0 1
-30.404687 -4.667686 31.713966 44.181533 0.152329 0.770144 0.053839 -0.010952 -254151.000000 0 0 1
-31.162937 -4.697386 30.401026 43.788314 0.149610 0.803388 0.059011 -0.020210 -422858.000000 0 0 1
-30.859767 -5.787586 29.548036 43.115053 0.185391 0.815740 0.053295 -0.022687 868652.000000 0 0 1
-29.584687 -5.601486 28.882956 41.723560 0.187122 0.806200 0.046326 -0.016286 869650.000000 0 0 1
-29.441447 -6.495286 27.698586 40.941411 0.217139 0.827740 0.046430 -0.023237 93816.400000 0 0 1
-30.216337 -6.143586 26.561746 40.697629 0.200586 0.859705 0.053207 -0.028436 -231013.000000 0 0 1
-29.965997 -6.955586 25.483336 39.946734 0.228077 0.878985 0.067507 -0.023631 -8844.640000 0 0 1
-30.551627 -6.425186 24.133176 39.460044 0.207285 0.912734 0.087414 -0.015448 -50746.400000 0 0 1
-29.893087 -5.333886 23.608426 38.463031 0.176574 0.909937 0.098457 -0.020903 -375002.000000 0 0 1
-30.590007 -4.865386 22.508586 38.289123 0.157730 0.942387 0.107042 -0.021975 -110749.000000 0 0 1
-29.895087 -3.694286 21.823186 37.196981 0.122952 0.943828 0.109807 -0.022782 329740.000000 0 0 1
-28.729147 -4.001886 21.071686 35.852404 0.138406 0.942541 0.130992 -0.024090 -9018.770000 0 0 1
-28.032967 -2.851186 20.736986 34.985698 0.101360 0.936355 0.135421 -0.018762 1108040.000000 0 0 1
-26.574127 -3.051986 20.135686 33.480512 0.114347 0.925525 0.142789 -0.011901 1182730.000000 0 0 1
-26.653037 -3.557086 18.851386 32.839183 0.132675 0.959351 0.157705 -0.024365 864572.000000 0 0 1
-25.311887 -3.640986 18.331386 31.464076 0.142865 0.948856 0.135197 -0.017330 909335.000000 0 0 1
-25.277347 -4.240886 16.916986 30.710158 0.166226 0.987402 0.125087 -0.016894 -51748.800000 0 0 1
-25.961227 -3.416586 16.004786 30.688948 0.130851 1.022169 0.157640 -0.019863 180207.000000 0 0 1
-25.880437 -3.961686 14.731786 30.041929 0.151897 1.058277 0.138818 -0.024577 324692.000000 0 0 1
-27.308847 -4.042886 14.106986 31.002017 0.146976 1.098385 0.165555 -0.031086 655318.000000 0 0 1
-27.792557 -2.764886 13.658386 31.090550 0.099157 1.115966 0.177849 -0.039484 305449.000000 0 0 1
-29.161937 -2.839486 13.294286 32.174824 0.097064 1.144843 0.188104 -0.042969 198845.000000 0 0 1
-29.475247 -1.658686 12.400386 32.020478 0.056215 1.173134 0.180021 -0.030677 -152531.000000 0 0 1
-28.678647 -1.542086 11.205886 30.828796 0.053719 1.198787 0.167776 -0.029060 237627.000000 0 0 1
-28.863287 -0.459786 10.338686 30.662504 0.015928 1.226880 0.154108 -0.021099 -245123.000000 0 0 1
-30.247377 -0.282286 9.660686 31.753934 0.009332 1.261660 0.158946 -0.015987 206446.000000 0 0 1
-30.485397 -1.020586 8.515386 31.668799 0.033465 1.298557 0.153550 -0.027399 -656828.000000 0 0 1
-31.816527 -1.106986 8.133686 32.858388 0.034779 1.320658 0.136715 -0.029694 -717768.000000 0 0 1
-31.855337 -2.005986 6.855886 32.646434 0.062889 1.359217 0.142762 -0.035998 -11871.500000 0 0 1
-31.234537 -1.555586 5.646186 31.778854 0.049762 1.392177 0.143530 -0.038920 477217.000000 0 0 1
-31.830407 -0.401686 5.064786 32.233340 0.012619 1.413014 0.138479 -0.031703 -97084.500000 0 0 1
-31.221757 -0.022386 3.722586 31.442905 0.000717 1.452126 0.132349 -0.032575 -271785.000000 0 0 1
-31.564107 -0.986986 2.724586 31.696851 0.031259 1.484733 0.125522 -0.046520 420069.000000 0 0 1
-31.163067 -0.569686 1.417086 31.200471 0.018279 1.525362 0.131521 -0.050187 -202464.000000 0 0 1
-32.047057 -1.194086 0.305286 32.070748 0.037243 1.561277 0.130421 -0.049049 -475735.000000 0 0 1
-33.321697 -0.619986 0.331686 33.329115 0.018604 1.560844 0.126246 -0.044188 -219686.000000 0 0 1
-34.036577 -1.052686 -0.831214 34.062995 0.030918 1.595201 0.111911 -0.038630 -66621.500000 0 0 1
-35.562531 -0.868886 -0.823714 35.582679 0.024428 1.593948 0.093479 -0.030383 -315577.000000 0 0 1
-36.245667 -1.739186 0.024586 36.287377 0.047947 1.570119 0.090513 -0.032620 893795.000000 0 0 1
35.545205 -1.505086 0.120486 35.577260 -0.042318 1.567410 0.082015 -0.026756 698174.000000 0 0 1
34.746905 -2.692986 0.575086 34.855851 -0.077348 1.554297 0.084496 -0.031908 -653230.000000 0 0 1
34.900535 -2.947086 1.975286 35.080400 -0.084243 1.514459 0.091288 -0.038078 79056.800000 0 0 1
34.291035 -4.120686 2.424486 34.622728 -0.119595 1.500713 0.085326 -0.029496 -304143.000000 0 0 1
34.301095 -4.365786 3.927286 34.800126 -0.126598 1.457703 0.088211 -0.024819 8058.290000 0 0 1
33.636565 -3.319986 4.637086 34.116615 -0.098383 1.434456 0.092028 -0.033062 271981.000000 0 0 1
33.674185 -3.481186 6.043086 34.388782 -0.103013 1.394151 0.078859 -0.032702 -124426.000000 0 0 1
32.911775 -2.355386 6.781486 33.685625 -0.071445 1.368094 0.096684 -0.028477 -604817.000000 0 0 1
31.525075 -2.398286 6.736886 32.325961 -0.075929 1.360853 0.093652 -0.024514 -696027.000000 0 0 1
31.001915 -1.197586 7.312186 31.875085 -0.038610 1.339334 0.108543 -0.022784 445550.000000 0 0 1
29.474805 -1.340086 7.613186 30.471636 -0.045434 1.318276 0.105823 -0.016714 414965.000000 0 0 1
28.707015 -1.308786 6.403486 29.441642 -0.045560 1.351546 0.119826 -0.020027 1754910.000000 0 0 1
27.291085 -1.553486 6.676486 28.138801 -0.056861 1.331242 0.112719 -0.010049 1672460.000000 0 0 1
26.745485 -3.034486 6.624586 27.720285 -0.112975 1.329481 0.134871 -0.020228 -511952.000000 0 0 1
27.220185 -3.878686 7.598586 28.525799 -0.141540 1.301165 0.107666 -0.012291 -20398.000000 0 0 1
26.709385 -5.154086 7.632886 28.252731 -0.190626 1.297232 0.122340 -0.024731 -413770.000000 0 0 1
27.003285 -5.943586 8.954786 29.063582 -0.216651 1.257590 0.097403 -0.024436 -608952.000000 0 0 1
26.120385 -5.554386 9.968086 28.504183 -0.209525 1.213539 0.093501 -0.018012 249803.000000 0 0 1
26.399085 -6.201186 11.187086 29.334575 -0.230719 1.179527 0.075891 -0.018160 -137193.000000 0 0 1
25.264885 -6.180886 12.232186 28.742723 -0.239931 1.131199 0.061464 -0.015607 -150277.000000 0 0 1
24.158085 -6.960486 11.936186 27.830450 -0.280525 1.127533 0.080706 -0.023611 90080.800000 0 0 1
23.008585 -6.762686 12.760886 27.165587 -0.285870 1.081795 0.072451 -0.027251 266520.000000 0 0 1
22.002285 -7.874186 12.815486 26.652205 -0.343678 1.069182 0.082781 -0.027828 -450103.000000 0 0 1
22.540785 -9.034286 13.422086 27.746310 -0.381194 1.065870 0.069271 -0.024209 -48725.900000 0 0 1
21.614885 -10.095886 13.469386 27.396250 -0.436967 1.056812 0.107107 -0.039622 -377708.000000 0 0 1
22.040785 -11.291886 14.319986 28.607078 -0.473453 1.046534 0.083108 -0.030937 -307580.000000 0 0 1
21.935585 -11.066486 15.719186 29.167273 -0.467241 1.001627 0.066958 -0.021909 249885.000000 0 0 1
22.309285 -12.150586 16.554886 30.321695 -0.498721 0.993244 0.064070 -0.017033 -187196.000000 0 0 1
22.186485 -11.816486 18.036086 30.938162 -0.489385 0.948414 0.066749 -0.008704 1023960.000000 0 0 1
20.835585 -11.561286 18.492686 30.162300 -0.506583 0.910810 0.058896 -0.006196 878006.000000 0 0 1
20.610485 -11.718686 19.894486 30.950125 -0.516995 0.872659 0.068269 0.000024 328978.000000 0 0 1
21.205085 -10.698486 20.937486 31.662147 -0.467261 0.848275 0.054261 0.003780 545617.000000 0 0 1
20.360685 -9.506086 21.036786 30.780993 -0.436806 0.818340 0.052766 0.004858 530648.000000 0 0 1
20.661685 -8.513786 20.082686 30.045034 -0.390857 0.838715 0.060174 -0.000032 -545782.000000 0 0 1
21.815085 -7.552986 20.569686 30.920180 -0.333310 0.842966 0.065593 0.006618 2026180.000000 0 0 1
23.143685 -8.132486 20.762086 32.137699 -0.337914 0.868418 0.062379 0.005898 1350560.000000 0 0 1
23.713385 -8.412186 19.491986 31.828085 -0.340895 0.911685 0.062783 0.000174 -409633.000000 0 0 1
25.077385 -9.192486 19.582186 33.118560 -0.351355 0.938157 0.069909 -0.002196 625042.000000 0 0 1
24.952985 -10.503386 19.955386 33.633168 -0.398416 0.935614 0.061417 -0.006254 -218382.000000 0 0 1
26.121185 -11.236386 19.701986 34.593943 -0.406236 0.964873 0.059200 -0.007609 -125342.000000 0 0 1
25.968985 -12.767286 20.008486 35.181405 -0.456934 0.965843 0.050811 -0.009146 -433756.000000 0 0 1
25.101285 -13.423386 19.174086 34.320655 -0.491074 0.978009 0.069238 -0.007983 -400959.000000 0 0 1
24.912785 -14.761186 19.532586 34.929377 -0.534897 0.977373 0.060263 -0.008306 271727.000000 0 0 1
23.789085 -15.391486 18.630986 33.910648 -0.574262 0.989134 0.063271 -0.014744 -7323.860000 0 0 1
24.103685 -15.370786 17.252986 33.390331 -0.567676 1.027797 0.071826 -0.017027 649289.000000 0 0 1
23.078185 -15.927086 16.406486 32.487651 -0.604075 1.041406 0.052810 -0.025870 396645.000000 0 0 1
22.833985 -17.463686 16.568886 33.179801 -0.652913 1.047929 0.039894 -0.022320 -1142260.000000 0 0 1
23.865785 -18.216686 16.101686 34.068866 -0.651957 1.078533 0.071748 -0.018173 -778633.000000 0 0 1
23.912785 -19.481986 16.643886 35.048367 -0.683646 1.075965 0.046848 -0.010797 505261.000000 0 0 1
25.153485 -20.359486 16.208486 36.192838 -0.680453 1.106452 0.050771 -0.004674 524122.000000 0 0 1
25.224585 -20.704986 14.821086 35.841885 -0.687311 1.144487 0.046818 -0.019497 -60672.400000 0 0 1
26.198585 -21.688586 14.579886 37.004509 -0.691495 1.165814 0.049953 -0.027210 -319431.000000 0 0 1
26.878785 -21.586186 13.226186 36.923766 -0.676625 1.204454 0.052242 -0.045604 -93065.200000 0 0 1
25.961485 -21.642386 12.133386 35.911149 -0.694916 1.226141 0.037198 -0.031679 -21852.400000 0 0 1
26.535785 -21.230186 10.947386 35.703136 -0.674777 1.259154 0.034464 -0.028690 -200610.000000 0 0 1
25.559085 -20.991786 9.706386 34.469346 -0.687597 1.285341 0.022439 -0.025529 545172.000000 0 0 1
24.795385 -22.087886 9.256886 34.472827 -0.727712 1.298933 0.015635 -0.022422 687141.000000 0 0 1
23.574585 -22.331286 9.995086 33.975714 -0.758321 1.272195 0.008536 -0.009876 482809.000000 0 0 1
22.650385 -23.303986 9.209086 33.777551 -0.799620 1.294661 0.007764 -0.014943 -367228.000000 0 0 1
23.095485 -24.638286 9.071686 34.967729 -0.817708 1.308364 0.003461 -0.012838 -222862.000000 0 0 1
22.611085 -25.395676 7.966786 34.923791 -0.843337 1.340651 0.019292 -0.002629 -189197.000000 0 0 1
21.141685 -25.872426 7.959686 34.346905 -0.885684 1.336926 0.035728 0.004545 160837.000000 0 0 1
20.266985 -24.840686 7.593186 32.946424 -0.886448 1.338235 0.028416 0.000922 148061.000000 0 0 1
18.892785 -25.264276 7.527786 32.432831 -0.928701 1.336556 0.043717 -0.015403 1074680.000000 0 0 1
17.896085 -24.088086 7.410386 30.909862 -0.931827 1.328696 0.039091 -0.012998 -104872.000000 0 0 1
17.416385 -23.695786 6.131786 30.040299 -0.936965 1.365233 0.040854 -0.018561 209462.000000 0 0 1
16.871485 -22.392386 6.182286 28.710392 -0.925093 1.353764 0.056232 -0.008106 38429.600000 0 0 1
16.329485 -21.843986 4.850486 27.700885 -0.928865 1.394787 0.051552 -0.006767 94657.700000 0 0 1
15.633585 -20.624386 4.971986 26.353272 -0.922186 1.380992 0.067965 -0.010851 -228137.000000 0 0 1
15.184985 -20.101486 3.751686 25.470152 -0.923838 1.422961 0.063515 -0.009832 371525.000000 0 0 1
14.324385 -18.821286 3.925786 23.975834 -0.920246 1.406316 0.068391 -0.009828 -59335.700000 0 1 0
15.158585 -17.738986 4.171986 23.703582 -0.863675 1.393868 0.054612 -0.013192 233290.000000 0 1 0
14.465885 -16.491386 4.144886 22.325047 -0.850734 1.384052 0.031027 -0.016098 412859.000000 0 1 0
15.544885 -15.405086 4.368586 22.316914 -0.780881 1.373772 0.032537 -0.014155 -175590.000000 0 1 0
16.117185 -15.431786 5.677186 23.024641 -0.763677 1.321657 0.058313 -0.020268 1085330.000000 0 1 0
17.198385 -14.479086 5.911086 23.245845 -0.699765 1.313687 0.078185 -0.022590 902174.000000 0 1 0
18.588285 -14.853386 5.348586 24.387595 -0.674175 1.349683 0.089140 -0.030597 -797566.000000 0 1 0
19.430685 -13.724886 5.524986 24.422315 -0.614976 1.342594 0.097262 -0.034571 -420624.000000 0 1 0
20.711885 -14.278286 5.358886 25.720989 -0.603560 1.360912 0.098696 -0.029861 -159428.000000 0 0 1
21.915985 -13.284386 5.291586 26.168420 -0.544930 1.367180 0.097561 -0.031918 442374.000000 0 0 1
21.965885 -12.526886 6.458986 26.098687 -0.518286 1.320715 0.113198 -0.039363 357509.000000 0 0 1
23.153785 -11.751986 6.468286 26.759030 -0.469679 1.326655 0.118142 -0.040068 232336.000000 0 0 1
23.250685 -10.958086 7.773086 26.853210 -0.440426 1.277128 0.123490 -0.038379 -167889.000000 0 0 1
23.648885 -11.752886 8.803786 27.837147 -0.461224 1.249011 0.121962 -0.034173 146776.000000 0 0 1
23.588985 -11.053886 10.012186 27.908287 -0.438217 1.203865 0.138737 -0.043422 -118370.000000 0 0 1
23.966685 -11.915386 11.228286 29.025038 -0.461377 1.173585 0.106779 -0.033564 61218.300000 0 0 1
23.021785 -12.950086 11.604186 28.850727 -0.512400 1.156862 0.115794 -0.034258 705248.000000 0 0 1
23.581785 -14.140086 12.206586 30.083939 -0.540139 1.152996 0.111166 -0.036002 -538799.000000 0 0 1
22.567085 -15.203486 12.570086 29.973761 -0.592857 1.138045 0.095324 -0.037807 -86384.800000 0 0 1
21.545485 -14.708286 13.443686 29.347475 -0.598995 1.094955 0.072813 -0.029037 19960.700000 0 0 1
20.440085 -15.601186 13.395486 28.993674 -0.651936 1.090531 0.054336 -0.021421 -140724.000000 0 0 1
19.210585 -14.913086 14.007186 28.065067 -0.660119 1.048240 0.051772 -0.027551 -924292.000000 0 0 1
19.331285 -14.640386 15.394186 28.723169 -0.648183 1.005164 0.056927 -0.026080 2997.440000 0 0 1
18.770085 -13.440086 15.867386 28.012960 -0.621409 0.968629 0.067989 -0.028869 1841570.000000 0 0 1
17.180285 -13.194186 15.812886 26.819696 -0.654912 0.940233 0.079200 -0.033260 1808730.000000 0 0 1
16.609085 -13.055986 14.487086 25.616325 -0.666192 0.969707 0.081887 -0.047218 1344590.000000 0 0 1
15.192385 -12.742886 14.575186 24.609465 -0.697937 0.936936 0.100313 -0.043833 1174680.000000 0 1 0
14.775785 -11.343786 14.221686 23.436332 -0.654751 0.918740 0.093132 -0.045462 -326370.000000 0 1 0
15.182585 -10.295886 15.072686 23.742410 -0.595902 0.882992 0.084340 -0.036150 3527.600000 0 1 0
14.999085 -9.036986 14.561086 22.774215 -0.542258 0.877121 0.085641 -0.030422 -834555.000000 0 1 0
15.572185 -7.929086 15.466686 23.336275 -0.470967 0.846279 0.098543 -0.029310 1167590.000000 0 1 0
17.013085 -7.941186 15.532886 24.367561 -0.436711 0.879624 0.095474 -0.033142 1246890.000000 0 1 0
17.670285 -8.893386 16.406286 25.700146 -0.466281 0.878413 0.097368 -0.030257 -115279.000000 0 0 1
19.195485 -8.689986 16.242786 26.604710 -0.425105 0.914076 0.073478 -0.022586 -32861.300000 0 0 1
19.746085 -7.495286 16.762586 26.964263 -0.362783 0.899937 0.068411 -0.018828 -68356.300000 0 0 1
21.044985 -7.358986 16.247286 27.586598 -0.336389 0.941030 0.053491 -0.017240 -532194.000000 0 0 1
21.659885 -6.017686 16.484386 27.876480 -0.270992 0.938081 0.048266 -0.009115 -439026.000000 0 0 1
22.119785 -5.778186 17.761986 28.951001 -0.255513 0.910287 0.057713 -0.006661 105025.000000 0 0 1
22.719885 -4.528086 17.967786 29.317880 -0.196723 0.911120 0.066605 -0.012285 8399.450000 0 0 1
-5.491927 -32.874779 -6.799615 34.016865 1.405269 1.772041 0.049514 -0.022052 -231109.000000 0 0 1
-6.114627 -31.621679 -6.796515 32.916741 1.379786 1.778768 0.048036 -0.024534 24053.300000 0 0 1
-5.778827 -30.821279 -5.657915 31.864684 1.385453 1.749304 0.056700 -0.025324 -466268.000000 0 0 1
-6.593927 -29.523379 -5.615815 30.767631 1.351057 1.754349 0.059061 -0.024822 384578.000000 0 0 1
-7.962827 -29.568879 -5.288815 31.075662 1.307739 1.741820 0.052588 -0.027750 207363.000000 0 0 1
-8.893427 -29.997879 -6.272315 31.910934 1.282583 1.768641 0.049175 -0.025150 419708.000000 0 0 1
-10.364627 -29.924579 -5.742915 32.185198 1.237369 1.750190 0.050747 -0.021106 763026.000000 0 0 1
-11.321027 -30.284279 -6.719315 33.021998 1.213056 1.775707 0.041349 -0.021218 -112996.000000 0 0 1
-12.670827 -30.115879 -6.332515 33.280877 1.172543 1.762238 0.050821 -0.018660 431849.000000 0 0 1
-13.672027 -30.748179 -7.323115 34.438392 1.152404 1.785076 0.046788 -0.023935 -32658.000000 0 0 1
-13.701727 -29.992079 -8.541615 34.062021 1.142265 1.824268 0.059775 -0.034682 -251809.000000 0 0 1
-14.712727 -30.406879 -9.412915 35.066302 1.120142 1.842561 0.053360 -0.030209 -218489.000000 0 0 1
-14.968427 -29.340879 -10.534015 34.581880 1.099057 1.880326 0.072432 -0.029962 -228978.000000 0 0 1
-15.472427 -28.068979 -10.119715 33.610596 1.067010 1.876629 0.076858 -0.032403 629450.000000 0 0 1
-14.453327 -27.244179 -9.562115 32.288976 1.083039 1.871447 0.069593 -0.026958 141817.000000 0 0 1
-14.942627 -25.783079 -9.388815 31.244185 1.045548 1.876011 0.070152 -0.021831 -33062.300000 0 0 1
-15.033027 -25.100879 -10.612115 31.123351 1.031183 1.918744 0.082551 -0.022293 151355.000000 0 0 1
-15.258627 -23.737579 -10.288315 30.035775 0.999496 1.920411 0.079919 -0.009193 -281958.000000 0 0 1
-15.951927 -22.893679 -11.385815 30.136710 0.962233 1.958221 0.073990 -0.009216 -998562.000000 0 0 1
-17.276327 -23.267679 -11.475815 31.169708 0.932110 1.947839 0.071729 -0.012724 -1153960.000000 0 0 1
-17.895127 -22.707379 -12.634615 31.551452 0.903369 1.982799 0.087674 -0.019187 1542050.000000 0 0 1
-19.412427 -23.218879 -12.733315 32.834372 0.874450 1.969045 0.069728 -0.013935 1267490.000000 0 0 1
-19.641527 -24.570779 -13.103115 34.076449 0.896430 1.965485 0.097696 -0.015725 -143080.000000 0 0 1
-19.188527 -25.539779 -12.186615 34.190546 0.926451 1.935243 0.091796 -0.019850 -806052.000000 0 0 1
-19.445027 -27.029179 -12.522615 35.573887 0.947163 1.930522 0.097730 -0.022486 332094.000000 0 0 1
-18.617327 -27.610679 -13.549615 35.952003 0.977541 1.957223 0.099617 -0.023013 1207710.000000 0 0 1
-17.203027 -27.628579 -13.303615 35.160612 1.013886 1.958828 0.095852 -0.025058 319308.000000 0 0 1
-16.461227 -28.855279 -13.778015 35.964327 1.052369 1.963949 0.088783 -0.024027 -359165.000000 0 0 1
-16.519227 -28.984579 -15.138115 36.635409 1.052779 1.996773 0.104565 -0.027424 -68184.900000 0 0 1
-15.964027 -30.212379 -15.615715 37.569782 1.084693 1.999449 0.112542 -0.036151 -31119.000000 0 0 1
-16.708227 -31.548379 -15.338615 38.855349 1.083745 1.976605 0.102856 -0.044384 -224303.000000 0 0 1
-16.456527 -32.025979 -14.031715 38.644141 1.096131 1.942390 0.102900 -0.037887 -87470.800000 0 0 1
-16.804827 -33.337179 -14.031915 39.883133 1.103885 1.930317 0.091001 -0.038832 -1102800.000000 0 0 1
-17.400227 -33.685679 -12.674215 39.976600 1.093999 1.893404 0.095082 -0.039714 212954.000000 0 0 1
-18.750127 -33.338879 -12.388215 40.205919 1.058475 1.884012 0.105204 -0.040409 379638.000000 0 0 1
-19.207527 -31.999279 -12.480815 39.352937 1.030194 1.893520 0.108908 -0.042717 -749778.000000 0 0 1
-18.659627 -30.899479 -11.589015 37.911274 1.027528 1.881457 0.112805 -0.039217 -306238.000000 0 0 1
-19.144727 -31.071079 -10.239215 37.904802 1.018580 1.844324 0.102156 -0.038385 348577.000000 0 0 1
-18.710627 -30.018079 -9.412815 36.602919 1.013412 1.830879 0.099974 -0.029978 -115724.000000 0 0 1
-18.942927 -30.150479 -7.910515 36.475500 1.009842 1.789405 0.083414 -0.024775 -139528.000000 0 0 1
-18.056627 -31.124879 -7.341115 36.724540 1.045112 1.772049 0.074502 -0.026823 268370.000000 0 0 1
-18.319327 -31.450579 -5.991715 36.886817 1.043359 1.733954 0.081027 -0.021724 -222923.000000 0 0 1
-17.449727 -32.565079 -5.384615 37.335926 1.078888 1.715522 0.072744 -0.023966 235280.000000 0 0 1
-16.187927 -32.182879 -4.852315 36.350125 1.104753 1.704684 0.061416 -0.018102 342057.000000 0 0 1
-16.152727 -31.999979 -3.436715 36.010002 1.103338 1.666380 0.056361 -0.018111 -448906.000000 0 0 1
-14.959227 -31.328579 -2.761115 34.826456 1.125315 1.650162 0.053739 -0.017500 312096.000000 0 0 1
-13.758527 -32.122379 -2.689715 35.048236 1.166120 1.647615 0.053946 -0.007344 107181.000000 0 0 1
-12.755027 -31.300479 -2.141915 33.867366 1.183839 1.634083 0.062124 -0.015238 -370343.000000 0 0 1
-11.333027 -31.831279 -2.309515 33.867413 1.228756 1.639042 0.053387 -0.019749 -791830.000000 0 0 1
-11.057627 -32.992979 -1.517415 34.829733 1.247411 1.614377 0.056500 -0.008935 -516151.000000 0 0 1
-9.728727 -33.441779 -1.519315 34.861282 1.287695 1.614392 0.064284 -0.015279 101726.000000 0 0 1
-8.737427 -32.568279 -0.678915 33.726789 1.308688 1.590928 0.077190 -0.021423 -532297.000000 0 0 1
-9.137827 -32.459279 0.663485 33.727509 1.296382 1.551123 0.079519 -0.018178 -422565.000000 0 0 1
-8.065527 -32.199379 1.517485 33.228835 1.325359 1.525113 0.071427 -0.016069 609226.000000 0 0 1
-7.072027 -33.373079 1.863385 34.165013 1.361977 1.516229 0.081475 -0.015085 169235.000000 0 0 1
-7.755827 33.941714 2.664085 34.918335 -1.346149 1.494427 0.087496 -0.024799 235732.000000 0 0 1
-6.929327 32.887714 3.255485 33.767077 -1.363137 1.474236 0.089655 -0.020778 574553.000000 0 0 1
-6.173627 33.294514 4.548285 34.166142 -1.387454 1.437277 0.094068 -0.021650 489124.000000 0 0 1
-5.051427 -34.093579 4.305585 34.733659 1.423703 1.446517 0.096605 -0.015821 -123776.000000 0 0 1
-4.292227 -33.799979 5.449385 34.504457 1.444483 1.412200 0.086368 -0.014530 651932.000000 0 0 1
-3.045227 -32.893979 5.092285 33.424820 1.478482 1.417850 0.097982 -0.012360 499634.000000 0 0 1
-3.263327 -31.694579 4.386085 32.162608 1.468196 1.433998 0.085566 -0.006262 -234090.000000 0 0 1
-3.339027 -31.787679 2.998185 32.102877 1.466139 1.477267 0.085669 -0.008388 -213159.000000 0 0 1
-3.679827 -30.422379 2.312685 30.731267 1.450423 1.495470 0.065373 -0.011837 -92429.600000 0 0 1
-2.739027 -29.390779 2.414785 29.616741 1.477871 1.489171 0.061011 -0.017684 -401726.000000 0 0 1
-3.113627 -28.281179 1.647185 28.499701 1.461143 1.512968 0.063875 -0.018123 254200.000000 0 0 1
-2.656227 -27.010479 2.328685 27.240489 1.472771 1.485206 0.063054 -0.017517 -136670.000000 0 0 1
-3.055527 -25.870179 1.620985 26.100383 1.453231 1.508651 0.069218 -0.023889 -202832.000000 0 0 1
-2.902627 -24.679279 2.417885 24.966742 1.453720 1.473800 0.052489 -0.019671 -432091.000000 0 1 0
-4.048127 -24.317579 3.348585 24.878605 1.405840 1.435790 0.033356 -0.013253 -691688.000000 0 1 0
-4.174427 -24.951079 4.610585 25.714581 1.405027 1.390523 0.053965 -0.011028 194523.000000 0 0 1
-5.148327 -24.324079 5.456385 25.454630 1.362219 1.354763 0.032326 -0.007246 63054.300000 0 0 1
-5.706027 -25.295079 6.487785 26.729966 1.348931 1.325632 0.045508 -0.005278 -35041.900000 0 0 1
-4.738127 -25.843979 7.384285 27.292650 1.389474 1.296822 0.036609 -0.010690 592598.000000 0 0 1
-5.445527 -26.779579 8.243185 28.543821 1.370185 1.277833 0.040762 -0.004400 1055940.000000 0 0 1
-4.708327 -27.126479 9.637585 29.170143 1.398939 1.234077 0.034515 -0.000637 607415.000000 0 0 1
-4.364827 -26.114779 10.581385 28.513139 1.405187 1.190597 0.030646 -0.017562 490621.000000 0 0 1
-5.528127 -25.528379 11.160285 28.404406 1.357541 1.167006 0.034956 -0.026367 536121.000000 0 0 1
-5.053927 -24.497079 12.222485 27.839507 1.367343 1.116273 0.031426 -0.026310 302813.000000 0 0 1
-4.406927 -25.103579 13.338585 28.766795 1.397017 1.088652 0.052836 -0.022698 -206489.000000 0 0 1
-3.838927 -24.040179 14.095885 28.131149 1.412445 1.045953 0.046976 -0.030698 -150892.000000 0 0 1
-2.665527 -24.504779 14.984085 28.846352 1.462447 1.024595 0.034995 -0.028302 -40827.300000 0 0 1
-3.021627 -25.117479 16.199985 30.040930 1.451072 1.001234 0.046736 -0.030891 68783.000000 0 0 1
-1.912427 -25.829079 16.738885 30.838109 1.496890 0.997030 0.050801 -0.033346 495755.000000 0 0 1
-2.387827 -26.525979 18.007885 32.149855 1.481020 0.976262 0.049726 -0.020858 123373.000000 0 0 1
-2.549627 -25.555879 19.022885 31.960502 1.471359 0.933282 0.058015 -0.023970 -152341.000000 0 0 1
-2.682227 -26.154779 20.281785 33.205686 1.468602 0.913735 0.066669 -0.024439 7823.710000 0 0 1
-2.930527 -25.047879 21.305585 33.013818 1.454329 0.869310 0.075828 -0.035551 -67667.900000 0 0 1
-2.628227 -25.461879 22.670385 34.192999 1.467939 0.845961 0.059135 -0.031068 57108.100000 0 0 1
-2.718527 -24.382779 23.587685 34.033647 1.459761 0.805058 0.061630 -0.030234 581164.000000 0 0 1
-1.714527 -23.159079 23.378685 32.952169 1.496899 0.782046 0.057752 -0.030047 435873.000000 0 0 1
-2.135127 -22.216279 22.364485 31.595759 1.474984 0.784372 0.078565 -0.026762 -125884.000000 0 0 1
-1.117127 -21.382479 21.853185 30.594445 1.518599 0.775193 0.077747 -0.033654 -96874.400000 0 0 1
-1.759827 -20.183679 21.090885 29.245569 1.483826 0.765314 0.063829 -0.006757 -524545.000000 0 0 1
-2.331127 -19.154179 21.874085 29.168344 1.449689 0.722847 0.060402 -0.017575 -63482.500000 0 0 1
-3.662627 -19.401079 22.238685 29.738456 1.384208 0.726041 0.080180 -0.028511 -503892.000000 0 0 1
-4.828827 -19.192779 21.240685 29.031828 1.324316 0.750080 0.071140 -0.023843 -485945.000000 0 0 1
-4.906127 -20.045579 20.120485 28.822374 1.330766 0.798076 0.085006 -0.027840 -207662.000000 0 0 1
-5.251727 -21.429879 20.363485 30.024854 1.330467 0.825457 0.058397 -0.017274 -88457.900000 0 0 1
-5.200627 -22.234979 19.041885 29.732712 1.341033 0.875731 0.059736 -0.023672 15589.200000 0 0 1
-5.735727 -23.540079 19.057285 30.825541 1.331796 0.904307 0.046597 -0.025453 -180121.000000 0 0 1
-5.608527 -24.125979 17.749385 30.472267 1.342385 0.949024 0.046190 -0.028562 -89478.000000 0 0 1
-6.366727 -25.452179 17.619285 31.603604 1.325682 0.979414 0.043097 -0.033784 141601.000000 0 0 1
-7.771027 -25.384979 17.595385 31.849389 1.273728 0.985489 0.068067 -0.033764 -486488.000000 0 0 1
-8.335627 -26.674079 17.503985 32.975425 1.267912 1.011230 0.074038 -0.035440 496403.000000 0 0 1
-9.870927 -26.743079 17.723385 33.567035 1.217206 1.014553 0.067304 -0.032899 218012.000000 0 0 1
-10.667327 -26.064079 16.735585 32.759851 1.182322 1.034615 0.090992 -0.038613 1176350.000000 0 0 1
-12.094527 -26.144479 16.947185 33.421825 1.137511 1.039015 0.098378 -0.039321 1237460.000000 0 0 1
-12.605827 -25.148379 17.984785 33.388625 1.106143 1.001962 0.102721 -0.043237 -917216.000000 0 0 1
-12.702327 -23.823779 17.531185 32.191054 1.080960 0.994887 0.105892 -0.045115 -121494.000000 0 0 1
-12.673527 -22.868379 18.589085 32.080136 1.064739 0.952733 0.099226 -0.032234 -547533.000000 0 0 1
-11.322427 -22.430879 19.144785 31.588993 1.103340 0.919700 0.100651 -0.033960 -510760.000000 0 0 1
-10.706727 -23.365979 19.989185 32.560259 1.141129 0.909787 0.101264 -0.036643 -475358.000000 0 0 1
-9.327527 -23.118879 19.991185 31.955168 1.187311 0.894895 0.074865 -0.037642 -278532.000000 0 0 1
-8.521727 -23.929179 21.019085 32.970098 1.228677 0.879522 0.060590 -0.032909 -34608.200000 0 0 1
-8.504327 -23.431079 22.328785 33.465111 1.222631 0.840318 0.064964 -0.031354 290182.000000 0 0 1
-7.719127 -24.261379 23.192085 34.439399 1.262759 0.831975 0.052001 -0.030051 240990.000000 0 0 1
-7.499127 -23.769179 24.576385 35.002992 1.265183 0.792423 0.057188 -0.030047 -70354.000000 0 0 1
-6.751327 -24.667179 25.359085 36.015737 1.303642 0.789626 0.051509 -0.024326 -183482.000000 0 0 1
-6.560627 -24.119479 26.664585 36.548477 1.305216 0.753107 0.055867 -0.027247 -784392.000000 0 0 1
-5.412727 -24.687779 27.435885 37.302973 1.354964 0.744410 0.059784 -0.026496 -573802.000000 0 0 1
-4.138427 -24.536479 26.855685 36.611380 1.403705 0.747289 0.055169 -0.024483 -289765.000000 0 0 1
-3.125127 -24.497079 27.833285 37.209744 1.443910 0.725737 0.050282 -0.021911 659475.000000 0 0 1
-1.805827 -23.863479 27.272585 36.283888 1.495267 0.720244 0.045690 -0.024431 -221408.000000 0 0 1
-2.001927 -22.505179 26.974585 35.186915 1.482076 0.697254 0.056181 -0.026832 -58185.500000 0 0 1
-0.849127 -21.719379 26.755285 34.471694 1.531721 0.682256 0.055024 -0.030207 209974.000000 0 0 1
0.118373 -21.378979 27.911985 35.158977 -1.565259 0.653634 0.060727 -0.026428 196642.000000 0 0 1
0.697873 -22.561779 28.468485 36.331467 -1.539875 0.670395 0.059900 -0.030855 183930.000000 0 0 1
1.858573 -22.324479 29.236185 36.831931 -1.487735 0.653809 0.039615 -0.035027 42425.600000 0 0 1
2.413673 -23.486579 30.079485 38.238993 -1.468388 0.665484 0.040590 -0.035287 -630606.000000 0 0 1
2.864473 -24.576879 29.318385 38.363992 -1.454768 0.700971 0.043980 -0.039792 475733.000000 0 0 1
3.570573 -25.580079 30.059285 39.631427 -1.432108 0.709833 0.038585 -0.024493 239745.000000 0 0 1
4.908773 -25.203879 30.825285 40.118945 -1.378442 0.694541 0.036101 -0.027948 107093.000000 0 0 1
5.897473 -24.747579 29.944185 39.292201 -1.336855 0.704262 0.043877 -0.029342 -160008.000000 0 0 1
6.587873 -25.755179 29.235185 39.514875 -1.320377 0.737945 0.045503 -0.026791 -1259880.000000 0 0 1
7.937473 -25.287679 28.707285 39.071452 -1.266648 0.745516 0.046368 -0.023466 -754027.000000 0 0 1
7.860873 -24.441979 27.571185 37.674579 -1.259630 0.749801 0.053274 -0.032242 37674.000000 0 0 1
9.086273 -24.264879 26.892185 37.343464 -1.212497 0.766805 0.033413 -0.022441 -317671.000000 0 0 1
8.953673 -23.181879 25.804885 35.825408 -1.202212 0.766568 0.040327 -0.022280 248204.000000 0 0 1
8.030273 -23.472779 24.741085 35.036808 -1.241168 0.786757 0.052082 -0.024556 492506.000000 0 0 1
7.936973 -22.333779 23.856585 33.629301 -1.229337 0.782152 0.047623 -0.015972 -71897.300000 0 0 1
7.103873 -22.659079 22.626785 32.800461 -1.266991 0.809540 0.061501 -0.012776 -641249.000000 0 0 1
7.751473 -23.428279 21.697585 32.859622 -1.251274 0.849563 0.050260 -0.009642 -190342.000000 0 0 1
7.472173 -22.928479 20.375385 31.570632 -1.255759 0.869262 0.071386 -0.001552 38157.000000 0 0 1
8.000773 -23.782379 19.200585 31.595512 -1.246274 0.917635 0.062111 -0.007801 788335.000000 0 0 1
9.375473 -23.536479 18.895385 31.605393 -1.191724 0.929976 0.062828 -0.008602 223138.000000 0 0 1
9.833073 -24.359779 17.823185 31.745142 -1.187139 0.974664 0.068882 -0.018237 284858.000000 0 0 1
11.242473 -23.965479 17.330085 31.639678 -1.132164 0.991145 0.053793 -0.009071 113514.000000 0 0 1
11.200173 -22.875979 16.483785 30.339239 -1.115500 0.996415 0.064055 -0.000436 -298130.000000 0 0 1
12.323573 -22.736479 15.635385 30.220575 -1.074102 1.027015 0.053911 -0.013338 -21660.900000 0 0 1
-12.385227 22.487614 11.833585 28.268717 -1.067372 1.138881 0.044880 -0.026293 383849.000000 0 0 1
-13.493527 21.724114 11.346385 27.977721 -1.014984 1.153215 0.027176 -0.024373 447842.000000 0 0 1
-12.964127 20.626814 10.697285 26.607630 -1.009678 1.157054 0.048318 -0.025728 161583.000000 0 0 1
-13.969427 19.936014 9.737285 26.218395 -0.959592 1.190289 0.048401 -0.021569 -356481.000000 0 0 1
-14.205227 20.638214 8.548585 26.472677 -0.967968 1.241982 0.048787 -0.020375 81342.000000 0 0 1
-14.993427 19.903014 7.605785 26.053422 -0.925171 1.274552 0.053034 -0.016066 -1511310.000000 0 0 1
-16.470627 19.960514 7.701885 27.000420 -0.880901 1.281528 0.034305 -0.009565 -2053370.000000 0 0 1
-16.808427 18.994614 8.655685 26.799990 -0.846384 1.241927 0.029987 -0.015822 94990.000000 0 0 1
-18.177027 19.178214 8.991885 27.911686 -0.812194 1.242792 0.032101 -0.015272 105245.000000 0 0 1
-18.701427 18.028814 9.869485 27.788275 -0.767088 1.207703 0.036479 -0.013780 -182847.000000 0 0 1
-18.726027 16.847614 9.114985 26.787854 -0.732644 1.223597 0.034964 -0.009037 206216.000000 0 0 1
-19.201827 15.708714 9.826385 26.683922 -0.685671 1.193669 0.048996 -0.016532 482956.000000 0 0 1
-18.125727 14.983114 10.752085 25.858132 -0.690764 1.141962 0.042756 -0.011177 1191260.000000 0 0 1
-17.139327 14.189814 10.043385 24.412639 -0.691529 1.146806 0.016287 -0.006764 1376730.000000 0 1 0
-16.265527 13.377814 10.905185 23.716162 -0.688289 1.093003 0.004331 -0.010226 423482.000000 0 1 0
-16.952527 12.301814 11.723585 24.003442 -0.627742 1.060527 0.010553 -0.010461 -167222.000000 0 1 0
-17.821427 11.486114 10.924785 23.851310 -0.572507 1.095011 -0.001839 -0.012380 719522.000000 0 1 0
-18.857727 10.913914 11.734985 24.747470 -0.524648 1.076753 0.031453 -0.011063 349194.000000 0 1 0
-19.919827 10.053914 11.007185 24.880491 -0.467416 1.112521 0.042789 -0.015835 -358920.000000 0 1 0
-19.494827 8.901514 10.296585 23.776141 -0.428336 1.122907 0.035158 -0.014736 3823.050000 0 1 0
-18.943727 9.222714 8.997185 22.910098 -0.453071 1.167212 0.041180 -0.013632 -1173610.000000 0 1 0
-19.794327 9.680214 7.826885 23.383371 -0.454841 1.229488 0.042943 -0.014316 -982601.000000 0 1 0
-20.487727 8.603214 7.294085 23.387303 -0.397560 1.253623 0.042004 -0.022708 -56083.800000 0 1 0
-21.293827 8.942814 6.228185 23.920520 -0.397604 1.307391 0.049073 -0.020532 -337278.000000 0 1 0
-21.325427 7.819714 5.207185 23.303144 -0.351461 1.345440 0.038915 -0.016199 38066.100000 0 1 0
-22.058827 6.748614 5.792285 23.784159 -0.296895 1.324787 0.060891 -0.025369 587404.000000 0 1 0
-21.772327 5.563414 5.136385 23.051426 -0.250174 1.346087 0.063816 -0.017903 -572711.000000 0 1 0
-22.643627 4.401114 5.623985 23.743059 -0.191971 1.331655 0.062333 -0.023329 -189048.000000 0 1 0
-23.884227 4.492614 4.962785 24.804619 -0.185927 1.369362 0.099389 -0.024971 -179476.000000 0 1 0
-24.744227 3.415214 5.178785 25.510003 -0.137154 1.366365 0.131795 -0.030575 254481.000000 0 0 1
-25.918847 3.382514 4.151585 26.466274 -0.129771 1.413283 0.146270 -0.031910 462803.000000 0 0 1
-25.459077 3.094314 2.812185 25.800150 -0.120947 1.461581 0.150227 -0.026861 975985.000000 0 0 1
-26.616027 2.878014 1.997085 26.845562 -0.107712 1.496336 0.154662 -0.023677 413989.000000 0 0 1
-26.306067 2.878314 0.486085 26.467530 -0.108983 1.552430 0.171179 -0.023679 -149588.000000 0 0 1
-26.058217 4.155814 -0.068615 26.387614 -0.158150 1.573397 0.171549 -0.028434 268391.000000 0 0 1
-25.896347 4.171614 -1.459715 26.270781 -0.159717 1.626389 0.177318 -0.019498 409657.000000 0 0 1
-27.239767 4.450314 -2.199815 27.688434 -0.161945 1.650329 0.174893 -0.020813 542918.000000 0 0 1
-28.281577 3.500214 -2.144815 28.577952 -0.123137 1.645918 0.159166 -0.018427 85242.000000 0 0 1
-29.522227 4.123614 -2.326115 29.899446 -0.138780 1.648673 0.143229 -0.010344 -565742.000000 0 0 1
-30.701827 3.156714 -2.422515 30.958611 -0.102458 1.649127 0.145375 -0.015765 -627831.000000 0 0 1
-30.814117 2.612914 -3.684715 31.143446 -0.084594 1.689388 0.135892 -0.015046 279281.000000 0 0 1
-31.679517 1.514114 -3.706015 31.931472 -0.047758 1.687120 0.135918 -0.021253 -401618.000000 0 0 1
-31.968467 0.919814 -5.117915 32.388609 -0.028765 1.729477 0.128003 -0.014773 -538379.000000 0 0 1
-30.828567 0.458414 -5.799815 31.372736 -0.014869 1.756734 0.150842 -0.029078 51453.500000 0 0 1
-31.004387 -0.242386 -7.055615 31.797995 0.007818 1.794547 0.153150 -0.024674 -262924.000000 0 0 1
-31.594127 0.628814 -8.220015 32.651997 -0.019900 1.825280 0.146077 -0.021957 -161193.000000 0 0 1
-32.979987 0.857314 -8.067615 33.963229 -0.025989 1.810629 0.139023 -0.014111 144280.000000 0 0 1
-33.406437 1.712814 -9.119115 34.671054 -0.051227 1.836945 0.129350 -0.014431 -1603130.000000 0 0 1
-34.867857 1.975014 -9.056815 36.078997 -0.056582 1.824538 0.123915 -0.015478 -1512230.000000 0 0 1
-35.201660 2.774814 -7.962115 36.197399 -0.078664 1.792574 0.102963 -0.009655 -203174.000000 0 0 1
-36.491937 2.568814 -7.465215 37.336171 -0.070278 1.772099 0.101293 -0.011067 -655842.000000 0 0 1
36.288185 3.727314 -6.529015 37.058782 0.102355 1.747901 0.110389 -0.016672 335451.000000 0 0 1
34.872325 3.677314 -6.360315 35.637835 0.105063 1.750228 0.111908 -0.022534 618139.000000 0 0 1
34.569205 4.405314 -5.200815 35.234716 0.126751 1.718942 0.117692 -0.027847 267681.000000 0 0 1
33.147065 4.174714 -4.623615 33.727348 0.125286 1.708317 0.116987 -0.028840 236030.000000 0 0 1
33.107555 2.937514 -4.034015 33.481525 0.088495 1.691575 0.106871 -0.026516 603444.000000 0 0 1
31.776675 2.387414 -4.051015 32.122695 0.074990 1.697244 0.117182 -0.021747 691797.000000 0 0 1
31.718305 0.975514 -3.323815 31.906900 0.030746 1.675158 0.136154 -0.015446 -265169.000000 0 0 1
32.463945 -0.050586 -3.917815 32.699535 -0.001558 1.690897 0.085431 -0.015817 16800.500000 0 0 1
32.406685 -1.270286 -3.138015 32.583033 -0.039178 1.667254 0.093049 -0.013580 167308.000000 0 0 1
33.374595 -2.363586 -3.671815 33.659061 -0.070702 1.680102 0.076964 -0.011465 219525.000000 0 0 1
33.386125 -3.499786 -2.853915 33.690157 -0.104446 1.655609 0.061597 -0.011854 257391.000000 0 0 1
34.674115 -4.099286 -2.926215 35.037996 -0.117677 1.654409 0.076656 -0.014417 128401.000000 0 0 1
34.745505 -5.545886 -2.457215 35.271021 -0.158279 1.640519 0.077332 -0.019714 -246274.000000 0 0 1
34.432105 -5.756086 -1.142715 34.928616 -0.165640 1.603518 0.083120 -0.023549 -29858.600000 0 0 1
34.518005 -7.098586 -0.710315 35.247513 -0.202821 1.590950 0.104253 -0.022472 -8721.190000 0 0 1
33.860995 -7.238786 0.678285 34.632746 -0.210609 1.551210 0.094469 -0.021066 1495610.000000 0 0 1
32.404735 -7.332786 0.652085 33.230435 -0.222540 1.551172 0.087546 -0.018285 1547500.000000 0 0 1
31.770425 -7.460986 1.899185 32.689955 -0.230661 1.512667 0.097734 -0.029925 -301073.000000 0 0 1
31.672525 -8.947586 2.335385 32.994881 -0.275328 1.499957 0.097842 -0.025859 -1023280.000000 0 0 1
30.698615 -9.719686 1.767485 32.249051 -0.306631 1.515962 0.091399 -0.028740 -585752.000000 0 0 1
29.486505 -9.682086 2.507785 31.136566 -0.317265 1.490168 0.084328 -0.030754 -926664.000000 0 0 1
28.455565 -10.638286 1.833385 30.434415 -0.357767 1.510519 0.086570 -0.028448 -404820.000000 0 0 1
27.153085 -10.479286 2.352685 29.200010 -0.368322 1.490138 0.110078 -0.034392 556201.000000 0 0 1
26.403685 -9.336086 1.888185 28.069242 -0.339870 1.503477 0.120422 -0.033782 -509605.000000 0 0 1
25.717085 -9.323386 0.521485 27.359933 -0.347799 1.551735 0.105640 -0.027837 -443478.000000 0 0 1
26.638685 -9.461386 -0.565215 28.274668 -0.341277 1.590788 0.101516 -0.031878 396320.000000 0 0 1
26.059285 -9.609086 -1.852415 27.836169 -0.353271 1.637393 0.101747 -0.024105 -369521.000000 0 0 1
25.309885 -10.901486 -2.156215 27.642032 -0.406706 1.648881 0.096032 -0.013443 -64759.800000 0 0 1
24.064585 -11.032486 -1.500815 26.515514 -0.429861 1.627428 0.091859 -0.012919 -128289.000000 0 0 1
23.546085 -12.331486 -1.666915 26.631979 -0.482441 1.633428 0.077589 -0.010000 206798.000000 0 0 1
22.015085 -12.328286 -1.429715 25.272410 -0.510483 1.627399 0.081768 -0.013065 463178.000000 0 0 1
21.120585 -11.959986 -2.491115 24.399304 -0.515250 1.673072 0.075975 -0.010456 1016180.000000 0 1 0
19.774985 -12.238386 -2.108215 23.351075 -0.554188 1.661203 0.086184 -0.016132 -610.735000 0 1 0
18.763685 -11.689886 -3.089915 22.322117 -0.557164 1.709666 0.081644 -0.014220 -471742.000000 0 1 0
18.545085 -12.550486 -4.167215 22.777194 -0.594955 1.754788 0.060654 -0.014772 235017.000000 0 1 0
17.719385 -11.820586 -5.056115 21.892171 -0.588302 1.803856 0.064467 -0.016095 -277180.000000 0 1 0
17.751485 -12.399786 -6.461915 22.597041 -0.609733 1.860807 0.066522 -0.020473 -350343.000000 0 1 0
17.060685 -13.620786 -6.692815 22.833891 -0.673748 1.868273 0.056825 -0.018097 379524.000000 0 1 0
17.182285 -14.070986 -8.010115 23.609013 -0.686174 1.916950 0.056043 -0.024598 -592748.000000 0 1 0
16.393085 -15.310286 -8.324715 23.925697 -0.751257 1.926170 0.054623 -0.021708 -784505.000000 0 1 0
14.996585 -15.186186 -8.307815 22.902786 -0.791680 1.942006 0.060480 -0.015101 169293.000000 0 1 0
14.293585 -16.138186 -9.150415 23.419601 -0.845938 1.972206 0.059555 -0.013557 299444.000000 0 1 0
14.307285 -15.946186 -10.662315 23.930404 -0.839518 2.032591 0.069768 -0.023683 -496146.000000 0 1 0
13.583885 -14.938786 -11.374115 23.174550 -0.832865 2.083806 0.065980 -0.018285 257760.000000 0 1 0
14.001185 -13.644586 -11.033915 22.448946 -0.772500 2.084621 0.069967 -0.008670 -79976.800000 0 1 0
13.763585 -12.632286 -12.154615 22.287790 -0.742565 2.147601 0.070925 -0.010965 360229.000000 0 1 0
14.882685 -12.543286 -13.043915 23.430153 -0.700305 2.161222 0.073191 -0.015290 642484.000000 0 1 0
14.468385 -12.320386 -14.398615 23.842110 -0.705387 2.219201 0.078618 -0.008897 -485124.000000 0 1 0
15.654985 -12.040186 -15.306915 24.986922 -0.655611 2.230139 0.081653 -0.017292 -423956.000000 0 1 0
16.547485 -13.106886 -15.473115 26.173021 -0.669891 2.203324 0.083219 -0.022029 -122617.000000 0 0 1
17.675885 -12.659386 -16.183815 27.103742 -0.621513 2.210685 0.082239 -0.024358 -745748.000000 0 0 1
18.880085 -13.579286 -16.161515 28.320473 -0.623521 2.178112 0.078383 -0.019576 -764131.000000 0 0 1
19.576885 -13.554386 -14.933715 28.106790 -0.605585 2.130955 0.071019 -0.031862 -16306.200000 0 0 1
20.749885 -14.317286 -15.112215 29.392541 -0.603979 2.110814 0.057694 -0.019537 -357288.000000 0 0 1
21.766085 -14.245386 -13.979015 29.531447 -0.579516 2.063898 0.046803 -0.014522 -461225.000000 0 0 1
22.437985 -13.033186 -13.907915 29.440741 -0.526222 2.062812 0.057686 -0.017489 -288942.000000 0 0 1
23.399285 -13.090186 -12.880515 29.745373 -0.510052 2.018643 0.043350 -0.008437 -175736.000000 0 0 1
24.107785 -11.761386 -12.734715 29.693240 -0.453894 2.014044 0.056918 -0.017335 -738220.000000 0 0 1
23.249585 -10.762486 -12.304615 28.421433 -0.433539 2.018542 0.057638 -0.014466 -81125.500000 0 0 1
23.778485 -9.488586 -12.520215 28.499218 -0.379679 2.025636 0.069626 -0.018264 298147.000000 0 0 1
24.834985 -8.945386 -11.498615 28.792613 -0.345726 1.981615 0.081630 -0.018261 901215.000000 0 0 1
25.970985 -9.813786 -11.368715 30.000836 -0.361289 1.959454 0.065748 -0.012005 -8373.990000 0 0 1
26.884185 -9.321886 -10.447415 30.311804 -0.333770 1.922678 0.061770 -0.021695 -177859.000000 0 0 1
28.271175 -10.029886 -10.562015 31.802738 -0.340922 1.909336 0.062947 -0.018960 177838.000000 0 0 1
28.932375 -9.660686 -11.751515 32.688061 -0.322266 1.938533 0.051024 -0.023055 -712991.000000 0 0 1
30.166155 -10.282786 -11.874415 34.010797 -0.328520 1.927446 0.038471 -0.024151 -747476.000000 0 0 1
30.838595 -9.931386 -13.200015 34.984165 -0.311556 1.957691 0.024715 -0.016953 -550759.000000 0 0 1
30.227865 -10.367486 -14.429215 35.062956 -0.330405 1.994921 0.014101 -0.011807 162366.000000 0 0 1
30.922375 -9.981786 -15.606415 36.047046 -0.312242 2.018554 0.016152 -0.006657 99819.000000 0 0 1
30.379105 -10.746686 -16.888115 36.381173 -0.340014 2.053527 0.011572 0.003453 -351120.000000 0 0 1
29.233675 -10.156686 -17.423715 35.515516 -0.334384 2.083568 0.001035 -0.000456 -395141.000000 0 0 1
29.437435 -9.162086 -18.435015 35.921528 -0.301736 2.109708 0.009005 0.002031 -282263.000000 0 0 1
28.223985 -8.701186 -19.262015 35.260874 -0.299045 2.148703 -0.010297 -0.001124 172075.000000 0 0 1
27.556785 -9.579886 -20.174915 35.470802 -0.334572 2.175812 -0.005679 0.002350 889575.000000 0 0 1
26.187485 -9.214386 -20.340515 34.415488 -0.338333 2.203129 0.033539 0.002366 425938.000000 0 0 1
25.694685 -9.514686 -21.798215 35.012973 -0.354642 2.242826 0.047523 -0.009739 -262075.000000 0 0 1
25.304885 -10.837686 -21.979815 35.226480 -0.404649 2.244593 0.036359 -0.005542 282287.000000 0 0 1
24.842285 -11.237686 -23.272415 35.847315 -0.424816 2.277341 0.044268 -0.014803 -516592.000000 0 0 1
25.189485 -12.773186 -23.559115 36.779021 -0.469299 2.266022 0.035703 -0.000166 1110600.000000 0 0 1
26.413285 -13.105386 -24.242215 38.171950 -0.460576 2.258907 0.036818 0.007133 1410940.000000 0 0 1
27.628085 -12.841686 -23.511815 38.484093 -0.435098 2.228055 0.012910 0.008153 1144420.000000 0 0 1
28.938415 -13.488886 -24.097615 40.000962 -0.436181 2.217333 0.016789 0.013090 680843.000000 0 0 1
29.336285 -12.955386 -25.327545 40.864951 -0.415860 2.239267 0.027598 0.002989 379229.000000 0 0 1
30.642965 -13.462486 -25.591105 42.132345 -0.413948 2.223577 0.009435 0.001741 464849.000000 0 0 1
31.401715 -12.889686 -26.803665 43.250991 -0.389506 2.239187 0.029664 -0.007723 63928.100000 0 0 1
31.332735 -13.768586 -27.887665 44.147889 -0.414030 2.254524 0.036945 -0.011894 -82542.000000 0 0 1
32.047695 -13.232186 -28.941455 45.163629 -0.391569 2.266354 0.028482 -0.013284 -297966.000000 0 0 1
31.941655 -14.083986 -30.224335 46.175085 -0.415285 2.284396 0.043242 -0.021454 203231.000000 0 0 1
32.629915 -15.325086 -30.034955 46.921937 -0.439085 2.265431 0.058005 -0.024818 75282.300000 0 0 1
32.850855 -16.030986 -31.254575 48.093863 -0.453996 2.278205 0.029854 -0.020191 361110.000000 0 0 1
31.639435 -16.800086 -31.854285 47.937378 -0.488128 2.297618 0.038133 -0.016603 740260.000000 0 0 1
30.589455 -16.069986 -32.479425 47.422276 -0.483717 2.325260 0.052453 -0.026832 528294.000000 0 0 1
29.392675 -16.836786 -32.565235 46.988310 -0.520196 2.336507 0.046064 -0.024932 784098.000000 0 0 1
28.323335 -16.194486 -33.522135 46.778267 -0.519405 2.369737 0.043638 -0.022526 112985.000000 0 0 1
27.735585 -14.964886 -33.188385 45.767668 -0.494789 2.382047 0.051529 -0.021311 102830.000000 0 0 1
28.556745 -13.808086 -33.431155 46.084629 -0.450386 2.382455 0.069874 -0.025229 269034.000000 0 0 1
27.875785 -12.401186 -33.029695 44.964537 -0.418582 2.395832 0.076089 -0.026851 177086.000000 0 0 1
26.862285 -11.930986 -33.863695 44.840614 -0.417982 2.426758 0.069734 -0.021174 -235962.000000 0 0 1
26.274185 -10.770686 -33.301395 43.764408 -0.389041 2.435533 0.066035 -0.028575 -73147.800000 0 0 1
20.626173 -29.306679 9.246185 37.010976 -0.957522 1.318299 0.044039 -0.018165 -121176.000000 0 0 1
21.243273 -29.115179 8.021585 36.923111 -0.940461 1.351799 0.046247 -0.020035 -1479790.000000 0 0 1
22.483973 -29.666779 7.993185 38.072796 -0.922269 1.359278 0.060344 -0.018426 -1121940.000000 0 0 1
23.200573 -29.611079 6.631385 38.197616 -0.906192 1.396305 0.056975 -0.016308 76220.200000 0 0 1
23.605273 -28.269679 6.231185 37.352527 -0.875073 1.403192 0.049064 -0.000301 48014.100000 0 0 1
24.363373 -28.184779 5.055285 37.596697 -0.857992 1.435927 0.034960 0.001094 -182264.000000 0 0 1
24.553573 -26.661979 4.693385 36.548145 -0.826542 1.442024 0.018688 -0.003529 -310466.000000 0 0 1
25.317273 -25.938179 5.572685 36.671627 -0.797512 1.418244 0.023364 -0.007619 -285484.000000 0 0 1
25.073273 -24.524779 5.379885 35.483474 -0.774340 1.418593 0.024832 -0.004824 -272154.000000 0 0 1
25.857973 -23.616479 6.324485 35.586120 -0.740123 1.392124 0.010765 -0.005652 319633.000000 0 0 1
27.157473 -23.374679 5.782885 36.295257 -0.710678 1.410785 0.014686 0.000766 390517.000000 0 0 1
27.990673 -22.442479 6.484685 36.458110 -0.675828 1.391978 0.024203 -0.011413 419697.000000 0 0 1
27.606573 -20.934379 6.512385 35.253117 -0.648799 1.384997 0.011551 -0.008334 -287563.000000 0 0 1
27.602573 -20.318079 5.242385 34.672885 -0.634541 1.419019 0.022545 0.009641 158640.000000 0 0 1
27.416173 -18.918479 5.306385 33.730003 -0.604016 1.412821 0.024421 0.003494 -184949.000000 0 0 1
27.489273 -18.065879 4.034885 33.140857 -0.581418 1.448744 0.038751 0.005582 -596908.000000 0 0 1
28.787573 -18.012179 3.532585 34.141501 -0.559097 1.467142 0.065978 0.006084 -443531.000000 0 0 1
28.959073 -17.197379 2.383885 33.764784 -0.535886 1.500135 0.070190 0.008559 6267.300000 0 0 1
30.100973 -16.174779 2.580285 34.268789 -0.493080 1.495430 0.078366 -0.007267 -31088.100000 0 0 1
29.904373 -15.233979 3.631685 33.756996 -0.471158 1.463005 0.086981 -0.016346 384130.000000 0 0 1
31.033973 -14.398279 3.902885 34.433275 -0.434396 1.457206 0.085369 -0.022694 504808.000000 0 0 1
30.570973 -13.147279 4.743085 33.614464 -0.406147 1.429221 0.088531 -0.026297 323168.000000 0 0 1
30.191273 -13.555579 6.073785 33.647549 -0.422014 1.389289 0.081465 -0.031701 93655.700000 0 0 1
29.893773 -12.514679 6.920485 33.138316 -0.396470 1.360411 0.074650 -0.029533 -240919.000000 0 0 1
29.524673 -12.818079 8.401585 33.265539 -0.409594 1.315470 0.085695 -0.022390 862317.000000 0 0 1
28.206273 -13.413879 8.483885 32.365140 -0.443908 1.305567 0.073916 -0.018713 984880.000000 0 0 1
27.643873 -13.558879 9.796385 32.310928 -0.456006 1.262757 0.081080 -0.016697 370426.000000 0 0 1
28.295973 -14.652779 10.689985 33.610144 -0.477817 1.247116 0.077683 -0.017432 -690886.000000 0 0 1
29.500973 -14.389879 11.324085 34.721908 -0.453821 1.238583 0.070200 -0.006367 -761023.000000 0 0 1
29.953173 -15.569779 11.834785 35.772513 -0.479365 1.233608 0.070827 -0.006290 -260674.000000 0 0 1
30.868173 -15.401179 13.052185 36.883600 -0.462794 1.209085 0.086551 -0.005059 349239.000000 0 0 1
32.234173 -15.177579 12.736585 37.836773 -0.440060 1.227472 0.074190 -0.007626 150894.000000 0 0 1
33.070773 -15.329379 13.864085 38.998445 -0.434050 1.207344 0.065334 -0.008134 181985.000000 0 0 1
34.551173 -15.034579 13.516285 40.031389 -0.410427 1.226385 0.072189 -0.014968 -78337.300000 0 0 1
34.887073 -13.671779 13.655585 39.881078 -0.373493 1.221318 0.075041 -0.017659 1216450.000000 0 0 1
36.259373 -13.586179 13.190785 40.906273 -0.358503 1.242465 0.090150 -0.021986 1041000.000000 0 0 1
-36.435439 -12.152379 13.094585 40.579424 0.321929 1.242226 0.087826 -0.029781 -45472.600000 0 0 1
-35.147939 -11.977179 12.542885 39.193806 0.328424 1.245043 0.101543 -0.029235 -336404.000000 0 0 1
-34.594639 -10.722479 12.807585 38.416075 0.300557 1.230898 0.109965 -0.034881 387547.000000 0 0 1
-33.318039 -10.554379 11.922085 36.927263 0.306776 1.242054 0.116696 -0.032079 708143.000000 0 0 1
-32.239339 -11.461579 12.097485 36.291761 0.341580 1.230953 0.096978 -0.027348 496246.000000 0 0 1
-32.409239 -12.644579 11.322885 36.584858 0.371989 1.256133 0.077878 -0.028287 -108357.000000 0 0 1
-31.379839 -13.769779 11.709485 36.213439 0.413509 1.241533 0.059940 -0.025508 221822.000000 0 0 1
-30.061039 -13.528479 11.314785 34.852692 0.422882 1.240159 0.068356 -0.025143 -304561.000000 0 0 1
-29.225539 -14.612779 11.737885 34.719496 0.463648 1.225923 0.057659 -0.017259 9937.300000 0 0 1
-27.844939 -14.592079 11.076285 33.330969 0.482700 1.232042 0.059406 -0.013438 -253996.000000 0 0 1
-27.847739 -15.045379 9.738685 33.116491 0.495345 1.272310 0.057761 -0.012339 -754503.000000 0 0 1
-26.595239 -14.832979 9.195685 31.810134 0.508759 1.277530 0.053207 -0.011804 -688195.000000 0 0 1
-26.484439 -14.745079 7.637485 31.259783 0.508007 1.323975 0.076277 -0.011050 -17672.400000 0 0 1
-26.722539 -16.008479 7.038385 31.935941 0.539730 1.348581 0.067481 -0.000693 111900.000000 0 0 1
-26.598339 -15.765479 5.657985 31.433020 0.535052 1.389809 0.069899 0.000198 -433234.000000 0 0 1
-27.100439 -16.951879 4.800185 32.324012 0.558973 1.421743 0.063541 0.001873 -291208.000000 0 0 1
-28.498139 -16.894979 4.718385 33.464121 0.535142 1.429327 0.044870 -0.003356 -467644.000000 0 0 1
-29.036139 -17.782279 3.739985 34.253384 0.549501 1.461392 0.041677 -0.001547 -1284780.000000 0 0 1
-30.494639 -18.005079 3.921885 35.629862 0.533356 1.460500 0.062253 -0.015419 -1592480.000000 0 0 1
-31.350539 -17.139179 3.225585 35.874951 0.500302 1.480763 0.075759 -0.013705 -505172.000000 0 0 1
-32.651039 -17.310579 3.732785 37.144046 0.487491 1.470132 0.093776 -0.016650 -36252.100000 0 0 1
-33.711439 -16.414279 3.028185 37.617278 0.453117 1.490209 0.078002 -0.024929 390157.000000 0 0 1
-34.193739 -16.929779 1.798285 38.197684 0.459731 1.523701 0.075125 -0.018438 -64219.300000 0 0 1
-35.088939 -16.108279 1.083585 38.624920 0.430371 1.542739 0.089565 -0.020114 41369.600000 0 0 1
-35.525239 -16.757879 -0.269415 39.280296 0.440767 1.577655 0.084038 -0.019098 -801419.000000 0 0 1
-34.491039 -16.866079 -1.196315 38.412596 0.454808 1.601945 0.081866 -0.017740 -378.654000 0 0 1
-34.896939 -17.680179 -2.266115 39.185716 0.468945 1.628659 0.075691 -0.016829 -5666.930000 0 0 1
-33.674639 -18.165479 -3.071415 38.384887 0.494700 1.650898 0.056870 -0.019069 74666.700000 0 0 1
-34.045739 -19.057479 -4.075615 39.228949 0.510306 1.674877 0.064350 -0.025615 231237.000000 0 0 1
-32.941539 -19.854779 -4.483315 38.722827 0.542423 1.686836 0.056641 -0.020435 -136352.000000 0 0 1
-33.337639 -20.820379 -5.523215 39.691211 0.558262 1.710404 0.070320 -0.029081 -479789.000000 0 0 1
-34.039039 -21.921779 -4.980815 40.792513 0.572159 1.693203 0.097839 -0.033396 -26489.900000 0 0 1
-34.186739 -22.951579 -5.927715 41.601032 0.591244 1.713773 0.108161 -0.028384 265686.000000 0 0 1
-34.876539 -24.259779 -5.372815 42.822622 0.607760 1.696595 0.108111 -0.027403 383855.000000 0 0 1
-34.020939 -25.071179 -4.579415 42.508344 0.635086 1.678736 0.116415 -0.025017 -173638.000000 0 0 1
-34.567339 -26.359079 -4.399415 43.692755 0.651480 1.671657 0.099472 -0.018619 -45022.700000 0 0 1
-33.583839 -27.398979 -3.844315 43.512723 0.684324 1.659261 0.074264 -0.017889 -797438.000000 0 0 1
-32.748239 -27.864179 -4.892915 43.275862 0.704993 1.684102 0.065878 -0.018303 468604.000000 0 0 1
-31.728039 -28.835879 -4.648115 43.125182 0.737681 1.678788 0.071920 -0.016207 994658.000000 0 0 1
-30.673839 -28.495579 -3.543115 42.017093 0.748601 1.655222 0.074189 -0.022506 -594190.000000 0 0 1
-31.264439 -28.588579 -2.233215 42.423569 0.740721 1.623462 0.070209 -0.020457 -332468.000000 0 0 1
-30.328039 -28.320779 -1.243615 41.513890 0.751186 1.600757 0.082117 -0.022448 -375154.000000 0 0 1
-30.952539 -28.198779 0.157685 41.871896 0.738877 1.567030 0.077605 -0.014297 8523.520000 0 0 1
-31.444639 -29.416179 0.596885 43.063130 0.752081 1.556935 0.069131 -0.013057 -427576.000000 0 0 1
-32.352539 -29.149979 1.609385 43.577496 0.733373 1.533856 0.082754 -0.008717 -241955.000000 0 0 1
-32.992639 -30.389079 2.311585 44.914961 0.744344 1.519308 0.059833 -0.001240 1153620.000000 0 0 1
-34.174639 -30.125479 3.157385 45.666394 0.722508 1.501601 0.048506 -0.002710 1371590.000000 0 0 1
-34.844639 -31.179979 3.724085 46.906383 0.729951 1.491319 0.034138 0.006501 62820.300000 0 0 1
-35.542239 -32.197579 2.788485 48.038635 0.736063 1.512717 0.029847 0.006002 92124.700000 0 0 1
-36.468839 -33.044279 3.488885 49.336324 0.736173 1.500021 0.037359 0.005341 172135.000000 0 0 1
35.882773 -33.712879 2.600685 49.304109 -0.754230 1.518024 0.033735 0.005352 -359040.000000 0 0 1
34.765373 33.676314 3.306885 48.514542 0.769487 1.502581 0.026754 0.007695 353207.000000 0 0 1
33.800373 -33.866479 4.111785 48.024060 -0.786375 1.485072 0.028881 0.004038 512433.000000 0 0 1
33.132673 -32.679479 3.707085 46.684739 -0.778512 1.491306 0.037051 0.005865 201736.000000 0 0 1
32.129673 -32.909879 2.516985 46.062037 -0.797393 1.516126 0.044059 -0.000899 -294979.000000 0 0 1
32.813273 -33.232279 1.318785 46.720814 -0.791742 1.542566 0.050084 -0.004801 -223368.000000 0 0 1
31.928773 -33.226179 0.224185 46.081187 -0.805308 1.565931 0.057055 -0.011902 -107847.000000 0 0 1
32.625873 -33.862879 -1.029715 47.034056 -0.804001 1.592691 0.061869 -0.018811 1553310.000000 0 0 1
33.796373 -33.280879 -1.653915 47.461007 -0.777713 1.605651 0.051781 -0.017346 573003.000000 0 0 1
34.980173 -33.408279 -0.894115 48.378973 -0.762417 1.589279 0.054874 -0.005289 -65625.000000 0 0 1
36.299073 -33.272479 -1.705015 49.270555 -0.741922 1.605408 0.038684 -0.002014 948.108000 0 0 1
36.573473 33.792214 -2.412115 49.853294 0.745893 1.619199 0.046429 -0.016450 -133801.000000 0 0 1
-35.773839 -34.032379 -3.433715 49.495058 0.760456 1.640227 0.049100 -0.015700 -609129.000000 0 0 1
-35.028939 33.044914 -4.133315 48.332983 -0.756261 1.656418 0.046763 -0.019064 248211.000000 0 0 1
-33.789239 32.640414 -3.562815 47.114785 -0.768106 1.646488 0.057760 -0.018034 91988.000000 0 0 1
-33.144939 31.704114 -4.395915 46.076696 -0.763184 1.666346 0.061690 -0.022691 -54972.100000 0 0 1
-31.839639 31.153214 -3.805315 44.707558 -0.774502 1.656015 0.060592 -0.024720 -338678.000000 0 0 1
-30.689439 31.965714 -3.982915 44.491709 -0.805765 1.660437 0.053106 -0.028528 146590.000000 0 0 1
-29.486339 31.327514 -3.587315 43.170895 -0.815665 1.653988 0.059267 -0.038686 534728.000000 0 0 1
-29.097639 31.113814 -2.079915 42.650534 -0.818871 1.619582 0.057589 -0.035482 -108285.000000 0 0 1
-30.105839 30.344314 -1.443815 42.769423 -0.789343 1.604561 0.051740 -0.027565 25014.500000 0 0 1
-29.868639 30.220714 -0.058715 42.490359 -0.791257 1.572178 0.055794 -0.015003 251532.000000 0 0 1
-31.142239 29.686014 0.664185 43.029520 -0.761463 1.555360 0.048864 -0.014346 216074.000000 0 0 1
-31.457239 28.384114 0.255385 42.370757 -0.734089 1.564769 0.048542 -0.023781 590290.000000 0 0 1
-32.731839 28.351914 -0.432215 43.305786 -0.713817 1.580777 0.049135 -0.022518 862470.000000 0 0 1
-33.153139 26.937014 -0.946115 42.727374 -0.682318 1.592941 0.059654 -0.019686 134137.000000 0 0 1
-33.459539 25.971214 0.045685 42.356190 -0.660058 1.569718 0.063207 -0.019287 37920.400000 0 0 1
-33.942339 24.732014 -0.566115 42.000897 -0.629695 1.584275 0.073666 -0.005550 49815.700000 0 0 1
-34.085439 23.570614 0.478885 41.444183 -0.605009 1.559241 0.084614 -0.010432 860651.000000 0 0 1
-32.841539 23.013514 0.969485 40.113943 -0.611225 1.546626 0.090709 -0.018983 892887.000000 0 0 1
-32.462039 23.662514 2.222985 40.232328 -0.629879 1.515514 0.080579 -0.020049 -1474090.000000 0 0 1
-30.997939 23.525214 2.589785 39.000191 -0.649191 1.504343 0.074410 -0.027423 -628467.000000 0 0 1
-30.144539 24.300314 1.763285 38.759614 -0.678466 1.525288 0.081492 -0.029787 10149.600000 0 0 1
-30.058739 25.646614 2.184485 39.573332 -0.706358 1.515567 0.052288 -0.028766 -453736.000000 0 0 1
-29.246339 26.479114 1.169585 39.469732 -0.735781 1.541160 0.058018 -0.022202 -1906810.000000 0 0 1
-27.926039 26.254714 1.081585 38.345058 -0.754561 1.542586 0.063115 -0.020611 -2205510.000000 0 0 1
-27.415139 27.140214 0.116685 38.577126 -0.780359 1.567772 0.056850 -0.023578 264604.000000 0 0 1
-26.124739 26.753214 -0.652215 37.398688 -0.797283 1.588237 0.046416 -0.026085 -134694.000000 0 0 1
-26.341639 25.739614 -1.676515 36.867606 -0.773839 1.616286 0.059863 -0.025474 -270197.000000 0 0 1
-25.167539 25.237014 -2.292815 35.715107 -0.786777 1.635038 0.057916 -0.018779 810093.000000 0 0 1
-24.236939 24.314214 -1.431615 34.360730 -0.786990 1.612473 0.053044 -0.019277 205678.000000 0 0 1
-24.789939 23.032214 -1.287115 33.862673 -0.748659 1.608815 0.043728 -0.016967 -591880.000000 0 0 1
-23.888839 22.131614 -0.758515 32.573921 -0.747233 1.594084 0.037922 -0.025746 -888997.000000 0 0 1
-24.476639 20.710014 -0.459115 32.065890 -0.702233 1.585115 0.048307 -0.028170 -329680.000000 0 0 1
-25.383639 20.590314 0.606585 32.690337 -0.681512 1.552240 0.042493 -0.027540 808200.000000 0 0 1
-26.732839 21.034514 0.406885 34.018539 -0.666666 1.558835 0.048893 -0.021035 565212.000000 0 0 1
-27.644439 20.407014 -0.651115 34.366920 -0.635904 1.589743 0.047929 -0.020659 -784118.000000 0 0 1
-27.920739 19.072514 -0.321515 33.814669 -0.599290 1.580305 0.059818 -0.018374 379486.000000 0 0 1
-28.784739 18.530514 -1.324915 34.259255 -0.571977 1.609479 0.081009 -0.012194 129447.000000 0 0 1
-29.059739 16.983214 -1.222115 33.680730 -0.528888 1.607090 0.081306 -0.009780 421645.000000 0 0 1
-29.884539 16.625614 -0.075615 34.197989 -0.507689 1.573007 0.094302 -0.014708 710175.000000 0 0 1
-30.005639 15.221314 0.002585 33.645606 -0.469456 1.570719 0.098615 -0.021749 88129.000000 0 0 1
-28.759539 14.400214 0.466885 32.166679 -0.464216 1.556281 0.105474 -0.026802 -215299.000000 0 0 1
-28.575939 14.436914 1.874585 32.070592 -0.467809 1.512311 0.115589 -0.026625 351848.000000 0 0 1
-27.280039 14.074714 2.317885 30.784261 -0.476314 1.495431 0.122909 -0.028861 223160.000000 0 0 1
-26.769339 12.588714 2.148985 29.659592 -0.439579 1.498278 0.130404 -0.029955 -263520.000000 0 0 1
-26.615339 12.247314 0.746185 29.307504 -0.431271 1.545333 0.129339 -0.032448 265780.000000 0 0 1
-26.137239 10.944514 0.625285 28.343053 -0.396550 1.548733 0.142301 -0.027053 -279468.000000 0 0 1
-26.371939 10.216514 -0.742615 28.291479 -0.369598 1.597048 0.151059 -0.025536 278678.000000 0 0 1
-27.700239 9.874914 -1.138315 29.429797 -0.342447 1.609485 0.152198 -0.029425 654864.000000 0 0 1
-27.751739 9.344514 -2.454915 29.385465 -0.324794 1.654436 0.162602 -0.030809 50135.100000 0 0 1
-29.179039 8.917714 -2.878415 30.646814 -0.296605 1.664857 0.165858 -0.032665 67615.200000 0 0 1
-29.201939 8.636814 -4.240115 30.746160 -0.287564 1.709144 0.176826 -0.020651 49856.000000 0 0 1
-30.424439 8.071914 -4.634815 31.816408 -0.259336 1.716990 0.150558 -0.023964 -317302.000000 0 0 1
-11.476427 18.313514 -19.649115 29.209260 -1.011001 2.308650 0.091174 -0.023385 308762.000000 0 0 1
-11.758927 17.286514 -20.537015 29.306397 -0.973458 2.347271 0.069988 -0.026631 -404605.000000 0 0 1
-10.737227 17.235814 -21.490815 29.567152 -1.013665 2.384517 0.066721 -0.028251 -293127.000000 0 0 1
-10.789727 16.131014 -22.574515 29.769725 -0.981262 2.431505 0.052548 -0.021648 -65762.900000 0 0 1
-10.119427 14.946914 -22.196815 28.609642 -0.975657 2.458859 0.060976 -0.028091 -83447.200000 0 0 1
-10.221427 13.980214 -23.210215 28.959248 -0.939478 2.500560 0.046107 -0.029138 -271963.000000 0 0 1
-9.570227 12.618614 -22.984415 27.912399 -0.921927 2.538258 0.028924 -0.021912 378586.000000 0 0 1
-8.150727 12.611814 -23.128015 27.575302 -0.997043 2.565729 0.031287 -0.024528 146979.000000 0 0 1
-7.709027 11.404314 -22.595115 26.458018 -0.976377 2.594420 0.018287 -0.016766 2094680.000000 0 0 1
-6.091727 11.399314 -22.552915 25.993989 -1.080013 2.621193 0.019304 -0.011658 2242930.000000 0 0 1
-5.474827 11.129014 -23.790215 26.829145 -1.113616 2.661020 0.020434 -0.017452 -1027170.000000 0 0 1
-4.095927 11.101114 -23.631915 26.428749 -1.217327 2.677380 0.038119 -0.015917 -375226.000000 0 0 1
-3.213827 10.824814 -24.873715 27.316789 -1.282191 2.715445 0.059559 -0.028870 -90448.600000 0 0 1
-3.134027 9.525414 -25.407585 27.314850 -1.252935 2.765685 0.048906 -0.028796 -211893.000000 0 0 1
-2.457227 9.481114 -26.638275 28.381811 -1.317205 2.789255 0.050969 -0.026752 -519993.000000 0 0 1
-2.308627 8.028814 -27.235245 28.487720 -1.290807 2.843964 0.056639 -0.006817 52897.200000 0 0 1
-1.282027 7.247914 -26.631045 27.629484 -1.395725 2.871939 0.059693 -0.017341 163479.000000 0 0 1
-1.586727 6.603314 -25.428405 26.319674 -1.334975 2.880610 0.066216 -0.022877 503790.000000 0 0 1
-0.324127 5.827014 -24.926915 25.600981 -1.515229 2.911610 0.002967 -0.013654 1118580.000000 0 0 1
0.828073 6.489914 -24.411815 25.273334 1.443888 2.879740 0.030139 -0.000180 365620.000000 0 0 1
1.552173 5.704614 -23.507915 24.239924 1.305137 2.895212 0.021510 0.014676 -24101.800000 0 1 0
1.703273 6.234314 -22.034815 22.963033 1.304096 2.856294 0.026416 0.007933 199105.000000 0 1 0
2.474373 7.425714 -21.953915 23.307470 1.249151 2.799117 0.020345 -0.003042 52364.900000 0 1 0
2.480573 8.073614 -20.718215 22.373666 1.272707 2.754496 0.033697 -0.003492 95589.800000 0 1 0
2.996973 9.524714 -20.897015 23.160036 1.265952 2.695843 0.027289 -0.007745 -162816.000000 0 1 0
3.273973 10.092714 -19.636115 22.319471 1.257116 2.646185 0.033500 -0.019713 -143508.000000 0 1 0
3.672973 11.415714 -19.680615 23.046385 1.259509 2.594339 0.046481 -0.021943 316296.000000 0 1 0
4.851073 11.863914 -18.759715 22.720305 1.182647 2.542204 0.038247 -0.015678 349847.000000 0 1 0
6.077173 11.233714 -18.986015 22.882245 1.074907 2.549415 0.047858 -0.015720 -677510.000000 0 1 0
6.848573 10.971214 -17.848815 22.042021 1.012750 2.514545 0.042642 -0.022457 190040.000000 0 1 0
7.942173 9.932214 -18.283815 22.271616 0.896276 2.533864 0.059921 -0.034167 -176466.000000 0 1 0
7.473273 8.651014 -18.566015 21.803366 0.858310 2.589675 0.051267 -0.026625 37787.000000 0 1 0
6.964873 8.497614 -19.895615 22.727833 0.884202 2.637029 0.043845 -0.010292 175877.000000 0 1 0
6.584273 7.067814 -20.329215 22.507413 0.820802 2.698018 0.048105 -0.005354 -490317.000000 0 1 0
7.702873 6.258714 -20.480415 22.758584 0.682327 2.690333 0.053916 -0.004451 -350799.000000 0 1 0
7.434273 4.861714 -20.589615 22.424026 0.579154 2.734294 0.053897 -0.001161 -257337.000000 0 1 0
7.400373 4.338114 -22.063215 23.672140 0.530212 2.770779 0.063959 -0.011995 -124595.000000 0 1 0
6.309973 4.856514 -22.789115 24.140117 0.655963 2.805453 0.058359 -0.010699 -77245.000000 0 1 0
6.476273 4.598614 -24.177715 25.448993 0.617453 2.824180 0.064181 -0.012145 -86056.300000 0 0 1
5.493773 5.365814 -25.091125 26.240009 0.773616 2.844584 0.044616 -0.018776 23137.100000 0 0 1
5.659373 6.791414 -25.177625 26.684539 0.876070 2.803921 0.046311 -0.022685 161405.000000 0 0 1
5.183173 7.474314 -24.021615 25.685962 0.964470 2.779631 0.052193 -0.023874 -988098.000000 0 0 1
5.008073 8.981814 -24.223615 26.316104 1.062153 2.740120 0.049608 -0.029642 237214.000000 0 0 1
3.998373 9.485314 -25.079125 27.109421 1.171866 2.752115 0.056502 -0.031062 458942.000000 0 0 1
2.665673 9.173914 -24.676515 26.461234 1.288012 2.772218 0.046607 -0.016095 346902.000000 0 0 1
1.523473 9.662814 -25.624995 27.428659 1.414420 2.776923 0.055829 -0.014065 372971.000000 0 0 1
1.324073 11.076614 -25.510865 27.843290 1.451823 2.729364 0.075136 -0.037555 196211.000000 0 0 1
0.215773 11.500614 -26.291405 28.697538 1.552037 2.729177 0.093918 -0.041238 -561203.000000 0 0 1
0.111573 13.023814 -26.520335 29.545902 1.562230 2.685086 0.093109 -0.040646 -252260.000000 0 0 1
-0.265327 13.618214 -25.301305 28.734686 -1.551316 2.647743 0.080098 -0.041023 4138.780000 0 0 1
-0.560627 14.991814 -25.483505 29.571571 -1.533418 2.609519 0.072327 -0.044741 -161603.000000 0 0 1
-1.050627 15.613914 -24.097315 28.732886 -1.503610 2.565627 0.079088 -0.033180 -472909.000000 0 0 1
-2.141227 14.846814 -23.708315 28.055248 -1.427563 2.577470 0.072783 -0.038501 -913031.000000 0 0 1
-2.556527 15.234114 -22.416015 27.223001 -1.404530 2.538212 0.066710 -0.045946 -274048.000000 0 0 1
-3.927827 14.677414 -21.952815 26.697947 -1.309313 2.536178 0.054386 -0.033405 502388.000000 0 0 1
-5.117827 15.177014 -22.577115 27.681402 -1.245562 2.524572 0.059630 -0.037039 179713.000000 0 0 1
-5.270527 14.970014 -24.009115 28.780503 -1.232277 2.557503 0.060920 -0.035476 -461910.000000 0 0 1
-6.721727 15.209214 -24.497015 29.607525 -1.154656 2.545243 0.037418 -0.032865 86608.800000 0 0 1
-7.194627 16.510414 -24.578415 30.470558 -1.159845 2.509222 0.044251 -0.031117 -190508.000000 0 0 1
-8.399627 16.519714 -25.317485 31.375623 -1.100403 2.509708 0.048811 -0.025711 263667.000000 0 0 1
-9.136127 17.919614 -25.542375 32.511449 -1.099308 2.474530 0.059800 -0.024674 -109996.000000 0 0 1
-9.851827 18.500714 -24.527915 32.263811 -1.081480 2.434463 0.066685 -0.029403 -914027.000000 0 0 1
-10.771627 19.358414 -25.051245 33.441606 -1.063029 2.417505 0.074429 -0.019708 -178947.000000 0 0 1
-11.552327 20.296714 -24.071015 33.538435 -1.053353 2.371311 0.074911 -0.020750 222980.000000 0 0 1
-10.806127 21.421114 -23.651415 33.690146 -1.103586 2.349037 0.079131 -0.021324 42871.100000 0 0 1
-11.235527 22.648814 -24.207315 35.002856 -1.110293 2.334472 0.074353 -0.020527 -122904.000000 0 0 1
-10.840627 23.153514 -25.609115 36.186063 -1.132905 2.357043 0.063078 -0.012387 -48830.000000 0 0 1
-11.572927 22.472514 -26.609835 36.701905 -1.095236 2.381868 0.056209 -0.014696 169547.000000 0 0 1
-11.220427 23.054814 -27.857335 37.860977 -1.117858 2.397613 0.065865 -0.011716 192477.000000 0 0 1
-11.822727 22.308914 -29.098255 38.524965 -1.083473 2.426922 0.054807 -0.016414 123874.000000 0 0 1
-11.059627 21.192414 -29.488265 37.960394 -1.089808 2.460391 0.052653 -0.017782 -25754.700000 0 0 1
-10.919727 20.091714 -28.608195 36.624394 -1.072962 2.467260 0.057037 -0.018764 -362391.000000 0 0 1
-9.930527 19.029314 -29.124065 36.179294 -1.089819 2.506459 0.050958 -0.024888 -1558440.000000 0 0 1
-8.652127 19.594414 -29.133725 36.160397 -1.154982 2.507620 0.048391 -0.020048 -832391.000000 0 0 1
-7.704727 18.741014 -29.734735 35.982536 -1.180744 2.543419 0.047536 -0.018719 12479.100000 0 0 1
-7.327427 17.404314 -29.043965 34.643228 -1.172308 2.565089 0.058612 -0.031763 -1065760.000000 0 0 1
-8.364127 16.439814 -29.036615 34.399871 -1.100155 2.575664 0.033772 -0.035018 7544.070000 0 0 1
-7.966027 15.186514 -28.455405 33.223454 -1.087705 2.599218 0.020689 -0.028250 16548.200000 0 0 1
-9.129727 14.187414 -28.257905 32.911150 -0.998998 2.603352 0.021413 -0.021518 374631.000000 0 0 1
-10.018927 14.494914 -27.186875 32.397648 -0.965999 2.566537 0.039398 -0.028389 -341782.000000 0 0 1
-11.257127 13.867114 -27.278285 32.605591 -0.888910 2.561868 0.070683 -0.028193 101060.000000 0 0 1
-12.318727 14.358814 -26.248755 32.356201 -0.861722 2.517072 0.068275 -0.023093 304196.000000 0 0 1
-12.817527 15.694314 -26.473915 33.338696 -0.885956 2.488305 0.061932 -0.023369 171383.000000 0 0 1
-13.837727 15.936614 -25.488965 33.092986 -0.855775 2.449986 0.052601 -0.021054 734154.000000 0 0 1
-14.791227 17.106914 -25.904255 34.386877 -0.857867 2.423889 0.036765 -0.020950 141571.000000 0 0 1
-14.194127 18.391814 -25.944345 34.825868 -0.913512 2.411291 0.048288 -0.019409 115111.000000 0 0 1
-15.085727 19.347014 -26.499335 36.112337 -0.908529 2.394699 0.038465 -0.011723 144291.000000 0 0 1
-14.479227 20.782814 -26.615805 36.741998 -0.962294 2.380956 0.031450 -0.012639 -90990.700000 0 0 1
-15.501527 21.690814 -26.975395 37.927044 -0.950300 2.362063 0.014826 -0.014936 86504.400000 0 0 1
-15.222727 23.129514 -26.995185 38.670995 -0.988712 2.343499 0.024268 -0.011608 -143232.000000 0 0 1
-14.878227 23.780914 -25.639945 38.003951 -1.011739 2.311307 0.004537 -0.012164 59878.700000 0 0 1
-14.539327 25.123714 -25.861645 38.876956 -1.046179 2.298582 0.028714 -0.015405 -185478.000000 0 0 1
-14.119327 25.691514 -24.665815 38.312031 -1.068282 2.270268 0.051712 -0.024542 -78922.400000 0 0 1
-13.623327 27.140214 -24.843815 39.235206 -1.105581 2.256480 0.059818 -0.022245 313162.000000 0 0 1
-14.676627 27.968414 -25.341365 40.494695 -1.087540 2.246946 0.061799 -0.028506 133378.000000 0 0 1
-15.370227 28.650814 -24.305215 40.593799 -1.078402 2.212726 0.059921 -0.035181 -310301.000000 0 0 1
-16.704627 29.153314 -24.857815 41.795589 -1.050472 2.207748 0.052852 -0.032661 -582412.000000 0 0 1
-17.666727 28.157314 -24.947415 41.561053 -1.010452 2.214622 0.049058 -0.028774 -480095.000000 0 0 1
-18.881627 28.654014 -25.489985 42.747020 -0.988154 2.209679 0.037802 -0.028605 -211808.000000 0 0 1
-20.074427 27.738814 -25.313575 42.581704 -0.944344 2.207404 0.027351 -0.017268 -564809.000000 0 0 1
-20.555627 27.735214 -24.001315 42.045678 -0.932991 2.178324 0.043925 -0.023021 14675.300000 0 0 1
-21.669027 26.903114 -23.750915 41.921716 -0.892743 2.173114 0.050709 -0.035696 84224.200000 0 0 1
-22.391327 27.043314 -22.416215 41.655720 -0.879226 2.139014 0.049805 -0.023376 105414.000000 0 0 1
-22.982127 28.344614 -22.137715 42.681070 -0.889498 2.116100 0.042882 -0.007402 279192.000000 0 0 1
-23.494427 28.281814 -20.793615 42.240070 -0.877599 2.085495 0.021837 -0.007447 184804.000000 0 0 1
-24.924027 28.891314 -20.708215 43.413654 -0.858985 2.068032 0.009878 -0.001763 341481.000000 0 0 1
-25.904277 27.893914 -20.986415 43.468743 -0.822365 2.074638 0.008005 0.000167 -813882.000000 0 0 1
-27.153047 28.486714 -20.935715 44.576732 -0.809363 2.059697 0.022105 -0.001529 -776947.000000 0 0 1
-28.336737 27.572514 -21.282115 44.901477 -0.771730 2.064594 0.009946 0.002399 -242202.000000 0 0 1
-28.487077 27.234914 -22.654515 45.458565 -0.762930 2.092497 0.008703 0.004089 523135.000000 0 0 1
-29.771767 26.641314 -22.882515 46.040495 -0.729963 2.090944 0.013936 0.007127 559616.000000 0 0 1
-29.943447 26.282414 -24.346615 46.691894 -0.720377 2.119324 0.008805 0.015964 287945.000000 0 0 1
-29.277517 25.053114 -24.662715 45.750203 -0.707801 2.140133 0.024159 0.016610 1163.660000 0 0 1
-29.426847 24.968114 -26.082005 46.579148 -0.703611 2.165122 0.039212 0.018517 67938.900000 0 0 1
-29.637067 23.541514 -26.559225 46.237983 -0.671272 2.182671 0.042979 0.012056 180157.000000 0 0 1
-28.545197 22.640614 -26.427485 45.009306 -0.670550 2.198337 0.061364 -0.007188 -45834.000000 0 0 1
-28.908657 21.336414 -26.787805 44.816732 -0.635818 2.211449 0.069859 -0.012585 -79157.500000 0 0 1
-27.768997 20.291014 -26.694345 43.536542 -0.631039 2.230836 0.084465 -0.012984 61011.900000 0 0 1
-27.391327 20.026614 -25.359125 42.360775 -0.631314 2.212606 0.078667 -0.007627 -46599.700000 0 0 1
-26.867727 18.692714 -25.259955 41.344379 -0.607855 2.228075 0.062603 -0.014281 -230721.000000 0 0 1
-27.870287 17.521714 -25.115585 41.407197 -0.561247 2.222512 0.055783 -0.004490 -180649.000000 0 0 1
-28.647197 17.370214 -26.293465 42.587939 -0.545075 2.236220 0.052671 -0.008215 10219.300000 0 0 1
-29.121517 16.066614 -26.393885 42.459816 -0.504155 2.241606 0.033511 -0.010601 -287357.000000 0 0 1
-29.841787 15.652314 -27.708575 43.626738 -0.483063 2.258971 0.030679 -0.012692 -777036.000000 0 0 1
-31.073257 16.265614 -27.787055 44.746373 -0.482239 2.240802 0.015998 -0.005333 -1094000.000000 0 0 1
-31.845857 15.628814 -28.751205 45.662350 -0.456232 2.251896 0.017696 -0.001629 55122.400000 0 0 1
-33.131477 16.405314 -29.173325 47.094713 -0.459766 2.238852 0.020891 -0.004688 673721.000000 0 0 1
-34.298849 16.063914 -28.399845 47.339324 -0.438010 2.214198 0.001734 0.004830 14427.900000 0 0 1
-35.418450 16.456814 -29.139835 48.728055 -0.434961 2.211812 0.005558 0.006915 -477914.000000 0 0 1
36.486725 16.237414 -28.358165 48.980815 0.418707 2.188255 0.016012 0.010475 -159283.000000 0 0 1
36.310545 17.088814 -27.201025 48.480708 0.439876 2.166473 0.017898 0.010883 -428881.000000 0 0 1
35.037725 16.873114 -26.671285 47.156141 0.448795 2.171951 0.024775 0.006620 -379802.000000 0 0 1
34.622785 17.782914 -25.517985 46.541775 0.474483 2.151104 0.026507 0.007261 -104395.000000 0 0 1
34.147885 18.988114 -26.077495 46.975124 0.507480 2.159321 0.029776 -0.006275 39818.600000 0 0 1
33.692165 19.887914 -25.093505 46.479836 0.533244 2.141090 0.036165 -0.001172 -605394.000000 0 0 1
33.163655 21.239214 -25.655695 47.001563 0.569623 2.148197 0.045188 -0.016188 603067.000000 0 0 1
31.857975 21.197614 -26.233625 46.394747 0.587110 2.171768 0.051638 -0.017388 485445.000000 0 0 1
30.808715 21.318414 -25.283865 45.198734 0.605310 2.164450 0.057211 -0.012493 -354444.000000 0 0 1
29.411485 21.041414 -25.864305 44.460531 0.620997 2.191658 0.033495 -0.017849 -90078.000000 0 0 1
29.093885 19.737614 -26.298445 43.904849 0.596089 2.213032 0.045235 -0.025049 -997755.000000 0 0 1
27.872085 19.772714 -26.934215 43.511669 0.617013 2.238280 0.059947 -0.029387 -985986.000000 0 0 1
27.387085 18.351314 -27.229745 42.758417 0.590356 2.261173 0.082005 -0.023697 -164191.000000 0 0 1
28.132985 17.580914 -28.184925 43.530948 0.558543 2.275055 0.071436 -0.031500 660597.000000 0 0 1
29.117565 16.785314 -27.481855 43.414649 0.522936 2.256230 0.074446 -0.022797 79934.900000 0 0 1
29.626585 15.521814 -28.226485 43.765234 0.482596 2.271757 0.077336 -0.019595 82049.700000 0 0 1
28.665685 14.512714 -28.544355 42.978141 0.468655 2.297166 0.090706 -0.013132 779513.000000 0 0 1
27.867985 13.991314 -27.424715 41.527057 0.465292 2.292156 0.108362 -0.016367 330592.000000 0 0 1
28.651555 13.085314 -26.427705 41.116428 0.428416 2.268883 0.099866 -0.015865 -81102.800000 0 0 1
29.528655 13.764514 -25.563735 41.411446 0.436195 2.236116 0.097995 -0.016184 -125515.000000 0 0 1
30.213145 12.937514 -24.679515 41.100996 0.404585 2.214873 0.090485 -0.013019 -114357.000000 0 0 1
-15.302927 -31.053879 -23.423815 41.799498 1.112936 2.165647 0.087619 -0.015091 -243817.000000 0 0 1
-14.425327 -30.095379 -23.912615 41.056486 1.123829 2.192514 0.074635 -0.029540 -45750.700000 0 0 1
-14.575327 -29.921679 -25.292505 41.802605 1.117509 2.220620 0.062150 -0.018165 419772.000000 0 0 1
-13.618927 -28.796779 -25.861115 41.030804 1.129036 2.252717 0.059307 -0.019615 68136.300000 0 0 1
-14.119227 -27.510179 -25.583135 40.133020 1.096616 2.261992 0.067260 -0.013427 -101029.000000 0 0 1
-13.452527 -26.475479 -26.238755 39.628193 1.100680 2.294445 0.053035 -0.005845 -348697.000000 0 0 1
-14.008727 -25.047279 -26.017695 38.736689 1.060848 2.307237 0.033327 -0.001002 -182957.000000 0 0 1
-13.769127 -24.631779 -24.718815 37.514440 1.061071 2.290171 0.029640 -0.009170 150363.000000 0 0 1
-14.104927 -23.277879 -24.551715 36.655086 1.026023 2.304741 0.020956 -0.004980 -153926.000000 0 0 1
-13.720627 -22.719679 -23.128015 35.204325 1.027507 2.287583 0.023183 0.000094 1362460.000000 0 0 1
-12.305927 -22.439879 -22.954215 34.378481 1.069186 2.301900 0.024552 -0.009222 1184320.000000 0 0 1
-12.096927 -21.871279 -21.688315 33.091864 1.065579 2.285505 0.015661 -0.012394 763862.000000 0 0 1
-10.608227 -21.453579 -21.447515 32.136994 1.111580 2.301478 0.033229 -0.011899 638735.000000 0 0 1
-10.101027 -20.476279 -22.315115 31.926057 1.112520 2.344742 0.046691 -0.013339 1855430.000000 0 0 1
-8.651127 -20.245579 -22.211815 31.274433 1.166971 2.360611 0.075122 -0.011903 1764740.000000 0 0 1
-8.264427 -19.109279 -23.130515 31.120508 1.162605 2.408721 0.105372 -0.018245 -330514.000000 0 0 1
-8.542127 -17.778879 -22.711615 30.081122 1.122899 2.426469 0.067571 -0.016945 -219726.000000 0 0 1
-8.567427 -16.819979 -23.742015 30.331432 1.099689 2.469873 0.070029 -0.014290 -61724.500000 0 0 1
-7.405127 -16.571579 -24.739215 30.683577 1.150559 2.508614 0.106757 -0.027795 -167082.000000 0 0 1
-7.138627 -17.554679 -25.713725 31.942486 1.184570 2.506473 0.090959 -0.029849 386294.000000 0 0 1
-6.001027 -17.102779 -26.446885 32.061739 1.233338 2.540775 0.082753 -0.030265 366163.000000 0 0 1
-6.117227 -17.723879 -27.843725 33.568279 1.238457 2.548946 0.085066 -0.026232 438229.000000 0 0 1
-7.148627 -17.168879 -28.664735 34.169289 1.176257 2.566062 0.094814 -0.026753 372167.000000 0 0 1
-7.253927 -17.949579 -29.837785 35.568248 1.186736 2.566034 0.112896 -0.034544 -37212.300000 0 0 1
-7.549327 -17.137279 -31.102325 36.304728 1.155853 2.599637 0.121120 -0.035110 1371740.000000 0 0 1
-6.385527 -16.323379 -31.512465 36.059161 1.197909 2.633985 0.106850 -0.031828 1433310.000000 0 0 1
-6.213127 -15.097479 -30.928325 34.972819 1.180386 2.655903 0.096859 -0.034459 -299083.000000 0 0 1
-6.920827 -13.897079 -31.690025 35.288586 1.108745 2.686055 0.101394 -0.029736 310691.000000 0 0 1
-6.447227 -13.693079 -33.027525 36.330215 1.130749 2.711897 0.091201 -0.031753 253878.000000 0 0 1
-7.259727 -12.788779 -33.801055 36.861468 1.054493 2.731228 0.093384 -0.027814 -180909.000000 0 0 1
-7.389727 -11.297379 -33.329125 35.959274 0.991537 2.756750 0.073971 -0.032721 -394684.000000 0 0 1
-6.252027 -10.499479 -33.437415 35.600388 1.033721 2.791215 0.068354 -0.030158 -497300.000000 0 0 1
-5.859927 -10.254879 33.397557 35.424540 1.051650 0.339923 0.054975 -0.027794 -113003.000000 0 0 1
-4.593527 -9.398579 33.193835 34.803224 1.116192 0.305298 0.037707 -0.025211 -174592.000000 0 0 1
-4.545327 -8.979279 31.841726 33.394355 1.102200 0.306133 0.042579 -0.018045 8491.790000 0 0 1
-3.533127 -7.999079 31.671666 32.856699 1.154873 0.269391 0.034786 -0.023026 -1055900.000000 0 0 1
-3.746927 -7.001679 30.568376 31.583042 1.079428 0.254167 0.029908 -0.019636 418111.000000 0 0 1
-4.861827 -6.089079 30.686476 31.660291 0.897001 0.248665 0.031525 -0.013642 318944.000000 0 0 1
-6.085827 -6.740079 30.443466 31.769019 0.836364 0.289890 0.027789 -0.010981 -668041.000000 0 0 1
-7.280227 -5.743679 30.394906 31.778009 0.667962 0.296119 0.018209 -0.002746 861908.000000 0 0 1
-8.563527 -6.369779 30.265636 32.092316 0.639538 0.339022 0.025483 0.006791 227483.000000 0 0 1
-9.589727 -5.409179 30.112466 32.062169 0.513573 0.350533 0.024062 -0.003717 296012.000000 0 0 1
-10.690027 -6.013479 29.196086 31.667807 0.512414 0.397715 0.032069 -0.002188 149142.000000 0 0 1
-10.222127 -6.033979 27.864756 30.287710 0.533246 0.402711 0.018878 0.006370 57189.000000 0 0 1
-11.268327 -6.527479 27.102186 30.068449 0.525042 0.447921 0.027533 0.003325 -309692.000000 0 0 1
-11.142827 -6.310479 25.577936 28.604467 0.515292 0.464169 0.017683 0.002354 -366334.000000 0 0 1
-10.278027 -7.263079 25.044436 28.028805 0.615182 0.465661 0.027362 0.003964 -199196.000000 0 0 1
-9.544027 -6.871079 23.906276 26.642263 0.623980 0.457167 0.025839 -0.005181 -490573.000000 0 0 1
-10.161227 -6.852079 22.541186 25.657485 0.593293 0.497995 0.026660 -0.011436 70876.500000 0 0 1
-11.290027 -5.987679 22.429586 25.814789 0.487633 0.517890 0.008671 -0.006413 849686.000000 0 0 1
-12.183527 -6.165679 21.306386 25.306442 0.468489 0.569936 0.016334 -0.006014 233968.000000 0 0 1
-13.339527 -5.182479 21.270686 25.636753 0.370558 0.592235 0.009020 0.001777 -507432.000000 0 0 1
-12.982727 -3.931479 20.741386 24.783317 0.294045 0.579185 0.005158 0.000529 669251.000000 0 1 0
-14.119327 -3.049779 20.549386 25.118395 0.212732 0.612695 0.007827 0.000800 860794.000000 0 0 1
-13.697027 -1.686779 19.915386 24.229658 0.122532 0.605983 0.004136 -0.000538 -24972.200000 0 1 0
-12.999127 -0.847779 20.797886 24.540743 0.065126 0.559569 0.005700 0.000480 -144266.000000 0 1 0
-13.033827 0.534221 20.530186 24.323950 -0.040964 0.566039 0.021415 -0.009994 -147409.000000 0 1 0
-12.535227 1.107221 19.096986 22.870346 -0.088100 0.582644 0.031802 -0.021521 305377.000000 0 1 0
-13.356327 0.887221 17.944886 22.387442 -0.066330 0.640896 0.037884 -0.015371 633713.000000 0 1 0
-14.653127 1.509221 17.958286 23.226965 -0.102635 0.686979 0.029508 -0.011718 718984.000000 0 1 0
-15.644627 0.778221 17.022286 23.132622 -0.049703 0.743866 0.047109 -0.011584 -205541.000000 0 1 0
-15.906127 -0.534779 17.537586 23.682436 0.033608 0.736936 0.023354 -0.011955 764512.000000 0 1 0
-17.032627 -1.174779 16.923886 24.039725 0.068863 0.789787 0.034572 -0.005943 376016.000000 0 1 0
-17.059527 -2.709779 17.234086 24.400493 0.157526 0.786537 0.032991 -0.004325 -58144.500000 0 1 0
-17.376227 -2.936779 18.581586 25.609241 0.167429 0.758918 0.031913 0.000489 18809.400000 0 0 1
-17.335327 -4.341579 18.696286 25.863371 0.245399 0.762825 0.037618 0.000683 -88961.500000 0 0 1
-17.950127 -4.855379 20.024386 27.326869 0.264171 0.748409 0.036955 0.007359 -5569.200000 0 0 1
-17.177027 -4.373879 21.140286 27.587909 0.249337 0.697753 0.037239 0.007244 552156.000000 0 0 1
-17.924027 -4.338579 22.345186 28.972423 0.237486 0.689983 0.039832 0.001449 -341679.000000 0 0 1
-18.185727 -5.762679 22.972586 29.860824 0.306869 0.693017 0.057488 -0.001911 -267369.000000 0 0 1
-17.164927 -6.468779 23.597046 29.888131 0.360401 0.660782 0.022254 -0.001012 107016.000000 0 0 1
-16.127727 -7.044479 22.794586 28.797941 0.411817 0.657479 0.030646 0.004437 93296.000000 0 0 1
-15.196127 -7.931279 23.663446 29.219619 0.481035 0.626904 0.032051 0.008286 48387.500000 0 0 1
-15.776227 -9.115979 24.254116 30.335664 0.523959 0.644293 0.037969 -0.003756 114979.000000 0 0 1
-15.040727 -9.456379 25.412586 31.007194 0.561269 0.610135 0.044473 0.005446 -149228.000000 0 0 1
-15.829727 -10.179279 26.476536 32.483918 0.571473 0.617953 0.043303 -0.010448 -661428.000000 0 0 1
-15.984427 -11.602879 26.315566 32.903460 0.627889 0.643866 0.053603 -0.021206 -33684.400000 0 0 1
-15.042627 -12.303579 27.086786 33.336956 0.685569 0.622342 0.045088 -0.019191 -43682.100000 0 0 1
-14.833727 -13.780179 26.730166 33.532589 0.748595 0.648253 0.047195 -0.021660 483859.000000 0 0 1
-15.895027 -14.530179 27.359636 34.818495 0.740569 0.666842 0.045686 -0.024659 676135.000000 0 0 1
-15.963827 -15.897079 27.089796 35.233761 0.783303 0.693741 0.058858 -0.016156 -198027.000000 0 0 1
-14.833027 -16.739479 27.709446 35.609580 0.845708 0.679088 0.070759 -0.016600 -157195.000000 0 0 1
-13.625627 -16.695079 26.985916 34.534374 0.886287 0.673855 0.063993 -0.021456 189671.000000 0 0 1
-12.625127 -17.396279 27.741486 35.094364 0.943005 0.659200 0.076429 -0.016765 -322409.000000 0 0 1
-11.353927 -17.723979 26.992366 34.229211 1.001060 0.662305 0.079101 -0.026840 -515609.000000 0 0 1
-10.486527 -18.542279 27.767366 34.997285 1.056095 0.654397 0.086876 -0.025953 36861.700000 0 0 1
-9.479227 -19.189379 27.032656 34.479740 1.111974 0.669688 0.081757 -0.029494 -160897.000000 0 0 1
-8.292727 -19.651279 27.897906 35.117449 1.171474 0.652749 0.085415 -0.026767 -439678.000000 0 0 1
-8.659627 -20.735279 28.661026 36.419710 1.175187 0.664922 0.093100 -0.024903 22104.700000 0 0 1
-7.710527 -21.112979 29.615866 37.179424 1.220642 0.649203 0.093389 -0.027552 -88231.800000 0 0 1
-8.234327 -22.365579 30.396836 38.626297 1.218027 0.664952 0.089793 -0.028280 186247.000000 0 0 1
-8.423627 -23.495479 29.536596 38.670473 1.226551 0.701613 0.086435 -0.031060 170172.000000 0 0 1
-8.773827 -24.661879 30.224216 39.983640 1.228995 0.713746 0.082318 -0.031542 -456398.000000 0 0 1
-8.827127 -25.884479 29.232136 40.030515 1.242144 0.752114 0.075972 -0.026061 -98281.900000 0 0 1
-9.862427 -25.777479 28.260816 39.502146 1.205381 0.773564 0.084017 -0.024503 267365.000000 0 0 1
-9.919327 -26.975179 27.518156 39.790730 1.218423 0.807133 0.057460 -0.019523 -131198.000000 0 0 1
-11.186127 -27.128379 26.635646 39.629988 1.179697 0.833744 0.060547 -0.019861 -103998.000000 0 0 1
-11.302027 -26.329879 25.491126 38.350956 1.165334 0.843730 0.076457 -0.020939 20049.200000 0 0 1
-11.655327 -24.995679 25.743836 37.727651 1.134475 0.819810 0.080277 -0.022927 -299976.000000 0 0 1
-11.773127 -24.279879 24.379346 36.365801 1.119308 0.836059 0.090657 -0.033445 425319.000000 0 0 1
-13.008827 -24.633079 23.748086 36.605870 1.084919 0.864855 0.089257 -0.026653 660256.000000 0 0 1
-13.055727 -24.225979 22.388786 35.476862 1.076504 0.887850 0.096201 -0.033896 -139712.000000 0 0 1
-14.530727 -24.117479 21.966586 35.711702 1.028542 0.908272 0.106311 -0.032537 -10324.500000 0 0 1
-15.140827 -25.352379 21.544386 36.553362 1.032427 0.940486 0.107781 -0.041325 57667.400000 0 0 1
-16.066427 -25.193979 20.503786 36.239093 1.003110 0.969403 0.116246 -0.043931 -313397.000000 0 0 1
-16.680527 -26.565779 20.203186 37.311517 1.010118 0.998608 0.120444 -0.038869 54975.000000 0 0 1
-15.903427 -27.292879 19.253986 36.993731 1.043198 1.023400 0.113393 -0.044821 195134.000000 0 0 1
-16.317127 -28.632479 19.052486 38.066582 1.052817 1.046615 0.118579 -0.042443 -44071.300000 0 0 1
-15.446027 -29.332379 18.003186 37.723771 1.086107 1.073288 0.123658 -0.043387 84060.600000 0 0 1
-15.447127 -28.785179 16.691686 36.685319 1.078272 1.098428 0.111540 -0.045139 -158564.000000 0 0 1
-14.266827 -29.216279 16.067386 36.266984 1.116538 1.111820 0.101560 -0.046243 34217.800000 0 0 1
-14.143827 -28.695779 14.612086 35.171133 1.112854 1.142351 0.103172 -0.032947 -29842.300000 0 0 1
-14.047427 -27.293279 14.571886 33.979304 1.095470 1.127581 0.107869 -0.040393 -115465.000000 0 0 1
-14.393827 -26.682179 13.306486 33.108661 1.076085 1.157202 0.098898 -0.034447 586072.000000 0 0 1
-13.301227 -26.752579 12.141086 32.249481 1.109396 1.184809 0.089502 -0.033190 691592.000000 0 0 1
-13.694527 -26.084979 10.958486 31.433335 1.087352 1.214691 0.079338 -0.017794 322482.000000 0 0 1
-12.860127 -26.464279 9.831186 31.022461 1.118458 1.248331 0.073261 -0.013100 376964.000000 0 0 1
-13.179227 -25.808179 8.483086 30.194649 1.098656 1.286016 0.077275 -0.004543 978829.000000 0 0 1
-14.311227 -26.436179 7.789086 31.054027 1.074618 1.317265 0.084489 -0.013158 1016900.000000 0 0 1
-14.613327 -25.717279 6.592886 30.305014 1.054065 1.351492 0.082883 -0.014752 -131967.000000 0 0 1
-15.722927 -26.407679 5.794886 31.275495 1.033772 1.384434 0.083062 -0.014782 -64014.800000 0 0 1
-15.287427 -27.455079 4.915686 31.806457 1.062735 1.415624 0.092411 -0.013418 -154531.000000 0 0 1
-16.019027 -27.482779 3.714586 32.026715 1.043064 1.454551 0.094152 -0.008745 -544849.000000 0 0 1
-15.596127 -28.632279 2.759686 32.720978 1.072028 1.486356 0.082092 -0.009814 178013.000000 0 0 1
-14.235327 -28.523979 2.361986 31.966246 1.107897 1.496839 0.076310 -0.009517 114503.000000 0 0 1
-13.858427 -29.539579 1.412086 32.659404 1.132134 1.527546 0.062384 -0.017013 912077.000000 0 0 1
-12.494427 -29.134279 0.734686 31.708936 1.165664 1.547625 0.037830 -0.016162 753424.000000 0 0 1
-12.540627 -28.406279 -0.485414 31.055106 1.155055 1.586428 0.053838 -0.018579 -155002.000000 0 0 1
-12.461627 -26.990679 -0.381814 29.731039 1.138254 1.583639 0.056538 -0.022019 -219826.000000 0 0 1
-12.111327 -26.269879 -1.709114 28.977782 1.138804 1.629811 0.065762 -0.021252 1351560.000000 0 0 1
-10.760427 -26.602979 -2.135814 28.776153 1.186432 1.645086 0.065128 -0.025282 745125.000000 0 0 1
-10.467627 -25.964579 -3.364314 28.196616 1.187577 1.690398 0.075487 -0.031369 -428187.000000 0 0 1
-9.069427 -26.312279 -3.833614 28.094254 1.238865 1.707679 0.066734 -0.030463 -529460.000000 0 0 1
-8.587627 -25.542979 -4.908414 27.391306 1.246465 1.750966 0.069433 -0.038262 376840.000000 0 0 1
-7.234627 -25.915979 -5.198214 27.404365 1.298570 1.761638 0.070285 -0.027362 941433.000000 0 0 1
-6.488427 -24.842579 -6.062814 26.382023 1.315322 1.802677 0.058043 -0.027048 -150376.000000 0 0 1
-6.937927 -24.797579 -7.437814 26.802534 1.297989 1.851992 0.075208 -0.024779 116128.000000 0 0 1
-6.394827 -23.638979 -8.058714 25.780574 1.306599 1.888713 0.073434 -0.021635 -319525.000000 0 0 1
-6.561227 -23.704279 -9.612114 26.407106 1.300762 1.943352 0.073946 -0.024384 162202.000000 0 0 1
-5.661027 -24.662979 -10.184614 27.277025 1.345169 1.953443 0.055932 -0.024455 232599.000000 0 0 1
-5.735127 -24.907379 -11.587114 28.062972 1.344483 1.996429 0.041851 -0.020700 569981.000000 0 0 1
-7.128927 -25.438879 -12.106514 29.060727 1.297567 2.000491 0.041490 -0.027321 837915.000000 0 0 1
-7.323227 -25.190779 -13.465114 29.487528 1.287884 2.045008 0.047045 -0.019210 -229783.000000 0 0 1
-8.520627 -25.866379 -13.751414 30.508557 1.252582 2.038390 0.065152 -0.021498 -689364.000000 0 0 1
-8.692927 -25.745079 -15.243414 31.156664 1.245162 2.082027 0.068078 -0.021833 -57033.200000 0 0 1
-7.885027 -26.495979 -16.144614 32.013421 1.281549 2.099376 0.055920 -0.029622 1176590.000000 0 0 1
-6.526027 -25.977979 -16.224014 31.315540 1.324676 2.115403 0.059103 -0.025276 836407.000000 0 0 1
-5.524727 -26.984079 -16.834314 32.280912 1.368847 2.119398 0.054241 -0.023783 -257085.000000 0 0 1
-5.474927 -26.927379 -18.207314 32.963083 1.370209 2.155983 0.088455 -0.023757 341429.000000 0 0 1
-4.491727 -27.805379 -18.752914 33.837649 1.410638 2.158201 0.083118 -0.031681 324317.000000 0 0 1
-25.197337 14.820814 -5.494215 29.744726 -0.531690 1.756575 0.079850 -0.028718 85383.500000 0 0 1
-25.355677 13.474314 -5.031715 29.151083 -0.488460 1.744273 0.089381 -0.030784 822262.000000 0 0 1
-24.083227 12.856814 -4.805715 27.719928 -0.490359 1.745044 0.105468 -0.029669 296488.000000 0 0 1
-24.248727 11.410014 -4.297915 27.141504 -0.439804 1.729818 0.130543 -0.036577 26376.900000 0 0 1
-24.565627 10.393114 -5.258515 27.187108 -0.400239 1.765443 0.116458 -0.025740 239080.000000 0 0 1
-25.959837 10.330114 -5.486815 28.473313 -0.378718 1.764710 0.121160 -0.029495 -295223.000000 0 0 1
-26.351007 9.745314 -6.809715 28.908804 -0.354228 1.808590 0.132791 -0.023625 -287787.000000 0 0 1
-26.268177 10.594414 -7.932715 29.414056 -0.383363 1.843869 0.151311 -0.021411 -223034.000000 0 0 1
-26.696757 9.922614 -9.080715 29.893720 -0.355856 1.879440 0.145351 -0.023911 -424761.000000 0 0 1
-27.166167 10.877014 -10.169415 30.979462 -0.380841 1.905261 0.099703 -0.022310 34718.800000 0 0 1
-26.030067 11.539214 -10.693615 30.414984 -0.417271 1.930066 0.108212 -0.029182 591709.000000 0 0 1
-26.351127 12.336014 -11.833015 31.409861 -0.437836 1.957059 0.094891 -0.034273 -548680.000000 0 0 1
-25.183647 13.217814 -12.202015 30.948600 -0.483335 1.976067 0.077269 -0.034108 -710970.000000 0 0 1
-25.126617 14.404114 -11.462615 31.148305 -0.520527 1.947655 0.068886 -0.028709 332888.000000 0 0 1
-24.153927 15.293714 -11.980515 30.997461 -0.564458 1.967630 0.049961 -0.028297 -262868.000000 0 0 1
-24.190927 16.638614 -11.280415 31.453016 -0.602494 1.937610 0.038093 -0.024050 -169948.000000 0 0 1
-23.438027 16.692614 -10.047715 30.478534 -0.618868 1.906745 0.039507 -0.016836 445472.000000 0 0 1
-23.490427 18.023614 -9.495415 31.093628 -0.654466 1.881135 0.011587 -0.004390 99733.500000 0 0 1
-22.404427 18.184414 -8.389915 30.050323 -0.681801 1.853753 0.019755 0.005506 -29813.800000 0 0 1
-22.799927 17.712614 -7.084315 29.728116 -0.660478 1.811415 0.037348 -0.000536 223354.000000 0 0 1
-23.210627 18.802714 -6.273515 30.522651 -0.680864 1.777808 0.034608 -0.000193 -141468.000000 0 0 1
-23.744627 18.366114 -4.901515 30.416218 -0.658363 1.732650 0.035122 0.001047 -40153.600000 0 0 1
-22.634427 18.072814 -4.095615 29.252657 -0.673805 1.711266 0.048816 -0.021444 121572.000000 0 0 1
-23.008227 17.756414 -2.779615 29.195805 -0.657271 1.666147 0.048354 -0.015611 -211831.000000 0 0 1
-21.788627 17.498914 -1.883315 28.008983 -0.676641 1.638087 0.054825 -0.035532 -391020.000000 0 0 1
-21.122527 18.655014 -1.427615 28.217172 -0.723445 1.621412 0.048096 -0.033245 430718.000000 0 0 1
-20.058327 18.314714 -0.526215 27.166931 -0.739991 1.590167 0.078296 -0.043837 464178.000000 0 0 1
-19.381927 19.628914 -0.108915 27.585598 -0.791729 1.574745 0.058507 -0.043485 -761662.000000 0 0 1
-20.287427 20.342814 0.627285 28.736793 -0.786761 1.548966 0.052853 -0.035491 -145536.000000 0 0 1
-19.857127 21.678314 0.800885 29.409118 -0.829217 1.543560 0.058262 -0.032959 602684.000000 0 0 1
-20.931827 22.398214 1.685385 30.702799 -0.819228 1.515875 0.043466 -0.028342 393529.000000 0 0 1
-20.884027 21.880214 3.041085 30.399581 -0.808689 1.470592 0.047079 -0.024955 -217209.000000 0 0 1
-22.089327 21.995514 3.746485 31.397088 -0.783270 1.451185 0.034598 -0.025028 -194832.000000 0 0 1
-21.853827 21.671314 5.266685 31.224567 -0.781205 1.401315 0.033975 -0.021568 -214569.000000 0 0 1
-21.110227 22.629914 6.002585 31.524367 -0.820128 1.379216 0.024704 -0.014217 153467.000000 0 0 1
-20.508827 22.014314 7.169385 30.929631 -0.820787 1.336872 0.018481 -0.006741 -469447.000000 0 0 1
-21.344827 21.747514 8.413685 31.612436 -0.794743 1.301398 0.018268 -0.020498 -300368.000000 0 0 1
-22.435727 20.821514 8.225885 31.694834 -0.748099 1.308257 0.033118 -0.015544 950230.000000 0 0 1
-22.926827 20.220514 9.421285 31.988579 -0.722758 1.271843 0.050388 -0.018927 -148197.000000 0 0 1
-23.462227 21.116914 10.581385 33.292129 -0.732837 1.247352 0.052892 -0.021636 -435670.000000 0 0 1
-24.590327 21.838014 10.085085 34.399011 -0.726187 1.273246 0.064903 -0.021861 551487.000000 0 0 1
-25.342107 22.275114 11.211685 35.554254 -0.721078 1.249981 0.068867 -0.020921 33951.300000 0 0 1
-25.940527 23.693214 10.966885 36.804237 -0.740151 1.268222 0.078649 -0.024652 203963.000000 0 0 1
-26.737477 24.082414 12.077685 37.956894 -0.733201 1.246972 0.077323 -0.021311 242532.000000 0 0 1
-27.302487 25.389114 11.971285 39.157944 -0.749101 1.260104 0.078154 -0.019500 432891.000000 0 0 1
-27.847017 25.945614 13.284385 40.312605 -0.750066 1.234986 0.089634 -0.021683 442682.000000 0 0 1
-26.728457 25.983014 14.151985 39.872373 -0.771257 1.207955 0.057408 -0.019039 395560.000000 0 0 1
-27.052047 26.679214 15.363985 40.983481 -0.778459 1.186526 0.077061 -0.023279 583934.000000 0 0 1
-25.885267 26.587914 16.400285 40.570107 -0.798788 1.154643 0.054790 -0.028923 489636.000000 0 0 1
-25.518797 25.291314 16.938285 39.721091 -0.780921 1.130254 0.070229 -0.030837 522647.000000 0 0 1
-24.446127 25.483714 17.873385 39.578917 -0.806176 1.102251 0.053577 -0.030495 -35449.700000 0 0 1
-24.025527 24.138114 18.417285 38.717837 -0.787736 1.075060 0.069233 -0.028541 196862.000000 0 0 1
-22.840727 24.289714 19.228485 38.489267 -0.816133 1.047682 0.070302 -0.036878 952817.000000 0 0 1
-22.428627 23.000614 19.626485 37.646653 -0.797988 1.022383 0.074880 -0.044720 -542364.000000 0 0 1
-20.997127 22.934414 20.194685 37.076839 -0.829467 0.994799 0.063375 -0.040478 -711850.000000 0 0 1
-20.113727 23.125514 19.109185 36.118034 -0.854940 1.013285 0.066377 -0.048622 -55509.500000 0 0 1
-18.752527 22.899714 19.396585 35.387592 -0.884638 0.990684 0.056803 -0.048250 -102833.000000 0 0 1
-18.301827 21.417414 19.226585 34.107537 -0.863678 0.971932 0.049001 -0.028940 -839048.000000 0 0 1
-18.742627 20.464914 20.151985 34.295791 -0.829297 0.942715 0.069561 -0.032443 133080.000000 0 0 1
-18.125727 20.659614 21.425885 34.848675 -0.850637 0.908631 0.061890 -0.020228 -8892.840000 0 0 1
-19.010627 20.329814 22.688985 35.909543 -0.818918 0.886875 0.040740 -0.017886 554490.000000 0 0 1
-20.166827 21.168014 22.732785 37.034649 -0.809615 0.909900 0.062748 -0.027584 414215.000000 0 0 1
-20.963427 20.950414 23.856785 38.046436 -0.785088 0.893044 0.055664 -0.012100 474395.000000 0 0 1
-22.192327 21.910514 24.029985 39.370169 -0.779008 0.914281 0.066804 -0.019743 111066.000000 0 0 1
-21.791727 23.198214 24.475685 40.150911 -0.816650 0.915250 0.084658 -0.029435 389597.000000 0 0 1
-22.814727 24.161314 24.743085 41.430678 -0.814056 0.930770 0.085625 -0.033412 -9640.160000 0 0 1
-23.556127 24.676314 23.464885 41.405464 -0.808619 0.968289 0.062364 -0.032429 307644.000000 0 0 1
-24.648627 23.799714 23.176785 41.365983 -0.767878 0.976065 0.056755 -0.031741 58071.100000 0 0 1
-25.266047 24.108014 21.973885 41.260406 -0.761948 1.009167 0.046060 -0.035237 -358715.000000 0 0 1
-26.429847 23.180214 21.650485 41.286834 -0.719988 1.018795 0.056295 -0.028309 284573.000000 0 0 1
-27.680197 23.383414 22.312985 42.554044 -0.701450 1.018851 0.068170 -0.036869 562476.000000 0 0 1
-28.650547 22.448314 21.920585 42.488736 -0.664612 1.028721 0.093034 -0.032023 -553895.000000 0 0 1
-30.082067 22.819514 22.254685 43.828438 -0.648967 1.038204 0.114895 -0.022184 -1100990.000000 0 0 1
-30.640647 23.830714 21.415985 44.332794 -0.661025 1.066635 0.115415 -0.034680 371482.000000 0 0 1
-32.042877 24.028414 21.410485 45.414970 -0.643426 1.079872 0.115576 -0.028457 250577.000000 0 0 1
-32.855417 22.908414 20.732885 45.101290 -0.608877 1.093143 0.129663 -0.034550 -1641920.000000 0 0 1
-33.027507 21.700214 21.423885 44.952178 -0.581305 1.074021 0.118976 -0.031005 221102.000000 0 0 1
-33.692777 20.673914 20.719385 44.630784 -0.550360 1.088020 0.136674 -0.026281 -724527.000000 0 0 1
-35.182348 20.926514 20.563285 45.810100 -0.536588 1.105284 0.130593 -0.031537 -1644930.000000 0 0 1
-35.800554 20.100714 19.651785 45.518249 -0.511602 1.124382 0.135845 -0.029647 -117835.000000 0 0 1
36.002865 20.187714 19.807885 45.783211 0.511040 1.123372 0.120882 -0.032240 276537.000000 0 0 1
35.195605 19.370514 18.763685 44.339862 0.503125 1.133846 0.135885 -0.028598 27256.400000 0 0 1
35.403845 17.943014 18.969885 43.991369 0.469081 1.124954 0.149550 -0.032185 260079.000000 0 0 1
34.757305 17.238214 17.957985 42.751790 0.460410 1.137293 0.158011 -0.049031 -27279.000000 0 0 1
35.223355 15.764414 17.999185 42.581359 0.420819 1.134373 0.164332 -0.064097 15328.400000 0 0 1
34.538245 15.008214 17.021685 41.326440 0.409922 1.146276 0.188281 -0.055681 -12588.600000 0 0 1
35.018645 13.718214 16.824485 41.201435 0.373366 1.150154 0.166061 -0.045807 28505.500000 0 0 1
34.075755 12.894814 15.900985 39.752668 0.361762 1.159282 0.145612 -0.054967 96667.000000 0 0 1
34.117175 13.287014 14.554985 39.400177 0.371381 1.192418 0.144991 -0.055979 -67560.000000 0 0 1
33.325835 12.426814 13.785985 38.145647 0.356918 1.201023 0.148763 -0.051428 -385432.000000 0 0 1
33.487025 12.771214 12.271885 37.882502 0.364351 1.240899 0.168389 -0.055623 -373084.000000 0 0 1
34.764695 12.598414 11.724485 38.791334 0.347671 1.263749 0.154726 -0.046703 -118622.000000 0 0 1
34.716155 12.704814 10.300385 38.376056 0.350824 1.299058 0.131429 -0.037058 -95983.800000 0 0 1
36.112855 12.640514 9.661085 39.462102 0.336700 1.323463 0.115507 -0.027740 -295964.000000 0 0 1
-36.371857 11.422114 9.912885 39.390887 -0.304285 1.316407 0.120485 -0.026850 1006770.000000 0 0 1
-35.021834 11.477914 9.417785 38.039007 -0.316704 1.320612 0.121220 -0.021406 485257.000000 0 0 1
-34.751293 11.203514 7.900585 37.357601 -0.311871 1.357702 0.128821 -0.033627 -282896.000000 0 0 1
-35.265179 12.254014 7.061685 37.995540 -0.334430 1.383854 0.111881 -0.038166 284027.000000 0 0 1
-34.676879 12.058414 5.782785 37.166273 -0.334657 1.414569 0.129164 -0.047594 85915.500000 0 0 1
-35.459864 12.738514 4.606785 37.959112 -0.344880 1.449135 0.147111 -0.041756 348202.000000 0 0 1
36.465005 12.136014 4.347285 38.676586 0.321282 1.458157 0.146924 -0.043202 154369.000000 0 0 1
35.396905 13.004314 4.286885 37.953003 0.352078 1.457602 0.122083 -0.041987 -357411.000000 0 0 1
34.928385 13.626514 5.629885 37.912657 0.371966 1.421749 0.134666 -0.033081 -1252360.000000 0 0 1
34.061965 14.720214 5.477685 37.508762 0.407919 1.424235 0.127924 -0.025816 -36002.600000 0 0 1
33.671005 15.353314 6.711485 37.609904 0.427816 1.391385 0.120672 -0.026504 -544434.000000 0 0 1
32.360005 14.857314 7.267985 36.341895 0.430417 1.369449 0.128093 -0.039037 -895950.000000 0 0 1
32.502475 13.542314 7.776885 36.059466 0.394781 1.353420 0.152030 -0.037501 362438.000000 0 0 1
31.239015 12.921414 8.000985 34.739815 0.392201 1.338398 0.148874 -0.035321 318082.000000 0 0 1
30.962965 11.813614 6.930185 33.856966 0.364492 1.364649 0.150538 -0.037382 -288442.000000 0 0 1
30.625155 12.283914 5.631685 33.474028 0.381459 1.401752 0.155748 -0.046776 108202.000000 0 0 1
30.745355 11.130214 4.772285 33.044413 0.347336 1.425869 0.152618 -0.046736 -260126.000000 0 0 1
30.200195 11.303014 3.349685 32.419598 0.358130 1.467289 0.123892 -0.052896 -273190.000000 0 0 1
28.818865 11.076414 3.237485 31.043441 0.366939 1.466317 0.091983 -0.051665 -177140.000000 0 0 1
28.315795 11.398314 1.979885 30.588000 0.382696 1.506024 0.102029 -0.052041 -392797.000000 0 0 1
26.828485 11.097814 1.783985 29.087999 0.392225 1.509427 0.131330 -0.041748 -284364.000000 0 0 1
26.502085 9.735614 1.679185 28.283606 0.352049 1.511392 0.090099 -0.037985 -554152.000000 0 0 1
25.136685 9.465714 1.618385 26.908583 0.360146 1.510616 0.093658 -0.036011 -936096.000000 0 0 1
25.021985 7.934114 1.690185 26.304118 0.307057 1.506497 0.094623 -0.028281 159612.000000 0 0 1
25.509585 7.338014 2.894785 26.701408 0.280095 1.462170 0.104088 -0.024506 -126485.000000 0 0 1
26.893085 7.206614 3.028585 28.006172 0.261821 1.462445 0.130505 -0.031000 -822730.000000 0 0 1
27.349685 6.590414 4.370685 28.470015 0.236461 1.416668 0.124915 -0.040348 -503937.000000 0 0 1
28.752665 6.521614 4.448085 29.816651 0.223044 1.421056 0.152705 -0.037802 -74717.000000 0 0 1
29.092665 5.854114 5.606885 30.200844 0.198571 1.384060 0.140528 -0.022665 -34882.700000 0 0 1
30.620375 5.757214 5.864685 31.704060 0.185849 1.384743 0.142544 -0.033039 9900.090000 0 0 1
31.098725 7.023914 6.066685 32.454133 0.222132 1.382759 0.147917 -0.039848 -1460670.000000 0 0 1
32.439295 6.958714 6.376185 33.784424 0.211313 1.380926 0.137044 -0.026751 -797152.000000 0 0 1
32.983815 8.173914 7.141985 34.723953 0.242922 1.363639 0.115627 -0.029903 -71708.500000 0 0 1
32.567315 8.183114 8.490485 34.636422 0.246171 1.323141 0.134253 -0.033201 -6622.540000 0 0 1
33.207205 9.109714 9.328485 35.675286 0.267743 1.306238 0.128422 -0.028963 -307500.000000 0 0 1
32.672685 9.047314 10.761085 35.569077 0.270139 1.263439 0.132243 -0.028245 -1098360.000000 0 0 1
31.403955 9.567614 10.917785 34.596903 0.295729 1.249738 0.121401 -0.030369 -647410.000000 0 0 1
30.969935 9.439814 12.247085 34.615576 0.295860 1.209163 0.101394 -0.031456 122152.000000 0 0 1
29.596105 10.121914 12.552985 33.704006 0.329532 1.189151 0.083456 -0.035270 187353.000000 0 0 1
29.585515 11.525314 12.437485 34.100244 0.371474 1.197450 0.105360 -0.043890 198584.000000 0 0 1
29.473325 12.145214 11.139285 33.767837 0.390872 1.234621 0.110278 -0.044075 -900639.000000 0 0 1
28.163785 12.088014 10.371685 32.355691 0.405426 1.244484 0.079027 -0.036538 -681034.000000 0 0 1
28.058285 12.965114 9.265985 32.267941 0.432852 1.279538 0.067650 -0.030428 -394187.000000 0 0 1
26.808085 12.747014 8.681985 30.927927 0.443849 1.286256 0.061356 -0.020231 -578653.000000 0 0 1
26.532685 13.799014 7.586685 30.853751 0.479579 1.322357 0.050457 -0.027920 2942.610000 0 0 1
26.457585 15.033714 8.258385 31.531211 0.516724 1.305794 0.053673 -0.022321 145970.000000 0 0 1
26.566585 16.131714 7.412485 31.952474 0.545710 1.336679 0.037267 -0.017313 -938418.000000 0 0 1
26.390085 17.556914 8.065185 32.706712 0.587045 1.321635 0.062123 -0.020243 316980.000000 0 0 1
25.105585 18.104714 8.317885 32.050870 0.624775 1.308270 0.060892 -0.020646 362196.000000 0 0 1
24.138785 17.246914 8.936185 30.983744 0.620385 1.278225 0.065218 -0.020779 -32255.300000 0 0 1
22.820685 18.036514 9.224485 30.515416 0.668834 1.263703 0.071044 -0.026184 172658.000000 0 0 1
22.198185 18.327314 7.970085 29.869250 0.690170 1.300692 0.084360 -0.028018 -540772.000000 0 0 1
21.230785 19.296914 8.170085 29.830646 0.737717 1.293369 0.123332 -0.035875 -340765.000000 0 0 1
20.672985 19.801714 6.797785 29.422612 0.763875 1.337650 0.118524 -0.031571 322707.000000 0 0 1
21.617785 20.580014 6.073285 30.458996 0.760810 1.370059 0.076599 -0.014894 359372.000000 0 0 1
21.083685 20.723014 4.751785 29.942354 0.776771 1.411425 0.099267 -0.027980 125656.000000 0 0 1
18.807173 17.334214 32.381435 41.264295 0.744665 0.668532 0.055457 -0.014721 -317723.000000 0 0 1
17.695673 17.927714 31.763476 40.539587 0.791912 0.670490 0.070966 -0.016828 21171.500000 0 0 1
16.974873 16.970414 31.030506 39.230518 0.785267 0.658389 0.065888 -0.021656 -111503.000000 0 0 1
16.180273 17.513214 29.861476 38.212846 0.824938 0.673808 0.069375 -0.026193 -156106.000000 0 0 1
17.029073 17.936514 28.829376 37.984744 0.811345 0.709063 0.074152 -0.017026 934964.000000 0 0 1
16.203773 18.485714 27.728116 37.055799 0.851085 0.725331 0.066648 -0.026123 1172050.000000 0 0 1
17.112973 18.822614 26.494466 36.730115 0.832937 0.765078 0.076277 -0.022697 213160.000000 0 0 1
18.108673 19.761014 26.839406 37.931193 0.829003 0.784727 0.072401 -0.030209 223016.000000 0 0 1
19.025573 19.875214 25.744546 37.679944 0.807236 0.818602 0.073678 -0.031778 -384227.000000 0 0 1
20.000873 21.011614 25.911766 38.896561 0.810038 0.841733 0.086022 -0.032949 -327436.000000 0 0 1
19.358473 22.294514 25.770266 39.190591 0.855770 0.853217 0.076429 -0.035340 416269.000000 0 0 1
20.129373 23.342914 26.320296 40.531978 0.859186 0.864039 0.082059 -0.041444 -479683.000000 0 0 1
19.390273 24.631314 26.226446 40.871882 0.903897 0.874117 0.089322 -0.043727 -263182.000000 0 0 1
19.417573 25.121114 24.902996 40.351849 0.912763 0.905686 0.089357 -0.047580 62490.300000 0 0 1
18.519373 26.192414 24.852186 40.578823 0.955354 0.911650 0.084028 -0.037556 -179745.000000 0 0 1
18.556273 27.096014 23.646696 40.468450 0.970322 0.946749 0.075322 -0.036365 -414484.000000 0 0 1
19.704773 27.893614 23.569136 41.495011 0.955771 0.966723 0.081665 -0.038795 -375715.000000 0 0 1
19.543373 28.908114 22.638786 41.594917 0.976325 0.995280 0.073426 -0.022756 280873.000000 0 0 1
20.777673 29.857614 22.450586 42.745966 0.962833 1.017835 0.084879 -0.016514 -52471.900000 0 0 1
21.695673 29.303214 21.574986 42.365795 0.933477 1.036478 0.084582 -0.024144 -1453900.000000 0 0 1
22.810173 30.085414 21.410286 43.403185 0.922080 1.054930 0.100862 -0.033622 -767844.000000 0 0 1
23.167973 30.085914 19.967286 42.902327 0.914580 1.086696 0.094172 -0.030252 -33483.300000 0 0 1
22.330273 30.945614 19.198086 42.718130 0.945722 1.104688 0.067389 -0.019538 135918.000000 0 0 1
22.686473 31.000914 17.811386 42.343573 0.939045 1.136646 0.068037 -0.006292 -77402.300000 0 0 1
22.154673 32.134114 16.831486 42.505643 0.967190 1.163659 0.080532 -0.019054 -44018.100000 0 0 1
22.877973 33.344314 17.115486 43.911101 0.969451 1.170408 0.081429 -0.021065 472161.000000 0 0 1
22.874473 -33.978479 16.020586 43.982243 -0.978281 1.197968 0.076642 -0.019704 -183441.000000 0 0 1
23.908973 33.876314 14.923986 44.067777 0.956207 1.225304 0.057939 -0.014656 -345297.000000 0 0 1
23.658173 32.816014 14.047786 42.824528 0.946159 1.236578 0.079284 -0.015034 259848.000000 0 0 1
22.676973 33.027414 13.018386 42.125213 0.969113 1.256613 0.058311 -0.015403 135758.000000 0 0 1
22.320073 31.722214 12.266586 40.681121 0.957652 1.264499 0.060821 -0.032849 -291689.000000 0 0 1
23.335773 31.179014 11.440786 40.590403 0.928291 1.285065 0.076651 -0.051754 -66807.600000 0 0 1
22.788273 30.042514 10.785586 39.219726 0.921856 1.292202 0.068260 -0.050405 -1187710.000000 0 0 1
23.774173 29.379814 9.777986 39.038363 0.890470 1.317629 0.070204 -0.044551 1413540.000000 0 0 1
24.972473 28.745814 10.304686 39.447849 0.855526 1.306507 0.067968 -0.039219 1118460.000000 0 0 1
25.801573 29.633114 11.023086 40.808713 0.854407 1.297283 0.065643 -0.039589 -1809950.000000 0 0 1
27.205773 29.124014 11.384386 41.448360 0.819439 1.292556 0.071809 -0.038381 5109.560000 0 0 1
27.301673 28.170914 12.452086 41.158671 0.801067 1.263441 0.069428 -0.030839 230353.000000 0 0 1
28.645373 28.097214 12.908286 42.150144 0.775738 1.259550 0.060063 -0.012862 311733.000000 0 0 1
28.834273 27.092914 14.049586 41.986095 0.754272 1.229589 0.045223 -0.023852 144851.000000 0 0 1
30.048473 27.283914 14.752486 43.185166 0.737216 1.222167 0.046140 -0.031582 175722.000000 0 0 1
30.167073 26.310514 15.795186 43.032352 0.717219 1.194957 0.049326 -0.029290 1070520.000000 0 0 1
31.423473 26.578114 16.748186 44.433462 0.702053 1.184320 0.065465 -0.043688 2252830.000000 0 0 1
32.725573 26.441114 16.138086 45.061441 0.679579 1.204527 0.076212 -0.032642 951315.000000 0 0 1
33.817473 26.426114 17.035486 46.175413 0.663317 1.192939 0.074192 -0.035802 1016630.000000 0 0 1
35.223073 26.479914 16.346186 47.000516 0.644638 1.215586 0.095319 -0.039379 605817.000000 0 0 1
35.375473 27.746314 15.718886 47.627360 0.665117 1.234451 0.086117 -0.024489 541119.000000 0 0 1
-36.424739 27.973914 15.530586 48.481961 -0.654917 1.244711 0.106759 -0.024195 1099600.000000 0 0 1
-36.183239 29.004714 14.469886 48.578574 -0.675720 1.268340 0.072919 -0.019075 20358.000000 0 0 1
-36.467139 30.290614 14.978486 49.716482 -0.693139 1.264764 0.065280 -0.021610 -40459.700000 0 0 1
36.603473 31.277914 14.002386 50.141689 0.707105 1.287777 0.048812 0.005364 450099.000000 0 0 1
35.485273 32.329614 14.376286 50.110739 0.738898 1.279817 0.029730 0.001159 60779.700000 0 0 1
35.257573 33.272814 13.340286 50.280611 0.756445 1.302264 -0.001207 0.007604 316292.000000 0 0 1
34.257073 -33.990479 13.641386 50.149647 -0.781492 1.295311 -0.007864 0.010323 1644590.000000 0 0 1
32.731873 33.804314 13.473886 48.945406 0.801515 1.291911 0.028804 0.005192 1121450.000000 0 0 1
32.263773 32.787014 14.362786 48.189511 0.793442 1.268149 0.029844 -0.009924 -240642.000000 0 0 1
31.262873 32.078414 13.699986 46.841023 0.798273 1.273979 0.048417 -0.006869 -556198.000000 0 0 1
30.575773 30.930814 14.494886 45.844246 0.791171 1.249100 0.068946 -0.014685 141233.000000 0 0 1
29.725673 31.382314 15.541886 45.934905 0.812502 1.225638 0.066963 -0.017603 36620.000000 0 0 1
29.285073 30.347814 16.357686 45.234712 0.803218 1.200794 0.074622 -0.020539 -67529.000000 0 0 1
28.386073 30.828414 17.505586 45.415920 0.826620 1.175100 0.070119 -0.022584 93821.300000 0 0 1
28.039873 29.794914 18.442886 44.878853 0.815735 1.147302 0.057288 -0.020228 364661.000000 0 0 1
28.918373 29.891714 19.575286 45.967148 0.801947 1.130891 0.054174 -0.024193 445232.000000 0 0 1
28.529673 28.843514 20.662386 45.528285 0.790868 1.099731 0.056228 -0.031329 -153252.000000 0 0 1
27.356773 29.111814 21.379486 45.309747 0.816468 1.079406 0.066540 -0.038757 -292101.000000 0 0 1
27.282973 28.336114 22.568686 45.350210 0.804331 1.049905 0.060558 -0.037472 55211.700000 0 0 1
25.856473 28.253414 23.155386 44.754715 0.829667 1.027005 0.073708 -0.033236 -52732.500000 0 0 1
24.972273 27.358314 22.514786 43.347518 0.830962 1.024645 0.086339 -0.036505 430445.000000 0 0 1
23.755373 27.111414 23.214396 42.874872 0.851280 0.998641 0.096933 -0.043826 186153.000000 0 0 1
23.925473 25.992714 24.293886 42.874728 0.826787 0.968392 0.102922 -0.048116 -357205.000000 0 0 1
24.706873 26.282114 25.447946 44.144955 0.816282 0.956403 0.099719 -0.046387 142127.000000 0 0 1
24.500973 25.198714 26.360086 43.933210 0.799436 0.927291 0.105385 -0.047422 257492.000000 0 0 1
25.778173 24.986814 27.246466 45.069113 0.769811 0.921597 0.095501 -0.039693 476093.000000 0 0 1
26.269273 26.065114 27.971556 46.388283 0.781497 0.923556 0.116163 -0.047452 214726.000000 0 0 1
27.004373 27.037014 27.247876 46.932750 0.786002 0.951364 0.084806 -0.030287 -737492.000000 0 0 1
27.412173 28.237214 28.123976 48.370709 0.800223 0.950316 0.049642 -0.027113 32880.800000 0 0 1
28.445573 27.876014 29.038076 49.289275 0.775286 0.940807 0.049591 -0.022811 255357.000000 0 0 1
28.820473 28.957214 29.857826 50.602665 0.787765 0.939682 0.042622 -0.023091 549472.000000 0 0 1
30.373073 29.067014 29.953006 51.619739 0.763429 0.951745 0.023802 -0.017782 376032.000000 0 0 1
30.992173 29.539914 28.819156 51.610707 0.761411 0.978347 0.008679 -0.015538 -1194860.000000 0 0 1
32.374573 29.401714 28.844376 52.388661 0.737312 0.987732 0.023802 -0.014067 -692416.000000 0 0 1
32.897373 29.986514 27.527276 52.337167 0.739142 1.016952 0.015534 -0.014647 -562518.000000 0 0 1
32.762273 31.388214 27.502096 53.056119 0.763982 1.025866 0.011114 -0.015723 88548.000000 0 0 1
33.093773 31.909414 26.258726 52.942697 0.767180 1.051829 0.023183 -0.020327 -341055.000000 0 0 1
32.712673 33.350014 26.061006 53.493162 0.795045 1.061934 0.014127 -0.020993 -255314.000000 0 0 1
33.367873 -33.946279 26.931236 54.690550 -0.793991 1.055917 0.047136 -0.027182 492239.000000 0 0 1
32.746473 -32.675579 26.769496 53.447459 -0.784315 1.046209 0.061079 -0.024083 -496674.000000 0 0 1
33.648773 -31.565379 27.235386 53.575921 -0.753462 1.037527 0.059114 -0.025698 -390947.000000 0 0 1
33.833973 -31.645079 28.620166 54.454225 -0.751982 1.017397 0.056665 -0.030953 533012.000000 0 0 1
34.814073 -30.687579 29.036046 54.743393 -0.722483 1.011721 0.067927 -0.032600 197394.000000 0 0 1
34.777173 -30.345779 30.526066 55.336775 -0.717456 0.986465 0.063457 -0.035798 -342815.000000 0 0 1
34.967973 -31.396979 31.469256 56.558319 -0.731642 0.980745 0.067518 -0.030561 544360.000000 0 0 1
33.836873 -32.252279 31.596256 56.422219 -0.761426 0.976415 0.059185 -0.030029 -300586.000000 0 0 1
33.959773 -33.291079 32.731949 57.731643 -0.775455 0.967977 0.061210 -0.027968 -442961.000000 0 0 1
33.663273 -32.734979 33.994433 57.969097 -0.771418 0.944160 0.047271 -0.034990 91231.900000 0 0 1
33.924473 -33.590079 -33.074915 58.078509 -0.780445 2.176677 0.053137 -0.032695 -28354.600000 0 0 1
33.124273 33.307814 -32.963815 57.386767 0.788161 2.182686 0.063595 -0.031951 134485.000000 0 0 1
33.528973 32.385214 -33.932775 57.657847 0.768048 2.200023 0.068378 -0.033834 -148875.000000 0 0 1
32.640173 31.315414 -33.919955 56.538477 0.764687 2.214228 0.072118 -0.026207 -148549.000000 0 0 1
32.823773 30.342014 33.047903 55.589583 0.746129 0.934155 0.046359 -0.021060 -161017.000000 0 0 1
34.040773 29.653514 33.041311 55.944913 0.716627 0.938989 0.059483 -0.022432 -274136.000000 0 0 1
34.015273 28.628214 32.127926 54.852685 0.699614 0.945037 0.039492 -0.015458 109451.000000 0 0 1
35.435373 28.044314 31.894216 55.311755 0.669488 0.956203 0.047151 -0.011507 294460.000000 0 0 1
35.853873 27.203914 32.999014 55.807598 0.649074 0.938127 0.046457 -0.008046 -90592.900000 0 0 1
-36.079339 26.682714 32.734327 55.544775 -0.636784 0.940564 0.026242 -0.004088 -150456.000000 0 0 1
-35.828739 25.308714 33.433643 55.154673 -0.614995 0.919548 0.010545 -0.002634 103861.000000 0 0 1
-36.532839 24.227414 32.855359 54.782210 -0.585577 0.927614 0.017497 -0.004685 90903.700000 0 0 1
36.494273 23.149714 33.720649 54.816269 0.565286 0.908210 0.016663 -0.007744 -196290.000000 0 0 1
36.056173 21.894614 33.022827 53.571717 0.545723 0.906605 0.011948 -0.015091 -879464.000000 0 0 1
-36.182439 21.248414 32.278570 52.939305 -0.530997 0.915079 0.030886 -0.017298 -597412.000000 0 0 1
36.596573 20.123014 31.631616 52.390877 0.502736 0.922584 0.027304 -0.012573 -277567.000000 0 0 1
-35.508839 19.491314 30.767126 50.866541 -0.502009 0.921207 0.028778 -0.015293 -39041.300000 0 0 1
-35.284039 20.182414 29.565396 50.263365 -0.519576 0.941953 0.031762 -0.012261 -119440.000000 0 0 1
-34.334939 19.563514 28.718846 48.850703 -0.517906 0.942348 0.056009 -0.017093 -4887.150000 0 0 1
-34.882539 18.497914 27.663446 48.210275 -0.487586 0.959648 0.072103 -0.014632 -314722.000000 0 0 1
-35.503039 17.378714 28.201636 48.557365 -0.455212 0.951097 0.063071 -0.012610 164890.000000 0 0 1
-36.083939 16.531214 27.221486 48.128380 -0.429596 0.969634 0.076111 -0.023043 62370.800000 0 0 1
36.457173 15.290214 27.837546 48.351267 0.397120 0.957293 0.043705 -0.031977 -484907.000000 0 0 1
-35.768639 14.555914 28.468596 47.976360 -0.386480 0.935535 0.058597 -0.024519 -158463.000000 0 0 1
-36.131039 13.201114 28.628286 47.951018 -0.350299 0.931000 0.059969 -0.026201 -187975.000000 0 0 1
-34.982339 12.313814 29.126706 47.156750 -0.338456 0.905036 0.069628 -0.017210 -1173710.000000 0 0 1
-34.739439 12.503014 30.501706 47.890584 -0.345474 0.880321 0.068172 -0.008430 853677.000000 0 0 1
-33.655839 11.655614 30.964276 47.194864 -0.333391 0.855165 0.066249 -0.000645 648306.000000 0 0 1
-32.247139 12.192614 30.675836 46.146990 -0.361485 0.843648 0.067228 0.005911 -1872390.000000 0 0 1
-31.883539 12.164414 29.300606 44.978423 -0.364480 0.861320 0.077835 -0.000527 -161876.000000 0 0 1
-30.584839 12.613414 29.005756 43.998460 -0.391156 0.850982 0.096176 -0.002351 455640.000000 0 0 1
-29.388839 11.768114 29.567256 43.317606 -0.380875 0.819524 0.075841 0.000784 -456792.000000 0 0 1
-29.256539 10.459214 29.060636 42.542458 -0.343341 0.818801 0.060430 -0.008528 395299.000000 0 0 1
-28.008739 9.849514 29.385966 41.773644 -0.338152 0.790546 0.070918 -0.009278 347982.000000 0 0 1
-27.483339 8.647314 28.513996 40.535884 -0.304832 0.790590 0.067352 -0.011299 219349.000000 0 0 1
-28.122839 7.360414 28.412926 40.649282 -0.255982 0.796830 0.078117 -0.018733 805696.000000 0 0 1
-29.471239 7.343514 27.906326 41.246141 -0.244203 0.827688 0.079040 -0.015821 755926.000000 0 0 1
-30.141039 5.940114 27.981306 41.553828 -0.194584 0.832032 0.067027 -0.016342 -358519.000000 0 0 1
-30.737439 5.703814 29.225006 42.795147 -0.183479 0.819065 0.070901 -0.013944 2390.220000 0 0 1
-31.060739 4.341614 29.436376 43.013013 -0.138878 0.817071 0.066503 -0.019016 -170978.000000 0 0 1
-31.883439 4.103214 30.699046 44.450213 -0.127991 0.808424 0.055041 -0.013187 -223417.000000 0 0 1
-33.188939 4.617914 30.751046 45.480299 -0.138253 0.828286 0.052380 -0.013402 -270634.000000 0 0 1
-33.794739 4.360214 32.002986 46.747053 -0.128312 0.816743 0.077405 -0.022868 1481500.000000 0 0 1
-35.323439 4.822814 32.057486 47.944627 -0.135694 0.838424 0.071261 -0.024006 1460390.000000 0 0 1
-35.453139 6.162414 32.382086 48.409709 -0.172099 0.838045 0.063023 -0.020467 1280860.000000 0 0 1
36.334373 6.464014 32.319640 49.056388 0.176062 0.851539 0.067277 -0.010812 1497570.000000 0 0 1
36.055473 7.991914 32.610371 49.267678 0.218129 0.847443 0.059683 -0.006629 -104366.000000 0 0 1
36.141873 8.294014 33.986667 50.300290 0.225579 0.828916 0.061594 -0.008214 175669.000000 0 0 1
35.710373 9.591214 -33.775725 50.080153 0.262391 2.310993 0.062000 -0.008719 -182434.000000 0 0 1
35.812373 9.791914 -32.251315 49.178806 0.266899 2.286034 0.054670 -0.012727 406599.000000 0 0 1
34.758473 9.096614 -31.554815 47.818471 0.255968 2.291465 0.072718 -0.001341 643704.000000 0 0 1
34.892873 9.201014 -30.131185 47.011271 0.257824 2.266513 0.075499 0.005173 393755.000000 0 0 1
33.656773 8.556114 -29.429965 45.520416 0.248943 2.273813 0.071419 0.000922 153008.000000 0 0 1
33.641573 7.177414 -29.452365 45.284793 0.210198 2.278882 0.063035 -0.001393 -3997.110000 0 0 1
32.492173 6.548314 -28.939525 44.001339 0.198871 2.288553 0.066317 0.002288 -522473.000000 0 0 1
35.542565 5.759914 -19.497615 40.946398 0.160660 2.067095 0.065668 -0.017722 -146139.000000 0 0 1
35.039055 6.877314 -18.701415 40.308507 0.193812 2.053253 0.055640 -0.007763 602982.000000 0 0 1
35.598445 8.172914 -19.050315 41.194178 0.225675 2.051555 0.028695 -0.003082 -1357520.000000 0 0 1
-36.195347 8.503214 -18.670715 41.605329 -0.230741 2.036171 0.036269 -0.006335 -942733.000000 0 0 1
-35.257694 7.755214 -19.408215 40.986914 -0.216510 2.064082 0.045534 -0.020117 -78932.300000 0 0 1
-34.697825 8.352914 -20.576515 41.195912 -0.236238 2.093794 0.035174 -0.010161 -432038.000000 0 0 1
-33.773737 7.346914 -21.291815 40.595367 -0.214196 2.122911 0.036494 -0.005477 -324759.000000 0 0 1
-34.345491 6.233114 -21.984215 41.252517 -0.179529 2.132842 0.044752 -0.010258 -36305.100000 0 0 1
-35.122134 6.575414 -23.095715 42.546591 -0.185073 2.144604 0.042587 -0.005554 18052.100000 0 0 1
-35.085066 5.456314 -24.138315 42.934735 -0.154281 2.167851 0.066295 -0.017706 780281.000000 0 0 1
-33.835247 5.481014 -24.844715 42.333501 -0.160596 2.197997 0.059066 -0.019694 522702.000000 0 0 1
-33.608737 4.270414 -25.584575 42.454141 -0.126385 2.217602 0.063088 -0.022217 1063200.000000 0 0 1
-32.224137 4.085314 -26.353355 41.828030 -0.126105 2.252402 0.073507 -0.017991 412099.000000 0 0 1
-31.127477 4.014414 -25.543255 40.465951 -0.128259 2.253932 0.072878 -0.017373 -1193400.000000 0 0 1
-29.956547 3.724714 -26.272465 40.018878 -0.123702 2.286968 0.074436 -0.012492 489717.000000 0 0 1
-28.657337 3.987114 -25.437595 38.525463 -0.138243 2.291988 0.052077 -0.014227 211060.000000 0 0 1
-28.445687 5.357714 -25.310405 38.450992 -0.186168 2.289289 0.029690 -0.009802 814402.000000 0 0 1
-27.094607 5.716514 -24.983315 37.295607 -0.207934 2.304834 0.031071 -0.004684 714080.000000 0 0 1
-26.809537 7.227314 -25.088455 37.422131 -0.263320 2.305568 0.026198 -0.008713 -98543.200000 0 0 1
-27.400907 7.987514 -24.059715 37.329345 -0.283646 2.271199 0.018825 -0.008401 -123463.000000 0 0 1
-27.251457 9.408114 -24.282115 37.693177 -0.332422 2.270779 0.011683 -0.012851 68422.900000 0 0 1
-25.961137 10.029314 -23.691915 36.549618 -0.368658 2.276031 0.054482 -0.007526 25086.500000 0 0 1
-26.024117 10.190914 -22.318215 35.766075 -0.373240 2.244654 0.038383 -0.006644 422282.000000 0 0 1
-24.698627 10.314414 -21.826715 34.537151 -0.395595 2.254899 0.083539 -0.015926 -179380.000000 0 0 1
-24.596527 10.727414 -20.341415 33.672536 -0.411264 2.219426 0.105919 -0.028411 -1258830.000000 0 0 1
-24.999027 12.059514 -20.004015 34.213212 -0.449468 2.195290 0.089039 -0.028956 1777440.000000 0 0 1
-26.410367 12.395414 -19.952515 35.344825 -0.438819 2.170636 0.083745 -0.007568 1171220.000000 0 0 1
-27.412557 11.501014 -19.194815 35.385909 -0.397248 2.144138 0.071427 -0.010809 -746155.000000 0 0 1
-27.075477 11.522514 -17.840315 34.411141 -0.402353 2.115829 0.081574 -0.024324 308883.000000 0 0 1
-28.007477 10.832014 -17.023315 34.518756 -0.369036 2.086516 0.062317 -0.024314 -1016430.000000 0 0 1
-27.669047 10.729414 -15.551615 33.504466 -0.369925 2.053488 0.084596 -0.031462 -32717.500000 0 0 1
-26.665747 9.792214 -15.213815 32.224365 -0.351933 2.062492 0.105303 -0.033882 711531.000000 0 0 1
-25.353467 10.169514 -15.610015 31.462515 -0.381462 2.089951 0.098404 -0.029486 -378533.000000 0 0 1
-24.344227 8.968614 -15.458415 30.200000 -0.352979 2.108154 0.090676 -0.027964 641109.000000 0 0 1
-22.991227 9.181614 -15.848615 29.395189 -0.379948 2.140232 0.097033 -0.025747 900393.000000 0 0 1
-22.196827 8.009014 -15.601015 28.288427 -0.346280 2.154955 0.098093 -0.026121 423562.000000 0 0 1
-20.668427 8.281114 -15.627315 27.202458 -0.381079 2.182767 0.125413 -0.034911 -84563.200000 0 0 1
-20.142527 8.586014 -16.892215 27.654800 -0.402940 2.227897 0.137918 -0.044007 -291423.000000 0 0 1
-18.773627 8.754114 -16.615715 26.554954 -0.436325 2.246838 0.151423 -0.042597 -977294.000000 0 0 1
-18.004927 9.335914 -17.799515 26.984429 -0.478354 2.291112 0.116012 -0.036368 -248455.000000 0 0 1
-17.662527 8.451914 -18.892415 27.208878 -0.446318 2.338309 0.145135 -0.044659 565097.000000 0 0 1
-16.693027 7.442914 -18.571415 26.056699 -0.419414 2.364180 0.135581 -0.040811 -508027.000000 0 0 1
-16.357127 6.582314 -19.795615 26.509410 -0.382584 2.413942 0.113780 -0.042365 -213713.000000 0 0 1
-17.318027 5.685314 -20.302515 27.284226 -0.317204 2.410001 0.113752 -0.032248 82008.600000 0 0 1
-18.299527 6.346314 -21.114915 28.652889 -0.333823 2.399300 0.105444 -0.029698 -317.903000 0 0 1
-19.130327 5.343514 -21.923215 29.582933 -0.272380 2.405469 0.094027 -0.011670 -201330.000000 0 0 1
-20.076427 4.671314 -21.115615 29.508529 -0.228609 2.368246 0.090808 -0.016949 334688.000000 0 0 1
-20.451827 3.384214 -21.524515 29.883689 -0.163987 2.374997 0.062419 -0.000893 -184886.000000 0 0 1
-21.494127 2.693314 -20.612115 29.901684 -0.124655 2.331360 0.066885 -0.000899 -215480.000000 0 0 1
-21.906427 1.437214 -21.071215 30.429480 -0.065513 2.335690 0.086444 0.003872 -174837.000000 0 0 1
-22.792127 1.032714 -20.076815 30.391217 -0.045279 2.292431 0.085938 -0.004226 -245433.000000 0 0 1
-23.598827 -0.294586 -20.370615 31.176167 0.012482 2.282868 0.091950 0.007512 -50626.100000 0 0 1
-22.741927 -1.395086 -20.494915 30.646094 0.061267 2.303337 0.082858 -0.000802 -318656.000000 0 0 1
-23.289827 -2.612186 -20.859315 31.374362 0.111693 2.298092 0.088609 -0.005880 -605410.000000 0 0 1
-23.720527 -2.875286 -22.357715 32.723051 0.120627 2.322988 0.087890 -0.011164 5062.100000 0 0 1
-22.659927 -2.794386 -23.262615 32.594940 0.122699 2.365545 0.054445 -0.006427 -117248.000000 0 0 1
-21.757827 -3.878886 -23.281815 32.101273 0.176422 2.382210 0.044136 -0.017257 251042.000000 0 0 1
-20.731127 -3.814886 -24.439415 32.274107 0.181981 2.429881 0.042324 -0.013609 347224.000000 0 0 1
-21.432427 -3.985886 -25.654075 33.665528 0.183874 2.437236 0.040399 -0.017573 728747.000000 0 0 1
-20.530727 -3.846586 -26.738965 33.930506 0.185210 2.478433 0.043711 -0.023512 103257.000000 0 0 1
-21.287127 -3.900386 -28.074085 35.447271 0.181217 2.484867 0.040885 -0.025934 -22620.800000 0 0 1
-21.919527 -5.154786 -28.281605 36.150887 0.230972 2.469180 0.050710 -0.027982 124083.000000 0 0 1
-22.799427 -5.025986 -29.364285 37.514472 0.216973 2.469862 0.026172 -0.031325 -441057.000000 0 0 1
-22.599627 -6.220986 -30.312855 38.318572 0.268617 2.483360 0.054128 -0.031791 -864489.000000 0 0 1
-21.344527 -6.129086 -30.882525 38.037940 0.279627 2.518174 0.038602 -0.027919 -883560.000000 0 0 1
-20.763927 -7.334586 -31.232535 38.215286 0.339556 2.527469 0.047830 -0.024033 -430642.000000 0 0 1
-19.250927 -7.158486 -31.515585 37.617472 0.356007 2.564021 0.058467 -0.026333 -211182.000000 0 0 1
-18.939927 -6.832786 -32.842745 38.523418 0.346229 2.591622 0.056041 -0.037055 282910.000000 0 0 1
-19.196327 -7.856786 -33.759835 39.622652 0.388486 2.590654 0.056099 -0.035360 -1001550.000000 0 0 1
-19.029627 -7.321286 32.998056 38.789169 0.367274 0.553475 0.050550 -0.032851 -204028.000000 0 0 1
-17.734527 -6.996186 32.547129 37.719698 0.375752 0.529879 0.062572 -0.033000 44501.200000 0 0 1
-17.395227 -5.690986 32.968098 37.707780 0.316182 0.506794 0.050378 -0.038410 -203780.000000 0 0 1
-16.061627 -5.262486 32.296429 36.451734 0.316621 0.482139 0.043288 -0.035055 83605.800000 0 0 1
-16.165727 -5.109286 30.902056 35.247306 0.306122 0.501794 0.038955 -0.018265 455564.000000 0 0 1
-14.865927 -5.010186 30.336476 34.152591 0.325069 0.477247 0.027134 -0.012340 199742.000000 0 0 1
-14.902827 -5.129086 28.826066 32.853369 0.331470 0.500348 0.024388 0.009352 -145500.000000 0 0 1
-15.528227 -4.018286 28.294966 32.525029 0.253218 0.515707 0.013154 -0.003862 128472.000000 0 0 1
-16.297727 -4.148486 27.098346 31.892729 0.249251 0.555434 0.034853 -0.000373 354454.000000 0 0 1
-15.503727 -3.854786 25.790686 30.337837 0.243695 0.554591 0.036039 -0.000588 114745.000000 0 0 1
-15.226627 -2.479286 25.647286 29.929589 0.161409 0.541531 0.026269 0.016370 179778.000000 0 0 1
-14.520927 -2.365686 24.400156 28.492479 0.161497 0.542595 0.017758 0.020944 -11971.500000 0 0 1
-14.258827 -0.863286 24.106066 28.020739 0.060470 0.534951 0.020124 0.010894 118768.000000 0 0 1
-15.339827 -0.118186 23.558176 28.112486 0.007704 0.577194 0.014001 0.002995 -241042.000000 0 0 1
-15.156227 1.158214 24.083856 28.479550 -0.076270 0.563006 0.008270 0.013615 -340748.000000 0 0 1
-16.019627 2.296514 23.478136 28.515351 -0.142386 0.603506 0.003164 0.007665 -392321.000000 0 0 1
-15.626327 2.630714 22.205986 27.280186 -0.166787 0.619796 0.024745 0.004284 472660.000000 0 0 1
-16.401827 3.735314 21.676486 27.437976 -0.223919 0.659959 0.023731 0.003003 59929.600000 0 0 1
-15.615527 4.603214 20.688486 26.325799 -0.286665 0.666705 0.022420 0.007151 405131.000000 0 0 1
-14.562227 5.315414 21.338886 26.375369 -0.349987 0.628269 0.047473 0.001481 598896.000000 0 0 1
-13.530327 5.723014 20.484986 25.208278 -0.400156 0.622147 0.053389 0.004581 267815.000000 0 0 1
-12.481527 6.796514 20.850886 25.233718 -0.498631 0.598271 0.050940 0.000447 417544.000000 0 0 1
-12.910627 8.118414 20.632786 25.657451 -0.561339 0.636529 0.056692 -0.004929 -153595.000000 0 0 1
-11.791227 8.935214 20.561786 25.330971 -0.648465 0.623696 0.064286 -0.005625 -402629.000000 0 0 1
-12.158127 10.394914 20.573186 26.060128 -0.707376 0.660883 0.064682 -0.002965 50830.800000 0 0 1
-12.725427 10.761914 19.287486 25.490437 -0.701993 0.712613 0.066697 -0.001691 462660.000000 0 0 1
-13.105427 12.096414 19.420886 26.367522 -0.745382 0.742847 0.043222 0.001017 -344142.000000 0 0 1
-13.520127 12.831214 18.151886 26.017779 -0.759261 0.798653 0.038651 -0.001859 -118906.000000 0 0 1
-12.450627 13.410114 17.417886 25.263254 -0.822483 0.810059 0.036516 -0.003194 413290.000000 0 0 1
-12.105927 14.770214 17.701486 26.039495 -0.884207 0.823315 0.042739 -0.008678 -18966.500000 0 0 1
-13.128627 15.817614 17.117586 26.750131 -0.878028 0.876420 0.041003 0.007297 358849.000000 0 0 1
-13.008227 16.130614 15.710986 26.004725 -0.892146 0.922086 0.025784 -0.013497 -272746.000000 0 0 1
-13.803127 15.237714 15.028086 25.466794 -0.834757 0.939607 0.045285 -0.015059 -471290.000000 0 0 1
-14.537227 15.876914 13.799686 25.570270 -0.829418 1.000743 0.037605 -0.017633 514690.000000 0 0 1
-15.582127 16.767614 14.224586 26.949850 -0.822028 1.014768 0.033088 -0.008866 246083.000000 0 0 1
-16.014927 17.458414 13.034386 27.040143 -0.828495 1.067817 0.037268 -0.009531 207085.000000 0 0 1
-17.313227 18.286014 13.167286 28.416607 -0.812717 1.089007 0.042265 -0.013364 -432306.000000 0 0 1
-18.514527 17.615614 13.213086 28.769484 -0.760523 1.093618 0.048278 -0.010098 -717523.000000 0 0 1
-19.623027 18.422314 13.510586 30.116121 -0.753849 1.105580 0.051737 -0.018175 183026.000000 0 0 1
-21.003227 17.741214 13.483886 30.621910 -0.701403 1.114825 0.062403 -0.010656 198921.000000 0 0 1
-21.276727 17.186114 12.230786 29.960870 -0.679444 1.150287 0.070920 -0.013126 892231.000000 0 0 1
-22.651127 16.733114 12.185386 30.684756 -0.636251 1.162425 0.075363 -0.015897 1135500.000000 0 0 1
-23.029727 16.083314 10.839086 30.108588 -0.609632 1.202529 0.080836 -0.015494 -168504.000000 0 0 1
-22.478727 14.809414 10.595486 28.928813 -0.582550 1.195809 0.076461 -0.011714 -2133.570000 0 0 1
-23.013227 14.202814 9.444986 28.645005 -0.552941 1.234784 0.077069 -0.015995 -417585.000000 0 0 1
-22.278827 12.918314 9.009886 27.283823 -0.525469 1.234251 0.096206 -0.017355 -855839.000000 0 0 1
-22.400627 11.704514 9.825386 27.116820 -0.481492 1.200024 0.092406 -0.017041 1943690.000000 0 0 1
-23.785827 11.281014 10.101986 28.197109 -0.442856 1.204389 0.101718 -0.014661 1915970.000000 0 0 1
-24.682627 10.901814 8.916986 28.418203 -0.415913 1.251628 0.114854 -0.022971 -602622.000000 0 0 1
-25.098617 11.961214 8.061786 28.948292 -0.444727 1.288576 0.119750 -0.023840 144795.000000 0 0 1
-26.196927 11.543814 7.280986 29.538981 -0.415056 1.321742 0.142492 -0.029293 -406669.000000 0 0 1
-26.613287 12.620814 6.211586 30.102089 -0.442820 1.362952 0.116292 -0.027736 33502.300000 0 0 1
-25.684597 12.887014 5.139686 29.192294 -0.465039 1.393811 0.117197 -0.030387 921929.000000 0 0 1
-24.451227 13.510814 5.479486 28.468041 -0.504808 1.377109 0.101138 -0.029663 -218142.000000 0 0 1
-24.328627 15.037114 5.876786 29.198176 -0.553610 1.368140 0.090605 -0.026903 1120260.000000 0 0 1
-22.950527 15.534114 6.003086 28.356171 -0.595021 1.357479 0.072146 -0.029711 1974960.000000 0 0 1
-22.995527 16.836414 6.564786 29.246461 -0.631986 1.344403 0.064583 -0.028952 -575580.000000 0 0 1
-21.616827 17.448514 6.774186 28.594185 -0.679099 1.331615 0.054366 -0.022069 -708252.000000 0 0 1
-21.150427 17.848514 5.532686 28.222697 -0.700933 1.373482 0.060675 -0.032970 -191662.000000 0 0 1
-19.828227 18.315814 5.638486 27.575717 -0.745769 1.364871 0.062221 -0.021815 -324076.000000 0 0 1
-19.219527 18.885114 4.355586 27.294851 -0.776622 1.410536 0.047178 -0.018093 170886.000000 0 0 1
-17.879927 19.334114 4.545186 26.723743 -0.824455 1.399885 0.034225 -0.013096 506572.000000 0 0 1
-17.612127 20.505614 3.737786 27.288061 -0.861162 1.433389 0.038542 -0.012504 101735.000000 0 0 1
-18.005327 21.843214 4.395986 28.646858 -0.881414 1.416733 0.026313 -0.024235 -377479.000000 0 0 1
-17.078927 22.260814 5.380186 28.568864 -0.916366 1.381342 0.048134 -0.022040 129012.000000 0 0 1
-17.336627 23.549714 5.865186 29.825292 -0.936204 1.372855 0.028189 -0.016329 -605009.000000 0 0 1
-16.526427 23.922314 7.067886 29.922482 -0.966246 1.332336 0.015170 -0.003214 -329634.000000 0 0 1
-16.992627 23.242114 8.234686 29.945872 -0.939492 1.292222 0.016157 -0.008539 729989.000000 0 0 1
-16.040527 23.455214 9.283886 29.893747 -0.970972 1.255011 0.026810 -0.011509 290925.000000 0 0 1
-16.497827 22.916814 10.664986 30.184443 -0.946839 1.209671 0.015741 -0.011385 201196.000000 0 0 1
-17.685127 23.528714 11.162886 31.479741 -0.926246 1.208304 0.019434 -0.010708 260722.000000 0 0 1
-18.660927 22.525814 11.435686 31.407282 -0.878962 1.198120 0.023632 -0.015708 13448.700000 0 0 1
-19.979727 23.135814 11.962586 32.826191 -0.858469 1.197784 0.031962 -0.022982 221263.000000 0 0 1
-20.988327 23.618814 11.075286 33.481640 -0.844300 1.233659 0.035793 -0.013581 271161.000000 0 0 1
-20.628227 24.737514 10.339686 33.828648 -0.875733 1.260177 0.010820 -0.011337 -123683.000000 0 0 1
-21.819127 25.559514 9.741986 34.989560 -0.864181 1.288642 0.016033 -0.005606 346914.000000 0 0 1
-22.528127 26.305614 10.718486 36.254486 -0.862598 1.270665 0.030963 -0.018148 405122.000000 0 0 1
-23.452827 27.220314 10.108686 37.325140 -0.859610 1.296543 0.028045 -0.011499 -266668.000000 0 0 1
-24.360927 27.882714 11.087386 38.650105 -0.852707 1.279843 0.028325 -0.012163 -601541.000000 0 0 1
-23.590927 28.593714 12.086886 38.990064 -0.880973 1.255604 0.034344 -0.019306 650467.000000 0 0 1
-24.365327 29.273614 13.066486 40.265949 -0.876650 1.240308 0.033225 -0.018151 -161784.000000 0 0 1
9.101873 -32.582279 28.050056 43.946042 -1.298390 0.878529 0.073823 -0.031316 438197.000000 0 0 1
10.454473 -32.544779 27.590486 43.928277 -1.259975 0.891713 0.068088 -0.036639 627766.000000 0 0 1
10.641673 -32.740879 26.203286 43.264564 -1.256540 0.920211 0.077006 -0.030179 293461.000000 0 0 1
12.120973 -32.758979 25.712816 43.373005 -1.216412 0.936228 0.048121 -0.021630 335715.000000 0 0 1
12.808573 -33.952379 25.905196 44.585903 -1.210054 0.950818 0.063306 -0.030368 457711.000000 0 0 1
14.208573 -33.744979 25.670816 44.716864 -1.172270 0.959323 0.077856 -0.025360 557482.000000 0 0 1
14.972173 33.173914 25.460226 44.417312 1.146842 0.960384 0.102320 -0.022386 -223617.000000 0 0 1
14.926673 32.805914 24.105806 43.360390 1.143793 0.981302 0.087220 -0.034812 171979.000000 0 0 1
15.697773 31.646914 23.897146 42.649980 1.110331 0.976038 0.082510 -0.028260 -284058.000000 0 0 1
15.616473 30.980714 22.527186 41.366085 1.103897 0.994907 0.082014 -0.036063 -363374.000000 0 0 1
14.547073 30.105514 22.327286 40.205310 1.120676 0.982034 0.078525 -0.027792 -410654.000000 0 0 1
14.900673 28.770514 22.531486 39.464419 1.092920 0.963156 0.077243 -0.022508 -2552.440000 0 0 1
14.431173 28.206314 23.896796 39.685158 1.097889 0.924593 0.083280 -0.033604 234501.000000 0 0 1
15.329673 28.615514 24.959146 40.948815 1.078989 0.915341 0.075387 -0.023699 455604.000000 0 0 1
14.915973 28.395114 26.273076 41.461346 1.087114 0.884500 0.071385 -0.029361 -521150.000000 0 0 1
15.825273 28.952714 27.369186 42.869234 1.070575 0.878334 0.075375 -0.031503 -207717.000000 0 0 1
15.877873 30.357514 27.575016 43.978028 1.088895 0.893077 0.088747 -0.041724 148825.000000 0 0 1
16.593373 30.789614 28.730256 45.263318 1.076494 0.883130 0.102446 -0.044964 139215.000000 0 0 1
16.269273 32.222514 29.105496 46.369273 1.103233 0.892215 0.108463 -0.039270 64279.900000 0 0 1
17.061173 33.109914 28.354666 46.811720 1.094992 0.920129 0.106940 -0.035612 -91255.100000 0 0 1
16.707973 -33.758679 28.564006 47.272689 -1.111218 0.921986 0.114464 -0.024608 -16757.500000 0 0 1
17.472573 -32.707079 27.719256 46.296878 -1.080154 0.928884 0.098058 -0.026579 -1007440.000000 0 0 1
17.183073 -32.668479 26.349016 45.351495 -1.086579 0.950845 0.112280 -0.024531 -210941.000000 0 0 1
17.822073 -31.657679 25.569626 44.425676 -1.058056 0.957508 0.105445 -0.027802 -221159.000000 0 0 1
19.353373 -31.629579 25.631336 45.077141 -1.021690 0.965981 0.094910 -0.022300 -482933.000000 0 0 1
19.985073 -31.194179 26.857656 45.758208 -1.001010 0.943513 0.093959 -0.024614 -113880.000000 0 0 1
20.970973 -30.232279 26.603816 45.404134 -0.964337 0.944764 0.090095 -0.021731 -179926.000000 0 0 1
21.411873 -29.435079 27.911056 45.868499 -0.941899 0.916625 0.108388 -0.021267 -104576.000000 0 0 1
20.375473 -28.534879 28.280716 45.046621 -0.950700 0.892060 0.095812 -0.027468 308361.000000 0 0 1
20.600573 -27.790279 29.449436 45.430743 -0.932895 0.865543 0.115320 -0.022725 -467495.000000 0 0 1
19.281073 -27.521579 30.232416 45.201726 -0.959681 0.838158 0.086287 -0.029626 161990.000000 0 0 1
18.328773 -26.865879 29.458536 43.880801 -0.972095 0.834793 0.112139 -0.035661 -268341.000000 0 0 1
17.043673 -26.895779 30.039426 43.774842 -1.005970 0.814509 0.095458 -0.036561 66896.400000 0 0 1
15.998773 -25.999779 29.324236 42.330368 -1.019172 0.805505 0.089817 -0.024449 -560173.000000 0 0 1
15.567873 -26.463779 28.042856 41.582352 -1.039046 0.830654 0.089408 -0.029897 664704.000000 0 0 1
14.825973 -25.454679 27.285426 40.152766 -1.043384 0.823660 0.090824 -0.047123 144733.000000 0 0 1
13.388473 -25.044779 27.734916 39.695311 -1.079868 0.797225 0.057331 -0.040831 554250.000000 0 0 1
12.382173 -26.069379 27.733606 40.026036 -1.127372 0.805308 0.050474 -0.027670 534939.000000 0 0 1
12.008473 -26.443679 26.429206 39.267983 -1.144526 0.832475 0.045017 -0.025687 -544013.000000 0 0 1
11.115673 -27.760779 26.338776 39.849092 -1.189937 0.848695 0.058530 -0.032250 2178950.000000 0 0 1
9.683873 -27.562179 26.622396 39.524714 -1.232923 0.831777 0.058365 -0.040773 1477360.000000 0 0 1
9.108873 -28.848279 26.566916 40.261591 -1.264952 0.850167 0.063348 -0.029731 -482521.000000 0 0 1
7.635273 -28.769179 27.039526 40.213169 -1.311379 0.833343 0.037521 -0.026600 26691.400000 0 0 1
6.688073 -28.444279 26.041396 39.140281 -1.339862 0.842854 0.041972 -0.031557 -122677.000000 0 0 1
6.807973 -27.214979 25.289146 37.769623 -1.325671 0.837176 0.068900 -0.036461 -1178690.000000 0 0 1
5.647873 -26.930179 24.312036 36.717953 -1.364070 0.847140 0.074865 -0.031668 -476959.000000 0 0 1
5.371873 -27.942179 23.326176 36.793108 -1.380864 0.884105 0.054781 -0.026391 501469.000000 0 0 1
4.461173 -28.989079 23.741476 37.734949 -1.418103 0.890319 0.067537 -0.025228 790689.000000 0 0 1
2.972173 -28.616279 24.013546 37.474999 -1.467304 0.875272 0.065314 -0.033231 -368035.000000 0 0 1
2.248173 -28.318379 22.829586 36.444133 -1.491573 0.893836 0.066625 -0.028449 198548.000000 0 0 1
0.929373 -27.845679 23.061186 36.167165 -1.537433 0.879382 0.067597 -0.028745 439310.000000 0 0 1
0.768973 -26.389179 23.610246 35.417845 -1.541665 0.841131 0.063710 -0.032088 -533882.000000 0 0 1
1.161273 -26.295179 24.943046 36.262108 -1.526662 0.812268 0.056780 -0.033288 -165644.000000 0 0 1
1.155573 -25.032879 25.522126 35.768132 -1.524667 0.776253 0.065643 -0.034661 -620921.000000 0 0 1
2.403073 -24.781779 26.372366 36.268622 -1.474129 0.756650 0.061380 -0.031388 -96850.000000 0 0 1
3.549873 -24.544079 25.537066 35.597122 -1.427160 0.770746 0.065828 -0.034149 1106950.000000 0 0 1
4.710373 -23.955979 26.157566 35.781207 -1.376647 0.750948 0.065926 -0.033305 880049.000000 0 0 1
4.489073 -22.488479 26.449246 35.006371 -1.373769 0.714295 0.062024 -0.032326 -623084.000000 0 0 1
4.437673 -21.761779 25.235836 33.617188 -1.369634 0.721702 0.064265 -0.030044 176967.000000 0 0 1
3.849973 -20.514079 25.541006 32.984734 -1.385280 0.685144 0.072634 -0.034180 -89733.600000 0 0 1
3.836973 -19.432379 24.451756 31.467889 -1.375851 0.680849 0.080027 -0.030814 899207.000000 0 0 1
5.127073 -18.789679 24.387836 31.210662 -1.304415 0.673899 0.082449 -0.013054 722827.000000 0 0 1
5.391973 -18.290979 23.045286 29.911845 -1.284127 0.691265 0.073338 -0.009777 110597.000000 0 0 1
6.860473 -17.886779 22.794886 29.775993 -1.204551 0.698907 0.068118 -0.008531 -221307.000000 0 0 1
7.688273 -19.012879 22.603586 30.520832 -1.186527 0.736840 0.060399 -0.000046 -557692.000000 0 0 1
8.930973 -18.622079 22.097186 30.246152 -1.123609 0.751628 0.048334 0.009857 516655.000000 0 0 1
10.163473 -18.487379 23.065186 31.258313 -1.068144 0.740858 0.051048 0.011451 530868.000000 0 0 1
9.954973 -17.428179 23.976936 31.268776 -1.051823 0.696954 0.057116 0.012669 -108485.000000 0 0 1
10.983073 -17.397679 24.916586 32.313207 -1.007683 0.690236 0.061512 0.010653 -312301.000000 0 0 1
10.646873 -16.206079 25.941966 32.387937 -0.989538 0.641872 0.075010 0.003875 -38221.100000 0 0 1
10.890273 -14.850879 25.505716 31.459310 -0.938064 0.625360 0.086576 0.006313 182795.000000 0 0 1
10.854173 -14.000779 26.607436 31.965458 -0.911327 0.587406 0.079044 -0.002907 22988.300000 0 0 1
11.104573 -12.464179 26.456466 31.282773 -0.843021 0.562883 0.081410 -0.009285 -120231.000000 0 0 1
9.985873 -11.774479 25.999826 30.238170 -0.867409 0.535851 0.094536 -0.005259 -86436.800000 0 0 1
10.463673 -10.511279 25.516906 29.514198 -0.787668 0.526515 0.083930 -0.005861 484860.000000 0 0 1
9.381973 -9.670379 24.786486 28.211833 -0.800535 0.497906 0.096651 -0.008039 624381.000000 0 0 1
8.148873 -9.516179 25.497466 28.409198 -0.862646 0.456712 0.077944 -0.012840 -381896.000000 0 0 1
7.189973 -9.238879 24.536606 27.186350 -0.909471 0.445178 0.079371 -0.004774 -935864.000000 0 0 1
5.781073 -9.304979 25.133586 27.417158 -1.014871 0.411029 0.072357 -0.016112 -1320630.000000 0 0 1
5.504773 -8.216079 26.014116 27.830571 -0.980490 0.363293 0.073040 -0.014628 -283281.000000 0 0 1
4.251073 -8.313579 26.637786 28.226917 -1.098117 0.337149 0.061451 -0.015995 6538.730000 0 0 1
2.996373 -8.159779 25.774566 27.200891 -1.218870 0.325274 0.051316 -0.013020 -931475.000000 0 0 1
2.882373 -6.894279 25.119646 26.207551 -1.174800 0.289142 0.058976 -0.007934 154668.000000 0 0 1
1.820773 -6.987279 24.165616 25.221305 -1.315881 0.290353 0.053059 -0.017855 435424.000000 0 0 1
1.824073 -5.693979 23.339156 24.092837 -1.260775 0.250786 0.038045 -0.022820 -51981.600000 0 1 0
1.262673 -4.553279 24.029196 24.489364 -1.300283 0.194163 0.045342 -0.019388 303587.000000 0 1 0
1.822473 -3.354279 23.520236 23.828010 -1.073090 0.160900 0.041801 -0.015471 -495251.000000 0 1 0
1.002173 -2.710779 22.345786 22.531906 -1.216681 0.128621 0.036353 -0.021824 240984.000000 0 1 0
-0.072127 -1.865779 22.644886 22.721733 1.532158 0.082268 0.043699 -0.027257 790007.000000 0 1 0
-1.216627 -2.508779 23.289966 23.456271 1.119263 0.119150 0.051667 -0.020768 385276.000000 0 1 0
-2.165927 -1.490779 23.916786 24.060887 0.602821 0.109499 0.048907 -0.021964 -357360.000000 0 1 0
-1.514527 -0.802779 24.928086 24.986950 0.487399 0.068655 0.064637 -0.022786 73184.800000 0 1 0
-2.299527 0.250221 25.478926 25.583707 -0.108388 0.090537 0.053023 -0.019390 -154917.000000 0 0 1
-1.711627 0.836221 26.773796 26.841480 -0.454449 0.071031 0.087327 -0.030045 -290660.000000 0 0 1
-1.873827 0.146221 28.037676 28.100602 -0.077876 0.066935 0.087470 -0.032846 85374.900000 0 0 1
-0.933427 -0.891779 28.272356 28.301813 0.762584 0.045630 0.097731 -0.029289 101809.000000 0 0 1
0.322873 -0.459779 29.118126 29.123545 -0.958571 0.019292 0.125383 -0.031837 745112.000000 0 0 1
1.246373 0.432221 28.403786 28.434403 0.333806 0.046411 0.111899 -0.025704 665338.000000 0 0 1
1.992273 -0.069779 27.310846 27.383504 -0.035010 0.072864 0.099200 -0.024559 -170941.000000 0 0 1
3.076573 -1.124779 27.687106 27.880212 -0.350499 0.117765 0.093219 -0.024242 -562096.000000 0 0 1
2.542973 -2.389779 28.017986 28.234469 -0.754352 0.123913 0.108671 -0.025401 -197276.000000 0 0 1
3.461273 -3.402279 28.393706 28.805528 -0.776803 0.169298 0.100134 -0.011833 -65117.900000 0 0 1
4.101973 -4.203579 27.285956 27.910923 -0.797631 0.212017 0.083719 -0.013831 -646740.000000 0 0 1
5.046873 -3.581579 26.526916 27.239234 -0.617182 0.229195 0.079253 -0.007558 -891737.000000 0 0 1
5.538873 -4.450679 25.530576 26.500905 -0.676893 0.271443 0.066270 -0.006776 256456.000000 0 0 1
6.945173 -4.056679 25.005506 26.267230 -0.528647 0.311203 0.063060 -0.008111 729072.000000 0 0 1
8.084273 -4.129979 25.923266 27.466851 -0.472302 0.336846 0.055838 -0.009084 1270360.000000 0 0 1
8.779673 -5.389779 25.897006 27.870904 -0.550572 0.378616 0.056673 -0.010436 216112.000000 0 0 1
9.623573 -5.641279 24.628206 27.036747 -0.530206 0.425298 0.054714 -0.012233 -627094.000000 0 0 1
8.860273 -6.227779 23.557666 25.927847 -0.612662 0.430911 0.063023 -0.018119 132909.000000 0 0 1
9.434073 -6.072679 22.269586 24.936191 -0.571931 0.466689 0.070750 -0.022607 62196.500000 0 1 0
9.387873 -4.663179 21.637586 24.042930 -0.461023 0.451127 0.070359 -0.025082 146335.000000 0 1 0
8.091773 -4.323279 21.208586 23.107826 -0.490695 0.408269 0.047870 -0.025962 -567450.000000 0 1 0
8.106973 -3.205779 20.314386 22.105979 -0.376565 0.405376 0.034160 -0.027034 -23849.600000 0 1 0
6.817773 -2.384779 20.149786 21.405211 -0.336486 0.344189 0.034708 -0.021387 112361.000000 0 1 0
6.304473 -1.768779 21.304286 22.287834 -0.273527 0.298187 0.039464 -0.016616 -255482.000000 0 1 0
4.990373 -1.303779 21.210386 21.828516 -0.255547 0.238547 0.030426 -0.012815 -287397.000000 0 1 0
4.494273 -0.411779 22.387286 22.837658 -0.091368 0.198926 0.033411 -0.017835 -126773.000000 0 1 0
3.118673 -0.123779 22.387886 22.604399 -0.039669 0.138519 0.036952 -0.016298 -316746.000000 0 1 0
2.753773 0.524221 23.562376 23.728540 0.188114 0.118414 0.054475 -0.021095 385831.000000 0 1 0
1.281773 1.029221 23.607176 23.664340 0.676547 0.069521 0.059391 -0.025311 299892.000000 0 1 0
1.079673 2.353221 23.148086 23.292428 1.140643 0.111386 0.057911 -0.021725 -350318.000000 0 1 0
-0.300427 2.566221 23.119286 23.263214 -1.454257 0.111295 0.039779 -0.020961 -614082.000000 0 1 0
-0.764127 3.863221 22.638086 22.978061 -1.375522 0.172234 0.037238 -0.019427 -646305.000000 0 1 0
-0.675227 4.920221 23.560886 24.078618 -1.434413 0.207746 0.045997 -0.023987 -61436.500000 0 1 0
-1.585327 5.982221 23.285746 24.094111 -1.311745 0.259768 0.032550 -0.023159 -114379.000000 0 1 0
-1.404027 7.309221 24.080266 25.204269 -1.381018 0.299771 0.043730 -0.022516 299548.000000 0 0 1
-0.393327 8.234221 23.659086 25.054130 -1.523065 0.335278 0.030933 -0.022964 407343.000000 0 0 1
-0.420327 9.489221 24.360236 26.146569 -1.526530 0.371786 0.036745 -0.021472 -823173.000000 0 0 1
0.413773 10.579221 23.691766 25.949776 1.531704 0.420254 0.030694 -0.027572 301631.000000 0 0 1
1.834773 10.529221 23.818826 26.106845 1.398273 0.421786 0.029843 -0.019396 88236.300000 0 0 1
2.282873 11.034221 25.046376 27.464276 1.366784 0.422755 0.046973 -0.031273 866998.000000 0 0 1
3.627773 11.940221 24.852726 27.809847 1.275831 0.465346 0.046566 -0.029527 2332060.000000 0 0 1
4.841873 11.279221 24.482326 27.387019 1.165311 0.464738 0.060719 -0.025473 485040.000000 0 0 1
4.777973 10.719221 23.209696 26.008089 1.151492 0.468154 0.043408 -0.024580 -705020.000000 0 0 1
6.109173 10.186221 22.567486 25.502402 1.030562 0.484483 0.062485 -0.021809 712850.000000 0 0 1
7.002973 11.256221 22.244086 25.894855 1.014255 0.537453 0.054962 -0.016751 -151721.000000 0 0 1
8.166873 10.727221 21.678686 25.529130 0.920088 0.556376 0.054757 -0.017315 393364.000000 0 0 1
9.130673 11.859221 21.112886 25.879804 0.914667 0.616676 0.042753 -0.019628 343461.000000 0 0 1
8.624873 12.217221 19.838686 24.843961 0.956081 0.645945 0.039344 -0.020022 683729.000000 0 1 0
9.354173 13.293221 19.191586 25.150094 0.957605 0.702728 0.055198 -0.021377 1258460.000000 0 0 1
10.786873 12.978221 18.579486 25.099565 0.877347 0.737382 0.051236 -0.025095 1012690.000000 0 0 1
11.761373 12.733221 19.578986 26.149598 0.825053 0.724652 0.058793 -0.020854 -476539.000000 0 0 1
12.946973 12.335221 18.966486 26.067401 0.761206 0.755988 0.048672 -0.024056 28881.600000 0 0 1
14.173873 12.088221 19.910186 27.266083 0.706148 0.752155 0.054283 -0.015111 487723.000000 0 0 1
14.646273 13.307221 20.444886 28.453274 0.737532 0.769092 0.059550 -0.016712 -250.341000 0 0 1
15.841373 13.094221 21.170586 29.505956 0.690742 0.770587 0.060169 -0.015029 446006.000000 0 0 1
16.563273 14.396221 21.685486 30.852123 0.715516 0.791351 0.058219 -0.011442 271363.000000 0 0 1
15.991073 14.841221 22.929886 31.650528 0.748122 0.760530 0.067498 -0.014282 658628.000000 0 0 1
16.672473 16.033221 23.340936 32.860840 0.765855 0.780877 0.067221 -0.010944 140749.000000 0 0 1
-21.292727 12.587114 -24.946715 35.130532 -0.533884 2.360458 0.069423 -0.014477 1166.710000 0 0 1
-21.087627 12.480914 -26.336105 35.972929 -0.534412 2.392209 0.073484 -0.019804 170624.000000 0 0 1
-21.941227 13.376414 -27.059545 37.317085 -0.547483 2.382012 0.068153 -0.017530 159398.000000 0 0 1
-21.607727 13.560614 -28.532495 38.273847 -0.560454 2.412055 0.076728 -0.015867 -1660270.000000 0 0 1
-20.388027 14.134614 -28.642835 37.892888 -0.606202 2.427808 0.072485 -0.019785 -1616650.000000 0 0 1
-20.049227 14.541014 -29.968245 38.878121 -0.627482 2.450932 0.079253 -0.030267 -952285.000000 0 0 1
-18.592227 14.828314 -30.199935 38.439379 -0.673248 2.474544 0.076918 -0.029924 -1318750.000000 0 0 1
-17.742627 13.737814 -30.113785 37.554872 -0.658862 2.501200 0.074819 -0.034600 450790.000000 0 0 1
-16.375527 14.198614 -30.010155 37.018481 -0.714317 2.516110 0.059310 -0.026886 1190140.000000 0 0 1
-15.609027 13.879014 -28.698665 35.494818 -0.726797 2.512448 0.079054 -0.017053 -154191.000000 0 0 1
-16.186027 14.398714 -27.517055 35.021404 -0.727026 2.474657 0.081752 -0.026033 -23138.300000 0 0 1
-16.887227 13.356514 -26.849605 34.416220 -0.669182 2.465692 0.105138 -0.019903 -98476.400000 0 0 1
-17.594227 13.648214 -25.526505 33.873781 -0.659760 2.424283 0.099846 -0.021111 -534780.000000 0 0 1
-16.708127 14.143614 -24.587115 32.920048 -0.702465 2.414144 0.122258 -0.029422 -189249.000000 0 0 1
-17.372127 14.561814 -23.405915 32.583341 -0.697620 2.372210 0.109524 -0.031887 -7313.740000 0 0 1
-16.484827 15.193214 -22.287115 31.611687 -0.744648 2.353259 0.104437 -0.024198 47207.200000 0 0 1
-16.230727 16.508114 -22.733715 32.446512 -0.793871 2.347107 0.077927 -0.026684 122308.000000 0 0 1
-15.305027 17.220514 -21.916615 31.798238 -0.844222 2.331236 0.074788 -0.029386 -395812.000000 0 0 1
-15.187827 18.722414 -22.313015 32.849193 -0.889257 2.317545 0.069910 -0.023613 -379377.000000 0 0 1
-16.311027 19.537514 -22.130815 33.727393 -0.875160 2.286525 0.050429 -0.022774 -586758.000000 0 0 1
-17.234527 19.262814 -23.130715 34.685947 -0.840915 2.300785 0.033826 -0.017038 -832744.000000 0 0 1
-18.518827 20.122214 -23.127415 35.815189 -0.826869 2.272793 0.018419 -0.016753 8319.040000 0 0 1
-18.327127 21.439914 -23.521715 36.726347 -0.863514 2.265892 0.014505 -0.013891 -265523.000000 0 0 1
-19.547227 22.103214 -23.682415 37.835208 -0.846689 2.247127 0.037778 -0.026656 -183521.000000 0 0 1
-19.343227 23.594114 -23.936415 38.778791 -0.884079 2.236046 0.034579 -0.032120 305558.000000 0 0 1
-18.567427 24.137314 -22.876615 38.088040 -0.915094 2.215078 0.041253 -0.028453 -162698.000000 0 0 1
-17.912027 25.357214 -23.147115 38.724901 -0.955796 2.211466 0.032558 -0.017498 -520642.000000 0 0 1
-16.886027 25.638514 -22.040515 37.792269 -0.988386 2.193461 0.045745 -0.028048 523218.000000 0 0 1
-15.716927 24.773614 -22.013815 36.679174 -1.005450 2.214513 0.056081 -0.038581 819067.000000 0 0 1
-15.971227 23.407514 -21.689915 35.685350 -0.972040 2.224096 0.054785 -0.024241 -817593.000000 0 0 1
-14.700627 22.518514 -21.513315 34.438563 -0.992438 2.245527 0.085229 -0.023008 195779.000000 0 0 1
-14.084527 22.836514 -20.323315 33.658838 -1.018148 2.219060 0.100649 -0.027738 -452011.000000 0 0 1
-13.029427 21.956314 -20.023615 32.446739 -1.035225 2.235877 0.091059 -0.026056 -194109.000000 0 0 1
-12.243627 22.261014 -18.718915 31.557201 -1.067951 2.205792 0.078953 -0.027322 51117.400000 0 0 1
-12.895127 21.975914 -17.509515 30.916148 -1.040151 2.172873 0.093909 -0.022286 372436.000000 0 0 1
-14.088327 22.731414 -17.243315 31.820277 -1.015964 2.143489 0.084917 -0.026198 272184.000000 0 0 1
-14.694227 22.630514 -15.850015 31.293505 -0.994906 2.101912 0.098799 -0.022361 -637611.000000 0 0 1
-13.885527 22.990414 -14.793215 30.662782 -1.027463 2.074244 0.096813 -0.031126 -372337.000000 0 0 1
-14.528127 23.125314 -13.525215 30.475860 -1.009874 2.030632 0.093231 -0.022727 5830.960000 0 0 1
-13.507827 23.629414 -12.478015 29.941801 -1.051481 2.000655 0.100265 -0.022272 134474.000000 0 0 1
-13.005427 24.944914 -12.597315 30.823404 -1.090202 1.991818 0.082468 -0.024359 466320.000000 0 0 1
-12.077227 25.235114 -11.556015 30.268992 -1.124424 1.962515 0.049604 -0.019589 168309.000000 0 0 1
-11.676827 26.747014 -11.550215 31.387235 -1.159170 1.947644 0.062040 -0.023017 114327.000000 0 0 1
-10.747527 27.066514 -12.570915 31.719606 -1.192811 1.978295 0.074309 -0.023521 92575.000000 0 0 1
-10.789527 28.402114 -12.991315 33.043430 -1.207750 1.974861 0.054246 -0.013190 -424458.000000 0 0 1
-10.079027 28.671514 -14.339415 33.604484 -1.232755 2.011650 0.095715 -0.035619 487263.000000 0 0 1
-8.663727 28.702114 -14.384115 33.253184 -1.277643 2.018130 0.070818 -0.035132 272057.000000 0 0 1
-8.038727 27.400214 -14.342715 31.954754 -1.285422 2.036268 0.075681 -0.032126 323859.000000 0 0 1
-6.573427 27.312414 -14.889915 31.794457 -1.334613 2.058182 0.079848 -0.034306 148822.000000 0 0 1
-5.814727 28.194014 -14.162715 32.082643 -1.367408 2.028005 0.079512 -0.036525 -877840.000000 0 0 1
-4.491227 27.997914 -14.645315 31.914567 -1.411738 2.047543 0.091648 -0.037913 575779.000000 0 0 1
-3.388427 28.923714 -14.037315 32.328144 -1.454177 2.019961 0.077248 -0.028320 109324.000000 0 0 1
-3.373527 30.334014 -14.393215 33.744596 -1.460039 2.011453 0.068947 -0.023450 43128.900000 0 0 1
-4.285827 31.118914 -13.630215 34.242341 -1.433933 1.980188 0.055035 -0.024833 300940.000000 0 0 1
-4.413127 32.658514 -13.972115 35.794891 -1.436480 1.971795 0.059685 -0.030131 225318.000000 0 0 1
-3.459327 33.396214 -13.221815 36.084490 -1.467580 1.945947 0.041973 -0.030391 211680.000000 0 0 1
-3.456627 -33.508679 -13.597615 36.327331 1.468004 1.954447 0.044812 -0.029077 336405.000000 0 0 1
-2.593027 -32.604779 -12.671415 35.076490 1.491434 1.940405 0.043157 -0.028924 -129444.000000 0 0 1
-3.192527 -32.345979 -11.464715 34.465842 1.472416 1.909898 0.045417 -0.024613 -289958.000000 0 0 1
-2.267327 -31.793879 -10.549315 33.574984 1.499604 1.890412 0.034648 -0.024501 38785.200000 0 0 1
-2.778427 -31.578879 -9.118715 32.986303 1.483039 1.850884 0.030802 -0.015887 96129.500000 0 0 1
-1.701727 -31.053479 -8.353215 32.202339 1.516051 1.833195 0.035366 -0.023182 180143.000000 0 0 1
-2.062327 -31.076479 -7.005415 31.922978 1.504531 1.792044 0.033081 -0.028258 506410.000000 0 0 1
-0.920727 -30.546779 -6.052015 31.154138 1.540664 1.766300 0.050616 -0.027344 458800.000000 0 0 1
-1.135227 -30.626079 -4.694015 31.004503 1.533746 1.722779 0.059472 -0.033145 -296607.000000 0 0 1
-0.071827 -30.096079 -3.924115 30.350911 1.568410 1.700451 0.060269 -0.029244 -65200.400000 0 0 1
-0.117627 -30.509879 -2.390115 30.603581 1.566941 1.648975 0.059332 -0.022830 -270616.000000 0 0 1
0.164473 -31.881279 -2.064115 31.948451 -1.565637 1.635449 0.057739 -0.027589 393913.000000 0 0 1
1.421873 -32.467579 -2.387115 32.586250 -1.527031 1.644117 0.050559 -0.030495 8414.430000 0 0 1
2.719073 -31.951179 -1.792515 32.116729 -1.485900 1.626638 0.063113 -0.025768 -1306090.000000 0 0 1
2.772373 -32.177579 -0.373115 32.298945 -1.484850 1.582349 0.054720 -0.021585 559782.000000 0 0 1
4.007973 -31.936179 0.323085 32.188317 -1.445950 1.560759 0.065116 -0.021007 805090.000000 0 0 1
4.568073 -30.493479 0.330085 30.835507 -1.422097 1.560091 0.045597 -0.021863 -283050.000000 0 0 1
4.808373 -29.951479 -0.940015 30.349549 -1.411616 1.601774 0.055195 -0.030472 -57802.600000 0 0 1
4.672173 -28.588079 -0.798215 28.978347 -1.408798 1.598345 0.059905 -0.023018 -271011.000000 0 0 1
4.138173 -27.787879 -1.966315 28.163044 -1.422963 1.640672 0.058396 -0.021217 -42607.100000 0 0 1
2.845573 -28.147279 -2.414915 28.393633 -1.470043 1.655950 0.064572 -0.020954 198965.000000 0 0 1
2.260573 -27.246779 -3.378115 27.548299 -1.488019 1.693731 0.063414 -0.018452 80324.400000 0 0 1
2.909273 -27.212979 -4.752615 27.777642 -1.464293 1.742737 0.050098 -0.015539 -287705.000000 0 0 1
2.438673 -28.224379 -5.623915 28.882366 -1.484607 1.766766 0.049043 -0.015942 -192765.000000 0 0 1
2.937373 -28.128479 -6.913415 29.114168 -1.466746 1.810545 0.055041 -0.026718 -155209.000000 0 0 1
2.021773 -28.853879 -7.926615 29.991084 -1.500841 1.838273 0.043692 -0.024726 -658359.000000 0 0 1
0.817973 -28.222079 -8.160215 29.389520 -1.541821 1.852151 0.049493 -0.021680 -909213.000000 0 0 1
0.693173 -27.945179 -9.540515 29.537009 -1.545997 1.899696 0.033347 -0.024350 -301651.000000 0 0 1
-0.707727 -27.400479 -9.823215 29.116708 1.544973 1.914922 0.043514 -0.023547 -882896.000000 0 0 1
-0.914727 -26.024879 -9.482515 27.713699 1.535663 1.920011 0.042287 -0.014000 952771.000000 0 0 1
-2.304027 -25.630779 -9.452615 27.415275 1.481144 1.922815 0.055097 -0.024896 1736710.000000 0 0 1
-3.308927 -26.313179 -8.453215 27.835036 1.445701 1.879359 0.068590 -0.025914 -111925.000000 0 0 1
-2.955627 -26.150779 -7.056015 27.246767 1.458251 1.832749 0.074296 -0.031010 -4243.460000 0 0 1
-2.093727 -27.169279 -6.570515 28.030788 1.493886 1.807401 0.067824 -0.026554 88529.500000 0 0 1
-1.584727 -26.974079 -5.133815 27.503969 1.512114 1.758555 0.074108 -0.021586 359619.000000 0 0 1
-2.520027 -27.219679 -4.051415 27.634677 1.478478 1.717933 0.076320 -0.029282 649550.000000 0 0 1
-2.014827 -26.825379 -2.737915 27.039908 1.495828 1.672225 0.076713 -0.022667 527646.000000 0 0 1
-3.176027 -26.929679 -1.676115 27.168071 1.453401 1.632530 0.065574 -0.020330 761495.000000 0 0 1
-4.153927 -25.964079 -2.051915 26.374208 1.412153 1.648675 0.059934 -0.021248 -251531.000000 0 0 1
-5.162727 -25.846579 -1.093815 26.379837 1.373646 1.612272 0.070565 -0.030887 -367477.000000 0 0 1
-6.278427 -24.838779 -1.354515 25.655765 1.323215 1.623617 0.059272 -0.032087 -328910.000000 0 0 1
-6.003227 -23.536279 -0.881815 24.305817 1.321058 1.607084 0.045074 -0.029556 -146741.000000 0 1 0
-6.582027 -23.278679 0.361185 24.194016 1.295240 1.555867 0.059136 -0.015275 -323171.000000 0 1 0
-6.221127 -21.888879 0.975685 22.776685 1.293884 1.527946 0.033965 -0.010858 -1134240.000000 0 1 0
-5.060327 -21.891279 1.677785 22.531088 1.343629 1.496262 0.023110 -0.012974 -1064360.000000 0 1 0
-4.413027 -20.591779 1.611185 21.120892 1.359680 1.494438 0.003450 -0.008061 -104299.000000 0 1 0
-3.297627 -20.454379 2.634185 20.885279 1.410953 1.444333 0.006382 -0.000994 -790268.000000 0 1 0
-3.764627 -20.313379 3.921685 21.028204 1.387548 1.383202 0.003735 0.004992 439945.000000 0 1 0
-2.766627 -20.209579 4.989985 20.999553 1.434745 1.330878 0.016103 -0.000585 1149050.000000 0 1 0
-1.823727 -21.441379 5.278185 22.156668 1.485944 1.330263 0.014732 -0.012584 556980.000000 0 1 0
-0.910127 -21.616479 4.206585 22.040777 1.528718 1.378764 0.040067 -0.016874 -538313.000000 0 1 0
-0.207827 -22.827079 4.442885 23.256353 1.561692 1.378575 0.050513 -0.016599 -357255.000000 0 1 0
0.889873 -23.179179 3.415985 23.446431 -1.532424 1.424583 0.057064 -0.024762 627848.000000 0 1 0
2.125073 -22.494479 3.398585 22.848805 -1.476605 1.421500 0.029133 -0.021289 466998.000000 0 1 0
3.003573 -22.785079 4.504985 23.419568 -1.439730 1.377230 0.061064 -0.024381 726587.000000 0 1 0
4.258873 -21.840779 4.675085 22.737942 -1.378217 1.363712 0.075776 -0.025847 825573.000000 0 1 0
5.206673 -21.948179 3.668785 22.853708 -1.337876 1.409565 0.054613 -0.010167 -1348830.000000 0 1 0
6.256073 -21.072979 3.857385 22.317892 -1.282208 1.397086 0.077804 -0.007442 -178051.000000 0 1 0
6.991773 -20.620079 2.583985 21.926001 -1.243886 1.452672 0.083538 -0.001850 35489.800000 0 1 0
7.607773 -21.706979 1.903185 23.080148 -1.233698 1.488243 0.073928 -0.000506 -284805.000000 0 1 0
7.183973 -21.764679 0.579085 22.926972 -1.251981 1.545536 0.067657 -0.004974 102704.000000 0 1 0
8.022973 -22.710279 -0.332515 24.088076 -1.231207 1.584601 0.069170 0.000499 107259.000000 0 1 0
9.214573 -22.113579 -0.776415 23.969179 -1.175983 1.603194 0.064308 0.004720 -808797.000000 0 1 0
10.060673 -22.983679 -1.458515 25.131532 -1.158192 1.628864 0.062198 0.003568 -77535.900000 0 0 1
11.408073 -22.321579 -1.805215 25.132764 -1.098325 1.642685 0.060452 0.004290 47760.200000 0 0 1
11.319973 -21.229679 -2.629615 24.202395 -1.080931 1.679662 0.060074 0.005931 -179485.000000 0 1 0
12.514473 -21.133979 -3.382415 24.793100 -1.036169 1.707649 0.057941 0.007380 189229.000000 0 1 0
12.595873 -19.912679 -4.267615 23.945424 -1.006782 1.749976 0.051142 -0.002371 -27713.400000 0 1 0
12.767673 -18.669679 -3.580315 22.899542 -0.970977 1.727789 0.067235 -0.003050 105928.000000 0 1 0
12.934973 -17.526379 -4.409215 22.224506 -0.935001 1.770516 0.065379 -0.010677 -978594.000000 0 1 0
13.334373 -16.184579 -3.781615 21.308372 -0.881655 1.749212 0.080994 -0.010089 746929.000000 0 1 0
14.693873 -16.023479 -3.356915 21.998424 -0.828656 1.723993 0.066711 -0.009569 690112.000000 0 1 0
15.576973 -15.953779 -4.466415 22.740141 -0.797348 1.768493 0.060037 -0.005271 -131523.000000 0 1 0
17.029373 -15.481679 -4.071215 23.372135 -0.737829 1.745880 0.054624 -0.006373 770898.000000 0 1 0
17.748473 -16.593379 -3.511615 24.549541 -0.751776 1.714331 0.058124 -0.001606 -450372.000000 0 1 0
19.030173 -16.121279 -3.264515 25.153532 -0.702833 1.700947 0.045598 0.003595 -629538.000000 0 0 1
19.898473 -17.016579 -2.325815 26.285406 -0.707488 1.659395 0.035231 -0.007623 -858979.000000 0 0 1
21.259073 -16.849979 -2.410515 27.233813 -0.670214 1.659424 0.032851 -0.002281 -816644.000000 0 0 1
21.899873 -17.774079 -1.535115 28.246750 -0.681778 1.625170 0.033029 0.001145 347034.000000 0 0 1
23.442773 -17.910279 -1.564215 29.542993 -0.652401 1.623768 0.044517 -0.004413 79383.600000 0 0 1
24.107673 -16.823079 -1.029215 29.415220 -0.609269 1.605793 0.051549 -0.004572 -167163.000000 0 0 1
25.436273 -17.105079 -0.644415 30.659468 -0.592008 1.591816 0.082497 -0.009304 192639.000000 0 0 1
26.151873 -15.781679 -0.178415 30.545273 -0.542962 1.576637 0.073981 -0.015393 -23685.700000 0 0 1
25.602473 -15.182279 0.997685 29.782270 -0.535257 1.537291 0.054648 -0.013929 -85944.600000 0 0 1
26.210873 -13.982779 1.376285 29.739235 -0.490066 1.524501 0.039518 -0.017409 -338240.000000 0 0 1
25.572373 -13.159379 2.538585 28.871438 -0.475254 1.482755 0.059757 -0.023673 -159468.000000 0 0 1
25.433673 -13.842579 3.781885 29.202592 -0.498427 1.440926 0.078348 -0.016119 745070.000000 0 0 1
26.690873 -14.042779 4.446085 30.485570 -0.484330 1.424432 0.082532 -0.007451 559556.000000 0 0 1
26.502073 -14.625779 5.883685 30.836521 -0.504280 1.378817 0.078956 -0.008389 161103.000000 0 0 1
25.867173 -15.883679 5.871485 30.917248 -0.550685 1.379726 0.059806 -0.016598 -471439.000000 0 0 1
24.682873 -15.873879 6.613285 30.082549 -0.571519 1.349148 0.046717 -0.010927 -76478.500000 0 0 1
23.781573 -17.120779 6.503385 30.016300 -0.623969 1.352403 0.047089 -0.020508 280437.000000 0 0 1
24.508173 -18.254679 7.021485 31.355782 -0.640191 1.344952 0.055769 -0.013771 226588.000000 0 0 1
23.872073 -19.503779 6.837585 31.575716 -0.685029 1.352522 0.037952 0.000164 -89944.800000 0 0 1
1.542173 23.043914 -3.109215 23.303808 1.503973 1.704616 0.025383 -0.019245 -9446.640000 0 1 0
2.279173 24.132614 -2.590915 24.378075 1.476632 1.677278 0.032490 -0.023841 -311481.000000 0 1 0
3.084973 24.579314 -3.647815 25.039295 1.445938 1.717000 0.044465 -0.024150 -552596.000000 0 0 1
4.109373 25.635814 -3.265715 26.167667 1.411850 1.695922 0.032311 -0.018441 -1000600.000000 0 0 1
5.152873 25.030114 -2.616415 25.688603 1.367766 1.672824 0.035300 -0.023962 -1156860.000000 0 0 1
5.867773 25.900214 -1.778015 26.616032 1.348004 1.637649 0.022022 -0.020048 626776.000000 0 0 1
7.200073 25.332814 -1.149215 26.361207 1.293879 1.614405 0.026182 -0.032005 525154.000000 0 0 1
8.215273 25.098914 -2.089615 26.491748 1.254471 1.649756 0.047653 -0.032917 -501160.000000 0 0 1
9.198173 24.326214 -1.418315 26.045781 1.209295 1.625278 0.031177 -0.023827 162761.000000 0 0 1
10.351673 23.897814 -2.387515 26.152684 1.162031 1.662215 0.053361 -0.022669 -598144.000000 0 0 1
11.102673 25.024914 -2.784815 27.518555 1.153223 1.672168 0.057289 -0.016815 632029.000000 0 0 1
12.241473 24.909714 -3.669615 27.996671 1.114025 1.702248 0.071645 -0.018042 1338740.000000 0 0 1
13.336473 23.868214 -3.266015 27.535795 1.061257 1.689686 0.063693 -0.018373 -816997.000000 0 0 1
13.018473 22.481114 -3.311415 26.188673 1.045898 1.697580 0.073505 -0.021536 -284565.000000 0 0 1
12.978573 22.023014 -4.646415 25.981641 1.038268 1.750598 0.089723 -0.028511 47128.100000 0 0 1
12.028273 20.773314 -4.858015 24.491024 1.045942 1.770480 0.075602 -0.032967 -274993.000000 0 1 0
10.710673 21.182914 -4.756515 24.208651 1.102657 1.768563 0.079896 -0.029949 -638580.000000 0 1 0
9.761673 20.105414 -4.784115 22.856196 1.118796 1.781669 0.044416 -0.025576 922028.000000 0 1 0
8.279173 20.568014 -4.879115 22.702283 1.188114 1.787404 0.045902 -0.018484 310672.000000 0 1 0
7.837773 21.086814 -3.659315 22.791994 1.214930 1.732047 0.045247 -0.020844 583412.000000 0 1 0
6.489573 21.586714 -3.695215 22.841966 1.278763 1.733283 0.046542 -0.011136 939660.000000 0 1 0
6.091173 22.160514 -2.310415 23.098242 1.302555 1.670989 0.042819 -0.021313 -38693.600000 0 1 0
5.783573 21.248314 -1.263115 22.057562 1.305045 1.628092 0.040031 -0.027128 184014.000000 0 1 0
5.255173 21.901014 -0.100315 22.522907 1.335298 1.575250 0.044743 -0.022006 317730.000000 0 1 0
4.417573 21.083114 0.903485 21.559892 1.364253 1.528878 0.022788 -0.017651 -85744.100000 0 1 0
3.876373 21.819114 1.964085 22.247643 1.394971 1.482398 0.033725 -0.013303 256121.000000 0 1 0
3.213673 20.949714 2.909285 21.393507 1.418583 1.434385 0.025414 -0.013883 507813.000000 0 1 0
2.196573 21.506414 3.951485 21.976465 1.469014 1.390008 0.022284 -0.014241 369138.000000 0 1 0
0.850673 21.642314 3.546785 21.947507 1.531511 1.408481 0.021141 -0.014321 -217196.000000 0 1 0
0.052373 22.160314 4.593085 22.631365 1.568433 1.366424 0.023348 -0.020172 720053.000000 0 1 0
-1.431027 22.250014 4.127685 22.674848 -1.506569 1.387738 0.023934 -0.018672 213471.000000 0 1 0
-2.417827 22.668714 5.038985 23.347545 -1.464539 1.353260 0.043004 -0.023564 374800.000000 0 1 0
-3.603927 22.878114 4.232785 23.543850 -1.414553 1.390030 0.055999 -0.023898 473718.000000 0 1 0
-4.877927 23.071014 5.063285 24.118514 -1.362434 1.359289 0.075414 -0.036607 -542014.000000 0 1 0
-5.062327 24.350614 5.642385 25.503256 -1.365823 1.347709 0.097341 -0.026264 -323916.000000 0 0 1
-6.221327 24.331714 6.434285 25.925610 -1.320471 1.319993 0.107391 -0.030709 -97446.900000 0 0 1
-6.543127 25.734314 7.077185 27.480065 -1.321815 1.310322 0.116587 -0.033143 -116281.000000 0 0 1
-5.611327 26.227514 8.022885 27.995288 -1.360026 1.280141 0.102208 -0.035597 -150935.000000 0 0 1
-5.851527 27.565814 8.612285 29.466692 -1.361626 1.274195 0.121838 -0.035987 -155725.000000 0 0 1
-5.923827 28.807914 7.690185 30.399450 -1.367991 1.315046 0.127538 -0.032987 223716.000000 0 0 1
-6.981127 28.651514 6.763185 30.255348 -1.331797 1.345355 0.121942 -0.035668 -393091.000000 0 0 1
-7.227027 29.815114 6.031985 31.265888 -1.332988 1.376654 0.116774 -0.035396 -703857.000000 0 0 1
-8.703027 29.991514 5.674485 31.740091 -1.288370 1.391050 0.091582 -0.031977 -488923.000000 0 0 1
-9.444227 30.405214 6.759385 32.547807 -1.269632 1.361598 0.086041 -0.028429 -735241.000000 0 0 1
-10.148027 29.362214 7.388085 31.932834 -1.238033 1.337318 0.077014 -0.024130 127655.000000 0 0 1
-11.330627 29.893014 8.249085 33.015493 -1.208489 1.318266 0.055257 -0.018101 201828.000000 0 0 1
-10.755427 30.466914 9.385985 33.645338 -1.231434 1.288077 0.065111 -0.018290 577967.000000 0 0 1
-11.769727 30.991514 10.274185 34.706761 -1.207848 1.270264 0.064479 -0.017644 791392.000000 0 0 1
-11.109527 31.496614 11.608785 35.358481 -1.231699 1.236275 0.060335 -0.023020 175751.000000 0 0 1
-10.563727 32.824414 11.498085 36.348871 -1.259439 1.248942 0.050425 -0.023074 267025.000000 0 0 1
-9.677427 33.058714 12.580185 36.671409 -1.286018 1.220633 0.047798 -0.025813 413175.000000 0 0 1
-9.153727 -33.666379 12.556085 37.079253 1.305319 1.225338 0.044384 -0.022221 309803.000000 0 0 1
-10.125327 -32.829479 13.135985 36.781123 1.271631 1.205593 0.041844 -0.012162 -30191.800000 0 0 1
-9.734727 -31.475779 13.045385 35.435457 1.270851 1.193783 0.038752 -0.012076 23334.200000 0 0 1
-10.683027 -30.466779 13.718685 35.079253 1.233547 1.168995 0.055163 -0.008348 -205970.000000 0 0 1
-10.865027 -30.593879 15.103885 35.807284 1.229552 1.135355 0.054053 -0.021627 108907.000000 0 0 1
-9.778227 -30.247679 15.957685 35.569418 1.258128 1.105559 0.055996 -0.023524 166708.000000 0 0 1
-9.993327 -30.583979 17.420785 36.588660 1.254982 1.074553 0.055019 -0.031569 -97512.000000 0 0 1
-10.630327 -29.563479 18.165985 36.290579 1.225616 1.046539 0.074837 -0.032782 485050.000000 0 0 1
-11.317927 -30.195779 19.276185 37.569294 1.212185 1.032023 0.067356 -0.032216 268310.000000 0 0 1
-11.606527 -29.265079 20.474385 37.554716 1.193225 0.994183 0.073659 -0.043056 46420.400000 0 0 1
-10.451627 -29.064779 21.258985 37.495897 1.225597 0.967976 0.049153 -0.032119 233793.000000 0 0 1
-10.670027 -28.188679 22.349785 37.522846 1.208942 0.932745 0.044091 -0.028233 24177.900000 0 0 1
-9.554427 -28.281179 23.411685 37.937042 1.244998 0.905720 0.065201 -0.030992 -115212.000000 0 0 1
-9.516227 -29.471979 24.173885 39.287820 1.258473 0.908027 0.037636 -0.012250 8474.470000 0 0 1
-8.516127 -29.535579 25.171285 39.729943 1.290076 0.884651 0.051936 -0.023183 -110448.000000 0 0 1
-8.429127 -30.818179 25.973085 41.175374 1.303814 0.888223 0.044777 -0.018464 -283376.000000 0 0 1
-8.107027 -32.047279 25.334485 41.648386 1.323024 0.916886 0.065726 -0.018263 394314.000000 0 0 1
-8.236327 -33.157579 26.256285 43.088915 1.327325 0.915554 0.065688 -0.018807 -363922.000000 0 0 1
-8.150127 33.747214 25.513785 43.084246 -1.333829 0.937030 0.066222 -0.017890 -464676.000000 0 0 1
-6.847827 33.533214 25.041785 42.408256 -1.369356 0.939127 0.056388 -0.013803 -220695.000000 0 0 1
-6.546227 32.267214 24.488685 41.033180 -1.370637 0.931287 0.052116 -0.010663 -258610.000000 0 0 1
-7.230027 31.722314 23.215285 39.969087 -1.346708 0.951047 0.049643 -0.013573 50104.800000 0 0 1
-8.518827 31.199414 23.461685 39.955281 -1.304249 0.943203 0.045126 -0.016679 46015.800000 0 0 1
-9.331027 31.071714 22.327985 39.383479 -1.279059 0.968013 0.042007 -0.011915 220052.000000 0 0 1
-10.322627 29.871414 22.508485 38.800643 -1.238075 0.951938 0.042563 -0.021378 106977.000000 0 0 1
-9.671827 28.617214 22.426985 37.622584 -1.244876 0.932156 0.036672 -0.018144 -270655.000000 0 0 1
-10.431927 27.505114 22.786685 37.210071 -1.208285 0.911729 0.012663 -0.014311 -417320.000000 0 0 1
-9.696127 26.142714 22.554685 35.863215 -1.215632 0.890648 0.003254 -0.015851 313243.000000 0 0 1
-8.532327 25.843714 23.316185 35.837726 -1.251913 0.862416 0.009095 -0.023127 128856.000000 0 0 1
-8.079327 24.557714 23.123485 34.685046 -1.252957 0.841064 0.017651 -0.017087 -352835.000000 0 0 1
-6.669527 24.382514 23.685685 34.641034 -1.303790 0.817912 0.018759 -0.021175 -352050.000000 0 0 1
-5.606027 24.974914 22.988985 34.404466 -1.349990 0.839013 0.009569 -0.021798 257175.000000 0 0 1
-4.413527 24.911614 23.790985 34.728644 -1.395448 0.816119 0.044886 -0.019006 1015080.000000 0 0 1
-3.188027 25.532114 23.036485 34.535952 -1.446576 0.840582 0.032771 -0.006863 225330.000000 0 0 1
-2.890627 24.864914 21.836685 33.218376 -1.455063 0.853476 0.028836 -0.008341 657190.000000 0 0 1
-1.780227 25.533414 21.188985 33.227963 -1.501188 0.879307 0.026519 -0.002154 738612.000000 0 0 1
-1.413527 24.660014 19.963785 31.759519 -1.513538 0.891055 0.018425 -0.005982 -162074.000000 0 0 1
-0.586627 23.547714 20.281785 31.083593 -1.545889 0.859929 0.033215 -0.009952 65692.600000 0 0 1
-0.455427 22.698414 19.171685 29.714961 -1.550735 0.869529 0.016231 -0.007893 409163.000000 0 0 1
0.694573 21.612214 19.259085 28.956564 1.538669 0.843165 0.019783 0.000388 538419.000000 0 0 1
2.003073 22.044914 19.081885 29.225141 1.480182 0.859354 0.029393 -0.014766 -932089.000000 0 0 1
3.005373 21.084714 19.148085 28.639947 1.429212 0.838499 0.041161 -0.009503 253900.000000 0 0 1
4.415173 21.728714 19.338885 29.421476 1.370330 0.853559 0.038074 -0.022253 -155787.000000 0 0 1
5.385973 20.745414 19.123285 28.724222 1.316782 0.842292 0.055529 -0.024601 -1447690.000000 0 0 1
6.535473 21.446614 18.796585 29.257158 1.275004 0.873091 0.091708 -0.029982 -527601.000000 0 0 1
7.747773 20.515114 18.490385 28.684355 1.209694 0.870276 0.091469 -0.021962 21060.100000 0 0 1
8.287573 19.866014 19.594985 29.108518 1.175573 0.832309 0.080551 -0.026325 94047.800000 0 0 1
9.381273 19.048214 19.179685 28.612988 1.113166 0.836165 0.083211 -0.021631 506523.000000 0 0 1
9.975973 18.166714 20.322585 29.026832 1.068618 0.795215 0.095565 -0.018244 48817.100000 0 0 1
9.153073 17.042114 20.624285 28.276731 1.077922 0.753391 0.081563 -0.020231 205230.000000 0 0 1
9.693973 16.210014 21.635585 28.719962 1.031831 0.717687 0.080079 -0.025219 -219937.000000 0 0 1
8.650673 15.269914 22.221585 28.316131 1.055360 0.668475 0.062573 -0.021622 315700.000000 0 0 1
7.593573 15.897914 22.979685 28.956380 1.125191 0.654099 0.060850 -0.012932 1709620.000000 0 0 1
6.467973 15.078714 23.435785 28.608361 1.165587 0.610793 0.056263 -0.015763 1301750.000000 0 0 1
6.847073 13.893614 24.339985 28.850473 1.112908 0.566732 0.058990 -0.018519 -644017.000000 0 0 1
7.414773 14.270314 25.572085 30.208480 1.091596 0.561382 0.074047 -0.025415 -24159.400000 0 0 1
7.620073 13.139114 26.406285 30.462989 1.045247 0.521984 0.078546 -0.035010 36203.500000 0 0 1
8.573673 13.451014 27.647185 31.918717 1.003330 0.523300 0.055037 -0.025300 897465.000000 0 0 1
9.964773 13.587114 27.384285 32.152845 0.938005 0.551593 0.073341 -0.023894 53727.700000 0 0 1
10.283073 14.861214 26.878785 32.389294 0.965500 0.591928 0.065793 -0.020231 -273461.000000 0 0 1
11.726173 14.846314 26.299085 32.396883 0.902283 0.623606 0.075288 -0.025220 397047.000000 0 0 1
11.694473 14.162214 25.013485 31.032297 0.880549 0.633354 0.073229 -0.025410 459211.000000 0 0 1
13.005273 13.867614 24.537385 31.040797 0.817477 0.659191 0.080575 -0.025870 147957.000000 0 0 1
12.935273 12.644414 23.581985 29.720574 0.774028 0.654329 0.064389 -0.023103 -2112.180000 0 0 1
12.656873 11.428814 24.235485 29.633983 0.734455 0.613171 0.058730 -0.018157 1497020.000000 0 0 1
11.225073 11.176914 24.361385 29.058609 0.783248 0.576541 0.068901 -0.017008 1182520.000000 0 0 1
10.926773 9.827514 24.947885 28.954643 0.732482 0.532344 0.057830 -0.015480 -238757.000000 0 0 1
11.096473 8.730614 24.120885 27.949462 0.666635 0.529583 0.058834 -0.015691 240007.000000 0 0 1
10.812173 7.572214 24.841385 28.130694 0.610955 0.488430 0.062504 -0.011538 -126232.000000 0 0 1
10.942673 6.365014 23.989585 27.124817 0.526832 0.485558 0.058938 -0.010682 447337.000000 0 0 1
12.273473 6.083314 23.544385 27.239363 0.460159 0.526937 0.066631 -0.008568 701639.000000 0 0 1
12.343373 5.036414 22.584285 26.225450 0.387406 0.533251 0.077120 -0.018545 -75367.400000 0 0 1
12.118873 3.568914 23.111285 26.338863 0.286396 0.500257 0.065830 -0.023194 -801443.000000 0 0 1
13.140573 3.085914 23.872885 27.424663 0.230659 0.514600 0.063722 -0.014979 -618898.000000 0 0 1
12.735273 1.834914 24.406785 27.590673 0.143096 0.485155 0.061420 -0.015803 -436778.000000 0 0 1
13.863673 1.181614 25.198685 28.784916 0.085025 0.504507 0.045614 -0.006498 -328882.000000 0 0 1
14.904673 0.722114 24.386785 28.589963 0.048411 0.549120 0.077683 -0.014005 -106137.000000 0 0 1
16.120873 1.436414 24.534885 29.392285 0.088868 0.583138 0.072477 -0.014817 711408.000000 0 0 1
17.230873 0.772514 23.573085 29.209418 0.044803 0.631679 0.077389 -0.026020 684578.000000 0 0 1
17.713673 -0.452186 24.065985 29.885621 -0.025522 0.634666 0.080632 -0.021100 44153.200000 0 0 1
18.583873 -1.091286 23.152385 29.708318 -0.058655 0.677211 0.081252 -0.015846 -383727.000000 0 0 1
18.718773 -2.569186 23.551785 30.194035 -0.136400 0.676107 0.071035 -0.007629 142854.000000 0 0 1
17.672573 -3.473486 23.144485 29.326645 -0.194073 0.661297 0.059005 0.001018 533510.000000 0 0 1
17.948373 -4.870686 23.347285 29.849010 -0.264990 0.672640 0.054011 0.002208 -123778.000000 0 0 1
17.002673 -5.818886 22.592785 28.868395 -0.329739 0.671944 0.049291 0.003179 -115034.000000 0 0 1
17.166873 -5.884586 21.169385 27.883198 -0.330235 0.708688 0.056654 0.003624 301054.000000 0 0 1
16.236373 -6.707586 20.471585 26.975865 -0.391766 0.709197 0.069297 -0.000149 -236434.000000 0 0 1
16.571973 -8.232386 20.441885 27.573051 -0.461057 0.735684 0.065914 0.000169 3945.740000 0 0 1
16.706473 -8.679986 21.780985 28.789924 -0.479172 0.712777 0.053240 -0.004320 135729.000000 0 0 1
17.306373 -9.970486 21.717685 29.505575 -0.522673 0.743575 0.042822 -0.002795 -210562.000000 0 0 1
17.146373 -10.843286 22.984085 30.656861 -0.563900 0.723156 0.047473 0.010882 1109330.000000 0 0 1
15.808073 -11.334886 23.246685 30.311436 -0.622065 0.696756 0.060296 0.005792 1163430.000000 0 0 1
15.966373 -12.198886 24.314585 31.542621 -0.652424 0.690624 0.054705 0.008844 550403.000000 0 0 1
14.763873 -13.191486 24.463385 31.471328 -0.729211 0.680397 0.077183 0.015343 403982.000000 0 0 1
14.851973 -14.216886 23.523285 31.241733 -0.763554 0.718272 0.069087 0.001697 -98925.900000 0 0 1
13.692373 -14.998186 23.497585 31.057417 -0.830880 0.712721 0.082531 -0.007401 -334335.000000 0 0 1
13.453773 -15.941086 22.272585 30.515410 -0.869814 0.752650 0.077195 -0.011370 -183678.000000 0 0 1
14.403473 -16.975686 22.244085 31.471150 -0.867187 0.785820 0.076171 -0.009998 19588.600000 0 0 1
14.369173 -17.741486 21.042885 31.048937 -0.890036 0.826121 0.064287 0.004385 -59868.600000 0 0 1
-24.830527 -32.478779 26.211786 48.564224 0.918070 1.000675 0.010773 -0.011825 -570917.000000 0 0 1
-24.434227 -33.832379 26.214776 49.283625 0.945317 1.009934 0.032892 -0.004522 -229413.000000 0 0 1
-25.356857 33.456014 26.666416 49.733015 -0.922248 1.004878 0.028271 -0.016145 -631777.000000 0 0 1
-25.536947 33.512214 28.216006 50.708452 -0.919647 0.980706 0.026216 -0.012634 -64894.100000 0 0 1
-26.303167 -33.645779 28.723756 51.467943 0.907272 0.978714 0.066914 -0.021488 61326.500000 0 0 1
-26.359157 -33.728179 30.143976 52.355080 0.907427 0.957263 0.043898 -0.021716 -552113.000000 0 0 1
-27.645527 -33.072479 30.658956 52.896461 0.874541 0.952555 0.036398 -0.019817 -318835.000000 0 0 1
-27.719307 -31.679179 30.439456 51.947000 0.851966 0.944718 0.028024 -0.008585 -551051.000000 0 0 1
-28.731337 -31.171879 31.225316 52.651648 0.826117 0.935949 0.022767 0.000422 -720715.000000 0 0 1
-29.002887 -29.654979 31.029096 51.801448 0.796515 0.928544 0.012876 -0.007113 -289119.000000 0 0 1
-29.624667 -29.322179 29.838096 51.261321 0.780267 0.949514 0.002484 0.003454 -85653.700000 0 0 1
-29.890557 -27.964779 29.802096 50.632392 0.752124 0.941474 0.024721 0.001004 -113979.000000 0 0 1
-30.590387 -27.567479 28.493926 50.076356 0.733467 0.965495 0.016155 -0.005886 139889.000000 0 0 1
-29.743647 -27.418579 27.337866 48.824398 0.744746 0.976504 0.013687 0.010829 309845.000000 0 0 1
-29.291217 -26.093779 27.211196 47.742118 0.727731 0.964337 0.005608 0.010971 -353384.000000 0 0 1
-28.248817 -25.879779 26.129606 46.373644 0.741659 0.972231 -0.002756 0.019822 -268011.000000 0 0 1
-28.829797 -26.035279 24.846876 46.112473 0.734508 1.001746 -0.006663 0.009654 447254.000000 0 0 1
-27.879307 -25.739879 23.831206 44.807627 0.745519 1.010006 0.008826 0.010113 35370.400000 0 0 1
-28.416357 -26.110779 22.452786 44.647393 0.743140 1.043856 0.008921 0.011692 -209959.000000 0 0 1
-29.140177 -25.061479 21.858286 44.215521 0.710289 1.053700 0.008038 0.004241 204629.000000 0 0 1
-29.892117 -25.654479 20.801886 44.546710 0.709256 1.084938 0.008211 0.006017 -38118.600000 0 0 1
-30.666307 -24.718079 19.880586 44.120783 0.678409 1.103365 0.008744 0.001385 276416.000000 0 0 1
-31.830167 -24.078079 20.400786 44.823046 0.647619 1.098266 0.012899 -0.001662 437620.000000 0 0 1
-32.444917 -23.195179 19.484386 44.388402 0.620662 1.116364 0.013199 -0.001902 -794350.000000 0 0 1
-33.893177 -22.881279 19.780386 45.426468 0.593818 1.120272 0.034847 0.003658 -700586.000000 0 0 1
-34.804900 -23.935779 19.536686 46.540140 0.602432 1.137592 0.028420 0.001499 110904.000000 0 0 1
-36.089477 -23.411479 19.245086 47.126648 0.575465 1.150129 0.047439 -0.004917 172416.000000 0 0 1
36.082095 -24.487179 18.838586 47.501914 -0.596254 1.163002 0.060928 -0.020007 133075.000000 0 0 1
35.637045 -25.410279 19.847186 48.058215 -0.619417 1.145070 0.054455 -0.015281 94619.800000 0 0 1
34.985715 -26.451279 19.144286 47.855763 -0.647368 1.159234 0.056405 -0.011452 -193748.000000 0 0 1
34.457815 -27.702279 19.960586 48.509610 -0.677143 1.146722 0.056127 -0.010508 109630.000000 0 0 1
33.190035 -27.626679 20.559886 47.828033 -0.694175 1.126446 0.058640 -0.012612 -252450.000000 0 0 1
33.153665 -26.641179 21.611786 47.707308 -0.676912 1.100660 0.068006 -0.021337 -720031.000000 0 0 1
32.003425 -26.894079 22.574986 47.509374 -0.698865 1.075640 0.074661 -0.025958 -510973.000000 0 0 1
30.716255 -26.984779 22.038986 46.447643 -0.720819 1.076411 0.083020 -0.018703 -224446.000000 0 0 1
29.790565 -26.032379 22.523486 45.524388 -0.718176 1.053242 0.085001 -0.019291 -307066.000000 0 0 1
29.453025 -24.901879 21.521186 44.167247 -0.701863 1.061840 0.071680 -0.011171 388932.000000 0 0 1
30.460485 -23.935379 21.100286 44.113100 -0.666013 1.072053 0.077347 -0.014053 681660.000000 0 0 1
31.086655 -23.170979 22.140486 44.648354 -0.640530 1.051942 0.087873 -0.017890 573535.000000 0 0 1
32.037455 -22.063979 21.589486 44.489590 -0.603097 1.064124 0.075158 -0.012978 566377.000000 0 0 1
31.241615 -20.987779 21.115886 43.155602 -0.591541 1.059513 0.074820 -0.020413 38672.800000 0 0 1
32.055045 -19.941279 20.674886 43.042205 -0.556507 1.069754 0.068173 -0.015644 -775433.000000 0 0 1
31.435465 -18.492979 20.735286 41.953913 -0.531760 1.053836 0.069771 -0.009190 104843.000000 0 0 1
31.227875 -17.914879 21.965586 42.173570 -0.520843 1.022964 0.063254 -0.013538 73468.500000 0 0 1
30.316655 -18.589679 22.818786 42.253671 -0.550057 1.000309 0.081016 -0.013269 -331946.000000 0 0 1
30.286565 -18.098179 24.261166 42.818504 -0.538627 0.968417 0.071180 -0.014052 87477.400000 0 0 1
29.577375 -16.893079 24.536146 41.978800 -0.518935 0.946546 0.065266 -0.018135 262690.000000 0 0 1
29.695345 -16.572479 25.900486 42.746880 -0.509028 0.919895 0.063221 -0.018746 -81786.700000 0 0 1
29.306425 -15.126379 26.267036 42.161962 -0.476480 0.898220 0.057265 -0.014441 1125940.000000 0 0 1
27.881685 -14.867179 26.163706 41.023906 -0.489872 0.879200 0.064167 -0.007544 1359300.000000 0 0 1
27.476585 -13.665679 26.763606 40.718596 -0.461531 0.853590 0.059814 -0.010273 -95886.800000 0 0 1
27.915285 -12.325379 26.079356 40.141137 -0.415786 0.863618 0.071316 -0.019567 -649803.000000 0 0 1
27.291485 -11.968079 24.876086 38.818548 -0.413273 0.875218 0.072173 -0.012856 28967.200000 0 0 1
28.005685 -11.077079 24.018636 38.521616 -0.376647 0.897571 0.072838 -0.010148 545244.000000 0 0 1
29.292025 -11.634579 23.327646 39.211799 -0.378084 0.933638 0.073345 -0.018981 216904.000000 0 0 1
28.901775 -12.608479 22.369686 38.661210 -0.411363 0.953775 0.068817 -0.017585 519513.000000 0 0 1
29.752435 -13.767379 22.459786 39.739025 -0.433391 0.970142 0.065140 -0.023807 230644.000000 0 0 1
29.247235 -14.978679 21.658986 39.355727 -0.473312 0.988026 0.073848 -0.006282 -268834.000000 0 0 1
29.333575 -14.794179 20.232086 38.583204 -0.467116 1.018815 0.064113 -0.005769 30159.000000 0 0 1
28.834595 -15.856079 19.403086 38.201163 -0.502765 1.038029 0.074764 -0.010120 -92145.500000 0 0 1
29.142075 -15.674279 17.869486 37.606676 -0.493473 1.075641 0.082265 -0.012692 -242496.000000 0 0 1
28.652275 -16.665679 17.002486 37.252949 -0.526820 1.096844 0.087471 -0.021503 350928.000000 0 0 1
27.315785 -16.466779 16.527086 35.922855 -0.542498 1.092720 0.081509 -0.023376 433140.000000 0 0 1
27.083685 -15.493379 15.363786 34.779544 -0.519619 1.113250 0.084952 -0.024282 -257009.000000 0 0 1
27.325085 -16.114179 14.086786 34.709719 -0.532827 1.152892 0.078530 -0.027561 310813.000000 0 0 1
26.344885 -17.089879 13.722486 34.269863 -0.575459 1.158817 0.073739 -0.036714 -75456.500000 0 0 1
26.472985 -17.646979 12.322786 34.118702 -0.587959 1.201270 0.061084 -0.021553 -193332.000000 0 0 1
25.947585 -16.740779 11.341886 32.896340 -0.572977 1.218796 0.070958 -0.025076 -17033.700000 0 0 1
25.739985 -17.365779 10.078286 32.644892 -0.593517 1.256944 0.062381 -0.026212 -59345.600000 0 0 1
27.033085 -17.664279 9.293086 33.603212 -0.578784 1.290590 0.063413 -0.020767 284629.000000 0 0 1
27.878285 -18.594479 9.934486 34.952073 -0.588225 1.282591 0.053533 -0.015899 -448361.000000 0 0 1
29.247775 -18.501479 9.575886 35.908699 -0.564030 1.300857 0.044289 -0.004537 114458.000000 0 0 1
30.066235 -19.485579 10.391586 37.304843 -0.575030 1.288503 0.054977 -0.019728 -321985.000000 0 0 1
30.257605 -19.065879 11.763686 37.648568 -0.562272 1.253014 0.070358 -0.034128 609.329000 0 0 1
30.528755 -20.152079 12.630086 38.699228 -0.583444 1.238341 0.054522 -0.032846 -23637.100000 0 0 1
30.446395 -19.660879 14.105686 38.890918 -0.573384 1.199634 0.078786 -0.026811 134399.000000 0 0 1
30.403145 -20.656279 15.106686 39.739716 -0.596775 1.180848 0.084119 -0.026840 -39881.100000 0 0 1
30.057685 -20.092079 16.352086 39.680559 -0.589237 1.146046 0.096580 -0.035030 192947.000000 0 0 1
29.547995 -21.095479 17.425386 40.270924 -0.620020 1.123306 0.083592 -0.021198 312381.000000 0 0 1
28.211955 -21.539379 17.268486 39.472267 -0.652075 1.117998 0.058139 -0.008412 8385.850000 0 0 1
27.865785 -22.435379 18.352686 40.207826 -0.677857 1.096800 0.063846 -0.010372 -779328.000000 0 0 1
26.577085 -23.192879 18.390186 39.780020 -0.717506 1.090212 0.042868 -0.004466 -1133260.000000 0 0 1
25.450685 -22.413779 18.646486 38.701502 -0.722035 1.068086 0.053021 -0.001342 -217676.000000 0 0 1
24.264685 -23.189579 18.590386 38.368398 -0.762746 1.064978 0.039599 -0.007573 718183.000000 0 0 1
23.063585 -22.531879 19.373386 37.615723 -0.773737 1.029749 0.018116 -0.005468 318023.000000 0 0 1
22.578185 -21.335079 18.742486 36.280033 -0.757097 1.027914 0.022503 -0.008069 267928.000000 0 0 1
21.461385 -20.807879 19.468386 35.673196 -0.769939 0.993521 0.024845 -0.005251 367104.000000 0 0 1
21.702185 -20.212479 20.910186 36.287257 -0.749872 0.956675 0.023245 -0.001277 -443733.000000 0 0 1
22.012785 -21.238679 21.847186 37.589143 -0.767502 0.950582 0.030379 -0.003764 -21259.700000 0 0 1
22.481385 -20.809879 23.111786 38.374710 -0.746807 0.924460 0.038058 -0.004995 85189.500000 0 0 1
22.803685 -21.873179 24.159666 39.776041 -0.764574 0.918022 0.039302 -0.001082 124134.000000 0 0 1
21.666485 -22.566079 24.653826 39.830586 -0.805733 0.903369 0.044308 -0.002583 24039.700000 0 0 1
22.011985 -23.422579 25.705826 41.157431 -0.816435 0.896212 0.046321 -0.005379 -1029280.000000 0 0 1
20.919485 -24.051279 26.514156 41.461902 -0.854927 0.876972 0.067763 -0.020084 -1012440.000000 0 0 1
20.405385 -25.174479 25.818846 41.433645 -0.889650 0.898049 0.070476 -0.015583 492301.000000 0 0 1
19.367085 -25.730679 26.633436 41.791048 -0.925579 0.879807 0.089459 -0.029398 148154.000000 0 0 1
18.538485 -26.888179 26.013626 41.753542 -0.967175 0.898188 0.094536 -0.019985 199272.000000 0 0 1
17.821285 -26.367879 24.884886 40.399514 -0.976449 0.907180 0.089761 -0.031976 39331.400000 0 0 1
17.158885 -27.357879 24.182216 40.344274 -1.010616 0.928049 0.094098 -0.035034 -710886.000000 0 0 1
16.329485 -26.908679 23.003486 38.985759 -1.025357 0.939678 0.083526 -0.038131 -1172600.000000 0 0 1
15.032785 -26.641879 23.379906 38.501874 -1.057075 0.918213 0.075748 -0.030864 -850464.000000 0 0 1
14.303685 -25.927379 22.378686 37.116438 -1.066662 0.923625 0.054113 -0.021164 -107523.000000 0 0 1
12.903585 -25.473779 22.761986 36.517446 -1.101927 0.897817 0.051184 -0.024742 -139629.000000 0 0 1
11.877185 -26.460879 22.741786 36.856946 -1.148892 0.905835 0.044390 -0.026892 510021.000000 0 0 1
10.610785 -25.811779 22.590386 35.904905 -1.180772 0.890308 0.038673 -0.022040 1162840.000000 0 0 1
9.343285 -26.721679 22.509386 36.166525 -1.234432 0.899014 0.041484 -0.016171 443007.000000 0 0 1
9.172385 -27.303379 21.243086 35.789325 -1.246699 0.935322 0.048996 -0.013913 88477.600000 0 0 1
7.973285 -28.055879 21.160586 36.034372 -1.293904 0.943160 0.044880 -0.015103 139951.000000 0 0 1
7.747885 -28.884579 19.880786 35.910921 -1.308729 0.984099 0.059105 -0.010565 -55983.200000 0 0 1
8.397685 -30.131479 19.900686 37.073770 -1.298992 1.004173 0.058485 -0.016367 -49364.900000 0 0 1
8.327785 -30.806979 18.614486 36.944837 -1.306785 1.042752 0.048480 -0.014862 -229077.000000 0 0 1
8.836185 -32.231379 18.748986 38.320548 -1.303222 1.059547 0.048396 -0.018271 148907.000000 0 0 1
8.143485 -33.106479 19.689186 39.370284 -1.329606 1.047079 0.067058 -0.016869 414552.000000 0 0 1
8.891785 33.934514 19.784786 40.274717 1.314530 1.057277 0.073075 -0.026638 15094.000000 0 0 1
8.306085 32.949214 20.818086 39.850150 1.323854 1.021122 0.095735 -0.034821 -155707.000000 0 0 1
7.254785 32.116914 20.333586 38.698615 1.348638 1.017571 0.089475 -0.032998 176605.000000 0 0 1
6.959985 31.099914 21.256686 38.307868 1.350630 0.982565 0.092913 -0.042640 351213.000000 0 0 1
5.911085 30.076414 20.688186 36.980165 1.376734 0.977086 0.075740 -0.031064 159666.000000 0 0 1
4.719785 30.038314 21.410386 37.188456 1.414945 0.957304 0.080017 -0.032338 -1131460.000000 0 0 1
3.787185 29.193514 20.854186 36.076323 1.441790 0.954450 0.081312 -0.026557 76167.000000 0 0 1
2.414685 29.136514 21.586786 36.342213 1.488110 0.934791 0.060324 -0.015729 257662.000000 0 0 1
2.458485 28.720314 22.919886 36.826916 1.485404 0.899032 0.056043 -0.024919 53624.400000 0 0 1
1.118685 28.524414 23.340826 36.873945 1.531598 0.885387 0.037869 -0.015692 194168.000000 0 0 1
1.073985 27.877914 24.773556 37.310328 1.532291 0.844659 0.044193 -0.018937 -278600.000000 0 0 1
1.290885 28.774314 25.814056 38.678069 1.525964 0.840074 0.049298 -0.020972 56532.400000 0 0 1
1.213885 28.210314 27.080206 39.123303 1.527793 0.806297 0.045679 -0.016830 -165533.000000 0 0 1
2.449785 27.538214 27.723946 39.153184 1.482070 0.784008 0.029897 -0.012660 -302631.000000 0 0 1
2.757685 26.336114 27.081816 37.876384 1.466465 0.774165 0.035777 -0.014343 100102.000000 0 0 1
3.766085 25.613914 27.737026 37.942042 1.424810 0.750956 0.012391 -0.008857 -381511.000000 0 0 1
4.004885 24.281214 26.934546 36.484054 1.407330 0.740316 0.010801 -0.008812 -25762.700000 0 0 1
2.939585 23.358014 26.766786 35.646862 1.445605 0.721391 0.029035 -0.005617 28462.900000 0 0 1
3.469685 22.151414 26.222206 34.501129 1.415424 0.707423 0.029760 -0.004043 406166.000000 0 0 1
2.437785 20.980814 26.153986 33.617976 1.455124 0.679358 0.033519 0.005499 129841.000000 0 0 1
3.031985 19.735514 26.319436 33.036285 1.418357 0.649010 0.042976 0.007782 150335.000000 0 0 1
3.742385 19.203914 25.189796 31.895479 1.378332 0.660378 0.046426 0.008326 -649393.000000 0 0 1
4.246185 17.767214 25.446826 31.324829 1.336207 0.622620 0.050663 -0.002101 247654.000000 0 0 1
5.281685 17.776914 26.433476 32.289991 1.281994 0.611779 0.034438 0.000885 80399.300000 0 0 1
6.547285 18.064814 25.902066 32.250914 1.223089 0.638246 0.050276 -0.002637 -2076070.000000 0 0 1
7.670985 18.038414 26.912826 33.294573 1.168707 0.629495 0.045855 -0.015211 -602906.000000 0 0 1
7.836185 19.282214 27.619446 34.583860 1.184790 0.645794 0.032208 -0.012096 38962.200000 0 0 1
8.525485 20.202414 26.758056 34.595014 1.171467 0.686506 0.026171 -0.008632 -478801.000000 0 0 1
9.165185 21.461314 27.419146 36.005530 1.167185 0.705132 0.018817 -0.003914 -124792.000000 0 0 1
10.278085 21.106514 28.208596 36.699439 1.117633 0.694087 0.031844 -0.018050 -141264.000000 0 0 1
10.570285 22.026214 29.258276 38.117341 1.123361 0.695733 0.039648 -0.036714 -555003.000000 0 0 1
11.806485 21.723114 30.062646 38.923636 1.072958 0.688265 0.050466 -0.037116 88413.700000 0 0 1
13.083785 21.777014 29.429166 38.878009 1.029784 0.712145 0.048778 -0.037180 207628.000000 0 0 1
14.133685 21.769114 30.339656 39.926809 0.994946 0.707665 0.054444 -0.030477 -723917.000000 0 0 1
15.551485 21.656814 29.824826 40.004831 0.948034 0.729466 0.049185 -0.033558 -567337.000000 0 0 1
15.932385 22.787014 29.134116 40.272641 0.960616 0.762050 0.046002 -0.033276 200889.000000 0 0 1
17.248785 22.672314 28.612516 40.376112 0.920428 0.783214 0.074448 -0.031773 57103.900000 0 0 1
-8.703727 17.075114 4.522285 19.691761 -1.099394 1.339075 0.024093 -0.003535 -172052.000000 0 1 0
-8.559427 18.365614 5.130285 20.901660 -1.134670 1.322814 0.032788 -0.009574 -75476.200000 0 1 0
-7.232427 18.792414 5.314085 20.825521 -1.203410 1.312771 0.026585 0.000641 -492557.000000 0 1 0
-7.040527 20.268114 5.660385 22.190210 -1.236467 1.312861 0.033844 -0.002624 -340643.000000 0 1 0
-7.268827 21.254414 4.626085 22.934398 -1.241274 1.367693 0.046413 -0.012538 -124089.000000 0 1 0
-8.606127 21.398814 4.189485 23.441980 -1.188414 1.391114 0.040713 -0.017828 43369.800000 0 1 0
-8.748927 22.566414 3.083785 24.398699 -1.200941 1.444066 0.068298 -0.029294 -54245.800000 0 1 0
-8.184027 22.472114 1.803185 23.983863 -1.221540 1.495542 0.049363 -0.030045 -478115.000000 0 1 0
-8.549027 21.342314 1.035585 23.014184 -1.189801 1.525783 0.051025 -0.029992 -1161650.000000 0 1 0
-7.816427 21.134514 -0.300315 22.535625 -1.216556 1.584123 0.027048 -0.018938 621518.000000 0 1 0
-6.623827 20.335414 -0.349515 21.389865 -1.255906 1.587137 0.021018 -0.018342 737893.000000 0 1 0
-5.533327 21.023014 0.262285 21.740598 -1.313430 1.558732 0.023294 -0.029472 -76229.700000 0 1 0
-4.130827 20.985314 -0.399315 21.391741 -1.376438 1.589464 0.018725 -0.019344 261909.000000 0 1 0
-4.098827 21.757114 -1.581215 22.196230 -1.384589 1.642095 0.019100 -0.005216 -405442.000000 0 1 0
-2.791327 21.780014 -2.063815 22.054928 -1.443331 1.664510 0.021033 0.002547 -406842.000000 0 1 0
-2.787227 21.975214 -3.599415 22.441801 -1.444635 1.731881 0.025112 -0.000710 -49671.800000 0 1 0
-1.540227 22.308414 -4.159915 22.745165 -1.501863 1.754724 0.036823 -0.001323 -21167.800000 0 1 0
-1.695327 22.385714 -5.520115 23.118521 -1.495208 1.811900 0.043661 -0.019331 1121340.000000 0 1 0
-0.440327 23.133514 -6.182415 23.949439 -1.551764 1.831897 0.042838 -0.019419 1297310.000000 0 1 0
0.727673 22.353814 -6.110015 23.185228 1.538255 1.837477 0.041897 -0.006087 -214035.000000 0 1 0
1.840273 22.821514 -6.851015 23.898630 1.490333 1.861545 0.053933 -0.015869 429262.000000 0 1 0
3.065373 21.906314 -6.624215 23.090330 1.431768 1.861767 0.048311 -0.007468 12797.600000 0 1 0
2.928273 20.767414 -7.400815 22.240331 1.430717 1.910031 0.051839 -0.021675 -136273.000000 0 1 0
4.086273 19.972314 -7.346915 21.669520 1.368985 1.916697 0.049803 -0.016991 57203.000000 0 1 0
4.048973 18.726314 -8.274015 20.869316 1.357856 1.978463 0.039872 -0.021510 -55095.500000 0 1 0
4.341373 19.050414 -9.612815 21.775491 1.346734 2.028012 0.050650 -0.027311 568962.000000 0 1 0
3.133273 19.069114 -10.390315 21.940993 1.407940 2.064122 0.052093 -0.028778 -91847.900000 0 1 0
3.381773 19.305214 -11.862015 22.909279 1.397382 2.115053 0.059078 -0.037158 32886.800000 0 1 0
3.833873 20.613614 -12.195515 24.255932 1.386910 2.097614 0.096288 -0.039430 78831.600000 0 1 0
4.044473 20.701914 -13.573315 25.083100 1.377859 2.142581 0.106825 -0.037239 106589.000000 0 0 1
4.268573 22.091814 -14.228515 26.621788 1.379929 2.134675 0.105055 -0.037837 -208271.000000 0 0 1
3.123873 22.868614 -14.389515 27.199085 1.435036 2.128270 0.124780 -0.039682 -948651.000000 0 0 1
3.507473 24.177414 -14.698515 28.511332 1.426729 2.112425 0.110266 -0.037788 -7588.160000 0 0 1
2.366273 25.050814 -15.280115 29.438486 1.476617 2.116538 0.106244 -0.028069 39237.300000 0 0 1
1.471373 25.467914 -14.273215 29.231905 1.513087 2.080909 0.114709 -0.040740 -303955.000000 0 0 1
1.316173 26.913614 -14.207115 30.461731 1.521932 2.056004 0.086371 -0.030442 -971794.000000 0 0 1
0.446773 27.359414 -13.014215 30.300279 1.554468 2.014744 0.090355 -0.034333 -337416.000000 0 0 1
-0.934327 27.220814 -13.206015 30.269531 -1.536486 2.022258 0.085339 -0.040772 -436928.000000 0 0 1
-1.402927 25.853514 -13.270515 29.094311 -1.516585 2.044427 0.080484 -0.040748 -1056330.000000 0 0 1
-1.396427 25.030914 -11.950115 27.772323 -1.515066 2.015609 0.095543 -0.040845 -147487.000000 0 0 1
-2.418527 25.423514 -11.033315 27.819748 -1.475952 1.978607 0.079800 -0.034565 178485.000000 0 0 1
-2.707027 24.320814 -10.219215 26.519094 -1.459948 1.966387 0.105991 -0.029740 -246137.000000 0 0 1
-3.734427 24.629814 -9.146815 26.537481 -1.420320 1.922689 0.065756 -0.024553 -423467.000000 0 0 1
-3.281127 25.079814 -7.890115 26.495599 -1.440708 1.873173 0.069074 -0.024752 -249571.000000 0 0 1
-2.889727 26.432814 -7.891715 27.736679 -1.461905 1.859305 0.065778 -0.032103 -65109.100000 0 0 1
-2.641827 27.007214 -6.483515 27.899907 -1.473287 1.805325 0.051555 -0.025153 468284.000000 0 0 1
-1.630527 26.213614 -5.844015 26.906592 -1.508675 1.789738 0.051914 -0.024961 312739.000000 0 0 1
-1.229927 26.753714 -4.561015 27.167569 -1.524856 1.739480 0.056737 -0.030838 -7223.270000 0 0 1
-1.987827 26.082014 -3.352515 26.371619 -1.494729 1.698267 0.049094 -0.017308 -447057.000000 0 0 1
-3.346927 26.365114 -3.328615 26.784339 -1.444526 1.695393 0.040221 -0.017964 -899537.000000 0 0 1
-4.009227 25.694014 -2.298515 26.106310 -1.416007 1.658955 0.039601 -0.017327 -380314.000000 0 0 1
-5.037027 24.670614 -2.784115 25.333025 -1.369393 1.680919 0.047381 -0.022160 -697619.000000 0 0 1
-6.191727 25.336614 -3.235915 26.282173 -1.331115 1.694232 0.040833 -0.019217 -634920.000000 0 0 1
-7.201527 24.439914 -3.624615 25.735369 -1.284243 1.712108 0.013819 -0.021930 440177.000000 0 0 1
-8.523327 25.211914 -3.912315 26.899701 -1.244791 1.716755 0.029933 -0.016563 37443.400000 0 0 1
-9.269927 25.564114 -2.798215 27.336523 -1.222928 1.673338 0.038910 -0.018610 186061.000000 0 0 1
-10.580227 26.035214 -3.185215 28.282842 -1.184801 1.683656 0.042269 -0.017781 608581.000000 0 0 1
-11.479927 26.166914 -1.980715 28.642963 -1.157363 1.640003 0.042989 -0.016472 -576060.000000 0 0 1
-12.026227 25.036314 -1.348215 27.807640 -1.122991 1.619299 0.050323 -0.016543 8254.540000 0 0 1
-11.076127 24.138414 -0.823915 26.571083 -1.140600 1.601809 0.061291 -0.019732 -554821.000000 0 0 1
-11.625227 22.834214 -0.331115 25.625317 -1.099884 1.583718 0.067119 -0.023639 -469079.000000 0 0 1
-12.370227 23.088514 0.841285 26.207055 -1.078941 1.538689 0.069294 -0.027526 -201380.000000 0 0 1
-13.044627 21.925014 1.199585 25.540312 -1.034087 1.523811 0.062042 -0.024067 -189776.000000 0 0 1
-14.036527 22.119014 2.372785 26.304087 -1.005330 1.480468 0.063131 -0.025747 -45563.900000 0 0 1
-13.461427 21.985814 3.638785 26.035107 -1.021398 1.430573 0.060332 -0.023967 64612.400000 0 0 1
-13.440627 23.190914 4.423885 27.166886 -1.045539 1.407227 0.061350 -0.022665 -92718.400000 0 0 1
-13.142427 22.908514 5.869485 27.055023 -1.049946 1.352111 0.066047 -0.024829 136837.000000 0 0 1
-11.810627 22.478914 6.139485 26.124428 -1.087029 1.333568 0.068923 -0.023604 515448.000000 0 0 1
-11.748127 22.110214 7.497185 26.135949 -1.082389 1.279856 0.062266 -0.028852 -404601.000000 0 0 1
-10.353627 21.730714 8.029585 25.375101 -1.126165 1.248827 0.065446 -0.031764 -408859.000000 0 0 1
-9.541227 22.854614 8.312785 26.124142 -1.175317 1.246963 0.074747 -0.033623 -156604.000000 0 0 1
-8.336727 22.448214 8.910585 25.550379 -1.215207 1.214564 0.077147 -0.032013 -278578.000000 0 0 1
-8.287127 22.307314 10.451585 25.990928 -1.215099 1.156960 0.059339 -0.026081 -40491.100000 0 0 1
-9.125227 21.206814 10.813285 25.493643 -1.164448 1.132766 0.059150 -0.026036 235320.000000 0 0 1
-8.742127 20.700714 12.065485 25.505299 -1.171206 1.078038 0.039394 -0.025973 -251172.000000 0 0 1
-9.598127 19.574014 12.658685 25.209291 -1.114898 1.044721 0.032296 -0.024024 -302216.000000 0 0 1
-9.786427 18.452414 11.868085 24.023263 -1.083157 1.054084 0.050075 -0.032664 -36757.000000 0 1 0
-10.650627 17.526114 12.483785 24.009278 -1.024734 1.023996 0.046033 -0.024455 50277.100000 0 1 0
-11.182227 16.370514 11.555685 22.947108 -0.971523 1.043060 0.041502 -0.032939 -25364.900000 0 1 0
-11.356027 15.122214 12.219485 22.515695 -0.926687 0.997136 0.031820 -0.030281 -4493.040000 0 1 0
-11.859827 14.238714 11.291785 21.700251 -0.876297 1.023532 0.025532 -0.024116 -108258.000000 0 1 0
-11.978427 12.842314 11.976485 21.256621 -0.820189 0.972272 0.023385 -0.026260 -463080.000000 0 1 0
-13.015727 12.808314 12.889485 22.351753 -0.777367 0.956155 0.030983 -0.018656 -441965.000000 0 1 0
-13.202527 11.521214 13.385685 22.050434 -0.717499 0.918455 0.021786 -0.009797 -250452.000000 0 1 0
-13.965627 11.424714 14.723785 23.288466 -0.685656 0.886362 0.027143 -0.013424 -827463.000000 0 1 0
-15.120027 12.140214 14.549685 24.242387 -0.676521 0.927076 0.035248 -0.016888 -1482730.000000 0 1 0
-15.970027 12.016214 15.641885 25.379120 -0.645050 0.906724 0.036326 -0.017646 39362.700000 0 0 1
-17.052327 13.146214 15.729785 26.665163 -0.656765 0.939861 0.047707 -0.013794 657108.000000 0 0 1
-18.176927 12.994214 14.844685 26.825640 -0.620639 0.984383 0.035986 -0.011382 -8592.460000 0 0 1
-18.908827 14.170014 15.022085 27.999930 -0.643108 1.004507 0.059844 -0.008623 -613798.000000 0 0 1
-20.135027 14.095214 14.101385 28.336256 -0.610749 1.049915 0.073893 -0.006517 -473256.000000 0 0 1
-21.068027 13.153414 14.561685 28.790914 -0.558118 1.040518 0.070269 -0.001503 238260.000000 0 0 1
-22.197027 13.102414 13.681685 29.181668 -0.533240 1.082813 0.062140 -0.003334 692213.000000 0 0 1
-23.376427 12.209914 14.169285 29.938403 -0.481342 1.077784 0.065588 -0.004949 143938.000000 0 0 1
-23.993327 12.634814 15.345885 31.157895 -0.484698 1.055813 0.077833 -0.012185 99257.900000 0 0 1
-24.907027 11.665914 15.831185 31.734523 -0.438032 1.048510 0.060975 -0.007800 153161.000000 0 0 1
-25.803487 12.163814 16.993785 33.204925 -0.440509 1.033535 0.057867 -0.009057 118557.000000 0 0 1
-26.747537 13.172114 16.666885 34.157289 -0.457598 1.061062 0.071171 -0.008338 888534.000000 0 0 1
-27.671407 13.483914 17.723885 35.519837 -0.453425 1.048369 0.074276 0.007373 794201.000000 0 0 1
-28.863597 14.423814 17.406585 36.662554 -0.463426 1.076084 0.074801 0.001588 580803.000000 0 0 1
-28.381617 15.737314 17.147885 36.704621 -0.506284 1.084691 0.076138 0.005135 3325.100000 0 0 1
-29.503957 16.564414 17.192285 37.953102 -0.511576 1.100683 0.086185 0.004008 -165388.000000 0 0 1
-29.166507 18.085514 17.057485 38.323997 -0.555052 1.109526 0.097513 -0.009842 50837.900000 0 0 1
-28.326757 18.608114 18.095785 38.420366 -0.581217 1.080378 0.085030 -0.006998 4177.000000 0 0 1
-28.905447 18.899914 19.297685 39.561752 -0.579079 1.061244 0.101832 -0.009197 -1822830.000000 0 0 1
-27.838917 19.034914 20.332885 39.379683 -0.599738 1.028237 0.093098 -0.023570 -493325.000000 0 0 1
-27.305347 17.853114 20.865785 38.725917 -0.579064 1.001776 0.095258 -0.022337 148240.000000 0 0 1
-26.538767 17.066414 19.974185 37.343496 -0.571492 1.006434 0.092947 -0.012722 -879371.000000 0 0 1
-26.193417 15.686114 20.577485 36.818231 -0.539579 0.977745 0.083894 -0.010849 537110.000000 0 0 1
-27.377747 14.979914 20.990285 37.610250 -0.500658 0.978702 0.089987 -0.012432 771242.000000 0 0 1
-27.125467 13.712814 21.496485 37.228095 -0.468064 0.955223 0.069458 -0.001870 -231846.000000 0 0 1
-28.463427 13.010714 21.817885 38.150563 -0.428745 0.961990 0.076523 -0.014096 -207535.000000 0 0 1
-29.094367 12.597214 20.650685 37.836791 -0.408608 0.993473 0.075846 -0.010807 840384.000000 0 0 1
-30.198337 11.682214 20.977285 38.580567 -0.369119 0.995925 0.112236 -0.011661 770080.000000 0 0 1
-31.065997 11.494414 19.693485 38.536360 -0.354380 1.034406 0.127563 -0.019829 -494791.000000 0 0 1
-30.501367 10.831614 18.561485 37.312008 -0.341228 1.050120 0.141683 -0.024257 297212.000000 0 0 1
-30.050287 9.485914 18.807785 36.697889 -0.305768 1.032699 0.141153 -0.023011 -71327.500000 0 0 1
-29.182057 8.999414 17.599285 35.246514 -0.299135 1.047983 0.135837 -0.025413 2578.210000 0 0 1
-29.802877 8.808014 16.325385 35.104284 -0.287362 1.087101 0.143585 -0.026235 178177.000000 0 0 1
-30.297867 9.927214 15.587985 35.489373 -0.316630 1.116055 0.140125 -0.027211 -472674.000000 0 0 1
-29.298857 10.912414 14.964285 34.661702 -0.356535 1.124393 0.130330 -0.015640 -250995.000000 0 0 1
-28.896637 10.439414 13.653585 33.621680 -0.346677 1.152620 0.119146 -0.023784 95505.300000 0 0 1
-27.882947 11.288914 13.179485 32.842003 -0.384696 1.157861 0.083837 -0.012367 -289369.000000 0 0 1
-27.774677 11.328414 11.626085 32.170351 -0.387271 1.201037 0.105394 -0.017271 -211721.000000 0 0 1
-27.156387 10.231014 10.916785 31.005148 -0.360299 1.210987 0.124188 -0.015294 441650.000000 0 0 1
-27.792697 8.975414 11.004385 31.210392 -0.312369 1.210462 0.126848 -0.014240 -144114.000000 0 0 1
-26.927517 7.805914 10.460985 29.924165 -0.282152 1.213670 0.136840 -0.022398 -54675.400000 0 0 1
-26.686777 7.989414 9.113285 29.309841 -0.290885 1.254626 0.134740 -0.021755 328938.000000 0 0 1
-25.793157 7.019014 8.567285 28.070480 -0.265693 1.260641 0.145909 -0.036916 -478867.000000 0 0 1
-25.359287 7.451114 7.148885 27.380999 -0.285779 1.306646 0.136895 -0.028959 -340855.000000 0 0 1
-26.321707 7.587214 6.122885 28.069339 -0.280642 1.350894 0.154198 -0.036833 -286477.000000 0 0 1
-25.776947 8.279414 5.023285 27.536032 -0.310786 1.387343 0.154198 -0.035623 -219718.000000 0 0 1
-26.726357 8.763814 3.895485 28.395024 -0.316861 1.433173 0.148209 -0.025600 -64869.900000 0 0 1
-27.396757 7.670214 3.188585 28.628335 -0.272979 1.459186 0.167717 -0.027820 358102.000000 0 0 1
-26.635757 6.584514 2.686185 27.568732 -0.242347 1.473206 0.162127 -0.023663 -481083.000000 0 0 1
-25.643117 6.834514 1.555885 26.583845 -0.260469 1.512235 0.170644 -0.018309 487889.000000 0 0 1
-24.447727 7.573114 1.852385 25.660763 -0.300394 1.498546 0.138159 -0.019153 573522.000000 0 0 1
-23.651727 7.684014 0.715585 24.878913 -0.314125 1.542030 0.146095 -0.011111 -23902.800000 0 1 0
-22.374827 8.517014 1.020785 23.962771 -0.363716 1.528185 0.108679 -0.010924 278186.000000 0 1 0
-22.816427 9.774014 1.486285 24.866237 -0.404727 1.510989 0.114711 -0.017780 1223600.000000 0 1 0
-21.751427 10.340414 2.256585 24.189686 -0.443767 1.477373 0.117078 -0.020175 544398.000000 0 1 0
-22.079727 11.847414 2.625185 25.194586 -0.492477 1.466410 0.112307 -0.022827 -111269.000000 0 0 1
-20.898627 12.595114 2.574985 24.536097 -0.542385 1.465656 0.100375 -0.025756 206262.000000 0 1 0
-21.139327 13.864014 3.217385 25.483987 -0.580470 1.444207 0.081030 -0.030001 82595.700000 0 0 1
-19.843227 14.580214 3.699385 24.900236 -0.633683 1.421676 0.036350 -0.020966 253329.000000 0 1 0
-19.213527 13.724514 4.636785 24.062869 -0.620269 1.376889 0.028936 -0.024859 43836.100000 0 1 0
-18.559827 14.477514 5.650185 24.207234 -0.662455 1.335214 0.043194 -0.023350 -317743.000000 0 1 0
-18.012427 13.571514 6.754185 23.542568 -0.645707 1.279815 0.020939 -0.015596 -175891.000000 0 1 0
-17.009827 12.638614 6.438285 22.147693 -0.639018 1.275840 0.030033 -0.015825 216568.000000 0 1 0
-16.881927 11.685714 7.475085 21.850223 -0.605474 1.221639 0.025370 -0.013086 -516441.000000 0 1 0
10.953073 -32.280579 -13.949415 36.831939 -1.243678 1.959222 0.047922 -0.015804 937689.000000 0 0 1
12.240773 -32.675679 -13.400615 37.377975 -1.212364 1.937474 0.022071 -0.015279 1323900.000000 0 0 1
13.049873 -31.533179 -13.109515 36.558172 -1.178411 1.937557 0.019776 -0.023031 34876.900000 0 0 1
14.483073 -31.761879 -12.619315 37.119044 -1.142973 1.917680 0.052358 -0.013393 -23168.600000 0 0 1
15.334473 -32.268479 -13.643815 38.243358 -1.127172 1.935597 0.047478 -0.017715 160432.000000 0 0 1
16.699073 -32.024779 -13.300715 38.488368 -1.090142 1.923650 0.056858 -0.017104 720333.000000 0 0 1
17.604073 -33.065379 -14.009915 39.993754 -1.081564 1.928690 0.047726 -0.017077 197490.000000 0 0 1
17.335873 33.903214 -13.383015 40.361684 1.098123 1.908771 0.046343 -0.010695 381145.000000 0 0 1
18.400773 32.969914 -13.635815 40.143980 1.061749 1.917365 0.025091 0.007315 389581.000000 0 0 1
18.382073 31.692014 -12.754115 38.793708 1.045196 1.905795 0.022764 -0.000634 -233266.000000 0 0 1
19.043573 31.789014 -11.531215 38.809380 1.031067 1.872476 0.024829 0.000022 -268418.000000 0 0 1
18.902473 30.581914 -10.766015 37.529509 1.017179 1.861752 0.020762 -0.005380 -57992.800000 0 0 1
19.898873 30.495414 -9.610615 37.660315 0.992651 1.828843 0.023622 -0.000632 354999.000000 0 0 1
21.205173 30.054614 -9.947815 38.103782 0.956352 1.834928 0.033437 -0.002532 -267705.000000 0 0 1
22.038673 29.873914 -8.868615 38.168130 0.935199 1.805296 0.030519 -0.005247 584295.000000 0 0 1
23.356973 29.089314 -9.226715 38.430049 0.894265 1.813256 0.027021 0.007121 1016960.000000 0 0 1
24.328373 29.717514 -10.074915 39.705217 0.884784 1.827344 0.036967 0.001506 926305.000000 0 0 1
25.463673 28.796614 -10.168115 39.762221 0.846746 1.829392 0.034130 0.013205 957452.000000 0 0 1
26.521273 29.452814 -11.098515 41.158513 0.837724 1.843829 0.037727 0.006047 -267112.000000 0 0 1
26.953473 30.676214 -10.598815 42.188324 0.849906 1.824743 0.050659 -0.017254 -194507.000000 0 0 1
28.166273 31.094414 -11.170715 43.416430 0.834769 1.831015 0.060099 -0.017389 -90526.200000 0 0 1
28.536473 32.555914 -10.857215 44.632913 0.851096 1.816517 0.063639 -0.023422 -567127.000000 0 0 1
27.841673 33.616714 -11.514215 45.142213 0.879090 1.828712 0.077160 -0.017860 -162861.000000 0 0 1
28.269873 -33.320279 -11.199315 45.109327 -0.867215 1.821691 0.084237 -0.018803 -177793.000000 0 0 1
27.246373 -32.284579 -11.667715 43.826869 -0.869829 1.840269 0.074949 -0.016456 -123768.000000 0 0 1
26.027573 -32.315679 -10.965515 42.918296 -0.892761 1.829159 0.073561 -0.014497 -70457.700000 0 0 1
25.102173 -31.250079 -11.275815 41.639290 -0.894066 1.845018 0.075428 -0.014376 519239.000000 0 0 1
25.445673 -29.795779 -10.822715 40.649746 -0.863983 1.840290 0.068587 -0.026626 -539752.000000 0 0 1
26.379573 -29.265679 -11.739215 41.111689 -0.837218 1.860371 0.062846 -0.017840 -159413.000000 0 0 1
26.937373 -28.132379 -11.104015 40.501259 -0.807095 1.848517 0.052670 -0.015031 443379.000000 0 0 1
28.082373 -27.306279 -11.821515 40.914554 -0.771387 1.863907 0.075788 -0.010512 293328.000000 0 0 1
29.288273 -27.981779 -11.978915 42.240706 -0.762589 1.858329 0.057445 -0.003943 -472167.000000 0 0 1
29.283373 -28.687079 -13.250315 43.081728 -0.775112 1.883426 0.074948 -0.014042 -134824.000000 0 0 1
30.639373 -29.401579 -13.434215 44.538771 -0.764785 1.877198 0.083599 -0.010910 171786.000000 0 0 1
30.766373 -30.607479 -12.731315 45.226915 -0.782809 1.856152 0.079596 -0.013550 567293.000000 0 0 1
32.024373 -31.225779 -13.047515 46.592353 -0.772773 1.854627 0.076428 -0.025002 650651.000000 0 0 1
32.514773 -32.348579 -12.053015 47.422739 -0.782836 1.827777 0.059252 -0.021322 502531.000000 0 0 1
33.478373 -33.126479 -12.791815 48.803643 -0.780115 1.836002 0.051669 -0.030283 417137.000000 0 0 1
34.308273 -34.027879 -12.029115 49.796122 -0.781295 1.814777 0.050714 -0.021479 315075.000000 0 0 1
33.657873 33.006514 -11.221315 48.458233 0.775628 1.804484 0.051098 -0.026714 -47238.100000 0 0 1
33.028873 33.366014 -10.015815 48.005353 0.790476 1.780980 0.070297 -0.039851 369053.000000 0 0 1
31.998773 32.415814 -9.681615 46.566513 0.791872 1.780233 0.065379 -0.036234 522127.000000 0 0 1
31.164373 32.698914 -8.387515 45.943308 0.809422 1.754388 0.057772 -0.031991 129554.000000 0 0 1
30.244973 33.751014 -8.498015 46.109713 0.840129 1.756156 0.045758 -0.031840 -637559.000000 0 0 1
29.538773 34.066214 -7.335915 45.682181 0.856459 1.732081 0.038644 -0.028587 455951.000000 0 0 1
28.418873 -33.115279 -7.548715 44.285857 -0.861572 1.742087 0.034370 -0.028066 86262.500000 0 0 1
29.029473 -31.862979 -7.876615 43.817813 -0.831898 1.751537 0.014945 -0.027199 190633.000000 0 0 1
28.185973 -30.757679 -8.211915 42.519636 -0.829000 1.765150 0.019621 -0.015124 230090.000000 0 0 1
27.293573 -30.170179 -7.057015 41.291407 -0.835416 1.742547 0.023246 -0.018218 97023.200000 0 0 1
26.519073 -29.161879 -7.627115 40.147843 -0.832826 1.761934 0.019986 -0.023403 -439310.000000 0 0 1
25.623973 -28.614679 -6.663815 38.984539 -0.840482 1.742575 0.022117 -0.024681 86243.600000 0 0 1
24.634373 -27.681479 -7.410115 37.789237 -0.843577 1.768166 0.082428 -0.036638 116040.000000 0 0 1
23.742173 -28.411679 -8.291615 37.942920 -0.874693 1.791103 0.111020 -0.038014 693071.000000 0 0 1
23.044973 -27.514079 -9.156315 37.039619 -0.873563 1.820589 0.136662 -0.039320 283290.000000 0 0 1
21.667573 -27.979779 -9.705215 36.695271 -0.911860 1.838462 0.115399 -0.027137 126926.000000 0 0 1
21.668173 -28.886779 -10.762115 37.679953 -0.927227 1.860449 0.113892 -0.030380 33021.500000 0 0 1
20.405073 -29.487579 -11.003315 37.509429 -0.965467 1.868523 0.107218 -0.027589 273149.000000 0 0 1
20.156573 -30.836679 -10.334015 38.261992 -0.991855 1.844278 0.097777 -0.030193 -237589.000000 0 0 1
20.848173 -31.937779 -10.818915 39.644885 -0.992473 1.847198 0.081646 -0.019914 -393377.000000 0 0 1
20.625873 -33.109979 -10.026715 40.276945 -1.013672 1.822386 0.072250 -0.024198 370098.000000 0 0 1
21.650573 33.943714 -10.279915 41.552373 1.003019 1.820789 0.047188 -0.010166 726683.000000 0 0 1
22.917973 -34.044579 -9.706915 42.172159 -0.978301 1.803052 0.037252 -0.001770 -121830.000000 0 0 1
23.886473 33.170014 -9.974215 42.074914 0.946693 1.810133 0.045140 -0.011233 656450.000000 0 0 1
25.198073 33.473414 -9.180915 42.891742 0.925519 1.786514 0.053186 -0.017987 -71965.200000 0 0 1
25.287673 33.205114 -7.789615 42.458499 0.919938 1.755306 0.046650 -0.027183 81260.700000 0 0 1
25.565773 31.794714 -7.559915 41.492950 0.893567 1.754017 0.039813 -0.012879 -371211.000000 0 0 1
25.619773 31.592514 -6.014715 41.117350 0.889417 1.717605 0.034255 -0.017641 -546779.000000 0 0 1
26.786673 32.084714 -5.390215 42.142724 0.875150 1.699051 0.041566 -0.032014 86463.800000 0 0 1
27.776373 31.093014 -5.169915 42.012265 0.841678 1.694166 0.049955 -0.033970 32238.600000 0 0 1
27.496673 30.119414 -3.989415 40.977574 0.830888 1.668307 0.051864 -0.020983 -783870.000000 0 0 1
27.489673 30.692214 -2.703715 41.291697 0.840386 1.636322 0.056298 -0.026405 20285.300000 0 0 1
27.414673 29.739314 -1.717115 40.483819 0.826049 1.613224 0.048021 -0.016587 562437.000000 0 0 1
26.057473 28.924914 -1.671015 38.967100 0.837503 1.613692 0.045065 -0.006877 823390.000000 0 0 1
24.971273 29.603914 -1.065015 38.743909 0.870081 1.598288 0.036696 -0.005856 -263494.000000 0 0 1
23.737973 28.973414 -1.204415 37.475335 0.884396 1.602941 0.037022 0.001452 437590.000000 0 0 1
22.508973 29.688814 -0.542015 37.260882 0.922091 1.585343 0.053902 -0.001324 610062.000000 0 0 1
22.312273 29.342014 0.784985 36.870144 0.920659 1.549504 0.070054 -0.020951 956802.000000 0 0 1
21.094873 29.967114 1.288985 36.669921 0.957435 1.535638 0.054976 -0.021899 862886.000000 0 0 1
20.596573 29.262114 2.585485 35.877219 0.957481 1.498669 0.063380 -0.025684 -237343.000000 0 0 1
19.799273 28.129314 2.282285 34.474314 0.957480 1.504545 0.077924 -0.019316 367948.000000 0 0 1
19.231373 27.480114 3.426285 33.715602 0.960185 1.468997 0.109353 -0.018136 330273.000000 0 0 1
18.409973 26.216614 2.962985 32.171684 0.958578 1.478566 0.118565 -0.011587 623511.000000 0 0 1
19.197773 25.194614 2.294985 31.758306 0.919672 1.498469 0.115886 -0.017745 342224.000000 0 0 1
19.973573 24.356114 3.102885 31.651095 0.883940 1.472605 0.101155 -0.007666 117447.000000 0 0 1
21.033673 23.485414 2.329285 31.613378 0.840414 1.497049 0.086738 -0.002819 362993.000000 0 0 1
20.529173 22.468814 1.444085 30.469328 0.830478 1.523384 0.090844 -0.003117 -178161.000000 0 0 1
21.597573 21.689314 1.043985 30.626319 0.787518 1.536702 0.057037 -0.005027 -397216.000000 0 0 1
21.212673 20.617414 -0.023315 29.581342 0.771169 1.571584 0.098338 -0.012702 -191354.000000 0 0 1
21.171673 21.239814 -1.300315 30.017666 0.787005 1.614128 0.072673 -0.003176 273437.000000 0 0 1
21.216073 20.308214 -2.377015 29.465158 0.763538 1.651556 0.117204 -0.018264 2822.730000 0 0 1
21.267173 21.115714 -3.686615 30.195317 0.781825 1.693194 0.089639 -0.013087 -557870.000000 0 0 1
22.472073 21.798014 -3.830915 31.540821 0.770173 1.692556 0.078244 -0.007245 -255783.000000 0 0 1
22.562873 22.531314 -5.025915 32.280074 0.784698 1.727129 0.063040 -0.008277 49652.800000 0 0 1
23.771273 23.517314 -5.056615 33.818735 0.780028 1.720880 0.060876 0.000743 -23248.100000 0 0 1
23.686273 24.763414 -4.315715 34.538263 0.807627 1.696078 0.034219 0.003902 -86299.100000 0 0 1
23.781973 24.674014 -2.902215 34.392035 0.803805 1.655283 0.048379 0.004969 -531056.000000 0 0 1
22.514973 24.351514 -2.094815 33.231137 0.824565 1.633876 0.049768 -0.000939 -1740600.000000 0 0 1
21.622973 25.427114 -2.110615 33.444668 0.866076 1.633946 0.064047 -0.006885 492714.000000 0 0 1
20.423873 25.294814 -1.351215 32.539023 0.891539 1.612334 0.080637 -0.003138 529842.000000 0 0 1
19.487173 24.119614 -1.730915 31.056429 0.891233 1.626560 0.102443 -0.017235 -1389270.000000 0 0 1
18.885873 24.281014 -2.997315 30.906759 0.909737 1.667928 0.081371 -0.011965 -187197.000000 0 0 1
18.098173 23.178414 -3.323615 29.594411 0.907860 1.683339 0.082124 -0.013202 -285743.000000 0 0 1
17.452573 23.441714 -4.673615 29.596435 0.930819 1.729372 0.078141 -0.016319 -101987.000000 0 0 1
16.618473 22.458014 -5.264915 28.429832 0.933739 1.757061 0.086773 -0.023318 403001.000000 0 0 1
16.249773 22.949514 -6.562915 28.875719 0.954677 1.800081 0.083258 -0.023526 -34860.900000 0 0 1
15.473173 21.966114 -7.482015 27.891034 0.957116 1.842381 0.093271 -0.021289 -631540.000000 0 0 1
16.209673 20.888714 -7.911415 27.598593 0.910861 1.861535 0.078672 -0.020092 -363728.000000 0 0 1
15.401273 19.979114 -8.557815 26.638326 0.914072 1.897856 0.080681 -0.024221 -362263.000000 0 0 1
16.137673 18.686514 -9.056715 26.298943 0.858460 1.922370 0.065919 -0.023659 22952.900000 0 0 1
17.197973 18.911214 -9.974515 27.438937 0.832809 1.942837 0.094661 -0.022296 391766.000000 0 0 1
17.831773 17.656814 -10.161415 27.073780 0.780468 1.955542 0.091453 -0.025826 962266.000000 0 0 1
19.388373 17.737514 -10.432115 28.272910 0.740961 1.948707 0.083881 -0.027206 910818.000000 0 0 1
19.645773 18.270314 -11.710515 29.272802 0.749138 1.982365 0.087644 -0.028713 550446.000000 0 0 1
21.047673 18.378514 -11.956115 30.392812 0.717801 1.975108 0.078823 -0.016344 527082.000000 0 0 1
21.258873 18.751414 -13.460015 31.380364 0.722810 2.014106 0.076650 -0.024682 -99046.900000 0 0 1
21.285473 17.639214 -14.331515 31.138490 0.691996 2.049074 0.069550 -0.022249 414268.000000 0 0 1
21.633273 18.143314 -15.629315 32.271564 0.697883 2.076366 0.057228 -0.021377 80481.300000 0 0 1
21.638773 17.133014 -16.729115 32.274447 0.669705 2.115704 0.059342 -0.024854 407010.000000 0 0 1
22.813973 16.314414 -16.684415 32.634448 0.620793 2.107437 0.062392 -0.019255 497299.000000 0 0 1
22.817373 15.298314 -17.727515 32.694582 0.590630 2.143868 0.075579 -0.027575 -257094.000000 0 0 1
23.458573 15.743214 -19.088315 34.095707 0.591070 2.164995 0.082992 -0.023500 -990321.000000 0 0 1
24.793073 16.017414 -18.815915 35.004181 0.573589 2.138306 0.102879 -0.021273 -924803.000000 0 0 1
25.454273 16.427014 -19.966415 36.282565 0.573102 2.153524 0.119947 -0.026453 -785454.000000 0 0 1
26.965073 16.419314 -19.749615 37.239177 0.546946 2.129804 0.100997 -0.020826 -509529.000000 0 0 1
27.280973 17.541714 -18.915115 37.546568 0.571440 2.098762 0.081827 -0.019809 813697.000000 0 0 1
28.620573 17.527014 -18.379215 38.263938 0.549482 2.071824 0.066699 -0.026541 773335.000000 0 0 1
28.789073 18.666614 -17.345115 38.446147 0.575244 2.038854 0.055349 -0.010332 235113.000000 0 0 1
28.062973 18.438714 -16.128815 37.251246 0.581314 2.018586 0.051287 -0.016424 469689.000000 0 0 1
26.750873 18.961414 -16.044815 36.504527 0.616617 2.025871 0.056752 -0.003988 347707.000000 0 0 1
25.902073 18.458814 -14.828315 35.093078 0.619158 2.007045 0.060334 -0.005129 137330.000000 0 0 1
26.413773 18.876714 -13.572315 35.188428 0.620493 1.966767 0.061378 -0.010722 452263.000000 0 0 1
25.475273 18.716814 -12.500815 33.993809 0.633640 1.947372 0.066360 -0.018847 185587.000000 0 0 1
26.037073 19.194714 -11.136115 34.210806 0.635263 1.902352 0.066158 -0.018732 -114876.000000 0 0 1
26.248573 20.600514 -11.053615 35.150408 0.665419 1.890691 0.058461 -0.006227 125485.000000 0 0 1
26.625873 21.236214 -9.836915 35.449666 0.673262 1.851976 0.050020 -0.004505 375059.000000 0 0 1
25.663973 21.084814 -8.583115 34.305667 0.687757 1.823678 0.062511 -0.009609 -57542.900000 0 0 1
25.545773 19.778614 -8.163515 33.323011 0.658836 1.818297 0.079296 -0.023462 -95259.900000 0 0 1
24.811273 19.587014 -7.002515 32.377239 0.668269 1.788798 0.091762 -0.024885 -353714.000000 0 0 1
23.326273 19.223714 -7.270115 31.088917 0.689278 1.806831 0.105797 -0.026730 -350176.000000 0 0 1
22.612273 20.365214 -7.601115 31.366125 0.733161 1.815568 0.086556 -0.013960 112916.000000 0 0 1
21.254973 20.059114 -7.901615 30.275030 0.756461 1.834849 0.084880 -0.019228 168568.000000 0 0 1
20.365773 21.310514 -8.005715 30.544954 0.808063 1.835990 0.082746 -0.016703 -349922.000000 0 0 1
20.669973 22.201714 -9.078615 31.663625 0.821111 1.861598 0.093935 -0.018322 56512.600000 0 0 1
20.222073 21.759914 -10.371415 31.464144 0.822013 1.906704 0.096368 -0.016029 -414574.000000 0 0 1
18.775673 22.163314 -10.648015 30.937334 0.867959 1.922162 0.081937 -0.019543 -658408.000000 0 0 1
18.518873 23.537014 -10.599815 31.769416 0.904157 1.910967 0.089308 -0.021882 180543.000000 0 0 1
17.138773 23.747014 -10.837215 31.226646 0.945639 1.925220 0.077177 -0.017474 307350.000000 0 0 1
16.597573 24.999514 -10.114615 31.666395 0.984701 1.895905 0.080353 -0.018029 122779.000000 0 0 1
17.246673 26.092814 -10.737115 33.069144 0.986745 1.901477 0.088830 -0.015043 262694.000000 0 0 1
17.080573 27.298414 -10.047915 33.732921 1.011695 1.873253 0.086272 -0.021766 -12594.600000 0 0 1
20.771073 29.145514 33.738475 49.185192 0.951619 0.814891 0.054907 -0.012621 484840.000000 0 0 1
19.359773 29.344114 33.707644 48.704035 0.987598 0.806414 0.074602 -0.025941 123711.000000 0 0 1
18.730873 28.112814 33.433443 47.528633 0.983065 0.790573 0.060686 -0.027997 1164040.000000 0 0 1
17.157673 28.229014 33.594184 47.115095 1.024659 0.776995 0.099437 -0.038358 1357180.000000 0 0 1
16.502873 28.958514 32.548969 46.587291 1.052819 0.797265 0.094595 -0.038317 -526304.000000 0 0 1
15.251973 29.453614 32.933741 46.741516 1.092986 0.788947 0.125662 -0.040949 -401755.000000 0 0 1
14.357373 29.616114 31.694836 45.692570 1.119397 0.804247 0.112186 -0.041783 -148680.000000 0 0 1
13.885773 28.428314 31.116286 44.375747 1.116432 0.793717 0.104741 -0.046276 475685.000000 0 0 1
12.461773 28.483114 30.994056 43.900058 1.158374 0.786942 0.095416 -0.025957 700715.000000 0 0 1
11.713073 27.156914 30.646186 42.589702 1.163592 0.767616 0.074751 -0.025407 32803.000000 0 0 1
11.950473 26.684614 29.390276 41.456854 1.149739 0.782807 0.074610 -0.029567 111314.000000 0 0 1
13.049773 25.810114 29.417446 41.253420 1.102673 0.776899 0.059163 -0.026229 -149449.000000 0 0 1
13.183573 25.013214 28.137416 39.889618 1.085732 0.787835 0.061180 -0.022532 -254068.000000 0 0 1
13.128573 25.739114 26.917566 39.489451 1.099131 0.820795 0.062507 -0.027088 308502.000000 0 0 1
13.095273 24.943114 25.753056 38.168901 1.087345 0.830220 0.070088 -0.025891 1304510.000000 0 0 1
11.681973 24.253814 25.466376 37.057419 1.121932 0.813149 0.071166 -0.026179 1030200.000000 0 0 1
11.935473 23.342214 24.408366 35.820145 1.098129 0.821103 0.088601 -0.033419 238024.000000 0 0 1
10.782473 22.596514 24.105956 34.755737 1.125576 0.804347 0.092260 -0.032839 -228767.000000 0 0 1
10.861473 22.115714 22.605086 33.437498 1.114278 0.828421 0.117165 -0.038504 109709.000000 0 0 1
10.519173 23.146814 21.676286 33.410917 1.144244 0.864818 0.116569 -0.045765 12200.300000 0 0 1
10.648673 22.683214 20.355986 32.284494 1.131885 0.888575 0.120381 -0.032335 -226758.000000 0 0 1
10.249873 23.827814 19.363386 32.369203 1.164560 0.929538 0.108609 -0.034037 266147.000000 0 0 1
8.870473 24.131414 19.299586 32.147853 1.218538 0.926872 0.115904 -0.038137 146952.000000 0 0 1
8.336373 25.017514 20.299986 33.278530 1.249146 0.914733 0.116472 -0.041745 530635.000000 0 0 1
6.937373 25.621114 19.927686 33.191584 1.306369 0.926816 0.107603 -0.036619 681973.000000 0 0 1
7.026473 26.700914 19.023786 33.529309 1.313476 0.967478 0.102457 -0.035451 22471.400000 0 0 1
5.705073 26.942714 18.594886 33.229918 1.362130 0.976914 0.080812 -0.039032 -52101.300000 0 0 1
5.575973 27.889314 17.334386 33.307450 1.373466 1.023435 0.079863 -0.030990 -20181.200000 0 0 1
6.217773 27.411214 16.186286 32.435030 1.347738 1.048309 0.071577 -0.024291 -30998.600000 0 0 1
7.156173 28.337714 15.665986 33.161121 1.323436 1.078762 0.067410 -0.016078 336901.000000 0 0 1
7.935773 27.917814 14.368186 32.385577 1.293847 1.111118 0.065357 -0.017146 117847.000000 0 0 1
7.253973 27.971214 13.142186 31.744700 1.317049 1.143957 0.055579 -0.020704 -410518.000000 0 0 1
6.912573 26.719514 12.627986 30.350982 1.317638 1.141683 0.033437 -0.021222 -285495.000000 0 0 1
6.192273 26.801314 11.289986 29.734129 1.343737 1.181327 0.023175 -0.019314 -410176.000000 0 0 1
6.816973 27.440614 10.166686 30.046962 1.327299 1.225623 0.012408 -0.015026 54919.000000 0 0 1
7.045373 28.906814 10.224286 31.460725 1.331730 1.239800 0.014922 -0.013506 -4772.100000 0 0 1
7.514673 29.559814 8.849586 31.757961 1.321851 1.288401 0.001523 -0.009216 -570424.000000 0 0 1
6.472373 29.652814 7.915986 31.366285 1.355895 1.315665 0.012116 -0.010060 -322025.000000 0 0 1
6.288673 28.497514 7.125986 30.040562 1.353603 1.331301 0.009783 -0.000670 22987.800000 0 0 1
4.801673 28.107014 6.969086 29.353508 1.401594 1.331088 0.011837 -0.008336 -63005.200000 0 0 1
4.178773 29.012614 6.101786 29.940369 1.427747 1.365561 0.004179 -0.003420 504090.000000 0 0 1
2.769173 28.734414 5.953486 29.475055 1.474722 1.367413 0.033251 -0.007457 1033670.000000 0 0 1
2.060273 29.703014 5.034086 30.196950 1.501545 1.403306 0.053685 -0.010142 -545004.000000 0 0 1
2.575273 29.568914 3.728886 29.914165 1.483922 1.445818 0.026960 -0.011016 -162081.000000 0 0 1
2.016973 30.315514 2.671086 30.499726 1.504362 1.483107 0.010382 -0.015269 -541495.000000 0 0 1
0.613573 29.921614 2.233386 30.011122 1.550293 1.496309 0.067605 -0.022360 -687582.000000 0 0 1
0.643273 28.567514 1.799286 28.631348 1.548282 1.507912 0.070750 -0.020748 -303101.000000 0 0 1
-0.589827 27.954214 1.475186 27.999324 -1.549700 1.518085 0.063535 -0.024046 144434.000000 0 0 1
-0.975827 28.105014 -0.034814 28.121971 -1.536090 1.572034 0.052422 -0.027722 -17811.500000 0 0 1
-1.432727 29.377014 -0.421614 29.414952 -1.522065 1.585130 0.057053 -0.031008 -42788.200000 0 0 1
-1.259527 29.504714 -1.814514 29.587278 -1.528133 1.632162 0.050723 -0.031475 134954.000000 0 0 1
-2.236627 30.582614 -2.423414 30.759904 -1.497792 1.649663 0.063745 -0.031945 203213.000000 0 0 1
-3.552627 30.321114 -2.800014 30.656666 -1.454161 1.662258 0.060494 -0.028773 -339091.000000 0 0 1
-3.636927 29.486914 -3.927714 29.968855 -1.448076 1.702234 0.040827 -0.027481 -740911.000000 0 0 1
-5.018427 29.247314 -4.545114 30.020794 -1.400865 1.722780 0.047882 -0.016308 -440533.000000 0 0 1
-5.604227 30.301614 -5.229214 31.256037 -1.387915 1.738889 0.051395 -0.019229 -120805.000000 0 0 1
-6.678427 29.869114 -6.038014 31.196522 -1.350825 1.765573 0.045850 -0.021685 98449.500000 0 0 1
-7.277827 30.999814 -6.970614 32.596698 -1.340202 1.786305 0.045707 -0.013377 21073.000000 0 0 1
-8.117527 31.900914 -6.298914 33.514756 -1.321624 1.759865 0.039528 -0.005444 -162241.000000 0 0 1
-8.585427 32.967514 -7.053814 34.789694 -1.316034 1.774968 0.037086 -0.016556 336501.000000 0 0 1
-9.618827 33.843014 -6.246714 35.733638 -1.293880 1.746512 0.036934 -0.016067 221652.000000 0 0 1
-10.922127 33.351914 -6.323714 35.659955 -1.254322 1.749073 0.036525 -0.011801 -1136980.000000 0 0 1
-11.868827 -33.997479 -5.804714 36.474543 1.234915 1.730620 0.044629 -0.015308 -288830.000000 0 0 1
-13.300127 33.776514 -6.111514 36.811641 -1.195673 1.737590 0.052598 -0.017418 -180530.000000 0 0 1
-13.576127 33.880314 -7.486714 37.259063 -1.189679 1.773110 0.043789 -0.021268 -353961.000000 0 0 1
-14.930227 33.590914 -7.727814 37.563018 -1.152549 1.778005 0.049551 -0.023213 -724470.000000 0 0 1
-15.490527 33.469814 -9.156814 38.000423 -1.137332 1.814158 0.075979 -0.032131 688612.000000 0 0 1
-16.883227 33.168514 -9.162114 38.329336 -1.099964 1.812170 0.102415 -0.037583 412931.000000 0 0 1
-17.811127 -34.026779 -9.035614 39.455041 1.088570 1.801857 0.096743 -0.041656 -2068250.000000 0 0 1
-19.236327 33.799114 -9.304314 39.987331 -1.053379 1.805630 0.103862 -0.042497 -700707.000000 0 0 1
-19.885327 32.926014 -8.346314 39.360000 -1.027485 1.784469 0.099831 -0.035456 366155.000000 0 0 1
-20.004627 33.531214 -7.062014 39.678703 -1.032883 1.749730 0.069226 -0.025126 -1029560.000000 0 0 1
-20.379327 32.613414 -5.946414 38.914157 -1.012286 1.724206 0.076589 -0.030963 -1014460.000000 0 0 1
-20.115327 33.140814 -4.636214 39.044006 -1.025271 1.689820 0.055475 -0.029741 225529.000000 0 0 1
-21.244527 33.371114 -3.809414 39.742582 -1.003889 1.666796 0.055774 -0.031763 424281.000000 0 0 1
-22.258927 -33.721179 -4.181714 40.620985 0.987362 1.673924 0.076306 -0.037497 305496.000000 0 0 1
-22.865127 -33.948079 -5.441914 41.290441 0.978056 1.702977 0.089945 -0.037726 -594313.000000 0 0 1
-23.982027 -33.162879 -5.671914 41.316882 0.944696 1.708510 0.083057 -0.041489 -497923.000000 0 0 1
-24.321527 -33.054879 -7.125314 41.652512 0.936450 1.742707 0.100022 -0.035251 179345.000000 0 0 1
-23.424327 -32.191279 -7.851514 40.578612 0.941746 1.765513 0.116564 -0.029493 364812.000000 0 0 1
-23.524527 -32.431579 -9.280314 41.125842 0.943253 1.798413 0.104472 -0.022153 49455.000000 0 0 1
-24.740527 -31.793279 -9.995514 41.506825 0.909510 1.814003 0.073632 -0.018319 -261046.000000 0 0 1
-25.931717 -32.401279 -9.551514 42.585540 0.895854 1.797011 0.066062 -0.011403 1033930.000000 0 0 1
-27.189377 -31.845379 -10.044414 43.061359 0.864104 1.806223 0.029877 -0.005369 1694200.000000 0 0 1
-27.702807 -30.411679 -9.685914 42.262663 0.831977 1.802035 0.022786 0.003882 40987.400000 0 0 1
-26.852427 -29.411279 -10.305914 41.137428 0.830846 1.824018 0.033983 0.004816 368042.000000 0 0 1
-27.167887 -28.999579 -11.624614 41.402914 0.817998 1.855391 0.019973 0.001167 -525363.000000 0 0 1
-25.966757 -28.302979 -12.267514 40.321495 0.828420 1.879940 0.034972 0.003343 -248570.000000 0 0 1
-24.959827 -29.248279 -12.560714 40.450294 0.864345 1.886539 0.043205 -0.003798 -920158.000000 0 0 1
-23.882527 -28.663179 -13.180114 39.568527 0.876129 1.910381 0.038438 -0.006761 -1050850.000000 0 0 1
-22.707927 -29.583579 -13.468014 39.651299 0.916135 1.917353 0.051982 -0.019190 -397693.000000 0 0 1
-22.976927 -30.646879 -14.343314 40.901113 0.927467 1.929096 0.059332 -0.022801 -184306.000000 0 0 1
-23.685127 -31.732779 -13.806814 41.935458 0.929608 1.906295 0.046185 -0.021196 -91392.700000 0 0 1
-23.589427 -33.031379 -14.633714 43.147174 0.950635 1.916818 0.059532 -0.032691 -140995.000000 0 0 1
-24.370027 -33.968879 -13.977114 44.081092 0.948473 1.893443 0.050078 -0.037622 -221715.000000 0 0 1
-24.231327 33.046114 -14.661814 43.522082 -0.938096 1.914400 0.062620 -0.034625 -156707.000000 0 0 1
-24.638127 31.841714 -13.796514 42.559087 -0.912256 1.900934 0.056330 -0.031895 -60635.200000 0 0 1
-23.869027 31.420414 -12.678414 41.445326 -0.921137 1.881687 0.070698 -0.033307 2697.790000 0 0 1
-23.616727 32.434214 -11.696514 41.791584 -0.941431 1.854463 0.097059 -0.029374 50034.200000 0 0 1
-22.912527 31.995814 -10.363814 40.695511 -0.949340 1.828300 0.103721 -0.027916 -105168.000000 0 0 1
-23.590427 31.176614 -9.476714 40.228070 -0.923040 1.808606 0.095507 -0.018004 -80760.000000 0 0 1
-22.785827 30.851214 -8.360214 39.254102 -0.934650 1.785417 0.090484 -0.026799 57049.400000 0 0 1
-23.516127 29.816314 -7.498414 38.707196 -0.902984 1.765750 0.083549 -0.020701 85298.200000 0 0 1
-23.821627 28.675614 -8.300614 38.192420 -0.877598 1.789881 0.083694 -0.004635 234247.000000 0 0 1
-24.373127 27.566114 -7.566214 37.565776 -0.846796 1.773596 0.073044 -0.005018 129382.000000 0 0 1
-23.354827 26.680014 -6.759814 36.096623 -0.851758 1.759179 0.069871 -0.009234 350028.000000 0 0 1
-22.719327 27.329814 -5.661114 35.987981 -0.877258 1.728758 0.072662 -0.008345 -278480.000000 0 0 1
-21.759727 26.470314 -5.146114 34.650335 -0.882759 1.719863 0.066917 -0.017083 -1965460.000000 0 0 1
-20.489627 27.141914 -4.790614 34.343242 -0.924162 1.710745 0.046850 -0.025357 -1663950.000000 0 0 1
-19.651127 27.092314 -5.929214 33.989938 -0.943266 1.746134 0.054481 -0.019809 -175234.000000 0 0 1
-18.629227 28.077314 -5.762314 34.184615 -0.984991 1.740170 0.042042 -0.020591 293860.000000 0 0 1
-17.509227 27.958914 -6.842714 33.691195 -1.011300 1.775320 0.057255 -0.018552 -364417.000000 0 0 1
-17.689427 28.439714 -8.172614 34.474988 -1.014359 1.810134 0.059548 -0.024454 -105122.000000 0 0 1
-17.963527 29.830414 -8.302814 35.797746 -1.028769 1.804865 0.064274 -0.027824 -170457.000000 0 0 1
-18.160527 30.273014 -9.749714 36.623996 -1.030457 1.840256 0.084363 -0.029232 -752649.000000 0 0 1
-17.007027 30.015614 -10.469114 36.052440 -1.055293 1.865426 0.077882 -0.028110 -596246.000000 0 0 1
-16.919527 30.931014 -11.567314 37.105266 -1.070253 1.887823 0.098013 -0.033257 -189952.000000 0 0 1
-15.500627 31.005214 -12.163514 36.736138 -1.107200 1.908271 0.083611 -0.031729 10899.800000 0 0 1
-15.282527 31.850414 -13.293814 37.745596 -1.123421 1.930712 0.087300 -0.035478 -79154.000000 0 0 1
-15.823527 31.302914 -14.492714 37.951221 -1.102761 1.962623 0.097039 -0.039582 -287182.000000 0 0 1
-15.282227 31.935714 -15.734814 38.743008 -1.124471 1.989015 0.110346 -0.046245 -917609.000000 0 0 1
-13.912427 31.730914 -15.824714 38.089738 -1.157589 1.999243 0.107795 -0.045318 -1104960.000000 0 0 1
-13.349727 32.150514 -16.993914 38.738403 -1.177233 2.024930 0.098508 -0.051404 -862936.000000 0 0 1
-11.839427 31.959814 -16.959114 38.068534 -1.216023 2.032517 0.115457 -0.053781 -954365.000000 0 0 1
-11.417827 30.649214 -17.025614 36.872926 -1.214191 2.050749 0.116926 -0.062121 -428779.000000 0 0 1
-10.092827 30.421214 -17.432514 36.485723 -1.250454 2.068934 0.106431 -0.053781 -13436.500000 0 0 1
-9.766227 30.670214 -18.932214 37.342602 -1.262521 2.102482 0.101489 -0.060388 -141541.000000 0 0 1
-10.378427 29.554914 -19.642814 36.973570 -1.233091 2.130891 0.104005 -0.057788 384537.000000 0 0 1
-10.079127 29.591014 -21.015714 37.667986 -1.242507 2.162673 0.082900 -0.059508 -1237520.000000 0 0 1
-11.261327 29.178914 -21.873414 38.166383 -1.202469 2.181088 0.086877 -0.048547 -441720.000000 0 0 1
-12.157827 30.199214 -22.171714 39.387691 -1.188061 2.168698 0.092290 -0.051499 -92704.700000 0 0 1
-13.105827 30.569814 -21.192414 39.438492 -1.165781 2.138092 0.092531 -0.046833 -314691.000000 0 0 1
-14.032827 31.755714 -21.536014 40.855177 -1.154699 2.126017 0.101748 -0.055050 486399.000000 0 0 1
-14.909827 31.602514 -22.659114 41.646816 -1.129968 2.146086 0.078916 -0.047735 71036.000000 0 0 1
-15.751027 32.702414 -22.818314 42.874447 -1.121938 2.132008 0.076702 -0.041078 88231.700000 0 0 1
-16.121427 32.871614 -24.273914 43.927968 -1.114829 2.156258 0.065944 -0.032414 40736.700000 0 0 1
-15.031927 33.376214 -25.004814 44.330252 -1.147628 2.170088 0.073944 -0.028452 -17987.300000 0 0 1
-15.289327 33.394114 -26.411414 45.238183 -1.141438 2.194235 0.077140 -0.020928 253645.000000 0 0 1
-15.960627 -33.550879 -27.025114 45.943007 1.126765 2.199666 0.063316 -0.011985 944669.000000 0 0 1
-17.310027 -33.280679 -26.635014 46.007223 1.091181 2.188214 0.063481 -0.013469 595511.000000 0 0 1
-17.902827 -32.320579 -27.522914 46.072137 1.064953 2.211036 0.043694 -0.005200 30198.900000 0 0 1
-19.372027 -31.913179 -27.341814 46.274196 1.025229 2.202927 0.047938 -0.010760 -313553.000000 0 0 1
-20.232927 -32.970879 -27.557914 47.496198 1.020393 2.189787 0.051980 -0.012753 -798714.000000 0 0 1
-21.584927 -32.558479 -27.605514 47.833336 0.985365 2.185992 0.049168 -0.008259 379087.000000 0 0 1
-22.568527 -33.757979 -27.614214 49.106867 0.981499 2.167996 0.043849 -0.005528 -141612.000000 0 0 1
-22.486927 33.646214 -26.474514 48.359379 -0.981640 2.150115 0.060642 -0.012005 -703968.000000 0 0 1
-23.523027 32.712714 -26.412914 48.177759 -0.947380 2.151053 0.048265 -0.012686 -86465.200000 0 0 1
-23.494427 31.382914 -27.284914 47.763395 -0.928168 2.178826 0.058759 -0.008248 200087.000000 0 0 1
-22.650027 30.404814 -26.685814 46.363877 -0.930536 2.184101 0.064168 -0.031596 81267.800000 0 0 1
-23.318327 29.582314 -25.715514 45.608611 -0.903260 2.169813 0.053222 -0.025467 -163049.000000 0 0 1
31.815975 9.718614 -26.413265 42.477857 0.296461 2.241851 0.060282 -0.006657 56997.100000 0 0 1
31.425985 8.344714 -26.494225 41.942470 0.259546 2.254515 0.058108 -0.003262 -992925.000000 0 0 1
30.065905 8.169614 -26.608245 40.971941 0.265318 2.277626 0.060366 -0.011982 -837582.000000 0 0 1
29.546325 6.779914 -26.058665 39.975075 0.225562 2.280848 0.046601 -0.008692 95412.200000 0 0 1
29.569715 6.722714 -24.663115 39.087494 0.223551 2.253602 0.046928 -0.003344 523027.000000 0 0 1
28.623915 5.729414 -24.210015 37.924656 0.197551 2.263177 0.031959 -0.007485 277036.000000 0 0 1
28.819355 5.334814 -22.733515 37.092158 0.183040 2.230513 0.033667 -0.011406 -860866.000000 0 0 1
30.015925 4.711814 -22.443215 37.773732 0.155706 2.207003 0.054981 -0.020709 -688255.000000 0 0 1
30.106945 4.687114 -21.026515 37.020420 0.154442 2.174835 0.057040 -0.018161 -196611.000000 0 0 1
31.540125 4.615114 -20.455815 37.875047 0.145294 2.141337 0.051852 -0.017078 -124989.000000 0 0 1
32.063335 3.290414 -20.551715 38.226395 0.102264 2.138422 0.072379 -0.018019 481378.000000 0 0 1
32.983475 3.118714 -19.446615 38.416232 0.094274 2.101579 0.078881 -0.018206 -39361.700000 0 0 1
33.509135 1.672714 -19.415315 38.763573 0.049877 2.095394 0.082101 -0.019289 -233544.000000 0 0 1
32.606795 0.720914 -18.908715 37.699633 0.022106 2.096200 0.064368 -0.015705 -504830.000000 0 0 1
33.102485 -0.563786 -19.019815 38.181746 -0.017030 2.092247 0.069166 -0.013829 -79666.600000 0 0 1
32.097315 -1.593886 -18.490215 37.076491 -0.049617 2.092900 0.058548 -0.011301 169902.000000 0 0 1
32.025855 -1.682086 -17.094715 36.341630 -0.052475 2.060528 0.067005 -0.011890 978455.000000 0 0 1
30.633065 -1.506986 -16.734315 34.938417 -0.049155 2.070273 0.049812 -0.016129 1032150.000000 0 0 1
30.457485 -1.862386 -15.266815 34.120412 -0.061071 2.034696 0.046927 -0.013742 -228125.000000 0 0 1
30.414195 -3.198286 -14.875315 34.007754 -0.104773 2.023512 0.042850 -0.017942 224228.000000 0 0 1
29.622355 -3.367286 -13.731015 32.823213 -0.113188 2.002405 0.045078 -0.019302 -205344.000000 0 0 1
29.570385 -4.800586 -13.177315 32.727587 -0.160940 1.985191 0.038228 -0.018533 -130645.000000 0 0 1
28.689245 -5.558386 -13.965115 32.388160 -0.191374 2.016596 0.027312 -0.013153 272423.000000 0 0 1
28.419315 -6.858486 -13.414515 32.165906 -0.236804 2.000984 0.025777 -0.013804 -204371.000000 0 0 1
27.701485 -7.719486 -14.472815 32.193557 -0.271772 2.037065 0.027282 -0.009987 -226533.000000 0 0 1
26.384585 -7.373986 -14.825115 31.149736 -0.272527 2.066818 0.044702 -0.013263 -118882.000000 0 0 1
26.103785 -8.208986 -15.920415 31.658406 -0.304683 2.097725 0.052351 -0.014415 429556.000000 0 0 1
24.677485 -8.204286 -16.556315 30.828561 -0.320965 2.137726 0.044271 -0.013295 284320.000000 0 0 1
24.447485 -6.945186 -17.219215 30.698803 -0.276794 2.166279 0.047259 -0.011185 -69898.800000 0 0 1
23.123585 -6.854286 -17.696615 29.914071 -0.288169 2.203815 0.086276 -0.016923 75164.500000 0 0 1
22.901085 -7.351286 -19.157515 30.749171 -0.310611 2.243401 0.066891 -0.012101 -209141.000000 0 0 1
23.364685 -6.388986 -20.101415 31.476889 -0.266921 2.263485 0.063573 -0.019560 449609.000000 0 0 1
23.208685 -6.956686 -21.409315 32.332605 -0.291223 2.294492 0.074034 -0.027261 -167034.000000 0 0 1
23.842985 -5.991686 -22.463315 33.301483 -0.246200 2.311143 0.066553 -0.027964 -114393.000000 0 0 1
23.660685 -6.418286 -23.767915 34.145808 -0.264889 2.340707 0.068251 -0.034127 266832.000000 0 0 1
24.064485 -5.379286 -24.631415 34.853160 -0.219921 2.355647 0.065498 -0.026474 -340433.000000 0 0 1
24.044385 -5.807486 -26.134735 35.984493 -0.236993 2.383688 0.072364 -0.029694 1183060.000000 0 0 1
22.674585 -6.080386 -26.553945 35.443193 -0.261995 2.417646 0.081247 -0.034417 1277240.000000 0 0 1
22.618385 -6.438686 -27.962755 36.537155 -0.277330 2.442341 0.072297 -0.035778 328610.000000 0 0 1
21.223385 -7.009786 -28.335485 36.089734 -0.319005 2.473718 0.058396 -0.040351 371586.000000 0 0 1
21.042685 -8.420886 -28.013845 36.034448 -0.380663 2.461347 0.050626 -0.034150 -251084.000000 0 0 1
19.854585 -8.798886 -28.635805 35.939314 -0.417157 2.492748 0.041605 -0.038032 -643645.000000 0 0 1
19.611785 -10.347386 -28.747165 36.305509 -0.485491 2.484568 0.058085 -0.026854 40295.800000 0 0 1
18.794785 -10.820686 -27.677825 35.162383 -0.522381 2.476959 0.067347 -0.030917 404760.000000 0 0 1
19.122685 -12.160086 -27.283955 35.467718 -0.566398 2.448481 0.066275 -0.030533 -316017.000000 0 0 1
19.105185 -13.325386 -28.316025 36.665669 -0.609029 2.453213 0.053983 -0.015942 1355870.000000 0 0 1
17.787685 -13.655386 -28.858965 36.547383 -0.654725 2.481005 0.052946 -0.021716 1559180.000000 0 0 1
17.968085 -14.742386 -29.723055 37.731287 -0.687102 2.477954 0.040043 -0.021256 -827801.000000 0 0 1
16.844985 -15.181386 -30.630815 38.111348 -0.733500 2.504316 0.042872 -0.024121 -1114480.000000 0 0 1
15.765785 -15.701086 -29.928275 37.293240 -0.783342 2.502290 0.071804 -0.028696 -321061.000000 0 0 1
14.764185 -16.176386 -30.760935 37.760982 -0.831009 2.522874 0.070748 -0.035200 -470543.000000 0 0 1
13.478785 -16.747686 -30.142705 37.023578 -0.893126 2.522058 0.089847 -0.038398 36335.300000 0 0 1
13.768285 -17.956186 -29.495365 37.174815 -0.916648 2.487209 0.082184 -0.034144 -21090.100000 0 0 1
12.834285 -18.261386 -28.505565 36.204479 -0.958187 2.477294 0.080632 -0.033777 -254188.000000 0 0 1
13.154785 -19.605186 -27.858005 36.516847 -0.979810 2.438554 0.070309 -0.028048 -375013.000000 0 0 1
14.386785 -19.614886 -27.216845 36.503151 -0.937963 2.412235 0.063669 -0.020392 -573418.000000 0 0 1
14.451585 -20.572586 -26.247735 36.345883 -0.958416 2.377724 0.044836 -0.016519 -204460.000000 0 0 1
15.410485 -20.227986 -25.102675 35.732321 -0.919761 2.349729 0.039873 -0.006503 -465100.000000 0 0 1
16.730685 -20.581286 -25.404305 36.727155 -0.888234 2.334642 0.039024 -0.005423 -18767.200000 0 0 1
17.631485 -20.427486 -24.304315 36.315991 -0.858731 2.303989 0.027353 0.002367 305960.000000 0 0 1
18.999385 -21.105786 -24.620015 37.584252 -0.837872 2.285061 0.008078 0.012137 23724.200000 0 0 1
18.972185 -22.508186 -24.740215 38.453095 -0.870438 2.269711 0.023598 -0.001410 182984.000000 0 0 1
18.625385 -23.285186 -23.604515 38.029962 -0.896128 2.240409 0.025764 -0.013449 -784660.000000 0 0 1
19.216785 -24.692986 -23.622415 39.205190 -0.909472 2.217467 0.030881 -0.020887 -429000.000000 0 0 1
20.621585 -24.646686 -23.437515 39.774691 -0.874082 2.200935 0.032116 -0.016059 184882.000000 0 0 1
21.093085 -25.942796 -23.093415 40.635609 -0.888142 2.175241 0.041122 -0.029052 -33247.900000 0 0 1
21.074185 -26.191446 -21.545515 39.928966 -0.893244 2.140754 0.056957 -0.031810 -998392.000000 0 0 1
19.796885 -26.262916 -20.993515 39.017754 -0.924870 2.138919 0.042371 -0.027511 -284922.000000 0 0 1
19.941485 -26.683676 -19.641315 38.671212 -0.929007 2.103548 0.048728 -0.030188 472554.000000 0 0 1
18.591985 -27.168386 -19.030115 38.025365 -0.970669 2.094925 0.039862 -0.027852 -242354.000000 0 0 1
18.350685 -28.522766 -19.438915 39.091780 -0.999096 2.091238 0.040220 -0.023087 930184.000000 0 0 1
17.153785 -29.183776 -18.944715 38.792362 -1.039407 2.081008 0.026918 -0.006644 1374310.000000 0 0 1
15.796585 -28.627456 -19.476315 38.057722 -1.066573 2.108025 0.045684 -0.018565 -250109.000000 0 0 1
15.324785 -27.558436 -18.689015 36.655091 -1.063295 2.105820 0.049276 -0.021643 -811637.000000 0 0 1
14.263885 -26.963006 -19.362015 36.129624 -1.084206 2.136375 0.039991 -0.009682 -348298.000000 0 0 1
13.345785 -26.095246 -18.434915 34.625394 -1.098050 2.132242 0.034190 -0.021451 493417.000000 0 0 1
12.266285 -26.889886 -17.910915 34.559060 -1.142826 2.115623 0.036083 -0.016055 368287.000000 0 0 1
11.488385 -26.150786 -16.975815 33.226870 -1.156865 2.107035 0.047264 -0.026484 -226758.000000 0 0 1
9.982085 -26.270676 -17.228715 32.963906 -1.207675 2.120757 0.056311 -0.025662 -830553.000000 0 0 1
9.380385 -27.395996 -16.644215 33.400032 -1.240908 2.092467 0.053545 -0.011987 411191.000000 0 0 1
7.953385 -27.300126 -16.733815 32.993542 -1.287311 2.102711 0.048321 -0.005891 996895.000000 0 0 1
7.358385 -27.984126 -17.997515 34.075911 -1.313668 2.127228 0.057615 -0.003202 -292350.000000 0 0 1
7.423385 -27.205406 -19.167015 34.097144 -1.304417 2.167755 0.071356 -0.010824 -92464.200000 0 0 1
6.833185 -27.878096 -20.267315 35.137512 -1.330426 2.185602 0.065813 -0.005147 -86.255800 0 0 1
6.882685 -27.010396 -21.544815 35.229418 -1.321290 2.228824 0.071186 -0.015101 -639222.000000 0 0 1
5.925585 -26.009956 -21.527315 34.279085 -1.346799 2.249779 0.100677 -0.023494 -389040.000000 0 0 1
5.835485 -25.233736 -22.718815 34.451979 -1.343534 2.290862 0.091206 -0.021613 -245729.000000 0 0 1
4.443085 -24.691786 -23.067815 34.081511 -1.392760 2.314261 0.070055 -0.014246 27343.400000 0 0 1
3.450985 -25.620666 -23.468115 34.915330 -1.436907 2.307896 0.064717 -0.008268 -1232490.000000 0 0 1
2.232385 -25.012486 -23.642315 34.490101 -1.481781 2.326061 0.075758 -0.015194 -1125800.000000 0 0 1
1.295885 -26.141416 -24.137515 35.604390 -1.521265 2.315748 0.058089 -0.018761 -361150.000000 0 0 1
1.645485 -26.795926 -25.341365 36.917666 -1.509465 2.327364 0.040066 -0.013766 -83690.200000 0 0 1
0.682685 -27.740636 -25.760675 37.863192 -1.546192 2.319053 0.046195 -0.020495 -167321.000000 0 0 1
1.176585 -28.679436 -26.814385 39.279838 -1.529794 2.322179 0.035849 -0.012976 -607165.000000 0 0 1
1.375185 -28.043996 -28.085095 39.713089 -1.521799 2.356326 0.033215 -0.016215 352467.000000 0 0 1
2.069385 -28.754436 -29.133455 40.986073 -1.498953 2.361450 0.035586 -0.016837 1422940.000000 0 0 1
3.612885 -29.056976 -28.929275 41.161435 -1.447093 2.350157 0.039973 -0.012599 999771.000000 0 0 1
3.996985 -29.999276 -27.929175 41.182172 -1.438340 2.316088 0.035840 -0.026829 150354.000000 0 0 1
5.188785 -30.695666 -28.321345 42.086173 -1.403340 2.308969 0.058450 -0.034014 711076.000000 0 0 1
5.636685 -31.721816 -27.240915 42.191389 -1.394941 2.272672 0.074581 -0.043991 -357680.000000 0 0 1
4.813385 -32.831566 -27.266515 42.948146 -1.425225 2.258637 0.073938 -0.053522 -295156.000000 0 0 1
5.326185 -33.938086 -26.551835 43.418451 -1.415128 2.228794 0.091346 -0.054728 44095.400000 0 0 1
4.212985 33.224147 -26.307605 42.587360 1.444665 2.236653 0.101583 -0.051483 -200047.000000 0 0 1
3.636685 32.745541 -27.487145 42.907331 1.460191 2.266097 0.087524 -0.051171 429242.000000 0 0 1
2.388985 32.185300 -27.057075 42.115152 1.496706 2.268493 0.067611 -0.054149 790836.000000 0 0 1
1.222085 32.318410 -28.092075 42.838508 1.533000 2.285994 0.056386 -0.033499 178354.000000 0 0 1
1.363285 31.470487 -29.208285 42.957816 1.527504 2.318463 0.068891 -0.036369 -299104.000000 0 0 1
0.270185 31.755257 -30.013535 43.695327 1.562288 2.327986 0.056322 -0.034251 -143861.000000 0 0 1
-0.120815 30.612647 -30.964985 43.542841 -1.566850 2.361912 0.059132 -0.034677 -285991.000000 0 0 1
0.718985 30.646557 -32.074455 44.367770 1.547340 2.378819 0.076369 -0.038675 -168759.000000 0 0 1
0.536685 29.560477 -32.990035 44.299574 1.552643 2.410886 0.090822 -0.037011 -752431.000000 0 0 1
1.795085 29.245797 -33.788735 44.723792 1.509494 2.427210 0.077261 -0.030247 -270989.000000 0 0 1
2.080785 30.303677 33.504762 45.224015 1.502239 0.736443 0.075556 -0.036848 151888.000000 0 0 1
3.157685 30.104227 32.579568 44.470930 1.466287 0.748657 0.058464 -0.033770 192332.000000 0 0 1
2.824385 29.249717 31.299566 42.932341 1.474534 0.753872 0.060191 -0.021547 -163977.000000 0 0 1
2.608485 27.863957 31.577896 42.194404 1.477453 0.725164 0.062489 -0.024318 -460509.000000 0 0 1
3.737385 27.035167 31.562776 41.726216 1.433425 0.712965 0.053558 -0.020133 -638659.000000 0 0 1
3.456985 25.572187 31.909396 41.037751 1.436426 0.680017 0.048466 -0.018412 -129736.000000 0 0 1
2.702285 24.809277 30.993166 39.791693 1.462302 0.677910 0.041251 -0.007955 240457.000000 0 0 1
3.081485 23.474257 31.151736 39.127572 1.440272 0.649877 0.043185 -0.013610 362573.000000 0 0 1
2.269785 22.506807 30.166056 37.705426 1.470287 0.643425 0.038275 -0.004662 844554.000000 0 0 1
0.925385 22.206107 30.499536 37.738431 1.529148 0.629737 0.048009 -0.012488 42321.100000 0 0 1
0.271085 21.545307 29.459936 36.498788 1.558215 0.631491 0.050858 -0.009382 179705.000000 0 0 1
-1.199415 21.158907 29.745866 36.523341 -1.514171 0.619043 0.046116 -0.006560 202501.000000 0 0 1
-2.087715 22.232807 29.982246 37.384372 -1.477168 0.640161 0.048649 -0.010813 -211842.000000 0 0 1
-3.414115 21.794807 29.978176 37.220435 -1.415411 0.634408 0.037101 -0.011216 -622044.000000 0 0 1
-4.417415 22.893107 30.318126 38.246524 -1.380181 0.655566 0.023584 -0.020821 -368821.000000 0 0 1
-4.460315 23.265987 31.663436 39.544578 -1.381385 0.642330 0.038074 -0.021373 -82569.900000 0 0 1
-5.157015 24.464297 31.832376 40.477114 -1.363040 0.665790 0.025504 -0.023203 1092.260000 0 0 1
-5.337015 24.803897 33.282329 41.850094 -1.358859 0.651335 0.042528 -0.020992 252474.000000 0 0 1
-6.272715 25.845437 33.546551 42.810099 -1.332699 0.670336 0.037216 -0.018391 100390.000000 0 0 1
-6.494715 26.032207 -33.235165 42.713385 -1.326300 2.462427 0.040467 -0.013838 1150460.000000 0 0 1
-7.974315 26.371437 -32.766125 42.809594 -1.277153 2.442447 0.056982 -0.006771 1037710.000000 0 0 1
-8.341615 27.714117 -33.063665 43.941560 -1.278433 2.422565 0.045804 -0.012358 -467674.000000 0 0 1
-9.618715 28.037507 -32.592015 44.055203 -1.240312 2.403569 0.034521 -0.006941 -215670.000000 0 0 1
-9.605815 28.543427 -31.170765 43.342998 -1.246169 2.373396 0.046082 -0.009256 -179449.000000 0 0 1
-8.969315 29.777607 -30.884475 43.829274 -1.278230 2.352732 0.052494 -0.011281 61596.600000 0 0 1
-9.014215 30.030157 -29.516185 43.061253 -1.279182 2.326013 0.069898 -0.013708 -173518.000000 0 0 1
-8.286615 31.340357 -29.128145 43.581358 -1.312305 2.302801 0.054557 -0.016272 -284970.000000 0 0 1
-6.903115 31.262757 -29.320005 43.412851 -1.353474 2.312271 0.028030 -0.018866 -843592.000000 0 0 1
-6.271315 32.401020 -28.847705 43.833156 -1.379607 2.289122 0.030725 -0.017937 218796.000000 0 0 1
-4.710715 32.247079 -28.893075 43.553125 -1.425740 2.296148 0.047526 -0.024068 405834.000000 0 0 1
-3.934415 33.354560 -28.523375 44.063468 -1.453382 2.274866 0.053502 -0.029844 -259175.000000 0 0 1
-4.037015 -33.715056 -29.322645 44.864463 1.451624 2.283105 0.055947 -0.033196 -730633.000000 0 0 1
-3.181615 -33.804466 -30.575075 45.691354 1.476955 2.303881 0.047573 -0.038496 -483356.000000 0 0 1
-3.656115 33.592363 -31.633155 46.286829 -1.462385 2.323228 0.044640 -0.025883 18566.200000 0 0 1
-4.495215 -33.915216 -32.574335 47.239138 1.439022 2.331681 0.053528 -0.030799 153239.000000 0 0 1
-3.864515 -32.862166 -33.567595 47.134275 1.453736 2.363380 0.037130 -0.037890 -109385.000000 0 0 1
-3.765015 -31.548296 -33.055005 45.848704 1.452017 2.375981 0.033068 -0.030564 872131.000000 0 0 1
-2.626715 -30.922016 -33.690365 45.805146 1.486053 2.397223 0.030688 -0.041428 696425.000000 0 0 1
31.857545 17.830714 12.625786 38.629626 0.510261 1.237836 0.152422 -0.032276 -281728.000000 0 0 1
33.246035 17.801614 12.843186 39.838973 0.491604 1.242556 0.144036 -0.048927 -255090.000000 0 0 1
33.556605 16.855314 13.779386 40.000235 0.465482 1.219109 0.131553 -0.025797 -676639.000000 0 0 1
35.003035 17.005114 14.229786 41.435168 0.452238 1.220237 0.141847 -0.047994 -84027.700000 0 0 1
36.082455 16.535614 13.427286 41.900622 0.429712 1.244586 0.133535 -0.019350 387310.000000 0 0 1
36.383915 15.199114 13.706286 41.745235 0.395708 1.236259 0.147382 -0.023062 -647146.000000 0 0 1
-35.561045 14.702314 12.972186 40.608171 -0.392038 1.245650 0.143352 -0.032170 204445.000000 0 0 1
-34.800032 13.607014 13.513986 39.734379 -0.372729 1.223764 0.124972 -0.032835 336231.000000 0 0 1
-35.562256 12.404514 13.722586 40.085600 -0.335615 1.221399 0.124852 -0.037030 -64588.000000 0 0 1
-35.007080 11.477514 14.792686 39.699528 -0.316819 1.188970 0.136865 -0.038450 -73145.600000 0 0 1
-35.221228 12.113414 16.015186 40.543259 -0.331251 1.164712 0.146749 -0.033089 288468.000000 0 0 1
-34.466745 11.474114 17.036786 40.123109 -0.321364 1.132262 0.143139 -0.032664 70512.500000 0 0 1
-34.388519 12.315514 18.366186 40.884702 -0.343898 1.104905 0.139348 -0.027862 -1059120.000000 0 0 1
-35.584501 12.512514 19.017186 42.243024 -0.338125 1.103824 0.145386 -0.045692 -848308.000000 0 0 1
-35.463687 13.063814 20.304186 42.902171 -0.352947 1.077801 0.149263 -0.038947 638278.000000 0 0 1
36.382195 13.202614 21.097786 44.080491 0.348109 1.071714 0.142014 -0.049264 682536.000000 0 0 1
35.865035 11.935814 21.486286 43.479017 0.321269 1.053910 0.127068 -0.041058 -156230.000000 0 0 1
34.796605 12.078914 22.379786 43.099405 0.334115 1.024812 0.130695 -0.046848 -181585.000000 0 0 1
34.336765 10.689014 22.937286 42.654279 0.301791 1.003032 0.132891 -0.045757 65965.900000 0 0 1
35.397135 10.010714 23.623386 43.717684 0.275614 0.999929 0.109737 -0.034770 430759.000000 0 0 1
35.684665 10.497614 24.935736 44.781538 0.286106 0.980231 0.103001 -0.029146 -1514580.000000 0 0 1
-36.103377 10.353914 25.408756 45.346028 -0.279289 0.976012 0.083324 -0.031751 -761355.000000 0 0 1
-35.321733 11.348514 24.745446 44.595411 -0.310873 0.982568 0.077953 -0.031271 -885085.000000 0 0 1
-34.283471 10.944814 23.958676 43.233823 -0.309018 0.983437 0.094384 -0.035144 -562587.000000 0 0 1
-33.443507 12.210314 23.472176 42.643909 -0.350065 0.987926 0.109931 -0.039768 548501.000000 0 0 1
-32.672057 12.854414 24.487756 42.805951 -0.374836 0.961776 0.108973 -0.036510 593083.000000 0 0 1
-33.509567 13.644914 25.353356 44.179943 -0.386693 0.959578 0.098685 -0.035903 -152197.000000 0 0 1
-32.790327 14.390514 26.471586 44.531307 -0.413555 0.934216 0.106981 -0.034110 -317294.000000 0 0 1
-32.125217 15.565014 26.018166 44.172889 -0.451180 0.940966 0.129942 -0.030738 12888.100000 0 0 1
-31.673707 16.259714 27.150766 44.774614 -0.474271 0.919287 0.124601 -0.015321 -383533.000000 0 0 1
-30.940427 17.543614 26.883936 44.585137 -0.515811 0.923565 0.113927 -0.010427 -992261.000000 0 0 1
-31.783817 18.523614 26.358646 45.256088 -0.527677 0.949078 0.083761 -0.032765 97521.100000 0 0 1
-31.047707 19.681714 26.064276 45.063027 -0.564987 0.954035 0.093036 -0.041909 -274948.000000 0 0 1
-31.866697 20.802614 25.408846 45.758546 -0.578342 0.982096 0.100591 -0.030873 -294769.000000 0 0 1
-32.741347 21.364714 26.377626 47.161700 -0.578152 0.977253 0.086108 -0.033025 739938.000000 0 0 1
-33.776407 22.203114 25.842586 47.975652 -0.581529 1.001950 0.085470 -0.025288 95571.700000 0 0 1
-33.279737 23.526414 25.180326 47.907012 -0.615361 1.017366 0.087833 -0.030064 -348321.000000 0 0 1
-34.343820 24.265114 24.624746 48.730604 -0.615098 1.041039 0.092269 -0.023038 192072.000000 0 0 1
-34.041067 25.639514 24.548516 49.181384 -0.645542 1.048188 0.084195 -0.022454 613862.000000 0 0 1
-35.097086 26.347514 23.625706 49.841458 -0.643951 1.076949 0.095248 -0.022717 372561.000000 0 0 1
-34.856459 26.117614 22.275286 48.921272 -0.643047 1.098054 0.104909 -0.033552 15027.800000 0 0 1
-35.827109 26.679014 21.426186 49.542234 -0.640075 1.123551 0.109417 -0.031112 -106385.000000 0 0 1
-35.598475 26.361014 19.926086 48.571631 -0.637400 1.148078 0.138242 -0.049636 96979.100000 0 0 1
-35.920944 25.013814 19.538286 47.934849 -0.608277 1.150971 0.128013 -0.044917 177074.000000 0 0 1
-35.385373 24.756914 18.275186 46.893622 -0.610482 1.170473 0.129690 -0.041255 -224549.000000 0 0 1
-35.819008 23.335814 17.713886 46.274651 -0.577424 1.177972 0.140958 -0.037511 78434.700000 0 0 1
36.156935 23.347414 17.044186 46.291792 0.573364 1.193735 0.130810 -0.043101 -439883.000000 0 0 1
36.164385 22.338914 16.072786 45.444739 0.553336 1.209296 0.131854 -0.043132 -10765.400000 0 0 1
34.881585 22.149114 15.233786 44.038352 0.565744 1.217576 0.112958 -0.028654 251460.000000 0 0 1
33.797405 21.617514 15.966386 43.179937 0.569044 1.192041 0.114637 -0.040191 -479407.000000 0 0 1
32.647845 21.531914 15.187686 41.954391 0.583039 1.200379 0.110404 -0.031836 -271366.000000 0 0 1
31.466355 20.761514 15.874286 40.904339 0.583234 1.172245 0.076360 -0.031106 813113.000000 0 0 1
30.613995 21.384714 16.839986 40.964714 0.609737 1.147152 0.060254 -0.022030 382123.000000 0 0 1
29.865185 22.517514 16.462286 40.865322 0.646038 1.156176 0.046918 -0.009536 -222454.000000 0 0 1
29.132635 23.130814 17.636386 41.167792 0.671061 1.128072 0.030913 -0.010401 -182330.000000 0 0 1
30.060255 23.804014 18.434486 42.545038 0.669768 1.122652 0.009618 -0.011673 -176662.000000 0 0 1
29.509595 24.243714 19.686286 42.966542 0.687746 1.094853 0.015986 -0.008841 -119733.000000 0 0 1
30.568585 24.835614 20.652886 44.472326 0.682290 1.087841 0.018218 -0.013094 29372.400000 0 0 1
31.011595 26.117314 20.159686 45.279643 0.699936 1.109369 0.039488 -0.023998 -57985.800000 0 0 1
32.042435 26.571214 20.976686 46.612964 0.692324 1.104011 0.050287 -0.029773 -674567.000000 0 0 1
32.612375 27.947014 20.608486 47.637299 0.708512 1.123408 0.080949 -0.033443 -947785.000000 0 0 1
33.765255 28.356314 21.231586 48.938259 0.698547 1.122041 0.081272 -0.028746 -684708.000000 0 0 1
33.631925 28.830514 22.603586 49.731549 0.708680 1.098972 0.042170 -0.015715 -896829.000000 0 0 1
34.772275 28.460614 23.538386 50.726455 0.685912 1.088262 0.049068 -0.018597 -30752.600000 0 0 1
35.882195 29.345914 23.381916 51.917517 0.685525 1.103620 0.076463 -0.017773 135966.000000 0 0 1
36.510645 29.660814 24.588406 53.079005 0.682249 1.089147 0.073193 -0.011661 453546.000000 0 0 1
-35.491936 30.667014 24.569966 52.951171 -0.712598 1.088278 0.090376 -0.024790 229298.000000 0 0 1
-34.244516 30.088314 24.360696 51.685946 -0.720883 1.080008 0.092298 -0.026234 -391414.000000 0 0 1
-33.218637 30.932414 24.895056 51.769256 -0.749775 1.069133 0.102912 -0.020866 986350.000000 0 0 1
-31.771177 30.345614 24.757966 50.430356 -0.762452 1.057635 0.110605 -0.032411 535846.000000 0 0 1
-31.183517 30.374314 23.402336 49.423476 -0.772254 1.077529 0.078742 -0.024795 448901.000000 0 0 1
-31.715337 29.421714 22.451686 48.739902 -0.747900 1.092077 0.100710 -0.026980 -265902.000000 0 0 1
-31.380227 27.924914 22.576686 47.688848 -0.727201 1.077631 0.086932 -0.021836 -203255.000000 0 0 1
-30.004837 27.603614 22.459986 46.547832 -0.743740 1.067274 0.048751 -0.020675 113365.000000 0 0 1
-29.709367 26.363214 23.061986 45.929519 -0.725793 1.044751 0.061185 -0.026911 -218311.000000 0 0 1
-29.265657 26.491614 24.496826 46.458355 -0.735687 1.015393 0.073590 -0.027185 -884094.000000 0 0 1
-30.315247 26.623314 25.409486 47.680782 -0.720648 1.008762 0.071361 -0.025834 -218135.000000 0 0 1
-29.904307 26.854614 26.732976 48.271004 -0.731719 0.983863 0.090769 -0.036990 -19770.800000 0 0 1
-31.160847 27.213114 27.581906 49.722364 -0.717873 0.982772 0.089173 -0.044082 742219.000000 0 0 1
-32.027377 26.091714 27.720476 49.748921 -0.683622 0.979777 0.073376 -0.035863 -21924.300000 0 0 1
-33.192697 26.317014 28.472966 51.039692 -0.670369 0.978992 0.067504 -0.028800 98226.800000 0 0 1
-33.834387 24.982614 28.919966 51.041759 -0.636022 0.968430 0.058353 -0.021353 -296917.000000 0 0 1
-33.165047 24.385314 30.012696 50.944340 -0.634008 0.940818 0.056449 -0.024351 268992.000000 0 0 1
-33.725407 23.095714 30.443156 50.966664 -0.600463 0.930647 0.040736 -0.031101 253081.000000 0 0 1
-32.816757 22.508514 31.574356 50.798747 -0.601190 0.900067 0.043005 -0.034620 260659.000000 0 0 1
-31.563597 22.157914 30.988526 49.472442 -0.612073 0.893896 0.056326 -0.026598 34069.600000 0 0 1
-30.865937 21.129014 31.651766 48.999751 -0.600276 0.868519 0.058800 -0.028161 -62115.900000 0 0 1
-30.132787 21.367914 32.989374 49.526471 -0.616824 0.841834 0.064446 -0.031530 -601046.000000 0 0 1
-30.991957 21.703714 34.048825 50.900639 -0.610928 0.838032 0.084950 -0.032870 -147515.000000 0 0 1
-30.486237 21.397614 -32.877485 49.680958 -0.611985 2.293977 0.064953 -0.018888 500862.000000 0 0 1
-29.280567 22.157614 -32.217825 48.849767 -0.647797 2.290988 0.089854 -0.022791 627461.000000 0 0 1
-29.717157 23.388614 -31.711885 49.353625 -0.666789 2.268610 0.069067 -0.017198 -11478.000000 0 0 1
-28.877887 23.727214 -30.637665 48.327834 -0.687797 2.257453 0.102956 -0.017242 -47093.800000 0 0 1
-29.193617 25.043614 -29.915365 48.727599 -0.709031 2.231827 0.072039 -0.005733 -95442.400000 0 0 1
-28.788437 26.193014 -30.657635 49.545319 -0.738228 2.237985 0.088206 -0.010259 780137.000000 0 0 1
-29.876187 26.800814 -31.398315 50.958065 -0.731190 2.234654 0.049169 -0.004036 530238.000000 0 0 1
-29.496357 28.186314 -32.006185 51.854597 -0.762691 2.236013 0.074727 -0.004591 18147.100000 0 0 1
-29.455667 29.308214 -31.075775 51.887489 -0.782889 2.212932 0.059459 -0.013744 -62502.600000 0 0 1
-29.197347 30.535314 -31.704755 52.821226 -0.807794 2.214582 0.071409 -0.031729 -200945.000000 0 0 1
-29.408227 31.775214 -30.835905 53.154126 -0.824066 2.189675 0.057553 -0.021766 169408.000000 0 0 1
-28.542007 31.790114 -29.729515 52.049030 -0.839183 2.178743 0.049161 -0.020702 39997.700000 0 0 1
-28.910097 32.918814 -28.969595 52.523133 -0.850143 2.155028 0.031065 -0.017135 -209260.000000 0 0 1
-28.183247 33.067614 -27.610205 51.478985 -0.864973 2.136890 0.013907 -0.011247 1063670.000000 0 0 1
-26.786577 33.420214 -27.589465 50.947129 -0.895136 2.143054 0.046289 -0.007511 940980.000000 0 0 1
-26.494027 -33.471379 -27.925315 51.010684 0.901234 2.150099 0.044933 0.009218 -728001.000000 0 0 1
-26.727327 -32.360479 -26.839645 49.818843 0.880446 2.139743 0.038636 0.017428 -1003080.000000 0 0 1
-28.073987 -32.115079 -26.687175 50.316323 0.852438 2.129855 0.038497 0.000788 -1209900.000000 0 0 1
-28.379327 -31.125979 -25.698595 49.341975 0.831524 2.118615 0.024478 0.010031 659708.000000 0 0 1
-29.891307 -30.859479 -25.435325 49.927481 0.801334 2.105336 0.001336 0.007519 850472.000000 0 0 1
-30.558607 -30.018179 -26.391415 50.313281 0.776477 2.122973 0.011044 -0.001970 578950.000000 0 0 1
-31.939597 -29.827279 -26.118285 50.911386 0.751213 2.109489 0.011842 -0.006490 91103.300000 0 0 1
-32.689497 -29.079379 -27.167655 51.500436 0.727019 2.126478 0.030397 -0.013566 176125.000000 0 0 1
-34.104607 -29.262979 -27.185615 52.521460 0.709141 2.114851 0.028797 -0.013629 467296.000000 0 0 1
-34.641042 -28.298079 -28.083205 52.815239 0.684958 2.131433 0.041195 -0.025091 3176.430000 0 0 1
-36.160367 -28.376279 -28.307685 53.982500 0.665363 2.122791 0.032843 -0.027088 242672.000000 0 0 1
36.225035 -27.953679 -27.208845 53.235163 -0.657225 2.107268 0.025678 -0.017152 -482272.000000 0 0 1
34.905855 -27.933779 -27.676885 52.580649 -0.674900 2.125122 0.027584 -0.016706 -836657.000000 0 0 1
33.903305 -27.360579 -26.710715 51.102815 -0.679006 2.120795 0.032334 -0.006050 -577079.000000 0 0 1
33.655795 -28.112079 -25.543515 50.749115 -0.695887 2.098244 0.031868 -0.004209 219397.000000 0 0 1
32.836855 -27.366079 -24.653015 49.345035 -0.694775 2.093939 0.026552 0.007116 80854.500000 0 0 1
32.601385 -28.048979 -23.292515 48.909475 -0.710479 2.067167 0.019398 0.011430 101302.000000 0 0 1
31.923485 -29.301179 -23.357315 49.226336 -0.742593 2.065179 0.036328 0.004838 -97147.400000 0 0 1
31.585365 -29.917179 -22.131715 48.810713 -0.758281 2.041394 0.043513 -0.004495 32812.400000 0 0 1
32.664315 -30.150579 -21.050815 49.184873 -0.745401 2.013068 0.032367 -0.002930 -423976.000000 0 0 1
33.794345 -30.955679 -21.352215 50.559162 -0.741586 2.006801 0.022502 -0.001380 643832.000000 0 0 1
34.803745 -31.016079 -20.328815 50.858220 -0.727916 1.982003 0.009995 0.003881 988759.000000 0 0 1
35.743875 -29.753679 -20.375115 50.774514 -0.694195 1.983717 0.009542 -0.002017 -372854.000000 0 0 1
35.096715 -28.531979 -19.949915 49.435335 -0.682589 1.986196 0.012607 0.010027 -88236.300000 0 0 1
35.618325 -27.367979 -20.510415 49.379636 -0.655153 1.999137 0.001964 0.013523 -578548.000000 0 0 1
34.835455 -26.166679 -20.076915 47.971726 -0.644237 2.002607 0.013113 0.016818 -91886.900000 0 0 1
33.685595 -25.983179 -20.886815 47.393079 -0.657022 2.027191 0.022301 0.013010 -175044.000000 0 0 1
32.698795 -25.284179 -20.162015 45.989213 -0.658213 2.024622 0.037042 0.005796 287837.000000 0 0 1
31.390285 -25.166679 -21.033315 45.399472 -0.675798 2.052505 0.042702 0.001926 468184.000000 0 0 1
30.704385 -26.442279 -21.087015 45.679487 -0.710954 2.050628 0.056192 0.003084 483463.000000 0 0 1
29.503535 -26.211079 -21.834015 45.102145 -0.726372 2.076132 0.063125 -0.007936 489096.000000 0 0 1
28.662465 -27.406279 -22.295515 45.494296 -0.762998 2.082970 0.068247 -0.008382 -43206.500000 0 0 1
27.981385 -28.071179 -21.256115 44.975231 -0.787000 2.063056 0.072746 -0.010918 -146531.000000 0 0 1
27.566285 -29.363979 -21.647815 45.724952 -0.816965 2.063983 0.065304 -0.008796 39156.100000 0 0 1
27.014585 -30.144979 -20.404315 45.330383 -0.840109 2.037701 0.075335 -0.005374 780218.000000 0 0 1
28.064285 -30.562979 -19.482415 45.839549 -0.827992 2.009773 0.090824 -0.010937 822777.000000 0 0 1
28.558525 -31.874179 -19.744415 47.131672 -0.840208 2.003052 0.092205 -0.002091 404697.000000 0 0 1
29.566085 -32.394479 -18.689315 47.674376 -0.831015 1.973623 0.081906 -0.008325 348558.000000 0 0 1
28.927985 -33.048579 -17.552115 47.298135 -0.851787 1.950985 0.093519 -0.014081 175117.000000 0 0 1
28.400695 -32.145079 -16.610115 45.997842 -0.847163 1.940250 0.085908 -0.018907 -34802.300000 0 0 1
27.677585 -32.874579 -15.469215 45.673660 -0.871015 1.916321 0.090265 -0.017825 -605860.000000 0 0 1
26.371085 -33.252679 -15.772715 45.276410 -0.900307 1.926623 0.105067 -0.014286 -1004900.000000 0 0 1
25.823185 -33.793479 -14.635615 44.978187 -0.918302 1.902224 0.092962 -0.011441 -805883.000000 0 0 1
24.372085 33.983314 -14.821215 44.368148 0.948634 1.911394 0.087731 -0.002131 -531308.000000 0 0 1
23.506185 -33.164279 -14.867715 43.283473 -0.954202 1.921434 0.090974 -0.001557 -625901.000000 0 0 1
22.458885 -33.340479 -13.940015 42.547774 -0.977994 1.904593 0.065883 0.004258 -112297.000000 0 0 1
-0.292627 -6.918786 -28.942635 29.759559 1.528527 2.906742 0.059141 -0.011539 112192.000000 0 0 1
-0.308927 -8.356186 -29.008025 30.189183 1.533843 2.860940 0.045364 -0.007139 -54882.500000 0 0 1
-0.240327 -8.930786 -30.309745 31.599009 1.543893 2.854953 0.042930 -0.013778 -381474.000000 0 0 1
-0.164127 -10.483086 -30.328325 32.089396 1.555141 2.808758 0.031853 -0.011850 -487094.000000 0 0 1
1.056473 -10.956186 -29.835535 31.801152 -1.474666 2.788161 0.016694 -0.007211 -421486.000000 0 0 1
1.140773 -12.339186 -29.637755 32.124031 -1.478607 2.745573 0.023840 -0.014342 142280.000000 0 0 1
2.523273 -12.749886 -29.066095 31.839667 -1.375415 2.721104 0.028759 -0.012603 -467453.000000 0 0 1
3.543173 -12.764786 -30.032455 32.824415 -1.300039 2.726162 0.044649 -0.015608 -82155.900000 0 0 1
4.857273 -12.998086 -29.578005 32.671115 -1.213173 2.702943 0.063378 -0.021223 415519.000000 0 0 1
5.193973 -14.376686 -28.951145 32.738895 -1.224110 2.655798 0.062842 -0.028548 -994162.000000 0 0 1
4.677873 -14.570786 -27.682655 31.630993 -1.260146 2.636594 0.055345 -0.030588 -133048.000000 0 0 1
5.442073 -15.499186 -26.925305 31.540656 -1.233124 2.593788 0.083150 -0.038932 -91474.900000 0 0 1
5.278273 -17.037286 -27.090395 32.434839 -1.270367 2.559339 0.059055 -0.040873 -270852.000000 0 0 1
5.662673 -17.429786 -28.402295 33.801681 -1.256669 2.568564 0.063800 -0.048793 340422.000000 0 0 1
5.189073 -18.746886 -28.725345 34.691752 -1.300761 2.546357 0.052015 -0.046591 -226860.000000 0 0 1
5.481673 -19.144986 -30.160705 36.142044 -1.291933 2.558030 0.062608 -0.043713 337611.000000 0 0 1
6.867373 -19.241286 -30.505155 36.714471 -1.227980 2.551476 0.062603 -0.042860 612337.000000 0 0 1
7.106873 -20.103786 -31.603685 38.124307 -1.230999 2.548049 0.058735 -0.040894 90899.300000 0 0 1
8.605373 -20.042786 -31.995285 38.722913 -1.165247 2.543236 0.059090 -0.033546 245442.000000 0 0 1
8.868573 -18.851386 -32.659075 38.738115 -1.131070 2.573769 0.062863 -0.029710 107486.000000 0 0 1
10.078573 -18.934386 -33.392515 39.688143 -1.081652 2.570614 0.043632 -0.026313 -225432.000000 0 0 1
10.364273 -17.548186 -34.087611 39.715516 -1.037304 2.602733 0.055659 -0.017487 -416664.000000 0 0 1
9.489073 -17.172186 33.078640 38.459367 -1.065971 0.535344 0.056501 -0.018767 -160495.000000 0 0 1
9.686073 -15.820386 32.761304 37.648475 -1.021416 0.515210 0.061172 -0.017450 -635557.000000 0 0 1
8.760673 -15.288286 31.715376 36.281485 -1.050443 0.507118 0.067055 -0.025616 -666419.000000 0 0 1
8.864573 -16.010986 30.467996 35.541962 -1.065151 0.540911 0.060964 -0.018327 151418.000000 0 0 1
7.957973 -15.506186 29.516816 34.278470 -1.096634 0.533389 0.057761 -0.016523 -212457.000000 0 0 1
7.909273 -16.382486 28.242966 33.594755 -1.121013 0.572230 0.051305 0.000110 -428641.000000 0 0 1
7.488573 -17.716386 28.403306 34.303015 -1.170882 0.595244 0.049278 -0.010854 288013.000000 0 0 1
7.436873 -18.303986 27.120316 33.553755 -1.184872 0.629597 0.052166 -0.008922 -83305.900000 0 0 1
7.068073 -19.786586 27.333656 34.476011 -1.227708 0.655356 0.049119 -0.020181 57810.100000 0 0 1
8.051073 -20.474186 28.101916 35.689350 -1.196139 0.664211 0.042841 -0.021587 784990.000000 0 0 1
7.404873 -21.545986 28.767946 36.696817 -1.239765 0.669816 0.026019 -0.025808 -69041.600000 0 0 1
7.998673 -21.798586 30.195096 38.090693 -1.219115 0.655545 0.028207 -0.023563 -169244.000000 0 0 1
7.440073 -21.106086 31.303636 38.480374 -1.231889 0.620658 0.043731 -0.020388 294371.000000 0 0 1
7.491473 -19.698386 31.226026 37.672447 -1.207379 0.593690 0.043515 -0.027912 -245584.000000 0 0 1
7.014373 -18.978586 32.499087 38.282878 -1.216773 0.556859 0.050724 -0.028844 -1337530.000000 0 0 1
5.692673 -19.102186 32.858823 38.431787 -1.281165 0.545263 0.054331 -0.034645 -1140000.000000 0 0 1
5.376573 -18.056786 33.793001 38.690075 -1.281397 0.508598 0.063515 -0.027930 -792096.000000 0 0 1
4.010473 -17.986386 -33.762625 38.464384 -1.351412 2.641970 0.051427 -0.033092 -870463.000000 0 0 1
3.735773 -19.153986 -33.078815 38.406239 -1.378176 2.608595 0.043818 -0.033016 -451939.000000 0 0 1
2.528473 -18.944786 -32.407175 37.623438 -1.438115 2.608729 0.036824 -0.046540 -497998.000000 0 0 1
1.929073 -20.087786 -31.550195 37.452040 -1.475058 2.572548 0.060764 -0.035910 -814750.000000 0 0 1
1.028973 -21.012686 -32.094575 38.375168 -1.521866 2.561364 0.058428 -0.032353 326571.000000 0 0 1
0.288773 -21.832386 -31.174055 38.059929 -1.557570 2.530599 0.065253 -0.030915 517497.000000 0 0 1
-0.645127 -21.081686 -30.176315 36.816622 1.540205 2.531576 0.068933 -0.035798 -932143.000000 0 0 1
-1.752727 -20.510686 -30.837615 37.077200 1.485549 2.552983 0.078298 -0.046167 -208025.000000 0 0 1
-2.413527 -19.554186 -30.033765 35.919609 1.447990 2.561001 0.084583 -0.023163 21915.600000 0 0 1
-1.692627 -18.196786 -29.863985 35.012078 1.478045 2.592431 0.053583 -0.017939 -250750.000000 0 0 1
-2.429127 -17.344186 -29.017775 33.893255 1.431647 2.598572 0.068027 -0.026157 -93333.400000 0 0 1
-2.106727 -16.013986 -29.423545 33.565325 1.439992 2.639558 0.063908 -0.027568 -424709.000000 0 0 1
-3.194627 -14.978386 -29.131865 32.912357 1.360662 2.657579 0.058848 -0.016266 -351745.000000 0 0 1
-3.199227 -14.567086 -27.773365 31.524512 1.354608 2.648786 0.057518 -0.020788 -186827.000000 0 0 1
-4.258627 -13.676786 -27.548055 31.049730 1.268936 2.662088 0.063219 -0.023736 -157165.000000 0 0 1
-4.434427 -13.240386 -26.080935 29.583562 1.247621 2.650043 0.068531 -0.025789 -559457.000000 0 0 1
-4.950927 -14.247086 -25.274495 29.432826 1.236346 2.603559 0.070797 -0.019212 98441.800000 0 0 1
-5.033727 -13.912886 -23.908015 28.115832 1.223645 2.587427 0.069450 -0.019907 176722.000000 0 0 1
-6.192727 -12.934586 -23.503615 27.533131 1.124274 2.593747 0.059108 -0.017545 1310250.000000 0 0 1
-7.519227 -13.509386 -23.717815 28.312136 1.062906 2.563902 0.049281 -0.015780 1400650.000000 0 0 1
-8.455627 -12.561686 -23.190315 27.696287 0.978334 2.563137 0.052363 -0.021395 819615.000000 0 0 1
-9.974627 -12.934086 -23.202215 28.374752 0.913872 2.528211 0.057456 -0.027104 780648.000000 0 0 1
-10.349927 -13.861186 -22.187315 28.134150 0.929421 2.479367 0.059844 -0.029387 -122811.000000 0 0 1
-11.598727 -14.508186 -22.330215 29.045764 0.896384 2.447750 0.041046 -0.020486 47810.400000 0 0 1
-12.008427 -15.378486 -21.190715 28.805322 0.907836 2.397426 0.046372 -0.019417 -295152.000000 0 0 1
-11.158327 -16.474386 -21.131715 29.025214 0.975459 2.386265 0.064748 -0.025086 -307023.000000 0 0 1
-11.818027 -17.732386 -21.325015 30.147297 0.982933 2.356554 0.044865 -0.020408 207888.000000 0 0 1
-12.346627 -18.077986 -22.745315 31.569006 0.971595 2.375312 0.030097 -0.009145 -519273.000000 0 0 1
-13.545427 -17.459786 -23.063015 31.940967 0.910982 2.377559 0.028143 -0.015151 -1108210.000000 0 0 1
-13.888427 -18.028086 -24.317815 33.305501 0.914381 2.389329 0.013029 -0.010697 -245535.000000 0 0 1
-15.189127 -17.397586 -24.832615 33.912304 0.853066 2.392431 0.013784 -0.010049 -129492.000000 0 0 1
-16.362127 -17.771586 -24.112315 34.131396 0.826667 2.355274 0.018897 -0.010102 61519.500000 0 0 1
-17.534027 -17.570086 -24.842415 35.118309 0.786425 2.356598 0.020418 -0.009112 -446677.000000 0 0 1
-18.280427 -16.263686 -24.610915 34.704159 0.727083 2.359107 0.033287 -0.008031 -327262.000000 0 0 1
-19.046127 -16.261286 -23.399615 34.274281 0.706687 2.322270 0.038399 -0.010587 519544.000000 0 0 1
-19.680427 -15.034486 -23.063815 33.842201 0.652357 2.320621 0.054893 -0.019519 455614.000000 0 0 1
-20.474127 -15.036586 -21.701515 33.410246 0.633454 2.277784 0.057198 -0.031332 507442.000000 0 0 1
-19.613327 -14.827586 -20.565415 32.054270 0.647327 2.267354 0.056235 -0.026394 477625.000000 0 0 1
-20.247427 -14.747886 -19.307615 31.626610 0.629522 2.227471 0.054906 -0.034359 -320956.000000 0 0 1
-20.757427 -13.347786 -18.831915 31.043118 0.571464 2.222620 0.064328 -0.033302 -39549.800000 0 0 1
-22.078927 -13.107086 -19.258915 32.096425 0.535735 2.214339 0.067526 -0.038054 137579.000000 0 0 1
-22.701927 -12.095086 -18.500515 31.684975 0.489525 2.194307 0.068524 -0.035093 -765394.000000 0 0 1
-24.140427 -11.765386 -18.814115 32.789563 0.453495 2.181915 0.085960 -0.035102 -766799.000000 0 0 1
-24.384527 -11.086686 -20.042415 33.454718 0.426723 2.213161 0.075553 -0.043276 973885.000000 0 0 1
-25.754307 -11.149586 -20.487115 34.746503 0.408561 2.201380 0.068205 -0.041854 564699.000000 0 0 1
-26.213987 -9.997886 -21.383015 35.275546 0.364366 2.222034 0.070965 -0.028010 -256652.000000 0 0 1
-26.187287 -10.329486 -22.737615 36.186619 0.375710 2.250218 0.048559 -0.031421 354072.000000 0 0 1
-26.773487 -9.296686 -23.499015 36.816459 0.334209 2.263051 0.043288 -0.029469 -493369.000000 0 0 1
-26.948707 -9.565286 -25.048225 38.015011 0.341073 2.290157 0.031329 -0.017498 57437.000000 0 0 1
-25.749127 -9.659486 -25.813045 37.717854 0.358892 2.324538 0.024314 -0.027385 148629.000000 0 0 1
-25.166527 -10.959586 -25.740595 37.630371 0.410716 2.324080 0.024209 -0.011677 73399.400000 0 0 1
-24.028227 -11.085586 -26.805055 37.666389 0.432258 2.362632 0.030039 -0.010028 322425.000000 0 0 1
-24.482027 -11.095286 -28.125695 38.904109 0.425513 2.378858 0.030015 -0.001636 -447708.000000 0 0 1
-23.392427 -11.019586 -28.966085 38.828739 0.440241 2.412826 0.038587 -0.001762 -357540.000000 0 0 1
-23.857427 -11.457386 -30.377695 40.289612 0.447718 2.424901 0.040487 -0.004327 800719.000000 0 0 1
-24.898027 -10.717786 -31.024645 41.198438 0.406492 2.423488 0.028659 -0.006682 633285.000000 0 0 1
-24.344627 -9.576486 -31.676205 41.082258 0.374779 2.451274 0.029856 -0.012275 -643363.000000 0 0 1
-25.391207 -8.616986 -32.213085 41.912393 0.327173 2.447417 0.032782 -0.008872 -1132630.000000 0 0 1
-26.146277 -9.104786 -33.308665 43.312724 0.335093 2.448114 0.045779 -0.004434 1388040.000000 0 0 1
-27.440807 -9.609386 -32.914985 43.917359 0.336840 2.418066 0.041779 -0.006206 893598.000000 0 0 1
-28.560087 -8.604986 -32.534215 44.138413 0.292644 2.399558 0.013034 0.002163 -1030200.000000 0 0 1
-29.865327 -9.046386 -32.351675 44.948924 0.294121 2.374228 0.021766 0.001819 -204112.000000 0 0 1
-30.536307 -8.336486 -31.297325 44.513881 0.266508 2.350532 0.032839 -0.000217 -83168.400000 0 0 1
-32.008767 -8.764986 -31.249525 45.584196 0.267279 2.326134 0.042159 -0.010243 -354127.000000 0 0 1
-32.092147 -10.151686 -30.930595 45.712846 0.306370 2.313970 0.036277 -0.007309 821313.000000 0 0 1
-33.432707 -10.637986 -31.078625 46.869964 0.308061 2.295725 0.035548 -0.000779 445769.000000 0 0 1
-33.445057 -12.184186 -31.180815 47.320920 0.349361 2.290182 0.026134 0.000974 -114054.000000 0 0 1
-34.703224 -12.823686 -31.083415 48.321210 0.353961 2.269553 0.017833 0.004216 77358.000000 0 0 1
-34.514251 -14.226686 -31.072155 48.570680 0.390977 2.264944 0.018265 0.001555 798282.000000 0 0 1
-35.822373 -15.038886 -30.734025 49.537771 0.397473 2.240069 0.011430 -0.006189 816549.000000 0 0 1
-36.075317 -15.034886 -29.347065 48.874600 0.394874 2.214868 0.029596 -0.009422 -46321.800000 0 0 1
36.458355 -16.194386 -28.851745 49.233048 -0.418011 2.196939 0.022219 -0.015965 123538.000000 0 0 1
36.524555 -16.191186 -27.299905 48.388867 -0.417265 2.170233 0.044723 -0.012295 -1006430.000000 0 0 1
-35.395502 -16.141186 -26.837575 47.261347 0.427852 2.174693 0.037250 -0.023209 -1003510.000000 0 0 1
-35.393947 -16.046686 -25.433835 46.444672 0.425656 2.150308 0.060370 -0.024595 87369.900000 0 0 1
-34.033827 -15.516986 -24.952815 44.963554 0.427773 2.159107 0.077692 -0.029804 423944.000000 0 0 1
-32.879497 -16.286386 -25.229765 44.529190 0.459909 2.173157 0.069093 -0.031063 954592.000000 0 0 1
-31.644797 -15.790686 -24.670815 43.120622 0.462846 2.179903 0.075529 -0.023032 1324050.000000 0 0 1
-30.443627 -16.741586 -24.965215 42.782673 0.502782 2.193872 0.057964 -0.022189 133697.000000 0 0 1
-30.385957 -17.898786 -24.158615 42.747065 0.532328 2.171415 0.064148 -0.025342 12173.500000 0 0 1
-31.154597 -18.988286 -24.631215 44.021139 0.547365 2.164617 0.048187 -0.027593 -135545.000000 0 0 1
-31.055657 -20.215686 -23.772115 44.025461 0.577043 2.141189 0.046498 -0.024369 1238720.000000 0 0 1
-29.721067 -20.795586 -23.709615 43.335252 0.610519 2.149717 0.052030 -0.017982 1230690.000000 0 0 1
-29.797157 -22.018386 -23.012415 43.614804 0.636387 2.126603 0.053010 -0.008722 -202122.000000 0 0 1
-28.547167 -22.971886 -23.121615 43.327328 0.677600 2.133707 0.051206 -0.009827 798358.000000 0 0 1
-27.284517 -22.467586 -22.740615 42.028239 0.688880 2.142516 0.059906 -0.020425 68900.400000 0 0 1
-27.190507 -22.179086 -21.365915 41.082087 0.684236 2.117739 0.066372 -0.024807 -797959.000000 0 0 1
-27.206117 -23.366286 -20.336715 41.227880 0.709616 2.086648 0.058487 -0.017184 -376194.000000 0 0 1
-27.095257 -22.961986 -18.988315 40.273588 0.703014 2.061768 0.053784 -0.017777 92201.800000 0 0 1
-27.044067 -24.058386 -18.058415 40.451129 0.727039 2.033563 0.041859 0.003474 -26725.300000 0 0 1
-26.946267 -23.511586 -16.617815 39.434094 0.717433 2.005793 0.032922 0.010414 525944.000000 0 0 1
-28.175247 -22.958786 -16.149115 39.771149 0.683734 1.988925 0.033936 0.001959 150678.000000 0 0 1
-27.966067 -21.676786 -15.556615 38.652196 0.659379 1.985017 0.041767 -0.007662 -384600.000000 0 0 1
-29.211897 -21.049986 -14.936815 38.981345 0.624416 1.964031 0.052668 -0.002819 -480708.000000 0 0 1
-30.108967 -20.604786 -15.919815 39.806376 0.600139 1.982238 0.049597 -0.002342 -481296.000000 0 0 1
-31.188947 -19.966686 -15.282615 40.062168 0.569444 1.962185 0.050190 -0.000266 -147278.000000 0 0 1
-32.153197 -19.317186 -16.325115 40.908326 0.540997 1.981294 0.058719 -0.016325 -135306.000000 0 0 1
-32.907617 -20.264286 -17.031215 42.232864 0.551951 1.985883 0.041838 -0.013211 -410586.000000 0 0 1
-33.768257 -19.613086 -17.909515 42.961832 0.526193 2.000796 0.037064 -0.013589 -284250.000000 0 0 1
-34.454981 -20.537986 -18.939515 44.358312 0.537533 2.011932 0.023412 -0.005645 514208.000000 0 0 1
-35.570550 -21.293486 -18.461315 45.381678 0.539409 1.989746 0.020471 0.002366 295036.000000 0 0 1
-35.267034 -22.355286 -17.603615 45.314564 0.564964 1.969773 0.025960 0.002190 -961101.000000 0 0 1
-36.260827 -23.470286 -17.736915 46.693683 0.574449 1.960438 0.026763 0.007807 -365098.000000 0 0 1
35.695485 -23.227086 -17.121715 45.900091 -0.576868 1.953060 0.035931 0.000184 154399.000000 0 0 1
35.095545 -24.463286 -16.752015 45.943222 -0.608742 1.944026 0.033768 0.001497 -62291.700000 0 0 1
33.719155 -24.384786 -16.055615 44.602489 -0.626110 1.939033 0.036206 -0.003603 29609.700000 0 0 1
32.658835 -24.180286 -16.970815 44.037420 -0.637323 1.966408 0.041649 0.001820 -1015960.000000 0 0 1
31.470255 -24.582286 -16.409015 43.173157 -0.663127 1.960673 0.061014 -0.004237 -644211.000000 0 0 1
30.234435 -24.445386 -17.334715 42.569829 -0.679919 1.990190 0.069059 -0.022350 52518.400000 0 0 1
29.810355 -23.080486 -17.379915 41.514185 -0.658838 2.002755 0.045437 -0.008980 700500.000000 0 0 1
28.557725 -23.036986 -18.075915 40.902141 -0.678802 2.028546 0.061676 -0.013244 343880.000000 0 0 1
34.846435 29.028214 -17.910515 48.761643 0.694561 1.946909 0.033129 -0.014221 -380263.000000 0 0 1
34.157745 29.450214 -19.074515 48.968396 0.711524 1.970914 0.027467 -0.016560 252872.000000 0 0 1
34.784925 28.947014 -20.251515 49.578670 0.694052 1.991576 0.021299 -0.010078 98291.400000 0 0 1
33.842395 29.133714 -21.440615 49.535654 0.710768 2.018428 0.029502 -0.006404 -170097.000000 0 0 1
32.761825 28.204514 -21.530715 48.294963 0.710786 2.032883 0.025024 -0.004645 708683.000000 0 0 1
31.995265 28.375414 -22.735415 48.433049 0.725509 2.059429 0.042447 -0.000554 907247.000000 0 0 1
30.854025 29.454114 -22.776115 48.355632 0.762190 2.061235 0.053165 -0.001146 -162813.000000 0 0 1
31.377065 30.743114 -22.724415 49.457642 0.775193 2.048197 0.052114 -0.003971 121785.000000 0 0 1
30.312605 31.677114 -22.625515 49.337689 0.807406 2.047198 0.059335 0.006257 -297143.000000 0 0 1
30.741515 33.130814 -22.277315 50.388197 0.822788 2.028750 0.054735 0.004922 75121.300000 0 0 1
31.241925 33.273814 -20.946015 50.218922 0.816882 2.001042 0.056529 -0.002253 -733635.000000 0 0 1
32.594205 32.968014 -20.878615 50.844751 0.791100 1.993946 0.054662 -0.006153 -1258960.000000 0 0 1
33.055995 32.962214 -19.411715 50.557107 0.783978 1.964873 0.045414 -0.014996 -397994.000000 0 0 1
33.008665 -33.945379 -18.852515 50.963497 -0.799388 1.949721 0.056689 -0.014183 147161.000000 0 0 1
32.816535 -33.990479 -17.450215 50.366533 -0.802969 1.924596 0.048014 -0.028836 -908657.000000 0 0 1
32.903785 -32.569779 -16.823815 49.259419 -0.780297 1.919346 0.051832 -0.019235 1052070.000000 0 0 1
34.157815 -31.817179 -16.916815 49.651464 -0.749935 1.918470 0.042764 -0.016294 1041580.000000 0 0 1
35.197185 -32.459079 -16.182715 50.540221 -0.744949 1.896731 0.043342 -0.022892 -871587.000000 0 0 1
36.482935 -31.665879 -16.295615 50.983130 -0.714831 1.896133 0.025344 -0.004665 -581522.000000 0 0 1
-36.138737 -31.665679 -17.618915 51.177629 0.719524 1.922257 0.017505 -0.003770 -327859.000000 0 0 1
-34.948598 -30.890879 -17.615915 49.859516 0.723846 1.931904 0.013606 0.001330 86270.800000 0 0 1
-33.934617 -31.580879 -18.551415 49.930603 0.749487 1.951468 0.023091 -0.004370 -1109900.000000 0 0 1
-33.301497 -32.659279 -17.878915 49.952715 0.775662 1.936832 0.025745 -0.014033 182290.000000 0 0 1
-32.467237 -33.443679 -18.732415 50.234495 0.800212 1.952928 0.045268 -0.006737 811515.000000 0 0 1
-31.122097 -32.831979 -19.248715 49.163368 0.812128 1.973085 0.033798 -0.004306 -524755.000000 0 0 1
-31.398517 -31.903779 -20.272915 49.139689 0.793380 1.996055 0.028501 -0.002975 272324.000000 0 0 1
-30.198447 -31.300979 -20.763215 48.195524 0.803324 2.016189 0.039033 0.000154 399586.000000 0 0 1
-29.316627 -32.285079 -21.602615 48.666866 0.833549 2.030729 0.034119 0.015166 -550557.000000 0 0 1
-29.881417 -32.836779 -22.749015 49.886579 0.832485 2.044308 0.033311 0.015459 -579187.000000 0 0 1
-29.061847 -33.865479 -23.252915 50.320569 0.861587 2.051153 0.024960 0.009878 -108385.000000 0 0 1
-29.660917 33.441414 -24.348615 50.901407 -0.845237 2.069570 0.016897 -0.003231 -605756.000000 0 0 1
-30.672557 32.593514 -23.882515 50.729847 -0.815752 2.060969 0.009240 -0.013892 -228756.000000 0 0 1
-31.378747 31.836014 -24.872115 51.154469 -0.792632 2.078550 0.007663 -0.006722 713483.000000 0 0 1
-32.335947 32.601814 -25.844175 52.691680 -0.789492 2.083436 0.024406 -0.021033 -865620.000000 0 0 1
-31.713217 33.492114 -26.769155 53.329518 -0.812673 2.096657 0.021463 -0.027078 -537357.000000 0 0 1
-32.514527 -33.706979 -27.328345 54.223549 0.803403 2.099013 0.025101 -0.028428 -212985.000000 0 0 1
-31.907097 -33.018979 -28.554885 54.071224 0.802522 2.127155 0.023135 -0.022576 -209629.000000 0 0 1
-31.825077 -33.793279 -29.768875 55.145327 0.815384 2.141027 0.029972 -0.024088 378404.000000 0 0 1
-32.957247 -33.777279 -30.658665 56.276446 0.797686 2.146931 0.035447 -0.019376 310049.000000 0 0 1
-32.706017 33.679314 -31.979725 56.803896 -0.800058 2.168789 0.043878 -0.017271 123584.000000 0 0 1
-31.712927 -34.098879 -32.877325 57.003173 0.821636 2.185557 0.043808 -0.029666 -278029.000000 0 0 1
-31.764307 33.297514 -34.009505 57.221867 -0.808959 2.207247 0.042213 -0.034019 -118620.000000 0 0 1
-30.883237 33.599714 32.940291 56.283016 -0.827500 0.945594 0.061007 -0.034924 1566310.000000 0 0 1
-29.515267 33.099114 32.962760 55.256184 -0.842573 0.931608 0.064630 -0.030814 1087030.000000 0 0 1
-29.361347 31.709614 32.622328 54.146141 -0.823831 0.924183 0.070537 -0.032169 419157.000000 0 0 1
-27.917027 31.116414 32.726796 53.090816 -0.839541 0.906595 0.069512 -0.030080 384768.000000 0 0 1
-27.455027 30.971114 34.073566 53.609666 -0.845506 0.882029 0.077890 -0.035317 1648620.000000 0 0 1
-26.036567 30.588414 34.040040 52.652428 -0.865612 0.867802 0.082125 -0.033221 1364140.000000 0 0 1
-25.851127 29.005014 33.937763 51.588209 -0.842829 0.852824 0.100885 -0.036076 -424883.000000 0 0 1
-25.901967 28.366214 -32.997815 50.640002 -0.830776 2.280509 0.098545 -0.030439 153398.000000 0 0 1
-25.651007 26.960914 -33.032015 49.759211 -0.810291 2.296734 0.089247 -0.023557 -203025.000000 0 0 1
-25.384307 26.364814 -31.658725 48.391542 -0.804343 2.283947 0.106423 -0.020918 617504.000000 0 0 1
-24.109727 26.713114 -31.102755 47.563124 -0.836578 2.283558 0.088016 -0.020792 418275.000000 0 0 1
-24.136227 27.831014 -30.227625 47.653249 -0.856377 2.257931 0.059903 -0.024774 -586201.000000 0 0 1
-22.803927 27.902514 -29.512075 46.578235 -0.885612 2.256997 0.096919 -0.023413 -937758.000000 0 0 1
-21.712327 28.212114 -30.337745 46.773147 -0.914862 2.276559 0.102598 -0.018884 410415.000000 0 0 1
-20.435627 28.193514 -29.664545 45.743571 -0.943597 2.276404 0.057793 -0.010983 1026020.000000 0 0 1
-20.149727 29.486714 -28.823495 45.894135 -0.971333 2.249832 0.037611 -0.015438 -729640.000000 0 0 1
-19.724227 30.584214 -29.607675 46.915389 -0.998004 2.253750 0.037706 -0.009844 26742.100000 0 0 1
-19.572427 31.648614 -28.780085 47.042619 -1.016936 2.229115 0.048153 -0.015714 -10532.500000 0 0 1
-19.145427 32.920814 -29.534385 48.193436 -1.044046 2.230433 0.037902 -0.008659 674498.000000 0 0 1
-17.831727 32.858914 -30.104635 47.999664 -1.073594 2.248729 0.029885 -0.003807 386957.000000 0 0 1
-17.512527 34.039514 -30.840505 49.158050 -1.095635 2.248973 0.039625 -0.002804 103956.000000 0 0 1
-16.038727 -34.063679 -31.292405 48.957018 1.130743 2.264229 0.017202 0.012170 -622085.000000 0 0 1
-15.164427 -33.657179 -30.248035 47.725351 1.147481 2.257245 0.033727 -0.005352 329453.000000 0 0 1
-13.787327 -33.761379 -30.605475 47.608993 1.183090 2.269010 0.055640 0.002160 816204.000000 0 0 1
-13.277527 32.986514 -30.656655 46.949263 -1.188125 2.282301 0.055608 -0.002437 -1116730.000000 0 0 1
-13.228527 32.438114 -29.341095 45.696007 -1.183577 2.268022 0.068327 -0.013392 -72973.600000 0 0 1
-12.700427 31.130014 -29.211965 44.538944 -1.183430 2.286137 0.060791 -0.007406 -137528.000000 0 0 1
-12.629927 30.689014 -27.767935 43.271109 -1.180377 2.267535 0.050396 -0.016255 -115650.000000 0 0 1
-11.430727 31.122414 -27.185245 42.875444 -1.218809 2.257578 0.065680 -0.019600 -245439.000000 0 0 1
-11.452227 30.782714 -25.812915 41.773623 -1.214628 2.236896 0.054075 -0.019067 -35933.100000 0 0 1
-10.094227 30.983714 -25.140835 41.157570 -1.255849 2.227922 0.063292 -0.023898 -641964.000000 0 0 1
-9.062927 30.152314 -25.547805 40.546135 -1.278815 2.252468 0.066988 -0.013854 -498232.000000 0 0 1
-7.846727 30.758214 -25.108395 40.473082 -1.321014 2.240014 0.073658 -0.021338 220101.000000 0 0 1
-6.595927 30.176414 -25.780825 40.233980 -1.355602 2.266300 0.054163 -0.026581 -322150.000000 0 0 1
-6.267327 28.933214 -25.235155 38.900171 -1.357478 2.276692 0.063963 -0.035573 -396395.000000 0 0 1
-5.264727 28.211814 -25.896845 38.655794 -1.386304 2.304917 0.058638 -0.041402 -179369.000000 0 0 1
-4.765327 27.035714 -25.037515 37.155287 -1.396328 2.310219 0.073396 -0.026370 274790.000000 0 0 1
-5.645827 25.894614 -25.032825 36.456121 -1.356125 2.327676 0.081412 -0.023009 507325.000000 0 0 1
-5.085027 24.790514 -24.275315 35.067335 -1.368483 2.335397 0.086669 -0.033847 -300205.000000 0 0 1
-5.952827 23.529714 -24.152315 34.240589 -1.323004 2.353743 0.090659 -0.031972 -83121.900000 0 0 1
-6.344327 23.063614 -25.459745 34.933929 -1.302356 2.387360 0.081497 -0.026132 508351.000000 0 0 1
-7.164027 21.880014 -25.370335 34.259483 -1.254374 2.404662 0.082925 -0.032773 113857.000000 0 0 1
-6.971927 20.908314 -26.586525 34.534167 -1.248939 2.449420 0.066611 -0.024984 -554528.000000 0 0 1
-5.826927 20.156014 -26.813935 34.047101 -1.289377 2.477626 0.085720 -0.034691 -930739.000000 0 0 1
-5.709927 19.026814 -26.007575 32.726394 -1.279249 2.489305 0.072572 -0.032523 -379709.000000 0 0 1
-4.514427 18.050514 -26.100315 32.053511 -1.325724 2.522272 0.075959 -0.041456 81347.300000 0 0 1
-4.477227 17.408414 -27.381295 32.754141 -1.319064 2.560684 0.071010 -0.039264 32220.500000 0 0 1
-3.407727 16.479314 -27.402435 32.157019 -1.366882 2.590867 0.074595 -0.041416 -124996.000000 0 0 1
-2.882927 16.060314 -28.760375 33.066662 -1.393182 2.625531 0.079534 -0.034715 -208803.000000 0 0 1
-2.281527 17.163614 -29.353155 34.079359 -1.438643 2.608654 0.083000 -0.040224 -70870.100000 0 0 1
-1.814627 17.000814 -30.659775 35.104734 -1.464461 2.632896 0.078688 -0.047384 -168434.000000 0 0 1
-1.041127 18.161814 -31.346575 36.242837 -1.513534 2.615755 0.078935 -0.021999 458693.000000 0 0 1
0.311173 18.234414 -30.889385 35.871225 1.553733 2.608262 0.078650 -0.032096 874478.000000 0 0 1
1.149173 19.131414 -31.686415 37.031885 1.510801 2.597606 0.068514 -0.020361 653482.000000 0 0 1
0.976873 20.678014 -31.397625 37.607784 1.523589 2.558694 0.074294 -0.031667 -227012.000000 0 0 1
1.467073 20.994314 -30.110425 36.736239 1.501030 2.531576 0.088997 -0.039043 25861.700000 0 0 1
0.708173 21.983114 -29.456935 36.762343 1.538593 2.500228 0.091834 -0.039363 -8834.570000 0 0 1
1.503373 22.505614 -28.237975 36.140642 1.504096 2.467599 0.094619 -0.043308 111150.000000 0 0 1
2.674173 23.203014 -28.587005 36.915416 1.456051 2.456550 0.079987 -0.042469 -483085.000000 0 0 1
3.786573 22.544614 -27.989725 36.138933 1.404390 2.456726 0.097382 -0.041673 -86656.200000 0 0 1
4.827573 23.599514 -27.584355 36.621567 1.369018 2.423751 0.100744 -0.046143 -302408.000000 0 0 1
5.468273 24.266814 -28.652965 37.944337 1.349159 2.426651 0.085134 -0.045961 10027.300000 0 0 1
5.782373 25.637414 -28.292125 38.615504 1.348964 2.393022 0.092788 -0.047049 -378927.000000 0 0 1
6.652973 26.365614 -29.305275 39.977579 1.323621 2.393581 0.104816 -0.038151 241573.000000 0 0 1
8.032273 26.012814 -29.252665 39.961260 1.271303 2.392087 0.092675 -0.039766 364080.000000 0 0 1
8.839873 26.909514 -30.003435 41.261016 1.253399 2.384975 0.090494 -0.035616 177097.000000 0 0 1
10.333373 26.802014 -29.642115 41.276889 1.202813 2.371906 0.079724 -0.029563 -216948.000000 0 0 1
11.175973 27.696614 -30.289075 42.537429 1.187264 2.363220 0.082519 -0.021169 -533756.000000 0 0 1
12.415673 27.844514 -29.642205 42.522067 1.151363 2.342143 0.076699 -0.027392 372379.000000 0 0 1
13.386673 28.754914 -30.498645 44.002448 1.135092 2.336594 0.079453 -0.036504 -16873.500000 0 0 1
12.962773 30.115314 -30.544135 44.809707 1.164329 2.320799 0.097364 -0.033708 103022.000000 0 0 1
13.690273 30.856314 -31.503535 46.173677 1.153212 2.321678 0.133136 -0.044840 -103705.000000 0 0 1
13.434773 32.342714 -31.523945 47.120095 1.177095 2.303676 0.136444 -0.051096 -209932.000000 0 0 1
12.215673 32.742814 -32.081815 47.440040 1.213710 2.313470 0.116522 -0.048285 -325106.000000 0 0 1
12.028373 -34.111679 -31.874675 48.210821 -1.231792 2.293149 0.103148 -0.043637 -266491.000000 0 0 1
10.715673 -33.509079 -32.388785 47.819634 -1.261289 2.314898 0.066727 -0.032075 -237630.000000 0 0 1
10.616973 -33.361679 -33.793365 48.659154 -1.262692 2.338509 0.072137 -0.014722 301507.000000 0 0 1
9.244373 -33.365779 34.028475 48.545553 -1.300515 0.794054 0.089282 -0.024824 412592.000000 0 0 1
8.924973 -32.701879 32.673676 47.081175 -1.304366 0.803786 0.092510 -0.019147 -41371.700000 0 0 1
8.994273 -31.308379 32.712942 46.165442 -1.291050 0.783281 0.079287 -0.025003 -30730.800000 0 0 1
9.433073 -30.857579 31.448826 45.057759 -1.274121 0.798242 0.094322 -0.025507 -138285.000000 0 0 1
8.808673 -29.457779 31.074166 43.714496 -1.280232 0.780100 0.086222 -0.039460 1159100.000000 0 0 1
7.404173 -29.279879 30.848046 43.170997 -1.323113 0.774809 0.069515 -0.023866 783138.000000 0 0 1
6.572273 -29.351079 32.001296 43.917690 -1.350511 0.754425 0.060730 -0.012282 -180609.000000 0 0 1
5.095673 -29.032579 31.693486 43.282023 -1.397050 0.749169 0.052981 -0.019053 -71391.900000 0 0 1
4.291673 -30.009379 31.072026 43.410276 -1.428748 0.773062 0.071430 -0.027381 -11024.000000 0 0 1
4.510673 -30.189079 29.669736 42.567826 -1.422479 0.799592 0.085753 -0.036425 -460817.000000 0 0 1
3.905573 -29.074279 28.791906 41.104027 -1.437265 0.794748 0.046596 -0.034920 1382660.000000 0 0 1
2.457273 -29.237379 28.723006 41.059390 -1.486948 0.796032 0.071085 -0.037503 1402820.000000 0 0 1
1.919073 -28.437179 27.650896 39.710553 -1.503414 0.800551 0.082308 -0.046191 -78870.500000 0 0 1
0.505373 -28.949379 27.324116 39.811169 -1.553341 0.814348 0.070641 -0.046326 -216651.000000 0 0 1
0.532173 -30.296979 26.768976 40.432266 -1.553233 0.847219 0.081807 -0.050252 -14949.000000 0 0 1
0.392273 -31.300179 27.725686 41.815890 -1.558264 0.845921 0.105413 -0.057109 -514464.000000 0 0 1
0.851273 -32.661879 27.159846 42.487412 -1.544739 0.877281 0.105419 -0.052032 -111734.000000 0 0 1
2.236573 -32.880179 27.053476 42.637999 -1.502879 0.883445 0.102948 -0.045811 -187985.000000 0 0 1
2.825673 -32.347979 25.865876 41.514090 -1.483665 0.898144 0.098931 -0.050715 -960046.000000 0 0 1
4.303473 -32.680579 25.980986 41.970843 -1.439867 0.903296 0.111405 -0.040153 -387804.000000 0 0 1
5.101673 -32.124979 24.928846 40.981565 -1.413304 0.916887 0.100443 -0.047388 -530557.000000 0 0 1
6.470573 -32.129279 25.157716 41.316698 -1.372063 0.916124 0.079785 -0.043865 -422388.000000 0 0 1
7.229573 -31.960779 23.775116 40.484740 -1.348339 0.943125 0.076753 -0.041673 -482337.000000 0 0 1
8.573073 -31.634379 23.873146 40.548225 -1.306148 0.941273 0.076521 -0.030067 -529814.000000 0 0 1
9.243973 -31.674179 22.614686 40.001608 -1.286837 0.969946 0.058044 -0.030513 661767.000000 0 0 1
10.393873 -30.615479 22.466586 39.371152 -1.243508 0.963517 0.052463 -0.018483 523855.000000 0 0 1
11.449473 -30.773179 23.410056 40.325050 -1.214606 0.951412 0.064970 -0.025253 185405.000000 0 0 1
12.195373 -29.561679 23.533206 39.704304 -1.179527 0.936375 0.050400 -0.018470 641005.000000 0 0 1
13.607773 -29.635979 24.191016 40.603792 -1.140348 0.932557 0.095954 -0.027938 352147.000000 0 0 1
13.612973 -29.885679 25.577006 41.625113 -1.143377 0.909094 0.084954 -0.025085 1359.000000 0 0 1
14.756073 -29.302279 26.170046 41.967088 -1.104288 0.897476 0.087864 -0.031529 -112383.000000 0 0 1
-11.048427 -14.062086 25.710846 31.318646 0.904843 0.607735 0.073951 -0.031006 -879691.000000 0 0 1
-9.690227 -14.163586 25.473886 30.715249 0.970777 0.592842 0.062831 -0.028885 -1167660.000000 0 0 1
-9.058627 -14.686586 26.598816 31.705702 1.018118 0.575485 0.062064 -0.032659 -519977.000000 0 0 1
-7.526727 -14.576986 26.596326 31.249075 1.094160 0.552705 0.081175 -0.024446 -29013.800000 0 0 1
-6.846427 -15.413586 25.670866 30.715558 1.152792 0.581279 0.071943 -0.029882 -10646.300000 0 0 1
-6.805927 -14.918686 24.325846 29.336574 1.142797 0.593124 0.071195 -0.027371 -542397.000000 0 0 1
-6.184827 -15.961686 23.354466 28.956149 1.201130 0.632510 0.069084 -0.030849 -26122.400000 0 0 1
-6.918227 -17.112686 23.043086 29.524391 1.186610 0.675369 0.067870 -0.029687 -352942.000000 0 0 1
-6.854627 -18.135886 24.057536 30.897594 1.209434 0.678330 0.068274 -0.028812 -644409.000000 0 0 1
-7.505127 -19.454986 23.682386 31.554378 1.202618 0.721938 0.063357 -0.029944 1074900.000000 0 0 1
-8.956627 -19.330986 23.772556 31.922446 1.136913 0.730715 0.057888 -0.027085 1279630.000000 0 0 1
-9.580427 -20.490286 23.260146 32.444888 1.133436 0.771433 0.056754 -0.025279 1009230.000000 0 0 1
-11.151927 -20.410986 23.382976 32.980864 1.070745 0.782737 0.068539 -0.032243 772300.000000 0 0 1
-11.638927 -20.471386 24.665616 34.101831 1.053826 0.762237 0.072601 -0.031656 -275991.000000 0 0 1
-13.048027 -20.533286 24.627346 34.617524 1.004712 0.779290 0.087798 -0.024764 -66156.300000 0 0 1
-13.679327 -20.582786 26.050256 35.908089 0.984226 0.759079 0.086595 -0.025247 -619971.000000 0 0 1
-13.297827 -21.794586 26.769146 36.992206 1.022952 0.761730 0.090399 -0.020602 396451.000000 0 0 1
-12.436127 -21.449286 27.843716 37.282725 1.045368 0.727520 0.085596 -0.022593 216980.000000 0 0 1
-11.878327 -22.674186 28.642326 38.413489 1.088236 0.729314 0.097030 -0.026299 124157.000000 0 0 1
-12.882827 -23.294686 29.402846 39.662790 1.065624 0.735760 0.094821 -0.026155 200619.000000 0 0 1
-12.350427 -24.466486 30.000236 40.634420 1.103324 0.740256 0.086135 -0.024430 131862.000000 0 0 1
-13.441227 -25.217656 30.834596 42.040088 1.081092 0.747402 0.080613 -0.024095 574740.000000 0 0 1
-13.738727 -24.644086 32.120596 42.752968 1.062224 0.720756 0.080403 -0.024345 -259551.000000 0 0 1
-14.741927 -25.270966 32.853322 43.991895 1.042706 0.727553 0.069124 -0.028334 -453451.000000 0 0 1
-14.596727 -24.746586 -33.902185 44.438903 1.037875 2.438574 0.063276 -0.024948 61341.700000 0 0 1
-14.819127 -23.369486 -33.689665 43.597396 1.005664 2.453951 0.067981 -0.026090 -284997.000000 0 0 1
-16.113027 -22.881386 -33.941135 43.990773 0.957258 2.452072 0.058580 -0.028469 -704156.000000 0 0 1
-16.291127 -21.397286 -33.831645 43.218340 0.920062 2.469961 0.051539 -0.018821 -198468.000000 0 0 1
-16.263627 -20.958186 -32.491765 41.945988 0.910860 2.456894 0.044077 -0.018138 149347.000000 0 0 1
-16.407027 -19.579786 -32.329025 41.203451 0.873335 2.472878 0.039272 -0.019924 -234269.000000 0 0 1
-16.414527 -19.063786 -30.883235 39.832635 0.859932 2.458026 0.039566 -0.010305 435155.000000 0 0 1
-17.656927 -19.250486 -30.182315 39.916418 0.828549 2.428187 0.034965 -0.007623 717640.000000 0 0 1
-17.676027 -19.025986 -28.754805 38.746211 0.822163 2.407042 0.029632 -0.013071 -124343.000000 0 0 1
-16.885927 -20.020986 -27.845375 38.227468 0.870140 2.386799 0.021961 -0.003356 -197560.000000 0 0 1
-15.497527 -19.841286 -27.928405 37.601141 0.907702 2.407971 0.019888 -0.004545 -441332.000000 0 0 1
-14.830127 -21.013086 -27.546055 37.686438 0.956217 2.390476 0.006023 0.006633 272311.000000 0 0 1
-13.286627 -20.909786 -27.706295 37.167087 1.004735 2.412010 0.023470 -0.001762 340720.000000 0 0 1
-12.739027 -20.206286 -26.607195 35.756393 1.008288 2.410019 0.021164 -0.005840 512496.000000 0 0 1
-11.311527 -20.155986 -26.582225 35.225404 1.059395 2.425890 0.009996 -0.011224 861636.000000 0 0 1
-10.535127 -21.120986 -25.654805 34.860493 1.108110 2.397832 0.031438 -0.008817 -158259.000000 0 0 1
-10.439527 -22.432886 -26.129505 35.985680 1.135237 2.383441 0.037846 -0.012801 58530.000000 0 0 1
-9.860427 -23.192086 -25.102905 35.570447 1.168787 2.354240 0.062596 -0.009786 -19751.700000 0 0 1
-9.771527 -24.690686 -25.454525 36.783768 1.193953 2.335058 0.060261 -0.009530 84369.900000 0 0 1
-9.004527 -25.080656 -26.592405 37.646737 1.226106 2.355149 0.062684 -0.012479 249015.000000 0 0 1
-9.437027 -26.280156 -27.256115 39.020506 1.226044 2.344106 0.065705 -0.021026 -231098.000000 0 0 1
-9.125627 -27.635766 -26.586595 39.419027 1.251859 2.311031 0.079394 -0.022240 -301157.000000 0 0 1
-10.130127 -28.135616 -25.724125 39.445696 1.225200 2.281200 0.069078 -0.022528 -32134.200000 0 0 1
-9.834127 -29.271476 -24.945415 39.696386 1.246681 2.250298 0.094188 -0.025550 -548539.000000 0 0 1
-10.771427 -29.397876 -23.729815 39.285657 1.219585 2.219348 0.095527 -0.027423 -313173.000000 0 0 1
-10.710027 -28.311576 -22.843015 37.921674 1.209143 2.217268 0.079578 -0.026950 -624712.000000 0 0 1
-11.776127 -27.446576 -23.022315 37.709663 1.165495 2.227507 0.062385 -0.021456 -767217.000000 0 0 1
-11.638727 -26.156556 -22.146015 36.194908 1.152138 2.229199 0.071619 -0.021871 -47741.100000 0 0 1
-12.060427 -26.435526 -20.833915 35.753922 1.142782 2.192847 0.055251 -0.021451 223328.000000 0 0 1
-12.148827 -25.272476 -20.038115 34.464737 1.122696 2.191256 0.046805 -0.011071 -360522.000000 0 0 1
-12.690727 -25.492436 -18.603015 34.014571 1.108892 2.149469 0.067482 -0.013784 1350950.000000 0 0 1
-14.131627 -25.680826 -18.592915 34.711730 1.067739 2.136059 0.082911 -0.018840 1224780.000000 0 0 1
-14.522527 -26.328316 -17.355615 34.717451 1.066731 2.094292 0.076756 -0.010737 -443910.000000 0 0 1
-16.012427 -26.480216 -17.080715 35.346152 1.026933 2.075149 0.084419 -0.015290 -1023860.000000 0 0 1
-16.732127 -25.230846 -17.145215 34.792500 0.985224 2.086084 0.071138 -0.009812 580428.000000 0 0 1
-18.093427 -25.339806 -16.726715 35.344885 0.950715 2.063765 0.085471 -0.011968 1003960.000000 0 0 1
-19.075127 -26.011476 -17.775715 36.829790 0.938046 2.074469 0.077348 -0.010416 -602047.000000 0 0 1
-18.959927 -27.440026 -17.864815 37.836298 0.966164 2.062537 0.080589 -0.018256 -78188.600000 0 0 1
-19.376327 -28.278316 -16.786015 38.169039 0.970072 2.026151 0.081233 -0.021944 -215087.000000 0 0 1
-20.908827 -28.474546 -16.726015 39.086294 0.937420 2.012992 0.066665 -0.017324 43818.700000 0 0 1
-21.290427 -29.537486 -17.570615 40.428602 0.946251 2.020400 0.059176 -0.008474 -537.601000 0 0 1
-22.585227 -30.062576 -17.336515 41.405383 0.926480 2.002812 0.057214 -0.005674 79323.400000 0 0 1
-23.149027 -31.092986 -18.354715 42.889938 0.930818 2.013019 0.037808 -0.002907 47683.700000 0 0 1
-22.382627 -32.288166 -18.398915 43.382343 0.964639 2.008776 0.039395 -0.012160 95182.700000 0 0 1
-22.698827 -33.096756 -19.475515 44.608606 0.969642 2.022597 0.036279 0.006204 -110570.000000 0 0 1
-22.170127 33.717676 -19.368415 44.760827 -0.989151 2.018292 0.033862 -0.002877 -331927.000000 0 0 1
-22.999927 32.921666 -18.584515 44.251745 -0.960993 2.004211 0.031106 -0.008660 -153460.000000 0 0 1
-22.226727 31.859447 -18.027515 42.825729 -0.961650 2.005289 0.030591 -0.016854 1975.740000 0 0 1
-22.951127 30.514737 -17.791415 42.124077 -0.925932 2.006841 0.034264 -0.021795 448401.000000 0 0 1
-23.872327 30.495227 -16.659915 42.159217 -0.906618 1.977046 0.021599 -0.023849 535942.000000 0 0 1
-24.731227 29.364307 -16.689315 41.862027 -0.870836 1.980867 0.033590 -0.017094 53469.300000 0 0 1
-24.065427 27.973417 -16.339315 40.356289 -0.860355 1.987640 0.036962 -0.019149 153376.000000 0 0 1
-23.250227 27.521057 -17.424015 40.019719 -0.869320 2.021263 0.031566 -0.021150 -71210.900000 0 0 1
-22.640627 26.325697 -17.130415 38.718102 -0.860514 2.029113 0.029776 -0.017012 -134590.000000 0 0 1
-21.917527 25.742377 -18.370815 38.477718 -0.865480 2.068536 0.049526 -0.011504 -667386.000000 0 0 1
-21.548127 24.393417 -18.231215 37.306001 -0.847252 2.081388 0.055350 -0.020162 331662.000000 0 0 1
-20.769327 23.802967 -19.322715 37.031250 -0.853354 2.119750 0.055257 -0.014941 615049.000000 0 0 1
-19.313027 24.324687 -19.398515 36.619473 -0.899744 2.129081 0.049968 -0.018288 -794363.000000 0 0 1
-18.453327 23.868327 -18.372515 35.323811 -0.912655 2.117784 0.067566 -0.018923 271156.000000 0 0 1
-17.193727 24.518897 -18.367115 35.130492 -0.959236 2.120958 0.081526 -0.030916 37670.400000 0 0 1
-17.079827 25.850067 -17.625915 35.645747 -0.986917 2.088027 0.091025 -0.033187 -554597.000000 0 0 1
-17.993327 26.803517 -18.099115 37.010354 -0.979590 2.081772 0.077886 -0.030803 -156811.000000 0 0 1
-17.833127 28.070007 -17.448215 37.555105 -1.004818 2.053983 0.090010 -0.041490 -558684.000000 0 0 1
-18.929627 29.073307 -17.751015 38.970328 -0.993648 2.043731 0.082916 -0.037369 -346497.000000 0 0 1
-18.753627 29.669607 -18.994715 39.909689 -1.007120 2.066832 0.074509 -0.040043 362206.000000 0 0 1
-19.281527 28.815427 -20.052115 40.052383 -0.981084 2.095143 0.054834 -0.026746 -147377.000000 0 0 1
-19.192927 29.509607 -21.417315 41.205421 -0.994143 2.117377 0.063685 -0.034731 583787.000000 0 0 1
-20.081027 30.652277 -21.551515 42.512087 -0.990828 2.102439 0.063709 -0.029720 467333.000000 0 0 1
-20.441727 30.733457 -22.895415 43.435119 -0.983859 2.126001 0.058347 -0.029032 239302.000000 0 0 1
-21.127527 32.041217 -23.395615 44.948490 -0.987851 2.118231 0.052205 -0.019797 595848.000000 0 0 1
-20.179627 33.139520 -23.353715 45.286213 -1.023837 2.112611 0.041440 -0.012946 447719.000000 0 0 1
-20.237727 -34.022776 -24.314115 46.457411 1.034188 2.121590 0.032509 -0.005310 -242352.000000 0 0 1
-19.369227 -32.793676 -23.966915 45.000057 1.037288 2.132463 0.052579 -0.000099 -40692.400000 0 0 1
-19.593827 -32.123946 -22.715115 43.952729 1.023097 2.113914 0.043546 -0.003973 -175776.000000 0 0 1
-19.076527 -32.704286 -21.540715 43.560149 1.042744 2.088062 0.057007 -0.016520 -166307.000000 0 0 1
-18.895327 -31.697646 -20.387615 42.159566 1.033241 2.075539 0.071254 -0.025255 131079.000000 0 0 1
-17.709227 -30.940286 -20.538015 41.142777 1.050942 2.093459 0.078247 -0.025970 143541.000000 0 0 1
-17.532127 -30.029106 -19.480915 39.857606 1.042346 2.081467 0.073263 -0.025757 -489821.000000 0 0 1
-16.272927 -29.203886 -19.684215 38.796178 1.062428 2.102932 0.090271 -0.029582 -1276040.000000 0 0 1
-15.145727 -29.966556 -19.839215 38.999769 1.102821 2.104471 0.093515 -0.037029 -649280.000000 0 0 1
-14.091827 -29.124426 -20.337815 38.215684 1.120153 2.131976 0.077898 -0.033704 -338197.000000 0 0 1
-12.782927 -29.891976 -20.613215 38.494650 1.166694 2.135875 0.102733 -0.038810 90023.100000 0 0 1
-12.081027 -30.498116 -19.514315 38.169291 1.193636 2.107443 0.096766 -0.036763 551172.000000 0 0 1
-11.393127 -29.533156 -18.703515 36.767270 1.202613 2.104471 0.069069 -0.028109 -434930.000000 0 0 1
-10.670027 -30.252036 -17.495315 36.539310 1.231714 2.070093 0.066020 -0.017539 222606.000000 0 0 1
-11.492027 -30.781036 -16.446815 36.742844 1.213475 2.034898 0.086101 -0.033577 315017.000000 0 0 1
-12.004927 -32.121286 -16.594615 38.095624 1.213133 2.021506 0.098618 -0.032312 -249707.000000 0 0 1
-12.942527 -32.602626 -15.497115 38.348413 1.192898 1.986806 0.093827 -0.042127 -502928.000000 0 0 1
-12.331727 -32.754496 -14.190415 37.766339 1.210720 1.955994 0.090675 -0.036490 -344489.000000 0 0 1
-13.078727 -33.513826 -13.274615 38.346382 1.198724 1.924289 0.092496 -0.034741 -695525.000000 0 0 1
-12.532927 -33.719426 -11.876515 37.883051 1.214937 1.889678 0.075836 -0.030315 -404707.000000 0 0 1
-12.523927 -32.649456 -10.943915 36.641575 1.204518 1.874100 0.044799 -0.028166 67725.900000 0 0 1
-11.977227 -32.928676 -9.674415 36.350323 1.221940 1.840187 0.053157 -0.027103 -1282510.000000 0 0 1
-10.601527 -32.342896 -9.552815 35.351260 1.254047 1.844424 0.056698 -0.026602 -1561800.000000 0 0 1
-9.554927 -33.149976 -9.902915 35.892691 1.290169 1.850326 0.045033 -0.021974 -653282.000000 0 0 1
-8.376727 -32.416946 -10.221315 35.007188 1.317922 1.867090 0.043071 -0.032642 -93340.900000 0 0 1
-7.258327 -33.264836 -10.753715 35.705392 1.355965 1.876725 0.049899 -0.042134 -407320.000000 0 0 1
-6.625527 34.082798 -9.832515 36.086189 -1.378796 1.846759 0.040948 -0.020367 -777397.000000 0 0 1
-5.471527 33.556244 -10.372915 35.546539 -1.409163 1.866917 0.051793 -0.014324 -687194.000000 0 0 1
-4.810027 32.557809 -9.437615 34.237638 -1.424119 1.850062 0.051745 -0.022611 -185766.000000 0 0 1
-4.206227 33.096361 -8.298315 34.379115 -1.444384 1.814581 0.059275 -0.025915 24891.800000 0 0 1
-3.520827 32.035927 -7.575515 33.107178 -1.461333 1.801660 0.053224 -0.031238 434599.000000 0 0 1
-2.992327 32.436195 -6.157915 33.150877 -1.478804 1.757636 0.059420 -0.034491 98158.300000 0 0 1
-1.961327 33.422722 -6.183115 34.046381 -1.512181 1.753418 0.047532 -0.029292 24100.600000 0 0 1
-1.688227 33.971809 -4.911115 34.366451 -1.521142 1.714192 0.048832 -0.030075 302280.000000 0 0 1
-0.631427 33.224351 -4.022615 33.472939 -1.551794 1.691263 0.055054 -0.032346 -293396.000000 0 0 1
0.644573 33.244359 -4.607615 33.568333 1.551410 1.708492 0.050503 -0.031935 -504130.000000 0 0 1
1.559973 32.578960 -3.760815 32.832390 1.522950 1.685594 0.046328 -0.034648 297320.000000 0 0 1
3.026073 32.595407 -4.278315 33.013961 1.478224 1.700753 0.064722 -0.033830 649502.000000 0 0 1
3.726873 33.785717 -3.817415 34.204340 1.460931 1.682635 0.061960 -0.029448 221940.000000 0 0 1
5.106473 33.707820 -4.154515 34.344623 1.420447 1.692059 0.071811 -0.025457 447964.000000 0 0 1
5.869773 -33.266216 -3.677215 33.979660 -1.396146 1.679227 0.075439 -0.022454 -106763.000000 0 0 1
5.599573 -32.075426 -4.349115 32.849703 -1.397963 1.703581 0.069110 -0.021941 -325813.000000 0 0 1
6.254673 -30.948246 -3.835415 31.806057 -1.371381 1.691678 0.065422 -0.024106 -89950.900000 0 0 1
6.197773 -29.680576 -4.687815 30.681014 -1.364939 1.724189 0.054155 -0.022408 214939.000000 0 0 1
7.057173 -29.622186 -5.845515 31.007219 -1.336917 1.760452 0.058316 -0.019025 49053.800000 0 0 1
6.885773 -28.437186 -6.739015 30.025019 -1.333229 1.797171 0.034861 -0.012548 13902.000000 0 0 1
7.170173 -27.051756 -6.141115 28.651740 -1.311700 1.786809 0.039327 -0.011993 217098.000000 0 0 1
6.422173 -26.729076 -4.991115 27.939203 -1.334997 1.750402 0.056216 -0.023047 -467030.000000 0 0 1
7.017873 -25.628876 -4.329215 26.922703 -1.303521 1.732299 0.049403 -0.023825 45343.500000 0 0 1
6.196973 -24.933386 -3.198015 25.890220 -1.327191 1.694635 0.051668 -0.021651 886124.000000 0 0 1
5.040273 -24.249286 -3.731515 25.047084 -1.365862 1.720333 0.050440 -0.023090 68952.200000 0 0 1
4.191573 -23.768486 -2.746815 24.291052 -1.396241 1.684118 0.049239 -0.021043 340549.000000 0 1 0
2.847473 -23.247186 -3.350815 23.659411 -1.448917 1.712901 0.057614 -0.019918 998142.000000 0 1 0
1.872073 -24.272586 -3.606515 24.610364 -1.493822 1.717871 0.064990 -0.021472 -53105.700000 0 1 0
0.739573 -23.775786 -4.282815 24.169764 -1.539700 1.748934 0.051037 -0.020592 340379.000000 0 1 0
-15.033227 22.810814 18.007986 32.720310 -0.988093 0.988000 0.012496 -0.023329 -309450.000000 0 0 1
-15.224627 22.522314 19.400186 33.397771 -0.976374 0.950984 0.013160 -0.015234 234673.000000 0 0 1
-14.885827 23.490714 20.316686 34.440807 -1.005973 0.939859 0.019620 -0.011402 -1103960.000000 0 0 1
-15.015227 23.001614 21.815186 35.077537 -0.992462 0.899613 0.028721 -0.015886 -599731.000000 0 0 1
-14.174527 21.870814 22.063586 34.147497 -0.995756 0.868299 0.022722 -0.014853 1572660.000000 0 0 1
-12.741927 22.041914 22.065086 33.690810 -1.046653 0.856708 0.003724 -0.016261 882308.000000 0 0 1
-12.112627 23.215514 22.885986 34.777064 -1.089903 0.852534 0.019834 0.003533 -1065120.000000 0 0 1
-12.203927 23.009314 24.272986 35.602559 -1.083133 0.820608 0.015745 -0.000217 67750.900000 0 0 1
-11.675127 24.098414 24.944386 36.595963 -1.119644 0.820828 0.039492 -0.000709 -264597.000000 0 0 1
-11.416327 23.718014 26.377006 37.264234 -1.122191 0.784365 0.044220 -0.009945 -232179.000000 0 0 1
-10.122227 23.199414 26.524886 36.663904 -1.159382 0.761995 0.017731 -0.010168 -514906.000000 0 0 1
-9.937627 22.464414 27.750306 37.060569 -1.154304 0.724573 0.013851 -0.014235 178432.000000 0 0 1
-8.420327 22.215214 28.063136 36.768971 -1.208493 0.702501 0.002355 -0.020509 1217930.000000 0 0 1
-7.639527 23.371514 28.453236 37.605540 -1.254871 0.712663 0.013361 -0.022615 439528.000000 0 0 1
-7.447527 24.391214 27.509506 37.512263 -1.274451 0.747564 0.011325 -0.010030 -1516650.000000 0 0 1
-6.337527 25.352414 27.819986 38.168845 -1.325839 0.754132 0.014710 -0.022124 -119872.000000 0 0 1
-4.992527 24.882714 27.734276 37.593415 -1.372783 0.741076 0.022102 -0.024675 -108734.000000 0 0 1
-4.106127 25.847914 28.100766 38.400885 -1.413256 0.749875 0.033200 -0.018332 -10007.400000 0 0 1
-2.613727 25.423814 28.300156 38.132672 -1.468350 0.734524 0.031452 -0.019162 82615.500000 0 0 1
-2.006327 25.250914 27.073596 37.075782 -1.491507 0.752148 0.030626 -0.022562 695125.000000 0 0 1
-0.728027 24.581514 27.234976 36.695023 -1.541188 0.734452 0.040571 -0.013755 1033720.000000 0 0 1
0.054073 24.358714 25.928906 35.576088 1.568576 0.754185 0.038198 -0.020245 -154523.000000 0 0 1
-0.510427 23.315314 25.103946 34.264741 -1.548907 0.748594 0.035901 -0.011141 117958.000000 0 0 1
0.012273 23.237414 23.765956 33.238505 1.570268 0.774154 0.028817 -0.002389 -86087.600000 0 0 1
-0.413027 21.966214 23.060686 31.850908 -1.551996 0.761184 0.019047 -0.002984 -187651.000000 0 0 1
0.113873 20.785414 23.527256 31.393919 1.565318 0.723610 0.029516 -0.002868 -465556.000000 0 0 1
-0.391327 19.679414 22.882686 30.183601 -1.550914 0.710376 0.017836 0.005091 205740.000000 0 0 1
0.598773 18.449414 22.812386 29.345261 1.538353 0.680308 0.026418 0.004804 730250.000000 0 0 1
1.702173 18.664714 21.931686 28.849051 1.479851 0.707141 0.035971 -0.001664 385598.000000 0 0 1
2.601373 17.543814 21.999986 28.258661 1.423590 0.678489 0.018843 -0.003445 997494.000000 0 0 1
4.041173 17.759414 21.404286 28.104649 1.347055 0.705030 0.039525 -0.009444 926577.000000 0 0 1
4.904973 18.419014 22.330486 29.359316 1.310537 0.706571 0.042429 -0.002737 -221584.000000 0 0 1
6.118973 18.751014 21.668086 29.300995 1.255364 0.738469 0.065960 -0.022930 425071.000000 0 0 1
7.254773 19.152614 22.653986 30.539440 1.208709 0.735054 0.074285 -0.024171 25204.800000 0 0 1
6.898173 20.366814 23.382346 31.766743 1.244227 0.743560 0.055014 -0.015538 248805.000000 0 0 1
6.798773 21.589514 22.651486 32.022183 1.265717 0.785028 0.066958 -0.031963 180037.000000 0 0 1
5.571873 22.442414 23.091286 32.678972 1.327443 0.786101 0.050189 -0.021406 134909.000000 0 0 1
5.372173 23.694314 22.506986 33.118653 1.347837 0.823598 0.048633 -0.030031 28125.400000 0 0 1
4.147573 24.210114 22.984186 33.639334 1.401128 0.818587 0.031866 -0.022539 -171966.000000 0 0 1
3.974973 25.646914 22.302486 34.219373 1.417031 0.860906 0.040380 -0.024310 -133208.000000 0 0 1
3.776573 25.594814 20.903986 33.261594 1.424301 0.891209 0.042727 -0.022937 317273.000000 0 0 1
2.553973 25.027414 20.419686 32.401509 1.469101 0.888975 0.033984 -0.018869 122931.000000 0 0 1
2.171873 25.440814 18.971686 31.810013 1.485633 0.931780 0.038065 -0.024310 -574150.000000 0 0 1
1.543373 26.677214 19.038786 32.810533 1.513007 0.951743 0.044076 -0.023614 -151309.000000 0 0 1
1.099973 27.082714 17.759086 32.404760 1.530203 0.990778 0.049321 -0.019388 452153.000000 0 0 1
-0.090527 28.064214 17.993986 33.337544 -1.567571 1.000655 0.026444 -0.003683 588967.000000 0 0 1
0.482673 29.224514 18.619286 34.655201 1.554282 1.003597 0.037889 -0.003428 805591.000000 0 0 1
-0.543927 30.189614 18.711186 35.522065 -1.552781 1.016026 0.021219 0.002514 30447.200000 0 0 1
-0.056227 31.515414 19.319086 36.965545 -1.569012 1.020870 0.017617 0.010917 -4751.140000 0 0 1
0.255173 31.366514 20.675586 37.568646 1.562661 0.988023 0.022414 0.008674 -85019.800000 0 0 1
0.826873 32.576114 21.100286 38.821501 1.545419 0.996171 0.023878 0.004002 -679.834000 0 0 1
1.240373 32.588014 22.547586 39.647330 1.532752 0.965867 0.031405 -0.011489 -267871.000000 0 0 1
0.103773 32.526014 23.348086 40.038550 1.567606 0.948208 0.031638 -0.007424 -323152.000000 0 0 1
0.480773 32.633714 24.678676 40.917325 1.556065 0.923371 0.054545 -0.021965 -52204.700000 0 0 1
-0.656727 32.349014 25.681516 41.308961 -1.550498 0.899893 0.049527 -0.017053 -816060.000000 0 0 1
-1.588727 33.357114 25.862106 42.238248 -1.523204 0.911841 0.054108 -0.013923 -365758.000000 0 0 1
-2.574627 33.040214 26.803596 42.622965 -1.493029 0.890719 0.053682 -0.015768 -287641.000000 0 0 1
-2.136027 33.361314 28.227066 43.752795 -1.506857 0.869578 0.072461 -0.029110 -268371.000000 0 0 1
-1.120827 32.564814 28.822606 43.502482 -1.536392 0.846577 0.078662 -0.026525 329311.000000 0 0 1
-0.482427 33.241514 29.891096 44.706919 -1.556285 0.838470 0.073482 -0.035480 -674703.000000 0 0 1
0.605873 32.400814 30.588796 44.562925 1.552099 0.814244 0.070675 -0.028906 1005700.000000 0 0 1
1.959673 32.293714 30.115176 44.200091 1.510188 0.821208 0.071866 -0.034583 926238.000000 0 0 1
2.084973 32.030614 28.718696 43.070533 1.505795 0.840913 0.055745 -0.028355 -1238940.000000 0 0 1
3.580473 31.970214 28.389336 42.905346 1.459267 0.847748 0.037952 -0.023563 -418925.000000 0 0 1
4.213073 30.841314 28.846696 42.438997 1.435032 0.823414 0.041746 -0.022334 -1551210.000000 0 0 1
5.454373 30.729214 28.276726 42.114225 1.395128 0.834660 0.057971 -0.036495 -1324200.000000 0 0 1
6.312773 29.567014 28.857066 41.794613 1.360447 0.808686 0.052674 -0.015439 185401.000000 0 0 1
6.706573 29.727314 30.222306 42.919449 1.348908 0.789552 0.064169 -0.034374 14006.700000 0 0 1
7.312973 28.523714 30.659936 42.510157 1.319820 0.765209 0.050947 -0.031774 88996.700000 0 0 1
7.406073 28.591314 32.276516 43.750276 1.317335 0.741074 0.077490 -0.025664 -108942.000000 0 0 1
6.142273 28.519014 32.890074 43.963833 1.358662 0.725577 0.073918 -0.029554 -380594.000000 0 0 1
6.280273 28.348614 -33.875535 44.616562 1.352780 2.432970 0.089941 -0.028811 92160.800000 0 0 1
6.430873 26.885014 -33.364775 43.328609 1.336009 2.449701 0.077051 -0.026309 139826.000000 0 0 1
7.681573 26.326614 -33.698315 43.447366 1.286898 2.458481 0.077873 -0.028604 -7339.020000 0 0 1
7.665273 24.986914 -33.243465 42.287472 1.273139 2.475319 0.075656 -0.033058 116027.000000 0 0 1
9.045873 24.311714 -33.379365 42.273742 1.214589 2.480954 0.076520 -0.033858 -209548.000000 0 0 1
9.442773 24.061914 33.481174 42.298116 1.196827 0.657451 0.045295 -0.024456 -208864.000000 0 0 1
10.623473 23.370814 33.203570 41.970587 1.144156 0.658166 0.065326 -0.035785 -724324.000000 0 0 1
10.674473 21.827614 33.538439 41.415166 1.115959 0.626967 0.051157 -0.039323 -567970.000000 0 0 1
9.981273 21.010214 32.597779 40.045850 1.127293 0.619771 0.032874 -0.036511 333979.000000 0 0 1
9.637773 19.694414 32.980742 39.604115 1.115692 0.586721 0.028912 -0.029798 -317760.000000 0 0 1
8.313673 19.584514 33.748060 39.894885 1.169347 0.562500 0.039379 -0.039747 -606258.000000 0 0 1
8.227973 20.105614 -33.146475 39.631100 1.182352 2.561433 0.046515 -0.038492 102134.000000 0 0 1
7.075873 20.924714 -32.965685 39.681835 1.244709 2.551250 0.054995 -0.040036 165622.000000 0 0 1
6.938273 21.358414 -31.585615 38.755291 1.256700 2.523528 0.071749 -0.044657 -150493.000000 0 0 1
8.100873 22.012014 -31.162795 39.003496 1.218159 2.496384 0.084959 -0.043194 7349.490000 0 0 1
7.882373 22.433414 -29.830145 38.147443 1.232904 2.468616 0.068996 -0.035705 182303.000000 0 0 1
9.219273 22.909014 -29.192415 38.236305 1.188197 2.439471 0.080514 -0.033277 520924.000000 0 0 1
10.013173 21.764214 -28.834955 37.488655 1.139596 2.448330 0.081337 -0.036456 -617171.000000 0 0 1
11.365373 22.124014 -28.914115 38.140133 1.096239 2.431194 0.088623 -0.036543 -616193.000000 0 0 1
12.185173 20.862914 -29.124755 37.841657 1.042181 2.449086 0.084475 -0.048129 -468258.000000 0 0 1
12.073973 20.133914 -30.351525 38.371479 1.030610 2.483225 0.066695 -0.039800 174685.000000 0 0 1
10.787373 19.534414 -30.467615 37.765544 1.066247 2.509439 0.068290 -0.039962 104740.000000 0 0 1
10.600373 18.617614 -31.681855 38.245567 1.053201 2.547005 0.061020 -0.035638 -280770.000000 0 0 1
11.201873 17.307514 -31.572285 37.707309 0.996374 2.563120 0.059511 -0.029174 411465.000000 0 0 1
11.047973 16.473614 -32.695815 38.242045 0.980043 2.596290 0.056276 -0.016917 -1134870.000000 0 0 1
12.299873 16.462414 -33.529825 39.326163 0.929122 2.591754 0.059733 -0.011220 -806957.000000 0 0 1
12.550473 17.790214 -34.019148 40.389461 0.956408 2.572291 0.063464 -0.022843 -294245.000000 0 0 1
13.238473 17.845414 32.962284 39.752083 0.932537 0.593128 0.071789 -0.025053 -481852.000000 0 0 1
12.542473 17.168614 31.777426 38.234536 0.939862 0.589681 0.078513 -0.031989 -1056310.000000 0 0 1
12.964873 17.492514 30.459866 37.441680 0.932972 0.620602 0.062564 -0.029733 -261475.000000 0 0 1
12.102473 17.115014 29.425126 36.127989 0.955304 0.618983 0.052267 -0.030592 -35755.800000 0 0 1
10.675873 17.733414 29.409006 35.963007 1.028893 0.613293 0.037082 -0.030152 209281.000000 0 0 1
9.811273 16.933714 30.214356 35.998875 1.045667 0.574776 0.045540 -0.028804 420913.000000 0 0 1
8.443273 17.329014 30.248346 35.868454 1.117414 0.567377 0.040364 -0.026308 906454.000000 0 0 1
7.537773 16.517114 31.221526 36.116710 1.142665 0.526717 0.033079 -0.022056 151183.000000 0 0 1
7.959273 16.716414 32.605204 37.495171 1.126422 0.516437 0.040792 -0.027450 576903.000000 0 0 1
7.251173 15.792714 33.444931 37.690220 1.140362 0.479201 0.050658 -0.022598 -5576.130000 0 0 1
7.520473 15.934114 -33.198775 37.584733 1.129821 2.653662 0.056119 -0.028394 -593301.000000 0 0 1
6.631873 16.844914 -32.600135 37.289431 1.195731 2.634677 0.053688 -0.029693 -66616.100000 0 0 1
6.642573 16.876814 -31.191015 36.080882 1.195827 2.614901 0.066235 -0.033920 -56515.900000 0 0 1
5.854273 18.093414 -30.585565 36.015565 1.257869 2.585325 0.062818 -0.036717 69229.800000 0 0 1
5.690073 17.887814 -29.200865 34.713705 1.262820 2.570279 0.063954 -0.043583 433495.000000 0 0 1
4.926073 18.941314 -28.561075 34.623324 1.316362 2.540837 0.073459 -0.037986 817645.000000 0 0 1
3.380873 18.804714 -28.516655 34.325605 1.392908 2.551284 0.086309 -0.045463 -710017.000000 0 0 1
2.887073 17.768414 -27.677985 33.017004 1.409721 2.564945 0.098125 -0.039644 -65120.200000 0 0 1
1.530273 17.459514 -27.905195 32.952637 1.483373 2.580788 0.093272 -0.038904 515365.000000 0 0 1
0.450073 18.529214 -27.542445 33.198202 1.546511 2.549253 0.091666 -0.043976 -612755.000000 0 0 1
0.270573 18.849214 -26.173265 32.255323 1.556443 2.517408 0.100075 -0.045504 -282502.000000 0 0 1
-0.536927 19.975714 -26.052415 32.833607 -1.543924 2.487282 0.109290 -0.042464 -304122.000000 0 0 1
-0.896627 20.329914 -24.619215 31.940806 -1.526721 2.450855 0.084701 -0.041415 -391578.000000 0 0 1
-1.761727 19.414514 -24.032615 30.945010 -1.480301 2.460084 0.082863 -0.040594 -348366.000000 0 0 1
-2.133427 20.050114 -22.790615 30.429767 -1.464790 2.417284 0.103273 -0.045771 -363379.000000 0 0 1
-3.150227 19.191614 -22.031415 29.387501 -1.408101 2.418385 0.093595 -0.046646 17666.800000 0 0 1
-4.436027 19.253514 -22.647915 30.055019 -1.344347 2.424240 0.080394 -0.033337 134163.000000 0 0 1
-5.251527 18.303814 -21.946815 29.056339 -1.291393 2.426938 0.055906 -0.039446 1024970.000000 0 0 1
-6.810027 18.327914 -22.256115 29.624712 -1.215040 2.420778 0.093742 -0.033092 1256740.000000 0 0 1
-7.534627 19.259514 -21.514615 29.842556 -1.197885 2.375950 0.052056 -0.016002 -228122.000000 0 0 1
-7.297127 20.615314 -21.830415 30.899939 -1.230592 2.355319 0.061310 -0.021709 -541946.000000 0 0 1
-7.846927 21.501614 -20.682015 30.848653 -1.220869 2.305591 0.066523 -0.032029 179870.000000 0 0 1
-7.179827 21.556414 -19.422715 29.890981 -1.249281 2.278098 0.076583 -0.033100 -39413.400000 0 0 1
-7.652427 22.706114 -18.734715 30.415733 -1.245731 2.234394 0.087026 -0.024490 -33121.800000 0 0 1
-6.944227 22.890214 -17.385115 29.570702 -1.276250 2.199278 0.089084 -0.035069 -1483990.000000 0 0 1
-5.674827 23.345014 -17.504515 29.725433 -1.332336 2.200460 0.080667 -0.035569 -1962830.000000 0 0 1
-5.211327 23.840514 -16.266315 29.327820 -1.355590 2.158724 0.096041 -0.029747 -445423.000000 0 0 1
-3.718527 24.040914 -16.059115 29.149411 -1.417337 2.154268 0.106640 -0.033381 -422717.000000 0 0 1
-3.281027 25.300514 -16.441415 30.351298 -1.441834 2.143259 0.084150 -0.037146 -533481.000000 0 0 1
-2.043827 25.254114 -17.109315 30.572474 -1.490042 2.164737 0.085966 -0.043011 -114404.000000 0 0 1
-1.422027 26.654514 -17.217915 31.763845 -1.517497 2.143683 0.077344 -0.055180 -417193.000000 0 0 1
-2.053127 27.471414 -18.133315 32.980464 -1.496198 2.152945 0.071626 -0.052096 -355819.000000 0 0 1
-1.338527 28.638514 -18.528515 34.135934 -1.524092 2.144547 0.073259 -0.053108 -489589.000000 0 0 1
-2.221727 29.667414 -19.313415 35.469699 -1.496048 2.146595 0.102539 -0.048196 745715.000000 0 0 1
-3.231327 30.471714 -18.661815 35.877990 -1.465148 2.117819 0.075304 -0.046868 701960.000000 0 0 1
-4.367227 29.695114 -18.299415 35.153109 -1.424774 2.118307 0.047556 -0.041476 -106116.000000 0 0 1
-5.417327 30.421714 -17.419715 35.472166 -1.394569 2.084127 0.082097 -0.035243 759505.000000 0 0 1
-6.273227 31.387114 -18.071915 36.757291 -1.373529 2.084786 0.111840 -0.043712 534549.000000 0 0 1
-6.039127 32.703214 -17.611715 37.631686 -1.388189 2.057825 0.103269 -0.066771 113470.000000 0 0 1
-6.949427 33.758214 -18.276715 39.012176 -1.367774 2.058374 0.094899 -0.046795 -528912.000000 0 0 1
-8.316427 33.687014 -18.076015 39.124419 -1.328763 2.051061 0.104016 -0.062048 -692128.000000 0 0 1
-9.034727 -33.481579 -18.635915 39.369274 1.307232 2.063900 0.127126 -0.058646 -264622.000000 0 0 1
29.851773 -20.474886 -26.197605 44.684044 -0.601190 2.197262 0.055949 0.002722 169603.000000 0 0 1
29.147673 -21.550886 -25.641215 44.401570 -0.636662 2.186440 0.060602 0.001086 -875933.000000 0 0 1
27.898973 -21.822886 -26.170785 44.039767 -0.663800 2.207133 0.061073 -0.002295 -504303.000000 0 0 1
27.277873 -23.143386 -25.647815 44.017145 -0.703582 2.192816 0.057729 -0.001667 161590.000000 0 0 1
27.815473 -24.346986 -26.153645 45.282330 -0.719002 2.186543 0.049828 0.005624 147218.000000 0 0 1
29.165373 -24.689786 -25.846225 46.132764 -0.702485 2.165493 0.053397 0.006402 409957.000000 0 0 1
29.472273 -26.094996 -26.394905 47.394670 -0.724695 2.161466 0.046996 0.000504 194051.000000 0 0 1
28.879773 -27.210176 -25.674705 47.261247 -0.755641 2.145100 0.054259 -0.005497 -454797.000000 0 0 1
29.130973 -28.491116 -26.212745 48.450648 -0.774294 2.142445 0.041145 -0.003081 314562.000000 0 0 1
28.105573 -29.247996 -27.127345 48.798170 -0.805314 2.160253 0.040576 0.002417 -48178.100000 0 0 1
27.898773 -28.714996 -28.448415 49.114202 -0.799815 2.188580 0.022745 -0.003058 -40055.100000 0 0 1
28.876473 -28.843746 -29.484365 50.350175 -0.784831 2.196399 0.012112 -0.008491 -215553.000000 0 0 1
29.131273 -30.241206 -30.114385 51.672408 -0.804090 2.192959 0.025545 -0.001424 -493668.000000 0 0 1
29.691573 -31.315536 -29.341455 52.184033 -0.812011 2.167923 0.033237 -0.000303 1154760.000000 0 0 1
31.002973 -31.101516 -28.741105 52.483709 -0.786985 2.150313 0.036135 -0.004160 1514810.000000 0 0 1
32.213073 -30.852406 -29.692785 53.583715 -0.763826 2.158124 0.030828 -0.007447 -335979.000000 0 0 1
32.160873 -29.583426 -30.207475 53.122428 -0.743678 2.175646 0.043662 -0.020853 -292501.000000 0 0 1
33.370073 -29.216046 -30.837025 54.019082 -0.719122 2.178342 0.035929 -0.020640 -31448.700000 0 0 1
33.408773 -27.797566 -31.461925 53.653551 -0.693977 2.197392 0.026512 -0.007010 16905.000000 0 0 1
33.351373 -26.671886 -30.524415 52.492319 -0.674572 2.191371 0.029968 -0.005238 -242071.000000 0 0 1
32.022873 -26.366346 -30.175565 51.295354 -0.688823 2.199715 0.039591 -0.003648 -245335.000000 0 0 1
31.923873 -24.949986 -29.533455 50.138413 -0.663387 2.200665 0.040380 -0.003760 -669231.000000 0 0 1
32.634373 -24.919086 -28.359665 49.902242 -0.652138 2.175240 0.042325 0.000468 -73044.700000 0 0 1
32.674573 -23.585886 -27.845465 48.982565 -0.625235 2.175450 0.035963 0.006860 -47802.200000 0 0 1
33.604873 -23.621486 -26.599955 48.936895 -0.612682 2.145464 0.030234 0.001635 -96896.200000 0 0 1
33.147573 -24.250086 -25.398245 48.289741 -0.631607 2.124634 0.031874 -0.001476 413010.000000 0 0 1
32.442073 -23.382586 -24.412415 46.852956 -0.624516 2.118869 0.042259 0.010089 310149.000000 0 0 1
33.118573 -22.099486 -23.893115 46.433911 -0.588430 2.111293 0.059980 0.011664 -262480.000000 0 0 1
33.137673 -20.995686 -24.781115 46.400731 -0.564752 2.134201 0.058956 -0.004561 -50086.800000 0 0 1
33.348473 -19.768886 -24.184815 45.692831 -0.535107 2.128561 0.050251 -0.011407 -5044.060000 0 0 1
33.418873 -18.567486 -25.115605 45.742390 -0.507132 2.152043 0.032366 -0.024355 -200803.000000 0 0 1
32.181673 -18.226786 -25.684295 45.028422 -0.515326 2.177791 0.038502 -0.008258 -177167.000000 0 0 1
32.162673 -17.061586 -26.468145 45.012198 -0.487732 2.199407 0.037136 0.004016 -261400.000000 0 0 1
31.054373 -17.064886 -27.536835 44.876071 -0.502472 2.231433 0.029570 0.011618 -1020910.000000 0 0 1
29.820373 -16.862886 -26.970905 43.600932 -0.514652 2.237738 0.037313 0.007352 -700315.000000 0 0 1
28.791273 -16.720086 -27.951005 43.471340 -0.526133 2.269173 0.028176 -0.006007 258423.000000 0 0 1
27.399773 -16.374486 -27.386185 42.057990 -0.538663 2.279899 0.019683 -0.003530 46585.800000 0 0 1
26.734173 -17.426186 -26.688215 41.601067 -0.577662 2.267284 0.049492 0.006682 140977.000000 0 0 1
26.811773 -17.337886 -25.323945 40.752615 -0.574018 2.241333 0.041418 0.012429 84091.100000 0 0 1
26.004173 -18.367686 -24.454315 40.144768 -0.614966 2.225789 0.043046 0.017680 66288.000000 0 0 1
25.993273 -18.027986 -23.091215 39.164560 -0.606393 2.201353 0.035261 0.030012 -26385.200000 0 0 1
25.058173 -18.722386 -22.299115 38.414715 -0.641679 2.190119 0.052543 0.024883 -47702.600000 0 0 1
24.907473 -18.225186 -20.803915 37.220189 -0.631696 2.163905 0.042535 0.019077 -152393.000000 0 0 1
24.291573 -16.957386 -20.622015 36.095720 -0.609434 2.178903 0.020902 0.011804 -9068.800000 0 0 1
24.805873 -15.852286 -21.331115 36.354405 -0.568642 2.197842 0.022932 0.012165 -48697.900000 0 0 1
26.059973 -15.128386 -20.781315 36.604007 -0.525974 2.174546 0.016137 0.012956 -8663.030000 0 0 1
25.898473 -14.419586 -19.554315 35.510936 -0.508029 2.153946 0.017231 0.000696 848479.000000 0 0 1
27.062673 -13.619086 -19.245015 35.892038 -0.466238 2.136715 0.002972 0.005440 383845.000000 0 0 1
26.924273 -12.694986 -18.026015 34.799660 -0.440595 2.115300 0.015543 0.005024 -272424.000000 0 0 1
27.391873 -13.237486 -16.815915 34.760908 -0.450169 2.075741 0.011418 0.008634 336124.000000 0 0 1
27.108173 -12.304086 -15.773815 33.690604 -0.426083 2.058045 0.007423 0.007491 -159008.000000 0 0 1
27.807673 -12.640986 -14.450615 33.791737 -0.426661 2.012674 0.019647 -0.004102 -389416.000000 0 0 1
27.309273 -13.786186 -13.832415 33.573666 -0.467494 1.995446 0.049225 -0.014542 446830.000000 0 0 1
27.779173 -13.813986 -12.455415 33.431213 -0.461468 1.952572 0.065482 -0.015269 284692.000000 0 0 1
27.186273 -15.136986 -11.868215 33.302797 -0.508040 1.935179 0.069152 -0.031776 242380.000000 0 0 1
25.783973 -15.193786 -11.714915 32.138818 -0.532494 1.943903 0.071842 -0.036023 64724.000000 0 0 1
25.380973 -16.459186 -11.238815 32.270878 -0.575310 1.926516 0.057290 -0.033728 1109170.000000 0 0 1
23.865273 -16.363286 -10.775915 30.877641 -0.601032 1.927287 0.068513 -0.035735 934125.000000 0 0 1
23.698273 -15.747086 -9.536715 30.008795 -0.586489 1.894202 0.067824 -0.028111 68002.100000 0 0 1
22.345173 -15.968886 -9.228715 28.973803 -0.620488 1.894963 0.070244 -0.027341 -360154.000000 0 0 1
21.972973 -15.657086 -7.766815 28.076312 -0.619107 1.851084 0.060587 -0.020087 -252259.000000 0 0 1
22.128573 -14.283386 -7.363215 27.347866 -0.573186 1.843403 0.076906 -0.010924 366469.000000 0 0 1
21.774773 -13.978886 -5.983215 26.558405 -0.570714 1.798032 0.062775 -0.000437 -454408.000000 0 0 1
22.578473 -14.591986 -4.835815 27.314806 -0.573755 1.748775 0.059501 -0.000057 533015.000000 0 0 1
23.926173 -14.066986 -4.856515 28.176721 -0.531499 1.744020 0.083806 -0.006584 927598.000000 0 0 1
24.745673 -14.712686 -3.921315 29.054917 -0.536407 1.706172 0.070910 -0.016267 -1008630.000000 0 0 1
26.226873 -14.585486 -4.185315 30.300200 -0.507535 1.709368 0.095643 -0.019028 -939191.000000 0 0 1
26.817673 -13.382786 -3.795815 30.210839 -0.462870 1.696773 0.089330 -0.013792 -221648.000000 0 0 1
28.215773 -13.412486 -3.876015 31.480917 -0.443737 1.694232 0.105304 -0.030733 -469293.000000 0 0 1
28.918273 -12.159686 -3.410015 31.555549 -0.398040 1.679072 0.108288 -0.025141 -1169370.000000 0 0 1
29.208673 -12.189086 -2.070515 31.717620 -0.395340 1.636122 0.115297 -0.028203 501795.000000 0 0 1
29.980673 -11.112586 -1.540015 32.010966 -0.354959 1.618924 0.111775 -0.022641 201554.000000 0 0 1
31.464273 -10.921886 -1.904615 33.360390 -0.334107 1.627919 0.104724 -0.018766 -531530.000000 0 0 1
31.534273 -10.669786 -3.310415 33.454649 -0.326263 1.669911 0.103269 -0.019775 -1648.190000 0 0 1
32.800473 -10.856586 -3.910315 34.771066 -0.319639 1.683494 0.111450 -0.018876 4900.940000 0 0 1
32.653473 -10.634386 -5.440715 34.769827 -0.314841 1.727920 0.102447 -0.027510 76930.600000 0 0 1
31.888673 -11.627986 -6.120515 34.489973 -0.349660 1.749199 0.086510 -0.032946 371723.000000 0 0 1
32.007273 -11.502086 -7.505215 34.829467 -0.344988 1.787984 0.072056 -0.030483 -341529.000000 0 0 1
30.835173 -12.215286 -8.164015 34.156584 -0.377181 1.812150 0.100824 -0.032884 -225782.000000 0 0 1
30.653173 -13.622986 -7.923915 34.467248 -0.418207 1.802768 0.082012 -0.028541 577439.000000 0 0 1
29.261273 -13.909286 -8.069715 33.388780 -0.443732 1.814903 0.082573 -0.031716 604492.000000 0 0 1
29.042873 -15.444186 -8.005415 33.854070 -0.488741 1.809526 0.093718 -0.039158 -31105.700000 0 0 1
29.464373 -15.974586 -9.210215 34.758664 -0.496809 1.838975 0.091129 -0.040435 121435.000000 0 0 1
29.643673 -17.367886 -9.132415 35.549850 -0.529979 1.830600 0.089046 -0.041448 -24948.700000 0 0 1
29.776873 -17.955686 -10.510215 36.325383 -0.542628 1.864329 0.080058 -0.044454 945316.000000 0 0 1
31.028073 -17.453786 -11.055015 37.277196 -0.512402 1.871887 0.085165 -0.040167 1321320.000000 0 0 1
31.462173 -17.961986 -12.321715 38.266512 -0.518753 1.898635 0.070640 -0.025883 -209275.000000 0 0 1
30.862573 -17.196886 -13.447315 37.802931 -0.508361 1.934482 0.056556 -0.026268 -280092.000000 0 0 1
31.364373 -15.910386 -13.634615 37.719584 -0.469451 1.940644 0.049513 -0.024858 -155680.000000 0 0 1
30.578873 -15.288186 -14.587415 37.169729 -0.463615 1.974095 0.041976 -0.019098 -606330.000000 0 0 1
31.331673 -14.046486 -15.212615 37.555308 -0.421453 1.987854 0.027406 -0.016321 921642.000000 0 0 1
32.363073 -14.346786 -16.168015 38.917907 -0.417274 1.999222 0.012701 -0.009445 782842.000000 0 0 1
33.575373 -14.878186 -15.690515 39.935678 -0.417124 1.974574 0.027486 -0.019463 -541516.000000 0 0 1
34.629073 -15.179986 -16.793615 41.371853 -0.413132 1.988780 0.034446 -0.020379 135561.000000 0 0 1
35.889773 -15.452286 -16.196915 42.298806 -0.406561 1.963748 0.046527 -0.019742 316671.000000 0 0 1
-36.465939 -16.006586 -17.199915 43.379864 0.413624 1.978492 0.045561 -0.030163 177698.000000 0 0 1
-34.966439 -16.120486 -16.823715 42.018559 0.431986 1.982736 0.061658 -0.025404 37567.000000 0 0 1
-34.485939 -16.952286 -15.767915 41.536576 0.456882 1.960177 0.049515 -0.022399 67037.000000 0 0 1
-34.982639 -16.815986 -14.486915 41.429858 0.448085 1.928019 0.040886 -0.026255 -531837.000000 0 0 1
-34.246339 -17.785286 -13.539515 40.895557 0.478995 1.908239 0.038914 -0.024193 358945.000000 0 0 1
-32.893839 -17.451886 -13.242415 39.521317 0.487789 1.912476 0.069527 -0.019068 399751.000000 0 0 1
-32.510339 -17.895586 -11.954315 38.988201 0.503195 1.882430 0.090069 -0.011448 -333427.000000 0 0 1
-31.005639 -17.686686 -11.739915 37.576510 0.518396 1.888543 0.100893 -0.018042 -434456.000000 0 0 1
-30.669539 -16.343686 -11.721415 36.675990 0.489617 1.896097 0.093898 -0.027397 -65680.600000 0 0 1
-29.513039 -16.131186 -10.934815 35.366719 0.500212 1.885131 0.111256 -0.024107 -73866.300000 0 0 1
-29.705839 -15.973886 -9.426115 35.020759 0.493378 1.843315 0.103137 -0.025850 -291519.000000 0 0 1
-29.777139 -17.211186 -8.762715 35.492085 0.524086 1.820268 0.082660 -0.022798 -71575.000000 0 0 1
-29.720039 -17.186986 -7.401315 35.120545 0.524308 1.783129 0.107911 -0.025148 -170711.000000 0 0 1
-29.942739 -18.603886 -6.797515 35.900953 0.555945 1.761287 0.087285 -0.027977 513132.000000 0 0 1
-31.110539 -19.353386 -7.158515 37.331803 0.556500 1.763745 0.076839 -0.027715 148995.000000 0 0 1
-31.089139 -19.818986 -8.508215 37.838030 0.567530 1.797594 0.079570 -0.025694 -248061.000000 0 0 1
-32.384839 -20.478186 -8.990715 39.356916 0.563859 1.801272 0.068805 -0.030887 85043.900000 0 0 1
-33.534639 -19.724786 -9.344815 40.012058 0.531691 1.806523 0.061528 -0.031220 74711.600000 0 0 1
-34.582239 -20.604986 -9.576315 41.378769 0.537344 1.804344 0.049466 -0.028916 -156443.000000 0 0 1
-36.001239 -20.059986 -9.871715 42.378568 0.508356 1.805897 0.050584 -0.033531 167329.000000 0 0 1
-36.178439 -19.589386 -11.187615 42.635504 0.496267 1.836306 0.045552 -0.034100 -518804.000000 0 0 1
35.683073 -19.693486 -11.526715 42.355404 -0.504301 1.846415 0.072084 -0.041479 -850019.000000 0 0 1
35.273473 -19.041086 -12.883615 42.104256 -0.494989 1.881778 0.055917 -0.035177 -477997.000000 0 0 1
35.725573 -19.742786 -14.064215 43.172866 -0.504855 1.902617 0.066586 -0.030006 145316.000000 0 0 1
35.100073 -19.507786 -15.331915 42.984142 -0.507267 1.935516 0.059366 -0.023025 -155262.000000 0 0 1
33.804373 -20.335286 -15.442715 42.364336 -0.541564 1.943915 0.070062 -0.027304 -586433.000000 0 0 1
32.755773 -19.791586 -14.665515 40.984447 -0.543514 1.936741 0.076923 -0.028755 -538476.000000 0 0 1
31.658273 -20.636286 -14.631915 40.524011 -0.577671 1.940209 0.077878 -0.025736 -616900.000000 0 0 1
30.564873 -20.575986 -15.675015 40.041088 -0.592506 1.973028 0.070301 -0.015328 -933548.000000 0 0 1
29.847473 -19.376086 -15.687615 38.889660 -0.575792 1.986013 0.053676 -0.015169 326181.000000 0 0 1
28.795973 -19.452786 -16.639615 38.529154 -0.594119 2.017362 0.040146 -0.011414 177175.000000 0 0 1
28.024073 -18.142786 -16.943215 37.437707 -0.574545 2.040443 0.027867 -0.015137 336773.000000 0 0 1
26.908273 -17.895286 -16.091215 36.100189 -0.586881 2.032795 0.034835 -0.017687 470524.000000 0 0 1
26.540073 -16.519586 -16.061515 35.146045 -0.556756 2.045409 0.017011 -0.002510 947893.000000 0 0 1
25.131073 -16.323886 -15.296715 33.645647 -0.576059 2.042766 0.020381 -0.011158 2255580.000000 0 0 1
23.912973 -16.624086 -15.985015 33.222150 -0.607491 2.072769 0.030080 -0.008994 840339.000000 0 0 1
23.628673 -15.783686 -17.100415 33.164184 -0.588917 2.112538 0.027721 -0.000440 -629455.000000 0 0 1
22.612573 -16.437186 -18.084315 33.294924 -0.628556 2.144987 0.023532 -0.004490 -10840.100000 0 0 1
21.319273 -16.526986 -17.532415 32.172010 -0.659443 2.147136 0.031965 -0.004343 -871485.000000 0 0 1
20.561973 -17.319586 -18.336415 32.542079 -0.700014 2.169374 0.029411 0.000457 174166.000000 0 0 1
19.100873 -17.563286 -17.834915 31.486450 -0.743486 2.172965 0.040258 -0.003280 1079070.000000 0 0 1
18.179973 -16.464986 -18.001915 30.424926 -0.735937 2.203941 0.049126 -0.008528 1118340.000000 0 0 1
16.844773 -16.892186 -17.735215 29.725918 -0.786804 2.210085 0.057298 -0.008240 433507.000000 0 0 1
15.771673 -15.832986 -17.476115 28.369768 -0.787338 2.234466 0.064031 -0.011500 -234719.000000 0 0 1
15.215373 -15.294586 -18.622015 28.499323 -0.787994 2.282889 0.065960 -0.006855 70189.800000 0 0 1
14.075773 -14.492686 -18.410815 27.333559 -0.799991 2.309812 0.079208 -0.018015 311569.000000 0 0 1
13.246573 -14.245886 -19.697015 27.683738 -0.821731 2.362429 0.071810 -0.008486 147658.000000 0 0 1
13.546273 -12.934986 -20.141515 27.504472 -0.762318 2.392489 0.079547 -0.018457 -117420.000000 0 0 1
12.863773 -12.648286 -21.314215 27.924032 -0.776952 2.439191 0.086181 -0.020372 -216916.000000 0 0 1
13.038573 -11.241086 -21.879315 27.840094 -0.711500 2.474934 0.077502 -0.024498 -758144.000000 0 0 1
14.322773 -10.934186 -22.397115 28.745939 -0.652030 2.464089 0.073993 -0.025157 112886.000000 0 0 1
14.282073 -9.681686 -23.044715 28.788393 -0.595733 2.498903 0.057964 -0.032439 45598.400000 0 0 1
15.671673 -9.331586 -23.617015 29.840295 -0.537062 2.483969 0.048159 -0.025304 153259.000000 0 0 1
15.892373 -9.742186 -24.920115 31.120569 -0.549931 2.499360 0.070629 -0.024583 378104.000000 0 0 1
17.297773 -9.770286 -25.152775 32.052044 -0.514157 2.473086 0.067732 -0.029961 22937.000000 0 0 1
22.524973 4.626914 -7.203315 24.097106 0.202595 1.874366 0.130973 0.009899 -52515.100000 0 1 0
22.718273 6.065914 -7.228415 24.600106 0.260919 1.869035 0.114373 0.008775 304339.000000 0 1 0
22.069373 6.626214 -6.154115 23.850306 0.291681 1.831780 0.094339 0.006752 -381528.000000 0 1 0
22.152573 8.168314 -6.088815 24.383017 0.353262 1.823183 0.100579 0.004453 -131492.000000 0 1 0
21.220773 8.661814 -7.044015 23.978457 0.387535 1.868959 0.130273 0.002870 509650.000000 0 1 0
21.060373 10.069114 -7.018015 24.375785 0.445980 1.862839 0.126909 0.006908 274076.000000 0 1 0
20.095373 10.802914 -6.024815 23.597147 0.493259 1.828975 0.105587 0.002525 46416.000000 0 1 0
20.746573 10.956614 -4.807415 23.949508 0.485887 1.772901 0.099505 0.002365 440825.000000 0 1 0
20.150373 11.968114 -3.976115 23.771470 0.535952 1.738850 0.111878 -0.014055 229828.000000 0 1 0
21.073573 12.267714 -2.772115 24.541331 0.527182 1.683995 0.102543 -0.028823 -66450.200000 0 1 0
22.190773 13.081114 -3.100515 25.945311 0.532652 1.690585 0.096293 -0.032288 973837.000000 0 0 1
23.143273 13.327514 -2.053915 26.785300 0.522488 1.647552 0.094509 -0.037769 406988.000000 0 0 1
24.039573 12.180714 -1.547415 26.993802 0.468989 1.628153 0.076513 -0.035275 -1681200.000000 0 0 1
25.169873 12.040414 -2.322815 27.998028 0.446191 1.653855 0.064308 -0.027187 -318688.000000 0 0 1
25.962873 10.969414 -1.779915 28.241227 0.399754 1.633864 0.071499 -0.029323 -478054.000000 0 0 1
27.384573 10.854614 -2.280815 29.545551 0.377379 1.648070 0.073335 -0.029007 -1105260.000000 0 0 1
28.280773 11.800414 -1.827915 30.698423 0.395296 1.630376 0.069404 -0.038317 -653801.000000 0 0 1
29.584173 11.412114 -2.153315 31.782014 0.368162 1.638601 0.075585 -0.033662 -278649.000000 0 0 1
30.644673 12.415714 -1.594615 33.102700 0.384939 1.618987 0.064096 -0.033208 -923668.000000 0 0 1
30.787473 12.377414 -0.189915 33.182901 0.382253 1.576520 0.096079 -0.045205 264868.000000 0 0 1
31.755173 13.262514 0.325585 34.414987 0.395628 1.561336 0.105599 -0.042802 -1382630.000000 0 0 1
33.195073 12.995014 0.009985 35.648049 0.373135 1.570516 0.119328 -0.047405 -2100310.000000 0 0 1
33.983473 14.055414 0.498485 36.778793 0.392171 1.557242 0.120870 -0.046794 -185535.000000 0 0 1
34.685673 14.680414 -0.572715 37.668800 0.400380 1.586001 0.114423 -0.026051 -361709.000000 0 0 1
34.029073 15.812114 -1.421015 37.550234 0.434982 1.608648 0.071904 -0.000504 -1466790.000000 0 0 1
32.945473 15.361414 -2.076215 36.409997 0.436300 1.627850 0.067442 -0.003229 -1432280.000000 0 0 1
32.433973 16.365714 -2.941015 36.447891 0.467309 1.651575 0.044639 0.015389 -340098.000000 0 0 1
31.083173 15.961214 -3.527315 35.119310 0.474389 1.671404 0.060741 -0.009773 -1135310.000000 0 0 1
31.220473 14.984114 -4.574815 34.930940 0.447475 1.702141 0.033669 -0.004435 304931.000000 0 0 1
30.108373 14.775014 -5.431415 33.975218 0.456202 1.731349 0.041118 -0.017843 -530240.000000 0 0 1
28.856873 14.213014 -4.797315 32.522963 0.457658 1.718842 0.056069 -0.027649 -937555.000000 0 0 1
27.839973 13.899814 -5.746215 31.643134 0.463068 1.753404 0.064963 -0.035215 8551.180000 0 0 1
26.702873 13.405514 -5.107515 30.312340 0.465266 1.740100 0.058345 -0.014035 -655612.000000 0 0 1
25.624773 13.004214 -6.113915 29.378879 0.469618 1.780434 0.055357 -0.014414 -573781.000000 0 0 1
26.079273 12.060114 -7.114015 29.600406 0.433151 1.813507 0.048151 -0.001668 814904.000000 0 0 1
25.061173 11.638414 -8.053615 28.781518 0.434764 1.854402 0.057753 -0.002588 323854.000000 0 0 1
24.619973 12.739414 -9.059415 29.163483 0.477504 1.886665 0.092905 -0.010457 49395.100000 0 0 1
23.654173 13.610414 -8.476015 28.576321 0.522129 1.871937 0.098006 -0.023242 400005.000000 0 0 1
23.504173 14.829914 -9.206115 29.276698 0.562865 1.890676 0.108305 -0.027958 -261694.000000 0 0 1
22.413773 15.728214 -8.570615 28.691626 0.611880 1.874142 0.100425 -0.020353 2108580.000000 0 0 1
20.984673 15.476214 -8.787515 27.515271 0.635454 1.895860 0.106022 -0.025112 2173240.000000 0 0 1
20.433673 14.353014 -8.138215 26.263559 0.612348 1.885850 0.088783 -0.028820 -366031.000000 0 0 1
18.946573 14.112514 -8.464115 25.095357 0.640202 1.914820 0.075658 -0.021977 -7255.350000 0 0 1
18.005173 14.559214 -7.532615 24.349482 0.679971 1.885310 0.103075 -0.045575 -219435.000000 0 1 0
16.696873 14.112714 -7.728615 23.188052 0.701719 1.910600 0.117399 -0.054185 479964.000000 0 1 0
15.581573 14.855614 -6.876315 22.599965 0.761552 1.879960 0.079899 -0.022926 410451.000000 0 1 0
15.487773 14.382614 -5.572515 21.858262 0.748417 1.828581 0.017948 -0.017245 15501.700000 0 1 0
16.340873 14.929214 -4.614415 22.609697 0.740285 1.776330 0.096798 -0.008292 -526957.000000 0 1 0
16.094773 14.400314 -3.214015 21.834392 0.729890 1.718533 0.070279 0.015932 -485766.000000 0 1 0
16.740473 13.217914 -2.863915 21.521122 0.668354 1.704267 0.049870 -0.004236 319918.000000 0 1 0
16.148973 12.559414 -1.760815 20.533599 0.661009 1.656655 0.025636 -0.004647 -6132.210000 0 1 0
16.394573 13.195514 -0.351315 21.048207 0.677704 1.587488 0.035023 -0.010911 -213887.000000 0 1 0
15.712673 14.425614 -0.148015 21.330925 0.742719 1.577735 0.053828 -0.012306 515400.000000 0 1 0
15.817973 14.998314 1.116685 21.826697 0.758806 1.519613 0.054675 -0.015340 -619461.000000 0 1 0
14.650573 15.942714 1.444085 21.700111 0.827609 1.504200 0.061626 -0.010903 -402817.000000 0 1 0
14.618373 17.130214 0.692385 22.530434 0.864350 1.540060 0.068797 -0.008887 685539.000000 0 1 0
13.501673 17.887814 1.177785 22.442287 0.924232 1.518292 0.047497 -0.021072 349523.000000 0 1 0
13.486573 19.383714 0.638985 23.622538 0.962916 1.543743 0.039853 -0.011986 -668976.000000 0 1 0
13.248473 19.403714 -0.761615 23.507578 0.971721 1.603201 0.044758 -0.012876 471891.000000 0 1 0
12.542773 20.637014 -1.051915 24.172588 1.024676 1.614327 0.050771 -0.021614 1573450.000000 0 1 0
10.981173 20.650514 -0.794615 23.402165 1.082063 1.604758 0.036621 -0.025423 754554.000000 0 1 0
10.459073 20.640114 0.516285 23.144612 1.101775 1.548488 0.024908 -0.026780 -84026.500000 0 1 0
9.150373 20.088714 0.476885 22.079701 1.143380 1.549196 0.026453 -0.037496 539886.000000 0 1 0
8.379573 20.366014 1.807785 22.096603 1.180459 1.488892 0.021293 -0.028292 104149.000000 0 1 0
8.221273 21.704714 2.160585 23.309914 1.208717 1.477974 0.018783 -0.020270 194355.000000 0 1 0
7.219473 21.720014 3.163885 23.106059 1.249897 1.433436 0.009344 -0.018105 123073.000000 0 1 0
6.724873 23.049514 3.708785 24.295249 1.286918 1.417542 -0.000076 -0.007392 210570.000000 0 1 0
7.563273 23.526414 4.747685 25.164176 1.259751 1.380990 0.002612 -0.008828 211356.000000 0 0 1
6.985373 24.670814 5.411685 26.205550 1.294875 1.362791 0.001635 -0.002429 71743.900000 0 0 1
7.673973 25.013214 6.784485 27.029243 1.273116 1.317078 0.002275 -0.004896 162129.000000 0 0 1
7.275073 24.037814 7.741085 26.280555 1.276909 1.271806 0.004180 -0.019408 134477.000000 0 0 1
7.872873 24.311014 8.997485 27.091738 1.257614 1.232255 0.005986 -0.021744 -192367.000000 0 0 1
7.447673 23.381414 10.147785 26.554395 1.262428 1.178674 0.015672 -0.020408 131306.000000 0 0 1
6.124873 23.563914 10.625085 26.564347 1.316498 1.159306 0.020163 -0.022006 -5800.210000 0 0 1
5.725373 22.474114 11.370885 25.829493 1.321348 1.114943 0.022525 -0.020794 -424317.000000 0 0 1
4.424773 22.806014 12.110085 26.198226 1.379159 1.090267 0.022295 -0.023708 -76697.500000 0 0 1
3.381473 23.038714 11.173785 25.827702 1.425063 1.123391 0.017660 -0.019078 -107295.000000 0 0 1
2.202973 23.485114 11.814785 26.381676 1.477267 1.106448 0.022150 -0.019292 1011790.000000 0 0 1
1.032373 23.836914 10.790185 26.185728 1.527514 1.146079 0.045452 -0.011808 549601.000000 0 0 1
1.365773 25.000214 9.997285 26.959632 1.516220 1.190900 0.054967 -0.016353 740535.000000 0 0 1
0.394673 25.304914 8.959885 26.847234 1.555201 1.230532 0.043823 -0.015873 1325390.000000 0 0 1
-0.984127 25.942614 9.340085 27.590305 -1.532880 1.225444 0.056883 -0.020412 652890.000000 0 0 1
-1.821727 25.059514 10.041985 27.058074 -1.498228 1.190574 0.049451 -0.018004 481173.000000 0 0 1
-3.183927 25.514714 10.059885 27.610493 -1.446650 1.197862 0.071184 -0.025078 787685.000000 0 0 1
-4.228227 24.401814 10.498885 26.898941 -1.399225 1.169830 0.074378 -0.030369 575249.000000 0 0 1
-4.635727 24.428014 11.876685 27.554917 -1.383255 1.125175 0.049422 -0.018396 -132665.000000 0 0 1
-5.492527 25.468414 12.210785 28.773447 -1.358389 1.132523 0.066177 -0.021820 -679324.000000 0 0 1
-5.892027 25.480714 13.687485 29.518300 -1.343556 1.088635 0.026965 -0.011902 -448734.000000 0 0 1
-6.794827 24.487614 14.015285 29.021391 -1.300126 1.066799 0.041389 -0.020316 -396392.000000 0 0 1
-7.131127 24.539414 15.383985 29.827886 -1.287987 1.028904 0.010733 0.003028 545872.000000 0 0 1
-8.383127 23.677814 15.792185 29.669998 -1.230518 1.009527 0.009697 -0.004258 810706.000000 0 0 1
-9.614227 24.213914 15.334285 30.230569 -1.192832 1.038812 0.005706 0.004220 253699.000000 0 0 1
-10.704427 23.304414 15.431285 29.930002 -1.140210 1.029113 0.011793 -0.004132 721158.000000 0 0 1
-12.074127 23.978314 15.136085 30.819558 -1.104318 1.057422 0.015650 -0.010601 230764.000000 0 0 1
-12.526727 24.898414 16.131885 32.203845 -1.104661 1.046123 0.025862 -0.016757 61013.100000 0 0 1
-13.704027 25.565314 15.738685 33.001391 -1.078734 1.073661 0.022111 -0.019845 -361743.000000 0 0 1
-14.368527 26.488314 16.724685 34.464481 -1.073770 1.064121 0.042408 -0.026664 -505242.000000 0 0 1
-15.629027 26.059614 17.162085 34.898526 -1.030567 1.056674 0.034855 -0.031132 -142016.000000 0 0 1
-16.205727 27.014814 18.037685 36.301293 -1.030463 1.050787 0.055903 -0.024847 -234250.000000 0 0 1
-17.569927 26.709414 18.654085 37.014457 -0.988945 1.042610 0.047475 -0.031549 576413.000000 0 0 1
-18.709727 27.098414 17.855885 37.459452 -0.966518 1.073931 0.051340 -0.035965 627788.000000 0 0 1
-19.888127 26.488514 18.337685 37.860925 -0.926770 1.065184 0.058260 -0.027227 -40154.800000 0 0 1
-21.158827 26.831514 17.548985 38.413448 -0.903057 1.096351 0.046101 -0.032884 -558089.000000 0 0 1
-21.688427 28.140814 17.682085 39.685632 -0.914172 1.109004 0.039826 -0.027442 597349.000000 0 0 1
-22.469327 28.503314 16.515385 39.875650 -0.903227 1.143763 0.025114 -0.018937 40975.800000 0 0 1
-23.323727 29.775914 16.663785 41.331381 -0.906316 1.155812 0.015732 -0.024148 299687.000000 0 0 1
-24.583627 29.525114 17.298485 42.134602 -0.876471 1.147736 0.011053 -0.023075 130635.000000 0 0 1
-25.427487 30.634914 17.104085 43.331337 -0.878019 1.165025 0.007414 -0.016542 96151.500000 0 0 1
-26.711307 30.357514 17.962385 44.246128 -0.849203 1.152762 0.010947 -0.009773 281240.000000 0 0 1
-27.665567 29.506014 17.336785 44.006279 -0.817579 1.165858 0.044426 -0.006484 564614.000000 0 0 1
-28.925017 29.425914 18.011085 45.021553 -0.793982 1.159220 0.082926 -0.016820 833356.000000 0 0 1
-29.168027 28.241414 18.988285 44.820824 -0.769259 1.133327 0.069177 -0.021832 -320695.000000 0 0 1
-28.902117 27.023914 18.402685 43.638092 -0.751827 1.135464 0.088097 -0.021933 161437.000000 0 0 1
-29.166707 25.936114 19.284685 43.534789 -0.726837 1.111886 0.093111 -0.023975 -3211.260000 0 0 1
-29.145557 24.545214 18.638685 42.418529 -0.699925 1.115866 0.099737 -0.035095 653715.000000 0 0 1
-30.381247 24.340614 17.926785 42.858550 -0.675455 1.139248 0.116991 -0.032162 550998.000000 0 0 1
-30.180557 23.504514 16.835885 41.794440 -0.661678 1.156194 0.124373 -0.025812 -172522.000000 0 0 1
-30.857457 22.102014 16.902885 41.549840 -0.621557 1.151837 0.119990 -0.026856 -551091.000000 0 0 1
-32.202977 21.961714 16.595885 42.364750 -0.598528 1.168276 0.131745 -0.024983 -789688.000000 0 0 1
-32.453327 20.616814 16.707185 41.921373 -0.565955 1.160876 0.123605 -0.030217 452104.000000 0 0 1
-33.819287 20.080814 16.162285 42.522967 -0.535825 1.180910 0.145997 -0.034418 448366.000000 0 0 1
-33.984497 20.187314 14.742885 42.187988 -0.536007 1.213805 0.125783 -0.039140 104588.000000 0 0 1
-35.168760 19.523114 14.345485 42.705815 -0.506771 1.228221 0.137559 -0.037689 124973.000000 0 0 1
-35.531205 19.719114 12.840385 42.616728 -0.506659 1.264741 0.144416 -0.031460 132308.000000 0 0 1
-35.968302 21.082014 12.604185 43.554971 -0.530157 1.277211 0.133651 -0.038031 -204345.000000 0 0 1
-36.093227 21.464514 11.232285 43.469652 -0.536511 1.309437 0.103468 -0.032822 -605275.000000 0 0 1
-34.915890 21.399514 10.276385 42.221590 -0.549842 1.324935 0.101884 -0.031644 -602675.000000 0 0 1
-34.547615 20.042614 10.011485 41.176133 -0.525692 1.325197 0.114921 -0.029550 583289.000000 0 0 1
-33.292027 20.083514 9.299985 39.977448 -0.542808 1.336015 0.135760 -0.021865 653206.000000 0 0 1
-32.374627 18.929614 9.792085 38.759924 -0.529097 1.315394 0.108670 -0.031304 -69035.800000 0 0 1
-31.956607 19.148114 11.158085 38.889303 -0.539824 1.279787 0.106831 -0.032432 165316.000000 0 0 1
-31.295457 18.036514 11.729185 37.977562 -0.522833 1.256818 0.085449 -0.028190 139423.000000 0 0 1
-30.742297 18.342314 13.129585 38.130241 -0.537951 1.219266 0.083605 -0.019426 1126600.000000 0 0 1
-29.661017 19.337514 13.279885 37.816276 -0.577745 1.211978 0.074063 -0.016597 797029.000000 0 0 1
-30.039737 20.654114 13.405885 38.841936 -0.602328 1.218409 0.095747 -0.017422 435138.000000 0 0 1
-28.822107 21.646114 13.524885 38.499229 -0.644157 1.211834 0.090714 -0.018407 753520.000000 0 0 1
-28.180647 21.551814 14.786885 38.435420 -0.652889 1.175892 0.104790 -0.018680 83463.900000 0 0 1
-27.012567 22.345714 14.896385 38.090839 -0.691128 1.168997 0.073769 -0.020702 -140698.000000 0 0 1
-26.362217 22.243214 16.289785 38.145565 -0.700856 1.129577 0.073461 -0.025793 -799380.000000 0 0 1
-25.750217 21.001514 16.391785 37.051692 -0.684173 1.112520 0.075243 -0.027425 -214072.000000 0 0 1
-25.365677 20.817714 17.712985 37.290007 -0.687238 1.075825 0.072092 -0.022065 -455032.000000 0 0 1
-24.440727 19.630914 17.892085 36.094994 -0.676692 1.052162 0.072182 -0.022656 -435283.000000 0 0 1
-23.835627 19.606714 19.135685 36.314388 -0.688358 1.015794 0.073603 -0.023818 -379881.000000 0 0 1
-22.775927 18.714014 19.163285 35.159475 -0.687808 0.994361 0.064643 -0.020750 -445376.000000 0 0 1
-22.020527 18.553014 20.530685 35.364204 -0.700143 0.951392 0.072260 -0.032505 99315.800000 0 0 1
-22.667127 17.783914 21.522385 35.962193 -0.665260 0.929203 0.099582 -0.019575 243572.000000 0 0 1
-23.549227 18.449614 22.416785 37.382704 -0.664567 0.927724 0.068796 -0.022048 56973.700000 0 0 1
-24.328727 17.475614 23.329285 37.967612 -0.622910 0.909105 0.094113 -0.026864 -342978.000000 0 0 1
-23.581027 16.766914 24.290385 37.778526 -0.618093 0.872429 0.084935 -0.020876 -241145.000000 0 0 1
-24.319327 15.796514 24.954785 38.258343 -0.576056 0.860220 0.098970 -0.019465 -510598.000000 0 0 1
21.072073 24.779414 33.409246 46.628632 0.866078 0.772030 0.089543 -0.030379 176514.000000 0 0 1
21.846073 23.582714 33.201226 46.213816 0.823607 0.769259 0.092946 -0.045255 425894.000000 0 0 1
21.168073 22.339614 33.411069 45.425160 0.812319 0.744364 0.088438 -0.041051 22515.200000 0 0 1
19.971773 21.906314 32.546422 44.023038 0.831560 0.738760 0.099420 -0.041509 5334.140000 0 0 1
20.395873 21.477714 31.236986 43.046871 0.811228 0.758817 0.113908 -0.034406 238175.000000 0 0 1
19.473573 20.534714 30.709236 41.760647 0.811915 0.744594 0.089924 -0.029298 -277296.000000 0 0 1
19.874873 19.881614 29.389616 40.669874 0.785568 0.763185 0.087795 -0.024281 -434981.000000 0 0 1
21.061473 19.149014 29.549986 41.030136 0.737873 0.766703 0.074726 -0.020497 -316048.000000 0 0 1
21.237573 18.317114 28.428046 39.933757 0.711698 0.778625 0.063047 -0.019192 -27324.500000 0 0 1
22.403573 17.332814 28.535476 40.207212 0.658474 0.781709 0.054183 -0.015874 194524.000000 0 0 1
23.723173 17.846314 28.660316 41.263707 0.644955 0.802982 0.073837 -0.017606 10837.700000 0 0 1
24.597673 16.824514 29.058386 41.623306 0.599899 0.798017 0.052465 -0.009400 203522.000000 0 0 1
26.063673 17.303214 29.160286 42.767260 0.586073 0.820526 0.054331 -0.017987 432226.000000 0 0 1
26.901373 17.345014 28.012506 42.535090 0.572685 0.851874 0.036130 -0.010854 328818.000000 0 0 1
28.247273 17.653814 28.296846 43.706716 0.558581 0.866595 0.043554 -0.011849 159401.000000 0 0 1
29.247273 17.403314 27.162566 43.544038 0.536765 0.897207 0.026425 -0.003444 -207406.000000 0 0 1
29.317073 18.393014 26.091386 43.342290 0.560311 0.924812 0.033968 -0.008879 118522.000000 0 0 1
30.360273 18.273014 25.141496 43.448176 0.541795 0.953718 0.028331 -0.005136 -156921.000000 0 0 1
30.799773 19.656714 24.578116 44.035170 0.568042 0.978645 0.038223 -0.013869 417253.000000 0 0 1
29.751573 20.240914 23.774136 43.128415 0.597403 0.986946 0.031085 -0.018147 1019870.000000 0 0 1
30.248573 21.245114 22.870386 43.467063 0.612302 1.016724 0.020420 -0.019290 -149317.000000 0 0 1
30.898773 20.785914 21.579786 43.040394 0.592175 1.045598 0.023982 -0.012272 853627.000000 0 0 1
29.873873 20.169614 20.712086 41.572252 0.593859 1.049253 0.041433 -0.014680 1080810.000000 0 0 1
30.314873 19.610314 19.486086 41.027594 0.574184 1.075888 0.048276 -0.016324 -257209.000000 0 0 1
31.259473 18.374414 19.599586 41.217927 0.531403 1.075251 0.077231 -0.033638 73303.800000 0 0 1
30.646573 17.153014 19.901286 40.367060 0.510263 1.055253 0.077805 -0.028950 139678.000000 0 0 1
31.658573 16.220914 20.157386 40.886471 0.473495 1.055252 0.086598 -0.024571 -600896.000000 0 0 1
31.183873 14.757214 20.352186 40.055221 0.442005 1.037815 0.093795 -0.029131 -223816.000000 0 0 1
30.728773 14.378914 21.590786 40.214086 0.437664 1.004043 0.079138 -0.034284 -356084.000000 0 0 1
29.435373 14.746614 21.939386 39.563120 0.464433 0.982985 0.069884 -0.027070 -1002560.000000 0 0 1
28.956973 14.140014 23.249846 39.736653 0.454253 0.945795 0.042871 -0.016095 9757.480000 0 0 1
28.384473 12.844514 23.051886 38.756280 0.424947 0.933791 0.045243 -0.015547 28920.200000 0 0 1
27.751173 12.318414 24.167036 38.806140 0.417760 0.898527 0.037924 -0.016845 -295258.000000 0 0 1
26.986673 11.044614 23.780586 37.626856 0.388465 0.886651 0.045139 -0.010329 45661.000000 0 0 1
25.829873 11.283414 22.981486 36.368207 0.411853 0.886779 0.028538 -0.002778 291136.000000 0 0 1
25.377073 10.023614 22.485386 35.356205 0.376177 0.881535 0.029921 -0.000066 -156014.000000 0 0 1
24.159473 9.918914 21.572086 33.873587 0.389577 0.880402 0.032563 0.002069 -749870.000000 0 0 1
22.890973 9.773214 22.093386 33.281076 0.403518 0.844852 0.020362 0.001478 -846432.000000 0 0 1
21.931573 9.295114 21.239986 31.914417 0.400874 0.842593 0.014877 0.011378 -433409.000000 0 0 1
20.477073 9.305814 21.744386 31.284613 0.426549 0.802306 0.019390 0.003007 -94200.100000 0 0 1
20.267573 8.406014 22.838786 31.670897 0.393158 0.765367 0.035215 0.001178 -458319.000000 0 0 1
19.018673 8.507214 23.423236 31.348534 0.420613 0.726976 0.024277 0.002412 -726782.000000 0 0 1
19.008373 7.635514 24.699766 32.088904 0.381964 0.692380 0.030961 0.000019 -115737.000000 0 0 1
18.924173 6.263614 24.493296 31.579720 0.319635 0.683128 0.040545 -0.003530 374914.000000 0 0 1
18.785273 5.603014 25.737726 32.352910 0.289865 0.650914 0.051467 -0.018875 -394499.000000 0 0 1
19.056873 4.108914 25.784236 32.324517 0.212362 0.647378 0.058402 -0.025858 -137997.000000 0 0 1
20.439373 3.899514 25.609876 32.997574 0.188519 0.682317 0.070170 -0.018678 20248.500000 0 0 1
20.755473 2.514614 25.664386 33.102472 0.120567 0.683605 0.063462 -0.016724 -711244.000000 0 0 1
22.238073 2.293014 25.402316 33.838845 0.102749 0.721698 0.060640 -0.014651 -870852.000000 0 0 1
23.036273 2.489314 26.526136 35.220767 0.107643 0.717976 0.060289 -0.021336 -423738.000000 0 0 1
24.374173 2.560014 26.089826 35.795712 0.104646 0.754151 0.059094 -0.020422 -454067.000000 0 0 1
25.342773 2.987514 27.167946 37.273028 0.117343 0.754097 0.053349 -0.018572 -1279130.000000 0 0 1
25.511373 1.927514 28.071456 37.980944 0.075412 0.739073 0.050475 -0.020271 -1680.700000 0 0 1
26.394973 2.178914 29.133196 39.372393 0.082364 0.737816 0.054369 -0.012706 1066970.000000 0 0 1
27.930773 2.206214 28.774156 40.161518 0.078825 0.772080 0.076184 -0.024522 154019.000000 0 0 1
28.342273 3.426614 28.155176 40.096634 0.120317 0.792337 0.072022 -0.010627 211624.000000 0 0 1
29.708073 3.462314 27.781676 40.821302 0.116021 0.822259 0.068738 -0.008526 139209.000000 0 0 1
30.272273 2.662914 26.625306 40.403076 0.087740 0.851318 0.071162 -0.008730 -543489.000000 0 0 1
29.650073 2.935114 25.390206 39.145935 0.098670 0.865048 0.057476 0.001827 20869.500000 0 0 1
29.780973 1.785514 24.546726 38.634650 0.059883 0.882328 0.062268 0.008680 -396581.000000 0 0 1
29.325373 2.163314 23.089186 37.386735 0.073636 0.905138 0.062811 0.000224 -22195.300000 0 0 1
29.971873 3.195214 22.376486 37.539708 0.106206 0.932192 0.067020 0.000127 -98031.600000 0 0 1
31.359073 2.932114 22.193386 38.529665 0.093230 0.956960 0.057707 -0.000102 227415.000000 0 0 1
32.065073 4.185114 21.560386 38.865593 0.129786 0.982743 0.061171 -0.006423 -60902.900000 0 0 1
31.683073 4.490814 20.203286 37.843854 0.140804 1.007638 0.061752 -0.011201 -2752.530000 0 0 1
32.039073 5.818514 19.736486 38.077371 0.179649 1.025904 0.088982 -0.009297 211912.000000 0 0 1
33.532773 5.987614 19.304786 39.153201 0.176698 1.055195 0.071654 -0.016222 70302.600000 0 0 1
34.578673 5.816814 20.200986 40.467268 0.166659 1.048129 0.083015 -0.016785 143345.000000 0 0 1
34.703473 6.927314 20.997186 41.148518 0.197025 1.035288 0.101544 -0.023932 -770111.000000 0 0 1
35.646173 6.782114 22.215086 42.545937 0.188015 1.021434 0.097210 -0.024098 -172007.000000 0 0 1
35.234673 5.775914 23.143786 42.549714 0.162482 0.995691 0.081256 -0.016901 885210.000000 0 0 1
36.176073 5.761114 24.243056 43.927491 0.157926 0.986170 0.094637 -0.006988 558045.000000 0 0 1
35.570873 5.047114 25.434686 44.019128 0.140948 0.954754 0.072090 -0.003429 37018.000000 0 0 1
35.243573 3.698214 25.249276 43.512207 0.104550 0.951724 0.069136 0.000562 -1484.100000 0 0 1
34.341773 3.297114 26.266566 43.360821 0.095715 0.920066 0.081373 0.007661 76745.000000 0 0 1
34.175673 1.778414 26.288286 43.153370 0.051991 0.915767 0.064613 0.015020 -227012.000000 0 0 1
33.432073 1.302414 25.210946 41.892619 0.038937 0.925044 0.066363 0.008581 -148752.000000 0 0 1
33.485773 -0.099086 25.097216 41.847067 -0.002959 0.927624 0.061565 -0.000531 63907.800000 0 0 1
32.788873 -0.628986 23.777236 40.507564 -0.019181 0.943470 0.071334 0.009752 839356.000000 0 0 1
31.392373 -0.844886 23.970946 39.506976 -0.026907 0.918828 0.063806 0.007237 39621.400000 0 0 1
30.792873 -1.577386 22.937286 38.429263 -0.051181 0.931202 0.055953 -0.002581 -161137.000000 0 0 1
29.351273 -2.008786 23.220896 37.479894 -0.068333 0.902619 0.068335 0.005673 -106147.000000 0 0 1
28.461473 -0.926486 23.137486 36.691376 -0.032541 0.888474 0.046336 0.008190 -1036170.000000 0 0 1
27.135173 -1.352986 23.093086 35.657240 -0.049820 0.866312 0.048043 0.009350 -379704.000000 0 0 1
26.140473 -0.171486 23.081386 34.872684 -0.006560 0.847478 0.061963 -0.008750 -109433.000000 0 0 1
26.083373 0.633714 21.893486 34.059781 0.024291 0.872654 0.050067 -0.013581 -609990.000000 0 0 1
25.306673 1.725714 22.066086 33.620201 0.068087 0.854847 0.063306 -0.010119 -594468.000000 0 0 1
25.362073 2.676614 20.866486 32.951620 0.105147 0.885056 0.053789 -0.008360 -319923.000000 0 0 1
24.642273 2.278114 19.755186 31.665419 0.092185 0.897108 0.054692 -0.012434 91191.300000 0 0 1
24.045273 3.434814 19.134186 30.920708 0.141888 0.903564 0.057273 -0.013608 -50288.400000 0 0 1
23.948573 3.421914 17.587386 29.909192 0.141925 0.942180 0.061037 -0.019104 -125449.000000 0 0 1
25.145873 3.450214 16.838886 30.459267 0.136357 0.985036 0.055946 -0.021178 82243.400000 0 0 1
24.925973 3.599714 15.441786 29.541679 0.143425 1.020767 0.059467 -0.021353 -279674.000000 0 0 1
24.400073 2.403314 14.572386 28.521815 0.098180 1.034541 0.062188 -0.020460 1468860.000000 0 0 1
22.979473 2.124714 14.736486 27.381282 0.092199 1.002502 0.077008 -0.016877 1543490.000000 0 0 1
22.611673 1.163314 13.768886 26.499496 0.051402 1.024425 0.071032 -0.023640 -937046.000000 0 0 1
21.143273 0.797914 13.886386 25.308227 0.037721 0.989999 0.091622 -0.030801 -603392.000000 0 0 1
20.144173 1.538514 13.162486 24.112357 0.076227 0.993356 0.110387 -0.031662 1086850.000000 0 1 0
20.004273 1.295314 11.742886 23.232394 0.064662 1.040889 0.111389 -0.023082 -721123.000000 0 1 0
19.516473 -0.113486 11.322086 22.563139 -0.005815 1.045123 0.093952 -0.019199 -371595.000000 0 1 0
20.497473 -1.110086 11.366186 23.464204 -0.054104 1.065113 0.089735 -0.024243 542802.000000 0 1 0
21.557473 -1.011386 10.413586 23.962268 -0.046881 1.121222 0.079078 -0.024517 1249370.000000 0 1 0
22.873773 -1.845786 10.805586 25.364879 -0.080520 1.130723 0.098546 -0.027652 1069990.000000 0 0 1
23.337273 -1.511586 12.083986 26.323676 -0.064681 1.093866 0.078783 -0.031564 -164773.000000 0 0 1
24.085773 -2.533286 12.651286 27.323928 -0.104792 1.089407 0.052686 -0.021983 -448186.000000 0 0 1
24.357273 -2.215586 14.119586 28.240897 -0.090712 1.047233 0.081965 -0.022797 -471726.000000 0 0 1
25.454173 -1.358286 14.193386 29.175539 -0.053311 1.062737 0.058639 -0.013900 -323241.000000 0 0 1
25.692873 -1.061786 15.580086 30.066429 -0.041303 1.026064 0.044994 -0.023980 -252204.000000 0 0 1
26.912973 -0.174486 15.852186 31.235082 -0.006483 1.038501 0.062696 -0.020688 621634.000000 0 0 1
28.145373 -0.903586 15.624986 32.204327 -0.032093 1.064224 0.050491 -0.017325 692580.000000 0 0 1
29.245573 -0.022386 15.766686 33.224876 -0.000765 1.076350 0.040944 -0.012947 167090.000000 0 0 1
30.589073 -0.786386 15.958986 34.510854 -0.025702 1.090058 0.044424 -0.013594 -246062.000000 0 0 1
31.122873 -1.218586 14.782386 34.476617 -0.039134 1.127670 0.065109 -0.017442 -274070.000000 0 0 1
32.477673 -1.549586 15.000986 35.808240 -0.047676 1.138535 0.055988 -0.017644 -315008.000000 0 0 1
33.042873 -2.270386 13.763286 35.866616 -0.068602 1.176958 0.061726 -0.023694 -254161.000000 0 0 1
33.179173 -1.437386 12.635186 35.532682 -0.043295 1.207247 0.074343 -0.019025 155571.000000 0 0 1
33.702473 -2.135286 11.529186 35.683866 -0.063272 1.241801 0.072814 -0.018381 12400.600000 0 0 1
33.497473 -1.399786 10.193386 35.042049 -0.041764 1.275639 0.102282 -0.015783 34590.900000 0 0 1
34.202073 -0.163886 10.085886 35.658572 -0.004792 1.284036 0.099920 -0.013543 621734.000000 0 0 1
33.281673 0.849514 9.752686 34.691588 0.025519 1.285830 0.098824 -0.015904 -310583.000000 0 0 1
34.021273 2.115914 9.411586 35.362438 0.062114 1.301403 0.106607 -0.019519 -424081.000000 0 0 1
34.629973 1.999914 8.171186 35.637101 0.057687 1.339449 0.103450 -0.018311 -23630.700000 0 0 1
35.045573 3.300114 7.775786 36.049213 0.093889 1.353389 0.110432 -0.017351 -223647.000000 0 0 1
35.367773 3.301014 6.256886 36.068334 0.093064 1.396441 0.106375 -0.023132 -87373.800000 0 0 1
35.581273 4.605314 5.769886 36.339063 0.128715 1.411342 0.100747 -0.010570 124571.000000 0 0 1
35.740673 4.669114 4.365486 36.307765 0.129903 1.450269 0.105237 -0.023240 -253547.000000 0 0 1
36.159673 6.035114 3.870686 36.863624 0.165377 1.465602 0.107956 -0.038086 362246.000000 0 0 1
35.189373 7.074314 4.068286 36.123245 0.198391 1.457935 0.112281 -0.040564 209761.000000 0 0 1
35.735073 8.304514 3.637386 36.867207 0.228338 1.471974 0.107934 -0.047662 -971478.000000 0 0 1
34.704273 9.461014 3.575486 36.148049 0.266150 1.471722 0.133254 -0.055302 647569.000000 0 0 1
33.744473 9.259114 2.503986 35.081200 0.267798 1.499359 0.150709 -0.058591 1162010.000000 0 0 1
32.706073 8.286214 2.834686 33.858293 0.248133 1.486976 0.152419 -0.049904 -168574.000000 0 0 1
31.543373 8.319714 1.801286 32.671802 0.257882 1.515636 0.157417 -0.058713 161870.000000 0 0 1
31.875573 7.897214 0.502686 32.843125 0.242861 1.555490 0.157452 -0.059754 -64334.900000 0 0 1
30.704373 7.871514 -0.257914 31.698356 0.250960 1.578933 0.157918 -0.043244 -316514.000000 0 0 1
31.029273 7.430214 -1.740614 31.953929 0.235033 1.625296 0.132841 -0.039126 -745825.000000 0 0 1
29.932473 7.065114 -2.542414 30.859887 0.231793 1.653276 0.144249 -0.030709 296492.000000 0 0 1
30.284173 6.678214 -3.853414 31.250256 0.217045 1.694419 0.123198 -0.032057 -739341.000000 0 0 1
29.115273 6.091214 -4.641814 30.105622 0.206236 1.725598 0.125271 -0.022080 -499965.000000 0 0 1
29.017773 4.704614 -4.344714 29.716007 0.160730 1.717530 0.131499 -0.023332 618650.000000 0 0 1
28.044673 4.176314 -5.210614 28.828732 0.147830 1.752539 0.121511 -0.019232 -396161.000000 0 0 1
27.895373 2.619014 -5.028814 28.465770 0.093613 1.748390 0.145987 -0.011792 -485551.000000 0 0 1
27.232873 2.174314 -3.880714 27.593785 0.079673 1.711901 0.146771 -0.018062 426622.000000 0 0 1
27.146973 0.775114 -3.879214 27.433688 0.028545 1.712675 0.138035 -0.022483 -236930.000000 0 0 1
27.329773 0.157514 -2.490414 27.443460 0.005763 1.661668 0.154715 -0.017397 -14134.500000 0 0 1
28.610173 0.403514 -1.947514 28.679220 0.014103 1.638755 0.151119 -0.017227 416963.000000 0 0 1
28.654073 0.066114 -0.565514 28.659729 0.002307 1.590530 0.158651 -0.019367 464563.000000 0 0 1
29.952173 0.650514 0.101286 29.959408 0.021715 1.567416 0.167794 -0.019030 119878.000000 0 0 1
31.121373 -0.029686 -0.183914 31.121931 -0.000954 1.576706 0.129091 -0.018278 -741584.000000 0 0 1
32.242373 0.599014 0.360786 32.249955 0.018576 1.559609 0.093413 -0.024267 -276806.000000 0 0 1
-3.320527 -21.458786 -8.681715 23.385414 1.417274 1.951146 0.038322 0.002593 253729.000000 0 1 0
-3.854627 -21.936386 -7.453815 23.486646 1.396854 1.893745 0.041853 -0.007252 -255340.000000 0 1 0
-2.964527 -22.880386 -6.892215 24.079101 1.441948 1.861089 0.045320 -0.014430 -66409.100000 0 1 0
-3.397127 -23.388786 -5.487215 24.262838 1.426559 1.798927 0.047364 -0.009970 -716300.000000 0 1 0
-3.197127 -22.451986 -4.466115 23.114054 1.429349 1.765240 0.050977 -0.016025 -172020.000000 0 1 0
-3.582927 -23.007286 -3.212515 23.505166 1.416307 1.707898 0.038513 -0.025080 -462404.000000 0 1 0
-3.041827 -22.452086 -1.858415 22.733292 1.436135 1.652636 0.030360 -0.033829 44354.900000 0 1 0
-1.631527 -22.531686 -1.756715 22.658879 1.498512 1.648403 0.050677 -0.026374 -309150.000000 0 1 0
-1.323627 -22.330686 -0.393315 22.373337 1.511592 1.588377 0.045272 -0.024694 -85075.300000 0 1 0
0.173473 -22.233386 -0.087815 22.234236 -1.562994 1.574746 0.053803 -0.029001 -160908.000000 0 1 0
0.881173 -21.188886 -0.666215 21.217662 -1.529234 1.602201 0.036503 -0.024786 -1413800.000000 0 1 0
2.117873 -20.977086 -0.119215 21.084064 -1.470176 1.576451 0.028981 -0.023316 -457902.000000 0 1 0
3.092473 -20.028086 -0.907415 20.285734 -1.417599 1.615543 0.033378 -0.021398 654938.000000 0 1 0
3.755373 -20.672286 -1.980715 21.103779 -1.391094 1.664791 0.030427 -0.011152 -207173.000000 0 1 0
4.598473 -19.744486 -2.649415 20.445295 -1.341976 1.700747 0.032707 0.001291 52571.800000 0 1 0
5.591573 -20.299686 -3.714615 21.380863 -1.302011 1.745418 0.032855 0.004236 -5121.790000 0 1 0
6.702273 -21.002286 -3.151315 22.269874 -1.261891 1.712779 0.048034 -0.008661 53437.600000 0 1 0
7.468373 -21.620486 -4.166715 23.250452 -1.238198 1.750980 0.037299 -0.007256 321746.000000 0 1 0
8.633673 -20.820286 -4.804115 23.045697 -1.177703 1.780797 0.052049 -0.003051 -167442.000000 0 1 0
8.164273 -19.669286 -5.495315 21.993969 -1.177360 1.823327 0.027489 -0.004826 -361330.000000 0 1 0
9.227073 -19.224386 -6.277115 22.228767 -1.123303 1.857078 0.041238 -0.001603 -486890.000000 0 1 0
8.944773 -17.877486 -6.928615 21.157012 -1.106879 1.904437 0.029236 -0.005502 -22651.900000 0 1 0
9.878673 -17.724986 -7.992215 21.809145 -1.062343 1.946000 0.034509 0.002184 488631.000000 0 1 0
9.529773 -16.514886 -8.733615 20.972221 -1.047429 2.000319 0.026156 0.001878 -110394.000000 0 1 0
10.307373 -16.429686 -10.047615 21.843331 -1.010500 2.048775 0.032355 -0.002338 -367699.000000 0 1 0
9.952973 -17.144586 -11.170715 22.754854 -1.044815 2.083937 0.040463 -0.000976 223246.000000 0 1 0
8.899873 -16.470986 -11.896315 22.181601 -1.075403 2.136861 0.018561 -0.014223 281729.000000 0 1 0
8.306173 -17.348586 -12.974215 23.201211 -1.124268 2.164222 0.029356 -0.014985 -197228.000000 0 1 0
7.309573 -18.248886 -12.539415 23.317132 -1.189817 2.138594 0.023995 -0.009375 -64178.000000 0 1 0
6.687273 -18.796486 -13.691515 24.196799 -1.228988 2.172248 0.022995 -0.008415 -181664.000000 0 1 0
5.481973 -19.687486 -13.417715 24.447581 -1.299226 2.151768 0.017793 -0.002874 -404232.000000 0 1 0
5.834873 -20.918986 -12.827615 25.222954 -1.298783 2.104318 0.021475 -0.008169 214280.000000 0 0 1
4.670873 -21.724686 -12.696315 25.592488 -1.359017 2.089892 0.043114 -0.005407 497905.000000 0 0 1
5.117873 -23.170986 -12.552015 26.844744 -1.353412 2.057345 0.024696 -0.009094 4342.180000 0 0 1
5.442973 -23.649086 -13.873115 27.952970 -1.344580 2.090130 0.046363 -0.013616 -94699.500000 0 0 1
5.320973 -25.057686 -13.993215 29.189218 -1.361555 2.070763 0.033405 -0.005858 2461.300000 0 0 1
3.895273 -25.474836 -14.404215 29.523242 -1.419065 2.080472 0.048140 -0.017871 608113.000000 0 0 1
2.873673 -25.317366 -13.395815 28.786714 -1.457774 2.054823 0.046464 -0.015215 444419.000000 0 0 1
1.555973 -25.257656 -13.925115 28.883889 -1.509270 2.073854 0.044239 -0.023353 459315.000000 0 0 1
0.737673 -26.419566 -13.326015 29.599329 -1.542882 2.037801 0.043408 -0.024467 -695795.000000 0 0 1
1.215073 -27.640166 -13.870015 30.948869 -1.526864 2.035501 0.045094 -0.022739 29204.200000 0 0 1
0.710273 -28.846356 -13.296215 31.771152 -1.546179 2.002589 0.036112 -0.018092 791157.000000 0 0 1
-0.777727 -29.213116 -13.644915 32.252050 1.544180 2.007629 0.027699 -0.021019 1301420.000000 0 0 1
-1.820627 -28.410926 -13.078415 31.329544 1.506802 2.001430 0.028796 -0.023771 594720.000000 0 0 1
-3.092327 -28.900806 -13.473015 32.036560 1.464204 2.004849 0.041271 -0.021746 495363.000000 0 0 1
-4.378627 -28.209846 -12.950215 31.347661 1.416809 1.996669 0.040346 -0.027029 257300.000000 0 0 1
-4.721627 -28.228186 -11.587615 30.877129 1.405064 1.955497 0.040658 -0.032035 171233.000000 0 0 1
-5.300427 -29.453356 -11.122915 31.926696 1.392742 1.926648 0.039340 -0.025964 -462350.000000 0 0 1
-5.768227 -29.536496 -9.672915 31.610794 1.377932 1.881785 0.045275 -0.025939 552261.000000 0 0 1
-7.103427 -29.083406 -9.406415 31.381265 1.331243 1.875223 0.046663 -0.026014 448323.000000 0 0 1
-7.159827 -27.670626 -9.258115 30.043957 1.317598 1.884047 0.048053 -0.026715 -182439.000000 0 0 1
-8.547827 -27.126976 -8.721015 29.748853 1.265541 1.868321 0.043692 -0.024223 1675080.000000 0 0 1
-9.710027 -27.179616 -9.561515 30.404584 1.227674 1.890701 0.047916 -0.022409 515762.000000 0 0 1
-10.064427 -28.508746 -9.878415 31.806043 1.231425 1.886603 0.063071 -0.032589 -963178.000000 0 0 1
-11.290527 -28.783216 -10.797215 32.749494 1.196979 1.906773 0.058740 -0.027931 -87443.200000 0 0 1
-11.068327 -28.390596 -12.132615 32.798386 1.199063 1.949714 0.064406 -0.027828 250460.000000 0 0 1
-11.805627 -29.139516 -13.109315 34.063740 1.185866 1.965838 0.070401 -0.023049 -102889.000000 0 0 1
-11.799327 -28.370766 -14.435715 33.948702 1.176661 2.010003 0.075578 -0.019741 -198392.000000 0 0 1
-12.706927 -27.304146 -14.619315 33.476959 1.135223 2.022721 0.056875 -0.030738 105263.000000 0 0 1
-12.673227 -26.254526 -13.662015 32.195675 1.121079 2.009033 0.073415 -0.021947 -182495.000000 0 0 1
-13.692627 -25.127696 -13.969015 31.843720 1.071860 2.024919 0.095970 -0.020832 -15693.500000 0 0 1
-13.376427 -24.259586 -15.083315 31.543029 1.066889 2.069380 0.084148 -0.020044 -465560.000000 0 0 1
-14.348327 -23.294486 -15.276015 31.334712 1.018729 2.080033 0.098425 -0.021141 -762098.000000 0 0 1
-14.231827 -22.327786 -16.521815 31.209699 1.003327 2.128667 0.090114 -0.022385 47039.500000 0 0 1
-13.517427 -21.099786 -16.355815 29.923811 1.001027 2.149073 0.082840 -0.022103 385460.000000 0 0 1
-13.479727 -20.318386 -17.562115 30.049421 0.985041 2.194987 0.061803 -0.019174 -146005.000000 0 0 1
-13.487727 -18.733686 -17.439815 28.931245 0.946792 2.217805 0.072431 -0.027800 290848.000000 0 0 1
-12.246827 -18.251286 -16.930215 27.743943 0.979792 2.227149 0.072757 -0.022282 470029.000000 0 0 1
-12.185227 -16.849686 -17.147615 26.952409 0.944687 2.260383 0.076201 -0.025731 -734386.000000 0 0 1
-10.793327 -16.384586 -17.481815 26.278592 0.988295 2.298624 0.080738 -0.031923 -1179140.000000 0 0 1
-9.964727 -16.131086 -16.418915 25.081636 1.017439 2.284475 0.096889 -0.028333 -111285.000000 0 0 1
-8.724227 -15.523186 -16.750715 24.447247 1.058777 2.325644 0.071058 -0.026303 -162841.000000 0 1 0
-8.014927 -15.000286 -15.514015 23.020258 1.080072 2.310310 0.068598 -0.024625 -280821.000000 0 1 0
-7.661027 -15.805386 -14.380215 22.700047 1.119455 2.256850 0.064869 -0.023919 1106310.000000 0 1 0
-6.476127 -16.598086 -14.725515 23.114443 1.198790 2.261487 0.055135 -0.017829 701625.000000 0 1 0
-6.062227 -17.537986 -13.609515 23.011963 1.237991 2.203603 0.046626 -0.012234 -598075.000000 0 1 0
-5.535227 -16.960486 -12.457715 21.759860 1.255335 2.180359 0.034862 -0.007338 87091.500000 0 1 0
-5.345727 -17.892186 -11.406415 21.881806 1.280464 2.119139 0.030983 -0.005717 -93719.700000 0 1 0
-4.216227 -18.943686 -11.556115 22.587244 1.351799 2.107867 0.031008 -0.005937 812318.000000 0 1 0
-2.916427 -18.341586 -11.722115 21.961951 1.413110 2.133821 0.023321 0.004754 555604.000000 0 1 0
-1.847827 -19.243886 -11.504515 22.496566 1.475068 2.107598 0.018828 0.002666 57318.500000 0 1 0
-0.442927 -18.795786 -11.853715 22.225848 1.547235 2.133329 0.019092 0.008193 -1142350.000000 0 1 0
-0.416627 -18.541086 -13.251615 22.793656 1.548330 2.191211 0.019640 0.003759 -719588.000000 0 1 0
0.760473 -17.947486 -13.701315 22.592402 -1.528450 2.222393 0.017731 0.002947 -250333.000000 0 1 0
1.965073 -18.896486 -13.846815 23.508998 -1.467177 2.200618 0.031737 -0.003610 -848770.000000 0 1 0
1.886673 -19.819286 -14.970815 24.909615 -1.475889 2.215555 0.043161 -0.002622 83082.600000 0 1 0
0.897973 -20.836386 -14.890915 25.626172 -1.527727 2.190854 0.039915 -0.012692 -593785.000000 0 0 1
0.927073 -21.845386 -16.111515 27.159920 -1.528384 2.205836 0.051143 -0.010205 875376.000000 0 0 1
2.119273 -22.613686 -16.423515 28.028592 -1.477353 2.196855 0.069193 -0.010563 2426530.000000 0 0 1
3.332673 -21.823086 -16.729715 27.699046 -1.419254 2.219284 0.062371 -0.015472 1194260.000000 0 0 1
4.681573 -22.546286 -16.772515 28.488057 -1.366063 2.200315 0.066481 -0.019809 22053.200000 0 0 1
4.903973 -23.244586 -17.991915 29.800482 -1.362873 2.218988 0.087516 -0.023784 -45709.100000 0 0 1
6.247773 -23.618686 -18.182115 30.454331 -1.312193 2.210589 0.091334 -0.028924 159124.000000 0 0 1
6.835373 -23.538386 -19.604415 31.386478 -1.288177 2.245433 0.112316 -0.023071 -158446.000000 0 0 1
6.936273 -22.219586 -20.049115 30.721147 -1.268213 2.281828 0.121139 -0.038754 -84118.600000 0 0 1
7.332273 -22.187286 -21.407415 31.690934 -1.251623 2.312447 0.116897 -0.036687 -211630.000000 0 0 1
7.385573 -20.721086 -21.896115 31.037879 -1.228407 2.353874 0.115374 -0.041934 624017.000000 0 0 1
6.120373 -20.039186 -21.921615 30.324662 -1.274374 2.378783 0.110484 -0.039995 441657.000000 0 0 1
6.173473 -18.646186 -22.207215 29.647132 -1.251071 2.417425 0.107107 -0.035816 -427067.000000 0 0 1
4.751873 -18.106386 -22.375915 29.173671 -1.314142 2.444933 0.099191 -0.033154 -1537720.000000 0 0 1
4.222873 -18.465586 -23.626515 30.282383 -1.345974 2.465792 0.097337 -0.037858 -57250.600000 0 0 1
3.375973 -17.454286 -24.183915 30.015180 -1.379738 2.507691 0.071102 -0.030567 567931.000000 0 0 1
1.985573 -17.325986 -23.484015 29.251175 -1.456693 2.502840 0.053605 -0.017736 -521744.000000 0 0 1
2.050873 -16.836886 -22.178715 27.920999 -1.449585 2.488714 0.061562 -0.014528 -629920.000000 0 0 1
0.938773 -16.012086 -21.915715 27.158180 -1.512234 2.509792 0.039377 -0.012393 -137887.000000 0 0 1
1.070773 -15.067886 -20.637815 25.575519 -1.499852 2.509743 0.028434 -0.015828 -745061.000000 0 0 1
1.938773 -14.007386 -20.777915 25.133393 -1.433259 2.544023 0.030958 -0.012837 -504571.000000 0 0 1
2.144373 -13.386686 -19.520815 23.766866 -1.411959 2.534563 0.032250 -0.016692 242435.000000 0 1 0
3.416773 -12.487586 -19.496915 23.403928 -1.303720 2.555416 0.036964 -0.016125 -505199.000000 0 1 0
4.615973 -13.195686 -19.445015 23.948736 -1.234291 2.518270 0.040621 -0.011130 -10306.200000 0 1 0
5.876573 -12.541986 -19.521215 23.935609 -1.132622 2.524514 0.047242 -0.005727 841069.000000 0 1 0
6.153673 -11.472886 -18.398615 22.538941 -1.078480 2.525779 0.041850 -0.005629 -593134.000000 0 1 0
5.359673 -10.266086 -18.331715 21.683413 -1.089645 2.578158 0.021488 0.001980 41151.800000 0 1 0
5.673773 -9.187486 -19.179015 22.009912 -1.017569 2.628806 0.033873 -0.004010 -126097.000000 0 1 0
5.077373 -9.156186 -20.624715 23.129944 -1.064482 2.671859 0.049575 -0.014639 986044.000000 0 1 0
3.641473 -9.048486 -20.627315 22.817133 -1.188188 2.699896 0.040324 -0.015786 681716.000000 0 1 0
3.082673 -9.282986 -21.885015 23.971454 -1.250176 2.721280 0.043904 -0.022333 -797156.000000 0 1 0
1.571973 -9.369786 -21.876215 23.850215 -1.404574 2.731875 0.049369 -0.019088 -766242.000000 0 1 0
1.091573 -8.058286 -21.635915 23.113639 -1.436156 2.782076 0.042005 -0.017362 -540680.000000 0 1 0
-0.308327 -8.015786 -21.772215 23.202958 1.532350 2.788587 0.037488 -0.016493 -9214.510000 0 1 0
-0.874427 -6.971086 -22.789315 23.847716 1.446012 2.842548 0.056246 -0.016059 -105183.000000 0 1 0
-0.580527 -7.329586 -24.115215 25.211177 1.491758 2.845654 0.062615 -0.015894 -32131.600000 0 0 1
-1.367327 -6.634186 -25.064085 25.963250 1.367539 2.877646 0.072100 -0.022998 119045.000000 0 0 1
-0.711527 -5.287086 -25.507945 26.059831 1.437022 2.935424 0.072758 -0.020622 -56589.600000 0 0 1
-1.365927 -4.668086 -26.598565 27.039609 1.286133 2.960730 0.073049 -0.017618 -5847.900000 0 0 1
-0.888627 -3.379786 -27.081905 27.306450 1.313691 3.013262 0.056054 -0.013676 -560450.000000 0 0 1
-1.309127 -2.178186 -26.179735 26.302791 1.029629 3.044824 0.060537 -0.016963 1332340.000000 0 0 1
-2.716327 -1.884686 -25.999015 26.208381 0.606577 3.015108 0.054589 -0.020050 1227160.000000 0 0 1
-3.396927 -1.443386 -27.186975 27.436364 0.401794 3.006659 0.071295 -0.014529 1161870.000000 0 0 1
-4.965927 -1.341086 -26.958195 27.444548 0.263765 2.953051 0.057960 -0.015682 1332140.000000 0 0 1
-5.344427 -0.187086 -26.199765 26.739962 0.034992 2.940246 0.057593 -0.015677 554337.000000 0 0 1
-6.749127 -0.292586 -25.939645 26.804878 0.043325 2.886822 0.070981 -0.026779 499391.000000 0 0 1
-7.486127 0.992814 -25.489195 26.584334 -0.131851 2.853562 0.070491 -0.023878 -993940.000000 0 0 1
-7.738127 2.028114 -26.462915 27.645573 -0.256328 2.848036 0.074831 -0.021107 278202.000000 0 0 1
-8.653327 1.710814 -27.522885 28.901836 -0.195189 2.831445 0.086513 -0.026777 928933.000000 0 0 1
-10.118927 1.448714 -26.978195 28.849861 -0.142202 2.779405 0.085814 -0.030542 298819.000000 0 0 1
-11.125227 2.182414 -27.692185 29.923080 -0.193708 2.753007 0.090321 -0.038003 803569.000000 0 0 1
-12.431627 1.659114 -27.480425 30.207148 -0.132675 2.713436 0.050224 -0.022091 485226.000000 0 0 1
-13.581827 2.461814 -28.157715 31.358946 -0.179311 2.685809 0.029029 -0.008645 -466480.000000 0 0 1
-14.766627 1.633814 -28.158635 31.837578 -0.110194 2.656103 0.025541 -0.006565 325152.000000 0 0 1
-15.830627 2.245414 -28.816405 32.955058 -0.140900 2.635026 0.020443 -0.004380 -214666.000000 0 0 1
-16.485527 3.482514 -28.111435 32.774278 -0.208186 2.601631 0.027246 0.002355 -1160830.000000 0 0 1
-15.781327 4.722814 -28.104065 32.575968 -0.290783 2.611428 0.043768 -0.002787 -98499.400000 0 0 1
-15.607727 5.424214 -29.374435 33.702829 -0.334476 2.629196 0.028841 -0.002667 -433516.000000 0 0 1
-16.884527 5.809714 -30.158685 35.048342 -0.331396 2.607023 0.039917 -0.000960 -131590.000000 0 0 1
-17.559927 6.815614 -29.412175 34.926776 -0.370236 2.571979 0.045728 -0.001049 322204.000000 0 0 1
-18.298627 7.706514 -30.253845 36.187363 -0.398607 2.560810 0.050495 -0.007062 -87487.300000 0 0 1
-19.206327 8.664314 -29.464035 36.222682 -0.423783 2.520794 0.055892 -0.007421 -108435.000000 0 0 1
-18.491127 9.753814 -28.899995 35.668871 -0.485394 2.515341 0.052252 -0.006403 831660.000000 0 0 1
-19.387627 10.636814 -28.209775 35.844292 -0.501798 2.476742 0.076213 -0.006381 211555.000000 0 0 1
-9.087227 25.294614 30.837466 40.906533 -1.225900 0.716891 0.027213 -0.010362 -1171290.000000 0 0 1
-9.602627 26.560314 31.058826 41.979892 -1.223878 0.737949 0.027455 -0.002594 -94894.200000 0 0 1
-8.884027 27.450814 31.927366 43.032892 -1.257800 0.734853 0.028925 -0.012223 258610.000000 0 0 1
-7.512427 27.899114 31.354886 42.637143 -1.307764 0.744556 0.031947 -0.011097 62019.300000 0 0 1
-7.688827 28.978014 30.389236 42.688980 -1.311439 0.778631 0.038768 -0.010110 -513145.000000 0 0 1
-6.547927 29.095814 29.626496 42.037733 -1.349437 0.788712 0.037823 -0.005917 -625474.000000 0 0 1
-6.502327 30.336414 28.751586 42.299314 -1.359650 0.823419 0.052840 -0.010819 -118727.000000 0 0 1
-6.610027 31.504414 29.497606 43.661531 -1.363984 0.829022 0.053177 -0.016755 281895.000000 0 0 1
-6.255727 32.663314 28.779056 43.980226 -1.381566 0.857456 0.056743 -0.016234 -63133.600000 0 0 1
-6.727727 33.903814 29.572646 45.489255 -1.374905 0.863078 0.053437 -0.020117 -189653.000000 0 0 1
-6.007827 34.100814 30.809906 46.348784 -1.396408 0.843650 0.061772 -0.028081 440399.000000 0 0 1
-6.830427 -33.459179 31.797586 46.661095 1.369421 0.821043 0.056864 -0.033253 860744.000000 0 0 1
-7.887827 33.786514 32.449508 47.504914 -1.341444 0.818829 0.027646 -0.029002 299644.000000 0 0 1
-7.433727 33.084614 33.580234 47.722993 -1.349779 0.790276 0.039454 -0.023565 -172379.000000 0 0 1
-7.200427 31.767514 33.146030 46.472362 -1.347902 0.776684 0.053249 -0.019834 -120999.000000 0 0 1
-6.928027 30.751114 -33.937325 46.318145 -1.349203 2.393078 0.054289 -0.020758 -426816.000000 0 0 1
-5.677727 30.882314 -33.330435 45.791613 -1.388976 2.386010 0.048423 -0.019028 -672603.000000 0 0 1
-5.604427 30.210014 -32.096575 44.432473 -1.387366 2.378016 0.050219 -0.015912 -2092.330000 0 0 1
-4.174927 29.932814 -31.558455 43.695989 -1.432214 2.377814 0.043098 -0.024590 562994.000000 0 0 1
-3.535227 28.708314 -31.965225 43.109636 -1.448270 2.406080 0.051518 -0.018351 190879.000000 0 0 1
-3.074327 28.556414 -33.285725 43.964301 -1.463551 2.429671 0.048036 -0.018734 -421012.000000 0 0 1
-2.421427 27.141814 -33.456065 43.149156 -1.481818 2.458079 0.056273 -0.026452 512807.000000 0 0 1
-1.121227 27.020714 -32.824425 42.530213 -1.529325 2.452449 0.066887 -0.024875 1071820.000000 0 0 1
-0.543627 25.719514 -32.869285 41.739416 -1.549663 2.477519 0.074854 -0.022736 189537.000000 0 0 1
0.010573 25.275314 33.957326 42.331331 1.570378 0.639860 0.068634 -0.023738 -16780.700000 0 0 1
-1.046027 24.930114 33.024446 41.391047 -1.528863 0.647052 0.065379 -0.016927 690058.000000 0 0 1
-0.654127 24.874714 31.676756 40.281461 -1.544506 0.665861 0.068731 -0.018068 -253324.000000 0 0 1
-0.322527 26.216914 30.988236 40.591888 -1.558495 0.702221 0.042776 -0.012202 -150315.000000 0 0 1
-1.380927 27.156414 30.960136 41.205676 -1.519989 0.720682 0.048149 -0.017261 57570.900000 0 0 1
-0.959527 28.394714 30.403966 41.612277 -1.537017 0.751524 0.049020 -0.013340 58288.000000 0 0 1
-2.058127 29.476814 30.461216 42.438239 -1.501088 0.770191 0.059466 -0.018669 128861.000000 0 0 1
-2.352527 29.942014 31.748436 43.703796 -1.492388 0.757661 0.060994 -0.022402 294152.000000 0 0 1
-3.389327 30.929414 31.818486 44.503171 -1.461649 0.774213 0.058645 -0.022609 501332.000000 0 0 1
-3.159127 31.849714 33.046315 46.004818 -1.471931 0.769408 0.059137 -0.026047 200336.000000 0 0 1
-1.989727 32.647014 32.955031 46.430815 -1.509925 0.781630 0.098037 -0.032083 -176965.000000 0 0 1
-1.364627 32.775214 -33.970585 47.223696 -1.529184 2.373669 0.075789 -0.036370 -143901.000000 0 0 1
0.120473 33.174114 -34.083498 47.562813 1.567165 2.369711 0.084878 -0.046830 -2540.730000 0 0 1
0.201873 -33.761079 33.563801 47.606511 -1.564817 0.788337 0.086402 -0.043835 487464.000000 0 0 1
1.553773 -33.360979 33.328793 47.182386 -1.524255 0.786422 0.085189 -0.044262 481445.000000 0 0 1
1.728773 -32.049279 32.530661 45.698893 -1.516907 0.778671 0.077055 -0.049236 -128575.000000 0 0 1
1.367773 -31.056679 33.405836 45.632641 -1.526784 0.749455 0.068277 -0.038809 142175.000000 0 0 1
1.496673 -29.752379 32.922175 44.399478 -1.520534 0.735494 0.049518 -0.032639 -271517.000000 0 0 1
1.256073 -28.719979 34.076238 44.582562 -1.527089 0.700779 0.045629 -0.022799 144066.000000 0 0 1
-0.137527 -28.670379 -33.866275 44.372673 1.566000 2.439084 0.028317 -0.022249 168910.000000 0 0 1
-0.358527 -28.046779 -32.611565 43.014701 1.558014 2.431267 0.035449 -0.025894 -757931.000000 0 0 1
-1.822127 -27.669579 -32.514785 42.733324 1.505038 2.435459 0.052038 -0.021103 -768860.000000 0 0 1
-2.131427 -27.214279 -31.226445 41.475906 1.492636 2.423226 0.065814 -0.021588 186949.000000 0 0 1
-3.525227 -27.007579 -31.118335 41.354411 1.441003 2.422615 0.080763 -0.027256 -29150.800000 0 0 1
-4.003227 -26.242879 -29.882725 39.971137 1.419418 2.415249 0.077410 -0.032279 -445305.000000 0 0 1
-4.552627 -27.094479 -28.846615 39.836721 1.404324 2.380556 0.072125 -0.025026 97542.800000 0 0 1
-4.753627 -26.515979 -27.570435 38.546374 1.393407 2.367783 0.072406 -0.020743 347855.000000 0 0 1
-3.465627 -26.042279 -26.826395 37.548187 1.438497 2.366638 0.079059 -0.024924 246717.000000 0 0 1
-2.702727 -25.023479 -27.452175 37.243807 1.463206 2.399556 0.089631 -0.022640 -229303.000000 0 0 1
-1.588327 -24.785079 -26.626315 36.411311 1.506800 2.390971 0.084191 -0.022538 -160743.000000 0 0 1
-0.703427 -23.641379 -27.273125 36.100318 1.541051 2.427185 0.078696 -0.021660 1001230.000000 0 0 1
0.131873 -23.915979 -28.435985 37.156381 -1.565282 2.442312 0.058453 -0.032942 661048.000000 0 0 1
1.317873 -24.663179 -28.270785 37.539931 -1.517412 2.423536 0.069140 -0.027233 -154631.000000 0 0 1
2.127773 -24.909279 -29.534015 38.694413 -1.485582 2.439145 0.043152 -0.026754 -364001.000000 0 0 1
2.923073 -23.799079 -29.854565 38.291455 -1.448585 2.464929 0.035119 -0.025537 -137451.000000 0 0 1
3.851273 -24.238979 -30.835395 39.410430 -1.413226 2.469334 0.040726 -0.024130 -691328.000000 0 0 1
4.913173 -23.159479 -31.170785 39.142286 -1.361750 2.492025 0.051985 -0.030577 -154026.000000 0 0 1
6.112973 -23.206679 -30.410795 38.739319 -1.313233 2.473510 0.052321 -0.030027 860741.000000 0 0 1
7.043373 -24.284979 -30.562375 39.666460 -1.288511 2.450396 0.052130 -0.016618 138894.000000 0 0 1
7.662873 -24.614979 -31.981875 41.078670 -1.268997 2.463151 0.038261 -0.007012 -349394.000000 0 0 1
6.724573 -25.201379 -32.852355 41.947665 -1.310038 2.470552 0.023361 -0.014284 -53180.700000 0 0 1
7.024873 -24.911479 33.996173 42.727864 -1.295940 0.650726 0.035297 -0.010893 -67202.200000 0 0 1
6.575773 -23.533879 33.496745 41.462225 -1.298328 0.630240 0.022225 -0.006925 130674.000000 0 0 1
5.209173 -23.278079 33.802157 41.371369 -1.350643 0.614534 0.031449 -0.013767 190265.000000 0 0 1
4.764173 -22.115579 33.131744 40.118682 -1.358617 0.599100 0.038092 -0.023112 558024.000000 0 0 1
3.261973 -21.779779 33.440104 40.040476 -1.422131 0.582377 0.029409 -0.031316 832473.000000 0 0 1
2.261173 -22.687979 33.050260 40.151923 -1.471460 0.603895 0.031295 -0.024446 -38263.900000 0 0 1
2.036273 -23.809479 33.917916 41.490513 -1.485480 0.613764 0.028697 -0.017627 74488.300000 0 0 1
0.653873 -24.508979 33.760752 41.724165 -1.544124 0.628107 0.036213 -0.021130 448906.000000 0 0 1
0.557373 -25.380479 32.658457 41.364890 -1.548839 0.660768 0.029148 -0.020064 1529700.000000 0 0 1
-0.829527 -25.627079 32.250040 41.200732 1.538438 0.671717 0.030995 -0.030164 1528180.000000 0 0 1
-0.945527 -26.713579 31.164716 41.057871 1.535416 0.708953 0.030234 -0.033731 869707.000000 0 0 1
-2.303427 -26.841279 30.705556 40.848392 1.485189 0.720167 0.038886 -0.035840 921201.000000 0 0 1
-2.368427 -27.912979 29.742676 40.857931 1.486149 0.755464 0.047102 -0.046959 531667.000000 0 0 1
-3.771527 -27.907779 29.030046 40.445174 1.436468 0.770212 0.053045 -0.037463 232066.000000 0 0 1
-4.732527 -28.449479 29.905726 41.546625 1.405957 0.767266 0.059079 -0.035541 -400580.000000 0 0 1
-5.918027 -28.471379 29.131946 41.162030 1.365856 0.784505 0.062185 -0.028994 -48058.100000 0 0 1
-7.095927 -29.228879 29.809806 42.347421 1.332633 0.789875 0.053746 -0.021896 -498359.000000 0 0 1
-8.235827 -29.444179 28.999886 42.140027 1.298057 0.811820 0.057469 -0.016378 651435.000000 0 0 1
-9.400727 -29.855279 29.742556 43.177899 1.265748 0.810912 0.045623 -0.014217 588023.000000 0 0 1
-9.334227 -31.153179 30.579286 44.640128 1.279685 0.816168 0.024375 -0.010182 -1019000.000000 0 0 1
-9.411227 -32.382879 29.913016 45.077827 1.287964 0.845194 0.035626 -0.011817 1062160.000000 0 0 1
-10.732127 -32.681179 29.399026 45.249759 1.253503 0.863599 0.029231 -0.005356 872506.000000 0 0 1
-10.800427 34.042714 28.928446 45.960968 -1.263580 0.889998 0.046344 -0.004726 -420906.000000 0 0 1
-10.635027 33.062114 29.938126 45.853010 -1.259581 0.859369 0.037772 -0.000075 288886.000000 0 0 1
-10.316127 31.715714 29.472936 44.508010 -1.256321 0.847053 0.044056 -0.007210 -26935.600000 0 0 1
-10.773827 30.600314 30.408206 44.464745 -1.232268 0.817739 0.036242 0.002579 1362400.000000 0 0 1
-12.232627 30.533614 30.406586 44.793964 -1.189749 0.824656 0.021514 0.018415 1378800.000000 0 0 1
-12.701027 29.352814 31.065596 44.586713 -1.162420 0.799946 0.023836 0.011053 -58441.300000 0 0 1
-12.707727 29.280714 32.596691 45.622262 -1.161330 0.774900 0.030335 -0.000701 -213157.000000 0 0 1
-13.761627 30.022514 33.195589 46.826070 -1.140998 0.782841 0.031755 0.010142 261592.000000 0 0 1
-13.933027 29.753714 -33.630985 47.015486 -1.132846 2.367874 0.035586 0.004024 279304.000000 0 0 1
-15.285827 30.177214 -32.988015 47.249655 -1.101934 2.343626 0.025602 0.008973 333315.000000 0 0 1
-15.243227 29.647914 -31.672905 45.983994 -1.095900 2.330603 0.017995 0.009665 -483849.000000 0 0 1
-16.263427 30.092914 -30.842795 46.058230 -1.075322 2.304531 0.024669 0.007656 -385507.000000 0 0 1
-16.310427 29.400914 -29.419235 44.675890 -1.064307 2.289625 0.045703 -0.001986 -115028.000000 0 0 1
-16.718727 28.056614 -29.461955 43.985182 -1.033402 2.304757 0.037669 -0.003677 115006.000000 0 0 1
-16.580227 27.547414 -28.144165 42.730059 -1.028996 2.289820 0.036684 -0.007065 -398744.000000 0 0 1
-17.173227 26.177714 -27.997305 42.000494 -0.990197 2.300427 0.016834 -0.014904 367442.000000 0 0 1
-18.600627 26.173614 -28.033525 42.625344 -0.952950 2.288521 0.016218 -0.008202 321144.000000 0 0 1
-19.085327 24.837014 -27.998415 42.012358 -0.915609 2.300210 0.009901 -0.010511 -908998.000000 0 0 1
-20.564827 24.579314 -28.101485 42.623330 -0.874091 2.290681 0.035340 -0.007737 -812978.000000 0 0 1
-21.339127 24.898814 -26.935145 42.435967 -0.862233 2.258448 0.039611 -0.012875 482720.000000 0 0 1
-22.625627 24.322914 -27.071535 42.853135 -0.821534 2.254577 0.070501 -0.020116 267795.000000 0 0 1
-23.713627 24.521714 -26.018235 42.902204 -0.802150 2.222390 0.094894 -0.031178 39607.400000 0 0 1
-24.240627 25.811114 -25.865985 43.850551 -0.816765 2.201690 0.064882 -0.016329 640930.000000 0 0 1
-25.532977 26.041114 -25.274035 44.371718 -0.795250 2.176813 0.068578 -0.011446 1084080.000000 0 0 1
-25.688367 25.655614 -23.739415 43.378134 -0.784760 2.149891 0.057361 -0.006358 -494304.000000 0 0 1
-25.517877 24.254214 -23.455115 42.303326 -0.760015 2.158499 0.046690 -0.011030 1109220.000000 0 0 1
-26.769947 23.514614 -23.231215 42.535356 -0.720750 2.148573 0.043505 -0.000176 950780.000000 0 0 1
-27.383577 23.655214 -21.811715 42.251395 -0.712478 2.113247 0.027730 0.002568 18575.400000 0 0 1
-26.656017 23.131514 -20.681815 40.906572 -0.714725 2.100858 0.019916 -0.004734 849114.000000 0 0 1
-25.507407 23.926314 -20.312915 40.443922 -0.753425 2.096994 0.031650 0.001428 685998.000000 0 0 1
-24.648827 23.364014 -19.158215 38.993320 -0.758645 2.084401 0.035787 0.000677 -91144.000000 0 0 1
-25.303017 23.420314 -17.879815 38.838661 -0.746777 2.049198 0.030338 -0.003744 669192.000000 0 0 1
-24.377627 23.257214 -16.788915 37.643517 -0.761882 2.033085 0.032023 -0.011219 84705.700000 0 0 1
-25.052237 23.297814 -15.429615 37.529665 -0.749128 1.994491 0.032949 -0.005955 -327636.000000 0 0 1
-25.608567 24.528714 -15.134015 38.555089 -0.763864 1.974177 0.049715 -0.015475 -348262.000000 0 0 1
-26.026977 24.631914 -13.844015 38.416031 -0.757867 1.939462 0.016675 -0.014265 -156607.000000 0 0 1
-25.994067 26.008414 -13.205915 39.070773 -0.785674 1.915587 0.020071 -0.020482 269206.000000 0 0 1
-24.679627 26.514914 -13.055915 38.504306 -0.821232 1.916732 0.056457 -0.019766 -27791.800000 0 0 1
-24.659227 27.657914 -12.188815 39.007754 -0.842653 1.888590 0.065253 -0.020515 -316762.000000 0 0 1
-23.269927 28.118114 -11.750115 38.342966 -0.879464 1.882255 0.079426 -0.022694 -857095.000000 0 0 1
-22.507927 27.158414 -11.140415 36.990473 -0.878761 1.876716 0.081956 -0.025929 -88358.900000 0 0 1
-21.417227 27.800914 -10.471115 36.622844 -0.914380 1.860760 0.081658 -0.024943 279676.000000 0 0 1
-20.378627 26.824714 -9.884015 35.107655 -0.921119 1.856189 0.083134 -0.022157 118799.000000 0 0 1
-19.727527 26.096614 -10.907415 34.484493 -0.923503 1.892622 0.070440 -0.017588 -84782.900000 0 0 1
-18.909527 25.072414 -10.420615 33.087541 -0.924615 1.891191 0.063480 -0.006682 -147873.000000 0 0 1
-18.337127 23.952814 -11.354815 32.232272 -0.917416 1.930803 0.063756 -0.012056 18018.400000 0 0 1
-17.973027 22.812614 -10.694615 30.948665 -0.903505 1.923632 0.039282 -0.005350 124578.000000 0 0 1
-17.372527 21.842514 -11.530715 30.196978 -0.898895 1.962593 0.065098 -0.004295 -207697.000000 0 0 1
-17.202427 20.466214 -10.901115 28.872543 -0.871827 1.957956 0.053214 -0.002108 -781080.000000 0 0 1
-18.325427 19.674714 -10.657715 28.922354 -0.820891 1.948185 0.036626 0.005884 -482725.000000 0 0 1
-17.990927 18.311114 -10.413315 27.702120 -0.794218 1.956168 0.063000 -0.009280 -174437.000000 0 0 1
-19.172827 17.293014 -10.301615 27.798721 -0.733894 1.950428 0.054648 -0.003939 527704.000000 0 0 1
-19.768327 16.887114 -11.557015 28.452170 -0.706957 1.989078 0.039744 -0.004691 312191.000000 0 0 1
-20.605127 17.745614 -12.296215 29.844178 -0.710974 1.995459 0.036337 0.004945 -710776.000000 0 0 1
-21.242727 17.141114 -13.512015 30.457278 -0.678944 2.030451 0.051076 -0.002620 -838068.000000 0 0 1
-20.395027 16.839314 -14.567815 30.195047 -0.690191 2.074254 0.071850 -0.006912 -263905.000000 0 0 1
-21.108527 16.524714 -15.747715 31.090619 -0.664193 2.101929 0.073645 -0.012143 3800.420000 0 0 1
-20.138927 16.167714 -16.886715 30.856644 -0.676451 2.149887 0.096960 -0.026473 -144985.000000 0 0 1
-19.492727 17.353914 -17.342515 31.335085 -0.727417 2.157301 0.072187 -0.022446 -173162.000000 0 0 1
-18.729527 17.001414 -18.449415 31.308532 -0.737071 2.200961 0.075671 -0.020012 -258358.000000 0 0 1
-17.924027 18.255914 -18.967215 31.848146 -0.794571 2.208748 0.055679 -0.008658 -322492.000000 0 0 1
-16.837127 18.592414 -18.156715 30.965029 -0.834901 2.197357 0.061375 -0.008678 18945.200000 0 0 1
-16.070427 19.654014 -18.682515 31.521029 -0.885376 2.205203 0.073281 -0.007771 25900.800000 0 0 1
33.600085 30.069314 2.070085 45.137730 0.730000 1.524919 0.069335 -0.019182 -148825.000000 0 0 1
34.893105 30.184114 1.529985 46.162218 0.713164 1.537647 0.079005 -0.021214 -139472.000000 0 0 1
34.922395 30.935114 0.339785 46.654801 0.724928 1.563513 0.072710 -0.019789 -161750.000000 0 0 1
36.247725 30.852514 -0.407015 47.601900 0.705166 1.579347 0.054162 -0.013628 42336.900000 0 0 1
-35.854839 31.603914 0.073085 47.795211 -0.722466 1.569267 0.031251 -0.001767 703723.000000 0 0 1
-34.695639 31.371514 -0.731815 46.781351 -0.735126 1.586440 0.051479 -0.006811 264529.000000 0 0 1
-33.550397 32.340314 -0.382815 46.601197 -0.767035 1.579011 0.034510 0.000548 -192532.000000 0 0 1
-33.116097 32.225914 0.942385 46.217675 -0.771776 1.550405 0.028167 0.003777 -112719.000000 0 0 1
-32.735257 33.495514 1.446485 46.857644 -0.796877 1.539922 0.012815 0.002130 -121979.000000 0 0 1
-32.194847 33.440414 2.865185 46.507835 -0.804373 1.509151 0.023942 -0.003967 -305125.000000 0 0 1
-32.041237 -33.504379 3.394785 46.483425 0.807717 1.497699 0.026967 -0.004239 185872.000000 0 0 1
-31.361297 -33.623179 4.644085 46.212732 0.820191 1.470133 0.053828 -0.007403 -201181.000000 0 0 1
-31.112377 -32.431479 5.615885 45.291489 0.806154 1.446482 0.065529 -0.004344 -28963.100000 0 0 1
-32.286037 -31.848279 6.141585 45.764835 0.778573 1.436191 0.056835 -0.000115 -199299.000000 0 0 1
-32.832357 -32.546579 7.184285 46.785226 0.781027 1.416627 0.048744 -0.012073 -173352.000000 0 0 1
-33.967067 -31.771379 7.990285 47.191385 0.752010 1.400660 0.053848 -0.009566 1587060.000000 0 0 1
-35.238632 -31.516779 7.399285 47.852042 0.729702 1.415545 0.031185 -0.006724 744477.000000 0 0 1
-36.049587 -32.646079 7.060485 49.144579 0.735894 1.426630 0.016038 -0.005823 252077.000000 0 0 1
35.620705 -32.429379 7.006685 48.678464 -0.738536 1.426357 0.019696 0.003033 677447.000000 0 0 1
34.959045 -32.387479 8.258185 48.366117 -0.747233 1.399212 0.016467 0.005286 -1228450.000000 0 0 1
33.597765 -32.321279 8.161885 47.329602 -0.766036 1.397482 0.000816 0.015929 -1295560.000000 0 0 1
32.905155 -32.472779 9.522185 47.200663 -0.778785 1.367664 -0.001572 0.007153 -420938.000000 0 0 1
31.535635 -32.163979 9.467185 46.028745 -0.795262 1.363638 0.007377 0.001184 140060.000000 0 0 1
30.890735 -32.148879 10.762485 45.865227 -0.805353 1.333933 0.014645 0.006959 225397.000000 0 0 1
31.119065 -30.800979 11.610885 45.298004 -0.780261 1.311581 0.010331 0.003470 50414.300000 0 0 1
30.418455 -29.618479 11.101585 43.883731 -0.772074 1.315040 0.015908 -0.005862 679751.000000 0 0 1
30.894305 -29.064279 9.847485 43.544958 -0.754886 1.342678 0.020746 -0.007280 -241028.000000 0 0 1
30.103565 -27.851979 9.433885 42.082723 -0.746567 1.344700 0.023404 -0.013970 -296172.000000 0 0 1
30.557065 -27.387279 8.194785 41.844376 -0.730749 1.373683 0.031737 -0.019509 1538.870000 0 0 1
29.821905 -26.255079 7.765385 40.484273 -0.721878 1.377788 0.021144 -0.017848 -93412.700000 0 0 1
29.887745 -25.892579 6.315985 40.044907 -0.713897 1.412412 0.017340 -0.010293 -385587.000000 0 0 1
31.156495 -25.485979 5.931885 40.687216 -0.685620 1.424482 0.039885 -0.012909 -853612.000000 0 0 1
31.114615 -25.000979 4.611085 40.179974 -0.676879 1.455782 0.039370 -0.008221 768482.000000 0 0 1
32.526535 -24.493979 4.119785 40.925580 -0.645448 1.469960 0.055166 -0.009856 1366060.000000 0 0 1
33.472225 -25.556079 3.991685 42.301732 -0.652086 1.476294 0.050671 -0.009025 85562.600000 0 0 1
34.775695 -25.105479 3.669685 43.047655 -0.625290 1.485446 0.058873 -0.013600 545052.000000 0 0 1
35.844845 -26.236079 3.709085 44.575128 -0.631839 1.487490 0.060868 -0.014292 71229.300000 0 0 1
36.238825 -26.749679 4.994385 45.318226 -0.635874 1.460365 0.041698 -0.005352 43828.400000 0 0 1
-36.439157 -28.044179 4.720785 46.223089 0.655938 1.468487 0.039447 -0.007684 -936935.000000 0 0 1
36.019285 -29.080579 5.649585 46.636753 -0.679213 1.449358 0.029063 -0.003822 22359.400000 0 0 1
34.858785 -29.609379 5.074285 46.017373 -0.704151 1.460303 0.006551 -0.002762 -490736.000000 0 0 1
33.782315 -28.715779 5.236685 44.645981 -0.704508 1.453232 0.012000 -0.006027 -1026590.000000 0 0 1
32.463625 -29.238879 5.950385 44.093152 -0.733183 1.435433 0.024843 -0.006741 943138.000000 0 0 1
31.630475 -30.123079 5.235585 43.992024 -0.760993 1.451501 0.003734 -0.005948 -381205.000000 0 0 1
30.915475 -29.422979 4.260085 42.890869 -0.760668 1.471308 0.022182 -0.004872 -1508980.000000 0 0 1
29.511245 -29.985179 4.111485 42.272081 -0.793364 1.473380 0.026741 -0.008814 -435805.000000 0 0 1
29.593615 -31.329479 3.571885 43.244383 -0.813883 1.488104 0.032342 -0.003861 -818123.000000 0 0 1
28.336395 -31.926379 3.464785 42.828141 -0.844900 1.489808 0.050315 -0.010278 -471867.000000 0 0 1
28.374445 -33.370479 2.920485 43.900196 -0.866136 1.504222 0.051313 -0.016820 -217565.000000 0 0 1
28.231785 -33.585979 1.509485 43.901369 -0.871795 1.536406 0.054227 -0.022898 188007.000000 0 0 1
28.540865 33.349614 1.050885 43.907654 0.862940 1.546860 0.048259 -0.022529 -209041.000000 0 0 1
28.152885 33.170614 -0.416115 43.509168 0.867040 1.580360 0.049269 -0.034156 146838.000000 0 0 1
29.024915 33.885314 -1.332515 44.636709 0.862504 1.600653 0.053480 -0.026961 643589.000000 0 0 1
28.660315 33.597714 -2.670715 44.241980 0.864538 1.631199 0.057931 -0.028345 -304472.000000 0 0 1
29.643165 -34.074479 -3.696615 45.315034 -0.854832 1.652463 0.049501 -0.014722 -114621.000000 0 0 1
29.843565 -32.685279 -3.621315 44.408105 -0.830813 1.652433 0.033347 -0.026179 -621429.000000 0 0 1
30.747825 -32.312479 -4.573415 44.837943 -0.810205 1.672973 0.045066 -0.031572 -812263.000000 0 0 1
30.890165 -30.788479 -4.568215 43.852039 -0.783750 1.675159 0.035890 -0.013348 223189.000000 0 0 1
29.666685 -30.105379 -4.851315 42.543875 -0.792737 1.685076 0.015069 -0.023793 326562.000000 0 0 1
29.621335 -28.732979 -4.460715 41.507897 -0.770176 1.678471 0.010817 -0.026973 -433302.000000 0 0 1
30.540105 -27.718779 -5.178815 41.567401 -0.737009 1.695709 0.047802 -0.031113 -273812.000000 0 0 1
31.905075 -27.895279 -4.886315 42.660948 -0.718445 1.685587 0.065838 -0.040012 524716.000000 0 0 1
32.861575 -27.228379 -5.786115 43.066772 -0.691925 1.705556 0.073356 -0.039273 782507.000000 0 0 1
33.070235 -27.999979 -7.143015 43.916534 -0.702565 1.734172 0.084977 -0.001336 -257083.000000 0 0 1
31.957915 -28.115879 -8.040415 43.318117 -0.721530 1.757492 0.071838 -0.008083 148766.000000 0 0 1
32.173105 -29.055479 -9.090515 44.294097 -0.734524 1.777496 0.060162 -0.008574 162416.000000 0 0 1
32.187545 -30.552379 -8.730415 45.229482 -0.759341 1.765040 0.058020 -0.008765 -170562.000000 0 0 1
33.440135 -31.039379 -8.344615 46.382306 -0.748182 1.751691 0.072941 -0.017208 -805395.000000 0 0 1
33.360395 -32.372779 -7.924315 47.156204 -0.770375 1.739641 0.079666 -0.031007 47827.100000 0 0 1
34.697695 -32.850879 -7.338415 48.342141 -0.758064 1.723187 0.077906 -0.026940 117293.000000 0 0 1
34.692685 34.091514 -6.621615 49.088283 0.776658 1.706101 0.070747 -0.028270 -1746.040000 0 0 1
33.987165 -34.092079 -5.358715 48.436691 -0.786939 1.681657 0.076312 -0.028511 146600.000000 0 0 1
33.892765 32.795814 -4.669715 47.392945 0.768951 1.669488 0.050050 -0.019539 112270.000000 0 0 1
32.824605 32.071014 -5.245815 46.190077 0.773786 1.684612 0.071283 -0.030329 30753.100000 0 0 1
32.885655 30.705114 -4.860115 45.253630 0.751121 1.678401 0.071008 -0.021875 494858.000000 0 0 1
31.668605 29.887114 -5.401215 43.878392 0.756465 1.694204 0.078094 -0.030472 436043.000000 0 0 1
31.632605 29.821214 -6.800415 44.001956 0.755931 1.725966 0.056181 -0.022601 -437283.000000 0 0 1
30.552275 29.031614 -7.182915 42.753601 0.759882 1.739604 0.045520 -0.020462 -294266.000000 0 0 1
30.476725 28.751314 -8.695815 42.791191 0.756275 1.775437 0.040090 -0.011924 345408.000000 0 0 1
31.385925 27.640114 -8.999115 42.778923 0.722023 1.782743 0.036712 -0.009225 539033.000000 0 0 1
31.512925 27.540314 -10.395715 43.123129 0.718228 1.814265 0.028047 -0.007155 -95313.900000 0 0 1
32.663495 28.397214 -10.958515 44.647449 0.715642 1.818776 0.038492 -0.012467 -1781830.000000 0 0 1
33.899675 27.821114 -10.681015 45.136310 0.687230 1.809702 0.040688 -0.013935 -616939.000000 0 0 1
34.999745 28.558114 -11.139015 46.525538 0.684392 1.812562 0.046364 -0.012710 -105156.000000 0 0 1
35.203665 29.963814 -10.390315 47.382347 0.705165 1.791880 0.050623 -0.020399 -1077140.000000 0 0 1
35.948145 29.939614 -9.168915 47.673039 0.694456 1.764331 0.054087 -0.013841 276729.000000 0 0 1
35.865755 31.183214 -8.563015 48.291515 0.715674 1.749058 0.053030 -0.018137 -587031.000000 0 0 1
-36.376367 31.321314 -7.349815 48.562172 -0.710865 1.722729 0.048334 -0.009029 399454.000000 0 0 1
-35.024592 31.560914 -7.663315 47.765466 -0.733427 1.731929 0.039850 -0.010429 -104725.000000 0 0 1
-34.286471 30.429114 -8.093615 46.551044 -0.725864 1.745550 0.042790 -0.008462 71624.700000 0 0 1
-32.778727 30.660514 -8.437015 45.669413 -0.752021 1.756605 0.051164 -0.001402 786426.000000 0 0 1
-32.007757 31.185714 -7.342415 45.287485 -0.772391 1.733644 0.054022 -0.007650 -173662.000000 0 0 1
-30.723287 31.667014 -7.612115 44.773479 -0.800523 1.741640 0.045685 -0.010230 -357516.000000 0 0 1
-30.548127 32.988714 -8.352115 45.729653 -0.823791 1.754468 0.028203 -0.002958 -391090.000000 0 0 1
-30.769087 -33.983379 -7.671315 46.480704 0.834997 1.736598 0.023910 -0.008034 -171428.000000 0 0 1
-29.581297 -33.529379 -7.074415 45.269412 0.847875 1.727713 0.045599 -0.028416 -147895.000000 0 0 1
-29.788597 -32.171679 -6.369615 44.305185 0.823841 1.715063 0.037788 -0.025632 319954.000000 0 0 1
-30.778857 -32.061279 -5.346115 44.764322 0.805803 1.690510 0.035346 -0.032930 -190992.000000 0 0 1
-30.718887 -33.045779 -4.284115 45.321376 0.821874 1.665465 0.046348 -0.031450 4476.780000 0 0 1
-31.976767 -33.049879 -3.368415 46.110241 0.801899 1.643913 0.041107 -0.034419 -103539.000000 0 0 1
-32.130177 -31.794379 -2.737115 45.284904 0.780145 1.631275 0.043834 -0.027223 164436.000000 0 0 1
-33.134667 -31.859079 -1.724915 45.998721 0.765774 1.608304 0.046834 -0.022695 730164.000000 0 0 1
-34.070368 -30.594779 -1.598615 45.819057 0.731702 1.605693 0.067615 -0.014099 943045.000000 0 0 1
-35.075439 -30.635379 -0.576815 46.574087 0.717931 1.583182 0.067337 -0.008066 124763.000000 0 0 1
-35.592973 -29.330479 -0.351715 46.122233 0.689236 1.578422 0.084090 -0.015730 -61060.800000 0 0 1
-36.600107 -29.171479 0.809585 46.810238 0.672929 1.553500 0.074930 -0.009479 -773811.000000 0 0 1
35.439985 -29.884979 0.515085 46.361297 -0.700566 1.559686 0.043976 -0.002171 -379956.000000 0 0 1
34.445935 -29.727779 1.513585 45.525314 -0.712009 1.537543 0.038867 0.003649 169917.000000 0 0 1
33.576315 -28.450279 1.514685 44.035004 -0.702943 1.536392 0.028697 0.001185 -44468.500000 0 0 1
32.507285 -28.593679 0.540585 43.296816 -0.721434 1.558310 0.024252 -0.004427 922071.000000 0 0 1
31.758325 -27.386379 0.342785 41.937125 -0.711613 1.562622 0.028722 -0.002909 1001700.000000 0 0 1
30.387835 -27.497579 -0.437415 40.984493 -0.735509 1.581469 0.017230 -0.003084 1241930.000000 0 0 1
29.320865 -28.101579 0.323585 40.614241 -0.764168 1.562829 0.010857 0.006540 525129.000000 0 0 1
29.179475 -29.547379 0.402485 41.528922 -0.791663 1.561104 0.018043 -0.003282 -440000.000000 0 0 1
28.706005 -30.209579 -0.921815 41.683367 -0.810913 1.592913 0.019047 -0.004678 -962459.000000 0 0 1
27.364085 -29.995479 -1.189615 40.619418 -0.831241 1.600087 0.025640 0.000050 -1027070.000000 0 0 1
27.112185 -30.353179 -2.527515 40.777131 -0.841738 1.632820 0.018472 -0.009283 76541.300000 0 0 1
25.584185 -30.539279 -2.718715 39.932311 -0.873459 1.638932 0.011912 -0.009377 293035.000000 0 0 1
24.881685 -29.307979 -2.708715 38.540797 -0.866899 1.641136 0.024602 0.001261 91924.100000 0 0 1
23.540885 -29.566279 -3.102415 37.920484 -0.898372 1.652702 0.032308 -0.000190 300734.000000 0 0 1
22.684785 -28.299879 -3.305415 36.419890 -0.895089 1.661680 0.031326 0.001383 25440.500000 0 0 1
22.762385 -27.722679 -4.587615 36.162402 -0.883337 1.698001 0.038270 -0.004151 -32179.900000 0 0 1
21.982685 -26.576779 -4.543915 34.788084 -0.879725 1.701788 0.050233 -0.009429 -334087.000000 0 0 1
21.566185 -25.957579 -5.876015 34.255274 -0.877541 1.743185 0.065107 -0.030626 -560158.000000 0 0 1
20.347685 -26.430079 -6.353215 33.954980 -0.914700 1.759013 0.063474 -0.027464 -866366.000000 0 0 1
19.852885 -25.640379 -7.381515 33.257373 -0.911935 1.794611 0.088401 -0.028089 151127.000000 0 0 1
18.373685 -25.990079 -7.719015 32.751484 -0.955421 1.808719 0.082265 -0.023469 656499.000000 0 0 1
17.528685 -25.386979 -6.742615 31.578732 -0.966502 1.785971 0.069550 -0.017790 -434995.000000 0 0 1
16.174385 -25.707879 -6.794715 31.123527 -1.009211 1.790883 0.070149 -0.017781 301486.000000 0 0 1
15.256885 -24.936579 -5.737115 29.791274 -1.021725 1.764584 0.046717 -0.003439 610164.000000 0 0 1
15.584885 -25.260479 -4.430615 30.010178 -1.017994 1.718975 0.037675 0.001357 199607.000000 0 0 1
14.832485 -24.374679 -3.634215 28.763433 -1.024135 1.697483 0.039785 0.004081 103209.000000 0 0 1
14.886985 -24.742779 -2.122715 28.953987 -1.029150 1.644176 0.043112 0.001530 408339.000000 0 0 1
14.149085 -25.953579 -1.856915 29.618119 -1.071670 1.633533 0.047566 0.002987 83353.900000 0 0 1
14.989985 -26.863679 -1.267915 30.789032 -1.061830 1.611989 0.052337 0.001315 -662235.000000 0 0 1
14.477485 -28.327379 -1.336815 31.840619 -1.098326 1.612793 0.048204 0.002020 447679.000000 0 0 1
13.339085 -28.596779 -0.502615 31.558827 -1.134344 1.586723 0.063545 -0.009594 224107.000000 0 0 1
12.685185 -29.780379 -0.901615 32.382060 -1.168115 1.598643 0.063503 -0.012627 -281524.000000 0 0 1
13.318185 -31.162879 -0.633615 33.895435 -1.166917 1.589491 0.055784 -0.013648 4096.410000 0 0 1
14.399885 -31.490379 -1.497015 34.658934 -1.141906 1.614003 0.042216 -0.006109 -10519.400000 0 0 1
14.963185 -32.767779 -1.300715 36.046027 -1.142432 1.606889 0.039442 -0.006742 311205.000000 0 0 1
16.369985 -32.954679 -1.970115 36.849269 -1.109758 1.624286 0.027602 -0.001202 522996.000000 0 0 1
17.290385 -32.093579 -1.342315 36.479542 -1.076632 1.607601 0.033257 0.017362 -6596.650000 0 0 1
18.544685 -31.988079 -2.003115 37.029110 -1.045409 1.624918 0.020518 0.014210 367894.000000 0 0 1
19.484185 -30.921579 -1.303815 36.571539 -1.008526 1.606455 0.022747 0.014880 263914.000000 0 0 1
19.059285 -29.562779 -1.519915 35.206880 -0.998152 1.613981 0.025644 0.007870 184851.000000 0 0 1
19.344485 -28.673879 -0.438415 34.591800 -0.977295 1.583471 0.023265 0.014524 86889.900000 0 0 1
18.664585 -27.257279 -0.645615 33.041531 -0.970375 1.590337 0.017295 0.017625 43182.700000 0 0 1
19.225385 -26.518379 -1.704915 32.798576 -0.943499 1.622801 0.025611 0.007436 206805.000000 0 0 1
18.438985 -26.642179 -2.867515 32.527289 -0.965394 1.659068 0.040906 0.008536 -109692.000000 0 0 1
32.638405 -28.851379 14.298385 45.848788 -0.723888 1.253647 0.006525 -0.006405 128928.000000 0 0 1
33.450135 -29.181779 15.399785 46.985542 -0.717354 1.236869 0.016920 -0.001160 467347.000000 0 0 1
32.691365 -30.084279 16.242985 47.303528 -0.743892 1.220285 0.013023 0.008290 117452.000000 0 0 1
33.445665 -30.508079 17.472785 48.524773 -0.739497 1.202443 0.018327 0.010443 -95509.900000 0 0 1
32.628715 -31.024179 18.556985 48.697992 -0.760196 1.179851 0.024734 -0.000901 685463.000000 0 0 1
33.385975 -31.316479 19.739485 49.849699 -0.753424 1.163661 0.020618 -0.004435 240566.000000 0 0 1
34.206315 -32.640079 19.727585 51.231088 -0.761972 1.175512 0.016203 0.000713 -85719.100000 0 0 1
35.212545 -32.655379 18.753885 51.555846 -0.747737 1.198497 0.010478 0.015084 -582264.000000 0 0 1
35.930105 -33.840279 18.691485 52.777917 -0.755454 1.208788 0.037582 0.010527 -466083.000000 0 0 1
-36.191797 -33.778779 17.639485 52.554766 0.750926 1.228512 0.039232 0.016278 -595586.000000 0 0 1
-35.005209 -33.142279 17.996385 51.455273 0.758068 1.213494 0.051565 0.010945 791593.000000 0 0 1
-33.988737 -33.153379 16.929785 50.408316 0.772957 1.228286 0.054777 0.017557 404094.000000 0 0 1
-32.724737 -32.402579 17.316985 49.200747 0.780452 1.211126 0.046852 0.004421 -283348.000000 0 0 1
-31.612877 -32.442079 16.456285 48.194105 0.798343 1.222328 0.050080 -0.004240 -48108.300000 0 0 1
-31.746487 -31.528079 15.351085 47.302378 0.781946 1.240281 0.055685 -0.002397 -1025130.000000 0 0 1
-30.520647 -31.373479 14.494285 46.107368 0.799176 1.251015 0.048934 -0.010406 -720355.000000 0 0 1
-29.458667 -30.671679 15.108085 45.131133 0.805568 1.229446 0.043449 -0.011043 -284691.000000 0 0 1
-28.469037 -30.503279 14.103385 44.043632 0.819879 1.244841 0.042503 -0.003269 -253912.000000 0 0 1
-27.098087 -30.157179 14.679185 43.118908 0.838776 1.223417 0.042366 -0.013777 -595468.000000 0 0 1
-26.078697 -30.037479 13.738885 42.084504 0.855828 1.238241 0.048280 -0.006987 -13063.900000 0 0 1
-24.856327 -29.856279 14.484985 41.461418 0.876531 1.213908 0.047086 -0.013048 846288.000000 0 0 1
-23.552027 -30.032079 13.660785 40.536906 0.905746 1.227072 0.070630 -0.009652 324143.000000 0 0 1
-23.169627 -31.326379 13.222485 41.146175 0.933971 1.243637 0.071701 -0.017712 3895.780000 0 0 1
-21.826027 -31.346179 12.807685 40.286414 0.962565 1.247266 0.080740 -0.025325 76257.800000 0 0 1
-21.451127 -32.760279 12.249785 41.029793 0.991061 1.267615 0.076137 -0.017129 -91021.600000 0 0 1
-22.107827 -33.148779 11.066285 41.352874 0.982613 1.299889 0.061436 -0.011793 -138402.000000 0 0 1
-22.346627 33.670214 11.089985 41.905164 -0.984856 1.302961 0.073765 -0.006857 22885.900000 0 0 1
-23.298527 33.363914 9.939085 41.889826 -0.961202 1.331244 0.059657 -0.004505 1160.950000 0 0 1
-22.667727 33.641714 8.705185 41.489408 -0.977873 1.359408 0.059236 -0.004669 105890.000000 0 0 1
-23.679227 33.450814 7.743185 41.708748 -0.954800 1.384064 0.047616 -0.007498 -427895.000000 0 0 1
-23.330027 33.792914 6.304785 41.545174 -0.966554 1.418450 0.043898 -0.008874 -891826.000000 0 0 1
-22.579827 32.905114 5.505285 40.285274 -0.969385 1.433710 0.045332 -0.016724 311773.000000 0 0 1
-21.248327 32.587714 5.915685 39.350296 -0.992992 1.419890 0.052724 -0.018604 242504.000000 0 0 1
-20.249227 33.768814 5.608485 39.772089 -1.030639 1.429309 0.067093 -0.017227 -795174.000000 0 0 1
-20.331827 -33.339079 6.464285 39.581111 1.023166 1.406744 0.081972 -0.014677 -39671.400000 0 0 1
-19.782027 -33.535179 7.755885 39.700007 1.037845 1.374169 0.080208 -0.013668 -339552.000000 0 0 1
-19.745327 -32.205879 8.575585 38.738059 1.020802 1.347573 0.082295 -0.014361 145476.000000 0 0 1
-18.745827 -31.281079 8.147385 37.366988 1.030913 1.350994 0.094301 -0.026077 -15056.600000 0 0 1
-18.660127 -30.039579 8.870085 36.458950 1.014945 1.325040 0.094249 -0.021284 121034.000000 0 0 1
-18.151527 -30.090379 10.324885 36.626658 1.028003 1.285027 0.097898 -0.017271 -99840.300000 0 0 1
-16.835627 -30.588579 10.271485 36.395094 1.067654 1.284687 0.098913 -0.026183 -437533.000000 0 0 1
-16.174827 -30.275079 11.490985 36.197350 1.080116 1.247753 0.117540 -0.025332 -85602.900000 0 0 1
-14.813727 -30.954979 11.697585 36.255906 1.124450 1.242280 0.109455 -0.023694 -36864.200000 0 0 1
-13.817027 -30.337879 10.917985 35.078476 1.143429 1.254294 0.083699 -0.020835 -184864.000000 0 0 1
-12.857527 -31.260979 10.429385 35.374240 1.180590 1.271519 0.077080 -0.011924 -370982.000000 0 0 1
-11.698027 -30.676579 9.640185 34.217386 1.206484 1.285196 0.065834 -0.007970 -822483.000000 0 0 1
-10.860927 -30.025679 10.518485 33.617549 1.223718 1.252565 0.059942 -0.010929 -378409.000000 0 0 1
-9.874127 -29.271179 9.778185 32.402364 1.245451 1.264244 0.064799 -0.010086 842940.000000 0 0 1
-8.869827 -28.538579 10.710285 31.746409 1.269460 1.226675 0.058673 -0.002466 135536.000000 0 0 1
-9.424727 -27.368579 11.242985 31.052686 1.239152 1.200318 0.059014 -0.014542 -410355.000000 0 0 1
-8.894627 -27.056579 12.492385 31.100362 1.253184 1.157446 0.054462 -0.017482 -75808.200000 0 0 1
-9.343527 -25.733179 13.189885 30.388666 1.222506 1.121824 0.063206 -0.031447 58902.300000 0 0 1
-8.798627 -24.542079 12.645485 28.976503 1.226559 1.119197 0.053548 -0.029972 176071.000000 0 0 1
-9.478627 -24.039879 11.461185 28.268691 1.195224 1.153339 0.055269 -0.023641 349037.000000 0 0 1
-8.807127 -22.764479 10.934285 26.745945 1.201651 1.149635 0.051223 -0.026779 702492.000000 0 0 1
-7.517827 -22.863879 10.309185 26.183085 1.253124 1.166106 0.033823 -0.026941 357785.000000 0 0 1
-7.127427 -21.615079 9.846085 24.798331 1.252280 1.162500 0.039310 -0.019414 -269848.000000 0 1 0
-5.891527 -21.777979 8.957385 24.273961 1.306594 1.192850 0.026426 -0.020555 -373251.000000 0 1 0
-4.740527 -22.191379 9.628685 24.650384 1.360339 1.169502 0.007290 -0.022888 -334087.000000 0 1 0
-3.828127 -22.834779 8.712485 24.738413 1.404696 1.210892 0.016352 -0.016742 437891.000000 0 1 0
-2.716827 -23.586779 9.458085 25.557242 1.456117 1.191707 0.036742 -0.013408 314850.000000 0 0 1
-1.735227 -22.786379 10.130485 24.997136 1.494791 1.153527 0.030688 -0.014823 92140.500000 0 1 0
-0.879927 -23.599079 10.915685 26.016206 1.533527 1.137822 0.050954 -0.020314 292046.000000 0 0 1
0.038573 -22.782379 11.864385 25.686609 -1.569103 1.090672 0.049857 -0.020720 326306.000000 0 0 1
-0.525627 -22.485179 13.200485 26.078964 1.547424 1.040054 0.045357 -0.025343 392832.000000 0 0 1
0.468073 -22.351279 14.220785 26.495839 -1.549858 1.004254 0.069212 -0.024437 184490.000000 0 0 1
1.171973 -20.922879 14.249485 25.341432 -1.514841 0.973632 0.059538 -0.027949 -451103.000000 0 0 1
2.128773 -20.815579 13.257285 24.770458 -1.468882 1.006045 0.069554 -0.031778 -808834.000000 0 1 0
2.607273 -19.474079 13.235485 23.689991 -1.437704 0.977985 0.062090 -0.026288 499090.000000 0 1 0
4.103173 -19.463179 12.779585 23.642528 -1.363022 0.999725 0.071734 -0.019913 493852.000000 0 1 0
4.265073 -19.971479 11.500585 23.437454 -1.360399 1.057912 0.072671 -0.016391 -1252620.000000 0 1 0
5.622773 -20.216379 11.368385 23.865408 -1.299523 1.074293 0.093114 -0.016658 -386898.000000 0 1 0
6.090073 -20.993379 10.111285 24.084207 -1.288451 1.137538 0.099841 -0.025840 -239947.000000 0 1 0
6.016373 -20.214679 8.899485 22.891719 -1.281521 1.171506 0.091256 -0.027633 -526158.000000 0 1 0
6.197473 -21.098579 7.831585 23.342931 -1.285094 1.228659 0.088490 -0.026993 524393.000000 0 1 0
7.654273 -21.608479 7.508885 24.122554 -1.230362 1.254256 0.085159 -0.017326 519901.000000 0 1 0
8.453473 -20.658379 6.813185 23.337723 -1.182381 1.274543 0.075079 -0.024894 66943.000000 0 1 0
9.037373 -19.541179 7.497685 22.797962 -1.137614 1.235684 0.078927 -0.022597 251530.000000 0 1 0
10.019773 -19.774479 8.668785 23.802808 -1.101801 1.198032 0.062167 -0.016672 275293.000000 0 1 0
9.338673 -20.144079 9.851985 24.291075 -1.136695 1.153183 0.087310 -0.020631 -510232.000000 0 1 0
10.201573 -19.840479 10.903885 24.831661 -1.095869 1.116186 0.076555 -0.012029 219991.000000 0 1 0
9.532973 -19.950879 12.284285 25.294640 -1.125048 1.063692 0.087812 -0.016263 80631.300000 0 0 1
9.420273 -21.281279 12.815285 26.568137 -1.154067 1.067455 0.073659 -0.015736 -672941.000000 0 0 1
8.687173 -21.290679 13.961485 26.901357 -1.183389 1.025130 0.087262 -0.025275 -360006.000000 0 0 1
8.613773 -22.696579 14.647685 28.352891 -1.208070 1.027897 0.067741 -0.015882 -39200.500000 0 0 1
8.184673 -23.726679 13.738885 28.612954 -1.238622 1.069956 0.076715 -0.016795 -114563.000000 0 0 1
8.126273 -24.916179 14.486785 29.945270 -1.255530 1.065833 0.079518 -0.017082 111589.000000 0 0 1
8.127573 -26.214479 13.616985 30.637862 -1.270153 1.110237 0.089722 -0.027402 18872.500000 0 0 1
9.346473 -26.447379 12.964185 30.901302 -1.231097 1.137863 0.075340 -0.020975 -378190.000000 0 0 1
9.195573 -27.540679 12.091185 31.452254 -1.248544 1.176206 0.071562 -0.020829 798409.000000 0 0 1
10.541273 -28.216479 11.639185 32.291775 -1.213266 1.202059 0.047693 -0.015932 637216.000000 0 0 1
11.295073 -28.979379 12.541085 33.535979 -1.199146 1.187522 0.041324 -0.015623 468300.000000 0 0 1
12.473873 -29.479179 11.911285 34.154036 -1.170501 1.214557 0.051303 -0.009557 808738.000000 0 0 1
13.532673 -30.184079 12.840885 35.483801 -1.149325 1.200512 0.041986 -0.018784 -193823.000000 0 0 1
14.089673 -29.358079 13.812085 35.372155 -1.123337 1.169644 0.040655 -0.017285 337488.000000 0 0 1
15.162873 -29.947479 14.529285 36.576828 -1.102109 1.162304 0.050509 -0.020289 303330.000000 0 0 1
16.569273 -30.117079 13.943385 37.094436 -1.067829 1.185441 0.061384 -0.013781 -721081.000000 0 0 1
17.255873 -28.881679 14.002485 36.441544 -1.032241 1.176406 0.050240 -0.019014 662986.000000 0 0 1
18.556973 -29.000479 13.412185 36.949638 -1.001565 1.199326 0.053175 -0.018302 653585.000000 0 0 1
19.462873 -27.741479 13.508885 36.481270 -0.959011 1.191468 0.032834 -0.017643 334573.000000 0 0 1
20.743373 -27.891379 12.919985 37.082914 -0.931327 1.214924 0.027442 -0.019307 189579.000000 0 0 1
21.409373 -26.659979 12.627385 36.449507 -0.894197 1.217028 0.021084 -0.021422 290831.000000 0 0 1
22.730573 -27.023679 11.884185 37.258449 -0.871471 1.246158 0.028071 -0.023185 972267.000000 0 0 1
23.752873 -27.538479 12.778885 38.546941 -0.859071 1.232888 0.034336 -0.027796 832742.000000 0 0 1
24.802473 -28.225179 12.106385 39.476422 -0.849854 1.259100 0.026097 -0.031629 -972272.000000 0 0 1
25.780973 -28.905279 13.045785 40.870114 -0.842468 1.245910 0.029589 -0.024886 212297.000000 0 0 1
26.754073 -28.013179 13.672485 41.078650 -0.808384 1.231486 0.019626 -0.025080 1055360.000000 0 0 1
27.820973 -27.719479 12.768785 41.296706 -0.783571 1.256449 0.001052 -0.020256 216092.000000 0 0 1
29.076173 -26.902779 13.281685 41.780217 -0.746592 1.247289 0.031256 -0.023988 687606.000000 0 0 1
28.903073 -25.517379 13.536085 40.862573 -0.723265 1.233159 0.046865 -0.025714 -306992.000000 0 0 1
28.284173 -25.176279 14.755185 40.639327 -0.727329 1.199229 0.052736 -0.026069 -344049.000000 0 0 1
29.095073 -25.028679 16.094085 41.617035 -0.710408 1.173726 0.048920 -0.021311 -138641.000000 0 0 1
29.641673 -26.275979 16.583085 42.942456 -0.725280 1.174321 0.056314 -0.024794 102811.000000 0 0 1
30.094273 -26.119079 17.893485 43.681213 -0.714799 1.148739 0.070190 -0.012862 166962.000000 0 0 1
30.532173 -27.497379 18.505685 45.064174 -0.733148 1.147628 0.055636 0.000766 719387.000000 0 0 1
29.337673 -28.229379 18.834585 44.859096 -0.766148 1.137504 0.031961 -0.003468 801143.000000 0 0 1
29.596673 -29.244979 19.781785 46.071150 -0.779421 1.126996 0.056184 -0.022728 -247156.000000 0 0 1
28.337973 -30.016579 20.176585 45.947038 -0.814156 1.116170 0.037562 -0.009582 -2154550.000000 0 0 1
27.445373 -29.193279 20.978585 45.228277 -0.816249 1.088474 0.029997 0.000866 1217580.000000 0 0 1
26.201973 -29.855379 21.343985 45.093821 -0.850479 1.077736 0.033658 -0.003121 1605520.000000 0 0 1
25.404773 -30.537179 20.180485 44.555289 -0.876887 1.100746 0.047691 -0.013999 -2369790.000000 0 0 1
26.062073 -31.705079 19.765285 45.553377 -0.882775 1.121987 0.067647 -0.010204 -452136.000000 0 0 1
25.620173 -32.413679 18.564685 45.295556 -0.901929 1.148499 0.066756 -0.010313 -227826.000000 0 0 1
25.913073 -31.682279 17.225785 44.407002 -0.885233 1.172437 0.058322 -0.004186 332313.000000 0 0 1
27.300573 -31.617879 16.925685 45.072057 -0.858543 1.185833 0.052085 -0.016426 85777.400000 0 0 1
27.509373 -30.424679 16.157485 44.085043 -0.835677 1.195544 0.042880 -0.026909 -650676.000000 0 0 1
28.968173 -30.268579 15.702685 44.742778 -0.807347 1.212206 0.041465 -0.012807 -464229.000000 0 0 1
29.326673 -31.182079 14.648185 45.243177 -0.816052 1.241090 0.078618 -0.009800 305359.000000 0 0 1
29.369873 -32.567379 15.022385 46.356182 -0.836977 1.240774 0.079334 -0.018434 -722962.000000 0 0 1
28.365873 -33.552879 14.332785 46.215226 -0.868974 1.255465 0.079719 -0.017421 90803.900000 0 0 1
28.617673 -33.817079 12.933585 46.150229 -0.868484 1.286742 0.081911 -0.014109 487290.000000 0 0 1
27.870773 33.291214 12.428685 45.161456 0.873792 1.291993 0.075604 -0.025711 -160279.000000 0 0 1
28.294073 32.841314 11.007685 44.724441 0.859641 1.322119 0.074412 -0.028262 402254.000000 0 0 1
29.519273 32.093214 11.025485 44.976918 0.827150 1.323136 0.054109 -0.021490 745239.000000 0 0 1
29.968873 31.581314 9.758185 44.617653 0.811589 1.350307 0.053717 -0.023296 250469.000000 0 0 1
31.482473 31.238814 9.751685 45.410406 0.781513 1.354365 0.034175 -0.012526 255238.000000 0 0 1
31.841073 30.399014 10.845985 45.338608 0.762233 1.329232 0.027551 -0.006191 205636.000000 0 0 1
33.227673 30.092314 10.826985 46.117776 0.735922 1.333816 0.045911 -0.008563 414311.000000 0 0 1
33.633573 29.119114 11.997485 46.076889 0.713581 1.307381 0.053142 -0.009732 -113460.000000 0 0 1
33.251873 27.784614 11.773585 44.903108 0.696063 1.305495 0.045486 -0.017412 82484.800000 0 0 1
33.238573 27.060714 12.982185 44.784173 0.683301 1.276691 0.064104 -0.025876 -56398.700000 0 0 1
32.895773 25.559014 12.729685 43.559614 0.660539 1.274232 0.055539 -0.022188 -259048.000000 0 0 1
33.872473 25.001214 11.911785 43.752666 0.635840 1.295063 0.061793 -0.011316 -461888.000000 0 0 1
33.821373 23.576014 11.852885 42.897606 0.608760 1.290848 0.071010 -0.018775 101526.000000 0 0 1
32.608773 22.838014 11.187485 41.352954 0.610970 1.296846 0.075235 -0.017204 1024820.000000 0 0 1
31.510573 22.613614 12.102385 40.629539 0.622475 1.268334 0.077682 -0.027597 -308058.000000 0 0 1
30.370373 22.353114 11.397885 39.394581 0.634492 1.277273 0.061682 -0.016846 -1965280.000000 0 0 1
29.057073 22.418414 12.092985 38.641158 0.657139 1.252492 0.039194 -0.008167 -908310.000000 0 0 1
28.682373 23.726614 12.513185 39.270988 0.691119 1.246505 0.035939 -0.010837 15273.300000 0 0 1
27.460373 23.610314 13.215685 38.550919 0.710154 1.220889 0.054803 -0.002415 -285467.000000 0 0 1
24.193873 9.235514 25.657306 36.454568 0.364657 0.790041 0.025944 -0.006156 -362166.000000 0 0 1
24.091973 8.036714 26.389056 36.625049 0.321977 0.766245 0.027375 -0.014053 1401480.000000 0 0 1
22.667073 7.793814 26.505646 35.736382 0.331175 0.735196 0.028171 -0.013419 1138710.000000 0 0 1
22.259173 6.510114 27.241686 35.776554 0.284533 0.705265 0.041577 -0.018865 -235771.000000 0 0 1
22.515073 6.538614 28.609036 36.988632 0.282636 0.686523 0.058918 -0.024341 -179641.000000 0 0 1
23.755073 6.023914 29.009746 37.975734 0.248349 0.701458 0.050570 -0.022826 -572487.000000 0 0 1
23.874473 6.080914 30.556516 39.251352 0.249401 0.678551 0.049354 -0.029452 -354479.000000 0 0 1
24.022473 7.403814 31.065956 39.962348 0.298966 0.680305 0.063807 -0.019728 256154.000000 0 0 1
24.028373 7.329914 32.546691 41.114200 0.296086 0.657346 0.063430 -0.012606 -78995.700000 0 0 1
24.213373 8.629014 33.367644 42.120624 0.342342 0.656403 0.079619 -0.014258 392381.000000 0 0 1
25.463073 9.278614 33.130659 42.803053 0.349441 0.685622 0.057502 -0.014769 421033.000000 0 0 1
25.983773 9.933014 -33.894265 43.847947 0.365136 2.454346 0.075885 -0.010188 451612.000000 0 0 1
27.071673 10.996114 33.941319 44.786193 0.385827 0.710781 0.054762 -0.007180 177880.000000 0 0 1
26.517573 12.183914 33.386371 44.342747 0.430698 0.718314 0.035784 -0.008219 445289.000000 0 0 1
26.283273 13.168814 -33.848855 44.832723 0.464474 2.426456 0.042798 -0.016150 -524246.000000 0 0 1
25.899373 14.542514 33.739086 44.950953 0.511630 0.721864 0.041505 -0.018172 -360456.000000 0 0 1
26.927773 15.250914 33.093486 45.308654 0.515320 0.751887 0.034580 -0.019752 170895.000000 0 0 1
26.438873 16.579214 32.800552 45.274281 0.560092 0.760509 0.050275 -0.024649 187645.000000 0 0 1
26.773673 17.644614 33.876065 46.644932 0.582696 0.757940 0.048601 -0.029292 -192055.000000 0 0 1
26.248273 17.430514 -33.001155 45.627523 0.586198 2.379327 0.050215 -0.037058 446611.000000 0 0 1
27.169873 16.740114 -32.147115 45.297576 0.552194 2.359851 0.043980 -0.032186 32336.400000 0 0 1
26.525473 16.277414 -30.817995 43.798445 0.550397 2.351293 0.049041 -0.023287 -424471.000000 0 0 1
25.678573 15.232614 -31.099925 43.111796 0.535407 2.376587 0.054149 -0.022455 -930426.000000 0 0 1
24.865273 14.966614 -30.015585 41.751846 0.541821 2.373021 0.064163 -0.017296 -336563.000000 0 0 1
24.166673 13.611214 -30.281105 41.063835 0.512938 2.400032 0.057754 -0.010207 -819711.000000 0 0 1
23.239673 13.684914 -31.318215 41.330254 0.532188 2.430662 0.058938 -0.015575 309211.000000 0 0 1
22.506173 12.506114 -31.699945 40.838918 0.507190 2.459443 0.049962 -0.006354 123109.000000 0 0 1
21.625473 11.811914 -30.686715 39.355519 0.499924 2.465032 0.065279 -0.009601 -804527.000000 0 0 1
20.490673 12.545814 -30.273945 38.649410 0.549392 2.470747 0.075542 0.000186 514947.000000 0 0 1
19.594773 11.651514 -29.583215 37.348086 0.536457 2.485029 0.073749 0.002088 49535.500000 0 0 1
18.295373 12.291714 -29.065885 36.477837 0.591581 2.492793 0.063343 0.002889 -665656.000000 0 0 1
17.439873 12.495414 -30.136005 36.992747 0.621705 2.522915 0.052578 0.007763 -1290980.000000 0 0 1
16.255373 12.959614 -29.607645 36.177360 0.673063 2.529422 0.048500 -0.001210 -564167.000000 0 0 1
15.019573 12.983414 -30.563915 36.445981 0.712814 2.565520 0.047156 -0.007528 346722.000000 0 0 1
14.349773 11.791114 -30.857435 36.015658 0.687829 2.599786 0.041424 0.000874 863509.000000 0 0 1
13.036773 11.655114 -30.253405 34.943778 0.729500 2.617491 0.039251 -0.003132 648614.000000 0 0 1
12.017873 11.292014 -31.323985 35.399589 0.754269 2.657008 0.035392 -0.005899 -642660.000000 0 0 1
11.709373 12.333914 -32.217525 36.430808 0.811368 2.655893 0.046554 -0.004804 240440.000000 0 0 1
10.848073 11.741614 -33.211645 36.858643 0.824933 2.692991 0.054817 -0.001801 141558.000000 0 0 1
10.439873 12.729514 33.888088 37.675376 0.883900 0.452228 0.064647 -0.008549 -365.867000 0 0 1
11.337573 12.936314 32.800320 37.037140 0.851166 0.482999 0.057160 -0.007958 221307.000000 0 0 1
10.679773 13.384714 31.604866 35.945454 0.897332 0.496521 0.065465 -0.021195 -627779.000000 0 0 1
11.540673 13.503314 30.382776 35.194313 0.863606 0.529051 0.062700 -0.017021 -623144.000000 0 0 1
12.052973 12.247214 30.020196 34.590180 0.793391 0.519874 0.041002 -0.016055 -158184.000000 0 0 1
12.178273 12.150214 28.621276 33.393344 0.784245 0.541192 0.055914 -0.015547 -803431.000000 0 0 1
12.609873 10.824614 28.077456 32.627054 0.709364 0.534433 0.056176 -0.009017 -502269.000000 0 0 1
11.972873 9.679714 28.565736 32.450698 0.679885 0.494342 0.054037 -0.024507 -209521.000000 0 0 1
12.481573 8.489814 28.071196 31.872537 0.597305 0.493389 0.031641 -0.029371 -853619.000000 0 0 1
11.670373 7.284314 28.620686 31.755354 0.558003 0.448065 0.025895 -0.025987 -739746.000000 0 0 1
10.361473 7.343514 28.173956 30.904030 0.616563 0.423492 0.033923 -0.033523 -803108.000000 0 0 1
9.471873 6.272714 28.492496 30.673859 0.584936 0.379405 0.034504 -0.037928 -16012.600000 0 0 1
9.700173 4.975814 27.696016 29.764431 0.473963 0.375001 0.028148 -0.022453 -675351.000000 0 0 1
10.825873 4.256914 28.080186 30.394369 0.374645 0.392746 0.013284 -0.019051 -325956.000000 0 0 1
10.949073 3.038914 27.342376 29.609504 0.270735 0.393866 0.015780 -0.019914 201311.000000 0 0 1
11.698573 1.907914 28.146906 30.540875 0.161666 0.398577 0.003243 -0.019627 -17022.400000 0 0 1
10.859673 1.400414 29.145036 31.134013 0.128248 0.359378 -0.003313 -0.006370 -200733.000000 0 0 1
11.367573 0.284214 29.843126 31.936102 0.024997 0.364047 0.012870 -0.003674 -351097.000000 0 0 1
10.420073 -0.230286 30.924346 32.633512 -0.022097 0.325079 0.026385 -0.003168 -229770.000000 0 0 1
10.331673 0.749014 31.903856 33.543412 0.072370 0.313949 0.008094 -0.008831 -199445.000000 0 0 1
9.019973 0.789914 32.417112 33.657882 0.087351 0.272371 0.024127 -0.006778 -681415.000000 0 0 1
8.933873 2.003614 33.365285 34.598710 0.220621 0.267818 0.025448 -0.015709 -392194.000000 0 0 1
9.034473 3.334914 32.841331 34.224207 0.353616 0.285242 0.008998 -0.021429 180738.000000 0 0 1
10.324573 3.741314 32.411335 34.221175 0.347652 0.326679 0.005531 -0.017938 -583530.000000 0 0 1
10.337973 5.087314 31.765096 33.790172 0.457307 0.347964 0.009079 -0.019368 8118.580000 0 0 1
10.355973 6.202414 32.652207 34.812106 0.539626 0.354110 0.019692 -0.017205 48182.200000 0 0 1
10.463173 7.450914 31.989016 34.471600 0.618806 0.381837 0.027149 -0.025452 -118443.000000 0 0 1
10.474073 8.696714 32.876455 35.583708 0.692951 0.392597 0.047386 -0.025731 881721.000000 0 0 1
9.161473 9.070614 33.347823 35.753124 0.780415 0.368900 0.051838 -0.022226 673475.000000 0 0 1
8.765773 8.459914 -33.651255 35.788488 0.767644 2.794253 0.049834 -0.018208 -1073440.000000 0 0 1
7.305173 8.732714 -33.376335 35.264792 0.874175 2.812851 0.057671 -0.017553 -852033.000000 0 0 1
6.893073 7.899914 -32.317145 33.975299 0.853355 2.827883 0.062830 -0.016518 -865859.000000 0 0 1
5.522973 8.013314 -32.121585 33.563561 0.967339 2.847403 0.065307 -0.022181 -683036.000000 0 0 1
5.143373 7.150514 -30.950435 32.179397 0.947234 2.864333 0.069810 -0.018260 -661886.000000 0 0 1
5.642273 7.716614 -29.790025 31.286211 0.939446 2.831081 0.063815 -0.022070 87331.900000 0 0 1
5.050673 7.262814 -28.608975 29.945471 0.963154 2.841703 0.055579 -0.019563 -570353.000000 0 0 1
3.599973 7.576614 -28.277565 29.495518 1.127232 2.853217 0.053544 -0.021447 -1129320.000000 0 0 1
2.680873 6.887814 -29.014975 29.941574 1.199618 2.892162 0.058813 -0.017383 -1440630.000000 0 0 1
1.375073 7.059014 -28.570775 29.462004 1.378409 2.895000 0.063626 -0.008681 -721261.000000 0 0 1
0.394673 6.367314 -29.530645 30.211876 1.508891 2.928831 0.076802 -0.018358 -461395.000000 0 0 1
0.270773 7.072914 -30.751995 31.556055 1.532532 2.915366 0.084031 -0.020247 414022.000000 0 0 1
-0.530327 6.450514 -31.771855 32.424391 -1.488766 2.940631 0.107409 -0.027338 -206348.000000 0 0 1
-0.441727 7.178414 -33.174245 33.944886 -1.509338 2.928102 0.106791 -0.030957 -112455.000000 0 0 1
0.827873 7.276514 -33.763115 34.548241 1.457510 2.927994 0.076495 -0.028367 68105.400000 0 0 1
1.640473 6.187614 33.991504 34.589016 1.311637 0.186143 0.085557 -0.026060 333119.000000 0 0 1
1.565773 5.952414 32.488220 33.066105 1.313575 0.187231 0.107373 -0.033966 -160572.000000 0 0 1
0.326973 5.362314 32.187330 32.632583 1.509896 0.165382 0.116999 -0.030396 -433505.000000 0 0 1
0.041573 5.398714 30.785986 31.255795 1.563096 0.173603 0.135313 -0.039835 110787.000000 0 0 1
0.694873 4.418814 29.757486 30.091805 1.414820 0.149202 0.146310 -0.049055 106587.000000 0 0 1
0.312973 4.744214 28.413996 28.809038 1.504922 0.165794 0.131004 -0.041616 372043.000000 0 0 1
0.994273 3.878014 27.500956 27.790828 1.319815 0.144559 0.122104 -0.039662 210335.000000 0 0 1
1.080273 4.482814 26.074276 26.478868 1.334324 0.175037 0.097263 -0.037057 267124.000000 0 0 1
2.002173 5.576914 25.954726 26.622518 1.226117 0.224452 0.091267 -0.028379 403911.000000 0 0 1
2.206473 6.004814 24.587646 25.406271 1.218661 0.254543 0.067729 -0.030020 -142855.000000 0 0 1
3.084073 7.326914 24.411786 25.673536 1.172383 0.314814 0.064800 -0.030514 764095.000000 0 0 1
4.462673 7.218014 24.708976 26.125632 1.017052 0.330823 0.064141 -0.023564 8872.870000 0 0 1
5.206273 6.782314 23.595866 25.097210 0.916110 0.347641 0.054298 -0.024675 1420710.000000 0 0 1
6.806973 6.717314 23.772096 25.623616 0.778769 0.382481 0.070361 -0.021022 2014950.000000 0 0 1
7.381073 5.755514 24.663466 26.379778 0.662281 0.362711 0.070276 -0.019328 126217.000000 0 0 1
7.022273 4.369614 24.600506 25.953626 0.556620 0.324332 0.073917 -0.017425 -618736.000000 0 0 1
7.160073 3.670314 23.160386 24.518183 0.473683 0.334359 0.061904 -0.017443 287407.000000 0 1 0
6.163473 4.001114 22.207386 23.391564 0.575788 0.319553 0.055058 -0.019960 -240539.000000 0 1 0
4.970773 3.280514 22.327686 23.108351 0.583346 0.260671 0.053044 -0.014635 110004.000000 0 1 0
3.781873 3.531114 21.365186 21.982777 0.751122 0.237600 0.037107 -0.016228 433995.000000 0 1 0
3.245373 4.834914 21.474586 22.250094 0.979636 0.264796 0.027547 -0.022958 25955.500000 0 1 0
2.027473 4.935314 20.753386 21.428275 1.181006 0.251643 0.019764 -0.017369 -30377.100000 0 1 0
1.427973 6.346314 20.809086 21.802129 1.349474 0.302979 0.017288 -0.022216 -238059.000000 0 1 0
2.309673 7.330914 20.296686 21.703279 1.265581 0.362002 0.010687 -0.013715 -22532.300000 0 1 0
1.803073 8.591214 20.673486 22.460032 1.363925 0.401549 0.016452 -0.006737 323283.000000 0 1 0
2.780873 9.704914 20.276686 22.650885 1.291731 0.461955 0.015658 -0.014525 -536110.000000 0 1 0
2.774373 9.899114 18.883086 21.500245 1.297542 0.498558 0.006122 -0.007016 247081.000000 0 1 0
3.687873 10.929814 18.483686 21.787792 1.245378 0.557934 0.001685 -0.013105 168070.000000 0 1 0
5.157673 10.504614 18.430586 21.831972 1.114382 0.565722 0.012318 -0.017635 -989942.000000 0 1 0
5.553473 9.693614 17.353186 20.638320 1.050542 0.571994 0.013468 -0.010297 294396.000000 0 1 0
6.916673 9.309814 17.528986 21.018524 0.931826 0.584518 0.019785 -0.009582 526412.000000 0 1 0
7.134373 7.895214 18.081086 20.979975 0.835978 0.531938 0.034382 -0.009367 -523170.000000 0 1 0
6.667873 7.721014 19.385386 21.905884 0.858459 0.484432 0.042549 -0.013366 -222580.000000 0 1 0
6.792873 6.385114 19.868286 21.946790 0.754466 0.438726 0.042642 -0.017408 5474.250000 0 1 0
8.205073 5.858214 20.197486 22.573886 0.620043 0.462975 0.056005 -0.010090 -51080.000000 0 1 0
9.018073 5.787914 19.017686 21.828833 0.570598 0.513117 0.049917 -0.014494 -408637.000000 0 1 0
10.309373 5.282414 19.245786 22.463021 0.473510 0.541811 0.055340 -0.014126 -27953.100000 0 1 0
10.432473 3.762814 19.124186 22.107233 0.346160 0.525517 0.061705 -0.015001 -294060.000000 0 1 0
9.824773 3.096014 20.222886 22.695298 0.305273 0.471120 0.062363 -0.018041 253219.000000 0 1 0
10.182773 1.781314 20.134686 22.633327 0.173182 0.474320 0.063928 -0.032375 260760.000000 0 1 0
9.240073 0.903114 21.039986 22.997295 0.097429 0.415562 0.063552 -0.028404 256406.000000 0 1 0
9.425173 0.986614 22.413886 24.334945 0.104299 0.400009 0.056236 -0.020290 324773.000000 0 1 0
8.610473 0.002514 23.044886 24.600955 0.000292 0.357577 0.050216 -0.029296 -465284.000000 0 1 0
8.885673 0.011514 24.549886 26.108470 0.001296 0.347275 0.049528 -0.008649 -1069060.000000 0 0 1
10.141973 -0.374286 24.937916 26.923955 -0.036888 0.386497 0.047341 -0.014846 -973451.000000 0 0 1
10.350673 -1.777486 24.757666 26.893083 -0.170068 0.401192 0.054921 -0.016405 -375980.000000 0 0 1
11.817073 -2.226786 24.979446 27.723176 -0.186254 0.448655 0.049249 -0.011387 170076.000000 0 0 1
11.962373 -3.574486 24.867776 27.825916 -0.290365 0.465291 0.048423 -0.002920 -121202.000000 0 0 1
13.197973 -3.988186 25.425336 28.922998 -0.293457 0.496889 0.039589 -0.001745 57857.500000 0 0 1
13.442873 -5.503686 25.572136 29.409786 -0.388595 0.516585 0.045072 -0.004468 -162735.000000 0 0 1
13.500173 -6.178286 24.309866 28.485004 -0.429193 0.548271 0.058382 -0.006943 232526.000000 0 0 1
13.393573 -7.576186 24.453516 28.892228 -0.514785 0.561664 0.064648 -0.013162 106915.000000 0 0 1
13.285173 -8.312286 23.075486 27.893869 -0.559089 0.596583 0.078454 -0.018727 144773.000000 0 0 1
12.757573 -9.597386 23.189016 28.153080 -0.644965 0.602933 0.081411 -0.010160 -268144.000000 0 0 1
13.005173 -10.355486 22.036486 27.603937 -0.672456 0.646313 0.080357 -0.014543 -35468.600000 0 0 1
12.261473 -11.704286 22.159186 27.899167 -0.762153 0.653008 0.100850 -0.007260 16754.900000 0 0 1
10.865473 -11.531886 22.179486 27.257521 -0.815143 0.620305 0.117735 -0.008484 -521320.000000 0 0 1
10.206873 -12.772586 22.314286 27.663090 -0.896590 0.632343 0.100698 -0.005677 -98561.200000 0 0 1
8.688173 -12.708786 22.500386 27.262886 -0.971138 0.600042 0.085201 -0.009380 -7718.910000 0 0 1
7.883173 -12.519786 21.333186 25.961399 -1.008855 0.606361 0.077239 -0.019409 44237.700000 0 0 1
6.515273 -12.468686 21.666786 25.833438 -1.089287 0.575885 0.054156 -0.012956 22448.800000 0 0 1
5.688373 -11.333986 21.050086 24.574843 -1.105641 0.542210 0.044656 -0.008577 -147183.000000 0 1 0
5.727373 -10.121686 21.747686 24.661978 -1.055864 0.491066 0.047578 -0.006835 -205535.000000 0 1 0
5.428973 -9.028886 20.957286 23.456392 -1.029429 0.465812 0.038963 -0.014830 -114918.000000 0 1 0
5.642773 -7.736686 21.720986 23.738121 -0.940641 0.415225 0.050525 -0.023911 263622.000000 0 1 0
5.063773 -6.567786 21.090686 22.662626 -0.913989 0.374646 0.041441 -0.023824 7800.930000 0 1 0
5.193473 -5.487686 21.941486 23.205940 -0.812936 0.331634 0.039841 -0.020866 -100768.000000 0 1 0
-8.159527 -15.246886 -20.484815 26.808078 1.079418 2.440485 0.075390 -0.015402 -87498.500000 0 0 1
-7.369227 -14.730086 -19.447615 25.485107 1.106922 2.438888 0.073476 -0.022009 -409339.000000 0 0 1
-6.613227 -13.606086 -19.759515 24.885714 1.118372 2.488174 0.059766 -0.029054 380233.000000 0 1 0
-5.723927 -13.255986 -18.495415 23.464119 1.163181 2.478744 0.053729 -0.029506 705816.000000 0 1 0
-4.736127 -14.205186 -18.095115 23.487260 1.248978 2.450300 0.048090 -0.018494 152891.000000 0 1 0
-3.927027 -13.711986 -17.047715 22.227566 1.291869 2.444891 0.027243 -0.012357 -537416.000000 0 1 0
-3.096127 -14.832886 -16.519515 22.416398 1.365017 2.399327 0.023335 0.000368 -174608.000000 0 1 0
-1.859627 -14.980286 -17.222115 22.901276 1.447290 2.421911 0.019350 -0.001827 -1007180.000000 0 1 0
-0.967627 -15.514786 -16.374715 22.578224 1.508509 2.382185 0.023318 -0.007857 -1182710.000000 0 1 0
0.392373 -15.681586 -17.099215 23.204509 -1.545780 2.399257 0.020474 -0.003895 -132228.000000 0 1 0
0.549373 -16.635986 -18.139415 24.619021 -1.537785 2.399129 0.034116 -0.008641 -171624.000000 0 1 0
0.223973 -18.024686 -17.861015 25.376275 -1.558371 2.351595 0.034836 -0.001097 -94406.500000 0 0 1
-0.042327 -18.705886 -19.229215 26.826753 1.568534 2.369988 0.058476 -0.011706 -161420.000000 0 0 1
-1.307327 -18.391186 -19.742715 27.013323 1.499831 2.390364 0.061654 -0.011101 -325384.000000 0 0 1
-1.466127 -18.849486 -21.079415 28.315974 1.493172 2.410485 0.090375 -0.010860 -921825.000000 0 0 1
-2.727827 -18.291086 -21.683615 28.498843 1.422753 2.435433 0.073205 -0.006329 -640839.000000 0 0 1
-2.781827 -16.897686 -21.940415 27.832574 1.407632 2.478837 0.062938 -0.011959 -215512.000000 0 0 1
-3.361127 -16.173086 -20.864815 26.612147 1.365891 2.471934 0.055512 -0.007192 -192807.000000 0 0 1
-2.574927 -14.958886 -20.327415 25.369318 1.400333 2.500194 0.060627 -0.014838 -407603.000000 0 0 1
-2.468527 -13.970786 -21.387815 25.665446 1.395909 2.555903 0.061803 -0.023995 -132285.000000 0 0 1
-1.731727 -12.840686 -21.088915 24.751251 1.436743 2.590655 0.041884 -0.016443 -383274.000000 0 1 0
-1.637427 -11.762086 -22.192015 25.169691 1.432473 2.650241 0.047035 -0.017416 28634.100000 0 0 1
-2.770127 -10.926486 -22.270215 24.960452 1.322504 2.673034 0.054214 -0.023612 73067.100000 0 1 0
-2.885327 -10.262886 -23.545315 25.846350 1.296729 2.716432 0.051478 -0.016456 -77492.700000 0 0 1
-3.993227 -9.215386 -23.671315 25.713816 1.161898 2.740328 0.055713 -0.013516 394023.000000 0 0 1
-5.371727 -9.579786 -23.615115 26.044220 1.059748 2.706264 0.051077 -0.021476 875661.000000 0 0 1
-6.142527 -8.412286 -23.364515 25.581199 0.940098 2.722226 0.058328 -0.025491 -859459.000000 0 0 1
-7.658027 -8.596686 -23.268215 25.960705 0.843081 2.682119 0.040973 -0.029150 -168431.000000 0 0 1
-8.357827 -8.917686 -24.475915 27.357793 0.817794 2.678465 0.042793 -0.025959 203804.000000 0 0 1
-8.570427 -7.794386 -25.273945 27.802463 0.738012 2.711805 0.038072 -0.027663 -855223.000000 0 0 1
-9.454827 -8.243486 -26.414985 29.242097 0.717061 2.698244 0.038797 -0.036353 -388673.000000 0 0 1
-10.016727 -7.157486 -27.081565 29.748539 0.620427 2.714924 0.051220 -0.041623 59299.500000 0 0 1
-10.807227 -7.652486 -28.162765 31.120701 0.616135 2.702065 0.068106 -0.045008 27825.000000 0 0 1
-11.593327 -6.609586 -29.007055 31.929627 0.518159 2.710401 0.074345 -0.046589 -67830.100000 0 0 1
-10.832327 -5.739586 -29.775855 32.200679 0.487247 2.751034 0.037336 -0.033471 -75535.900000 0 0 1
-11.680927 -5.085786 -30.700865 33.239320 0.410640 2.748245 0.053270 -0.030358 161528.000000 0 0 1
-10.849427 -4.019186 -31.422975 33.485329 0.354777 2.788796 0.038294 -0.021011 325831.000000 0 0 1
-9.882327 -4.636286 -32.274855 34.070835 0.438664 2.815455 0.043824 -0.025447 306404.000000 0 0 1
-9.245727 -3.695986 -33.136465 34.600131 0.380291 2.849689 0.035822 -0.020751 -378745.000000 0 0 1
-8.180027 -4.236186 -34.075080 35.298289 0.477841 2.877564 0.028912 -0.017536 821362.000000 0 0 1
-6.854227 -4.245286 -33.487145 34.444038 0.554539 2.905327 0.027986 -0.018833 864557.000000 0 0 1
-5.895627 -4.590886 33.713679 34.531823 0.661613 0.218113 0.025483 -0.014928 1220930.000000 0 0 1
-4.432227 -4.060386 34.001270 34.528506 0.741642 0.174978 0.048727 -0.016084 1015620.000000 0 0 1
-4.411127 -2.647886 33.943875 34.331559 0.540621 0.150424 0.068245 -0.027416 -63749.500000 0 0 1
-3.094927 -2.141786 33.925818 34.133955 0.605358 0.110489 0.075280 -0.029508 36669.900000 0 0 1
-3.013627 -0.727986 -33.671265 33.813695 0.237024 3.049776 0.081977 -0.034655 -222664.000000 0 0 1
-3.322927 -0.793586 -32.313095 32.493195 0.234430 3.036257 0.078283 -0.025282 31078.600000 0 0 1
-3.763927 0.478214 -31.942905 32.167453 -0.126375 3.023366 0.083935 -0.029934 -787324.000000 0 0 1
-4.161027 0.419714 -30.481035 30.766602 -0.100528 3.005239 0.099613 -0.029231 906419.000000 0 0 1
-5.370927 -0.304086 -30.180865 30.656548 0.056557 2.965202 0.083293 -0.029419 1075390.000000 0 0 1
-6.593027 0.423314 -30.336245 31.047302 -0.064118 2.927162 0.080998 -0.030992 -357472.000000 0 0 1
-7.782927 -0.509586 -30.249075 31.238441 0.065382 2.889244 0.065702 -0.029646 -627282.000000 0 0 1
-8.039827 -1.051386 -28.967675 30.081064 0.130034 2.868669 0.063521 -0.023951 -56941.300000 0 0 1
-8.993627 -2.089786 -28.984995 30.420100 0.228311 2.833204 0.039640 -0.018895 -87048.900000 0 0 1
-9.345327 -2.742186 -27.607865 29.275398 0.285417 2.802449 0.035255 -0.018709 784008.000000 0 0 1
-10.310227 -1.912686 -26.878635 28.851693 0.183428 2.769624 0.036964 -0.018881 901280.000000 0 0 1
-10.768827 -2.586686 -25.692675 27.978065 0.235735 2.734599 0.038264 -0.017736 101412.000000 0 0 1
-11.583027 -1.621686 -24.795815 27.415850 0.139101 2.700846 0.043656 -0.018498 43328.100000 0 0 1
-10.890127 -0.459186 -24.431615 26.752748 0.042140 2.721957 0.058403 -0.019301 -441790.000000 0 0 1
-11.517927 0.173614 -23.400415 26.082028 -0.015072 2.684151 0.060036 -0.022604 -342667.000000 0 0 1
-10.720627 1.351814 -22.841215 25.268169 -0.125433 2.699719 0.068878 -0.026278 -5847.430000 0 0 1
-10.625227 2.419014 -23.699315 26.084566 -0.223852 2.710613 0.059059 -0.029290 -115053.000000 0 0 1
-9.805027 3.467214 -23.260115 25.479268 -0.339893 2.721138 0.061016 -0.027569 -509717.000000 0 0 1
-9.770227 4.700914 -24.155715 26.477434 -0.448452 2.719695 0.075301 -0.033269 744224.000000 0 0 1
-11.070627 5.296914 -24.311615 27.233632 -0.446272 2.674110 0.081481 -0.030860 870246.000000 0 0 1
-11.848127 4.777314 -25.390225 28.422955 -0.383273 2.675431 0.070235 -0.030200 233139.000000 0 0 1
-13.223527 5.506914 -25.474675 29.225791 -0.394605 2.629356 0.066076 -0.018467 223860.000000 0 0 1
-13.242527 6.779214 -26.079585 30.024440 -0.473144 2.623190 0.064420 -0.015923 98926.000000 0 0 1
-14.563927 7.288514 -26.232875 30.877081 -0.464007 2.586005 0.073257 -0.017267 244087.000000 0 0 1
-14.727527 8.798514 -26.543535 31.604955 -0.538520 2.567810 0.081619 -0.015393 -277589.000000 0 0 1
-14.380427 9.569114 -25.422155 30.735169 -0.587143 2.544788 0.110512 -0.024423 99303.600000 0 0 1
-14.553227 10.952414 -25.589905 31.410110 -0.645148 2.523013 0.100200 -0.020815 -233844.000000 0 0 1
-14.151227 11.698414 -24.263915 30.427745 -0.690794 2.493816 0.098454 -0.023515 331940.000000 0 0 1
-14.992227 11.471514 -23.123915 29.850929 -0.653136 2.456952 0.116337 -0.026180 262517.000000 0 0 1
-14.420127 12.050314 -21.985015 28.922154 -0.696109 2.434332 0.102960 -0.024892 -40245.000000 0 0 1
-15.279027 11.771014 -20.696115 28.290186 -0.656432 2.391411 0.112861 -0.029270 632505.000000 0 0 1
-16.549827 12.410414 -20.833715 29.359135 -0.643425 2.359750 0.101526 -0.026277 134395.000000 0 0 1
-17.158027 12.508514 -19.567615 28.874770 -0.629937 2.315388 0.102167 -0.026162 203792.000000 0 0 1
-18.681227 12.783214 -19.755115 30.044357 -0.600098 2.288334 0.105494 -0.028802 77894.500000 0 0 1
-19.022927 14.050714 -20.329615 31.186336 -0.636178 2.280852 0.099587 -0.025886 239442.000000 0 0 1
-20.408827 13.859614 -20.594315 32.136193 -0.596560 2.266395 0.071965 -0.019230 337875.000000 0 0 1
-21.073427 15.112714 -21.226915 33.512167 -0.622141 2.256747 0.075487 -0.022534 9418.170000 0 0 1
-20.723327 15.411314 -22.558015 34.290362 -0.639438 2.288761 0.081076 -0.022873 577500.000000 0 0 1
-21.548127 16.539314 -22.952715 35.562590 -0.654640 2.272366 0.052340 -0.010787 175607.000000 0 0 1
-21.467327 16.866614 -24.467515 36.660443 -0.665953 2.301521 0.058897 -0.007817 -623150.000000 0 0 1
-20.316227 17.450814 -24.967115 36.614708 -0.709673 2.321136 0.072158 -0.013875 -495068.000000 0 0 1
-19.961627 16.768314 -26.189125 36.952851 -0.698676 2.358475 0.066927 -0.026600 -725806.000000 0 0 1
-18.807527 17.432414 -26.880435 37.150638 -0.747472 2.379731 0.039348 -0.019971 -811585.000000 0 0 1
-19.122227 18.679114 -27.527915 38.371278 -0.773677 2.370873 0.018837 -0.022498 304143.000000 0 0 1
-18.812227 19.822514 -26.729685 38.227059 -0.811542 2.345123 0.011210 -0.028820 -1293320.000000 0 0 1
-19.696427 21.022814 -27.077955 39.536358 -0.817961 2.325246 0.043273 -0.017476 718510.000000 0 0 1
-20.952727 21.229614 -26.433235 39.855102 -0.791962 2.295927 0.054064 -0.004833 690326.000000 0 0 1
-21.916427 20.196214 -26.517035 39.891979 -0.744573 2.297917 0.087392 -0.022310 -705254.000000 0 0 1
-23.176427 20.536514 -25.693515 40.237444 -0.725079 2.263406 0.074562 -0.005019 20934.100000 0 0 1
-22.915527 20.498814 -24.318415 39.200868 -0.729789 2.239990 0.034438 0.002279 314825.000000 0 0 1
-23.971727 21.073814 -23.531515 39.654527 -0.721154 2.206089 0.042531 -0.008120 108130.000000 0 0 1
-23.914927 20.871214 -21.944615 38.588825 -0.717541 2.175694 0.050025 0.002493 -367447.000000 0 0 1
-22.752927 21.417314 -21.379615 37.861391 -0.755170 2.170843 0.043308 0.000823 162889.000000 0 0 1
-21.687427 20.492214 -21.138715 36.566660 -0.757069 2.187179 0.033446 0.002834 37950.000000 0 0 1
-21.646327 19.687214 -19.870515 35.369298 -0.738036 2.167358 0.053114 -0.011854 -643708.000000 0 0 1
-22.506827 18.543014 -19.971715 35.345014 -0.689136 2.171291 0.080842 -0.024155 469325.000000 0 0 1
-22.877727 18.049014 -18.676615 34.611750 -0.667957 2.140762 0.052883 -0.014510 -10877.900000 0 0 1
-23.977827 18.878214 -17.944315 35.402282 -0.666961 2.102345 0.036085 -0.006029 -83961.600000 0 0 1
-25.243467 18.770214 -18.588215 36.538682 -0.639371 2.104502 0.029675 -0.008810 30992.700000 0 0 1
-26.054407 19.856514 -18.256715 37.502279 -0.651211 2.079237 0.029727 -0.012370 -180291.000000 0 0 1
-27.498017 19.741414 -18.858315 38.749199 -0.622653 2.079077 0.021865 0.005329 1240190.000000 0 0 1
-28.380267 18.694314 -18.349015 38.621280 -0.582473 2.065875 0.016353 -0.001746 804481.000000 0 0 1
-28.607627 18.614714 -16.931015 38.099385 -0.576861 2.031290 0.010448 -0.005159 -672458.000000 0 0 1
-29.661777 17.558314 -16.513415 38.220522 -0.534480 2.017568 0.014973 -0.005001 18083.300000 0 0 1
-29.316827 16.221914 -16.814515 37.488061 -0.505397 2.035916 0.031445 -0.012116 -113899.000000 0 0 1
-30.228897 15.358914 -16.217515 37.585772 -0.470096 2.016929 0.030883 -0.014258 122922.000000 0 0 1
-29.466837 14.168314 -15.501315 36.184615 -0.448188 2.013512 0.062562 -0.016764 381786.000000 0 0 1
-28.648487 14.504414 -14.391815 35.188608 -0.468666 1.992144 0.052791 -0.017705 639877.000000 0 0 1
-29.427437 14.916214 -13.204815 35.536385 -0.469137 1.951513 0.033811 -0.013144 746458.000000 0 0 1
-28.642367 15.800714 -12.172015 34.902804 -0.504113 1.927023 0.030700 -0.020340 102185.000000 0 0 1
-28.422187 17.162014 -12.520515 35.484063 -0.543227 1.931410 0.034017 -0.008825 71333.600000 0 0 1
-29.483127 18.059214 -12.236215 36.675809 -0.549580 1.910950 0.014096 -0.004546 -2070.760000 0 0 1
-28.960917 19.483614 -12.430715 37.052241 -0.592206 1.912923 0.037426 -0.010321 305988.000000 0 0 1
-28.235397 20.043114 -11.324015 36.430720 -0.617311 1.886870 0.006336 -0.019395 524949.000000 0 0 1
-27.327207 21.055814 -11.795915 36.459116 -0.656497 1.900263 -0.000988 -0.019046 250818.000000 0 0 1
-26.638557 21.796014 -10.635215 36.024807 -0.685748 1.870481 0.017550 -0.008159 53799.000000 0 0 1
-27.360207 22.838514 -10.010815 37.018847 -0.695565 1.844631 0.007129 -0.013706 -229711.000000 0 0 1
-26.725267 24.059214 -10.216315 37.382600 -0.732949 1.847609 0.025925 -0.016004 -177549.000000 0 0 1
-27.027747 25.201714 -9.234015 38.090583 -0.750451 1.815658 0.043763 0.005915 268956.000000 0 0 1
-26.554637 24.979514 -7.912615 37.305956 -0.754843 1.784520 0.039479 0.001625 1687470.000000 0 0 1
-27.758487 25.236414 -7.106515 38.182624 -0.737843 1.758007 0.056754 -0.012263 1648980.000000 0 0 1
-27.712447 24.559914 -5.728215 37.469742 -0.725161 1.724274 0.069293 -0.005197 -109951.000000 0 0 1
-27.723667 23.152914 -5.903615 36.599342 -0.695799 1.732808 0.066213 -0.010613 88144.700000 0 0 1
-27.587317 22.489214 -4.635915 35.893126 -0.683941 1.700317 0.068051 -0.001370 -154129.000000 0 0 1
-27.680057 20.904614 -4.630915 34.994768 -0.646835 1.703517 0.065401 -0.000034 61908.600000 0 0 1
-26.688847 20.178414 -5.337915 33.881503 -0.647369 1.729002 0.057176 -0.004860 187962.000000 0 0 1
-26.610347 20.410314 -6.722415 34.203543 -0.654297 1.768626 0.039615 -0.001155 -505576.000000 0 0 1
-27.484737 19.482014 -7.593315 34.534303 -0.616628 1.792485 0.045611 -0.006571 -70355.000000 0 0 1
-27.059317 18.132114 -7.538115 33.433566 -0.590367 1.798217 0.039181 -0.002338 206939.000000 0 0 1
-27.311667 17.516914 -8.790115 33.616001 -0.570285 1.835358 0.012178 -0.007970 -103610.000000 0 0 1
-26.968417 16.009514 -8.857415 32.589168 -0.535729 1.846049 0.037837 -0.015659 -13996.800000 0 0 1
-27.792387 15.268114 -7.984215 32.699844 -0.502354 1.817457 0.042004 -0.008682 72928.200000 0 0 1
-27.710207 13.907214 -8.329615 32.103717 -0.465151 1.833259 0.053742 -0.022703 -27694.600000 0 0 1
-28.565117 13.050614 -7.372915 32.259019 -0.428554 1.801388 0.059798 -0.025324 -950984.000000 0 0 1
-29.922147 13.246514 -7.611915 33.596819 -0.416766 1.799347 0.069276 -0.017113 -1039370.000000 0 0 1
-30.660667 12.382314 -6.785315 33.755573 -0.383821 1.773188 0.084062 -0.020479 -336341.000000 0 0 1
-31.146147 11.042414 -7.425615 33.869708 -0.340710 1.791832 0.069865 -0.016229 -615130.000000 0 0 1
-30.148907 10.241014 -7.972815 32.823783 -0.327453 1.816148 0.078916 -0.010282 -626232.000000 0 0 1
-30.658257 8.972314 -8.133215 32.963318 -0.284705 1.820106 0.073421 -0.004093 -41780.100000 0 0 1
-29.662397 7.807314 -8.445815 31.814206 -0.257368 1.839491 0.118366 -0.010634 -402570.000000 0 0 1
-29.057517 7.905914 -9.691415 31.634890 -0.265648 1.882155 0.114507 -0.022266 -501122.000000 0 0 1
-28.294097 6.771814 -9.819815 30.705735 -0.234918 1.896319 0.135652 -0.035287 -712486.000000 0 0 1
-27.516527 6.674214 -11.139215 30.426740 -0.237957 1.945610 0.105818 -0.032011 85475.500000 0 0 1
-26.566757 7.724014 -11.282215 29.878777 -0.282940 1.957999 0.123784 -0.035807 1019010.000000 0 0 1
-25.680837 7.596214 -12.419215 29.520243 -0.287593 2.005015 0.111927 -0.023629 323642.000000 0 0 1
-31.129837 25.042914 33.547128 52.169187 -0.677459 0.872329 0.025848 0.008334 -138799.000000 0 0 1
-31.080027 26.404614 33.152143 52.556981 -0.704244 0.888232 0.012812 0.003200 845594.000000 0 0 1
-32.169127 26.818314 32.288983 52.883391 -0.694935 0.914017 0.039162 -0.009432 524127.000000 0 0 1
-32.079297 28.329114 31.996086 53.435657 -0.723397 0.928822 0.055032 -0.022236 701095.000000 0 0 1
-33.274987 28.912114 31.425226 54.135754 -0.715356 0.951467 0.092127 -0.022105 672373.000000 0 0 1
-33.364837 30.319214 31.417096 54.949986 -0.737611 0.962171 0.111420 -0.027548 -128623.000000 0 0 1
-32.951877 30.846914 30.088816 54.246614 -0.752416 0.982833 0.122445 -0.037163 1306270.000000 0 0 1
-31.512287 30.846114 29.900076 53.277777 -0.774716 0.974948 0.097020 -0.041148 1139610.000000 0 0 1
-31.184267 31.562914 28.703956 52.844991 -0.791433 0.996585 0.099985 -0.033700 813139.000000 0 0 1
-29.693457 31.422414 28.236136 51.636700 -0.813680 0.992231 0.090757 -0.031263 585400.000000 0 0 1
-29.370197 30.130314 27.768336 50.413537 -0.798172 0.987461 0.107316 -0.033664 208199.000000 0 0 1
-28.195177 29.945014 26.989206 49.194401 -0.815486 0.990079 0.062919 -0.020970 -91825.200000 0 0 1
-28.138977 30.468914 25.541806 48.708732 -0.825132 1.018811 0.057017 -0.009212 -514471.000000 0 0 1
-27.942367 31.843914 25.506026 49.450663 -0.850564 1.028870 0.043891 -0.016955 721790.000000 0 0 1
-28.906997 32.513014 24.625276 49.991147 -0.844042 1.055730 0.049783 -0.025597 604686.000000 0 0 1
-29.049667 34.004014 24.918316 51.196470 -0.863811 1.062466 0.060291 -0.012076 -99357.700000 0 0 1
-29.716267 -34.007579 26.108406 52.165321 0.852639 1.046628 0.079572 -0.028418 -152185.000000 0 0 1
-29.838197 -32.698679 26.532436 51.609027 0.831107 1.030833 0.064565 -0.023150 -60101.800000 0 0 1
-30.266917 -32.608479 27.979266 52.557002 0.822622 1.009410 0.082797 -0.018253 -348001.000000 0 0 1
-31.560807 -33.086579 28.215796 53.730227 0.808995 1.017919 0.094372 -0.030922 -504629.000000 0 0 1
-31.839727 -33.081579 29.611176 54.634977 0.804524 0.998003 0.079265 -0.031208 838190.000000 0 0 1
-33.369697 -33.249879 29.929806 55.811149 0.783600 1.004785 0.101948 -0.041297 857671.000000 0 0 1
-33.669067 -33.493079 31.275736 56.864435 0.782778 0.988426 0.084886 -0.041625 322044.000000 0 0 1
-35.073115 -33.699379 31.449346 57.920919 0.765426 0.996826 0.075034 -0.044109 630395.000000 0 0 1
-35.545356 34.111314 32.842840 59.209004 -0.764814 0.982802 0.072918 -0.031069 -42022.300000 0 0 1
-35.149868 32.791214 33.235327 58.441115 -0.750696 0.965875 0.046452 -0.021270 38798.400000 0 0 1
-36.024555 32.231914 -33.978325 59.086305 -0.729891 2.183477 0.060192 -0.020331 149867.000000 0 0 1
-35.604469 30.862114 -33.477975 57.800719 -0.714169 2.188539 0.040469 -0.021657 -64687.000000 0 0 1
-34.554934 31.027214 -32.568145 56.722267 -0.731659 2.182385 0.033325 -0.022968 -527554.000000 0 0 1
-34.008007 29.732414 -32.262085 55.510387 -0.718420 2.190987 0.016892 -0.012326 677926.000000 0 0 1
-33.046277 29.551014 -31.055625 54.127356 -0.729619 2.181875 0.013173 -0.007247 464142.000000 0 0 1
-33.750907 29.749014 -29.817355 53.974088 -0.722459 2.156083 0.023903 -0.011902 -190953.000000 0 0 1
-33.834427 31.072414 -29.305035 54.488975 -0.742870 2.138641 0.022897 -0.006974 338584.000000 0 0 1
-34.908959 31.346714 -28.213045 54.746943 -0.731685 2.112195 0.026541 -0.003025 413159.000000 0 0 1
-34.606920 30.843914 -26.909685 53.601465 -0.727968 2.096744 0.002376 -0.009166 -227473.000000 0 0 1
-35.810783 30.856414 -26.182465 54.037505 -0.711220 2.076615 0.036839 -0.010587 148547.000000 0 0 1
-35.527865 30.477414 -24.662615 52.908851 -0.709031 2.055712 0.032355 -0.009241 71839.500000 0 0 1
-34.950745 31.553714 -23.912215 52.810846 -0.734363 2.040688 0.045206 -0.008739 3815.700000 0 0 1
-34.958117 31.361314 -22.506515 52.078260 -0.731217 2.017691 0.031514 -0.011255 513082.000000 0 0 1
-36.395727 31.475514 -21.893215 52.864636 -0.713031 1.997791 0.023249 -0.015942 309638.000000 0 0 1
36.197005 32.756114 -21.893815 53.502573 0.735538 1.992385 0.037514 -0.026338 -368339.000000 0 0 1
-36.519767 33.860214 -21.176015 54.116828 -0.747628 1.972842 0.038929 -0.026186 -437784.000000 0 0 1
-36.460827 33.606614 -19.670415 53.345306 -0.744685 1.948447 0.038141 -0.025102 1195190.000000 0 0 1
-35.297038 32.815914 -19.249915 51.897248 -0.748988 1.950800 0.034600 -0.028888 987209.000000 0 0 1
-35.288309 32.478414 -17.868715 51.180105 -0.743958 1.927443 0.038436 -0.021465 480407.000000 0 0 1
-34.154294 31.429114 -17.594715 49.637476 -0.743869 1.933137 0.041191 -0.017234 579562.000000 0 0 1
-33.980017 31.160014 -16.216215 48.872831 -0.742134 1.909012 0.037409 -0.008756 -108875.000000 0 0 1
-32.835787 30.350614 -16.028715 47.500193 -0.746088 1.914998 0.035264 -0.006069 84631.900000 0 0 1
-32.482167 30.178714 -14.562015 46.667957 -0.748654 1.888130 0.035238 -0.003511 426421.000000 0 0 1
-33.539237 29.533114 -13.815015 46.775420 -0.721967 1.870616 0.025184 -0.000515 508369.000000 0 0 1
-33.097977 29.174514 -12.559015 45.873273 -0.722477 1.848113 0.033655 0.003043 380510.000000 0 0 1
-33.976827 28.144914 -11.748815 45.657372 -0.691794 1.831050 0.040766 -0.007767 -156391.000000 0 0 1
-33.185927 27.664014 -10.755815 44.522926 -0.694900 1.814789 0.052929 -0.000058 37470.300000 0 0 1
-33.902237 26.809414 -9.854715 44.330822 -0.669097 1.794969 0.056243 -0.006965 -131860.000000 0 0 1
-32.960537 26.311014 -8.808215 43.084233 -0.673678 1.776690 0.070968 -0.010123 -380998.000000 0 0 1
-32.640427 27.299914 -7.843215 43.268913 -0.696536 1.753071 0.056964 -0.011936 469057.000000 0 0 1
-31.571327 26.788414 -7.043415 41.999732 -0.703625 1.739294 0.064376 -0.018166 194880.000000 0 0 1
-31.195867 27.696314 -5.841015 42.123454 -0.726045 1.709909 0.066501 -0.022833 25245.200000 0 0 1
-30.194557 27.079114 -5.044215 40.870941 -0.731056 1.694530 0.081085 -0.018623 364912.000000 0 0 1
-30.241677 27.560614 -3.688215 41.082227 -0.739048 1.660694 0.084397 -0.019251 -169334.000000 0 0 1
-29.445897 26.627714 -2.793815 39.798259 -0.735182 1.641054 0.085393 -0.014230 -117730.000000 0 0 1
-30.096157 25.370114 -2.716215 39.456294 -0.700398 1.639692 0.072944 -0.010795 368308.000000 0 0 1
-29.344147 24.475914 -1.939015 38.261065 -0.695190 1.621497 0.067979 -0.009683 415100.000000 0 0 1
-30.362987 23.429714 -1.375315 38.376477 -0.657216 1.606641 0.071364 -0.013464 374381.000000 0 0 1
-30.717267 22.562414 -2.416015 38.189660 -0.633519 1.634102 0.055406 -0.005140 -184848.000000 0 0 1
-31.565157 21.568114 -1.914415 38.278031 -0.599422 1.620831 0.059549 -0.007686 -427365.000000 0 0 1
-31.884367 20.619114 -3.038215 38.091882 -0.574041 1.650641 0.084473 -0.004363 -79223.900000 0 0 1
-30.854427 19.801314 -3.573415 36.835540 -0.570565 1.667959 0.072150 -0.005074 -299037.000000 0 0 1
-31.348087 18.977714 -4.564615 36.928199 -0.544371 1.694721 0.076453 -0.002966 -693233.000000 0 0 1
-30.465777 17.941014 -5.185115 35.734143 -0.532211 1.716413 0.073078 -0.005045 -557518.000000 0 0 1
-30.399297 16.766014 -4.361915 34.989181 -0.504014 1.695786 0.098165 -0.012242 436550.000000 0 0 1
-29.597417 15.763714 -5.016115 33.906683 -0.489390 1.719280 0.092416 -0.017578 -40624.000000 0 0 1
-29.402887 14.584914 -4.007715 33.065258 -0.460472 1.692301 0.102521 -0.019973 39753.700000 0 0 1
-30.528457 13.802514 -3.637415 33.700547 -0.424615 1.678940 0.119966 -0.024430 518638.000000 0 0 1
-30.099487 12.643314 -2.883215 32.774158 -0.397671 1.658882 0.114099 -0.027619 547955.000000 0 0 1
-31.302787 11.876114 -2.219515 33.553432 -0.362618 1.636993 0.124965 -0.027170 356023.000000 0 0 1
-32.055507 11.111114 -3.150415 34.072533 -0.333661 1.663391 0.114720 -0.014373 616813.000000 0 0 1
-33.096027 10.421114 -2.422015 34.782363 -0.305047 1.640486 0.120195 -0.010539 201401.000000 0 0 1
-34.236188 9.985114 -3.347215 35.819309 -0.283782 1.664380 0.092172 -0.007886 -500223.000000 0 0 1
-33.769697 8.992114 -4.218015 35.200031 -0.260239 1.690915 0.084024 -0.016706 16945.000000 0 0 1
-34.700892 8.492714 -5.153515 36.094831 -0.240022 1.714063 0.086670 -0.011079 -156521.000000 0 0 1
-34.076485 7.712314 -6.355915 35.511748 -0.222574 1.750747 0.081969 -0.017715 -163540.000000 0 0 1
-33.449077 6.468514 -6.114215 34.613091 -0.191026 1.748373 0.087560 -0.012512 330799.000000 0 0 1
-33.085177 5.762814 -7.252815 34.357565 -0.172451 1.783495 0.091536 -0.008850 -359361.000000 0 0 1
-32.086137 4.649714 -6.897315 33.146840 -0.143912 1.780412 0.112863 -0.011607 277873.000000 0 0 1
-30.741997 5.085114 -6.675615 31.866795 -0.163928 1.781845 0.115542 -0.016309 549863.000000 0 0 1
-29.981527 3.907214 -6.551115 30.936635 -0.129590 1.784171 0.117515 -0.019818 -836190.000000 0 0 1
-28.532557 4.075314 -6.095015 29.459535 -0.141871 1.779196 0.158316 -0.013958 -544800.000000 0 0 1
-27.762707 4.710914 -7.085015 29.037184 -0.168084 1.817283 0.151990 -0.021327 407717.000000 0 0 1
-26.388267 4.418314 -6.815115 27.609924 -0.165896 1.820210 0.178312 -0.032107 735928.000000 0 0 1
-25.432317 4.738614 -8.005515 27.080352 -0.184210 1.870902 0.170468 -0.033594 125432.000000 0 0 1
-25.683547 3.878514 -9.069815 27.512706 -0.149879 1.906739 0.164732 -0.050713 1109160.000000 0 0 1
-24.529827 3.938114 -9.940315 26.758756 -0.159186 1.951398 0.160379 -0.047296 632874.000000 0 0 1
-24.765227 3.210414 -11.275515 27.400008 -0.128915 1.994912 0.144551 -0.053586 -71063.000000 0 0 1
-25.668017 3.921714 -12.119015 28.654798 -0.151614 2.007474 0.147158 -0.033897 379347.000000 0 0 1
-26.067847 3.191614 -13.255315 29.418063 -0.121829 2.038216 0.142062 -0.035280 403687.000000 0 0 1
-26.987797 3.992014 -14.276215 30.791032 -0.146854 2.052905 0.111884 -0.025886 639985.000000 0 0 1
-26.208407 4.887214 -15.105215 30.642013 -0.184358 2.086282 0.095797 -0.023537 1049350.000000 0 0 1
-26.974457 5.915514 -15.823415 31.827584 -0.215883 2.091119 0.105531 -0.026278 42409.500000 0 0 1
-27.878177 5.528314 -16.963115 33.098373 -0.195763 2.108897 0.065004 0.000822 -562213.000000 0 0 1
-29.084087 4.904014 -16.625515 33.857661 -0.167044 2.084081 0.078462 -0.013939 -257137.000000 0 0 1
-29.762567 4.449014 -17.783115 34.954875 -0.148385 2.104523 0.082412 -0.003183 442339.000000 0 0 1
-31.272977 4.084214 -17.625015 36.129227 -0.129864 2.080401 0.077486 -0.005880 480002.000000 0 0 1
-31.589017 2.988814 -16.818415 35.911810 -0.094335 2.058191 0.088143 -0.017879 -13771.900000 0 0 1
-31.137957 1.758214 -17.268215 35.649052 -0.056405 2.076468 0.112014 -0.023447 -415570.000000 0 0 1
-31.537227 0.541614 -16.396415 35.549015 -0.017172 2.050182 0.113705 -0.019202 -233967.000000 0 0 1
-30.989167 -0.699786 -16.852415 35.282036 0.022578 2.068773 0.109776 -0.013410 388385.000000 0 0 1
-31.152687 -1.733586 -15.905915 35.021327 0.055591 2.042246 0.113621 -0.020395 -178195.000000 0 0 1
-30.768187 -3.053986 -16.551015 35.070561 0.098934 2.062280 0.101357 -0.007463 261456.000000 0 0 1
-31.697627 -3.532286 -17.540115 36.398794 0.110979 2.073604 0.104790 -0.010573 413857.000000 0 0 1
-31.270747 -4.666486 -18.295715 36.529014 0.148135 2.095382 0.104229 -0.008812 -140524.000000 0 0 1
-32.194887 -4.931286 -19.482815 37.952713 0.151989 2.109874 0.114243 -0.009364 -52455.600000 0 0 1
-31.936077 -6.118686 -20.266115 38.315359 0.189298 2.128135 0.103491 -0.005515 -325685.000000 0 0 1
-33.003747 -6.385486 -21.133115 39.706804 0.191116 2.132028 0.108200 -0.011580 -389963.000000 0 0 1
-32.801857 -7.590586 -22.065815 40.255174 0.227404 2.150945 0.099032 -0.019075 -155189.000000 0 0 1
-31.637747 -7.415286 -22.842715 39.720563 0.230225 2.183505 0.093304 -0.019186 -18337.400000 0 0 1
-31.549347 -8.288586 -23.894815 40.435432 0.256912 2.203017 0.084582 -0.021780 173095.000000 0 0 1
-30.189267 -8.123486 -24.638415 39.804954 0.262859 2.238238 0.078607 -0.016300 -562312.000000 0 0 1
-29.926207 -7.001286 -25.475795 39.920070 0.229818 2.262915 0.073533 -0.021258 37872.900000 0 0 1
-30.239667 -7.188086 -26.865915 41.083858 0.233373 2.283562 0.057788 -0.019281 -370676.000000 0 0 1
-31.723967 -7.228486 -27.231745 42.429106 0.224031 2.267662 0.073991 -0.010961 -307191.000000 0 0 1
-32.483897 -8.322286 -26.680985 42.852526 0.250803 2.242887 0.059945 -0.011463 -81969.200000 0 0 1
-33.697257 -8.458886 -27.393035 44.242923 0.245944 2.238457 0.059695 -0.009258 309820.000000 0 0 1
-34.673798 -9.528286 -26.859115 44.882876 0.268178 2.212332 0.060227 -0.008012 -315968.000000 0 0 1
-34.244387 -10.831486 -27.208815 45.059058 0.306343 2.219116 0.059105 -0.000607 597179.000000 0 0 1
-35.233985 -11.871286 -27.034165 45.969633 0.324981 2.199488 0.042968 -0.003882 823388.000000 0 0 1
-36.520707 -11.835486 -27.909265 47.463331 0.313396 2.199402 0.041500 0.005864 -193594.000000 0 0 1
35.766545 -10.852686 -27.584905 46.453779 -0.294602 2.206587 0.032497 -0.002410 -577879.000000 0 0 1
35.029895 -10.527486 -28.735825 46.515257 -0.291942 2.236703 0.031428 -0.008017 -244740.000000 0 0 1
33.998785 -9.405286 -28.453135 45.320610 -0.269886 2.249544 0.025023 -0.002631 -813425.000000 0 0 1
32.934495 -9.855786 -27.705315 44.152033 -0.290772 2.249132 0.013285 -0.003996 -718549.000000 0 0 1
32.218945 -8.684786 -27.278985 43.100220 -0.263297 2.256115 -0.004564 0.005067 349253.000000 0 0 1
31.060635 -9.041586 -26.282935 41.681003 -0.283267 2.253088 0.003195 0.002048 143511.000000 0 0 1
31.360235 -9.316086 -24.925715 41.128398 -0.288764 2.221877 -0.007926 0.010566 -310127.000000 0 0 1
30.198895 -9.638686 -24.216315 39.891195 -0.308953 2.223151 -0.015206 0.013694 -373993.000000 0 0 1
30.504655 -9.646186 -22.712915 39.235945 -0.306270 2.188151 -0.023432 0.013363 238098.000000 0 0 1
31.331395 -10.776786 -22.431615 40.012158 -0.331285 2.165931 -0.031401 0.013310 441942.000000 0 0 1
31.634465 -10.850786 -21.044415 39.513875 -0.330430 2.132446 -0.016274 0.010267 -174691.000000 0 0 1
32.261695 -12.212586 -20.645315 40.201906 -0.361877 2.110102 0.006568 0.010999 614700.000000 0 0 1
33.653325 -12.248886 -20.991715 41.511849 -0.349068 2.100966 0.019440 0.006635 543952.000000 0 0 1
34.355255 -12.992786 -20.019715 41.831627 -0.361564 2.069831 0.048413 0.002618 414804.000000 0 0 1
35.894825 -13.014086 -20.306015 43.245106 -0.347821 2.059585 0.071083 -0.014078 156631.000000 0 0 1
-36.577837 -11.773686 -20.276715 43.447704 0.311408 2.056344 0.093337 -0.017822 646468.000000 0 0 1
36.474445 -10.833286 -21.354815 43.632251 -0.288712 2.082229 0.094170 -0.009943 -598554.000000 0 0 1
-36.142157 -11.422586 -22.715515 44.189655 0.306112 2.110691 0.067498 -0.008883 193525.000000 0 0 1
36.422235 -12.543786 -23.315915 45.028410 -0.331676 2.115079 0.059660 -0.005292 -129831.000000 0 0 1
35.134725 -12.380986 -23.837415 44.226238 -0.338799 2.140032 0.070622 -0.004275 -455021.000000 0 0 1
34.752315 -13.651086 -24.674015 44.753576 -0.374293 2.154755 0.043706 -0.016267 -173747.000000 0 0 1
34.592635 -14.953586 -24.063915 44.713892 -0.408018 2.139067 0.043526 -0.026291 857294.000000 0 0 1
33.415475 -15.085886 -23.264315 43.421266 -0.424071 2.136229 0.016084 -0.011622 106508.000000 0 0 1
-30.204937 7.782514 -19.510315 36.790734 -0.252172 2.129757 0.031935 0.000637 522407.000000 0 0 1
-28.984967 7.082114 -19.772615 35.794426 -0.239642 2.156029 0.027965 0.000313 118655.000000 0 0 1
-28.022197 7.917414 -20.347215 35.523768 -0.275363 2.180687 0.047645 -0.013029 -450737.000000 0 0 1
-26.690307 7.166714 -20.471415 34.392050 -0.262326 2.208357 0.046389 -0.010780 -674196.000000 0 0 1
-25.973297 7.099214 -19.287515 33.121281 -0.266811 2.192388 0.057489 -0.009663 884263.000000 0 0 1
-24.776727 6.289214 -19.454315 32.123368 -0.248585 2.221332 0.079007 -0.020417 1058400.000000 0 0 1
-23.435627 6.929614 -19.048615 30.985446 -0.287495 2.232878 0.075159 -0.020773 103536.000000 0 0 1
-22.982427 7.880414 -20.019715 31.481453 -0.330326 2.259998 0.074769 -0.015147 588828.000000 0 0 1
-21.712427 8.423814 -19.619315 30.451727 -0.370095 2.270873 0.068975 -0.015935 478257.000000 0 0 1
-21.164627 9.487614 -20.548515 30.987057 -0.421420 2.295792 0.070976 -0.014589 -625682.000000 0 0 1
-20.463527 8.992214 -21.643115 31.113346 -0.414026 2.340081 0.098685 -0.018985 27929.700000 0 0 1
-19.652027 9.985114 -22.261215 31.328363 -0.470103 2.361114 0.093805 -0.019688 78227.400000 0 0 1
-18.689027 9.311514 -23.257015 31.254964 -0.462234 2.409992 0.115397 -0.020042 -138116.000000 0 0 1
-19.323027 8.641514 -24.336815 32.254235 -0.420534 2.425735 0.106699 -0.013538 486876.000000 0 0 1
-18.359927 8.059114 -25.247345 32.240730 -0.413628 2.470413 0.087008 -0.008393 128485.000000 0 0 1
-18.867927 6.976714 -26.205215 33.036139 -0.354174 2.486890 0.064567 -0.002696 -240403.000000 0 0 1
-19.276527 5.796414 -25.573175 32.544895 -0.292097 2.474755 0.076505 0.000166 203596.000000 0 0 1
-19.779127 4.834314 -26.452405 33.381345 -0.239715 2.485580 0.065060 -0.000116 -603946.000000 0 0 1
-20.144627 3.486514 -25.786325 32.907390 -0.171376 2.471240 0.052828 0.011116 433726.000000 0 0 1
-19.079627 2.597414 -25.434265 31.901106 -0.135304 2.493580 0.047727 0.011862 1292990.000000 0 0 1
-18.008827 3.085814 -24.577015 30.624659 -0.169702 2.502310 0.055772 0.003807 599287.000000 0 0 1
-17.129527 1.906914 -24.012215 29.557461 -0.110867 2.519037 0.045447 0.000488 47994.300000 0 0 1
-17.579527 1.120914 -22.904415 28.894782 -0.063676 2.485995 0.045732 0.000231 -309696.000000 0 0 1
-18.784427 0.427214 -23.144615 29.811246 -0.022739 2.459685 0.042100 0.000899 -61156.800000 0 0 1
-19.301327 -0.381486 -21.915215 29.205537 0.019762 2.419431 0.066468 -0.000014 125788.000000 0 0 1
-18.595627 -1.594786 -21.727315 28.642921 0.085552 2.431894 0.064082 -0.006877 242092.000000 0 0 1
-19.066127 -2.172486 -20.540415 28.109528 0.113455 2.390184 0.072895 -0.002774 126318.000000 0 0 1
-18.364327 -3.523786 -20.224615 27.544521 0.189578 2.395360 0.056820 -0.020416 82751.100000 0 0 1
-18.639427 -4.475986 -21.227615 28.601999 0.235673 2.407102 0.063754 -0.024689 293110.000000 0 0 1
-18.687827 -5.806186 -20.854115 28.597916 0.301238 2.387975 0.084172 -0.020451 -279272.000000 0 0 1
-18.838227 -6.748486 -22.095815 29.810164 0.343991 2.405679 0.059978 -0.026059 184809.000000 0 0 1
-17.679027 -6.695986 -22.911815 29.704133 0.362057 2.451731 0.060927 -0.020247 280657.000000 0 0 1
-17.796227 -7.731986 -23.901915 30.786212 0.409867 2.459704 0.086651 -0.029219 -255371.000000 0 0 1
-16.569527 -7.816986 -24.788115 30.823776 0.440809 2.505105 0.069265 -0.028350 -896740.000000 0 0 1
-16.608227 -8.854386 -25.775055 31.915307 0.489801 2.510881 0.072972 -0.052676 2003050.000000 0 0 1
-15.275627 -9.043586 -26.379085 31.796027 0.534536 2.549249 0.072799 -0.052527 1807720.000000 0 0 1
-14.108727 -9.689486 -25.625555 30.815765 0.601793 2.552730 0.075845 -0.046734 -483297.000000 0 0 1
-13.474227 -8.895086 -24.632415 29.452219 0.583481 2.561390 0.060916 -0.029827 67276.100000 0 0 1
-12.501827 -9.703486 -24.036915 28.778926 0.660038 2.559340 0.030877 -0.020973 -80508.600000 0 0 1
-11.531527 -9.133086 -22.959115 27.267386 0.669850 2.571775 0.035411 -0.020429 84574.300000 0 0 1
-12.145527 -8.671086 -21.774415 26.397475 0.620016 2.540764 0.022903 -0.017695 -192850.000000 0 0 1
-11.237027 -7.939086 -21.013515 25.117079 0.615083 2.561884 0.025628 -0.013577 -1302410.000000 0 0 1
-11.691727 -7.680286 -19.549615 24.038942 0.581210 2.520508 0.022671 -0.015527 411723.000000 0 1 0
-12.770127 -6.754386 -19.365115 24.159999 0.486516 2.500656 0.031287 -0.009602 1429480.000000 0 1 0
-14.040827 -7.195786 -19.885615 25.384283 0.473590 2.470887 0.040921 -0.015259 707797.000000 0 0 1
-15.280927 -6.246386 -19.645415 25.660600 0.388044 2.442749 0.042144 -0.004514 404255.000000 0 0 1
-15.584227 -6.016986 -18.305015 24.781966 0.368462 2.401851 0.042212 -0.009438 303919.000000 0 1 0
-14.930227 -4.910886 -17.707815 23.676891 0.317775 2.415681 0.038639 -0.011104 -364366.000000 0 1 0
-15.003727 -4.816986 -16.168115 22.577049 0.310658 2.369039 0.049915 -0.005046 709295.000000 0 1 0
-16.333127 -4.414386 -15.778815 23.135013 0.263965 2.321334 0.084688 -0.011124 894287.000000 0 1 0
-16.409527 -3.008486 -15.628015 22.859537 0.181324 2.323554 0.045174 -0.022290 422520.000000 0 1 0
-17.735527 -2.421386 -15.019415 23.366533 0.135689 2.268911 0.052847 -0.024895 446294.000000 0 1 0
-17.797127 -2.837386 -13.646915 22.605901 0.158099 2.218916 0.081983 -0.025842 463443.000000 0 1 0
-18.687327 -2.124786 -12.797115 22.748562 0.113216 2.168259 0.083009 -0.039285 -172351.000000 0 1 0
-18.067927 -0.936386 -12.023815 21.723235 0.051780 2.157357 0.069207 -0.037762 -255108.000000 0 1 0
-17.643327 0.065114 -12.906915 21.860459 -0.003691 2.202379 0.080283 -0.042753 1574620.000000 0 1 0
-16.593127 0.891414 -12.299115 20.673527 -0.053670 2.207964 0.058409 -0.034332 313902.000000 0 1 0
-16.205227 2.093414 -13.179415 20.992588 -0.128470 2.249536 0.067677 -0.031453 -372440.000000 0 1 0
-15.482727 1.904714 -14.349715 21.195686 -0.122407 2.314490 0.065077 -0.033643 -201144.000000 0 1 0
-14.103027 1.732114 -14.114915 20.028141 -0.122207 2.352873 0.051863 -0.025994 -776758.000000 0 1 0
-13.608627 0.610214 -15.027015 20.282462 -0.044810 2.405187 0.046002 -0.028941 -355456.000000 0 1 0
-13.399027 1.127714 -16.344415 21.164725 -0.083966 2.453168 0.053576 -0.028488 175783.000000 0 1 0
-12.851127 0.252914 -17.286215 21.541324 -0.019678 2.502216 0.024496 -0.013717 -201432.000000 0 1 0
-12.322527 0.965014 -18.532415 22.276138 -0.078153 2.553392 0.041794 -0.014623 -441538.000000 0 1 0
-11.005227 1.376714 -18.298015 21.396909 -0.124450 2.596677 0.023380 -0.014310 -606075.000000 0 1 0
-10.464127 2.201314 -19.284915 22.051115 -0.207344 2.635314 0.023377 -0.016970 496901.000000 0 1 0
-9.013727 2.683614 -18.995915 21.196553 -0.289369 2.681879 0.015396 -0.019421 -260572.000000 0 1 0
-8.052727 1.698914 -19.369715 21.045631 -0.207925 2.739816 0.020636 -0.007282 380167.000000 0 1 0
-6.709927 2.139314 -19.120915 20.376682 -0.308640 2.788687 0.019575 -0.006461 761960.000000 0 1 0
-6.216427 3.140114 -20.184615 21.352353 -0.467744 2.809343 0.025952 -0.001123 -1197000.000000 0 1 0
-5.936227 2.563114 -21.428915 22.383180 -0.407595 2.848541 0.021480 -0.004544 73578.200000 0 1 0
-5.798527 3.588114 -22.392315 23.407547 -0.554127 2.845994 0.025789 -0.000604 -220412.000000 0 1 0
-5.256127 3.027914 -23.745615 24.508149 -0.522640 2.891488 0.042068 -0.012173 -166221.000000 0 1 0
-3.925627 2.596314 -23.591515 24.056412 -0.584331 2.944677 0.049730 -0.013926 -201685.000000 0 1 0
-3.406727 1.961014 -24.739815 25.050146 -0.522308 2.984023 0.078022 -0.021473 81769.200000 0 0 1
-1.995327 1.335914 -24.704815 24.821239 -0.589976 3.044699 0.057340 -0.016516 73105.800000 0 1 0
-0.980827 2.356414 -24.459915 24.592726 -1.176371 3.037619 0.049961 -0.017539 1440420.000000 0 1 0
0.357873 1.816214 -24.453315 24.523281 1.376245 3.066036 0.046363 -0.019059 941322.000000 0 1 0
0.753973 0.807914 -23.324115 23.350279 0.819920 3.094249 0.042209 -0.021427 -1180900.000000 0 1 0
0.171873 -0.472286 -23.368915 23.374319 -1.221777 3.120089 0.041167 -0.023994 -41455.800000 0 1 0
0.962573 -1.418286 -22.642015 22.706804 -0.974518 3.066033 0.037088 -0.011582 -395644.000000 0 1 0
0.385673 -2.892386 -22.723115 22.909705 -1.438237 3.013877 0.047422 -0.018007 361224.000000 0 1 0
-0.815727 -3.091986 -21.994615 22.225861 1.312854 2.997215 0.044413 -0.018380 -263888.000000 0 1 0
-1.982427 -2.822886 -22.724515 22.984827 0.958549 2.990948 0.057134 -0.021637 -285207.000000 0 1 0
-2.710127 -1.449086 -22.565215 22.773528 0.491015 3.006233 0.052520 -0.019613 -1200360.000000 0 1 0
-3.442627 -1.330086 -21.378215 21.694444 0.368691 2.970642 0.040592 -0.019680 160194.000000 0 1 0
-4.315827 -0.199186 -21.321015 21.754349 0.046120 2.941663 0.028301 -0.018838 670525.000000 0 1 0
-5.615727 -0.328086 -22.173115 22.875556 0.058356 2.893135 0.033289 -0.009484 -215833.000000 0 1 0
-6.424427 -1.429786 -21.769915 22.743059 0.218986 2.848003 0.039707 -0.001164 712236.000000 0 1 0
-7.816427 -1.106186 -21.657015 23.050954 0.140587 2.792046 0.031545 -0.000185 773779.000000 0 1 0
-8.756627 -2.294186 -21.415115 23.249709 0.256235 2.741672 0.027950 -0.005289 -202970.000000 0 1 0
-9.057027 -3.135686 -22.516515 24.471529 0.333300 2.739159 0.061530 -0.013021 -100594.000000 0 1 0
-9.404127 -4.443986 -22.178015 24.495938 0.441453 2.703059 0.034187 -0.007893 -669797.000000 0 1 0
-10.234627 -5.161286 -23.196715 25.874197 0.467079 2.682645 0.030086 -0.011875 -390941.000000 0 0 1
-11.614127 -4.942586 -22.982315 26.220296 0.402351 2.639357 0.025824 -0.014379 -505135.000000 0 0 1
-12.324927 -5.668386 -23.940915 27.517301 0.431066 2.626062 0.023319 -0.024416 814157.000000 0 0 1
-13.877527 -5.485886 -23.694315 28.001808 0.376454 2.579555 0.045929 -0.030679 815194.000000 0 0 1
-14.363427 -4.177386 -23.931915 28.222246 0.283027 2.582960 0.051261 -0.026756 472777.000000 0 0 1
-15.795227 -4.220186 -23.934815 28.985764 0.261083 2.542316 0.064861 -0.027415 791271.000000 0 0 1
-16.340327 -2.792586 -24.180115 29.316937 0.169266 2.540615 0.050100 -0.019923 -267737.000000 0 0 1
-15.947627 -2.369586 -25.472155 30.145853 0.147506 2.577294 0.044011 -0.021266 313945.000000 0 0 1
-16.492827 -1.115686 -25.931275 30.752059 0.067544 2.574073 0.029247 -0.010941 974550.000000 0 0 1
-18.015827 -1.078586 -26.353655 31.941329 0.059797 2.541113 0.030464 -0.007885 663602.000000 0 0 1
-18.242727 -1.648586 -27.587555 33.114772 0.090125 2.555465 0.046004 -0.018557 62184.500000 0 0 1
-17.796027 -0.976286 -28.806325 33.874121 0.054805 2.587529 0.038574 -0.016859 -224025.000000 0 0 1
-17.896327 -1.865886 -30.076855 35.048213 0.103885 2.602464 0.044721 -0.020125 90844.800000 0 0 1
-19.227527 -2.162186 -30.431935 36.062106 0.111982 2.575263 0.040166 -0.024923 -22665.100000 0 0 1
-19.246127 -2.851286 -31.664875 37.164601 0.147079 2.590623 0.049326 -0.033409 -107084.000000 0 0 1
-20.673827 -3.390486 -32.046765 38.287043 0.162552 2.562598 0.025238 -0.025708 385615.000000 0 0 1
-21.559627 -2.422086 -32.534705 39.104872 0.111875 2.553474 0.026941 -0.025459 -28851.900000 0 0 1
-22.185427 -1.732886 -31.465035 38.538870 0.077951 2.526031 0.020170 -0.011160 -1030470.000000 0 0 1
-23.328227 -0.859186 -32.016565 39.623286 0.036814 2.511587 0.020980 -0.005298 -478732.000000 0 0 1
-22.962627 0.339614 -32.650645 39.918194 -0.014789 2.528616 0.025199 -0.005057 -361654.000000 0 0 1
-24.050327 1.110714 -32.979295 40.832411 -0.046150 2.510994 0.030874 -0.000960 -581576.000000 0 0 1
-23.490427 2.510814 -33.498235 40.990683 -0.106482 2.527360 0.044779 0.001753 -195996.000000 0 0 1
-22.988127 3.423314 -32.510615 39.963898 -0.147830 2.520941 0.041455 0.000147 619034.000000 0 0 1
-23.926727 3.972514 -31.575355 39.815477 -0.164528 2.486583 0.037980 0.001172 -361081.000000 0 0 1
-24.990927 4.912714 -32.188155 41.045810 -0.194105 2.472203 0.033781 -0.006567 -316833.000000 0 0 1
-26.006497 4.112414 -32.766165 42.034169 -0.156832 2.464684 0.043304 -0.011587 -139662.000000 0 0 1
-26.777527 4.791714 -33.714705 43.320639 -0.177071 2.462686 0.056370 -0.016945 -481368.000000 0 0 1
-28.053247 4.120614 33.952242 44.234815 -0.145843 0.695793 0.056581 -0.017040 -282834.000000 0 0 1
-27.942227 2.860114 33.247331 43.523940 -0.102003 0.701483 0.057900 -0.018069 723502.000000 0 0 1
-29.269857 2.455714 32.906098 44.108574 -0.083703 0.728724 0.061067 -0.021568 505514.000000 0 0 1
-29.283857 0.924614 32.586494 43.820985 -0.031564 0.732317 0.071189 -0.005741 -218986.000000 0 0 1
-29.179687 0.096914 33.737618 44.605945 -0.003321 0.713084 0.076785 -0.001902 -129281.000000 0 0 1
-29.294177 -1.219986 33.369729 44.420445 0.041622 0.720881 0.066572 -0.004596 -850899.000000 0 0 1
-28.985967 -2.157886 -33.635985 44.454721 0.074309 2.428947 0.015867 0.003504 -572713.000000 0 0 1
-27.638377 -2.102386 -33.288325 43.317577 0.075921 2.447245 0.031602 -0.002668 -199209.000000 0 0 1
-27.140547 -0.910186 -32.652645 42.469200 0.033523 2.447844 0.039240 0.005258 -1198110.000000 0 0 1
-27.376507 -0.776986 -31.119975 41.455153 0.028374 2.419902 0.061065 0.003168 -313050.000000 0 0 1
-26.485447 -1.497886 -30.296445 40.269059 0.056495 2.422419 0.046193 -0.004048 447265.000000 0 0 1
-26.795617 -1.225686 -28.930665 39.452386 0.045710 2.393968 0.056597 -0.008720 427155.000000 0 0 1
-25.629277 -1.665186 -27.957285 37.963699 0.064881 2.398562 0.053258 -0.006000 500953.000000 0 0 1
-25.550847 -3.062186 -27.767265 37.858206 0.119278 2.394186 0.043211 -0.007519 179059.000000 0 0 1
-24.790127 -3.363386 -26.618585 36.529602 0.134851 2.387197 0.058368 -0.009880 -292368.000000 0 0 1
-25.178007 -4.685686 -25.936915 36.450120 0.183997 2.362531 0.054104 -0.017919 323714.000000 0 0 1
-26.345417 -4.564186 -25.134935 36.697108 0.171541 2.325303 0.054651 -0.012338 222814.000000 0 0 1
-26.334257 -5.615586 -24.166915 36.181040 0.210096 2.302239 0.053488 -0.018940 -32609.400000 0 0 1
-27.627797 -5.589686 -23.339215 36.595884 0.199626 2.262377 0.067688 -0.022598 -3369.920000 0 0 1
-27.577237 -6.479886 -22.214415 35.999627 0.230786 2.235815 0.069556 -0.024422 -1103700.000000 0 0 1
-28.778747 -6.361986 -21.585015 36.532233 0.217566 2.202906 0.077937 -0.019421 -1277300.000000 0 0 1
-29.085497 -7.532086 -20.645115 36.454344 0.253397 2.172840 0.087132 -0.023776 -320921.000000 0 0 1
-28.066917 -7.818886 -19.695915 35.168393 0.271692 2.165238 0.085664 -0.021596 139764.000000 0 0 1
-28.478657 -8.649986 -18.627515 35.111828 0.294881 2.130010 0.094303 -0.016155 -125052.000000 0 0 1
-29.164037 -7.957586 -17.423515 34.891877 0.266372 2.093653 0.088878 -0.014666 35243.400000 0 0 1
-28.296777 -7.158686 -16.644815 33.600658 0.247787 2.089059 0.077184 -0.019927 148371.000000 0 0 1
-28.976247 -6.608886 -15.537315 33.536673 0.224244 2.052504 0.079784 -0.015915 11040.500000 0 0 1
-28.139507 -5.656786 -14.640815 32.220871 0.198382 2.042483 0.089570 -0.018568 30751.300000 0 0 1
-27.819427 -4.418386 -15.224515 32.019190 0.157508 2.066307 0.092491 -0.013111 139087.000000 0 0 1
-26.944347 -3.705786 -14.372615 30.762034 0.136677 2.056939 0.091082 -0.020595 -49648.600000 0 0 1
-13.965427 21.030414 -4.817615 25.700601 -0.984601 1.759363 0.050273 -0.028008 -375473.000000 0 0 1
-14.060627 20.367214 -6.057615 25.479783 -0.966572 1.810837 0.083342 -0.034426 357629.000000 0 0 1
-15.065827 19.359914 -5.952615 25.243198 -0.909492 1.808849 0.073761 -0.045666 136454.000000 0 0 1
-15.372427 18.625614 -7.347515 25.243038 -0.880795 1.866142 0.102414 -0.051178 147541.000000 0 0 1
-14.220227 17.992614 -7.918015 24.261986 -0.901975 1.903241 0.096716 -0.046287 251927.000000 0 1 0
-14.470027 16.893414 -8.829815 23.931877 -0.862513 1.948682 0.090598 -0.051238 -220312.000000 0 1 0
-15.119927 15.558014 -8.321815 23.236105 -0.799677 1.937073 0.090165 -0.053553 543347.000000 0 1 0
-16.473327 15.841514 -7.965915 24.202890 -0.765849 1.906179 0.091707 -0.035899 329339.000000 0 1 0
-16.902427 14.948214 -6.975915 23.617886 -0.724119 1.870635 0.101620 -0.027693 13081.900000 0 1 0
-18.370027 15.241514 -6.573415 24.758260 -0.692587 1.839523 0.107463 -0.028376 302906.000000 0 1 0
-19.329927 14.868414 -7.531415 25.523284 -0.655671 1.870336 0.111182 -0.026424 672889.000000 0 0 1
-20.679827 15.153714 -7.143015 26.614149 -0.632387 1.842519 0.072736 -0.027238 1544590.000000 0 0 1
-21.863027 14.543614 -7.994115 27.448398 -0.586997 1.866321 0.080787 -0.013656 693254.000000 0 0 1
-22.020927 13.162314 -7.775215 26.807120 -0.538740 1.865068 0.117208 -0.024608 493411.000000 0 0 1
-22.991227 12.574214 -8.668515 27.601640 -0.500471 1.890261 0.128302 -0.024522 619307.000000 0 0 1
-23.269127 11.068014 -8.422215 27.108798 -0.443980 1.886707 0.120769 -0.029195 224414.000000 0 0 1
-22.042127 10.298314 -8.454415 25.756315 -0.437074 1.905243 0.126747 -0.026094 806220.000000 0 0 1
-22.132027 9.091614 -7.669015 25.125641 -0.389773 1.880973 0.138418 -0.036442 -212216.000000 0 0 1
-20.808727 8.370314 -7.357215 23.604955 -0.382445 1.887758 0.107412 -0.019367 -349489.000000 0 1 0
-20.477127 7.286114 -8.221815 23.237866 -0.341848 1.932439 0.097394 -0.018772 -91043.700000 0 1 0
-19.462027 6.512514 -7.692015 21.916898 -0.322914 1.929395 0.067673 -0.010805 -649538.000000 0 1 0
-19.069627 5.274614 -8.503915 21.535756 -0.269851 1.976727 0.040251 -0.021109 -443999.000000 0 1 0
-20.133327 4.344514 -8.573115 22.309728 -0.212528 1.965221 0.064299 -0.023074 403077.000000 0 1 0
-20.005227 3.381014 -9.601415 22.446103 -0.167424 2.012803 0.064653 -0.019788 -442853.000000 0 1 0
-20.901127 2.145014 -9.441115 23.034601 -0.102269 1.993104 0.064752 -0.027157 -358559.000000 0 1 0
-20.527827 1.193814 -8.509415 22.253697 -0.058090 1.963169 0.060112 -0.030399 131528.000000 0 1 0
-21.541227 0.239614 -8.249715 23.068153 -0.011123 1.936518 0.079582 -0.026680 -123149.000000 0 1 0
-21.570127 -1.044186 -9.166315 23.460222 0.048371 1.972207 0.069917 -0.045698 67928.400000 0 1 0
-20.519227 -1.958386 -8.889515 22.447660 0.095153 1.977965 0.058952 -0.030762 558398.000000 0 1 0
-20.818027 -3.304486 -9.213215 23.004200 0.157419 1.982860 0.068181 -0.023685 654916.000000 0 1 0
-21.917027 -4.183186 -8.481715 23.870371 0.188596 1.934057 0.079919 -0.018502 807719.000000 0 1 0
-21.467327 -4.377986 -7.138615 23.042845 0.201178 1.885776 0.058623 -0.016091 1107540.000000 0 1 0
-22.434027 -5.153286 -6.371715 23.883900 0.225791 1.840845 0.083221 -0.019571 125908.000000 0 1 0
-22.319027 -6.691086 -6.643915 24.229140 0.291267 1.848566 0.077537 -0.030154 -159321.000000 0 1 0
-21.141327 -7.355186 -6.249815 23.240367 0.334808 1.843069 0.054517 -0.029288 487535.000000 0 1 0
-21.440427 -8.757286 -6.169115 23.967477 0.387767 1.831122 0.067083 -0.029972 60367.700000 0 1 0
-20.370127 -9.681486 -5.501515 23.215079 0.443676 1.810053 0.069867 -0.026163 683786.000000 0 1 0
-19.298727 -10.037586 -6.402515 22.675674 0.479611 1.857041 0.075144 -0.013168 308443.000000 0 1 0
-18.412727 -10.893686 -5.728415 22.147588 0.534249 1.832418 0.084075 -0.008241 353929.000000 0 1 0
-17.284827 -11.518386 -6.637115 21.805728 0.587809 1.880078 0.052472 -0.009181 397361.000000 0 1 0
-16.416427 -10.634186 -7.282315 20.871442 0.574811 1.927207 0.062248 -0.032126 272761.000000 0 1 0
-16.978827 -10.091386 -8.454715 21.484851 0.536256 1.975254 0.075877 -0.039155 -393200.000000 0 1 0
-16.132827 -10.453386 -9.682115 21.524050 0.574938 2.037369 0.091671 -0.028293 41149.900000 0 1 0
-16.315527 -11.792786 -10.030715 22.491809 0.625862 2.033056 0.116996 -0.031544 -356107.000000 0 1 0
-15.403227 -12.285886 -10.945115 22.538810 0.673287 2.077859 0.102928 -0.014234 -190499.000000 0 1 0
-15.753327 -13.760986 -11.503015 23.871560 0.717996 2.073585 0.136671 -0.017250 -82895.700000 0 1 0
-16.357627 -13.856886 -12.743415 24.939524 0.702820 2.107112 0.114902 -0.016817 16959.600000 0 1 0
-16.435327 -15.230986 -13.168515 25.990627 0.747384 2.102107 0.097865 -0.015082 -49789.200000 0 0 1
-16.591727 -15.171886 -14.724515 26.875321 0.740728 2.150627 0.098060 -0.017731 -46253.700000 0 0 1
-16.828027 -16.434586 -15.411115 28.120821 0.773570 2.150806 0.086688 -0.012143 232879.000000 0 0 1
-17.037827 -16.193386 -16.751115 28.863700 0.759993 2.189958 0.081419 -0.016985 -139593.000000 0 0 1
-17.601727 -17.411186 -17.514215 30.326851 0.779956 2.186478 0.076870 -0.025611 1104630.000000 0 0 1
-18.980427 -17.721186 -17.205115 31.149848 0.751101 2.155958 0.046064 -0.020236 251535.000000 0 0 1
-19.800027 -18.057686 -18.245215 32.419268 0.739407 2.168553 0.054251 -0.022428 -570088.000000 0 0 1
-21.258027 -18.049786 -17.767415 33.066290 0.703960 2.138061 0.055149 -0.027685 -510994.000000 0 0 1
-21.769427 -16.764286 -17.406315 32.525821 0.656231 2.135486 0.053126 -0.014295 234564.000000 0 0 1
-21.643727 -16.495586 -16.077715 31.607724 0.651227 2.104429 0.044513 -0.021080 -469195.000000 0 0 1
-21.547927 -15.044486 -15.651415 30.587849 0.609508 2.107944 0.047281 -0.022108 -567033.000000 0 0 1
-22.737627 -14.353186 -15.416815 30.995029 0.563083 2.091391 0.071415 -0.019416 -87242.400000 0 0 1
-22.514827 -13.048286 -14.934015 30.003333 0.525241 2.091793 0.072214 -0.021718 -421323.000000 0 0 1
-23.840427 -12.351686 -14.601015 30.563373 0.478021 2.068864 0.077317 -0.027549 -228263.000000 0 0 1
-24.457727 -12.977286 -13.455615 30.783826 0.487827 2.023168 0.089044 -0.020110 -595780.000000 0 0 1
-25.457977 -12.201586 -12.986115 31.074531 0.446937 2.001931 0.106355 -0.017173 -1259950.000000 0 0 1
-26.256487 -12.908386 -11.844915 31.564720 0.456926 1.955471 0.108034 -0.019038 367336.000000 0 0 1
-27.184827 -11.987886 -11.235115 31.764005 0.415325 1.932326 0.095445 -0.023607 584167.000000 0 0 1
-27.843237 -12.524786 -10.092815 32.155575 0.422714 1.890067 0.094729 -0.021831 88037.100000 0 0 1
-28.758197 -11.464586 -9.477215 32.377279 0.379346 1.867858 0.098380 -0.026754 -399574.000000 0 0 1
-28.009287 -10.537486 -8.759415 31.181503 0.359835 1.855546 0.106852 -0.035040 -192329.000000 0 0 1
-28.753647 -9.532986 -8.153915 31.370948 0.320136 1.833735 0.130133 -0.036754 -150090.000000 0 0 1
-27.847907 -8.525686 -7.383315 30.045076 0.297091 1.819081 0.110152 -0.035549 95412.300000 0 0 1
-27.474467 -9.056486 -6.122315 29.569393 0.318416 1.779354 0.097198 -0.040725 176444.000000 0 0 1
-26.597647 -8.148386 -5.425615 28.341989 0.297279 1.763419 0.086956 -0.039439 76577.000000 0 0 1
-27.107667 -6.739386 -4.950815 28.368213 0.243675 1.746214 0.116736 -0.038294 124485.000000 0 0 1
-28.035047 -6.857886 -3.854415 29.117881 0.239907 1.703559 0.115123 -0.039093 693563.000000 0 0 1
-27.386717 -7.103786 -2.607015 28.412894 0.253795 1.662680 0.123138 -0.033870 24073.400000 0 0 1
-26.733447 -5.836686 -1.909115 27.429707 0.214956 1.640453 0.116128 -0.029410 -187382.000000 0 0 1
-27.681837 -4.920986 -1.509915 28.156350 0.175932 1.624448 0.121429 -0.031905 -181758.000000 0 0 1
-27.087157 -3.894786 -0.715815 27.375095 0.142808 1.596948 0.117252 -0.042070 545367.000000 0 0 1
-28.165727 -2.928686 -0.070315 28.317668 0.103608 1.573279 0.128204 -0.043533 141701.000000 0 0 1
-29.063827 -3.246786 0.922885 29.259176 0.111251 1.539249 0.132757 -0.044307 -177603.000000 0 0 1
-28.458437 -3.485486 2.194585 28.754955 0.121869 1.494402 0.124501 -0.037680 -320503.000000 0 0 1
-29.432687 -3.773886 3.341085 29.861147 0.127525 1.458674 0.119209 -0.037750 -522123.000000 0 0 1
-30.086957 -4.991686 3.141585 30.659606 0.164411 1.468150 0.119629 -0.035305 -57970.600000 0 0 1
-31.003167 -5.154486 4.208285 31.709222 0.164750 1.437689 0.127238 -0.037051 -231017.000000 0 0 1
-31.813167 -6.445186 4.156085 32.724472 0.199889 1.443450 0.116563 -0.031473 -316308.000000 0 0 1
-31.072487 -7.618486 4.418785 32.296539 0.240441 1.433547 0.113845 -0.021652 481754.000000 0 0 1
-31.839587 -8.802386 4.139985 33.292353 0.269723 1.446121 0.121526 -0.027033 -90533.200000 0 0 1
-31.144367 -10.103686 4.492985 33.049099 0.313702 1.434425 0.105473 -0.019435 -21678.400000 0 0 1
-30.751697 -10.160786 5.877685 32.915887 0.319121 1.391267 0.096782 -0.021601 933906.000000 0 0 1
-29.595237 -10.950286 6.182285 32.155986 0.354381 1.377333 0.087262 -0.016640 33005.700000 0 0 1
-29.511537 -11.404686 7.682785 32.557992 0.368770 1.332577 0.079374 -0.022456 -48271.800000 0 0 1
-29.556467 -10.259386 8.522185 32.426338 0.334099 1.304856 0.105084 -0.019409 350703.000000 0 0 1
-29.540197 -10.600686 9.836385 32.890002 0.344543 1.267079 0.116770 -0.027945 -255827.000000 0 0 1
-29.649867 -9.331786 10.687485 32.869730 0.304918 1.239629 0.125984 -0.026218 -14838.700000 0 0 1
-28.469107 -8.565486 10.627385 31.572122 0.292254 1.227485 0.118287 -0.031521 169202.000000 0 0 1
-28.557787 -7.560486 11.591085 31.734231 0.258806 1.196890 0.142211 -0.027175 1456.320000 0 0 1
-27.518217 -6.436486 11.428085 30.484123 0.229768 1.186522 0.143407 -0.026232 -196347.000000 0 0 1
-27.727617 -5.657286 10.293585 30.112846 0.201268 1.221929 0.166724 -0.031372 185003.000000 0 0 1
-27.121737 -4.397386 10.381385 29.371734 0.160736 1.209542 0.146603 -0.031287 -279544.000000 0 0 1
-27.333397 -3.521286 9.176385 29.046860 0.128122 1.249374 0.158843 -0.035782 694597.000000 0 0 1
-26.488097 -4.011186 8.065085 27.977750 0.150292 1.278379 0.119365 -0.028018 1175510.000000 0 0 1
-26.995427 -3.538386 6.855785 28.076236 0.130331 1.324118 0.131677 -0.041919 -196140.000000 0 0 1
-26.155177 -4.160786 5.745985 27.100217 0.157759 1.357147 0.107740 -0.029760 -477326.000000 0 0 1
-24.822827 -3.734086 5.792985 25.761887 0.149310 1.343990 0.123260 -0.035933 250527.000000 0 0 1
-24.073827 -4.237986 4.673585 24.886785 0.174256 1.381881 0.122499 -0.024977 88186.900000 0 1 0
-22.573227 -3.905786 4.636185 23.373060 0.171331 1.371116 0.116924 -0.021891 21805.500000 0 1 0
-22.387427 -2.487086 4.450285 22.960564 0.110639 1.375739 0.093977 -0.020827 429917.000000 0 1 0
-21.002127 -2.239186 4.627085 21.622054 0.106216 1.355130 0.071684 -0.016176 -135859.000000 0 1 0
-20.492727 -0.820586 4.759385 21.054144 0.040021 1.342771 0.045812 -0.022365 -624771.000000 0 1 0
-20.638527 0.023014 3.642785 20.957557 -0.001115 1.396092 0.051216 -0.015400 2088640.000000 0 1 0
-21.994527 0.540314 3.411985 22.264159 -0.024561 1.416940 0.063560 -0.031282 1436650.000000 0 1 0
-22.022127 1.709514 2.386085 22.216884 -0.077472 1.463189 0.084334 -0.022879 -29389.800000 0 1 0
-21.333427 2.875014 2.860085 21.715453 -0.133959 1.438705 0.056922 -0.022128 408339.000000 0 1 0
-21.666427 4.000214 2.046785 22.127474 -0.182571 1.478164 0.085362 -0.013883 389972.000000 0 1 0
-20.512527 4.351914 1.056485 20.995692 -0.209059 1.520456 0.052293 -0.004118 -112777.000000 0 1 0
-20.842527 5.215014 -0.070515 21.485164 -0.245177 1.574078 0.073377 -0.000600 1010740.000000 0 1 0
-21.725827 4.641914 -1.093315 22.243072 -0.210494 1.619969 0.104595 -0.009470 358050.000000 0 1 0
-21.163927 3.506614 -1.963315 21.542116 -0.164197 1.662061 0.081767 -0.010442 -442869.000000 0 1 0
-21.063627 2.323514 -1.168315 21.223573 -0.109865 1.625872 0.053237 -0.006198 664470.000000 0 1 0
-20.442127 1.287514 -1.934015 20.573737 -0.062900 1.664939 0.036971 -0.003372 -307005.000000 0 1 0
-19.657027 0.350514 -1.033715 19.687309 -0.017830 1.623327 0.040464 -0.005178 -459120.000000 0 1 0
-20.531127 -0.530586 -0.373015 20.541369 0.025837 1.588957 0.057388 -0.011395 551519.000000 0 1 0
-19.884027 -1.285286 0.591485 19.934301 0.064549 1.541120 0.050212 -0.011600 -452577.000000 0 1 0
-18.973027 -2.420286 0.125585 19.127188 0.126879 1.564230 0.028715 -0.008795 -121891.000000 0 1 0
-18.324327 -3.103586 1.204785 18.624304 0.167778 1.506062 0.034492 -0.008829 530315.000000 0 1 0
-17.614027 -4.277786 0.882285 18.147502 0.238250 1.522160 0.030012 -0.005625 79055.300000 0 1 0
-18.537627 -5.510886 0.627285 19.349599 0.288961 1.538372 0.030461 -0.007038 450861.000000 0 1 0
-19.233127 -6.048286 1.789285 20.240960 0.304681 1.482282 0.054834 -0.012127 530032.000000 0 1 0
-20.197227 -6.987286 1.422885 21.419028 0.333065 1.504316 0.053699 -0.014404 -387784.000000 0 1 0
-20.854427 -7.528286 2.713385 22.337069 0.346434 1.449021 0.065062 -0.013900 -37709.200000 0 1 0
-20.013527 -8.359086 3.525885 21.973790 0.395647 1.409641 0.056952 -0.009559 664261.000000 0 1 0
-20.614827 -8.573486 4.790685 22.834763 0.394129 1.359428 0.044365 -0.011985 -648074.000000 0 1 0
-19.743027 -9.353586 5.734485 22.586744 0.442441 1.314099 0.047212 -0.010358 -595682.000000 0 1 0
-19.413127 -10.622386 5.242985 22.741888 0.500672 1.338161 0.059553 -0.000979 -247611.000000 0 1 0
-18.438627 -11.332786 5.902485 22.433331 0.551102 1.304550 0.062474 -0.009785 -736313.000000 0 1 0
-18.162027 -12.746686 5.365085 22.828083 0.611954 1.333556 0.062200 -0.004743 199854.000000 0 1 0
-19.089327 -13.843486 5.581185 24.232089 0.627436 1.338388 0.080067 -0.004049 280026.000000 0 1 0
-18.572527 -15.027586 5.079885 24.424830 0.680283 1.361287 0.075790 -0.001279 -206251.000000 0 1 0
-19.323427 -16.323486 5.435685 25.872721 0.701439 1.359126 0.085527 -0.011680 -482112.000000 0 0 1
-18.707827 -17.493686 4.998085 26.095837 0.751872 1.378078 0.087737 -0.008935 -227903.000000 0 0 1
-19.486027 -18.681686 5.090085 27.470340 0.764327 1.384425 0.086769 -0.013117 -246612.000000 0 0 1
-18.725427 -20.000786 4.885085 27.830507 0.818319 1.394352 0.097101 -0.024496 -637889.000000 0 0 1
-18.364227 -20.250286 3.524785 27.563436 0.834203 1.442566 0.099911 -0.018286 218270.000000 0 0 1
-17.492427 -21.330786 3.286085 27.781033 0.883946 1.452234 0.093532 -0.011104 986700.000000 0 0 1
-15.989127 -21.123386 3.717685 26.752024 0.922869 1.431377 0.109213 -0.013439 376118.000000 0 0 1
-15.309427 -22.328786 3.870085 27.348323 0.969776 1.428809 0.100440 -0.014953 -523060.000000 0 0 1
-13.913327 -22.181986 3.867785 26.468489 1.010591 1.424143 0.087351 -0.014234 272541.000000 0 0 1
-13.063227 -23.471486 4.173085 27.184061 1.062933 1.416675 0.098898 -0.017171 199624.000000 0 0 1
-12.902827 -24.409586 3.133785 27.787253 1.084534 1.457778 0.080576 -0.015027 460679.000000 0 0 1
-12.207227 -25.624936 3.564085 28.606930 1.126222 1.445884 0.075322 -0.012804 491694.000000 0 0 1
19.439073 18.718414 -24.697115 36.581472 0.766514 2.311932 0.087234 -0.001022 279604.000000 0 0 1
18.494373 19.140514 -25.670215 36.977845 0.802565 2.338112 0.066266 -0.003499 534775.000000 0 0 1
19.041773 18.924014 -27.019515 38.088865 0.782296 2.359416 0.079624 -0.005813 377597.000000 0 0 1
17.929373 19.223014 -28.048795 38.441144 0.820204 2.388614 0.071799 -0.004887 334295.000000 0 0 1
17.590373 20.624914 -28.198395 39.114675 0.864638 2.375919 0.064580 -0.002444 315094.000000 0 0 1
16.511273 20.697714 -29.117445 39.355344 0.897439 2.403659 0.051205 -0.006449 -94701.600000 0 0 1
15.970173 22.091614 -29.401055 40.093739 0.944862 2.393971 0.054221 -0.012076 82294.700000 0 0 1
15.184073 22.725014 -28.372795 39.395404 0.981757 2.374895 0.055919 -0.010527 603745.000000 0 0 1
15.226873 24.119914 -28.666825 40.440262 1.007680 2.358689 0.055727 -0.008477 -67005.800000 0 0 1
14.456573 24.928714 -27.595795 39.899388 1.045275 2.334546 0.054827 -0.011898 -476408.000000 0 0 1
13.071873 24.806714 -27.651135 39.380607 1.085823 2.349210 0.056896 -0.024241 -723431.000000 0 0 1
12.467173 25.569414 -26.641805 38.974493 1.117133 2.323439 0.063427 -0.018905 -91026.300000 0 0 1
10.965973 25.270014 -26.349645 38.119942 1.161368 2.333986 0.078998 -0.020011 464796.000000 0 0 1
10.327473 26.101714 -25.418255 37.868772 1.194035 2.306649 0.070651 -0.028452 -163999.000000 0 0 1
10.128973 27.463314 -25.853175 39.054019 1.217456 2.294260 0.076997 -0.032690 -394520.000000 0 0 1
9.541173 28.429514 -24.783815 38.903840 1.247000 2.261466 0.095719 -0.037198 408637.000000 0 0 1
10.476573 28.629914 -23.736015 38.637145 1.220000 2.232335 0.082988 -0.033484 -25524.200000 0 0 1
9.878573 29.510614 -22.826015 38.593905 1.247775 2.203641 0.103255 -0.033670 71906.000000 0 0 1
10.802373 29.906214 -21.639815 38.462378 1.224171 2.168351 0.072687 -0.038978 -37223.300000 0 0 1
11.937673 30.587014 -22.110915 39.584922 1.198692 2.163456 0.059881 -0.042209 -414296.000000 0 0 1
12.665273 31.174214 -21.053315 39.692352 1.184893 2.129883 0.040302 -0.031974 277675.000000 0 0 1
13.932773 31.921914 -21.603615 40.985936 1.159256 2.125979 0.045326 -0.022427 -17887.600000 0 0 1
14.939473 31.047814 -21.996815 40.878044 1.122321 2.138987 0.040943 -0.026214 -484741.000000 0 0 1
15.940873 31.791414 -22.683815 42.182472 1.106013 2.138568 0.031014 -0.012551 -130091.000000 0 0 1
17.145173 30.997014 -23.196815 42.342226 1.065558 2.150578 0.006038 -0.001775 249750.000000 0 0 1
18.058273 30.631514 -22.138415 41.886756 1.038109 2.127665 0.011859 0.001893 -468164.000000 0 0 1
19.136673 30.027614 -22.756115 42.257669 1.003399 2.139462 0.017407 0.001197 -991419.000000 0 0 1
20.122573 29.253414 -21.865515 41.698692 0.968257 2.122771 0.029874 0.000468 -89938.400000 0 0 1
20.728573 30.087414 -20.895915 42.089969 0.967528 2.090310 0.029041 0.010348 53158.000000 0 0 1
21.533173 29.293614 -20.022215 41.505210 0.936912 2.074192 0.042332 0.004949 295237.000000 0 0 1
22.131273 30.177714 -18.894415 41.922388 0.938027 2.038346 0.047984 0.002827 -280714.000000 0 0 1
23.067973 31.139214 -19.273615 43.281108 0.933208 2.032319 0.060174 0.004234 -4568.820000 0 0 1
23.815473 31.535614 -18.122115 43.475082 0.923980 2.000761 0.061458 0.005300 52222.200000 0 0 1
25.030273 32.437914 -18.403715 44.915805 0.913591 1.992963 0.078567 0.000296 -19286.700000 0 0 1
26.167373 31.782514 -18.893115 45.296903 0.881993 2.001043 0.086432 -0.000229 -149044.000000 0 0 1
27.337273 32.578514 -18.680915 46.450648 0.872653 1.984679 0.087227 -0.006784 553251.000000 0 0 1
28.619173 31.941714 -19.243815 47.006963 0.840206 1.992573 0.082879 -0.011006 -7590.750000 0 0 1
29.097073 30.863914 -18.452615 46.257106 0.814856 1.981129 0.071395 -0.005189 -1122840.000000 0 0 1
30.382473 30.548914 -18.835215 47.022294 0.788130 1.982923 0.036465 0.002153 -986920.000000 0 0 1
30.980973 29.343714 -18.085115 46.345934 0.758264 1.971667 0.027093 -0.001643 -193682.000000 0 0 1
31.394673 29.676114 -16.770415 46.341602 0.757265 1.941087 0.025931 -0.004275 -93085.000000 0 0 1
31.563373 28.564114 -15.924915 45.450611 0.735558 1.928771 0.018808 -0.001550 -404792.000000 0 0 1
32.006473 29.042014 -14.541415 45.599404 0.736877 1.895360 0.028025 -0.009247 358825.000000 0 0 1
33.318673 29.587314 -14.447815 46.843169 0.726151 1.884338 0.014845 -0.008988 79194.700000 0 0 1
33.469073 30.953514 -14.875415 47.953903 0.746370 1.886202 0.027835 -0.013339 -1502470.000000 0 0 1
34.867973 31.429914 -15.070915 49.302612 0.733587 1.881451 0.039210 -0.014786 -1018020.000000 0 0 1
35.534473 31.747314 -13.886315 49.632857 0.729169 1.854362 0.035789 -0.016940 688331.000000 0 0 1
-36.299939 32.138214 -14.119515 50.496644 -0.724663 1.854187 0.035381 -0.025727 1547980.000000 0 0 1
-35.379139 32.212014 -12.837415 49.538839 -0.738575 1.832926 0.029207 -0.011025 190693.000000 0 0 1
-35.773139 33.230114 -11.932015 50.262620 -0.748561 1.810478 0.052256 -0.014126 -260002.000000 0 0 1
-34.835239 33.453314 -10.928815 49.518250 -0.765164 1.793331 0.042060 -0.005317 -516276.000000 0 0 1
-35.299139 -33.703479 -9.902615 49.799754 0.762278 1.770979 0.057953 -0.006996 207942.000000 0 0 1
-34.335139 -33.001679 -9.106915 48.486580 0.765598 1.759742 0.054947 -0.007136 -26810.500000 0 0 1
-34.129639 -33.715979 -7.950915 48.629379 0.779301 1.735034 0.056651 -0.013373 -104592.000000 0 0 1
-33.894739 -32.781779 -6.694215 47.626787 0.768708 1.711819 0.072053 -0.015340 -253531.000000 0 0 1
-35.027139 -32.046779 -6.331415 47.895546 0.740993 1.703377 0.073751 -0.016307 -472369.000000 0 0 1
-34.748939 -31.084379 -5.378815 46.932494 0.729791 1.685656 0.084369 -0.022011 208645.000000 0 0 1
-36.087539 -30.395479 -5.034015 47.450363 0.699990 1.677086 0.082431 -0.017779 38505.000000 0 0 1
36.300873 -31.169979 -4.192415 48.030171 -0.709498 1.658195 0.072584 -0.024627 -39188.000000 0 0 1
34.938373 -30.794179 -4.205815 46.761739 -0.722435 1.660859 0.062610 -0.016856 238875.000000 0 0 1
34.556573 -29.767279 -3.104815 45.715287 -0.711079 1.638765 0.061245 -0.009757 42490.700000 0 0 1
35.194773 -28.461979 -3.283515 45.382130 -0.680023 1.643212 0.084080 -0.018117 488737.000000 0 0 1
34.570373 -27.541379 -2.406415 44.265439 -0.672711 1.625186 0.069022 -0.012030 -84420.500000 0 0 1
34.869373 -26.066279 -2.643015 43.615474 -0.641925 1.631432 0.092820 -0.018025 -206642.000000 0 0 1
34.560573 -25.573079 -3.938715 43.173244 -0.637038 1.662154 0.089045 -0.026074 51381.700000 0 0 1
34.555573 -24.177579 -3.916315 42.355407 -0.610506 1.663392 0.088246 -0.029434 -27418.700000 0 0 1
34.098873 -23.588579 -5.277215 41.797167 -0.605181 1.697392 0.086433 -0.035928 -722819.000000 0 0 1
35.090373 -23.695079 -6.226815 42.796779 -0.593927 1.716812 0.100281 -0.034821 -405770.000000 0 0 1
34.614173 -23.444479 -7.546315 42.482131 -0.595334 1.749379 0.085261 -0.032761 -276328.000000 0 0 1
35.696073 -23.272879 -8.632615 43.478254 -0.577761 1.770675 0.085495 -0.039548 -40407.700000 0 0 1
36.355173 -24.490679 -8.918615 44.732915 -0.592822 1.771516 0.094074 -0.022144 287999.000000 0 0 1
-35.716139 -24.317379 -9.763915 44.297986 0.597759 1.793036 0.100072 -0.022488 453825.000000 0 0 1
-34.993439 -25.640879 -10.114815 44.545538 0.632359 1.799861 0.109749 -0.020011 -49892.800000 0 0 1
-34.437539 -26.369479 -9.049615 44.307889 0.653486 1.776488 0.100239 -0.024333 -61293.100000 0 0 1
-35.188339 -27.518979 -8.694215 45.509370 0.663698 1.763020 0.090350 -0.017443 -77131.500000 0 0 1
-34.266039 -28.614479 -8.149515 45.380221 0.695761 1.751359 0.081441 -0.013690 -156027.000000 0 0 1
-33.649839 -29.268779 -9.238515 45.544739 0.715880 1.775059 0.072969 -0.005826 599907.000000 0 0 1
-32.597439 -30.171179 -8.843915 45.289159 0.746763 1.767336 0.059499 -0.018297 586549.000000 0 0 1
-31.945939 -30.998379 -10.016815 45.626517 0.770345 1.792139 0.039177 -0.009459 433568.000000 0 0 1
-31.050339 -30.254179 -10.861115 44.692311 0.772412 1.816274 0.027848 0.002479 383268.000000 0 0 1
-30.818039 -30.960579 -12.057115 45.317579 0.787705 1.840098 0.010526 0.007884 -152014.000000 0 0 1
-30.893939 -30.092279 -13.324915 45.139053 0.772254 1.870458 -0.002544 0.007615 -475564.000000 0 0 1
-29.899739 -29.132879 -13.415215 43.848455 0.772408 1.881727 -0.002328 0.012150 -573383.000000 0 0 1
-30.141439 -28.345879 -14.579715 43.869845 0.754708 1.909580 -0.006448 0.013169 974770.000000 0 0 1
-28.880339 -27.473579 -15.018415 42.596060 0.760440 1.931120 -0.000231 0.015529 765568.000000 0 0 1
-27.830939 -28.246079 -15.506915 42.577770 0.792801 1.943572 0.013232 0.005946 -667246.000000 0 0 1
-26.735439 -27.481479 -15.953815 41.527576 0.799158 1.965109 0.025834 0.014065 -603.304000 0 0 1
-25.614239 -28.347479 -16.551715 41.636859 0.836006 1.979615 0.040002 0.001634 -657866.000000 0 0 1
-25.952539 -29.044779 -17.749315 42.803874 0.841564 1.998372 0.030439 0.005320 -182674.000000 0 0 1
-26.207239 -28.298879 -18.919815 42.960509 0.823754 2.026841 0.024952 0.013129 -135336.000000 0 0 1
-24.993439 -27.576679 -19.536515 42.033565 0.834498 2.054187 0.045226 0.009654 -121744.000000 0 0 1
-24.675939 -26.464079 -18.695415 40.727975 0.820349 2.047701 0.044802 0.006330 215074.000000 0 0 1
-23.387939 -25.904979 -18.943715 39.710552 0.836417 2.068086 0.046351 -0.000879 300847.000000 0 0 1
-23.064339 -24.807379 -17.928515 38.324945 0.821793 2.057599 0.050422 -0.008238 -173901.000000 0 0 1
-22.778639 -25.176179 -16.594215 37.789871 0.835352 2.025413 0.058251 -0.011142 173239.000000 0 0 1
-22.542439 -24.013779 -15.872415 36.561683 0.816991 2.019865 0.066372 -0.016396 -262166.000000 0 0 1
-22.891539 -24.087979 -14.357815 36.199449 0.810860 1.978640 0.057021 -0.010040 -11579.200000 0 0 1
-24.258939 -24.102579 -14.023615 36.960685 0.782165 1.959965 0.029579 0.003342 -251022.000000 0 0 1
-24.428639 -23.887279 -12.649615 36.433134 0.774194 1.925381 0.028585 0.008842 53880.200000 0 0 1
-25.935439 -23.752679 -12.321115 37.264549 0.741497 1.907777 0.026178 0.018323 -851302.000000 0 0 1
-26.556239 -24.999679 -12.463515 38.542924 0.755216 1.900082 0.029427 0.012486 -540815.000000 0 0 1
-27.832539 -25.005979 -11.891615 39.260154 0.731955 1.878523 0.021085 0.018392 -611264.000000 0 0 1
-28.981339 -24.310879 -12.674615 39.894645 0.697983 1.894101 0.032727 0.011808 -1322580.000000 0 0 1
-29.294939 -23.024279 -12.207315 39.208792 0.666113 1.887400 0.037113 0.004741 280740.000000 0 0 1
-29.981239 -22.974379 -10.936715 39.323129 0.653847 1.852637 0.055445 -0.004824 796768.000000 0 0 1
-31.508339 -23.428479 -10.987815 40.772554 0.639370 1.843660 0.046326 -0.007876 996024.000000 0 0 1
-32.376139 -22.418379 -11.515015 41.029181 0.605631 1.855272 0.070180 -0.016521 211804.000000 0 0 1
-32.531839 -22.429879 -12.929715 41.576406 0.603627 1.887028 0.062140 -0.003292 407236.000000 0 0 1
-34.015839 -22.106579 -13.349115 42.708044 0.576298 1.888690 0.034679 -0.016238 1106300.000000 0 0 1
-34.928539 -23.173079 -13.130815 43.925081 0.585767 1.874374 0.056828 -0.015004 849977.000000 0 0 1
-36.253039 -22.942579 -13.619515 45.012620 0.564221 1.878185 0.074635 -0.016580 998367.000000 0 0 1
35.881073 -24.004479 -13.198315 45.142684 -0.589617 1.867499 0.066811 -0.001494 130094.000000 0 0 1
36.029173 -25.239579 -13.852515 46.119733 -0.611083 1.875866 0.054305 0.002687 23788.700000 0 0 1
35.325073 -26.283279 -13.190715 45.963752 -0.639676 1.861870 0.052689 -0.003489 104248.000000 0 0 1
35.209473 -27.568079 -13.991115 46.855707 -0.664272 1.874022 0.044192 -0.001668 893884.000000 0 0 1
34.222873 -27.410279 -15.063715 46.362096 -0.675310 1.901718 0.049722 -0.004900 675438.000000 0 0 1
34.171973 -28.592079 -15.803115 47.275460 -0.696729 1.911635 0.039910 0.000735 92061.300000 0 0 1
33.172773 -28.542779 -16.967115 46.936192 -0.710517 1.940665 0.034436 -0.003564 739115.000000 0 0 1
31.777273 -28.462579 -16.669015 45.801414 -0.730429 1.943292 0.086066 -0.002144 714406.000000 0 0 1
31.016473 -28.066779 -17.823115 45.468990 -0.735515 1.973583 0.074677 -0.007845 609075.000000 0 0 1
29.497673 -28.344479 -17.678115 44.564986 -0.765464 1.978695 0.085413 -0.016764 315493.000000 0 0 1
28.873173 -27.436379 -16.755615 43.210712 -0.759888 1.969002 0.087336 -0.020704 -35414.900000 0 0 1
27.487973 -27.711479 -16.770015 42.482327 -0.789447 1.976595 0.106747 -0.024065 -244017.000000 0 0 1
26.649773 -26.781479 -15.911015 40.995346 -0.787863 1.969385 0.099604 -0.032363 -275191.000000 0 0 1
26.804673 -25.375379 -16.136215 40.283716 -0.758013 1.982929 0.088158 -0.034208 -69538.800000 0 0 1
26.290373 -24.657979 -15.044415 39.058086 -0.753369 1.966200 0.079176 -0.028222 -158205.000000 0 0 1
26.251773 -23.163179 -15.334215 38.220761 -0.722976 1.983624 0.067269 -0.024456 298206.000000 0 0 1
24.980873 -22.767479 -15.846015 37.329590 -0.739076 2.009194 0.075299 -0.025939 337902.000000 0 0 1
24.987073 -21.435279 -16.236915 36.707798 -0.709036 2.028990 0.060582 -0.025981 -499626.000000 0 0 1
23.643873 -20.710879 -16.266915 35.391888 -0.719368 2.048367 0.053476 -0.016332 -501563.000000 0 0 1
23.209073 -20.366379 -14.956115 34.309413 -0.720254 2.021855 0.069381 -0.022938 -348787.000000 0 0 1
21.977673 -19.717379 -15.122715 33.173629 -0.731241 2.044141 0.054456 -0.026032 -252827.000000 0 0 1
21.627473 -18.462679 -14.241915 31.803305 -0.706620 2.035114 0.052809 -0.012557 -50322.100000 0 0 1
21.131973 -18.701279 -12.942815 31.045363 -0.724452 2.000829 0.047360 -0.018413 21452.800000 0 0 1
20.601673 -17.495279 -12.353515 29.717386 -0.704039 1.999509 0.044043 -0.023177 18728.600000 0 0 1
19.577173 -17.676579 -11.200415 28.656176 -0.734425 1.972357 0.047998 -0.022325 -130118.000000 0 0 1
20.082073 -18.453979 -10.133215 29.095034 -0.743175 1.926532 0.053957 -0.032224 285194.000000 0 0 1
19.092373 -18.470779 -9.103315 28.081288 -0.768852 1.900938 0.044841 -0.027418 274225.000000 0 0 1
19.450873 -19.188979 -7.762315 28.404346 -0.778620 1.847597 0.048332 -0.024362 206481.000000 0 0 1
20.480973 -18.512579 -7.040315 28.491259 -0.734961 1.820487 0.043688 -0.027586 569300.000000 0 0 1
20.976773 -19.247379 -5.863415 29.066583 -0.742431 1.773914 0.035570 -0.015921 456105.000000 0 0 1
22.332873 -18.697079 -5.342815 29.612221 -0.697016 1.752216 0.044218 -0.013258 672396.000000 0 0 1
23.414473 -18.707679 -6.273815 30.619855 -0.674118 1.777151 0.050227 -0.028583 699250.000000 0 0 1
24.492373 -17.887679 -5.833915 30.884947 -0.630797 1.760830 0.069819 -0.031001 460248.000000 0 0 1
25.598273 -17.702079 -6.934615 31.886111 -0.605022 1.790029 0.078949 -0.046554 801650.000000 0 0 1
26.574673 -18.764379 -7.062015 33.289446 -0.614808 1.784560 0.082943 -0.051968 694908.000000 0 0 1
26.272473 -19.853679 -7.934415 33.872796 -0.647129 1.807235 0.075468 -0.054865 -352558.000000 0 0 1
27.351873 -20.935379 -7.818015 35.320481 -0.653290 1.793990 0.080921 -0.060537 68623.100000 0 0 1
28.601973 -20.651979 -8.403015 36.265517 -0.625370 1.804630 0.092211 -0.053830 -478138.000000 0 0 1
29.378973 -21.780479 -8.380015 37.519834 -0.637950 1.796045 0.086061 -0.052414 -522814.000000 0 0 1
-30.093977 29.763514 4.542085 42.569293 -0.779877 1.463894 0.053775 -0.014566 344017.000000 0 0 1
-29.614307 30.544614 3.459385 42.684282 -0.800861 1.489661 0.052382 -0.015682 -671993.000000 0 0 1
-28.841367 31.570914 3.926685 42.941424 -0.830549 1.479226 0.047449 -0.008322 -384249.000000 0 0 1
-28.333517 32.458314 2.771485 43.174199 -0.853146 1.506559 0.053390 -0.005495 -69587.800000 0 0 1
-27.386047 31.840814 1.895285 42.040755 -0.860472 1.525699 0.065857 -0.024355 526213.000000 0 0 1
-26.686457 32.695314 0.978685 42.215025 -0.886245 1.547611 0.058654 -0.032645 676579.000000 0 0 1
-25.515907 33.565914 1.558285 42.191946 -0.920816 1.533855 0.080018 -0.025582 -75852.400000 0 0 1
-24.245327 32.965714 1.586885 40.952318 -0.936659 1.532037 0.060493 -0.027839 -250044.000000 0 0 1
-23.371727 33.796314 2.355685 41.157960 -0.965766 1.513530 0.053164 -0.024701 672597.000000 0 0 1
-21.861927 33.490414 2.145385 40.051896 -0.992468 1.517206 0.049793 -0.034580 602128.000000 0 0 1
-21.301627 33.899514 0.891885 40.046621 -1.009773 1.548523 0.061791 -0.036478 -509915.000000 0 0 1
-19.927727 33.657314 0.857285 39.123702 -1.036223 1.548882 0.053862 -0.035774 -879984.000000 0 0 1
-19.166927 -34.009079 -0.365915 39.040010 1.057585 1.580169 0.055521 -0.034592 -121141.000000 0 0 1
-19.064227 -32.595479 -0.474415 37.764203 1.041574 1.583359 0.049569 -0.021923 78032.700000 0 0 1
-18.330327 -31.981979 0.565185 36.866886 1.050357 1.555465 0.053485 -0.018920 -422571.000000 0 0 1
-18.162627 -30.428479 0.390885 35.439048 1.032663 1.559766 0.054759 -0.020593 56436.300000 0 0 1
-17.187927 -30.052579 -0.567415 34.625197 1.051273 1.587184 0.069212 -0.014808 228286.000000 0 0 1
-17.320927 -28.664779 -0.744415 33.499824 1.027252 1.593020 0.049709 -0.008587 -39307.900000 0 0 1
-16.273727 -28.137979 -1.730315 32.551099 1.046445 1.623978 0.049450 -0.010236 -102184.000000 0 0 1
-16.577227 -28.448979 -3.062715 33.068551 1.043194 1.663546 0.034996 -0.007349 -271531.000000 0 0 1
-15.585827 -27.977179 -3.913715 32.263876 1.062525 1.692399 0.037525 -0.005747 -284133.000000 0 0 1
-16.070027 -27.994279 -5.361115 32.721048 1.049679 1.735381 0.050621 -0.006812 -88907.600000 0 0 1
-17.134727 -27.111479 -5.588415 32.555514 1.007172 1.743309 0.036986 0.002559 -275955.000000 0 0 1
-17.509827 -26.993979 -6.968415 32.921539 0.995366 1.784077 0.047818 -0.005778 126794.000000 0 0 1
-18.330427 -25.757879 -7.310215 32.448607 0.952299 1.798033 0.031318 -0.004321 -11942.300000 0 0 1
-17.532327 -24.613779 -7.131015 31.049508 0.951865 1.802531 0.035918 -0.002130 -83604.100000 0 0 1
-18.221727 -23.443179 -7.345015 30.586978 0.910068 1.813302 0.032801 -0.000512 -537954.000000 0 0 1
-17.355727 -22.257979 -7.026515 29.086264 0.908524 1.814785 0.042835 -0.009648 -381910.000000 0 0 1
-16.236827 -22.139979 -7.844415 28.554300 0.938023 1.849094 0.065361 -0.012127 -449564.000000 0 0 1
-15.275427 -21.243579 -7.273715 27.157600 0.947392 1.841940 0.117881 -0.026756 -159841.000000 0 0 1
-14.116427 -21.014879 -8.199215 26.610632 0.979293 1.884010 0.118417 -0.026971 -735653.000000 0 0 1
-14.388427 -20.097479 -9.229115 26.383935 0.949458 1.928155 0.113407 -0.015070 -249544.000000 0 0 1
-13.366327 -20.195279 -10.202815 26.279372 0.986133 1.969522 0.110963 -0.013442 307938.000000 0 0 1
-13.639027 -19.290979 -11.501515 26.276411 0.955377 2.023849 0.126234 -0.020550 314347.000000 0 0 1
-14.655227 -19.785779 -12.368215 27.554046 0.933277 2.036298 0.097983 -0.007829 -39923.800000 0 0 1
-14.920227 -18.888179 -13.424615 27.560783 0.902230 2.079552 0.107896 -0.018988 -340818.000000 0 0 1
-16.104427 -19.349879 -14.247715 28.926938 0.876683 2.085804 0.106089 -0.015238 347978.000000 0 0 1
-17.390927 -19.183879 -13.634515 29.263724 0.834380 2.055469 0.099454 -0.018048 749904.000000 0 0 1
-18.447127 -19.513979 -14.526115 30.530311 0.813495 2.066662 0.069880 -0.012240 314642.000000 0 0 1
-19.851927 -19.403679 -13.875515 31.034363 0.773980 2.034319 0.046249 -0.013380 -261513.000000 0 0 1
-20.829627 -19.930779 -14.708915 32.364509 0.763350 2.042581 0.058410 -0.022156 -992022.000000 0 0 1
-22.082127 -19.857879 -14.114415 32.881186 0.732414 2.014464 0.050564 -0.018839 -4783.600000 0 0 1
-23.284527 -20.448979 -14.930215 34.398274 0.720652 2.019768 0.049938 -0.018856 392733.000000 0 0 1
-23.439727 -19.740479 -16.172515 34.650506 0.699937 2.056389 0.054533 -0.031206 -256979.000000 0 0 1
-24.382527 -20.395679 -16.934915 36.017810 0.696597 2.060293 0.058191 -0.031504 -575032.000000 0 0 1
-24.627827 -19.862179 -18.379115 36.589997 0.678688 2.097052 0.064213 -0.031467 718094.000000 0 0 1
-23.467127 -20.001679 -19.244615 36.347330 0.705844 2.128765 0.058451 -0.035719 981144.000000 0 0 1
-23.705927 -19.605279 -20.563015 37.002372 0.691001 2.160027 0.058487 -0.037688 30265.000000 0 0 1
-22.500627 -18.942079 -21.308615 36.319934 0.699742 2.197764 0.045823 -0.033508 286344.000000 0 0 1
-21.356727 -19.758179 -21.416615 36.127092 0.746538 2.205344 0.032965 -0.026573 -327052.000000 0 0 1
-20.409127 -19.165579 -22.255315 35.765219 0.753986 2.242425 0.033509 -0.021579 -1074620.000000 0 0 1
-19.133927 -19.953679 -22.311315 35.525360 0.806367 2.249827 0.037071 -0.017915 -1095190.000000 0 0 1
-19.115627 -20.961079 -23.271515 36.692471 0.831414 2.257810 0.019649 -0.012157 -236887.000000 0 0 1
-17.880027 -21.602979 -23.167815 36.374877 0.879413 2.261290 0.016165 -0.009098 -423610.000000 0 0 1
-17.871727 -22.852079 -24.010815 37.658138 0.907090 2.262175 0.019157 -0.005941 -413653.000000 0 0 1
-17.830727 -22.788079 -25.424285 38.517861 0.906843 2.291701 0.016194 -0.001051 198438.000000 0 0 1
-17.926427 -24.033979 -26.032965 39.707734 0.929938 2.285792 0.025958 -0.011462 -291738.000000 0 0 1
-17.851927 -24.098579 -27.562025 40.732027 0.933217 2.314023 0.040040 -0.000083 -682145.000000 0 0 1
-16.579227 -23.875379 -28.076825 40.413025 0.963834 2.338864 0.024434 0.001327 -475821.000000 0 0 1
-16.638427 -23.890879 -29.484625 41.436149 0.962467 2.362523 0.041323 -0.006653 143537.000000 0 0 1
-15.218027 -23.784979 -30.105875 41.275625 1.001613 2.388221 0.025316 -0.009735 715929.000000 0 0 1
-14.445927 -24.988479 -29.927785 41.578614 1.046633 2.374293 0.035357 -0.010669 1286610.000000 0 0 1
-13.048527 -24.845079 -30.261125 41.270785 1.087196 2.393862 0.054677 -0.013771 1050190.000000 0 0 1
-12.182027 -26.025379 -29.842085 41.427915 1.133007 2.375085 0.061530 -0.013292 -942137.000000 0 0 1
-12.354527 -27.220879 -30.535475 42.732023 1.144735 2.366821 0.062185 -0.011968 716186.000000 0 0 1
-11.384227 -28.247079 -30.188965 42.882067 1.187686 2.351810 0.059156 -0.012171 717208.000000 0 0 1
-10.002027 -28.104079 -30.865325 42.924912 1.228882 2.373236 0.067473 -0.008410 -390561.000000 0 0 1
-9.262627 -27.040679 -30.359155 41.697396 1.240779 2.386317 0.068573 -0.012074 -1054390.000000 0 0 1
-8.121027 -26.790079 -31.092695 41.837962 1.276465 2.408591 0.070196 -0.014552 -501529.000000 0 0 1
-7.323927 -25.509879 -30.605185 40.510137 1.291215 2.427205 0.095085 -0.024468 -253467.000000 0 0 1
-7.957227 -24.236079 -30.726805 39.935467 1.253563 2.448716 0.101143 -0.020254 436233.000000 0 0 1
-8.943427 -23.950579 -29.729615 39.210523 1.213419 2.431352 0.078787 -0.012554 100961.000000 0 0 1
-9.450827 -22.513879 -29.626815 38.391940 1.173357 2.452296 0.073951 -0.016741 -502842.000000 0 0 1
-10.225327 -22.123979 -30.719455 39.213679 1.137857 2.470892 0.070470 -0.023792 -237402.000000 0 0 1
-10.490827 -20.726479 -30.655645 38.463137 1.102236 2.493131 0.071928 -0.025309 34844.700000 0 0 1
-11.382727 -20.241879 -31.801145 39.377823 1.058532 2.510851 0.059947 -0.026192 14664.700000 0 0 1
-11.931827 -18.961179 -31.632145 38.761932 1.009128 2.525361 0.052608 -0.024920 549763.000000 0 0 1
-12.658127 -18.504779 -32.815395 39.742989 0.970858 2.542221 0.068450 -0.022628 94342.100000 0 0 1
-13.282427 -17.045979 -32.766995 39.251296 0.908860 2.558566 0.073893 -0.024247 -50708.600000 0 0 1
-12.543127 -15.817079 -32.849395 38.556358 0.900331 2.590559 0.076044 -0.023876 -17736.900000 0 0 1
-11.907527 -15.440079 -31.607965 37.138237 0.913859 2.588853 0.071183 -0.023560 174072.000000 0 0 1
-11.381727 -13.955979 -31.626445 36.394300 0.886648 2.623963 0.072147 -0.024287 413305.000000 0 0 1
-10.444427 -13.593879 -32.645535 36.872897 0.915674 2.658049 0.081811 -0.031657 261195.000000 0 0 1
-10.936227 -13.642779 -33.955775 38.193208 0.895073 2.666068 0.086633 -0.025429 -529341.000000 0 0 1
-11.661727 -12.395979 33.709392 37.762140 0.815909 0.467546 0.082059 -0.018070 256409.000000 0 0 1
-13.014527 -12.158979 34.080849 38.454166 0.751425 0.481563 0.063193 -0.019131 45181.900000 0 0 1
-13.561627 -11.223479 33.186730 37.566517 0.691340 0.487701 0.048576 -0.024352 102143.000000 0 0 1
-14.806527 -10.504079 33.703442 38.281730 0.617022 0.494080 0.057776 -0.027543 -215910.000000 0 0 1
-14.418927 -9.607179 -33.496485 37.712304 0.587741 2.664233 0.070881 -0.033382 -129201.000000 0 0 1
-15.468827 -9.045379 -32.738015 37.321322 0.529130 2.640781 0.071498 -0.037722 72630.100000 0 0 1
-14.958127 -8.112679 -31.588785 35.880530 0.496958 2.647476 0.076444 -0.048356 40487.100000 0 0 1
-14.465727 -6.805279 -31.851695 35.638456 0.439722 2.676422 0.061446 -0.046575 305367.000000 0 0 1
-15.479627 -5.858579 -32.146665 36.157293 0.361810 2.666124 0.059143 -0.046000 93418.700000 0 0 1
-16.047427 -5.029679 -30.960625 35.233193 0.303728 2.644001 0.064470 -0.047652 -106406.000000 0 0 1
-16.594727 -5.886679 -30.000255 34.785820 0.340884 2.610843 0.071964 -0.050910 -206479.000000 0 0 1
-16.938027 -5.379179 -28.718375 33.772435 0.307506 2.587446 0.074206 -0.050204 -400795.000000 0 0 1
-15.804427 -4.868479 -27.839265 32.380653 0.298821 2.605576 0.070852 -0.046009 -178027.000000 0 0 1
-15.295027 -3.627779 -28.374675 32.437953 0.232883 2.635689 0.061754 -0.037674 1318610.000000 0 0 1
-13.922727 -3.381279 -27.955365 31.413020 0.238248 2.667986 0.056069 -0.029542 1116750.000000 0 0 1
-13.356927 -2.094779 -28.543305 31.583474 0.155564 2.699228 0.030366 -0.008107 -161349.000000 0 0 1
-13.337527 -2.201779 -29.922035 32.833910 0.163606 2.717263 0.035753 -0.018236 193853.000000 0 0 1
-13.164027 -0.948779 -30.571525 33.298798 0.071949 2.734048 0.036285 -0.024285 -31735.000000 0 0 1
-13.349827 -0.945779 -32.147575 34.822104 0.070728 2.747107 0.032226 -0.027068 -1288350.000000 0 0 1
-14.616727 -1.268779 -32.568455 35.720621 0.086586 2.718333 0.028754 -0.021777 -689710.000000 0 0 1
-14.681427 -1.210779 -33.968425 37.025183 0.082284 2.732397 0.023193 -0.020660 -359779.000000 0 0 1
-16.065827 -1.665779 33.737522 37.404625 0.103315 0.446506 0.019545 -0.023125 -297633.000000 0 0 1
-16.070827 -1.831779 32.359862 36.177169 0.113492 0.463523 0.028943 -0.024910 375138.000000 0 0 1
-17.350727 -1.836779 31.744116 36.223064 0.105469 0.502563 0.033220 -0.018578 226275.000000 0 0 1
-17.238827 -1.855779 30.213826 34.835274 0.107238 0.520975 0.039953 -0.011687 -114148.000000 0 0 1
-16.784027 -0.629779 29.745656 34.159980 0.037505 0.514020 0.025520 -0.000240 35573.100000 0 0 1
-16.717327 -0.584779 28.343026 32.911063 0.034966 0.533169 0.017065 -0.004246 -310127.000000 0 0 1
-16.287727 0.872221 27.924296 32.339095 -0.053500 0.528659 0.017852 -0.001334 409144.000000 0 0 1
-17.205127 1.935221 28.266586 33.147569 -0.112009 0.549569 0.020833 -0.002583 1302610.000000 0 0 1
-18.506827 1.880221 27.647246 33.322786 -0.101249 0.592262 0.038014 -0.001802 690244.000000 0 0 1
-18.593727 2.715221 26.327506 32.345582 -0.145004 0.619886 0.040546 -0.012597 -496940.000000 0 0 1
-18.334627 4.084221 26.429976 32.425037 -0.219181 0.617877 0.031467 -0.005375 244200.000000 0 0 1
-18.625227 4.807221 25.248046 31.740703 -0.252590 0.651052 0.035150 -0.003226 -708090.000000 0 0 1
-18.519327 6.354221 25.347126 32.028399 -0.330526 0.657708 0.025010 -0.008305 237593.000000 0 0 1
-17.250527 6.998221 25.332116 31.436791 -0.385395 0.633752 0.023823 -0.005880 153666.000000 0 0 1
-16.725627 6.943221 24.016476 30.078996 -0.393477 0.646085 0.019258 -0.004255 637346.000000 0 0 1
-15.461427 7.869221 23.761276 29.420717 -0.470789 0.630662 0.039154 -0.012186 1549260.000000 0 0 1
-14.316927 7.651221 24.604586 29.477130 -0.490801 0.583207 0.032190 -0.005710 212237.000000 0 0 1
-13.194027 8.228221 24.014086 28.608780 -0.557615 0.574626 0.053252 -0.013223 -335192.000000 0 0 1
-11.904427 8.148221 24.872616 28.753363 -0.600227 0.525580 0.044712 0.003453 -226808.000000 0 0 1
-10.853327 8.752221 24.161596 27.895856 -0.678637 0.523378 0.053517 -0.008146 627818.000000 0 0 1
-9.598727 8.838221 24.867706 28.082957 -0.744173 0.483208 0.052144 -0.014906 721636.000000 0 0 1
-9.441627 10.109221 25.757656 29.236920 -0.819531 0.492830 0.063300 -0.027511 -1529650.000000 0 0 1
-10.368627 10.186221 26.744076 30.438678 -0.776524 0.497829 0.049626 -0.023720 -656478.000000 0 0 1
-10.419327 11.385221 27.510016 31.543408 -0.829667 0.511253 0.051840 -0.024815 -375847.000000 0 0 1
-11.055927 12.681221 26.859186 31.693260 -0.853762 0.559589 0.059729 -0.029772 -916007.000000 0 0 1
-12.394227 12.472221 26.593876 31.881145 -0.788535 0.584194 0.061570 -0.032155 -846142.000000 0 0 1
-12.641827 11.995221 25.257506 30.686197 -0.759159 0.603965 0.063261 -0.021218 -842115.000000 0 0 1
-14.112827 11.641221 25.045206 31.015355 -0.689722 0.630878 0.051797 -0.025395 -483717.000000 0 0 1
-14.954427 12.771221 24.934906 31.756708 -0.706817 0.667801 0.057864 -0.028577 523929.000000 0 0 1
-16.255227 12.497221 24.402546 31.873142 -0.655433 0.698800 0.049752 -0.020396 351961.000000 0 0 1
-16.498227 12.275221 22.923386 30.795359 -0.639671 0.731194 0.044381 -0.011655 -639272.000000 0 0 1
-16.247727 10.938221 22.572886 29.885924 -0.592523 0.714682 0.036282 -0.014018 129479.000000 0 0 1
-16.312327 10.811221 21.160386 28.822499 -0.585296 0.746365 0.040159 0.000885 -36486.600000 0 0 1
-16.449927 9.406221 20.592786 27.984637 -0.519433 0.743860 0.033204 -0.008319 108151.000000 0 0 1
-17.810127 9.044221 20.553786 28.661065 -0.469879 0.771117 0.034342 -0.004630 -492883.000000 0 0 1
-18.062627 7.682221 20.501886 28.383135 -0.402133 0.763636 0.024632 -0.000080 -482842.000000 0 0 1
-19.558627 7.435221 20.696286 29.430573 -0.363278 0.790874 0.038181 0.001879 -151100.000000 0 0 1
-20.051427 7.830221 21.987386 30.770395 -0.372296 0.774797 0.033418 -0.006652 14181.500000 0 0 1
-21.452727 7.757221 22.112286 31.770224 -0.346968 0.800976 0.030666 -0.004354 -116387.000000 0 0 1
-21.927827 8.239221 23.519926 33.194898 -0.359422 0.783369 0.045998 -0.014804 -464619.000000 0 0 1
-21.822827 9.654221 23.700036 33.632298 -0.416508 0.788823 0.039306 -0.010604 1506050.000000 0 0 1
-20.500427 10.285221 23.724976 32.998905 -0.465013 0.768488 0.033860 -0.008072 1137890.000000 0 0 1
-19.606627 9.946221 24.948136 33.252919 -0.469462 0.722350 0.030657 -0.024238 -382570.000000 0 0 1
-19.999227 10.396221 26.254606 34.602815 -0.479386 0.709417 0.038146 -0.018709 -28363.900000 0 0 1
-19.377427 9.557221 27.170996 34.714380 -0.458204 0.671802 0.041568 -0.020683 -75908.700000 0 0 1
-31.875247 -14.048486 20.501086 40.418880 0.415121 1.038845 0.071356 -0.022333 -152345.000000 0 0 1
-30.893677 -15.068986 20.716386 40.133057 0.453815 1.028397 0.060026 -0.020917 466709.000000 0 0 1
-30.909197 -16.055086 19.708286 40.019505 0.479069 1.055874 0.043371 -0.006174 11291.600000 0 0 1
-30.352747 -15.643086 18.332586 38.756665 0.475873 1.078084 0.044336 -0.002260 -59555.600000 0 0 1
-31.232287 -14.775286 17.590886 38.771176 0.441878 1.099872 0.060101 -0.016116 88307.200000 0 0 1
-30.669897 -14.315686 16.368186 37.596528 0.436709 1.120353 0.060506 -0.015984 -735649.000000 0 0 1
-31.606947 -13.340586 15.591886 37.683912 0.399393 1.144222 0.062933 -0.012729 1454270.000000 0 0 1
-32.916937 -13.885386 15.233386 38.837929 0.399183 1.167742 0.074356 -0.013805 1215980.000000 0 0 1
-33.891407 -14.052686 16.216286 40.113257 0.393062 1.154624 0.067735 -0.016896 -883111.000000 0 0 1
-34.562283 -12.766486 16.707586 40.455877 0.353831 1.145069 0.075965 -0.018210 -934627.000000 0 0 1
-35.656910 -13.113086 17.529886 41.840950 0.352406 1.138491 0.052547 -0.017861 -77904.600000 0 0 1
-36.315267 -11.910286 17.901786 42.203406 0.316915 1.132742 0.065450 -0.008680 519544.000000 0 0 1
35.884745 -12.031986 19.091586 42.390710 -0.323515 1.103614 0.060704 0.001421 414949.000000 0 0 1
36.572325 -12.290686 20.305886 43.599598 -0.324207 1.086331 0.040081 0.001605 179850.000000 0 0 1
35.693435 -12.119086 21.393686 43.342627 -0.327320 1.054578 0.026586 -0.003843 -701657.000000 0 0 1
36.248745 -12.698486 22.698286 44.614294 -0.336956 1.037044 0.027050 -0.017473 339905.000000 0 0 1
-35.820013 -12.033186 23.257396 44.370906 0.324090 1.019069 0.034732 -0.013664 475367.000000 0 0 1
-34.619025 -12.596086 22.756386 43.301170 0.348958 1.017450 0.036840 -0.022505 -631493.000000 0 0 1
-33.410747 -11.662986 22.773786 42.082640 0.335854 0.998971 0.061323 -0.015824 -267155.000000 0 0 1
-33.435557 -10.597386 21.836786 41.316900 0.306933 1.013941 0.082608 -0.019518 -419475.000000 0 0 1
-32.160167 -10.025386 21.767986 40.107729 0.302186 0.997103 0.103924 -0.032001 -772610.000000 0 0 1
-32.153927 -8.615886 21.102986 39.413760 0.261807 1.005789 0.123746 -0.015544 6300.060000 0 0 1
-32.369697 -8.599086 19.700586 38.856848 0.259655 1.039091 0.126873 -0.010906 815263.000000 0 0 1
-33.750287 -8.776986 19.349686 39.881420 0.254421 1.064227 0.113714 -0.018671 428875.000000 0 0 1
-34.081737 -8.631586 17.831486 39.421199 0.248046 1.101417 0.121185 -0.020222 -775240.000000 0 0 1
-35.435194 -8.800186 17.587186 40.526600 0.243421 1.121906 0.053935 -0.010282 -669538.000000 0 0 1
-35.680352 -8.550586 16.193186 40.105103 0.235208 1.155164 0.068387 -0.005350 520469.000000 0 0 1
36.015635 -8.340986 15.866586 40.229921 -0.227581 1.165384 0.062534 -0.008156 889737.000000 0 0 1
35.269475 -9.570886 16.015086 39.900134 -0.264983 1.157774 0.055277 0.012213 -701171.000000 0 0 1
33.910875 -9.363986 16.104386 38.690864 -0.269421 1.141499 0.032802 0.007481 -740077.000000 0 0 1
32.997645 -10.610486 16.149186 38.239027 -0.311111 1.134791 0.026828 0.004317 12054.500000 0 0 1
33.088905 -11.428586 17.292186 39.044947 -0.332562 1.111989 0.021040 0.002294 -179127.000000 0 0 1
32.359195 -12.597486 17.079886 38.698019 -0.371250 1.113679 0.036006 0.005903 -228977.000000 0 0 1
32.007835 -13.332686 18.366686 39.237701 -0.394687 1.083671 0.029589 0.009776 54348.100000 0 0 1
33.043785 -14.046886 19.025486 40.634663 -0.401955 1.083534 0.033424 0.000716 -228842.000000 0 0 1
32.681815 -14.155186 20.350686 41.019760 -0.408729 1.051673 0.039160 0.002547 -316293.000000 0 0 1
33.526955 -15.139486 21.195386 42.455920 -0.424152 1.048083 0.029235 0.000162 25844.900000 0 0 1
33.366745 -15.003686 22.582086 42.993033 -0.422571 1.017788 0.033518 -0.012140 -229316.000000 0 0 1
33.934265 -16.136386 23.190886 44.155798 -0.443872 1.017839 0.035615 -0.011883 -60607.200000 0 0 1
34.438055 -15.960786 24.614666 45.239453 -0.433994 0.995483 0.051344 -0.013039 -164.660000 0 0 1
35.729225 -15.394986 24.562036 46.009529 -0.406840 1.007653 0.037119 -0.009380 -29218.100000 0 0 1
36.175635 -15.196386 25.900086 47.015116 -0.397690 0.987368 0.041251 -0.010550 -194911.000000 0 0 1
-35.816775 -14.285986 26.087556 46.556324 0.379526 0.975995 0.029988 -0.015449 -820594.000000 0 0 1
-34.588512 -14.762086 25.634996 45.513046 0.403387 0.972489 0.014378 -0.013155 -709212.000000 0 0 1
-33.655487 -13.811386 26.118776 44.784334 0.389419 0.948119 0.038662 -0.021428 -636848.000000 0 0 1
-32.234297 -14.183786 25.718616 43.608220 0.414525 0.940028 0.034635 -0.018592 -1333870.000000 0 0 1
-31.941577 -14.152686 24.294876 42.553541 0.417085 0.963164 0.039170 -0.013010 -493463.000000 0 0 1
-30.652687 -14.564686 23.952156 41.538212 0.443572 0.956199 0.042713 -0.022008 -442669.000000 0 0 1
-30.296007 -16.065786 24.286056 42.021066 0.487588 0.954582 0.046880 -0.023054 -736487.000000 0 0 1
-30.149027 -16.303286 25.682756 42.829486 0.495719 0.927731 0.051778 -0.025306 12239.200000 0 0 1
-30.050707 -17.651486 26.014886 43.490162 0.531096 0.929570 0.052049 -0.028194 -181572.000000 0 0 1
-29.818627 -17.964486 27.484486 44.353920 0.542225 0.902483 0.056493 -0.026262 -30192.200000 0 0 1
-28.612997 -17.443186 28.007356 43.673565 0.547466 0.874620 0.053746 -0.031437 116990.000000 0 0 1
-28.388717 -17.857386 29.329006 44.553294 0.561493 0.852251 0.057886 -0.032859 2057.280000 0 0 1
-27.085047 -17.335386 29.960086 43.951361 0.569338 0.820761 0.055930 -0.035988 -62503.900000 0 0 1
-27.184877 -15.979786 30.337726 43.757841 0.531415 0.804725 0.066346 -0.040191 16024.700000 0 0 1
-26.035717 -15.344086 29.829596 42.462976 0.532550 0.791913 0.058352 -0.032082 -276385.000000 0 0 1
-25.771877 -14.012586 30.479206 42.302768 0.498006 0.766271 0.066163 -0.021245 -385223.000000 0 0 1
-25.218927 -14.073786 31.780996 42.942955 0.509014 0.737615 0.065772 -0.025424 209303.000000 0 0 1
-25.025027 -12.769086 32.266277 42.783339 0.471816 0.716394 0.071392 -0.016940 -303626.000000 0 0 1
-24.528527 -12.680686 33.758087 43.612577 0.477137 0.685591 0.074775 -0.009820 905469.000000 0 0 1
-23.139327 -12.931786 34.043206 43.146256 0.509625 0.661586 0.055384 -0.009958 959486.000000 0 0 1
-22.769227 -14.288086 34.017101 43.356086 0.560408 0.668749 0.055664 -0.011428 -443251.000000 0 0 1
-22.726927 -14.957786 -32.775425 42.596679 0.582085 2.448754 0.053395 -0.010609 -831722.000000 0 0 1
-21.672727 -14.628286 -31.926215 41.267142 0.593724 2.455374 0.039815 -0.007110 -206948.000000 0 0 1
-21.666727 -15.375586 -30.745175 40.633994 0.617167 2.428950 0.045438 -0.010475 136859.000000 0 0 1
-20.367527 -15.154586 -29.919065 39.238350 0.639686 2.437958 0.050089 -0.009270 275413.000000 0 0 1
-20.166927 -13.970986 -29.143605 38.095185 0.605855 2.441870 0.048859 -0.014919 562689.000000 0 0 1
-20.900727 -14.083586 -27.886875 37.588104 0.592947 2.406706 0.053530 -0.008995 221439.000000 0 0 1
-20.576427 -13.004186 -26.867445 36.254073 0.563613 2.405485 0.059379 -0.010957 -1169120.000000 0 0 1
-19.328727 -13.201586 -26.326075 35.227032 0.599228 2.414825 0.065766 -0.021037 -1039230.000000 0 0 1
-18.890227 -12.030486 -25.763645 34.137057 0.567085 2.426011 0.069209 -0.023682 -305315.000000 0 0 1
-17.455127 -12.081186 -25.232575 32.974526 0.605423 2.442170 0.066783 -0.029576 -1128000.000000 0 0 1
-17.389227 -12.867286 -24.035215 32.336416 0.637043 2.408766 0.075027 -0.024405 -265059.000000 0 0 1
-16.189027 -12.872386 -23.312715 31.165134 0.671765 2.415898 0.071883 -0.027576 -592766.000000 0 0 1
-15.029027 -13.564186 -23.998815 31.397483 0.734213 2.440836 0.039365 -0.018012 -1362000.000000 0 0 1
-14.350327 -12.943386 -25.028705 31.621183 0.733896 2.484084 0.052877 -0.032281 -71698.200000 0 0 1
-13.512627 -13.877386 -25.734825 32.209535 0.798715 2.496396 0.055878 -0.030805 -112179.000000 0 0 1
-12.589627 -13.096386 -26.663385 32.263759 0.805125 2.543514 0.069536 -0.027433 -669037.000000 0 0 1
-13.237927 -12.230086 -27.568025 32.936510 0.745846 2.562583 0.100942 -0.034642 127208.000000 0 0 1
-12.354527 -11.621186 -28.522415 33.184552 0.754821 2.605104 0.102783 -0.043774 31788.500000 0 0 1
-13.084027 -10.505386 -29.250965 33.722008 0.676517 2.620779 0.081969 -0.042720 -43394.600000 0 0 1
-12.320727 -9.699286 -30.150745 33.984465 0.666908 2.662020 0.083532 -0.042670 -189310.000000 0 0 1
-11.798727 -10.358186 -31.249905 34.972254 0.720474 2.676016 0.095567 -0.034497 -388790.000000 0 0 1
-11.057527 -9.334586 -32.118395 35.227755 0.701108 2.718286 0.081476 -0.032731 146369.000000 0 0 1
-9.742427 -9.142086 -31.600715 34.308859 0.753619 2.741605 0.070626 -0.031000 -30488.200000 0 0 1
-9.277427 -7.925886 -32.125145 34.364448 0.706996 2.778595 0.056616 -0.024202 198185.000000 0 0 1
-7.744127 -7.664686 -31.956325 33.762785 0.780243 2.812994 0.061268 -0.022118 475425.000000 0 0 1
-7.315527 -7.669586 -30.612505 32.395446 0.809021 2.808278 0.054417 -0.018115 -173084.000000 0 0 1
-7.604927 -6.485386 -29.837955 31.467423 0.706110 2.818372 0.053627 -0.015518 -316277.000000 0 0 1
-6.902427 -5.140486 -30.281765 31.481000 0.640124 2.864687 0.043796 -0.017380 -380383.000000 0 0 1
-5.512827 -5.207886 -30.141205 31.080630 0.756962 2.895102 0.053436 -0.016013 -592797.000000 0 0 1
-5.056527 -3.921386 -30.515845 31.179521 0.659628 2.934897 0.058663 -0.018599 341383.000000 0 0 1
-3.578827 -3.690586 -30.076105 30.512301 0.800771 2.972300 0.056512 -0.007800 659097.000000 0 0 1
-2.582827 -4.234386 -30.978555 31.373108 1.023082 2.982831 0.045794 -0.013527 446124.000000 0 0 1
-1.257127 -3.997186 -30.575675 30.861461 1.266088 3.005397 0.067779 -0.019373 3970.180000 0 0 1
-0.674027 -2.626486 -31.046155 31.164346 1.319590 3.054473 0.074869 -0.019054 437632.000000 0 0 1
0.573073 -2.335986 -30.354155 30.449302 -1.330224 3.062518 0.081537 -0.016625 1083870.000000 0 0 1
1.053873 -1.073586 -30.835145 30.871822 -0.794664 3.092843 0.066912 -0.013675 -75623.800000 0 0 1
1.399173 -0.219886 -29.631065 29.664896 -0.155879 3.093830 0.068565 -0.020979 70587.300000 0 0 1
0.272973 0.356214 -28.976865 28.980340 0.916933 3.126106 0.079235 -0.020023 -74944.200000 0 0 1
0.492073 1.734314 -28.705425 28.761979 1.294334 3.078873 0.095408 -0.028109 -643607.000000 0 0 1
-0.637727 2.528714 -28.111145 28.231854 -1.323754 3.049087 0.070403 -0.019762 -1170740.000000 0 0 1
-1.791327 2.696914 -28.835935 29.017122 -0.984494 3.029784 0.050932 -0.025530 -961225.000000 0 0 1
-2.602127 3.724814 -28.404025 28.765152 -0.961016 2.982969 0.079082 -0.028550 -250029.000000 0 0 1
-3.824027 3.983614 -29.284765 29.800836 -0.805835 2.955219 0.096476 -0.031528 -35645.100000 0 0 1
-3.368427 4.456214 -30.521185 31.028163 -0.923534 2.960574 0.099036 -0.033954 137788.000000 0 0 1
-4.487427 4.795314 -31.310865 31.992223 -0.818554 2.934839 0.095707 -0.023016 -316059.000000 0 0 1
-4.252927 5.416414 -32.670555 33.388472 -0.905150 2.933845 0.109532 -0.022608 -319849.000000 0 0 1
-3.947427 4.620414 -33.756695 34.299342 -0.863785 2.963476 0.118394 -0.025052 287257.000000 0 0 1
-2.705927 3.922014 -33.783115 34.117490 -0.966859 3.001473 0.120492 -0.029090 49644.300000 0 0 1
-2.322927 3.295314 33.038331 33.283425 -0.956777 0.121432 0.114687 -0.026462 -525935.000000 0 0 1
-3.272527 2.361414 32.629598 32.878205 -0.625068 0.123053 0.096411 -0.028452 -394156.000000 0 0 1
-3.176027 1.667614 31.344946 31.549543 -0.483496 0.113947 0.095059 -0.027530 -114358.000000 0 0 1
-2.945327 2.580914 30.125316 30.378787 -0.719551 0.129270 0.098579 -0.029917 -544255.000000 0 0 1
-4.113927 3.302814 29.955176 30.416205 -0.676469 0.174332 0.076174 -0.031564 -414822.000000 0 0 1
-3.989327 4.197314 28.886566 29.461260 -0.810798 0.197841 0.068096 -0.035894 -51818.400000 0 0 1
-5.069327 5.285914 28.900466 29.814021 -0.806311 0.248192 0.062063 -0.019365 -23.082400 0 0 1
-5.158827 5.947814 27.623206 28.723361 -0.856316 0.277665 0.066257 -0.014929 -78964.700000 0 0 1
-6.264927 6.822014 27.600696 29.113357 -0.827941 0.323771 0.055408 -0.011860 -459639.000000 0 0 1
-6.382527 7.536914 26.249966 28.046433 -0.868142 0.359858 0.061433 -0.013882 -421386.000000 0 0 1
-5.355327 8.484914 26.052626 27.917962 -1.007781 0.367621 0.055525 -0.018641 -58188.000000 0 0 1
-5.397427 9.252214 24.859956 27.069412 -1.042698 0.406834 0.059072 -0.014670 233394.000000 0 0 1
-4.561627 10.561714 25.044706 27.560760 -1.163094 0.430616 0.050755 -0.016203 -382201.000000 0 0 1
-4.753427 11.413014 23.926816 26.932220 -1.176154 0.476930 0.052626 -0.014875 -69192.300000 0 0 1
-4.121727 12.609114 24.048486 27.464669 -1.254861 0.504088 0.038449 -0.002829 -271434.000000 0 0 1
-2.556627 12.699514 24.012906 27.284311 -1.372135 0.494725 0.023891 -0.003321 -116495.000000 0 0 1
-1.879627 12.219114 25.135116 28.010958 -1.418166 0.457111 0.036870 -0.009365 -319342.000000 0 0 1
-2.012727 12.986614 26.313896 29.412996 -1.417035 0.463183 0.061144 -0.008532 -613592.000000 0 0 1
-1.174727 12.524614 27.561776 30.296822 -1.477276 0.428175 0.062238 -0.014448 -237322.000000 0 0 1
0.167273 12.872314 27.448226 30.317149 1.557802 0.438547 0.057051 -0.010312 -1047370.000000 0 0 1
0.846673 12.598314 28.650906 31.309883 1.503692 0.415101 0.069169 -0.019610 15211.100000 0 0 1
2.373973 12.671414 28.449846 31.234503 1.385595 0.425465 0.050985 -0.016137 87356.600000 0 0 1
2.889373 14.022814 28.343556 31.754447 1.367592 0.467749 0.050218 -0.013322 -354562.000000 0 0 1
4.286773 13.891914 28.373366 31.881179 1.271486 0.473512 0.058819 -0.014826 -285167.000000 0 0 1
5.009973 15.268514 28.533686 32.747497 1.253741 0.512902 0.054567 -0.016053 -221735.000000 0 0 1
4.838573 15.783714 29.850316 34.111270 1.273337 0.505182 0.053573 -0.011660 531188.000000 0 0 1
3.774073 16.731014 30.077116 34.623739 1.348936 0.518255 0.029069 -0.004254 323104.000000 0 0 1
3.769973 18.144614 29.444226 34.790834 1.365937 0.561755 0.043117 -0.008664 332251.000000 0 0 1
4.782273 18.889414 30.151986 35.900172 1.322834 0.573727 0.064046 -0.010184 648608.000000 0 0 1
5.340973 19.889814 29.309856 35.821758 1.308457 0.612499 0.054926 -0.009448 -461339.000000 0 0 1
6.377973 20.760514 30.006326 37.041288 1.272732 0.626512 0.053342 -0.011200 -304031.000000 0 0 1
5.858673 21.612514 31.044076 38.277401 1.306080 0.624888 0.039659 -0.025854 514087.000000 0 0 1
6.882273 22.457814 31.586826 39.363011 1.273430 0.639408 0.025944 -0.018870 307827.000000 0 0 1
7.135473 23.820214 30.892956 39.657184 1.279747 0.677727 0.030587 -0.011386 3166.100000 0 0 1
7.808373 23.743314 29.637336 38.769670 1.253072 0.700614 0.019849 -0.008468 353749.000000 0 0 1
7.689273 24.961014 28.902726 38.955676 1.271969 0.734839 0.025146 -0.008974 -210183.000000 0 0 1
8.151973 24.934514 27.473496 37.986545 1.254815 0.762310 0.041718 -0.012601 -342665.000000 0 0 1
7.380373 24.100014 26.627576 36.664811 1.273625 0.757955 0.034910 -0.017061 420027.000000 0 0 1
7.787873 24.265314 25.296516 35.907800 1.260235 0.789099 0.046513 -0.024081 -505727.000000 0 0 1
28.512265 2.451814 6.677585 29.386235 0.085781 1.341559 0.124767 -0.011893 101576.000000 0 0 1
28.703515 3.429014 7.711885 29.918608 0.118900 1.310091 0.111651 -0.016656 333511.000000 0 0 1
27.587885 3.462814 8.586185 29.099915 0.124866 1.271279 0.092896 -0.006166 -132147.000000 0 0 1
27.917985 4.223914 9.923885 29.928896 0.150158 1.232816 0.078461 -0.007459 23037.200000 0 0 1
27.871285 5.665014 9.853085 30.099572 0.200525 1.237299 0.086767 -0.007649 19031.400000 0 0 1
29.088725 6.229514 9.442685 31.210977 0.210969 1.263436 0.097852 -0.019971 -207208.000000 0 0 1
28.896825 7.740014 9.201585 31.298618 0.261707 1.272394 0.120271 -0.027866 -170566.000000 0 0 1
28.037485 8.105414 8.191285 30.313289 0.281420 1.297174 0.103756 -0.022525 -346524.000000 0 0 1
28.450905 9.324414 7.630585 30.896999 0.316705 1.321246 0.117007 -0.045885 -44267.000000 0 0 1
27.685585 9.694814 6.306685 30.004255 0.336831 1.359024 0.116766 -0.042919 -512323.000000 0 0 1
26.312585 9.790314 6.551685 28.829273 0.356206 1.341535 0.079474 -0.032920 -667451.000000 0 0 1
25.699785 10.051514 5.319385 28.103519 0.372822 1.380369 0.102765 -0.043838 633099.000000 0 0 1
24.183085 10.448714 5.419985 26.895603 0.407841 1.367887 0.050943 -0.036483 782232.000000 0 0 1
23.951485 11.769014 5.860585 27.322697 0.456719 1.354621 0.037708 -0.024484 329336.000000 0 0 1
22.585585 12.096314 6.077985 26.331946 0.491702 1.337874 0.039173 -0.021025 230945.000000 0 0 1
22.362385 13.549114 6.593285 26.965277 0.544738 1.323782 0.034638 -0.002914 -193456.000000 0 0 1
22.318485 14.370614 5.452885 27.099138 0.572067 1.368193 0.038639 -0.008318 245527.000000 0 0 1
22.315785 15.737914 5.725885 27.900931 0.614232 1.364106 0.071357 -0.015046 -257113.000000 0 0 1
21.865385 16.657314 4.581685 27.866701 0.651018 1.405632 0.074528 -0.025030 -52728.500000 0 0 1
20.490285 16.597314 4.256985 26.710383 0.680814 1.410738 0.083063 -0.020243 294601.000000 0 0 1
20.181785 17.457214 3.175685 26.872733 0.713137 1.452345 0.089288 -0.019099 472254.000000 0 0 1
18.636185 17.496814 2.964285 25.733886 0.753876 1.455350 0.068678 -0.013646 391257.000000 0 0 1
17.896885 18.196514 3.933885 25.824157 0.793699 1.417867 0.073339 -0.021622 315511.000000 0 0 1
16.527685 18.182114 3.581785 24.831086 0.833027 1.426045 0.060877 -0.030902 -4542.450000 0 1 0
15.623885 19.275914 4.195385 25.164815 0.889662 1.403298 0.080576 -0.035728 583804.000000 0 0 1
14.228885 18.973914 4.159985 24.078539 0.927348 1.397158 0.086081 -0.042669 379412.000000 0 1 0
13.451885 20.112714 4.448285 24.602067 0.981301 1.388987 0.070308 -0.039576 897503.000000 0 1 0
11.918585 19.820014 4.241585 23.513330 1.029391 1.389413 0.053242 -0.037115 840584.000000 0 1 0
11.376685 19.036314 5.285685 22.797997 1.032121 1.336819 0.043782 -0.043170 927542.000000 0 1 0
9.937685 18.999514 5.166385 22.055173 1.088880 1.334351 0.034706 -0.033382 1127880.000000 0 1 0
9.208285 18.562714 6.433885 21.697045 1.110303 1.269736 0.029585 -0.024654 -591311.000000 0 1 0
9.325885 19.547814 7.431985 22.898113 1.125652 1.240242 0.040094 -0.022536 72471.500000 0 1 0
8.601685 19.085114 8.597085 22.630520 1.147359 1.181120 0.038470 -0.010614 629563.000000 0 1 0
7.385085 19.970914 9.023885 23.125903 1.216599 1.169940 0.035282 -0.015187 1191780.000000 0 1 0
6.235185 19.914014 8.168185 22.409032 1.267360 1.197696 0.027780 -0.026943 351695.000000 0 1 0
6.263885 21.038514 7.343285 23.146904 1.281420 1.247971 0.022917 -0.023124 -898746.000000 0 1 0
5.024885 21.032714 6.425885 22.559178 1.336284 1.281951 0.009526 -0.022120 648854.000000 0 1 0
3.812185 21.499814 7.064685 22.949609 1.395308 1.257880 0.007334 -0.018730 502471.000000 0 1 0
3.690285 22.755614 7.782885 24.331245 1.410026 1.245202 0.016138 -0.019910 -832070.000000 0 1 0
3.853085 24.035314 7.019985 25.334221 1.411839 1.290027 0.022700 -0.019975 -116710.000000 0 0 1
2.836785 24.053614 6.027285 24.959004 1.453403 1.326898 0.032223 -0.017002 317771.000000 0 1 0
2.947785 25.254814 5.297085 25.972181 1.454600 1.365403 0.035629 -0.009032 105668.000000 0 0 1
1.665185 25.472014 4.428785 25.907730 1.505516 1.399008 0.038501 -0.009609 382378.000000 0 0 1
0.614985 25.964514 5.282585 26.503583 1.547115 1.370137 0.058916 -0.017640 -359826.000000 0 0 1
-0.503415 25.998514 4.434985 26.378879 -1.551436 1.401868 0.066537 -0.019522 -620456.000000 0 0 1
-1.622015 26.886114 4.980485 27.391592 -1.510540 1.387954 0.083733 -0.023913 834034.000000 0 0 1
-2.726015 27.004514 4.033685 27.439853 -1.470191 1.423261 0.106457 -0.028574 813383.000000 0 0 1
-3.940715 27.413914 4.630085 28.080057 -1.428026 1.405151 0.100598 -0.028834 82445.500000 0 0 1
-4.904315 28.028414 3.583585 28.679023 -1.397573 1.445514 0.105402 -0.029264 -289792.000000 0 0 1
-4.540215 29.256814 2.940485 29.752667 -1.416840 1.471804 0.103814 -0.027281 -209819.000000 0 0 1
-5.365615 29.515514 1.834385 30.055288 -1.390970 1.509725 0.100357 -0.031773 -651725.000000 0 0 1
-4.718915 30.303114 0.734385 30.677128 -1.416313 1.546855 0.088765 -0.031418 -87528.300000 0 0 1
-4.174615 31.615014 0.942785 31.903375 -1.439511 1.541241 0.087518 -0.029616 168567.000000 0 0 1
-2.925315 31.623014 1.606885 31.798657 -1.478553 1.520242 0.091650 -0.022779 -448361.000000 0 0 1
-2.351215 33.057914 1.665485 33.183245 -1.499792 1.520585 0.083266 -0.027048 -499331.000000 0 0 1
-1.727815 33.432814 0.467085 33.480689 -1.519162 1.556845 0.065654 -0.022657 534396.000000 0 0 1
-0.778815 -33.703279 0.463585 33.715463 1.547692 1.557046 0.060800 -0.025969 1076950.000000 0 0 1
0.557385 -33.856079 1.254285 33.883889 -1.554334 1.533771 0.048377 -0.017461 -292419.000000 0 0 1
0.468485 -33.792079 2.709585 33.903774 -1.556933 1.490791 0.045739 -0.015068 502374.000000 0 0 1
1.640385 33.962114 3.405185 34.171792 1.522533 1.470982 0.036464 -0.012653 691226.000000 0 0 1
1.550285 -34.079179 4.909285 34.465851 -1.525337 1.427871 0.038045 -0.011171 966218.000000 0 0 1
0.420085 33.367714 5.393785 33.803457 1.558207 1.410548 0.058361 -0.020263 638838.000000 0 0 1
0.042785 33.624714 6.737985 34.293201 1.569524 1.373028 0.074181 -0.022470 722907.000000 0 0 1
1.148185 33.460214 7.874185 34.393416 1.536495 1.339803 0.063713 -0.018934 788164.000000 0 0 1
1.599985 32.139314 8.249585 33.219740 1.521055 1.319837 0.059400 -0.024374 540634.000000 0 0 1
2.693785 32.294314 9.178285 33.681154 1.487575 1.294801 0.057279 -0.024974 511000.000000 0 0 1
3.415285 30.930014 9.358485 32.494787 1.460822 1.278659 0.045513 -0.024450 -111357.000000 0 0 1
2.616285 30.109214 10.160885 31.885001 1.484121 1.246467 0.069921 -0.026584 74280.600000 0 0 1
2.997685 28.724614 10.138485 30.608470 1.466813 1.233188 0.038256 -0.022611 -20229.700000 0 0 1
2.404085 27.844014 11.290985 30.142247 1.484669 1.186842 0.040520 -0.023518 -427202.000000 0 0 1
2.926385 28.174714 12.533485 30.975256 1.467302 1.154223 0.040949 -0.016600 -247207.000000 0 0 1
2.728785 27.209414 13.551085 30.519344 1.470842 1.110720 0.045804 -0.011182 -780559.000000 0 0 1
1.316285 26.901014 14.111085 30.405919 1.521905 1.088189 0.043518 -0.018928 -482694.000000 0 0 1
0.695185 27.938414 14.745385 31.598491 1.545919 1.085299 0.045900 -0.016714 -209782.000000 0 0 1
0.235785 28.975914 13.924585 32.148923 1.562659 1.122836 0.048711 -0.019977 -788954.000000 0 0 1
-0.572915 30.103814 14.688485 33.501036 -1.551767 1.116924 0.042453 -0.018116 -514933.000000 0 0 1
-1.764915 29.663814 15.217385 33.386009 -1.511369 1.097524 0.025127 -0.011790 -790791.000000 0 0 1
-2.523515 30.773014 15.684485 34.631627 -1.488975 1.100787 0.025852 -0.006943 258504.000000 0 0 1
-3.815415 30.322614 16.438985 34.702428 -1.445627 1.077294 0.018437 -0.002905 944816.000000 0 0 1
-4.840315 29.881614 15.518185 34.016960 -1.410208 1.097088 0.017584 -0.009834 1448610.000000 0 0 1
-6.092215 29.577114 16.171985 34.255713 -1.367660 1.079129 0.029906 -0.008447 -200650.000000 0 0 1
-7.182115 29.145814 15.242985 33.666153 -1.329190 1.100928 0.026022 -0.017130 -156932.000000 0 0 1
-8.317915 28.687814 16.012585 33.890725 -1.288589 1.078697 0.028768 -0.015061 373245.000000 0 0 1
-9.317315 28.143214 15.184285 33.307887 -1.251086 1.097440 0.030888 -0.015145 721102.000000 0 0 1
-10.591415 27.678014 16.008485 33.682668 -1.205322 1.075521 0.030201 -0.013569 1283710.000000 0 0 1
-11.538915 28.704714 16.414585 35.022075 -1.188578 1.082986 0.036376 -0.018762 711625.000000 0 0 1
-11.123515 29.424714 17.556285 36.024568 -1.209369 1.061753 0.033947 -0.019407 -680852.000000 0 0 1
-11.970715 30.568514 18.157485 37.515681 -1.197550 1.065579 0.046957 -0.015681 -325544.000000 0 0 1
-13.141315 30.103214 18.810685 37.851546 -1.159190 1.050705 0.053810 -0.014543 -155413.000000 0 0 1
-13.985515 31.193914 18.967785 39.095163 -1.149323 1.064239 0.082969 -0.019186 -275600.000000 0 0 1
-15.006415 30.993514 20.088585 39.866548 -1.119885 1.042693 0.092200 -0.019761 359273.000000 0 0 1
-14.354515 31.014914 21.325485 40.283412 -1.137327 1.012919 0.076833 -0.012182 319321.000000 0 0 1
-15.347815 30.566414 22.213885 40.783793 -1.105459 0.994796 0.067207 -0.004502 91454.600000 0 0 1
-14.879515 30.608414 23.659785 41.449492 -1.118310 0.963304 0.039410 0.008504 -94344.000000 0 0 1
-13.984015 29.485514 23.946185 40.476758 -1.127946 0.937750 0.026595 0.005378 911644.000000 0 0 1
-13.500115 29.298614 25.251185 40.966867 -1.139017 0.906658 0.032765 0.001747 287767.000000 0 0 1
-12.780315 30.514414 25.900485 42.015486 -1.174164 0.906569 0.028016 0.005408 -594007.000000 0 0 1
-13.786215 31.357214 26.372285 43.229990 -1.156582 0.914678 0.019152 0.007979 195224.000000 0 0 1
-13.297915 32.622414 26.747085 44.231923 -1.183729 0.921406 0.015116 0.008094 -647463.000000 0 0 1
-14.381915 33.558214 27.260785 45.564719 -1.165909 0.929435 0.025072 0.005628 -294782.000000 0 0 1
-15.128115 33.165814 28.445785 46.238445 -1.142852 0.908160 0.002307 0.003648 12349.200000 0 0 1
-14.443715 33.088414 29.635485 46.708950 -1.159210 0.883472 0.012686 0.009164 -999695.000000 0 0 1
-15.125515 32.357814 30.786485 47.155243 -1.133530 0.859422 0.005965 0.009829 -213635.000000 0 0 1
-16.286115 32.960914 31.305785 48.287799 -1.111877 0.865425 0.011190 0.010999 -280276.000000 0 0 1
-16.865315 32.316514 32.395785 48.767641 -1.089799 0.844255 0.001290 0.013554 593402.000000 0 0 1
-18.368115 32.662314 32.622585 49.683473 -1.058510 0.854483 0.014251 0.004315 495546.000000 0 0 1
-18.512715 34.008014 33.099785 50.939782 -1.072291 0.863498 0.028942 -0.000867 -159710.000000 0 0 1
-19.904815 -33.980179 33.086985 51.435423 1.040900 0.872032 0.040434 -0.006560 -67124.300000 0 0 1
-20.191615 -32.490979 33.364185 50.759569 1.014752 0.853568 0.050105 -0.009008 3272.090000 0 0 1
-19.834915 -31.958879 -33.510616 50.376136 1.015339 2.298569 0.052229 -0.011856 -411354.000000 0 0 1
-20.691915 -32.482179 -32.562016 50.433442 1.003598 2.272662 0.061194 -0.014257 -254712.000000 0 0 1
-20.553415 -31.833079 -31.178816 49.070422 0.997477 2.259309 0.074061 -0.021984 -127982.000000 0 0 1
-20.867715 -30.485079 -31.258916 48.393402 0.970534 2.273042 0.073735 -0.021322 22942.400000 0 0 1
-20.126215 -29.689579 -30.353216 46.987799 0.975065 2.273104 0.064704 -0.017128 49142.800000 0 0 1
-20.462515 -28.154579 -30.473416 46.260392 0.942315 2.289935 0.072127 -0.024767 80384.300000 0 0 1
-21.663915 -27.803879 -29.832216 46.177288 0.908887 2.273177 0.070851 -0.018528 -237741.000000 0 0 1
-22.060815 -26.470079 -29.983716 45.676775 0.876004 2.286876 0.065964 -0.020458 112160.000000 0 0 1
-23.329815 -26.087679 -29.186716 45.570951 0.841148 2.265903 0.075997 -0.022837 11395.000000 0 0 1
-23.157015 -26.127779 -27.752516 44.599442 0.845603 2.242425 0.068167 -0.019757 -220019.000000 0 0 1
-22.400515 -25.087979 -27.239916 43.280512 0.841930 2.251552 0.069435 -0.025636 -342707.000000 0 0 1
-22.195515 -25.269879 -25.691316 42.323177 0.850078 2.223111 0.069139 -0.026329 -639930.000000 0 0 1
-23.372415 -25.126679 -24.972916 42.441327 0.821553 2.199888 0.060508 -0.024900 -561080.000000 0 0 1
-23.371615 -25.538879 -23.600016 41.897821 0.829680 2.169141 0.063544 -0.014435 -834007.000000 0 0 1
-24.713115 -25.310079 -22.858516 42.117097 0.797331 2.144489 0.051268 -0.012073 1397480.000000 0 0 1
-25.879115 -26.074279 -23.295816 43.500478 0.789155 2.135932 0.038708 -0.001939 921963.000000 0 0 1
-25.657615 -27.489179 -23.201616 44.184648 0.819847 2.123636 0.047267 0.010047 -2317180.000000 0 0 1
-26.872715 -28.396279 -23.338116 45.531957 0.812958 2.108966 0.036647 0.016824 -54833.700000 0 0 1
-27.773315 -28.396879 -22.246316 45.526237 0.796499 2.081336 0.031363 0.022363 353532.000000 0 0 1
-28.774415 -27.367379 -22.362816 45.574509 0.760341 2.083674 0.026553 0.018353 36428.100000 0 0 1
-29.309115 -26.845279 -21.011216 44.957362 0.741550 2.057097 0.022049 0.016876 -291898.000000 0 0 1
-30.151815 -27.730279 -20.360716 45.745590 0.743587 2.032066 0.026504 0.018089 -212640.000000 0 0 1
-30.490715 -27.262379 -19.071716 45.129273 0.729557 2.007111 0.029424 0.016299 160262.000000 0 0 1
-31.518815 -28.250579 -18.383316 46.146258 0.730772 1.980536 0.015342 0.014500 1483880.000000 0 0 1
-32.894515 -28.333979 -18.811916 47.315448 0.711052 1.979680 0.012637 0.012365 1771710.000000 0 0 1
-33.799315 -27.207379 -18.797616 47.286208 0.677763 1.979618 0.009587 0.018748 390346.000000 0 0 1
-34.259415 -26.787279 -17.397916 46.839655 0.663604 1.951351 0.020319 0.015932 -716325.000000 0 0 1
-33.231315 -26.131579 -16.695716 45.452465 0.666365 1.946925 0.014492 0.022651 176079.000000 0 0 1
-33.642815 -25.532479 -15.480816 44.982242 0.649191 1.922134 0.023816 0.010332 -149858.000000 0 0 1
-33.412615 -26.366279 -14.213616 44.873270 0.668066 1.893098 0.025168 0.013157 -218428.000000 0 0 1
-34.214215 -27.509179 -14.025016 46.087617 0.677192 1.880012 0.039510 0.014159 152373.000000 0 0 1
-34.245115 -27.909079 -12.737616 45.977075 0.683808 1.851511 0.047055 0.012000 -242938.000000 0 0 1
-34.912215 -29.295979 -12.676916 47.305616 0.698151 1.842091 0.052276 0.004863 -178700.000000 0 0 1
-34.190515 -30.349279 -13.285216 47.608476 0.725951 1.853603 0.038761 0.002421 9002.160000 0 0 1
-34.713715 -31.615379 -12.973016 48.712147 0.738721 1.840369 0.031784 -0.004840 -305348.000000 0 0 1
-34.136315 -32.674079 -13.861016 49.244402 0.763515 1.856126 0.017479 0.004531 -612891.000000 0 0 1
-32.761515 -32.935179 -13.844816 48.473929 0.788042 1.860443 -0.001072 0.005937 -382682.000000 0 0 1
-32.476515 -33.963179 -14.783716 49.262356 0.807771 1.875596 0.026788 -0.006334 -715130.000000 0 0 1
-31.006515 -34.008879 -15.126716 48.444043 0.831545 1.888358 0.011223 -0.004837 -892676.000000 0 0 1
-30.849015 33.306514 -16.221216 48.209060 -0.823685 1.913969 0.026426 -0.006322 -911222.000000 0 0 1
-29.496515 33.133214 -16.513516 47.334453 -0.843400 1.927160 0.018267 -0.011168 -653907.000000 0 0 1
9.394273 19.884614 -9.068715 23.788481 1.129439 1.961915 0.047546 -0.020341 -424967.000000 0 1 0
8.151573 20.464114 -9.425715 23.959804 1.191726 1.975120 0.056205 -0.006780 258449.000000 0 1 0
7.750073 20.443014 -10.801815 24.385645 1.208431 2.029692 0.065514 -0.007652 161619.000000 0 1 0
7.690973 19.058314 -11.445115 23.523628 1.187234 2.078918 0.055038 -0.009935 -1524080.000000 0 1 0
8.936073 18.543614 -11.691215 23.672844 1.121737 2.087327 0.069270 -0.013861 -1087680.000000 0 1 0
8.899773 17.312014 -12.372515 23.064928 1.095948 2.136987 0.056811 -0.021093 350549.000000 0 1 0
10.330073 16.803814 -12.727015 23.474571 1.019605 2.143804 0.070365 -0.022861 403188.000000 0 1 0
10.167273 15.647714 -13.539515 23.055213 0.994589 2.198472 0.076607 -0.037972 765818.000000 0 1 0
11.345973 15.286914 -14.280215 23.798012 0.932305 2.214371 0.096556 -0.041509 360315.000000 0 1 0
11.044673 14.114014 -15.238015 23.524185 0.906797 2.275436 0.082239 -0.040591 -589109.000000 0 1 0
11.020073 12.884514 -14.594115 22.370537 0.863236 2.281518 0.082551 -0.042423 390175.000000 0 1 0
12.294173 12.336614 -14.286115 22.526247 0.787121 2.257768 0.102379 -0.033416 -783598.000000 0 1 0
13.042273 11.773614 -15.489815 23.423348 0.734320 2.293344 0.105214 -0.035498 -921110.000000 0 1 0
13.713773 12.713814 -16.312215 24.815257 0.747579 2.288088 0.094292 -0.028399 242781.000000 0 1 0
14.450373 12.053014 -17.300915 25.561887 0.695189 2.314237 0.086800 -0.031022 -160247.000000 0 0 1
15.289673 12.978214 -18.222315 27.097249 0.703810 2.308349 0.072006 -0.025066 14648.200000 0 0 1
16.387073 13.609014 -17.622115 27.645621 0.693048 2.261953 0.061015 -0.022471 -98748.800000 0 0 1
17.133873 14.261014 -18.626515 29.049840 0.694145 2.266846 0.050774 -0.017081 184653.000000 0 0 1
18.424373 15.082014 -18.340515 30.054936 0.685974 2.227151 0.042701 -0.011915 28215.600000 0 0 1
18.336373 16.303614 -17.645615 30.222477 0.726783 2.194268 0.049449 -0.018687 320159.000000 0 0 1
17.606573 17.313114 -18.352615 30.766115 0.776995 2.209955 0.051853 -0.006945 -98010.900000 0 0 1
17.591073 18.716914 -17.653215 31.167366 0.816396 2.172928 0.060665 0.002557 125727.000000 0 0 1
18.732773 19.545414 -17.842815 32.423850 0.806625 2.153519 0.052637 -0.005969 167590.000000 0 0 1
18.591473 20.830014 -17.337315 32.865101 0.842122 2.126486 0.052686 -0.004179 -523221.000000 0 0 1
19.788773 21.787114 -17.595915 34.291254 0.833426 2.109625 0.065424 -0.008210 -20321.500000 0 0 1
20.866673 21.601214 -16.738915 34.383452 0.802693 2.079254 0.048774 -0.007010 -410165.000000 0 0 1
20.592673 22.191014 -15.497115 34.009702 0.822739 2.043918 0.063605 -0.007553 -643936.000000 0 0 1
21.920873 22.657614 -14.894115 34.867274 0.801923 2.012152 0.065688 -0.006184 -592749.000000 0 0 1
22.504673 21.633314 -14.106715 34.255802 0.765659 1.995230 0.076970 -0.007639 156154.000000 0 0 1
23.518873 22.191214 -13.260515 34.948943 0.756361 1.959971 0.060149 -0.001450 854696.000000 0 0 1
24.966473 22.101114 -13.840515 36.101854 0.724596 1.964243 0.053628 0.005498 -4223.030000 0 0 1
25.166873 22.796614 -15.038315 37.137690 0.736020 1.987703 0.057934 0.011177 62385.100000 0 0 1
26.449473 22.764114 -15.649115 38.244925 0.710653 1.992353 0.043233 0.029744 -173648.000000 0 0 1
26.615873 23.468114 -16.995015 39.344474 0.722631 2.017455 0.038493 0.021270 -557967.000000 0 0 1
27.602473 22.854814 -17.788115 40.008200 0.691582 2.031537 0.043093 0.020097 9770.520000 0 0 1
27.385873 23.244014 -19.117715 40.690997 0.703773 2.059891 0.043493 0.011983 -745276.000000 0 0 1
27.837073 22.222214 -20.108515 40.903323 0.673701 2.084735 0.045449 0.005906 -101837.000000 0 0 1
29.238673 22.235914 -20.255415 41.947797 0.650185 2.074728 0.040216 0.010376 -212268.000000 0 0 1
29.698273 21.319214 -21.265015 42.292992 0.622613 2.097634 0.043338 0.000544 882401.000000 0 0 1
31.223773 21.600614 -21.498615 43.631422 0.605202 2.086023 0.070956 -0.009171 556472.000000 0 0 1
31.582073 22.785614 -22.188315 44.821121 0.624992 2.088679 0.052037 0.003806 129637.000000 0 0 1
32.935873 23.118014 -21.951815 45.837719 0.612007 2.070201 0.049945 0.003857 164054.000000 0 0 1
33.173473 24.601914 -22.471915 47.018299 0.638112 2.069104 0.029877 0.006303 112773.000000 0 0 1
33.570073 24.847614 -23.812115 48.076715 0.637181 2.088970 0.032815 -0.000057 528903.000000 0 0 1
32.463373 24.549514 -24.659015 47.587984 0.647471 2.115515 0.037389 -0.005468 128017.000000 0 0 1
32.620273 25.102514 -26.087665 48.731763 0.655888 2.135697 0.046716 -0.017406 -146735.000000 0 0 1
32.335373 26.477114 -26.200555 49.326291 0.686117 2.130775 0.052910 -0.020518 -249458.000000 0 0 1
30.966073 26.790414 -26.251635 48.639205 0.713226 2.140903 0.062587 -0.009384 37610.100000 0 0 1
30.163573 26.731114 -27.598155 48.847229 0.725141 2.171216 0.065342 -0.012742 34653.500000 0 0 1
29.719873 25.429214 -27.946265 48.071920 0.707753 2.191174 0.056549 -0.023490 -683.426000 0 0 1
29.524073 25.312314 -29.365025 48.730779 0.708743 2.217548 0.058532 -0.027973 -542767.000000 0 0 1
28.934473 23.945514 -29.751015 47.913613 0.691332 2.240725 0.061432 -0.030540 -229759.000000 0 0 1
27.645573 23.852314 -29.196085 46.750636 0.711872 2.245296 0.069840 -0.030000 -454233.000000 0 0 1
27.010973 22.671614 -29.582095 46.029285 0.698278 2.268787 0.080968 -0.037649 1248660.000000 0 0 1
25.549973 22.442614 -28.980345 44.680336 0.720742 2.276560 0.076505 -0.027748 1350260.000000 0 0 1
25.604473 22.307614 -27.553965 43.731449 0.716696 2.252442 0.079409 -0.016460 -328800.000000 0 0 1
24.336373 22.563214 -27.037815 42.806555 0.747609 2.254448 0.070073 -0.017755 -513095.000000 0 0 1
24.239373 22.555514 -25.519725 41.803765 0.749430 2.227444 0.068990 -0.016441 -209681.000000 0 0 1
24.587073 21.395414 -24.827115 40.971619 0.716099 2.221767 0.065795 -0.014476 -80126.200000 0 0 1
24.672273 21.602514 -23.459715 40.320564 0.719158 2.191773 0.070142 -0.008306 -355039.000000 0 0 1
25.392173 20.448414 -22.823115 39.796918 0.677967 2.181555 0.065666 -0.000929 -943496.000000 0 0 1
26.652373 20.139714 -23.298215 40.727925 0.647104 2.179794 0.056680 -0.003399 -712758.000000 0 0 1
27.001873 18.862714 -22.842715 40.083572 0.609766 2.177153 0.087280 -0.015643 -24276.700000 0 0 1
28.216473 18.114214 -23.435515 40.908648 0.570712 2.180805 0.092537 -0.019838 665880.000000 0 0 1
29.359173 18.042314 -22.572115 41.194496 0.551040 2.150696 0.100802 -0.023885 -338076.000000 0 0 1
30.490473 17.654014 -23.265215 42.220888 0.524836 2.154401 0.082682 -0.019277 -264408.000000 0 0 1
31.687673 17.549514 -22.275415 42.523972 0.505777 2.122140 0.069713 -0.011504 -31915.600000 0 0 1
32.325273 18.730014 -21.869015 43.289612 0.525152 2.100386 0.044967 0.000633 389364.000000 0 0 1
33.571173 18.340014 -21.273315 43.771380 0.500000 2.078314 0.052737 -0.005194 685970.000000 0 0 1
34.143573 19.349314 -20.271815 44.171552 0.515578 2.047591 0.034908 -0.010624 -93759.300000 0 0 1
33.275773 19.493314 -19.195715 43.078322 0.529921 2.032641 0.050130 -0.012311 -30625.900000 0 0 1
33.742073 20.538714 -18.353415 43.557021 0.546790 2.005747 0.030588 -0.003521 187645.000000 0 0 1
33.211773 20.510614 -16.873515 42.525553 0.553239 1.978808 0.048964 -0.015113 119031.000000 0 0 1
33.827573 19.557614 -16.015315 42.229081 0.524203 1.959780 0.058205 -0.021076 377016.000000 0 0 1
33.407673 19.674214 -14.631215 41.439351 0.532227 1.931653 0.067281 -0.019703 -283134.000000 0 0 1
33.901573 18.492114 -13.798915 41.008353 0.499355 1.913984 0.061934 -0.019639 839760.000000 0 0 1
35.353373 18.390314 -13.797215 42.171410 0.479665 1.904103 0.037731 -0.026307 1270200.000000 0 0 1
35.893173 17.365514 -13.024815 41.946713 0.450613 1.886524 0.019140 -0.011995 -164325.000000 0 0 1
35.826573 17.593514 -11.489715 41.534186 0.456482 1.851085 0.048115 -0.019546 -290932.000000 0 0 1
-36.487839 18.595514 -11.023715 42.410822 -0.471327 1.833743 0.039645 -0.025174 288006.000000 0 0 1
36.342273 19.008214 -9.716115 42.148261 0.481904 1.803411 0.045585 -0.022614 7137.020000 0 0 1
35.249573 20.100714 -9.599615 41.698006 0.518250 1.803098 0.051075 -0.027611 542760.000000 0 0 1
33.960673 19.607514 -9.970815 40.462317 0.523606 1.819783 0.070938 -0.036547 291844.000000 0 0 1
32.950073 20.614314 -9.957115 40.122330 0.559047 1.821586 0.053731 -0.020755 -431860.000000 0 0 1
31.600073 19.956814 -10.153115 38.728862 0.563291 1.836055 0.032600 -0.020879 -848154.000000 0 0 1
31.327473 19.716214 -11.475215 38.753325 0.561727 1.871413 0.057201 -0.025302 1008980.000000 0 0 1
30.092473 18.936514 -11.540715 37.380966 0.561669 1.884656 0.056010 -0.026157 1316730.000000 0 0 1
29.735773 18.501914 -12.956515 37.341777 0.556591 1.925136 0.083802 -0.014329 85565.500000 0 0 1
30.764073 17.603414 -13.302015 37.858315 0.519733 1.929823 0.083591 -0.010018 268962.000000 0 0 1
30.382373 16.894614 -14.496715 37.665254 0.507489 1.965877 0.064806 -0.002270 -556561.000000 0 0 1
31.530973 16.129314 -15.073415 38.491101 0.472836 1.973175 0.074703 -0.018357 -687891.000000 0 0 1
32.061873 14.982314 -14.461815 38.230584 0.437142 1.958732 0.061623 -0.017722 -73134.000000 0 0 1
33.319273 14.665514 -15.001915 39.373960 0.414633 1.961686 0.057904 -0.018349 -151247.000000 0 0 1
34.134373 13.664714 -14.187715 39.410292 0.380783 1.939064 0.034400 -0.019261 -44442.100000 0 0 1
34.692873 14.168014 -12.949815 39.648780 0.387713 1.903514 0.033936 -0.008521 345645.000000 0 0 1
35.491473 13.214114 -12.268915 39.809342 0.356417 1.884088 0.030511 0.001713 182201.000000 0 0 1
36.494573 13.850014 -11.272515 40.629378 0.362718 1.851932 0.053452 0.004004 175295.000000 0 0 1
-35.473739 14.211914 -11.831815 40.004456 -0.381051 1.871050 0.029404 -0.002310 -608128.000000 0 0 1
-34.630739 14.746614 -10.889815 39.183399 -0.402569 1.852424 0.023461 0.000503 -210414.000000 0 0 1
-33.147239 14.968314 -11.355615 38.101704 -0.424159 1.873429 0.049756 -0.020134 670368.000000 0 0 1
-32.433339 13.837014 -11.785215 37.178969 -0.403250 1.893346 0.048132 -0.022876 51072.800000 0 0 1
-32.027939 12.951414 -10.739415 36.178212 -0.384275 1.872186 0.067232 -0.007404 -216370.000000 0 0 1
-30.819939 12.053714 -11.153715 34.922286 -0.372812 1.895879 0.088560 -0.014121 -29291.700000 0 0 1
-31.091439 11.226914 -12.285815 35.265598 -0.346523 1.926638 0.073051 -0.017470 311713.000000 0 0 1
-30.451639 9.936614 -12.239915 34.290730 -0.315415 1.935792 0.090751 -0.019721 -21226.200000 0 0 1
-30.691339 9.247914 -13.553015 34.801816 -0.292667 1.970813 0.080585 -0.022088 334084.000000 0 0 1
-31.958239 8.661014 -13.845815 35.889397 -0.264653 1.966862 0.057739 -0.019419 472824.000000 0 0 1
-31.829339 7.860414 -15.014515 36.060069 -0.242111 2.000251 0.067718 -0.020587 -370370.000000 0 0 1
-33.068539 7.278014 -15.703415 37.324188 -0.216635 2.005046 0.073779 -0.013903 -255506.000000 0 0 1
-33.740739 6.258914 -14.961015 37.435858 -0.183415 1.981925 0.085313 -0.018793 70117.600000 0 0 1
-34.638839 5.533314 -15.766815 38.458539 -0.158405 1.993217 0.070818 -0.022648 86576.400000 0 0 1
-35.825939 4.969214 -14.923015 39.126556 -0.137825 1.962111 0.057268 -0.018515 -177691.000000 0 0 1
36.578973 4.099514 -15.662115 40.001614 0.111607 1.973098 0.066389 -0.018043 -1103360.000000 0 0 1
35.514273 3.784514 -14.866215 38.685792 0.106163 1.965225 0.068791 -0.015563 -556576.000000 0 0 1
34.474373 2.760614 -15.408415 37.861889 0.079907 1.989924 0.069928 -0.016800 244730.000000 0 0 1
35.000573 1.390514 -15.404915 38.265978 0.039707 1.985124 0.082946 -0.018470 200488.000000 0 0 1
34.043673 0.376014 -15.171215 37.273031 0.011045 1.989996 0.073125 -0.021145 103675.000000 0 0 1
33.531073 0.198214 -13.725615 36.232094 0.005911 1.959322 0.076298 -0.023975 -813616.000000 0 0 1
34.528873 -0.218186 -12.857515 36.845710 -0.006319 1.927253 0.082482 -0.019700 -232538.000000 0 0 1
34.259573 -0.030986 -11.491015 36.135339 -0.000904 1.894415 0.078357 -0.012903 -254012.000000 0 0 1
34.443873 1.371114 -10.922615 36.160253 0.039786 1.877651 0.076300 -0.018489 -69668.600000 0 0 1
33.566173 2.323514 -11.509915 35.560720 0.069112 1.900401 0.073114 -0.018212 379332.000000 0 0 1
33.554473 3.597014 -10.885815 35.459021 0.106791 1.882832 0.082871 -0.017475 306703.000000 0 0 1
32.485673 4.529914 -11.620815 34.797736 0.138550 1.911291 0.082489 -0.013602 626913.000000 0 0 1
32.870573 4.871414 -12.937315 35.659212 0.147129 1.942072 0.072861 -0.020421 110110.000000 0 0 1
31.976073 5.876114 -13.298115 35.126028 0.181738 1.959061 0.074604 -0.022270 -213338.000000 0 0 1
32.243873 6.399614 -14.722315 36.019008 0.195929 1.991866 0.051262 -0.013007 -181288.000000 0 0 1
31.872973 5.541014 -15.785615 35.996873 0.172127 2.024756 0.049610 -0.008832 112116.000000 0 0 1
32.221873 6.031214 -17.078515 36.963500 0.185037 2.051087 0.043486 -0.008035 -325269.000000 0 0 1
31.127673 7.002814 -17.669515 36.471677 0.221287 2.076556 0.053319 -0.009250 421291.000000 0 0 1
29.941373 6.524814 -18.228915 35.656028 0.214565 2.107427 0.049808 -0.021483 -91006.000000 0 0 1
29.094873 5.814514 -17.356015 34.373703 0.197248 2.100087 0.049146 -0.018841 -596653.000000 0 0 1
27.611973 5.813414 -17.848115 33.388202 0.207509 2.134788 0.040917 -0.019605 264862.000000 0 0 1
27.444173 5.028714 -19.011815 33.762697 0.181224 2.168930 0.044478 -0.014435 -591406.000000 0 0 1
26.205373 5.190914 -19.605015 33.136442 0.195554 2.203894 0.031294 -0.010626 -717848.000000 0 0 1
25.928873 3.992614 -20.506715 33.298240 0.152783 2.234260 0.029943 0.000600 -79408.400000 0 0 1
25.430873 2.874214 -19.749115 32.326737 0.112543 2.228021 0.028832 -0.005262 192371.000000 0 0 1
24.864673 1.838914 -20.500315 32.278421 0.073822 2.258946 0.025602 -0.002267 49679.400000 0 0 1
23.863873 1.008814 -19.640615 30.923388 0.042249 2.258983 0.027465 -0.006816 162754.000000 0 0 1
22.608273 1.582714 -19.377315 29.818104 0.069892 2.278184 0.028532 -0.004617 -368865.000000 0 0 1
21.758273 0.672514 -18.745115 28.727236 0.030899 2.281702 0.040811 -0.006200 -105928.000000 0 0 1
20.397173 1.359914 -18.496015 27.568036 0.066573 2.306248 0.040530 -0.007721 -855785.000000 0 0 1
19.582473 1.627514 -19.619715 27.767882 0.082920 2.355424 0.036836 -0.005338 364978.000000 0 0 1
18.567273 2.602414 -19.427915 26.999261 0.139254 2.373982 0.041513 -0.009745 1021900.000000 0 0 1
17.282473 2.133314 -18.675315 25.534336 0.122817 2.391140 0.069271 -0.021985 -440945.000000 0 0 1
17.691373 2.043214 -17.329115 24.848695 0.114983 2.342539 0.072486 -0.024554 613059.000000 0 1 0
16.560873 2.013514 -16.448715 23.428124 0.120989 2.349128 0.059957 -0.018408 648677.000000 0 1 0
15.746273 3.309614 -16.248215 22.867076 0.207168 2.361077 0.072841 -0.021756 47488.300000 0 1 0
14.870973 3.578014 -17.325315 23.110919 0.236116 2.418343 0.066292 -0.015159 -107404.000000 0 1 0
14.030373 4.660614 -17.068015 22.580740 0.320712 2.427772 0.084315 -0.025158 -136951.000000 0 1 0
-19.546727 -22.085486 -16.849015 33.966639 0.846303 2.089835 0.074735 -0.033456 -145539.000000 0 0 1
-19.411327 -22.322886 -18.255715 34.761789 0.855050 2.123707 0.069821 -0.029468 390902.000000 0 0 1
-20.549427 -21.840386 -18.979515 35.489483 0.815843 2.135059 0.071791 -0.026802 395061.000000 0 0 1
-20.701727 -22.615586 -20.328715 36.786993 0.829552 2.156284 0.055174 -0.022462 -85903.700000 0 0 1
-20.779027 -23.997886 -20.137415 37.592313 0.857161 2.136108 0.042585 -0.013782 325467.000000 0 0 1
-20.210027 -24.599586 -21.304515 38.307534 0.883047 2.160535 0.045691 -0.011223 -138040.000000 0 0 1
-20.109127 -26.176816 -21.241115 39.252868 0.915746 2.142583 0.041987 -0.007587 -695161.000000 0 0 1
-21.303027 -26.883486 -21.330615 40.392275 0.900694 2.127142 0.048251 -0.000929 -433408.000000 0 0 1
-21.071327 -28.266976 -21.285515 41.183685 0.930220 2.113956 0.059707 -0.006956 685632.000000 0 0 1
-22.428927 -29.045026 -21.493415 42.528075 0.913230 2.100634 0.054610 0.002710 571331.000000 0 0 1
-23.009527 -28.919926 -22.799315 43.423602 0.898726 2.123563 0.039204 0.012455 81977.800000 0 0 1
-22.337927 -29.489236 -23.962015 44.076935 0.922516 2.145565 0.034670 0.006820 -319254.000000 0 0 1
-22.926527 -28.940706 -25.301505 44.758868 0.900836 2.171575 0.028772 0.014540 -532861.000000 0 0 1
-24.190927 -29.422846 -25.638475 45.915533 0.882676 2.163232 0.046620 0.016238 -278725.000000 0 0 1
-24.687927 -28.775926 -26.791095 46.425321 0.861713 2.185944 0.045174 0.014576 -58795.500000 0 0 1
-24.046527 -29.281116 -28.143015 47.197971 0.883244 2.209650 0.057646 -0.007944 -429021.000000 0 0 1
-24.560227 -30.451916 -28.674045 48.504895 0.892089 2.203290 0.047116 -0.003417 -30329.900000 0 0 1
-24.033327 -30.757686 -29.989415 49.223989 0.907515 2.225903 0.079262 -0.014719 -44484.700000 0 0 1
-24.572727 -32.045526 -30.654855 50.699653 0.916625 2.220106 0.059358 -0.012480 -224168.000000 0 0 1
-24.019027 -33.272116 -30.272525 50.993854 0.945525 2.206384 0.058098 -0.021416 -256901.000000 0 0 1
-24.719127 33.808687 -30.742195 51.953297 -0.939471 2.203996 0.062813 -0.021824 -22458.900000 0 0 1
-23.798227 32.557523 -30.847335 50.773083 -0.939593 2.223772 0.083209 -0.024495 248916.000000 0 0 1
-22.866227 32.737751 -31.901695 51.111083 -0.961100 2.244857 0.088724 -0.032582 -168333.000000 0 0 1
-22.090127 31.552427 -31.903405 50.013564 -0.959997 2.262558 0.084777 -0.023937 -272067.000000 0 0 1
-20.945627 31.453467 -32.902895 50.106291 -0.983308 2.287180 0.070871 -0.019789 -307873.000000 0 0 1
-21.367227 31.154677 34.007098 50.829666 -0.969635 0.837879 0.066091 -0.015588 48389.400000 0 0 1
-21.115027 29.774697 33.775471 49.730869 -0.953949 0.824172 0.042785 -0.004198 -19616.800000 0 0 1
-21.164927 29.467377 32.263491 48.551140 -0.947927 0.843937 0.030473 -0.000553 293400.000000 0 0 1
-20.172027 30.206237 31.531166 48.099291 -0.982003 0.855895 0.022907 0.004727 662068.000000 0 0 1
-20.279227 30.003757 30.122546 47.104567 -0.976436 0.876971 0.046621 0.003570 -76033.900000 0 0 1
-19.873227 31.264137 29.278516 47.218882 -1.004571 0.901978 0.030287 -0.013206 43858.200000 0 0 1
-20.827627 32.284550 29.473326 48.422713 -0.997855 0.916416 0.027765 -0.010223 627842.000000 0 0 1
-20.187027 33.539626 29.214736 48.845914 -1.028991 0.929668 0.023656 -0.023554 331395.000000 0 0 1
-21.218127 -33.554466 29.193396 49.278448 1.006930 0.936741 0.033605 -0.030518 148810.000000 0 0 1
-21.737327 -33.101646 30.441406 49.949069 0.989737 0.915431 0.030529 -0.021495 -323999.000000 0 0 1
-22.897427 -32.326106 30.370166 49.916092 0.954504 0.916723 0.040983 -0.021303 -434641.000000 0 0 1
-22.790827 -30.804606 30.165576 48.767894 0.933822 0.903895 0.047355 -0.018919 -633787.000000 0 0 1
-22.201927 -30.433476 28.957986 47.515123 0.940530 0.915432 0.030917 -0.011845 -129704.000000 0 0 1
-22.388727 -29.001676 28.833036 46.622915 0.913375 0.904052 0.020875 -0.014085 1440800.000000 0 0 1
-23.819727 -28.507366 28.309816 46.706477 0.874743 0.919621 0.015972 -0.006530 766188.000000 0 0 1
-24.926827 -28.597646 29.170676 47.854993 0.853873 0.915286 0.031531 0.001164 176238.000000 0 0 1
-25.936967 -29.494396 28.777696 48.690876 0.849487 0.938463 0.028136 0.002045 268491.000000 0 0 1
-26.886507 -29.231416 27.564226 48.344043 0.827159 0.964086 0.002704 0.006791 -201996.000000 0 0 1
-26.235607 -29.459426 26.354336 47.441710 0.843217 0.981820 0.003265 0.005747 243037.000000 0 0 1
-27.223677 -29.567786 25.356406 47.521888 0.826650 1.007977 0.004379 0.010140 114967.000000 0 0 1
-26.594127 -29.979096 24.019376 46.721774 0.845160 1.030845 0.004843 0.007808 -375852.000000 0 0 1
-25.933917 -28.852266 23.391646 45.301108 0.838616 1.028202 -0.011271 0.008046 532398.000000 0 0 1
-25.406467 -29.106146 22.087086 44.502760 0.853163 1.051455 0.012739 0.002401 271162.000000 0 0 1
-24.198627 -30.081106 22.017386 44.443354 0.893350 1.052497 0.019727 -0.012015 -733691.000000 0 0 1
-24.544727 -31.469946 21.991486 45.567824 0.908406 1.067164 0.016017 -0.015571 517275.000000 0 0 1
-23.398727 -32.296246 21.751486 45.427690 0.943814 1.071491 0.043214 -0.016059 201046.000000 0 0 1
-22.624427 -32.726316 23.029186 45.969771 0.965918 1.046084 0.038765 -0.007893 -3002.820000 0 0 1
-22.008927 -31.617446 23.701956 45.230946 0.962692 1.019231 0.061612 -0.019415 105722.000000 0 0 1
-21.401327 -32.087236 24.882336 45.899217 0.982582 0.997853 0.059255 -0.029814 -247268.000000 0 0 1
-20.333527 -31.128846 25.451846 45.058338 0.992171 0.970528 0.051302 -0.017244 -1320250.000000 0 0 1
-19.240327 -30.986516 24.625496 44.008742 1.015132 0.976943 0.056257 -0.019058 -719974.000000 0 0 1
-18.097427 -30.475716 25.244156 43.514980 1.034925 0.951913 0.081489 -0.027767 -129283.000000 0 0 1
-17.224827 -31.456296 26.028636 44.313464 1.069813 0.942984 0.064539 -0.032018 -1050690.000000 0 0 1
-17.811427 -31.831066 27.276416 45.546312 1.060642 0.928704 0.054143 -0.024729 -70980.600000 0 0 1
-16.961927 -32.367436 28.246536 46.186845 1.088100 0.912752 0.042872 -0.013978 -648258.000000 0 0 1
-17.375227 -31.846296 29.615986 46.831524 1.071340 0.886156 0.062855 -0.019053 4164.530000 0 0 1
-17.125027 -30.487786 29.816976 45.954583 1.059014 0.864743 0.060709 -0.017742 22098.900000 0 0 1
-17.332027 -30.071926 31.172156 46.652151 1.047946 0.839033 0.075286 -0.019501 -450665.000000 0 0 1
-17.339027 -28.548226 31.309286 45.781158 1.024983 0.817715 0.073448 -0.023088 67388.300000 0 0 1
-18.371227 -27.776226 30.679026 45.279392 0.986448 0.826371 0.073517 -0.023356 325418.000000 0 0 1
-18.541427 -27.789856 29.255116 44.406333 0.982424 0.851567 0.079199 -0.019533 -877458.000000 0 0 1
-17.399227 -27.341546 28.371206 43.072248 1.004066 0.851722 0.076207 -0.016338 -583429.000000 0 0 1
-17.109927 -25.947056 28.552356 42.204695 0.987830 0.827768 0.073413 -0.011303 -519560.000000 0 0 1
-15.986227 -25.632926 27.812126 41.062400 1.013161 0.826691 0.071052 -0.013557 -566236.000000 0 0 1
-16.019627 -24.155886 27.310936 39.824898 0.985214 0.815128 0.071418 -0.015812 324008.000000 0 0 1
-16.993127 -23.859286 26.299136 39.365930 0.951914 0.839186 0.077797 -0.013281 505852.000000 0 0 1
-16.556227 -22.769986 25.442926 37.946322 0.942108 0.835917 0.097771 -0.020984 51762.000000 0 0 1
-17.128927 -21.434986 25.889576 37.724380 0.896598 0.814431 0.080807 -0.015246 -576839.000000 0 0 1
-16.781727 -20.455186 24.928886 36.352308 0.883731 0.815152 0.091870 -0.016631 214830.000000 0 0 1
-17.361927 -19.197786 25.248246 36.158891 0.835571 0.797835 0.072719 -0.011234 -38069.600000 0 0 1
-17.045927 -18.145086 24.162646 34.693533 0.816622 0.800344 0.071526 -0.020550 -337632.000000 0 0 1
-15.724227 -17.698886 24.308366 33.932264 0.844410 0.772198 0.080322 -0.024925 -423941.000000 0 0 1
-15.338627 -16.768686 23.304076 32.550610 0.829909 0.772836 0.074465 -0.023569 -385465.000000 0 0 1
-13.897927 -16.274386 23.424136 31.728507 0.863999 0.740298 0.072328 -0.025935 -568496.000000 0 0 1
-12.918227 -17.181486 22.899886 31.408419 0.926100 0.753790 0.061001 -0.029789 459050.000000 0 0 1
-11.617527 -16.668986 23.154386 30.804993 0.962117 0.720245 0.053843 -0.027718 -134767.000000 0 0 1
-11.016927 -15.831186 22.035186 29.283930 0.962827 0.718997 0.057504 -0.028860 -576346.000000 0 0 1
-10.616627 -16.629686 20.902486 28.743227 1.002609 0.756542 0.076052 -0.030627 656569.000000 0 0 1
-9.264127 -17.099986 20.980386 28.607869 1.074300 0.747518 0.064022 -0.026299 237163.000000 0 0 1
-8.891427 -18.281986 20.050286 28.553501 1.118129 0.792313 0.069354 -0.022971 -149617.000000 0 0 1
-8.685427 -18.031686 18.689286 27.383713 1.121915 0.819624 0.073147 -0.029302 -249244.000000 0 0 1
-8.348727 -19.214086 18.021786 27.634527 1.160898 0.860383 0.070935 -0.028635 -32958.200000 0 0 1
-7.975827 -18.905086 16.576286 26.377819 1.171565 0.891279 0.063131 -0.034969 -566009.000000 0 0 1
-6.785127 -18.201386 16.592286 25.546670 1.213973 0.863884 0.061854 -0.036793 -980908.000000 0 0 1
-6.204027 -17.962986 15.329986 24.416537 1.238245 0.892005 0.052519 -0.034617 -38537.200000 0 1 0
-5.382027 -16.675786 15.285386 23.252765 1.258605 0.853489 0.045126 -0.030393 -119699.000000 0 1 0
-6.162827 -15.499586 15.498586 22.768921 1.192350 0.822092 0.056136 -0.036739 -37038.200000 0 1 0
-5.425727 -14.285086 15.579786 21.822738 1.207809 0.775710 0.043221 -0.030322 -442717.000000 0 1 0
-5.879227 -13.292586 16.582186 22.050556 1.154369 0.719694 0.041702 -0.019757 -437312.000000 0 1 0
-5.496927 -13.526086 17.939186 23.129755 1.184790 0.683149 0.049745 -0.018935 -99384.300000 0 1 0
-6.152827 -14.555886 18.694186 24.478637 1.170872 0.701781 0.066977 -0.026463 -736116.000000 0 1 0
-7.443327 -14.060286 19.292886 25.006203 1.083917 0.689563 0.070488 -0.031694 -951868.000000 0 0 1
-7.267327 -13.124486 20.354786 25.286033 1.065099 0.635152 0.066376 -0.027682 -112204.000000 0 0 1
-8.439827 -12.845586 21.084186 26.091812 0.989501 0.629916 0.066901 -0.021664 49753.300000 0 0 1
-8.053127 -11.963986 22.251186 26.516128 0.978343 0.575066 0.069004 -0.015711 -834576.000000 0 0 1
-7.717427 -10.679786 21.863486 25.527015 0.945050 0.542377 0.057907 -0.014681 321410.000000 0 0 1
-7.146027 -9.917886 22.932986 25.987535 0.946431 0.489728 0.052182 -0.015816 154443.000000 0 0 1
-5.703927 -10.284186 23.358326 26.151685 1.064405 0.466415 0.061764 -0.019993 -437154.000000 0 0 1
-5.566527 -11.495586 24.072856 27.251369 1.119843 0.487806 0.073009 -0.015005 -866268.000000 0 0 1
-4.251827 -11.695386 24.460996 27.444496 1.222104 0.470615 0.061453 -0.015563 -996370.000000 0 0 1
-4.053227 -12.787986 25.530826 28.840671 1.263857 0.483793 0.068184 -0.017233 -989540.000000 0 0 1
-2.736527 -13.118186 25.817316 29.087956 1.365140 0.478774 0.051974 -0.020468 -569570.000000 0 0 1
-2.617827 -14.124486 26.762386 30.373992 1.387536 0.492623 0.050723 -0.022559 -154806.000000 0 0 1
-2.774827 -15.590386 26.256016 30.661672 1.394658 0.542707 0.056333 -0.032504 889049.000000 0 0 1
-1.608427 -16.099786 25.540576 30.234271 1.471223 0.564688 0.050679 -0.034666 915433.000000 0 0 1
-1.661027 -17.473786 25.211076 30.719546 1.476023 0.608187 0.061583 -0.030970 -248127.000000 0 0 1
-0.270727 -18.151086 24.941266 30.848046 1.555882 0.629163 0.057414 -0.031947 871835.000000 0 0 1
0.460173 -18.480586 26.117416 31.997863 -1.545901 0.615952 0.059356 -0.032662 202942.000000 0 0 1
0.924073 -17.474486 26.981396 32.159093 -1.517964 0.575358 0.062076 -0.036253 -807960.000000 0 0 1
1.662473 -17.998686 28.208116 33.502452 -1.478691 0.569869 0.050041 -0.028259 -212611.000000 0 0 1
2.887873 -18.704086 27.959966 33.763032 -1.417608 0.595044 0.057527 -0.033081 622814.000000 0 0 1
3.612073 -18.888486 29.161426 34.931515 -1.381846 0.582996 0.054953 -0.035918 555133.000000 0 0 1
4.467073 -17.652986 29.671476 34.813490 -1.322950 0.550433 0.057400 -0.032230 -1076750.000000 0 0 1
3.653073 -16.624286 30.042996 34.529602 -1.354491 0.515462 0.054241 -0.039694 -806114.000000 0 0 1
4.322873 -15.526586 30.535826 34.528231 -1.299256 0.485648 0.059698 -0.040674 -467626.000000 0 0 1
3.378173 -14.445786 31.125906 34.480644 -1.341073 0.444777 0.051158 -0.037140 -41140.400000 0 0 1
2.818973 -14.957686 32.322891 35.727416 -1.384518 0.440102 0.044288 -0.038905 -308438.000000 0 0 1
1.879673 -14.143286 32.932356 35.890190 -1.438668 0.408830 0.050359 -0.027920 34606.600000 0 0 1
0.950773 -14.879186 33.950706 37.080245 -1.506984 0.413796 0.037871 -0.020524 643006.000000 0 0 1
1.707573 -15.146186 -33.060025 36.404505 -1.458531 2.709592 0.055480 -0.020272 235617.000000 0 0 1
0.872173 -15.624686 -32.035535 35.653429 -1.515034 2.687196 0.039583 -0.024168 113415.000000 0 0 1
1.728473 -15.847486 -30.793315 34.675044 -1.462157 2.663891 0.051477 -0.024809 -43977.500000 0 0 1
0.974773 -16.315186 -29.700215 33.900417 -1.511121 2.638513 0.070813 -0.031505 -247615.000000 0 0 1
1.744273 -16.410586 -28.510905 32.942701 -1.464904 2.616883 0.039204 -0.027210 42079.400000 0 0 1
1.273273 -17.609986 -27.652475 32.808417 -1.498618 2.573348 0.078070 -0.035065 -125981.000000 0 0 1
1.775873 -18.810286 -28.163605 33.914145 -1.476666 2.550690 0.082075 -0.035687 148015.000000 0 0 1
1.329973 -19.925186 -27.402365 33.906806 -1.504147 2.511830 0.093699 -0.040713 -869011.000000 0 0 1
2.251373 -21.157486 -27.579245 34.832781 -1.464785 2.484483 0.099543 -0.039718 1595010.000000 0 0 1
3.618673 -20.914286 -27.094425 34.418164 -1.399469 2.477073 0.082786 -0.037840 1509130.000000 0 0 1
3.823473 -21.024086 -25.715035 33.434924 -1.390901 2.448239 0.081516 -0.036147 152989.000000 0 0 1
5.342973 -20.892286 -25.219545 33.182231 -1.320424 2.434158 0.089621 -0.035432 1565580.000000 0 0 1
6.157973 -22.035886 -25.380815 34.171431 -1.298296 2.407964 0.088081 -0.028238 142905.000000 0 0 1
6.358773 -22.529586 -26.669545 35.486348 -1.295711 2.421196 0.080748 -0.029337 -980281.000000 0 0 1
5.521273 -23.787886 -27.018235 36.418855 -1.342730 2.406659 0.052051 -0.034046 -176503.000000 0 0 1
5.716173 -24.964186 -26.231615 36.660372 -1.345702 2.368180 0.075926 -0.020523 -12453.000000 0 0 1
5.017473 -26.133856 -26.660415 37.668703 -1.381113 2.357119 0.066397 -0.018586 72486.400000 0 0 1
5.154473 -27.341916 -25.750045 37.910603 -1.384464 2.317510 0.072544 -0.023305 -858951.000000 0 0 1
6.440573 -27.822866 -25.664215 38.395895 -1.343318 2.302866 0.088931 -0.025726 -1112560.000000 0 0 1
6.457273 -29.010146 -24.953615 38.806802 -1.351780 2.269234 0.082786 -0.030551 -606008.000000 0 0 1
7.879673 -29.491716 -24.666415 39.246434 -1.309712 2.250421 0.069686 -0.040080 -309021.000000 0 0 1
8.491573 -29.591696 -25.962355 40.271816 -1.291347 2.271398 0.078947 -0.046269 -3553.220000 0 0 1
9.834873 -30.062836 -25.921965 40.895563 -1.254627 2.257327 0.140173 -0.031153 580568.000000 0 0 1
10.439473 -30.087216 -27.384865 42.001833 -1.236820 2.281005 0.136088 -0.055677 62492.800000 0 0 1
10.038173 -31.108516 -28.246295 43.201364 -1.258662 2.283430 0.133969 -0.051344 -102135.000000 0 0 1
10.624573 -30.930776 -29.531835 44.064994 -1.239928 2.305259 0.128981 -0.030770 -36524.000000 0 0 1
-35.748035 -4.741386 -5.339315 36.454232 0.131864 1.717791 0.120420 -0.026584 -98815.900000 0 0 1
-35.666824 -3.901286 -4.174815 36.121620 0.108948 1.686632 0.142150 -0.034679 155210.000000 0 0 1
-34.828485 -2.781186 -4.452015 35.221851 0.079685 1.697535 0.142029 -0.035071 -128215.000000 0 0 1
-35.483860 -1.473086 -4.893815 35.850017 0.041490 1.707732 0.085961 -0.015395 -377806.000000 0 0 1
-36.138517 -0.830686 -3.818315 36.349167 0.022982 1.676036 0.086163 -0.019675 494015.000000 0 0 1
36.424365 0.377714 -4.261915 36.674800 0.010369 1.687268 0.096833 -0.009266 460875.000000 0 0 1
35.651615 1.171514 -3.173215 35.811722 0.032848 1.659521 0.094239 -0.009815 63300.900000 0 0 1
36.566765 1.877114 -2.355715 36.690616 0.051289 1.635045 0.099064 -0.012184 332782.000000 0 0 1
35.921395 2.991014 -1.801915 36.090715 0.083074 1.620744 0.097648 -0.027969 -339599.000000 0 0 1
-36.397937 4.243114 -1.600115 36.679343 -0.116052 1.614435 0.098055 -0.037604 -93771.300000 0 0 1
-35.973978 4.864514 -2.837915 36.412146 -0.134408 1.648814 0.112633 -0.033458 864510.000000 0 0 1
-34.698793 4.435014 -3.329115 35.139132 -0.127125 1.665680 0.087682 -0.021602 -222656.000000 0 0 1
-33.599237 5.453214 -3.110115 34.180683 -0.160899 1.661913 0.081743 -0.027646 -840886.000000 0 0 1
-33.249047 5.609214 -1.721415 33.762785 -0.167129 1.621804 0.095766 -0.039240 380731.000000 0 0 1
-32.962107 6.936414 -1.401015 33.713160 -0.207410 1.612365 0.104466 -0.051044 -25219.900000 0 0 1
-32.323507 7.305214 -0.007615 33.138728 -0.222269 1.571026 0.119236 -0.046263 571017.000000 0 0 1
-30.913717 7.010814 0.105685 31.698905 -0.223014 1.567462 0.154436 -0.042249 1183450.000000 0 0 1
-30.353837 7.442314 1.347085 31.281913 -0.240442 1.527720 0.157274 -0.046458 72130.000000 0 0 1
-30.439797 8.970414 1.683685 31.778678 -0.286581 1.517790 0.155527 -0.047400 -1150540.000000 0 0 1
-31.708547 9.436414 2.007585 33.143751 -0.289252 1.510187 0.132914 -0.047337 -560098.000000 0 0 1
-31.774467 10.808814 1.952285 33.619319 -0.327894 1.512693 0.124534 -0.036911 -147132.000000 0 0 1
-33.184627 11.388014 1.763785 35.128582 -0.330579 1.520566 0.140084 -0.038301 -523094.000000 0 0 1
-33.778547 11.282614 0.481785 35.616285 -0.322366 1.557269 0.120839 -0.024076 309227.000000 0 0 1
-35.041718 11.908014 0.436185 37.012336 -0.327581 1.559011 0.125024 -0.009736 580586.000000 0 0 1
-36.292417 10.993014 0.678885 37.926861 -0.294116 1.552896 0.133884 -0.042209 186738.000000 0 0 1
-36.559237 10.130614 -0.405615 37.939052 -0.270319 1.581488 0.123869 -0.034882 261882.000000 0 0 1
35.360465 9.596514 -0.122315 36.639740 0.265008 1.574135 0.140942 -0.045370 371871.000000 0 0 1
34.840855 8.635114 -1.193515 35.914828 0.242949 1.604034 0.116094 -0.059026 -24384.500000 0 0 1
34.418715 9.189214 -2.421615 35.706496 0.260898 1.638668 0.110793 -0.048215 111219.000000 0 0 1
34.112125 8.175114 -3.361315 35.238729 0.235218 1.666329 0.094512 -0.047976 -371696.000000 0 0 1
33.563055 8.699914 -4.688715 34.987873 0.253629 1.705210 0.080476 -0.035982 678062.000000 0 0 1
32.232325 9.239414 -4.616815 33.846780 0.279165 1.707626 0.103297 -0.038340 743324.000000 0 0 1
31.794335 9.772014 -5.847515 33.772259 0.298187 1.744819 0.088607 -0.024329 -939259.000000 0 0 1
30.421875 10.401314 -5.816115 32.672695 0.329443 1.749762 0.094929 -0.023156 -291235.000000 0 0 1
29.366475 9.419314 -5.720815 31.366241 0.310384 1.754211 0.088412 -0.014990 129880.000000 0 0 1
28.148385 10.001614 -6.046315 30.478219 0.341404 1.770503 0.078288 -0.006015 -1094530.000000 0 0 1
27.005685 8.988714 -6.013715 29.090699 0.321311 1.779021 0.093777 0.002338 -459945.000000 0 0 1
27.176985 8.036614 -7.065815 29.207900 0.287520 1.815135 0.092764 -0.005609 287487.000000 0 0 1
26.024685 7.240314 -7.188615 27.953221 0.271348 1.830885 0.100310 -0.011753 -162678.000000 0 0 1
26.058285 6.231214 -8.350915 28.064213 0.234718 1.872937 0.113457 -0.026762 -279834.000000 0 0 1
27.198285 5.414114 -8.308515 28.949798 0.196492 1.861887 0.116812 -0.023514 233955.000000 0 0 1
27.187785 4.333414 -9.255515 29.045115 0.158059 1.895112 0.105262 -0.027037 -455105.000000 0 0 1
28.305255 3.279114 -9.125815 29.920237 0.115334 1.880740 0.102470 -0.019100 -931754.000000 0 0 1
29.573925 3.681414 -9.558815 31.297617 0.123845 1.881172 0.115305 -0.012860 631309.000000 0 0 1
30.684905 3.216014 -8.771615 32.075651 0.104426 1.847791 0.087716 -0.019454 247515.000000 0 0 1
30.918925 1.768314 -8.390515 32.085941 0.057130 1.835374 0.078290 -0.008073 -469905.000000 0 0 1
29.968875 1.234614 -7.426015 30.899894 0.041173 1.813497 0.097637 -0.013761 985114.000000 0 0 1
30.436255 0.010714 -6.855115 31.198692 0.000352 1.792328 0.095095 -0.011421 -58481.500000 0 0 1
30.199545 -1.255086 -7.716615 31.195095 -0.041536 1.820757 0.079024 -0.011146 -331286.000000 0 0 1
30.945795 -1.346786 -8.901115 32.228651 -0.043493 1.850620 0.068172 -0.010710 90460.000000 0 0 1
30.818655 -2.596186 -9.483015 32.348992 -0.084042 1.868313 0.057686 -0.020788 -6115.020000 0 0 1
31.678475 -2.913086 -10.768815 33.585402 -0.091700 1.897201 0.061097 -0.022186 757500.000000 0 0 1
33.048615 -3.201786 -10.440415 34.806101 -0.096580 1.875446 0.060235 -0.014557 805817.000000 0 0 1
33.746845 -3.721586 -11.531315 35.856255 -0.109836 1.898213 0.070212 -0.031195 537397.000000 0 0 1
35.181655 -4.315686 -11.306815 37.205081 -0.122059 1.879585 0.082882 -0.021610 563461.000000 0 0 1
35.217015 -5.404086 -10.390115 37.113297 -0.152263 1.854545 0.075498 -0.024019 701690.000000 0 0 1
36.571005 -5.757186 -10.099515 38.374260 -0.156143 1.837118 0.097457 -0.019915 535823.000000 0 0 1
-36.566777 -6.952086 -9.094315 38.316671 0.187878 1.810429 0.100955 -0.027862 -64254.300000 0 0 1
35.995885 -6.779686 -7.844215 37.459306 -0.186165 1.781764 0.093154 -0.019817 344064.000000 0 0 1
35.849055 -8.036286 -7.264715 37.450137 -0.220524 1.766018 0.086562 -0.021169 -283695.000000 0 0 1
35.404035 -7.879686 -5.824715 36.735031 -0.218995 1.730029 0.089597 -0.016219 -176905.000000 0 0 1
36.464195 -7.637886 -4.887415 37.574748 -0.206477 1.701238 0.096340 -0.017982 632808.000000 0 0 1
36.504155 -8.464386 -3.770015 37.661814 -0.227848 1.671066 0.112657 -0.019235 29402.500000 0 0 1
-36.012124 -9.837586 -4.073215 37.553192 0.266668 1.679475 0.111514 -0.022614 -12286.200000 0 0 1
36.351425 -10.611186 -4.921215 38.186932 -0.284014 1.700027 0.085735 -0.010959 764078.000000 0 0 1
-36.132227 -11.644286 -5.571215 38.368811 0.311760 1.716513 0.066884 -0.012364 7031.760000 0 0 1
36.329175 -12.117786 -6.820015 38.899387 -0.321950 1.747032 0.065594 -0.020306 10426.600000 0 0 1
36.359265 -11.196886 -7.941815 38.864365 -0.298736 1.776593 0.082711 -0.025645 222997.000000 0 0 1
36.007965 -11.908286 -9.112515 39.005368 -0.319390 1.806598 0.084260 -0.025061 -188510.000000 0 0 1
36.113035 -11.035086 -10.400215 39.167447 -0.296560 1.839552 0.070695 -0.031375 191167.000000 0 0 1
35.086925 -10.040186 -10.534315 37.985121 -0.278704 1.851808 0.065537 -0.033200 708816.000000 0 0 1
35.175165 -9.481386 -11.791815 38.291459 -0.263290 1.883833 0.075066 -0.033958 117989.000000 0 0 1
34.046275 -8.474486 -12.187015 37.141474 -0.243953 1.905113 0.075223 -0.030115 -133940.000000 0 0 1
34.304315 -7.988686 -13.486315 37.715857 -0.228799 1.936468 0.078828 -0.023213 489466.000000 0 0 1
33.406955 -6.948386 -13.823915 36.815830 -0.205068 1.955720 0.069583 -0.026594 -169559.000000 0 0 1
33.843825 -6.005286 -14.995215 37.500993 -0.175613 1.982162 0.070905 -0.026923 -621356.000000 0 0 1
34.737895 -5.035586 -14.568515 38.004212 -0.143957 1.964206 0.082397 -0.015124 -62825.800000 0 0 1
34.681275 -3.863186 -15.383515 38.136172 -0.110934 1.986008 0.078952 -0.016693 -514517.000000 0 0 1
35.965505 -3.073886 -15.233015 39.179218 -0.085260 1.970129 0.080877 -0.016982 -209110.000000 0 0 1
-36.529107 -2.931386 -16.491615 40.186341 0.080076 1.993666 0.090808 -0.017547 690913.000000 0 0 1
-35.210243 -2.396986 -16.580215 38.992439 0.067972 2.009997 0.114010 -0.013564 643422.000000 0 0 1
-35.043806 -0.873286 -16.361715 38.685096 0.024915 2.007491 0.105643 -0.011044 -425375.000000 0 0 1
-35.536123 -0.076386 -17.380215 39.558738 0.002150 2.025674 0.098461 -0.009273 -94417.200000 0 0 1
-35.262303 1.235114 -17.025315 39.176739 -0.035012 2.020365 0.105009 -0.017611 -119625.000000 0 0 1
-35.335855 2.264414 -18.187315 39.806138 -0.063995 2.045300 0.091426 -0.014718 241333.000000 0 0 1
-34.409292 2.072914 -19.250415 39.482589 -0.060170 2.080097 0.085255 -0.012303 225423.000000 0 0 1
-34.541807 3.126814 -20.204315 40.138856 -0.090277 2.098280 0.081227 -0.014418 -112997.000000 0 0 1
-33.505407 3.089614 -21.337515 39.842785 -0.091952 2.135947 0.073170 -0.009728 -435469.000000 0 0 1
-32.175437 3.388914 -21.033015 38.589263 -0.104939 2.147243 0.074736 -0.010129 -464989.000000 0 0 1
-31.504027 4.031214 -22.053015 38.666392 -0.127267 2.177717 0.061356 -0.006527 94296.300000 0 0 1
-30.089467 4.546314 -21.650715 37.347001 -0.149959 2.189178 0.069540 -0.008072 485736.000000 0 0 1
-29.243867 3.438514 -21.367315 36.381167 -0.117043 2.198537 0.074745 -0.000053 -288451.000000 0 0 1
-27.894257 3.794814 -21.286215 35.292962 -0.135213 2.218215 0.047447 0.004857 -364137.000000 0 0 1
-27.090407 2.737414 -20.510015 34.088771 -0.100706 2.216380 0.070445 0.003785 -125377.000000 0 0 1
-26.801907 3.147114 -19.147615 33.088936 -0.116886 2.187895 0.074487 0.008197 149834.000000 0 0 1
-26.235477 2.054514 -18.446615 32.137188 -0.078151 2.182174 0.079419 -0.004169 98477.200000 0 0 1
-25.371007 2.481914 -17.230815 30.769285 -0.097515 2.165183 0.091451 -0.012559 -285202.000000 0 0 1
-24.218027 3.245714 -17.428915 30.013573 -0.133227 2.190386 0.084840 -0.007659 -72479.000000 0 0 1
-23.528327 3.311914 -16.134015 28.720330 -0.139844 2.167311 0.094473 -0.021248 132691.000000 0 0 1
-22.330727 4.262314 -16.397515 28.030469 -0.188604 2.195663 0.084916 -0.025027 73635.400000 0 0 1
-21.225027 3.651614 -17.044515 27.465461 -0.170375 2.240278 0.100532 -0.036802 342810.000000 0 0 1
-20.257627 4.600914 -17.484915 27.152571 -0.223331 2.270447 0.088528 -0.033257 263439.000000 0 0 1
-18.923527 3.917714 -17.898815 26.340386 -0.204145 2.317904 0.112291 -0.037999 -323748.000000 0 0 1
-18.251227 3.416514 -16.773415 25.022536 -0.185052 2.305453 0.121152 -0.034902 105624.000000 0 0 1
-17.093327 2.776414 -17.320015 24.492309 -0.161021 2.356272 0.099433 -0.038588 -334251.000000 0 1 0
-16.973127 1.291314 -16.919315 24.000370 -0.075934 2.353164 0.089902 -0.028635 758637.000000 0 1 0
-17.999327 0.371714 -17.427815 25.056789 -0.020649 2.339957 0.075333 -0.020744 1391060.000000 0 0 1
-19.286027 0.508714 -16.822615 25.597070 -0.026371 2.287906 0.083363 -0.020928 718511.000000 0 0 1
-20.411127 -0.364986 -17.484515 26.878534 0.017880 2.279040 0.082850 -0.012015 295078.000000 0 0 1
-20.286327 -1.702286 -17.052815 26.556192 0.083717 2.268084 0.067105 -0.027971 1087430.000000 0 0 1
-21.442327 -2.511586 -17.411515 27.735218 0.116601 2.249490 0.084024 -0.019821 833660.000000 0 0 1
-21.629527 -3.713186 -16.480715 27.445185 0.170015 2.214917 0.098682 -0.031477 -18681.600000 0 0 1
-22.196927 -3.345886 -15.247515 27.136419 0.149610 2.167458 0.097009 -0.031332 311548.000000 0 0 1
-22.603827 -4.508386 -14.505115 27.233378 0.196869 2.132493 0.102073 -0.044851 47814.000000 0 0 1
-22.957227 -4.230586 -13.041215 26.739585 0.182237 2.080263 0.102864 -0.040760 200118.000000 0 0 1
-24.121127 -3.437386 -12.838315 27.540274 0.141552 2.055747 0.086202 -0.038616 582962.000000 0 0 1
-24.306827 -3.034686 -11.484815 27.054244 0.124206 2.009218 0.102057 -0.050811 -342197.000000 0 0 1
-25.339627 -1.918186 -11.237815 27.786051 0.075555 1.987164 0.136116 -0.051060 -311464.000000 0 0 1
-25.385537 -1.528986 -9.920915 27.298129 0.060158 1.942742 0.141728 -0.055826 690004.000000 0 0 1
-25.969677 -0.217086 -9.724215 27.731419 0.008359 1.929069 0.150520 -0.055091 -107032.000000 0 0 1
-26.220987 0.104614 -8.228515 27.481986 -0.003990 1.874876 0.168267 -0.044854 702776.000000 0 0 1
-24.980627 0.490914 -7.596215 26.114655 -0.019649 1.865942 0.146264 -0.038711 1285950.000000 0 0 1
-25.106447 0.528814 -6.205715 25.867436 -0.021060 1.813064 0.146581 -0.038183 -109039.000000 0 0 1
-23.874127 1.108014 -5.482315 24.520551 -0.046377 1.796283 0.088554 -0.022419 -75584.200000 0 1 0
-23.610927 2.503614 -5.679315 24.413082 -0.105641 1.805582 0.120666 -0.025000 33154.200000 0 1 0
-22.325427 2.878414 -5.276715 23.120417 -0.128222 1.801053 0.100091 -0.013035 -692458.000000 0 1 0
-22.096027 4.380014 -5.415115 23.167702 -0.195690 1.806714 0.110048 -0.017012 -219129.000000 0 1 0
-22.602927 5.225014 -4.382015 23.609217 -0.227175 1.757485 0.113160 -0.017009 716111.000000 0 1 0
-22.398327 6.634314 -4.676815 23.823765 -0.287964 1.768388 0.119596 -0.021538 -385684.000000 0 1 0
-22.960227 7.653914 -3.580815 24.465826 -0.321770 1.717684 0.122816 -0.014878 120323.000000 0 1 0
-22.193427 7.682214 -2.371215 23.604815 -0.333239 1.671421 0.101101 -0.017059 2088860.000000 0 1 0
-20.768527 7.960514 -2.417315 22.372861 -0.366025 1.679054 0.105463 -0.018084 778190.000000 0 1 0
-20.404827 9.448114 -2.662315 22.643139 -0.433639 1.688646 0.096980 -0.021497 -686119.000000 0 1 0
-20.369827 9.879014 -4.019215 22.993018 -0.451562 1.746501 0.089184 -0.018946 671620.000000 0 1 0
-19.816927 11.185014 -4.067415 23.116206 -0.513845 1.747672 0.083380 -0.017940 -140986.000000 0 1 0
-19.709727 11.722714 -5.519115 23.587200 -0.536564 1.806974 0.083980 -0.019745 -254469.000000 0 1 0
-18.618027 11.124614 -6.157615 22.545602 -0.538593 1.847429 0.064284 -0.018631 -255994.000000 0 1 0
-18.631927 11.631314 -7.468015 23.199298 -0.558073 1.898539 0.074159 -0.018425 -28293.300000 0 1 0
-17.351027 11.456214 -8.305015 22.389199 -0.583555 1.950816 0.062055 -0.010049 -320443.000000 0 1 0
-16.926227 10.152414 -8.638415 21.545090 -0.540275 1.983345 0.046867 -0.010103 362848.000000 0 1 0
-17.758227 9.432514 -9.528515 22.251282 -0.488266 2.013322 0.060029 -0.010032 -285346.000000 0 1 0
-17.914027 9.961314 -10.999615 23.262237 -0.507486 2.063322 0.067623 -0.012749 -26198.400000 0 1 0
-16.781027 9.916314 -11.838515 22.805407 -0.533719 2.116606 0.061828 -0.009168 -765.430000 0 1 0
-17.017827 10.533314 -13.086915 23.912852 -0.554242 2.149902 0.079662 -0.016673 621964.000000 0 1 0
-15.932427 10.096714 -14.156815 23.583920 -0.564846 2.214640 0.066014 -0.007365 516011.000000 0 1 0
-16.068727 8.760114 -14.623315 23.426159 -0.499124 2.244942 0.076240 -0.027027 124703.000000 0 1 0
-15.712727 7.714714 -13.714115 22.236986 -0.456410 2.235372 0.056587 -0.021947 -213036.000000 0 1 0
-15.656227 6.296914 -14.406915 22.188460 -0.382400 2.277457 0.064067 -0.029041 175573.000000 0 1 0
-14.474027 6.194014 -15.188315 21.875744 -0.404358 2.338242 0.061814 -0.033251 723744.000000 0 1 0
-14.620527 5.157114 -16.137715 22.378147 -0.339106 2.376239 0.068211 -0.029418 -70400.500000 0 1 0
32.644755 -15.770686 28.563416 46.154775 -0.450037 0.903504 0.057865 -0.020893 138791.000000 0 0 1
31.635795 -14.768086 28.793466 45.254652 -0.436750 0.881163 0.062804 -0.017991 626447.000000 0 0 1
30.605505 -15.199186 29.690666 45.268619 -0.460937 0.855452 0.069487 -0.018179 533369.000000 0 0 1
30.920035 -15.212586 31.254796 46.522399 -0.457225 0.834130 0.068171 -0.024117 -92954.500000 0 0 1
31.408735 -13.977586 31.673926 46.745258 -0.418707 0.826321 0.064438 -0.025208 40122.900000 0 0 1
31.846645 -13.892786 32.996182 47.916243 -0.411353 0.811209 0.054672 -0.026618 -152895.000000 0 0 1
32.323155 -12.454086 33.405619 48.123030 -0.367769 0.803529 0.059741 -0.025951 -59942.900000 0 0 1
32.278835 -12.197286 -33.433695 48.046945 -0.361287 2.340406 0.039483 -0.034248 166880.000000 0 0 1
32.149115 -10.805686 -33.182825 47.449219 -0.324249 2.345261 0.058101 -0.028343 -181180.000000 0 0 1
31.835905 -10.482986 -31.673495 46.115379 -0.318100 2.327917 0.056087 -0.019834 -364415.000000 0 0 1
30.506545 -10.722886 -31.324685 45.020723 -0.338006 2.340307 0.085470 -0.028981 -370082.000000 0 0 1
30.171705 -10.142786 -30.073285 43.790528 -0.324300 2.327809 0.063330 -0.022102 725228.000000 0 0 1
28.763985 -10.671886 -29.592915 42.626243 -0.355273 2.338162 0.078642 -0.018269 872554.000000 0 0 1
28.323005 -10.133486 -28.327395 41.319747 -0.343591 2.326177 0.065646 -0.013286 -65623.900000 0 0 1
27.498185 -11.040886 -27.674605 40.545470 -0.381810 2.322052 0.086027 -0.012732 -1208990.000000 0 0 1
26.899385 -10.455486 -26.364245 39.089225 -0.370717 2.311034 0.072321 -0.006180 -404377.000000 0 0 1
25.994485 -9.368586 -26.525945 38.302865 -0.345916 2.335789 0.065147 -0.013603 937242.000000 0 0 1
24.849485 -9.456586 -27.382415 38.167009 -0.363632 2.370912 0.056979 -0.019230 126448.000000 0 0 1
23.786685 -10.502886 -27.043325 37.516109 -0.415800 2.375818 0.064541 -0.005629 -780798.000000 0 0 1
24.238085 -11.739186 -27.623465 38.579128 -0.451032 2.368882 0.060766 -0.012627 349330.000000 0 0 1
23.296385 -12.772386 -27.474965 38.219486 -0.501503 2.372976 0.056980 -0.020091 213258.000000 0 0 1
23.923485 -14.073486 -28.069575 39.475273 -0.531750 2.361811 0.072559 -0.005435 283602.000000 0 0 1
24.274585 -14.020486 -29.457645 40.664264 -0.523770 2.380976 0.067415 -0.014359 206186.000000 0 0 1
25.153885 -15.042686 -29.827995 41.817576 -0.538967 2.364975 0.069683 -0.011499 -413495.000000 0 0 1
25.319385 -15.047186 -31.354345 43.018415 -0.536214 2.387450 0.071368 -0.019111 -184128.000000 0 0 1
24.087685 -15.397386 -31.967555 42.886136 -0.568761 2.411939 0.070392 -0.016448 334915.000000 0 0 1
24.201985 -15.721486 -33.334455 44.091803 -0.576090 2.428013 0.060358 -0.011105 -169184.000000 0 0 1
24.406685 -14.611886 33.821366 44.193645 -0.539451 0.699290 0.047766 -0.020935 -404163.000000 0 0 1
23.268885 -13.828586 33.888115 43.371363 -0.536214 0.673974 0.053517 -0.016717 -444728.000000 0 0 1
23.265285 -13.011486 32.762997 42.237261 -0.509929 0.682990 0.040104 -0.016592 -49843.500000 0 0 1
22.215485 -11.826686 32.830803 41.367377 -0.489201 0.654028 0.047992 -0.020479 2140740.000000 0 0 1
20.792585 -12.092686 32.636262 40.542450 -0.526770 0.635138 0.048411 -0.022371 1835140.000000 0 0 1
20.572785 -12.430386 31.267636 39.438801 -0.543513 0.655384 0.041556 -0.014376 -1077930.000000 0 0 1
19.128985 -12.723386 30.824536 38.444175 -0.586942 0.640495 0.047216 -0.009815 241497.000000 0 0 1
18.216785 -11.643086 30.965096 37.765723 -0.568703 0.609515 0.050405 -0.017538 678128.000000 0 0 1
17.356185 -11.708686 32.119186 38.340221 -0.593483 0.577663 0.037167 -0.013915 -136826.000000 0 0 1
16.570085 -10.508886 32.507710 37.970457 -0.565194 0.543060 0.038648 -0.012422 -923959.000000 0 0 1
15.597785 -10.098386 31.558036 36.622096 -0.574562 0.532144 0.048146 -0.016973 483350.000000 0 0 1
14.857185 -8.896986 31.897636 36.295337 -0.539562 0.497380 0.049119 -0.014454 366584.000000 0 0 1
13.767185 -9.041686 32.962726 36.848728 -0.581110 0.463391 0.054336 -0.014546 -1814650.000000 0 0 1
12.810185 -9.939886 32.615277 36.423323 -0.659895 0.461355 0.059573 -0.013590 -626020.000000 0 0 1
11.681185 -9.950486 33.474612 36.824067 -0.705561 0.429818 0.066403 -0.015070 39079.300000 0 0 1
10.487885 -9.201286 32.888337 35.725370 -0.720145 0.401214 0.081807 -0.016375 -1129540.000000 0 0 1
10.765685 -7.825586 32.865042 35.457732 -0.628553 0.384784 0.076136 -0.016253 440494.000000 0 0 1
9.712285 -6.952086 32.431362 34.560862 -0.621254 0.352872 0.083805 -0.006901 177818.000000 0 0 1
10.156385 -5.473386 32.289551 34.288849 -0.494290 0.343171 0.072373 -0.008954 -41073.800000 0 0 1
10.502485 -4.928686 33.505147 35.456861 -0.438777 0.333339 0.078946 -0.018059 196341.000000 0 0 1
10.893685 -3.581286 33.385026 35.299546 -0.317619 0.330859 0.039288 -0.013845 -173625.000000 0 0 1
10.875285 -2.870586 -33.445145 35.285830 -0.258069 2.817170 0.044168 -0.020875 -418136.000000 0 0 1
9.543485 -2.545886 -33.176645 34.615740 -0.260696 2.852232 0.052226 -0.008340 -323143.000000 0 0 1
9.467785 -1.640386 -32.155625 33.560603 -0.171557 2.851216 0.062088 -0.010642 -73004.000000 0 0 1
8.030085 -1.270986 -31.742395 32.767016 -0.156976 2.890857 0.057901 -0.004103 -230336.000000 0 0 1
7.334885 -0.400386 -32.603385 33.420676 -0.054532 2.919985 0.056335 -0.009162 -285767.000000 0 0 1
6.059085 -0.125586 -32.110445 32.677346 -0.020724 2.955051 0.068035 -0.010498 -231048.000000 0 0 1
5.235885 0.902814 -32.958105 33.383623 0.170749 2.981759 0.092666 -0.012933 376037.000000 0 0 1
5.943685 2.126214 -33.142195 33.738009 0.343542 2.953379 0.070589 -0.020720 635839.000000 0 0 1
5.183985 2.897314 -34.071022 34.584717 0.509648 2.969023 0.096916 -0.020769 547560.000000 0 0 1
6.093585 4.106814 33.755209 34.545793 0.593033 0.214350 0.069425 -0.020177 68962.600000 0 0 1
5.495985 4.997014 32.845094 33.674563 0.737881 0.222413 0.094981 -0.032987 -362763.000000 0 0 1
6.326685 6.080614 32.533601 33.696231 0.765568 0.263452 0.081588 -0.033778 -363662.000000 0 0 1
5.720385 7.227714 31.673376 32.987352 0.901290 0.283196 0.099535 -0.032433 -943180.000000 0 0 1
4.630485 7.852814 32.230160 33.494645 1.038015 0.275651 0.098897 -0.038992 -662875.000000 0 0 1
4.295185 9.076914 31.572516 33.130993 1.128819 0.307939 0.095052 -0.037475 20186.100000 0 0 1
3.760485 9.180214 30.148916 31.739166 1.182016 0.317892 0.102653 -0.041222 141626.000000 0 0 1
2.540585 8.517414 29.837106 31.132841 1.280917 0.289522 0.111655 -0.042679 122624.000000 0 0 1
2.386285 8.612114 28.438026 29.809129 1.300493 0.304477 0.097096 -0.031049 390923.000000 0 0 1
1.059385 8.042614 27.855246 29.012422 1.439829 0.283385 0.086579 -0.028524 874426.000000 0 0 1
-0.137015 8.698814 28.307876 29.614590 -1.555047 0.298169 0.086162 -0.026070 66031.800000 0 0 1
-1.225515 8.019514 27.722186 28.884841 -1.419153 0.284691 0.079193 -0.022368 1325090.000000 0 0 1
-2.622015 8.261214 28.453676 29.744483 -1.263464 0.295683 0.070733 -0.020488 1278830.000000 0 0 1
-2.912315 9.662114 28.460926 30.197058 -1.278041 0.340743 0.067573 -0.020291 -134710.000000 0 0 1
-4.272715 9.819814 28.812236 30.738083 -1.160392 0.355862 0.057795 -0.004196 -122005.000000 0 0 1
-4.433415 11.028414 29.760316 32.046177 -1.188568 0.379986 0.056154 0.000173 -158501.000000 0 0 1
-4.621115 12.258914 29.129826 31.940294 -1.210309 0.422641 0.042190 -0.010933 943561.000000 0 0 1
-5.895215 12.494914 28.491106 31.664168 -1.129955 0.451508 0.043777 -0.011980 650111.000000 0 0 1
-6.047015 13.953914 28.048376 31.905947 -1.161869 0.496835 0.026977 -0.011010 301436.000000 0 0 1
-5.179215 14.346014 26.987646 30.999442 -1.224337 0.514407 0.023755 0.002179 273750.000000 0 0 1
-5.523815 15.687614 26.615526 31.384709 -1.232240 0.558518 0.015743 0.003664 88687.300000 0 0 1
-4.385815 16.296514 25.787686 30.819093 -1.307899 0.579487 0.037526 -0.001964 -35109.700000 0 0 1
-4.064315 15.754014 24.537266 29.441213 -1.318316 0.585506 0.011346 0.006808 -446395.000000 0 0 1
-3.235115 16.646114 23.872066 29.281984 -1.378843 0.617640 0.024007 0.007634 -339149.000000 0 0 1
-3.002715 16.430214 22.347586 27.899513 -1.390035 0.641828 0.019840 0.006646 26242.100000 0 0 1
-2.048715 15.430814 21.992086 26.943628 -1.438801 0.615948 0.004405 0.005201 277646.000000 0 0 1
-2.065215 15.334414 20.546986 25.721353 -1.436923 0.645449 -0.000847 0.002097 183675.000000 0 0 1
-1.145615 14.177214 20.071486 24.600211 -1.490165 0.616500 0.003726 -0.006045 54289.900000 0 1 0
-1.741415 12.879114 20.201586 24.020994 -1.436399 0.571673 0.008639 -0.005531 96456.200000 0 1 0
-0.977415 12.030114 19.384386 22.834916 -1.489727 0.556910 0.011610 -0.008149 -94753.600000 0 1 0
-1.662015 10.648814 19.123686 21.951649 -1.415970 0.513210 -0.002049 -0.016249 -356799.000000 0 1 0
-1.785315 9.657314 20.141086 22.407909 -1.387994 0.453685 0.006220 -0.027574 282414.000000 0 1 0
-2.581215 9.948014 21.291786 23.642457 -1.316924 0.449708 0.026423 -0.020278 724536.000000 0 1 0
-4.140615 10.026514 21.136686 23.757844 -1.179162 0.474170 0.024144 -0.012296 404941.000000 0 1 0
-4.740315 8.734114 20.928286 23.167833 -1.073547 0.443317 0.032188 -0.020087 39013.400000 0 1 0
-6.126615 9.031814 21.044786 23.706372 -0.974758 0.478412 0.039735 -0.009672 -236169.000000 0 1 0
-7.009615 7.827614 20.901886 23.394338 -0.840474 0.465808 0.040248 -0.015247 -420044.000000 0 1 0
-6.878215 7.101714 22.114586 24.223936 -0.801384 0.420407 0.050964 -0.023457 121764.000000 0 1 0
-7.525815 5.858514 21.969786 23.950606 -0.661465 0.409561 0.047225 -0.018919 -38856.400000 0 1 0
-7.606515 5.144114 23.330996 25.073020 -0.594627 0.374961 0.042170 -0.015845 334846.000000 0 0 1
-8.594515 5.649514 24.244506 26.335883 -0.581518 0.401212 0.038350 -0.010632 341383.000000 0 0 1
-8.684415 4.988314 25.468796 27.367168 -0.521382 0.374657 0.041395 0.006916 94144.200000 0 0 1
-9.719715 5.429114 26.570476 28.808650 -0.509397 0.396783 0.030631 0.003654 66819.400000 0 0 1
-9.331315 6.490314 27.377716 29.643497 -0.607727 0.393518 0.030621 0.000850 -238784.000000 0 0 1
-10.290215 6.826814 28.374216 30.944951 -0.585757 0.410490 0.031238 0.000332 301410.000000 0 0 1
-9.834015 8.106414 29.183766 31.845156 -0.689398 0.411737 0.038950 -0.001335 473139.000000 0 0 1
-8.729615 7.953714 30.066016 32.302214 -0.738924 0.374276 0.045362 -0.002116 238515.000000 0 0 1
-8.415915 9.169014 30.658756 33.088634 -0.828198 0.385622 0.041540 -0.011050 6891.430000 0 0 1
-7.527915 8.959614 31.910416 33.988510 -0.872016 0.351495 0.053042 -0.011646 213045.000000 0 0 1
-6.232615 8.508114 31.571096 33.286147 -0.938557 0.322407 0.052383 -0.010867 -504355.000000 0 0 1
-5.565415 7.907214 32.633841 34.036237 -0.957498 0.288059 0.086986 -0.015777 -182711.000000 0 0 1
-4.091615 7.572914 32.358726 33.483988 -1.075434 0.259984 0.072466 -0.012660 -331428.000000 0 0 1
-3.354115 8.716914 32.241107 33.566704 -1.203477 0.281972 0.064966 -0.015642 -270499.000000 0 0 1
-1.962715 8.476514 31.998786 33.160606 -1.343259 0.265491 0.078885 -0.020958 891344.000000 0 0 1
-1.220915 9.801114 31.651466 33.156715 -1.446866 0.302476 0.076867 -0.022944 27084.200000 0 0 1
-1.347115 10.768214 32.636067 34.393051 -1.446342 0.321019 0.076585 -0.030215 -111270.000000 0 0 1
-1.415915 12.076114 32.147166 34.369719 -1.454080 0.361594 0.075852 -0.023739 -66387.500000 0 0 1
-1.429915 13.206414 33.265245 35.819416 -1.462942 0.379923 0.068242 -0.029838 -695942.000000 0 0 1
-0.159015 13.603014 33.613908 36.262406 -1.559107 0.384562 0.078070 -0.029733 -1278370.000000 0 0 1
-0.162515 14.760714 -33.724785 36.813940 -1.559787 2.729008 0.075257 -0.031928 -274942.000000 0 0 1
1.181585 15.172414 -33.129305 36.457498 1.493076 2.710980 0.073601 -0.030883 -649550.000000 0 0 1
2.050885 15.845714 -33.976405 37.545824 1.442083 2.702015 0.061523 -0.025229 -143279.000000 0 0 1
3.172085 16.330514 -33.257375 37.186030 1.378943 2.677775 0.045255 -0.027371 -25861.900000 0 0 1
3.972785 17.352314 -34.082841 38.451604 1.345727 2.660269 0.055164 -0.023835 -700223.000000 0 0 1
3.377985 18.617014 34.051181 38.954934 1.391303 0.507181 0.051883 -0.019405 -91992.600000 0 0 1
4.059385 19.540614 33.224801 38.758246 1.365969 0.540927 0.042381 -0.009912 -262852.000000 0 0 1
3.500485 20.934814 33.389846 39.565157 1.405120 0.566247 0.049245 -0.018038 -238737.000000 0 0 1
3.616585 21.482214 -33.507365 39.966345 1.404008 2.565118 0.049806 -0.030997 161362.000000 0 0 1
3.358685 22.863014 -33.571865 40.756206 1.424935 2.538744 0.055978 -0.028054 -32195.400000 0 0 1
3.633485 23.539414 -32.184325 40.039193 1.417648 2.504486 0.066783 -0.029832 -41669.500000 0 0 1
3.257385 24.894614 -32.099575 40.752118 1.440688 2.477828 0.070641 -0.033040 258863.000000 0 0 1
3.092485 25.237914 -30.712455 39.871928 1.448871 2.450073 0.085898 -0.038732 -261949.000000 0 0 1
2.748685 26.753014 -30.512865 40.673259 1.468413 2.419153 0.083211 -0.034684 234759.000000 0 0 1
3.844085 27.646314 -30.684765 41.480724 1.432637 2.403474 0.096605 -0.040723 422554.000000 0 0 1
3.457585 28.976714 -30.303105 42.069978 1.452035 2.375034 0.093069 -0.037677 80004.100000 0 0 1
4.708085 29.892414 -30.139395 42.709549 1.414579 2.354183 0.125874 -0.048844 266250.000000 0 0 1
5.402285 29.579314 -28.972025 41.755224 1.390150 2.337623 0.109114 -0.054624 -509551.000000 0 0 1
6.093085 30.700914 -28.537975 42.356674 1.374876 2.310073 0.125829 -0.058600 -683483.000000 0 0 1
7.225185 30.505714 -27.490115 41.695423 1.338235 2.290694 0.123352 -0.055809 -157605.000000 0 0 1
8.245185 29.765514 -28.159595 41.796312 1.300567 2.310046 0.115703 -0.045614 1583600.000000 0 0 1
9.532785 30.492714 -28.295485 42.676856 1.267798 2.295638 0.116172 -0.043604 1712510.000000 0 0 1
9.628585 31.829614 -29.083085 44.177594 1.277044 2.289384 0.135026 -0.050435 -928808.000000 0 0 1
8.918985 32.858414 -28.411085 44.344260 1.305746 2.266198 0.143433 -0.053628 70438.800000 0 0 1
8.785385 34.063814 -29.110365 45.661141 1.318387 2.262085 0.124268 -0.056133 458123.000000 0 0 1
7.488285 -34.024779 -29.999325 45.975205 -1.354167 2.281690 0.102975 -0.034543 735376.000000 0 0 1
7.594985 33.289614 -31.131145 46.206389 1.346487 2.310056 0.089111 -0.026060 278039.000000 0 0 1
6.306885 33.127114 -31.711995 46.290745 1.382663 2.325484 0.084397 -0.027621 354538.000000 0 0 1
6.222785 32.295414 -33.010775 46.598585 1.380446 2.358035 0.091894 -0.045542 21175.100000 0 0 1
6.134185 33.061114 33.990139 47.812080 1.387342 0.780003 0.091043 -0.039521 56121.500000 0 0 1
6.135285 32.227814 32.876640 46.445098 1.382675 0.784332 0.100455 -0.044551 -347012.000000 0 0 1
5.696185 32.979614 31.639236 46.055865 1.399765 0.813478 0.089553 -0.041999 176715.000000 0 0 1
6.589585 33.990314 31.133776 46.562604 1.379305 0.838414 0.100012 -0.041225 51305.800000 0 0 1
6.096885 -33.578279 30.029126 45.457906 -1.391181 0.849189 0.068473 -0.042323 -313454.000000 0 0 1
17.904273 -22.602086 28.725886 40.701275 -0.900859 0.787282 0.107496 -0.010321 -610893.000000 0 0 1
17.243773 -21.375786 28.891576 39.862201 -0.891985 0.760072 0.094659 -0.012940 630990.000000 0 0 1
15.827273 -21.455386 29.036786 39.420440 -0.935225 0.742779 0.095698 -0.007408 755284.000000 0 0 1
15.297473 -21.799186 30.452966 40.454917 -0.958900 0.718547 0.092774 -0.012532 -252232.000000 0 0 1
15.939273 -22.976186 30.986196 41.738590 -0.964291 0.734170 0.106547 -0.018757 214608.000000 0 0 1
15.445073 -23.251686 32.270092 42.667904 -0.984464 0.713145 0.098550 -0.013414 296725.000000 0 0 1
16.341873 -24.233686 33.130301 44.180824 -0.977497 0.722916 0.102713 -0.018355 243907.000000 0 0 1
16.067873 -25.661316 32.932116 44.734818 -1.011369 0.743413 0.117207 -0.026077 73137.600000 0 0 1
16.764573 -26.499776 33.871876 46.158347 -1.006729 0.746870 0.109327 -0.026789 85562.600000 0 0 1
16.577673 -27.981106 33.876141 46.961201 -1.035940 0.765026 0.108930 -0.024922 -80626.800000 0 0 1
17.018273 -28.662286 32.709088 46.701527 -1.034984 0.794858 0.108549 -0.034132 -33357.300000 0 0 1
16.693273 -29.992356 32.576155 47.322433 -1.062912 0.811533 0.109234 -0.039305 -510241.000000 0 0 1
17.392673 -30.746516 31.429046 47.282536 -1.055995 0.843694 0.120025 -0.038179 608144.000000 0 0 1
18.735073 -31.086406 31.813326 48.264431 -1.028411 0.851113 0.104490 -0.046155 593948.000000 0 0 1
19.413873 -31.514736 30.646886 48.055267 -1.018677 0.879233 0.074779 -0.035321 652602.000000 0 0 1
20.748873 -32.348416 30.868416 49.292949 -1.000477 0.894096 0.056846 -0.032112 910049.000000 0 0 1
21.811773 -31.494206 31.259206 49.444680 -0.965078 0.886400 0.050509 -0.033906 -131290.000000 0 0 1
23.028573 -32.186886 31.143896 50.361226 -0.949767 0.904078 0.043447 -0.031564 -597536.000000 0 0 1
24.223673 -31.249396 31.292936 50.423793 -0.911378 0.901290 0.035942 -0.036441 -462662.000000 0 0 1
24.590273 -30.610736 30.078996 49.461547 -0.894033 0.917095 0.024433 -0.030744 -343277.000000 0 0 1
25.486073 -29.564506 30.228336 49.369547 -0.859348 0.911846 0.013902 -0.023596 481564.000000 0 0 1
26.825973 -29.716906 29.429076 49.686998 -0.836482 0.936899 0.016994 -0.020865 1476210.000000 0 0 1
27.777473 -30.750386 29.866186 51.079970 -0.836149 0.946293 0.018220 -0.013704 995620.000000 0 0 1
29.011573 -30.580926 29.185566 51.270475 -0.811727 0.965207 0.013508 -0.030975 639427.000000 0 0 1
30.173873 -31.509266 29.670766 52.760315 -0.807044 0.973548 0.028292 -0.031283 191842.000000 0 0 1
30.100673 -32.892556 29.331366 53.369465 -0.829690 0.988922 0.000413 -0.028386 -88444.600000 0 0 1
30.971673 -33.693186 30.130716 54.793570 -0.827460 0.988558 0.021506 -0.017311 -1161320.000000 0 0 1
30.318973 33.114618 30.466666 54.258970 0.829442 0.974593 0.010730 -0.014792 592537.000000 0 0 1
29.269373 33.138441 31.456886 54.262216 0.847315 0.952411 0.016910 -0.013095 173098.000000 0 0 1
28.185573 33.962154 31.232196 54.067591 0.878081 0.954948 -0.001097 -0.011499 -1493150.000000 0 0 1
27.158673 33.633520 30.086516 52.668829 0.891506 0.962781 0.019585 -0.015596 -340448.000000 0 0 1
26.725473 32.331462 30.291606 51.741238 0.880040 0.945369 0.020301 -0.016673 -277151.000000 0 0 1
25.342473 32.371530 30.604716 51.252370 0.906592 0.930868 0.033953 -0.021905 92817.900000 0 0 1
24.710373 30.955977 30.493556 49.987318 0.897128 0.914703 0.053469 -0.027133 -85813.200000 0 0 1
24.490873 30.525717 29.172046 48.812196 0.894653 0.930244 0.061960 -0.030694 -67960.600000 0 0 1
23.942673 29.257367 29.289586 47.823895 0.884968 0.911644 0.091972 -0.045221 -592393.000000 0 0 1
23.317773 28.781917 27.999026 46.433422 0.889895 0.923549 0.088319 -0.044917 -1052150.000000 0 0 1
22.034973 29.294357 27.885306 46.057460 0.925894 0.920470 0.107278 -0.040114 -826675.000000 0 0 1
21.421873 28.826987 26.700126 44.752525 0.931714 0.931517 0.110950 -0.036478 401319.000000 0 0 1
20.079173 29.579237 26.430546 44.459849 0.974422 0.934176 0.098617 -0.032007 274183.000000 0 0 1
20.188973 30.887057 25.988976 45.133488 0.991867 0.957184 0.118424 -0.034382 62519.500000 0 0 1
18.945273 31.547487 25.793456 44.938509 1.029986 0.959448 0.113278 -0.034563 -2445.150000 0 0 1
19.179673 32.945098 25.207446 45.701801 1.043590 0.986559 0.125970 -0.032514 138297.000000 0 0 1
19.666573 32.987333 23.832716 45.198855 1.033186 1.015393 0.117023 -0.034542 795325.000000 0 0 1
21.063473 33.316733 23.845726 46.068353 1.007023 1.026734 0.115219 -0.035298 659465.000000 0 0 1
21.650373 33.407284 22.420586 45.688816 0.995777 1.057876 0.114231 -0.037798 120626.000000 0 0 1
21.175473 -33.607646 21.782386 45.302835 -1.008553 1.069210 0.106476 -0.031757 215680.000000 0 0 1
21.783373 -33.463466 20.546486 44.905200 -0.993747 1.095556 0.108524 -0.034440 -178115.000000 0 0 1
21.515873 -32.237336 19.699186 43.476851 -0.982272 1.100561 0.087124 -0.033135 -242358.000000 0 0 1
22.033173 -31.065986 20.305986 43.161201 -0.953897 1.080975 0.076493 -0.024384 -57533.100000 0 0 1
21.760173 -29.809726 19.711286 41.840885 -0.940239 1.080258 0.068142 -0.030299 -760258.000000 0 0 1
22.561173 -29.349446 18.487986 41.378764 -0.915429 1.107612 0.052079 -0.028927 -992013.000000 0 0 1
22.297573 -30.032596 17.308086 41.215390 -0.932147 1.137415 0.038052 -0.039874 124717.000000 0 0 1
22.679573 -29.268246 16.190786 40.412062 -0.911557 1.158578 0.035453 -0.033500 -403291.000000 0 0 1
22.299573 -29.796026 14.842186 40.067001 -0.928315 1.191320 0.035967 -0.032985 -468244.000000 0 0 1
22.985173 -30.980416 14.483786 41.205393 -0.932483 1.211621 0.063242 -0.029137 34233.000000 0 0 1
23.054973 -31.282376 13.111586 41.012590 -0.935670 1.245387 0.065033 -0.026446 2687.450000 0 0 1
21.761673 -31.544076 12.260386 40.235758 -0.966894 1.261159 0.063951 -0.026019 4461.180000 0 0 1
20.966273 -32.624206 12.657386 40.793784 -0.999598 1.255312 0.072424 -0.032109 201283.000000 0 0 1
19.698173 -32.494166 12.001386 39.848740 -1.025826 1.264873 0.078228 -0.023908 707451.000000 0 0 1
18.605373 -33.346096 12.727686 40.250665 -1.061872 1.249064 0.077933 -0.022626 -15747.800000 0 0 1
18.256173 -32.737786 13.971586 40.003196 -1.062100 1.214013 0.072397 -0.018019 215714.000000 0 0 1
18.962873 -33.252026 15.091686 41.146649 -1.052519 1.195253 0.060172 -0.026240 -541557.000000 0 0 1
18.744973 -32.269956 16.281786 40.716343 -1.044554 1.159407 0.059330 -0.026980 1374730.000000 0 0 1
17.373473 -32.045676 16.696686 40.094167 -1.074002 1.141274 0.065644 -0.031973 1789980.000000 0 0 1
16.446173 -33.069316 17.114886 40.705965 -1.109292 1.136853 0.066654 -0.024285 142006.000000 0 0 1
16.795573 -33.681896 18.549186 41.959906 -1.108227 1.112892 0.060807 -0.026861 855014.000000 0 0 1
17.992173 33.721248 18.562986 42.490296 1.080666 1.118674 0.047100 -0.015942 873992.000000 0 0 1
18.068073 32.996614 19.770686 42.498374 1.069818 1.086924 0.052953 -0.021226 -24602.800000 0 0 1
18.902673 31.735217 19.711886 41.868765 1.033591 1.080597 0.065688 -0.014312 86608.500000 0 0 1
18.188673 30.617067 19.209886 40.462974 1.034749 1.076114 0.040466 -0.015885 3160.110000 0 0 1
19.127573 29.580367 19.033686 40.039272 0.996793 1.075406 0.037760 -0.021936 87747.500000 0 0 1
18.557773 28.180637 18.688086 38.571800 0.988449 1.065003 0.038134 -0.019388 -78734.600000 0 0 1
17.880773 27.483757 19.715986 38.259626 0.994003 1.029414 0.048639 -0.027167 -16019.000000 0 0 1
17.603173 26.148807 19.379886 37.002861 0.978290 1.019561 0.051812 -0.029797 -382985.000000 0 0 1
17.386273 25.261737 20.603686 36.945225 0.968003 0.979206 0.061170 -0.029851 84867.300000 0 0 1
16.212373 25.357017 21.396786 36.927520 1.001934 0.952771 0.060448 -0.032569 534569.000000 0 0 1
15.205873 24.389527 21.079386 35.642784 1.013306 0.937994 0.069831 -0.029018 721072.000000 0 0 1
13.802873 24.665837 21.696286 35.632171 1.060617 0.916128 0.096964 -0.044576 361941.000000 0 0 1
13.149673 25.794347 21.137486 35.847671 1.099348 0.940174 0.098709 -0.039509 468712.000000 0 0 1
11.955373 26.124577 21.858086 36.099866 1.141616 0.920416 0.100678 -0.041301 446018.000000 0 0 1
11.051473 27.183327 21.215386 36.209956 1.184653 0.944807 0.093325 -0.042038 -237468.000000 0 0 1
11.570073 28.463087 21.414986 37.451509 1.184704 0.962091 0.084328 -0.041696 -47852.000000 0 0 1
11.042073 29.333287 20.416986 37.406181 1.210768 0.993431 0.083146 -0.041819 311281.000000 0 0 1
11.483973 30.821457 20.593686 38.806491 1.214134 1.011398 0.081673 -0.043001 286311.000000 0 0 1
10.782973 31.520327 21.656486 39.734203 1.241180 0.994367 0.075355 -0.041288 -491645.000000 0 0 1
11.299273 31.367557 22.977486 40.491506 1.225045 0.967373 0.077071 -0.039992 -83257.900000 0 0 1
10.603273 32.193116 24.054326 41.562443 1.252622 0.953599 0.072879 -0.033390 -446964.000000 0 0 1
9.247973 31.940137 24.240466 41.149696 1.288963 0.940876 0.062509 -0.043241 -682575.000000 0 0 1
8.839273 32.537868 25.458806 42.249217 1.305537 0.924058 0.059855 -0.030207 -1010260.000000 0 0 1
7.530273 32.145557 26.142856 42.112833 1.340690 0.901058 0.101893 -0.042750 47941.400000 0 0 1
6.294773 32.811255 25.746516 42.179209 1.381251 0.914221 0.089872 -0.041006 1177060.000000 0 0 1
5.824273 32.360900 24.475766 40.990402 1.392724 0.930903 0.082621 -0.043667 -735493.000000 0 0 1
5.013973 31.062697 24.547386 39.907458 1.410762 0.908274 0.070149 -0.039655 -997391.000000 0 0 1
5.729273 29.964357 24.966436 39.420935 1.381874 0.884949 0.059812 -0.033873 -447242.000000 0 0 1
5.035573 28.706467 24.678486 38.189604 1.397147 0.868189 0.042553 -0.028092 -347997.000000 0 0 1
5.998673 27.477027 24.763516 37.472694 1.355853 0.848857 0.049266 -0.036882 33890.200000 0 0 1
7.044573 27.360377 23.804046 36.943860 1.318796 0.870649 0.058350 -0.041740 330340.000000 0 0 1
8.041773 28.350427 23.775396 37.864049 1.294400 0.891925 0.077971 -0.042542 -589471.000000 0 0 1
9.165473 28.100077 24.824066 38.598632 1.255504 0.872213 0.071902 -0.045468 -930138.000000 0 0 1
8.780773 28.313057 26.206586 39.566606 1.270071 0.846857 0.067201 -0.036392 -313668.000000 0 0 1
9.759373 28.086727 27.180736 40.285257 1.236375 0.830229 0.094587 -0.025757 -124485.000000 0 0 1
10.932273 29.099637 27.225556 41.322322 1.211426 0.851496 0.080067 -0.025039 25768.700000 0 0 1
10.564573 30.381517 27.654526 42.419565 1.236145 0.860671 0.083906 -0.033890 604326.000000 0 0 1
11.744273 31.192987 27.675986 43.323095 1.210708 0.877823 0.073186 -0.024616 560541.000000 0 0 1
11.507073 32.340778 28.645706 44.709228 1.228958 0.875372 0.071067 -0.029505 2049.580000 0 0 1
11.384873 32.083777 30.006366 45.380238 1.229809 0.848351 0.078777 -0.046864 1022920.000000 0 0 1
9.995473 31.977477 30.375736 45.223377 1.267840 0.834319 0.095662 -0.042081 895309.000000 0 0 1
9.863173 31.784177 31.926366 46.117338 1.269901 0.806145 0.122967 -0.040634 -47236.900000 0 0 1
10.262573 30.548237 32.487206 45.759520 1.246696 0.781362 0.094961 -0.039342 191797.000000 0 0 1
10.615173 30.691867 33.878422 46.929948 1.237812 0.764262 0.118245 -0.037855 -4583.890000 0 0 1
10.824573 29.333187 -33.611065 45.905456 1.217277 2.392314 0.095524 -0.031244 -511647.000000 0 0 1
11.955873 28.675887 -34.082034 46.117615 1.175780 2.402417 0.104541 -0.031677 -441703.000000 0 0 1
11.886273 27.301517 -33.696345 44.967766 1.160175 2.417868 0.107828 -0.030110 225675.000000 0 0 1
13.107773 26.382397 -34.039632 45.017120 1.109682 2.428204 0.096419 -0.029140 234840.000000 0 0 1
12.968573 25.013997 -33.721315 43.943270 1.092496 2.445546 0.075153 -0.032850 -276825.000000 0 0 1
13.269073 24.749917 -32.372915 42.855948 1.078667 2.427044 0.073617 -0.032367 -72481.300000 0 0 1
13.261673 23.203517 -32.109975 41.777095 1.051568 2.447450 0.061765 -0.046099 661631.000000 0 0 1
14.409873 22.562207 -32.710845 42.269339 1.002425 2.455721 0.053247 -0.030643 620241.000000 0 0 1
14.310673 21.136007 -32.725065 41.502482 0.975622 2.479177 0.051291 -0.033901 -758245.000000 0 0 1
15.530073 20.466907 -33.305735 42.063635 0.921694 2.484537 0.059032 -0.044163 -334292.000000 0 0 1
16.676473 20.716107 -32.523475 42.012358 0.893014 2.456153 0.068514 -0.041337 333555.000000 0 0 1
17.842073 19.984907 -32.909605 42.435577 0.841986 2.458333 0.076425 -0.034157 653058.000000 0 0 1
19.091573 20.163407 -32.009915 42.375533 0.812696 2.427040 0.065998 -0.033365 442448.000000 0 0 1
19.823873 21.408807 -32.208405 43.459226 0.823818 2.405530 0.066704 -0.037415 275116.000000 0 0 1
20.765573 21.802407 -31.225205 43.377038 0.809750 2.374391 0.053794 -0.024989 33300.500000 0 0 1
20.297073 22.035607 -29.788585 42.248064 0.826443 2.353343 0.058596 -0.026414 -5269.360000 0 0 1
19.529773 23.265277 -29.711205 42.490479 0.872466 2.345136 0.049099 -0.018541 319233.000000 0 0 1
19.269873 23.758087 -28.357685 41.712504 0.889332 2.318336 0.056586 -0.007544 -409006.000000 0 0 1
20.488373 24.330697 -27.616955 42.124250 0.870919 2.285783 0.042489 -0.005961 -221039.000000 0 0 1
21.171273 25.382357 -28.258345 43.485870 0.875609 2.278155 0.052518 -0.004686 -344614.000000 0 0 1
20.465873 26.586167 -28.520165 44.034941 0.914747 2.275320 0.046277 0.000310 -609345.000000 0 0 1
21.336373 27.571807 -29.369965 45.585526 0.912207 2.270881 0.045471 0.000131 -336457.000000 0 0 1
21.509873 27.263217 -30.784135 46.407118 0.902817 2.296082 0.049557 0.001611 15588.900000 0 0 1
22.118073 26.033747 -31.150775 46.231330 0.866539 2.310139 0.057020 -0.005307 -253410.000000 0 0 1
23.467873 25.732477 -30.479545 46.280710 0.831394 2.289726 0.079364 -0.021470 -172014.000000 0 0 1
24.497573 26.712877 -30.806005 47.568044 0.828630 2.275253 0.064614 -0.020040 792119.000000 0 0 1
25.779573 26.244697 -30.404625 47.726426 0.794338 2.261475 0.081221 -0.027600 370348.000000 0 0 1
26.971973 27.132397 -30.826665 49.131838 0.788363 2.249041 0.046646 -0.013523 -291994.000000 0 0 1
27.090673 28.334027 -30.059475 49.399329 0.807828 2.224965 0.029584 -0.005710 -494379.000000 0 0 1
28.134073 29.123387 -30.530445 50.712975 0.802675 2.216830 0.032199 -0.008228 -193470.000000 0 0 1
28.262973 30.497387 -29.749015 51.126218 0.823406 2.191827 0.030318 0.003784 -145683.000000 0 0 1
28.773173 30.333947 -28.440755 50.566000 0.811798 2.168140 0.051605 -0.003624 -657447.000000 0 0 1
27.936573 30.740887 -27.430365 49.778300 0.833154 2.154419 0.031547 0.001513 -822246.000000 0 0 1
28.559973 30.887367 -26.000425 49.454257 0.824529 2.124389 0.060157 0.003608 -158647.000000 0 0 1
28.998473 29.689507 -25.409475 48.662302 0.797172 2.120177 0.057591 0.010621 471131.000000 0 0 1
27.973773 28.739037 -25.043145 47.282379 0.798891 2.128985 0.066826 0.006163 508414.000000 0 0 1
27.214573 28.898297 -23.676015 46.220106 0.815395 2.108593 0.071024 0.005070 231383.000000 0 0 1
26.449773 30.081457 -23.546515 46.464211 0.849552 2.102226 0.073147 0.009756 23659.000000 0 0 1
25.953273 30.248957 -22.237715 45.640856 0.861682 2.079714 0.072790 0.012610 228543.000000 0 0 1
3.385573 -26.353246 -19.409715 32.904296 -1.443027 2.201711 0.083207 -0.018288 -70547.800000 0 0 1
3.209573 -27.579656 -18.701715 33.476752 -1.454943 2.163551 0.081361 -0.020395 193730.000000 0 0 1
3.099573 -27.286396 -17.342215 32.479335 -1.457687 2.134057 0.080490 -0.021749 -192378.000000 0 0 1
2.962473 -28.428506 -16.391115 32.948822 -1.466963 2.091478 0.058270 -0.015672 -106392.000000 0 0 1
4.127973 -29.193936 -16.180915 33.632545 -1.430329 2.072715 0.053670 -0.019757 -173213.000000 0 0 1
4.050973 -29.919006 -14.995115 33.710692 -1.436217 2.031767 0.045642 -0.023181 -339790.000000 0 0 1
5.413473 -30.492686 -14.591115 34.234635 -1.395094 2.011094 0.083204 -0.026415 -171247.000000 0 0 1
6.233773 -29.402366 -14.185815 33.235469 -1.361874 2.011778 0.051338 -0.017584 428094.000000 0 0 1
7.622173 -29.663416 -13.916115 33.640363 -1.319282 1.997281 0.062521 -0.016385 1056070.000000 0 0 1
8.058173 -30.513016 -12.715615 34.024479 -1.312601 1.953812 0.056032 -0.022012 -795645.000000 0 0 1
8.116173 -29.767986 -11.477315 32.920116 -1.304618 1.926917 0.046084 -0.026815 -163117.000000 0 0 1
7.925573 -30.558776 -10.302415 33.208331 -1.317032 1.886237 0.043284 -0.022496 -385086.000000 0 0 1
9.018573 -31.601666 -10.005315 34.352675 -1.292803 1.866333 0.068135 -0.025833 459269.000000 0 0 1
10.297173 -30.989456 -9.788615 34.090983 -1.249994 1.862028 0.053218 -0.023806 192698.000000 0 0 1
11.175273 -32.039166 -9.411115 35.213122 -1.235191 1.841346 0.057052 -0.023134 533200.000000 0 0 1
12.511273 -31.550456 -8.744515 35.048962 -1.193269 1.822954 0.052834 -0.023340 986374.000000 0 0 1
13.452073 -30.755426 -9.485815 34.883165 -1.158479 1.846195 0.072441 -0.031374 114247.000000 0 0 1
14.548173 -30.492356 -8.668815 34.879528 -1.125629 1.821965 0.059364 -0.023749 -584344.000000 0 0 1
15.796673 -29.965226 -9.378715 35.148399 -1.085652 1.840901 0.072587 -0.033317 -213883.000000 0 0 1
15.946173 -28.564416 -9.606915 34.095441 -1.061639 1.856430 0.080068 -0.026688 79206.700000 0 0 1
15.189873 -28.123026 -10.715615 33.711441 -1.075568 1.894271 0.065629 -0.024833 -112872.000000 0 0 1
15.103773 -26.614376 -10.891515 32.481904 -1.054614 1.912731 0.068604 -0.019037 -763082.000000 0 0 1
14.249673 -25.975166 -9.963915 31.257672 -1.069038 1.895225 0.059242 -0.023235 125437.000000 0 0 1
13.993773 -24.587386 -10.325315 30.116065 -1.053374 1.920746 0.030676 -0.005672 238515.000000 0 0 1
13.228873 -24.368986 -11.669515 30.083686 -1.073454 1.969150 0.023983 -0.009449 -194153.000000 0 0 1
14.115873 -24.027786 -12.705915 30.627319 -1.039633 1.998580 0.028405 -0.008630 255864.000000 0 0 1
13.396973 -23.959486 -13.953415 30.793403 -1.060954 2.041070 0.030499 -0.011759 324584.000000 0 0 1
14.299273 -23.357386 -15.042315 31.245927 -1.021458 2.073067 0.049008 -0.014004 -12639.400000 0 0 1
15.370573 -24.167686 -15.440415 32.538254 -1.004328 2.065228 0.048500 -0.021300 -125502.000000 0 0 1
15.867073 -23.677786 -16.659515 33.014254 -0.980403 2.099733 0.054038 -0.027140 -655006.000000 0 0 1
16.958473 -24.554786 -17.323715 34.505629 -0.966381 2.096769 0.053225 -0.034907 1034040.000000 0 0 1
18.255073 -24.603386 -16.701615 34.892954 -0.932452 2.069916 0.064824 -0.033532 255781.000000 0 0 1
19.075673 -23.522186 -16.942515 34.701921 -0.889405 2.080857 0.067689 -0.029242 -838798.000000 0 0 1
20.497273 -23.729886 -16.369815 35.372539 -0.858360 2.051929 0.058348 -0.026063 140345.000000 0 0 1
21.150173 -24.774686 -17.089215 36.785271 -0.864158 2.053942 0.081953 -0.028557 152848.000000 0 0 1
22.544573 -24.736786 -16.812915 37.454512 -0.831730 2.036318 0.111865 -0.013334 77912.000000 0 0 1
23.400073 -25.724796 -17.565315 38.959836 -0.832686 2.038522 0.108126 -0.016591 -660562.000000 0 0 1
23.491173 -25.470376 -18.925615 39.481061 -0.825800 2.070721 0.117773 -0.020212 46668.000000 0 0 1
24.060973 -26.542226 -19.661515 40.865577 -0.834392 2.072736 0.100148 -0.028521 -291721.000000 0 0 1
25.496573 -26.321466 -20.160615 41.825174 -0.801316 2.073756 0.081421 -0.026858 -159072.000000 0 0 1
25.463873 -25.336876 -21.219415 41.720854 -0.782898 2.104360 0.080122 -0.026878 -228852.000000 0 0 1
25.973673 -24.118586 -20.788915 41.091567 -0.748382 2.101241 0.091306 -0.024390 -679464.000000 0 0 1
25.101373 -22.874386 -21.016815 39.937739 -0.739012 2.124968 0.085821 -0.009750 -186964.000000 0 0 1
24.942973 -22.405986 -22.340115 40.289712 -0.731869 2.158543 0.082926 -0.009960 23601.900000 0 0 1
24.090573 -23.175786 -23.176415 40.677008 -0.766047 2.177019 0.059661 -0.016986 -274801.000000 0 0 1
23.352673 -22.180786 -24.096315 40.223961 -0.759667 2.213115 0.039764 -0.001460 147182.000000 0 0 1
24.144973 -21.558286 -25.114255 40.969076 -0.728861 2.230655 0.042024 0.001241 -64943.300000 0 0 1
23.298573 -20.958086 -26.049855 40.751194 -0.732563 2.264308 0.032420 0.010300 -476132.000000 0 0 1
23.963473 -20.113786 -27.126025 41.408135 -0.698280 2.285097 0.042107 0.008014 -229925.000000 0 0 1
23.090073 -19.292286 -27.906325 41.037870 -0.696029 2.318578 0.040465 0.005973 365583.000000 0 0 1
23.640673 -18.947686 -29.184825 42.067211 -0.675647 2.337502 0.050663 -0.004893 -295372.000000 0 0 1
22.871573 -17.836986 -29.844505 41.616840 -0.662349 2.370466 0.063608 -0.006534 -228087.000000 0 0 1
21.734673 -18.285386 -30.580475 41.736277 -0.699422 2.393088 0.059409 -0.005901 228989.000000 0 0 1
21.011473 -17.198986 -31.097615 41.283759 -0.685951 2.423809 0.065857 -0.009227 365947.000000 0 0 1
19.669173 -17.681586 -31.749795 41.322686 -0.732234 2.447037 0.052152 -0.007157 311193.000000 0 0 1
19.872173 -18.490986 -32.861095 42.622428 -0.749411 2.451177 0.057088 -0.002928 11235.700000 0 0 1
18.649773 -18.906386 -33.409205 42.678337 -0.792231 2.469972 0.064742 -0.012444 -251375.000000 0 0 1
18.834273 -19.835886 33.526178 43.268889 -0.811294 0.684345 0.084040 -0.001954 74053.200000 0 0 1
19.448073 -21.077186 33.923769 44.421812 -0.825576 0.701812 0.086563 -0.004431 378121.000000 0 0 1
19.532173 -21.987786 32.852262 44.093532 -0.844472 0.730174 0.084820 -0.014933 -296532.000000 0 0 1
20.288773 -23.278286 33.227569 45.360603 -0.853909 0.748779 0.075223 -0.005455 -516019.000000 0 0 1
19.752473 -24.226286 34.093309 46.253938 -0.886776 0.742042 0.087526 -0.012275 -146417.000000 0 0 1
19.755273 -23.805386 -32.722855 45.030572 -0.878108 2.384274 0.092966 -0.014766 -21397.700000 0 0 1
18.955373 -24.747386 -31.740525 44.488203 -0.917162 2.365219 0.099315 -0.013951 269673.000000 0 0 1
19.429173 -26.107986 -31.653365 45.398846 -0.931027 2.342320 0.094243 -0.027295 366996.000000 0 0 1
20.704473 -26.367286 -31.081935 45.716470 -0.905125 2.318402 0.086438 -0.027248 318698.000000 0 0 1
20.986673 -27.858686 -30.837955 46.556700 -0.925170 2.294780 0.071640 -0.034668 -876269.000000 0 0 1
20.022073 -28.429116 -30.065275 45.967584 -0.957203 2.283727 0.075688 -0.037144 -997494.000000 0 0 1
20.071973 -29.847586 -30.012885 46.845872 -0.978778 2.266171 0.074776 -0.031410 -815941.000000 0 0 1
18.752173 -30.504296 -29.630495 46.477116 -1.019610 2.262083 0.101951 -0.029299 -495472.000000 0 0 1
17.717173 -30.414236 -30.575495 46.623866 -1.043322 2.286026 0.106954 -0.037907 -241716.000000 0 0 1
17.859673 -31.237426 -31.740995 47.981616 -1.051416 2.293646 0.111308 -0.043938 -681422.000000 0 0 1
16.504873 -31.828656 -32.172915 48.172302 -1.092416 2.302142 0.127242 -0.049747 -63585.800000 0 0 1
15.543473 -30.862326 -32.504385 47.440676 -1.104242 2.325618 0.128166 -0.042759 -282459.000000 0 0 1
14.380973 -31.504466 -32.994695 47.832977 -1.142572 2.331995 0.094393 -0.030309 208578.000000 0 0 1
13.327473 -30.607346 -33.679545 47.420912 -1.160121 2.360615 0.088929 -0.019699 -194565.000000 0 0 1
12.413873 -29.924026 -32.905425 46.177035 -1.177557 2.363983 0.102567 -0.023274 -963993.000000 0 0 1
11.451873 -29.389126 -33.755475 46.198466 -1.199232 2.390088 0.090469 -0.015812 -623590.000000 0 0 1
10.509073 -28.420446 -33.004985 44.805038 -1.216617 2.398878 0.091491 -0.026165 -404324.000000 0 0 1
9.553073 -29.259276 -32.385685 44.678843 -1.255211 2.381620 0.088076 -0.014583 -383887.000000 0 0 1
8.726773 -28.309176 -31.710745 43.395131 -1.271773 2.390208 0.059996 -0.016792 -337036.000000 0 0 1
7.643173 -28.856216 -30.750215 42.856447 -1.311871 2.371027 0.048503 -0.014050 692793.000000 0 0 1
6.453673 -29.373956 -31.382145 43.466288 -1.354525 2.377468 0.051428 -0.011684 604191.000000 0 0 1
6.603073 -30.536206 -32.114625 44.804125 -1.357838 2.369967 0.066412 -0.014351 -629708.000000 0 0 1
5.240373 -31.078616 -32.597575 45.342516 -1.403751 2.373042 0.089179 -0.021962 51336.000000 0 0 1
4.525673 -31.614736 -31.502175 44.859339 -1.428612 2.349340 0.084840 -0.034055 -448527.000000 0 0 1
3.452973 -32.378906 -32.002985 45.656408 -1.464555 2.347529 0.100063 -0.056741 -868320.000000 0 0 1
2.637173 -32.840786 -30.743245 45.062390 -1.490667 2.321615 0.081194 -0.060053 647090.000000 0 0 1
1.578773 -32.002976 -30.268375 44.077858 -1.521504 2.327739 0.058614 -0.050298 298807.000000 0 0 1
0.422173 -31.938186 -31.059265 44.552260 -1.557579 2.342200 0.048551 -0.018165 -494599.000000 0 0 1
-0.593927 -30.862026 -30.600945 43.465334 1.551554 2.351854 0.019118 -0.010224 -249480.000000 0 0 1
-1.244527 -31.163266 -29.389755 42.853888 1.530882 2.326517 0.007010 -0.017064 75098.800000 0 0 1
-1.860527 -29.952806 -28.908925 41.669630 1.508761 2.337500 0.036531 -0.009353 116254.000000 0 0 1
-2.696327 -30.059146 -27.638535 40.923234 1.481335 2.312270 0.043942 -0.011571 -116638.000000 0 0 1
-1.862327 -30.329356 -26.519495 40.331399 1.509470 2.288345 0.036896 -0.009477 62377.800000 0 0 1
-2.553627 -30.267026 -25.294145 39.527303 1.486626 2.265185 0.062189 -0.020054 76034.800000 0 0 1
-1.600827 -30.629076 -24.111615 39.013753 1.518579 2.237029 0.044448 -0.015297 188231.000000 0 0 1
-2.065027 -30.652706 -22.781015 38.246926 1.503529 2.208846 0.072356 -0.031787 -532198.000000 0 0 1
-1.083227 -31.184726 -21.933315 38.140934 1.536074 2.183473 0.074546 -0.030005 -69923.800000 0 0 1
-1.454827 -31.103566 -20.483415 37.270882 1.524057 2.152660 0.042433 -0.019450 12477.200000 0 0 1
-1.485727 -29.808406 -19.841615 35.839059 1.520995 2.157515 0.038430 -0.017232 918442.000000 0 0 1
-0.185127 -29.229306 -19.598115 35.191941 1.564463 2.161436 0.067933 -0.032109 862291.000000 0 0 1
-0.364127 -27.751586 -19.051015 33.663397 1.557676 2.172353 0.067905 -0.033021 444481.000000 0 0 1
-1.272027 -27.710866 -17.946115 33.038965 1.524925 2.145017 0.064330 -0.035427 297770.000000 0 0 1
-0.988727 -26.498226 -17.290515 31.655892 1.533501 2.148620 0.059306 -0.028787 215556.000000 0 0 1
-1.949527 -26.196996 -16.100415 30.810820 1.496515 2.120644 0.049540 -0.026988 -233008.000000 0 0 1
-1.767027 -25.016186 -15.422215 29.441071 1.500278 2.122141 0.038632 -0.023583 -199875.000000 0 0 1
-2.629127 -24.824286 -14.327915 28.782749 1.465280 2.091851 0.042275 -0.027943 -384570.000000 0 0 1
-2.362027 -23.618986 -13.394715 27.255349 1.471122 2.084553 0.044284 -0.023399 79834.400000 0 0 1
-1.223927 -23.814186 -12.559015 26.950739 1.519447 2.055560 0.036303 -0.017605 190280.000000 0 0 1
-1.197027 -22.844986 -11.530615 25.617989 1.518446 2.037672 0.041289 -0.013840 903755.000000 0 0 1
0.287573 -22.630686 -11.048815 25.185451 -1.558090 2.024946 0.045426 -0.012688 823123.000000 0 0 1
0.497873 -21.436786 -10.316015 23.795038 -1.547575 2.019210 0.032453 -0.009765 16954.000000 0 1 0
1.771573 -21.388186 -9.691315 23.548133 -1.488155 1.994954 0.030427 -0.011527 452031.000000 0 1 0
2.293773 -19.951386 -9.463115 22.200670 -1.456331 2.011144 0.029017 -0.005008 -1012850.000000 0 1 0
2.699473 -19.265486 -10.636615 22.171687 -1.431583 2.071153 0.018649 -0.000181 -203436.000000 0 1 0
3.566273 -18.186486 -10.415715 21.259203 -1.377159 2.082816 0.011511 -0.001510 534074.000000 0 1 0
4.991773 -18.519886 -9.865215 21.569109 -1.307517 2.045840 0.023631 -0.016374 -288933.000000 0 1 0
5.071373 -18.828786 -8.534715 21.285755 -1.307698 1.983360 0.021185 -0.015302 -251452.000000 0 1 0
6.112173 -19.757586 -8.313515 22.289805 -1.270776 1.953008 0.019215 -0.006389 -463476.000000 0 1 0
5.844973 -20.817586 -7.223315 22.797190 -1.297073 1.893204 0.021333 -0.013364 -936261.000000 0 1 0
4.910873 -21.748086 -7.621515 23.562330 -1.348714 1.900182 0.035666 -0.019263 -427021.000000 0 1 0
4.872173 -22.910886 -6.755915 24.378047 -1.361260 1.851603 0.053965 -0.022481 -2930.020000 0 1 0
3.928973 -24.025786 -7.259615 25.404276 -1.408700 1.860599 0.062671 -0.017202 77489.700000 0 0 1
4.414773 -24.743886 -8.375915 26.493510 -1.394235 1.892465 0.050066 -0.014816 -369996.000000 0 0 1
3.408373 -25.169576 -9.262015 27.035338 -1.436199 1.920468 0.044176 -0.010078 -239502.000000 0 0 1
3.876473 -26.012786 -10.443215 28.297576 -1.422863 1.948783 0.026626 -0.011932 -214531.000000 0 0 1
4.158273 -27.328246 -10.080915 29.423615 -1.419794 1.920493 0.027070 -0.014676 -141910.000000 0 0 1
4.643373 -28.064756 -11.176715 30.563220 -1.406830 1.945172 0.033805 -0.009014 148758.000000 0 0 1
4.577673 -29.601236 -11.029715 31.919318 -1.417367 1.923621 0.042096 -0.021326 -103697.000000 0 0 1
3.296173 -30.096366 -11.374515 32.342474 -1.461710 1.930172 0.059167 -0.024697 111622.000000 0 0 1
3.250173 -31.534556 -11.228815 33.631505 -1.468092 1.911211 0.051039 -0.021088 -595696.000000 0 0 1
1.925173 -32.110976 -11.681015 34.223781 -1.510914 1.919110 0.035676 -0.029837 -680861.000000 0 0 1
1.733073 -31.849246 -13.061015 34.466914 -1.516435 1.959451 0.046505 -0.034487 189236.000000 0 0 1
1.081473 -32.943676 -13.639715 35.672079 -1.537980 1.963150 0.050989 -0.026468 -527579.000000 0 0 1
0.806373 -32.737956 -15.118915 36.069455 -1.546170 2.003318 0.062676 -0.027415 -21882.700000 0 0 1
-0.321527 -31.914436 -15.312915 35.399435 1.560722 2.018143 0.058583 -0.027031 -64309.200000 0 0 1
-0.754127 -31.850566 -16.677015 35.960396 1.547124 2.053031 0.039420 -0.030462 -89110.200000 0 0 1
-1.926627 -30.877086 -16.807615 35.207986 1.508480 2.068468 0.049201 -0.024995 -221702.000000 0 0 1
-3.144827 -31.315876 -16.264615 35.427556 1.470709 2.047773 0.061336 -0.032546 -604601.000000 0 0 1
-4.211327 -31.079876 -17.146215 35.744743 1.436116 2.071092 0.067117 -0.030505 443042.000000 0 0 1
-5.592827 -31.138276 -16.419015 35.643457 1.393079 2.049519 0.068145 -0.028684 197927.000000 0 0 1
-5.773127 -30.008136 -15.548915 34.286819 1.380733 2.041480 0.055616 -0.019975 424795.000000 0 0 1
-7.114027 -29.772686 -15.156215 34.157475 1.336249 2.030537 0.060880 -0.023738 361301.000000 0 0 1
-8.026227 -30.596606 -14.257315 34.696450 1.314253 1.994255 0.055139 -0.030190 23758.200000 0 0 1
-8.183827 -31.929706 -14.714015 36.096861 1.319890 1.990649 0.063683 -0.027120 -253622.000000 0 0 1
-9.179127 -32.559836 -13.958715 36.595697 1.296012 1.962140 0.048172 -0.020499 -389603.000000 0 0 1
-9.331327 -33.988656 -14.488515 38.107997 1.302856 1.960805 0.092610 -0.027180 -752825.000000 0 0 1
-8.195727 33.532962 -14.139015 37.303367 -1.331088 1.959542 0.093862 -0.030852 -373833.000000 0 0 1
-8.310427 32.187125 -14.496315 36.265925 -1.318123 1.982011 0.108791 -0.035345 -60004.200000 0 0 1
-7.320627 -21.921386 -3.393115 23.359195 1.248492 1.716570 0.056816 -0.024445 25364.800000 0 1 0
-7.155627 -20.869686 -4.322115 22.481714 1.240486 1.764251 0.044851 -0.024455 955241.000000 0 1 0
-5.914527 -20.883186 -5.075515 22.290131 1.294805 1.800514 0.038346 -0.021214 724665.000000 0 1 0
-6.011227 -19.883986 -6.202015 21.678855 1.277217 1.860936 0.039999 -0.021255 -171199.000000 0 1 0
-6.960127 -20.261386 -7.149515 22.585010 1.239909 1.892897 0.050525 -0.023242 -496327.000000 0 1 0
-7.196927 -19.274286 -8.100315 22.111286 1.213433 1.945872 0.039928 -0.022739 564015.000000 0 1 0
-8.065427 -19.687786 -9.349815 23.239601 1.181985 1.984849 0.053084 -0.016962 777645.000000 0 1 0
-7.279627 -20.443886 -10.245115 23.998080 1.228717 2.011874 0.054661 -0.021033 -118129.000000 0 1 0
-8.134927 -20.866386 -11.276815 25.074881 1.199064 2.037254 0.065027 -0.020065 57041.300000 0 0 1
-7.534427 -21.723186 -12.412415 26.129149 1.236941 2.065807 0.057540 -0.017639 912408.000000 0 0 1
-6.521027 -21.053186 -13.241415 25.711778 1.270427 2.111797 0.051825 -0.021296 698507.000000 0 0 1
-6.128027 -21.861586 -14.298315 26.831390 1.297500 2.132815 0.040977 -0.011925 -234927.000000 0 0 1
-5.103927 -21.083586 -15.152815 26.460829 1.333285 2.180532 0.041399 -0.009241 -1104170.000000 0 0 1
-3.931027 -20.847986 -14.460715 25.674964 1.384428 2.169077 0.036070 -0.017747 -914982.000000 0 0 1
-2.967027 -20.306586 -15.349415 25.627431 1.425711 2.212979 0.037382 -0.005872 -133589.000000 0 0 1
-2.878627 -18.772686 -15.486015 24.505446 1.418640 2.254852 0.039256 0.000741 -551437.000000 0 1 0
-3.969127 -18.183786 -16.159915 24.648466 1.355889 2.285794 0.043102 -0.005953 -115692.000000 0 1 0
-3.929727 -18.381686 -17.575115 25.733515 1.360182 2.322612 0.065635 -0.011368 -80452.700000 0 0 1
-5.295127 -18.043886 -18.232015 26.192109 1.285352 2.340731 0.072499 -0.012965 59321.800000 0 0 1
-6.301527 -18.832986 -17.661815 26.576876 1.247906 2.297695 0.057487 -0.012675 -775759.000000 0 0 1
-7.546627 -18.615086 -18.281715 27.160525 1.185640 2.309187 0.065803 -0.020363 -210640.000000 0 0 1
-8.602127 -19.426186 -17.494315 27.521344 1.153937 2.259664 0.075505 -0.030019 -371020.000000 0 0 1
-8.296727 -20.762986 -17.598615 28.454323 1.190642 2.237612 0.067083 -0.023528 -141042.000000 0 0 1
-9.202627 -21.571586 -16.932015 28.926023 1.167564 2.196115 0.071413 -0.031590 -404704.000000 0 0 1
-9.015027 -23.075686 -17.273515 30.201528 1.198357 2.179667 0.066310 -0.021405 -353508.000000 0 0 1
-9.322827 -23.390586 -18.627315 31.321103 1.191522 2.207715 0.041689 -0.023846 217580.000000 0 0 1
-8.714627 -24.528386 -19.187315 32.337896 1.229419 2.205996 0.066455 -0.027824 815055.000000 0 0 1
-7.151227 -24.532586 -19.477615 32.130442 1.287157 2.222076 0.096108 -0.030910 1123060.000000 0 0 1
-6.690627 -23.620086 -20.512315 31.991062 1.294767 2.266843 0.100512 -0.020822 292435.000000 0 0 1
-6.309227 -22.264786 -20.185915 30.708276 1.294663 2.288086 0.067756 -0.019958 296163.000000 0 0 1
-5.151527 -21.989186 -19.162415 29.618587 1.340671 2.274404 0.085009 -0.007672 580758.000000 0 0 1
-3.878927 -22.513986 -19.508015 30.041443 1.400182 2.277552 0.089162 -0.017795 263486.000000 0 0 1
-3.023327 -22.413986 -18.384315 29.146360 1.436720 2.253327 0.046063 -0.016504 -499240.000000 0 0 1
-1.666527 -23.083386 -18.514115 29.637687 1.498725 2.245520 0.076052 -0.018716 -459902.000000 0 0 1
-0.841627 -22.396886 -19.435215 29.665745 1.533236 2.285164 0.093196 -0.016096 540246.000000 0 0 1
0.464973 -23.011786 -19.494315 30.162673 -1.550593 2.273530 0.076566 -0.025031 1509340.000000 0 0 1
1.458673 -22.357986 -20.529415 30.388553 -1.505647 2.312526 0.100379 -0.031706 633767.000000 0 0 1
1.073973 -22.620386 -21.877815 31.487681 -1.523354 2.338946 0.099695 -0.039807 -159479.000000 0 0 1
0.574973 -21.515086 -22.551215 31.173495 -1.544079 2.379525 0.105518 -0.032530 -229487.000000 0 0 1
0.428273 -21.730386 -24.086615 32.443152 -1.551090 2.407480 0.120549 -0.035333 317405.000000 0 0 1
-0.145027 -20.707586 -24.963815 32.434815 1.563793 2.449106 0.118275 -0.040580 -218701.000000 0 0 1
-1.512827 -20.408486 -24.901415 32.231590 1.496804 2.453688 0.105023 -0.030619 -336130.000000 0 0 1
-1.904727 -19.087286 -25.492265 31.903104 1.471335 2.496515 0.094865 -0.019473 203603.000000 0 0 1
-1.270227 -17.924386 -24.878615 30.689454 1.500049 2.516069 0.079607 -0.020106 136780.000000 0 0 1
-1.843627 -16.789786 -25.393525 30.497983 1.461428 2.554635 0.070648 -0.015233 -495127.000000 0 0 1
-1.170027 -15.507986 -25.018285 29.458126 1.495492 2.585422 0.059844 -0.014056 687287.000000 0 0 1
0.166273 -15.362086 -25.560675 29.822298 -1.559973 2.600409 0.054990 -0.021409 924408.000000 0 0 1
0.867073 -14.162886 -25.228755 28.945280 -1.509651 2.629257 0.043525 -0.022638 250201.000000 0 0 1
0.299673 -12.874886 -25.832325 28.864537 -1.547525 2.679116 0.038878 -0.016195 -170228.000000 0 0 1
1.136973 -11.754186 -25.624125 28.214347 -1.474367 2.709747 0.024806 -0.014665 59243.800000 0 0 1
0.685273 -10.672586 -26.383185 28.468336 -1.506676 2.756478 0.029223 -0.014506 -749970.000000 0 0 1
1.417373 -9.362586 -26.224405 27.881650 -1.420550 2.795076 0.038996 -0.012174 1547360.000000 0 0 1
2.829673 -9.318186 -26.612235 28.338079 -1.275974 2.790793 0.058507 -0.012233 1431090.000000 0 0 1
3.117073 -9.465986 -27.999925 29.720647 -1.252687 2.799645 0.056175 -0.004173 -915633.000000 0 0 1
4.564873 -9.221486 -28.415105 30.220722 -1.111136 2.794167 0.066695 -0.001349 -613689.000000 0 0 1
4.849773 -7.847686 -28.479635 29.936534 -1.017255 2.828332 0.069334 -0.010251 719784.000000 0 0 1
6.157773 -7.622186 -29.012295 30.622364 -0.891272 2.815876 0.098776 -0.017139 1072980.000000 0 0 1
7.428873 -7.576786 -28.056125 29.995700 -0.795255 2.780010 0.113111 -0.018781 815233.000000 0 0 1
7.856373 -8.835386 -27.507215 29.940500 -0.843984 2.735647 0.087318 -0.017683 185504.000000 0 0 1
8.579473 -9.590186 -28.447895 31.222776 -0.840967 2.716805 0.102582 -0.024358 -338323.000000 0 0 1
9.060573 -11.020486 -27.852755 31.294106 -0.882690 2.668212 0.105887 -0.031154 1183200.000000 0 0 1
7.894073 -11.830986 -27.554045 31.008290 -0.982399 2.665086 0.095074 -0.028587 1141310.000000 0 0 1
8.238873 -12.951386 -26.745085 30.836942 -1.004227 2.620562 0.096826 -0.030876 15390.500000 0 0 1
9.179773 -14.057586 -27.298965 32.048673 -0.992307 2.590202 0.109462 -0.039911 -33866.900000 0 0 1
8.551973 -14.683486 -28.393975 33.090162 -1.043403 2.602313 0.117329 -0.044095 145001.000000 0 0 1
9.257673 -15.754186 -28.979915 34.259807 -1.039520 2.579022 0.109996 -0.044711 1356.180000 0 0 1
8.416373 -16.264986 -30.160155 35.284842 -1.093284 2.595889 0.086842 -0.042426 -90300.300000 0 0 1
8.256473 -15.262086 -31.166655 35.671571 -1.074905 2.633577 0.088039 -0.033993 164648.000000 0 0 1
7.499773 -15.848186 -32.192335 36.657305 -1.128796 2.642876 0.084052 -0.030599 -426423.000000 0 0 1
6.514473 -14.909586 -32.924835 36.725725 -1.158863 2.682615 0.083542 -0.023724 66115.300000 0 0 1
7.157373 -13.905486 -33.712395 37.163371 -1.095446 2.707235 0.090162 -0.024536 482328.000000 0 0 1
6.202973 -13.079186 33.770882 36.742542 -1.127950 0.404950 0.059248 -0.019277 181411.000000 0 0 1
6.757173 -11.915786 32.998616 35.728895 -1.054936 0.393472 0.086816 -0.019476 -407071.000000 0 0 1
7.203373 -12.279386 31.716066 34.764647 -1.040271 0.421911 0.076488 -0.022677 147378.000000 0 0 1
7.449073 -11.120786 30.937696 33.709073 -0.980605 0.408329 0.085945 -0.018133 57951.300000 0 0 1
7.792173 -11.520886 29.459676 32.577926 -0.976119 0.441098 0.073380 -0.014835 917027.000000 0 0 1
6.566573 -11.950486 28.840616 31.901647 -1.068351 0.441650 0.078734 -0.013470 914051.000000 0 0 1
6.820973 -12.150586 27.474886 30.806359 -1.059266 0.469361 0.082002 -0.016662 -33628.900000 0 0 1
5.779873 -12.867086 26.592246 30.101767 -1.148609 0.487703 0.071475 -0.023719 -378678.000000 0 0 1
5.800573 -14.269886 26.829396 30.936916 -1.184707 0.521186 0.073033 -0.017495 243964.000000 0 0 1
5.215773 -14.999086 25.734186 30.239464 -1.236137 0.552884 0.050330 -0.012887 780596.000000 0 0 1
3.663173 -15.192586 25.761986 30.131601 -1.334197 0.545280 0.051210 -0.023244 328893.000000 0 0 1
2.909273 -14.034686 25.517396 29.267281 -1.366400 0.511779 0.050837 -0.026865 -952887.000000 0 0 1
1.597073 -14.324186 25.190636 29.022423 -1.459760 0.519693 0.048743 -0.026714 -649570.000000 0 0 1
0.807073 -13.078986 24.737456 27.993802 -1.509167 0.487138 0.035802 -0.027970 -589142.000000 0 0 1
1.323673 -12.419886 23.614536 26.714265 -1.464620 0.486516 0.020948 -0.016760 226384.000000 0 0 1
0.520473 -11.267686 23.311506 25.897064 -1.524637 0.450659 0.023099 -0.013496 301416.000000 0 0 1
-0.927127 -11.452786 22.838786 25.566306 1.490020 0.466127 0.032986 -0.018589 -847419.000000 0 0 1
-1.103227 -12.143986 21.644286 24.842878 1.480199 0.513059 0.035624 -0.013574 -284718.000000 0 1 0
-2.382727 -12.695086 21.461486 25.048712 1.385266 0.541784 0.055675 -0.019640 -233469.000000 0 0 1
-2.394727 -13.491686 20.166486 24.381293 1.395129 0.596816 0.056900 -0.019316 197829.000000 0 1 0
-1.507227 -14.599986 20.040686 24.840700 1.467926 0.632135 0.071080 -0.022897 8291.870000 0 1 0
-1.601727 -15.297986 18.780686 24.275668 1.466475 0.686227 0.071919 -0.027570 273235.000000 0 1 0
-2.728327 -16.366886 18.638786 24.954419 1.405617 0.727389 0.067615 -0.032426 251945.000000 0 1 0
-2.553727 -17.377986 17.633486 24.888868 1.424889 0.783442 0.059812 -0.030298 -329963.000000 0 1 0
-3.461127 -18.454486 17.811786 25.880633 1.385401 0.811752 0.066157 -0.025134 15468.700000 0 0 1
-2.939927 -19.804586 17.264386 26.437167 1.423426 0.859212 0.056625 -0.023403 521714.000000 0 0 1
-1.800727 -20.416586 17.877086 27.196871 1.482825 0.853537 0.064323 -0.029031 206504.000000 0 0 1
-1.662627 -21.806686 17.560286 28.047451 1.494700 0.894265 0.056465 -0.040800 -268456.000000 0 0 1
-0.551727 -22.568786 18.299786 29.060913 1.546355 0.889624 0.064463 -0.031757 102560.000000 0 0 1
0.671673 -22.490786 17.587586 28.558882 -1.540941 0.907350 0.091554 -0.040614 -572602.000000 0 0 1
1.573873 -23.423786 18.152586 29.676037 -1.503706 0.912599 0.081317 -0.033823 1104030.000000 0 0 1
2.992873 -23.250486 17.432886 29.213830 -1.442777 0.931372 0.089679 -0.033914 1153170.000000 0 0 1
3.530473 -21.965086 17.648286 28.397028 -1.411428 0.900161 0.080617 -0.035298 -752968.000000 0 0 1
4.505173 -21.622286 16.736586 27.711606 -1.365377 0.922341 0.067780 -0.029131 -673778.000000 0 0 1
5.171373 -20.304986 17.027786 26.999649 -1.321413 0.888384 0.067748 -0.022187 -436537.000000 0 0 1
6.232573 -20.523086 17.958986 27.974402 -1.275961 0.873719 0.069420 -0.011736 9499.020000 0 0 1
6.798273 -19.399086 18.570986 27.702393 -1.233727 0.836083 0.074334 -0.002479 -41606.700000 0 0 1
7.728773 -18.503786 17.759586 26.786693 -1.175137 0.845977 0.061525 -0.008954 -728875.000000 0 0 1
7.116473 -17.952886 16.621586 25.479941 -1.193400 0.860129 0.058383 -0.013768 410996.000000 0 0 1
8.085073 -17.380186 15.709386 24.783544 -1.135383 0.884258 0.070031 -0.013078 726672.000000 0 1 0
7.384773 -16.647786 14.545086 23.307577 -1.153287 0.896882 0.060117 -0.015297 188051.000000 0 1 0
6.548873 -17.389186 13.670086 23.068220 -1.210618 0.936521 0.057875 -0.020067 85957.500000 0 1 0
5.987173 -16.435686 12.795686 21.672738 -1.221458 0.939236 0.048567 -0.018979 -193441.000000 0 1 0
6.458473 -16.640786 11.345486 21.150595 -1.200581 1.004613 0.057027 -0.017070 681123.000000 0 1 0
7.805573 -16.165386 11.261186 21.191059 -1.120957 1.010530 0.060367 -0.016370 359087.000000 0 1 0
8.410273 -16.285286 9.995886 20.877283 -1.094088 1.071518 0.071232 -0.022877 -41490.100000 0 1 0
9.913673 -15.958386 10.032186 21.297787 -1.014920 1.080323 0.054238 -0.012082 -151211.000000 0 1 0
10.474873 -16.304586 8.839586 21.300253 -0.999747 1.142855 0.052549 -0.013652 -866350.000000 0 1 0
11.850973 -16.009886 8.811386 21.780783 -0.933578 1.154311 0.053384 -0.008766 468149.000000 0 1 0
12.782973 -16.892886 7.884586 22.603997 -0.923016 1.214491 0.061515 -0.018277 472834.000000 0 1 0
13.077873 -18.120086 8.509086 23.911772 -0.945633 1.206969 0.066102 -0.019830 507600.000000 0 1 0
13.938673 -18.880986 7.592586 24.666285 -0.934865 1.257904 0.058067 -0.018830 842389.000000 0 1 0
14.572973 -20.121986 8.293086 26.192387 -0.943992 1.248630 0.054594 -0.015741 151634.000000 0 0 1
13.570173 -21.018686 8.758986 26.507633 -0.997503 1.234034 0.048415 -0.010342 34347.400000 0 0 1
14.105073 -22.179386 9.319286 27.887763 -1.004359 1.230071 0.046593 -0.004447 407267.000000 0 0 1
13.003273 -22.942586 10.123886 28.247839 -1.055166 1.204248 0.048866 -0.008657 501615.000000 0 0 1
12.756273 -22.395086 11.375886 28.172205 -1.053029 1.155132 0.055875 -0.012557 -173551.000000 0 0 1
11.785373 -23.175386 12.110186 28.681878 -1.100348 1.134899 0.067070 -0.011560 340441.000000 0 0 1
12.168873 -24.676686 12.504686 30.222301 -1.112658 1.144219 0.042290 -0.014642 26235.300000 0 0 1
13.200473 -24.818386 13.460586 31.167164 -1.081969 1.124216 0.021164 -0.009832 -156816.000000 0 0 1
13.340873 -26.135906 13.901286 32.470143 -1.098830 1.128379 0.027447 -0.019604 -363085.000000 0 0 1
14.415673 -26.357546 14.950586 33.556696 -1.070315 1.109028 0.039249 -0.013826 -413270.000000 0 0 1
14.315273 -25.563406 16.113186 33.437247 -1.060315 1.067982 0.049279 -0.012058 267443.000000 0 0 1
15.000773 -26.241856 17.176786 34.766365 -1.051494 1.054039 0.052317 -0.017700 -119118.000000 0 0 1
14.743273 -25.634156 18.583986 34.926187 -1.048856 1.009725 0.056890 -0.022522 98198.200000 0 0 1
15.294373 -24.323386 18.871286 34.375433 -1.009474 0.989658 0.037602 -0.015422 376538.000000 0 0 1
16.661373 -24.409386 19.269186 35.280604 -0.971857 0.993012 0.034472 -0.015925 432629.000000 0 0 1
17.241373 -23.018386 19.625986 34.817960 -0.927919 0.971969 0.021138 -0.006660 -140739.000000 0 0 1
17.302773 -22.067686 18.599986 33.650084 -0.905840 0.985139 0.017473 -0.006795 249078.000000 0 0 1
16.091073 -21.340486 18.394586 32.445335 -0.924730 0.968009 0.026740 -0.002104 -355181.000000 0 0 1
16.096273 -20.255086 17.285086 31.114831 -0.899309 0.981801 0.022198 -0.001969 578317.000000 0 0 1
16.985373 -19.140286 17.545386 31.027311 -0.844978 0.969779 0.010557 -0.008041 -373583.000000 0 0 1
18.343773 -19.378186 17.477586 31.897870 -0.812813 0.990917 0.018746 -0.011507 -1363270.000000 0 0 1
19.131173 -18.059586 17.638086 31.674161 -0.756593 0.980195 0.033679 -0.011272 -488617.000000 0 0 1
19.434573 -17.861486 18.974386 32.507885 -0.743245 0.947536 0.029251 -0.007706 219468.000000 0 0 1
20.004973 -16.576586 19.168686 32.286540 -0.691952 0.935141 0.037900 -0.009842 -239135.000000 0 0 1
20.558373 -16.227186 20.549086 33.290136 -0.668196 0.905525 0.042429 -0.008379 -138162.000000 0 0 1
21.740373 -16.951686 20.817086 34.544964 -0.662260 0.924031 0.049601 -0.010593 -72742.800000 0 0 1
22.171773 -16.848486 22.151286 35.582839 -0.649812 0.898829 0.061342 -0.008852 59288.600000 0 0 1
34.265525 -1.027286 -7.782215 35.153156 -0.029971 1.794026 0.087623 -0.003341 -857789.000000 0 0 1
35.529245 -0.977186 -8.347015 36.509654 -0.027497 1.801461 0.091647 -0.009850 -438780.000000 0 0 1
36.164015 -2.274886 -8.152015 37.141169 -0.062822 1.792085 0.098747 -0.012022 405821.000000 0 0 1
-35.594172 -2.241286 -8.695915 36.709500 0.062885 1.809954 0.107435 -0.017827 286050.000000 0 0 1
-34.751893 -3.323186 -8.274115 35.877550 0.095336 1.803512 0.126947 -0.023019 -40127.200000 0 0 1
-33.441337 -3.028786 -8.687415 34.683825 0.090324 1.823967 0.179801 -0.030226 -841449.000000 0 0 1
-32.400427 -4.018286 -8.276715 33.681424 0.123390 1.819075 0.173292 -0.026161 -834430.000000 0 0 1
-32.198357 -4.088186 -6.864915 33.174908 0.126293 1.779233 0.173387 -0.031699 -314908.000000 0 0 1
-31.105287 -4.885386 -6.571215 32.164992 0.155787 1.776542 0.170354 -0.036233 -507273.000000 0 0 1
-30.803957 -4.721486 -5.070215 31.573458 0.152092 1.732079 0.163139 -0.048102 -120133.000000 0 0 1
-30.329017 -3.425986 -4.791315 30.895685 0.112484 1.726505 0.162339 -0.046619 349574.000000 0 0 1
-30.055867 -3.321086 -3.427915 30.432472 0.110051 1.683676 0.162524 -0.047953 -202031.000000 0 0 1
-29.775727 -1.853486 -2.888215 29.972840 0.062168 1.667307 0.170327 -0.043075 -66158.800000 0 0 1
-28.469157 -1.406786 -3.225015 28.685757 0.049374 1.683460 0.170235 -0.039521 681993.000000 0 0 1
-28.197977 -0.077686 -2.809415 28.337691 0.002755 1.670100 0.183214 -0.041951 -152007.000000 0 0 1
-26.696557 0.222714 -2.590015 26.822825 -0.008342 1.667507 0.183435 -0.030811 128315.000000 0 0 1
-26.191057 -0.433986 -1.414715 26.232827 0.016568 1.624752 0.153014 -0.031755 789382.000000 0 0 1
-24.791227 -0.216786 -1.238415 24.823086 0.008744 1.620707 0.126217 -0.026477 565631.000000 0 1 0
-24.180527 -0.999386 -0.056615 24.201237 0.041307 1.573136 0.108256 -0.030466 -112623.000000 0 1 0
-23.977327 -2.436886 -0.178715 24.101505 0.101285 1.578211 0.100505 -0.030963 491077.000000 0 1 0
-23.502227 -3.047086 1.046785 23.722040 0.128932 1.526655 0.094537 -0.025577 -31282.500000 0 1 0
-23.675727 -4.612286 1.006085 24.141778 0.192401 1.529110 0.099117 -0.021723 971152.000000 0 1 0
-24.970827 -4.986886 1.540385 25.510469 0.197115 1.510377 0.104572 -0.030003 1202700.000000 0 0 1
-24.905327 -6.384086 1.653085 25.763628 0.250931 1.506589 0.081459 -0.018586 -569609.000000 0 0 1
-26.171527 -7.018886 2.178285 27.183791 0.262022 1.490579 0.093638 -0.020354 -745572.000000 0 0 1
-26.333307 -6.891886 3.599185 27.457153 0.255976 1.439334 0.097640 -0.022229 -217592.000000 0 0 1
-27.448027 -7.644686 3.961585 28.766814 0.271631 1.432644 0.098900 -0.014469 -359950.000000 0 0 1
-27.558247 -7.794586 5.471985 29.157420 0.275641 1.382006 0.105982 -0.015950 -332991.000000 0 0 1
-26.649287 -8.692486 6.051085 28.676810 0.315300 1.358189 0.090946 -0.002388 -275299.000000 0 0 1
-26.664947 -8.797286 7.484885 29.059166 0.318675 1.310286 0.093093 -0.017211 -207489.000000 0 0 1
-26.002487 -7.616886 8.218585 28.314156 0.284957 1.276293 0.101334 -0.016722 758349.000000 0 0 1
-24.563827 -7.580486 8.190685 26.980228 0.299331 1.262348 0.105736 -0.015095 887622.000000 0 0 1
-24.146927 -6.306586 8.640385 26.410289 0.255469 1.237500 0.104576 -0.029383 559772.000000 0 0 1
-22.743527 -5.888286 8.074885 24.842377 0.253337 1.239737 0.093635 -0.028370 939511.000000 0 1 0
-21.643827 -6.649886 8.570185 24.210004 0.298087 1.208959 0.085645 -0.029295 -441550.000000 0 1 0
-20.486227 -6.190886 7.955785 22.832150 0.293472 1.214883 0.083731 -0.023750 109187.000000 0 1 0
-19.175727 -6.599586 8.726685 22.077547 0.331466 1.164430 0.077417 -0.025138 570035.000000 0 1 0
-19.082027 -5.704186 9.806485 22.199744 0.290475 1.113261 0.068527 -0.021978 745155.000000 0 1 0
-17.927227 -5.938386 10.635485 21.674027 0.319874 1.057901 0.050918 -0.027471 498913.000000 0 1 0
-17.716127 -4.708586 11.515985 21.648322 0.259774 1.009886 0.042506 -0.022602 -64155.100000 0 1 0
-18.848927 -4.479686 12.333985 22.966863 0.233334 1.003879 0.059642 -0.022630 343029.000000 0 1 0
-18.925727 -3.267886 13.032585 23.210138 0.170983 0.974594 0.062334 -0.018804 -177041.000000 0 1 0
-19.940627 -3.300886 14.190685 24.696153 0.164048 0.958667 0.052711 -0.018647 138331.000000 0 1 0
-19.691527 -4.326486 15.136685 25.210989 0.216277 0.926795 0.050232 -0.017349 238904.000000 0 0 1
-20.870227 -4.380186 15.912885 26.607749 0.206875 0.929725 0.054672 -0.006832 213111.000000 0 0 1
-20.679927 -5.247886 17.200385 27.405345 0.248521 0.892293 0.052149 -0.001432 44753.000000 0 0 1
-21.667227 -4.924486 18.167485 28.701512 0.223482 0.885400 0.048126 -0.000192 677066.000000 0 0 1
-21.357727 -5.597986 19.361185 29.365719 0.256340 0.850892 0.053195 0.002303 -271402.000000 0 0 1
-22.383627 -5.224086 20.461685 30.773339 0.229284 0.843415 0.067161 -0.003616 -213189.000000 0 0 1
-22.435827 -3.837386 20.672285 30.747930 0.169399 0.833465 0.068986 -0.000028 395261.000000 0 0 1
-23.076427 -3.517086 21.902085 32.009260 0.151246 0.817232 0.077354 -0.005752 -105621.000000 0 0 1
-23.212027 -2.010586 22.223085 32.197922 0.086403 0.809028 0.063974 0.000800 185068.000000 0 0 1
-24.345727 -1.422486 21.590685 32.571392 0.058362 0.846147 0.084417 -0.014385 144029.000000 0 0 1
-24.352227 -0.013686 21.662885 32.593124 0.000562 0.843777 0.071279 -0.014553 925764.000000 0 0 1
-25.747667 0.637614 21.275785 33.406705 -0.024759 0.880363 0.090916 -0.019950 1159080.000000 0 0 1
-26.714207 0.461114 22.282685 34.790509 -0.017259 0.875671 0.097309 -0.018241 60706.800000 0 0 1
-28.009347 0.960314 21.973085 35.612669 -0.034272 0.905869 0.091385 -0.021701 390481.000000 0 0 1
-28.952177 0.830314 23.176085 37.095133 -0.028671 0.895954 0.075401 -0.013793 -306870.000000 0 0 1
-28.515497 1.727514 24.172785 37.422472 -0.060508 0.868538 0.064589 -0.012149 -219358.000000 0 0 1
-29.433407 1.828314 25.209085 38.796471 -0.062037 0.863504 0.062972 -0.008488 -913357.000000 0 0 1
-29.086347 2.785714 26.355385 39.349487 -0.095483 0.836888 0.086557 -0.019624 -216369.000000 0 0 1
-28.075277 2.219114 27.172585 39.134320 -0.078878 0.803292 0.064482 -0.027830 24036.700000 0 0 1
-27.518667 3.264714 27.894085 39.319402 -0.118084 0.782117 0.065104 -0.029302 90874.100000 0 0 1
-26.283067 2.819214 28.764785 39.066103 -0.106855 0.743195 0.081947 -0.026132 340044.000000 0 0 1
-26.587177 2.071114 29.918385 40.078389 -0.077742 0.728015 0.067922 -0.026728 -202504.000000 0 0 1
-25.434107 1.710414 30.619685 39.841993 -0.067148 0.694259 0.068399 -0.020333 -373616.000000 0 0 1
-25.597117 0.426214 31.505785 40.595671 -0.016649 0.682359 0.043043 -0.022826 -73734.900000 0 0 1
-25.731997 -0.727386 30.735585 40.091657 0.028260 0.697216 0.038950 -0.027268 70166.900000 0 0 1
-26.131757 -1.863586 31.476785 40.952774 0.071194 0.694128 0.039234 -0.019146 -491950.000000 0 0 1
-26.910127 -2.960586 30.664985 40.905517 0.109577 0.723257 0.044388 -0.014411 118854.000000 0 0 1
-28.273847 -2.743486 30.379985 41.591834 0.096730 0.751843 0.052395 -0.012826 -135185.000000 0 0 1
-28.519957 -1.696186 29.450485 41.031647 0.059404 0.770230 0.057234 -0.010565 -426453.000000 0 0 1
-30.005007 -1.399086 29.115185 41.832426 0.046595 0.800991 0.061477 -0.023364 612938.000000 0 0 1
-30.706477 -0.923686 30.263185 43.123095 0.030072 0.792895 0.076514 -0.017741 -563526.000000 0 0 1
-32.083697 -0.775786 30.065085 43.975843 0.024175 0.818013 0.062408 -0.022117 -237200.000000 0 0 1
-32.817317 -0.387186 31.356185 45.390930 0.011798 0.808197 0.070225 -0.018132 -90896.600000 0 0 1
-32.790767 -1.409186 32.344885 46.080492 0.042949 0.792705 0.094360 -0.020350 148243.000000 0 0 1
-33.860137 -1.237286 33.251285 47.473021 0.036525 0.794804 0.114045 -0.022060 245481.000000 0 0 1
-34.402853 -2.481286 33.968685 48.410584 0.072000 0.793045 0.112625 -0.026519 -34386.700000 0 0 1
-34.945259 -3.496686 33.180885 48.315309 0.099730 0.813778 0.099299 -0.033510 -156698.000000 0 0 1
-35.103090 -4.580286 34.081585 49.140211 0.129748 0.804380 0.079635 -0.025261 372929.000000 0 0 1
-36.301827 -5.523186 33.741485 49.867986 0.150988 0.827639 0.089211 -0.025005 82966.900000 0 0 1
35.640965 -4.957986 33.919485 49.450900 -0.138222 0.814926 0.094793 -0.035908 -299746.000000 0 0 1
34.628055 -5.818886 33.353385 48.429433 -0.166484 0.811101 0.085997 -0.037269 175860.000000 0 0 1
33.261065 -5.350486 33.926585 47.811498 -0.159497 0.781879 0.097361 -0.034687 -451315.000000 0 0 1
32.915875 -5.693086 -32.901916 46.887121 -0.171264 2.348614 0.081749 -0.039048 342472.000000 0 0 1
32.447885 -7.062886 -32.717716 46.617577 -0.214325 2.348763 0.082134 -0.033112 -543015.000000 0 0 1
31.043625 -7.380386 -33.240116 46.076915 -0.233409 2.376625 0.060799 -0.032634 -384047.000000 0 0 1
30.024735 -6.938186 -32.353416 44.680719 -0.227096 2.380528 0.060358 -0.030850 483291.000000 0 0 1
28.724625 -7.210886 -32.858016 44.235169 -0.245953 2.408044 0.072484 -0.027256 1818.620000 0 0 1
27.547985 -6.895586 -31.939716 42.738578 -0.245272 2.414827 0.078121 -0.032814 -531759.000000 0 0 1
26.322485 -7.209086 -32.530816 42.462903 -0.267321 2.443547 0.078030 -0.034611 -174212.000000 0 0 1
25.203285 -6.934586 -31.697716 41.085755 -0.268502 2.451994 0.072968 -0.035439 -170663.000000 0 0 1
23.909385 -7.480086 -32.342916 40.910568 -0.303205 2.482545 0.063922 -0.040083 -209977.000000 0 0 1
23.738985 -8.864486 -32.332516 41.079315 -0.357380 2.476850 0.074602 -0.045051 150165.000000 0 0 1
23.382885 -9.359786 -31.088116 40.010447 -0.380751 2.460682 0.082984 -0.044470 -609257.000000 0 0 1
23.179385 -10.902486 -31.218216 40.382237 -0.439650 2.454460 0.070018 -0.038270 -522501.000000 0 0 1
21.927885 -11.316686 -31.686816 40.161596 -0.476434 2.479948 0.066599 -0.037192 -213663.000000 0 0 1
21.885785 -12.698386 -31.386616 40.315707 -0.525742 2.463102 0.057631 -0.022642 -141932.000000 0 0 1
20.846085 -13.490286 -32.272816 40.719550 -0.574360 2.485797 0.048537 -0.019384 870603.000000 0 0 1
19.457685 -13.260786 -32.098716 39.809264 -0.598215 2.508688 0.035131 -0.023582 228387.000000 0 0 1
19.030385 -11.975486 -32.490016 39.511630 -0.561673 2.536220 0.034802 -0.026020 937921.000000 0 0 1
17.597885 -11.519186 -31.890016 38.201444 -0.579587 2.558540 0.043341 -0.029798 1850910.000000 0 0 1
16.466285 -12.022686 -32.561816 38.418165 -0.630669 2.582173 0.039962 -0.018538 -54380.900000 0 0 1
15.266285 -11.674486 -31.884916 37.229033 -0.652858 2.599155 0.064180 -0.024516 401780.000000 0 0 1
14.067085 -12.218286 -32.720116 37.653358 -0.715178 2.623939 0.060729 -0.023795 -679763.000000 0 0 1
13.934085 -13.574786 -32.577816 37.944006 -0.772338 2.603282 0.072908 -0.020944 380638.000000 0 0 1
12.743785 -14.129986 -33.131716 38.206952 -0.836934 2.620277 0.073528 -0.022648 809625.000000 0 0 1
11.472985 -13.950686 -32.242016 36.956713 -0.882548 2.630942 0.073930 -0.021063 -203079.000000 0 0 1
10.901785 -12.662686 -32.322816 36.386219 -0.859986 2.664483 0.107109 -0.018235 -161601.000000 0 0 1
9.820985 -12.625986 -31.396816 35.236732 -0.909715 2.670395 0.108836 -0.024449 547276.000000 0 0 1
8.686185 -11.608686 -31.799716 34.949010 -0.928417 2.713812 0.101448 -0.015683 136351.000000 0 0 1
8.986485 -10.239586 -31.630216 34.439463 -0.850483 2.734888 0.093701 -0.010571 319775.000000 0 0 1
8.003685 -9.394886 -32.242316 34.523757 -0.865189 2.776013 0.102253 -0.013504 204708.000000 0 0 1
8.420785 -7.910186 -32.503516 34.495785 -0.754143 2.800071 0.108255 -0.014526 -200216.000000 0 0 1
8.513785 -7.119086 -31.357916 33.263866 -0.696418 2.801435 0.089784 -0.016350 291650.000000 0 0 1
9.087785 -5.857886 -31.685916 33.479843 -0.572562 2.812753 0.094235 -0.011191 -30138.000000 0 0 1
9.357085 -4.969086 -30.476516 32.265537 -0.488178 2.807028 0.091223 -0.012390 6316.490000 0 0 1
8.172385 -4.508686 -29.856516 31.281427 -0.504146 2.838603 0.109233 -0.019919 212881.000000 0 0 1
8.455885 -3.542086 -28.821216 30.244187 -0.396684 2.833622 0.100766 -0.017538 360278.000000 0 0 1
7.103685 -2.963486 -28.323116 29.350357 -0.395225 2.876242 0.097551 -0.022723 -551589.000000 0 0 1
6.517385 -2.224286 -29.377216 30.173574 -0.328890 2.911334 0.078404 -0.012794 355379.000000 0 0 1
5.250185 -1.664186 -29.019816 29.537834 -0.306958 2.954035 0.092292 -0.017877 848504.000000 0 0 1
4.063485 -2.684386 -29.080816 29.485788 -0.583799 2.975665 0.077560 -0.020261 -691625.000000 0 0 1
4.033685 -3.612786 -28.042516 28.560559 -0.730409 2.950839 0.082258 -0.023389 -243323.000000 0 0 1
2.908885 -4.461486 -28.047916 28.549116 -0.993017 2.953937 0.080393 -0.019841 15103.600000 0 0 1
2.983085 -5.591086 -26.988416 27.722439 -1.080676 2.910962 0.062788 -0.022687 -11160.000000 0 0 1
2.669685 -5.206086 -25.673816 26.332022 -1.096961 2.917534 0.058261 -0.024327 -7585.270000 0 0 1
2.967085 -6.306386 -24.857616 25.816180 -1.131035 2.868234 0.053965 -0.025380 -148885.000000 0 0 1
2.962685 -5.968286 -23.328116 24.261058 -1.110029 2.863372 0.061645 -0.021330 291542.000000 0 1 0
3.979485 -5.034086 -22.963116 23.842882 -0.901870 2.869094 0.056268 -0.022462 274276.000000 0 1 0
3.893285 -4.582886 -21.618816 22.439557 -0.866577 2.870297 0.050527 -0.020988 -161945.000000 0 1 0
4.636785 -3.254186 -21.256116 21.997999 -0.611946 2.881146 0.050081 -0.024664 294061.000000 0 1 0
6.040185 -3.405686 -21.186816 22.292682 -0.513405 2.825294 0.048183 -0.018447 -175637.000000 0 1 0
6.655985 -2.245086 -20.633916 21.796812 -0.325319 2.813468 0.049255 -0.013046 542287.000000 0 1 0
8.105685 -2.463186 -20.087316 21.800680 -0.295016 2.742484 0.063173 -0.022615 516417.000000 0 1 0
8.937385 -2.675486 -21.248216 23.206071 -0.290869 2.727873 0.076432 -0.034211 1650440.000000 0 1 0
10.344585 -2.994086 -21.082816 23.674039 -0.281736 2.669340 0.075623 -0.033887 1821610.000000 0 1 0
11.334685 -2.047286 -20.378916 23.408688 -0.178695 2.627157 0.063458 -0.030709 -583667.000000 0 1 0
11.419385 -2.185286 -18.975316 22.253998 -0.189080 2.591871 0.071070 -0.024631 1038070.000000 0 1 0
12.612585 -1.615286 -18.395716 22.362666 -0.127376 2.536780 0.070919 -0.024021 502961.000000 0 1 0
12.761885 -0.064686 -18.359516 22.359376 -0.005069 2.534150 0.068068 -0.022625 -614181.000000 0 1 0
13.171785 0.449214 -19.577816 23.600606 0.034091 2.549093 0.069546 -0.025193 248517.000000 0 1 0
13.396185 1.825314 -19.503016 23.730933 0.135422 2.535428 0.090852 -0.032872 -130022.000000 0 1 0
13.731385 2.610714 -20.781016 25.044308 0.187885 2.549492 0.073480 -0.028077 -785046.000000 0 0 1
15.025385 2.466914 -21.269116 26.157659 0.162731 2.520275 0.063683 -0.021980 -497789.000000 0 0 1
15.406385 3.578614 -22.055616 27.140622 0.228234 2.519468 0.063257 -0.024489 -681110.000000 0 0 1
16.819585 3.464914 -22.591016 28.377069 0.203163 2.491621 0.044339 -0.013897 -635068.000000 0 0 1
17.109885 2.607514 -23.672916 29.324976 0.151234 2.510293 0.035143 -0.010803 -149601.000000 0 0 1
17.683685 1.411414 -23.245816 29.241627 0.079646 2.489732 0.031813 -0.009049 -499884.000000 0 0 1
9.559773 26.697014 3.467085 28.568173 1.226938 1.449135 0.017935 -0.005358 5605.840000 0 0 1
9.594073 26.988714 4.836385 29.048710 1.229244 1.403525 0.016067 -0.002844 122978.000000 0 0 1
10.738073 27.679014 5.297085 30.157804 1.200721 1.394235 0.031659 -0.000900 -90253.600000 0 0 1
10.562873 28.193514 6.769385 30.858922 1.212327 1.349632 0.018008 -0.015357 -14571.700000 0 0 1
10.558273 27.172114 7.737485 30.160729 1.200182 1.311354 0.010969 -0.014459 117007.000000 0 0 1
10.543573 27.706014 9.031485 30.989641 1.207167 1.275069 0.013265 -0.011478 -721188.000000 0 0 1
10.443473 26.632114 10.145385 30.352339 1.197086 1.229983 0.027966 -0.008450 -139421.000000 0 0 1
11.624573 25.999714 10.572985 30.379332 1.150353 1.215325 0.039035 -0.010129 -158045.000000 0 0 1
12.267273 25.094314 9.728185 29.577832 1.116111 1.235657 0.042688 -0.016403 -837913.000000 0 0 1
13.605873 24.608614 10.271885 29.936855 1.065737 1.220562 0.063523 -0.018861 -801123.000000 0 0 1
14.552373 25.623214 10.298285 31.214986 1.054286 1.234583 0.072829 -0.022910 109801.000000 0 0 1
15.781873 25.182014 10.885085 31.649430 1.010967 1.219701 0.077173 -0.022919 414564.000000 0 0 1
16.806773 26.285914 11.183585 33.143468 1.001921 1.226611 0.067424 -0.023424 -1004030.000000 0 0 1
17.387573 26.866714 9.985185 33.523901 0.996407 1.268354 0.069476 -0.032821 1673170.000000 0 0 1
18.821973 26.649914 9.870085 34.086701 0.955876 1.277031 0.069875 -0.036280 1441060.000000 0 0 1
19.741273 27.244814 10.935885 35.377837 0.943758 1.256532 0.063061 -0.031702 -1432610.000000 0 0 1
19.855173 28.648414 10.925185 36.528334 0.964741 1.267060 0.072731 -0.040362 -53967.800000 0 0 1
18.733473 29.390914 11.370485 36.661380 1.003337 1.255447 0.058032 -0.029808 -143020.000000 0 0 1
18.917873 30.913714 11.463985 38.012716 1.021631 1.264444 0.060988 -0.031779 -926888.000000 0 0 1
19.206573 31.643214 10.237285 38.405565 1.025265 1.300977 0.084494 -0.048252 1142610.000000 0 0 1
18.128173 31.763714 9.238585 37.721554 1.052185 1.323364 0.091171 -0.050883 2113010.000000 0 0 1
16.716473 32.331514 9.664985 37.658720 1.093615 1.311245 0.081334 -0.043951 755937.000000 0 0 1
16.762873 33.674514 10.052585 38.936118 1.108917 1.309657 0.082056 -0.041416 870106.000000 0 0 1
15.396973 34.073214 10.253085 38.770819 1.146381 1.303159 0.074263 -0.028652 1138460.000000 0 0 1
15.513773 -32.588179 10.463685 37.578654 -1.126487 1.288619 0.063880 -0.019549 1893.700000 0 0 1
15.778573 -31.938079 9.307585 36.818954 -1.111931 1.315230 0.070034 -0.023629 -106505.000000 0 0 1
15.952773 -30.514779 9.422985 35.699234 -1.089085 1.303676 0.084853 -0.020704 110082.000000 0 0 1
16.925273 -29.984579 8.343985 35.428264 -1.056915 1.333045 0.073904 -0.014775 -5244.080000 0 0 1
16.287473 -29.912679 7.074485 34.786469 -1.072185 1.365999 0.062350 -0.016733 -183804.000000 0 0 1
17.058273 -29.309879 6.077685 34.452749 -1.043719 1.393462 0.064238 -0.004171 -121881.000000 0 0 1
16.464273 -29.559179 4.702185 34.160326 -1.062600 1.432707 0.056255 -0.007797 97473.900000 0 0 1
16.629573 -30.897079 4.284985 35.348738 -1.077039 1.449277 0.056837 -0.013942 -171730.000000 0 0 1
16.292673 -30.987279 2.903085 35.129625 -1.086733 1.488063 0.054488 -0.005520 -52184.100000 0 0 1
16.605573 -32.371379 2.316785 36.455709 -1.096826 1.507203 0.037736 -0.009321 -321579.000000 0 0 1
17.976873 -32.659179 2.266985 37.348750 -1.067616 1.510061 0.045070 -0.006198 -259190.000000 0 0 1
18.276573 -33.953279 1.749085 38.599450 -1.076991 1.525467 0.056344 -0.011545 58638.100000 0 0 1
19.761873 33.830614 1.760885 39.219164 1.042119 1.525883 0.056882 -0.018402 324367.000000 0 0 1
20.203773 33.428214 3.039385 39.177491 1.027153 1.493138 0.067777 -0.039416 427650.000000 0 0 1
21.578873 33.044114 3.142785 39.590887 0.992292 1.491331 0.064018 -0.034640 485335.000000 0 0 1
22.135173 32.851514 4.601885 39.879383 0.977875 1.455144 0.070406 -0.035807 -154362.000000 0 0 1
21.622973 31.826314 5.472585 38.864076 0.974026 1.429513 0.080851 -0.043953 147532.000000 0 0 1
22.452373 30.683414 5.463285 38.411306 0.939082 1.428081 0.062292 -0.050054 -27527.600000 0 0 1
21.815973 29.658314 6.382385 37.366925 0.936590 1.399152 0.079862 -0.052177 254519.000000 0 0 1
20.562573 29.135414 6.015085 36.164527 0.956216 1.403694 0.077885 -0.041821 480794.000000 0 0 1
19.616373 29.096914 7.127685 35.808329 0.977615 1.370407 0.079954 -0.056137 875601.000000 0 0 1
18.132573 28.942114 6.690585 34.802300 1.011111 1.377347 0.096396 -0.044872 517797.000000 0 0 1
17.442873 30.168414 6.326485 35.417671 1.046573 1.391207 0.078562 -0.047770 216575.000000 0 0 1
17.865673 30.791514 5.132185 35.967192 1.045052 1.427617 0.090877 -0.047978 -395404.000000 0 0 1
17.761373 32.286414 5.296085 37.228046 1.067862 1.428051 0.086812 -0.044246 -744731.000000 0 0 1
16.490573 32.803814 5.380985 37.107738 1.104989 1.425273 0.081229 -0.041997 -1366930.000000 0 0 1
16.495473 -33.994179 5.665585 38.207377 -1.119023 1.421962 0.079299 -0.039981 592836.000000 0 0 1
15.117973 -33.269479 5.954285 37.025192 -1.144281 1.409278 0.065532 -0.033602 1286840.000000 0 0 1
14.205273 -33.390779 4.848185 36.609272 -1.168566 1.437976 0.057468 -0.022218 -209263.000000 0 0 1
13.099773 -32.533279 4.917885 35.414741 -1.188001 1.431481 0.039715 -0.019639 -383534.000000 0 0 1
12.419573 -32.614279 3.552285 35.079277 -1.206949 1.469358 0.042902 -0.023679 13633.400000 0 0 1
11.240873 -31.814479 3.567785 33.930036 -1.231162 1.465450 0.043966 -0.029015 274267.000000 0 0 1
10.675073 -31.660779 2.266985 33.488824 -1.245597 1.503051 0.050818 -0.022136 -16919.300000 0 0 1
9.727373 -30.441479 2.108785 32.027369 -1.261508 1.504905 0.062797 -0.025061 14679.100000 0 0 1
9.393773 -30.003979 0.783185 31.449882 -1.267379 1.545891 0.072618 -0.016941 299123.000000 0 0 1
8.451273 -30.838579 0.074285 31.975732 -1.303315 1.568473 0.066599 -0.020681 67021.400000 0 0 1
8.979873 -31.479579 -1.205415 32.757518 -1.292916 1.607603 0.080159 -0.022151 -44469.000000 0 0 1
10.094373 -32.327779 -1.011515 33.882219 -1.268139 1.600655 0.081710 -0.020947 -125885.000000 0 0 1
10.206273 -33.265879 -2.035415 34.855840 -1.273104 1.629225 0.088553 -0.015596 99661.900000 0 0 1
11.481973 34.094714 -1.856515 36.024046 1.245959 1.622355 0.068306 -0.017682 62317.500000 0 0 1
11.516073 33.302914 -0.695115 35.244676 1.237870 1.590520 0.067156 -0.012526 9258.990000 0 0 1
12.696673 32.537114 -0.716815 34.933982 1.198748 1.591317 0.068772 -0.015045 -216271.000000 0 0 1
12.858373 31.657814 0.530085 34.173615 1.184985 1.555284 0.061088 -0.019469 -628601.000000 0 0 1
13.173473 32.227414 1.813685 34.863105 1.182756 1.518750 0.055956 -0.020505 819511.000000 0 0 1
14.464373 32.876114 2.011085 35.973621 1.156318 1.514863 0.066754 -0.018691 648781.000000 0 0 1
15.594773 31.836614 2.084285 35.512127 1.115312 1.512070 0.070469 -0.025104 -1002230.000000 0 0 1
16.172673 31.501514 0.815485 35.419850 1.096491 1.547771 0.070503 -0.028371 207447.000000 0 0 1
17.206573 30.552314 1.015885 35.079083 1.057887 1.541832 0.072758 -0.025747 -33318.500000 0 0 1
17.594773 29.780814 -0.235815 34.590874 1.037162 1.577614 0.073553 -0.018693 398524.000000 0 0 1
18.546673 30.408814 -1.126115 35.636262 1.023121 1.602402 0.053599 -0.011681 957107.000000 0 0 1
18.006373 31.598214 -1.809715 36.413619 1.052838 1.620516 0.047457 -0.012736 182060.000000 0 0 1
19.179373 32.344114 -2.451415 37.682881 1.035555 1.635896 0.037943 -0.005489 165192.000000 0 0 1
20.078373 32.979914 -1.544415 38.641959 1.023927 1.610774 0.038795 -0.006481 -508961.000000 0 0 1
20.968973 33.758214 -2.203615 39.801643 1.014969 1.626190 0.043178 -0.004403 -1925630.000000 0 0 1
21.988073 -33.730079 -1.307215 40.285262 -0.993098 1.603251 0.042041 -0.008842 -873104.000000 0 0 1
23.025973 33.818114 -0.664715 40.918237 0.973020 1.587042 0.032938 -0.015740 320094.000000 0 0 1
23.929373 33.041914 -1.459915 40.822963 0.944004 1.606566 0.038632 -0.014048 -26441.700000 0 0 1
24.679573 33.708714 -2.687215 41.863825 0.938822 1.635030 0.037243 -0.020683 -624024.000000 0 0 1
23.823373 -34.086479 -3.747615 41.755068 -0.960802 1.660670 0.027009 -0.022288 -219426.000000 0 0 1
24.524073 -33.455879 -4.774415 41.755491 -0.938247 1.685389 0.028753 -0.021837 -457830.000000 0 0 1
23.699373 -33.049979 -5.991315 41.107873 -0.948701 1.717063 0.033714 -0.025480 -61508.000000 0 0 1
22.660373 -32.097579 -5.726915 39.705725 -0.956066 1.715535 0.042456 -0.018648 417160.000000 0 0 1
22.208973 -31.522679 -6.925915 39.177622 -0.957030 1.748513 0.049264 -0.021323 225024.000000 0 0 1
21.161373 -30.371479 -6.754615 37.627852 -0.962254 1.751286 0.074327 -0.021167 -190375.000000 0 0 1
19.866773 -30.800279 -6.478615 37.219864 -0.997930 1.745751 0.067728 -0.013514 -584820.000000 0 0 1
19.098073 -29.613279 -6.162315 35.772291 -0.998003 1.743925 0.079738 -0.023461 -42949.200000 0 0 1
18.019673 -29.790179 -5.128615 35.191846 -1.026792 1.717050 0.062939 -0.012752 907633.000000 0 0 1
16.793273 -30.419779 -5.631315 35.200691 -1.066380 1.731464 0.057501 -0.014919 963920.000000 0 0 1
15.813873 -30.430079 -4.618315 34.603426 -1.091530 1.704660 0.033225 -0.010321 212486.000000 0 0 1
14.565473 -31.279579 -4.959415 34.859157 -1.135001 1.713551 0.030672 -0.007475 -126566.000000 0 0 1
14.695773 -32.712779 -4.792315 36.180905 -1.148578 1.703641 0.031581 -0.002943 -777507.000000 0 0 1
13.600073 -33.459079 -5.190515 36.488538 -1.184726 1.713531 0.049564 -0.003929 -895145.000000 0 0 1
13.862373 33.237514 -5.301815 36.400645 1.175662 1.716968 0.049473 -0.006909 -165038.000000 0 0 1
14.092873 32.594114 -4.014315 35.736537 1.162696 1.683365 0.048978 -0.013542 78861.700000 0 0 1
14.653873 31.322714 -4.080115 34.820910 1.133210 1.688240 0.059844 -0.019070 84925.800000 0 0 1
13.615173 30.183614 -4.303415 33.390760 1.147046 1.700036 0.067661 -0.017992 -228301.000000 0 0 1
12.697173 29.915914 -3.293215 32.665354 1.169410 1.671785 0.076484 -0.020818 -255751.000000 0 0 1
13.091673 29.060314 -2.266415 31.953566 1.147527 1.641784 0.079309 -0.021873 -359730.000000 0 0 1
11.925773 28.172814 -1.777515 30.644593 1.170360 1.628833 0.080414 -0.014052 911607.000000 0 0 1
10.953673 28.884614 -0.977715 30.907278 1.208330 1.602435 0.070142 -0.014133 20444.900000 0 0 1
9.772573 28.168314 -0.760715 29.825087 1.236855 1.596305 0.059825 -0.010664 -309327.000000 0 0 1
8.762673 29.023914 0.020785 30.317857 1.277586 1.570111 0.042089 0.000139 -77597.100000 0 0 1
7.671573 28.278114 0.487885 29.304314 1.305882 1.554147 0.022538 -0.003648 -146885.000000 0 0 1
6.574873 29.081314 0.928185 29.829739 1.348449 1.539675 0.035032 -0.000064 568821.000000 0 0 1
5.556773 28.186314 1.693385 28.778700 1.376148 1.511921 0.021185 -0.004248 273336.000000 0 0 1
4.781273 27.369314 0.820285 27.795913 1.397847 1.541281 0.014762 -0.009818 79841.600000 0 0 1
3.848573 26.572614 1.544685 26.894263 1.426964 1.513329 0.022964 -0.018847 486946.000000 0 0 1
2.822173 25.828714 0.647185 25.990498 1.461963 1.545893 0.035058 -0.021469 -556640.000000 0 0 1
1.821073 25.169014 1.307885 25.268679 1.498568 1.519014 0.037412 -0.026087 -519391.000000 0 0 1
1.130273 24.337214 0.372085 24.366287 1.524388 1.555525 0.025552 -0.024035 328950.000000 0 1 0
-0.250627 23.779614 0.794885 23.794216 -1.560257 1.537383 0.035184 -0.020882 588347.000000 0 1 0
-1.260727 24.756214 0.988085 24.807980 -1.519915 1.530956 0.050826 -0.023795 -263720.000000 0 1 0
-2.537027 24.179814 0.962085 24.331575 -1.466255 1.531245 0.047121 -0.018670 -151953.000000 0 1 0
-3.707427 25.077514 1.433785 25.390598 -1.424021 1.514297 0.071852 -0.031915 -1125620.000000 0 0 1
-4.846727 24.326114 1.522185 24.850908 -1.374132 1.509505 0.063706 -0.026495 -1054830.000000 0 1 0
-5.889127 25.040514 2.183685 25.816228 -1.339810 1.486109 0.073311 -0.028995 666337.000000 0 0 1
-7.061027 25.436514 1.221085 26.426604 -1.300020 1.524573 0.080200 -0.026827 42194.000000 0 0 1
-6.683327 26.563814 0.490385 27.396050 -1.324317 1.552896 0.078530 -0.029204 -372428.000000 0 0 1
-7.539127 26.777214 -0.569715 27.824130 -1.296351 1.591273 0.071579 -0.025996 -599647.000000 0 0 1
-7.310627 28.023414 -1.475315 28.998854 -1.315608 1.621693 0.066534 -0.019940 -6402.750000 0 0 1
-7.607127 29.278814 -0.862515 30.263200 -1.316600 1.599301 0.077496 -0.031306 -82101.300000 0 0 1
-7.391627 30.240514 -1.850215 31.185704 -1.331069 1.630160 0.071640 -0.028923 -345341.000000 0 0 1
-7.630427 31.703314 -1.429515 32.639961 -1.334606 1.614607 0.063677 -0.024898 -619782.000000 0 0 1
-7.572127 32.789014 -2.342415 33.733417 -1.343840 1.640291 0.060307 -0.012365 450354.000000 0 0 1
-6.434927 32.790414 -3.250315 33.573562 -1.377015 1.667760 0.053775 -0.015012 703340.000000 0 0 1
-5.161727 33.343414 -2.578715 33.838978 -1.417210 1.647076 0.062181 -0.022354 -642845.000000 0 0 1
-5.155627 -33.472779 -2.401815 33.952557 1.417973 1.641596 0.065320 -0.021511 -338624.000000 0 0 1
-4.394027 -33.196479 -1.281415 33.510531 1.439197 1.609045 0.083025 -0.023155 -241819.000000 0 0 1
-4.314527 -31.648779 -1.197015 31.963935 1.435306 1.608254 0.084722 -0.029006 16387.100000 0 0 1
-5.556827 -31.043979 -0.933415 31.551200 1.393674 1.600385 0.076205 -0.027015 -250158.000000 0 0 1
-5.755527 -29.903279 -1.709915 30.500098 1.380650 1.626888 0.085552 -0.019505 290772.000000 0 0 1
-7.153127 -29.241179 -1.547115 30.143114 1.330883 1.622145 0.114247 -0.020370 354405.000000 0 0 1
-7.301827 -28.626479 -0.312015 29.544700 1.321049 1.581357 0.087248 -0.017072 -448631.000000 0 0 1
-8.552427 -28.005979 -0.227115 29.283620 1.274412 1.578552 0.059292 -0.023770 -223489.000000 0 0 1
-8.631327 -27.588779 1.233085 28.933735 1.267587 1.528166 0.068573 -0.013447 483715.000000 0 0 1
-7.604927 -26.600579 1.357385 27.699606 1.292331 1.521773 0.073212 -0.021970 179720.000000 0 0 1
-7.222627 -26.305979 2.683485 27.411164 1.302837 1.472742 0.077138 -0.008206 -3246.750000 0 0 1
-8.187427 -25.388479 3.449685 26.898125 1.258840 1.442192 0.069303 -0.008087 -95470.500000 0 0 1
-7.926627 -24.050879 3.226785 25.528187 1.252430 1.444056 0.071335 -0.014182 -379604.000000 0 0 1
-8.947927 -23.226879 3.714285 25.166430 1.203078 1.422666 0.069835 -0.013984 -96575.800000 0 0 1
-8.387627 -21.805879 3.890785 23.685161 1.203593 1.405777 0.032526 -0.000854 712289.000000 0 1 0
-7.534027 -21.637379 5.058885 23.463376 1.235730 1.353482 0.029083 -0.002656 155486.000000 0 1 0
-6.913627 -20.382779 5.007385 22.098186 1.243784 1.342214 0.007033 -0.005945 48740.300000 0 1 0
-7.734027 -19.245879 5.658585 21.499735 1.188693 1.304466 0.016825 -0.010968 151337.000000 0 1 0
-7.811527 -19.372779 7.056285 22.048031 1.187516 1.245023 0.021264 -0.015772 280558.000000 0 1 0
-8.954827 -18.706979 7.593585 22.086251 1.124342 1.219820 0.031564 -0.020988 297617.000000 0 1 0
-27.284087 28.798214 -5.639915 40.069529 -0.812390 1.712018 0.086681 -0.006270 135058.000000 0 0 1
-26.381717 29.611814 -4.893715 39.960017 -0.843021 1.693570 0.082580 -0.026913 -259218.000000 0 0 1
-25.476757 28.891014 -4.141315 38.741532 -0.848115 1.677897 0.069883 -0.023789 -202880.000000 0 0 1
-24.425327 29.760014 -3.410815 38.650856 -0.883534 1.659158 0.058921 -0.029879 -245451.000000 0 0 1
-24.931027 30.615514 -2.375015 39.553843 -0.887381 1.630878 0.045466 -0.033748 -150604.000000 0 0 1
-24.013527 31.514814 -1.816415 39.662732 -0.919675 1.616609 0.036389 -0.034202 -45559.000000 0 0 1
-22.902427 30.967714 -0.878315 38.526509 -0.934012 1.593596 0.036836 -0.027760 1071690.000000 0 0 1
-21.848027 30.264114 -1.593915 37.360319 -0.945515 1.613473 0.040651 -0.039227 464737.000000 0 0 1
-20.581227 30.493014 -1.028515 36.803106 -0.977082 1.598746 0.033758 -0.031734 -631121.000000 0 0 1
-19.488627 29.752614 -1.773515 35.611374 -0.990899 1.620619 0.055253 -0.033388 -1050560.000000 0 0 1
-18.264627 29.919314 -1.144915 35.072393 -1.022719 1.603446 0.051111 -0.025994 -663956.000000 0 0 1
-17.216627 29.095214 -1.667815 33.848565 -1.036477 1.620089 0.045298 -0.022824 695227.000000 0 0 1
-15.866127 29.646814 -1.110715 33.643740 -1.079409 1.603816 0.053359 -0.026226 128521.000000 0 0 1
-15.601627 29.136714 0.210585 33.051524 -1.079183 1.564425 0.047146 -0.029874 77713.800000 0 0 1
-14.510827 29.828314 0.796485 33.180217 -1.118024 1.546789 0.062567 -0.029672 223662.000000 0 0 1
-14.046527 29.152114 2.087785 32.426987 -1.121786 1.506368 0.056630 -0.028714 -135107.000000 0 0 1
-15.005627 29.329714 3.117085 33.092555 -1.097897 1.476464 0.054042 -0.019706 -147287.000000 0 0 1
-14.773427 28.600614 4.306185 32.477569 -1.094003 1.437815 0.062570 -0.029274 -2015.400000 0 0 1
-13.608127 29.008414 5.236485 32.466752 -1.132165 1.408801 0.076774 -0.024374 44958.400000 0 0 1
-13.787327 30.253914 5.929485 33.772007 -1.143195 1.394308 0.067906 -0.036911 -23921.300000 0 0 1
-13.546227 31.395414 5.054285 34.564694 -1.163457 1.424043 0.073340 -0.034845 -86285.500000 0 0 1
-13.249227 32.660414 5.903585 35.736494 -1.185415 1.404838 0.072331 -0.025537 828006.000000 0 0 1
-14.404727 33.229914 6.588685 36.812146 -1.161759 1.390845 0.065859 -0.014563 902736.000000 0 0 1
-14.047927 -33.943679 7.472685 37.488113 1.178399 1.370117 0.091902 -0.030950 113068.000000 0 0 1
-15.215727 -33.399179 8.338585 37.637155 1.143318 1.347391 0.091876 -0.021756 203712.000000 0 0 1
-15.465827 33.879814 9.338785 38.395918 -1.142558 1.325109 0.078865 -0.023981 -272704.000000 0 0 1
-16.629027 -34.076379 10.078985 39.234042 1.116801 1.310989 0.086519 -0.024230 -619131.000000 0 0 1
-16.747327 33.520714 11.484185 39.191807 -1.107460 1.273407 0.090000 -0.020486 786996.000000 0 0 1
-15.816227 34.019814 12.488385 39.540619 -1.135611 1.249458 0.102928 -0.028041 774958.000000 0 0 1
-14.503927 33.472014 12.378285 38.522222 -1.161904 1.243664 0.101561 -0.019154 120104.000000 0 0 1
-13.645427 33.573114 13.656085 38.727772 -1.184751 1.210430 0.109226 -0.019136 -290078.000000 0 0 1
-13.938227 32.782014 14.848785 38.593018 -1.168774 1.175856 0.096946 -0.017383 -68212.500000 0 0 1
-13.538627 31.396814 14.924585 37.306803 -1.163677 1.159225 0.062054 -0.012342 -72812.100000 0 0 1
-14.498327 30.370414 14.256785 36.548864 -1.125405 1.170084 0.069139 -0.014792 160203.000000 0 0 1
-14.458127 30.342214 12.836385 35.978607 -1.126123 1.205979 0.069044 -0.011755 81592.100000 0 0 1
-15.565427 29.599414 12.393785 35.665301 -1.086668 1.215890 0.058685 -0.018374 -31796.400000 0 0 1
-15.728527 29.498114 10.930485 35.171022 -1.080939 1.254782 0.049665 -0.012070 418489.000000 0 0 1
-14.751127 28.592514 10.413585 33.816717 -1.094503 1.257767 0.037148 -0.005142 498301.000000 0 0 1
-14.872427 28.578814 9.002985 33.451329 -1.090962 1.298300 0.036080 -0.004103 -44642.100000 0 0 1
-14.378027 27.209914 8.401485 31.901286 -1.084679 1.304294 0.040186 -0.008280 -992749.000000 0 0 1
-13.013727 27.107314 8.264585 31.184402 -1.123210 1.302569 0.063667 -0.013689 -1057170.000000 0 0 1
-12.625727 25.800814 8.043685 29.829379 -1.115702 1.297760 0.065572 -0.018788 53924.100000 0 0 1
-11.356527 25.830214 7.147585 29.107707 -1.156574 1.322703 0.081503 -0.028166 71509.000000 0 0 1
-11.612427 26.246114 5.780285 29.276589 -1.154244 1.372053 0.086727 -0.026909 733445.000000 0 0 1
-10.397427 25.997814 5.084885 28.457844 -1.190346 1.391150 0.108848 -0.023149 350983.000000 0 0 1
-10.458727 26.344914 3.579785 28.570165 -1.192886 1.445168 0.086199 -0.021723 -47897.200000 0 0 1
-10.495327 27.739314 3.397985 29.852433 -1.209087 1.456723 0.090156 -0.023546 123108.000000 0 0 1
-10.500327 28.106214 2.006085 30.070592 -1.213258 1.504034 0.085935 -0.027573 -117760.000000 0 0 1
-9.831427 29.432814 1.632685 31.074317 -1.248419 1.518231 0.089287 -0.025145 240394.000000 0 0 1
-10.710627 30.477214 1.991785 32.365805 -1.232848 1.509218 0.074755 -0.033314 229197.000000 0 0 1
-10.336627 31.726614 1.360385 33.395726 -1.255838 1.530050 0.071677 -0.027644 4332.930000 0 0 1
-10.778527 32.961914 2.236685 34.751506 -1.254757 1.506390 0.062574 -0.029258 1217050.000000 0 0 1
-12.175927 33.334714 2.205685 35.557297 -1.220590 1.508725 0.080911 -0.033694 785503.000000 0 0 1
-12.462127 -34.110879 1.046485 36.331141 1.220520 1.541988 0.066896 -0.024469 87061.300000 0 0 1
-13.990027 -33.890479 0.821785 36.673706 1.179303 1.548386 0.071633 -0.027400 674624.000000 0 0 1
-14.723027 33.229814 0.334385 36.346938 -1.153723 1.561596 0.065667 -0.027896 -240249.000000 0 0 1
-14.888127 33.127414 -1.101015 36.335852 -1.148425 1.601102 0.055452 -0.021970 127200.000000 0 0 1
-13.626627 32.922414 -1.991215 35.686626 -1.178364 1.626623 0.066237 -0.019805 87106.000000 0 0 1
-13.103127 31.617714 -2.004715 34.283971 -1.177918 1.629304 0.058761 -0.017999 480047.000000 0 0 1
-11.801727 31.703614 -2.601615 33.928871 -1.214437 1.647550 0.055407 -0.014398 287292.000000 0 0 1
-11.069227 30.404314 -2.691315 32.468343 -1.221644 1.653782 0.019748 -0.021547 -406083.000000 0 0 1
-11.452227 29.649414 -3.846615 32.016210 -1.202195 1.691233 0.021537 -0.016461 393396.000000 0 0 1
-10.464827 29.743014 -4.870415 31.904238 -1.232482 1.724053 0.025689 -0.013428 182885.000000 0 0 1
-10.890527 28.919514 -6.104315 31.499278 -1.210641 1.765823 0.026957 -0.010688 -147133.000000 0 0 1
-11.122127 27.546814 -5.921715 30.291837 -1.187058 1.767552 0.023827 -0.005204 104923.000000 0 0 1
-11.292427 26.897014 -7.147915 30.034330 -1.173305 1.811094 0.017751 -0.002915 -163072.000000 0 0 1
-11.795027 25.427014 -6.883415 28.862382 -1.136462 1.811608 0.037360 -0.010595 72596.900000 0 0 1
-10.963327 24.522014 -6.162415 27.559011 -1.150372 1.796311 0.030811 -0.010710 40017.300000 0 0 1
-11.404627 23.209214 -6.367115 26.632185 -1.114066 1.812210 0.060472 -0.027605 -106088.000000 0 0 1
-10.615527 22.159814 -5.533715 25.186678 -1.124054 1.792311 0.065632 -0.037955 -280002.000000 0 0 1
-9.219627 22.114314 -5.840615 24.660843 -1.175800 1.809906 0.065247 -0.035526 538944.000000 0 1 0
-8.659227 20.894314 -5.371015 23.246556 -1.177913 1.803949 0.063087 -0.033387 -272000.000000 0 1 0
-8.537827 20.708114 -3.819815 22.722488 -1.179737 1.739706 0.044511 -0.037443 -601325.000000 0 1 0
-9.708627 20.505714 -3.058815 22.893189 -1.128606 1.704810 0.061337 -0.042383 -249392.000000 0 1 0
-10.356827 19.285014 -3.155115 22.116292 -1.077958 1.713945 0.060675 -0.040572 -31152.200000 0 1 0
-11.729927 19.231714 -2.406715 22.654851 -1.023110 1.677231 0.060236 -0.043015 172452.000000 0 1 0
-11.711727 19.351214 -1.010315 22.641881 -1.026548 1.615433 0.058315 -0.031469 63375.900000 0 1 0
-11.406127 18.093714 -0.378315 21.392179 -1.008329 1.588482 0.046448 -0.027911 -83783.900000 0 1 0
-10.931827 18.317114 1.081185 21.358616 -1.032726 1.520154 0.045557 -0.014882 -396634.000000 0 1 0
-12.073327 18.513014 1.836285 22.178117 -0.992909 1.487904 0.054291 -0.012980 -305185.000000 0 1 0
-11.760627 18.614114 3.198285 22.249194 -1.007313 1.426548 0.051599 -0.006336 138227.000000 0 1 0
-12.992927 18.669414 4.155685 23.122130 -0.962796 1.390087 0.052214 -0.007791 603108.000000 0 1 0
-13.768927 17.453914 4.133885 22.612197 -0.902877 1.386946 0.033517 -0.003736 326608.000000 0 1 0
-14.985227 17.535014 4.837985 23.567771 -0.863644 1.364047 0.040306 -0.012819 69132.300000 0 1 0
-15.478427 16.143214 5.367985 23.000007 -0.806418 1.335233 0.029919 -0.003991 -449743.000000 0 1 0
-14.784227 15.559814 6.463385 22.415542 -0.810952 1.278299 0.029663 -0.003149 190239.000000 0 1 0
-15.200927 16.144114 7.678985 23.466304 -0.815480 1.237421 0.027278 -0.000147 -807950.000000 0 1 0
-14.171227 15.986214 8.818985 23.111841 -0.845509 1.179293 0.020069 0.001742 920697.000000 0 1 0
-12.940027 16.707714 8.724385 22.862784 -0.911802 1.179272 0.025503 -0.015256 720092.000000 0 1 0
-12.025827 16.239014 7.740085 21.638738 -0.933370 1.204997 0.026815 -0.013187 -162103.000000 0 1 0
-10.752027 17.111214 7.537285 21.568736 -1.009783 1.213808 0.045492 -0.019795 435784.000000 0 1 0
-9.906927 17.270314 8.651785 21.708623 -1.049985 1.160870 0.048191 -0.019177 -331351.000000 0 1 0
-8.948227 18.226414 8.423785 21.982563 -1.114416 1.177535 0.040911 -0.029597 -429821.000000 0 1 0
-7.803927 18.492014 9.424385 22.173743 -1.171456 1.131807 0.039666 -0.021043 -612176.000000 0 1 0
-6.845627 17.428114 9.460985 20.978847 -1.196519 1.102936 0.033859 -0.017022 723032.000000 0 1 0
-5.521127 17.785214 9.902485 21.091607 -1.269795 1.082073 0.029942 -0.018312 1372820.000000 0 1 0
-4.773527 18.891114 9.043185 21.481153 -1.323291 1.136268 0.028773 -0.019698 -1464730.000000 0 1 0
-5.235727 20.244814 9.064485 22.791012 -1.317721 1.161764 0.039477 -0.025836 -227480.000000 0 1 0
-4.564427 21.129714 8.195885 23.118636 -1.358046 1.208402 0.045548 -0.030157 887113.000000 0 1 0
-3.098427 21.644314 8.495985 23.457586 -1.428610 1.200185 0.039688 -0.025728 415017.000000 0 1 0
-2.090127 20.716714 8.551585 22.509564 -1.470246 1.181098 0.029332 -0.009633 149335.000000 0 1 0
-0.834027 21.419014 8.368485 23.010895 -1.531877 1.198586 0.026311 -0.012581 546669.000000 0 1 0
0.411073 20.581714 8.220185 22.166357 1.550826 1.190882 0.018269 -0.002298 -271157.000000 0 1 0
0.838973 19.971714 9.461985 22.115660 1.528813 1.128694 0.016840 -0.003582 -254273.000000 0 1 0
2.227873 19.717314 9.484085 21.992811 1.458283 1.124934 0.013120 -0.000985 68351.000000 0 1 0
2.695773 18.872214 10.633585 21.828898 1.428913 1.061992 -0.000167 -0.024943 25389.500000 0 1 0
4.090673 18.610314 10.614885 21.811767 1.354430 1.062536 0.024394 -0.010149 59884.700000 0 1 0
4.473773 18.107714 11.830785 22.087812 1.328582 1.005549 0.015475 -0.016986 762131.000000 0 1 0
6.000973 18.248014 12.159685 22.734547 1.253081 1.006460 0.029397 -0.014955 1039290.000000 0 1 0
6.939773 17.566014 11.359085 22.039830 1.194549 1.029335 0.030063 -0.012679 110058.000000 0 1 0
7.932573 16.911914 12.130085 22.272798 1.132212 0.994867 0.033499 -0.012137 312835.000000 0 1 0
9.034573 16.060614 11.433085 21.685992 1.058384 1.015482 0.037386 -0.017464 717422.000000 0 1 0
10.058473 16.934714 10.956185 22.538753 1.034833 1.063170 0.052857 -0.027179 630286.000000 0 1 0
11.222673 16.257714 10.449185 22.348314 0.966611 1.084267 0.052675 -0.024115 1014450.000000 0 1 0
12.137173 17.317114 9.739485 23.281988 0.959482 1.139194 0.059822 -0.021334 -85668.300000 0 1 0
13.292073 16.880414 9.110385 23.337238 0.903770 1.169752 0.068212 -0.014746 -937283.000000 0 1 0
13.939073 17.819714 8.351785 24.116224 0.906987 1.217157 0.070892 -0.022205 -315760.000000 0 1 0
14.998673 17.262114 7.407385 24.037681 0.855444 1.257541 0.072126 -0.033384 -596677.000000 0 1 0
16.125373 16.826214 8.119685 24.679514 0.806664 1.235547 0.083156 -0.029402 -162967.000000 0 1 0
17.152573 16.633914 7.143585 24.938498 0.770048 1.280279 0.110059 -0.023388 -382215.000000 0 1 0
18.561773 16.527614 7.707385 26.021246 0.727492 1.270089 0.086259 -0.023972 -610281.000000 0 0 1
18.833073 15.373414 8.449585 25.737560 0.684600 1.236295 0.085241 -0.018092 441832.000000 0 0 1
19.813773 15.653814 9.450285 26.961739 0.668643 1.212684 0.077305 -0.014926 276306.000000 0 0 1
20.479373 14.480614 10.186885 27.071489 0.615464 1.185001 0.080381 -0.011124 -390292.000000 0 0 1
21.364773 13.634314 9.579285 27.094478 0.568012 1.209432 0.097856 -0.012602 -221953.000000 0 0 1
21.450573 12.466314 10.305185 26.865087 0.526455 1.177116 0.107605 -0.020135 164067.000000 0 0 1
22.285273 11.327714 9.614585 26.784151 0.470269 1.203637 0.116445 -0.019998 -493640.000000 0 0 1
23.674273 11.416914 9.675885 28.007854 0.449347 1.218056 0.083275 -0.014135 -185366.000000 0 0 1
24.375273 10.344214 9.127385 28.008318 0.401340 1.238853 0.080229 -0.019454 -564716.000000 0 0 1
24.400973 8.901714 9.779685 27.754103 0.349807 1.210695 0.089167 -0.027562 -9003.510000 0 0 1
23.181273 8.175314 9.605885 26.390911 0.339050 1.198254 0.094361 -0.022877 679143.000000 0 0 1
23.208073 6.841214 10.079485 26.210931 0.286659 1.176073 0.089283 -0.024671 408365.000000 0 0 1
24.102273 5.775914 9.273385 26.462736 0.235206 1.212764 0.091674 -0.028504 367033.000000 0 0 1
23.702273 5.641414 7.926485 25.621328 0.233664 1.256265 0.082232 -0.020114 464079.000000 0 0 1
24.751773 5.656214 6.976585 26.330890 0.224660 1.302636 0.095041 -0.013563 -36992.000000 0 0 1
24.134773 5.206014 5.662185 25.330815 0.212451 1.345362 0.084340 -0.024834 -243439.000000 0 0 1
23.508673 3.935714 5.670085 24.500968 0.165877 1.337256 0.099271 -0.022621 305200.000000 0 1 0
23.069873 3.821614 4.327985 23.781405 0.164163 1.387786 0.097663 -0.022585 158927.000000 0 1 0
22.149273 2.559714 4.086385 22.668061 0.115056 1.389535 0.088586 -0.021140 401571.000000 0 1 0
22.831273 1.388414 4.426285 23.297784 0.060737 1.379647 0.115549 -0.021738 5826.270000 0 1 0
21.968273 0.394614 4.091885 22.349592 0.017961 1.386672 0.107760 -0.019399 -426128.000000 0 1 0
22.598273 -1.048486 4.261785 23.020514 -0.046363 1.384592 0.121439 -0.020563 -235569.000000 0 1 0
22.613073 -1.462486 5.560585 23.332596 -0.064584 1.330162 0.116719 -0.021189 705894.000000 0 1 0
22.485473 -2.899386 5.641985 23.363111 -0.128237 1.326894 0.094198 -0.022105 -441484.000000 0 1 0
22.423773 -3.349286 7.120285 23.764296 -0.148267 1.266501 0.118970 -0.019791 -25134.100000 0 1 0
22.282773 -4.741586 7.258385 23.910014 -0.209664 1.262358 0.095984 -0.023015 495665.000000 0 1 0
22.620173 -5.103186 8.595885 24.730628 -0.221889 1.215807 0.127130 -0.023499 8675.710000 0 1 0
22.253073 -6.593186 8.970685 24.882575 -0.288042 1.201970 0.112584 -0.025520 613819.000000 0 1 0
20.833873 -6.740986 8.982785 23.668156 -0.312928 1.181508 0.101353 -0.022172 813523.000000 0 1 0
20.536973 -8.125086 9.154085 23.907772 -0.376735 1.177872 0.101561 -0.032341 -376891.000000 0 1 0
-26.997297 -32.698279 5.044685 42.702228 0.880610 1.452383 0.054551 -0.012685 275703.000000 0 0 1
-27.936977 -33.677779 5.437585 44.093478 0.878302 1.447162 0.051032 -0.017114 76080.400000 0 0 1
-27.717277 -33.972479 6.815885 44.371534 0.886451 1.416576 0.054585 -0.005990 184901.000000 0 0 1
-28.575527 33.061014 7.288885 44.302587 -0.858043 1.405520 0.064269 -0.019693 -13495.900000 0 0 1
-29.945197 33.252314 7.489785 45.371005 -0.837680 1.404959 0.062037 -0.008525 -385894.000000 0 0 1
-30.595897 32.099714 8.090485 45.077228 -0.809380 1.390338 0.068289 -0.011522 309998.000000 0 0 1
-32.124337 32.267914 8.095185 46.246333 -0.787628 1.394845 0.063729 -0.004661 -85968.800000 0 0 1
-32.626097 32.315814 6.747485 46.414465 -0.780620 1.424905 0.059893 -0.004960 370197.000000 0 0 1
-34.050490 32.316214 6.756785 47.428132 -0.759272 1.427846 0.044973 -0.001069 299776.000000 0 0 1
-34.665144 32.207714 5.353085 47.620002 -0.748667 1.458146 0.022987 0.008500 -227334.000000 0 0 1
-34.423793 30.908114 4.833785 46.515315 -0.731637 1.466690 0.029286 0.000979 356536.000000 0 0 1
-34.846496 30.858214 3.441485 46.672813 -0.724772 1.496993 0.036653 0.009784 257958.000000 0 0 1
-34.342322 29.522114 2.767485 45.371899 -0.710065 1.509763 0.039624 -0.002620 207698.000000 0 0 1
-34.940711 28.420414 3.408985 45.168511 -0.682852 1.495252 0.058827 -0.005136 285787.000000 0 0 1
-34.374371 27.178814 2.966785 43.921374 -0.669027 1.503197 0.064356 -0.015822 284266.000000 0 0 1
-35.026232 25.975014 3.759185 43.768364 -0.638095 1.484802 0.087405 -0.015752 853084.000000 0 0 1
-36.402607 25.687514 3.484385 44.689362 -0.614508 1.492748 0.078951 -0.007093 281221.000000 0 0 1
36.307975 24.779214 4.401185 44.177471 0.598866 1.471006 0.092905 -0.008819 360301.000000 0 0 1
34.855335 24.364514 4.007285 42.715129 0.610067 1.476844 0.098744 -0.007632 -8026.120000 0 0 1
34.717605 23.504514 2.930885 42.028138 0.595136 1.501003 0.079883 -0.009868 79861.800000 0 0 1
35.096675 22.156914 3.180585 41.627174 0.563125 1.494315 0.078685 -0.010053 -743994.000000 0 0 1
34.386885 21.150214 2.257485 40.433719 0.551424 1.514936 0.097382 -0.013068 -352750.000000 0 0 1
33.042345 20.947014 2.594885 39.208512 0.565005 1.504566 0.099102 -0.022227 -308497.000000 0 0 1
32.709915 20.144714 3.667385 38.590125 0.551999 1.475618 0.082458 -0.011329 -717556.000000 0 0 1
32.811185 18.621614 3.491985 37.888420 0.516209 1.478500 0.104925 -0.019215 -431746.000000 0 0 1
31.954945 17.982814 2.557585 36.756515 0.512583 1.501158 0.098437 -0.034357 248475.000000 0 0 1
32.189845 16.603714 2.378685 36.297763 0.476212 1.505217 0.095766 -0.031065 20207.300000 0 0 1
31.394645 15.684714 3.389485 35.257944 0.463326 1.474514 0.120853 -0.037474 154329.000000 0 0 1
30.006545 15.614114 3.175085 33.974615 0.479800 1.477205 0.106484 -0.037236 -148732.000000 0 0 1
29.388795 14.751714 4.084585 33.136056 0.465207 1.447215 0.099061 -0.045007 -595754.000000 0 0 1
27.864485 14.808414 4.096385 31.819790 0.488485 1.441701 0.081008 -0.039410 -334918.000000 0 0 1
27.229485 14.529314 2.840485 30.993777 0.490155 1.479021 0.078457 -0.048437 -207967.000000 0 0 1
25.902385 14.970714 2.865985 30.054446 0.524061 1.475291 0.048024 -0.033962 -226115.000000 0 0 1
25.066285 14.569314 1.597885 29.036818 0.526505 1.515739 0.049163 -0.040152 -588852.000000 0 0 1
25.564785 15.069814 0.358685 29.678042 0.532645 1.558710 0.066497 -0.038063 706865.000000 0 0 1
26.674685 14.352714 -0.181715 30.291455 0.493634 1.576795 0.066632 -0.038322 -535740.000000 0 0 1
27.478385 14.975914 -1.331815 31.322730 0.499002 1.613328 0.085996 -0.035967 -98858.700000 0 0 1
28.075685 16.215314 -1.178015 32.443308 0.523754 1.607114 0.075401 -0.034089 480206.000000 0 0 1
28.986675 16.359914 -0.078515 33.284836 0.513827 1.573155 0.093457 -0.039782 -386678.000000 0 0 1
29.505005 17.807114 -0.018315 34.462138 0.543010 1.571328 0.101944 -0.027001 135022.000000 0 0 1
30.309085 18.228914 -1.114215 35.386091 0.541473 1.602289 0.086211 -0.025423 499461.000000 0 0 1
31.035685 19.424714 -0.865115 36.623513 0.559234 1.594420 0.073619 -0.012280 195643.000000 0 0 1
31.243705 20.182914 -2.205715 37.261029 0.573546 1.630027 0.070315 -0.013391 -220761.000000 0 0 1
32.004585 21.361914 -2.099615 38.536129 0.588555 1.625308 0.031022 -0.004333 189682.000000 0 0 1
31.796535 22.297514 -3.173715 38.965000 0.611568 1.652337 0.042924 -0.008774 108225.000000 0 0 1
32.880945 23.434214 -3.215715 40.505059 0.619198 1.650270 0.038774 -0.006115 26504.900000 0 0 1
32.851825 24.361514 -2.137215 40.954774 0.638076 1.623005 0.054948 -0.001891 56953.200000 0 0 1
33.500615 23.919014 -0.986315 41.175032 0.620052 1.594753 0.064231 0.006126 -851238.000000 0 0 1
33.238695 24.849714 0.196685 41.501299 0.641972 1.566057 0.072482 -0.014967 -267608.000000 0 0 1
33.872035 26.088314 0.161585 42.754427 0.656306 1.567017 0.080472 -0.008959 -617108.000000 0 0 1
35.178575 25.945414 0.657385 43.716459 0.635475 1.555758 0.079258 -0.016488 -216877.000000 0 0 1
36.118125 27.131414 0.246185 45.174032 0.644259 1.565347 0.065213 -0.011827 307528.000000 0 0 1
-36.544477 27.066014 -1.088615 45.489043 -0.637479 1.594730 0.074593 -0.022261 299829.000000 0 0 1
35.767655 27.642914 -2.017715 45.249608 0.657963 1.615402 0.065105 -0.019809 86208.400000 0 0 1
35.991075 27.190414 -3.510715 45.243798 0.646997 1.648470 0.074759 -0.017472 327621.000000 0 0 1
-36.124857 27.856014 -4.140915 45.805131 -0.656871 1.661323 0.065488 -0.014516 293636.000000 0 0 1
-35.776279 27.434214 -5.463715 45.413989 -0.654184 1.691398 0.056844 -0.015575 -180821.000000 0 0 1
36.405025 27.702014 -6.583815 46.217681 0.650466 1.713735 0.043457 -0.003571 -571651.000000 0 0 1
35.392645 26.766414 -6.522015 44.851053 0.647502 1.716729 0.047482 0.000040 -1082080.000000 0 0 1
34.360515 27.029414 -7.437115 44.345743 0.666542 1.739300 0.036411 -0.003103 -470625.000000 0 0 1
33.244275 26.003114 -7.176515 42.811752 0.663782 1.739221 0.036816 -0.001076 -1062330.000000 0 0 1
33.402825 24.579014 -7.389015 42.124508 0.634375 1.747117 0.021850 -0.004853 -760095.000000 0 0 1
34.336065 23.877114 -6.638915 42.345686 0.607628 1.728225 0.038372 -0.006774 -472864.000000 0 0 1
34.233225 22.325914 -6.766615 41.426407 0.577900 1.734872 0.041504 -0.003804 98199.500000 0 0 1
33.129355 21.715714 -6.126315 40.083141 0.580220 1.724238 0.032503 -0.003773 44705.500000 0 0 1
33.264375 20.312614 -6.259115 39.475277 0.548208 1.730026 0.043402 -0.009007 -18642.300000 0 0 1
32.113325 19.511714 -5.616315 37.993626 0.545981 1.719163 0.054202 -0.009737 179008.000000 0 0 1
30.946525 19.475314 -6.410115 37.122296 0.561701 1.744342 0.052656 -0.019583 679094.000000 0 0 1
29.806875 18.921014 -5.714515 35.764651 0.565606 1.731265 0.076451 -0.030554 634690.000000 0 0 1
28.636955 18.630514 -6.662615 34.807495 0.576780 1.763398 0.064166 -0.031681 -85073.500000 0 0 1
28.854645 17.442114 -7.394515 34.518064 0.543709 1.786691 0.057327 -0.025911 -155815.000000 0 0 1
27.668685 17.240814 -8.089115 33.589218 0.557244 1.814012 0.080570 -0.027470 -498633.000000 0 0 1
27.824385 16.148314 -9.188715 33.457390 0.525857 1.849011 0.075818 -0.028203 -358377.000000 0 0 1
26.796885 16.130614 -10.144815 32.881409 0.541858 1.884441 0.072090 -0.031092 198766.000000 0 0 1
27.105185 15.165314 -11.131815 32.993865 0.510107 1.914940 0.069206 -0.020061 -218474.000000 0 0 1
26.308185 15.337014 -12.415615 32.886047 0.527807 1.957929 0.075415 -0.022446 -1342060.000000 0 0 1
24.950685 15.111014 -12.262215 31.642398 0.544553 1.968741 0.078260 -0.025201 -504938.000000 0 0 1
24.202285 15.276414 -13.465915 31.629896 0.563043 2.010569 0.073497 -0.026783 -250981.000000 0 0 1
24.272085 14.066514 -14.461115 31.561445 0.525235 2.046753 0.070060 -0.031026 26292.400000 0 0 1
25.605285 13.699414 -14.839115 32.611408 0.491272 2.043200 0.076391 -0.037050 619471.000000 0 0 1
26.081785 14.404314 -15.936015 33.789057 0.504588 2.061937 0.081641 -0.039085 -694956.000000 0 0 1
27.501985 14.019214 -16.340215 34.927070 0.471419 2.057639 0.106882 -0.041778 -398725.000000 0 0 1
27.497785 12.680014 -16.870415 34.662975 0.432070 2.079103 0.100203 -0.036636 1384200.000000 0 0 1
28.799325 12.204814 -17.348715 35.767814 0.400844 2.077202 0.091512 -0.017629 1378630.000000 0 0 1
28.812725 10.763914 -17.932115 35.603311 0.357527 2.098631 0.062977 -0.013900 -216204.000000 0 0 1
28.089085 10.653614 -19.158515 35.630674 0.362517 2.138500 0.071837 -0.023252 97325.400000 0 0 1
28.006585 9.360214 -19.706815 35.501281 0.322544 2.159281 0.056065 -0.011642 655765.000000 0 0 1
29.332035 8.886914 -20.429015 36.833276 0.294185 2.158720 0.056842 -0.014275 137256.000000 0 0 1
29.775845 9.678514 -21.537015 38.001548 0.314273 2.173341 0.068959 -0.019095 196542.000000 0 0 1
30.335355 8.814914 -22.514115 38.792034 0.282794 2.189991 0.065474 -0.014394 -681161.000000 0 0 1
31.777285 8.380914 -22.329515 39.732138 0.257867 2.167600 0.060489 -0.014090 -534038.000000 0 0 1
32.747745 9.450414 -22.328915 40.746848 0.280949 2.150757 0.061351 -0.014320 115776.000000 0 0 1
34.051195 8.941814 -22.429815 41.743701 0.256801 2.138055 0.035854 -0.005374 414680.000000 0 0 1
35.156195 10.081714 -22.380215 42.877419 0.279275 2.119941 0.050711 -0.007389 530211.000000 0 0 1
35.289955 10.582614 -21.060815 42.437373 0.291343 2.090105 0.031268 -0.003424 -171323.000000 0 0 1
36.124105 11.689814 -21.039115 43.407915 0.312966 2.076798 0.007240 0.003230 -390437.000000 0 0 1
36.073555 12.425714 -19.629515 42.907081 0.331726 2.045966 0.000054 0.002859 6798.600000 0 0 1
-36.505837 11.793614 -18.518515 42.599306 -0.312477 2.020517 0.001931 0.009016 379802.000000 0 0 1
36.195185 12.421614 -17.369515 42.024850 0.330590 1.996888 0.001256 0.008101 165851.000000 0 0 1
-36.475607 11.645114 -16.101015 41.536987 -0.309029 1.968856 -0.009801 0.011352 -238563.000000 0 0 1
36.183125 10.388714 -15.951315 40.885063 0.279594 1.971591 -0.005314 0.009593 96397.900000 0 0 1
-36.571927 9.892214 -14.728615 40.648417 -0.264165 1.941575 0.001082 -0.007903 -91183.300000 0 0 1
36.145835 8.427514 -14.403315 39.812057 0.229061 1.940976 0.048452 -0.001319 661817.000000 0 0 1
34.856255 8.410514 -13.779315 38.413081 0.236766 1.937686 0.056709 0.003104 820315.000000 0 0 1
34.959475 8.258114 -12.416015 38.006826 0.231967 1.903584 0.057446 -0.003710 -396274.000000 0 0 1
33.815565 8.728914 -11.497215 36.767817 0.252619 1.888828 0.078054 -0.005240 -207608.000000 0 0 1
33.895215 10.137414 -11.458915 37.188164 0.290613 1.884027 0.073217 -0.010862 -173334.000000 0 0 1
32.874805 10.678914 -10.695215 36.182588 0.314083 1.870869 0.060879 -0.003610 -595935.000000 0 0 1
32.897125 10.501814 -9.122815 35.717429 0.309006 1.829075 0.077050 -0.008159 628314.000000 0 0 1
34.129785 11.018914 -8.556815 36.871097 0.312289 1.805005 0.077408 -0.005862 1101310.000000 0 0 1
34.074905 12.385314 -8.221615 37.176473 0.348627 1.793791 0.075750 -0.006581 -631911.000000 0 0 1
33.738455 12.632914 -6.768715 36.656369 0.358277 1.756515 0.069640 -0.014401 302869.000000 0 0 1
34.787645 12.212814 -5.858315 37.331661 0.337626 1.728374 0.085237 -0.009567 977762.000000 0 0 1
34.509985 12.530314 -4.512015 36.990622 0.348291 1.693078 0.078103 -0.010102 519085.000000 0 0 1
35.837595 12.385114 -3.687315 38.096202 0.332741 1.667738 0.100247 -0.004522 236229.000000 0 0 1
-36.568797 13.502014 -3.785615 39.165191 -0.353696 1.667605 0.107643 0.001437 -513257.000000 0 0 1
-35.329211 13.243014 -3.168315 37.862498 -0.358636 1.654574 0.102408 -0.014639 -535273.000000 0 0 1
-34.345312 14.372214 -3.241715 37.372044 -0.396320 1.657647 0.104379 -0.008356 -387680.000000 0 0 1
-34.668019 15.395014 -2.300015 38.002211 -0.417911 1.631357 0.120451 -0.009359 153322.000000 0 0 1
-33.682717 16.394514 -2.311115 37.531943 -0.452978 1.632413 0.125118 -0.007657 -59652.400000 0 0 1
-33.874197 17.516114 -1.264115 38.155910 -0.477228 1.603933 0.119081 -0.004027 -110220.000000 0 0 1
-34.856973 18.448014 -1.650715 39.472302 -0.486772 1.612628 0.090557 0.001573 86175.700000 0 0 1
-35.432396 19.138914 -0.590015 40.275313 -0.495252 1.585446 0.080931 -0.000345 -593307.000000 0 0 1
-36.521827 20.029314 -1.149815 41.669405 -0.501630 1.598394 0.075819 -0.004170 -498994.000000 0 0 1
-36.112387 21.360614 -1.401915 41.980301 -0.534149 1.604197 0.076272 -0.003101 -116573.000000 0 0 1
36.349395 21.879114 -2.464215 42.497606 0.541824 1.628814 0.066928 -0.000750 -369792.000000 0 0 1
-36.307087 23.136614 -3.188315 43.170277 -0.567358 1.644718 0.077658 -0.015424 658353.000000 0 0 1
-35.022757 22.925214 -3.810215 42.031854 -0.579589 1.661572 0.082549 -0.005735 789916.000000 0 0 1
-34.466742 24.083814 -4.376115 42.274541 -0.609890 1.674499 0.081109 -0.012945 -298029.000000 0 0 1
-32.953897 24.070414 -4.595315 41.066544 -0.630856 1.682930 0.065188 -0.019203 -232136.000000 0 0 1
-32.675027 23.222214 -5.698715 40.489554 -0.617873 1.712011 0.053455 -0.009445 182877.000000 0 0 1
-31.274937 23.271414 -5.966715 39.437065 -0.639709 1.722677 0.054445 0.001750 264888.000000 0 0 1
-30.920807 22.418914 -7.226315 38.870601 -0.627336 1.757791 0.055889 -0.014904 83187.300000 0 0 1
-31.515917 22.862014 -8.435815 39.838269 -0.627578 1.784163 0.063197 -0.026022 -105668.000000 0 0 1
-30.779217 22.376014 -9.528815 39.228109 -0.628608 1.816159 0.020454 -0.026646 -116948.000000 0 0 1
-31.538147 22.233714 -10.838815 40.080827 -0.614059 1.844630 0.035501 -0.019273 -223092.000000 0 0 1
-32.112257 23.442414 -11.289715 41.330394 -0.630587 1.847470 0.030073 -0.021587 -109841.000000 0 0 1
-32.807607 23.219014 -12.506815 42.093730 -0.615897 1.872470 0.005094 -0.015991 -435815.000000 0 0 1
-33.429137 24.522514 -13.061515 43.467966 -0.632901 1.875998 0.035594 -0.012044 376509.000000 0 0 1
-32.577477 25.656414 -13.414515 43.583171 -0.667104 1.883667 0.026065 -0.017634 116070.000000 0 0 1
-31.728257 25.558114 -14.532115 43.256004 -0.678105 1.913416 0.024643 -0.020227 377094.000000 0 0 1
-30.297217 26.187714 -14.401415 42.557238 -0.712772 1.916014 0.021822 -0.021116 1216200.000000 0 0 1
-29.340527 25.502414 -13.531615 41.162413 -0.715528 1.905762 0.026756 -0.020720 697727.000000 0 0 1
-29.718597 25.193814 -12.202815 40.826853 -0.703184 1.874328 0.037966 -0.015752 -1318980.000000 0 0 1
-30.200337 26.322514 -11.263815 41.615005 -0.716899 1.844882 0.045195 -0.007566 -1145190.000000 0 0 1
-29.135897 27.040414 -10.835015 41.200510 -0.748114 1.836909 0.045864 -0.001223 -972570.000000 0 0 1
-29.580077 28.323114 -10.419215 42.258014 -0.763694 1.819927 0.024770 -0.005167 495392.000000 0 0 1
-28.413357 29.103514 -9.734715 41.822220 -0.797397 1.805715 0.025224 -0.006431 624697.000000 0 0 1
-28.510317 30.492814 -9.562915 42.826385 -0.818985 1.795990 0.025602 -0.017323 420006.000000 0 0 1
-27.198377 30.880714 -9.116015 42.148214 -0.848716 1.788804 0.076603 -0.019385 963369.000000 0 0 1
34.725105 -25.529436 34.019763 54.908372 -0.633953 0.902597 0.033900 -0.019019 -243479.000000 0 0 1
34.242315 -24.221586 33.923751 53.944807 -0.615647 0.890710 0.031188 -0.017921 67572.400000 0 0 1
33.364845 -23.916286 -33.200125 52.796306 -0.621920 2.250849 0.027059 -0.009337 151110.000000 0 0 1
33.278285 -22.374286 -32.987175 51.925010 -0.591919 2.259174 0.027749 -0.008977 346563.000000 0 0 1
32.657035 -21.737086 34.034023 51.935513 -0.587276 0.856199 0.022340 -0.008496 402651.000000 0 0 1
32.124745 -20.492786 -33.746295 50.899567 -0.567831 2.295612 0.020236 -0.006878 112455.000000 0 0 1
31.639085 -19.669986 33.262871 49.943555 -0.556222 0.841950 0.026189 -0.011304 -197341.000000 0 0 1
32.747175 -19.208086 32.533786 49.997753 -0.530476 0.862284 0.036046 -0.018003 68721.900000 0 0 1
32.446655 -18.913586 31.208996 48.831451 -0.527761 0.877447 0.039054 -0.015055 -67177.600000 0 0 1
33.724755 -18.726286 30.356406 49.087109 -0.506879 0.904067 0.038570 -0.019286 146800.000000 0 0 1
34.500735 -17.535786 30.532796 49.295599 -0.470244 0.902841 0.035501 -0.021086 -4031.750000 0 0 1
35.642365 -17.620386 29.723406 49.642089 -0.459131 0.928852 0.048668 -0.022603 -734999.000000 0 0 1
-36.554297 -16.548786 30.150826 50.191147 0.425112 0.926395 0.049265 -0.028634 35513.200000 0 0 1
-35.433393 -16.429986 29.263826 48.804111 0.434177 0.927773 0.048563 -0.022379 574106.000000 0 0 1
-34.475568 -15.459886 29.598016 47.995993 0.421548 0.906282 0.043376 -0.024173 770798.000000 0 0 1
-33.144477 -16.094786 30.167316 47.620011 0.452057 0.884727 0.058790 -0.025709 196183.000000 0 0 1
-32.205097 -15.133786 30.572576 46.913560 0.439295 0.861001 0.051098 -0.017542 -331007.000000 0 0 1
-31.167577 -15.869486 31.179536 46.855329 0.470954 0.842710 0.051497 -0.019862 123000.000000 0 0 1
-30.014447 -15.012786 31.785456 46.223002 0.463796 0.812543 0.054506 -0.023151 441505.000000 0 0 1
-30.450727 -14.293786 32.957580 47.093111 0.438875 0.795625 0.047344 -0.018761 630573.000000 0 0 1
-29.439707 -13.379986 33.349080 46.453003 0.426580 0.770001 0.042687 -0.018423 168047.000000 0 0 1
-29.856487 -12.754286 -33.497765 46.649565 0.403721 2.371825 0.036647 -0.001245 -215298.000000 0 0 1
-29.792847 -13.721786 -32.464455 46.150211 0.431612 2.351039 0.048306 -0.004596 263403.000000 0 0 1
-29.834117 -13.176086 -31.188715 45.126707 0.415884 2.333857 0.045267 0.002055 -315414.000000 0 0 1
-29.761007 -14.327886 -30.093015 44.683279 0.448683 2.309694 0.047072 -0.003330 -191592.000000 0 0 1
-31.032187 -14.860386 -29.817525 45.529249 0.446601 2.284859 0.038157 0.002948 -180956.000000 0 0 1
-31.061717 -15.518986 -28.555825 44.956694 0.463342 2.259045 0.056936 0.000360 828722.000000 0 0 1
-32.352267 -16.384486 -28.346915 46.028992 0.468786 2.234260 0.045178 -0.003493 471004.000000 0 0 1
-32.232627 -17.546386 -29.104785 46.839155 0.498508 2.241296 0.036794 0.002134 405106.000000 0 0 1
-33.353867 -18.405286 -28.979565 47.864916 0.504238 2.221121 0.028614 0.003160 27765.300000 0 0 1
-33.038287 -19.677786 -29.771965 48.632433 0.537182 2.229615 0.031741 -0.003614 -433130.000000 0 0 1
-34.146824 -20.462286 -30.051985 49.878177 0.539864 2.217436 0.029153 -0.007226 -118486.000000 0 0 1
-33.725117 -21.684386 -30.648005 50.466784 0.571420 2.223442 0.028401 -0.013686 407857.000000 0 0 1
-35.010624 -22.483986 -30.984135 51.877645 0.570876 2.210869 0.032485 -0.013297 571616.000000 0 0 1
-35.645399 -23.086786 -29.830145 51.898282 0.574742 2.183133 0.026040 -0.012271 1030130.000000 0 0 1
36.288745 -23.713786 -30.118075 52.785558 -0.578814 2.178001 0.034776 -0.010870 1088560.000000 0 0 1
36.350835 -25.280576 -30.319425 53.663379 -0.607673 2.171221 0.029849 -0.013241 98223.400000 0 0 1
-36.292347 -25.611166 -31.590245 54.506971 0.614535 2.188989 0.047794 -0.013455 -181805.000000 0 0 1
-35.737084 -26.897896 -31.584795 54.756144 0.645202 2.185635 0.045872 -0.013917 168655.000000 0 0 1
-35.656117 -27.580916 -32.973385 55.850781 0.658388 2.202330 0.053357 -0.020609 -250148.000000 0 0 1
36.276295 -28.110296 -33.205095 56.645712 -0.659244 2.197143 0.048029 -0.019612 -559780.000000 0 0 1
36.217835 -29.271086 -33.997065 57.656990 -0.679718 2.201414 0.050981 -0.018284 123682.000000 0 0 1
-36.316227 -30.528166 -33.382865 58.010800 0.699024 2.183962 0.050236 -0.025507 -37642.500000 0 0 1
36.254575 -31.076266 -32.251945 57.622188 -0.708641 2.164837 0.054177 -0.029161 -50304.000000 0 0 1
-36.049607 -31.901626 -31.536465 57.548558 0.724430 2.150765 0.044336 -0.030596 -128728.000000 0 0 1
36.555465 -32.494016 -30.247015 57.506913 -0.726646 2.124654 0.038264 -0.033863 -212568.000000 0 0 1
35.541975 -33.436006 -30.420365 57.503018 -0.754877 2.128244 0.059486 -0.029071 -184459.000000 0 0 1
35.030835 -33.851206 -29.152705 56.770977 -0.768274 2.110072 0.064496 -0.028534 988909.000000 0 0 1
33.682505 33.543539 -29.178725 55.777040 0.783331 2.121318 0.065028 -0.031469 962873.000000 0 0 1
32.564665 -34.029356 -29.762235 55.715753 -0.807389 2.134334 0.075439 -0.031583 -352792.000000 0 0 1
31.442735 33.525837 -29.252475 54.482425 0.817450 2.137573 0.068430 -0.023851 -187862.000000 0 0 1
30.102525 33.696897 -29.980105 54.225912 0.841677 2.156606 0.025498 -0.013428 51356.000000 0 0 1
30.126025 33.178393 -31.328025 54.679322 0.833578 2.180886 0.035330 -0.013438 -100708.000000 0 0 1
28.928675 33.552834 -31.972835 54.634450 0.859272 2.195940 0.025673 -0.006464 63041.500000 0 0 1
28.713635 32.855394 -33.296555 54.887251 0.852567 2.222618 0.026554 -0.020509 59474.500000 0 0 1
28.497175 31.492437 -33.243555 53.935114 0.835286 2.234911 0.019139 -0.015702 -48974.700000 0 0 1
28.382875 30.993477 33.667261 53.848562 0.829337 0.895381 0.027285 -0.016550 4086.350000 0 0 1
28.419645 29.462037 33.562467 52.935121 0.803405 0.884043 0.027654 -0.026826 -369771.000000 0 0 1
29.632535 28.964137 34.035564 53.623017 0.773992 0.883151 0.037789 -0.023132 -762018.000000 0 0 1
29.577135 27.578877 -33.822365 52.719576 0.750451 2.267317 0.037390 -0.027959 217143.000000 0 0 1
30.942935 26.870697 -33.635685 53.017534 0.715077 2.258062 0.059402 -0.027836 -165348.000000 0 0 1
31.719595 27.458937 -32.643705 53.157666 0.713525 2.232031 0.061847 -0.025507 -778478.000000 0 0 1
32.841665 26.603917 -32.494005 53.312322 0.680849 2.226229 0.074906 -0.022285 205251.000000 0 0 1
33.563815 27.023627 -31.159365 53.176236 0.677868 2.196866 0.092270 -0.027375 -601443.000000 0 0 1
34.191645 28.310857 -31.123165 54.214616 0.691585 2.182268 0.078681 -0.023151 -331851.000000 0 0 1
33.565975 29.586477 -31.134135 54.510262 0.722467 2.178716 0.089692 -0.013872 -426724.000000 0 0 1
32.515105 29.739497 -30.014485 53.315467 0.740843 2.168759 0.076426 -0.011255 -217511.000000 0 0 1
33.077585 29.917987 -28.794075 53.087770 0.735284 2.144071 0.061336 -0.012232 -87165.000000 0 0 1
32.093515 30.048917 -27.756145 51.993602 0.752508 2.133929 0.066088 -0.014593 317977.000000 0 0 1
32.650055 30.420367 -26.354805 51.826639 0.750061 2.104260 0.073110 -0.018076 71458.700000 0 0 1
33.264405 31.685637 -26.315805 52.943572 0.761096 2.090996 0.067812 -0.018741 -4363.100000 0 0 1
33.672985 32.039137 -24.998815 52.776102 0.760540 2.064257 0.053900 -0.018295 71431.300000 0 0 1
34.011085 33.573394 -25.051545 53.958378 0.778922 2.053613 0.058207 -0.016652 370928.000000 0 0 1
32.886305 -33.769836 -24.951915 53.333938 -0.798652 2.057645 0.057343 -0.003769 392530.000000 0 0 1
33.210935 -32.398026 -24.713215 52.567493 -0.773009 2.060227 0.048443 -0.013237 -543229.000000 0 0 1
33.674715 -31.569186 -25.916555 52.936450 -0.753138 2.082403 0.046916 -0.019199 1040990.000000 0 0 1
34.921825 -31.861556 -26.589145 54.237213 -0.739606 2.083159 0.059709 -0.025948 1186580.000000 0 0 1
36.085855 -31.416016 -25.894305 54.402850 -0.716327 2.066867 0.062959 -0.027557 431354.000000 0 0 1
-35.753257 -32.000146 -26.351685 54.742269 0.730061 2.073022 0.037260 -0.017541 193695.000000 0 0 1
-35.583096 -33.302916 -25.882685 55.182917 0.752309 2.058993 0.034701 -0.015367 -285845.000000 0 0 1
-35.356075 -33.597766 -24.470415 54.567968 0.759904 2.035815 0.045344 -0.012695 456369.000000 0 0 1
-34.059196 -33.015126 -23.774815 53.059110 0.769834 2.035415 0.031983 -0.007016 682377.000000 0 0 1
-33.974227 -31.640706 -23.731715 52.139972 0.749849 2.043341 0.012273 -0.009746 -316141.000000 0 0 1
-33.607687 -31.201756 -22.413215 51.042907 0.748292 2.025399 0.029659 -0.010665 -223702.000000 0 0 1
-33.582507 -29.646746 -22.266915 50.025292 0.723232 2.032097 0.023081 0.001035 437221.000000 0 0 1
-34.826993 -29.006716 -22.521915 50.611715 0.694471 2.031964 0.008499 0.004138 -28822.300000 0 0 1
-35.163614 -28.779436 -23.900515 51.341701 0.685886 2.055017 0.035608 0.006181 245821.000000 0 0 1
-36.311017 -27.743176 -23.984815 51.608576 0.652428 2.054143 0.025987 0.012534 387977.000000 0 0 1
-35.822396 -26.456026 -23.684615 50.439333 0.636122 2.059596 0.013228 0.009292 -276827.000000 0 0 1
36.587515 -25.524586 -24.344215 50.821172 -0.609134 2.070331 0.021543 0.001016 -321272.000000 0 0 1
-36.082907 -24.896086 -25.625685 50.778608 0.603962 2.099779 0.020987 0.001664 2380.550000 0 0 1
-35.187112 -23.819386 -25.327575 49.466979 0.595078 2.108319 0.015932 -0.000354 111697.000000 0 0 1
-34.604810 -23.325386 -26.536125 49.454347 0.593097 2.137173 0.019415 -0.004756 -545732.000000 0 0 1
-33.463837 -22.369486 -26.261625 48.061369 0.589248 2.148878 0.025687 -0.008342 -708146.000000 0 0 1
-33.806027 -21.147486 -25.636835 47.405811 0.558997 2.142179 0.036764 -0.013135 10084.200000 0 0 1
-34.757017 -20.323686 -26.290495 48.086303 0.529121 2.149257 0.043176 -0.010809 328989.000000 0 0 1
-36.115237 -20.169486 -25.550065 48.620205 0.509327 2.124103 0.059839 -0.015353 -21869.200000 0 0 1
-36.261787 -19.350586 -24.381315 47.789234 0.490193 2.106195 0.049288 -0.021911 154325.000000 0 0 1
-35.385531 -19.652486 -23.270815 46.689258 0.506966 2.092571 0.030488 -0.014187 245952.000000 0 0 1
-35.770675 -20.936986 -22.477315 47.150061 0.529549 2.067714 0.032646 0.002974 -101233.000000 0 0 1
36.224775 -20.813286 -21.791415 47.119985 -0.521503 2.051571 0.031046 0.002925 -182367.000000 0 0 1
35.782685 -22.059586 -21.217415 47.087202 -0.552455 2.038232 0.033279 0.019869 -390874.000000 0 0 1
34.680675 -21.817586 -20.208615 45.685276 -0.561542 2.029007 0.039598 0.008203 -225331.000000 0 0 1
33.482985 -21.229586 -20.722415 44.735043 -0.565074 2.052428 0.040867 0.018379 -131051.000000 0 0 1
32.524245 -21.395486 -19.722815 43.641526 -0.581861 2.039721 0.038720 0.019411 -303054.000000 0 0 1
31.086125 -20.936386 -20.030815 42.496035 -0.592716 2.061625 0.044548 0.017502 -250249.000000 0 0 1
30.517855 -21.693286 -21.086515 42.971843 -0.617964 2.083695 0.040237 0.016507 998159.000000 0 0 1
29.201815 -21.342886 -21.562715 42.109565 -0.631149 2.108380 0.056121 0.011515 1027980.000000 0 0 1
29.124095 -20.081686 -22.446015 41.896427 -0.603659 2.136192 0.055206 0.013988 -218956.000000 0 0 1
29.517005 -18.898686 -21.758915 41.253658 -0.569501 2.126383 0.040907 0.012259 28858.000000 0 0 1
29.503745 -17.704786 -22.543515 41.135635 -0.540483 2.150802 0.033689 0.012595 5670.740000 0 0 1
30.135115 -16.491586 -21.883115 40.730435 -0.500733 2.137990 0.024577 0.007948 -239519.000000 0 0 1
29.338645 -16.136986 -20.787815 39.411822 -0.502862 2.126394 0.011874 0.004434 813927.000000 0 0 1
30.154425 -15.501686 -19.762315 39.244627 -0.474845 2.098519 0.002658 0.002095 302801.000000 0 0 1
31.215135 -16.275886 -18.968815 39.988812 -0.480629 2.065025 0.016291 -0.001332 -324342.000000 0 0 1
32.383145 -16.474886 -19.706415 41.333192 -0.470622 2.067773 0.018332 -0.001893 -477703.000000 0 0 1
33.219785 -17.448686 -19.166615 42.135139 -0.483643 2.043039 0.018923 0.006978 -436426.000000 0 0 1
34.410265 -17.874686 -20.021215 43.639659 -0.479093 2.047423 0.032774 -0.011194 -298134.000000 0 0 1
35.398405 -16.887886 -20.151015 44.094344 -0.445144 2.045413 0.035800 -0.019006 -205041.000000 0 0 1
36.366665 -17.274586 -21.083515 45.447335 -0.443458 2.053201 0.057496 -0.026819 3852.200000 0 0 1
-35.962228 -16.059186 -21.538715 44.889816 0.419987 2.071238 0.070854 -0.033518 369828.000000 0 0 1
-35.032250 -15.520786 -20.587115 43.496927 0.417053 2.063830 0.082480 -0.036431 380252.000000 0 0 1
-34.284975 -14.518686 -21.273915 42.881595 0.400575 2.089907 0.094125 -0.037137 -706116.000000 0 0 1
-32.951897 -14.074386 -20.612015 41.337284 0.403664 2.092814 0.097114 -0.035259 -348465.000000 0 0 1
-31.942947 -15.010986 -20.742015 40.937913 0.439304 2.102114 0.098401 -0.042239 -408106.000000 0 0 1
-32.036757 -16.200886 -20.020915 41.105468 0.468195 2.079519 0.088192 -0.040122 -720563.000000 0 0 1
-30.927977 -17.196386 -20.460815 40.876649 0.507449 2.095031 0.073703 -0.042830 252692.000000 0 0 1
-30.914757 -18.292586 -19.558015 40.900573 0.534302 2.069383 0.066155 -0.045535 162552.000000 0 0 1
-29.881737 -19.188186 -19.896315 40.705872 0.570828 2.081490 0.070115 -0.043696 -236649.000000 0 0 1
-29.996277 -20.558286 -19.270915 41.155655 0.600834 2.058099 0.056639 -0.017584 -60033.900000 0 0 1
-30.875547 -21.389786 -20.018915 42.562651 0.605860 2.060472 0.052930 -0.010687 355596.000000 0 0 1
-30.749537 -22.717086 -19.498115 42.915924 0.636280 2.042420 0.044631 0.012070 -316939.000000 0 0 1
-31.880207 -23.691686 -19.880315 44.417007 0.639101 2.034857 0.019794 0.008491 -310389.000000 0 0 1
-31.768897 -24.026686 -21.239215 45.140322 0.647518 2.060671 0.017807 0.001286 231815.000000 0 0 1
-32.726047 -24.928386 -21.757015 46.538009 0.650966 2.057269 0.020423 0.006217 -156991.000000 0 0 1
-32.685147 -25.024486 -23.291315 47.297242 0.653425 2.085694 0.015459 0.006585 787806.000000 0 0 1
-31.382027 -25.314916 -23.835715 46.838210 0.678794 2.104697 0.030402 0.006182 586529.000000 0 0 1
-31.433967 -25.543676 -25.210085 47.708721 0.682385 2.127531 0.030557 0.009189 1118770.000000 0 0 1
-30.086407 -26.021706 -25.928935 47.482952 0.713080 2.148460 0.037426 -0.001346 852037.000000 0 0 1
-29.165377 -24.994986 -26.182915 46.485628 0.708549 2.169107 0.042613 -0.011292 -835639.000000 0 0 1
-27.900627 -25.586866 -26.267055 46.077010 0.742167 2.177386 0.042175 -0.012209 -22938.400000 0 0 1
-26.806657 -24.498086 -26.536645 44.977179 0.740431 2.201858 0.052888 -0.013867 70705.300000 0 0 1
-26.712797 -24.028786 -27.881375 45.478865 0.732552 2.230727 0.060112 -0.019735 298376.000000 0 0 1
-25.579637 -23.153286 -27.931715 44.391139 0.735651 2.251343 0.074489 -0.012416 358175.000000 0 0 1
-25.354287 -22.503286 -29.303705 44.810098 0.725896 2.283594 0.057174 -0.016094 42144.100000 0 0 1
-24.787427 -23.467686 -30.202365 45.577754 0.758056 2.295156 0.054591 -0.019130 193686.000000 0 0 1
-24.311727 -22.865486 -31.367195 45.801653 0.754752 2.325192 0.049491 -0.006583 -250686.000000 0 0 1
-23.847927 -23.925886 -32.395265 46.804111 0.787030 2.335254 0.042456 -0.010545 -138632.000000 0 0 1
-24.869027 -24.555486 -33.143545 48.165703 0.779054 2.329684 0.032407 -0.012763 -286974.000000 0 0 1
-24.604027 -25.853666 -33.576705 49.001687 0.810159 2.325696 0.039306 -0.016030 50494.100000 0 0 1
-20.420327 -14.641486 -11.721715 27.726548 0.622048 2.007287 0.037126 0.002417 -175130.000000 0 0 1
-20.557027 -14.095286 -10.467115 27.033848 0.601042 1.968373 0.050933 0.000611 55244.900000 0 0 1
-19.543627 -14.596986 -9.629015 26.224860 0.641509 1.946762 0.039629 -0.007100 -181408.000000 0 0 1
-19.654627 -14.108386 -8.174415 25.537658 0.622583 1.896624 0.061164 -0.022263 374455.000000 0 0 1
-20.901127 -14.599986 -7.669815 26.624101 0.609736 1.863015 0.080439 -0.026804 694329.000000 0 0 1
-21.263327 -14.100586 -6.419515 26.309044 0.585558 1.817289 0.079875 -0.030431 622704.000000 0 0 1
-22.519427 -14.727486 -5.695215 27.503798 0.579175 1.779376 0.092451 -0.032603 351952.000000 0 0 1
-22.381727 -16.070986 -5.286615 28.056489 0.622731 1.760357 0.077176 -0.031437 355200.000000 0 0 1
-21.770427 -16.187586 -4.006315 27.423348 0.639366 1.717412 0.089728 -0.028287 -81725.200000 0 0 1
-21.733427 -17.625686 -3.491215 28.199206 0.681409 1.694920 0.069008 -0.012638 -116195.000000 0 0 1
-22.986227 -18.111986 -3.092415 29.427431 0.667350 1.676077 0.065343 -0.013765 -29999.200000 0 0 1
-22.758327 -19.166286 -2.166415 29.832555 0.699928 1.643479 0.051146 -0.004912 -562601.000000 0 0 1
-23.959927 -20.072486 -2.007315 31.321113 0.697341 1.634929 0.023873 -0.011442 -516975.000000 0 0 1
-24.176627 -20.982686 -3.106315 32.162581 0.714790 1.667529 0.007752 -0.013095 -232983.000000 0 0 1
-25.050827 -22.007386 -2.733115 33.456522 0.720814 1.652579 0.023363 -0.010248 -314276.000000 0 0 1
-24.909727 -23.219486 -3.684715 34.252243 0.750294 1.678581 0.020533 -0.010067 -572754.000000 0 0 1
-23.647527 -23.797486 -3.737615 33.756416 0.788559 1.681747 0.020256 -0.001825 -956795.000000 0 0 1
-23.339027 -24.500186 -4.945615 34.196906 0.809666 1.715927 0.025694 0.001472 1284510.000000 0 0 1
-21.842427 -24.282486 -5.442715 33.111235 0.838250 1.735922 0.025585 -0.001014 1079860.000000 0 0 1
-21.598927 -23.007986 -6.003915 32.123637 0.816976 1.758802 0.020655 -0.002691 44096.200000 0 0 1
-21.796627 -21.820286 -5.174815 31.272936 0.785941 1.737034 0.014132 0.004130 -656966.000000 0 0 1
-21.877527 -20.522186 -6.012915 30.593160 0.753443 1.768629 0.028067 -0.005262 98388.500000 0 0 1
-20.664327 -20.186686 -6.653215 29.644257 0.773706 1.797160 0.010729 -0.003351 19313.800000 0 0 1
-20.928427 -19.104886 -7.492915 29.311081 0.739879 1.829300 0.009946 -0.002864 128216.000000 0 0 1
-19.688227 -18.695486 -8.304515 28.392119 0.759540 1.867630 0.025630 -0.007437 -439193.000000 0 0 1
-19.422627 -19.784386 -9.262115 29.230928 0.794625 1.893214 0.008853 -0.009069 451943.000000 0 0 1
-18.138927 -19.624286 -9.880415 28.491330 0.824711 1.924939 0.061780 -0.002080 254777.000000 0 0 1
-17.909127 -18.280086 -10.700115 27.737895 0.795648 1.966826 0.068546 -0.002178 -454397.000000 0 0 1
-17.427527 -17.128286 -10.001215 26.403052 0.776739 1.959285 0.081057 -0.007275 689222.000000 0 0 1
-16.154227 -17.331186 -9.376515 25.480347 0.820532 1.947643 0.108921 -0.013691 203441.000000 0 0 1
-15.601427 -16.216186 -8.425515 24.028286 0.804717 1.929061 0.089636 -0.012773 47992.500000 0 1 0
-16.190727 -16.397586 -7.196815 24.141554 0.791746 1.873507 0.063800 -0.009602 -43365.200000 0 1 0
-16.321027 -15.134686 -6.568915 23.207440 0.747701 1.857771 0.067668 -0.013664 -135953.000000 0 1 0
-16.976827 -15.292886 -5.218115 23.437443 0.733262 1.795318 0.062071 -0.019113 -65098.600000 0 1 0
-17.454327 -14.162286 -4.510015 22.925185 0.681648 1.768815 0.072475 -0.015748 188499.000000 0 1 0
-18.084027 -14.553386 -3.292215 23.445080 0.677639 1.711684 0.086656 -0.008257 -74617.600000 0 1 0
-18.779927 -13.384886 -2.588715 23.206514 0.619214 1.682580 0.081649 -0.015622 -234651.000000 0 1 0
-19.939327 -12.989486 -3.282815 24.022497 0.577394 1.707881 0.093772 -0.031418 493213.000000 0 1 0
-20.719227 -12.069086 -2.511715 24.109291 0.527457 1.675166 0.100746 -0.022916 486896.000000 0 1 0
-22.259227 -12.228886 -2.608215 25.530797 0.502371 1.673134 0.094712 -0.020278 214301.000000 0 0 1
-22.967227 -11.638586 -3.679215 26.009360 0.469031 1.712730 0.106767 -0.031005 -93466.700000 0 0 1
-24.238327 -12.206186 -3.790015 27.401673 0.466516 1.709554 0.091152 -0.021984 -777240.000000 0 0 1
-25.048777 -11.667486 -4.945415 28.071847 0.435908 1.747890 0.103722 -0.032493 -595857.000000 0 0 1
-24.496727 -12.050386 -6.193115 27.993858 0.457161 1.793873 0.103762 -0.037616 168301.000000 0 0 1
-24.931927 -11.125086 -7.162815 28.225422 0.419705 1.827374 0.106725 -0.038874 -126208.000000 0 0 1
-24.238727 -11.264886 -8.535115 28.058185 0.435050 1.879888 0.114435 -0.039202 -669658.000000 0 0 1
-22.924927 -10.821886 -8.526115 26.746217 0.441045 1.895237 0.106413 -0.041268 -769897.000000 0 0 1
-22.352827 -11.094786 -9.763315 26.796744 0.460722 1.943728 0.078634 -0.026185 43908.700000 0 0 1
-21.039627 -10.278786 -9.961415 25.446987 0.454441 1.973011 0.081984 -0.033871 132171.000000 0 0 1
-21.211827 -8.877486 -10.128215 25.126323 0.396366 1.985689 0.071980 -0.037116 300414.000000 0 0 1
-19.940727 -8.295686 -9.973415 23.789073 0.394238 2.003408 0.087182 -0.033682 -220960.000000 0 1 0
-19.792727 -6.945686 -10.634615 23.517858 0.337495 2.040019 0.092522 -0.042262 -192890.000000 0 1 0
-19.483327 -7.100486 -12.020015 23.968681 0.349480 2.096115 0.103486 -0.034450 408203.000000 0 1 0
-19.290327 -5.926086 -12.702015 23.844840 0.298054 2.132578 0.099843 -0.041775 -711399.000000 0 1 0
-18.621827 -6.005886 -14.034515 24.079259 0.311986 2.193024 0.112455 -0.035925 -805794.000000 0 1 0
-19.289027 -6.662686 -15.076415 25.372352 0.332583 2.207075 0.114610 -0.043902 541296.000000 0 0 1
-18.569127 -6.701686 -16.368215 25.644561 0.346356 2.263048 0.118247 -0.042511 350323.000000 0 0 1
-19.275427 -7.675186 -17.354915 27.048912 0.378941 2.267395 0.101724 -0.039778 580320.000000 0 0 1
-20.629727 -7.330386 -17.688415 28.146052 0.341416 2.250357 0.091058 -0.038233 958327.000000 0 0 1
-20.918127 -8.173986 -18.818315 29.300359 0.372516 2.268234 0.108561 -0.041144 -380984.000000 0 0 1
-22.371427 -7.971286 -19.280615 30.590264 0.342290 2.252718 0.092182 -0.039060 -618104.000000 0 0 1
-22.549827 -6.755286 -20.011515 30.896429 0.291064 2.275354 0.095598 -0.035900 872488.000000 0 0 1
-23.805127 -6.540386 -20.676415 32.202094 0.268131 2.268008 0.069800 -0.032480 1308.090000 0 0 1
-24.995527 -6.187086 -19.849615 32.512515 0.242650 2.227516 0.086277 -0.029112 -1050740.000000 0 0 1
-24.956027 -4.900586 -19.288415 31.919617 0.193902 2.219659 0.078848 -0.018032 -308583.000000 0 0 1
-26.122347 -4.731886 -18.535215 32.377800 0.179200 2.180308 0.098234 -0.012678 -464967.000000 0 0 1
-26.301997 -3.316086 -17.852115 31.960749 0.125416 2.163450 0.090543 -0.007923 20443.300000 0 0 1
-26.414387 -2.243786 -18.808615 32.504129 0.084742 2.187873 0.094278 -0.008540 1299020.000000 0 0 1
-27.735597 -2.227486 -19.423215 33.933557 0.080139 2.180213 0.110294 -0.007701 1040190.000000 0 0 1
-28.175647 -1.040586 -20.276215 34.728588 0.036915 2.194257 0.107273 -0.007652 -186732.000000 0 0 1
-27.685327 -0.987086 -21.601115 35.129188 0.035639 2.233062 0.098879 -0.002995 51012.300000 0 0 1
-28.374557 -1.733086 -22.588715 36.309353 0.061003 2.242242 0.097728 -0.000176 -128816.000000 0 0 1
-27.594247 -1.612386 -23.923315 36.556357 0.058366 2.284215 0.093345 -0.004521 -299575.000000 0 0 1
-27.648507 -0.442486 -24.718715 37.089764 0.016003 2.300242 0.096834 0.001856 292262.000000 0 0 1
-27.025397 0.741714 -24.186615 36.275537 -0.027438 2.300632 0.084594 0.006153 -514299.000000 0 0 1
-25.524607 0.748014 -23.949115 35.008930 -0.029297 2.324146 0.079984 0.005695 -574606.000000 0 0 1
-24.716227 0.521414 -25.118415 35.243418 -0.021093 2.364154 0.068174 0.006120 638418.000000 0 0 1
-23.334627 0.478814 -24.757815 34.024748 -0.020517 2.385674 0.061816 0.005244 661563.000000 0 0 1
-22.371927 0.015514 -25.880835 34.209954 -0.000693 2.428786 0.055740 -0.001202 -122292.000000 0 0 1
-22.322827 0.872214 -27.009325 35.051006 -0.039053 2.450535 0.033151 0.007389 -125256.000000 0 0 1
-21.343127 0.316814 -27.822415 35.067310 -0.014843 2.487171 0.019534 0.004547 -392603.000000 0 0 1
-21.188927 1.111514 -29.123145 36.032814 -0.052409 2.511953 0.019370 0.020315 -53738.300000 0 0 1
-20.463727 2.342114 -29.018015 35.585036 -0.113956 2.524312 0.034663 0.019168 340124.000000 0 0 1
-20.515727 3.183214 -30.177095 36.629018 -0.153932 2.538980 0.032139 0.012027 130992.000000 0 0 1
-19.803627 2.655614 -31.506755 37.308331 -0.133302 2.576421 0.028215 0.009387 755567.000000 0 0 1
-18.379027 2.522614 -31.417245 36.485552 -0.136403 2.608201 0.008919 0.012947 385676.000000 0 0 1
-17.987527 2.049214 -32.632795 37.318222 -0.113435 2.635090 0.011536 0.010334 499395.000000 0 0 1
-16.425927 1.958314 -32.646775 36.598606 -0.118661 2.672596 0.014346 -0.003935 563189.000000 0 0 1
-15.660927 3.125214 -32.587735 36.290385 -0.196967 2.685934 0.019418 0.005589 672679.000000 0 0 1
-14.331027 2.908914 -33.084515 36.172161 -0.200259 2.725414 0.014663 -0.001065 376686.000000 0 0 1
-13.470527 4.129414 -33.272525 36.132646 -0.297457 2.741035 0.015670 0.005051 -659962.000000 0 0 1
-13.158027 4.772514 -32.077645 34.998370 -0.347950 2.730155 0.033438 -0.009524 103458.000000 0 0 1
-13.054527 6.144514 -32.312495 35.387470 -0.439918 2.721633 0.046800 -0.000520 -291803.000000 0 0 1
-12.627527 6.918614 -31.025735 34.204062 -0.501229 2.707085 0.049695 -0.018583 736699.000000 0 0 1
-11.339627 6.524814 -30.490055 33.178363 -0.522134 2.736267 0.068628 -0.027350 1202940.000000 0 0 1
-11.428727 5.442214 -29.560125 32.156407 -0.444417 2.736995 0.073162 -0.027871 -383199.000000 0 0 1
-10.046727 4.798114 -29.321935 31.364542 -0.445551 2.778704 0.089996 -0.041587 -325250.000000 0 0 1
-9.439527 4.157514 -30.444605 32.144417 -0.414873 2.814933 0.083975 -0.037021 210827.000000 0 0 1
-10.045527 2.934914 -30.736935 32.469763 -0.284250 2.813419 0.080359 -0.031225 -350087.000000 0 0 1
-9.813627 2.359014 -32.155365 33.702221 -0.235906 2.837444 0.071940 -0.034817 -136118.000000 0 0 1
-10.536427 1.149514 -32.321925 34.015357 -0.108669 2.824724 0.071699 -0.032121 181045.000000 0 0 1
-10.413827 0.502214 -33.598355 35.178821 -0.048188 2.840704 0.061727 -0.021668 -334707.000000 0 0 1
-11.014727 1.120914 33.276363 35.069887 -0.101416 0.321196 0.054173 -0.012870 1141060.000000 0 0 1
-12.408827 0.835014 33.012608 35.277592 -0.067191 0.360288 0.015190 -0.007858 910232.000000 0 0 1
-12.755727 1.053714 31.679616 34.167483 -0.082420 0.383966 0.012670 -0.006584 899905.000000 0 0 1
-14.307427 1.043614 31.370246 34.494694 -0.072813 0.428903 0.026731 -0.001009 1175840.000000 0 0 1
-14.979427 2.250314 31.749576 35.177872 -0.149112 0.445155 0.025051 0.010867 384829.000000 0 0 1
-16.372827 2.042814 31.605336 35.653047 -0.124127 0.481137 0.022742 0.008823 111626.000000 0 0 1
-17.257527 3.277614 31.379156 35.961318 -0.187688 0.510335 0.019125 0.013990 -303659.000000 0 0 1
-17.386227 4.202514 32.456225 37.058717 -0.237166 0.503694 0.017570 0.005659 630078.000000 0 0 1
-16.325427 5.163714 32.628715 36.848562 -0.306342 0.483267 0.007507 0.008779 -218943.000000 0 0 1
-16.545227 6.065914 33.842050 38.155264 -0.351409 0.480084 0.003919 0.010274 -554542.000000 0 0 1
-17.824427 6.642814 33.942432 38.909200 -0.356735 0.510808 0.025233 0.005740 13514.500000 0 0 1
-18.686127 5.837714 -33.407395 38.720851 -0.302802 2.611530 0.024651 0.008264 326337.000000 0 0 1
-20.166527 6.321714 -33.471885 39.585603 -0.303773 2.578404 0.025447 0.007066 347902.000000 0 0 1
-20.372027 7.535814 -32.819025 39.356021 -0.354301 2.556935 0.039308 -0.002322 149539.000000 0 0 1
-20.345727 8.649714 -33.716445 40.318294 -0.401986 2.561217 0.024432 -0.000104 -251463.000000 0 0 1
-20.465427 9.983814 -33.002555 40.095871 -0.453871 2.537629 0.048975 -0.000188 -938777.000000 0 0 1
-19.369527 10.306814 -32.212635 38.975157 -0.489008 2.543643 0.054905 -0.012575 -247406.000000 0 0 1
-19.240327 11.705214 -32.051255 39.172505 -0.546550 2.529083 0.067510 -0.022942 -10296.900000 0 0 1
-18.487527 12.458814 -33.170305 39.965983 -0.592996 2.549838 0.042718 -0.020956 -306465.000000 0 0 1
-19.183327 12.301914 33.798112 40.763335 -0.570222 0.593246 0.053178 -0.022902 422453.000000 0 0 1
-18.359527 12.597614 32.689122 39.551874 -0.601378 0.597957 0.051561 -0.023646 170408.000000 0 0 1
-19.012727 12.125514 31.351136 38.618720 -0.567721 0.623548 0.059526 -0.018257 -28615.700000 0 0 1
-19.205527 10.760414 31.061506 38.071720 -0.510699 0.616567 0.042077 -0.004325 -195868.000000 0 0 1
-18.042627 9.976114 30.954306 37.191777 -0.505082 0.587572 0.037368 -0.007444 -204605.000000 0 0 1
-18.161827 8.491514 31.082676 36.987707 -0.437350 0.572865 0.046787 -0.000368 -111198.000000 0 0 1
-18.853727 7.908514 30.002346 36.306313 -0.397175 0.598171 0.051268 0.000596 105633.000000 0 0 1
-18.952127 6.503014 30.123166 36.178411 -0.330540 0.586960 0.035018 -0.001181 -12690.000000 0 0 1
-19.526627 5.665914 28.921286 35.352970 -0.282408 0.612745 0.045987 -0.003636 -65876.900000 0 0 1
-20.923527 5.688614 28.804556 36.053526 -0.265460 0.645268 0.079664 -0.014988 -272387.000000 0 0 1
-21.463727 4.976214 27.708786 35.401004 -0.227818 0.671785 0.079933 -0.019358 2088740.000000 0 0 1
-23.065927 4.898714 27.519066 36.239941 -0.209269 0.708471 0.080995 -0.014494 1998690.000000 0 0 1
-23.497127 5.869014 26.634966 35.999746 -0.244768 0.737926 0.086432 -0.018017 1815520.000000 0 0 1
-24.924927 6.188814 26.711846 37.055041 -0.243376 0.765740 0.082437 -0.014575 1276460.000000 0 0 1
-25.418947 6.820914 25.400926 36.576697 -0.262164 0.803132 0.082254 -0.018945 -265020.000000 0 0 1
-25.530527 5.963614 24.263506 35.722405 -0.229473 0.824092 0.066754 -0.012384 837763.000000 0 0 1
-26.592257 4.995214 24.314776 36.377309 -0.185681 0.838734 0.057615 -0.000723 135280.000000 0 0 1
-26.727637 4.239414 22.997486 35.513709 -0.157305 0.866410 0.057281 -0.015839 -146390.000000 0 0 1
-27.270957 4.955114 21.935486 35.347189 -0.179738 0.901324 0.060863 -0.014742 -17859.500000 0 0 1
-26.915567 4.326414 20.717386 34.239972 -0.159377 0.920950 0.067784 -0.005602 -269810.000000 0 0 1
-27.473337 4.951314 19.421386 34.007205 -0.178308 0.962956 0.106392 -0.012318 375518.000000 0 0 1
-28.894327 4.837014 19.418286 35.147527 -0.165866 0.985460 0.108999 -0.014649 453475.000000 0 0 1
-29.432237 5.315814 18.191486 35.006351 -0.178686 1.024341 0.106593 -0.020433 -913054.000000 0 0 1
-30.938727 5.309114 18.109386 36.240052 -0.169946 1.047537 0.120882 -0.025879 -918882.000000 0 0 1
-31.540987 6.352214 18.895886 37.312719 -0.198737 1.039769 0.129657 -0.016198 242505.000000 0 0 1
-32.907427 6.010314 19.073686 38.507507 -0.180652 1.052589 0.132333 -0.023849 29736.100000 0 0 1
-33.756807 7.117214 19.648586 39.701935 -0.207795 1.053074 0.144849 -0.023382 -346822.000000 0 0 1
-33.339767 7.395214 20.994286 40.087271 -0.218280 1.019591 0.100985 -0.020702 163888.000000 0 0 1
-34.297321 8.162514 21.678886 41.387280 -0.233646 1.019484 0.115232 -0.033955 -124549.000000 0 0 1
0.095973 32.672914 11.917385 34.778623 1.567859 1.221045 0.060142 -0.020176 -8423.960000 0 0 1
-0.163827 32.806214 13.280285 35.392661 -1.565803 1.186155 0.044994 -0.013716 -37577.700000 0 0 1
-0.040827 -34.095579 13.717685 36.751667 1.569599 1.188283 0.039976 -0.011594 23541.700000 0 0 1
0.161673 -33.914279 15.253585 37.187045 -1.566029 1.148139 0.040021 0.000474 402549.000000 0 0 1
-1.033427 -34.087279 16.020785 37.678589 1.540489 1.131618 0.037247 0.005734 212648.000000 0 0 1
-0.876127 -33.760179 17.394485 37.987963 1.544851 1.095171 0.026751 -0.001901 546318.000000 0 0 1
-2.223627 -33.416079 18.112885 38.074341 1.504351 1.075009 0.034885 -0.002241 712534.000000 0 0 1
-3.099927 33.691714 18.282485 38.457644 -1.479046 1.075386 0.015403 0.002864 296522.000000 0 0 1
-3.940427 33.940914 19.405385 39.294803 -1.455217 1.054295 0.012734 -0.002228 381436.000000 0 0 1
-4.887827 32.769014 19.828485 38.611759 -1.422728 1.031497 0.011026 -0.006756 842991.000000 0 0 1
-5.913927 32.461714 18.878885 38.015125 -1.390591 1.051102 0.018870 -0.007324 500842.000000 0 0 1
-6.995527 31.717914 19.411885 37.838932 -1.353717 1.032104 0.020980 -0.024419 -38323.200000 0 0 1
-8.130927 31.646614 18.382885 37.490674 -1.319307 1.058325 0.005275 -0.021741 -524683.000000 0 0 1
-8.770427 32.867714 18.039385 38.504888 -1.310032 1.083209 0.019553 -0.023320 13661.900000 0 0 1
-9.362527 32.805514 16.772585 38.015500 -1.292792 1.113857 0.038080 -0.012893 -387135.000000 0 0 1
-10.408827 33.903514 16.485185 39.109503 -1.272918 1.135683 0.092026 -0.026633 673444.000000 0 0 1
-11.646827 33.795414 17.208385 39.672498 -1.238916 1.122134 0.098006 -0.026604 682356.000000 0 0 1
-12.433727 -33.280879 16.936685 39.358172 1.213254 1.125947 0.080329 -0.032283 489306.000000 0 0 1
-13.847927 -33.242279 17.607685 40.085468 1.176083 1.116029 0.116723 -0.026746 702202.000000 0 0 1
-13.786027 -32.878379 18.960685 40.380068 1.173760 1.082009 0.098210 -0.018037 162087.000000 0 0 1
-15.089627 -32.745979 19.495985 40.988893 1.138990 1.075104 0.081477 -0.033949 227897.000000 0 0 1
-15.175727 -32.285279 20.970485 41.381193 1.131394 1.039370 0.077762 -0.035652 -92886.500000 0 0 1
-15.055127 -30.914479 21.013685 40.298099 1.117609 1.022240 0.118825 -0.032228 37739.700000 0 0 1
-15.098127 -30.553579 22.384485 40.774254 1.111838 0.989646 0.076068 -0.027302 67992.700000 0 0 1
-15.291027 -29.053579 22.631085 39.875957 1.086327 0.967285 0.100367 -0.032067 -211880.000000 0 0 1
-15.457227 -28.796279 24.048385 40.576796 1.078161 0.936435 0.088708 -0.029932 -176526.000000 0 0 1
-15.597627 -27.436979 24.369385 39.874060 1.053869 0.913272 0.084278 -0.028439 -154594.000000 0 0 1
-16.930827 -26.770979 24.002385 39.742329 1.006870 0.922348 0.103874 -0.024125 -295601.000000 0 0 1
-18.002927 -27.110679 24.856885 40.950690 0.984605 0.918522 0.099314 -0.017142 169907.000000 0 0 1
-19.104627 -26.254279 24.628585 40.753418 0.941736 0.921869 0.098841 -0.015447 -59517.100000 0 0 1
-20.153627 -26.105779 25.773785 41.856521 0.913364 0.907440 0.077739 -0.006229 203154.000000 0 0 1
-21.010227 -27.142379 26.212885 43.188583 0.912065 0.918592 0.060813 -0.006506 697236.000000 0 0 1
-21.854627 -27.746879 25.210585 43.394557 0.903636 0.950886 0.068884 -0.009559 790773.000000 0 0 1
-23.174927 -26.953479 24.842185 43.367054 0.860633 0.960835 0.054786 -0.000465 359077.000000 0 0 1
-22.945327 -25.748679 24.152785 42.105101 0.842905 0.959865 0.058562 -0.003653 -574198.000000 0 0 1
-24.030627 -25.485879 23.336785 42.090457 0.814779 0.983102 0.042859 -0.001515 -727620.000000 0 0 1
-24.272827 -24.013679 23.134385 41.243504 0.780031 0.975297 0.036416 0.007880 20750.200000 0 0 1
-24.780727 -23.381279 24.336485 41.869238 0.756349 0.950533 0.029650 0.008368 299540.000000 0 0 1
-24.885727 -21.981079 24.259085 41.121411 0.723501 0.939814 0.026911 0.002953 41867.800000 0 0 1
-25.441047 -21.388479 25.587085 41.945355 0.699074 0.914723 0.024848 0.006552 957731.000000 0 0 1
-26.774927 -21.799579 25.963085 43.199538 0.683327 0.926040 0.009018 0.017042 1103240.000000 0 0 1
-27.161707 -21.150279 27.147685 43.841640 0.661605 0.903045 0.009299 0.007695 -62787.200000 0 0 1
-28.475357 -21.695779 27.799985 45.325400 0.651083 0.910511 0.017282 0.003534 474600.000000 0 0 1
-29.748767 -21.404379 27.279085 45.686815 0.623697 0.930929 0.030762 0.000795 397102.000000 0 0 1
-30.123467 -22.230879 26.152985 45.668521 0.635772 0.961037 0.016101 0.011392 -353059.000000 0 0 1
-31.645087 -22.480679 26.118785 46.786572 0.617672 0.978517 0.028243 0.007070 145176.000000 0 0 1
-32.273117 -23.245679 25.064485 47.012169 0.624207 1.008478 0.020555 0.003754 370000.000000 0 0 1
-31.918197 -24.604379 24.916685 47.381304 0.656717 1.017052 0.011816 0.001965 -703491.000000 0 0 1
-32.323837 -25.168279 23.558085 47.257339 0.661573 1.048921 0.022366 0.001959 241490.000000 0 0 1
-33.650947 -25.668679 23.517585 48.418427 0.651638 1.063615 0.048273 -0.006262 132034.000000 0 0 1
-34.075022 -26.065779 22.181385 48.296436 0.653002 1.093617 0.049424 -0.003687 503547.000000 0 0 1
-35.446579 -26.799979 22.126385 49.641472 0.647373 1.108814 0.052950 -0.010451 159589.000000 0 0 1
-35.571255 -28.070479 22.848485 50.747603 0.668080 1.103765 0.062721 -0.012504 541688.000000 0 0 1
-34.625181 -29.102679 22.489285 50.513731 0.698957 1.109386 0.053699 -0.010857 48699.400000 0 0 1
-35.109706 -30.006579 21.324385 50.870577 0.707189 1.138244 0.063259 -0.007471 -4280.320000 0 0 1
-35.023283 -29.417379 20.038685 49.935572 0.698623 1.157871 0.033666 0.000481 516441.000000 0 0 1
-35.785320 -30.169779 19.098785 50.552628 0.700461 1.183377 0.035635 0.010507 -172152.000000 0 0 1
-36.041977 -29.444579 17.756685 49.812721 0.684993 1.206311 0.037418 0.018058 -44387.600000 0 0 1
-34.932805 -29.426379 16.854085 48.685447 0.700048 1.217297 0.061501 0.010133 337752.000000 0 0 1
-35.163874 -28.887779 15.565285 48.096568 0.687725 1.241237 0.049891 0.007686 1987.570000 0 0 1
-35.829079 -29.829279 14.509185 48.826481 0.694272 1.269081 0.040935 0.008289 251866.000000 0 0 1
-34.993666 -30.889679 14.067785 48.750707 0.723187 1.278068 0.053297 0.002328 118025.000000 0 0 1
-35.589280 -31.737579 13.094185 49.450262 0.728251 1.302805 0.040382 0.001747 47932.700000 0 0 1
-35.822814 -31.130979 11.697485 48.879883 0.715437 1.329140 0.047026 -0.003535 -217932.000000 0 0 1
36.386905 -30.167279 11.661585 48.683304 -0.692217 1.328905 0.043074 -0.007475 -335417.000000 0 0 1
36.387515 -29.584979 10.369185 48.029597 -0.682650 1.353191 0.031745 -0.006301 -457769.000000 0 0 1
35.077665 -28.873879 10.085985 46.538914 -0.688693 1.352341 0.061061 -0.001408 -652963.000000 0 0 1
35.252925 -27.805679 9.209085 45.833740 -0.667842 1.368496 0.060612 -0.038064 -97417.600000 0 0 1
34.143065 -26.951279 8.977885 44.415344 -0.668221 1.367259 0.049594 -0.033815 195344.000000 0 0 1
34.560345 -25.858779 7.980285 43.895089 -0.642362 1.387976 0.042789 -0.030500 654686.000000 0 0 1
35.275405 -24.679479 8.411985 43.865617 -0.610473 1.377834 0.055153 -0.036309 171999.000000 0 0 1
35.508505 -23.836679 7.336285 43.391961 -0.591200 1.400910 0.056372 -0.035226 -106065.000000 0 0 1
36.032355 -22.431979 7.808785 43.156708 -0.556836 1.388854 0.070156 -0.031309 -430891.000000 0 0 1
35.165545 -21.654679 8.587685 42.181619 -0.551951 1.365775 0.063249 -0.031605 -519944.000000 0 0 1
35.412185 -20.326379 8.433285 41.692983 -0.521078 1.367120 0.081426 -0.027053 338268.000000 0 0 1
34.493895 -19.494779 9.385085 40.717994 -0.514412 1.338215 0.081613 -0.020138 309501.000000 0 0 1
34.857325 -19.577679 10.732285 41.394451 -0.511745 1.308531 0.072248 -0.034359 -393759.000000 0 0 1
34.175325 -18.674479 11.542485 40.619182 -0.500099 1.282663 0.076302 -0.019005 -111273.000000 0 0 1
34.751275 -18.685379 12.982085 41.537080 -0.493342 1.252928 0.064546 -0.034771 367307.000000 0 0 1
35.945135 -17.913279 13.115585 42.248750 -0.462327 1.255143 0.033562 -0.021936 297087.000000 0 0 1
36.304475 -18.067379 14.490285 43.062901 -0.461776 1.227608 0.040679 -0.014063 -275178.000000 0 0 1
-35.606743 -17.282679 14.736285 42.233745 0.451881 1.214376 0.051952 -0.026225 529022.000000 0 0 1
-34.415426 -17.701079 14.046085 41.170891 0.475050 1.222640 0.036122 -0.020798 1504290.000000 0 0 1
-33.251037 -17.112779 14.688085 40.177338 0.475302 1.196539 0.026663 -0.021625 1704720.000000 0 0 1
-31.934587 -17.108179 13.815585 38.773419 0.491818 1.206474 0.052354 -0.023310 762554.000000 0 0 1
-31.288437 -18.341379 13.649685 38.751598 0.530213 1.210838 0.046977 -0.026562 -807173.000000 0 0 1
-30.205697 -18.293579 12.814885 37.566746 0.544551 1.222685 0.019880 -0.018662 -880006.000000 0 0 1
-29.760937 -19.690079 12.437685 37.790324 0.584492 1.235421 0.007176 -0.016867 -358664.000000 0 0 1
-30.610397 -20.400479 11.607585 38.573462 0.587857 1.265138 0.015787 -0.012999 -719962.000000 0 0 1
-29.860957 -21.445779 11.050785 38.389035 0.622829 1.278802 0.020561 -0.016474 -242794.000000 0 0 1
-30.503717 -22.319579 9.992085 39.095807 0.631686 1.312349 0.028408 -0.017549 1932.240000 0 0 1
-31.158687 -23.491179 10.431885 40.392121 0.646006 1.309570 0.032688 -0.014392 421984.000000 0 0 1
-32.569217 -23.386879 10.653485 41.487308 0.622749 1.311098 0.042682 -0.024379 659881.000000 0 0 1
-33.217257 -24.817779 10.694285 42.821443 0.641665 1.318383 0.063900 -0.026226 118493.000000 0 0 1
-33.454157 -25.421079 9.430685 43.062161 0.649793 1.350005 0.068419 -0.020981 -182594.000000 0 0 1
-34.068930 -26.682279 9.506285 44.305817 0.664404 1.354554 0.077726 -0.014185 -69910.900000 0 0 1
-34.149309 -27.418779 8.137085 44.544100 0.676512 1.387090 0.071898 -0.011376 645247.000000 0 0 1
-32.901717 -27.824579 7.564785 43.748784 0.701985 1.397009 0.062243 -0.014191 269867.000000 0 0 1
-33.095967 -28.482179 6.321485 44.119595 0.710612 1.427021 0.065391 -0.018038 170433.000000 0 0 1
-31.745637 -28.878579 5.657585 43.287019 0.738141 1.439722 0.084915 -0.009279 531083.000000 0 0 1
-31.093517 -27.765879 5.032585 41.989019 0.728923 1.450653 0.094684 -0.009802 -595731.000000 0 0 1
-29.924857 -28.195179 4.408085 41.350893 0.755646 1.463991 0.081987 -0.013970 -357986.000000 0 0 1
-29.082097 -27.056679 3.789485 39.902286 0.749335 1.475684 0.078708 -0.014293 383316.000000 0 0 1
-29.574417 -26.551579 2.556985 39.826758 0.731592 1.506549 0.087914 -0.013243 42203.100000 0 0 1
-28.733207 -25.438079 2.295085 38.444251 0.724645 1.511062 0.073996 -0.012674 264941.000000 0 0 1
-29.025427 -24.666879 0.977385 38.103616 0.704399 1.545143 0.076853 -0.010947 -86253.500000 0 0 1
-28.534957 -25.331379 -0.175915 38.156958 0.725995 1.575407 0.082716 -0.013968 -70350.500000 0 0 1
-28.681927 -24.520479 -1.361615 37.759248 0.707338 1.606865 0.080673 -0.015340 -691502.000000 0 0 1
-30.068327 -24.475879 -1.968015 38.820690 0.683225 1.621513 0.099967 -0.018094 -226549.000000 0 0 1
-30.902807 -23.477379 -1.333915 38.832333 0.649691 1.605154 0.085121 -0.011263 344232.000000 0 0 1
-32.237927 -23.531779 -1.818515 39.954168 0.630539 1.616327 0.095300 -0.020992 639917.000000 0 0 1
-33.053337 -22.199079 -1.582315 39.847533 0.591420 1.610516 0.081357 -0.018252 122113.000000 0 0 1
-33.390447 -21.971379 -0.233015 39.971461 0.581988 1.576626 0.088199 -0.020975 27332.200000 0 0 1
-34.140198 -20.786779 -0.159915 39.970850 0.546913 1.574797 0.093567 -0.016773 -312171.000000 0 0 1
-34.462925 -20.393379 1.274285 40.065033 0.534330 1.538986 0.088241 -0.018788 148992.000000 0 0 1
-35.330454 -21.332479 1.913285 41.315569 0.543208 1.524471 0.092462 -0.023118 318219.000000 0 0 1
-35.472970 -21.048979 3.298785 41.379621 0.535538 1.490992 0.094294 -0.025057 -1835100.000000 0 0 1
-36.526607 -21.925079 3.959085 42.785236 0.540603 1.478130 0.106859 -0.017494 493595.000000 0 0 1
35.389815 -21.786979 3.353285 41.693596 -0.551832 1.490283 0.083007 -0.012591 460083.000000 0 0 1
34.773535 -20.522279 3.685385 40.545588 -0.533160 1.479776 0.080910 -0.023415 -1056080.000000 0 0 1
33.594775 -20.132879 2.754485 39.262309 -0.539894 1.500583 0.063191 -0.006212 186326.000000 0 0 1
32.483785 -20.949379 3.005785 38.769931 -0.572794 1.493190 0.055948 0.002095 -1123070.000000 0 0 1
31.293335 -20.421479 2.498985 37.450695 -0.578188 1.504019 0.054660 -0.007252 435519.000000 0 0 1
30.094135 -21.341579 2.953785 37.011414 -0.616848 1.490904 0.033319 0.011232 256563.000000 0 0 1
29.955435 -22.615279 2.331385 37.606041 -0.646671 1.508762 0.033410 0.001913 -865233.000000 0 0 1
28.716645 -23.123279 2.686585 36.966870 -0.677917 1.498057 0.017165 0.006329 -681474.000000 0 0 1
28.404555 -24.400179 1.948185 37.496438 -0.709709 1.518816 0.019786 0.003128 79530.800000 0 0 1
27.944885 -24.223179 0.582785 36.986736 -0.714178 1.555039 0.020563 -0.002583 76339.000000 0 0 1
27.399885 -25.383079 0.000885 37.350427 -0.747207 1.570773 0.005355 -0.002983 -313957.000000 0 0 1
26.608785 -24.860079 -1.254115 36.436572 -0.751435 1.605222 0.016983 -0.012491 -293006.000000 0 0 1
27.304385 -24.471879 -2.414815 36.745525 -0.730746 1.636561 0.010884 -0.027987 -115849.000000 0 0 1
27.576685 -25.488379 -3.424215 37.707509 -0.746065 1.661731 0.002755 -0.025740 -108523.000000 0 0 1
26.356885 -25.886179 -4.323815 37.195094 -0.776388 1.687307 0.006198 -0.030988 384565.000000 0 0 1
26.022785 -24.873479 -5.280915 36.383559 -0.762821 1.716456 0.009036 -0.040623 204794.000000 0 0 1
24.953185 -24.087679 -4.798215 35.012863 -0.767751 1.708270 0.030105 -0.042151 -438715.000000 0 0 1
24.490185 -22.915479 -5.707615 34.021540 -0.752193 1.739358 0.044205 -0.047398 146726.000000 0 0 1
23.956685 -23.430479 -6.974815 34.228032 -0.774294 1.776009 0.062483 -0.042250 234848.000000 0 0 1
22.737585 -22.911479 -7.435015 33.124207 -0.789207 1.797184 0.046503 -0.039280 -328888.000000 0 0 1
22.677185 -21.545779 -8.194515 32.336131 -0.759820 1.827007 0.039586 -0.037912 -412260.000000 0 0 1
23.173085 -21.537979 -9.530015 33.040847 -0.748844 1.863384 0.044505 -0.039039 253429.000000 0 0 1
23.053085 -20.222479 -10.099515 32.286121 -0.720082 1.888949 0.041714 -0.034918 -83606.400000 0 0 1
23.629485 -20.171379 -11.549215 33.145459 -0.706611 1.926703 0.048171 -0.028692 -2160100.000000 0 0 1
24.949385 -19.962579 -11.587115 33.988786 -0.674816 1.918681 0.065514 -0.031589 -2089700.000000 0 0 1
25.445985 -19.951979 -12.921315 34.821545 -0.664965 1.950960 0.051494 -0.026713 8667.050000 0 0 1
26.990785 -20.020779 -12.998015 36.031687 -0.638209 1.939856 0.050779 -0.029807 224094.000000 0 0 1
27.481485 -21.330479 -12.887315 37.098575 -0.660045 1.925572 0.036943 -0.031476 104089.000000 0 0 1
28.452235 -21.590379 -11.890515 37.643837 -0.649128 1.892169 0.052220 -0.044367 22565.600000 0 0 1
28.978385 -23.051479 -11.942615 38.906857 -0.671974 1.882787 0.061943 -0.030305 -754347.000000 0 0 1
29.779725 -23.355579 -12.999915 40.016408 -0.665080 1.901665 0.062766 -0.037826 -197032.000000 0 0 1
30.000945 -24.721979 -13.214115 41.059052 -0.689229 1.898460 0.072268 -0.026341 -256871.000000 0 0 1
-3.680327 -9.652786 -27.236495 29.129843 1.206539 2.779064 0.044110 -0.015171 160111.000000 0 0 1
-3.601827 -8.313186 -26.714845 28.209310 1.161945 2.814630 0.049346 -0.008520 779438.000000 0 0 1
-4.727127 -7.570486 -27.253795 28.677994 1.012618 2.825117 0.043802 -0.012911 835897.000000 0 0 1
-4.714227 -6.096686 -26.760135 27.847771 0.912584 2.861188 0.044682 -0.012204 90243.600000 0 0 1
-5.425927 -5.907086 -25.536235 26.766278 0.827829 2.837253 0.042713 -0.015175 365698.000000 0 0 1
-5.291627 -4.557686 -25.150935 26.102554 0.711019 2.870740 0.056634 -0.013633 60220.800000 0 0 1
-5.743027 -4.343286 -23.674015 24.744807 0.647503 2.846333 0.036232 -0.018440 -110464.000000 0 1 0
-5.069327 -5.141786 -22.724815 23.844355 0.792494 2.833943 0.047114 -0.030054 224874.000000 0 1 0
-5.403127 -4.916286 -21.382015 22.595447 0.738256 2.812381 0.028881 -0.023576 -71593.600000 0 1 0
-4.753027 -6.036186 -20.499215 21.891656 0.903772 2.783007 0.030393 -0.024253 -238922.000000 0 1 0
-5.412727 -7.279786 -20.484815 22.403583 0.931450 2.724707 0.032747 -0.027445 -53622.400000 0 1 0
-4.647027 -8.274686 -19.907015 22.053447 1.059094 2.696734 0.046233 -0.028294 -1069550.000000 0 1 0
-5.372227 -9.679386 -19.994815 22.854846 1.064109 2.635945 0.055435 -0.026382 8221.130000 0 1 0
-6.385927 -9.916486 -19.095215 22.444242 0.998671 2.588273 0.052037 -0.021144 -467833.000000 0 1 0
-7.565627 -9.153486 -19.238215 22.608271 0.880087 2.588563 0.037019 -0.023079 -1225740.000000 0 1 0
-8.589327 -9.381486 -18.127915 22.145205 0.829450 2.529754 0.026730 -0.016602 -318799.000000 0 1 0
-9.197327 -10.688286 -18.302315 23.104221 0.860235 2.485142 0.057427 -0.021122 130221.000000 0 1 0
-9.822827 -11.200086 -17.174515 22.735299 0.850817 2.427079 0.049650 -0.026189 -299858.000000 0 1 0
-10.717827 -12.450686 -17.422815 23.946730 0.860053 2.385563 0.068547 -0.020315 -213643.000000 0 1 0
-11.929927 -12.152286 -18.058115 24.821296 0.794631 2.385504 0.077942 -0.032136 -231277.000000 0 1 0
-11.861727 -11.936386 -19.466715 25.731904 0.788535 2.428773 0.063797 -0.029244 -673303.000000 0 0 1
-13.214027 -11.608286 -20.165015 26.758001 0.720799 2.424329 0.051775 -0.020712 1057760.000000 0 0 1
-14.179727 -12.677186 -20.359215 27.861682 0.729510 2.390179 0.059333 -0.019399 665216.000000 0 0 1
-14.887027 -13.054886 -19.185115 27.570315 0.719922 2.340415 0.067455 -0.019979 82349.500000 0 0 1
-16.042527 -14.029186 -19.606115 28.958254 0.718547 2.314540 0.063258 -0.014881 846634.000000 0 0 1
-15.437327 -15.315986 -19.843915 29.439284 0.781453 2.310491 0.060825 -0.015763 826413.000000 0 0 1
-16.307127 -16.057286 -20.729515 30.878336 0.777679 2.306796 0.057051 -0.019093 415836.000000 0 0 1
-15.803327 -17.414686 -21.042215 31.556160 0.833869 2.300727 0.031327 -0.013810 -436832.000000 0 0 1
-16.043227 -18.296686 -19.939615 31.460167 0.850926 2.257259 0.040004 -0.011882 169683.000000 0 0 1
-15.706727 -19.576686 -20.471715 32.388872 0.894644 2.255005 0.029320 -0.009444 86611.000000 0 0 1
-16.473027 -20.711986 -19.706215 32.995180 0.898905 2.210858 0.038756 -0.017403 -6179.680000 0 0 1
-16.145727 -21.915286 -20.321615 33.969579 0.935840 2.212087 0.033055 -0.008095 -64273.600000 0 0 1
-16.780127 -22.962286 -19.717615 34.606698 0.939717 2.177014 0.046503 -0.006387 -623634.000000 0 0 1
-16.339827 -24.309186 -20.308015 35.641857 0.978996 2.177034 0.044645 -0.005617 -85109.600000 0 0 1
-16.840327 -24.644586 -21.588915 36.837935 0.971348 2.196973 0.028401 -0.007120 401744.000000 0 0 1
-16.120527 -25.809036 -22.012915 37.557238 1.012479 2.197054 0.035807 -0.005669 49819.600000 0 0 1
-16.417627 -26.158976 -23.491615 38.803176 1.010323 2.221070 0.044692 -0.013617 70123.400000 0 0 1
-17.680827 -26.743586 -23.787415 39.920823 0.986641 2.209138 0.059743 -0.008908 105666.000000 0 0 1
-17.767827 -28.117426 -23.486515 40.717339 1.007240 2.185625 0.067586 -0.012163 -134302.000000 0 0 1
-18.809427 -28.898276 -24.348715 42.210956 0.993800 2.185644 0.071112 -0.009544 -252373.000000 0 0 1
-18.514527 -29.126516 -25.735615 43.051870 1.004569 2.211527 0.070639 -0.011887 -3932.220000 0 0 1
-18.557727 -28.011616 -26.630595 42.874566 0.985683 2.240978 0.075221 -0.020189 881863.000000 0 0 1
-17.247427 -27.825376 -27.507155 42.759430 1.015912 2.269598 0.084429 -0.022689 865048.000000 0 0 1
-17.287127 -28.439756 -28.775925 43.996799 1.024624 2.283717 0.084967 -0.025771 -811820.000000 0 0 1
-16.090927 -28.183396 -29.421695 43.804770 1.052021 2.307237 0.054238 -0.011364 -656916.000000 0 0 1
-15.988227 -28.261636 -30.986815 44.883473 1.055963 2.332816 0.069299 -0.015734 -92062.600000 0 0 1
-16.100127 -29.570426 -31.525795 46.124830 1.072211 2.323327 0.051483 -0.012305 468869.000000 0 0 1
-16.898327 -29.546306 -32.723705 47.216295 1.051275 2.336521 0.061054 -0.014175 238385.000000 0 0 1
-16.938127 -30.881546 -33.447045 48.572367 1.069115 2.330356 0.045578 -0.016338 -823771.000000 0 0 1
-15.699227 -31.290026 -33.922205 48.746769 1.105764 2.340450 0.048191 -0.007866 -665690.000000 0 0 1
-15.809627 -32.449596 33.483478 49.234783 1.117436 0.822928 0.031743 -0.004104 546070.000000 0 0 1
-14.438827 -32.941016 32.910272 48.751166 1.157695 0.829742 0.011893 -0.001244 754099.000000 0 0 1
-13.553627 -33.641936 33.768919 49.556236 1.187811 0.821087 0.015714 0.001650 -346168.000000 0 0 1
-12.463127 -34.104267 33.039859 49.092391 1.220432 0.832520 0.022863 -0.000902 -221397.000000 0 0 1
-11.551927 33.117005 33.809231 48.715984 -1.235172 0.803757 0.036030 -0.002720 119232.000000 0 0 1
-10.904927 33.726367 -33.304005 48.636838 -1.258071 2.325055 0.051350 -0.010106 -541307.000000 0 0 1
-10.106227 32.837634 -32.570005 47.341855 -1.272232 2.329491 0.046348 -0.015043 -258422.000000 0 0 1
-9.247627 33.602868 -31.534475 47.001005 -1.302241 2.306261 0.046041 -0.019279 -179712.000000 0 0 1
-9.953727 -33.962806 -30.510875 46.727533 1.285703 2.282273 0.059309 -0.016606 -368342.000000 0 0 1
-9.317727 -32.775756 -30.125025 45.481725 1.293817 2.294753 0.055872 -0.019505 85300.400000 0 0 1
-10.300127 -31.832916 -29.326155 44.491016 1.257860 2.290481 0.060089 -0.019162 718810.000000 0 0 1
-10.570427 -32.144416 -27.911615 43.864059 1.253094 2.260516 0.080394 -0.019891 -8067.420000 0 0 1
-11.153827 -33.402136 -27.588895 44.735419 1.248513 2.235356 0.080768 -0.024557 -57529.500000 0 0 1
-11.548727 -33.598416 -26.108025 44.089178 1.239720 2.204538 0.097459 -0.031700 1238150.000000 0 0 1
-10.377127 -33.629426 -25.225555 43.300712 1.271493 2.192679 0.086573 -0.037534 981250.000000 0 0 1
-10.726827 -33.731586 -23.880515 42.698521 1.262904 2.164316 0.097459 -0.044178 -161552.000000 0 0 1
-9.515127 -33.813626 -22.949515 41.959256 1.296491 2.149510 0.096882 -0.053909 55951.000000 0 0 1
-8.837127 33.138530 -22.978515 41.282795 -1.310189 2.161099 0.080014 -0.044833 282729.000000 0 0 1
-7.907827 33.149046 -21.890215 40.504006 -1.336619 2.141763 0.089666 -0.049908 -180205.000000 0 0 1
-7.168027 31.824847 -21.617015 39.134343 -1.349259 2.156013 0.085195 -0.049313 -197680.000000 0 0 1
-5.923227 31.717587 -22.279415 39.210486 -1.386174 2.175114 0.062857 -0.056035 72400.700000 0 0 1
-5.361827 30.452547 -21.937115 37.912317 -1.396511 2.187841 0.048963 -0.039723 -769640.000000 0 0 1
-3.951027 30.203557 -22.413015 37.818100 -1.440722 2.205145 0.049820 -0.047282 -977225.000000 0 0 1
-3.716027 30.247937 -23.861215 38.705350 -1.448557 2.235065 0.066036 -0.044180 -243303.000000 0 0 1
-2.627627 31.099487 -24.219815 39.505467 -1.486506 2.230743 0.051494 -0.051322 205247.000000 0 0 1
-2.392527 31.267617 -25.786535 40.599673 -1.494427 2.258988 0.055374 -0.025732 -474512.000000 0 0 1
-1.548727 32.308143 -26.167305 41.604597 -1.522897 2.251001 0.057539 -0.039610 -269988.000000 0 0 1
-2.010427 33.606435 -25.906825 42.480558 -1.511045 2.226669 0.056413 -0.034725 -426627.000000 0 0 1
-1.107927 -33.613466 -26.618425 42.890945 1.537847 2.240313 0.023330 -0.016855 -216507.000000 0 0 1
0.041873 -33.320916 -25.866765 42.182635 -1.569540 2.230913 0.035036 -0.017962 -230864.000000 0 0 1
0.910673 -32.405406 -26.515785 41.881100 -1.542701 2.256374 0.014469 -0.002681 178781.000000 0 0 1
2.175373 -31.999966 -25.744115 41.127722 -1.502920 2.247152 0.027396 0.000785 -622050.000000 0 0 1
1.999173 -31.254546 -24.540615 39.788002 -1.506919 2.235447 0.031712 -0.002627 -206653.000000 0 0 1
3.221773 -30.704386 -24.143315 39.192331 -1.466250 2.234478 0.025433 -0.000717 -496180.000000 0 0 1
3.137273 -29.949826 -22.821215 37.784156 -1.466426 2.219293 0.048148 -0.012219 -217306.000000 0 0 1
3.207073 -30.858676 -21.723315 37.874076 -1.467240 2.181650 0.050261 -0.013067 424901.000000 0 0 1
3.417773 -30.188266 -20.464815 36.630878 -1.458061 2.163586 0.058115 -0.014736 -335008.000000 0 0 1
3.481073 -31.115356 -19.134115 36.693291 -1.459383 2.119358 0.058961 -0.010088 -318995.000000 0 0 1
2.244773 -31.666086 -18.749415 36.868965 -1.500026 2.104287 0.065584 -0.019102 -67546.200000 0 0 1
2.013473 -32.966926 -19.251715 38.229580 -1.509797 2.098536 0.066397 -0.014265 22302.200000 0 0 1
2.768573 34.036620 -18.550415 38.862249 1.489634 2.068419 0.040847 -0.024593 958564.000000 0 0 1
4.171473 34.000577 -18.818415 39.084180 1.448718 2.073144 0.044377 -0.016923 559580.000000 0 0 1
4.764173 32.932830 -18.040115 37.851213 1.427130 2.067586 0.045122 -0.034203 925316.000000 0 0 1
6.012273 32.195606 -18.636815 37.683356 1.386181 2.088129 0.057677 -0.027916 1105380.000000 0 0 1
7.125973 33.053781 -18.898715 38.736202 1.358459 2.080459 0.104319 -0.024540 346240.000000 0 0 1
8.108373 32.357309 -19.667915 38.724256 1.325264 2.103537 0.079423 -0.024990 -9046.140000 0 0 1
9.528873 32.933734 -19.692315 39.537545 1.289153 2.092164 0.059707 -0.031543 -359638.000000 0 0 1
10.015473 32.870504 -18.376315 38.967533 1.275038 2.061878 0.056659 -0.027257 -569683.000000 0 0 1
11.193173 33.627257 -18.354615 39.912046 1.249472 2.048653 0.059090 -0.010202 -275284.000000 0 0 1
11.847373 33.946247 -16.982915 39.763392 1.235009 2.012079 0.035453 -0.010129 103952.000000 0 0 1
12.653973 32.845402 -16.563415 38.901030 1.203062 2.010624 0.031317 -0.012434 -58747.100000 0 0 1
13.327773 33.145355 -15.351115 38.883169 1.188480 1.976648 0.030232 -0.019812 -176069.000000 0 0 1
14.572673 32.283144 -15.165915 38.530107 1.146777 1.975354 0.031420 -0.013687 -187251.000000 0 0 1
14.312673 30.932067 -14.811215 37.162043 1.137421 1.980740 0.045737 -0.019948 32113.100000 0 0 1
15.541473 30.214497 -14.794615 37.058519 1.095718 1.981466 0.036808 -0.015642 351203.000000 0 0 1
15.403073 28.818907 -14.079315 35.581050 1.079948 1.977623 0.057332 -0.018811 -187124.000000 0 0 1
15.389073 28.995557 -12.619815 35.168531 1.082861 1.937819 0.056693 -0.023322 930458.000000 0 0 1
14.067373 28.983497 -12.017915 34.385525 1.118931 1.927839 0.063424 -0.023868 1229970.000000 0 0 1
13.425273 27.598207 -11.709015 32.848135 1.118044 1.935272 0.066133 -0.022016 -751303.000000 0 0 1
12.779373 27.037217 -12.860215 32.553166 1.129260 1.976922 0.054368 -0.022642 169187.000000 0 0 1
12.199773 25.755787 -12.687515 31.195641 1.128433 1.989644 0.077275 -0.024782 164026.000000 0 0 1
11.404073 25.475137 -11.388815 30.145324 1.149894 1.958212 0.076212 -0.018615 -379087.000000 0 0 1
10.327273 26.434067 -11.311915 30.551135 1.198350 1.950087 0.081488 -0.020581 444947.000000 0 0 1
9.893473 26.677437 -9.951615 30.143010 1.215664 1.907255 0.083997 -0.005657 632258.000000 0 0 1
8.618973 27.603227 -9.951115 30.581849 1.268144 1.902223 0.074975 -0.007413 439495.000000 0 0 1
8.871973 28.921437 -10.375215 31.981346 1.273148 1.901189 0.078385 -0.014000 -17155.500000 0 0 1
7.780073 29.828837 -10.256015 32.488073 1.315657 1.891975 0.071388 -0.016946 253301.000000 0 0 1
8.171373 31.212657 -10.676715 33.985195 1.314746 1.890366 0.081058 -0.028942 -573588.000000 0 0 1
9.077073 31.786657 -9.780315 34.473749 1.292637 1.858450 0.075565 -0.028112 -447797.000000 0 0 1
9.572673 33.040019 -10.243015 35.891479 1.288788 1.860208 0.080838 -0.030005 295271.000000 0 0 1
10.722973 32.935882 -11.277515 36.427144 1.256048 1.885559 0.065685 -0.031758 -442354.000000 0 0 1
12.013873 32.652486 -10.799715 36.430095 1.218237 1.871770 0.059943 -0.025214 -432586.000000 0 0 1
12.968473 33.040142 -11.749915 37.388404 1.196766 1.890480 0.060343 -0.025233 -38559.400000 0 0 1
14.433973 32.824061 -11.323715 37.602993 1.156509 1.876683 0.053456 -0.025589 -90026.800000 0 0 1
14.844373 33.644985 -10.284815 38.185309 1.155279 1.843504 0.057310 -0.025401 -313315.000000 0 0 1
16.249873 33.593476 -10.196115 38.685149 1.120256 1.837514 0.046038 -0.023936 -140187.000000 0 0 1
16.803473 -33.629956 -9.240615 38.713300 -1.107422 1.811817 0.060038 -0.030091 -287914.000000 0 0 1
16.725373 -34.105637 -7.866015 38.791839 -1.114859 1.774987 0.049208 -0.031183 23025.700000 0 0 1
17.302773 -33.218866 -6.956015 38.095474 -1.090591 1.754421 0.051260 -0.022848 -820935.000000 0 0 1
17.669073 -33.941716 -5.627315 38.676904 -1.090828 1.716810 0.039629 -0.013232 342272.000000 0 0 1
18.690473 33.298171 -5.683715 38.605784 1.059314 1.718558 0.041178 -0.020595 403937.000000 0 0 1
20.011973 33.810347 -5.835515 39.719917 1.036362 1.718247 0.055959 -0.018677 -44730.500000 0 0 1
20.977173 32.794817 -6.516015 39.471512 1.001732 1.736637 0.039950 -0.015419 83589.300000 0 0 1
21.212673 31.550807 -5.893715 38.472936 0.978881 1.724593 0.044952 -0.013930 -247805.000000 0 0 1
22.101573 31.574047 -4.821015 38.841243 0.960076 1.695238 0.034807 -0.005766 -799159.000000 0 0 1
22.384473 30.118557 -4.410515 37.784186 0.931654 1.687792 0.027752 -0.009200 120935.000000 0 0 1
23.150773 29.422117 -5.403215 37.826102 0.904126 1.714130 0.033355 -0.007637 220451.000000 0 0 1
23.612873 28.170957 -4.947515 37.089735 0.873193 1.704588 0.035763 -0.002305 -100352.000000 0 0 1
24.509173 27.467627 -5.986315 37.296193 0.842256 1.732001 0.032317 0.005981 -323961.000000 0 0 1
25.773973 28.121757 -6.135215 38.636404 0.828932 1.730265 0.042059 0.001069 217921.000000 0 0 1
26.656673 27.277467 -6.855415 38.750937 0.796908 1.748642 0.026114 0.004370 -94859.100000 0 0 1
27.413273 26.314867 -5.961115 38.464199 0.764957 1.726402 0.022786 0.004418 -627523.000000 0 0 1
28.533673 26.901027 -5.269515 39.567708 0.755955 1.704370 0.031188 -0.003893 300917.000000 0 0 1
29.224973 25.868657 -4.645715 39.304823 0.724553 1.689270 0.032607 0.000945 -50868.900000 0 0 1
30.527473 26.361227 -3.957715 40.527822 0.712294 1.668606 0.042383 -0.010991 183174.000000 0 0 1
30.296873 27.198577 -2.882715 40.816334 0.731563 1.641482 0.055283 -0.022871 -470391.000000 0 0 1
31.508073 27.472867 -2.254015 41.864038 0.717089 1.624664 0.067336 -0.038632 -361213.000000 0 0 1
31.499473 28.618247 -1.244115 42.576621 0.737508 1.600021 0.079010 -0.021429 84638.100000 0 0 1
31.357773 29.874437 -1.836515 43.349333 0.761178 1.613174 0.067829 -0.022506 191953.000000 0 0 1
30.746973 30.839837 -0.971115 43.559327 0.786906 1.593092 0.083124 -0.029579 -330642.000000 0 0 1
33.276375 22.963414 19.088286 44.710157 0.604038 1.129697 0.079104 -0.016389 -12021.600000 0 0 1
33.617125 22.545014 20.412586 45.332796 0.590749 1.103714 0.071512 -0.022643 37158.900000 0 0 1
34.277165 23.634814 20.998886 46.631338 0.603658 1.103676 0.101277 -0.032790 -168038.000000 0 0 1
34.372305 23.660514 22.547286 47.430532 0.602871 1.075406 0.055665 -0.014351 -149104.000000 0 0 1
33.114055 23.919014 23.117986 46.937204 0.625551 1.055802 0.036723 -0.008342 134754.000000 0 0 1
33.066515 23.836914 24.476936 47.546959 0.624601 1.030028 0.036673 -0.005277 -526258.000000 0 0 1
31.776355 24.546614 24.859136 47.225519 0.657734 1.016445 0.042269 -0.012897 -436526.000000 0 0 1
31.836485 25.948814 24.604246 47.877674 0.683860 1.031074 0.043770 -0.021355 -193892.000000 0 0 1
30.633295 26.517514 25.004736 47.611071 0.713506 1.017861 0.025152 -0.027322 -657512.000000 0 0 1
30.566445 28.000514 25.198966 48.511073 0.741614 1.024592 0.018046 -0.016729 -269175.000000 0 0 1
30.504965 28.776114 24.012356 48.324020 0.756243 1.050770 0.024640 -0.029305 343616.000000 0 0 1
30.304135 30.152814 24.478226 49.261713 0.782895 1.050772 0.028790 -0.022931 -269485.000000 0 0 1
30.456755 31.206114 23.382976 49.479279 0.797550 1.078579 0.030786 -0.015398 856722.000000 0 0 1
31.813595 31.708714 23.368106 50.632161 0.783747 1.091081 -0.000104 -0.022609 792682.000000 0 0 1
32.209915 32.291314 22.143586 50.700552 0.786660 1.118811 0.008221 -0.011614 609430.000000 0 0 1
33.741755 32.582814 22.056086 51.832584 0.767926 1.131254 -0.013062 -0.026629 634438.000000 0 0 1
34.064465 33.658614 22.906486 53.084811 0.779405 1.124633 0.006457 -0.013518 456404.000000 0 0 1
35.438075 34.043114 22.787686 54.167051 0.765324 1.136588 0.021963 -0.017105 626309.000000 0 0 1
35.765735 -33.055979 23.700356 54.162648 -0.746045 1.117894 0.037787 -0.011412 -184243.000000 0 0 1
35.205495 -31.835279 23.247046 52.852029 -0.735169 1.115363 0.025489 -0.007662 -22537.000000 0 0 1
35.487735 -30.807979 24.172396 52.847096 -0.714926 1.095724 0.054776 -0.007450 -608198.000000 0 0 1
34.525005 -29.584379 24.001446 51.412847 -0.708485 1.085085 0.045922 -0.019241 650707.000000 0 0 1
33.153825 -29.876479 24.268766 50.801113 -0.733449 1.072737 0.033852 -0.010325 493867.000000 0 0 1
32.528505 -30.290079 23.028086 50.058818 -0.749780 1.092778 0.021624 -0.002718 -634485.000000 0 0 1
31.888205 -31.692579 23.150886 50.569167 -0.782321 1.095270 0.004422 0.002064 -680227.000000 0 0 1
30.735775 -31.755179 23.922736 50.253125 -0.801710 1.074645 0.012993 -0.011852 -464093.000000 0 0 1
30.189505 -33.066679 23.963086 50.784259 -0.830851 1.079397 0.008638 -0.017673 -21356.300000 0 0 1
29.487385 -33.303279 25.303206 51.174862 -0.846095 1.053599 0.012969 -0.016027 -436737.000000 0 0 1
29.182265 33.547514 25.487216 51.250741 0.854874 1.050307 0.029850 -0.025578 193605.000000 0 0 1
28.576135 33.266014 26.765916 51.377402 0.861090 1.022813 0.033028 -0.017230 -486954.000000 0 0 1
28.171325 31.778614 27.003216 50.325714 0.845497 1.004430 0.048896 -0.023507 434552.000000 0 0 1
27.360685 31.341714 25.912266 49.013831 0.853112 1.013760 0.039402 -0.022420 -1323700.000000 0 0 1
26.026085 31.631414 26.033406 48.534953 0.882311 1.004649 0.033065 -0.019744 -1524520.000000 0 0 1
25.343085 31.500814 24.598286 47.324929 0.893304 1.024209 0.078005 -0.028870 125715.000000 0 0 1
25.640785 32.418414 23.552306 47.572203 0.901609 1.052863 0.096953 -0.040034 -249355.000000 0 0 1
26.889285 32.210614 22.948886 47.824770 0.875196 1.070309 0.074151 -0.027823 -486797.000000 0 0 1
27.160885 33.266314 21.903886 48.209351 0.886094 1.099155 0.086282 -0.021803 -130003.000000 0 0 1
28.400105 33.207914 21.231686 48.581025 0.863279 1.118495 0.069873 -0.020508 -102091.000000 0 0 1
28.515945 33.994914 20.089886 48.707462 0.872823 1.145643 0.055575 -0.021648 -285287.000000 0 0 1
29.995045 -33.989979 19.746986 49.446586 -0.847753 1.159978 0.054390 -0.021633 -210419.000000 0 0 1
30.724835 33.083614 19.431086 49.153923 0.822348 1.164390 0.059211 -0.034578 -93368.600000 0 0 1
31.586915 33.413114 18.347286 49.505477 0.813486 1.191129 0.051293 -0.015392 -10586.500000 0 0 1
32.479195 32.274514 17.795486 49.124553 0.782237 1.200113 0.036691 -0.022193 354739.000000 0 0 1
33.570445 31.913514 18.632786 49.926224 0.760101 1.188334 0.022846 -0.014098 133728.000000 0 0 1
34.312115 30.832714 18.083986 49.548038 0.732039 1.197186 0.029270 -0.017774 160527.000000 0 0 1
35.358615 30.378314 19.128186 50.388105 0.709782 1.181414 0.046579 -0.025448 101999.000000 0 0 1
36.326345 31.359214 19.467686 51.787976 0.712144 1.185416 0.070405 -0.018519 373812.000000 0 0 1
-35.909657 30.789414 20.357386 51.496744 -0.708782 1.164387 0.090210 -0.019641 105663.000000 0 0 1
-34.995746 31.803014 21.001686 51.741712 -0.737638 1.152839 0.084213 -0.020186 -79901.300000 0 0 1
-34.004197 32.281914 20.077986 51.005224 -0.759421 1.166202 0.087511 -0.020490 728231.000000 0 0 1
-32.912127 33.046414 20.624186 50.996378 -0.787434 1.154447 0.079917 -0.005046 702987.000000 0 0 1
-33.215257 -33.901479 21.391386 52.059148 0.795622 1.147349 0.054491 -0.004512 -432553.000000 0 0 1
-33.610277 34.038014 22.740486 52.965713 -0.791721 1.127031 0.078208 -0.006332 -126167.000000 0 0 1
-33.577387 -33.060279 23.574276 52.689367 0.777638 1.106918 0.063137 -0.004356 23559.300000 0 0 1
-33.464817 -33.398679 25.038036 53.500177 0.784409 1.083771 0.092043 -0.017775 -907715.000000 0 0 1
-34.665639 -33.861279 25.507276 54.762339 0.773661 1.086279 0.083253 -0.011110 -1216840.000000 0 0 1
-34.607494 33.807014 26.747906 55.281491 -0.773698 1.065749 0.093912 -0.010417 193786.000000 0 0 1
-36.024293 33.487314 27.272146 56.239842 -0.748917 1.064518 0.055494 -0.022659 378323.000000 0 0 1
-36.015341 32.664114 28.459946 56.338420 -0.736642 1.041228 0.084046 -0.034667 -220354.000000 0 0 1
35.866505 32.507514 28.913516 56.383828 0.736311 1.032356 0.078308 -0.030631 75223.300000 0 0 1
35.774995 31.330914 29.916386 56.182440 0.719270 1.009261 0.079435 -0.027828 -76309.900000 0 0 1
35.575865 30.014914 29.415006 55.061600 0.700818 1.007212 0.054712 -0.023941 -44990.100000 0 0 1
-36.509407 29.448214 28.780646 55.031442 -0.678748 1.020446 0.066090 -0.025135 -361683.000000 0 0 1
36.442175 28.018914 28.259676 53.960179 0.655462 1.019592 0.064664 -0.026027 -353781.000000 0 0 1
35.372515 28.032414 27.329756 52.763118 0.670146 1.026319 0.050573 -0.016633 244563.000000 0 0 1
35.202995 26.741314 26.733866 51.662833 0.649637 1.026907 0.060393 -0.017372 -198823.000000 0 0 1
34.989495 25.438014 27.577236 51.301669 0.628630 1.003267 0.048189 -0.015851 -254103.000000 0 0 1
36.067915 25.087014 28.452116 52.342866 0.607733 0.996109 0.043718 -0.018215 265092.000000 0 0 1
35.952765 23.728614 28.914706 51.881679 0.583369 0.979642 0.046600 -0.016639 -113354.000000 0 0 1
36.311355 22.546214 27.905536 51.044737 0.555655 0.992393 0.036924 -0.001512 258404.000000 0 0 1
35.403645 22.426214 26.761016 49.724291 0.564648 1.002511 0.038429 -0.004542 627827.000000 0 0 1
35.793505 21.564214 25.703366 49.059692 0.542228 1.019349 0.036165 -0.013169 -451743.000000 0 0 1
35.464665 20.103814 26.063956 48.386316 0.515702 1.001946 0.029968 -0.008732 363005.000000 0 0 1
34.077835 19.743014 25.952696 47.165961 0.525098 0.988142 0.051688 -0.008337 951810.000000 0 0 1
33.800145 18.484014 26.580126 46.803971 0.500431 0.966840 0.054936 -0.011863 -344932.000000 0 0 1
33.547945 18.489614 28.161966 47.543946 0.503718 0.936842 0.034432 -0.007845 513907.000000 0 0 1
32.389615 19.230614 28.599866 47.295412 0.535795 0.921398 0.040342 -0.010834 781320.000000 0 0 1
32.519595 20.635214 28.524216 47.926684 0.565435 0.933327 0.023323 -0.011756 -787741.000000 0 0 1
31.391005 21.303514 29.299436 47.934245 0.596253 0.913167 0.031347 -0.020924 188036.000000 0 0 1
30.073945 21.349914 28.753466 46.765615 0.617349 0.908611 0.053044 -0.031361 597770.000000 0 0 1
29.835885 22.180514 27.625256 46.317491 0.639275 0.931747 0.049500 -0.027856 -446485.000000 0 0 1
29.854475 23.690714 27.885346 47.224275 0.670789 0.939134 0.055525 -0.020623 403474.000000 0 0 1
31.186805 24.220214 27.960506 48.384145 0.660320 0.954661 0.061796 -0.024733 596891.000000 0 0 1
31.360845 25.467814 28.668346 49.537725 0.682069 0.953641 0.039621 -0.019235 -9426.240000 0 0 1
31.397305 25.416914 30.219156 50.448069 0.680522 0.928526 0.029025 -0.021662 -904927.000000 0 0 1
32.704515 25.108514 30.554806 51.318797 0.654757 0.933043 0.009709 -0.007645 -818881.000000 0 0 1
32.992595 24.878214 31.881666 52.190780 0.646091 0.913640 0.024642 -0.010408 -98024.200000 0 0 1
32.563395 23.582314 32.511255 51.705724 0.626782 0.890820 0.030564 -0.006319 -435354.000000 0 0 1
32.796685 23.607114 33.874545 52.729528 0.623893 0.873143 0.031282 -0.019500 100641.000000 0 0 1
32.494215 22.425814 -33.659065 51.881826 0.604083 2.276756 0.036705 -0.020901 -271986.000000 0 0 1
33.037145 22.379714 -32.231675 51.295082 0.595404 2.250237 0.023441 -0.021532 -491171.000000 0 0 1
32.329745 23.217414 -31.397825 50.695997 0.622800 2.238692 0.009653 -0.022294 35115.600000 0 0 1
32.888645 23.175914 -30.090875 50.241882 0.613859 2.212948 0.024992 -0.022382 -264376.000000 0 0 1
34.220375 23.799414 -29.705045 51.184332 0.607683 2.189960 0.031799 -0.004983 -270172.000000 0 0 1
34.673285 23.402014 -28.439505 50.583559 0.593701 2.167874 0.016157 -0.006237 -392599.000000 0 0 1
35.900275 23.956814 -28.026925 51.461318 0.588452 2.146734 0.024892 0.010313 -147958.000000 0 0 1
36.498885 23.358314 -26.777895 50.939524 0.569294 2.124311 0.008379 0.015555 -73619.900000 0 0 1
-35.837888 22.255414 -27.032825 50.104204 -0.555719 2.140678 0.002148 0.015116 316477.000000 0 0 1
-36.068257 21.259014 -26.051475 49.310690 -0.532597 2.127409 -0.012828 0.009705 -35812.300000 0 0 1
-35.294618 19.921614 -26.321355 48.325919 -0.513860 2.146784 0.001087 0.020171 2040650.000000 0 0 1
-33.908657 19.961314 -25.835105 47.071262 -0.532054 2.151785 0.003206 0.020991 1475880.000000 0 0 1
-33.175797 18.759014 -25.889695 46.073967 -0.514622 2.167496 -0.007560 0.012011 612851.000000 0 0 1
-31.750407 18.999314 -25.308815 44.828544 -0.539239 2.170708 0.006067 0.008072 138808.000000 0 0 1
-31.744057 19.250614 -23.912715 44.159815 -0.545136 2.143021 0.016885 0.005599 -69867.500000 0 0 1
-30.483647 19.376014 -23.287715 42.976742 -0.566200 2.143454 0.034986 0.000954 -90148.700000 0 0 1
-30.591167 19.887114 -21.850615 42.529592 -0.576441 2.110375 0.020742 -0.007564 36833.700000 0 0 1
-31.285727 18.943614 -21.060215 42.204145 -0.544456 2.093250 0.009330 0.002898 -85100.000000 0 0 1
-31.696357 19.493214 -19.850615 42.174534 -0.551375 2.060855 0.017611 0.006319 -645407.000000 0 0 1
-32.670387 18.657414 -19.036515 42.164466 -0.518884 2.039222 0.009464 -0.000236 -98025.700000 0 0 1
-33.360817 19.235614 -17.966915 42.494270 -0.523031 2.007338 0.006483 -0.004014 -181815.000000 0 0 1
-34.479423 20.001314 -18.326315 43.871825 -0.525654 2.001735 0.000481 -0.002457 -894092.000000 0 0 1
-35.521753 20.119714 -17.216415 44.305787 -0.515351 1.969888 0.012636 -0.011102 -358710.000000 0 0 1
-35.065131 20.710014 -16.039415 43.769064 -0.533491 1.945993 0.017636 -0.021774 -33233.900000 0 0 1
-36.011547 20.398014 -15.049815 44.038704 -0.515370 1.919565 0.021011 -0.014543 -871133.000000 0 0 1
-35.913953 21.358814 -13.866615 44.026060 -0.536529 1.891215 0.028990 -0.018986 -93572.700000 0 0 1
-36.386197 22.705714 -14.019515 45.122628 -0.557894 1.886724 0.037906 -0.022403 1694520.000000 0 0 1
35.382945 22.783414 -14.199515 44.414671 0.572082 1.896213 0.047965 -0.015939 1149300.000000 0 0 1
34.733145 24.179814 -14.441715 44.717088 0.608144 1.899649 0.050028 -0.017752 57868.700000 0 0 1
34.951795 25.096714 -13.412915 45.070826 0.622730 1.872970 0.043305 -0.021791 5898.710000 0 0 1
34.790395 26.419514 -13.852715 45.828594 0.649484 1.877872 0.016646 -0.005278 -503235.000000 0 0 1
36.092025 27.075614 -14.284015 47.326063 0.643618 1.877399 0.054208 -0.006830 -484463.000000 0 0 1
36.392735 26.805014 -15.653515 47.832755 0.634836 1.904194 0.056896 -0.006807 623279.000000 0 0 1
-35.565250 27.477614 -15.900515 47.673186 -0.657807 1.910844 0.064995 -0.012868 282300.000000 0 0 1
-35.237150 27.412714 -17.417515 47.921639 -0.661150 1.942774 0.052914 -0.010825 -335946.000000 0 0 1
-34.729374 26.218014 -17.982515 47.083803 -0.646645 1.962675 0.044592 -0.017737 382725.000000 0 0 1
-33.375967 25.888914 -17.706215 45.800667 -0.659732 1.967731 0.058602 -0.016487 26549.800000 0 0 1
-33.056247 24.528414 -18.308915 45.050804 -0.638375 1.989313 0.050674 -0.015678 -283898.000000 0 0 1
-32.819277 24.473614 -19.704815 45.435036 -0.640749 2.019383 0.026445 -0.007906 128773.000000 0 0 1
-32.535047 23.209214 -20.188615 44.774737 -0.619637 2.038562 0.027410 -0.003861 -601448.000000 0 0 1
-32.140437 23.260314 -21.701915 45.221931 -0.626461 2.071335 0.016290 0.011427 -670592.000000 0 0 1
-33.109487 23.582914 -22.631915 46.525214 -0.618914 2.078812 0.009292 0.014297 -664801.000000 0 0 1
-32.659757 23.330414 -23.883815 46.705509 -0.620290 2.107575 0.001026 0.019773 -296486.000000 0 0 1
-33.508777 23.828414 -25.044805 48.144301 -0.618143 2.117885 -0.016170 0.023601 -481234.000000 0 0 1
-32.983937 25.071314 -25.396995 48.595455 -0.649938 2.120718 -0.015096 0.026857 -240406.000000 0 0 1
-33.804477 25.817814 -26.245675 49.981373 -0.652237 2.123640 -0.001259 0.020025 -410231.000000 0 0 1
-33.248137 27.225014 -26.532125 50.503402 -0.686126 2.123927 0.003653 0.020083 -769530.000000 0 0 1
-32.119477 27.175214 -27.303645 50.156177 -0.702206 2.146437 -0.020556 0.026089 -1556850.000000 0 0 1
-31.564327 28.436014 -27.320765 50.510769 -0.733307 2.142291 -0.010562 0.008717 -478864.000000 0 0 1
-30.264097 28.558014 -28.096665 50.208548 -0.756402 2.164698 0.024172 0.003201 -1691410.000000 0 0 1
-29.208257 27.981714 -27.447805 48.882314 -0.763955 2.167003 0.014156 0.003884 -491396.000000 0 0 1
-28.010447 28.117414 -28.248275 48.714876 -0.787304 2.189365 0.042529 -0.000219 1221050.000000 0 0 1
-27.133987 29.398414 -27.924055 48.788040 -0.825432 2.180171 0.044836 -0.021269 232588.000000 0 0 1
-26.465557 29.431314 -26.620265 47.699753 -0.838406 2.162866 0.044261 -0.019805 -178650.000000 0 0 1
-27.315547 29.830814 -25.620265 47.879166 -0.829384 2.135425 0.016704 0.001413 -511054.000000 0 0 1
-26.598197 30.253214 -24.304115 47.046903 -0.849601 2.113664 -0.008067 -0.001241 -109429.000000 0 0 1
-26.272437 31.589714 -24.210315 47.689520 -0.877036 2.103269 0.010078 0.005533 -346561.000000 0 0 1
-25.551747 31.808114 -23.050315 46.861124 -0.894041 2.085051 0.027683 0.011509 -135231.000000 0 0 1
-24.942227 33.236214 -22.906315 47.449551 -0.927005 2.074590 0.024863 0.021217 131226.000000 0 0 1
-25.904807 -33.956279 -22.745515 48.388494 0.919098 2.060156 0.000117 0.014880 -119647.000000 0 0 1
-25.367627 -32.654779 -22.833615 47.235845 0.910336 2.075326 0.017016 0.020044 27669.100000 0 0 1
16.783373 8.207414 -25.504145 31.614944 0.454826 2.509363 0.053823 -0.014391 -1356080.000000 0 0 1
15.538773 7.910714 -25.066745 30.534809 0.470897 2.533823 0.062526 -0.017712 -1425350.000000 0 0 1
15.430173 6.575814 -25.231485 30.297845 0.402858 2.554910 0.060764 -0.015077 571509.000000 0 0 1
13.939173 6.146814 -25.026265 29.298427 0.415323 2.594777 0.055209 -0.012524 679909.000000 0 0 1
13.361273 6.279514 -23.730015 27.947621 0.439343 2.585054 0.076406 -0.036094 -64108.000000 0 0 1
12.065273 5.745914 -23.735515 27.238961 0.444456 2.628807 0.078250 -0.033968 -139394.000000 0 0 1
11.297673 5.883014 -22.375515 25.747057 0.480092 2.624078 0.088689 -0.045043 83369.200000 0 0 1
11.751773 5.028214 -21.314215 24.853227 0.404298 2.601388 0.080311 -0.039372 100564.000000 0 1 0
11.103973 5.239414 -20.077915 23.534493 0.440875 2.592747 0.082124 -0.035362 -348986.000000 0 1 0
11.555873 6.527314 -19.372015 23.482312 0.514171 2.540931 0.086011 -0.043479 -154160.000000 0 1 0
11.169573 6.815014 -18.043215 22.288145 0.547843 2.514170 0.073038 -0.037384 -154087.000000 0 1 0
11.648573 8.088714 -17.625915 22.622764 0.606954 2.464062 0.081780 -0.038353 -40202.300000 0 1 0
13.131173 8.269414 -17.240815 23.196047 0.562011 2.408734 0.085576 -0.040676 -184815.000000 0 1 0
13.518573 7.685614 -16.017615 22.324526 0.516953 2.370988 0.088856 -0.049437 -65549.700000 0 1 0
14.830173 8.081514 -15.716815 23.070830 0.498948 2.320254 0.072925 -0.048140 -370470.000000 0 1 0
15.463773 7.271414 -14.555015 22.446608 0.439543 2.276314 0.080688 -0.047920 189979.000000 0 1 0
16.877073 7.417814 -14.436015 23.414912 0.414105 2.235125 0.079879 -0.051899 722989.000000 0 1 0
17.300673 7.829114 -13.172915 23.111339 0.424958 2.177273 0.076187 -0.049584 -300323.000000 0 1 0
17.586973 9.367414 -13.047815 23.817967 0.489412 2.150545 0.080887 -0.047504 -1132440.000000 0 1 0
16.431873 10.073114 -13.253215 23.390635 0.549940 2.173174 0.075745 -0.037863 -639025.000000 0 1 0
16.733273 11.430414 -13.219015 24.195023 0.599290 2.148800 0.091294 -0.042511 33029.700000 0 1 0
15.502973 12.354514 -13.086015 23.753315 0.672856 2.154254 0.090845 -0.035884 -929026.000000 0 1 0
14.925873 12.438014 -11.810315 22.736962 0.694730 2.116983 0.090468 -0.028072 -50441.900000 0 1 0
15.576973 13.229114 -10.883915 23.154074 0.704072 2.060161 0.097995 -0.024757 -534900.000000 0 1 0
15.033473 14.668914 -10.843915 23.638377 0.773125 2.047375 0.082663 -0.025776 107299.000000 0 1 0
13.790173 14.975714 -10.242415 22.789207 0.826588 2.036936 0.084193 -0.028288 452469.000000 0 1 0
13.470573 16.377314 -10.315215 23.581273 0.882477 2.023538 0.079037 -0.030974 -653560.000000 0 1 0
12.367073 16.718514 -9.362615 22.805959 0.933905 1.993836 0.071446 -0.031496 -766451.000000 0 1 0
12.766673 16.571814 -8.029015 22.407098 0.914376 1.937269 0.072261 -0.033490 549583.000000 0 1 0
11.814573 17.064414 -7.090515 21.932938 0.965222 1.899992 0.063436 -0.023502 237423.000000 0 1 0
12.373573 16.850914 -5.675915 21.662747 0.937421 1.835904 0.054470 -0.016347 594222.000000 0 1 0
13.373473 17.791514 -5.259015 22.870177 0.926223 1.802823 0.071572 -0.015758 504091.000000 0 1 0
13.776373 17.479314 -3.940515 22.601826 0.903321 1.746037 0.062905 -0.017135 -423019.000000 0 1 0
14.917473 18.430414 -3.529715 23.972277 0.890353 1.718575 0.063269 -0.025964 402775.000000 0 1 0
16.167173 18.219514 -4.207715 24.719083 0.845012 1.741851 0.073963 -0.034664 459002.000000 0 1 0
16.737273 19.431114 -4.523415 26.041616 0.859741 1.745381 0.058908 -0.026309 -613401.000000 0 0 1
17.922273 19.195114 -5.463815 26.823750 0.819677 1.775925 0.063225 -0.016372 -460531.000000 0 0 1
19.003273 18.559414 -4.822715 26.996941 0.773582 1.750400 0.073547 -0.027826 -150354.000000 0 0 1
19.443673 17.431914 -5.548615 26.696726 0.730897 1.780161 0.086463 -0.042494 -132143.000000 0 0 1
20.628873 16.741314 -4.865515 27.009169 0.681743 1.751928 0.103655 -0.045209 -631665.000000 0 0 1
21.877073 17.375414 -4.889315 28.362241 0.671212 1.744050 0.096631 -0.048859 -285965.000000 0 0 1
22.744873 16.397714 -4.334215 28.372517 0.624643 1.724158 0.104906 -0.053590 195640.000000 0 0 1
24.247673 16.710714 -4.600415 29.805393 0.603419 1.725764 0.102397 -0.049507 513344.000000 0 0 1
24.852573 17.663614 -3.721615 30.716511 0.617895 1.692255 0.100426 -0.047437 301855.000000 0 0 1
26.264073 17.633614 -3.673015 31.847086 0.591270 1.686386 0.090361 -0.038818 62883.700000 0 0 1
26.830573 18.952414 -3.101015 32.995302 0.614991 1.664919 0.096446 -0.036682 -254663.000000 0 0 1
26.800573 20.148514 -3.898715 33.755493 0.644648 1.686553 0.088569 -0.034626 183643.000000 0 0 1
27.165073 21.263014 -3.088015 34.635138 0.664124 1.660073 0.102836 -0.013614 -169138.000000 0 0 1
27.159373 22.613214 -3.826815 35.547623 0.694312 1.678659 0.072726 -0.012177 -886.521000 0 0 1
28.186873 22.948114 -4.761915 36.657763 0.683305 1.701066 0.058220 -0.002912 430550.000000 0 0 1
28.094073 22.166614 -5.938115 36.275294 0.668006 1.735232 0.055591 -0.007044 -10609.200000 0 0 1
29.175073 22.593614 -6.965815 37.552348 0.658944 1.757373 0.037987 -0.001062 -126674.000000 0 0 1
28.898973 23.786214 -7.722015 38.217328 0.688658 1.774252 0.029893 0.002503 454354.000000 0 0 1
30.046273 24.495614 -8.200215 39.623947 0.683979 1.779254 0.013722 -0.001128 385094.000000 0 0 1
30.946973 23.848914 -9.298815 40.161596 0.656579 1.804452 0.023009 -0.007841 -210467.000000 0 0 1
30.373373 23.737414 -10.576815 39.973437 0.663371 1.838581 0.020090 0.003178 -297679.000000 0 0 1
31.299773 23.376514 -11.566815 40.742219 0.641488 1.858658 0.013631 -0.001226 -216965.000000 0 0 1
30.684473 22.733114 -12.834715 40.287235 0.637630 1.895028 0.013726 0.003712 24291.800000 0 0 1
30.194773 23.655114 -13.785415 40.759372 0.664548 1.915815 0.010168 0.014429 114279.000000 0 0 1
30.166473 22.983414 -15.037715 40.796891 0.651065 1.948298 0.020803 0.012841 -184325.000000 0 0 1
30.170873 23.884314 -16.263015 41.775922 0.669619 1.970659 0.024458 0.013710 60924.500000 0 0 1
31.492573 24.333214 -16.569115 43.109431 0.657850 1.965300 0.010947 0.016781 471576.000000 0 0 1
31.578473 24.955614 -17.831415 44.022063 0.668782 1.987837 0.025296 0.013951 363390.000000 0 0 1
33.017473 25.466314 -18.116415 45.463075 0.656993 1.980662 0.010469 0.005921 720230.000000 0 0 1
33.933673 24.456814 -18.575915 45.767833 0.624500 1.988730 0.012996 0.006467 519248.000000 0 0 1
35.270073 24.883014 -18.288115 46.878541 0.614407 1.971555 0.027423 -0.001115 838056.000000 0 0 1
36.216873 23.612614 -18.062315 46.855786 0.577765 1.966532 0.030190 -0.013509 345642.000000 0 0 1
36.324673 22.782814 -19.231615 46.993547 0.560179 1.992417 0.014908 -0.005598 110333.000000 0 0 1
-36.123439 23.267814 -20.321915 47.531824 -0.572230 2.012570 0.006790 0.002001 -567116.000000 0 0 1
-36.040739 22.344414 -21.561015 47.571894 -0.554979 2.041182 0.010644 0.000509 134198.000000 0 0 1
-35.492639 21.013114 -21.254915 46.400968 -0.534547 2.046620 -0.001173 0.003756 476686.000000 0 0 1
-35.257439 20.382814 -22.456815 46.506501 -0.524171 2.074731 0.005390 0.007883 126449.000000 0 0 1
-34.841239 18.891314 -22.291515 45.472028 -0.496844 2.083144 -0.000963 0.012904 768016.000000 0 0 1
-35.975639 18.075214 -21.943315 45.852689 -0.465589 2.069812 -0.007308 0.004053 648104.000000 0 0 1
-35.722739 16.746814 -22.380615 45.359253 -0.438377 2.086800 -0.004707 0.006137 -473833.000000 0 0 1
36.384773 15.691014 -22.298715 45.467486 0.407154 2.083382 -0.011161 0.005276 -588167.000000 0 0 1
35.372773 15.930614 -23.253415 45.229845 0.423156 2.110774 0.038425 0.001771 518198.000000 0 0 1
34.295473 14.972414 -23.158315 44.007502 0.411631 2.124964 0.067216 0.000430 168253.000000 0 0 1
34.538973 13.594414 -23.885815 44.139335 0.374974 2.142595 0.039485 -0.004843 -442260.000000 0 0 1
34.461873 13.653914 -25.278295 44.866940 0.377229 2.169299 0.044848 0.003502 123143.000000 0 0 1
35.092573 12.539814 -25.859825 45.359301 0.343195 2.177437 0.035031 0.006136 -239079.000000 0 0 1
34.924173 12.341014 -27.393805 46.069719 0.339670 2.207585 0.055286 0.004257 -570813.000000 0 0 1
33.636173 12.064914 -27.852605 45.306974 0.344394 2.232869 0.062240 0.002281 -536605.000000 0 0 1
32.959473 13.014414 -28.603825 45.539880 0.376068 2.249912 0.067425 0.006033 -121959.000000 0 0 1
33.439573 13.192414 -30.066655 46.864150 0.375769 2.267340 0.063535 -0.001795 -669512.000000 0 0 1
34.722373 13.717714 -30.218505 48.031000 0.376248 2.251250 0.064744 0.006931 -603736.000000 0 0 1
35.168173 13.777014 -31.554025 49.216491 0.373371 2.266762 0.059674 -0.001153 -703528.000000 0 0 1
-36.536139 14.047614 -31.730855 50.389206 -0.367061 2.251983 0.054983 0.001630 60543.500000 0 0 1
-35.675539 12.995514 -31.314035 49.215813 -0.349330 2.260437 0.047408 0.004193 136489.000000 0 0 1
-35.503139 12.904014 -29.929685 48.195150 -0.348616 2.240827 0.028587 0.000623 -890955.000000 0 0 1
-34.472339 11.841014 -29.501845 46.892544 -0.330866 2.251239 0.033319 -0.010416 -26595.000000 0 0 1
-34.892239 10.536514 -29.848895 47.110965 -0.293266 2.256977 0.039401 -0.016027 42747.400000 0 0 1
-33.953039 9.554714 -29.476695 45.967129 -0.274315 2.266930 0.039126 -0.022987 -289658.000000 0 0 1
-34.216139 8.097114 -29.906015 46.159259 -0.232371 2.275604 0.047025 -0.019096 -634352.000000 0 0 1
-34.093839 7.918514 -31.331835 46.976341 -0.228210 2.300932 0.051081 -0.017972 111932.000000 0 0 1
-34.523339 6.693514 -31.911715 47.487068 -0.191508 2.307714 0.057246 -0.015285 68079.600000 0 0 1
-35.898039 6.069814 -31.569155 48.188416 -0.167501 2.285137 0.071485 -0.007884 -6035.610000 0 0 1
-35.857339 5.502814 -30.260815 47.241366 -0.152276 2.266020 0.070492 -0.014808 765438.000000 0 0 1
36.070273 4.886014 -30.089175 47.226012 0.134639 2.261567 0.067770 -0.007769 557360.000000 0 0 1
35.886973 4.282514 -28.651405 46.120687 0.118772 2.241104 0.074998 -0.011932 -149303.000000 0 0 1
-36.379039 3.265914 -28.439475 46.291516 -0.089535 2.232366 0.086180 -0.015299 160959.000000 0 0 1
-36.593339 2.550514 -27.243575 45.692340 -0.069586 2.209605 0.100867 -0.018290 -146412.000000 0 0 1
-35.801039 1.204114 -27.190525 44.972091 -0.033621 2.220071 0.128318 -0.021052 -735258.000000 0 0 1
-34.512439 1.349314 -26.714505 43.664561 -0.039077 2.229146 0.119062 -0.014382 -1060370.000000 0 0 1
-33.796739 0.157014 -26.842035 43.159461 -0.004646 2.241997 0.132065 -0.012696 -20274.400000 0 0 1
-32.467539 0.263514 -26.052585 41.628689 -0.008116 2.246995 0.114208 -0.011430 21986.600000 0 0 1
-32.708739 0.199314 -24.668715 40.968852 -0.006094 2.216967 0.104912 -0.010480 -513080.000000 0 0 1
-31.581739 0.479514 -23.935315 39.629982 -0.015182 2.219269 0.113455 -0.005532 -757161.000000 0 0 1
-31.729039 0.174414 -22.500815 38.897931 -0.005497 2.187633 0.099416 -0.000939 -360158.000000 0 0 1
-31.876139 -1.183286 -22.099615 38.805688 0.037104 2.176687 0.111802 -0.009809 338726.000000 0 0 1
-32.340939 -1.399086 -20.760015 38.456105 0.043234 2.141039 0.116966 -0.006371 937180.000000 0 0 1
-33.873039 -1.261686 -20.425215 39.574790 0.037230 2.113107 0.108801 -0.005480 1098030.000000 0 0 1
-34.687939 -2.450286 -20.642715 40.439816 0.070521 2.106510 0.101130 -0.011657 155735.000000 0 0 1
-35.979739 -2.157486 -20.188215 41.312957 0.059892 2.081356 0.091895 -0.008662 265192.000000 0 0 1
36.285173 -3.409286 -19.923115 41.535136 -0.093683 2.071074 0.084578 -0.008099 190090.000000 0 0 1
35.850173 -4.224286 -21.011315 41.767869 -0.117291 2.097920 0.072136 -0.000189 122935.000000 0 0 1
-36.416139 -4.935586 -21.806715 42.732049 0.134712 2.106345 0.063947 -0.006062 -359795.000000 0 0 1
36.193773 -5.871986 -22.885615 43.222920 -0.160836 2.128782 0.061133 -0.015141 -645236.000000 0 0 1
35.671473 -7.073086 -22.393215 42.707594 -0.195745 2.122734 0.067331 -0.005675 326911.000000 0 0 1
34.979573 -7.806186 -23.399515 42.802388 -0.219566 2.149199 0.064234 -0.005403 1049720.000000 0 0 1
33.561573 -7.379186 -23.941215 41.880943 -0.216426 2.179311 0.039306 0.000551 196332.000000 0 0 1
33.604473 -6.198086 -24.677715 42.150522 -0.182392 2.196252 0.035292 -0.007308 151307.000000 0 0 1
32.272773 -5.827786 -25.010815 41.243616 -0.178654 2.222343 0.021149 -0.005322 356639.000000 0 0 1
32.090173 -4.607686 -25.897435 41.493218 -0.142611 2.244822 0.049166 -0.031689 -42381.900000 0 0 1
32.179373 -4.871786 -27.289095 42.472827 -0.150254 2.268562 0.052368 -0.034040 267088.000000 0 0 1
31.897973 -3.746286 -28.068365 42.653821 -0.116910 2.289023 0.051360 -0.033991 -138070.000000 0 0 1
31.508173 -4.178586 -29.519115 43.377456 -0.131850 2.319265 0.062557 -0.031331 279915.000000 0 0 1
30.884673 -3.226486 -30.375635 43.439066 -0.104091 2.345172 0.060487 -0.039726 218310.000000 0 0 1
30.239073 -3.803486 -31.486585 43.820921 -0.125123 2.372481 0.066074 -0.041659 -618834.000000 0 0 1
29.783873 -2.788686 -32.581335 44.231202 -0.093359 2.398847 0.074891 -0.040011 -677776.000000 0 0 1
28.828973 -1.788186 -32.249625 43.293713 -0.061948 2.411186 0.060369 -0.037047 -273.881000 0 0 1
27.566673 -2.221086 -31.830555 42.166799 -0.080398 2.426256 0.060610 -0.039651 -954420.000000 0 0 1
26.634473 -2.629186 -32.958975 42.457058 -0.098395 2.459555 0.058369 -0.040792 -1395160.000000 0 0 1
27.075973 -3.830686 -33.586295 43.310757 -0.140546 2.458259 0.071040 -0.040591 -111207.000000 0 0 1
26.480573 -4.055586 33.348409 42.775985 -0.151972 0.676760 0.064700 -0.035790 -528482.000000 0 0 1
26.904773 -5.376886 32.608472 42.615609 -0.197250 0.699481 0.057636 -0.040247 868805.000000 0 0 1
28.277473 -5.522286 32.170142 43.185983 -0.192862 0.730380 0.054011 -0.031914 1031400.000000 0 0 1
28.597973 -4.895086 30.936096 42.412828 -0.169526 0.753346 0.063126 -0.032894 -459988.000000 0 0 1
28.911173 -3.369186 31.030186 42.545032 -0.116012 0.753426 0.050774 -0.029717 -939853.000000 0 0 1
30.172173 -3.132586 31.584236 43.791975 -0.103453 0.765215 0.062887 -0.034050 -302666.000000 0 0 1
30.516273 -1.773786 31.640996 43.994793 -0.058061 0.768148 0.060158 -0.030767 288091.000000 0 0 1
31.869973 -1.534786 32.380380 45.459210 -0.048121 0.778033 0.065032 -0.037082 692664.000000 0 0 1
32.995273 -1.863286 31.569866 45.703570 -0.056411 0.808267 0.073183 -0.031859 43807.800000 0 0 1
34.197673 -1.610686 32.280439 47.054244 -0.047065 0.814783 0.088505 -0.027846 591999.000000 0 0 1
35.404773 -2.408486 31.653226 47.552344 -0.067923 0.842432 0.105944 -0.023192 243914.000000 0 0 1
35.857173 -1.816686 30.480916 47.096958 -0.050621 0.866897 0.092260 -0.023871 -676006.000000 0 0 1
-36.383239 -2.636486 29.934716 47.188752 0.072338 0.883614 0.089842 -0.022150 -128493.000000 0 0 1
-35.763639 -2.198486 28.544376 45.811053 0.061395 0.898110 0.081788 -0.024803 618840.000000 0 0 1
36.553673 -2.316386 27.432506 45.761108 -0.063285 0.927955 0.078100 -0.023945 22346.400000 0 0 1
-36.027439 -1.785386 26.311796 44.648343 0.049516 0.940590 0.072473 -0.014030 201204.000000 0 0 1
-26.511787 15.126914 12.226885 32.881531 -0.518501 1.189799 0.066585 -0.015206 -537029.000000 0 0 1
-27.539377 14.347714 12.750685 33.568648 -0.480298 1.181174 0.068871 -0.005720 -270757.000000 0 0 1
-28.505567 15.197914 13.308185 34.937827 -0.489819 1.180015 0.068770 -0.007615 -551842.000000 0 0 1
-29.835007 14.529514 13.653885 35.884021 -0.453190 1.180459 0.071906 -0.006522 169147.000000 0 0 1
-30.823297 15.452614 14.179585 37.281625 -0.464710 1.180636 0.088016 -0.010538 470850.000000 0 0 1
-31.935637 14.708214 14.660285 38.093837 -0.431599 1.175755 0.097545 -0.019642 484497.000000 0 0 1
-33.061127 15.513514 15.383585 39.627792 -0.438736 1.172117 0.101716 -0.020066 -82815.800000 0 0 1
-32.709077 16.086914 16.618785 40.060661 -0.457081 1.143029 0.105880 -0.012151 376354.000000 0 0 1
-33.795337 16.307614 17.531585 41.417624 -0.449583 1.133725 0.134721 -0.034565 719708.000000 0 0 1
-33.185257 16.657214 18.947885 41.686286 -0.465203 1.098946 0.136578 -0.014682 327051.000000 0 0 1
-32.429817 15.622914 19.499585 40.939007 -0.448938 1.074345 0.129682 -0.013175 299187.000000 0 0 1
-31.493847 15.941814 20.555285 40.847565 -0.468586 1.043476 0.116334 -0.011003 590062.000000 0 0 1
-32.081007 16.321814 21.921485 42.144325 -0.470638 1.023767 0.115781 -0.017501 -692691.000000 0 0 1
-32.758327 17.552914 21.878985 43.126590 -0.491900 1.038724 0.123225 -0.019547 519665.000000 0 0 1
-33.361517 18.041314 23.097985 44.407170 -0.495739 1.023780 0.123317 -0.027196 139809.000000 0 0 1
-34.216177 17.040414 24.021485 45.145921 -0.462064 1.009735 0.119479 -0.028943 654707.000000 0 0 1
-35.384164 16.396614 23.513585 45.538738 -0.433932 1.028222 0.108497 -0.026151 302017.000000 0 0 1
-36.440567 17.183414 23.033685 46.408354 -0.440627 1.051434 0.084608 -0.028647 -826224.000000 0 0 1
35.525195 16.277214 22.925885 45.305446 0.429642 1.040221 0.064171 -0.035199 -103731.000000 0 0 1
34.990805 15.987214 24.244085 45.472224 0.428575 1.008462 0.061895 -0.024638 -166965.000000 0 0 1
33.877245 15.150914 24.106185 44.252978 0.420548 0.994722 0.064527 -0.029197 -209339.000000 0 0 1
33.326285 14.530314 25.390185 44.344479 0.411152 0.961163 0.055052 -0.036416 -1166510.000000 0 0 1
32.495485 15.311114 26.152585 44.433596 0.440324 0.941499 0.072468 -0.032365 -341442.000000 0 0 1
32.323115 14.803114 27.452585 44.917262 0.429464 0.913244 0.068295 -0.027949 -380637.000000 0 0 1
31.631175 13.464214 27.615485 44.095706 0.402432 0.894047 0.059644 -0.023273 -822627.000000 0 0 1
32.196035 12.366414 26.921485 43.752477 0.366723 0.908013 0.063450 -0.029722 258035.000000 0 0 1
31.296735 11.258014 26.867685 42.756298 0.345306 0.891313 0.070094 -0.024688 334283.000000 0 0 1
32.117055 10.042714 26.410085 42.776792 0.303059 0.905372 0.078882 -0.020173 -185878.000000 0 0 1
32.938535 9.566214 27.420885 43.913147 0.282651 0.896389 0.080346 -0.019643 -83680.500000 0 0 1
33.570605 8.330914 27.051185 43.910776 0.243247 0.907079 0.080424 -0.013655 -105087.000000 0 0 1
34.639475 7.738814 27.975585 45.193095 0.219801 0.903298 0.072551 -0.010440 -205383.000000 0 0 1
35.847005 8.459314 27.989985 46.260210 0.231744 0.920961 0.079764 -0.011796 -310495.000000 0 0 1
-36.395607 7.744414 28.733285 47.012954 -0.209657 0.913248 0.062324 -0.013580 -68613.300000 0 0 1
-35.096945 8.552814 28.866385 46.240830 -0.239032 0.896610 0.046330 -0.008200 37815.900000 0 0 1
-34.353877 8.747514 27.662085 44.965529 -0.249331 0.908177 0.045037 -0.009248 1333830.000000 0 0 1
-33.029247 9.266514 27.946485 44.247095 -0.273523 0.887181 0.073796 -0.003867 1155440.000000 0 0 1
-32.250017 9.906614 26.788685 43.079441 -0.298032 0.899701 0.078093 -0.008869 -128270.000000 0 0 1
-31.753067 9.011614 25.833785 41.914805 -0.276532 0.906709 0.069811 -0.011927 785924.000000 0 0 1
-30.713587 9.594114 25.006585 40.751696 -0.302770 0.910143 0.079406 -0.008786 621435.000000 0 0 1
-29.967487 8.564014 24.127685 39.414944 -0.278358 0.912025 0.073767 -0.011241 63869.000000 0 0 1
-28.963097 9.191714 23.356885 38.326136 -0.307306 0.915462 0.071851 -0.014737 -97183.000000 0 0 1
-28.284527 8.264214 22.554285 37.108051 -0.284268 0.917509 0.051699 -0.004714 -132607.000000 0 0 1
-27.343917 9.050114 21.621185 36.014858 -0.319625 0.926869 0.042950 -0.004133 -548029.000000 0 0 1
-26.265177 9.705914 22.308185 35.801109 -0.353971 0.898078 0.047037 -0.005064 619583.000000 0 0 1
-25.466227 10.483714 21.448985 34.906961 -0.390527 0.909093 0.034222 0.005805 394116.000000 0 0 1
-24.503927 9.737614 20.432285 33.357785 -0.378254 0.911553 0.019896 0.004633 -481646.000000 0 0 1
-25.150777 9.366914 19.226885 33.014751 -0.356516 0.949152 0.017510 0.008079 292669.000000 0 0 1
-24.321027 8.719714 18.274385 31.646468 -0.344250 0.955189 0.030880 0.000908 -89300.500000 0 0 1
-24.223127 7.162314 18.454085 31.282773 -0.287490 0.939846 0.030393 0.007137 -449122.000000 0 0 1
-23.405827 6.810814 19.541485 31.242432 -0.283169 0.895051 0.025439 0.010281 177032.000000 0 0 1
-23.403227 5.412214 19.933885 31.214786 -0.227264 0.878114 0.046618 0.000804 -404800.000000 0 0 1
-23.180527 4.281414 18.908685 30.219294 -0.182640 0.894748 0.047886 -0.007188 -798408.000000 0 0 1
-24.251627 4.165714 18.012685 30.495105 -0.170110 0.938902 0.081208 -0.006497 16411.300000 0 0 1
-24.082727 3.275614 16.910085 29.608417 -0.135186 0.962922 0.064326 -0.008110 -132296.000000 0 0 1
-24.233927 1.776214 17.293185 29.824359 -0.073164 0.952271 0.083817 -0.013517 748068.000000 0 0 1
-22.961527 1.285914 17.753685 29.053031 -0.055945 0.913374 0.057891 -0.009192 1162340.000000 0 0 1
-23.167227 0.026914 18.325285 29.538741 -0.001162 0.901567 0.091481 -0.024214 55472.600000 0 0 1
-21.896227 -0.839386 18.503685 28.679883 0.038316 0.869538 0.066670 -0.009718 920922.000000 0 0 1
-20.897527 -0.412886 19.494885 28.581946 0.019755 0.820207 0.045852 -0.003779 568149.000000 0 0 1
-20.010627 -1.463686 19.747385 28.151852 0.073015 0.793353 0.040010 0.003032 -227589.000000 0 0 1
-18.899427 -0.876786 20.661785 28.015468 0.046359 0.741415 0.042922 0.005040 77325.400000 0 0 1
-19.265027 -0.769786 22.046885 29.288205 0.039936 0.718557 0.051543 0.003290 -796977.000000 0 0 1
-18.180727 -0.539186 22.871285 29.221999 0.029648 0.671847 0.039015 0.000733 -1842030.000000 0 0 1
-18.523827 -0.859986 24.380485 30.631353 0.046393 0.650250 0.050619 0.000566 262014.000000 0 0 1
-19.425427 0.061614 24.963985 31.631496 -0.003172 0.661270 0.043704 -0.007123 -97349.100000 0 0 1
-20.773127 -0.139186 24.598085 32.196397 0.006700 0.701304 0.105012 -0.020805 -745575.000000 0 0 1
-21.678027 0.990714 25.063185 33.152400 -0.045670 0.713617 0.086335 -0.029746 -263463.000000 0 0 1
-21.393127 2.187514 24.327285 32.469492 -0.101899 0.723890 0.071548 -0.022042 99200.900000 0 0 1
-22.581027 2.891114 24.124085 33.169757 -0.127340 0.756429 0.068050 -0.022597 -744957.000000 0 0 1
-22.210027 4.170314 23.398685 32.529606 -0.185606 0.767996 0.065678 -0.011005 102861.000000 0 0 1
-21.748027 3.968914 22.080585 31.245499 -0.180509 0.786001 0.067971 -0.006223 1301850.000000 0 0 1
-20.375927 3.512614 21.991385 30.185060 -0.170712 0.754591 0.048596 -0.003609 283621.000000 0 0 1
-20.172527 2.622814 20.730285 29.044013 -0.129294 0.775953 0.046565 -0.003477 -268967.000000 0 0 1
-19.936127 3.385714 19.589685 28.154360 -0.168223 0.801269 0.036406 -0.002128 344327.000000 0 0 1
-19.351927 2.566714 18.589385 26.956452 -0.131864 0.809849 0.047398 -0.010437 -225373.000000 0 0 1
-18.768927 3.219914 17.410085 25.802161 -0.169902 0.830166 0.030997 -0.005013 -176985.000000 0 0 1
-17.455127 3.720614 17.596685 25.063275 -0.210010 0.792467 0.037469 -0.018360 282632.000000 0 0 1
-17.010627 4.459414 16.427885 24.064979 -0.256385 0.819418 0.047831 -0.017257 -465763.000000 0 1 0
-15.632027 5.054614 16.689385 23.418902 -0.312739 0.777534 0.054838 -0.010493 -599417.000000 0 1 0
-15.508227 6.038014 17.696285 24.292411 -0.371285 0.754711 0.068656 -0.010486 -120349.000000 0 1 0
-16.165027 7.242214 17.499185 24.899382 -0.421204 0.791476 0.064138 -0.020219 -375970.000000 0 1 0
-15.483027 8.168514 16.419285 24.000868 -0.485466 0.817411 0.039742 -0.014588 206436.000000 0 1 0
-15.809027 7.955214 15.051185 23.232497 -0.466210 0.866037 0.035023 -0.016033 1133410.000000 0 1 0
-17.196127 8.127514 14.678785 24.025611 -0.441518 0.913519 0.032440 -0.008328 843873.000000 0 1 0
-17.444227 7.612414 13.306385 23.223044 -0.411475 0.960657 0.034205 -0.015343 -359564.000000 0 1 0
-17.418627 6.178414 13.363885 22.807341 -0.340857 0.944749 0.043495 -0.015622 258426.000000 0 1 0
-17.639527 5.546914 12.153785 22.127712 -0.304669 0.989322 0.028301 -0.021997 -382214.000000 0 1 0
-17.311127 4.022714 12.350285 21.642248 -0.228325 0.963491 0.028786 -0.013780 79126.700000 0 1 0
-18.134627 3.325214 13.271585 22.716882 -0.181348 0.946882 0.040903 -0.015025 525785.000000 0 1 0
-17.564327 2.027014 13.425085 22.200164 -0.114897 0.921371 0.027716 -0.015342 -213232.000000 0 1 0
-18.383027 1.116414 14.371285 23.360563 -0.060656 0.908164 0.026881 -0.018325 -57361.000000 0 1 0
-19.693027 0.870314 13.944785 24.146010 -0.044165 0.955110 0.042704 -0.016233 -24747.500000 0 1 0
-20.633627 0.430114 14.890485 25.449128 -0.020842 0.945783 0.055802 -0.018321 618445.000000 0 0 1
-22.084627 0.313314 14.316285 26.320808 -0.014186 0.995701 0.067066 -0.026026 333490.000000 0 0 1
-22.221627 -0.752086 13.422485 25.971705 0.033832 1.027674 0.081251 -0.030945 -953303.000000 0 0 1
-23.507327 -1.023486 13.053685 26.908003 0.043512 1.064293 0.115819 -0.038054 -1387090.000000 0 0 1
-23.669727 -2.252686 12.159785 26.705635 0.094886 1.098057 0.109393 -0.038475 -46608.800000 0 0 1
-23.261027 -3.478286 12.835885 26.794286 0.148433 1.071221 0.083271 -0.030231 368959.000000 0 0 1
-22.914027 -4.430486 11.855385 26.176936 0.190996 1.100787 0.081612 -0.032406 -170863.000000 0 0 1
-22.793927 -5.775386 12.560185 26.658515 0.248152 1.080201 0.087063 -0.028807 407306.000000 0 0 1
-23.984827 -6.261886 13.192485 28.080684 0.255377 1.081725 0.090734 -0.026521 692646.000000 0 0 1
-23.999027 -7.683986 13.202385 28.448197 0.309865 1.088195 0.089939 -0.029301 24787.400000 0 0 1
-24.841127 -8.316386 14.354185 29.871165 0.323055 1.069530 0.099859 -0.023028 -62171.900000 0 0 1
-26.176467 -7.897586 14.388785 30.896867 0.293021 1.086367 0.140598 -0.031516 -272011.000000 0 0 1
-26.754627 -8.229686 15.649485 32.069365 0.298413 1.061012 0.141518 -0.024523 -871601.000000 0 0 1
-28.128487 -7.566986 15.805885 33.140565 0.262794 1.073632 0.156840 -0.029801 -530758.000000 0 0 1
-29.135777 -7.859986 14.856785 33.636244 0.263498 1.113315 0.127751 -0.024671 614043.000000 0 0 1
-29.661887 -9.204986 14.793785 34.400805 0.300907 1.126257 0.125464 -0.032244 -135588.000000 0 0 1
-30.266957 -9.828486 16.136385 35.680117 0.313985 1.101508 0.123578 -0.028541 -416272.000000 0 0 1
-29.232257 -10.283286 16.972785 35.331944 0.338259 1.069708 0.128803 -0.011790 123402.000000 0 0 1
-29.687987 -10.753186 18.214985 36.452617 0.347508 1.047556 0.104532 -0.005660 -735824.000000 0 0 1
-28.563177 -11.012386 19.157485 36.112836 0.367983 1.011618 0.107285 -0.008621 -666088.000000 0 0 1
-27.618607 -11.941286 18.753685 35.455359 0.408091 1.013448 0.087538 -0.014806 -47933.600000 0 0 1
-26.318447 -11.733586 19.279285 34.670283 0.419382 0.981140 0.083485 -0.022121 556761.000000 0 0 1
-25.153917 -12.595986 18.719785 33.790661 0.464253 0.983644 0.054017 -0.014960 88434.400000 0 0 1
-24.631127 -12.228886 17.459685 32.574202 0.460828 1.005108 0.053307 -0.012488 68260.500000 0 0 1
-23.638627 -13.157486 17.081285 31.994912 0.507904 1.007620 0.048063 -0.020758 -163359.000000 0 0 1
-23.454327 -13.075886 15.521285 31.016037 0.508586 1.046704 0.044112 -0.019524 -496164.000000 0 0 1
-22.718427 -11.951286 15.162185 29.813621 0.484279 1.037278 0.043965 -0.021873 -463082.000000 0 0 1
-22.381027 -12.021386 13.849785 28.935111 0.492904 1.071680 0.054189 -0.021054 981113.000000 0 0 1
-21.089527 -11.126086 13.572385 27.436610 0.485455 1.053328 0.053482 -0.027870 761939.000000 0 0 1
-21.360227 -9.713086 13.784285 27.214148 0.426778 1.039662 0.049508 -0.026975 804643.000000 0 0 1
-20.206827 -8.863386 13.550085 25.893634 0.413361 1.020080 0.051044 -0.026169 873415.000000 0 0 1
-19.643627 -8.841286 12.058285 24.686892 0.422924 1.060485 0.065231 -0.019555 -192828.000000 0 1 0
-18.831327 -9.962886 11.818585 24.363024 0.486624 1.064315 0.052337 -0.019179 29102.000000 0 1 0
-18.203927 -9.924986 10.549085 23.263093 0.499159 1.100143 0.045194 -0.007938 -218133.000000 0 1 0
-17.673027 -11.288586 10.016185 23.239880 0.568424 1.125205 0.030767 -0.007894 1587280.000000 0 1 0
-16.251427 -11.561086 10.054985 22.335405 0.618329 1.103828 0.037003 -0.007561 1201930.000000 0 1 0
-15.615327 -11.703486 11.290885 22.545379 0.643173 1.046265 0.048372 -0.009133 -878020.000000 0 1 0
-14.191127 -12.187586 11.045885 21.724109 0.709591 1.037399 0.049931 -0.013934 -503293.000000 0 1 0
-14.151627 -13.484986 10.575585 22.225130 0.761281 1.074879 0.059621 -0.022545 -152577.000000 0 1 0
-12.794427 -13.841386 10.555685 21.603329 0.824684 1.060296 0.066293 -0.023592 -92988.600000 0 1 0
-12.590627 -15.362786 10.517085 22.475501 0.884246 1.083843 0.087562 -0.025472 -59067.300000 0 1 0
-12.981327 -15.983986 9.336485 22.609127 0.888693 1.145103 0.069685 -0.022723 -105955.000000 0 1 0
-12.688327 -17.392486 9.378885 23.483094 0.940526 1.159946 0.074230 -0.018201 255843.000000 0 1 0
-13.001627 -18.125586 7.994685 23.695868 0.948548 1.226656 0.066166 -0.017916 -160820.000000 0 1 0
-12.140927 -17.869686 6.918985 22.684800 0.974020 1.260852 0.062824 -0.019496 -390554.000000 0 1 0
-12.413727 -18.640986 5.799985 23.134969 0.983299 1.317391 0.049723 -0.009826 -289883.000000 0 1 0
-11.533827 -18.382186 4.570585 22.177109 1.010440 1.363214 0.053173 -0.006945 -451090.000000 0 1 0
-11.728627 -19.196886 3.467285 22.761880 1.022353 1.417872 0.063344 -0.007535 -284127.000000 0 1 0
-10.910927 -19.102186 2.335785 22.122335 1.051832 1.465014 0.066016 -0.017908 -253334.000000 0 1 0
-11.116627 -20.178386 1.170885 23.067675 1.067249 1.520016 0.081995 -0.018790 -77040.400000 0 1 0
-10.605327 -21.502386 1.438085 24.018611 1.112590 1.510887 0.051898 -0.020166 -336898.000000 0 1 0
-11.008927 -22.553086 0.632385 25.104543 1.116687 1.545604 0.059138 -0.023752 216929.000000 0 0 1
-10.205527 -22.754786 -0.729715 24.949259 1.149190 1.600048 0.071782 -0.017352 224289.000000 0 1 0
-10.338727 -21.755386 -1.755715 24.150955 1.127164 1.643558 0.079751 -0.034089 138582.000000 0 1 0
-11.507127 -21.738786 -2.572215 24.730651 1.083956 1.674994 0.099349 -0.024391 1013460.000000 0 1 0
-12.701427 -20.787286 -2.258315 24.465026 1.022314 1.663236 0.100808 -0.020517 1034830.000000 0 1 0
-13.459427 -20.955386 -1.009315 24.925952 0.999861 1.611300 0.103132 -0.014039 386743.000000 0 1 0
-14.440127 -19.965486 -0.876715 24.655760 0.944633 1.606362 0.108829 0.002114 -27090.300000 0 1 0
26.584673 -20.531986 -3.843215 33.809431 -0.657636 1.684715 0.088873 -0.028130 232942.000000 0 0 1
25.254873 -20.702486 -3.379315 32.830189 -0.686663 1.673912 0.058154 -0.023415 291235.000000 0 0 1
25.295773 -21.460086 -2.163615 33.242934 -0.703545 1.635927 0.046512 -0.024809 342659.000000 0 0 1
23.894973 -21.637686 -1.484915 32.270175 -0.735864 1.616828 0.033116 -0.020710 724565.000000 0 0 1
23.019273 -22.403286 -2.297515 32.203614 -0.771838 1.642200 0.041274 -0.023440 225855.000000 0 0 1
21.751873 -22.666786 -1.705615 31.461664 -0.805993 1.625035 0.025808 -0.012777 301000.000000 0 0 1
20.762573 -23.342286 -2.655415 31.352799 -0.843822 1.655593 0.036741 -0.013028 -61785.100000 0 0 1
20.164973 -22.528286 -3.631615 30.452232 -0.840697 1.690337 0.043473 -0.018783 -281663.000000 0 0 1
19.253073 -23.223486 -4.455015 30.493578 -0.878600 1.717418 0.054187 -0.012461 674958.000000 0 0 1
18.295773 -22.221186 -5.243315 29.257628 -0.881980 1.750982 0.041666 0.006486 911438.000000 0 0 1
17.268873 -21.530786 -4.495215 27.964186 -0.894804 1.732246 0.042414 0.008631 1138840.000000 0 0 1
17.739573 -20.366986 -3.733715 27.266228 -0.854238 1.708163 0.035598 -0.001307 409761.000000 0 0 1
16.618373 -19.939786 -2.731115 26.100275 -0.876002 1.675628 0.054576 0.004140 531339.000000 0 0 1
16.483573 -20.848386 -1.640715 26.628093 -0.901789 1.632451 0.058534 0.000832 470594.000000 0 0 1
15.460073 -20.378286 -0.754615 25.590190 -0.921779 1.600289 0.066126 0.003518 281920.000000 0 0 1
15.230773 -21.172986 0.562085 26.088076 -0.947202 1.549249 0.054255 -0.001587 -414251.000000 0 0 1
14.555273 -22.385286 0.429785 26.704713 -0.994269 1.554702 0.079468 -0.001689 -359870.000000 0 0 1
13.911973 -22.661386 1.664485 26.643046 -1.020214 1.508282 0.065493 -0.001851 -64294.500000 0 0 1
12.902973 -23.815086 1.473285 27.125921 -1.074272 1.516457 0.066489 -0.004179 -72112.100000 0 0 1
13.317873 -25.128016 1.708685 28.490394 -1.083437 1.510786 0.053106 -0.004102 -3876.870000 0 0 1
12.223973 -25.993106 1.475385 28.761847 -1.131208 1.519477 0.049934 -0.009941 103668.000000 0 0 1
12.444573 -27.337356 2.133585 30.112300 -1.143608 1.499883 0.054798 -0.010272 49781.200000 0 0 1
12.251373 -27.201116 3.520485 30.039818 -1.147610 1.453332 0.061421 -0.019279 9835.040000 0 0 1
12.471873 -28.405816 4.192885 31.305244 -1.157077 1.436457 0.059563 -0.017178 72732.800000 0 0 1
12.021373 -28.505096 5.686485 31.454571 -1.171701 1.389013 0.054763 -0.019932 -149900.000000 0 0 1
12.305373 -29.773736 6.182085 32.804203 -1.178880 1.381209 0.041993 -0.022630 -195983.000000 0 0 1
12.117773 -29.927306 7.599785 33.169878 -1.186067 1.339626 0.034983 -0.016674 -25867.800000 0 0 1
12.404873 -31.370266 8.131785 34.700150 -1.194232 1.334252 0.033198 -0.015182 130845.000000 0 0 1
12.001973 -31.507596 9.482385 35.024157 -1.206843 1.296636 0.030821 -0.012549 -500353.000000 0 0 1
11.276073 -32.652136 9.644885 35.865521 -1.238279 1.298527 0.029109 -0.010470 -245414.000000 0 0 1
11.038473 -32.981986 11.153585 36.524810 -1.247833 1.260469 0.029942 -0.011389 -74564.000000 0 0 1
12.219573 -33.493926 11.746585 37.538558 -1.220972 1.252530 0.032454 -0.017694 167712.000000 0 0 1
12.092573 -33.902686 13.109185 38.307612 -1.228179 1.221530 0.038018 -0.016961 -223956.000000 0 0 1
11.104073 33.253016 13.574385 37.594247 1.248512 1.201375 0.037492 -0.013419 -257702.000000 0 0 1
11.364873 31.995367 12.981085 36.350686 1.229493 1.205627 0.050312 -0.020817 -703500.000000 0 0 1
10.308373 31.135487 13.107285 35.319711 1.251074 1.190599 0.048299 -0.013748 -905807.000000 0 0 1
10.232073 30.017747 12.017585 33.914345 1.242280 1.208576 0.046353 -0.014671 -361127.000000 0 0 1
9.970973 30.444667 10.718485 33.781414 1.254295 1.247926 0.024148 -0.011378 75491.600000 0 0 1
10.908273 31.312907 10.051185 34.648447 1.235580 1.276475 0.018958 -0.014697 33530.400000 0 0 1
10.572373 31.656177 8.635485 34.474051 1.248468 1.317608 0.011503 -0.014983 437892.000000 0 0 1
9.395573 32.478370 8.548785 34.874102 1.289197 1.323140 0.009689 -0.011881 385652.000000 0 0 1
8.861273 32.552840 7.245185 34.506553 1.305024 1.359257 0.007827 -0.011462 -67359.000000 0 0 1
9.307073 33.805025 6.398485 35.641856 1.302136 1.390296 0.015306 -0.007845 -129609.000000 0 0 1
8.896773 -33.183616 6.902185 35.042048 -1.308849 1.372531 0.016314 -0.009477 -82007.400000 0 0 1
9.309973 -32.104656 6.109585 33.981047 -1.288550 1.390019 0.027067 -0.018517 -50544.100000 0 0 1
8.446973 -30.854606 6.425385 32.628877 -1.303577 1.372578 0.032855 -0.019377 179739.000000 0 0 1
8.766673 -30.367446 7.725085 32.537874 -1.289751 1.331089 0.035339 -0.015469 -7431.330000 0 0 1
8.102773 -29.155006 8.061085 31.315338 -1.299717 1.310449 0.060087 -0.015357 356298.000000 0 0 1
8.929173 -27.884696 7.647285 30.261649 -1.260896 1.315321 0.073188 -0.016156 -7775.310000 0 0 1
9.736573 -27.310676 8.665485 30.261601 -1.228332 1.280379 0.063386 -0.014842 210797.000000 0 0 1
10.582673 -26.238826 8.281285 29.479631 -1.187430 1.286048 0.056841 -0.019450 208703.000000 0 0 1
10.004573 -25.134566 7.299985 28.020130 -1.191980 1.307229 0.069200 -0.017537 -373750.000000 0 0 1
9.695373 -25.520456 6.032785 27.958691 -1.207732 1.353311 0.072220 -0.019883 -249636.000000 0 0 1
8.847773 -24.582086 5.366085 26.671275 -1.225305 1.368220 0.080407 -0.014902 541466.000000 0 0 1
8.475473 -25.063086 3.939685 26.749076 -1.244703 1.422976 0.076640 -0.015628 525664.000000 0 0 1
7.571973 -26.162746 3.790185 27.498901 -1.289076 1.432526 0.064728 -0.021292 148815.000000 0 0 1
8.137373 -27.443586 4.138485 28.922211 -1.282542 1.427213 0.063679 -0.019567 -144908.000000 0 0 1
7.272373 -28.625236 3.686485 29.763765 -1.322005 1.446619 0.060743 -0.020584 -1628150.000000 0 0 1
6.091373 -28.603426 4.392685 29.572901 -1.360971 1.421707 0.050474 -0.018417 -819309.000000 0 0 1
5.087273 -29.396656 3.718985 30.064507 -1.399437 1.446778 0.043720 -0.011519 704325.000000 0 0 1
5.141073 -30.895206 4.029785 31.578213 -1.405904 1.442835 0.043220 -0.011773 -680884.000000 0 0 1
6.130073 -31.471386 3.249785 32.227116 -1.378423 1.469785 0.054266 -0.019249 -507193.000000 0 0 1
6.063073 -32.841166 3.518685 33.581009 -1.388234 1.465822 0.042277 -0.012547 224920.000000 0 0 1
7.157373 -33.685886 2.815585 34.552777 -1.361436 1.489219 0.037819 -0.010425 65311.300000 0 0 1
7.029473 -33.733836 1.401085 34.486928 -1.365356 1.530159 0.057778 -0.016102 -304535.000000 0 0 1
7.865673 33.546374 0.804685 34.465570 1.340485 1.547447 0.048275 -0.014621 -349893.000000 0 0 1
7.252973 33.049545 -0.517515 33.840003 1.354763 1.586090 0.079044 -0.011783 -9534.610000 0 0 1
6.211173 32.126837 -0.381915 32.723969 1.379820 1.582467 0.054870 -0.009393 75940.700000 0 0 1
4.941273 32.768434 -0.575815 33.143898 1.421130 1.588170 0.056398 -0.016977 927558.000000 0 0 1
3.659773 31.896527 -0.367815 32.107906 1.456557 1.582252 0.061955 -0.020555 508038.000000 0 0 1
3.552673 30.890147 -1.364015 31.123676 1.456290 1.614636 0.056972 -0.020533 -176834.000000 0 0 1
2.934573 29.715997 -0.897215 29.874022 1.472362 1.600834 0.040295 -0.022880 -69684.300000 0 0 1
2.729273 28.826617 -2.101715 29.031706 1.476399 1.643253 0.044144 -0.021483 79063.000000 0 0 1
1.813073 29.348867 -3.045515 29.562110 1.509098 1.674000 0.043270 -0.033775 -52654.600000 0 0 1
1.880073 28.536407 -4.204315 28.905664 1.505008 1.716764 0.052305 -0.044296 -234390.000000 0 0 1
1.672373 29.281837 -5.506115 29.841918 1.513745 1.756369 0.061012 -0.044945 -441586.000000 0 0 1
0.392573 29.866197 -5.565115 30.382796 1.557653 1.755003 0.064054 -0.040922 -111386.000000 0 0 1
0.203973 30.740287 -6.675415 31.457400 1.564161 1.784627 0.062059 -0.038493 -265004.000000 0 0 1
0.113373 30.086377 -8.016715 31.136323 1.567028 1.831201 0.066866 -0.038126 -777168.000000 0 0 1
-1.115527 29.518837 -8.380915 30.705795 -1.533024 1.847247 0.068532 -0.038472 -271028.000000 0 0 1
-1.124027 29.066817 -9.738615 30.675461 -1.532145 1.893859 0.078587 -0.032754 18548.700000 0 0 1
-1.245027 30.086007 -10.879915 32.017034 -1.529438 1.917518 0.063842 -0.031303 318145.000000 0 0 1
-0.046827 30.839027 -11.068815 32.765323 -1.569278 1.915397 0.053700 -0.026807 205044.000000 0 0 1
-0.309727 32.198320 -11.364115 34.146315 -1.561177 1.910074 0.050761 -0.028290 73205.800000 0 0 1
-0.581027 33.179082 -10.186515 34.712450 -1.553286 1.868634 0.041716 -0.029347 50346.300000 0 0 1
0.540873 33.354517 -9.356915 34.646330 1.554582 1.844261 0.038640 -0.034907 -131005.000000 0 0 1
0.209473 -33.961546 -8.320815 34.966648 -1.564628 1.811066 0.040163 -0.027690 -238087.000000 0 0 1
1.417673 -33.607956 -7.452615 34.453534 -1.528639 1.788829 0.044947 -0.027014 387709.000000 0 0 1
2.461373 -32.857186 -8.132515 33.938044 -1.496025 1.812779 0.050777 -0.026037 -57415.200000 0 0 1
3.291973 -32.495786 -7.063915 33.417242 -1.469836 1.783788 0.053280 -0.026688 -1459840.000000 0 0 1
4.550373 -31.707586 -7.614315 32.924986 -1.428259 1.804172 0.038974 -0.026553 532060.000000 0 0 1
5.439873 -32.541616 -8.306415 34.022721 -1.405161 1.817432 0.047925 -0.023866 93554.500000 0 0 1
6.052373 -33.549906 -7.455615 34.897186 -1.392317 1.786101 0.066026 -0.021370 -1604200.000000 0 0 1
6.376173 33.319531 -8.195415 34.900022 1.381718 1.807835 0.065085 -0.025717 116124.000000 0 0 1
5.307373 32.413183 -8.374115 33.895552 1.408495 1.820438 0.067298 -0.028145 77808.300000 0 0 1
4.385473 32.779512 -9.432715 34.390476 1.437799 1.848640 0.063946 -0.028594 854640.000000 0 0 1
3.369873 31.627117 -9.707515 33.254570 1.464647 1.867025 0.064891 -0.032861 -192209.000000 0 0 1
4.040273 30.485987 -10.134115 32.379306 1.439035 1.889127 0.068179 -0.030040 -245835.000000 0 0 1
3.325573 29.282997 -10.224415 31.194422 1.457714 1.904732 0.057543 -0.031659 -39905.500000 0 0 1
4.182773 28.360927 -11.120615 30.749078 1.424368 1.940841 0.054888 -0.028991 327331.000000 0 0 1
4.162073 28.758477 -12.508915 31.636147 1.427069 1.977299 0.063183 -0.019664 -168410.000000 0 0 1
5.384673 28.507157 -13.152715 31.853518 1.384107 1.996446 0.060145 -0.018835 -147655.000000 0 0 1
5.485273 29.011347 -14.588015 32.932607 1.383929 2.029700 0.065285 -0.016996 -197479.000000 0 0 1
4.543473 28.313847 -15.371415 32.536095 1.411685 2.062856 0.070689 -0.016256 100684.000000 0 0 1
4.529973 28.826667 -16.672615 33.607640 1.414926 2.089893 0.091724 -0.013110 -314593.000000 0 0 1
3.372373 28.201197 -17.431415 33.324685 1.451779 2.121255 0.069394 -0.014307 -283171.000000 0 0 1
3.623173 26.862877 -17.904415 32.485529 1.436729 2.154539 0.086866 -0.010710 -7707.150000 0 0 1
2.568873 26.459957 -18.745215 32.528626 1.474014 2.184951 0.089998 -0.024529 136369.000000 0 0 1
3.027673 25.336637 -19.690315 32.230738 1.451862 2.228015 0.102332 -0.026803 215967.000000 0 0 1
3.102773 24.111227 -18.997715 30.852741 1.442814 2.234140 0.109641 -0.031115 135086.000000 0 0 1
4.258173 23.372587 -19.389915 30.665594 1.390586 2.255317 0.105015 -0.030217 510453.000000 0 0 1
4.795373 22.261307 -18.468615 29.319808 1.358626 2.252224 0.099609 -0.019241 257551.000000 0 0 1
3.913073 21.132307 -18.397515 28.290548 1.387700 2.278784 0.128871 -0.024734 44654.500000 0 0 1
4.368573 20.245107 -17.434015 27.072009 1.358271 2.270494 0.105982 -0.023746 -194079.000000 0 0 1
3.464473 19.030707 -17.310315 25.957992 1.390722 2.300782 0.103035 -0.029181 -78001.400000 0 0 1
2.255473 19.235707 -16.601915 25.509276 1.454075 2.279459 0.102256 -0.032305 174420.000000 0 0 1
1.406173 18.110307 -16.495715 24.537097 1.493307 2.308076 0.083270 -0.020461 395824.000000 0 1 0
1.971473 17.105907 -15.391015 23.095066 1.456052 2.300193 0.077567 -0.016385 412574.000000 0 1 0
3.156873 16.362407 -15.663915 22.870340 1.380204 2.325264 0.078535 -0.028969 -61499.300000 0 1 0
3.084373 15.166507 -16.489715 22.615194 1.370165 2.387865 0.075028 -0.034874 -296917.000000 0 1 0
2.913073 15.325107 -18.050515 23.857200 1.382952 2.428904 0.074047 -0.033172 732770.000000 0 1 0
4.008073 16.124807 -18.601015 24.941367 1.327168 2.412516 0.075249 -0.028832 735951.000000 0 1 0
3.835073 16.487207 -19.936815 26.153630 1.342251 2.437650 0.055918 -0.022306 -533013.000000 0 0 1
4.272473 15.448307 -20.985815 26.406602 1.300975 2.489340 0.058171 -0.021658 -384285.000000 0 0 1
3.492673 14.345107 -21.278315 25.898794 1.331968 2.534999 0.056666 -0.024064 -304619.000000 0 0 1
2.251973 14.657107 -21.901615 26.449629 1.418345 2.546417 0.063880 -0.028283 316533.000000 0 0 1
1.621773 13.383907 -22.571115 26.290955 1.450211 2.603158 0.075766 -0.020407 52202.200000 0 0 1
1.222373 12.397107 -21.637815 24.967529 1.472513 2.619221 0.074904 -0.020940 -274460.000000 0 1 0
0.235973 11.637307 -22.257615 25.117405 1.550522 2.659751 0.066230 -0.011603 -264522.000000 0 0 1
-0.519227 10.583407 -21.392315 23.872772 -1.521775 2.681693 0.044472 -0.008725 -910682.000000 0 1 0
-1.447527 11.182307 -20.543015 23.434052 -1.442064 2.639611 0.037015 -0.007334 -296479.000000 0 1 0
-1.997327 10.411307 -19.483915 22.181244 -1.381257 2.643292 0.027315 -0.006143 231117.000000 0 1 0
-3.084027 9.423607 -19.941515 22.270600 -1.254516 2.680167 0.021188 -0.006133 -676267.000000 0 1 0
-2.583127 8.419007 -20.760915 22.551448 -1.273094 2.740416 0.022125 -0.001107 104337.000000 0 1 0
-3.609127 7.461807 -21.091215 22.661503 -1.120290 2.767137 0.024266 0.005086 204596.000000 0 1 0
-3.031427 6.263507 -21.817515 22.900328 -1.120045 2.832850 0.022267 -0.003410 -103614.000000 0 1 0
-2.313227 5.409807 -20.975915 21.785455 -1.166727 2.868126 0.021724 -0.003313 -31174.000000 0 1 0
-1.973227 4.233807 -21.679715 22.177213 -1.134664 2.929379 0.030065 -0.008011 -443856.000000 0 1 0
-1.215227 3.114007 -20.993315 21.257777 -1.198727 2.983690 0.024203 -0.003058 617346.000000 0 1 0
0.197773 3.356107 -20.915215 21.183692 1.511935 2.982215 0.023369 -0.000746 263603.000000 0 1 0
0.805973 2.445307 -20.056815 20.221398 1.252410 3.013920 0.022487 0.003713 851178.000000 0 1 0
2.369173 2.511407 -20.226115 20.518671 0.814533 2.972524 0.020591 0.004658 903288.000000 0 1 0
2.920173 1.880907 -21.366215 21.646717 0.572222 2.980433 0.036007 0.003667 698737.000000 0 1 0
4.348373 2.124407 -21.350415 21.892046 0.454447 2.918686 0.051771 0.007082 803234.000000 0 1 0
5.034473 1.074207 -22.214815 22.803461 0.210218 2.913884 0.054509 -0.004276 -211078.000000 0 1 0
6.400373 1.404707 -22.406915 23.345403 0.216047 2.857085 0.067272 -0.003050 153962.000000 0 1 0
6.993673 0.457607 -23.293015 24.324585 0.065338 2.849320 0.071152 -0.012630 675700.000000 0 1 0
8.560073 0.441107 -23.260215 24.789252 0.051485 2.788531 0.064363 -0.019050 531361.000000 0 1 0
9.106373 1.648507 -23.628215 25.375897 0.179088 2.768291 0.063651 -0.021247 376102.000000 0 0 1
10.502873 1.630407 -23.303515 25.612934 0.154005 2.713680 0.061704 -0.020067 584077.000000 0 0 1
14.308373 -21.641686 21.742086 33.849821 -0.986624 0.873288 0.069086 0.004988 -452081.000000 0 0 1
13.259473 -22.582186 22.005786 34.205604 -1.039868 0.871945 0.053292 0.011073 677084.000000 0 0 1
11.961673 -22.018186 22.157186 33.448812 -1.073140 0.846751 0.037225 0.001034 767235.000000 0 0 1
11.286973 -21.566186 20.810886 32.024820 -1.088632 0.863427 0.042474 -0.001961 -863077.000000 0 0 1
11.828473 -20.374686 20.352186 31.132813 -1.044803 0.858305 0.043030 0.002085 -77329.700000 0 0 1
11.395573 -20.035586 19.050486 29.903257 -1.053659 0.880105 0.062336 0.001799 -12412.800000 0 0 1
11.882573 -18.651186 18.621386 28.910522 -1.003547 0.870945 0.070967 -0.005647 -206669.000000 0 0 1
11.196273 -17.590986 19.248986 28.378209 -1.003986 0.825348 0.074463 -0.006961 -55252.800000 0 0 1
11.275473 -16.341586 18.565786 27.182202 -0.966823 0.818917 0.082974 -0.004677 563870.000000 0 0 1
10.117373 -15.346286 18.935886 26.390102 -0.987931 0.770536 0.101366 -0.004006 536899.000000 0 0 1
8.791273 -15.623886 18.587986 25.824514 -1.058269 0.767310 0.085846 -0.003922 349113.000000 0 0 1
7.891473 -14.506786 18.872986 25.078113 -1.072583 0.718843 0.072460 -0.006653 1290140.000000 0 0 1
6.384873 -14.681486 18.517186 24.478537 -1.160576 0.712903 0.052532 -0.002382 412682.000000 0 1 0
6.054973 -14.670486 17.118886 23.343995 -1.179363 0.747587 0.040626 -0.007645 1151500.000000 0 1 0
4.639373 -14.891086 16.873186 22.977655 -1.268774 0.746117 0.023072 -0.005754 1220870.000000 0 1 0
4.048573 -16.293086 17.067986 23.941005 -1.327245 0.777145 0.015677 0.008484 119983.000000 0 1 0
2.756473 -16.394586 16.464986 23.398212 -1.404221 0.790225 0.019903 0.001002 202139.000000 0 1 0
2.175873 -17.627586 16.627886 24.330080 -1.447982 0.818347 0.029534 -0.004624 -776256.000000 0 1 0
0.703973 -17.771686 16.320186 24.138700 -1.531205 0.828339 0.027076 0.004248 -618254.000000 0 1 0
0.490073 -17.790186 14.935786 23.233781 -1.543256 0.872586 0.031748 0.002496 -944644.000000 0 1 0
-0.851427 -18.013086 14.672286 23.248057 1.523564 0.887802 0.028506 0.004471 -1157620.000000 0 1 0
-1.292327 -17.939386 13.188586 22.303149 1.498882 0.938086 0.024158 -0.020226 23780.200000 0 1 0
-2.623027 -18.330186 12.919686 22.578624 1.428662 0.961600 0.017251 -0.024504 -63755.200000 0 1 0
-2.670727 -19.725786 12.693486 23.608558 1.436222 1.003132 0.021629 -0.025096 195807.000000 0 1 0
-4.085727 -20.325486 12.446386 24.181213 1.372425 1.030123 0.015335 -0.020246 393004.000000 0 1 0
-4.748427 -20.633086 13.678586 25.206656 1.344598 0.997198 0.026709 -0.030794 -661138.000000 0 0 1
-5.984727 -21.168786 13.336286 25.725298 1.295272 1.025804 0.023806 -0.031776 -766278.000000 0 0 1
-6.703127 -21.870786 14.499686 27.083280 1.273398 1.005846 0.040677 -0.031016 577915.000000 0 0 1
-8.123227 -21.898686 14.302186 27.387803 1.215585 1.021356 0.049356 -0.034755 787836.000000 0 0 1
-8.805127 -22.639286 15.341386 28.730222 1.199868 1.007495 0.052333 -0.035207 -50807.100000 0 0 1
-10.271827 -22.211386 15.369986 28.897968 1.137631 1.009988 0.072417 -0.039234 -384444.000000 0 0 1
-10.419927 -20.880686 15.799986 28.181864 1.107931 0.975633 0.070273 -0.036238 -688304.000000 0 0 1
-11.745427 -20.448486 15.847886 28.412165 1.049420 0.979081 0.094715 -0.031302 -445825.000000 0 0 1
-11.993027 -19.230286 16.727086 28.167925 1.013166 0.934980 0.090906 -0.025026 -157672.000000 0 0 1
-12.031027 -19.491886 18.109086 29.199627 1.017802 0.901822 0.087089 -0.030776 -102644.000000 0 0 1
-12.544527 -18.398786 18.808586 29.148643 0.972381 0.869427 0.086645 -0.033452 -221329.000000 0 0 1
-13.050927 -18.837086 20.194486 30.544717 0.964898 0.848453 0.083900 -0.031214 -432648.000000 0 0 1
-14.172627 -19.662586 20.089786 31.481425 0.946252 0.878707 0.100286 -0.025484 -449872.000000 0 0 1
-14.794727 -19.895286 21.334986 32.709142 0.931385 0.860229 0.091768 -0.022521 -505527.000000 0 0 1
-16.243727 -20.287986 21.074186 33.460160 0.895655 0.889463 0.096640 -0.024896 -1195050.000000 0 0 1
-16.286727 -21.441086 20.233186 33.680253 0.921177 0.926366 0.104688 -0.024870 505481.000000 0 0 1
-17.567927 -21.793386 19.717086 34.239556 0.892339 0.957144 0.098776 -0.017991 632667.000000 0 0 1
-18.594327 -22.432186 20.696386 35.739227 0.878673 0.953179 0.096660 -0.020843 -227633.000000 0 0 1
-18.980027 -21.604186 21.780086 36.074290 0.849968 0.922591 0.084742 -0.017858 -348818.000000 0 0 1
-19.838527 -22.289486 22.627886 37.448759 0.843511 0.921990 0.065065 -0.011360 -293436.000000 0 0 1
-20.393827 -21.384886 23.739456 37.904924 0.809115 0.894012 0.044845 -0.001771 -147477.000000 0 0 1
-21.555827 -20.655286 23.433316 37.952797 0.764067 0.905321 0.049380 0.005432 35849.500000 0 0 1
-21.642327 -19.435586 24.209916 37.845110 0.731729 0.876675 0.048408 -0.001360 257960.000000 0 0 1
-22.768227 -18.484086 23.721856 37.719756 0.681917 0.890662 0.047757 -0.008368 -30040.000000 0 0 1
-22.447827 -17.857686 22.487686 36.448565 0.672003 0.905909 0.058507 -0.005011 -75484.900000 0 0 1
-23.375627 -16.845686 22.203986 36.376009 0.624452 0.914228 0.053027 -0.010702 -414893.000000 0 0 1
-23.122127 -16.272086 20.809486 35.106242 0.613235 0.936318 0.060048 -0.011424 719272.000000 0 0 1
-21.971027 -15.386386 20.777086 33.928663 0.610930 0.911734 0.060892 -0.009507 398614.000000 0 0 1
-21.656527 -15.103186 19.431086 32.782289 0.608977 0.936351 0.050743 -0.006235 275801.000000 0 0 1
-20.479727 -14.077086 19.237486 31.427129 0.602197 0.912045 0.051153 -0.019239 487995.000000 0 0 1
-20.284327 -13.849186 17.872786 30.375818 0.599057 0.941732 0.043133 -0.019683 557127.000000 0 0 1
-19.184727 -12.950186 17.599486 29.077533 0.593767 0.920703 0.048273 -0.034873 58113.900000 0 0 1
-18.732427 -13.071386 16.089486 27.939873 0.609244 0.957139 0.043721 -0.040018 218877.000000 0 0 1
-18.085327 -11.939686 15.511686 26.650470 0.583503 0.949559 0.033678 -0.033666 564409.000000 0 0 1
-16.783227 -11.637486 16.003886 25.946717 0.606283 0.906128 0.038538 -0.035893 -168416.000000 0 0 1
-16.114427 -10.448386 15.273286 24.538068 0.575241 0.898950 0.029557 -0.024898 -113923.000000 0 1 0
-16.800127 -9.259986 15.520286 24.675309 0.503753 0.890555 0.031740 -0.026463 -88588.000000 0 1 0
-16.398827 -8.241686 14.702686 23.516290 0.465708 0.895392 0.023272 -0.014367 -477569.000000 0 1 0
-16.763027 -6.761486 15.197186 23.615063 0.383397 0.871685 0.037169 -0.012942 593375.000000 0 1 0
-16.024427 -6.339786 16.347086 23.752944 0.376736 0.811773 0.033478 -0.014229 -40820.500000 0 1 0
-14.672027 -6.012686 16.246386 22.701670 0.388931 0.773246 0.037179 -0.019496 -138629.000000 0 1 0
-13.788027 -6.050686 17.552186 23.125737 0.413531 0.709037 0.029083 -0.018076 451538.000000 0 1 0
-13.810627 -7.249486 18.343186 24.078225 0.483385 0.704684 0.022718 -0.018853 187667.000000 0 1 0
-13.135427 -8.351486 17.715886 23.582607 0.566327 0.720878 0.023053 -0.019554 -618644.000000 0 1 0
-13.181627 -9.578286 18.658186 24.771490 0.628382 0.717865 0.036999 -0.019348 863908.000000 0 1 0
-14.504427 -10.090586 18.965086 25.920509 0.607828 0.750037 0.041435 -0.021669 791598.000000 0 0 1
-15.104827 -9.356986 19.988186 26.743907 0.554613 0.726668 0.023900 -0.015741 156687.000000 0 0 1
-16.507527 -9.966586 20.481486 28.130456 0.543180 0.755266 0.026774 -0.018441 2512430.000000 0 0 1
-17.608627 -9.926886 19.519086 28.099849 0.513339 0.802887 0.043180 -0.020535 1119650.000000 0 0 1
-17.979927 -8.676886 18.941786 27.520126 0.449621 0.811669 0.033317 -0.018003 -923327.000000 0 0 1
-19.144627 -8.896386 17.981886 27.731041 0.435006 0.865264 0.043098 -0.021185 -1320090.000000 0 0 1
-20.394127 -9.058986 18.530586 29.006348 0.418017 0.877799 0.051782 -0.023868 -1668260.000000 0 0 1
-21.217727 -9.193986 17.432586 28.958873 0.408893 0.924821 0.078130 -0.020686 -308043.000000 0 0 1
-22.684327 -9.497086 17.839686 30.381371 0.396491 0.943211 0.072001 -0.014251 433743.000000 0 0 1
-23.358927 -8.416486 18.517786 30.973942 0.345831 0.929979 0.085102 -0.010393 741883.000000 0 0 1
-24.754027 -8.572786 18.697386 32.184573 0.333392 0.950910 0.091619 -0.008739 -61049.600000 0 0 1
-25.425777 -7.418786 19.442586 32.856090 0.283900 0.937569 0.119047 -0.010532 -285749.000000 0 0 1
-25.326307 -7.349186 20.839086 33.611008 0.282423 0.902044 0.114721 -0.015843 406628.000000 0 0 1
-26.145027 -6.329486 21.432486 34.394422 0.237522 0.898047 0.114144 -0.019858 -428297.000000 0 0 1
-26.152647 -6.403086 22.994886 35.407982 0.240112 0.863966 0.109897 -0.017758 375269.000000 0 0 1
-25.002627 -6.037886 23.761916 35.017368 0.236953 0.824975 0.093390 -0.018248 -43631.900000 0 0 1
-23.906327 -6.886986 23.560706 34.264411 0.280487 0.812598 0.094416 -0.016102 -1075390.000000 0 0 1
-22.926127 -6.776286 24.725906 34.393252 0.287388 0.768553 0.085342 -0.009251 -176265.000000 0 0 1
-22.242427 -5.508786 24.745746 33.725720 0.242785 0.746993 0.071622 -0.003502 301502.000000 0 0 1
-21.410927 -5.304786 25.867346 33.995413 0.242870 0.706087 0.064366 -0.009195 30734.800000 0 0 1
-20.825227 -3.871086 25.815516 33.393356 0.183787 0.687124 0.057653 -0.007870 126340.000000 0 0 1
-20.003627 -3.494486 26.916596 33.717349 0.172947 0.646327 0.047393 -0.008514 338603.000000 0 0 1
-20.684827 -3.326286 28.173696 35.109591 0.159443 0.639406 0.055680 -0.016617 101248.000000 0 0 1
-21.461027 -2.037986 28.403566 35.657981 0.094678 0.649220 0.074999 -0.023100 243056.000000 0 0 1
-22.705327 -1.942486 27.740266 35.900243 0.085344 0.687706 0.097559 -0.026736 -360559.000000 0 0 1
-23.483527 -0.900486 28.270816 36.763105 0.038327 0.693522 0.089097 -0.035048 414482.000000 0 0 1
-24.832327 -0.733986 27.513316 37.069741 0.029549 0.734443 0.070652 -0.025934 -193596.000000 0 0 1
-24.669527 -0.046986 26.305036 36.063037 0.001905 0.753325 0.072715 -0.027595 81135.700000 0 0 1
-25.747957 -0.035186 25.375036 36.150393 0.001367 0.792693 0.081086 -0.027565 126626.000000 0 0 1
-26.305217 -1.451886 24.865896 36.226857 0.055138 0.814278 0.081405 -0.026576 -10772.700000 0 0 1
-27.151017 -2.004186 25.867426 37.554203 0.073683 0.810961 0.057101 -0.017294 56996.300000 0 0 1
-27.549677 -3.353486 25.694926 37.821419 0.121129 0.823886 0.046528 -0.012478 618045.000000 0 0 1
-26.427387 -4.433686 25.953406 37.304740 0.166221 0.801384 0.067419 -0.023796 581890.000000 0 0 1
-26.281197 -4.669286 27.338676 38.208726 0.175832 0.773444 0.060350 -0.022053 39203.400000 0 0 1
-25.261407 -5.619686 27.586676 37.825180 0.218897 0.753468 0.075824 -0.021971 139519.000000 0 0 1
-24.952027 -6.021286 29.035396 38.754532 0.236788 0.723923 0.058591 -0.014482 351259.000000 0 0 1
-26.043107 -6.790586 29.557696 39.975153 0.255065 0.738615 0.066793 -0.013661 656861.000000 0 0 1
-25.829677 -7.186986 30.897076 40.907875 0.271381 0.714709 0.061758 -0.004991 -445873.000000 0 0 1
-27.117917 -7.708386 31.574766 42.329262 0.276949 0.728863 0.038976 -0.006566 -106500.000000 0 0 1
-27.670247 -8.786986 30.853966 42.365326 0.307489 0.754983 0.045945 -0.014360 -756647.000000 0 0 1
-28.930517 -9.042186 31.360686 43.614545 0.302929 0.768374 0.040919 -0.009463 -328533.000000 0 0 1
-29.934557 -9.802886 30.426426 43.794311 0.316471 0.802714 0.031046 -0.016319 329982.000000 0 0 1
-29.585067 -11.205086 30.185326 43.726239 0.362047 0.808858 0.035838 -0.019128 199541.000000 0 0 1
-30.552207 -11.833086 29.365686 43.997759 0.369517 0.840036 0.023579 -0.015368 36296.500000 0 0 1
-30.017057 -13.101086 28.675306 43.530855 0.411533 0.851660 0.034868 -0.025230 305477.000000 0 0 1
-29.129507 -12.673886 27.623666 42.097773 0.410384 0.855053 0.057238 -0.028418 -243919.000000 0 0 1
-28.370537 -13.697486 27.083946 41.545741 0.449799 0.860700 0.064680 -0.032781 -41314.500000 0 0 1
-26.996067 -13.121986 26.606516 40.110857 0.452442 0.845544 0.079010 -0.030897 65336.500000 0 0 1
-26.125527 -12.558986 27.554196 39.993812 0.448103 0.810741 0.066427 -0.031000 -122813.000000 0 0 1
-26.495317 -11.351986 28.188556 40.317044 0.404791 0.796557 0.071291 -0.036852 -1205090.000000 0 0 1
-26.517467 -9.953786 27.439336 39.435657 0.359093 0.801263 0.073299 -0.028953 790294.000000 0 0 1
-25.211787 -9.557486 26.977306 38.141247 0.362350 0.785125 0.068468 -0.023148 672513.000000 0 0 1
-24.717127 -10.160686 25.801296 37.146773 0.390020 0.802965 0.059501 -0.028182 -225312.000000 0 0 1
-25.422057 -9.987786 24.394856 36.621658 0.374352 0.841786 0.080589 -0.021962 409403.000000 0 0 1
-26.649787 -10.714886 24.316486 37.633913 0.382283 0.868290 0.078258 -0.028842 419711.000000 0 0 1
-27.495457 -10.319386 23.270116 37.469830 0.359045 0.900732 0.097337 -0.028076 -175337.000000 0 0 1
-28.776837 -11.187986 23.164686 38.598964 0.370801 0.927123 0.094902 -0.034862 -199987.000000 0 0 1
-29.969127 -10.690186 23.672686 39.658854 0.342637 0.931155 0.094156 -0.028941 -673225.000000 0 0 1
-30.011937 -10.622486 25.136936 40.563766 0.340182 0.902449 0.101661 -0.032913 875029.000000 0 0 1
-31.498007 -10.462986 25.718496 41.988564 0.320712 0.911562 0.042338 -0.025238 541323.000000 0 0 1
-32.067567 -9.207386 25.391636 41.926602 0.279603 0.920250 0.065911 -0.033490 -538270.000000 0 0 1
-33.444527 -9.110286 25.619306 43.103161 0.265947 0.934312 0.053962 -0.022997 -241052.000000 0 0 1
-33.861567 -9.255386 27.139616 44.371462 0.266813 0.912657 0.040808 -0.021300 -1162580.000000 0 0 1
-33.919267 -10.531186 27.687696 45.033666 0.301042 0.908636 0.035603 -0.030456 245513.000000 0 0 1
-34.586837 -10.510586 28.949246 46.311775 0.295022 0.895543 0.045606 -0.029027 -709833.000000 0 0 1
-34.958987 -11.834886 29.525676 47.264795 0.326426 0.896066 0.052912 -0.021366 365010.000000 0 0 1
-36.101517 -12.536386 29.011186 47.980510 0.334226 0.921476 0.045847 -0.025732 682727.000000 0 0 1
35.914655 -12.014386 29.580086 48.054026 -0.322824 0.907701 0.066446 -0.023474 451235.000000 0 0 1
34.556685 -12.517186 28.957466 46.790803 -0.347521 0.903492 0.073954 -0.029499 884480.000000 0 0 1
34.448115 -12.095386 27.597586 45.766775 -0.337671 0.923534 0.063228 -0.020138 -339967.000000 0 0 1
33.370065 -12.742686 26.971966 44.759627 -0.364771 0.924046 0.061241 -0.011629 -121071.000000 0 0 1
33.129685 -12.427886 25.509776 43.620833 -0.358883 0.946154 0.054215 -0.008096 246544.000000 0 0 1
32.529875 -11.162886 25.263206 42.673556 -0.330567 0.937245 0.066770 -0.019864 147419.000000 0 0 1
32.827085 -10.874086 23.908526 42.041418 -0.319878 0.965884 0.055326 -0.019521 -133392.000000 0 0 1
32.637665 -9.360986 23.613496 41.357495 -0.279317 0.963121 0.058524 0.016219 -806160.000000 0 0 1
31.298255 -8.987586 23.620916 40.228163 -0.279635 0.943234 0.063855 0.004964 -946899.000000 0 0 1
31.107485 -7.653186 23.380626 39.659810 -0.241233 0.940320 0.059942 0.013092 283432.000000 0 0 1
29.601485 -7.284886 23.246756 38.337047 -0.241303 0.919298 0.054517 0.018150 425903.000000 0 0 1
29.165405 -8.078686 22.145486 37.500781 -0.270220 0.939076 0.043585 0.022194 -38543.900000 0 0 1
27.775785 -7.889086 21.912886 36.247848 -0.276739 0.921622 0.062423 0.004390 334348.000000 0 0 1
14.533673 -18.366286 25.481296 34.609891 -0.901368 0.743294 0.058947 0.017495 -30587.400000 0 0 1
13.618773 -19.414486 25.346166 34.710537 -0.959081 0.752159 0.033401 0.010755 399660.000000 0 0 1
14.406573 -20.629486 25.439876 35.781452 -0.961180 0.779906 0.058734 -0.009540 -181710.000000 0 0 1
13.565273 -21.932686 25.632156 36.360236 -1.016888 0.788443 0.016770 -0.020915 178022.000000 0 0 1
12.909473 -22.045086 26.864566 37.072162 -1.041037 0.760261 0.036131 -0.026194 132319.000000 0 0 1
11.934673 -21.086086 27.183846 36.414570 -1.055754 0.727995 0.043961 -0.010975 -1188360.000000 0 0 1
11.407273 -21.221486 28.607726 37.401595 -1.077574 0.699942 0.038577 -0.009262 -237530.000000 0 0 1
12.252273 -20.825286 29.665866 38.260610 -1.038997 0.683506 0.043751 -0.007926 459958.000000 0 0 1
11.563073 -19.807886 30.472966 38.139987 -1.042403 0.645204 0.039842 -0.005128 536527.000000 0 0 1
11.526673 -18.326786 29.921456 36.932760 -1.009360 0.626371 0.046940 0.003698 802186.000000 0 0 1
12.687273 -17.526586 30.187606 37.140808 -0.944218 0.621874 0.050831 0.011498 406082.000000 0 0 1
12.325673 -16.221486 29.831206 36.124225 -0.921030 0.599186 0.058590 0.005445 -20359.100000 0 0 1
13.393673 -15.141786 30.026916 36.197787 -0.846583 0.592542 0.062534 0.003963 -444006.000000 0 0 1
12.933673 -13.908486 29.716966 35.267888 -0.821699 0.568691 0.072152 0.005824 -78937.100000 0 0 1
13.540173 -12.850186 30.434686 35.703412 -0.759259 0.550179 0.071510 0.004783 -189704.000000 0 0 1
13.015173 -11.487686 29.874696 34.552266 -0.723140 0.526396 0.064812 -0.008857 170382.000000 0 0 1
13.408073 -11.018686 28.564966 33.423721 -0.687890 0.545956 0.075097 -0.005460 486962.000000 0 0 1
14.815573 -10.863686 28.385986 33.812498 -0.632702 0.574413 0.058805 0.001622 292941.000000 0 0 1
15.232173 -9.900286 27.181306 32.693396 -0.576346 0.589173 0.054986 -0.002441 -217767.000000 0 0 1
15.263873 -8.507186 27.479956 32.565411 -0.508462 0.566399 0.056967 -0.007683 -2541.590000 0 0 1
16.343673 -7.992886 28.234666 33.588662 -0.454850 0.572404 0.051522 -0.009042 -619693.000000 0 0 1
16.621573 -6.524586 27.932126 33.151931 -0.374056 0.568798 0.047737 -0.009513 -670281.000000 0 0 1
17.957673 -6.305986 28.246046 34.059985 -0.337706 0.592937 0.046890 -0.013962 -572950.000000 0 0 1
18.437773 -5.056886 27.797656 33.737712 -0.267685 0.602477 0.051558 -0.011950 741476.000000 0 0 1
19.986273 -4.865086 27.605516 34.426511 -0.238777 0.640381 0.052692 -0.015617 418535.000000 0 0 1
20.409673 -5.725586 26.492796 33.929417 -0.273503 0.674818 0.051354 -0.010091 49734.000000 0 0 1
21.731873 -5.536986 26.063656 34.383814 -0.249478 0.710523 0.075708 -0.008653 404552.000000 0 0 1
22.926973 -5.987686 26.968456 35.899806 -0.255457 0.720896 0.069044 -0.024051 -94894.000000 0 0 1
23.305373 -4.948486 27.877036 36.670929 -0.209225 0.707184 0.073772 -0.023850 277586.000000 0 0 1
24.346073 -5.384086 28.755576 38.060515 -0.217645 0.714345 0.077233 -0.035738 -57079.300000 0 0 1
24.957873 -4.152486 29.384346 38.776002 -0.164870 0.710866 0.070254 -0.033332 -262926.000000 0 0 1
25.807873 -3.446986 28.480436 38.588382 -0.132778 0.740610 0.065427 -0.023415 248450.000000 0 0 1
26.136373 -2.128486 28.913626 39.033808 -0.081258 0.736636 0.055361 -0.029943 -541941.000000 0 0 1
26.887573 -1.399686 27.793706 38.696134 -0.052010 0.769505 0.066060 -0.026861 179801.000000 0 0 1
28.276173 -1.644486 27.916116 39.768779 -0.058093 0.792650 0.070938 -0.025652 104505.000000 0 0 1
29.141373 -1.039786 26.959716 39.713059 -0.035666 0.824584 0.064320 -0.004615 150.176000 0 0 1
30.596073 -1.092486 27.411046 41.093535 -0.035692 0.840567 0.053333 -0.005628 -534092.000000 0 0 1
30.852873 -0.148786 28.434536 41.957654 -0.004822 0.826171 0.051444 -0.002260 880052.000000 0 0 1
32.251973 -0.152386 28.793556 43.235192 -0.004725 0.841996 0.063668 -0.011318 1026980.000000 0 0 1
32.617673 0.989714 29.771016 44.172452 0.030334 0.831223 0.071999 -0.020120 -137793.000000 0 0 1
32.878773 2.230414 29.170966 44.010609 0.067734 0.846222 0.065337 -0.014967 32154.700000 0 0 1
33.280173 3.099314 30.197976 45.045459 0.092860 0.836064 0.057804 -0.014219 -193089.000000 0 0 1
33.626173 4.505814 29.652466 45.058746 0.133204 0.852524 0.064971 -0.012230 41199.600000 0 0 1
33.476573 5.594014 30.553946 45.667467 0.165573 0.837863 0.067190 -0.011404 97596.400000 0 0 1
32.143573 6.029514 30.726796 44.874272 0.185426 0.816562 0.049636 -0.006052 67230.700000 0 0 1
31.943573 6.908514 31.956546 45.709301 0.212992 0.796622 0.037325 -0.004839 41698.800000 0 0 1
32.530673 6.215814 33.043768 46.784309 0.188800 0.786538 0.036539 0.001978 229363.000000 0 0 1
32.720373 7.021114 -34.053560 47.744778 0.211374 2.364908 0.037077 -0.007391 -382290.000000 0 0 1
33.258673 6.255014 -32.832445 47.151182 0.185900 2.341058 0.054601 -0.003955 -206732.000000 0 0 1
32.456473 5.255614 -32.224065 46.037316 0.160535 2.346131 0.032142 0.000911 92815.100000 0 0 1
32.627773 3.951314 -32.776865 46.416671 0.120516 2.354834 0.055307 -0.008345 120.482000 0 0 1
32.074673 2.814314 -31.888095 45.316174 0.087518 2.351360 0.059528 -0.022860 -51398.200000 0 0 1
32.466073 1.558814 -32.328955 45.843616 0.047977 2.353503 0.066903 -0.025442 85352.800000 0 0 1
32.566773 0.576514 -31.301295 45.174087 0.017701 2.336305 0.052822 -0.028286 45973.800000 0 0 1
32.751673 -0.877586 -31.817705 45.670654 -0.026789 2.341552 0.075517 -0.046357 -942800.000000 0 0 1
33.882273 -1.105686 -32.615255 47.042383 -0.032622 2.336877 0.079680 -0.039618 -375297.000000 0 0 1
34.421173 -2.392686 -32.462935 47.374933 -0.069400 2.325722 0.079929 -0.039203 831280.000000 0 0 1
35.466373 -2.480386 -31.262955 47.343303 -0.069823 2.292076 0.086986 -0.035315 227642.000000 0 0 1
34.790273 -2.342786 -29.992725 45.993644 -0.067239 2.281155 0.074405 -0.034341 91806.000000 0 0 1
35.593273 -1.947186 -28.889505 45.883288 -0.054652 2.251873 0.072472 -0.031771 -45089.700000 0 0 1
34.782373 -1.578886 -27.603765 44.432805 -0.045362 2.241130 0.075291 -0.027248 -135555.000000 0 0 1
34.303973 -0.251586 -27.607815 44.034274 -0.007334 2.248444 0.070684 -0.023103 46617.900000 0 0 1
33.514173 0.065914 -26.515745 42.735101 0.001967 2.240135 0.075799 -0.020524 -222978.000000 0 0 1
32.881373 1.482214 -26.559005 42.293763 0.045047 2.249732 0.062340 -0.024189 -142351.000000 0 0 1
31.904973 1.733014 -27.521025 42.170339 0.054265 2.281828 0.069643 -0.035695 -166955.000000 0 0 1
31.117773 2.842714 -27.199495 41.427157 0.091101 2.287048 0.046433 -0.016707 139160.000000 0 0 1
30.254173 3.245814 -28.449385 41.655946 0.106876 2.322605 0.054029 -0.013847 86566.200000 0 0 1
29.327173 4.279514 -28.186315 40.900681 0.144900 2.331099 0.046490 -0.009631 60049.500000 0 0 1
28.827473 4.795514 -29.371345 41.433031 0.164843 2.358716 0.045484 -0.007911 -125744.000000 0 0 1
27.647573 5.794614 -29.197245 40.625669 0.206598 2.372712 0.041911 -0.005875 489345.000000 0 0 1
26.527373 5.118914 -28.615895 39.354469 0.190624 2.384931 0.043530 -0.011344 1108460.000000 0 0 1
25.537373 5.993514 -28.033885 38.392426 0.230524 2.389401 0.042287 -0.011980 660634.000000 0 0 1
24.137173 5.486414 -27.628415 37.094921 0.223504 2.411036 0.040014 -0.006261 6533.500000 0 0 1
23.360573 5.075514 -28.746135 37.387398 0.213943 2.447872 0.052858 -0.007565 -282464.000000 0 0 1
22.168973 4.549314 -28.223895 36.176621 0.202401 2.465733 0.049647 -0.003198 -713294.000000 0 0 1
21.288673 4.016714 -29.336245 36.468574 0.186486 2.505504 0.044769 0.000675 -602047.000000 0 0 1
21.704473 2.732414 -29.769665 36.942972 0.125233 2.507868 0.037389 -0.007345 340626.000000 0 0 1
20.887773 2.007214 -30.699965 37.186232 0.095801 2.542014 0.022206 -0.004580 -145316.000000 0 0 1
20.743373 2.619514 -32.083815 38.295177 0.125617 2.564043 0.046838 -0.004233 277598.000000 0 0 1
21.951873 2.562014 -32.841985 39.585915 0.116185 2.549256 0.054485 -0.009828 69150.500000 0 0 1
22.003773 3.274114 -34.078254 40.696600 0.147714 2.563257 0.061116 -0.020891 -234192.000000 0 0 1
23.303373 2.932514 33.370664 40.807451 0.125183 0.613290 0.054032 -0.018317 -221532.000000 0 0 1
23.503073 1.561214 33.022954 40.562881 0.066329 0.619588 0.055349 -0.023395 637910.000000 0 0 1
24.881973 1.180014 32.903735 41.269368 0.047389 0.648001 0.058711 -0.024715 601420.000000 0 0 1
25.203573 -0.365486 32.609243 41.215487 -0.014500 0.658045 0.049798 -0.019729 -848258.000000 0 0 1
24.745873 -0.960186 31.413726 40.001279 -0.038782 0.667587 0.052991 -0.028091 51918.500000 0 0 1
23.367373 -1.169386 31.205826 39.002630 -0.050002 0.643342 0.059897 -0.033302 -97948.000000 0 0 1
22.643473 -2.065586 32.224946 39.439075 -0.090970 0.614466 0.053350 -0.038768 -1148010.000000 0 0 1
22.970973 -3.385986 31.985326 39.524569 -0.146349 0.627919 0.059230 -0.044778 206886.000000 0 0 1
22.258473 -4.329086 32.768040 39.848777 -0.192093 0.605338 0.055614 -0.045059 -183174.000000 0 0 1
22.388573 -5.789286 32.382793 39.792076 -0.253040 0.620135 0.059667 -0.041124 236985.000000 0 0 1
23.666173 -6.401186 32.503444 40.712858 -0.264158 0.646232 0.060412 -0.039942 233103.000000 0 0 1
23.555173 -7.704286 32.083966 40.541128 -0.316107 0.657712 0.074247 -0.048045 -390900.000000 0 0 1
24.937773 -8.310286 31.859836 41.303783 -0.321667 0.689830 0.068017 -0.041869 -439535.000000 0 0 1
25.571773 -7.816586 30.726946 40.732785 -0.296653 0.716127 0.082739 -0.040934 -949378.000000 0 0 1
26.737573 -8.498186 30.428516 41.388544 -0.307739 0.744847 0.069896 -0.030279 -606047.000000 0 0 1
27.185673 -8.168886 29.018156 40.593656 -0.291902 0.774394 0.069854 -0.029230 -228455.000000 0 0 1
26.295373 -8.697486 28.066286 39.431070 -0.319434 0.778766 0.072320 -0.025211 -202020.000000 0 0 1
26.538273 -8.237186 26.778126 38.590144 -0.300960 0.803890 0.075611 -0.013596 45374.300000 0 0 1
25.711273 -8.912286 25.637576 37.386945 -0.333669 0.815182 0.057279 -0.009037 149431.000000 0 0 1
24.416073 -8.391786 25.409926 36.224729 -0.331051 0.793363 0.061743 -0.006333 -40815.500000 0 0 1
23.734173 -9.314886 24.557776 35.400034 -0.373996 0.804153 0.064854 -0.010329 339601.000000 0 0 1
22.270073 -8.955586 24.224056 34.102251 -0.382346 0.780821 0.030808 0.000373 183840.000000 0 0 1
21.307973 -9.071586 25.259116 34.268737 -0.402494 0.742043 0.032374 0.005619 88305.200000 0 0 1
20.055073 -8.703586 24.681466 32.971702 -0.409456 0.724901 0.034144 0.008133 697124.000000 0 0 1
18.937373 -8.553886 25.782846 33.114169 -0.424261 0.678357 0.026065 0.000620 215917.000000 0 0 1
18.298873 -9.715286 26.324306 33.499322 -0.488079 0.666782 0.030512 0.002269 64834.400000 0 0 1
19.161373 -10.654686 27.001366 34.781522 -0.507476 0.682000 0.031670 0.004667 123699.000000 0 0 1
18.462673 -11.865986 27.707806 35.346774 -0.571227 0.669898 0.036281 0.002177 23882.200000 0 0 1
17.711473 -12.741086 26.871666 34.613841 -0.623607 0.681978 0.048018 -0.000794 96676.400000 0 0 1
17.066173 -13.780386 27.586726 35.244584 -0.679278 0.671768 0.055600 -0.000592 -170829.000000 0 0 1
17.857073 -15.033386 28.103806 36.533569 -0.699757 0.693114 0.072454 0.005920 -302080.000000 0 0 1
17.016473 -15.960286 28.743706 37.020153 -0.753381 0.681809 0.064929 0.007482 -189362.000000 0 0 1
17.702273 -16.968186 29.405726 38.288203 -0.764228 0.695068 0.067011 0.005544 -446332.000000 0 0 1
17.946073 -18.196686 28.494796 38.277073 -0.792332 0.731108 0.065934 0.005013 -534047.000000 0 0 1
19.065573 -18.025986 27.695936 38.150978 -0.757378 0.758373 0.065098 -0.000025 -236879.000000 0 0 1
19.317673 -19.186186 26.996166 38.341559 -0.781983 0.789646 0.064989 0.002748 580280.000000 0 0 1
20.544973 -19.076586 26.019596 38.249593 -0.748355 0.822682 0.070860 -0.003731 96739.200000 0 0 1
21.826273 -18.882586 26.521996 39.196358 -0.713213 0.827601 0.079444 -0.012664 -340267.000000 0 0 1
22.604873 -18.155286 25.582186 38.665785 -0.676664 0.847815 0.069991 -0.011516 1197650.000000 0 0 1
24.046773 -17.794786 26.159416 39.739360 -0.637075 0.852272 0.059956 -0.014499 960918.000000 0 0 1
24.897173 -18.907386 26.257076 40.826370 -0.649502 0.872204 0.062371 -0.017930 513158.000000 0 0 1
26.212573 -18.484886 26.633186 41.690725 -0.614202 0.877823 0.057916 -0.017726 792742.000000 0 0 1
27.205173 -19.687786 26.821376 42.978094 -0.626441 0.896854 0.048510 -0.013347 68073.100000 0 0 1
26.882673 -20.530286 27.918876 43.859256 -0.652211 0.880772 0.047323 -0.006749 -383545.000000 0 0 1
27.803673 -21.507686 28.203586 45.067361 -0.658407 0.894627 0.048668 -0.014366 -593791.000000 0 0 1
27.177073 -22.704786 28.939676 45.734073 -0.695980 0.885656 0.051922 -0.014279 -35277.300000 0 0 1
26.811973 -22.423286 30.288026 46.249866 -0.696496 0.856775 0.065097 -0.013769 152934.000000 0 0 1
26.324273 -23.657186 30.874456 46.966603 -0.732087 0.853472 0.072415 -0.015218 -265483.000000 0 0 1
25.792973 -23.433486 32.304883 47.518535 -0.737504 0.823255 0.064011 -0.017413 -144065.000000 0 0 1
25.600873 -24.625086 33.038089 48.510977 -0.765973 0.821609 0.060079 -0.023340 158829.000000 0 0 1
25.169673 -24.364286 -33.810105 48.685255 -0.769140 2.338470 0.074353 -0.019700 -397179.000000 0 0 1
24.707973 -25.576976 -32.963225 48.489585 -0.802678 2.318286 0.061149 -0.020317 -25935.500000 0 0 1
23.498473 -26.256256 -33.146225 48.376042 -0.840769 2.325645 0.073695 -0.028392 -498144.000000 0 0 1
23.315573 -26.767256 33.722901 48.962598 -0.854209 0.811035 0.070689 -0.032954 -367965.000000 0 0 1
22.036373 -27.583906 33.478816 48.654956 -0.896736 0.811948 0.086663 -0.035726 90904.400000 0 0 1
22.113173 -28.863906 -34.032995 49.803235 -0.917059 2.323136 0.072226 -0.039263 -464315.000000 0 0 1
20.875673 -29.486896 34.077169 49.664114 -0.954745 0.814609 0.102669 -0.040127 -714466.000000 0 0 1
20.766273 -31.042986 -33.965515 50.483277 -0.981213 2.308793 0.076964 -0.039023 -440682.000000 0 0 1
21.384873 -31.565826 -32.837855 50.319369 -0.975352 2.281792 0.043282 -0.035146 293936.000000 0 0 1
22.652673 -32.154386 -33.094285 51.403111 -0.957059 2.270275 0.023667 -0.023456 -71359.300000 0 0 1
23.329273 -32.691716 -31.835795 51.249596 -0.950992 2.241058 0.010768 -0.020454 -796718.000000 0 0 1
24.583973 -33.268256 -32.147965 52.389314 -0.934397 2.231454 0.005059 -0.012992 -48494.000000 0 0 1
25.140273 -33.996816 -31.100295 52.488524 -0.934056 2.204975 0.003536 0.005939 110389.000000 0 0 1
25.913573 -33.054966 -30.114585 51.682031 -0.905916 2.192831 -0.003987 0.000259 -627682.000000 0 0 1
26.281873 -33.670446 -28.889205 51.565705 -0.908021 2.165473 0.006046 0.011734 -19439.000000 0 0 1
26.819773 -32.748716 -27.928785 50.712875 -0.884603 2.154027 0.013867 0.006125 -609636.000000 0 0 1
27.032873 -33.274466 -26.535905 50.419446 -0.888527 2.125043 0.016044 0.011135 769458.000000 0 0 1
28.143073 34.059745 -26.343425 51.440012 0.880232 2.108447 0.016553 0.030479 309305.000000 0 0 1
29.370573 -33.553106 -26.027715 51.632194 -0.851770 2.099134 0.025081 0.014776 33580.700000 0 0 1
-27.109977 -30.454379 9.109685 41.778061 0.843431 1.350981 0.050154 -0.005132 -264822.000000 0 0 1
-27.162647 -31.671679 9.815185 42.863066 0.861888 1.339757 0.054800 -0.009471 35507.300000 0 0 1
-26.203017 -31.617179 10.853985 42.474146 0.878764 1.312387 0.051948 -0.005049 227788.000000 0 0 1
-26.414027 -32.769879 11.847985 43.725742 0.892380 1.296405 0.041656 -0.002406 156616.000000 0 0 1
-26.043477 -34.054179 11.300385 44.335634 0.917912 1.313070 0.044510 0.001770 -334610.000000 0 0 1
-27.157387 33.334314 11.113585 44.409593 -0.887157 1.317856 0.021397 -0.017677 -247134.000000 0 0 1
-26.799167 31.845614 10.823985 43.005780 -0.871238 1.316374 0.031311 -0.010819 160891.000000 0 0 1
-26.404707 31.567814 9.485785 42.234057 -0.874225 1.344263 0.052561 -0.021544 160902.000000 0 0 1
-26.659817 30.166514 9.348585 41.329898 -0.847029 1.342627 0.066215 -0.019509 -138593.000000 0 0 1
-26.107157 29.875414 7.933985 40.460748 -0.852608 1.373426 0.052211 -0.008458 904267.000000 0 0 1
-24.680927 29.686514 8.058085 39.438179 -0.877209 1.365025 0.030910 -0.004039 796736.000000 0 0 1
-24.136327 29.548314 6.774285 38.749917 -0.885869 1.395073 0.022200 -0.009312 127636.000000 0 0 1
-22.724927 28.884314 6.832885 37.382004 -0.904183 1.386977 0.049879 -0.005968 133854.000000 0 0 1
-22.660927 27.508614 7.025285 36.326245 -0.881725 1.376176 0.034937 -0.007762 97929.200000 0 0 1
-23.189327 26.697214 5.988885 35.865762 -0.855600 1.403030 0.032886 -0.014056 -737352.000000 0 0 1
-23.388527 25.210714 6.326485 34.966094 -0.822875 1.388862 0.034720 -0.006303 -159625.000000 0 0 1
-24.608527 25.038814 7.042585 35.806701 -0.794065 1.372822 0.055121 -0.009687 307420.000000 0 0 1
-24.855427 23.717614 7.531585 35.171611 -0.761978 1.354987 0.066575 -0.023942 -147077.000000 0 0 1
-25.195947 22.665714 6.450085 34.498897 -0.732582 1.382725 0.058941 -0.031770 225042.000000 0 0 1
-26.546527 22.890814 5.999185 35.562588 -0.711586 1.401292 0.065444 -0.036037 891356.000000 0 0 1
-26.941687 22.434914 4.718185 35.375714 -0.694377 1.437024 0.060699 -0.031813 3924.070000 0 0 1
-26.618697 23.371714 3.531685 35.598663 -0.720537 1.471425 0.055388 -0.030603 -380664.000000 0 0 1
-25.261817 23.654214 3.319985 34.766414 -0.752545 1.475157 0.051065 -0.031341 -137830.000000 0 0 1
-25.119387 24.661414 2.321085 35.278271 -0.776199 1.504955 0.048825 -0.027454 84534.600000 0 0 1
-23.683327 25.230214 2.351885 34.684219 -0.817013 1.502936 0.047411 -0.025273 127493.000000 0 0 1
-23.326527 25.934014 1.180585 34.901199 -0.838281 1.536963 0.040313 -0.031412 -3367.270000 0 0 1
-21.993527 26.405714 1.124785 34.383748 -0.876309 1.538078 0.039617 -0.033050 -431089.000000 0 0 1
-21.501627 26.956114 -0.248815 34.482082 -0.897488 1.578012 0.053398 -0.032505 134935.000000 0 0 1
-21.060927 26.025114 -1.225615 33.501811 -0.890438 1.607388 0.050419 -0.028396 900079.000000 0 0 1
-19.948227 25.122714 -1.004215 32.095030 -0.899705 1.602090 0.049125 -0.031384 497632.000000 0 0 1
-19.772827 24.099014 -2.178215 31.248548 -0.883690 1.640559 0.054311 -0.037343 -497677.000000 0 0 1
-20.923827 23.346914 -2.399515 31.442688 -0.840077 1.647185 0.052209 -0.031902 -197442.000000 0 0 1
-20.655827 22.318314 -3.340015 30.592908 -0.824065 1.680191 0.049260 -0.023944 -123737.000000 0 0 1
-21.953527 21.842614 -4.026115 31.229261 -0.782866 1.700077 0.050854 -0.011541 94725.600000 0 0 1
-22.368227 22.833414 -4.993215 32.351732 -0.795689 1.725757 0.042268 -0.009604 -142674.000000 0 0 1
-23.546327 22.390014 -5.613715 32.973566 -0.760231 1.741879 0.038580 -0.002968 -108301.000000 0 0 1
-23.692027 23.015714 -6.993115 33.762981 -0.770920 1.779430 0.045276 -0.004037 327710.000000 0 0 1
-22.922027 22.224714 -7.905315 32.891507 -0.769954 1.813518 0.035845 -0.004933 429680.000000 0 0 1
-22.649427 22.997314 -9.116615 33.540806 -0.793019 1.846066 0.048038 -0.009517 111113.000000 0 0 1
-21.992127 22.185514 -10.293715 32.890899 -0.789776 1.889110 0.044348 -0.013957 362165.000000 0 0 1
-22.841327 21.360014 -11.083915 33.178752 -0.751898 1.911411 0.020454 -0.009323 345592.000000 0 0 1
-22.152827 21.089014 -12.276115 32.957507 -0.760802 1.952480 0.009514 0.004634 463767.000000 0 0 1
-23.178627 20.835114 -13.411015 33.929427 -0.732203 1.977149 -0.002215 -0.006236 47154.100000 0 0 1
-23.932327 19.673214 -13.380115 33.746394 -0.688033 1.978487 0.001491 0.002493 -603586.000000 0 0 1
-24.941727 19.727114 -14.331215 34.880259 -0.669185 1.994203 0.012211 -0.005534 -392495.000000 0 0 1
-25.767617 18.432014 -14.222815 34.727477 -0.620932 1.992763 0.044422 -0.014016 -274033.000000 0 0 1
-25.043977 17.356714 -14.764715 33.859313 -0.606046 2.022013 0.042656 -0.015853 585063.000000 0 0 1
-25.906417 16.209314 -14.887515 33.992976 -0.559093 2.024123 0.066680 -0.027249 222810.000000 0 0 1
-25.519937 15.329414 -16.098515 33.844059 -0.540922 2.066519 0.080819 -0.021292 53187.600000 0 0 1
-24.381427 14.519814 -15.970815 32.562953 -0.537125 2.083413 0.094889 -0.023273 -150809.000000 0 0 1
-24.088627 13.775714 -17.103915 32.597180 -0.519484 2.123165 0.102038 -0.039327 -125697.000000 0 0 1
-22.965027 12.730414 -16.915315 31.234337 -0.506169 2.143090 0.106482 -0.034056 -581333.000000 0 0 1
-21.711427 13.346114 -16.829915 30.540970 -0.551162 2.154431 0.115418 -0.046173 -224524.000000 0 0 1
-20.803627 12.246514 -16.618515 29.307730 -0.532048 2.173698 0.108740 -0.038819 605412.000000 0 0 1
-19.456527 12.517014 -15.878315 28.059811 -0.571674 2.172289 0.108022 -0.041344 649323.000000 0 0 1
-18.464427 13.278714 -16.549315 28.127196 -0.623464 2.199843 0.095685 -0.038042 684388.000000 0 0 1
-17.388927 13.576614 -15.663415 27.056271 -0.662900 2.188200 0.095586 -0.020114 307686.000000 0 0 1
-16.490327 14.770814 -16.029415 27.332215 -0.730449 2.197485 0.063345 -0.013195 170496.000000 0 0 1
-15.688227 14.580814 -17.197215 27.467523 -0.748829 2.247328 0.095078 -0.026374 161956.000000 0 0 1
-14.822827 15.672514 -17.389515 27.708106 -0.813254 2.249259 0.067427 -0.018723 373388.000000 0 0 1
-13.828527 15.424514 -18.586715 27.831812 -0.839902 2.302076 0.055323 -0.017541 584593.000000 0 0 1
-12.973927 14.298314 -18.359715 26.642892 -0.833922 2.331048 0.053499 -0.020324 194997.000000 0 0 1
-12.034427 14.263214 -19.444815 26.951207 -0.869948 2.376737 0.052980 -0.019946 610407.000000 0 0 1
-11.191427 12.978214 -19.523315 25.977719 -0.859191 2.421191 0.041992 -0.023811 107248.000000 0 0 1
-11.995327 11.936114 -19.948915 26.159470 -0.782924 2.438102 0.069364 -0.016939 -183048.000000 0 0 1
-11.191427 10.760214 -20.008315 25.325144 -0.765757 2.481699 0.042468 -0.003619 49530.200000 0 0 1
-11.533427 9.538414 -20.975115 25.767358 -0.691003 2.521834 0.067210 -0.013611 -11602.500000 0 0 1
-11.152627 9.759614 -22.320915 26.792805 -0.718884 2.555474 0.070366 -0.022150 41963.200000 0 0 1
-11.658827 8.658314 -23.058315 27.250331 -0.638774 2.579546 0.080141 -0.001462 183022.000000 0 0 1
-11.323427 8.797014 -24.560515 28.439873 -0.660487 2.613152 0.069599 -0.019528 60182.200000 0 0 1
-9.950027 8.580414 -24.861315 28.119593 -0.711621 2.655420 0.055697 -0.014985 123777.000000 0 0 1
-9.742327 8.063714 -26.173195 29.068412 -0.691404 2.691484 0.033008 -0.026813 -136883.000000 0 0 1
-9.592827 9.135914 -27.315495 30.358253 -0.761007 2.690042 0.059123 -0.027296 647556.000000 0 0 1
-8.326827 9.817414 -27.446775 30.315724 -0.867366 2.703033 0.042754 -0.028506 762599.000000 0 0 1
-8.034827 10.813714 -26.499785 29.727655 -0.931776 2.671262 0.027058 -0.023123 553605.000000 0 0 1
-6.579727 11.405014 -26.552705 29.638038 -1.047524 2.681248 0.032668 -0.024333 464602.000000 0 0 1
-6.291227 12.159514 -27.706615 30.904528 -1.093333 2.682653 0.031628 -0.031639 -7394.040000 0 0 1
-4.928227 12.496614 -27.678825 30.766380 -1.195157 2.689752 0.057547 -0.030271 89372.300000 0 0 1
-4.117527 12.301514 -29.016725 31.784455 -1.247801 2.721183 0.067362 -0.032006 1701680.000000 0 0 1
-2.699727 12.632714 -28.927605 31.680914 -1.360254 2.721601 0.086587 -0.037761 1415220.000000 0 0 1
-2.073227 12.412714 -30.186675 32.704879 -1.405300 2.746607 0.086791 -0.035605 1222280.000000 0 0 1
-0.495527 12.369014 -30.218495 32.655712 -1.530756 2.752797 0.095538 -0.038714 1203240.000000 0 0 1
0.095073 11.158314 -29.657285 31.687088 1.562276 2.781722 0.075008 -0.025080 -436026.000000 0 0 1
1.483473 11.171214 -29.745485 31.808656 1.438774 2.779445 0.094895 -0.029875 -595635.000000 0 0 1
2.033673 10.391014 -30.920875 32.683475 1.377525 2.811680 0.092485 -0.032723 -446005.000000 0 0 1
1.872873 11.107114 -32.110165 34.028493 1.403748 2.804215 0.094582 -0.034225 138196.000000 0 0 1
1.833373 10.231914 -33.243385 34.830676 1.393496 2.838535 0.098960 -0.029686 -5804.410000 0 0 1
1.882973 11.123014 33.686862 35.525648 1.403100 0.323148 0.099322 -0.032406 -1230320.000000 0 0 1
3.092473 11.748414 33.559307 35.690554 1.313410 0.347329 0.089799 -0.038749 -1233450.000000 0 0 1
3.021373 12.728714 32.572846 35.101839 1.337743 0.381915 0.087442 -0.030525 -1288080.000000 0 0 1
4.318573 13.281414 32.096276 35.003099 1.256421 0.410415 0.090663 -0.026350 -1433650.000000 0 0 1
5.103773 12.248514 31.596336 34.269564 1.175990 0.397597 0.074813 -0.028428 -183347.000000 0 0 1
6.443473 12.695414 31.424216 34.498887 1.101132 0.425394 0.069077 -0.027147 188612.000000 0 0 1
7.376473 11.553714 31.005506 33.900472 1.002583 0.416269 0.062380 -0.025989 -316271.000000 0 0 1
7.112373 11.054114 29.719306 32.496406 0.999065 0.416424 0.063274 -0.030582 201981.000000 0 0 1
8.079673 10.108114 29.246966 31.981871 0.896467 0.416561 0.058893 -0.034415 513531.000000 0 0 1
7.535873 9.214114 28.107916 30.524485 0.885258 0.400588 0.069971 -0.033789 672146.000000 0 0 1
6.698273 8.097714 28.551906 30.424515 0.879700 0.352679 0.078060 -0.036780 279309.000000 0 0 1
6.223173 7.365214 27.462846 29.106394 0.869246 0.337658 0.084643 -0.037325 -445564.000000 0 0 1
5.373373 6.144614 27.842556 29.014433 0.852258 0.285182 0.095275 -0.042462 -103427.000000 0 0 1
6.067773 5.090814 28.462456 29.543961 0.698069 0.271412 0.072904 -0.034365 44601.500000 0 0 1
5.211673 4.457814 29.400366 30.189653 0.707593 0.229168 0.079921 -0.029924 171000.000000 0 0 1
5.870973 3.266414 30.233876 30.971358 0.507718 0.218663 0.084436 -0.023627 270981.000000 0 0 1
6.159673 2.101914 29.495236 30.204777 0.328848 0.217180 0.086054 -0.021298 319228.000000 0 0 1
7.515073 2.005314 29.058026 30.080998 0.260763 0.261541 0.076111 -0.014600 259019.000000 0 0 1
7.744573 0.712014 28.193696 29.246707 0.091679 0.269156 0.066223 -0.021835 -214930.000000 0 0 1
7.910473 -0.450186 28.920216 29.985949 -0.056849 0.267408 0.030335 -0.008667 -116824.000000 0 0 1
7.933673 -1.630886 28.121296 29.264487 -0.202741 0.280432 0.056216 -0.005442 -72148.200000 0 0 1
8.427473 -2.901986 28.893766 30.237287 -0.331631 0.299218 0.039809 0.004604 -363362.000000 0 0 1
9.773873 -2.834186 29.227846 30.948799 -0.282235 0.335051 0.022369 -0.002096 -547075.000000 0 0 1
10.594773 -3.866586 28.657656 30.797093 -0.349933 0.374936 0.032529 0.001167 1018860.000000 0 0 1
12.104373 -3.680086 29.088216 31.720390 -0.295149 0.410254 0.027063 0.002020 840518.000000 0 0 1
13.026673 -4.642386 28.698296 31.856524 -0.342343 0.449048 0.036776 -0.004721 -69043.100000 0 0 1
13.108873 -5.652486 29.676776 32.931811 -0.407106 0.448362 0.046002 -0.007314 -702609.000000 0 0 1
12.600773 -7.035586 29.238866 32.606598 -0.509228 0.458503 0.051098 -0.011700 -1131290.000000 0 0 1
11.231273 -6.943286 29.126546 31.979781 -0.553702 0.425627 0.060410 -0.012295 -1091210.000000 0 0 1
10.586173 -8.204886 28.944906 31.893491 -0.659346 0.433386 0.069910 -0.009393 680403.000000 0 0 1
9.060073 -8.129486 28.665796 31.143238 -0.731314 0.401566 0.076385 -0.010076 87990.600000 0 0 1
8.242373 -7.989886 29.770706 31.907208 -0.769845 0.368024 0.088801 -0.014847 -439842.000000 0 0 1
6.945573 -7.641686 29.329346 31.094161 -0.833083 0.338533 0.088983 -0.011767 25757.900000 0 0 1
6.122673 -6.918586 30.412326 31.784643 -0.846353 0.294923 0.086300 -0.016299 -73421.500000 0 0 1
6.099973 -7.693086 31.586426 33.077115 -0.900390 0.301363 0.083615 -0.015758 -192456.000000 0 0 1
5.328973 -7.233486 32.657208 33.870555 -0.935856 0.268474 0.083628 -0.012794 -217301.000000 0 0 1
5.834673 -5.977086 33.408158 34.436521 -0.797454 0.245000 0.095291 -0.008572 -28518.400000 0 0 1
5.961173 -4.758086 32.684609 33.562756 -0.673630 0.229256 0.099896 -0.011100 129052.000000 0 0 1
6.524873 -3.740786 33.569898 34.402114 -0.520565 0.220404 0.089796 -0.007436 -22688.300000 0 0 1
6.788173 -2.410186 32.789303 33.571218 -0.341173 0.216251 0.067408 -0.012855 -56967.500000 0 0 1
5.590273 -1.865586 32.302204 32.835406 -0.322099 0.180459 0.092072 -0.015645 59892.700000 0 0 1
5.849273 -0.494886 32.035666 32.569046 -0.084405 0.181228 0.082910 -0.006912 -21339.100000 0 0 1
4.560273 0.176514 31.456096 31.785424 0.038688 0.144076 0.116968 -0.026399 355855.000000 0 0 1
3.587073 0.382814 32.445755 32.645683 0.106318 0.110729 0.109123 -0.026986 -286464.000000 0 0 1
2.436173 1.033314 31.939546 32.048982 0.401154 0.082663 0.112944 -0.025699 361251.000000 0 0 1
1.399673 1.358814 33.053436 33.110951 0.770587 0.058950 0.099734 -0.032744 204268.000000 0 0 1
1.926873 2.244614 34.030392 34.158728 0.861421 0.086711 0.088007 -0.025902 224177.000000 0 0 1
1.017973 2.405714 -33.076765 33.179755 1.170495 3.062782 0.069485 -0.018998 46662.900000 0 0 1
1.537373 3.327014 -31.955655 32.165143 1.137936 3.027400 0.068640 -0.008576 -213318.000000 0 0 1
2.594573 2.790414 -31.204175 31.435947 0.821750 3.020086 0.062256 -0.005431 -187456.000000 0 0 1
3.123773 3.804814 -30.393035 30.789140 0.883378 2.981014 0.053345 -0.001406 -335695.000000 0 0 1
4.191573 3.318814 -29.407445 29.889490 0.669710 2.961753 0.059612 -0.000464 -230350.000000 0 0 1
3.652273 2.598114 -28.297245 28.650015 0.618316 2.984504 0.064874 -0.020152 64861.100000 0 0 1
4.622673 2.276914 -27.340435 27.821805 0.457673 2.955302 0.070560 -0.022666 -1934.180000 0 0 1
4.015973 1.467314 -26.108595 26.456375 0.350301 2.979270 0.062684 -0.023489 198422.000000 0 0 1
4.070073 0.132714 -26.388565 26.700926 0.032596 2.988482 0.074750 -0.023751 -136426.000000 0 0 1
3.497973 -0.709586 -25.441395 25.690541 -0.200141 3.002211 0.071510 -0.014042 -238341.000000 0 0 1
4.193873 -2.099986 -25.228355 25.660639 -0.464229 2.957779 0.075938 -0.021049 1279270.000000 0 0 1
5.541073 -2.014386 -24.677915 25.372440 -0.348683 2.907076 0.070240 -0.028662 958410.000000 0 0 1
6.068373 -3.321086 -24.824915 25.770743 -0.500751 2.869827 0.076236 -0.031157 133017.000000 0 0 1
7.536873 -3.340786 -24.324815 25.683885 -0.417234 2.814825 0.089087 -0.033080 560291.000000 0 0 1
8.533273 -2.929686 -25.258945 26.821896 -0.330716 2.798529 0.081996 -0.029724 -78694.700000 0 0 1
9.803973 -3.397686 -24.868115 26.945970 -0.333609 2.746311 0.068380 -0.019701 -1112.710000 0 0 1
-30.538747 -3.289886 17.749386 35.475049 0.107314 1.046811 0.200394 -0.034088 -814599.000000 0 0 1
-31.886927 -3.395986 18.036086 36.791428 0.106101 1.058448 0.183569 -0.015128 -1102840.000000 0 0 1
-32.141027 -4.696286 18.492386 37.377387 0.145088 1.053252 0.148473 -0.020318 -263876.000000 0 0 1
-33.617217 -4.760386 18.890086 38.853750 0.140670 1.063078 0.134008 -0.017294 -578785.000000 0 0 1
-34.510534 -4.784286 17.801486 39.124918 0.137755 1.098434 0.121443 -0.019626 -169077.000000 0 0 1
-35.825403 -4.673686 18.307586 40.502722 0.129725 1.101780 0.078394 -0.005332 13519.100000 0 0 1
36.315305 -4.751086 17.175486 40.452089 -0.130090 1.132289 0.059171 -0.006287 1441220.000000 0 0 1
35.001445 -5.091486 17.690286 39.547068 -0.144452 1.107027 0.009077 0.012060 1897220.000000 0 0 1
33.903435 -5.110086 16.719786 38.145867 -0.149599 1.117077 0.007158 0.007342 750542.000000 0 0 1
32.625015 -5.656986 17.332286 37.373804 -0.171687 1.088568 0.012715 0.011711 -634376.000000 0 0 1
32.012145 -4.724586 18.208186 37.130004 -0.146530 1.058259 0.022990 0.009449 264856.000000 0 0 1
30.934855 -5.362586 18.867886 36.629492 -0.171645 1.029671 0.034696 0.010668 -56923.900000 0 0 1
30.179865 -4.576186 19.938286 36.459580 -0.150484 0.992187 0.041436 0.007446 447602.000000 0 0 1
29.280865 -3.557986 19.444586 35.328745 -0.120920 0.987965 0.047595 0.005177 736158.000000 0 0 1
29.946665 -2.310486 19.119386 35.604663 -0.077001 1.003930 0.039346 -0.002092 67743.900000 0 0 1
29.106215 -1.090886 19.483686 35.042486 -0.037462 0.981229 0.040501 0.003624 319.581000 0 0 1
29.790555 0.134014 19.243586 35.465627 0.004499 0.997269 0.044396 -0.004009 722950.000000 0 0 1
28.873845 1.244314 19.483086 34.854525 0.043068 0.977638 0.051343 -0.009739 805078.000000 0 0 1
29.271645 2.635914 18.842886 34.911769 0.089808 1.000681 0.040940 -0.012636 -133582.000000 0 0 1
29.276065 2.521814 17.421186 34.160580 0.085927 1.035636 0.037393 -0.016164 111958.000000 0 0 1
29.033235 3.799414 16.856086 33.785972 0.130125 1.048458 0.043074 -0.013882 88438.900000 0 0 1
28.707635 3.762014 15.360686 32.775475 0.130303 1.083019 0.052112 -0.013675 -253219.000000 0 0 1
28.422145 5.044014 14.802686 32.440406 0.175639 1.096959 0.057486 -0.013866 150955.000000 0 0 1
27.869085 4.918014 13.523286 31.364822 0.174670 1.125017 0.072170 -0.008921 -402018.000000 0 0 1
27.068485 6.153414 13.127086 30.706478 0.223529 1.129068 0.074273 -0.005146 -196246.000000 0 0 1
25.969385 6.469914 13.950786 30.181007 0.244166 1.090280 0.058668 -0.007178 71063.700000 0 0 1
25.366985 7.688114 13.537886 29.763491 0.294276 1.098594 0.075150 -0.014406 -300422.000000 0 0 1
24.152585 8.067214 14.435786 29.271475 0.322360 1.055067 0.072328 -0.017458 244832.000000 0 0 1
22.896985 7.605914 13.981886 27.885749 0.320712 1.045581 0.078683 -0.011521 337505.000000 0 0 1
22.623785 6.301714 14.369486 27.532333 0.271658 1.021704 0.083913 -0.015500 -898386.000000 0 0 1
21.172585 5.819114 14.185086 26.141100 0.268219 0.997225 0.093355 -0.017886 -305482.000000 0 0 1
21.011085 5.674014 12.809286 25.253474 0.263757 1.038830 0.091746 -0.018096 762778.000000 0 0 1
19.896685 4.833314 12.528886 24.004416 0.238305 1.021672 0.099397 -0.020558 98298.600000 0 1 0
19.508785 4.787114 11.016186 22.909943 0.240628 1.069175 0.101040 -0.019987 258671.000000 0 1 0
20.542285 4.110514 10.295086 23.342463 0.197492 1.114033 0.094294 -0.024763 918351.000000 0 1 0
20.267785 4.001414 8.893986 22.492163 0.194921 1.164265 0.101368 -0.025678 -590945.000000 0 1 0
21.431785 3.362914 8.189786 23.188428 0.155643 1.209824 0.100880 -0.018068 -1480830.000000 0 1 0
21.594085 1.971214 8.448186 23.271486 0.091033 1.199281 0.095323 -0.019529 687582.000000 0 1 0
22.685785 1.373014 7.783286 24.023105 0.060449 1.240851 0.101914 -0.010792 -51489.300000 0 1 0
24.148885 1.763614 8.051186 25.516673 0.072901 1.249785 0.094727 -0.011158 -472941.000000 0 0 1
24.920385 1.027914 8.997286 26.514776 0.041225 1.224591 0.098258 -0.011511 588261.000000 0 0 1
24.782485 1.450814 10.302186 26.877713 0.058475 1.177431 0.085538 -0.011094 13121.900000 0 0 1
25.777085 0.667214 11.246186 28.131477 0.025878 1.159528 0.068430 -0.008815 -485973.000000 0 0 1
27.063185 1.176814 11.313286 29.356282 0.043457 1.175178 0.082750 -0.010535 -659241.000000 0 0 1
27.742785 0.474814 12.344886 30.369125 0.017113 1.152182 0.067111 -0.013521 -1037870.000000 0 0 1
29.247175 0.542014 12.253086 31.714810 0.018530 1.174123 0.083085 -0.017511 -979551.000000 0 0 1
29.812605 1.691914 12.831386 32.500746 0.056691 1.164943 0.080657 -0.015480 -12268.900000 0 0 1
31.215945 1.576914 12.768186 33.763123 0.050473 1.182978 0.082067 -0.015464 -140261.000000 0 0 1
32.011385 2.873814 13.032886 34.682037 0.089535 1.185556 0.067425 -0.012543 -347680.000000 0 0 1
32.116725 3.715214 11.882286 34.445255 0.115167 1.218599 0.073251 -0.018554 304947.000000 0 0 1
32.674755 4.985314 12.212286 35.236812 0.151406 1.216876 0.072493 -0.019214 173997.000000 0 0 1
34.198695 5.118814 11.965286 36.591270 0.148576 1.237671 0.082063 -0.016077 -196080.000000 0 0 1
34.910365 4.212714 12.773186 37.411694 0.120092 1.222367 0.076795 -0.014727 -1059670.000000 0 0 1
36.264625 4.395014 12.612786 38.646107 0.120605 1.238340 0.090980 -0.015254 -685025.000000 0 0 1
-36.037284 3.281014 13.284486 38.547742 -0.090795 1.218958 0.113482 -0.015929 -608421.000000 0 0 1
-35.876571 2.058214 12.588486 38.076693 -0.057306 1.233848 0.086018 -0.011981 124894.000000 0 0 1
36.252245 1.164414 12.565886 38.385969 0.032109 1.237292 0.083808 -0.009859 -438266.000000 0 0 1
35.591545 0.701714 13.897186 38.214948 0.019713 1.198604 0.064502 -0.010874 -383450.000000 0 0 1
36.359825 -0.110886 14.802686 39.257721 -0.003050 1.184172 0.075031 -0.017689 256411.000000 0 0 1
35.746395 -0.340986 16.035486 39.179814 -0.009539 1.149132 0.060862 -0.025353 -540943.000000 0 0 1
-36.508817 -1.140386 16.940186 40.263682 0.031226 1.136545 0.089013 -0.025683 -80116.500000 0 0 1
-35.352192 -0.403786 17.234286 39.331427 0.011421 1.117222 0.136930 -0.036678 -90449.900000 0 0 1
-34.320920 -1.050586 17.971386 38.755644 0.030601 1.088618 0.109489 -0.024779 350681.000000 0 0 1
-34.346437 -0.982786 19.492886 39.504635 0.028606 1.054764 0.121175 -0.026844 -414625.000000 0 0 1
-35.165907 -1.942586 20.091586 40.547336 0.055185 1.052375 0.086962 -0.014949 -161013.000000 0 0 1
-35.140307 -1.753986 21.497486 41.231778 0.049872 1.022327 0.075957 -0.009330 30962.300000 0 0 1
-35.426823 -3.097286 22.194686 41.919650 0.087206 1.012835 0.054444 -0.003999 -299972.000000 0 0 1
-34.431934 -4.089986 22.162586 41.151747 0.118231 1.002072 0.081399 -0.007791 -242462.000000 0 0 1
-34.763620 -5.290186 22.784986 41.900488 0.151017 0.995852 0.073538 -0.008663 -55998.500000 0 0 1
-34.890483 -5.266186 24.376196 42.886798 0.149804 0.966255 0.069509 -0.014015 508000.000000 0 0 1
-33.635617 -5.050986 25.002776 42.213813 0.149054 0.936900 0.085666 -0.022765 -82835.800000 0 0 1
-33.807307 -4.936486 26.403906 43.179499 0.144994 0.912852 0.098593 -0.032704 603019.000000 0 0 1
-32.583667 -4.282186 27.170536 42.641183 0.130672 0.879950 0.088468 -0.033294 313697.000000 0 0 1
-32.430687 -2.892286 27.037796 42.322065 0.088948 0.877783 0.074188 -0.019901 29488.300000 0 0 1
-31.884827 -2.546386 25.763316 41.071580 0.079693 0.892743 0.070195 -0.014752 -258819.000000 0 0 1
-31.729947 -1.012686 25.423976 40.671779 0.031905 0.895535 0.052394 -0.013522 221911.000000 0 0 1
-32.987317 -0.357486 25.313696 41.582136 0.010837 0.916295 0.071244 -0.021243 298870.000000 0 0 1
-32.868227 1.008314 24.888446 41.240414 -0.030668 0.922917 0.044923 -0.006907 -476855.000000 0 0 1
-34.274840 1.571414 24.615136 42.227229 -0.045815 0.948477 0.073479 -0.006317 -196841.000000 0 0 1
-34.898562 0.882514 23.536566 42.102950 -0.025283 0.977588 0.086857 0.001567 -229874.000000 0 0 1
-36.131927 1.497614 23.206406 42.968550 -0.041425 1.000266 0.077112 0.000454 283139.000000 0 0 1
-36.019744 2.763214 22.341386 42.475814 -0.076564 1.016931 0.086674 -0.003670 -170534.000000 0 0 1
-35.434067 2.530114 21.087886 41.311905 -0.071282 1.035082 0.090089 -0.028019 -358509.000000 0 0 1
-36.146347 3.234514 20.148186 41.508672 -0.089246 1.063979 0.094220 -0.021767 -61985.300000 0 0 1
-35.824317 2.697314 18.780986 40.538656 -0.075151 1.089097 0.111420 -0.027336 404140.000000 0 0 1
-34.701634 3.240414 18.093286 39.269208 -0.093109 1.091956 0.134926 -0.033203 324107.000000 0 0 1
-34.708166 2.569214 16.839086 38.662804 -0.073889 1.120161 0.159738 -0.036391 -528584.000000 0 0 1
-33.719277 3.325014 15.968386 37.457105 -0.098291 1.130385 0.152123 -0.031847 -689568.000000 0 0 1
-34.004947 4.644514 15.646686 37.719049 -0.135744 1.143049 0.152639 -0.039350 -199216.000000 0 0 1
-33.091367 5.238214 14.752586 36.607598 -0.156993 1.156012 0.163470 -0.028664 -457528.000000 0 0 1
-33.492907 6.614114 14.239586 36.990365 -0.194969 1.175638 0.171114 -0.043427 -118997.000000 0 0 1
-32.669367 7.120614 13.212486 35.952197 -0.214604 1.194475 0.175107 -0.031654 164438.000000 0 0 1
-32.798897 8.538714 13.135686 36.348638 -0.254682 1.201048 0.159898 -0.037458 24081.400000 0 0 1
-32.086477 9.077814 11.883186 35.399983 -0.275712 1.228466 0.158746 -0.032003 139177.000000 0 0 1
-32.245797 10.512914 11.800686 35.910569 -0.315158 1.235962 0.140620 -0.025568 234085.000000 0 0 1
-31.609647 11.076014 10.635986 35.142169 -0.337031 1.263318 0.116511 -0.027500 -98292.600000 0 0 1
-31.540317 12.619814 10.798386 35.646268 -0.380607 1.263029 0.100722 -0.023508 88748.300000 0 0 1
-30.968787 13.354714 9.702386 35.093453 -0.407137 1.290674 0.081439 -0.020818 189526.000000 0 0 1
-31.090977 14.728914 9.857586 35.787732 -0.442416 1.291743 0.070929 -0.018577 -417193.000000 0 0 1
-30.274367 15.550414 8.849786 35.166339 -0.474508 1.316406 0.072025 -0.021879 -506266.000000 0 0 1
-28.903487 15.516914 9.170586 34.062968 -0.492693 1.298209 0.078479 -0.017353 -360952.000000 0 0 1
-28.265657 16.335014 8.215186 33.664066 -0.524019 1.324273 0.063571 -0.033337 134041.000000 0 0 1
-26.736287 16.501314 8.453186 32.535807 -0.552962 1.307969 0.071793 -0.021585 253719.000000 0 0 1
-26.382497 17.120414 9.725086 32.919933 -0.575623 1.270905 0.057028 -0.019368 304447.000000 0 0 1
-26.730347 18.493514 9.964986 33.997389 -0.605238 1.273318 0.060756 -0.024674 -143305.000000 0 0 1
-26.877937 18.771314 11.489086 34.738808 -0.609645 1.233722 0.073696 -0.013648 278357.000000 0 0 1
-25.571507 18.920214 12.046286 34.014548 -0.637002 1.208790 0.068920 -0.007191 610872.000000 0 0 1
-25.470957 19.487814 13.332086 34.731672 -0.653095 1.176824 0.062939 -0.014863 -171303.000000 0 0 1
-25.951067 18.578114 14.452886 35.035555 -0.621311 1.145577 0.056906 -0.017927 -664199.000000 0 0 1
-25.106137 17.547314 14.721186 33.984403 -0.610004 1.122784 0.065493 -0.013995 -616023.000000 0 0 1
-25.585297 16.774414 15.779686 34.423638 -0.580321 1.094606 0.066520 -0.007074 -369801.000000 0 0 1
-24.596427 15.777214 16.371786 33.495374 -0.570336 1.060108 0.060473 -0.005570 -332171.000000 0 0 1
-23.505027 16.274114 17.113986 33.319988 -0.605585 1.031392 0.060860 -0.009206 -165793.000000 0 0 1
-22.504327 15.312114 17.352886 32.280462 -0.597455 1.003248 0.049062 -0.022372 -60112.200000 0 0 1
-22.777027 14.102114 18.259886 32.420456 -0.554373 0.972517 0.056439 -0.015274 -719017.000000 0 0 1
-22.659027 14.352914 19.638986 33.243456 -0.564639 0.938793 0.057941 -0.015754 377231.000000 0 0 1
-22.910927 13.187314 20.501486 33.453352 -0.522278 0.911149 0.049977 -0.014596 -556590.000000 0 0 1
-22.797327 13.568014 21.995786 34.461917 -0.536852 0.878556 0.035630 -0.004500 520500.000000 0 0 1
-21.406927 13.677514 22.306086 33.806691 -0.568553 0.850227 0.039666 -0.011572 780418.000000 0 0 1
-20.887727 15.013614 22.248986 34.010632 -0.623217 0.857702 0.050511 -0.015669 -124249.000000 0 0 1
-19.387327 14.911114 22.653686 33.337655 -0.655624 0.823685 0.072069 -0.019285 1318960.000000 0 0 1
-18.363027 14.405914 21.736686 31.893802 -0.665222 0.820941 0.058243 -0.018378 1030090.000000 0 0 1
-18.036527 15.312914 20.680486 31.424260 -0.703910 0.852496 0.053894 -0.010476 -1051860.000000 0 0 1
-16.906827 14.703314 19.773386 29.883357 -0.715802 0.847732 0.051176 -0.006726 2309070.000000 0 0 1
-15.609727 14.411914 20.405086 29.457331 -0.745521 0.805571 0.061160 -0.008486 1746570.000000 0 0 1
-14.973627 15.531614 21.002586 30.108954 -0.803688 0.798820 0.053090 -0.010525 -920816.000000 0 0 1
-13.848327 15.219714 22.011786 30.131952 -0.832542 0.751723 0.046766 -0.012753 145280.000000 0 0 1
-12.621127 14.771114 21.474386 28.959073 -0.863726 0.735430 0.045899 0.003277 645728.000000 0 0 1
-11.765927 14.192314 22.507186 29.093508 -0.878600 0.686269 0.058286 -0.000727 674484.000000 0 0 1
-10.436127 13.571814 22.028986 27.899518 -0.915273 0.660667 0.052099 0.002721 -769798.000000 0 0 1
-9.880027 12.735114 23.028586 28.108963 -0.910980 0.610675 0.054639 -0.002903 -40839.300000 0 0 1
-8.759927 12.037214 22.573786 27.040833 -0.941696 0.583020 0.057537 0.007461 871030.000000 0 0 1
-7.384327 12.826014 22.459586 26.897359 -1.048413 0.582644 0.044137 0.010702 -1070.910000 0 0 1
-7.167827 13.646514 21.299686 26.292236 -1.087154 0.626451 0.037127 0.004502 -239372.000000 0 0 1
-6.234027 14.672014 21.446186 26.722087 -1.169017 0.639216 0.021922 0.010332 -569191.000000 0 0 1
-6.675927 15.779214 22.419986 28.217146 -1.170550 0.652527 0.020685 0.008804 -239271.000000 0 0 1
-7.763127 16.512214 21.859786 28.474016 -1.131317 0.695537 0.013901 0.009854 -74796.500000 0 0 1
-7.368227 17.638314 21.098486 28.470107 -1.175091 0.736126 0.003742 0.017940 -1410560.000000 0 0 1
-8.305227 17.994114 19.924086 28.102208 -1.138377 0.782736 0.007857 0.019688 742360.000000 0 0 1
-9.588827 18.561614 20.173986 29.042534 -1.093961 0.802883 0.010592 0.014315 124153.000000 0 0 1
-10.477827 17.698914 20.796786 29.249662 -1.036277 0.779864 0.012594 0.008547 -1514690.000000 0 0 1
-11.875727 18.227014 21.124586 30.323342 -0.993335 0.800087 0.006796 0.005360 -141988.000000 0 0 1
-12.680427 18.389814 19.947786 29.948166 -0.967128 0.841859 0.013806 0.005856 894953.000000 0 0 1
-13.962827 18.886214 20.393786 31.105564 -0.934170 0.855778 0.015864 0.005528 816564.000000 0 0 1
-15.011727 19.113314 19.281186 31.023134 -0.905017 0.900128 0.025927 -0.003495 -15015.200000 0 0 1
-15.557027 17.934714 18.675486 30.206768 -0.856272 0.904276 0.039935 0.000641 102124.000000 0 0 1
-16.270627 18.367214 17.532286 30.157402 -0.845853 0.950398 0.056117 -0.013296 -1104780.000000 0 0 1
-17.159027 17.249114 16.936786 29.644879 -0.788016 0.962680 0.055070 -0.009113 943599.000000 0 0 1
-18.334427 16.828814 17.646386 30.508279 -0.742606 0.954014 0.055730 -0.005758 951206.000000 0 0 1
-19.276727 17.804314 18.073886 31.863006 -0.745711 0.967649 0.059761 -0.010459 -778523.000000 0 0 1
34.474345 -9.160986 12.111785 37.670937 -0.259731 1.243467 0.054067 -0.025752 -579282.000000 0 0 1
33.626025 -10.123386 11.569785 36.973672 -0.292427 1.252531 0.043798 -0.014579 -80927.400000 0 0 1
33.052025 -10.894286 12.637385 37.024659 -0.318396 1.222472 0.041071 -0.014015 740560.000000 0 0 1
31.630205 -11.481886 12.254685 35.811742 -0.348212 1.221542 0.056352 -0.005478 355324.000000 0 0 1
30.638625 -10.501786 12.484585 34.711349 -0.330213 1.202884 0.053613 -0.005915 207423.000000 0 0 1
29.309035 -10.982886 12.386485 33.661081 -0.358531 1.193964 0.066973 -0.004719 576775.000000 0 0 1
28.714615 -11.922786 13.503685 33.897367 -0.393555 1.161058 0.059426 -0.001012 -891731.000000 0 0 1
28.730715 -11.221986 14.722385 34.177999 -0.372370 1.125466 0.063323 -0.002829 487539.000000 0 0 1
27.896185 -11.801386 15.753685 34.141594 -0.400215 1.091199 0.070147 -0.007922 -583958.000000 0 0 1
26.487485 -11.297086 15.681085 32.788831 -0.403146 1.072141 0.068865 -0.016694 -1392920.000000 0 0 1
26.416085 -9.986486 16.119085 32.517140 -0.361438 1.052144 0.055917 0.006581 387063.000000 0 0 1
25.329685 -9.295286 15.467685 31.100556 -0.351714 1.050261 0.072440 -0.007978 697415.000000 0 0 1
25.193385 -7.804886 15.972385 30.834072 -0.300422 1.026272 0.071986 -0.020875 -424506.000000 0 0 1
26.362985 -7.101786 15.697085 31.493505 -0.263138 1.049018 0.054001 -0.013454 -431203.000000 0 0 1
26.461485 -5.847686 16.247985 31.597510 -0.217493 1.030702 0.046712 -0.003990 -123601.000000 0 0 1
27.725785 -5.052586 15.876185 32.346577 -0.180256 1.057771 0.046981 -0.005788 -119492.000000 0 0 1
27.859485 -4.708286 14.527885 31.770715 -0.167419 1.095870 0.051020 -0.009274 193406.000000 0 0 1
29.030125 -3.929486 14.396485 32.641198 -0.134541 1.114025 0.053917 -0.006357 -49690.900000 0 0 1
29.002075 -3.128786 13.079985 31.968667 -0.107466 1.149274 0.056725 -0.015577 -45294.500000 0 0 1
29.479195 -3.961586 12.041285 32.089089 -0.133585 1.186135 0.051350 -0.018760 283868.000000 0 0 1
29.457435 -3.349286 10.775285 31.544651 -0.113213 1.222190 0.071008 -0.020468 -20721.100000 0 0 1
30.067295 -4.261086 9.693585 31.877338 -0.140781 1.261813 0.072785 -0.012713 551207.000000 0 0 1
31.443855 -4.638986 9.841685 33.273037 -0.146476 1.270519 0.078998 -0.028087 849701.000000 0 0 1
31.852445 -5.609186 8.904385 33.545928 -0.174312 1.302137 0.071493 -0.033176 -506639.000000 0 0 1
33.233325 -6.202086 9.136685 35.019977 -0.184500 1.306843 0.057386 -0.034643 82094.800000 0 0 1
34.335595 -5.310586 8.895285 35.864488 -0.153451 1.320155 0.062113 -0.033828 948339.000000 0 0 1
35.550235 -6.066586 8.746285 37.109570 -0.169020 1.332870 0.084392 -0.044763 395845.000000 0 0 1
-36.443127 -5.210386 8.385885 37.756757 0.142011 1.346826 0.088986 -0.039363 -108027.000000 0 0 1
-36.502717 -4.793286 7.035185 37.482233 0.130566 1.381983 0.083331 -0.037908 177035.000000 0 0 1
-35.439093 -3.887086 6.770285 36.288779 0.109247 1.383130 0.107403 -0.022667 214400.000000 0 0 1
-35.581795 -3.135986 5.436885 36.131126 0.087907 1.419746 0.096954 -0.036879 -259479.000000 0 0 1
-35.186543 -3.931986 4.375185 35.674859 0.111285 1.447846 0.103629 -0.039921 -108244.000000 0 0 1
-34.977170 -3.164586 3.231885 35.268429 0.090230 1.479031 0.101079 -0.034269 -537100.000000 0 0 1
-34.069592 -3.715686 2.162685 34.339782 0.108632 1.507776 0.127799 -0.039850 -515259.000000 0 0 1
-34.405986 -4.909286 1.475185 34.785760 0.141730 1.528376 0.118441 -0.035465 -10883.300000 0 0 1
-35.526269 -4.867486 0.597285 35.863142 0.136163 1.554141 0.103435 -0.035871 21468.700000 0 0 1
-35.090494 -4.971886 -0.861715 35.451445 0.140751 1.595106 0.131073 -0.033821 -674756.000000 0 0 1
-34.645921 -6.299386 -1.166515 35.233263 0.179857 1.603911 0.120775 -0.037310 588570.000000 0 0 1
-33.632457 -6.468886 -2.148115 34.316221 0.190020 1.633435 0.119728 -0.035164 -337661.000000 0 0 1
-32.234317 -5.937386 -1.901715 32.831696 0.182153 1.628752 0.134061 -0.043265 -1227580.000000 0 0 1
-31.681507 -6.668586 -0.844215 32.386735 0.207460 1.596866 0.134801 -0.040167 -1058270.000000 0 0 1
-30.454147 -6.164586 -0.463815 31.075268 0.199723 1.585722 0.124479 -0.048422 -1147270.000000 0 0 1
-29.715007 -7.089086 0.527585 30.553480 0.234192 1.553528 0.093532 -0.039487 -448152.000000 0 0 1
-29.349437 -8.198786 -0.257915 30.474187 0.272407 1.579260 0.081954 -0.033831 246786.000000 0 0 1
-29.131537 -9.265286 0.577885 30.574923 0.307933 1.551895 0.077780 -0.021319 -313424.000000 0 0 1
-28.738127 -10.591786 -0.064915 30.627930 0.353115 1.572916 0.065580 -0.015404 -336899.000000 0 0 1
-27.535317 -10.634086 -0.796815 29.528162 0.368552 1.597785 0.072154 -0.022618 234473.000000 0 0 1
-27.061757 -11.926986 -1.152515 29.595945 0.415120 1.609748 0.075763 -0.006775 -351597.000000 0 0 1
-27.884937 -12.861486 -2.076315 30.778217 0.432157 1.638308 0.067770 -0.009629 -91362.300000 0 0 1
-28.979347 -13.466886 -1.369115 31.984903 0.435016 1.613614 0.080172 -0.018034 1022220.000000 0 0 1
-29.652437 -14.419986 -2.247915 33.049299 0.452628 1.638866 0.074783 -0.015858 118227.000000 0 0 1
-30.508717 -15.437886 -1.430015 34.222143 0.468448 1.612595 0.077177 -0.014863 643999.000000 0 0 1
-29.708117 -16.359486 -0.696115 33.921816 0.503360 1.591319 0.054368 -0.006366 874251.000000 0 0 1
-30.654857 -17.100986 0.069785 35.102263 0.508854 1.568808 0.063306 -0.000964 645685.000000 0 0 1
-30.633177 -18.621386 -0.267115 35.849950 0.546196 1.578247 0.060107 -0.003830 751788.000000 0 0 1
-29.490837 -19.325186 0.293985 35.259874 0.580088 1.562459 0.075231 -0.012672 973430.000000 0 0 1
-29.591927 -20.787686 0.204185 36.164233 0.612387 1.565150 0.090062 -0.013759 127998.000000 0 0 1
-30.586807 -21.422986 1.209185 37.362538 0.610994 1.538427 0.098710 -0.011670 -159764.000000 0 0 1
-30.026977 -21.416386 2.486485 36.965708 0.619555 1.503481 0.099099 -0.017967 -113976.000000 0 0 1
-30.913897 -21.958686 3.422285 38.073153 0.617617 1.480788 0.101057 -0.015821 193310.000000 0 0 1
-30.181957 -22.225286 4.776785 37.785335 0.634725 1.444038 0.083191 -0.020231 241970.000000 0 0 1
-29.742037 -21.021186 5.355185 36.812457 0.615264 1.424806 0.065843 -0.018800 -430500.000000 0 0 1
-29.083657 -21.244386 6.546985 36.606639 0.630876 1.390982 0.056871 -0.018394 81790.400000 0 0 1
-28.215217 -20.030786 7.006685 35.304737 0.617358 1.371007 0.063568 -0.021721 69097.300000 0 0 1
-27.571987 -20.159586 8.234485 35.134458 0.631335 1.334225 0.063504 -0.026773 -531516.000000 0 0 1
-26.886627 -18.968686 8.463885 33.975566 0.614412 1.319028 0.064961 -0.021973 131702.000000 0 0 1
-26.029837 -18.972786 9.782885 33.663390 0.629851 1.275933 0.066805 -0.020413 -87523.500000 0 0 1
-26.747397 -19.140486 10.956685 34.667426 0.621120 1.249232 0.054112 -0.023196 -333797.000000 0 0 1
-25.961927 -19.260186 12.135285 34.528851 0.638273 1.211673 0.064166 -0.017155 11718.300000 0 0 1
-25.357727 -17.951586 12.756685 33.585812 0.616031 1.181191 0.052338 -0.016549 -865826.000000 0 0 1
-24.261427 -17.418886 12.017885 32.194161 0.622682 1.188239 0.049583 -0.014655 67501.300000 0 0 1
-23.755827 -16.346186 12.799985 31.549591 0.602689 1.153041 0.048037 -0.008382 262133.000000 0 0 1
-23.040327 -16.687886 14.159885 31.778051 0.626843 1.108967 0.049601 -0.009840 -855652.000000 0 0 1
-23.915827 -17.051986 15.233785 33.087841 0.619398 1.092346 0.045321 -0.014512 114639.000000 0 0 1
-23.208327 -17.421186 16.422285 33.343899 0.643913 1.055822 0.055781 -0.013550 -31922.000000 0 0 1
-24.097727 -18.130586 17.442485 34.837607 0.645021 1.046412 0.043228 -0.001755 186658.000000 0 0 1
-25.093967 -17.332586 18.050085 35.439121 0.604462 1.036394 0.047691 -0.006092 513119.000000 0 0 1
-25.977067 -18.064986 18.935985 36.874425 0.607646 1.031507 0.039827 0.002878 422428.000000 0 0 1
-26.944817 -17.071186 19.615685 37.446277 0.564732 1.019449 0.045668 0.001031 -169663.000000 0 0 1
-26.361667 -16.358786 20.714185 37.304488 0.555394 0.982105 0.050936 -0.008538 60319.000000 0 0 1
-27.197497 -15.314386 21.119185 37.686260 0.512830 0.975934 0.062581 -0.018663 -80182.700000 0 0 1
-26.570087 -14.515786 22.298985 37.602158 0.500014 0.935987 0.061536 -0.020161 -175459.000000 0 0 1
-25.331487 -13.959086 21.963285 36.317024 0.503654 0.921325 0.055667 -0.019109 -294717.000000 0 0 1
-24.633027 -13.420086 23.083185 36.327925 0.498843 0.882255 0.053793 -0.021598 -63881.300000 0 0 1
-23.372227 -12.737786 22.520685 34.866796 0.498994 0.868586 0.051064 -0.017189 -432165.000000 0 0 1
-23.631427 -11.657386 21.693785 34.131500 0.458273 0.882018 0.074506 -0.016012 274389.000000 0 0 1
-22.471527 -11.115386 21.077885 32.753604 0.459353 0.871697 0.066134 -0.015917 -297013.000000 0 0 1
-22.154227 -9.671786 21.436885 32.309337 0.411626 0.845324 0.072872 -0.014724 -14332.400000 0 0 1
-21.718727 -9.462186 22.808385 32.885536 0.410873 0.804365 0.068370 -0.015206 881103.000000 0 0 1
-20.289727 -9.561386 22.869085 32.032611 0.440378 0.775700 0.041749 -0.007596 513277.000000 0 0 1
-19.801627 -9.499286 24.331885 32.777759 0.447294 0.734257 0.036560 -0.003163 30783.100000 0 0 1
-20.103327 -10.678786 24.980485 33.796521 0.488291 0.738998 0.056217 -0.007132 -295101.000000 0 0 1
-19.282827 -10.919286 26.083085 34.225510 0.515249 0.704254 0.054911 -0.004584 -1300880.000000 0 0 1
-19.361227 -12.233786 26.935785 35.356175 0.563525 0.704646 0.049920 -0.023282 267769.000000 0 0 1
-20.547427 -12.428286 27.701685 36.661184 0.543984 0.714206 0.054868 -0.021723 96628.800000 0 0 1
-21.671127 -12.801286 26.899885 36.839035 0.533558 0.752181 0.047879 -0.022130 -45565.800000 0 0 1
-22.875927 -13.053186 27.836885 38.322133 0.518527 0.757739 0.047868 -0.022838 -230303.000000 0 0 1
-22.886927 -14.302186 28.557085 39.292125 0.558532 0.757161 0.044929 -0.021062 293053.000000 0 0 1
-21.967827 -14.342386 29.679585 39.612715 0.578398 0.723877 0.040055 -0.016483 378826.000000 0 0 1
-22.374627 -15.283486 30.775985 41.004513 0.599274 0.721901 0.033602 -0.015454 -694766.000000 0 0 1
-22.400827 -16.671286 30.399785 41.278030 0.639796 0.742968 0.032752 -0.015657 -20113.500000 0 0 1
-22.556127 -17.630186 31.449485 42.528490 0.663429 0.738481 0.032793 -0.014091 125969.000000 0 0 1
-23.987627 -17.798886 32.012285 43.783478 0.638363 0.750790 0.044291 -0.018769 -177560.000000 0 0 1
-24.501027 -16.886286 32.972985 44.414690 0.603446 0.734167 0.061147 -0.017946 -482414.000000 0 0 1
-25.796787 -17.230386 33.357185 45.552851 0.588875 0.749141 0.061290 -0.024076 -851956.000000 0 0 1
-26.489457 -16.242086 -33.894016 45.981529 0.550035 2.399598 0.062804 -0.018334 -220819.000000 0 0 1
-26.038867 -16.125486 -32.548816 44.693168 0.554479 2.386594 0.069975 -0.019034 -162388.000000 0 0 1
-26.381557 -14.868486 -31.970416 44.035961 0.513220 2.383294 0.071309 -0.015742 -397888.000000 0 0 1
-25.861567 -14.782386 -30.555316 42.672789 0.519273 2.368906 0.068675 -0.006533 -263923.000000 0 0 1
-26.544357 -15.528286 -29.584016 42.672527 0.529313 2.336827 0.055652 0.002606 183380.000000 0 0 1
-25.892127 -15.305186 -28.341416 41.326587 0.533860 2.326487 0.060193 0.003243 -36650.500000 0 0 1
-26.682107 -15.965686 -27.203016 41.313945 0.539218 2.289549 0.049001 0.000967 462588.000000 0 0 1
-27.822687 -15.199586 -26.762516 41.489295 0.500000 2.271880 0.063743 -0.006720 567175.000000 0 0 1
-27.692117 -13.968486 -26.011216 40.479072 0.467178 2.268663 0.056888 -0.017397 -655024.000000 0 0 1
-26.849937 -13.981686 -24.685216 39.061061 0.480097 2.254882 0.058368 -0.018789 184509.000000 0 0 1
-25.468217 -14.006686 -25.015616 38.348381 0.502818 2.281445 0.044079 -0.018711 27820.600000 0 0 1
-24.606527 -14.233586 -23.952216 37.172366 0.524421 2.270976 0.049151 -0.018191 -431676.000000 0 0 1
-24.123727 -15.649486 -23.847216 37.357065 0.575473 2.263161 0.049551 -0.015062 -1039940.000000 0 0 1
-23.122027 -15.922086 -24.788516 37.451455 0.603041 2.294126 0.054874 -0.006360 -91526.000000 0 0 1
-22.890127 -17.303086 -24.837416 37.950651 0.647279 2.284273 0.058152 -0.002587 -181641.000000 0 0 1
-21.949127 -17.685386 -25.987716 38.339254 0.678234 2.315611 0.054609 0.002360 -184248.000000 0 0 1
-22.448727 -17.613186 -27.309516 39.496573 0.665278 2.334277 0.056042 0.000792 283930.000000 0 0 1
-23.207627 -18.737186 -27.771216 40.754343 0.679220 2.320510 0.062288 -0.009844 -22470.700000 0 0 1
-23.846727 -18.491886 -29.159116 41.962725 0.659590 2.339051 0.051678 -0.009934 73325.200000 0 0 1
-23.048727 -18.801986 -30.300116 42.460046 0.684271 2.365441 0.053332 -0.007910 195204.000000 0 0 1
-23.842127 -18.723586 -31.463316 43.691646 0.665722 2.374774 0.048798 -0.005080 -853947.000000 0 0 1
-23.145027 -19.009586 -32.804816 44.420857 0.687609 2.401640 0.048161 -0.009201 -823336.000000 0 0 1
-22.037227 -18.130186 -33.004616 43.630811 0.688434 2.428668 0.039832 -0.005753 939852.000000 0 0 1
-20.783927 -18.576786 -32.452916 42.781542 0.729382 2.431916 0.035397 -0.010733 125239.000000 0 0 1
-20.198027 -19.824386 -33.163016 43.597617 0.776063 2.435127 0.037294 -0.008251 -1374590.000000 0 0 1
-19.716827 -19.379286 33.758585 43.634299 0.776765 0.686182 0.034453 -0.013841 -64498.300000 0 0 1
-19.578827 -20.468886 32.828385 43.359066 0.807619 0.711890 0.034262 -0.015658 314469.000000 0 0 1
-20.858727 -21.128786 32.167885 43.775392 0.791830 0.745366 0.032843 -0.014315 660946.000000 0 0 1
-21.500827 -22.005486 33.101985 45.191464 0.796997 0.748834 0.022793 -0.010417 428290.000000 0 0 1
-22.714927 -22.580986 32.582985 45.689383 0.782441 0.776827 0.019349 -0.005147 508646.000000 0 0 1
-22.603627 -23.696286 31.511585 45.446869 0.808993 0.804638 0.015536 -0.001102 -514242.000000 0 0 1
-22.109327 -24.865886 32.121385 46.248438 0.844012 0.803016 0.020105 0.000750 -172881.000000 0 0 1
-22.194227 -26.009356 31.284085 46.343978 0.864380 0.829776 0.029157 0.012221 -194161.000000 0 0 1
-21.587527 -27.294466 31.847885 47.173053 0.901621 0.829657 0.047716 -0.005777 -242132.000000 0 0 1
-22.315527 -27.838436 32.925285 48.549312 0.895075 0.825510 0.042372 -0.011287 -95066.200000 0 0 1
-21.767527 -29.026706 33.408085 49.320128 0.927350 0.826612 0.053648 -0.020623 -200066.000000 0 0 1
-22.938227 -29.848446 34.005085 50.729063 0.915566 0.836146 0.055799 -0.019038 230192.000000 0 0 1
-23.884327 -30.363866 33.049285 50.839755 0.904277 0.863123 0.040776 -0.014852 340536.000000 0 0 1
-25.010427 -29.546836 32.872685 50.785336 0.868357 0.866777 0.037974 -0.010932 -731481.000000 0 0 1
-26.153417 -29.556216 33.895585 52.023858 0.846403 0.861185 0.033008 -0.017903 -1105930.000000 0 0 1
-27.037907 -28.511206 33.668585 51.744670 0.811914 0.862333 0.032658 -0.010201 -711949.000000 0 0 1
-27.812127 -28.329056 -33.371116 51.862136 0.794606 2.269804 0.030968 0.000489 -320293.000000 0 0 1
-29.070777 -27.476916 -33.615516 52.250300 0.757219 2.269670 0.027339 -0.007451 614853.000000 0 0 1
-30.088677 -28.111896 33.736785 53.233240 0.751446 0.884400 0.029062 -0.014221 1059300.000000 0 0 1
-31.145237 -27.153816 33.476585 53.179293 0.717040 0.889881 0.035582 -0.020573 368132.000000 0 0 1
