# x y z rho theta phi s1 s2 stress_xx np intf bulk
-0.679155 -10.752128 -14.398029 17.982568 1.507715 2.499202 0.001720 0.001174 591030.000000 1 0 0
2.354045 -13.361428 -12.999329 18.789674 -1.396404 2.334822 -0.000036 0.003230 -189791.000000 1 0 0
2.197445 -11.148028 -14.836129 18.687376 -1.376176 2.488012 -0.001704 0.003616 77240.200000 1 0 0
-5.509255 -6.221028 -16.487429 18.463164 0.846002 2.674743 0.024993 0.000146 1122630.000000 1 0 0
4.624345 -14.152928 -11.307929 18.696503 -1.254990 2.220330 0.001584 0.004625 252340.000000 1 0 0
14.058945 -10.573028 -7.895729 19.281737 -0.644812 1.992694 0.034100 -0.016831 -44792.900000 1 0 0
6.937045 10.893772 -10.839229 16.860775 1.003764 2.269031 0.026929 -0.015030 1600540.000000 1 0 0
5.665845 -4.307928 -12.620729 14.489405 -0.650081 2.628095 0.002286 -0.000027 2301070.000000 1 0 0
13.611045 0.457172 -10.054329 16.928056 0.033576 2.206750 0.030086 -0.003987 673391.000000 1 0 0
14.055745 5.185272 -10.433829 18.256938 0.353419 2.179128 0.033701 0.001611 368063.000000 1 0 0
4.082445 4.298072 -13.448429 14.696939 0.811122 2.726427 0.001809 0.003796 1729550.000000 1 0 0
10.284945 -5.082528 -13.615429 17.804272 -0.458974 2.441416 0.031048 -0.004355 -358433.000000 1 0 0
2.557445 -7.688828 -11.935129 14.425877 -1.249689 2.545155 -0.006804 0.006847 1377280.000000 1 0 0
-5.591655 -1.909028 -15.122629 16.235914 0.328999 2.769121 0.014629 -0.004118 1553270.000000 1 0 0
10.626345 -0.048428 -9.610929 14.327997 -0.004557 2.306056 0.009399 -0.000664 1216330.000000 1 0 0
-1.628255 -9.556928 -16.903529 19.486287 1.402042 2.620866 0.010143 -0.011247 688334.000000 1 0 0
8.667645 1.615372 -17.846529 19.905680 0.184254 2.682725 0.038491 -0.007022 -598222.000000 1 0 0
16.442745 -5.909228 -8.800029 19.563316 -0.345008 2.037363 0.091360 -0.014156 244887.000000 1 0 0
10.060145 7.625772 -9.962229 16.081198 0.648613 2.238896 0.020351 0.001603 1276900.000000 1 0 0
13.808545 -2.278028 -10.623529 17.570563 -0.163500 2.220086 0.051314 -0.007527 -1003700.000000 1 0 0
7.249245 -1.913428 -13.568429 15.502098 -0.258063 2.636778 0.013207 -0.006787 775009.000000 1 0 0
-2.775655 6.599072 -13.844529 15.585987 -1.172647 2.664356 0.008504 -0.003392 1218310.000000 1 0 0
11.109845 1.804272 -13.960129 17.932352 0.160997 2.463050 0.022244 -0.002987 388762.000000 1 0 0
-2.383155 10.650172 -12.943029 16.930079 -1.350656 2.441060 0.005663 -0.001523 -1745890.000000 1 0 0
2.869745 -1.033328 -15.256229 15.558140 -0.345624 2.944268 0.003400 -0.001337 858412.000000 1 0 0
-9.100355 0.547772 -15.286229 17.798464 -0.060120 2.603819 0.008933 -0.000343 -782163.000000 1 0 0
2.332145 -1.674428 -17.994329 18.221923 -0.622690 2.983376 0.024750 -0.012818 -1038140.000000 1 0 0
0.997445 7.818772 -13.205929 15.379358 1.443911 2.603483 0.002416 -0.002573 266010.000000 1 0 0
9.477945 -9.119228 -9.754029 16.374763 -0.766112 2.208902 0.018835 -0.002731 -377165.000000 1 0 0
3.909645 7.315272 -13.533429 15.873003 1.079970 2.591750 0.000933 -0.000391 446759.000000 1 0 0
-2.665855 9.081872 -15.585629 18.234555 -1.285280 2.595828 0.004628 0.000027 -600815.000000 1 0 0
5.527845 -7.735828 -15.245629 17.967452 -0.950354 2.583967 0.022406 -0.005902 -589079.000000 1 0 0
4.179045 7.239472 -16.413329 18.419331 1.047267 2.670543 0.002654 0.003931 1085460.000000 1 0 0
-0.219355 5.073272 -13.487429 14.411695 -1.527586 2.781508 0.011568 -0.003764 1833230.000000 1 0 0
8.762145 4.188172 -16.528629 19.170591 0.445881 2.610367 0.028259 -0.005035 548766.000000 1 0 0
5.328345 0.287672 -14.327929 15.289329 0.053937 2.785080 -0.004214 0.003837 91498.600000 1 0 0
6.210645 8.039172 -11.657929 15.463108 0.913020 2.424803 -0.000832 0.000611 -765777.000000 1 0 0
2.785445 -8.318728 -15.029029 17.402059 -1.247690 2.613233 0.004428 -0.004903 -737725.000000 1 0 0
3.982345 11.542172 -13.690729 18.344396 1.238560 2.413307 0.011923 -0.011126 -1115670.000000 1 0 0
0.591945 -4.529928 -13.689129 14.431317 -1.440858 2.819487 0.000027 0.001722 928505.000000 1 0 0
8.490045 -0.169028 -11.532029 14.321213 -0.019906 2.506878 -0.001088 -0.000367 1011590.000000 1 0 0
-0.919355 -5.127528 -16.241929 17.056876 1.393384 2.831226 0.001441 -0.005725 -301490.000000 1 0 0
4.476345 0.915272 -11.647729 12.511794 0.201688 2.767775 -0.002805 -0.002410 -187805.000000 1 0 0
-2.860355 -7.208928 -15.642129 17.459281 1.193069 2.681296 0.008068 -0.002546 802801.000000 1 0 0
11.385945 -3.806828 -11.363429 16.530554 -0.322660 2.328727 0.020224 -0.005892 1296890.000000 1 0 0
6.471245 -7.106328 -12.471829 15.745585 -0.832139 2.485012 0.016127 0.001302 -1163840.000000 1 0 0
3.360445 -4.010028 -14.678129 15.582695 -0.873304 2.799190 0.004231 -0.002528 3057820.000000 1 0 0
-0.543155 -1.478128 -18.325629 18.393166 1.218651 3.055871 0.024150 -0.018602 1228050.000000 1 0 0
14.821745 2.975872 -8.534529 17.360245 0.198143 2.084738 0.017846 0.002850 -1263060.000000 1 0 0
6.919045 4.205772 -14.241429 16.382308 0.546175 2.624616 -0.001143 0.004874 3156210.000000 1 0 0
10.165945 -9.546428 -14.041429 19.789959 -0.753981 2.359617 0.044712 -0.007730 -809825.000000 1 0 0
8.956545 -3.231928 -15.560529 18.242673 -0.346304 2.592454 0.043931 -0.014321 79298.500000 1 0 0
-5.313355 -2.050728 -18.069729 18.946038 0.368342 2.836260 0.018214 0.000064 -555092.000000 1 0 0
5.036845 -9.184628 -10.994429 15.185673 -1.069183 2.380380 -0.004427 0.007744 1896450.000000 1 0 0
-2.516655 4.002272 -17.168429 17.807490 -1.009464 2.872878 0.023984 -0.004359 1750600.000000 1 0 0
9.235045 9.421772 -14.424429 19.547890 0.795406 2.400753 0.058949 -0.009737 -544598.000000 1 0 0
9.751345 10.033972 -11.538429 18.135729 0.799682 2.260393 0.036307 -0.015313 276487.000000 1 0 0
12.053745 -5.853528 -9.626629 16.499350 -0.452077 2.193773 0.031306 -0.006450 -561465.000000 1 0 0
8.178945 6.883472 -13.621929 17.315723 0.699602 2.476209 0.008549 0.002895 -14499.600000 1 0 0
3.893745 -4.162728 -17.642329 18.540263 -0.818773 2.829094 0.028405 -0.015335 2176540.000000 1 0 0
9.337945 -7.468128 -12.214929 17.093117 -0.674595 2.366864 0.028868 -0.006878 290039.000000 1 0 0
12.133145 -8.590328 -8.764429 17.257525 -0.616078 2.103497 0.036119 -0.012855 459278.000000 1 0 0
-2.949055 -2.621828 -13.898129 14.447453 0.726727 2.864950 0.009156 -0.005539 -1460410.000000 1 0 0
-0.392555 6.108972 -17.722829 18.750262 -1.506626 2.809016 0.021934 0.000699 2862030.000000 1 0 0
1.102145 -8.420828 -17.426529 19.385794 -1.440653 2.688124 0.010336 -0.015166 1407390.000000 1 0 0
0.050045 8.477272 -15.976329 18.086175 1.564893 2.653747 0.009704 0.001986 -212063.000000 1 0 0
1.757345 3.375172 -14.983729 15.459372 1.090751 2.892891 0.017086 -0.000682 1309230.000000 1 0 0
-1.970155 -0.494328 -15.829129 15.958922 0.245833 3.013968 0.019055 -0.009590 1708210.000000 1 0 0
14.170645 -4.213628 -8.441729 17.024237 -0.289023 2.089627 0.051830 -0.006546 1626710.000000 1 0 0
0.531245 0.617672 -14.522829 14.545663 0.860481 3.085553 0.009123 -0.003114 2037610.000000 1 0 0
8.755545 2.685772 -12.501929 15.497457 0.297639 2.509357 0.005533 0.001645 752927.000000 1 0 0
6.005245 0.969372 -17.102129 18.151735 0.160040 2.799862 0.022096 0.000390 -1473130.000000 1 0 0
15.211245 1.564372 -12.363429 19.664272 0.102483 2.250709 0.074626 -0.013142 -1210170.000000 1 0 0
8.907145 -11.267428 -11.894629 18.648710 -0.901862 2.262468 0.030241 0.001687 127692.000000 1 0 0
-4.628155 0.770972 -15.072329 15.785732 -0.165067 2.839807 0.019244 -0.008945 982735.000000 1 0 0
2.325445 5.039272 -17.305729 18.173888 1.138450 2.831255 0.016515 -0.000462 729233.000000 1 0 0
5.991045 -11.700428 -12.235829 17.958512 -1.097566 2.320386 0.007395 0.000727 59713.700000 1 0 0
12.735645 7.246872 -8.657629 17.019646 0.517331 2.104452 0.017402 -0.001199 1311140.000000 1 0 0
-5.087555 3.680872 -15.702529 16.911578 -0.626328 2.761170 0.015708 -0.007088 558712.000000 1 0 0
-0.468855 -4.429028 -19.053429 19.567046 1.465330 2.911964 0.011933 -0.014196 -665333.000000 1 0 0
9.804345 4.426572 -10.241929 14.853176 0.424093 2.331657 -0.004382 0.005210 -97890.300000 1 0 0
13.173545 3.639172 -12.807829 18.730359 0.269527 2.323755 0.052547 -0.010353 285445.000000 1 0 0
-6.342555 5.663172 -17.360729 19.331178 -0.728870 2.686156 0.017959 0.002816 -1380390.000000 1 0 0
-10.254355 3.294972 -15.478929 18.857515 -0.310904 2.533670 0.020872 -0.005222 215921.000000 1 0 0
10.526345 13.844372 -8.249129 19.248862 0.920714 2.013685 0.098462 -0.025356 1083160.000000 1 0 0
7.356245 13.437272 -12.399929 19.708700 1.069912 2.251269 0.065828 -0.022919 -777501.000000 1 0 0
5.132445 15.123672 -11.216729 19.516210 1.243627 2.183082 0.031372 -0.020581 -5330.510000 1 0 0
14.092645 9.735672 -9.563029 19.617275 0.604547 2.079998 0.081044 -0.021040 -107214.000000 1 0 0
8.422245 -17.206228 -2.001529 19.261221 -1.115594 1.674899 0.033770 -0.006396 -883499.000000 1 0 0
0.785145 -15.923128 -0.009329 15.942477 -1.521528 1.571382 0.015855 -0.013971 2070350.000000 1 0 0
-9.033355 -11.772228 7.598471 16.671042 0.916287 1.097538 0.023744 -0.002504 -937844.000000 1 0 0
2.062345 -15.936028 -2.569429 16.273052 -1.442098 1.729355 0.020898 -0.008413 2487090.000000 1 0 0
-1.248055 -11.009828 -9.377429 14.515858 1.457920 2.273146 -0.003152 0.001394 429917.000000 1 0 0
-4.550455 -12.614028 -13.067429 18.723730 1.224581 2.343268 0.042233 -0.003877 -44389.300000 1 0 0
-8.282855 -17.916628 -1.767329 19.817536 1.137761 1.660095 0.035380 -0.018346 -2176100.000000 1 0 0
-11.462055 -7.096828 -8.889729 16.148405 0.554388 2.153762 0.031000 -0.013121 1017900.000000 1 0 0
-13.501155 -11.677028 -4.623029 18.439268 0.713076 1.824217 0.036954 -0.008772 -268055.000000 1 0 0
-5.537055 -13.581128 9.697971 17.582852 1.183668 0.986565 0.014759 -0.006309 -612407.000000 1 0 0
0.146345 -14.011328 -3.602429 14.467766 -1.560352 1.822441 0.011292 -0.004557 849814.000000 1 0 0
-14.715255 -11.541628 1.874471 18.795254 0.665113 1.470899 0.012645 -0.003472 2035870.000000 1 0 0
-3.908055 -16.319028 -7.470129 18.368081 1.335745 1.989625 0.014930 -0.014569 -156637.000000 1 0 0
0.651345 -15.212228 -9.267129 17.824585 -1.528005 2.117539 0.002248 -0.003921 1351500.000000 1 0 0
4.617145 -14.271928 -2.600129 15.223884 -1.257911 1.742431 0.020192 -0.003637 1153260.000000 1 0 0
-3.509655 -18.091928 -2.402529 18.585147 1.379186 1.700431 0.027101 -0.019448 480968.000000 1 0 0
-0.802455 -13.451628 0.729971 13.495299 1.511212 1.516679 0.014967 -0.007103 2411100.000000 1 0 0
-8.423655 -11.313728 -10.626229 17.659988 0.930791 2.216439 0.046742 -0.012023 1891820.000000 1 0 0
-3.662855 -14.098328 -0.339029 14.570323 1.316608 1.594067 0.008734 -0.008139 5587820.000000 1 0 0
-1.459555 -14.833128 -7.309729 16.600727 1.472714 2.026758 0.004933 -0.006233 23997.700000 1 0 0
-14.250855 -8.031628 -1.819229 16.459147 0.513216 1.681553 0.020725 -0.005583 1926530.000000 1 0 0
-10.737155 -7.276428 -11.681129 17.455134 0.595593 2.303940 0.044001 -0.013935 100252.000000 1 0 0
-9.386455 -14.829528 6.821971 18.829757 1.006496 1.200065 0.013072 -0.003615 220929.000000 1 0 0
-2.211655 -14.226928 -12.321629 18.950447 1.416575 2.278647 0.028008 -0.006393 -3253.670000 1 0 0
2.449545 -17.756328 -4.736129 18.539644 -1.433708 1.829119 0.030946 -0.019063 700721.000000 1 0 0
-6.497155 -9.675228 -9.303629 14.912431 0.979438 2.244499 0.021234 -0.006271 871698.000000 1 0 0
-10.906055 -15.371328 0.381571 18.851137 0.953719 1.550554 0.021105 -0.014757 871245.000000 1 0 0
-12.593255 -11.020028 4.056371 17.218747 0.718872 1.332982 0.020209 -0.003958 1963800.000000 1 0 0
-17.075655 -8.941328 -1.621329 19.343062 0.482373 1.654714 0.013648 -0.003395 -528944.000000 1 0 0
-1.329055 -19.102028 -3.938429 19.549044 1.501332 1.773649 0.034503 -0.021632 -511485.000000 1 0 0
3.337845 -14.390628 -8.578929 17.083016 -1.342881 2.096926 0.006138 -0.002414 1263820.000000 1 0 0
-4.265755 -8.018228 -13.055829 15.904192 1.081872 2.533790 0.014571 -0.002645 803673.000000 1 0 0
5.676945 -16.614628 1.288371 17.604928 -1.241550 1.497548 0.024804 -0.009496 3219970.000000 1 0 0
-2.774855 -13.767328 -3.112129 14.384871 1.371907 1.788868 0.004779 -0.003811 -1530430.000000 1 0 0
-0.310355 -13.893328 3.704371 14.382046 1.548462 1.310291 0.015869 -0.008987 -2080150.000000 1 0 0
1.364545 -16.116428 7.024771 17.633736 -1.486330 1.161056 0.026023 -0.013589 1322590.000000 1 0 0
-5.454155 -10.267728 -14.621129 18.680243 1.082506 2.469797 0.052209 -0.006128 -732164.000000 1 0 0
-0.198055 -17.203828 -5.916229 18.193755 1.559285 1.901997 0.022448 -0.014165 1093870.000000 1 0 0
-6.480255 -13.382128 -1.267929 14.922557 1.119830 1.655866 0.004830 -0.003613 2627530.000000 1 0 0
-1.672455 -17.670028 -0.109929 17.749341 1.476428 1.576990 0.024638 -0.017229 1433610.000000 1 0 0
-9.513855 -9.747028 -4.926129 14.483948 0.797504 1.917830 0.019500 -0.002870 1150140.000000 1 0 0
-0.657155 -16.667328 4.845471 17.369809 1.531389 1.288086 0.029999 -0.015959 2881050.000000 1 0 0
-6.807655 -9.852528 -6.302729 13.532955 0.966167 2.055258 0.013045 -0.005592 2558590.000000 1 0 0
-5.961855 -14.497628 -8.588829 17.874365 1.180647 2.072034 0.029375 -0.010855 -1054940.000000 1 0 0
-5.633455 -12.205728 -10.346429 16.963615 1.138386 2.226755 0.036604 -0.005711 2460840.000000 1 0 0
-10.544155 -12.162828 -8.822129 18.356023 0.856563 2.072149 0.057065 -0.023239 -650089.000000 1 0 0
4.098445 -17.141728 6.590871 18.816899 -1.336110 1.212944 0.038016 -0.013947 375613.000000 1 0 0
-6.585155 -14.418928 -4.175729 16.392269 1.142383 1.828373 0.012006 -0.009021 306398.000000 1 0 0
-2.792855 -12.176028 -7.095229 14.366558 1.345323 2.087333 0.001547 -0.002290 2223220.000000 1 0 0
-7.062655 -12.853328 4.448871 15.325848 1.068352 1.276271 0.008496 -0.003533 2369070.000000 1 0 0
2.698445 -16.379828 2.345871 16.765545 -1.407521 1.430414 0.023965 -0.015037 4272610.000000 1 0 0
-6.163955 -12.099028 7.271371 15.403041 1.099610 1.079155 0.009274 -0.002307 2057130.000000 1 0 0
-11.248755 -12.867428 -1.047729 17.123170 0.852417 1.632022 0.029627 -0.004997 951533.000000 1 0 0
-14.242055 -8.738128 4.676171 17.351012 0.550319 1.297918 0.013937 -0.004045 -683985.000000 1 0 0
-7.929255 -15.673028 4.355471 18.096603 1.102426 1.327731 0.009911 -0.002450 1687160.000000 1 0 0
-16.497755 -9.148428 1.175971 18.901126 0.506311 1.508539 0.006908 0.001484 -839093.000000 1 0 0
-6.576755 -17.185928 2.309771 18.545751 1.205307 1.445928 0.018715 -0.008145 595099.000000 1 0 0
-11.440255 -15.042028 -4.838029 19.507655 0.920576 1.821418 0.060182 -0.009664 -94313.700000 1 0 0
-10.159255 -9.981628 -12.657729 19.054172 0.776579 2.297356 0.056379 -0.004908 -1447260.000000 1 0 0
-4.169955 -16.012228 -4.516329 17.151595 1.316032 1.837257 0.004360 -0.010530 788993.000000 1 0 0
-11.819255 -8.353228 0.057471 14.473235 0.615240 1.566825 0.004032 -0.001929 2180860.000000 1 0 0
-9.612955 -11.231228 3.452271 15.181159 0.862879 1.341384 0.007605 0.001464 1919100.000000 1 0 0
-14.189555 -12.869428 -0.637629 19.166957 0.736650 1.604070 0.023616 -0.004401 588794.000000 1 0 0
5.824345 -14.963928 -7.072429 17.545980 -1.199613 1.985676 0.018298 -0.011354 1373850.000000 1 0 0
-7.437055 -10.545128 -1.227629 12.962122 0.956549 1.665647 0.004712 0.001099 -465694.000000 1 0 0
-11.687355 -8.261728 -6.082229 15.551332 0.615338 1.972630 0.025288 -0.009183 391986.000000 1 0 0
-14.450755 -6.730328 -9.229929 18.420457 0.435868 2.095630 0.045195 -0.018454 2211610.000000 1 0 0
-3.870955 -16.367828 1.444171 16.881224 1.338565 1.485143 0.022151 -0.018743 1108880.000000 1 0 0
-7.940755 -15.558728 0.099571 17.468244 1.098885 1.565096 0.020138 -0.010242 2138020.000000 1 0 0
1.220745 -18.542928 3.608871 18.930250 -1.505058 1.378982 0.036522 -0.020007 -139327.000000 1 0 0
-14.154355 -8.889728 -4.627029 17.343081 0.560794 1.840861 0.031523 -0.012564 181279.000000 1 0 0
-3.196355 -14.593328 11.049371 18.581456 1.355173 0.933972 0.010942 -0.015351 -1063250.000000 1 0 0
-10.716555 -12.194328 -3.898229 16.695580 0.849810 1.806460 0.041034 -0.012610 28801.700000 1 0 0
-9.948355 -10.775828 0.548471 14.676140 0.825305 1.533416 0.007035 0.003204 1006460.000000 1 0 0
0.214245 -13.077028 -11.102729 17.155908 -1.554415 2.274658 0.008278 -0.004116 1608290.000000 1 0 0
-5.832055 -12.558428 -6.386729 15.248518 1.136037 2.002967 0.010448 -0.007768 1674490.000000 1 0 0
1.853345 -15.842428 9.935571 18.791833 -1.454340 1.013707 0.025236 -0.010279 521727.000000 1 0 0
-8.813355 -15.751828 -5.547829 18.883160 1.060679 1.868994 0.048986 -0.012142 -617377.000000 1 0 0
-3.191355 -15.585428 5.909171 16.970817 1.368823 1.215150 0.016457 -0.009749 -1215680.000000 1 0 0
-17.479855 -5.597228 -6.486529 19.466622 0.309894 1.910505 0.035419 -0.013216 18641.600000 1 0 0
18.910745 5.547772 -2.891329 19.918680 0.285360 1.716468 0.027516 0.004934 -1942250.000000 1 0 0
12.968245 -12.344128 -5.742729 18.802442 -0.760747 1.881181 0.027488 -0.010179 -672401.000000 1 0 0
11.223945 -13.410128 -1.523329 17.553604 -0.873913 1.657687 0.024320 -0.009825 3475670.000000 1 0 0
18.917845 -2.812528 4.601571 19.671543 -0.147590 1.334689 0.098944 -0.022008 200936.000000 1 0 0
8.775645 -16.906628 4.927971 19.675643 -1.092013 1.317640 0.055109 -0.024580 -1143130.000000 1 0 0
18.251545 -1.012428 6.747871 19.485319 -0.055414 1.217166 0.124481 -0.020731 -582849.000000 1 0 0
18.057945 -4.152228 -5.031829 19.200252 -0.226011 1.835964 0.089728 -0.007690 -553538.000000 1 0 0
5.338145 -11.754428 14.897571 19.712940 -1.144506 0.714035 0.002067 0.001413 651757.000000 1 0 0
16.105645 -8.772128 -0.803229 18.357211 -0.498736 1.614566 0.047815 -0.009215 -1066540.000000 1 0 0
14.059045 -12.460628 -1.272429 18.829314 -0.725198 1.638425 0.037626 -0.007180 -1101940.000000 1 0 0
11.521345 -1.843928 13.954171 18.189567 -0.158699 0.696406 0.050722 -0.005542 -108502.000000 1 0 0
17.062945 -6.035928 -1.394429 18.152712 -0.340007 1.647689 0.055339 -0.009541 -1236560.000000 1 0 0
17.897845 3.573372 -0.981229 18.277435 0.197063 1.624507 0.023508 0.003656 607157.000000 1 0 0
9.881945 -11.086128 9.619271 17.694221 -0.842765 0.996029 0.019650 0.000405 1345380.000000 1 0 0
9.235445 -11.030428 4.308371 15.017518 -0.873739 1.279818 0.011430 -0.006689 -2268510.000000 1 0 0
14.169045 -10.074028 6.785671 18.662615 -0.618063 1.198670 0.045674 -0.018222 958171.000000 1 0 0
16.302045 -0.513828 -4.706629 16.975660 -0.031509 1.851735 0.026533 0.002930 -1581570.000000 1 0 0
15.715445 -0.540828 -1.705029 15.816916 -0.034400 1.678804 0.021353 0.000793 784583.000000 1 0 0
12.902945 -5.190928 -0.268529 13.910565 -0.382492 1.590102 0.016994 -0.005452 1305050.000000 1 0 0
14.449245 -7.438628 1.093271 16.288312 -0.475426 1.503626 0.041011 -0.006088 2425340.000000 1 0 0
15.595245 2.426472 3.625671 16.193978 0.154353 1.344992 0.040618 -0.008689 2125400.000000 1 0 0
16.054445 -7.035728 5.037171 18.237866 -0.413033 1.290966 0.072315 -0.022092 -1716110.000000 1 0 0
13.830945 -12.131628 3.365771 18.702937 -0.720039 1.389851 0.037394 -0.010690 -478757.000000 1 0 0
14.040345 -0.855028 9.199371 16.807462 -0.060823 0.991616 0.062954 -0.013465 650529.000000 1 0 0
14.159345 -2.802928 -1.538229 14.515840 -0.195429 1.676965 0.019054 -0.003722 -130280.000000 1 0 0
15.026245 1.972772 9.245371 17.752654 0.130542 1.023022 0.081231 -0.013468 -2495670.000000 1 0 0
14.465545 -9.934228 -2.920029 17.789532 -0.601779 1.735686 0.036526 -0.010194 -268187.000000 1 0 0
7.473845 -12.549928 6.206171 15.870590 -1.033671 1.169026 0.000471 -0.002066 -52277.900000 1 0 0
12.527945 -4.545528 7.040971 15.072707 -0.348060 1.084750 0.020949 -0.007965 3051360.000000 1 0 0
15.001245 -8.906328 -5.688629 18.349946 -0.535779 1.885998 0.056410 -0.013968 -296974.000000 1 0 0
14.398945 -4.522028 4.678971 15.800985 -0.304299 1.270170 0.032737 -0.010473 1843970.000000 1 0 0
17.208745 -4.156928 1.027371 17.733484 -0.237019 1.512830 0.046230 -0.015124 -1321360.000000 1 0 0
10.327745 -14.364928 1.229271 17.734841 -0.947461 1.501427 0.044137 -0.018676 497460.000000 1 0 0
16.511745 -2.451228 8.625471 18.789491 -0.147377 1.093861 0.103759 -0.019107 694263.000000 1 0 0
16.171645 -2.573028 3.332771 16.710773 -0.157785 1.370011 0.047201 -0.008543 3919530.000000 1 0 0
7.977045 -15.209228 2.691371 17.383824 -1.087751 1.415351 0.024452 -0.014971 1701250.000000 1 0 0
16.702845 -6.960428 7.906371 19.746982 -0.394838 1.158861 0.089750 -0.024587 -358145.000000 1 0 0
10.385545 -8.436628 5.186871 14.350605 -0.682222 1.200985 0.010228 -0.004415 906857.000000 1 0 0
11.072845 -11.731928 2.290871 16.293990 -0.814291 1.429733 0.027849 -0.013961 783821.000000 1 0 0
12.473345 -7.218328 11.932171 18.710032 -0.524611 0.879233 0.049568 -0.020533 -427270.000000 1 0 0
15.451545 -9.859428 4.299971 18.826798 -0.567955 1.340366 0.052289 -0.016300 27704.700000 1 0 0
7.468445 -10.254028 7.899971 14.944307 -0.941301 1.013814 0.000726 0.002651 388257.000000 1 0 0
15.262145 -3.253428 -4.304729 16.187914 -0.210026 1.839957 0.045051 -0.004146 1753770.000000 1 0 0
11.939845 -9.006728 9.797071 17.879140 -0.646274 0.990872 0.033184 -0.012055 -2201470.000000 1 0 0
17.151545 -6.590228 2.463871 18.538534 -0.366843 1.437497 0.075917 -0.015818 1406970.000000 1 0 0
17.681545 3.992072 1.987471 18.235232 0.222053 1.461589 0.038482 -0.001953 2308600.000000 1 0 0
14.874645 -4.841928 8.806571 17.951463 -0.314698 1.058045 0.070285 -0.018579 913347.000000 1 0 0
12.904345 -12.640428 6.151471 19.082535 -0.775067 1.242573 0.039674 -0.010774 -1090630.000000 1 0 0
18.156145 0.661072 -0.812029 18.186314 0.036394 1.615462 0.027647 -0.001017 -331442.000000 1 0 0
11.805945 -2.045728 10.962971 16.240445 -0.171576 0.829776 0.029510 -0.003915 1970830.000000 1 0 0
6.007045 -12.534228 10.731871 17.560311 -1.123885 0.913292 0.003103 0.006539 -1379130.000000 1 0 0
10.814745 -4.905328 11.019071 16.200027 -0.425825 0.822777 0.026157 -0.008360 2091780.000000 1 0 0
17.930045 1.400772 5.143371 18.705692 0.077966 1.292245 0.082684 -0.009426 -584510.000000 1 0 0
12.397145 -7.639928 7.202771 16.246157 -0.552293 1.111461 0.023675 -0.013853 -1344680.000000 1 0 0
10.830045 -7.802728 14.265371 19.536459 -0.624333 0.752193 0.067692 -0.018314 -560695.000000 1 0 0
14.198945 -0.205628 3.751471 14.687609 -0.014481 1.312517 0.013656 -0.003166 1555380.000000 1 0 0
11.817145 -7.634528 2.610471 14.308931 -0.573597 1.387332 0.013070 -0.005840 1919670.000000 1 0 0
9.330445 6.075872 3.436771 11.652674 0.577210 1.271410 0.004471 -0.003158 2283940.000000 1 0 0
-3.950055 14.664772 -10.033629 18.202532 -1.307684 2.154624 0.010446 -0.000869 1011310.000000 1 0 0
8.866645 -6.440628 9.282571 14.361936 -0.628218 0.868029 0.004790 -0.001983 -417158.000000 1 0 0
5.840145 -10.621528 -8.356129 14.722400 -1.068076 2.174359 0.003553 -0.000397 1238530.000000 1 0 0
5.352945 1.031372 0.573371 5.481469 0.190341 1.466003 0.003398 -0.000201 4704630.000000 1 0 0
-0.603555 9.938372 11.022371 14.853557 -1.510141 0.734644 -0.002483 -0.003715 52890.400000 1 0 0
-6.324355 -5.197528 1.025371 8.250040 0.687909 1.446187 0.005880 -0.001231 4815940.000000 1 0 0
-1.089055 3.951172 -10.963429 11.704468 -1.301846 2.783844 0.013094 -0.007997 1278680.000000 1 0 0
10.857345 5.837972 1.164771 12.382267 0.493349 1.476589 0.006347 -0.000954 1536090.000000 1 0 0
-10.122255 -1.746228 -13.694729 17.118848 0.170832 2.498058 0.012013 -0.001247 -203625.000000 1 0 0
7.316545 10.900172 -6.100329 14.476173 0.979640 2.005790 0.005374 -0.006680 1398210.000000 1 0 0
-12.429955 -2.998028 -9.580729 15.977557 0.236673 2.213843 0.012811 -0.003521 -422162.000000 1 0 0
-3.874055 -8.807028 2.559271 9.955999 1.156388 1.310820 0.008135 -0.001600 -1287210.000000 1 0 0
8.099645 -6.649528 -5.842229 11.998005 -0.687395 2.079372 0.008650 -0.007660 2427830.000000 1 0 0
14.353045 3.290072 -4.303529 15.341279 0.225332 1.855132 0.013559 0.005712 1499690.000000 1 0 0
-2.389555 -4.986728 9.827171 11.276113 1.123941 0.512537 0.003831 -0.000466 2909200.000000 1 0 0
3.528245 -1.830228 -4.587329 6.069748 -0.478524 2.427625 0.000892 -0.003275 -2647400.000000 1 0 0
-4.029355 8.320972 -3.493329 9.883199 -1.119835 1.932065 0.003330 -0.002787 1407160.000000 1 0 0
5.873045 0.148672 11.665871 13.061673 0.025309 0.466523 0.008013 -0.005522 679871.000000 1 0 0
7.211545 4.869672 12.246871 15.023512 0.593929 0.617756 0.012048 -0.006325 -476369.000000 1 0 0
1.205045 -14.531228 12.396671 19.138604 -1.488058 0.866194 0.008763 -0.003815 1525710.000000 1 0 0
2.954545 8.718472 -9.137029 12.970211 1.244059 2.352462 0.000885 -0.004789 1664120.000000 1 0 0
-4.467155 -8.916628 -4.511929 10.946198 1.106356 1.995654 0.009904 -0.003235 1455620.000000 1 0 0
5.707945 -6.481828 -4.081529 9.552676 -0.848799 2.012263 0.007731 -0.006093 3806080.000000 1 0 0
-3.136855 3.506572 8.645871 9.843119 -0.840992 0.498361 0.007553 -0.003640 3349860.000000 1 0 0
-3.825355 3.214472 -11.193629 12.258202 -0.698840 2.721753 0.012128 -0.007876 -309721.000000 1 0 0
3.123445 -6.105928 8.573071 10.978880 -1.097957 0.674740 0.004436 0.001591 -913120.000000 1 0 0
-5.083555 -8.726228 10.514571 14.578950 1.043299 0.765240 0.006961 -0.002866 1810440.000000 1 0 0
-13.237655 -2.547928 6.559471 14.991802 0.190150 1.117938 0.014581 -0.005066 503735.000000 1 0 0
3.891245 -5.889728 -8.295129 10.892192 -0.986948 2.436523 -0.001004 -0.001994 3905850.000000 1 0 0
3.011045 -0.503928 12.354171 12.725795 -0.165823 0.242263 0.011465 -0.005495 1361310.000000 1 0 0
1.494045 -1.444028 -7.585929 7.865349 -0.768376 2.874244 0.000280 -0.005265 -1384490.000000 1 0 0
3.642745 -3.599428 3.486971 6.195518 -0.779417 0.973001 0.007431 -0.000870 2484880.000000 1 0 0
1.569845 0.384272 -11.804129 11.914258 0.240063 3.005521 0.005235 -0.007187 247501.000000 1 0 0
3.990545 3.573072 -10.577529 11.856450 0.730259 2.672841 -0.000149 -0.000268 825007.000000 1 0 0
2.879245 3.235972 3.348871 5.475080 0.843666 0.912643 -0.001097 0.001610 -433206.000000 1 0 0
-5.354655 0.934272 2.537271 5.998578 -0.172739 1.134066 0.003713 -0.001394 2258940.000000 1 0 0
-9.399155 -9.318528 5.670971 14.399271 0.781091 1.165994 0.012998 -0.000048 -1266690.000000 1 0 0
-3.084055 3.761872 -0.581129 4.899060 -0.884087 1.689697 0.004197 -0.002610 -588087.000000 1 0 0
-15.831155 -6.498128 4.988871 17.825262 0.389495 1.287131 0.032928 -0.013790 -376111.000000 1 0 0
0.994045 6.709872 -8.103829 10.567996 1.423719 2.444680 0.004400 -0.005308 590139.000000 1 0 0
-1.665255 6.461272 -9.462229 11.578207 -1.318557 2.527410 0.007909 -0.005978 288730.000000 1 0 0
2.077845 -0.403028 5.271671 5.680703 -0.191586 0.381798 0.006391 -0.001394 2747980.000000 1 0 0
-3.448855 -0.612928 -6.337929 7.241521 0.175883 2.636688 0.011569 -0.006662 386395.000000 1 0 0
1.866945 -1.189728 -2.403529 3.267704 -0.567367 2.397261 0.008862 -0.002881 2472750.000000 1 0 0
2.461245 -8.614028 -7.601229 11.748953 -1.292487 2.274401 0.001528 0.000423 1039380.000000 1 0 0
-2.608855 13.952272 -5.545029 15.238745 -1.385947 1.943223 0.001407 0.003198 2398390.000000 1 0 0
6.824445 -5.039828 -8.074329 11.711862 -0.636098 2.331477 0.006622 -0.005283 4442500.000000 1 0 0
-14.266255 -5.137928 -2.155229 15.315657 0.345684 1.711986 0.008258 -0.002869 551750.000000 1 0 0
-2.784655 6.905972 -6.863229 10.126730 -1.187514 2.315473 0.006983 -0.005255 -2191260.000000 1 0 0
-5.669155 -1.165428 -8.094529 9.950827 0.202749 2.520861 0.015843 -0.009125 377009.000000 1 0 0
-5.715155 -10.782428 3.417971 12.673054 1.083404 1.297711 0.004133 -0.000602 -2476370.000000 1 0 0
8.203345 -7.558928 6.731671 13.028724 -0.744537 1.027829 0.006178 -0.005084 548209.000000 1 0 0
8.905045 -5.918328 13.154071 16.951578 -0.586573 0.682530 0.032171 -0.007391 85756.000000 1 0 0
-4.827355 9.497772 -0.848529 10.687891 -1.100561 1.650272 0.003021 0.000065 264271.000000 1 0 0
2.753945 6.683072 12.026171 14.031267 1.179922 0.541187 0.006466 -0.009872 1178130.000000 1 0 0
6.120545 -2.744128 10.941571 12.833911 -0.421479 0.549948 0.011522 -0.002333 -1451820.000000 1 0 0
-9.738355 -6.518528 -1.066029 11.767038 0.589869 1.661515 0.007784 -0.004191 -895126.000000 1 0 0
0.975545 -13.308328 6.332771 14.770487 -1.497624 1.127693 0.013462 -0.004270 974437.000000 1 0 0
-0.442055 -3.133328 8.723571 9.279755 1.430640 0.347976 0.005749 -0.001480 1745010.000000 1 0 0
4.286645 0.736072 3.415771 5.530336 0.170054 0.905055 0.002281 0.000452 2763020.000000 1 0 0
-10.335255 5.485472 8.244871 14.313832 -0.487947 0.956961 0.003568 -0.003475 796639.000000 1 0 0
9.308345 8.042272 -0.067629 12.301544 0.712557 1.576294 0.005201 -0.002256 -292363.000000 1 0 0
4.330745 2.945572 8.102571 9.647974 0.597282 0.573843 -0.000381 -0.005707 2993050.000000 1 0 0
1.337345 2.642872 -9.788029 10.226377 1.102345 2.847742 0.008730 -0.008713 1522050.000000 1 0 0
-1.435755 -10.214828 3.146571 10.784481 1.431155 1.274721 0.011919 -0.002406 -5622790.000000 1 0 0
-10.007455 9.391672 8.965471 16.393057 -0.753666 0.992132 0.019586 -0.010004 2349640.000000 1 0 0
9.748745 -2.025528 -7.619829 12.538046 -0.204859 2.224004 0.011254 -0.004949 1731620.000000 1 0 0
-5.156855 -1.931728 6.692271 8.666673 0.358415 0.688524 0.002759 -0.001235 1485550.000000 1 0 0
3.093945 -7.771728 -4.821829 9.655169 -1.191927 2.093707 0.003657 -0.003014 1422400.000000 1 0 0
-5.185455 4.936472 -13.157929 14.979613 -0.760805 2.643278 0.009163 -0.007082 2719440.000000 1 0 0
-5.755455 9.557772 5.440871 12.412870 -1.028779 1.117062 0.004784 -0.003318 1795420.000000 1 0 0
-0.337155 -1.824128 -9.434929 9.615561 1.388028 2.947456 0.005318 -0.007388 -722675.000000 1 0 0
-16.749755 0.320072 6.313071 17.902838 -0.019107 1.210417 0.040649 -0.017402 515467.000000 1 0 0
-5.935355 -2.991628 4.086071 7.802196 0.466871 1.019599 -0.001572 0.000317 1130910.000000 1 0 0
0.926145 -5.688928 -5.112729 7.704651 -1.409414 2.296404 0.003319 -0.003127 1008950.000000 1 0 0
-7.079955 1.387972 -8.474929 11.129989 -0.193587 2.436343 0.006941 -0.002156 917613.000000 1 0 0
8.026045 1.987172 4.682171 9.502051 0.242710 1.055545 0.000721 -0.002085 -600513.000000 1 0 0
0.553845 -8.093128 -0.425029 8.123184 -1.502469 1.623143 0.008641 -0.002218 273422.000000 1 0 0
5.434345 5.508172 -3.450929 8.472365 0.792145 1.990310 -0.002615 0.002083 -423311.000000 1 0 0
-0.832655 -0.382928 -1.186729 1.499425 0.431047 2.483984 0.008829 -0.002666 529447.000000 1 0 0
9.027445 6.466072 -6.335329 12.784414 0.621561 2.089265 -0.000200 -0.000696 1176270.000000 1 0 0
-15.018655 -7.129828 2.559671 16.821010 0.443229 1.418032 0.000106 -0.003203 127468.000000 1 0 0
-6.438055 6.724372 8.849071 12.844134 -0.807147 0.810746 0.006560 -0.001889 681629.000000 1 0 0
-9.479555 -3.225728 -9.652929 13.908499 0.327992 2.337869 0.009691 -0.004026 870915.000000 1 0 0
14.937245 3.478872 -1.358329 15.397041 0.228820 1.659131 0.011881 0.000476 3766560.000000 1 0 0
12.023145 1.761872 -5.724829 13.432568 0.145504 2.011074 0.007521 0.004079 -506142.000000 1 0 0
1.804245 -9.465728 12.768571 15.996616 -1.382448 0.646488 -0.002834 0.000060 395868.000000 1 0 0
-3.591955 6.407772 7.939471 10.816509 -1.059880 0.746582 0.005999 -0.002436 444614.000000 1 0 0
-4.087455 12.986472 -12.390929 18.408989 -1.265866 2.309177 0.004584 -0.003177 959950.000000 1 0 0
-10.364455 7.699672 6.393271 14.407664 -0.638936 1.111027 0.005236 -0.005756 -462287.000000 1 0 0
8.159845 -9.225228 -7.048929 14.190677 -0.846603 2.090623 0.010757 -0.005845 804005.000000 1 0 0
5.886545 -3.749828 -0.302329 6.985988 -0.567194 1.614086 0.008359 -0.005180 -706275.000000 1 0 0
-1.654355 -4.477128 4.149171 6.324333 1.216845 0.855204 0.004548 0.001894 297711.000000 1 0 0
9.957245 -2.037128 -2.557229 10.480269 -0.201803 1.817289 0.008552 -0.005321 -2568800.000000 1 0 0
13.534045 7.060472 1.434771 15.332292 0.480843 1.477081 0.017416 -0.002124 332725.000000 1 0 0
5.430445 -3.677028 -3.263029 7.325137 -0.595200 2.032480 0.005689 -0.006039 -1782210.000000 1 0 0
-12.322255 -6.000628 2.012771 13.852681 0.453173 1.424982 -0.002124 -0.001757 1552240.000000 1 0 0
3.795245 -5.749528 -0.242829 6.893470 -0.987356 1.606030 0.010834 -0.003513 405962.000000 1 0 0
-5.249855 3.701272 -8.752129 10.856342 -0.614090 2.508458 0.010136 -0.006492 1287210.000000 1 0 0
-1.661755 -9.304028 7.357571 11.977488 1.394054 0.909319 0.004825 -0.000674 1265990.000000 1 0 0
-7.354355 -7.484528 2.619071 10.815001 0.794170 1.326194 0.008392 -0.001117 -4445760.000000 1 0 0
-5.829255 13.064572 -8.543429 16.662936 -1.151117 2.109147 0.009735 -0.006140 2269690.000000 1 0 0
9.367345 -13.840328 -4.057729 17.197878 -0.975801 1.808986 0.023302 -0.001956 822691.000000 1 0 0
-6.542555 -5.243728 -6.806329 10.799437 0.675643 2.252670 0.015423 -0.006822 1054160.000000 1 0 0
3.403745 0.380672 -6.301129 7.171793 0.111376 2.643717 0.002427 -0.004794 2198530.000000 1 0 0
-3.668055 5.797372 5.045071 8.515685 -1.006672 0.936706 0.008840 -0.001465 182075.000000 1 0 0
-2.662555 -10.754128 -2.803429 11.428022 1.328092 1.818638 0.010088 -0.002863 1503320.000000 1 0 0
-12.540155 -0.510628 1.714971 12.667176 0.040697 1.434992 -0.005018 -0.003891 497745.000000 1 0 0
8.584245 -11.969828 -5.987029 15.900018 -0.948648 1.956857 0.016954 -0.006840 851845.000000 1 0 0
6.101145 3.907272 1.004171 7.314308 0.569608 1.433073 -0.000100 0.000173 -358673.000000 1 0 0
3.355845 -4.858128 -10.931429 12.424140 -0.966293 2.646351 -0.000555 0.002318 -1302490.000000 1 0 0
-7.786455 4.147872 8.588571 12.312484 -0.489467 0.798824 0.002494 0.000875 1204880.000000 1 0 0
8.200645 8.825572 4.092371 12.723552 0.822085 1.243338 0.002566 0.000731 2275080.000000 1 0 0
0.195545 10.518572 -6.339329 12.282739 1.552208 2.113107 -0.002049 0.001269 1146600.000000 1 0 0
5.426845 8.137472 3.252271 10.307587 0.982635 1.249790 0.001752 0.001302 3907600.000000 1 0 0
8.012945 6.701072 -3.818929 11.121864 0.696475 1.921300 0.001190 0.001275 1557030.000000 1 0 0
10.491345 2.543472 -8.227129 13.572885 0.237846 2.222000 0.000576 0.002584 1741460.000000 1 0 0
3.417945 -12.494528 -0.290829 12.956858 -1.303774 1.593244 0.013325 -0.006038 -1042570.000000 1 0 0
0.703145 2.119272 5.304471 5.755270 1.250439 0.398428 0.005232 0.000891 1257270.000000 1 0 0
-4.915955 13.381472 1.466771 14.331148 -1.218731 1.468268 -0.000752 0.002308 2861570.000000 1 0 0
8.225245 4.117672 -8.030629 12.210687 0.464139 2.288521 -0.002581 0.001854 2040420.000000 1 0 0
-13.860555 -0.680828 -3.550729 14.324322 0.049080 1.821289 -0.000040 -0.000225 560360.000000 1 0 0
-8.615055 -0.003428 -0.555629 8.632955 0.000398 1.635202 -0.001668 -0.001970 18047.300000 1 0 0
1.786845 -3.791528 -1.074829 4.327096 -1.130393 1.821819 0.008902 -0.003613 -1046350.000000 1 0 0
8.099745 -5.584328 -0.291929 9.842551 -0.603607 1.600461 0.009777 -0.006585 1738990.000000 1 0 0
-2.309555 -1.169428 7.364271 7.806029 0.468710 0.338035 0.007704 -0.001637 799533.000000 1 0 0
-5.833055 8.838272 -11.693629 15.775948 -0.987439 2.405699 0.002689 -0.003523 -1137310.000000 1 0 0
-6.336955 9.171572 -8.828729 14.220450 -0.966181 2.240620 0.006951 -0.002687 -238882.000000 1 0 0
-1.649055 13.895272 -8.340129 16.289742 -1.452671 2.108292 0.006926 -0.000697 -137717.000000 1 0 0
-1.513455 7.256772 9.799971 12.287828 -1.365186 0.647599 0.001791 -0.004989 -416414.000000 1 0 0
9.950545 2.339372 -4.007729 10.979430 0.230907 1.944452 0.002769 0.000826 -1972500.000000 1 0 0
-3.003055 -7.476528 -6.932729 10.629184 1.188856 2.281326 0.008228 -0.003101 1906770.000000 1 0 0
-5.572755 -5.017828 -1.651429 7.678634 0.733048 1.787558 0.007803 -0.001404 540673.000000 1 0 0
5.663945 7.451272 -8.830029 12.867445 0.920843 2.327090 -0.003828 -0.000297 1014530.000000 1 0 0
-9.649255 5.230072 -7.528729 13.309528 -0.496694 2.172035 -0.003913 0.000462 530515.000000 1 0 0
-0.446955 6.082372 -5.348429 8.111764 -1.497444 2.290740 0.005699 -0.003244 -87116.000000 1 0 0
-8.293055 2.798672 -6.356529 10.817245 -0.325470 2.198922 0.001947 -0.001110 1760400.000000 1 0 0
3.594145 1.400372 -2.013629 4.351278 0.371531 2.051911 0.002132 -0.000988 2012050.000000 1 0 0
-6.865055 12.361472 -3.458929 14.556756 -1.063848 1.810708 0.017339 0.000115 2267860.000000 1 0 0
-6.598955 3.108772 -2.416629 7.684450 -0.440262 1.890708 0.004924 -0.002016 -479623.000000 1 0 0
12.073545 4.088372 -0.860629 12.775991 0.326503 1.638210 0.007239 -0.000682 1429840.000000 1 0 0
2.158245 12.340372 -5.554929 13.704015 1.397654 1.988159 -0.000606 -0.000780 -371855.000000 1 0 0
-9.169555 -1.502528 -4.265929 10.224309 0.162417 2.001196 0.004602 -0.001481 -63491.400000 1 0 0
-1.208455 5.770272 3.462371 6.836988 -1.364352 1.039771 0.006241 -0.000530 1059430.000000 1 0 0
11.579945 2.718272 11.880071 16.811312 0.230565 0.786014 0.048011 -0.008532 -335135.000000 1 0 0
-7.054855 -2.423328 -5.770529 9.430934 0.330871 2.229222 0.013399 -0.005805 -229605.000000 1 0 0
7.580445 -7.356628 10.925271 15.196864 -0.770415 0.768555 0.007569 0.000549 -1190460.000000 1 0 0
-5.454055 -1.928828 -10.868429 12.312183 0.339923 2.652454 0.014282 -0.003300 1115350.000000 1 0 0
0.782445 -6.162128 4.500771 7.670788 -1.444496 0.943767 0.003283 0.000349 136591.000000 1 0 0
-4.755855 -9.488628 7.524471 13.010376 1.106176 0.954099 0.001502 0.000168 1814940.000000 1 0 0
-8.871555 9.328672 1.652271 12.979160 -0.810509 1.443148 0.004576 -0.005094 167401.000000 1 0 0
-8.309455 7.195272 -9.214429 14.343106 -0.713661 2.268460 0.002262 -0.003597 -638945.000000 1 0 0
-1.291055 -10.632728 -0.013229 10.710832 1.449965 1.572031 0.011725 -0.003332 89508.800000 1 0 0
-4.047355 10.303072 7.749771 13.512709 -1.196486 0.960003 0.004466 -0.003184 1014680.000000 1 0 0
-7.574755 12.075172 1.882171 14.378082 -1.010545 1.439514 0.004375 -0.004913 1040660.000000 1 0 0
-8.181155 -8.284128 -2.776729 11.969474 0.791652 1.804913 0.014393 -0.004459 409026.000000 1 0 0
5.380045 4.598672 -8.059329 10.725924 0.707254 2.420959 -0.000537 0.000700 928335.000000 1 0 0
-8.952755 -0.171628 -10.232529 13.597277 0.019168 2.422711 0.000828 -0.002585 -550183.000000 1 0 0
-15.207255 -2.351128 -1.527429 15.463553 0.153391 1.669734 0.001401 -0.003148 -15342.200000 1 0 0
-7.094455 -5.823228 8.714871 12.656629 0.687304 0.811292 0.007012 0.000376 -515818.000000 1 0 0
8.118045 3.411072 -0.960929 8.857846 0.397784 1.679494 0.000850 0.001579 1834240.000000 1 0 0
11.837445 7.369872 -5.920729 15.149097 0.556864 1.972330 0.010383 -0.000299 777615.000000 1 0 0
3.611245 13.331072 -9.481429 16.752793 1.306256 2.172395 0.002109 -0.008575 678444.000000 1 0 0
-9.763555 5.458672 -0.534129 11.198634 -0.509793 1.618510 0.001741 -0.000779 664984.000000 1 0 0
11.319445 -1.237628 -5.118929 12.484590 -0.108904 1.993272 0.015038 -0.006504 -443425.000000 1 0 0
10.652145 1.778172 -1.203329 10.866374 0.165406 1.681763 0.005336 -0.000513 -1807410.000000 1 0 0
14.630045 5.088572 4.728871 16.195493 0.334728 1.274493 0.029595 -0.011784 3546340.000000 1 0 0
0.937645 -0.800528 10.327371 10.400702 -0.706676 0.118819 0.008379 -0.002854 1994110.000000 1 0 0
-7.961355 1.419572 -12.585229 14.959490 -0.176453 2.570456 -0.003392 -0.004319 615574.000000 1 0 0
3.143345 -11.602028 -7.636029 14.240668 -1.306217 2.136740 -0.000631 -0.001384 846156.000000 1 0 0
2.845445 5.000272 -6.816929 8.920190 1.053439 2.440617 0.000964 -0.001259 -1824370.000000 1 0 0
6.393245 8.119872 0.543071 10.348953 0.903812 1.518296 0.002999 0.000058 -128375.000000 1 0 0
-9.037655 -5.451928 6.673871 12.487725 0.542803 1.006958 0.005725 -0.000283 -1923120.000000 1 0 0
-0.262655 -6.919228 -11.770329 13.655964 1.532854 2.609838 -0.008419 0.001911 1627790.000000 1 0 0
6.609045 -13.414628 -4.569229 15.636802 -1.113026 1.867333 0.017206 -0.004440 2259850.000000 1 0 0
-3.300955 -0.318128 10.003971 10.539305 0.096078 0.320094 0.005076 -0.000855 -800847.000000 1 0 0
8.619245 8.462772 6.915771 13.918971 0.776238 1.050820 -0.001053 -0.002480 -1277550.000000 1 0 0
-7.959055 5.706972 -2.665529 10.149933 -0.622072 1.836528 0.005383 -0.003224 5371.370000 1 0 0
-5.454255 5.853872 -6.540029 10.333862 -0.820722 2.256056 0.006403 -0.003856 59293.200000 1 0 0
3.535645 -13.654128 2.548571 14.332872 -1.317418 1.392033 0.018075 -0.008159 -1205930.000000 1 0 0
-11.289355 -7.069928 6.515171 14.828381 0.559496 1.115897 0.013036 -0.001058 -67369.400000 1 0 0
-13.007455 -3.851228 -6.731229 15.143821 0.287855 2.031398 0.010894 -0.003512 -915100.000000 1 0 0
6.063045 0.376172 -7.313629 9.507428 0.061964 2.448469 -0.001192 -0.001859 749060.000000 1 0 0
-1.449855 2.181372 -2.526529 3.639205 -0.984189 2.338178 0.007257 -0.002845 3924100.000000 1 0 0
7.601745 0.903472 -4.972129 9.128245 0.118296 2.146824 0.002493 -0.001404 1032160.000000 1 0 0
3.809045 -4.441928 10.820871 12.301658 -0.861952 0.495719 0.003914 0.001334 91094.900000 1 0 0
6.042245 -2.573828 2.155871 6.912387 -0.402694 1.253620 0.007772 -0.002525 -491250.000000 1 0 0
-6.405655 7.780872 1.095971 10.137827 -0.882034 1.462478 0.004507 -0.002367 726251.000000 1 0 0
6.109445 -3.392228 7.961671 10.593429 -0.506860 0.720362 0.006794 -0.002907 -211818.000000 1 0 0
6.685745 -2.267928 -7.785229 10.509637 -0.327038 2.405013 0.003217 -0.004781 559419.000000 1 0 0
12.150245 -8.028428 -5.800629 15.675822 -0.583904 1.949845 0.024968 -0.011760 653060.000000 1 0 0
5.696045 -9.680328 10.138771 15.131040 -1.038939 0.836501 -0.003609 0.007481 1726460.000000 1 0 0
-6.717855 7.505572 -4.480429 11.024402 -0.840723 1.989318 0.007978 -0.004183 1858550.000000 1 0 0
-1.227755 -7.597128 9.800671 12.461015 1.410574 0.665664 0.002792 -0.000827 -494086.000000 1 0 0
10.179445 -9.212028 0.811371 13.752850 -0.735551 1.511765 0.009830 -0.005730 1243790.000000 1 0 0
11.083345 6.151272 9.620571 15.913329 0.506675 0.921582 0.008775 -0.013391 1198670.000000 1 0 0
-15.350355 -4.372428 -4.932329 16.705670 0.277493 1.870512 0.018847 -0.010611 357751.000000 1 0 0
-4.641455 -4.625428 7.843471 10.220456 0.783669 0.695976 0.001649 0.000561 -853784.000000 1 0 0
2.844045 10.953572 -11.040729 15.810345 1.316760 2.343848 -0.006772 -0.000400 -888197.000000 1 0 0
9.965845 -1.326028 1.587171 10.178189 -0.132280 1.414219 0.006683 -0.004709 -628784.000000 1 0 0
-1.649755 -2.636728 0.691571 3.186267 1.011706 1.352008 0.006339 -0.002169 1398680.000000 1 0 0
1.575245 3.043372 0.880571 3.538207 1.093169 1.319278 0.000432 0.000298 -64210.000000 1 0 0
-8.895155 -2.373328 4.275371 10.150629 0.260737 1.136036 -0.003175 -0.000890 2767290.000000 1 0 0
9.822845 4.883072 -2.676529 11.291434 0.461336 1.810115 0.002145 0.002286 707652.000000 1 0 0
2.538645 8.422472 2.494171 9.143502 1.278043 1.294514 -0.002778 0.001466 1252120.000000 1 0 0
-8.181355 -0.070428 2.391371 8.523977 0.008608 1.286433 -0.001024 -0.003675 1532430.000000 1 0 0
6.942745 2.208872 13.677971 15.497345 0.308029 0.489430 0.021809 -0.008590 -1496530.000000 1 0 0
6.786545 4.419172 3.763671 8.930369 0.577195 1.135757 -0.001454 -0.000405 1051000.000000 1 0 0
-0.312655 3.301672 7.815871 8.490384 -1.476382 0.401296 0.005838 -0.002240 632914.000000 1 0 0
2.771045 -10.264728 9.258171 14.098123 -1.307124 0.854368 0.005676 -0.000314 2520940.000000 1 0 0
1.414145 -4.579928 6.930471 8.426564 -1.271313 0.605083 0.003517 -0.000337 228327.000000 1 0 0
-0.231155 10.793072 -2.031229 10.984977 -1.549383 1.756776 -0.000472 -0.000844 2149810.000000 1 0 0
8.791045 5.517672 7.857271 13.017829 0.560500 0.922816 0.002027 -0.005744 -2527310.000000 1 0 0
2.517845 11.418972 -2.945129 12.058451 1.353772 1.817530 0.000518 -0.005993 1120810.000000 1 0 0
1.474045 2.440072 -6.752329 7.329441 1.027368 2.742107 0.004933 -0.004132 968365.000000 1 0 0
-13.557955 -2.216628 3.645471 14.213411 0.162059 1.311417 -0.005645 -0.001241 541070.000000 1 0 0
-0.953655 -10.603228 -5.290429 11.888085 1.481098 2.031992 0.003048 -0.001639 251670.000000 1 0 0
-5.731655 2.865772 0.366771 6.418648 -0.463640 1.513624 0.006099 -0.002552 510212.000000 1 0 0
3.645645 7.217372 -5.054429 9.535640 1.103060 2.129464 -0.001458 -0.001348 -1560510.000000 1 0 0
2.899745 9.749172 -6.496729 12.069066 1.281694 2.139210 -0.001525 -0.002325 1011360.000000 1 0 0
-12.254455 1.632072 -2.629729 12.639257 -0.132403 1.780388 0.002611 -0.001130 -64974.300000 1 0 0
-2.524255 9.572272 -5.784529 11.465645 -1.312961 2.099610 -0.000746 -0.001330 685126.000000 1 0 0
-1.359455 3.351372 1.715371 4.002787 -1.185436 1.127916 0.003094 -0.000282 -2660.600000 1 0 0
12.876445 3.819672 9.540871 16.474858 0.288372 0.953151 0.044704 -0.012342 101724.000000 1 0 0
-2.523055 -9.578128 11.742671 15.362183 1.313229 0.700704 0.000988 -0.005383 631467.000000 1 0 0
-0.389455 -8.879228 -7.465429 11.607110 1.526963 2.269437 0.001847 0.000617 2811710.000000 1 0 0
2.334245 7.597472 -0.528929 7.965553 1.272711 1.637247 -0.002039 0.000801 1365150.000000 1 0 0
-11.842655 -1.417028 -5.568229 13.162888 0.119088 2.007577 0.004135 0.002439 -1224930.000000 1 0 0
-6.181755 -7.150528 -10.977329 14.486059 0.857934 2.430709 0.015896 -0.006192 1595060.000000 1 0 0
-4.714255 -2.250628 -1.383229 5.403967 0.445412 1.829643 0.006116 -0.002030 -756060.000000 1 0 0
-10.571355 3.634972 4.487971 12.046097 -0.331186 1.189023 0.000162 -0.005415 4541470.000000 1 0 0
6.687845 9.304272 -3.650829 12.026026 0.947569 1.879241 -0.000489 -0.000127 782584.000000 1 0 0
1.302245 -2.700428 -11.542729 11.925718 -1.121460 2.887475 0.002199 -0.003378 -1182740.000000 1 0 0
1.207245 8.792472 7.552871 11.653791 1.434345 0.865704 -0.002268 0.000101 427685.000000 1 0 0
10.394545 0.482472 10.423871 14.728762 0.046383 0.784528 0.013231 -0.003823 1026380.000000 1 0 0
-5.250655 -0.927828 -3.946129 6.633414 0.174902 2.207921 0.011654 -0.005316 26495.300000 1 0 0
11.729445 5.665372 5.321171 14.070933 0.449959 1.182980 0.004199 -0.005964 1746420.000000 1 0 0
9.952845 -3.448928 3.738071 11.177093 -0.333577 1.229785 0.011303 -0.008844 -1520610.000000 1 0 0
7.360045 -1.687528 -3.374829 8.270882 -0.225387 1.991100 0.004247 -0.003973 -2656790.000000 1 0 0
2.256245 9.279072 10.430071 14.141364 1.332271 0.741350 -0.001361 -0.001797 2191150.000000 1 0 0
2.508945 -10.841728 6.340871 12.807987 -1.343384 1.052879 0.004975 0.000360 1743330.000000 1 0 0
5.927345 -7.492728 -1.271829 9.638047 -0.901518 1.703142 0.009756 -0.005769 -148693.000000 1 0 0
-0.226355 -5.629428 -2.240129 6.062993 1.530609 1.949241 0.007001 -0.000459 853465.000000 1 0 0
7.764345 -5.066628 2.694571 9.654868 -0.578166 1.287951 0.007761 -0.005979 1001640.000000 1 0 0
-2.634855 -12.547828 4.827971 13.700356 1.363819 1.210665 0.009283 -0.003691 -910410.000000 1 0 0
4.970745 -10.260828 -1.095729 11.453974 -1.119675 1.666607 0.013149 -0.006000 2959070.000000 1 0 0
0.958045 0.216672 1.144471 1.508181 0.222418 0.709263 0.001624 -0.000352 -1553680.000000 1 0 0
-1.635955 8.536172 2.455071 9.031608 -1.381443 1.295501 0.001863 0.001668 154668.000000 1 0 0
-7.590655 0.600572 -3.180429 8.251901 -0.078955 1.966457 0.002308 -0.000450 290465.000000 1 0 0
4.568045 -6.294428 12.889271 15.053909 -0.943011 0.542913 0.010684 -0.003969 -1545080.000000 1 0 0
-5.123055 13.037072 8.359071 16.312112 -1.196373 1.032766 0.012402 -0.009368 996381.000000 1 0 0
0.634645 6.086272 8.270071 10.287835 1.466897 0.637025 0.003524 -0.000786 1611710.000000 1 0 0
7.995245 -0.511828 -0.712629 8.043242 -0.063929 1.659512 0.003991 -0.002154 4658750.000000 1 0 0
2.463545 -9.226528 -2.363129 9.837798 -1.309877 1.813378 0.006443 -0.002288 534508.000000 1 0 0
-7.221155 12.101372 4.846371 14.902201 -1.032791 1.239561 0.003860 -0.007631 358709.000000 1 0 0
-14.982255 0.137672 0.202371 14.984254 -0.009189 1.557290 0.002572 -0.005537 540379.000000 1 0 0
6.902945 -0.487628 3.927571 7.957025 -0.070523 1.054574 0.003152 -0.001777 1193230.000000 1 0 0
-4.179055 -5.063528 5.059871 8.288915 0.880803 0.914183 0.001604 0.001624 -668874.000000 1 0 0
2.926145 5.125572 6.839171 9.033718 1.052055 0.711977 -0.000544 -0.002067 -444370.000000 1 0 0
2.100145 -7.208328 1.851471 7.732952 -1.287294 1.329022 0.007863 -0.001800 3833650.000000 1 0 0
-2.433655 6.330672 -1.766629 7.008642 -1.203790 1.825609 0.002699 -0.000176 2525250.000000 1 0 0
2.659345 -3.822428 -6.515129 8.008120 -0.962948 2.521054 -0.001433 -0.003819 -1167400.000000 1 0 0
-5.170955 0.853672 -12.193529 13.272140 -0.163614 2.735652 0.014310 -0.004082 15817.900000 1 0 0
-7.539655 6.467472 -12.036929 15.606481 -0.709002 2.451642 -0.000422 -0.004262 2776690.000000 1 0 0
-1.162155 11.044872 -9.059329 14.332175 -1.465961 2.255053 -0.001229 -0.002162 -462549.000000 1 0 0
4.610545 5.911172 -0.630729 7.523091 0.908388 1.654734 -0.001459 0.002494 183626.000000 1 0 0
-2.637655 13.396272 3.546071 14.106450 -1.376388 1.316691 0.001868 0.001815 1025080.000000 1 0 0
1.577845 -7.901028 10.308571 13.083672 -1.373688 0.663412 0.001047 -0.000659 -221715.000000 1 0 0
12.987745 -0.226928 -1.128129 13.038623 -0.017471 1.657427 0.015188 -0.003172 -190060.000000 1 0 0
-1.091255 3.078972 -5.451629 6.355404 -1.230188 2.601759 0.007547 -0.005377 1020330.000000 1 0 0
6.618645 1.119072 7.216971 9.856138 0.167495 0.749204 -0.000114 -0.001734 1842260.000000 1 0 0
5.602045 -6.180628 6.948771 10.856726 -0.834463 0.876242 0.003967 -0.001153 -320125.000000 1 0 0
12.273545 -4.818128 2.643671 13.447798 -0.374078 1.372920 0.014633 -0.007180 452204.000000 1 0 0
4.492145 -9.103528 13.986971 17.282620 -1.112402 0.627822 -0.000755 0.000526 341228.000000 1 0 0
-2.720155 -4.340328 -1.364729 5.300960 1.010964 1.831178 0.009966 -0.002531 2284800.000000 1 0 0
-9.344655 -5.296728 -7.599529 13.157916 0.515664 2.186537 0.012882 -0.004541 746321.000000 1 0 0
-10.514155 -3.170028 7.824871 13.484255 0.292833 0.951703 -0.001491 -0.002755 367511.000000 1 0 0
12.079645 -0.575128 1.608671 12.199853 -0.047575 1.438551 0.011993 -0.005096 418823.000000 1 0 0
-7.619155 4.701172 4.379571 9.966603 -0.552840 1.115838 0.003907 -0.003076 3218290.000000 1 0 0
-1.164255 10.498572 6.975871 12.658525 -1.460351 0.987137 -0.003180 0.002928 2454200.000000 1 0 0
7.525045 -9.958128 1.927271 12.629529 -0.923677 1.417597 0.011711 -0.007097 2961040.000000 1 0 0
-4.394055 -1.718728 1.677971 5.007728 0.372853 1.229110 0.001446 0.000278 1574250.000000 1 0 0
6.732845 -14.993028 -0.903829 16.460225 -1.148720 1.625734 0.029487 -0.010193 -1786630.000000 1 0 0
-10.499855 1.690472 2.310471 10.883149 -0.159630 1.356870 -0.005925 -0.002066 532409.000000 1 0 0
-3.022355 8.249072 -11.405129 14.396485 -1.219598 2.485229 0.002900 -0.002338 -529077.000000 1 0 0
-1.358555 -5.141628 -6.872129 8.689544 1.312473 2.482994 0.001017 -0.004050 -747835.000000 1 0 0
12.828445 -0.485428 6.387771 14.339046 -0.037822 1.109085 0.020979 -0.007644 1125190.000000 1 0 0
6.183045 -13.285128 3.845071 15.149563 -1.135201 1.314182 0.011214 -0.006323 1179300.000000 1 0 0
-5.644255 3.548772 -5.038029 8.356622 -0.561285 2.217901 0.007696 -0.003546 2149820.000000 1 0 0
-4.459655 8.041872 3.334171 9.781458 -1.064463 1.222958 0.006587 -0.000686 244103.000000 1 0 0
13.883945 6.366172 -3.964729 15.780087 0.429923 1.824767 0.016304 0.001124 1268700.000000 1 0 0
-6.604255 -8.585028 5.334171 12.073619 0.915072 1.113188 0.008129 0.000308 944725.000000 1 0 0
1.654245 11.339472 2.725771 11.779218 1.425934 1.337275 -0.000140 -0.000736 1624430.000000 1 0 0
-7.489655 7.204372 5.977171 11.988514 -0.765986 1.048842 0.005243 -0.003856 68581.600000 1 0 0
-17.283455 -3.990628 5.262671 18.502396 0.226916 1.282383 0.034327 -0.014458 515946.000000 1 0 0
7.626245 -13.006928 -8.444929 17.281685 -1.040495 2.081354 0.013662 -0.006049 -1516830.000000 1 0 0
-2.282355 12.810472 -2.806229 13.311358 -1.394483 1.783205 -0.002415 0.002919 -346448.000000 1 0 0
-5.661455 13.895172 -5.782629 16.080008 -1.183892 1.938653 0.014684 0.000186 2500720.000000 1 0 0
-5.692655 2.400872 7.371671 9.618318 -0.399114 0.697547 0.008342 -0.003013 1800260.000000 1 0 0
-7.497155 5.068672 1.392671 9.156326 -0.594491 1.418104 0.005096 -0.002535 2300880.000000 1 0 0
10.782545 -5.619228 -4.975429 13.137500 -0.480417 1.959209 0.014797 -0.010488 2727810.000000 1 0 0
-9.504955 -0.785728 6.774671 11.698620 0.082478 0.953172 -0.004582 -0.002652 794433.000000 1 0 0
-11.344255 -4.557828 -2.516429 12.481921 0.382035 1.773794 0.003413 -0.002266 394814.000000 1 0 0
6.676345 -4.193628 13.515371 15.646896 -0.560849 0.528086 0.022746 -0.008577 728072.000000 1 0 0
0.172145 10.173472 -11.684129 15.493484 1.553877 2.425127 -0.000177 0.000751 -2161210.000000 1 0 0
-11.821255 -3.261328 1.469371 12.350603 0.269190 1.451542 -0.000132 -0.001591 3238190.000000 1 0 0
5.209745 6.013872 5.417471 9.625855 0.856922 0.973022 -0.002359 -0.000110 -4083330.000000 1 0 0
-7.111955 -0.086228 8.104071 10.782546 0.012124 0.720325 0.000659 -0.002038 446565.000000 1 0 0
1.865745 2.086472 9.589071 9.989226 0.841189 0.284004 0.006392 -0.005863 1067530.000000 1 0 0
10.518445 -4.941228 -2.014829 11.794616 -0.439171 1.742464 0.011452 -0.008127 2237450.000000 1 0 0
-9.670855 -2.402728 -1.657329 10.101747 0.243520 1.735605 0.002141 -0.001873 1296120.000000 1 0 0
-1.961855 -5.245428 -9.868329 11.346688 1.212892 2.625411 0.006158 -0.005661 679158.000000 1 0 0
7.740745 -1.549728 6.527371 10.243406 -0.197592 0.879902 0.004392 -0.004895 951755.000000 1 0 0
1.507745 -11.882628 -2.509329 12.237928 -1.444584 1.777306 0.008213 -0.001833 -3232230.000000 1 0 0
-0.807855 -1.472028 4.832371 5.115790 1.068872 0.334425 0.008621 -0.001553 2480870.000000 1 0 0
7.642745 1.566772 9.923071 12.622744 0.202200 0.666280 0.003929 -0.004042 1243190.000000 1 0 0
-3.941355 10.658672 -7.989229 13.891341 -1.216611 2.183551 0.006721 0.000407 2887810.000000 1 0 0
-9.622155 12.570172 6.352071 17.057077 -0.917464 1.189202 0.015654 -0.011152 517668.000000 1 0 0
-2.462055 -2.450128 -11.118029 11.647979 0.782970 2.838784 0.011519 -0.007172 -1198600.000000 1 0 0
1.213545 -11.944128 11.101371 16.351615 -1.469542 0.824511 -0.001849 0.001451 547925.000000 1 0 0
1.393945 3.443672 -2.002029 4.220199 1.186172 2.065070 0.002567 -0.000086 2416020.000000 1 0 0
-1.879155 -9.434228 -12.037429 15.408945 1.374185 2.467378 -0.003179 0.000246 1066620.000000 1 0 0
1.304145 -2.676528 1.624271 3.391586 -1.117399 1.071382 0.010526 -0.001548 3023860.000000 1 0 0
-1.025455 -2.181328 -6.681029 7.102528 1.131349 2.795352 0.004725 -0.007381 67977.000000 1 0 0
1.751745 5.814772 4.055271 7.302424 1.278186 0.982034 -0.002431 0.000658 290368.000000 1 0 0
-11.106755 8.620072 3.637871 14.522388 -0.660004 1.317599 -0.000795 -0.008652 3283410.000000 1 0 0
-16.308255 -1.440028 3.995571 16.852224 0.088072 1.331422 0.021364 -0.012126 799015.000000 1 0 0
-12.197755 0.157372 6.802271 13.967136 -0.012901 1.062122 -0.007273 0.001521 442147.000000 1 0 0
-5.173255 3.028872 4.612871 7.564074 -0.529680 0.914938 0.005048 -0.000206 1116770.000000 1 0 0
5.277545 -6.127828 3.999771 9.022246 -0.859812 1.111494 0.005631 -0.003229 1176050.000000 1 0 0
9.963745 3.396272 6.133571 12.183249 0.328512 1.043217 -0.002438 -0.002898 890026.000000 1 0 0
-12.191255 5.816772 3.176471 13.876293 -0.445182 1.339835 -0.001273 -0.005465 2202500.000000 1 0 0
-4.846655 12.309572 -1.334829 13.296518 -1.195706 1.671355 -0.001864 0.003766 739319.000000 1 0 0
-1.689355 -12.182928 10.459071 16.145273 1.433009 0.866090 0.010930 -0.005662 815180.000000 1 0 0
5.204345 6.413972 13.820071 16.100267 0.889138 0.538702 0.015110 -0.012216 1710370.000000 1 0 0
12.970645 -3.611028 -5.908029 14.703128 -0.271524 1.984301 0.018269 -0.009572 3078600.000000 1 0 0
3.628845 -2.585528 6.395071 7.794254 -0.619062 0.608537 0.002183 0.000192 2196740.000000 1 0 0
7.320245 -11.874728 -0.630029 13.963957 -1.018365 1.615930 0.018330 -0.007263 -425077.000000 1 0 0
-6.103855 -6.586428 -4.054529 9.852781 0.823407 1.994908 0.013949 -0.004460 -691128.000000 1 0 0
0.261745 -8.920228 5.136171 10.296564 -1.541462 1.048555 0.010513 -0.000366 3106750.000000 1 0 0
-10.325455 2.500472 -0.512029 10.636238 -0.237592 1.618955 -0.002262 -0.000024 -1312430.000000 1 0 0
-1.959355 8.951672 -0.432629 9.173803 -1.355313 1.617973 0.002666 -0.000565 151858.000000 1 0 0
-3.614955 2.289672 -6.672829 7.926989 -0.564609 2.571380 0.014555 -0.008556 8949.110000 1 0 0
-12.762155 2.876572 6.368771 14.550207 -0.221694 1.117746 0.001419 -0.005072 356772.000000 1 0 0
11.437445 1.684372 7.815771 13.954875 0.146217 0.976320 0.012520 -0.007139 -2169570.000000 1 0 0
5.946545 2.593772 -3.191729 7.230227 0.411303 2.028002 -0.001071 0.000211 2223820.000000 1 0 0
10.545745 -2.386928 6.403771 12.566560 -0.222590 1.036090 0.013445 -0.007253 2960750.000000 1 0 0
-0.958255 10.987272 4.101271 11.766852 -1.483801 1.214779 0.002624 0.002677 367700.000000 1 0 0
-1.517255 -12.284528 7.557971 14.502918 1.447909 1.022617 0.006719 -0.001062 -384506.000000 1 0 0
8.011045 8.739372 -7.778729 14.179636 0.828852 2.151467 -0.000461 -0.001588 2403250.000000 1 0 0
-4.677655 -5.962128 -8.806629 11.618268 0.905540 2.431035 0.013474 -0.006946 712332.000000 1 0 0
-8.532555 -5.216828 -11.697629 15.390072 0.548762 2.434227 0.017574 -0.005399 3034510.000000 1 0 0
6.009445 -0.634228 -9.923829 11.618866 -0.105149 2.594640 -0.001658 -0.001391 -970334.000000 1 0 0
-11.210755 -5.584928 -5.352929 13.620804 0.462187 1.974684 0.005945 -0.006786 1578240.000000 1 0 0
3.821045 8.900372 -2.801629 10.082962 1.165278 1.852360 0.001741 -0.002095 1419990.000000 1 0 0
11.818945 -10.241728 -3.880629 16.113340 -0.714025 1.814021 0.013238 -0.010086 807905.000000 1 0 0
4.129445 -11.291728 3.964871 12.660002 -1.220199 1.252256 0.003216 -0.001661 1999430.000000 1 0 0
-0.976955 0.915172 3.246771 3.511908 -0.752757 0.391066 0.006522 -0.001791 -826864.000000 1 0 0
-10.548355 -5.108828 4.455971 12.538884 0.451029 1.207484 -0.000038 0.000250 4333330.000000 1 0 0
4.688145 -8.717328 2.770071 10.278317 -1.077371 1.297916 0.008663 -0.001725 4532570.000000 1 0 0
-3.650955 -5.759528 2.576171 7.289602 1.005824 1.209589 0.002977 0.002432 1195970.000000 1 0 0
10.023045 5.144672 12.142071 16.563784 0.474218 0.748002 0.021951 -0.009635 -1022950.000000 1 0 0
1.603745 -12.316928 -5.166629 13.452612 -1.441318 1.964987 0.005780 -0.003271 988768.000000 1 0 0
9.985145 -10.688328 -1.660529 14.720762 -0.819399 1.683839 0.014731 -0.008401 2598120.000000 1 0 0
9.607645 -4.467928 -9.188429 14.024851 -0.435290 2.285182 0.015265 -0.006858 2423950.000000 1 0 0
-7.468655 -3.005228 -13.102329 15.378012 0.382555 2.590623 0.007601 -0.002614 1246360.000000 1 0 0
0.447645 6.205772 -2.567329 6.730763 1.498787 1.962141 0.000841 -0.000599 1872730.000000 1 0 0
-5.928655 -9.578428 0.935971 11.303596 1.016553 1.487898 0.007168 -0.000384 43146.600000 1 0 0
-9.006055 -4.107328 0.605671 9.916956 0.427884 1.509684 0.002273 -0.002117 3617360.000000 1 0 0
1.798945 3.862072 12.034971 12.766845 1.134883 0.340242 0.005454 -0.011720 85567.600000 1 0 0
6.746945 4.357172 9.512571 12.449707 0.573416 0.701182 0.000594 -0.004121 1937710.000000 1 0 0
-8.387555 9.772372 -3.574329 13.365110 -0.861508 1.841529 0.008985 -0.002155 2046790.000000 1 0 0
16.409945 2.180772 -6.073129 17.633064 0.132119 1.922414 0.039900 0.005744 -347651.000000 1 0 0
-11.017255 2.562072 -5.178529 12.440309 -0.228490 2.000136 0.000136 0.001641 578937.000000 1 0 0
-13.747755 3.986472 1.432271 14.385553 -0.282232 1.471068 0.003818 -0.002056 -296441.000000 1 0 0
-17.478455 10.321772 3.322171 20.568719 -0.533436 1.408570 0.047711 -0.026447 147088.000000 1 0 0
-14.368555 2.783972 -1.177929 14.683099 -0.191383 1.651106 0.008499 -0.001840 1124120.000000 1 0 0
-14.465755 5.003272 5.131071 16.143689 -0.332991 1.247348 0.008502 -0.007194 1254240.000000 1 0 0
-17.676855 7.507572 3.224371 19.473865 -0.401627 1.404456 0.043786 -0.010299 -2765330.000000 1 0 0
-15.158755 12.465372 -3.352329 19.910084 -0.688204 1.739976 0.051277 -0.018275 -896439.000000 1 0 0
-8.575255 12.479672 -9.604629 17.931149 -0.968755 2.136061 0.019007 -0.015116 764040.000000 1 0 0
-12.409255 8.848072 -9.886829 18.166656 -0.619412 2.146267 0.005316 -0.004409 -2207290.000000 1 0 0
-13.751655 -3.633228 -12.190829 18.732984 0.258301 2.279392 0.023514 -0.003423 -755452.000000 1 0 0
-14.797155 5.737772 -7.648429 17.617500 -0.369912 2.019878 0.018224 0.003593 -1329790.000000 1 0 0
-10.954655 13.515072 -8.257629 19.257468 -0.889655 2.013962 0.024812 -0.017926 -972487.000000 1 0 0
-11.042455 13.488772 3.926971 17.869076 -0.884792 1.349224 0.009147 -0.007195 -1329780.000000 1 0 0
-15.201555 3.250872 3.004971 15.833044 -0.210678 1.379847 0.004103 -0.002740 1067220.000000 1 0 0
-11.260955 9.469472 -12.506529 19.310445 -0.699194 2.275301 0.022944 -0.010627 125819.000000 1 0 0
-13.090755 11.570272 -8.991529 19.649088 -0.723821 2.046097 0.024655 -0.021604 813145.000000 1 0 0
-8.917055 14.528372 -3.510529 17.404346 -1.020314 1.773894 0.016805 -0.005661 -62433.800000 1 0 0
-16.802855 8.200272 -4.133729 19.148580 -0.454025 1.788386 0.044311 -0.004599 808986.000000 1 0 0
-17.056455 6.553072 0.410171 18.276588 -0.366811 1.548352 0.035558 -0.003122 -769064.000000 1 0 0
-10.506055 2.821772 -12.506029 16.575294 -0.262393 2.425686 -0.004106 -0.004586 -202938.000000 1 0 0
-16.902055 0.868872 2.327071 17.083608 -0.051361 1.434155 0.027492 -0.011483 49423.000000 1 0 0
-12.690555 1.107072 -6.985829 14.528510 -0.087016 2.072404 0.001843 -0.001085 572290.000000 1 0 0
-12.369455 8.964472 -5.482629 16.230354 -0.627129 1.915376 0.020698 -0.004984 298755.000000 1 0 0
-9.747555 13.967272 1.327071 17.083929 -0.961491 1.493039 0.017937 -0.000317 1354220.000000 1 0 0
-12.342255 11.073272 2.764671 16.810473 -0.731257 1.405585 0.007332 -0.006800 -463468.000000 1 0 0
-12.638555 6.756672 -3.694329 14.799789 -0.490949 1.823085 0.004744 0.000368 942843.000000 1 0 0
-15.771455 3.682672 -9.484829 18.768667 -0.229392 2.100589 0.022709 -0.001877 -1363900.000000 1 0 0
-15.242355 5.812272 -4.741229 16.987971 -0.364303 1.853646 0.023637 0.003583 3198630.000000 1 0 0
-17.968355 5.304272 7.623171 20.226463 -0.287048 1.184359 0.038101 -0.018307 31318.100000 1 0 0
-15.962955 9.945572 -1.980729 18.911732 -0.557189 1.675724 0.038440 -0.010301 -468728.000000 1 0 0
-8.862955 9.895172 -8.348429 15.689572 -0.840370 2.131876 0.007529 -0.009335 -716702.000000 1 0 0
-17.034355 4.130472 -1.323229 17.577855 -0.237888 1.646146 0.021231 -0.001432 315966.000000 1 0 0
-10.271355 5.339672 -4.605929 12.459029 -0.479409 1.949467 0.001993 -0.001235 147748.000000 1 0 0
-18.250955 2.900572 5.990571 19.426724 -0.157609 1.257320 0.062433 -0.022018 -1421730.000000 1 0 0
-10.395455 10.003572 -5.749729 15.530496 -0.766190 1.950044 0.011020 -0.008589 626907.000000 1 0 0
-15.392955 0.347672 -5.866229 16.476547 -0.022583 1.934818 0.004600 -0.000440 526630.000000 1 0 0
-16.441655 -4.219628 -8.896529 19.164590 0.251221 2.053547 0.047531 -0.020021 -1926670.000000 1 0 0
-10.120755 9.624472 -1.095729 14.009310 -0.760269 1.649091 0.007540 -0.002101 1204640.000000 1 0 0
-17.375255 -3.019528 -3.212529 17.925886 0.172065 1.750981 0.025140 -0.007898 -12367.600000 1 0 0
-11.994955 5.115972 -11.496829 17.384740 -0.403149 2.293370 -0.003053 -0.000585 611647.000000 1 0 0
-16.394755 7.022072 5.867271 18.775579 -0.404673 1.252978 0.031249 -0.016370 -8131.440000 1 0 0
-12.189255 6.091772 -8.795629 16.218838 -0.463460 2.143980 0.005653 0.002041 425184.000000 1 0 0
-14.643055 8.233872 0.034271 16.799312 -0.512242 1.568756 0.032270 -0.003558 695083.000000 1 0 0
-14.933255 11.825272 3.916271 19.446756 -0.669767 1.368025 0.019676 -0.015978 1880670.000000 1 0 0
-17.421755 4.035872 -4.186429 18.366600 -0.227642 1.800755 0.033509 -0.002013 -637626.000000 1 0 0
-13.976355 13.257272 -0.749429 19.278366 -0.759000 1.609680 0.041677 -0.011098 -1276640.000000 1 0 0
-10.199455 6.878672 -13.135029 17.996500 -0.593348 2.388922 -0.001484 -0.005253 1961160.000000 1 0 0
-15.866355 -1.261928 -8.266229 17.935000 0.079368 2.049805 0.018931 -0.006972 -914730.000000 1 0 0
-11.514155 11.879972 0.013371 16.544173 -0.801034 1.569988 0.019917 -0.005562 166525.000000 1 0 0
-12.074655 7.330772 -0.973829 14.159303 -0.545639 1.639627 0.004613 0.000151 2850270.000000 1 0 0
-11.523355 0.104172 -11.727229 16.441608 -0.009040 2.364942 0.006319 -0.002932 -267486.000000 1 0 0
-19.120955 -1.295128 -4.711729 19.735468 0.067630 1.811869 0.037816 -0.010940 -801654.000000 1 0 0
-17.964255 1.370572 -5.197029 18.751055 -0.076147 1.851633 0.017517 -0.001330 -482180.000000 1 0 0
-13.344055 -0.230428 -9.475629 16.367787 0.017267 2.188199 0.008847 -0.003621 652083.000000 1 0 0
-6.119755 11.159672 -13.307529 18.414125 -1.069197 2.378469 0.001531 -0.003223 -1201610.000000 1 0 0
16.280845 5.886272 7.033871 18.686611 0.346923 1.184876 0.069536 -0.018969 -348912.000000 1 0 0
14.716445 10.401272 -5.375029 18.805614 0.615261 1.860659 0.057349 -0.019889 -450135.000000 1 0 0
2.300245 17.022072 4.260671 17.697326 1.436477 1.327656 0.018374 -0.005137 2833220.000000 1 0 0
-4.171955 18.117472 -5.911029 19.508671 -1.344469 1.878630 0.018001 -0.004363 652218.000000 1 0 0
5.316345 14.649372 5.616071 16.565261 1.222671 1.224914 0.006239 0.000914 146248.000000 1 0 0
9.983545 6.030872 14.916171 18.935013 0.543415 0.663639 0.047310 -0.014576 -1318730.000000 1 0 0
4.564245 12.719372 -1.194729 13.566212 1.226266 1.658977 0.007329 -0.008590 1570640.000000 1 0 0
3.314845 13.610072 13.010671 19.118049 1.331890 0.822292 0.017856 -0.007140 -240673.000000 1 0 0
-0.786055 12.409872 9.224171 15.482510 -1.507540 0.932560 -0.000217 0.001932 2714220.000000 1 0 0
-7.765355 13.847472 8.364971 17.945081 -1.059716 1.085870 0.019830 -0.021200 2685400.000000 1 0 0
11.309145 12.889272 -4.139529 17.639892 0.850604 1.807674 0.076102 -0.024331 678309.000000 1 0 0
-5.986855 16.135372 0.910171 17.234299 -1.215503 1.517960 0.003719 0.005939 594556.000000 1 0 0
3.174845 10.591572 6.749971 12.954657 1.279567 1.022720 -0.000679 0.006622 1196810.000000 1 0 0
-1.284755 15.602172 2.363371 15.832368 -1.488637 1.420962 0.003963 -0.001584 -768928.000000 1 0 0
9.825445 8.810172 9.463471 16.239328 0.730972 0.948688 0.010098 -0.009336 2105690.000000 1 0 0
7.165345 12.289072 6.214071 15.523470 1.042921 1.158950 0.003860 -0.001417 -392131.000000 1 0 0
11.806445 14.064572 -1.555129 18.428856 0.872462 1.655282 0.074275 -0.019601 -503432.000000 1 0 0
9.483745 15.932272 -1.248529 18.583259 1.033874 1.638033 0.055020 -0.018503 1300090.000000 1 0 0
10.057645 13.726372 2.961971 17.272602 0.938444 1.398461 0.028884 -0.010460 3652550.000000 1 0 0
-6.076355 14.473172 6.203671 16.878398 -1.173308 1.194422 0.002650 -0.009844 822024.000000 1 0 0
-1.179755 18.197672 -6.283029 19.287911 -1.506057 1.902601 0.022745 0.005106 959097.000000 1 0 0
-3.568755 15.687472 5.448971 16.985996 -1.347112 1.244231 0.000364 -0.001977 2129470.000000 1 0 0
7.003045 12.224472 10.694971 17.687926 1.050564 0.921472 0.009541 0.000843 3434570.000000 1 0 0
1.426145 14.658372 6.132371 15.953298 1.473809 1.176244 0.003511 0.006190 75335.000000 1 0 0
17.347945 7.690772 -1.580129 19.041953 0.417289 1.653873 0.018039 0.001017 607312.000000 1 0 0
1.907045 16.263472 -3.293829 16.702893 1.454070 1.769298 0.008028 -0.007855 1818300.000000 1 0 0
6.638945 11.230372 0.558671 13.057907 1.036902 1.527999 0.009612 -0.003862 2457340.000000 1 0 0
12.621545 9.370672 3.136171 16.029611 0.638642 1.373878 0.021061 -0.002160 -1623040.000000 1 0 0
5.877745 14.253772 -3.542029 15.819730 1.179677 1.796610 0.021132 -0.012594 -145212.000000 1 0 0
3.027345 16.408872 1.445871 16.748326 1.388353 1.484359 0.015651 -0.017933 170484.000000 1 0 0
2.600545 18.896272 -2.440529 19.229875 1.434033 1.698053 0.020538 -0.023783 1221330.000000 1 0 0
3.859245 11.947272 10.656271 16.467762 1.258353 0.867023 0.012806 0.001384 2556340.000000 1 0 0
7.979245 11.596472 3.344471 14.468310 0.968118 1.337528 0.003591 0.000113 1285310.000000 1 0 0
0.693045 12.442772 0.204371 12.463733 1.515155 1.554398 0.001875 -0.002814 -2150280.000000 1 0 0
11.826145 9.980672 -4.680129 16.167100 0.700971 1.864485 0.044309 -0.011581 1150500.000000 1 0 0
-1.200155 16.463872 9.934471 19.266374 -1.498029 1.029044 -0.000967 -0.000128 360126.000000 1 0 0
7.901045 14.913672 -7.972229 18.665491 1.083605 2.012091 0.049020 -0.012499 1128040.000000 1 0 0
14.443845 7.751572 -1.353929 16.448241 0.492551 1.653204 0.025783 -0.001762 84248.500000 1 0 0
12.526445 8.425872 5.866971 16.196558 0.592131 1.200131 0.012162 -0.005623 -783181.000000 1 0 0
-3.145855 14.283072 10.171471 17.814639 -1.354007 0.963120 0.004320 -0.004240 2345360.000000 1 0 0
-4.804855 17.012872 -3.147029 17.956286 -1.295541 1.746967 0.017675 -0.003112 529804.000000 1 0 0
-7.280955 16.300872 -1.709529 17.934693 -1.150723 1.666261 0.021099 -0.001465 -585023.000000 1 0 0
8.209945 11.272172 -1.978629 14.084744 0.941304 1.711743 0.016381 -0.009626 -709545.000000 1 0 0
8.417245 12.999472 -4.207129 16.047935 0.996176 1.836056 0.041873 -0.012799 3082080.000000 1 0 0
2.384445 14.884372 -7.305729 16.751232 1.411948 2.022091 -0.001350 -0.001490 -1554300.000000 1 0 0
11.230645 11.324872 9.721971 18.678780 0.789576 1.023381 0.026932 -0.009712 111464.000000 1 0 0
8.526345 15.689372 1.406371 17.911807 1.072998 1.492199 0.021295 -0.015193 1164400.000000 1 0 0
6.040445 9.887172 7.683671 13.902587 1.022373 0.985221 -0.000277 0.004407 3689650.000000 1 0 0
14.423145 11.382972 2.533771 18.547753 0.668130 1.433760 0.040834 -0.005756 751884.000000 1 0 0
12.211345 12.702372 1.094071 17.654013 0.805105 1.508784 0.050668 -0.007341 1267390.000000 1 0 0
5.107445 16.106572 8.145371 18.757790 1.263723 1.121603 0.009106 0.006683 -945071.000000 1 0 0
11.371445 14.993572 5.248871 19.536315 0.921927 1.298782 0.040696 -0.010859 -92896.200000 1 0 0
5.888145 16.726772 1.738671 17.817915 1.232324 1.473061 0.014062 -0.023566 177459.000000 1 0 0
-0.836455 16.158672 -4.238129 16.726149 -1.519077 1.826973 0.004982 0.000313 796564.000000 1 0 0
16.111945 6.441772 2.420571 17.519998 0.380346 1.432193 0.023563 -0.005667 1770480.000000 1 0 0
7.469545 16.693672 -3.144429 18.556945 1.150067 1.741065 0.044426 -0.025167 -1426640.000000 1 0 0
14.784945 8.277872 7.409071 18.493569 0.510401 1.158592 0.051888 -0.016111 -1164060.000000 1 0 0
2.072845 12.940872 8.542971 15.644334 1.411967 0.993125 0.002013 0.005476 1826400.000000 1 0 0
15.935945 7.657972 -5.795729 18.606164 0.447965 1.887562 0.031036 -0.000364 -144759.000000 1 0 0
-3.167955 16.995472 0.696471 17.302227 -1.386511 1.530532 0.003677 -0.003574 1495090.000000 1 0 0
-3.020855 18.590972 4.605371 19.389668 -1.409714 1.330988 0.007255 -0.001434 363596.000000 1 0 0
-1.112555 19.122372 0.857371 19.173887 -1.512681 1.526066 0.015467 -0.009979 273588.000000 1 0 0
6.783145 16.848772 -6.038829 19.140523 1.188059 1.891780 0.042828 -0.016103 2552390.000000 1 0 0
10.971345 10.087472 0.695471 14.920160 0.743451 1.524167 0.021985 -0.005644 -567480.000000 1 0 0
9.054245 8.792172 14.250371 19.035617 0.770714 0.724824 0.043915 -0.015274 111817.000000 1 0 0
6.193645 12.468272 -8.340129 16.228887 1.109750 2.110529 0.021733 -0.011962 272005.000000 1 0 0
6.249045 9.063472 13.245171 17.222997 0.967169 0.693459 0.023875 -0.013892 2206880.000000 1 0 0
16.620645 9.434272 2.751771 19.308639 0.516273 1.427794 0.034763 -0.005769 -1110750.000000 1 0 0
2.460045 14.658772 -0.840429 14.887502 1.404525 1.627278 0.005478 -0.011190 516849.000000 1 0 0
8.963445 12.983872 8.404071 17.876036 0.966575 1.081358 0.013585 -0.004353 2653330.000000 1 0 0
7.153545 9.295172 10.438771 15.701635 0.914870 0.843543 0.009513 -0.007601 439791.000000 1 0 0
4.110945 15.899172 -5.254929 17.242326 1.317774 1.880492 0.024150 -0.009461 303351.000000 1 0 0
0.102045 16.299772 -8.230429 18.260146 1.564536 2.038381 0.008778 0.004117 395008.000000 1 0 0
-2.529555 15.664572 -1.970229 15.989348 -1.410696 1.694332 -0.002562 0.001692 -968162.000000 1 0 0
13.197845 10.480872 7.690671 18.525069 0.671155 1.142689 0.037876 -0.015934 819374.000000 1 0 0
-1.049755 15.917672 7.055771 17.442997 -1.504943 1.154359 0.004463 0.000287 2802350.000000 1 0 0
13.153045 13.344372 6.802071 19.933464 0.792619 1.222562 0.044510 -0.011851 -572636.000000 1 0 0
5.296445 17.425272 4.445171 18.747052 1.275718 1.331403 0.014837 -0.012701 275739.000000 1 0 0
10.724245 9.540972 -1.954029 14.486469 0.727075 1.706095 0.024368 -0.005396 74574.000000 1 0 0
3.202345 12.733972 4.687671 13.942141 1.324425 1.227893 0.000414 0.003055 1495730.000000 1 0 0
-0.272655 18.133372 3.451971 18.461029 -1.555761 1.382702 0.009437 -0.005510 2733330.000000 1 0 0
-7.829155 15.923272 -5.782529 18.662366 -1.113827 1.885831 0.039347 -0.008526 352869.000000 1 0 0
-12.364255 -9.125628 8.241271 17.437616 0.635819 1.078541 0.031032 -0.009116 -1406720.000000 1 0 0
-13.249655 -11.678628 6.792871 18.923182 0.722460 1.203631 0.041800 -0.007649 -823042.000000 1 0 0
-6.315255 -12.421828 12.289271 18.579840 1.100451 0.848072 0.022366 -0.005560 -178154.000000 1 0 0
-1.714155 -10.698628 14.500971 18.101854 1.411925 0.641705 0.003776 -0.006684 498640.000000 1 0 0
-8.915855 2.704272 10.987671 14.406057 -0.294491 0.703300 0.003034 0.000238 1751290.000000 1 0 0
0.437545 10.057472 15.126971 18.170565 1.527319 0.587194 -0.000863 -0.011466 -776254.000000 1 0 0
1.158745 -6.706228 16.587171 17.929039 -1.399699 0.389348 0.006308 -0.015390 2338230.000000 1 0 0
6.217345 2.374972 17.642271 18.855916 0.364886 0.360740 0.050800 -0.023370 1052850.000000 1 0 0
-4.977555 -3.043728 17.608871 18.550274 0.548826 0.319950 0.018414 -0.014440 588909.000000 1 0 0
-4.386055 8.189272 13.021671 15.995798 -1.079087 0.619673 0.003410 0.000057 -574066.000000 1 0 0
0.206845 -4.844128 18.605371 19.226757 -1.528122 0.254929 0.022740 -0.020313 333641.000000 1 0 0
-11.792055 2.068372 11.178271 16.379391 -0.173637 0.819674 0.014798 -0.005869 2026380.000000 1 0 0
-3.260655 -6.103628 14.317171 15.901809 1.080152 0.450227 0.014350 -0.010478 494646.000000 1 0 0
-7.413655 -2.342628 14.608871 16.548997 0.306060 0.489082 0.021496 -0.006267 765316.000000 1 0 0
-6.107555 -1.183728 10.617271 12.305685 0.191440 0.530026 0.005073 -0.003314 1274080.000000 1 0 0
-4.009755 2.424672 11.121971 12.068778 -0.543863 0.398745 0.005582 -0.000878 412631.000000 1 0 0
-6.583155 6.310372 13.618571 16.389759 -0.764245 0.590038 0.005372 0.001892 99907.800000 1 0 0
-9.038255 5.360572 12.445971 16.288891 -0.535329 0.701187 0.007230 -0.002628 788268.000000 1 0 0
-12.178055 -2.131728 15.698271 19.982117 0.173291 0.667105 0.042406 -0.007053 795595.000000 1 0 0
-3.253455 -7.673528 16.903371 18.846537 1.169786 0.458098 0.031275 -0.016942 -731630.000000 1 0 0
-0.400855 -5.314428 14.395671 15.350543 1.495511 0.354571 0.005646 -0.005275 1617890.000000 1 0 0
-14.270455 -2.200328 13.621671 19.850372 0.152983 0.814520 0.044751 -0.009704 -178387.000000 1 0 0
-6.531955 1.424072 12.117971 13.839785 -0.214657 0.504141 0.003608 -0.002289 1924550.000000 1 0 0
2.284545 -2.148228 14.522371 14.857095 -0.754656 0.212672 0.011271 -0.004066 352942.000000 1 0 0
-12.724255 3.994272 9.086071 16.137458 -0.304169 0.972734 0.006212 -0.001599 -1224730.000000 1 0 0
-8.992055 -3.057128 12.526271 15.719750 0.327722 0.648734 0.011277 -0.002583 589103.000000 1 0 0
-7.046855 -7.366528 15.387871 18.458344 0.807573 0.585105 0.034030 -0.005560 -213219.000000 1 0 0
-3.203255 6.172572 19.492171 20.695560 -1.092104 0.342694 0.030507 -0.009353 1093220.000000 1 0 0
0.674745 5.451872 16.108571 17.019525 1.447659 0.328659 0.009300 -0.011631 772758.000000 1 0 0
3.483045 1.647772 16.790671 17.227112 0.441884 0.225576 0.031196 -0.013623 2515460.000000 1 0 0
-11.738455 11.413472 7.841271 18.153352 -0.771362 1.124147 0.023541 -0.014800 -282933.000000 1 0 0
0.804845 -9.488428 15.467471 18.163719 -1.486175 0.551845 -0.005041 -0.002780 631422.000000 1 0 0
-2.346455 -3.552828 18.783771 19.260283 0.987112 0.222905 0.028393 -0.025144 1385040.000000 1 0 0
-12.960655 2.360972 13.802571 19.080454 -0.180189 0.762100 0.015958 -0.008362 17816.600000 1 0 0
-5.370155 -0.647028 15.779071 16.680416 0.119908 0.330242 0.014587 -0.003844 1862660.000000 1 0 0
-4.400955 -6.002128 11.671171 13.842333 0.938113 0.567680 0.008414 -0.001603 164995.000000 1 0 0
2.428945 1.907872 13.971071 14.308409 0.665820 0.217575 0.012118 -0.009783 699045.000000 1 0 0
0.016545 3.309872 14.222071 14.602151 1.565798 0.228660 0.011930 -0.009719 625509.000000 1 0 0
-13.125955 7.033072 12.147971 19.217908 -0.491887 0.886514 0.023998 -0.006780 847159.000000 1 0 0
0.868745 1.541272 18.112871 18.199075 1.057530 0.097370 0.019712 -0.012573 77434.200000 1 0 0
-2.119655 6.501272 12.501271 14.249254 -1.255627 0.500531 -0.001042 -0.003884 -139034.000000 1 0 0
-13.425955 -2.738428 10.846471 17.475732 0.201205 0.901213 0.033750 -0.007416 -1201980.000000 1 0 0
-2.651455 3.696472 13.418871 14.168988 -0.948558 0.326847 0.008831 -0.004021 988826.000000 1 0 0
3.568245 6.081472 16.299871 17.759574 1.040184 0.408274 0.017809 -0.014371 -83836.800000 1 0 0
-3.801155 12.317072 12.223871 17.764629 -1.271460 0.811927 0.010875 -0.014061 -116492.000000 1 0 0
3.659145 -1.293428 17.000371 17.437744 -0.339770 0.224444 0.033732 -0.018763 297290.000000 1 0 0
-15.855355 0.426472 9.048171 18.260437 -0.026891 1.052378 0.041551 -0.008266 343365.000000 1 0 0
-4.799155 4.626872 15.193571 16.591697 -0.767123 0.413467 0.011166 -0.003327 1192470.000000 1 0 0
-7.968155 -8.236028 10.525971 15.560197 0.801928 0.827841 0.019189 -0.003016 4346030.000000 1 0 0
-2.614555 -0.405728 14.742471 14.978016 0.153953 0.177581 0.012527 -0.002332 1568510.000000 1 0 0
-1.882355 1.214472 17.138771 17.284550 -0.572984 0.129969 0.016264 -0.009286 546450.000000 1 0 0
-0.651255 -2.428828 14.333871 14.552773 1.308823 0.173665 0.009927 -0.003612 326078.000000 1 0 0
5.164145 -8.237428 16.582671 19.222606 -1.010823 0.530281 0.012678 -0.008578 1345240.000000 1 0 0
-4.612055 9.934072 10.589871 15.234901 -1.136142 0.802229 0.005001 -0.007871 426222.000000 1 0 0
-6.219455 2.050272 15.142571 16.497960 -0.318436 0.408179 0.010293 -0.000335 -745703.000000 1 0 0
-5.023555 6.833172 17.252771 19.224631 -0.936853 0.456886 0.018868 -0.004186 516047.000000 1 0 0
-3.921355 9.077272 15.693871 18.549163 -1.163014 0.562229 0.004683 -0.009089 995609.000000 1 0 0
-4.522255 -9.807728 18.386671 21.323977 1.138758 0.531094 0.048743 -0.020846 -1059270.000000 1 0 0
-6.733055 -4.178428 11.085171 13.626236 0.555418 0.620622 0.014274 0.000267 -7100.440000 1 0 0
-2.294555 -0.702528 19.380471 19.528471 0.297109 0.123193 0.026173 -0.017467 -1132510.000000 1 0 0
-5.645555 -4.668228 15.252171 16.920206 0.690921 0.447764 0.023928 -0.009990 1287760.000000 1 0 0
-12.951855 -0.002128 9.700971 16.182070 0.000164 0.927934 0.014235 -0.001719 844365.000000 1 0 0
-14.685255 8.730072 10.362471 19.981283 -0.536350 1.025573 0.030033 -0.012091 -500958.000000 1 0 0
-8.393655 10.279972 12.857271 18.478113 -0.886072 0.801248 0.027147 -0.019957 -1768090.000000 1 0 0
-10.643555 7.054872 10.691771 16.654442 -0.585342 0.873722 0.017604 -0.004036 -911332.000000 1 0 0
-9.745555 -6.565828 14.709571 18.827040 0.592874 0.674050 0.045684 -0.013893 -137677.000000 1 0 0
-0.722455 -13.479728 14.425871 19.756790 1.517252 0.752222 0.007009 -0.011616 1474940.000000 1 0 0
3.980245 -5.601728 16.927971 18.269590 -0.953032 0.385620 0.025056 -0.017222 1829860.000000 1 0 0
-7.422355 9.176072 10.322671 15.679578 -0.890663 0.852170 0.017390 -0.007207 1286660.000000 1 0 0
-10.364355 -6.730228 11.765171 17.062681 0.575927 0.809961 0.039809 -0.011602 2537630.000000 1 0 0
-10.847955 -3.907728 10.652071 15.697614 0.345757 0.824970 0.015660 -0.002742 -168882.000000 1 0 0
-10.061355 -10.265428 9.794171 17.393553 0.795437 0.972674 0.033014 -0.007054 1560960.000000 1 0 0
-9.851655 -3.672628 15.227771 18.504819 0.356834 0.604285 0.045532 -0.017954 1570900.000000 1 0 0
5.663345 -3.151728 16.102671 17.358078 -0.507830 0.382657 0.034858 -0.012726 1395790.000000 1 0 0
-11.227855 0.514872 15.116371 18.837051 -0.045825 0.639355 0.023363 -0.013212 -525063.000000 1 0 0
-3.237255 3.293772 18.828671 19.386789 -0.794051 0.240532 0.024140 -0.012274 228097.000000 1 0 0
0.447545 7.351872 13.928471 15.756034 1.509996 0.486427 0.000408 -0.010239 1258970.000000 1 0 0
-13.191555 -7.500928 12.325771 19.550081 0.517023 0.888636 0.061900 -0.009964 -299831.000000 1 0 0
-1.515055 -1.042828 12.082671 12.221858 0.602838 0.151063 0.008290 -0.002954 379158.000000 1 0 0
2.127345 -4.790728 13.174071 14.178604 -1.152898 0.378685 0.005155 -0.002159 953660.000000 1 0 0
-14.465355 -4.258628 8.631871 17.375028 0.286313 1.050892 0.033145 -0.010991 -1043680.000000 1 0 0
8.203745 0.966472 15.956371 17.967784 0.117268 0.477700 0.056000 -0.021507 -427930.000000 1 0 0
-1.357555 11.364772 13.313571 17.557111 -1.451907 0.710094 0.000433 -0.006256 -289392.000000 1 0 0
2.964845 -12.193128 -13.858629 18.695569 -1.332268 2.405770 0.000617 0.005670 -327504.000000 1 0 0
0.892445 -10.687828 -14.047429 17.673608 -1.487489 2.489516 -0.002775 0.004155 -1195390.000000 1 0 0
3.441845 -14.404628 -12.356129 19.287653 -1.336254 2.266107 0.008116 0.004624 -12485.600000 1 0 0
-5.177755 -10.287928 -16.195729 19.873406 1.104525 2.523430 0.052884 -0.007876 -49058.600000 1 0 0
-0.978955 -12.147028 -15.208529 19.488664 1.490378 2.466067 0.018933 -0.002719 -277863.000000 1 0 0
5.813145 -15.112728 -11.801629 20.036608 -1.203590 2.200621 0.006846 0.008273 -7930.460000 1 0 0
1.913145 -11.980128 -16.165729 20.211739 -1.412440 2.497790 0.008773 0.000799 -852089.000000 1 0 0
1.509345 -14.367128 -13.907129 20.052450 -1.466125 2.337184 0.021538 0.007404 -773495.000000 1 0 0
-1.080055 -10.704928 -15.935529 19.227665 1.470243 2.547723 0.007827 -0.007875 -451859.000000 1 0 0
-5.818555 -5.516428 -15.079829 17.078870 0.758750 2.652911 0.021134 0.000263 -63104.800000 1 0 0
-6.376055 -7.568228 -16.627029 19.349167 0.870686 2.604725 0.037320 0.004394 602372.000000 1 0 0
5.078045 -12.592328 -11.260929 17.639779 -1.187479 2.263192 -0.000818 0.005974 212943.000000 1 0 0
-1.518355 -15.358228 -13.220229 20.321295 1.472254 2.279118 0.027770 -0.005338 468834.000000 1 0 0
15.919745 -7.424728 -8.701729 19.603187 -0.436396 2.030735 0.079152 -0.014400 570930.000000 1 0 0
19.431045 -3.539728 -4.477829 20.252065 -0.180193 1.793744 0.115662 -0.012771 254514.000000 1 0 0
14.931345 -11.495828 -8.912929 20.845609 -0.656124 2.012598 0.044710 -0.023005 813717.000000 1 0 0
17.940345 -3.573528 -6.503029 19.414311 -0.196616 1.912360 0.099205 -0.007768 650239.000000 1 0 0
9.522145 -9.108328 -15.477229 20.326768 -0.763190 2.436299 0.075551 -0.017854 540176.000000 1 0 0
1.321745 1.852172 -15.140129 15.310162 0.950988 2.992418 0.013688 -0.003566 -278187.000000 1 0 0
4.755945 -4.460628 -13.994329 15.438830 -0.753367 2.705567 0.003172 -0.000564 965960.000000 1 0 0
13.149445 -5.427828 -8.633029 16.640265 -0.391475 2.116247 0.037049 -0.006860 -1676680.000000 1 0 0
2.989045 0.940472 -12.184129 12.580615 0.304833 2.889868 0.002370 -0.004826 -3414100.000000 1 0 0
0.709445 6.270972 -12.962329 14.417017 1.458144 2.688504 0.013161 -0.003567 120141.000000 1 0 0
3.131945 -1.108528 -16.795229 17.120679 -0.340183 2.946300 0.012764 -0.003305 -436355.000000 1 0 0
13.090745 4.453772 -11.467929 17.964328 0.327938 2.263178 0.029619 -0.002296 303079.000000 1 0 0
-3.772455 9.382272 -16.714729 19.535624 -1.188495 2.597510 0.005683 0.001800 -19316.100000 1 0 0
-0.120955 -5.136028 -17.646929 18.379541 1.547250 2.858298 0.007974 -0.010777 315677.000000 1 0 0
-0.489555 -8.608828 -17.518329 19.525456 1.513991 2.684195 0.009897 -0.013197 -675268.000000 1 0 0
5.563645 -10.207728 -12.069529 16.757846 -1.071767 2.374932 0.002837 0.002563 471947.000000 1 0 0
1.850245 -9.715928 -18.022329 20.557894 -1.382615 2.639676 0.030601 -0.022391 -269877.000000 1 0 0
10.758245 9.020472 -14.687029 20.317912 0.697762 2.378730 0.069743 -0.021850 -768107.000000 1 0 0
10.979945 -3.815428 -12.904629 17.367963 -0.334438 2.408358 0.021834 -0.005137 515842.000000 1 0 0
4.819945 7.639972 -12.270529 15.237025 1.007976 2.506995 -0.007622 0.000893 -870207.000000 1 0 0
9.502145 -5.936728 -12.535229 16.812718 -0.558439 2.412201 0.018857 -0.005209 -1626380.000000 1 0 0
-3.364955 0.279772 -15.942329 16.295983 -0.082952 2.932878 0.023153 -0.009049 -1185000.000000 1 0 0
-0.801155 10.643272 -12.828429 16.688010 -1.495665 2.447636 0.002289 0.000794 -1739470.000000 1 0 0
6.632345 -5.535228 -12.497629 15.192679 -0.695474 2.536780 0.011077 -0.000676 -449828.000000 1 0 0
18.012045 -5.879628 -8.335529 20.699875 -0.315523 1.985245 0.105442 -0.017431 1608090.000000 1 0 0
13.029745 4.766272 -13.947829 19.673168 0.350680 2.358843 0.062702 -0.015867 205937.000000 1 0 0
14.163945 0.795172 -11.507629 18.266777 0.056082 2.252318 0.035982 -0.001788 -489036.000000 1 0 0
14.960645 6.207772 -11.280529 19.738482 0.393319 2.179128 0.059237 -0.008060 80970.400000 1 0 0
8.442045 1.433472 -11.574629 14.397743 0.168197 2.504653 -0.005134 0.003180 438711.000000 1 0 0
9.937945 1.158272 -8.853329 13.359857 0.116027 2.295190 0.000941 -0.000412 108689.000000 1 0 0
-0.100155 -5.812328 -12.940329 14.186096 1.553567 2.719379 -0.003191 -0.000249 448930.000000 1 0 0
10.604345 -5.670428 -8.941229 14.985041 -0.491042 2.210150 0.021333 -0.008571 -343864.000000 1 0 0
10.254645 8.531072 -11.270129 17.462896 0.693905 2.272311 0.033801 -0.010921 724457.000000 1 0 0
8.236945 8.168372 -14.536729 18.598012 0.781218 2.468068 0.032181 -0.008884 475664.000000 1 0 0
8.525745 10.499372 -10.608629 17.189187 0.888766 2.235936 0.046915 -0.017852 1551500.000000 1 0 0
7.099845 1.815372 -17.813229 19.261737 0.250328 2.751302 0.027345 -0.008248 -2805530.000000 1 0 0
11.995345 2.551672 -12.869729 17.777212 0.209598 2.380301 0.029557 -0.005312 -1099300.000000 1 0 0
2.645445 -0.846528 -19.345529 19.543912 -0.309698 2.998990 0.036418 -0.016309 -661423.000000 1 0 0
10.225245 -2.231328 -15.521929 18.720704 -0.214850 2.548349 0.045844 -0.008461 462221.000000 1 0 0
8.242245 -0.820328 -12.975429 15.393807 -0.099201 2.573445 0.003548 -0.002888 62221.300000 1 0 0
0.534345 4.369172 -14.704929 15.349597 1.449102 2.850744 0.013589 -0.001623 -230765.000000 1 0 0
4.026145 -7.568828 -15.668329 17.860390 -1.081926 2.640935 0.017553 -0.012277 -2103640.000000 1 0 0
11.416345 -5.886128 -14.392629 19.290599 -0.476040 2.412975 0.064053 -0.006312 -959217.000000 1 0 0
-5.990955 4.170572 -16.941029 18.446780 -0.608134 2.734746 0.020613 -0.007492 324481.000000 1 0 0
11.286745 7.884172 -9.007529 16.452548 0.609741 2.150153 0.030926 -0.005949 -630438.000000 1 0 0
9.596745 6.246872 -13.282829 17.537231 0.577033 2.430130 0.015390 0.004085 -915387.000000 1 0 0
12.034645 0.467272 -10.141729 15.745021 0.038808 2.270672 0.008849 0.002548 -2307210.000000 1 0 0
5.552545 -7.579528 -13.659629 16.579067 -0.938543 2.539069 0.016898 0.000576 -672381.000000 1 0 0
8.823045 -10.279528 -10.627829 17.218176 -0.861496 2.236032 0.018157 -0.000165 148842.000000 1 0 0
10.044045 4.746972 -15.724029 19.252576 0.441501 2.526506 0.053851 -0.013776 43094.600000 1 0 0
9.941645 -0.533528 -10.958529 14.805753 -0.053615 2.404095 0.003687 -0.000377 -571121.000000 1 0 0
-1.702255 5.427472 -13.995829 15.107560 -1.266876 2.755566 0.012773 -0.004963 272750.000000 1 0 0
1.334745 -0.741128 -14.893929 14.971972 -0.506872 3.039445 0.008552 -0.003304 -121585.000000 1 0 0
11.553545 -10.311628 -14.246629 21.042351 -0.728660 2.314537 0.086565 -0.016115 -312806.000000 1 0 0
9.526345 -7.845228 -10.666029 16.311439 -0.688925 2.283522 0.020629 -0.005222 -364825.000000 1 0 0
14.099445 -1.006628 -9.674529 17.129044 -0.071274 2.170990 0.037334 -0.004310 992663.000000 1 0 0
3.985445 11.237772 -12.146929 17.021139 1.229987 2.365474 0.007065 -0.008632 -482617.000000 1 0 0
-1.289555 3.067772 -16.745629 17.073086 -1.172866 2.945423 0.022707 -0.010678 -386811.000000 1 0 0
6.013245 -0.523028 -17.657629 18.660775 -0.086761 2.812213 0.014367 -0.001308 182789.000000 1 0 0
6.529545 -6.675628 -15.891729 18.432201 -0.796460 2.610338 0.035085 -0.011227 39773.800000 1 0 0
-1.710855 -5.228428 -19.696329 20.450156 1.254556 2.869231 0.009096 -0.015458 -281343.000000 1 0 0
-0.073255 -4.300028 -15.138729 15.737749 1.553762 2.864802 0.002299 -0.003541 91643.000000 1 0 0
0.513245 0.782872 -12.948929 12.982722 0.990500 3.069425 0.007756 -0.006818 607896.000000 1 0 0
15.443845 0.595272 -13.638129 20.612260 0.038525 2.293815 0.098457 -0.024372 642631.000000 1 0 0
-0.108155 6.941072 -16.403829 17.812237 -1.555216 2.741257 0.012872 0.005791 -470481.000000 1 0 0
-5.006055 -0.484128 -18.229229 18.910308 0.096409 2.872392 0.022304 -0.010733 -744289.000000 1 0 0
10.409645 -8.330828 -13.020729 18.636062 -0.674923 2.344354 0.027656 -0.011967 507928.000000 1 0 0
4.027845 8.514772 -17.395129 19.781693 1.128947 2.645302 0.028433 -0.003667 -382153.000000 1 0 0
9.188745 0.334472 -16.977229 19.307284 0.036384 2.645223 0.031757 -0.004433 -30913.100000 1 0 0
3.227545 4.806172 -18.573329 19.454688 0.979426 2.839436 0.015665 0.000865 -871756.000000 1 0 0
1.495145 -8.130228 -15.914029 17.932997 -1.388929 2.662505 0.001762 -0.011600 -397592.000000 1 0 0
4.612245 7.684572 -14.906829 17.393648 1.030233 2.600269 0.002883 0.000437 817047.000000 1 0 0
-5.751155 -0.331828 -15.198829 16.253932 0.057634 2.779299 0.012713 -0.005589 -948939.000000 1 0 0
2.807945 3.373072 -13.774129 14.456445 0.876574 2.833132 0.004487 -0.001206 39342.400000 1 0 0
-2.274055 -10.325428 -18.132929 20.990210 1.354019 2.613710 0.025051 -0.011139 -20396.000000 1 0 0
6.036045 -9.224628 -15.539129 19.052353 -0.991376 2.524564 0.017312 -0.003109 -35870.100000 1 0 0
-1.861255 5.419072 -17.629029 18.536809 -1.239956 2.827342 0.021744 0.002958 1487710.000000 1 0 0
10.022745 -12.338828 -11.582029 19.668388 -0.888604 2.200450 0.044759 -0.002499 -877437.000000 1 0 0
10.878445 3.588272 -9.409429 14.824089 0.318614 2.258467 0.002343 0.003073 -1500280.000000 1 0 0
4.841845 -0.432628 -10.952929 11.983209 -0.089115 2.723889 -0.002209 -0.002703 -491456.000000 1 0 0
6.217045 9.594872 -11.411229 16.153308 0.995860 2.355242 0.012609 -0.008247 -148312.000000 1 0 0
10.966445 -9.546128 -9.369429 17.296754 -0.716267 2.143239 0.030021 -0.007478 -254667.000000 1 0 0
3.216445 -2.421928 -14.508429 15.056752 -0.645408 2.870889 -0.000078 -0.000119 -60158.400000 1 0 0
9.283945 -4.585028 -14.751329 18.022648 -0.458729 2.529571 0.041957 -0.008763 -149940.000000 1 0 0
-3.910455 -6.499428 -16.619429 18.268543 1.029156 2.713428 0.008943 -0.004523 170600.000000 1 0 0
5.852945 -7.793928 -11.155529 14.813781 -0.926680 2.423483 0.005432 0.004446 612689.000000 1 0 0
5.402345 6.320072 -16.936029 18.866842 0.863527 2.685229 0.004134 0.000035 -662614.000000 1 0 0
8.944545 1.274472 -19.405229 21.405422 0.141533 2.705850 0.055041 -0.017215 479078.000000 1 0 0
13.063045 5.864272 -9.381329 17.118474 0.421956 2.150796 0.012853 0.002670 766499.000000 1 0 0
-1.621955 -0.860228 -17.326629 17.423628 0.487644 3.036025 0.021011 -0.012184 424769.000000 1 0 0
-0.376255 -0.470428 -19.580429 19.589693 0.896169 3.110838 0.033647 -0.020200 -513193.000000 1 0 0
2.806745 6.395172 -16.590629 18.000695 1.157224 2.743149 0.002710 0.005202 46973.100000 1 0 0
7.621345 3.565872 -15.547629 17.678493 0.437623 2.645535 0.012219 0.001402 445080.000000 1 0 0
3.076445 -9.868328 -15.094929 18.294953 -1.268595 2.541153 0.004522 0.002193 -438389.000000 1 0 0
9.198345 -10.607628 -13.328429 19.359193 -0.856433 2.330188 0.049621 -0.000312 242383.000000 1 0 0
3.821445 0.112972 -14.776729 15.263287 0.029554 2.888419 0.000807 -0.000969 -2280680.000000 1 0 0
-0.978955 -2.968428 -18.827229 19.084928 1.252239 2.977074 0.022803 -0.014447 339775.000000 1 0 0
9.197845 10.202172 -13.042729 18.941949 0.837121 2.330302 0.058819 -0.018251 348009.000000 1 0 0
4.625845 2.087972 -10.558729 11.715154 0.423993 2.693530 -0.003602 -0.000803 26231.700000 1 0 0
-0.300155 7.098372 -19.029229 20.312276 -1.528536 2.784262 0.029333 -0.000278 59120.100000 1 0 0
0.842245 -1.796328 -17.591229 17.702755 -1.132361 3.029285 0.025204 -0.015112 -3536750.000000 1 0 0
-4.469255 -2.258228 -14.039629 14.905872 0.467863 2.798997 0.017615 -0.006545 -3045880.000000 1 0 0
9.952245 6.045372 -10.456929 15.650593 0.545871 2.302515 0.003242 0.008428 -58631.800000 1 0 0
8.098345 5.326172 -17.423829 19.938433 0.581760 2.633927 0.041468 -0.015231 -439619.000000 1 0 0
11.417245 0.239472 -13.736329 17.863302 0.020971 2.448023 0.025861 0.003643 592807.000000 1 0 0
6.814645 12.038372 -11.897729 18.246033 1.055694 2.281111 0.038453 -0.018323 -527018.000000 1 0 0
-0.891855 0.527472 -15.230529 15.265735 -0.534096 3.073665 0.016523 -0.008164 -398029.000000 1 0 0
-4.345955 -2.835628 -19.053829 19.747823 0.578113 2.875696 0.017444 -0.005441 -187530.000000 1 0 0
5.866445 -12.106628 -13.764629 19.247094 -1.119573 2.367640 0.006960 0.000037 -110045.000000 1 0 0
2.145845 -4.788028 -13.972629 14.925288 -1.149466 2.782373 -0.001853 0.000349 -855105.000000 1 0 0
11.556045 2.158172 -15.464829 19.425777 0.184630 2.491617 0.058600 -0.009069 164643.000000 1 0 0
9.554945 2.115072 -13.771429 16.894459 0.217846 2.523775 0.011856 -0.000912 -569362.000000 1 0 0
-2.206755 -4.244028 -16.442229 17.123915 1.091303 2.858482 0.003980 -0.008041 -2136300.000000 1 0 0
-2.925155 10.079672 -14.359929 17.786621 -1.288351 2.510434 0.004382 -0.001791 14400.300000 1 0 0
3.563745 5.766472 -13.583329 15.180886 1.017238 2.678702 -0.001387 0.000912 -260833.000000 1 0 0
-5.200455 -2.496828 -16.557829 17.533984 0.447615 2.806342 0.020411 -0.002956 268742.000000 1 0 0
-4.306155 6.175572 -13.626729 15.568186 -0.961892 2.636838 0.009397 -0.005572 217677.000000 1 0 0
5.899245 -1.136528 -13.859029 15.105147 -0.190325 2.732554 0.002711 -0.004201 -1147240.000000 1 0 0
6.713845 -3.066728 -12.588229 14.592603 -0.428475 2.611271 0.006229 -0.003823 1798280.000000 1 0 0
2.859645 -3.131128 -18.302629 18.787436 -0.830684 2.913924 0.031251 -0.018386 33497.600000 1 0 0
7.520745 -12.035828 -12.012129 18.593386 -1.012295 2.273185 0.012312 0.003327 -1555920.000000 1 0 0
-6.071955 -5.290228 -17.645529 19.396388 0.716706 2.713436 0.038123 -0.001243 195730.000000 1 0 0
0.499945 8.594672 -11.887229 14.677348 1.512693 2.514783 0.003297 -0.001535 68204.500000 1 0 0
0.267145 8.485972 -14.414129 16.728724 1.539326 2.609288 0.002068 -0.001732 -475783.000000 1 0 0
7.659845 -2.498628 -15.021329 17.045724 -0.315315 2.649270 0.019732 -0.012443 -187875.000000 1 0 0
14.205145 1.540672 -9.028929 16.902111 0.108036 2.134345 0.022204 0.000171 695069.000000 1 0 0
2.728545 11.016472 -14.498229 18.412122 1.328004 2.477422 0.001585 0.005313 -845575.000000 1 0 0
6.160045 0.938772 -15.494329 16.700350 0.151233 2.759227 0.010896 0.004034 -95978.400000 1 0 0
16.449145 -5.588028 -10.351429 20.222574 -0.327483 2.108162 0.114387 -0.019232 371538.000000 1 0 0
4.838445 -4.435628 -11.255629 13.029756 -0.741991 2.613640 -0.000579 0.004049 -1813150.000000 1 0 0
8.758545 -3.729128 -17.054329 19.531222 -0.402523 2.632491 0.037181 -0.016253 71553.800000 1 0 0
13.464345 -9.413228 -8.795529 18.634881 -0.610137 2.062346 0.052386 -0.017264 -1421060.000000 1 0 0
2.323445 -7.851228 -13.541329 15.824278 -1.283074 2.597759 -0.008302 0.004165 414988.000000 1 0 0
-6.855055 -2.111228 -18.514329 19.855212 0.298763 2.771979 0.020646 -0.005471 -444522.000000 1 0 0
-1.457355 -6.499328 -15.725429 17.077889 1.350213 2.740939 -0.004401 -0.004304 -954837.000000 1 0 0
1.570845 -7.174028 -18.286729 19.706311 -1.355236 2.759706 0.027836 -0.024643 -791800.000000 1 0 0
5.332045 10.933972 -14.405329 18.854600 1.117071 2.440320 0.034897 -0.019046 835690.000000 1 0 0
5.441945 -3.579928 -17.541429 18.711825 -0.581867 2.786032 0.025398 -0.013630 1799750.000000 1 0 0
3.912645 13.145572 -13.918729 19.540877 1.281506 2.363549 0.017651 -0.014006 215904.000000 1 0 0
8.822945 10.453272 -15.612029 20.756943 0.869774 2.422093 0.074389 -0.020197 177121.000000 1 0 0
2.511645 3.824672 -16.277129 16.908028 0.989729 2.867556 0.013653 0.001570 -74165.200000 1 0 0
16.579345 1.809872 -11.574729 20.300854 0.108734 2.177497 0.113502 -0.009565 -40145.800000 1 0 0
10.043945 -3.643328 -10.487729 14.971544 -0.347978 2.346909 0.018014 -0.003845 18489.900000 1 0 0
14.816245 -2.064828 -11.831129 19.072500 -0.138471 2.239952 0.099158 -0.014755 -4580.370000 1 0 0
-2.716755 -8.705828 -16.107329 18.509950 1.268311 2.626401 0.011819 -0.001291 -209064.000000 1 0 0
13.903345 8.209172 -9.134129 18.550628 0.533365 2.085629 0.056489 -0.006292 435370.000000 1 0 0
-8.363355 0.075172 -16.645529 18.628607 -0.008988 2.675980 0.010749 -0.002620 -401998.000000 1 0 0
-3.590355 4.120572 -15.973329 16.882447 -0.854052 2.811925 0.018818 -0.005892 -1116200.000000 1 0 0
15.025345 4.050472 -9.713829 18.344639 0.263317 2.128829 0.028440 0.001624 1033750.000000 1 0 0
5.353945 1.123572 -12.938729 14.047699 0.206857 2.741582 -0.001727 -0.000774 -290464.000000 1 0 0
7.871845 -7.808228 -12.698129 16.857546 -0.781341 2.423802 0.029759 -0.001333 -2720020.000000 1 0 0
3.209445 -6.197428 -11.807629 13.716004 -1.092957 2.607764 -0.002037 0.002329 -706052.000000 1 0 0
-3.161755 3.349072 -18.510529 19.074922 -0.814160 2.897727 0.028582 -0.009660 50329.100000 1 0 0
0.802845 5.015572 -17.804229 18.514618 1.412072 2.863683 0.027182 -0.009682 -6111.640000 1 0 0
6.285845 7.217072 -10.302929 14.062301 0.854254 2.393023 -0.007311 0.001615 517152.000000 1 0 0
9.634345 3.789072 -11.705329 15.626657 0.374707 2.417441 0.006425 0.003806 168392.000000 1 0 0
4.574045 1.570872 -17.465929 18.123140 0.330811 2.871463 0.007742 -0.001571 -534251.000000 1 0 0
2.576545 8.106472 -13.389329 15.862774 1.263056 2.575629 -0.005213 -0.000478 -1235620.000000 1 0 0
14.406045 -3.493528 -9.804629 17.772721 -0.237912 2.155158 0.064470 -0.006713 228041.000000 1 0 0
-1.261455 9.354372 -16.251329 18.793649 -1.436753 2.615398 0.007453 0.004807 -1673060.000000 1 0 0
-5.199355 2.075772 -15.746429 16.712036 -0.379848 2.799996 0.018581 -0.007601 445834.000000 1 0 0
4.500745 4.146072 -11.931829 13.409518 0.744403 2.667710 -0.000155 -0.000648 203045.000000 1 0 0
9.355645 3.009272 -17.414629 19.996328 0.311202 2.627809 0.044014 -0.011696 794004.000000 1 0 0
-4.333555 14.309672 -13.327429 20.029148 -1.276735 2.298828 0.021889 -0.004026 -160241.000000 1 0 0
15.566645 -4.869528 -7.917229 18.130506 -0.303175 2.022701 0.070503 -0.006374 1015000.000000 1 0 0
1.330045 9.180372 -16.639629 19.050604 1.426918 2.633027 0.007413 0.002232 -641212.000000 1 0 0
0.473145 -3.168628 -12.853829 13.247075 -1.422570 2.897324 0.002489 -0.000739 260248.000000 1 0 0
7.367445 3.289772 -12.957729 15.264488 0.419963 2.584660 -0.005840 0.006706 -733128.000000 1 0 0
-2.902755 7.566372 -15.105029 17.141700 -1.204473 2.649162 0.007544 -0.001726 73389.700000 1 0 0
12.228645 -5.134128 -10.996029 17.228224 -0.397496 2.263028 0.037472 -0.007353 -371658.000000 1 0 0
0.807845 -4.509828 -20.060329 20.576880 -1.393546 2.917052 0.041317 -0.017767 -149104.000000 1 0 0
3.394745 -4.515228 -16.173929 17.132063 -0.926116 2.805570 0.017671 -0.013638 364866.000000 1 0 0
-5.801255 4.178672 -14.400229 16.077390 -0.624224 2.680759 0.007532 -0.005919 501847.000000 1 0 0
12.309945 -7.386728 -9.823029 17.395126 -0.540465 2.170866 0.031343 -0.006975 40396.500000 1 0 0
-2.046355 -1.885928 -15.010129 15.265919 0.744623 2.958275 0.013415 -0.004734 734396.000000 1 0 0
7.170545 5.762872 -14.079329 16.818291 0.676985 2.562837 0.007216 -0.001105 -442680.000000 1 0 0
3.875945 -5.448028 -18.590429 19.756215 -0.952434 2.796344 0.045819 -0.019601 -169261.000000 1 0 0
7.546945 7.480372 -12.299929 16.254248 0.780968 2.429079 0.004381 -0.001705 -617101.000000 1 0 0
12.295545 -2.524628 -11.068229 16.734989 -0.202514 2.293457 0.021189 -0.002220 -541776.000000 1 0 0
7.411445 -0.838028 -10.598629 12.960044 -0.112594 2.528361 -0.000133 -0.000610 -1874810.000000 1 0 0
5.329445 4.003972 -14.380529 15.850375 0.644328 2.707537 -0.006491 0.007191 -531481.000000 1 0 0
14.592145 2.942872 -12.854629 19.668062 0.199006 2.283100 0.060798 -0.019945 -527767.000000 1 0 0
-6.590055 6.531872 -16.045229 18.534928 -0.780964 2.617294 0.010842 0.003228 229075.000000 1 0 0
-11.437755 3.822772 -16.407729 20.362942 -0.322552 2.507761 0.067178 -0.022284 -421329.000000 1 0 0
-5.133855 6.236872 -18.237829 19.946765 -0.882101 2.724635 0.022195 0.013195 -123213.000000 1 0 0
-10.104255 1.718372 -15.647129 18.705118 -0.168452 2.561690 0.030657 -0.015715 -311811.000000 1 0 0
-7.712455 5.640072 -18.188229 20.545171 -0.631421 2.657892 0.026631 -0.001673 -406955.000000 1 0 0
-8.867655 4.080972 -15.806829 18.578092 -0.431311 2.588362 0.010996 0.003262 -301025.000000 1 0 0
8.883045 13.550272 -12.000729 20.162734 0.990521 2.208303 0.097423 -0.038461 -1527630.000000 1 0 0
13.920345 9.820072 -11.160929 20.366054 0.614373 2.150787 0.081654 -0.014342 347333.000000 1 0 0
8.150545 15.986972 -9.097729 20.119227 1.099320 2.040016 0.076090 -0.027847 -593808.000000 1 0 0
7.141645 13.572872 -13.988829 20.758451 1.086432 2.310252 0.072292 -0.018301 123115.000000 1 0 0
4.427545 15.985772 -12.328329 20.667263 1.300602 2.209948 0.043222 -0.023584 -23679.300000 1 0 0
10.965145 11.032172 -11.264229 19.204845 0.788445 2.197565 0.089743 -0.030194 -170665.000000 1 0 0
15.612845 10.147972 -9.252429 20.793020 0.576358 2.031946 0.096941 -0.015961 310049.000000 1 0 0
12.978245 10.608172 -8.766729 18.916228 0.685250 2.052681 0.090499 -0.026526 143595.000000 1 0 0
10.283345 12.262972 -8.229029 17.995682 0.872976 2.045728 0.066581 -0.011642 264969.000000 1 0 0
5.277545 16.043272 -9.921629 19.587694 1.252990 2.101944 0.042087 -0.025274 -578710.000000 1 0 0
6.565045 14.589072 -11.685929 19.811657 1.147945 2.201671 0.046634 -0.013197 -553790.000000 1 0 0
10.600945 14.238872 -9.807929 20.281049 0.930820 2.075560 0.105954 -0.027590 -672810.000000 1 0 0
8.531845 -18.651328 -1.227429 20.546801 -1.141773 1.630570 0.062673 -0.005984 -20856.000000 1 0 0
7.444845 -17.408528 -3.272529 19.214370 -1.166679 1.741947 0.035756 -0.007580 -213821.000000 1 0 0
4.596945 -18.370328 5.697171 19.775202 -1.325594 1.278558 0.041778 -0.004759 27723.500000 1 0 0
9.876545 -16.897328 -2.539229 19.736097 -1.041849 1.699813 0.047659 -0.010510 -1194290.000000 1 0 0
-9.600455 -12.207528 -10.103029 18.527377 0.904380 2.147547 0.060387 -0.016714 -740292.000000 1 0 0
-5.101855 -7.001728 -12.150229 14.922506 0.941096 2.522184 0.013547 -0.003558 140999.000000 1 0 0
-10.817955 -9.580028 -5.825329 15.580101 0.724784 1.954002 0.024209 -0.007631 -567101.000000 1 0 0
-4.462555 -11.340628 -13.998029 18.559878 1.195905 2.425245 0.035225 -0.010042 121203.000000 1 0 0
-2.706655 -15.675928 7.397771 17.543880 1.399819 1.135507 0.013075 -0.005870 -92211.100000 1 0 0
-4.602255 -12.081128 -11.568629 17.348418 1.206823 2.300757 0.032281 -0.002440 627308.000000 1 0 0
-14.302655 -13.006728 -4.108329 19.764091 0.737980 1.780192 0.056799 -0.013700 409486.000000 1 0 0
-3.157555 -12.212028 -3.197629 13.012633 1.317777 1.819072 0.008376 -0.002835 584251.000000 1 0 0
-2.429155 -17.380928 -1.492229 17.613183 1.431936 1.655620 0.016711 -0.015780 -1113740.000000 1 0 0
-5.775055 -12.321828 3.648771 14.088728 1.132513 1.308825 0.005066 -0.001016 690047.000000 1 0 0
-8.863255 -10.586628 -11.978829 18.279123 0.873773 2.285414 0.052810 -0.005927 32318.000000 1 0 0
-9.724755 -12.025428 -7.433029 17.159013 0.890783 2.018820 0.047955 -0.015237 17607.200000 1 0 0
-10.780355 -15.179828 6.095971 19.590919 0.953273 1.254380 0.055522 -0.020100 -636273.000000 1 0 0
-9.410255 -15.806628 0.674071 18.408063 1.033813 1.534170 0.018480 -0.005330 -1540590.000000 1 0 0
-14.811855 -7.641728 -7.999529 18.487280 0.476302 2.018287 0.038462 -0.022287 -267639.000000 1 0 0
-2.253955 -16.540628 5.065771 17.445192 1.435363 1.276170 0.021313 -0.013329 -11979.800000 1 0 0
4.535745 -15.797828 5.898171 17.462325 -1.291205 1.226254 0.025282 -0.005164 -170313.000000 1 0 0
4.155345 -14.705528 -9.890829 18.202966 -1.295406 2.145235 -0.000361 -0.003396 -299054.000000 1 0 0
-7.495855 -14.006028 -0.172329 15.886673 1.079396 1.581644 0.005681 -0.003229 1229550.000000 1 0 0
3.089245 -14.845928 9.672771 17.986315 -1.365637 1.002989 0.023401 -0.008149 -325036.000000 1 0 0
2.461545 -17.261828 10.434271 20.320038 -1.429151 1.031542 0.045188 -0.011816 -194650.000000 1 0 0
-7.945855 -17.135128 -5.584029 19.695955 1.136594 1.858250 0.051325 -0.015314 65322.400000 1 0 0
-6.344755 -9.198928 -7.735429 13.590919 0.966998 2.176282 0.016148 -0.008447 388973.000000 1 0 0
-5.975055 -13.137728 -4.893129 15.239551 1.143957 1.897667 0.004362 -0.006248 336127.000000 1 0 0
2.515345 -19.376028 -4.769429 20.112307 -1.441701 1.810217 0.035528 -0.020145 101366.000000 1 0 0
-5.324055 -13.001628 8.264071 16.299778 1.182135 1.039090 0.010344 -0.002805 989542.000000 1 0 0
2.380145 -17.481428 3.509671 17.988419 -1.435476 1.374430 0.023727 -0.015663 -518502.000000 1 0 0
-17.748255 -10.125828 -2.462929 20.581521 0.518465 1.690751 0.046264 -0.013054 601736.000000 1 0 0
-3.597055 -15.367628 2.608171 15.997042 1.340869 1.407024 0.015932 -0.013285 76211.800000 1 0 0
-10.098555 -10.386728 -14.216429 20.297089 0.799465 2.346778 0.066346 -0.008930 123748.000000 1 0 0
6.279145 -14.587728 -5.583129 16.834513 -1.164327 1.908846 0.014691 -0.010047 457492.000000 1 0 0
-7.174455 -12.274928 -10.885529 17.906463 1.041866 2.224223 0.045878 -0.011107 474448.000000 1 0 0
-7.351655 -14.249628 3.858871 16.492108 1.094495 1.334624 0.011467 -0.006379 1109300.000000 1 0 0
3.250245 -14.975328 -3.090929 15.632607 -1.357071 1.769831 0.019008 -0.006675 273687.000000 1 0 0
-7.513655 -11.543428 7.908571 15.882419 0.993786 1.049569 0.012073 -0.002765 -2611220.000000 1 0 0
-12.748355 -12.299128 -1.020529 17.743466 0.767465 1.628344 0.025016 -0.000301 -612935.000000 1 0 0
-1.828355 -13.570728 4.014371 14.269644 1.436875 1.285624 0.008687 -0.005621 -2140310.000000 1 0 0
-3.081455 -14.052428 5.324471 15.340016 1.354930 1.216323 0.011366 -0.006361 263658.000000 1 0 0
-14.432255 -10.439828 -4.412629 18.350785 0.626237 1.813636 0.038136 -0.010935 376747.000000 1 0 0
-6.226255 -8.685428 -10.477029 14.965663 0.948843 2.346293 0.026030 -0.004678 147188.000000 1 0 0
1.067945 -19.479428 2.298871 19.643662 -1.516027 1.453499 0.042178 -0.021514 65571.400000 1 0 0
6.534445 -14.076928 -8.122929 17.516874 -1.136200 2.052986 0.011363 -0.007133 -2025360.000000 1 0 0
-3.796755 -16.702328 -5.914829 18.120936 1.347276 1.903298 0.006672 -0.010635 -351067.000000 1 0 0
-3.263155 -13.492028 -13.280729 19.210955 1.333495 2.334097 0.053855 -0.006886 -1195850.000000 1 0 0
-8.123155 -14.676428 -4.598829 17.393460 1.065283 1.838378 0.019991 -0.010278 -235467.000000 1 0 0
-4.399055 -14.631828 10.042771 18.283855 1.278744 0.989306 0.017830 -0.003384 -1436760.000000 1 0 0
-0.155155 -12.042428 -9.920329 15.603111 1.557913 2.259830 0.003071 -0.001195 880791.000000 1 0 0
2.514645 -17.207028 6.752871 18.654933 -1.425683 1.200396 0.032675 -0.017891 -1262630.000000 1 0 0
-2.828355 -19.081228 -3.441829 19.594363 1.423641 1.747366 0.027650 -0.018413 -1299470.000000 1 0 0
0.650745 -15.372128 -3.030529 15.681515 -1.528489 1.765275 0.014734 -0.007382 -602956.000000 1 0 0
6.227845 -17.956828 0.671971 19.018025 -1.236954 1.535456 0.027840 -0.010710 -495068.000000 1 0 0
-6.789255 -16.692628 3.828671 18.422718 1.184509 1.361447 0.010491 -0.010766 690524.000000 1 0 0
-5.172055 -13.537128 -9.565129 17.363632 1.205847 2.154204 0.030190 -0.006770 -129040.000000 1 0 0
5.717945 -15.264828 -2.060029 16.430265 -1.212391 1.696507 0.026203 -0.005620 -1246240.000000 1 0 0
-8.810455 -10.285328 -0.466029 13.550988 0.862481 1.605194 0.006053 0.002003 -735118.000000 1 0 0
-7.252855 -18.377828 -2.901629 19.969175 1.194908 1.716618 0.035626 -0.026337 -14728.300000 1 0 0
7.946945 -15.995928 -1.061429 17.892744 -1.109704 1.630153 0.024968 -0.007977 -833394.000000 1 0 0
-7.985555 -10.250928 -9.556829 16.130208 0.908987 2.204930 0.040110 -0.011683 -438071.000000 1 0 0
-9.033155 -15.175228 -7.019529 19.004190 1.033872 1.949125 0.058931 -0.012126 -336719.000000 1 0 0
-11.545555 -10.412728 -12.015629 19.649430 0.733854 2.228751 0.078682 -0.007608 -645271.000000 1 0 0
6.675445 -16.158228 2.489671 17.659229 -1.179023 1.429341 0.029620 -0.015227 1009880.000000 1 0 0
-2.227955 -11.056328 -6.108629 12.826595 1.371950 2.067178 0.003030 -0.000893 -786672.000000 1 0 0
-12.319255 -15.400028 -3.541129 20.036580 0.896086 1.748463 0.051652 -0.012314 -29358.400000 1 0 0
-0.308455 -19.378028 -2.716929 19.569998 1.554880 1.710078 0.042379 -0.027215 51050.500000 1 0 0
-5.727155 -15.642028 -4.698029 17.307364 1.219817 1.845692 0.009552 -0.010959 -1613180.000000 1 0 0
2.049745 -15.853328 -0.958629 16.014008 -1.442215 1.630694 0.017213 -0.013820 97839.300000 1 0 0
-13.259255 -11.931528 5.199871 18.579771 0.732740 1.287140 0.035751 -0.004922 209258.000000 1 0 0
2.125545 -15.435028 -8.674429 17.832660 -1.433948 2.078801 0.006090 0.001977 -709200.000000 1 0 0
-11.857255 -16.628728 0.029171 20.423270 0.951360 1.569368 0.072832 -0.027622 885533.000000 1 0 0
-7.650955 -16.624828 -1.084929 18.333006 1.139482 1.630010 0.027193 -0.012261 655052.000000 1 0 0
-2.945355 -14.468028 -1.713229 14.863853 1.369964 1.686315 0.008588 -0.006732 472897.000000 1 0 0
-1.677055 -10.575628 -13.152929 16.960424 1.413529 2.458314 0.002089 0.000066 -95725.700000 1 0 0
1.623045 -19.534428 4.820071 20.185669 -1.487900 1.329680 0.044022 -0.023887 13626.100000 1 0 0
-17.443755 -9.380828 2.452971 19.957495 0.493410 1.447575 0.030921 -0.011507 3280.310000 1 0 0
-2.645255 -15.505328 -8.078829 17.682762 1.401820 2.045276 0.001939 -0.011425 -426131.000000 1 0 0
-10.499155 -12.218828 0.166471 16.110858 0.860951 1.560463 0.010947 0.002227 32245.400000 1 0 0
-6.888455 -11.403828 -6.515529 14.830719 1.027406 2.025645 0.020738 -0.004092 -136321.000000 1 0 0
-2.136455 -13.520728 -6.649629 15.218151 1.414079 2.023006 -0.001423 -0.001168 787724.000000 1 0 0
-14.271355 -14.443228 -1.026229 20.330558 0.791384 1.621295 0.057136 -0.011969 11132.200000 1 0 0
-9.552355 -11.214028 -4.371629 15.365971 0.865245 1.859282 0.020539 -0.006651 447676.000000 1 0 0
9.637445 -15.132828 -4.991229 18.622438 -1.003716 1.842136 0.020433 -0.004197 204405.000000 1 0 0
-5.446655 -10.848528 -9.512829 15.422404 1.105499 2.235491 0.026043 -0.005791 -234161.000000 1 0 0
-10.237155 -16.091428 -4.982429 19.711875 1.004193 1.826331 0.058768 -0.010285 -1476070.000000 1 0 0
2.236345 -17.389128 -3.216429 17.824939 -1.442892 1.752236 0.021919 -0.013110 253719.000000 1 0 0
-0.237855 -14.455128 -8.205029 16.623171 1.554343 2.087009 0.003333 -0.005504 -928456.000000 1 0 0
-0.463555 -18.183428 -7.165429 19.549817 1.545309 1.946064 0.022754 -0.014162 158868.000000 1 0 0
-1.706055 -9.980328 -10.528829 14.607321 1.401491 2.375740 -0.002897 0.000183 428222.000000 1 0 0
-5.050055 -17.357928 1.923771 18.179704 1.287675 1.464778 0.023269 -0.017257 -747015.000000 1 0 0
0.246145 -12.828628 -2.561429 13.084159 -1.551612 1.767834 0.010133 -0.005112 -2022250.000000 1 0 0
2.752045 -14.917228 3.003471 15.463450 -1.388360 1.375324 0.019547 -0.008396 -808229.000000 1 0 0
-9.316055 -13.213128 6.839471 17.554316 0.956682 1.170580 0.014334 -0.001888 -757551.000000 1 0 0
-0.903455 -17.711328 -4.573829 18.314674 1.519830 1.823204 0.027369 -0.020470 4075.600000 1 0 0
-9.668355 -17.669928 -2.443929 20.289807 1.070133 1.691541 0.051977 -0.021581 -1663400.000000 1 0 0
1.383645 -16.211528 1.431271 16.333299 -1.485653 1.483055 0.019622 -0.016698 689304.000000 1 0 0
-0.218555 -17.903128 3.901671 18.324650 1.558589 1.356235 0.040298 -0.023217 233941.000000 1 0 0
-17.456355 -9.115228 -0.069829 19.693060 0.481228 1.574342 0.008638 -0.004912 572419.000000 1 0 0
-14.796255 -7.602628 -10.544429 19.695535 0.474643 2.135744 0.062804 -0.021394 462518.000000 1 0 0
2.968145 -12.806428 -8.657529 15.740626 -1.343048 2.153175 -0.004177 -0.000813 387244.000000 1 0 0
-11.617555 -14.643328 1.646971 18.764519 0.900112 1.482913 0.034460 -0.011760 535011.000000 1 0 0
-2.091255 -15.579728 10.500171 18.903832 1.437365 0.981890 0.025523 -0.014759 -794442.000000 1 0 0
-7.018155 -15.958428 1.378771 17.487909 1.156476 1.491873 0.018953 -0.008224 -866802.000000 1 0 0
-12.426055 -15.141728 -6.089129 20.512345 0.883590 1.872191 0.065681 -0.011131 242944.000000 1 0 0
1.005345 -13.795128 -4.955229 14.692535 -1.498048 1.914803 0.008982 -0.006561 525269.000000 1 0 0
6.145245 -16.473228 -7.451329 19.095905 -1.213741 1.971651 0.032798 -0.015902 307282.000000 1 0 0
-6.572655 -13.032028 5.997871 15.779988 1.103678 1.180899 0.011548 -0.002450 -379266.000000 1 0 0
-2.423755 -13.596928 0.614971 13.824950 1.394392 1.526299 0.012602 -0.006920 2508400.000000 1 0 0
-4.250255 -15.500928 0.163871 16.073901 1.303180 1.560601 0.013521 -0.011735 277562.000000 1 0 0
-17.657255 -7.511828 -2.136229 19.307245 0.402230 1.681667 0.003154 -0.002996 639450.000000 1 0 0
1.537245 -12.632628 -11.863429 17.397913 -1.449703 2.321137 0.002659 0.000017 -632014.000000 1 0 0
1.389345 -17.060528 -5.721929 18.048058 -1.489539 1.893402 0.028548 -0.015919 -268838.000000 1 0 0
-12.874855 -6.405428 -9.123329 17.030166 0.461657 2.136152 0.039723 -0.013221 206642.000000 1 0 0
-11.390155 -13.484028 -8.731129 19.692315 0.869379 2.030160 0.068961 -0.023421 -182221.000000 1 0 0
-4.275055 -10.070528 3.510671 11.489841 1.169340 1.260285 0.006438 -0.000660 -5576510.000000 1 0 0
-6.928355 -14.344928 9.576971 18.587562 1.120855 1.029514 0.015735 -0.009877 -998165.000000 1 0 0
-5.279855 -15.768528 -7.967029 18.439005 1.247695 2.017588 0.023785 -0.016757 -1906500.000000 1 0 0
-0.141755 -13.397528 2.189871 13.576060 1.560216 1.408785 0.013805 -0.010832 653712.000000 1 0 0
-10.835655 -13.504428 -4.812429 17.970545 0.894607 1.841900 0.055403 -0.011440 -540068.000000 1 0 0
-9.576355 -10.576928 6.650671 15.741964 0.835006 1.134616 0.023662 -0.002764 73448.400000 1 0 0
-15.642855 -8.314828 -4.864329 18.371091 0.488561 1.838774 0.042791 -0.013671 674490.000000 1 0 0
-14.541355 -7.329328 5.446471 17.170734 0.466869 1.248026 0.027296 -0.005759 -893778.000000 1 0 0
-1.473855 -19.266028 0.147071 19.322881 1.494445 1.563185 0.031686 -0.016676 -66391.200000 1 0 0
-15.366755 -12.119728 -1.436029 19.623638 0.667811 1.644040 0.028959 -0.003886 697262.000000 1 0 0
-4.361355 -12.041228 -6.787429 14.494199 1.223293 2.058146 0.004547 -0.004176 -179669.000000 1 0 0
-7.492955 -18.476528 2.097771 20.048120 1.185524 1.465968 0.030372 -0.010936 -39130.800000 1 0 0
-2.439755 -11.708728 -8.574429 14.716235 1.365365 2.192783 0.002222 -0.001103 200922.000000 1 0 0
-0.927955 -20.269028 -4.910729 20.876060 1.525046 1.808254 0.043306 -0.013408 -305783.000000 1 0 0
-5.295955 -8.886228 -13.882929 17.313230 1.033343 2.501212 0.037710 -0.002256 -43964.000000 1 0 0
-8.432755 -19.089728 -0.670529 20.880103 1.154830 1.602915 0.037201 -0.017792 66665.300000 1 0 0
-17.009255 -7.193628 5.834771 19.367695 0.400111 1.264779 0.042600 -0.016798 -492799.000000 1 0 0
-3.463755 -14.607428 -4.233729 15.598046 1.337974 1.845672 0.002798 -0.005694 -2708810.000000 1 0 0
-2.773355 -14.795828 -10.923329 18.599117 1.385505 2.198520 0.020293 -0.007703 23920.400000 1 0 0
0.076945 -16.646328 6.306271 17.800989 -1.566174 1.208668 0.036593 -0.016753 -1323390.000000 1 0 0
-11.133655 -11.605428 3.768771 16.518108 0.806142 1.340609 0.015654 -0.001860 -696139.000000 1 0 0
-0.005955 -14.540428 -0.126529 14.540980 1.570387 1.579498 0.018816 -0.010062 636063.000000 1 0 0
-7.255455 -9.545328 -2.481029 12.243792 0.920859 1.774845 0.010921 -0.000682 10383.200000 1 0 0
-11.119455 -14.414528 -0.854829 18.225028 0.913735 1.617718 0.032296 -0.014036 384802.000000 1 0 0
0.574345 -14.495328 -10.654429 17.998924 -1.531194 2.204270 0.001188 -0.002808 -326202.000000 1 0 0
-1.413355 -14.147928 -3.792029 14.715330 1.471228 1.831430 0.006862 -0.001558 -3190930.000000 1 0 0
-11.611155 -8.061328 -7.647729 16.071456 0.606873 2.066736 0.029532 -0.010375 713167.000000 1 0 0
-0.221755 -17.113528 -0.353229 17.118610 1.557839 1.591432 0.019624 -0.018857 -1074870.000000 1 0 0
-12.819055 -9.482028 4.591471 16.592729 0.636865 1.290422 0.017220 -0.004122 -234806.000000 1 0 0
4.124545 -16.836828 1.656571 17.413641 -1.330556 1.475522 0.023045 -0.014058 2017360.000000 1 0 0
-3.772155 -17.738828 -8.250529 19.924016 1.361268 1.997750 0.035648 -0.020252 172375.000000 1 0 0
-13.335055 -11.079128 2.584871 17.528615 0.693258 1.422791 0.013520 -0.004204 836297.000000 1 0 0
-8.542755 -12.270328 4.082271 15.498534 0.962617 1.304254 0.011487 -0.003528 1239020.000000 1 0 0
-8.266055 -9.376428 -5.834929 13.794618 0.848253 2.007534 0.016600 -0.006923 -530284.000000 1 0 0
3.949745 -17.320128 -5.125429 18.489385 -1.346587 1.851685 0.015601 -0.013448 -207861.000000 1 0 0
-2.596155 -13.171728 11.315171 17.557549 1.376190 0.870477 0.011136 -0.008520 -72622.600000 1 0 0
0.003045 -16.667928 -9.565029 19.217430 -1.570614 2.091772 0.010511 -0.006806 64551.000000 1 0 0
-6.999455 -10.677528 -14.463629 19.292448 0.990542 2.418411 0.059185 0.000978 -580438.000000 1 0 0
-4.534355 -18.919128 -1.507729 19.513253 1.335563 1.648140 0.040345 -0.027321 -782587.000000 1 0 0
-2.456055 -17.048528 1.139571 17.262189 1.427718 1.504733 0.028041 -0.025009 231850.000000 1 0 0
4.234545 -14.705228 -7.263429 16.939083 -1.290420 2.013957 0.012651 -0.010223 820681.000000 1 0 0
-0.905055 -15.796528 -6.186529 16.988896 1.513564 1.943518 0.008973 -0.008973 -137603.000000 1 0 0
-9.541655 -15.405228 8.272171 19.919665 1.016250 1.142549 0.034283 -0.008115 -359995.000000 1 0 0
-7.242255 -12.037828 -1.729329 14.154510 1.029183 1.693277 0.003938 -0.002795 1089750.000000 1 0 0
-7.228355 -15.081328 -9.397429 19.183515 1.123852 2.082737 0.051471 -0.015273 -97384.100000 1 0 0
-5.001855 -13.181428 -0.620529 14.112182 1.208119 1.614782 0.006946 -0.003402 2617970.000000 1 0 0
-6.408955 -13.659228 -7.370429 16.792036 1.132088 2.025197 0.021920 -0.010172 315001.000000 1 0 0
5.828245 -15.402328 0.327671 16.471415 -1.209048 1.550902 0.022120 -0.006766 72328.700000 1 0 0
-14.364055 -12.763328 0.927571 19.237698 0.726459 1.522561 0.013886 -0.004115 841980.000000 1 0 0
0.874345 -15.330228 11.071471 18.930342 -1.513824 0.946097 0.021633 -0.008915 -178514.000000 1 0 0
-9.303155 -10.895528 1.977571 14.462781 0.864071 1.433631 0.007080 0.003693 105522.000000 1 0 0
-9.470955 -8.775528 -3.574029 13.397111 0.747304 1.840843 0.011131 -0.003480 -517768.000000 1 0 0
-12.247655 -7.093428 -12.218829 18.698170 0.524960 2.282966 0.066843 -0.019098 -149266.000000 1 0 0
-13.237955 -8.614028 -0.686129 15.808723 0.576872 1.614212 0.008264 -0.002781 1013250.000000 1 0 0
-11.100655 -9.681428 0.556571 14.739891 0.717213 1.533028 0.006106 0.001805 35910.700000 1 0 0
-15.759455 -12.092828 3.009071 20.091079 0.654505 1.420459 0.041116 -0.007812 590323.000000 1 0 0
-10.429555 -12.620828 -2.412829 16.549401 0.880178 1.717113 0.030185 -0.009081 883088.000000 1 0 0
-3.397455 -8.986028 -12.133329 15.476081 1.209326 2.471888 0.008126 0.000335 -930516.000000 1 0 0
-0.219855 -15.484328 3.878571 15.964212 1.556599 1.325386 0.023983 -0.013342 -248009.000000 1 0 0
-15.752455 -7.705528 1.210971 17.577869 0.454941 1.501850 -0.000404 -0.002229 923563.000000 1 0 0
-5.834355 -13.491728 -13.476129 19.941728 1.162641 2.312812 0.044489 -0.005542 -125115.000000 1 0 0
-15.403655 -10.315828 1.062771 18.569286 0.590100 1.513532 0.013169 -0.000608 385343.000000 1 0 0
-10.064555 -8.419528 -12.581929 18.179347 0.696635 2.335191 0.048212 -0.005787 562139.000000 1 0 0
-13.199355 -11.835328 -6.199229 18.781066 0.730967 1.907183 0.048910 -0.009015 57328.800000 1 0 0
-12.100255 -11.451428 -3.908829 17.112286 0.757856 1.801253 0.033906 -0.005625 -2300090.000000 1 0 0
-11.562855 -10.896928 -8.965929 18.243644 0.755757 2.084556 0.064050 -0.030391 812781.000000 1 0 0
-13.203755 -8.624628 -5.829529 16.813887 0.578618 1.924857 0.027939 -0.011410 -1956610.000000 1 0 0
-13.566655 -8.263428 -3.269129 16.218064 0.547083 1.773760 0.021491 -0.008249 601450.000000 1 0 0
-4.205555 -16.932728 -3.228929 17.743449 1.327354 1.753795 0.009793 -0.017927 27470.800000 1 0 0
-15.508455 -9.005528 -1.798929 18.023537 0.526096 1.670773 0.013561 -0.004572 -2329330.000000 1 0 0
-9.340655 -15.998828 3.614471 18.875242 1.042349 1.378114 0.016787 -0.004303 -284851.000000 1 0 0
4.841345 -17.230428 8.033871 19.618088 -1.296882 1.148876 0.042619 -0.020975 571231.000000 1 0 0
-8.270355 -15.620628 5.937371 18.645514 1.083867 1.246719 0.013813 -0.003421 289338.000000 1 0 0
0.993145 -16.086628 8.584171 18.260721 -1.509137 1.081404 0.027990 -0.013115 694041.000000 1 0 0
-10.927055 -7.822028 -10.209129 16.876344 0.621278 2.220483 0.038870 -0.013036 1150150.000000 1 0 0
-4.630355 -16.255728 5.896871 17.901452 1.293301 1.235120 0.015946 -0.008731 -1196760.000000 1 0 0
-1.035755 -13.177628 -12.112029 17.928300 1.492358 2.312550 0.007878 -0.003162 -123733.000000 1 0 0
-6.371255 -14.324528 -2.565329 15.886029 1.152292 1.732990 0.010874 -0.007077 498253.000000 1 0 0
-17.692755 -7.085228 -7.098529 20.337728 0.380902 1.927335 0.056247 -0.020648 313523.000000 1 0 0
-17.304055 -3.940228 -10.209229 20.473986 0.223888 2.092830 0.074871 -0.023326 636555.000000 1 0 0
-15.414055 -5.391328 -9.169529 18.728048 0.336467 2.082444 0.039247 -0.020673 472825.000000 1 0 0
-16.063455 -5.507528 -5.732129 17.922744 0.330301 1.896340 0.023784 -0.013359 -4257.140000 1 0 0
-14.984955 -4.684228 -12.270729 19.926406 0.302972 2.234200 0.064394 -0.019642 94477.300000 1 0 0
-18.703255 -5.353228 -5.504929 20.218137 0.278766 1.846555 0.048370 -0.014830 -496768.000000 1 0 0
-17.476855 -4.495628 -7.686729 19.614713 0.251775 1.973477 0.050463 -0.022109 1173860.000000 1 0 0
12.301445 -7.815428 8.790071 17.019748 -0.565990 1.028081 0.032679 -0.013723 471054.000000 1 0 0
16.188745 -3.312428 1.897271 16.632717 -0.201827 1.456479 0.044024 -0.009518 -372628.000000 1 0 0
12.188945 -2.106428 12.522871 17.601980 -0.171124 0.779242 0.058646 -0.007603 559834.000000 1 0 0
9.784745 -9.893528 5.239371 14.868562 -0.790926 1.210684 0.006483 -0.003522 156779.000000 1 0 0
17.225345 -2.068128 7.297771 18.821454 -0.119491 1.172621 0.105931 -0.022106 -641323.000000 1 0 0
5.419945 -12.926128 9.262171 16.800250 -1.173762 0.986861 0.006837 0.008748 81945.400000 1 0 0
15.287245 -8.815928 -2.144429 17.776924 -0.523100 1.691721 0.040206 -0.011654 -205622.000000 1 0 0
11.279245 -8.485528 6.523571 15.549358 -0.644980 1.137858 0.009343 -0.009541 -2477690.000000 1 0 0
20.207445 -3.039128 3.643771 20.757027 -0.149278 1.394338 0.134541 -0.029373 1025280.000000 1 0 0
13.674145 -8.490628 6.712871 17.439485 -0.555664 1.175671 0.038254 -0.018490 -760076.000000 1 0 0
8.444645 -11.054228 8.867571 16.496721 -0.918440 1.003285 0.004000 0.004518 -399589.000000 1 0 0
16.694545 0.049172 -0.578429 16.704635 0.002945 1.605430 0.026664 0.001936 -349847.000000 1 0 0
12.576945 -12.278028 2.444171 17.745520 -0.773372 1.432623 0.030540 -0.013325 -1353270.000000 1 0 0
10.571445 -11.545328 3.770371 16.101731 -0.829403 1.334443 0.024041 -0.010840 -1819600.000000 1 0 0
16.457245 2.978472 2.379871 16.893075 0.179044 1.429448 0.030854 -0.003542 875548.000000 1 0 0
18.378945 -3.117928 0.585471 18.650734 -0.168047 1.539400 0.060625 -0.016226 523939.000000 1 0 0
13.612845 -11.544628 -0.032929 17.849064 -0.703372 1.572641 0.039905 -0.007061 -338044.000000 1 0 0
17.081845 -7.527628 -0.831829 18.685464 -0.415076 1.615328 0.054267 -0.007437 -263994.000000 1 0 0
10.153645 -5.668128 9.774871 15.191191 -0.509144 0.871791 0.020329 -0.005640 -379987.000000 1 0 0
11.431045 -13.253328 6.146071 18.549762 -0.859088 1.233085 0.036760 -0.012130 -641430.000000 1 0 0
13.211245 -1.766228 10.171471 16.766495 -0.132903 0.918951 0.050378 -0.009082 1170450.000000 1 0 0
15.568345 -2.088028 -1.306929 15.762020 -0.133325 1.653808 0.019769 -0.002505 -335469.000000 1 0 0
10.593445 -12.455428 9.143371 18.733926 -0.866007 1.060925 0.038229 -0.016188 103777.000000 1 0 0
14.557245 1.249972 3.313371 14.981797 0.085656 1.347793 0.020318 -0.002564 1019860.000000 1 0 0
15.005945 -5.876728 5.255071 16.950814 -0.373267 1.255584 0.053321 -0.019231 -687155.000000 1 0 0
14.341445 -3.363428 -2.991029 15.031166 -0.230362 1.771122 0.021538 -0.003643 1190610.000000 1 0 0
14.079545 0.732072 9.593571 17.053038 0.051949 0.973302 0.066349 -0.009458 -88146.700000 1 0 0
15.606245 -3.474728 4.527271 16.617003 -0.219076 1.294860 0.050329 -0.010925 -133385.000000 1 0 0
18.680645 4.840172 -4.317629 19.774622 0.253526 1.790911 0.042090 0.005436 650492.000000 1 0 0
18.213045 -5.703728 -5.139429 19.765152 -0.303493 1.833844 0.090923 -0.013064 606802.000000 1 0 0
17.455245 0.166172 6.004471 18.459871 0.009520 1.239497 0.092964 -0.010929 778831.000000 1 0 0
17.082145 -6.452728 4.014571 18.696367 -0.361177 1.354386 0.081756 -0.025407 -580489.000000 1 0 0
9.876545 -6.549628 14.196671 18.492951 -0.585564 0.695583 0.049237 -0.011092 -1284370.000000 1 0 0
8.725945 -12.157328 5.308171 15.878269 -0.948255 1.229930 0.011866 -0.008840 -1472020.000000 1 0 0
16.824945 -10.156528 -0.537929 19.660193 -0.543106 1.598161 0.039608 -0.005641 -548990.000000 1 0 0
15.098945 -8.689228 0.416671 17.425683 -0.522199 1.546883 0.047752 -0.010088 -250804.000000 1 0 0
10.129745 -12.777128 1.571471 16.380973 -0.900459 1.474716 0.026781 -0.015421 -16534.100000 1 0 0
16.918345 -8.179928 8.946071 20.812828 -0.450356 1.126487 0.093970 -0.027246 574566.000000 1 0 0
18.938445 -0.280728 -1.851329 19.030789 -0.014822 1.668231 0.068099 -0.002472 -949697.000000 1 0 0
13.378345 -1.138528 7.737871 15.496806 -0.084898 1.047982 0.032272 -0.011577 356004.000000 1 0 0
12.922345 -9.564928 -2.912629 16.338857 -0.637190 1.750018 0.019679 -0.011232 -1398230.000000 1 0 0
9.000345 -15.190928 1.484771 17.719341 -1.035923 1.486904 0.040502 -0.012983 -1067960.000000 1 0 0
11.507945 -8.221028 11.109171 17.984209 -0.620311 0.904959 0.046989 -0.015343 474976.000000 1 0 0
13.937245 -4.015728 -0.574229 14.515599 -0.280531 1.610366 0.024210 -0.007611 -321604.000000 1 0 0
7.408245 -13.301728 10.906371 18.728774 -1.062642 0.949202 0.017267 0.013985 -247788.000000 1 0 0
15.638345 -6.643828 1.844371 17.090933 -0.401737 1.462671 0.048936 -0.011244 906325.000000 1 0 0
15.956445 -6.045228 -2.557529 17.253807 -0.362149 1.719574 0.059537 -0.009104 234789.000000 1 0 0
11.289145 -8.475528 3.840271 14.629663 -0.643992 1.305185 0.012810 -0.008601 682019.000000 1 0 0
10.871345 -14.413928 -0.284029 18.056249 -0.924597 1.586527 0.044917 -0.018055 833110.000000 1 0 0
13.581645 -12.893828 4.756871 19.322001 -0.759425 1.322050 0.038593 -0.012688 281139.000000 1 0 0
12.908945 -11.056428 6.493171 18.194690 -0.708252 1.205879 0.031719 -0.011491 783931.000000 1 0 0
11.067645 -10.407428 1.468871 15.263188 -0.754664 1.474411 0.019533 -0.010553 920156.000000 1 0 0
14.032145 -7.409628 11.684071 19.705867 -0.485832 0.936112 0.066173 -0.030044 -769885.000000 1 0 0
15.394745 -1.771928 -4.885829 16.248361 -0.114595 1.876219 0.036011 0.000093 -962311.000000 1 0 0
12.976745 -11.381628 -7.031529 18.638127 -0.720006 1.957639 0.036236 -0.008992 167237.000000 1 0 0
17.887445 -5.307228 1.946071 18.759386 -0.288428 1.466871 0.095822 -0.016251 767626.000000 1 0 0
10.768845 -9.841828 9.169771 17.231201 -0.740451 1.009646 0.022605 -0.006075 -1175950.000000 1 0 0
16.394545 1.944972 10.009471 19.306826 0.118083 1.025768 0.113945 -0.015647 -763732.000000 1 0 0
18.296445 3.615372 0.554871 18.658475 0.195086 1.541054 0.026848 -0.001756 961316.000000 1 0 0
13.377145 -3.932928 5.795171 15.099667 -0.285946 1.176894 0.025834 -0.012250 -408092.000000 1 0 0
12.252245 -6.120328 6.671971 15.234537 -0.463269 1.117479 0.016839 -0.011470 -87536.200000 1 0 0
16.792345 -10.226228 3.502171 19.970573 -0.546997 1.394518 0.053783 -0.014865 -105065.000000 1 0 0
16.407945 -8.129028 -5.619929 19.154252 -0.459987 1.868582 0.069041 -0.010275 734242.000000 1 0 0
13.990345 -0.397528 5.353971 14.985085 -0.028407 1.205435 0.025050 -0.006220 -501240.000000 1 0 0
18.583445 -4.210828 5.337271 19.787924 -0.222828 1.297690 0.128232 -0.023157 220126.000000 1 0 0
13.736345 -13.496928 7.247571 20.576237 -0.776607 1.210843 0.068473 -0.016092 236953.000000 1 0 0
15.240245 -13.426928 -0.842029 20.328711 -0.722228 1.612229 0.047231 -0.009141 85531.900000 1 0 0
17.994745 -6.003228 8.048771 20.606608 -0.322000 1.169522 0.121201 -0.025200 444999.000000 1 0 0
14.377345 3.440472 9.239771 17.433251 0.234881 1.012186 0.059738 -0.018317 -1394030.000000 1 0 0
18.938145 3.858272 3.044971 19.565568 0.200980 1.414532 0.072855 -0.008277 1550740.000000 1 0 0
14.764845 -10.497828 8.185471 19.879813 -0.618072 1.146425 0.042140 -0.028903 -892842.000000 1 0 0
15.066745 -4.769928 10.383371 18.909611 -0.306603 0.989503 0.085127 -0.021168 167223.000000 1 0 0
18.030345 -7.848628 2.109771 19.777397 -0.410563 1.463917 0.098522 -0.019751 -70455.200000 1 0 0
18.539945 -5.872128 -1.982629 19.548459 -0.306732 1.672392 0.068509 -0.010566 -188204.000000 1 0 0
14.492945 -12.686728 -5.343729 19.988846 -0.719041 1.841423 0.046390 -0.019258 -581818.000000 1 0 0
15.565145 -1.303728 9.264671 18.160605 -0.083564 1.035435 0.115230 -0.017366 -150629.000000 1 0 0
13.126945 -10.005928 10.174671 19.389668 -0.651291 1.018378 0.042885 -0.026545 -1654300.000000 1 0 0
16.593045 2.202572 4.857771 17.429240 0.131969 1.288342 0.059060 -0.009923 -472151.000000 1 0 0
14.929945 2.439472 -0.098029 15.128248 0.161963 1.577276 0.014665 0.002695 -702071.000000 1 0 0
15.115345 -9.876428 -6.917229 19.335603 -0.578765 1.936649 0.054564 -0.014066 774175.000000 1 0 0
16.232245 -0.116028 -3.177029 16.540639 -0.007148 1.764072 0.020617 0.006106 -369908.000000 1 0 0
11.899345 2.724372 13.460371 18.171356 0.225072 0.736615 0.066311 -0.018464 -401949.000000 1 0 0
17.618645 -2.934628 9.676771 20.314246 -0.165049 1.074293 0.105342 -0.022556 205385.000000 1 0 0
7.805745 -18.151328 4.475371 20.259055 -1.164667 1.348052 0.058037 -0.026043 826955.000000 1 0 0
6.884245 -11.238428 6.823471 14.840986 -1.021191 1.093058 0.004721 -0.000432 21361.200000 1 0 0
18.028045 2.087872 -1.451829 18.206521 0.115299 1.650623 0.019607 0.005741 426256.000000 1 0 0
17.715745 -2.216728 3.737771 18.240955 -0.124481 1.364424 0.062820 -0.011771 569176.000000 1 0 0
12.832745 -13.289128 -1.804829 18.561726 -0.802868 1.668184 0.026315 -0.004847 547643.000000 1 0 0
15.263645 -8.252328 4.354471 17.889695 -0.495638 1.324920 0.050299 -0.014941 -310672.000000 1 0 0
12.482145 -2.632528 14.975671 19.672439 -0.207857 0.705556 0.086214 -0.020057 108420.000000 1 0 0
12.361745 -13.752728 -6.149929 19.487737 -0.838613 1.891864 0.031098 -0.018257 -260375.000000 1 0 0
10.837445 -11.921128 -1.162929 16.152892 -0.832979 1.642854 0.017027 -0.009921 -1034520.000000 1 0 0
13.322145 -7.925228 2.136271 15.647761 -0.536655 1.433846 0.030368 -0.009191 75694.700000 1 0 0
8.824545 -7.854128 10.086971 15.534056 -0.727281 0.864073 0.006397 0.001368 -1606060.000000 1 0 0
15.678645 -3.665028 8.087971 18.018535 -0.229636 1.105297 0.089714 -0.022531 -869994.000000 1 0 0
10.216445 -17.388128 5.326971 20.859036 -1.039579 1.312556 0.072769 -0.024087 -1431510.000000 1 0 0
15.309745 -6.281628 8.288771 18.508130 -0.389356 1.106443 0.069238 -0.018235 -259902.000000 1 0 0
16.652345 -4.903628 -0.310229 17.362097 -0.286376 1.588665 0.041216 -0.010622 -360364.000000 1 0 0
14.213745 -10.573028 3.559371 18.068995 -0.639560 1.372512 0.039001 -0.011493 577062.000000 1 0 0
14.971845 -9.895428 -4.440629 18.487694 -0.584025 1.813362 0.043336 -0.015064 -109802.000000 1 0 0
13.764345 -6.497228 -0.009229 15.220751 -0.441025 1.571403 0.033738 -0.007500 126403.000000 1 0 0
17.844345 -0.862828 -4.881729 18.520162 -0.048315 1.837538 0.074378 0.000107 -779359.000000 1 0 0
14.337645 0.268872 -1.734829 14.444722 0.018751 1.691188 0.015056 0.000128 -2466870.000000 1 0 0
5.049645 -12.912928 11.918371 18.283605 -1.198026 0.860760 0.002565 0.007801 -822696.000000 1 0 0
12.137945 -7.367428 13.497971 19.590914 -0.545532 0.810700 0.063668 -0.018931 -378379.000000 1 0 0
12.176345 -5.688028 11.496171 17.685559 -0.437014 0.863170 0.038958 -0.012664 1838670.000000 1 0 0
13.350545 -4.575528 8.407171 16.427204 -0.330177 1.033537 0.036986 -0.013344 -976389.000000 1 0 0
15.329745 -1.187128 3.163771 15.697764 -0.077285 1.367864 0.035882 -0.004482 541427.000000 1 0 0
15.399745 -10.374528 5.795971 19.451896 -0.592844 1.268237 0.056198 -0.021230 267031.000000 1 0 0
13.749045 -7.907528 -5.791929 16.885250 -0.521934 1.920923 0.040516 -0.011088 -495391.000000 1 0 0
10.018745 -2.441328 13.886271 17.296354 -0.239018 0.638746 0.041457 0.002654 455781.000000 1 0 0
10.110645 -9.129728 13.630571 19.270951 -0.734460 0.785108 0.064547 -0.011440 84165.200000 1 0 0
20.203845 6.458072 -2.834929 21.399506 0.309381 1.703663 0.123212 0.002207 -1065950.000000 1 0 0
11.351645 -3.523528 10.514171 15.868928 -0.300969 0.846560 0.020657 -0.003967 964593.000000 1 0 0
10.402045 -13.906928 -2.823129 17.594751 -0.928592 1.731946 0.019697 -0.002696 939026.000000 1 0 0
15.048245 -12.769028 2.561271 19.901203 -0.703645 1.441739 0.037961 -0.009511 3148.930000 1 0 0
11.398945 -0.298528 14.215271 18.223583 -0.026183 0.676054 0.063101 -0.016039 456442.000000 1 0 0
19.255245 -1.766228 5.753071 20.173791 -0.091471 1.281607 0.142043 -0.024038 1029580.000000 1 0 0
19.142545 -0.314828 7.883071 20.704563 -0.016445 1.180199 0.152675 -0.023479 280460.000000 1 0 0
18.939645 0.657672 0.543071 18.958840 0.034711 1.542148 0.056034 -0.008306 -345719.000000 1 0 0
18.636745 0.842972 3.789371 19.036759 0.045201 1.370402 0.071872 -0.012230 510381.000000 1 0 0
16.775145 -3.802128 -4.192929 17.704302 -0.222887 1.809899 0.059459 -0.006941 -73502.300000 1 0 0
11.200945 -8.122728 15.773371 20.981876 -0.627428 0.720067 0.097301 -0.022155 136953.000000 1 0 0
16.758045 -7.457328 6.427471 19.435951 -0.418688 1.233751 0.082979 -0.022792 449521.000000 1 0 0
18.950245 2.267172 6.011571 20.009768 0.119072 1.265651 0.091512 -0.011409 271490.000000 1 0 0
15.488045 1.847172 7.715871 17.401903 0.118704 1.111416 0.082329 -0.010811 281210.000000 1 0 0
8.900145 -15.773628 3.820771 18.509949 -1.057085 1.362885 0.045937 -0.020985 108062.000000 1 0 0
11.425145 -15.019228 2.293571 19.009777 -0.920482 1.449850 0.054067 -0.014626 634405.000000 1 0 0
8.055345 -16.184328 6.137271 19.091547 -1.108970 1.243520 0.038123 -0.013089 -480255.000000 1 0 0
14.665945 -11.454528 -2.364229 18.758618 -0.663066 1.697167 0.036803 -0.009950 553775.000000 1 0 0
13.773745 -4.758728 3.200171 14.919874 -0.332654 1.354626 0.025215 -0.005957 -923184.000000 1 0 0
-1.103755 10.188072 -5.508129 11.634198 -1.462879 2.063992 -0.003629 0.002025 -1821790.000000 1 0 0
8.207045 -1.840328 -8.030929 11.629197 -0.220589 2.333092 0.002836 -0.006130 -1992050.000000 1 0 0
2.934545 -10.107028 7.697371 13.038907 -1.288219 0.939318 0.006342 0.000766 794493.000000 1 0 0
-6.267755 1.241472 8.328271 10.496957 -0.195542 0.654424 0.004603 -0.002442 -19229.800000 1 0 0
7.232545 -6.251928 -7.144929 11.935088 -0.712804 2.212610 0.007086 -0.006227 704353.000000 1 0 0
-11.446255 -4.620328 -4.086429 13.002427 0.383653 1.890497 0.005027 -0.003874 316995.000000 1 0 0
2.154745 -3.234628 2.887471 4.841821 -0.983152 0.931837 0.008466 -0.000774 1788080.000000 1 0 0
-3.470355 -4.347328 8.834571 10.439936 0.897109 0.561930 0.002957 0.000622 -2216100.000000 1 0 0
-4.826055 -1.076028 -2.443629 5.515430 0.219374 2.029798 0.006746 -0.001669 -82155.800000 1 0 0
4.924945 -5.132828 -3.706329 8.021090 -0.806064 2.051128 0.010893 -0.005467 347900.000000 1 0 0
2.558445 14.314572 -8.821429 17.007946 1.393934 2.116085 0.008288 -0.006626 -767423.000000 1 0 0
5.579745 -5.385028 13.643271 15.693021 -0.767642 0.516841 0.020764 -0.007466 -1018410.000000 1 0 0
-4.696455 -1.024728 9.868071 10.976592 0.214825 0.453292 0.007445 -0.001485 -2775700.000000 1 0 0
-1.000255 11.929772 -2.793529 12.293241 -1.487147 1.800040 -0.002140 -0.000275 -1558940.000000 1 0 0
3.021945 9.459972 -10.557929 14.494588 1.261597 2.386787 0.002339 -0.000793 -721651.000000 1 0 0
-10.647755 2.658272 1.037871 11.023533 -0.244654 1.476506 -0.003978 -0.000292 32846.900000 1 0 0
5.864845 -8.975528 -0.755229 10.748343 -0.992016 1.641119 0.011614 -0.005652 1047140.000000 1 0 0
-7.039655 5.318872 9.346371 12.853085 -0.647049 0.756607 0.005218 -0.000103 290105.000000 1 0 0
-5.465955 -1.916028 5.099771 7.717221 0.337155 0.848872 0.002027 -0.002117 513096.000000 1 0 0
6.546045 -3.745728 -7.132729 10.380607 -0.519737 2.328315 0.005298 -0.006131 554819.000000 1 0 0
6.269145 4.832572 10.929671 13.494948 0.656712 0.626801 0.003470 -0.006806 1038890.000000 1 0 0
3.843045 -9.957028 3.260171 11.159755 -1.202449 1.274336 0.004216 -0.001203 1253350.000000 1 0 0
-6.742155 6.572472 -5.831929 11.075443 -0.772655 2.125350 0.004351 -0.004383 754847.000000 1 0 0
-11.159355 8.467372 5.212071 14.946346 -0.649090 1.214593 0.002064 -0.007349 264263.000000 1 0 0
-9.096255 -5.513028 5.070671 11.783338 0.544876 1.125943 0.002478 0.001807 176188.000000 1 0 0
3.218745 9.740372 -7.992829 13.004633 1.251639 2.232693 0.000240 -0.004267 611076.000000 1 0 0
-8.032655 -8.589728 6.026371 13.214542 0.818899 1.097255 0.009598 0.000942 -1755720.000000 1 0 0
-7.837855 -5.831728 -7.551529 12.347738 0.639680 2.228842 0.012281 -0.004610 -233927.000000 1 0 0
9.275945 -1.549328 7.018871 11.734910 -0.165499 0.929645 0.008292 -0.006601 1466250.000000 1 0 0
-4.075755 -0.472828 -4.888429 6.382170 0.115494 2.443316 0.011141 -0.006911 -1008560.000000 1 0 0
9.114745 1.096872 -4.555729 10.248725 0.119764 2.031431 0.001040 -0.000250 -3315800.000000 1 0 0
-1.823855 -10.652328 10.844071 15.309880 1.401224 0.783702 0.000705 -0.004773 -102351.000000 1 0 0
-12.923455 0.178972 -2.635829 13.190729 -0.013848 1.771975 -0.000014 -0.000341 -963726.000000 1 0 0
-9.803655 -5.275328 -6.056729 12.673781 0.493660 2.069052 0.011349 -0.004298 -334371.000000 1 0 0
-5.796455 8.452172 -0.214829 10.251061 -0.969668 1.591755 0.003990 0.000027 -46057.500000 1 0 0
6.124645 9.689172 0.444171 11.471208 1.007099 1.532066 0.008428 -0.002798 491372.000000 1 0 0
-0.485955 -12.047828 0.093071 12.057984 1.530483 1.563078 0.013558 -0.003799 -68413.400000 1 0 0
6.031445 4.684872 2.386471 8.001349 0.660397 1.267929 -0.001488 -0.000159 168027.000000 1 0 0
3.544745 -7.530428 -8.211929 11.692235 -1.130844 2.349476 0.001266 -0.001791 1204490.000000 1 0 0
-6.485355 -9.988228 4.581971 12.760055 0.994913 1.203507 0.007487 0.000503 -2329340.000000 1 0 0
-0.120355 6.504572 -9.180629 11.252017 -1.552295 2.525097 0.006575 -0.006407 -2376470.000000 1 0 0
-17.252355 -2.632228 4.459371 18.012728 0.151405 1.320627 0.040632 -0.014342 409610.000000 1 0 0
-8.370955 0.866572 -9.176029 12.450837 -0.103154 2.399389 0.001739 -0.000901 -446684.000000 1 0 0
-10.035455 -5.822228 -11.855629 16.588088 0.525708 2.367002 0.023433 -0.004497 548606.000000 1 0 0
2.138845 9.472772 6.415271 11.638890 1.348731 0.987003 -0.003682 0.002894 -401531.000000 1 0 0
-11.403655 1.657572 -1.301529 11.596761 -0.144344 1.683265 0.000447 -0.001433 -2403150.000000 1 0 0
-6.029655 -5.293828 -3.147729 8.619139 0.720507 1.944646 0.016013 -0.004339 465725.000000 1 0 0
-6.920855 -8.448528 1.391171 11.009597 0.884470 1.444098 0.008677 -0.000712 -515746.000000 1 0 0
-0.154455 10.764572 -7.872829 13.337215 -1.556449 2.202215 0.000629 0.000287 421921.000000 1 0 0
-2.925455 9.148572 -4.297929 10.522682 -1.261300 1.991545 0.003381 -0.003233 -60926.700000 1 0 0
3.563345 -4.802828 9.332671 11.084373 -0.932482 0.569879 0.006105 0.000269 -1142560.000000 1 0 0
-9.022855 1.547072 -0.553129 9.171221 -0.169810 1.631144 -0.003304 -0.000529 -1072670.000000 1 0 0
2.407545 3.565372 -10.456029 11.306489 0.976870 2.751257 0.004519 -0.006296 -1758030.000000 1 0 0
-13.724555 0.363472 1.118071 13.774818 -0.026477 1.489539 -0.001389 -0.005045 -1352640.000000 1 0 0
9.631145 -12.609328 -5.027129 16.644102 -0.918515 1.877625 0.023935 -0.006269 -2353730.000000 1 0 0
-4.842955 9.382972 -8.282429 13.419873 -1.094318 2.235945 0.006172 -0.004109 -243103.000000 1 0 0
-2.299655 7.184572 8.405371 11.294102 -1.261019 0.731420 0.007061 -0.002360 -1576730.000000 1 0 0
-10.725855 -1.486528 -4.477429 11.717556 0.137716 1.962878 0.003356 -0.002769 -3079450.000000 1 0 0
2.858545 -7.156728 9.742071 12.421674 -1.190790 0.669262 0.002936 -0.000078 -635884.000000 1 0 0
-16.239255 -6.599828 3.437371 17.862997 0.386022 1.377159 0.025042 -0.007204 -85280.100000 1 0 0
-10.748855 -0.026228 6.145471 12.381655 0.002440 1.051422 -0.006113 -0.002362 -1137280.000000 1 0 0
-8.448455 9.738172 9.229771 15.855505 -0.856195 0.949466 0.017457 -0.011269 468930.000000 1 0 0
0.230645 -6.010228 -3.702429 7.062862 -1.532440 2.122585 0.003634 -0.000795 255373.000000 1 0 0
4.828545 1.401272 -3.010729 5.860281 0.282447 2.110348 0.000514 0.000318 603872.000000 1 0 0
0.240145 5.306872 3.880471 6.578648 1.525576 0.939913 0.002568 0.000583 -1373730.000000 1 0 0
6.133545 -11.266428 -1.502429 12.915497 -1.072256 1.687388 0.010494 -0.005970 -1747480.000000 1 0 0
6.413045 -13.439428 5.364071 15.827781 -1.125570 1.225046 0.011324 -0.006881 306961.000000 1 0 0
8.210245 -8.237228 -5.829229 13.009226 -0.787039 2.035418 0.010184 -0.006962 711785.000000 1 0 0
-13.138955 -1.394528 -4.748229 14.040033 0.105741 1.915792 0.001478 0.000553 -4156360.000000 1 0 0
-6.839755 -1.547328 -7.086829 9.969936 0.222481 2.361460 0.012889 -0.005405 -90301.500000 1 0 0
-5.851855 12.751172 -4.663029 14.784466 -1.140544 1.891675 0.008855 0.000907 920954.000000 1 0 0
-4.330355 6.921872 -6.766829 10.604445 -1.011762 2.262841 0.007224 -0.004485 -3540750.000000 1 0 0
-9.436655 -3.780728 -8.132729 13.018666 0.381060 2.245541 0.008035 -0.002736 525096.000000 1 0 0
-2.050755 -6.370128 9.201171 11.377420 1.259341 0.628820 0.002226 0.001892 -304754.000000 1 0 0
7.498745 -5.999028 10.053671 13.903086 -0.674744 0.762480 0.010308 -0.000541 670224.000000 1 0 0
9.744145 -4.916528 12.195971 16.366500 -0.467291 0.729993 0.027350 -0.003916 100453.000000 1 0 0
-6.545855 2.816372 -9.083329 11.545001 -0.406311 2.476365 0.007375 -0.004597 262276.000000 1 0 0
7.503345 5.536572 8.775171 12.804586 0.635699 0.815761 0.001381 -0.005496 -1116800.000000 1 0 0
12.675445 3.448772 11.056671 17.170058 0.265652 0.871145 0.050124 -0.010942 -1370550.000000 1 0 0
-7.482655 -7.276228 -3.827329 11.116748 0.771412 1.922273 0.015142 -0.007027 -1603370.000000 1 0 0
2.188045 1.348572 -5.898729 6.434376 0.552345 2.730669 0.004497 -0.001669 120723.000000 1 0 0
12.831245 7.055872 -7.112029 16.279039 0.502765 2.022926 0.013693 0.002148 64399.300000 1 0 0
0.833945 -7.884128 1.066171 7.999479 -1.465413 1.437119 0.007380 -0.000927 1881610.000000 1 0 0
-10.247955 -6.191228 -8.537229 14.704971 0.543460 2.190222 0.015973 -0.005660 -1106200.000000 1 0 0
-6.740155 0.241272 3.034871 7.395833 -0.035781 1.147960 0.001127 -0.002186 257074.000000 1 0 0
10.891045 -7.858928 1.296271 13.492884 -0.625073 1.474577 0.010262 -0.007758 539383.000000 1 0 0
6.239945 1.198572 10.556771 12.321481 0.189769 0.541808 0.006091 -0.004540 -565966.000000 1 0 0
-13.020955 5.327372 1.874371 14.192936 -0.388359 1.438346 0.003550 -0.003231 -67326.800000 1 0 0
1.944145 7.334972 3.576371 8.388798 1.311703 1.130368 -0.002262 0.001223 447313.000000 1 0 0
10.213245 -9.369028 -0.793629 13.882324 -0.742314 1.627996 0.010414 -0.007232 769645.000000 1 0 0
6.903445 -11.660928 -8.952229 16.241219 -1.036269 2.154603 0.001369 -0.003032 18804.200000 1 0 0
10.236345 3.591072 11.724171 15.972937 0.337401 0.746600 0.015943 -0.010779 -653475.000000 1 0 0
-11.125555 -3.077828 -1.893329 11.697679 0.269895 1.733367 0.002972 -0.000644 776698.000000 1 0 0
12.479045 1.020372 6.821071 14.258146 0.081585 1.071967 0.013053 -0.004997 -458647.000000 1 0 0
-9.672755 9.239572 3.037871 13.717162 -0.762497 1.347480 0.001892 -0.005869 1762500.000000 1 0 0
-6.826355 7.651972 -8.858429 13.550777 -0.842361 2.283288 0.005511 -0.005990 -1564750.000000 1 0 0
8.543445 5.611872 11.999671 15.763110 0.581185 0.705557 0.016924 -0.008518 -4383300.000000 1 0 0
1.360845 4.890072 -2.721929 5.759652 1.299377 2.063019 0.000174 -0.001336 462417.000000 1 0 0
1.455645 0.497272 9.523171 9.646604 0.329186 0.160143 0.007808 -0.004347 715404.000000 1 0 0
2.486845 12.602472 -3.998529 13.453435 1.375969 1.872568 -0.000095 -0.004442 281963.000000 1 0 0
2.247145 0.696272 12.971371 13.182978 0.300466 0.179414 0.011716 -0.010285 -377998.000000 1 0 0
-12.251455 -1.835328 0.835571 12.416310 0.148699 1.503449 -0.003346 -0.001462 -182102.000000 1 0 0
3.177945 8.769672 -1.306629 9.418798 1.223136 1.709971 -0.000005 0.000103 412974.000000 1 0 0
3.662145 -2.902628 -5.753129 7.411818 -0.670215 2.459429 0.000407 -0.003610 -1307910.000000 1 0 0
-7.680155 -7.168928 9.362071 14.072196 0.750984 0.842916 0.009622 -0.000144 83636.700000 1 0 0
-7.135355 10.766472 -3.416929 13.360599 -0.985518 1.829416 0.015041 0.000548 80182.100000 1 0 0
0.368445 0.511172 2.539471 2.616478 0.946257 0.243217 0.003572 -0.001100 -2485710.000000 1 0 0
-7.079955 4.574272 -1.978329 8.658147 -0.573620 1.801326 0.005806 -0.002074 -524968.000000 1 0 0
-7.023755 -3.959228 -6.000329 10.050501 0.513294 2.210575 0.010256 -0.004626 -220060.000000 1 0 0
3.088645 -6.033628 13.372071 14.991887 -1.097670 0.469148 0.003106 -0.004325 -1662510.000000 1 0 0
-5.546455 -0.445528 -11.341429 12.632881 0.080155 2.685478 0.015461 -0.004364 -457763.000000 1 0 0
11.870145 2.488972 -0.635829 12.144941 0.206689 1.623174 0.006017 -0.000026 -2700910.000000 1 0 0
6.205445 -10.948928 10.900971 16.649857 -1.055175 0.856986 -0.000110 0.007069 480280.000000 1 0 0
-8.339255 6.437672 -10.609129 14.951268 -0.657416 2.359699 0.000097 -0.001759 584221.000000 1 0 0
2.926145 8.036672 11.163571 14.063276 1.221617 0.653748 0.004319 -0.005062 1089870.000000 1 0 0
-6.174555 -10.157128 -0.465229 11.895748 1.024586 1.609915 0.012280 0.002191 -1533140.000000 1 0 0
11.286645 4.290672 5.991171 13.479330 0.363282 1.110213 0.002631 -0.007033 -120488.000000 1 0 0
-8.135455 10.731172 1.324771 13.531397 -0.922122 1.472736 0.004362 -0.002475 386340.000000 1 0 0
4.424745 -2.492328 -3.499429 6.167339 -0.512975 2.174157 0.005371 -0.003923 -4994780.000000 1 0 0
6.380145 6.457872 6.338471 11.071882 0.791453 0.961265 -0.001538 -0.001585 -5839730.000000 1 0 0
-0.521255 10.209872 -10.243029 14.471794 -1.519787 2.357165 0.000015 -0.004130 -740458.000000 1 0 0
13.843545 6.768672 -2.447729 15.602885 0.454761 1.728324 0.016906 0.002154 834176.000000 1 0 0
1.352045 9.424672 -6.191229 11.357103 1.428310 2.147354 -0.000644 -0.002951 -571858.000000 1 0 0
0.648445 7.325372 7.276171 10.345251 1.482506 0.790719 0.001094 -0.000654 25918.000000 1 0 0
12.166245 6.397472 1.878571 13.873506 0.484104 1.434972 0.009419 -0.001611 -1048160.000000 1 0 0
-6.809155 6.608072 -3.209829 10.016696 -0.770412 1.896999 0.003474 -0.003798 -140921.000000 1 0 0
0.987345 9.917672 11.200871 14.993151 1.471569 0.727159 -0.003312 -0.003360 -298015.000000 1 0 0
-3.584555 13.456272 -10.974429 17.730154 -1.310456 2.238227 0.003398 -0.001677 -77946.400000 1 0 0
-10.126555 -5.507428 -2.191429 11.733765 0.498117 1.758662 0.003418 -0.003024 -594606.000000 1 0 0
-4.140355 3.938772 -12.539429 13.780194 -0.760452 2.713985 0.011582 -0.007174 -651318.000000 1 0 0
-3.218355 8.462572 2.477371 9.386708 -1.207383 1.303709 0.004492 0.002009 -2657750.000000 1 0 0
7.079645 8.850972 7.088171 13.367993 0.896133 1.011919 0.000119 0.001721 -1155050.000000 1 0 0
-1.267455 -2.309828 -8.247429 8.658051 1.068934 2.832380 0.007029 -0.007325 -1747790.000000 1 0 0
0.799545 -1.243628 4.744071 4.969114 -0.999419 0.302107 0.008208 -0.002712 501931.000000 1 0 0
2.699645 -8.745128 -6.006929 10.947536 -1.271375 2.151607 0.001848 -0.002018 338157.000000 1 0 0
5.376245 4.032572 8.723571 11.012099 0.643547 0.656423 0.001433 -0.005002 882980.000000 1 0 0
6.181945 -7.333228 -2.822329 9.997911 -0.870378 1.856979 0.008530 -0.007427 942475.000000 1 0 0
1.804645 2.348872 -8.290729 8.803984 0.915684 2.798450 0.003584 -0.005510 -22896.400000 1 0 0
-5.428355 10.946972 -0.758629 12.242497 -1.110452 1.632803 0.001015 -0.000400 549970.000000 1 0 0
-5.438855 3.304772 -3.503429 7.264756 -0.546006 2.074018 0.005727 -0.000966 482117.000000 1 0 0
1.951545 13.701072 -6.329829 15.218233 1.429311 1.999769 -0.003408 0.000380 367763.000000 1 0 0
-5.342155 -2.645928 2.618371 6.511177 0.459874 1.156949 -0.002691 0.000094 208309.000000 1 0 0
10.479445 -3.349028 -1.793929 11.146880 -0.309323 1.732435 0.009183 -0.006257 -194776.000000 1 0 0
2.417545 -3.352428 7.104571 8.219381 -0.946028 0.526904 0.003263 -0.001241 -780818.000000 1 0 0
-2.923855 9.813772 -11.695229 15.544691 -1.281236 2.422436 0.003151 -0.001284 -3780000.000000 1 0 0
0.637045 -1.990328 9.249971 9.483100 -1.261030 0.222194 0.006297 -0.002725 1245780.000000 1 0 0
9.444945 2.686572 4.789671 10.925456 0.277126 1.116984 0.000671 -0.004379 -967471.000000 1 0 0
13.370145 2.229372 -4.975929 14.439208 0.165222 1.922622 0.010453 0.004606 -1236040.000000 1 0 0
-6.697655 3.621672 7.523571 10.704168 -0.495704 0.791381 0.005140 -0.002241 338255.000000 1 0 0
10.649245 0.127572 1.876771 10.814109 0.011979 1.396365 0.005654 -0.001209 1173820.000000 1 0 0
15.329945 6.821872 -4.592029 17.396318 0.418691 1.837928 0.021081 0.000640 1412360.000000 1 0 0
8.051445 -4.877928 -9.102729 13.095023 -0.544706 2.339396 0.009229 -0.003553 621785.000000 1 0 0
4.409645 5.622072 -2.205929 7.477886 0.905674 1.870245 -0.000627 0.000827 526931.000000 1 0 0
-1.682855 -10.574328 1.569571 10.821829 1.412974 1.425245 0.013199 -0.002574 -1554150.000000 1 0 0
-2.856455 12.140872 -12.925429 17.961816 -1.339723 2.374031 0.004101 -0.002635 -168267.000000 1 0 0
8.366645 4.194272 -9.601829 13.408497 0.464694 2.368996 -0.001812 0.003103 -1550630.000000 1 0 0
4.080245 7.640672 -8.969929 12.469478 1.080307 2.373664 0.003268 -0.004989 -1469380.000000 1 0 0
-1.711555 -5.068428 -2.372529 5.852118 1.245130 1.988228 0.007750 -0.002052 -797964.000000 1 0 0
-3.231955 -9.144028 7.304371 12.141360 1.231051 0.925280 0.003114 0.002328 -2236440.000000 1 0 0
1.017245 7.189872 -1.390729 7.393454 1.430246 1.760026 -0.000275 0.000201 831661.000000 1 0 0
0.280945 -1.049628 -2.126529 2.388049 -1.309266 2.669213 0.010091 -0.001045 142819.000000 1 0 0
4.257545 -6.634828 7.593371 10.945635 -1.000281 0.804134 0.005701 0.000404 -1649230.000000 1 0 0
-14.005355 3.727572 5.898871 15.647410 -0.260123 1.184255 -0.001373 -0.004664 -823089.000000 1 0 0
4.196345 6.380972 12.593371 14.728173 0.989073 0.545143 0.008978 -0.008689 -1484880.000000 1 0 0
8.221445 10.242072 -7.278129 15.015437 0.894403 2.076828 0.019873 -0.009979 447375.000000 1 0 0
12.475845 5.405972 9.299071 16.472521 0.408892 0.970944 0.029050 -0.014099 499598.000000 1 0 0
7.568245 3.977972 0.418271 8.560230 0.483928 1.521915 0.000595 0.002099 -1334310.000000 1 0 0
-10.887255 -7.587628 -0.949029 13.304326 0.608661 1.642189 0.007185 -0.003090 -1586540.000000 1 0 0
10.305745 6.834172 0.117271 12.366407 0.585558 1.561313 0.008068 -0.002652 -560368.000000 1 0 0
14.630945 3.581172 4.133471 15.619696 0.240047 1.302974 0.027333 -0.007245 738835.000000 1 0 0
2.164745 5.560872 8.195071 10.137485 1.199564 0.629380 -0.000575 -0.002805 344892.000000 1 0 0
4.295045 0.153072 11.646571 12.414244 0.035624 0.353514 0.011888 -0.004955 -1430840.000000 1 0 0
-1.630655 -1.474928 -0.421929 2.238856 0.735296 1.760388 0.011421 -0.004912 -1506100.000000 1 0 0
2.990545 -5.248628 -9.441029 11.208233 -1.052897 2.572388 -0.001359 -0.000019 283797.000000 1 0 0
-4.002655 -5.299528 -1.425129 6.792440 0.923921 1.782178 0.007761 -0.003622 -277069.000000 1 0 0
-1.046255 -8.687828 8.652171 12.305815 1.450946 0.791054 0.004968 0.001117 -495775.000000 1 0 0
3.847945 8.554872 -5.973429 11.120898 1.148112 2.137834 -0.000061 -0.001622 218067.000000 1 0 0
-14.214055 -1.940228 -2.662029 14.590759 0.135662 1.754270 -0.002628 -0.002629 -1037340.000000 1 0 0
8.977245 -10.507028 -6.508629 15.275825 -0.863751 2.010945 0.007415 -0.006354 604185.000000 1 0 0
14.766145 6.081272 1.591971 16.048528 0.390670 1.471436 0.013607 -0.002641 -162672.000000 1 0 0
-5.790155 0.382472 -8.532529 10.318732 -0.065960 2.544364 0.012795 -0.007514 889013.000000 1 0 0
-7.922955 -4.543928 -12.979429 15.870920 0.520717 2.528395 0.013981 -0.004501 593524.000000 1 0 0
0.991945 -10.664328 12.042871 16.116532 -1.478048 0.726901 -0.001041 -0.000972 -114290.000000 1 0 0
0.253045 11.776372 3.423871 12.266615 1.549312 1.287918 0.001167 0.000866 -600103.000000 1 0 0
5.260845 -13.348628 -3.710929 14.820033 -1.195377 1.823889 0.017065 -0.004994 570548.000000 1 0 0
-7.574855 1.579072 -7.014629 10.443990 -0.205519 2.307220 0.002982 -0.001353 144019.000000 1 0 0
1.573945 2.721972 4.095671 5.163424 1.046533 0.654737 0.003486 0.000715 -1344140.000000 1 0 0
17.265745 5.477872 1.906871 18.213983 0.307223 1.465911 0.028573 -0.009467 50052.400000 1 0 0
2.424745 -8.124428 -3.461829 9.158056 -1.280761 1.958441 0.005292 -0.001955 325385.000000 1 0 0
-0.365355 -9.390628 -0.558129 9.414292 1.531910 1.630116 0.011665 -0.001161 -218576.000000 1 0 0
0.665545 11.855072 -5.692829 13.167915 1.514715 2.017867 -0.002485 -0.000426 -1481780.000000 1 0 0
6.126245 -4.928228 7.806671 11.079820 -0.677446 0.788959 0.005818 -0.000081 -931561.000000 1 0 0
-5.962955 -2.079428 -9.384729 11.311675 0.335538 2.549276 0.014654 -0.005934 -68913.800000 1 0 0
2.100345 -1.299728 11.287571 11.554653 -0.554141 0.215426 0.009531 -0.004257 -332696.000000 1 0 0
17.978545 2.307172 -5.790529 19.028435 0.127632 1.880010 0.055141 0.003712 -754365.000000 1 0 0
-9.041955 4.657672 7.784971 12.808459 -0.475669 0.917510 0.005185 -0.002827 -1090810.000000 1 0 0
11.555145 -6.969628 -4.800229 14.322685 -0.542742 1.912559 0.015283 -0.009184 -275989.000000 1 0 0
10.907045 0.643572 8.910471 14.098734 0.058937 0.886659 0.007582 -0.003782 394076.000000 1 0 0
-8.489055 -7.358428 -1.520029 11.336711 0.714175 1.705282 0.011090 -0.004311 -1223070.000000 1 0 0
10.385045 -10.393128 -3.150929 15.026464 -0.785787 1.782056 0.015031 -0.008099 769214.000000 1 0 0
7.822945 -13.976928 -3.688629 16.436514 -1.060533 1.797141 0.024935 -0.006511 -1557900.000000 1 0 0
1.817445 -1.160428 -11.598029 11.796778 -0.568244 2.957771 0.001581 -0.005459 -124561.000000 1 0 0
-11.962555 -2.713228 -6.423329 13.846425 0.223037 2.053187 0.005871 -0.001300 -354720.000000 1 0 0
2.778945 -12.101028 -6.202829 13.879212 -1.345065 2.034110 0.004428 -0.002073 446287.000000 1 0 0
-5.574955 1.447872 1.065171 5.857563 -0.254096 1.387934 0.003094 -0.000768 505563.000000 1 0 0
0.148245 6.796672 -4.028829 7.902416 1.548988 2.105775 0.003340 -0.002273 833885.000000 1 0 0
5.670745 -11.766128 3.723071 13.581619 -1.121689 1.293116 0.005537 -0.004404 -583300.000000 1 0 0
-4.370455 -9.309728 1.164171 10.350228 1.131886 1.458080 0.009246 -0.000204 -819964.000000 1 0 0
7.174845 -6.108928 -4.667329 10.515768 -0.705328 2.030677 0.011350 -0.007149 1291980.000000 1 0 0
-7.010455 -6.062428 2.156071 9.515680 0.713006 1.342231 0.003388 0.000513 237216.000000 1 0 0
-6.294955 -0.828828 6.934971 9.402512 0.130912 0.741338 0.003583 -0.002489 -565922.000000 1 0 0
4.201345 -5.115428 3.324171 7.407362 -0.883197 1.105413 0.007521 -0.001798 -53453.900000 1 0 0
-2.621955 10.536072 -8.885729 14.029955 -1.326895 2.256658 -0.001697 0.000148 -1959190.000000 1 0 0
-2.321455 -4.874928 2.725871 6.048508 1.126367 1.103283 0.003821 0.003023 -400312.000000 1 0 0
15.092745 5.137972 6.266571 17.130663 0.328121 1.196293 0.046031 -0.015915 191646.000000 1 0 0
6.789445 0.275572 0.113671 6.795986 0.040566 1.554069 0.002452 -0.001379 4687140.000000 1 0 0
-9.779955 9.135172 0.404171 13.388885 -0.751323 1.540605 0.003482 -0.004861 -1897500.000000 1 0 0
7.043245 10.490772 -2.667629 12.914327 0.979541 1.778858 0.004889 -0.003767 -818849.000000 1 0 0
1.585245 -4.256628 -5.379229 7.040454 -1.214291 2.440357 0.001477 -0.003366 -20555.400000 1 0 0
0.977445 -8.064928 -7.763629 11.237100 -1.450188 2.333519 -0.003193 0.002289 -150707.000000 1 0 0
-10.476555 0.169872 -10.514229 14.843722 -0.016213 2.357924 -0.003012 -0.000275 -3159890.000000 1 0 0
5.894245 -2.470428 0.589071 6.418110 -0.396884 1.478884 0.005908 -0.003469 103126.000000 1 0 0
-3.354555 5.236872 -1.086929 6.313421 -1.001083 1.743820 0.006742 -0.003037 998523.000000 1 0 0
-0.375155 4.523772 -5.239629 6.932457 -1.488056 2.427689 0.005536 -0.003956 -876451.000000 1 0 0
4.097245 -9.748528 10.055771 14.592455 -1.172919 0.810540 0.001455 0.003391 -204099.000000 1 0 0
7.260745 -13.461028 -0.600029 15.306134 -1.076135 1.610008 0.024522 -0.008752 533490.000000 1 0 0
12.975045 -0.002228 0.431671 12.982224 -0.000172 1.537539 0.009665 -0.005427 173650.000000 1 0 0
9.351945 2.473572 -0.628129 9.693914 0.258577 1.635638 0.002606 -0.000324 -1427870.000000 1 0 0
-0.758955 -5.751528 4.526571 7.358392 1.439597 0.908210 0.003577 0.002356 -659109.000000 1 0 0
11.466545 -3.719928 3.401271 12.525500 -0.313703 1.295796 0.014835 -0.007871 -1924260.000000 1 0 0
1.842245 -8.177928 11.851271 14.516370 -1.349225 0.615634 -0.003942 0.000565 344693.000000 1 0 0
9.510545 -5.909728 -5.912729 12.662374 -0.555997 2.056638 0.011432 -0.010762 -678253.000000 1 0 0
3.190345 6.308172 -0.118629 7.070035 1.102561 1.587576 -0.004366 0.003202 -1858620.000000 1 0 0
6.549445 -1.245828 11.401171 13.207347 -0.187973 0.529134 0.007087 -0.001276 403953.000000 1 0 0
-4.853755 -7.532528 -3.815529 9.739414 0.998387 1.973342 0.012833 -0.003223 -64478.300000 1 0 0
-3.496155 -8.535628 -5.758429 10.873802 1.182045 2.128889 0.009454 -0.002234 84227.800000 1 0 0
9.704445 5.349772 2.100871 11.278739 0.503818 1.383434 0.005308 -0.004222 -683073.000000 1 0 0
8.877245 -1.359228 0.359271 8.987884 -0.151934 1.530813 0.004128 -0.003042 994004.000000 1 0 0
-3.971255 9.605772 9.167171 13.859247 -1.178771 0.848049 0.001948 -0.003349 265088.000000 1 0 0
-14.382255 -3.674628 -5.961629 15.996662 0.250146 1.952691 0.012061 -0.004297 -1485030.000000 1 0 0
10.603645 6.318672 -6.056529 13.749343 0.537397 2.026947 0.001167 0.001535 267886.000000 1 0 0
-1.815555 4.582572 2.567171 5.557569 -1.193581 1.090634 0.005340 0.000704 256802.000000 1 0 0
6.936745 -3.742428 2.687971 8.327628 -0.494752 1.242134 0.007864 -0.005270 -1922570.000000 1 0 0
8.440445 -11.220628 -1.588529 14.130359 -0.925872 1.683454 0.017036 -0.009321 371614.000000 1 0 0
4.538745 0.373372 1.828671 4.907509 0.082078 1.188958 0.005312 0.000333 51706.600000 1 0 0
-10.966155 2.294872 3.693771 11.796904 -0.206292 1.252327 -0.000898 -0.002888 -189833.000000 1 0 0
-0.948455 -3.019628 4.360471 5.388082 1.266458 0.627870 0.008124 -0.000392 510645.000000 1 0 0
8.747645 -8.692628 -8.411929 14.927948 -0.782244 2.169415 0.008289 -0.003131 -764853.000000 1 0 0
12.060845 -4.741328 1.047671 13.001607 -0.374559 1.490129 0.011093 -0.006136 709266.000000 1 0 0
2.870945 4.835372 3.473571 6.609753 1.034994 1.017468 -0.001528 0.000088 -444040.000000 1 0 0
6.155045 7.492572 1.995971 9.899854 0.883091 1.367789 0.001089 0.000038 -203957.000000 1 0 0
-1.523155 -1.400028 -10.395829 10.599686 0.743302 2.945153 0.010734 -0.008152 331982.000000 1 0 0
-1.049855 -8.609628 6.069371 10.586083 1.449456 0.960226 0.001670 0.000484 1137520.000000 1 0 0
-4.319855 -0.260228 2.304571 4.903052 0.060167 1.081474 0.003931 -0.000815 426130.000000 1 0 0
-8.517255 6.131472 -8.096329 13.254778 -0.623949 2.227897 -0.001507 -0.003920 -1034670.000000 1 0 0
6.235245 11.334572 -9.470629 16.032580 1.067870 2.202737 0.007816 -0.008410 -4650.740000 1 0 0
-11.129055 -5.823828 3.085571 12.934203 0.482113 1.329915 0.004604 0.000033 649357.000000 1 0 0
1.476745 -6.282728 3.061371 7.143210 -1.339939 1.127886 0.008520 -0.001003 813038.000000 1 0 0
10.140145 2.199272 7.123871 12.586058 0.213580 0.969135 0.003571 -0.003031 -1669540.000000 1 0 0
-3.960655 -2.427228 -10.578529 11.553506 0.549804 2.727824 0.010789 -0.006844 -1057780.000000 1 0 0
-8.375055 11.720172 5.828071 15.539317 -0.950349 1.186342 0.009501 -0.007884 -686784.000000 1 0 0
6.871645 5.924772 -3.026329 9.564575 0.711538 1.892739 -0.000040 0.001892 -4270120.000000 1 0 0
3.927545 -9.857328 -2.275529 10.852215 -1.191636 1.782047 0.007881 -0.005345 -545428.000000 1 0 0
8.698545 -12.772928 -7.346529 17.110928 -0.972927 2.014566 0.012835 -0.007176 168713.000000 1 0 0
-1.215855 9.453372 3.676071 10.215578 -1.442883 1.202690 0.001566 0.002066 -164490.000000 1 0 0
0.611545 -13.174928 4.804771 14.037042 -1.524412 1.221441 0.016345 -0.005904 -877647.000000 1 0 0
-11.280855 -7.117528 -5.038629 14.258495 0.562858 1.931975 0.013707 -0.008935 -256632.000000 1 0 0
3.548745 10.306472 -3.371929 11.409945 1.239189 1.870802 0.001907 -0.003192 -333152.000000 1 0 0
11.621845 -7.995528 -7.323329 15.894241 -0.602609 2.049640 0.031164 -0.010593 366793.000000 1 0 0
11.723645 -4.624328 -5.824229 13.883440 -0.375708 2.003701 0.021420 -0.012660 220144.000000 1 0 0
1.351845 -10.301528 -2.612729 10.713325 -1.440314 1.817157 0.005912 -0.001460 -1092880.000000 1 0 0
2.390245 -12.007328 -3.813429 12.823083 -1.374299 1.872752 0.007493 -0.002070 -1020690.000000 1 0 0
-7.640755 -5.815928 7.210771 12.008388 0.650613 0.926698 0.004130 0.002141 -2565490.000000 1 0 0
-7.215755 -0.908928 9.491571 11.957558 0.125304 0.653811 0.003458 -0.003279 275955.000000 1 0 0
16.094245 2.610172 -7.623729 17.998860 0.160781 2.008176 0.048928 0.004466 -160537.000000 1 0 0
-2.036255 6.305972 -5.606529 8.680137 -1.258457 2.273002 0.006129 -0.003952 639262.000000 1 0 0
7.665745 1.260972 8.392971 11.436593 0.163034 0.746795 0.004836 -0.004568 -204493.000000 1 0 0
7.861345 8.268972 -3.788329 12.021983 0.810664 1.891376 0.001579 0.001903 -800620.000000 1 0 0
8.059545 0.660672 3.890071 8.973595 0.081791 1.122421 0.001360 -0.004144 1267740.000000 1 0 0
-7.010755 5.823172 5.343371 10.564640 -0.693126 1.040512 0.008810 -0.005675 -241363.000000 1 0 0
-5.984255 -2.171828 -4.610329 7.860234 0.348141 2.197575 0.012433 -0.004661 -414513.000000 1 0 0
-15.080355 -2.124928 3.173671 15.556498 0.139985 1.365345 0.003890 -0.006076 -390155.000000 1 0 0
1.230545 1.222572 -10.492529 10.634947 0.782148 2.977755 0.007059 -0.009064 250969.000000 1 0 0
1.572145 -9.274128 9.506371 13.373563 -1.402873 0.780114 0.003590 -0.001561 -1220580.000000 1 0 0
-0.038355 -6.787828 -1.168129 6.887715 1.565146 1.741216 0.007023 -0.000265 431630.000000 1 0 0
-0.351055 -10.185028 -8.376529 13.191827 1.536342 2.258777 -0.000847 0.001304 -607127.000000 1 0 0
-4.417455 6.514272 3.800471 8.740322 -0.974907 1.120957 0.006437 -0.001249 38421.000000 1 0 0
10.737245 -1.229128 -8.557829 13.785341 -0.113977 2.240549 0.013726 -0.002468 26466.300000 1 0 0
3.023245 -1.140528 6.288171 7.069788 -0.360745 0.474672 0.003210 0.000186 429881.000000 1 0 0
2.159145 -12.349228 6.787571 14.256103 -1.397705 1.074563 0.006188 -0.002806 553856.000000 1 0 0
2.862845 -4.949128 -1.254229 5.853447 -1.046370 1.786743 0.012753 -0.003260 -1043300.000000 1 0 0
-1.125155 9.470172 -1.722629 9.691108 -1.452540 1.749500 0.002167 -0.002573 645277.000000 1 0 0
4.514845 -2.655528 2.555571 5.828087 -0.531681 1.116876 0.006628 -0.001261 -1421650.000000 1 0 0
17.687245 6.532972 -2.666929 19.042869 0.353817 1.711307 0.010869 0.002070 -93162.400000 1 0 0
-7.223255 3.589172 -5.442329 9.730186 -0.461157 2.164367 0.003581 -0.006052 318709.000000 1 0 0
-13.888055 -6.055128 2.411671 15.341409 0.411147 1.412941 0.000430 -0.002744 246339.000000 1 0 0
6.713045 -6.121528 3.280371 9.659136 -0.739343 1.224291 0.007188 -0.005333 287266.000000 1 0 0
-4.617555 2.069572 3.463771 6.132100 -0.421353 0.970534 0.005802 -0.002509 790347.000000 1 0 0
7.062045 -12.077828 -5.338429 14.974820 -1.041694 1.935309 0.018968 -0.007361 1377560.000000 1 0 0
3.080645 -12.347028 3.312771 13.149674 -1.326284 1.316124 0.009664 -0.005917 446081.000000 1 0 0
3.202545 11.273572 -6.101929 13.212995 1.294012 2.050834 -0.002854 -0.001524 -1083280.000000 1 0 0
-5.518855 -8.458628 6.527771 12.025720 0.992699 0.997008 0.004742 0.001964 190027.000000 1 0 0
-3.934955 6.547972 6.433771 9.987653 -1.029684 0.870855 0.010750 -0.001622 335353.000000 1 0 0
4.254045 4.331372 -6.993029 9.260677 0.794405 2.426651 -0.000315 -0.000547 -2321180.000000 1 0 0
-0.312155 -2.684828 1.622471 3.152484 1.455050 1.030180 0.006396 -0.000496 669474.000000 1 0 0
-13.233155 -1.007428 6.570071 14.808685 0.075983 1.111114 0.004550 0.000683 24620.700000 1 0 0
-0.444355 -9.256028 -5.928529 11.000862 1.522826 2.139945 0.000650 0.000237 325312.000000 1 0 0
2.124245 -1.587428 -3.945629 4.753981 -0.641765 2.549838 0.001735 -0.002670 -1879760.000000 1 0 0
11.368745 -1.947728 1.126171 11.589231 -0.169676 1.473469 0.010800 -0.006957 128358.000000 1 0 0
0.501145 -4.249928 -1.886729 4.676835 -1.453420 1.986048 0.007145 -0.001790 -1379350.000000 1 0 0
1.139645 -7.484028 -11.257729 13.566353 -1.419680 2.549594 -0.009608 0.002136 -1320710.000000 1 0 0
-4.491055 4.142272 -10.088929 11.794680 -0.745020 2.597080 0.010009 -0.007394 259151.000000 1 0 0
-0.985355 5.694872 -2.063929 6.136961 -1.399468 1.913794 0.003164 -0.001195 -747321.000000 1 0 0
-11.434655 1.646972 -3.949929 12.209250 -0.143050 1.900243 0.000692 -0.000005 -800590.000000 1 0 0
-1.766255 -11.315328 4.294371 12.231024 1.415952 1.212046 0.013180 -0.004323 -673384.000000 1 0 0
-3.535055 -5.436028 -9.740729 11.701659 0.994209 2.554262 0.006154 -0.003258 -1538480.000000 1 0 0
-12.986855 -3.809928 -8.332929 15.893762 0.285361 2.122677 0.018308 -0.002791 -2873.800000 1 0 0
11.493045 4.509572 0.541171 12.357960 0.373915 1.526991 0.009685 -0.000006 443943.000000 1 0 0
-8.852255 -2.443528 -3.062629 9.680545 0.269328 1.892696 0.006179 -0.002543 388756.000000 1 0 0
-2.599655 -6.013328 -6.365729 9.134596 1.162746 2.341836 0.005450 -0.003130 -229270.000000 1 0 0
-0.062755 2.727072 -1.926429 3.339459 -1.547788 2.185686 0.004322 -0.001790 366053.000000 1 0 0
8.009945 6.062472 -5.229729 11.325319 0.647882 2.050790 -0.000101 0.002408 -825787.000000 1 0 0
-9.818555 -0.945428 -1.006529 9.915189 0.095994 1.672485 -0.000492 -0.001005 -330138.000000 1 0 0
6.224345 0.536972 -8.883929 10.860709 0.086056 2.528701 -0.001507 -0.001522 360585.000000 1 0 0
-4.190355 2.659572 7.798771 9.244091 -0.565536 0.566752 0.005739 -0.001813 -801497.000000 1 0 0
-10.185755 -3.369028 1.490871 10.831558 0.319432 1.432717 -0.001226 -0.000267 2173060.000000 1 0 0
-1.778655 -8.106828 -7.766929 11.367034 1.354816 2.323049 0.001335 -0.003092 479073.000000 1 0 0
-9.331155 -9.844828 4.176071 14.192627 0.812179 1.272134 0.006722 -0.001144 -286877.000000 1 0 0
-1.053355 -10.785228 7.405571 13.125288 1.473439 0.971306 0.010428 -0.001562 343341.000000 1 0 0
9.345645 3.791172 -3.768529 10.766423 0.385378 1.928395 0.002623 0.003042 -904762.000000 1 0 0
12.901745 -0.712628 2.979271 13.260427 -0.055179 1.344188 0.012608 -0.005359 -721267.000000 1 0 0
6.365345 11.930172 -6.846429 15.156523 1.080670 2.039483 0.007211 -0.006504 45739.600000 1 0 0
-11.832855 -0.155228 -6.495729 13.499447 0.013118 2.072802 0.001404 0.001540 567889.000000 1 0 0
-7.598955 -6.542928 -11.438929 15.211941 0.710863 2.421842 0.023393 -0.006709 -51100.000000 1 0 0
4.090545 6.122872 6.527571 9.840289 0.981819 0.845508 -0.001725 -0.000831 -2770410.000000 1 0 0
-4.257155 -1.486328 -7.428629 8.690056 0.335905 2.596044 0.010990 -0.009263 -731941.000000 1 0 0
9.535045 9.359772 0.777971 13.383857 0.776122 1.512636 0.011373 -0.002557 -1012130.000000 1 0 0
-8.991055 3.917772 4.877771 10.953568 -0.410933 1.109272 0.003071 -0.004177 3486730.000000 1 0 0
-6.979055 7.925172 -12.263029 16.183246 -0.848793 2.430671 -0.002314 -0.004243 -853744.000000 1 0 0
11.229145 -3.548628 7.303871 13.857597 -0.306088 1.015652 0.014325 -0.007229 1308480.000000 1 0 0
11.932945 6.965472 6.215871 15.150908 0.528361 1.148053 0.007345 -0.006682 195644.000000 1 0 0
-9.986555 -0.689628 -14.888929 17.941212 0.068946 2.549677 0.010604 0.002800 -28627.600000 1 0 0
1.805945 -13.059128 12.097171 17.892563 -1.433378 0.828339 0.005261 0.000891 407288.000000 1 0 0
2.877645 3.129772 12.974071 13.652942 0.827343 0.316673 0.006331 -0.009724 -633539.000000 1 0 0
-2.626155 -1.380828 10.981071 11.374854 0.484073 0.263895 0.009469 -0.002658 -411520.000000 1 0 0
2.536045 -10.166128 -8.141429 13.268932 -1.326326 2.231371 -0.003154 0.001517 -1073890.000000 1 0 0
13.818045 3.598072 -7.536329 16.145610 0.254733 2.056434 0.011256 0.003578 -4063000.000000 1 0 0
7.512245 -1.493328 4.961571 9.125844 -0.196228 0.995977 0.003788 -0.004284 69883.100000 1 0 0
-1.166555 8.778372 10.118171 13.446116 -1.438681 0.718950 -0.001637 -0.004989 -81031.200000 1 0 0
-12.270955 -4.721128 0.972071 13.183714 0.367282 1.496997 0.001630 -0.001619 38298.800000 1 0 0
-4.994355 4.933972 -5.381229 8.845637 -0.779316 2.224774 0.008413 -0.005208 -508699.000000 1 0 0
-11.223355 0.365272 1.844271 11.379739 -0.032534 1.408012 -0.005694 -0.002655 -2256280.000000 1 0 0
-1.284055 2.181872 -4.153229 4.864018 -1.038868 2.594168 0.007165 -0.004618 921154.000000 1 0 0
3.293545 -9.816728 13.170671 16.753572 -1.247094 0.666256 -0.000829 0.000471 -1736790.000000 1 0 0
8.798745 4.742672 -1.496829 10.106995 0.494372 1.719441 0.000686 -0.000787 -1140800.000000 1 0 0
4.131545 2.306772 3.694071 6.003084 0.509217 0.907951 -0.001758 0.000818 -287372.000000 1 0 0
-5.368555 -3.216528 7.617871 9.858975 0.539789 0.687738 0.003246 -0.000280 -97950.000000 1 0 0
1.852445 -5.858828 7.757371 9.896172 -1.264562 0.669913 0.003434 -0.000236 -1937050.000000 1 0 0
-5.890555 -6.255328 -9.778529 13.017197 0.815422 2.420676 0.012928 -0.006883 -413821.000000 1 0 0
-11.676055 -5.813528 5.473071 14.145030 0.461968 1.173501 0.006009 -0.000491 -896585.000000 1 0 0
10.622445 6.222572 4.342871 13.054396 0.529909 1.231658 -0.001000 -0.002467 -1383310.000000 1 0 0
1.462245 -3.755328 0.428071 4.052641 -1.199480 1.464971 0.013133 -0.001180 -585934.000000 1 0 0
8.811045 4.309572 6.865571 11.972593 0.454898 0.960097 0.001091 -0.001437 555282.000000 1 0 0
-7.954255 12.004272 3.442071 14.806099 -0.985601 1.336173 0.005897 -0.008049 179301.000000 1 0 0
-6.381755 13.259972 -7.028429 16.308049 -1.122237 2.016374 0.019922 -0.006203 357106.000000 1 0 0
4.525745 -6.890128 -1.004429 8.304524 -0.989624 1.692043 0.010914 -0.006010 -2164160.000000 1 0 0
-1.809855 -8.228628 11.182771 14.001438 1.354297 0.645686 -0.000912 -0.002245 300934.000000 1 0 0
11.436445 8.943272 -5.836429 15.647309 0.663667 1.953035 0.029546 -0.007424 490076.000000 1 0 0
-3.337555 -2.952728 -1.881529 4.837151 0.724296 1.970315 0.010120 -0.002989 -1290460.000000 1 0 0
-2.102055 5.958372 4.788671 7.927938 -1.231638 0.922255 0.007513 -0.001228 -544200.000000 1 0 0
0.356045 -11.459328 -5.552829 12.738795 -1.539736 2.021833 0.000807 -0.002607 -848908.000000 1 0 0
-8.873655 6.284072 -1.522429 10.979486 -0.616189 1.709906 0.006036 -0.002924 -976105.000000 1 0 0
2.936945 -0.070228 3.957871 4.929028 -0.023908 0.638532 0.003610 -0.000563 1270120.000000 1 0 0
-10.137455 4.006872 -1.124829 10.958479 -0.376408 1.673622 0.002526 -0.000554 -204661.000000 1 0 0
6.517245 5.566172 13.448371 15.947270 0.706851 0.567398 0.021295 -0.011529 -263028.000000 1 0 0
-8.698155 -1.564628 5.635171 10.481465 0.177977 1.003170 -0.002882 -0.001756 -393856.000000 1 0 0
12.929645 -1.800228 -1.446929 13.134312 -0.138343 1.681184 0.015181 -0.006083 -2730730.000000 1 0 0
5.301945 -5.637028 5.495671 9.491528 -0.816021 0.953285 0.004669 -0.003096 326783.000000 1 0 0
-9.061955 -1.249728 3.132171 9.669092 0.137045 1.240909 -0.003379 -0.002858 857336.000000 1 0 0
2.017845 5.458472 5.584371 8.065470 1.216705 0.806014 0.000449 -0.001306 -1452750.000000 1 0 0
9.219545 3.093272 -7.398729 12.219228 0.323710 2.221189 -0.000743 0.001517 -1025880.000000 1 0 0
2.358945 -2.391328 -1.512429 3.683818 -0.792215 1.993865 0.007004 -0.002325 -104664.000000 1 0 0
-6.302855 0.240472 -4.014829 7.476808 -0.038134 2.137639 0.003410 -0.000518 -1938310.000000 1 0 0
-4.120955 4.228672 5.047471 7.767940 -0.798298 0.863498 0.008347 -0.001407 1124190.000000 1 0 0
-6.432355 1.792072 -12.410629 14.092921 -0.271713 2.647984 0.007008 -0.005247 -2585180.000000 1 0 0
-0.081355 3.095972 6.282371 7.004273 -1.544525 0.458010 0.004713 -0.002143 1385740.000000 1 0 0
-8.925655 9.326772 -2.112629 13.081253 -0.807371 1.733007 0.007440 -0.001836 54925.000000 1 0 0
-1.392955 -3.648928 -6.164229 7.297446 1.206127 2.576820 0.004651 -0.002951 604826.000000 1 0 0
-3.351955 6.933772 -2.986229 8.260167 -1.120497 1.940696 0.006300 -0.000008 1785150.000000 1 0 0
7.071645 -0.473328 -4.356429 8.319295 -0.066834 2.121930 0.003054 -0.002869 -266144.000000 1 0 0
-5.077155 -10.932328 6.911371 13.894616 1.136018 1.050182 0.004449 -0.001136 1421240.000000 1 0 0
9.694745 8.436472 -1.529129 12.942193 0.716111 1.689224 0.007784 -0.000321 -387866.000000 1 0 0
13.734745 4.821872 -4.202529 15.151070 0.337629 1.851857 0.007081 0.001958 788010.000000 1 0 0
4.684545 1.108872 -6.947429 8.452297 0.232430 2.535636 -0.002740 -0.002906 113198.000000 1 0 0
9.013045 -4.716228 3.561071 10.777709 -0.482087 1.234058 0.007553 -0.006593 -1010690.000000 1 0 0
-8.748655 -3.313228 -0.730829 9.383526 0.362022 1.648760 0.003084 -0.002189 485783.000000 1 0 0
-8.553955 -4.206328 -10.460229 14.152023 0.457018 2.402579 0.011052 -0.007020 -260639.000000 1 0 0
10.576645 -1.090128 10.634271 15.038002 -0.102707 0.785323 0.019703 -0.004350 757518.000000 1 0 0
2.221345 -11.635528 9.931171 15.457945 -1.382156 0.873087 0.003387 0.000181 181950.000000 1 0 0
-6.352955 -10.700828 1.974871 12.600313 1.035031 1.413416 0.009856 0.001644 -694970.000000 1 0 0
-3.677655 -1.374628 6.645471 7.718616 0.357699 0.533629 0.005032 -0.001005 -2394370.000000 1 0 0
4.772945 -7.648528 3.962071 9.847791 -1.012892 1.156735 0.005909 -0.001500 510354.000000 1 0 0
11.699345 -9.442528 -5.253229 15.925842 -0.679055 1.906947 0.019247 -0.010811 -3334.510000 1 0 0
11.446545 1.205372 11.360471 16.172093 0.104918 0.791929 0.036393 -0.006534 -8151.690000 1 0 0
-10.165155 -3.456928 4.399671 11.603355 0.327807 1.181895 -0.001599 0.002389 1619990.000000 1 0 0
1.998945 8.760772 8.952971 12.684738 1.346467 0.787235 0.000582 -0.000073 -521743.000000 1 0 0
6.573845 8.854272 4.103971 11.766739 0.932145 1.214530 0.000670 0.000552 675503.000000 1 0 0
-4.323455 3.585172 0.416271 5.631962 -0.692316 1.496817 0.008337 -0.002864 -1086920.000000 1 0 0
4.881145 6.946572 4.212671 9.477712 0.958281 1.110201 -0.000567 0.000100 -717732.000000 1 0 0
-8.299655 13.289172 1.171871 15.711768 -1.012526 1.496141 0.007739 0.004093 45629.000000 1 0 0
8.787045 8.261672 -9.140429 15.133236 0.754592 2.219303 0.002792 -0.004244 -87232.000000 1 0 0
7.214145 1.978872 6.041871 9.615821 0.267719 0.891397 0.000348 -0.002923 -1672920.000000 1 0 0
11.610445 -6.189928 3.141471 13.527250 -0.489803 1.336424 0.012874 -0.006633 430417.000000 1 0 0
11.325645 4.707872 -2.146529 12.451581 0.393952 1.744052 0.008511 -0.000645 -153382.000000 1 0 0
-4.107955 14.252772 -5.962429 15.986474 -1.290180 1.953001 0.005876 0.001774 -1118960.000000 1 0 0
7.258945 -3.023828 6.943571 10.490424 -0.394705 0.847451 0.005262 -0.003254 -644523.000000 1 0 0
-8.068455 -0.452628 0.844271 8.125124 0.056040 1.466700 -0.001763 -0.001037 -3723.100000 1 0 0
-3.257655 1.111872 10.619871 11.163791 -0.328913 0.313441 0.005613 -0.000230 -207337.000000 1 0 0
7.143945 -1.238628 -1.863829 7.486254 -0.171675 1.822410 0.005517 -0.003567 -1674300.000000 1 0 0
-7.849655 5.340372 2.948471 9.941335 -0.597404 1.269679 0.004242 -0.002674 897312.000000 1 0 0
9.543745 -2.146528 2.942771 10.215212 -0.221233 1.278578 0.005104 -0.005293 -1352830.000000 1 0 0
0.211245 3.425172 1.593271 3.783508 1.509200 1.136128 0.002575 0.001352 -3064030.000000 1 0 0
-7.511755 -3.060528 3.979571 9.034948 0.386897 1.114681 -0.003229 0.001495 -1881280.000000 1 0 0
-2.230455 8.373772 -6.807329 11.019742 -1.310478 2.236661 0.003397 -0.004561 -775662.000000 1 0 0
4.453045 9.791772 7.327371 13.015328 1.143979 0.972809 0.001630 0.004946 1526340.000000 1 0 0
-11.752655 -3.124828 6.793471 13.929849 0.259870 1.061353 0.008548 -0.005829 -293525.000000 1 0 0
-4.905455 2.350272 -5.776029 7.934090 -0.446800 2.386199 0.010168 -0.007184 -1159720.000000 1 0 0
-2.797155 2.945072 -1.945929 4.503794 -0.811152 2.017577 0.006252 -0.000791 2032480.000000 1 0 0
2.282545 5.263372 11.372471 12.737589 1.161609 0.467212 0.005110 -0.011461 442219.000000 1 0 0
-0.629755 1.621872 4.597971 4.916136 -1.200426 0.361743 0.005482 -0.000638 39913.400000 1 0 0
5.128445 1.654972 7.549171 9.275228 0.312154 0.619951 0.000709 -0.002974 957212.000000 1 0 0
3.485045 -8.069828 1.953171 9.004585 -1.163129 1.352150 0.008393 -0.001500 2348250.000000 1 0 0
4.982745 6.391872 -4.729629 9.383664 0.908654 2.099052 -0.000417 0.000453 -1706020.000000 1 0 0
-4.037655 2.959472 -8.028129 9.461078 -0.632511 2.584022 0.016181 -0.011895 612579.000000 1 0 0
-8.753355 -2.105328 -13.011829 15.822811 0.236034 2.536319 0.012038 -0.000475 -2014430.000000 1 0 0
-7.879855 8.172972 1.411771 11.440397 -0.803656 1.447079 0.006793 -0.001299 -3212620.000000 1 0 0
7.385445 0.909272 -6.575529 9.930214 0.122500 2.294513 -0.000923 -0.001136 579925.000000 1 0 0
9.010345 8.974672 5.462571 13.840908 0.783415 1.165089 -0.001438 0.002155 466773.000000 1 0 0
9.457145 -1.064228 -1.340129 9.610729 -0.112060 1.710693 0.005505 -0.003645 1274230.000000 1 0 0
5.458145 0.096772 4.297371 6.947525 0.017728 0.903904 0.001035 -0.000101 -1176000.000000 1 0 0
-4.168855 -7.247628 -8.016129 11.582996 1.048810 2.335135 0.014188 -0.008199 -198907.000000 1 0 0
-2.215455 7.364572 -0.601929 7.714109 -1.278582 1.648905 0.005306 -0.001723 499045.000000 1 0 0
13.362345 -3.281328 -7.421229 15.633106 -0.240801 2.065434 0.028452 -0.006410 1122940.000000 1 0 0
-4.760555 -5.132128 1.569271 7.173858 0.822941 1.350265 0.004215 -0.000158 2369110.000000 1 0 0
-8.958855 1.315272 2.560671 9.409998 -0.145771 1.295198 -0.002578 -0.001426 -525600.000000 1 0 0
-1.076455 11.167272 10.146471 15.126717 -1.474699 0.835557 -0.007065 -0.004612 462217.000000 1 0 0
-8.532155 0.295472 7.499971 11.363738 -0.034617 0.849989 -0.002968 -0.001997 -277754.000000 1 0 0
-6.022155 12.925872 -2.194829 14.427813 -1.134799 1.723514 0.001859 0.001395 577041.000000 1 0 0
-12.813855 -0.895128 3.285571 13.258624 0.069743 1.320381 -0.004801 -0.003640 162170.000000 1 0 0
-6.654355 12.720872 8.731771 16.803120 -1.088836 1.024353 0.017105 -0.013868 129135.000000 1 0 0
-8.093355 1.027072 -14.133329 16.318954 -0.126228 2.618080 -0.001189 -0.002316 -211042.000000 1 0 0
7.242445 2.920672 3.724971 8.652094 0.383323 1.125718 -0.000393 -0.000018 -1080530.000000 1 0 0
-1.678455 0.638772 -2.046729 2.722929 -0.363646 2.421379 0.008020 -0.003542 574950.000000 1 0 0
-6.263555 9.645972 -10.350129 15.472623 -0.994882 2.303567 0.003756 -0.003936 -88614.000000 1 0 0
-10.210055 13.617872 5.299071 17.826155 -0.927453 1.268971 0.008172 -0.009269 716443.000000 1 0 0
-5.733655 8.276472 2.418971 10.355009 -0.964942 1.335014 0.005077 -0.002778 -1312620.000000 1 0 0
-2.415755 -10.761628 -1.162129 11.090494 1.349978 1.675775 0.009613 -0.002360 -112701.000000 1 0 0
-2.196655 -12.356028 8.971871 15.426963 1.394855 0.950138 0.006442 -0.003840 389032.000000 1 0 0
-14.629055 -6.514628 -1.517929 16.085825 0.418956 1.665301 0.011157 -0.004888 274676.000000 1 0 0
-2.753555 -9.512528 3.450471 10.486945 1.289031 1.235525 0.008354 -0.001570 -2565940.000000 1 0 0
4.800245 -2.593928 7.507771 9.281026 -0.495423 0.628454 0.004208 0.000396 -1168990.000000 1 0 0
-14.992155 -1.431728 -0.257329 15.062562 0.095210 1.587881 -0.005125 -0.006493 -71651.700000 1 0 0
5.420045 8.707772 -2.857329 10.647371 1.014042 1.842487 0.000872 -0.000563 -249316.000000 1 0 0
-5.535455 -5.751628 8.499871 11.660630 0.804548 0.754028 0.002654 0.001354 -2741450.000000 1 0 0
3.528845 3.641572 6.951371 8.604379 0.801118 0.630238 0.000892 -0.001767 -366556.000000 1 0 0
3.354345 2.495072 9.280571 10.178703 0.639542 0.423239 0.005637 -0.007314 -1272450.000000 1 0 0
9.963045 -3.311028 5.280071 11.751779 -0.320848 1.104815 0.013247 -0.008758 -449788.000000 1 0 0
6.387845 9.940372 -5.099329 12.869293 0.999629 1.978214 -0.000836 -0.002993 1097700.000000 1 0 0
-4.637355 11.987372 -8.547529 15.435751 -1.201674 2.157656 0.004855 -0.003395 -294506.000000 1 0 0
-3.299555 -7.321628 2.253671 8.341004 1.147395 1.297204 0.006382 -0.002105 1068640.000000 1 0 0
-7.493955 -4.063228 1.216871 8.611037 0.496836 1.429006 0.001582 -0.002102 2850480.000000 1 0 0
-1.980055 -3.982228 -10.883929 11.757495 1.109373 2.753682 0.006973 -0.004633 -587229.000000 1 0 0
-5.312455 8.237572 -4.446229 10.763304 -0.998011 1.996642 0.009420 -0.004501 -562816.000000 1 0 0
-10.989955 -3.359728 -10.147229 15.330791 0.296686 2.294128 0.013891 -0.001881 -1207430.000000 1 0 0
4.728545 -11.427028 -7.541129 14.484638 -1.178447 2.118384 0.005216 -0.003505 -830846.000000 1 0 0
-9.300555 -3.975928 7.202371 12.417024 0.403981 0.952019 0.003402 -0.000814 -362374.000000 1 0 0
-5.794355 -9.647228 -5.077329 12.345965 1.029918 1.994626 0.010481 -0.005564 118327.000000 1 0 0
4.819345 4.439772 -9.568729 11.597337 0.744427 2.541140 -0.000844 0.000310 276952.000000 1 0 0
-3.371255 -7.190328 -14.119929 16.199956 1.132370 2.629259 0.007840 -0.000184 165105.000000 1 0 0
0.764545 -0.838428 -8.862829 8.935168 -0.831457 3.014259 0.004125 -0.009535 -337810.000000 1 0 0
-7.759555 2.182572 -3.012429 8.605176 -0.274191 1.928444 0.002783 -0.001395 -405822.000000 1 0 0
-2.300255 7.472072 -12.596729 14.825674 -1.272156 2.586130 0.006160 -0.004439 -75217.700000 1 0 0
-9.971155 8.794272 7.462871 15.246560 -0.722765 1.059304 0.012307 -0.008702 -229317.000000 1 0 0
-10.587555 -3.039328 -14.505229 18.213608 0.279549 2.492107 0.021765 0.004595 -386192.000000 1 0 0
-3.156355 4.899972 7.959571 9.865448 -0.998539 0.632059 0.007338 -0.002799 -353044.000000 1 0 0
8.806945 -2.313228 -3.531629 9.766561 -0.256858 1.940784 0.006533 -0.004824 -4908480.000000 1 0 0
1.969645 -8.501528 -1.034829 8.787853 -1.343132 1.688827 0.008422 -0.001387 -343827.000000 1 0 0
-13.547055 -2.878028 5.045071 14.739691 0.209334 1.221456 0.014342 -0.008617 130820.000000 1 0 0
7.052945 2.668072 -1.967329 7.793139 0.361654 1.826001 0.000931 0.000699 1857150.000000 1 0 0
-11.236755 4.365972 8.854971 14.957837 -0.370591 0.937264 0.005364 -0.001993 -3583500.000000 1 0 0
-1.702155 -2.494728 8.011671 8.562002 0.972048 0.360490 0.006379 -0.002270 -608341.000000 1 0 0
2.879645 11.940072 -9.792929 15.708569 1.334141 2.243897 -0.002771 -0.007150 766084.000000 1 0 0
3.569445 -5.039128 -6.944529 9.293021 -0.954491 2.414762 -0.001504 -0.003536 -321454.000000 1 0 0
8.306045 -13.802928 -9.650729 18.778919 -1.029084 2.110536 0.012580 0.001062 157247.000000 1 0 0
-6.305955 -5.757528 -0.459529 8.551337 0.739968 1.624560 0.009273 -0.002466 -422408.000000 1 0 0
-1.080355 -3.996628 9.934671 10.762801 1.306789 0.394845 0.002874 -0.000852 1817500.000000 1 0 0
2.843345 3.311372 1.780071 4.713644 0.861296 1.183548 -0.001412 0.001898 -645405.000000 1 0 0
-9.148355 13.192072 7.781371 17.840204 -0.964464 1.119458 0.020017 -0.024691 923105.000000 1 0 0
4.098345 -11.046128 0.072671 11.782133 -1.215519 1.564628 0.011913 -0.006460 1085860.000000 1 0 0
-12.484255 -1.500728 -9.125029 15.536247 0.119636 2.198562 0.007191 0.000588 1218.040000 1 0 0
-4.283255 0.790372 -13.517329 14.201731 -0.182473 2.829876 0.014172 -0.007244 299958.000000 1 0 0
4.057945 -3.150628 4.930771 7.120806 -0.660190 0.805923 0.004431 0.001457 144761.000000 1 0 0
1.673845 -1.207128 1.166871 2.370760 -0.624794 1.056189 0.007546 -0.000554 -101119.000000 1 0 0
8.293645 -8.995928 7.360071 14.278722 -0.825995 1.029255 0.006387 0.000339 -1002660.000000 1 0 0
-0.106855 2.390372 -6.518929 6.944187 -1.526124 2.789812 0.005661 -0.007538 -122650.000000 1 0 0
-3.810855 -9.743228 -3.335229 10.980750 1.197961 1.879406 0.010225 -0.001596 407171.000000 1 0 0
-9.507055 2.212372 -5.491829 11.199950 -0.228639 2.083281 -0.001240 0.000449 -1049730.000000 1 0 0
9.095345 -7.508328 5.396071 12.969883 -0.690105 1.141703 0.007671 -0.003976 996710.000000 1 0 0
-5.546255 -4.413828 4.618771 8.460253 0.672188 0.993288 -0.000370 0.001280 -1042300.000000 1 0 0
-0.134255 -12.514028 10.489571 16.329422 1.560068 0.873206 0.005722 -0.001485 -1885540.000000 1 0 0
-14.251755 -8.344028 3.161571 16.814603 0.529670 1.381645 0.003802 -0.005207 -1303170.000000 1 0 0
10.959645 -1.233628 -3.557429 11.588397 -0.112089 1.882817 0.013104 -0.004028 -355995.000000 1 0 0
-13.641855 2.929472 2.634471 14.199382 -0.211529 1.384181 0.004329 -0.002530 -468739.000000 1 0 0
-6.430055 6.212472 0.933871 8.989579 -0.768189 1.466725 0.004923 -0.003161 1034600.000000 1 0 0
7.100545 -6.816728 -0.415929 9.851828 -0.765008 1.613027 0.007472 -0.007180 -357476.000000 1 0 0
-6.935455 7.643572 9.999971 14.370948 -0.833931 0.801199 0.009701 -0.003963 442818.000000 1 0 0
-12.681755 -5.126028 -1.926829 13.813608 0.384126 1.710740 0.002225 -0.003733 -2066750.000000 1 0 0
-9.476055 -5.627128 0.263971 11.024059 0.535867 1.546849 0.006320 -0.002263 -793490.000000 1 0 0
-1.834455 1.898372 2.238971 3.461507 -0.802519 0.867389 0.006173 0.000046 458532.000000 1 0 0
-7.150155 7.327572 7.536271 12.712726 -0.797652 0.936249 0.005678 -0.003927 269049.000000 1 0 0
5.565345 7.192772 -0.464029 9.106281 0.912273 1.621775 0.002292 0.000640 -1429340.000000 1 0 0
0.037145 -4.102928 7.540271 8.584351 -1.561743 0.498347 0.004646 -0.000491 -1036230.000000 1 0 0
6.424645 0.852372 12.992171 14.518922 0.131902 0.462715 0.015523 -0.006602 526581.000000 1 0 0
5.792845 6.145672 -7.966629 11.610061 0.814943 2.327025 -0.002505 0.000310 -211240.000000 1 0 0
9.943645 5.376072 8.877971 14.373468 0.495639 0.905028 0.002949 -0.008352 -3333230.000000 1 0 0
-1.237955 -5.030228 -8.481629 9.938499 1.329489 2.593292 0.004423 -0.005083 401721.000000 1 0 0
9.913645 -3.588328 -7.895329 13.171662 -0.347288 2.213570 0.015731 -0.009353 502468.000000 1 0 0
8.419345 -5.484628 1.291171 10.130826 -0.577381 1.442999 0.009462 -0.006568 1206700.000000 1 0 0
15.725345 3.246572 -5.132929 16.857451 0.203594 1.880200 0.012223 0.007440 -310895.000000 1 0 0
-6.966455 3.563772 1.092071 7.900923 -0.472854 1.432132 0.002889 -0.002153 179655.000000 1 0 0
-1.794255 3.693572 0.269471 4.115147 -1.118591 1.505267 0.005256 -0.002934 -1857900.000000 1 0 0
-2.728855 10.070872 6.923071 12.521901 -1.306185 0.984983 0.002285 0.000583 -122964.000000 1 0 0
5.435345 -5.576328 -8.781429 11.736776 -0.798201 2.416138 0.002497 -0.005509 2046310.000000 1 0 0
-1.210155 -0.875628 6.276371 6.451669 0.626368 0.233645 0.008096 -0.002599 -119434.000000 1 0 0
-5.728655 5.010872 -7.886029 10.959735 -0.718662 2.373944 0.006666 -0.005191 14315.800000 1 0 0
6.810245 -1.237928 2.575871 7.385595 -0.179811 1.214538 0.002992 -0.001295 -1162370.000000 1 0 0
8.823945 7.616372 3.239871 12.098259 0.712078 1.299691 0.002345 -0.001914 278980.000000 1 0 0
-5.293055 -4.907228 -7.744729 10.586697 0.747591 2.391393 0.016169 -0.009610 933402.000000 1 0 0
-2.225555 7.824572 -10.065629 12.941944 -1.293683 2.461879 0.005342 -0.003058 335122.000000 1 0 0
-2.918855 -2.344028 1.652671 4.092127 0.676607 1.155058 0.002539 0.002391 228823.000000 1 0 0
5.882245 -2.063728 -9.153729 11.074770 -0.337423 2.543727 0.000576 -0.001268 960794.000000 1 0 0
1.080045 -7.595828 5.167571 9.250238 -1.429554 0.978049 0.006885 0.000569 83409.800000 1 0 0
1.712645 11.787372 1.233471 11.974837 1.426511 1.467608 0.000871 -0.000881 172513.000000 1 0 0
-1.034855 7.069372 2.521471 7.576593 -1.425443 1.231528 0.002577 0.001265 403053.000000 1 0 0
8.608945 7.964672 -6.572529 13.444258 0.746544 2.081593 0.004677 -0.001097 -347253.000000 1 0 0
3.810745 -11.060728 5.501471 12.927787 -1.239003 1.131222 0.005656 0.000696 -370165.000000 1 0 0
8.064945 -7.100028 12.441171 16.438871 -0.721856 0.712371 0.020809 -0.005322 297885.000000 1 0 0
-8.869255 -0.017928 -3.925629 9.699205 0.002021 1.987488 0.001180 -0.001494 -61384.900000 1 0 0
-3.186255 -5.083428 11.196771 12.702801 1.010909 0.491891 0.007382 -0.002084 292776.000000 1 0 0
-8.318555 0.179372 -11.636729 14.305384 -0.021559 2.520857 0.000988 -0.003433 -1920810.000000 1 0 0
1.444745 -5.059128 5.407871 7.545007 -1.292628 0.771668 0.004591 0.001347 -442237.000000 1 0 0
6.661345 3.762872 -7.752829 10.892157 0.514197 2.362827 -0.002825 0.001129 -77988.800000 1 0 0
16.412745 4.159372 -1.207329 16.974575 0.248198 1.641982 0.014799 0.006509 1010560.000000 1 0 0
7.811845 7.655772 0.079871 10.938105 0.775308 1.563494 0.002784 -0.001494 -3823290.000000 1 0 0
5.502645 -10.337428 14.125671 18.348736 -1.081641 0.692199 -0.000421 0.002436 -166823.000000 1 0 0
-5.155055 -9.422128 9.077471 14.062417 1.070165 0.869102 0.003373 -0.000573 518275.000000 1 0 0
-12.630455 -3.217628 2.876871 13.347581 0.249446 1.353557 -0.003509 -0.001959 -36069.700000 1 0 0
-2.065955 -1.253928 -5.953329 6.425157 0.545513 2.755973 0.010414 -0.007230 -1344800.000000 1 0 0
-2.587755 12.923872 -4.356829 13.881819 -1.373179 1.890043 0.001764 0.003463 420943.000000 1 0 0
3.962645 -0.418828 -5.010029 6.401434 -0.105303 2.469695 0.001119 -0.002283 -325439.000000 1 0 0
-8.955255 3.767672 -7.448229 12.242061 -0.398241 2.224856 -0.002817 -0.001140 470654.000000 1 0 0
-4.574355 7.921172 -11.283529 14.525416 -1.047097 2.460385 0.004481 -0.003800 -1156130.000000 1 0 0
-10.066455 -6.509228 7.339771 14.056166 0.573999 1.021398 0.007313 -0.000008 -1357800.000000 1 0 0
8.046345 5.345372 4.013771 10.460737 0.586378 1.176998 0.000489 -0.002573 -1303230.000000 1 0 0
-6.617155 -7.609928 4.053171 10.868576 0.855066 1.188636 0.009035 -0.000405 -540162.000000 1 0 0
-4.125155 11.848872 8.134371 14.952613 -1.235773 0.995588 0.003063 -0.004325 -603669.000000 1 0 0
-7.335955 9.944872 -7.924429 14.680371 -0.935238 2.140993 0.008638 -0.008036 -2338700.000000 1 0 0
13.077245 5.499972 4.508271 14.885850 0.398117 1.263108 0.006572 -0.006575 203793.000000 1 0 0
5.374145 3.943172 -3.704629 7.625897 0.633007 2.078070 -0.000241 0.000955 287595.000000 1 0 0
-2.897255 -4.153628 5.072871 7.168036 0.961734 0.784549 0.002158 0.001728 -2059590.000000 1 0 0
12.542945 -2.223528 -5.238829 13.773702 -0.175451 1.960971 0.017198 -0.010001 -2074280.000000 1 0 0
-5.316655 9.734372 6.962471 13.095832 -1.070896 1.010242 0.003441 -0.001113 -359484.000000 1 0 0
1.719745 3.766772 -0.509829 4.172052 1.142503 1.693304 0.001449 0.000689 449365.000000 1 0 0
-0.152555 9.563172 7.741171 12.304603 -1.554845 0.890365 -0.002238 0.000122 -1146690.000000 1 0 0
-5.543555 2.044572 5.823571 8.296099 -0.353341 0.792644 0.006339 -0.002126 669607.000000 1 0 0
8.896345 0.955272 10.726371 13.968268 0.106968 0.695225 0.014272 -0.003885 -480750.000000 1 0 0
0.498045 -2.957528 -10.203129 10.634795 -1.403963 2.855699 0.001703 -0.004899 -2305710.000000 1 0 0
1.158345 10.604372 -2.776929 11.022967 1.461995 1.825462 -0.000074 -0.002062 -1647090.000000 1 0 0
2.454545 -4.277128 11.690371 12.687923 -1.049807 0.399186 0.005436 -0.000190 197119.000000 1 0 0
6.656845 -3.001428 9.419671 11.918572 -0.423584 0.659440 0.008265 -0.001309 655546.000000 1 0 0
-10.579455 -8.266628 5.712671 14.590978 0.663287 1.168513 0.008512 0.003821 -1147340.000000 1 0 0
-3.066955 0.836372 -6.916229 7.611830 -0.266231 2.710754 0.013586 -0.007699 679938.000000 1 0 0
11.000445 2.693172 -5.045429 12.398359 0.240101 1.989902 0.004479 0.002017 -3678520.000000 1 0 0
-2.033655 -4.048528 0.040271 4.530779 1.105295 1.561908 0.004607 -0.000497 830886.000000 1 0 0
-1.294055 -6.519428 -10.614029 12.523384 1.374851 2.582123 -0.000363 -0.001274 997265.000000 1 0 0
0.292445 6.823772 -6.622029 9.513183 1.527966 2.340733 0.004605 -0.003431 -2231920.000000 1 0 0
2.014045 3.798172 -6.223429 7.563964 1.083229 2.537070 0.001079 -0.002847 -2025460.000000 1 0 0
1.718545 -14.687928 6.542571 16.170772 -1.454322 1.154263 0.019818 -0.008818 -82675.400000 1 0 0
-1.714855 5.382372 -10.603129 12.014034 -1.262359 2.652080 0.010516 -0.005516 -411893.000000 1 0 0
13.665145 4.377072 -0.926929 14.378948 0.309983 1.635305 0.009825 -0.001573 1106490.000000 1 0 0
-2.500955 3.272872 -6.109329 7.368200 -0.918302 2.548378 0.010446 -0.007413 -1839470.000000 1 0 0
5.665545 7.897972 14.210571 17.216756 0.948526 0.599900 0.025748 -0.011062 767413.000000 1 0 0
15.948745 0.678072 -5.706029 16.952316 0.042490 1.914093 0.021887 0.003694 46057.900000 1 0 0
6.290945 -8.318628 10.740571 14.971153 -0.923309 0.770708 0.001891 0.005284 821958.000000 1 0 0
-0.089855 -5.881328 -6.300229 8.619222 1.555519 2.390511 0.001551 -0.003319 -1564970.000000 1 0 0
8.702945 5.589972 -7.575229 12.820808 0.570949 2.202914 -0.005740 0.002747 -103442.000000 1 0 0
-15.932155 -0.644528 5.307771 16.805398 0.040433 1.249457 0.024114 -0.016132 -334846.000000 1 0 0
-0.365355 3.988272 -12.360829 12.993456 -1.479444 2.828261 0.009497 -0.006586 458168.000000 1 0 0
-11.456655 3.626472 5.829971 13.356452 -0.306560 1.119102 0.003046 -0.005352 -738270.000000 1 0 0
5.172645 -9.728628 -9.484929 14.538444 -1.082117 2.281548 -0.005644 0.003443 -1100.200000 1 0 0
1.407845 11.129272 -11.606029 16.141333 1.444965 2.373195 -0.005040 -0.002112 -3263330.000000 1 0 0
5.887945 2.357072 1.271771 6.468468 0.380784 1.372896 0.001544 0.000845 -434069.000000 1 0 0
5.704245 4.588472 5.001671 8.866182 0.677416 0.971418 -0.002568 0.000481 830163.000000 1 0 0
0.417045 -1.538828 -6.393429 6.589223 -1.306139 2.897205 0.002217 -0.004619 -749724.000000 1 0 0
12.598745 6.955372 -4.620729 15.114784 0.504430 1.881480 0.012881 -0.002690 -1106640.000000 1 0 0
7.421845 3.336072 12.645671 15.037491 0.422433 0.571773 0.014365 -0.006468 -336093.000000 1 0 0
-2.528055 -0.201228 8.612071 8.977712 0.079431 0.286382 0.004984 -0.000940 752072.000000 1 0 0
2.352045 -15.360928 13.208371 20.394884 -1.418858 0.866324 0.009680 -0.002725 744423.000000 1 0 0
18.981045 4.438872 -1.721029 19.568995 0.229730 1.658857 0.029679 0.007376 445606.000000 1 0 0
-0.279055 -13.266328 7.327071 15.157813 1.549765 1.066278 0.009219 -0.005117 -891737.000000 1 0 0
4.319545 1.512572 -0.597429 4.615546 0.336826 1.700599 0.003292 0.000448 737666.000000 1 0 0
2.791045 -0.567528 -7.393229 7.922869 -0.200604 2.773876 -0.001006 -0.005238 -397067.000000 1 0 0
7.418245 -11.262828 0.875271 13.514724 -0.988365 1.505987 0.010235 -0.005983 490906.000000 1 0 0
-11.991455 -7.401228 1.323571 14.153622 0.552977 1.477145 0.002999 0.001220 219611.000000 1 0 0
0.227745 -7.090228 10.156671 12.388752 -1.538686 0.609682 0.000556 -0.000212 -1829580.000000 1 0 0
-4.670255 -7.166828 10.578171 13.604132 0.993263 0.680004 0.006654 0.000084 -598225.000000 1 0 0
11.803045 0.741872 -1.683529 11.945564 0.062772 1.712201 0.006930 -0.001418 437415.000000 1 0 0
6.631045 -9.608428 -7.364029 13.802955 -0.966727 2.133543 0.004563 -0.004121 386847.000000 1 0 0
-10.967855 4.842572 3.541471 12.501454 -0.415783 1.283579 -0.000111 -0.005121 172817.000000 1 0 0
6.129845 -9.059628 2.050171 11.129019 -0.975941 1.385520 0.009140 -0.004240 3747790.000000 1 0 0
11.587145 -1.344028 5.801671 13.027959 -0.115477 1.109260 0.016877 -0.009601 -196975.000000 1 0 0
-6.516155 3.601372 4.070871 8.485408 -0.504901 1.070427 0.002759 -0.001332 -2149490.000000 1 0 0
9.481845 6.295772 -3.296529 11.849440 0.586141 1.852717 0.003698 0.001547 465192.000000 1 0 0
-2.339855 6.630572 10.955571 13.017831 -1.231550 0.570591 0.000663 -0.006806 -499253.000000 1 0 0
1.829745 9.762672 2.917771 10.352348 1.385523 1.285078 -0.002292 0.000767 -145883.000000 1 0 0
2.764345 6.038172 -5.635729 8.709912 1.141465 2.274502 -0.000209 0.000260 -2538080.000000 1 0 0
11.925945 0.162472 -5.577829 13.166880 0.013623 2.008241 0.013077 0.000013 249170.000000 1 0 0
-2.548455 -12.698928 6.416771 14.454493 1.372744 1.110817 0.008340 -0.002279 -244873.000000 1 0 0
10.802745 1.855772 -2.766829 11.304801 0.170126 1.818056 0.003818 0.001465 262069.000000 1 0 0
-8.974255 5.287372 0.827671 10.448856 -0.532419 1.491502 0.000893 -0.002493 -252209.000000 1 0 0
1.187445 -10.225428 5.584871 11.711541 -1.455187 1.073707 0.008686 -0.000858 1853020.000000 1 0 0
9.394745 -5.765928 -1.199229 11.088071 -0.550461 1.679163 0.011137 -0.008487 65218.600000 1 0 0
-7.997255 8.491772 -4.411729 12.471152 -0.815380 1.932379 0.009920 -0.004333 -41990.900000 1 0 0
-7.508255 -0.044728 -1.735229 7.706291 0.005957 1.797914 0.000071 -0.001095 -1012850.000000 1 0 0
4.093945 8.859172 2.667571 10.117373 1.137914 1.303979 0.000945 -0.001284 975541.000000 1 0 0
-1.356155 -10.505128 -3.723429 11.227680 1.442412 1.908827 0.007789 -0.001299 -211312.000000 1 0 0
3.094145 7.815472 -3.715729 9.190319 1.193829 1.987020 0.001052 -0.002036 -518787.000000 1 0 0
-4.486755 1.782872 -11.099729 12.104280 -0.378231 2.731311 0.012635 -0.007212 -646804.000000 1 0 0
1.309945 2.830872 10.919971 11.356740 1.137402 0.278238 0.006212 -0.005751 660580.000000 1 0 0
2.088345 5.543372 -8.102829 10.037230 1.210511 2.510321 0.002055 -0.003144 -316320.000000 1 0 0
15.680245 6.050472 3.930571 17.260581 0.368263 1.341061 0.035006 -0.009666 1076000.000000 1 0 0
-4.528055 8.994972 4.584271 11.064734 -1.104434 1.143608 0.006832 -0.000400 99012.400000 1 0 0
-0.912955 -8.202928 -12.475729 14.958788 1.459956 2.557126 -0.007770 0.000263 298972.000000 1 0 0
14.365145 -4.168628 -5.251829 15.852967 -0.282433 1.908460 0.040271 -0.005524 1659060.000000 1 0 0
-6.052955 -6.263028 -5.648429 10.381163 0.802453 2.146117 0.016258 -0.005427 611921.000000 1 0 0
-8.948455 2.658072 -12.261529 15.410558 -0.288741 2.490889 -0.005379 -0.003962 -466268.000000 1 0 0
10.598645 5.361072 13.610071 18.063953 0.468298 0.717521 0.033574 -0.012860 734106.000000 1 0 0
-0.508155 10.801672 5.590671 12.173329 -1.523787 1.093639 -0.002195 0.005445 339515.000000 1 0 0
0.235145 11.205672 -0.616729 11.225093 1.549815 1.625766 0.000319 -0.000951 -186878.000000 1 0 0
-1.536255 -0.517228 3.776871 4.110031 0.324761 0.405413 0.006073 -0.000676 341813.000000 1 0 0
-4.853455 6.658272 8.854571 12.095124 -0.940913 0.749429 0.003432 -0.002495 -1543770.000000 1 0 0
3.459045 -8.873628 -11.230329 14.725032 -1.199104 2.438226 -0.008039 0.006272 1359430.000000 1 0 0
6.804945 -3.682928 11.979671 14.261267 -0.496072 0.573486 0.018488 -0.002021 -647648.000000 1 0 0
-2.398255 -1.960828 -12.586929 12.962533 0.685385 2.900275 0.008985 -0.006499 1098210.000000 1 0 0
-15.935055 -4.910128 5.212071 17.470004 0.298902 1.267839 0.021454 -0.014718 969915.000000 1 0 0
-9.058455 7.154772 5.783471 12.911038 -0.668518 1.106328 -0.001535 -0.003311 -3963130.000000 1 0 0
-12.830355 1.350272 5.987171 14.222780 -0.104854 1.136297 -0.004477 -0.002149 147477.000000 1 0 0
-3.682755 3.653772 10.104371 11.358303 -0.781448 0.474323 0.009325 -0.003101 425423.000000 1 0 0
2.060845 -12.342528 -1.113629 12.562852 -1.405352 1.659557 0.015753 -0.004494 -2180420.000000 1 0 0
10.263445 -5.073928 -3.602829 12.002642 -0.459133 1.875667 0.015866 -0.007503 396181.000000 1 0 0
3.361845 -13.483828 0.965571 13.930110 -1.326454 1.501425 0.015420 -0.005770 410118.000000 1 0 0
10.063845 -1.589328 -6.074329 11.861889 -0.156631 2.108410 0.010829 -0.005713 533143.000000 1 0 0
11.955345 -5.469628 -1.523829 13.235149 -0.429077 1.686187 0.019252 -0.007165 -285576.000000 1 0 0
1.532545 0.949372 5.961671 6.228284 0.554616 0.293652 0.005515 -0.002520 351187.000000 1 0 0
-10.794655 11.576972 6.566871 17.136938 -0.820353 1.177538 0.014178 -0.012258 -1111550.000000 1 0 0
4.946845 -14.064328 3.178871 15.244075 -1.232581 1.360723 0.013155 -0.007019 -2133480.000000 1 0 0
5.277245 -3.456828 -1.704229 6.534782 -0.579913 1.834640 0.007715 -0.004064 -1357920.000000 1 0 0
2.050045 -2.920728 -7.704929 8.491129 -0.958800 2.707874 -0.002132 -0.003547 -541350.000000 1 0 0
-2.883455 14.808372 -8.835929 17.483587 -1.378485 2.100624 0.005341 -0.000217 -730333.000000 1 0 0
-2.431555 6.024472 -8.163729 10.433273 -1.187179 2.469420 0.009654 -0.006353 -310134.000000 1 0 0
2.631345 -3.546328 -11.408229 12.233075 -0.932441 2.772271 -0.002566 0.001499 -1739320.000000 1 0 0
14.744645 2.814272 -2.829129 15.275099 0.188599 1.757084 0.018300 0.005867 857696.000000 1 0 0
-3.537855 13.061872 2.237171 13.716189 -1.306289 1.406960 -0.000545 0.002168 174169.000000 1 0 0
8.001345 -4.949828 13.982071 16.852911 -0.554002 0.592310 0.031612 -0.009485 -1207080.000000 1 0 0
-11.560855 7.282372 2.948571 13.977853 -0.562127 1.358254 -0.000721 -0.006433 936027.000000 1 0 0
-2.207755 11.962572 4.150471 12.853159 -1.388295 1.241989 0.001536 0.002065 -562057.000000 1 0 0
1.746845 1.474872 0.669171 2.382121 0.701179 1.286050 0.002216 0.000303 -1445460.000000 1 0 0
-6.980655 8.535572 5.277771 12.224582 -0.885277 1.124382 0.005923 -0.004913 -505482.000000 1 0 0
-1.308755 9.211772 1.026871 9.360771 -1.429667 1.460876 0.002585 0.001976 283528.000000 1 0 0
4.745345 13.053272 -8.398329 16.230777 1.222113 2.114644 0.014813 -0.016694 -2570220.000000 1 0 0
8.945345 6.903872 7.004071 13.294346 0.657298 1.015911 -0.000410 -0.003364 -1645450.000000 1 0 0
7.475945 -13.724228 3.014971 15.916477 -1.072011 1.380220 0.018650 -0.010753 -19619.600000 1 0 0
4.264145 -13.258828 -1.387129 13.996556 -1.259635 1.670064 0.012135 -0.004991 -2758190.000000 1 0 0
12.208345 -11.700428 -4.465929 17.489661 -0.764157 1.829003 0.017786 -0.007392 -1001050.000000 1 0 0
2.819445 0.014172 -1.912929 3.407164 0.005026 2.166925 0.004729 -0.003000 821834.000000 1 0 0
-13.522755 -3.232228 -10.683029 17.533948 0.234620 2.225945 0.020950 -0.006425 -220911.000000 1 0 0
-6.611055 13.597972 4.985971 15.920766 -1.118266 1.252263 0.007428 -0.008843 376665.000000 1 0 0
7.364045 -4.224728 -0.648229 8.514557 -0.520854 1.647002 0.006277 -0.005468 -1175100.000000 1 0 0
11.737845 2.115972 -7.261029 13.963412 0.178354 2.117652 0.008668 0.002728 -1112080.000000 1 0 0
-7.340955 -4.516928 9.646871 12.936552 0.551597 0.729202 0.013034 -0.001421 162530.000000 1 0 0
1.031945 2.822472 8.498271 9.013981 1.220277 0.339901 0.005080 -0.004320 -1607670.000000 1 0 0
1.509945 8.063472 -8.790529 12.023848 1.385683 2.390716 0.002782 -0.005401 380484.000000 1 0 0
-8.568455 -2.026028 -5.613329 10.441872 0.232188 2.138359 0.011841 -0.004272 -1411270.000000 1 0 0
6.743645 -0.454928 7.104171 9.805761 -0.067358 0.760503 0.002690 -0.002714 -37038.400000 1 0 0
-10.986755 6.413572 7.098871 14.568344 -0.528389 1.061823 0.005002 -0.003710 27986.100000 1 0 0
-6.066355 10.978472 4.763371 13.417049 -1.065983 1.207857 0.002171 -0.003742 317841.000000 1 0 0
6.067945 -1.179728 -6.838729 9.218456 -0.192024 2.406624 0.001054 -0.003449 -1075820.000000 1 0 0
4.620545 -5.697928 11.409371 13.564275 -0.889434 0.571420 0.007656 -0.000002 -1200100.000000 1 0 0
-8.895455 -7.353328 2.699371 11.852728 0.690774 1.341038 0.009689 0.000017 -3478000.000000 1 0 0
-1.233155 12.612072 -9.280229 15.706931 -1.473330 2.202892 0.003333 -0.002770 925061.000000 1 0 0
-4.650255 9.277272 -2.413029 10.654358 -1.106147 1.799261 0.003000 -0.001874 372022.000000 1 0 0
-3.382555 9.595372 -0.196629 10.176026 -1.231879 1.590120 0.004552 -0.001046 -1974590.000000 1 0 0
-3.461655 10.665572 -6.485129 12.953547 -1.256959 2.095140 0.004449 -0.000123 182116.000000 1 0 0
4.941245 -4.831428 0.339471 6.919093 -0.774162 1.521714 0.009629 -0.005114 -1318220.000000 1 0 0
-2.287655 2.934772 -10.996629 11.609139 -0.908681 2.815306 0.014730 -0.007509 -1960630.000000 1 0 0
-3.488555 12.068572 -2.140929 12.743783 -1.289405 1.739595 -0.003121 0.003040 -1369670.000000 1 0 0
-0.161755 0.351572 0.018671 0.387448 -1.139582 1.522589 0.001500 -0.000876 -1456540.000000 1 0 0
-4.822755 -1.694228 0.125071 5.113220 0.337831 1.546334 0.002022 -0.000198 24283.700000 1 0 0
2.559145 2.513472 -2.543029 4.397017 0.776395 2.187505 -0.002692 0.000704 396346.000000 1 0 0
6.246845 -9.676628 8.684971 14.425288 -0.997549 0.924711 0.002298 0.003751 -850442.000000 1 0 0
-4.223255 -5.488428 6.559971 9.538970 0.914942 0.812477 0.000832 0.000998 300146.000000 1 0 0
-6.362355 5.403272 -12.108529 14.706848 -0.704062 2.538043 0.002519 -0.005531 915742.000000 1 0 0
-13.061755 3.041272 7.907471 15.568779 -0.228762 1.038045 0.004530 -0.007437 529273.000000 1 0 0
4.666145 -7.433328 -4.864129 10.034293 -1.010234 2.076874 0.006460 -0.005126 901530.000000 1 0 0
-5.977855 2.412772 -1.138429 6.546162 -0.383622 1.745593 0.004702 -0.001666 -669174.000000 1 0 0
-6.899855 -2.682828 -14.538529 16.314852 0.370835 2.670609 0.013228 -0.001192 286405.000000 1 0 0
2.755745 -6.127028 0.928971 6.782153 -1.148135 1.433392 0.010150 -0.001724 768164.000000 1 0 0
4.935745 -7.845428 13.114371 16.059236 -1.009237 0.615258 0.005820 -0.001750 -269663.000000 1 0 0
-9.944555 -1.738828 8.007071 12.885297 0.173102 0.900253 -0.001244 -0.000133 -383892.000000 1 0 0
-4.594155 13.259772 -0.095729 14.033423 -1.237267 1.577618 -0.002880 0.005103 536731.000000 1 0 0
6.789745 2.170272 -4.410329 8.382226 0.309376 2.124866 0.001250 0.002334 -1556910.000000 1 0 0
5.050945 4.518372 0.004171 6.777001 0.729801 1.570181 -0.002684 0.002393 -939299.000000 1 0 0
-5.986855 12.194372 1.817571 13.705791 -1.114413 1.437791 0.001369 -0.001469 -72742.200000 1 0 0
6.629545 -7.346528 6.621171 11.906395 -0.836654 0.981108 0.004313 -0.002443 -1203600.000000 1 0 0
-0.315655 4.878872 7.773371 9.183045 -1.506188 0.561436 0.004864 -0.002654 -720003.000000 1 0 0
-5.820155 -3.407128 -1.574829 6.925519 0.529616 1.800198 0.006858 -0.002604 -221123.000000 1 0 0
2.263445 -6.519028 -5.109229 8.586334 -1.236613 2.208114 0.001934 -0.002035 -1266160.000000 1 0 0
-14.571455 -5.015728 -3.715929 15.852223 0.331513 1.807409 0.010866 -0.006403 -124779.000000 1 0 0
-12.459255 -5.287028 -6.354329 14.952030 0.401316 2.009737 0.016089 -0.011833 -142009.000000 1 0 0
-14.797855 -3.884628 -1.295829 15.354023 0.256720 1.655294 0.001973 -0.004746 332964.000000 1 0 0
11.923145 2.954272 8.588271 14.988245 0.242885 0.960634 0.018175 -0.007931 -1144330.000000 1 0 0
8.762045 -6.471528 7.712971 13.347061 -0.636156 0.954670 0.008663 -0.006609 -326341.000000 1 0 0
-8.822855 -1.707128 -9.778729 13.280836 0.191128 2.398388 0.005782 -0.003278 496706.000000 1 0 0
-8.880855 5.168472 -3.814929 10.960674 -0.527063 1.926293 0.003023 -0.001526 -855505.000000 1 0 0
-4.015855 -6.275828 4.074671 8.492117 1.001559 1.070349 0.005058 0.002741 -1802880.000000 1 0 0
-0.263455 -9.233728 3.645971 9.930974 1.542272 1.194873 0.008823 -0.001718 518772.000000 1 0 0
8.132745 -10.381628 3.365171 13.610442 -0.906273 1.320956 0.008000 -0.002931 -158494.000000 1 0 0
-0.085755 6.545272 9.666071 11.673939 -1.557695 0.595257 0.001554 -0.006429 218657.000000 1 0 0
-0.058555 3.467872 -9.849529 10.442355 -1.553913 2.803017 0.009805 -0.008201 282969.000000 1 0 0
4.609445 -3.099228 10.995571 12.318879 -0.591937 0.467764 0.006557 -0.002260 -3303910.000000 1 0 0
8.671445 -9.087828 1.301071 12.628356 -0.808840 1.467585 0.010683 -0.006577 -1095090.000000 1 0 0
-0.314655 -0.421128 11.269671 11.281925 0.929108 0.046613 0.010851 -0.003012 -1335790.000000 1 0 0
10.866345 6.084872 11.180471 16.736369 0.510469 0.839232 0.020737 -0.012510 -5614.760000 1 0 0
-6.348555 -2.776028 -11.931829 13.797791 0.412217 2.615476 0.012487 -0.003831 915292.000000 1 0 0
-1.673455 2.793472 8.465471 9.070178 -1.031069 0.367217 0.008301 -0.002745 932512.000000 1 0 0
-1.819955 13.406772 -6.814229 15.148844 -1.435872 2.037358 0.004823 -0.000984 413947.000000 1 0 0
7.742145 3.124072 9.736571 12.825811 0.383533 0.708807 0.004985 -0.003125 447770.000000 1 0 0
6.420745 8.585372 -8.017129 13.386894 0.928660 2.212897 -0.002497 -0.003315 194987.000000 1 0 0
6.719745 -3.035728 -3.854329 8.320245 -0.424319 2.052452 0.005755 -0.004279 -2679940.000000 1 0 0
2.058645 8.171472 0.972771 8.482762 1.324001 1.455867 -0.000921 0.001604 773737.000000 1 0 0
-17.698155 6.397472 6.526271 19.918448 -0.346862 1.236982 0.040375 -0.016004 -218325.000000 1 0 0
-14.552355 2.976372 -10.252029 18.048101 -0.201746 2.174918 0.015586 -0.001175 -659015.000000 1 0 0
-18.367755 0.055772 -4.396029 18.886572 -0.003036 1.805710 0.039969 -0.007624 156434.000000 1 0 0
-13.138755 7.784572 0.154871 15.272538 -0.534879 1.560656 0.009458 -0.002880 -1131730.000000 1 0 0
-12.481655 -4.334928 -12.854929 18.434547 0.334271 2.342459 0.034488 -0.001620 -990417.000000 1 0 0
-17.349955 -0.757728 -8.577729 19.369371 0.043645 2.029571 0.039627 -0.015058 -271536.000000 1 0 0
-16.669455 -2.103528 -2.126029 16.935630 0.125527 1.696664 0.019246 -0.010303 -333483.000000 1 0 0
-15.328755 4.128372 1.704871 15.966239 -0.263080 1.463813 0.009277 -0.002874 -1101170.000000 1 0 0
-13.208255 5.755172 4.438371 15.075780 -0.410920 1.271964 0.001555 -0.006769 655868.000000 1 0 0
-10.100155 14.062472 2.824071 17.542566 -0.947937 1.409109 0.016631 -0.007953 -735600.000000 1 0 0
-11.872055 2.408272 -6.500529 13.747812 -0.200136 2.063309 0.002112 0.005579 -323.824000 1 0 0
-15.983655 10.571872 3.891871 19.554753 -0.584360 1.370434 0.026698 -0.016770 991373.000000 1 0 0
-12.810155 0.964272 -8.578029 15.447087 -0.075132 2.159540 0.002720 0.000974 336838.000000 1 0 0
-12.343055 14.387972 4.108271 19.396975 -0.861749 1.357380 0.031061 -0.011197 -641051.000000 1 0 0
-10.506555 11.156872 -0.971029 15.355989 -0.815408 1.634073 0.012792 -0.003179 -131415.000000 1 0 0
-17.277555 5.671172 9.071371 20.321562 -0.317159 1.108068 0.045977 -0.019325 686281.000000 1 0 0
-11.932755 12.665572 -9.155629 19.662983 -0.815181 2.055140 0.027532 -0.010993 -745522.000000 1 0 0
-17.200355 -0.446328 3.123371 17.487335 0.025943 1.391225 0.034352 -0.010330 745653.000000 1 0 0
-13.477555 14.743572 -0.410729 19.979642 -0.830229 1.591355 0.053124 -0.010708 -86921.200000 1 0 0
-16.435355 4.747472 -10.507829 20.076700 -0.281203 2.121614 0.055890 -0.004732 766485.000000 1 0 0
-11.923455 7.654372 -8.930429 16.748455 -0.570702 2.133186 0.005306 -0.002627 -594764.000000 1 0 0
-14.891655 13.317372 -2.035129 20.081223 -0.729648 1.672315 0.055846 -0.020418 117347.000000 1 0 0
-11.895455 10.530072 -5.378729 16.772447 -0.724588 1.897253 0.027894 -0.011548 1291840.000000 1 0 0
-17.655955 2.685572 -1.047129 17.889705 -0.150949 1.629362 0.034558 -0.003037 -499126.000000 1 0 0
-9.580055 15.473472 0.797971 18.216546 -1.016431 1.526978 0.024744 0.000475 11127.900000 1 0 0
-8.204755 13.158772 -3.719529 15.946980 -1.013262 1.806208 0.014246 -0.002499 -1660030.000000 1 0 0
-17.994255 11.585372 2.418971 21.537536 -0.572031 1.458245 0.099723 -0.013021 235148.000000 1 0 0
-8.209555 15.641172 -7.285829 19.108280 -1.087453 1.961990 0.054494 -0.020234 -393630.000000 1 0 0
-6.420655 15.235072 -5.364629 17.381354 -1.171946 1.884562 0.017924 -0.002867 -612798.000000 1 0 0
-17.429055 5.073472 -0.104829 18.152770 -0.283265 1.576571 0.042665 -0.002436 736781.000000 1 0 0
-5.473455 12.182572 -12.284429 18.146100 -1.148537 2.314439 0.000997 -0.004337 -25532.600000 1 0 0
-11.117555 3.722872 -11.398929 16.352229 -0.323128 2.342123 -0.006155 -0.000316 564400.000000 1 0 0
-11.901955 10.975772 1.245871 16.238112 -0.744936 1.493996 0.008898 -0.004928 -87415.700000 1 0 0
-12.951055 0.004972 -11.021529 17.005998 -0.000384 2.275879 0.009941 -0.006940 239539.000000 1 0 0
-14.104255 -2.333928 -13.100629 19.390815 0.163991 2.312588 0.054895 -0.003546 220456.000000 1 0 0
-18.771055 -2.385528 -3.641729 19.269288 0.126408 1.760931 0.031021 -0.009759 601627.000000 1 0 0
-18.587855 4.689372 -5.106529 19.838730 -0.247125 1.831129 0.077322 -0.008334 947514.000000 1 0 0
-8.409955 15.337472 -2.202529 17.629989 -1.069238 1.696054 0.024002 -0.004444 -666224.000000 1 0 0
-16.303755 9.183072 -5.336529 19.458155 -0.512958 1.848613 0.043134 -0.005438 186999.000000 1 0 0
-18.306455 1.612772 2.173871 18.505487 -0.087872 1.453053 0.068551 -0.013510 -143862.000000 1 0 0
-15.749855 -2.852428 -8.623529 18.181297 0.179166 2.064974 0.020130 -0.009768 -782272.000000 1 0 0
-9.816855 10.417572 -7.147729 15.999577 -0.815077 2.033920 0.018155 -0.012676 79277.700000 1 0 0
-13.897855 11.866672 -7.609329 19.795711 -0.706724 1.965346 0.040168 -0.024962 -387952.000000 1 0 0
-11.088755 6.435872 -3.901329 13.401541 -0.525880 1.866184 0.004150 -0.001527 -1330110.000000 1 0 0
-13.102955 4.884672 -12.680829 18.877258 -0.356833 2.307367 0.020725 -0.008772 535304.000000 1 0 0
-17.696855 8.962472 2.566671 20.002309 -0.468790 1.442123 0.039302 -0.024187 644247.000000 1 0 0
-13.499155 8.713772 -6.610629 17.374045 -0.573209 1.961121 0.018242 -0.003762 -179683.000000 1 0 0
-15.854155 6.948972 -3.828529 17.728510 -0.413087 1.788464 0.024581 0.002491 -1115910.000000 1 0 0
-14.933955 -0.488228 -9.279729 17.589052 0.032681 2.126552 0.024446 -0.011074 371802.000000 1 0 0
-10.073355 5.808172 -6.125629 13.142704 -0.523027 2.055658 -0.000768 -0.001133 318116.000000 1 0 0
-12.810955 12.226072 -0.822929 17.727792 -0.762042 1.617233 0.027391 -0.006674 -2033940.000000 1 0 0
-10.659855 3.476172 -13.949329 17.896929 -0.315226 2.464545 0.004547 -0.005685 186851.000000 1 0 0
-11.049855 6.326472 -11.893529 17.423535 -0.519983 2.322128 -0.003595 -0.004985 -771853.000000 1 0 0
-5.810255 11.502172 -14.861229 19.670159 -1.103042 2.427246 0.019790 -0.013668 -230919.000000 1 0 0
-15.657355 13.225672 3.632971 20.815130 -0.701405 1.395363 0.031333 -0.022896 119155.000000 1 0 0
-15.134455 10.937672 -2.971829 18.908098 -0.625799 1.728623 0.040714 -0.011057 864082.000000 1 0 0
-18.311355 7.756272 -4.582329 20.407431 -0.400665 1.797270 0.051353 -0.002242 1083700.000000 1 0 0
-4.081955 16.031272 -10.863629 19.790969 -1.321470 2.151866 0.024873 -0.003792 -62871.100000 1 0 0
-15.937355 4.396972 -4.542029 17.145340 -0.269194 1.838910 0.024508 0.004710 -1173190.000000 1 0 0
-18.642355 -1.914828 -6.096829 19.707240 0.102355 1.885327 0.037219 -0.012129 124704.000000 1 0 0
-10.859955 8.482072 -5.867529 14.977051 -0.663073 1.973349 0.006412 -0.002703 963223.000000 1 0 0
-11.342955 13.406872 -6.681129 18.789474 -0.868597 1.934329 0.032001 -0.015228 -30659.300000 1 0 0
-9.540655 10.424672 -4.455629 14.817237 -0.829647 1.876229 0.005689 -0.005422 -844424.000000 1 0 0
-11.016355 6.375172 -0.216929 12.729884 -0.524611 1.587838 0.003148 -0.001781 -781575.000000 1 0 0
-14.848655 9.004572 -1.345329 17.417657 -0.545129 1.648113 0.033535 -0.006791 -98023.300000 1 0 0
-18.558155 3.753172 4.636871 19.493383 -0.199547 1.330625 0.052644 -0.019482 200760.000000 1 0 0
-14.896555 12.805672 0.458371 19.649496 -0.710064 1.547467 0.035097 -0.018465 -490584.000000 1 0 0
-16.889055 2.574572 -9.151229 19.380753 -0.151276 2.062560 0.042707 -0.005819 294174.000000 1 0 0
-9.249155 8.475572 -8.939529 15.404459 -0.741782 2.189919 0.006931 -0.003180 -3392380.000000 1 0 0
-17.742555 4.578872 -2.696829 18.521264 -0.252562 1.716923 0.034326 -0.000338 1189390.000000 1 0 0
-13.632755 5.756172 -4.468529 15.458114 -0.399523 1.864055 0.014680 0.003955 986655.000000 1 0 0
-12.304555 9.616172 3.292471 15.959737 -0.663366 1.363006 0.003479 -0.006832 515674.000000 1 0 0
-17.698655 2.465572 -4.115329 18.337322 -0.138418 1.797148 0.036880 -0.000122 957227.000000 1 0 0
-11.342355 1.461572 -12.583229 17.003613 -0.128153 2.403915 0.008922 -0.002299 230445.000000 1 0 0
-11.301155 11.941172 3.631771 16.837382 -0.812928 1.353391 0.007455 -0.007670 -63572.700000 1 0 0
-16.591555 12.893172 -3.918329 21.374445 -0.660616 1.755157 0.070206 -0.020650 -312586.000000 1 0 0
-11.114655 4.034472 -4.594229 12.685404 -0.348197 1.941388 0.000642 0.000393 -431264.000000 1 0 0
-11.256155 15.069272 -8.570129 20.669569 -0.929243 1.998327 0.046269 -0.015617 442213.000000 1 0 0
-15.560755 6.933172 0.057071 17.035528 -0.419151 1.567446 0.024478 0.000305 -1106580.000000 1 0 0
-12.851755 8.277572 -4.141729 15.837920 -0.572203 1.835380 0.019721 -0.003805 667130.000000 1 0 0
-19.129555 1.690972 -6.236929 20.191547 -0.088167 1.884820 0.070199 -0.013015 -132785.000000 1 0 0
-12.453555 10.121472 -8.900729 18.350973 -0.682460 2.077191 0.012705 -0.011547 275604.000000 1 0 0
-16.755055 10.663572 -0.765629 19.875357 -0.566783 1.609327 0.043144 -0.018817 138678.000000 1 0 0
-10.875255 6.551272 -14.554129 19.313545 -0.542184 2.424274 0.026884 -0.012045 -239818.000000 1 0 0
-14.067155 12.818272 -4.457129 19.546328 -0.738979 1.800849 0.046580 -0.013638 -325045.000000 1 0 0
-18.107455 7.521672 -0.302029 19.609862 -0.393704 1.586199 0.068128 -0.007958 -44898.300000 1 0 0
-12.825455 6.569272 -2.144529 14.568687 -0.473364 1.718534 0.003969 0.000208 429909.000000 1 0 0
-13.864555 8.548472 -10.463929 19.359651 -0.552514 2.141830 0.011024 -0.012702 -731150.000000 1 0 0
-14.941455 1.299072 -0.949129 15.027825 -0.086726 1.633997 0.004217 -0.002305 -1030390.000000 1 0 0
-13.397755 2.719672 -2.481329 13.894368 -0.200273 1.750345 0.002984 0.000461 -7061.470000 1 0 0
-11.310255 9.112872 -10.978529 18.206988 -0.678218 2.218033 0.007249 -0.011431 -290865.000000 1 0 0
-15.313655 4.290372 -8.094029 17.844569 -0.273163 2.041580 0.008692 0.000961 694148.000000 1 0 0
-18.382555 10.352272 4.660571 21.605758 -0.512889 1.353378 0.088597 -0.043667 416384.000000 1 0 0
-15.418455 6.122672 -6.257629 17.730589 -0.378004 1.931495 0.023693 0.004639 684805.000000 1 0 0
-7.696055 11.112872 -12.988229 18.746180 -0.965098 2.336226 0.002745 -0.011670 -677691.000000 1 0 0
-16.962855 9.101272 -2.865429 19.462330 -0.492452 1.718563 0.047291 -0.007142 405471.000000 1 0 0
-20.702655 -1.053928 -4.882929 21.296800 0.050864 1.802134 0.074565 -0.018838 557482.000000 1 0 0
-15.516155 4.311772 4.151871 16.630709 -0.271050 1.318477 0.016468 -0.007562 -242459.000000 1 0 0
-7.005855 12.497872 -9.436029 17.155683 -1.059879 2.153189 0.015406 -0.010676 -1680810.000000 1 0 0
-17.255155 1.675372 5.595671 18.216992 -0.096791 1.258581 0.047197 -0.018960 624609.000000 1 0 0
-10.421555 14.119272 -3.165729 17.832119 -0.934949 1.749272 0.031777 -0.013747 -414115.000000 1 0 0
-10.108455 8.489972 -13.092729 18.592473 -0.698594 2.352085 0.000856 -0.006075 699595.000000 1 0 0
-13.795255 11.680672 2.786671 18.289688 -0.702585 1.417838 0.022983 -0.008867 -1188290.000000 1 0 0
-17.276455 6.563472 2.014271 18.590652 -0.363067 1.462235 0.039797 -0.006920 918532.000000 1 0 0
-9.462655 13.175172 -8.520329 18.322745 -0.947947 2.054447 0.032439 -0.020442 -2170280.000000 1 0 0
-5.489955 9.747772 -12.950329 17.113436 -1.057874 2.429100 -0.002434 -0.005316 -1386740.000000 1 0 0
-15.900555 1.831472 3.112871 16.305579 -0.114678 1.378709 0.009049 -0.005824 -812510.000000 1 0 0
-18.645155 -4.771328 4.840871 19.845438 0.250526 1.324382 0.055621 -0.013047 863318.000000 1 0 0
-5.324255 14.387172 -9.290329 17.934565 -1.216355 2.115322 0.012035 -0.001035 -691425.000000 1 0 0
-15.459255 -0.987528 -6.753929 16.899093 0.063793 1.981945 0.009688 -0.001816 516075.000000 1 0 0
-9.050855 10.950872 -9.493229 17.086865 -0.880107 2.159864 0.009184 -0.012309 409553.000000 1 0 0
-16.664455 1.232272 -6.117229 17.794467 -0.073812 1.921726 0.004586 -0.001059 -1370860.000000 1 0 0
-11.345455 8.695172 -1.547629 14.377779 -0.653916 1.678646 0.005077 -0.003835 -166686.000000 1 0 0
-10.903155 11.036772 -12.628929 20.004474 -0.791488 2.254031 0.035844 -0.011182 -47880.200000 1 0 0
-14.077455 11.632272 -10.271529 20.952060 -0.690576 2.083161 0.052818 -0.025972 -93388.700000 1 0 0
-13.240455 5.903872 -7.637329 16.385791 -0.419436 2.055668 0.006198 0.005490 -2301690.000000 1 0 0
-8.965355 15.441672 -4.791429 18.487309 -1.044768 1.832963 0.034311 -0.008700 -49519.200000 1 0 0
-8.703955 6.255872 -13.126229 16.946760 -0.623192 2.456811 -0.001449 -0.003803 901194.000000 1 0 0
-16.587455 7.436272 4.323771 18.685203 -0.421445 1.337279 0.035540 -0.008942 -858562.000000 1 0 0
-12.737655 5.477172 -10.174029 17.197620 -0.406097 2.203832 0.001753 0.003099 -117273.000000 1 0 0
-12.652555 9.120872 -13.220229 20.446318 -0.624597 2.273892 0.054003 -0.020757 -812728.000000 1 0 0
-10.944555 5.185072 -8.450429 14.767465 -0.442435 2.180022 -0.001338 0.002014 -1430560.000000 1 0 0
-17.808155 -4.456728 -2.551929 18.533892 0.245227 1.708925 0.021492 -0.009199 794411.000000 1 0 0
-8.866855 13.103372 -11.031029 19.287381 -0.975890 2.179653 0.036500 -0.012360 140732.000000 1 0 0
-15.133455 6.081572 6.095271 17.411471 -0.382111 1.213148 0.024934 -0.012278 -572352.000000 1 0 0
-16.378755 -3.274228 -4.443229 17.283706 0.197306 1.830792 0.014135 -0.005499 -755779.000000 1 0 0
-11.216655 -1.214328 -12.644229 16.945928 0.107841 2.413059 0.010305 0.002209 432461.000000 1 0 0
-15.542655 6.859572 -8.490529 18.992550 -0.415628 2.034256 0.017146 0.002444 360403.000000 1 0 0
-14.988555 9.223772 1.206871 17.640615 -0.551657 1.502329 0.030187 -0.010484 -370373.000000 1 0 0
-19.556555 5.327872 7.900471 21.754597 -0.265979 1.199136 0.087611 -0.040911 120770.000000 1 0 0
-16.372855 0.401572 0.921771 16.403698 -0.024522 1.514574 0.020908 -0.007946 -233100.000000 1 0 0
-17.550755 3.834372 7.074271 19.307427 -0.215094 1.195658 0.038225 -0.017310 627310.000000 1 0 0
-15.448055 3.939872 -1.494329 16.012433 -0.249717 1.664255 0.013803 -0.001051 -604695.000000 1 0 0
-10.911455 13.285872 0.442271 17.197960 -0.883212 1.545077 0.021163 -0.008160 -273008.000000 1 0 0
-13.451955 3.315572 0.044871 13.854607 -0.241658 1.567558 0.006626 -0.001051 -363162.000000 1 0 0
-15.117355 0.019972 -4.293129 15.715145 -0.001321 1.847498 0.005527 0.000726 410726.000000 1 0 0
-19.120155 7.054572 3.733371 20.719203 -0.353465 1.389618 0.065310 -0.013764 -11134.300000 1 0 0
-14.097655 1.226372 -6.310429 15.494173 -0.086773 1.990268 0.004646 0.000255 -949054.000000 1 0 0
-14.224655 11.982672 5.340671 19.350659 -0.700058 1.291172 0.024354 -0.019935 -6636.250000 1 0 0
17.674945 5.505472 6.322371 19.562368 0.301959 1.241697 0.073426 -0.021095 180568.000000 1 0 0
18.422445 7.666972 -0.365029 19.957509 0.394373 1.589088 0.030984 -0.000766 700942.000000 1 0 0
16.588445 5.399972 8.543871 19.425085 0.314708 1.115379 0.089159 -0.016638 408416.000000 1 0 0
11.444845 12.099972 11.147171 20.041287 0.813216 0.980978 0.032088 -0.015681 598485.000000 1 0 0
-2.503255 16.332172 -0.569629 16.532713 -1.418708 1.605258 0.000887 -0.000237 -255007.000000 1 0 0
15.169345 12.500172 3.354571 19.940322 0.689230 1.401762 0.061462 -0.014081 54923.600000 1 0 0
13.420445 11.763472 6.790371 19.094416 0.719698 1.207218 0.040226 -0.008918 694205.000000 1 0 0
-0.644655 15.875172 8.589471 18.061441 -1.530211 1.075185 0.002102 0.003159 -112565.000000 1 0 0
0.716445 12.965472 9.438671 16.053201 1.515595 0.942259 -0.000062 0.003458 696179.000000 1 0 0
0.593245 15.523472 -3.905929 16.018314 1.532599 1.817121 0.001931 -0.001246 324683.000000 1 0 0
5.248045 10.300772 13.512471 17.782990 1.099593 0.707708 0.025616 -0.013207 470887.000000 1 0 0
-1.586155 16.504072 -2.888829 16.829902 -1.474984 1.743299 0.002505 0.003140 -1359260.000000 1 0 0
8.537645 10.126072 3.246271 13.636971 0.870301 1.330439 0.003342 -0.001072 628294.000000 1 0 0
12.467245 13.647772 -4.963629 19.139788 0.830572 1.833131 0.102033 -0.037157 549515.000000 1 0 0
2.359745 11.542272 7.758971 14.106525 1.369132 0.988400 0.001756 0.006099 306443.000000 1 0 0
-0.418855 14.813172 -8.619229 17.143413 -1.542528 2.097599 0.006329 -0.000093 -2490330.000000 1 0 0
2.246245 15.801872 0.201071 15.961992 1.429592 1.558199 0.010196 -0.015940 -442925.000000 1 0 0
1.825045 13.409872 5.222771 14.506301 1.435530 1.202491 0.001507 0.006641 869327.000000 1 0 0
17.502845 9.124872 -2.311829 19.873535 0.480571 1.687387 0.020999 -0.003187 465129.000000 1 0 0
-7.278355 14.857672 7.204171 18.045081 -1.115284 1.160117 0.014572 -0.018913 -663785.000000 1 0 0
8.361445 15.781672 -0.149729 17.860496 1.083578 1.579180 0.032436 -0.021556 -329375.000000 1 0 0
15.516345 10.336272 1.986571 18.749451 0.587647 1.464644 0.039224 -0.007617 45205.300000 1 0 0
14.176345 7.501272 8.667771 18.230965 0.486687 1.075330 0.050258 -0.018638 -1515070.000000 1 0 0
4.038245 18.363272 -1.831429 18.891037 1.354333 1.667896 0.033455 -0.028156 858629.000000 1 0 0
-0.654455 17.557272 -4.973029 18.259713 -1.533538 1.846631 0.019102 0.001563 259120.000000 1 0 0
1.186745 13.654772 -0.695129 13.723861 1.484104 1.621469 -0.000961 -0.005240 543056.000000 1 0 0
10.191845 14.708772 4.237871 18.389704 0.964845 1.338258 0.025012 -0.014263 -385820.000000 1 0 0
-1.729655 15.255172 -5.185129 16.204861 -1.457897 1.896498 0.003045 0.002029 295046.000000 1 0 0
15.140545 9.009172 -6.124529 18.652376 0.536762 1.905354 0.052587 -0.011056 673012.000000 1 0 0
-2.536355 18.445072 0.992571 18.645079 -1.434145 1.517536 0.010529 -0.008713 -903181.000000 1 0 0
-3.927655 19.288172 3.488571 19.990752 -1.369913 1.395389 0.021376 -0.015083 -221178.000000 1 0 0
1.564845 17.675972 -2.589429 17.933038 1.482497 1.715697 0.011229 -0.011954 124235.000000 1 0 0
2.925745 12.075772 3.295371 12.854715 1.333095 1.311547 0.000293 0.001914 -150691.000000 1 0 0
-2.734955 16.084772 1.873671 16.422865 -1.402373 1.456458 0.005104 -0.005980 -779954.000000 1 0 0
11.820245 12.844172 -2.594929 17.647226 0.826889 1.718376 0.062962 -0.015578 731666.000000 1 0 0
7.115145 11.762372 4.715371 14.533182 1.026776 1.240360 0.001062 0.002102 24761.300000 1 0 0
7.050845 15.690672 2.004771 17.318507 1.148470 1.454777 0.016655 -0.016938 -1033190.000000 1 0 0
5.417245 12.196872 10.295471 16.855472 1.152818 0.913715 0.008720 0.007052 1482980.000000 1 0 0
-1.368355 14.188972 3.058071 14.579133 -1.474656 1.359470 0.000511 0.001391 -862056.000000 1 0 0
4.543845 15.903272 1.610571 16.617897 1.292494 1.473726 0.016669 -0.020203 -959211.000000 1 0 0
7.264545 13.020772 12.086471 19.193668 1.061893 0.889615 0.022883 -0.004026 358979.000000 1 0 0
0.603045 17.127472 -9.517029 19.603260 1.535602 2.077711 0.017168 0.001026 56453.100000 1 0 0
9.682445 9.447172 15.545971 20.607668 0.773100 0.716090 0.047565 -0.022300 -373000.000000 1 0 0
13.507545 7.583072 -0.056929 15.490642 0.511550 1.574471 0.016937 -0.001607 503225.000000 1 0 0
12.361145 13.747872 -0.117529 18.488258 0.838461 1.577153 0.061441 -0.013579 83912.500000 1 0 0
9.374245 12.366672 3.480671 15.903650 0.922179 1.350150 0.011563 -0.001567 568774.000000 1 0 0
-0.689655 12.766972 0.877371 12.815653 -1.516830 1.502282 0.002557 -0.000839 -1478470.000000 1 0 0
15.921645 7.364072 -0.934729 17.567073 0.433216 1.624031 0.022426 0.000226 -1497230.000000 1 0 0
-4.399355 18.370572 -2.429529 19.045599 -1.335745 1.698709 0.015877 -0.008483 -28391.600000 1 0 0
11.385445 9.214272 -3.350929 15.025308 0.680388 1.795707 0.026830 -0.007902 91463.200000 1 0 0
14.633545 9.800572 7.808871 19.265780 0.590123 1.153464 0.047625 -0.018370 -513604.000000 1 0 0
4.408345 13.752472 4.638271 15.168307 1.260595 1.260031 0.006420 0.003036 -570713.000000 1 0 0
2.047245 16.016972 5.510271 17.061585 1.443668 1.241937 0.009118 0.004881 117322.000000 1 0 0
6.021745 18.572472 5.244571 20.216420 1.257261 1.308373 0.026461 -0.016866 -417904.000000 1 0 0
10.575145 17.059672 -0.895729 20.091501 1.015879 1.615394 0.084770 -0.030400 -551609.000000 1 0 0
9.898645 13.613972 -4.431529 17.405799 0.942117 1.828231 0.075622 -0.023076 1056040.000000 1 0 0
16.683545 7.946472 2.153571 18.604433 0.444513 1.454780 0.031058 -0.007079 757911.000000 1 0 0
3.843645 13.963872 -0.560329 14.494043 1.302192 1.609465 0.004767 -0.011065 -654080.000000 1 0 0
5.391745 13.137172 -2.522329 14.422841 1.181340 1.746585 0.007514 -0.009355 -324144.000000 1 0 0
-6.359355 16.725072 -2.926629 18.131039 -1.207449 1.732921 0.020070 -0.003766 -1254440.000000 1 0 0
18.052145 10.142472 2.580671 20.866469 0.511890 1.446803 0.058955 -0.014946 318864.000000 1 0 0
7.787445 12.935672 9.507071 17.842654 1.028898 1.008857 0.017035 0.000953 329934.000000 1 0 0
-2.629955 15.705272 6.733271 17.288989 -1.404879 1.170757 0.003032 0.000463 703433.000000 1 0 0
11.016945 16.007572 6.444771 20.473165 0.968011 1.250560 0.041528 -0.018358 -398498.000000 1 0 0
13.622545 12.027372 1.307871 18.219273 0.723288 1.498950 0.053391 -0.008997 -823487.000000 1 0 0
17.490245 7.956672 -5.435029 19.968896 0.426938 1.846449 0.037395 0.007752 745044.000000 1 0 0
9.432045 9.235872 7.993671 15.432549 0.774890 1.026315 0.005678 -0.003111 -1044800.000000 1 0 0
-2.072455 14.129672 -1.954529 14.413982 -1.425161 1.706815 -0.002745 0.000989 338277.000000 1 0 0
11.049145 11.678172 0.696571 16.091877 0.813068 1.527496 0.025612 -0.001171 218648.000000 1 0 0
11.680045 9.818672 -0.710229 15.275280 0.699033 1.617308 0.025496 -0.005358 -1728140.000000 1 0 0
-0.166255 16.075272 11.129471 19.552675 -1.560454 0.965258 0.009192 -0.003068 182457.000000 1 0 0
1.967345 20.025672 -1.476629 20.176184 1.472869 1.644049 0.035879 -0.028135 -351220.000000 1 0 0
9.227145 14.289572 1.707171 17.095218 0.997432 1.470767 0.021717 -0.012890 18782.100000 1 0 0
8.340845 11.719972 -5.208929 15.299032 0.952276 1.918218 0.029077 -0.010181 -614087.000000 1 0 0
10.365645 10.100572 10.180571 17.694975 0.772447 0.957780 0.006360 -0.010733 -870036.000000 1 0 0
-5.140755 15.709272 5.846771 17.532635 -1.254537 1.230805 -0.001041 -0.006072 760347.000000 1 0 0
14.392645 9.297272 -1.772929 17.225875 0.573540 1.673901 0.037259 -0.003231 -334178.000000 1 0 0
12.118245 9.560472 6.928271 16.919084 0.667956 1.148896 0.013889 -0.008358 -1879700.000000 1 0 0
3.175745 12.956772 9.652071 16.465897 1.330432 0.944454 0.008173 0.000368 -1225370.000000 1 0 0
8.357845 12.676372 -2.690129 15.420141 0.987894 1.746149 0.034188 -0.013887 -893099.000000 1 0 0
9.465145 16.852972 2.021171 19.434422 1.059068 1.466608 0.028448 -0.017950 259622.000000 1 0 0
9.346445 14.541672 -7.389629 18.799544 0.999545 1.974770 0.089575 -0.027671 4883.950000 1 0 0
6.370145 11.403372 7.295071 14.961072 1.061360 1.061454 -0.000730 0.003722 -811478.000000 1 0 0
5.224545 16.979672 -5.490229 18.594293 1.272296 1.870528 0.052446 -0.012322 468650.000000 1 0 0
-4.251455 17.115772 -4.648829 18.238315 -1.327330 1.828534 0.013241 -0.000056 132934.000000 1 0 0
-0.534455 18.789372 -0.606129 18.806741 -1.542359 1.603031 0.010516 -0.005834 -493307.000000 1 0 0
6.353145 15.615372 -2.839429 17.095749 1.184397 1.737659 0.035587 -0.015150 -122405.000000 1 0 0
-1.212255 20.706572 0.949371 20.763742 -1.512319 1.525058 0.017369 -0.011233 -146493.000000 1 0 0
-1.485755 18.831672 4.241671 19.360555 -1.492063 1.349916 0.006409 -0.006158 -582923.000000 1 0 0
7.066245 13.824772 -4.455629 16.152670 1.098285 1.850265 0.033539 -0.008579 -845236.000000 1 0 0
-1.007555 11.947172 7.700071 14.249251 -1.486661 0.999903 -0.003222 0.005205 628967.000000 1 0 0
7.612645 10.769572 10.824371 17.061742 0.955477 0.883534 0.015423 -0.009580 -462222.000000 1 0 0
1.288745 16.026272 -7.201029 17.616954 1.490554 1.991887 0.005121 -0.002081 -1144450.000000 1 0 0
8.958245 7.202772 14.530771 18.527638 0.677198 0.669269 0.039945 -0.017636 330356.000000 1 0 0
11.210245 11.445272 -4.788329 16.721002 0.795772 1.861228 0.066807 -0.017426 -490724.000000 1 0 0
-3.357455 16.990272 4.625971 17.925999 -1.375699 1.309783 0.001617 -0.000192 -63788.100000 1 0 0
3.730845 15.497872 -6.762829 17.315862 1.334559 1.972033 0.027212 -0.007253 -1008960.000000 1 0 0
-4.519055 14.111672 9.378471 17.536158 -1.260880 1.006516 0.016280 -0.008693 -464288.000000 1 0 0
6.094745 17.654272 0.471171 18.682645 1.238379 1.545574 0.023519 -0.029396 -509828.000000 1 0 0
9.682745 10.716572 -2.185129 14.607369 0.836034 1.720951 0.034227 -0.011637 -747980.000000 1 0 0
7.093845 18.108372 -2.458129 19.603014 1.197427 1.696523 0.054033 -0.020765 -3179.660000 1 0 0
3.396345 10.427472 10.375871 15.097219 1.255921 0.813072 0.007275 0.000194 935086.000000 1 0 0
-0.048355 18.606172 1.958371 18.709013 -1.568197 1.465929 0.014088 -0.012700 682384.000000 1 0 0
-1.045955 17.134772 -7.486129 18.727962 -1.509829 1.982019 0.018889 0.005952 247356.000000 1 0 0
10.097545 8.955572 13.030971 18.760833 0.725533 0.802955 0.030540 -0.011865 151045.000000 1 0 0
3.677445 11.483172 5.534171 13.267022 1.260870 1.140503 0.001321 0.003741 665885.000000 1 0 0
12.898045 13.858972 8.305971 20.674134 0.821296 1.157362 0.047858 -0.022296 -180344.000000 1 0 0
-0.600155 17.372872 6.749671 18.647652 -1.536265 1.200429 0.007452 -0.000844 -624957.000000 1 0 0
11.881945 13.658572 5.907171 19.042895 0.854847 1.255389 0.032513 -0.007185 -566161.000000 1 0 0
4.660845 14.567072 -4.537129 15.953325 1.261132 1.859177 0.016023 -0.007598 -421352.000000 1 0 0
3.729145 17.680772 4.658871 18.660688 1.362928 1.318465 0.018780 -0.005747 -373133.000000 1 0 0
7.096045 11.779872 2.003071 13.897177 1.028623 1.426157 0.008243 -0.001147 690914.000000 1 0 0
6.351245 8.700972 11.660971 15.875247 0.940253 0.745811 0.012843 -0.009659 223316.000000 1 0 0
-5.510055 14.860572 1.780971 15.948955 -1.215727 1.458896 0.003148 0.003705 72455.900000 1 0 0
6.585845 13.783972 6.093471 16.446933 1.125074 1.191257 0.003846 0.000356 262610.000000 1 0 0
5.847945 15.977672 4.873471 17.698451 1.219933 1.291831 0.007732 -0.008857 860394.000000 1 0 0
1.151345 18.181672 4.204071 18.696871 1.507556 1.344003 0.020803 -0.003747 914462.000000 1 0 0
6.980045 18.135972 -6.956329 20.640373 1.203398 1.914552 0.053871 -0.021785 193501.000000 1 0 0
-2.707655 18.672872 -6.231029 19.870411 -1.426795 1.889761 0.024004 0.006266 -730862.000000 1 0 0
13.425345 10.080472 -4.546029 17.393164 0.644047 1.835236 0.041023 -0.016881 -1375100.000000 1 0 0
-1.422055 18.056572 9.881271 20.632536 -1.492203 1.071376 0.005929 -0.001951 -150914.000000 1 0 0
3.328745 11.756472 -1.580829 12.320478 1.294877 1.699460 0.003519 -0.006196 704874.000000 1 0 0
4.184245 13.911372 -10.848129 18.130529 1.278625 2.212218 0.009861 -0.018593 -336809.000000 1 0 0
11.564745 13.453372 2.384271 17.900315 0.860746 1.437202 0.041847 -0.012285 1560830.000000 1 0 0
15.898645 6.684772 -7.094329 18.648930 0.398020 1.961041 0.027768 0.008414 368508.000000 1 0 0
2.269445 16.174072 2.855871 16.580319 1.431393 1.397688 0.010508 -0.007418 -175671.000000 1 0 0
13.412445 10.676472 3.493271 17.495247 0.672305 1.369775 0.029282 -0.000421 -1485560.000000 1 0 0
-5.219555 19.301472 -5.676129 20.784826 -1.306691 1.847400 0.018396 -0.013065 -230828.000000 1 0 0
5.376345 12.049172 0.014871 13.194235 1.151107 1.569669 0.009340 -0.006449 158503.000000 1 0 0
4.644445 15.674072 9.596271 18.956155 1.282725 1.039983 0.008948 0.007257 -55585.200000 1 0 0
7.692145 9.474072 13.870171 18.474544 0.888832 0.721566 0.034758 -0.016937 -830787.000000 1 0 0
-5.013255 13.503672 6.879671 15.962824 -1.215316 1.125217 0.003677 -0.005975 -1113200.000000 1 0 0
-4.763355 17.075572 0.564271 17.736491 -1.298755 1.538977 0.009112 -0.002656 -892177.000000 1 0 0
-0.719855 16.613172 3.398871 16.972566 -1.527493 1.369176 0.008915 -0.004019 -1469610.000000 1 0 0
7.665145 16.956072 -4.725329 19.198738 1.146231 1.819479 0.052327 -0.023246 313245.000000 1 0 0
2.873145 16.525072 -4.529229 17.373741 1.398651 1.834537 0.009086 -0.005182 -1037100.000000 1 0 0
9.334645 14.539672 8.296171 19.166744 1.000057 1.123153 0.015513 -0.001849 -70112.200000 1 0 0
12.645645 10.893772 9.127071 19.023407 0.711112 1.070391 0.031899 -0.018823 -34010.100000 1 0 0
3.474645 12.272772 12.152671 17.617647 1.294898 0.809582 0.016653 -0.004842 574855.000000 1 0 0
-3.392555 19.224172 6.022871 20.429224 -1.396121 1.271533 0.013377 -0.001186 154227.000000 1 0 0
-2.630055 15.795672 10.198971 18.985243 -1.405805 1.003676 0.003745 -0.003184 -89461.400000 1 0 0
2.043045 14.258772 7.557471 16.266590 1.428482 1.087613 0.006646 0.006443 -613468.000000 1 0 0
4.414045 17.531672 7.866471 19.716102 1.324147 1.160384 0.021020 0.002422 346335.000000 1 0 0
-1.991055 13.468372 9.398971 16.543941 -1.424027 0.966575 -0.001207 -0.000428 31935.500000 1 0 0
5.641145 17.702472 2.950771 18.812418 1.262306 1.413294 0.007604 -0.020460 469164.000000 1 0 0
6.963545 15.465572 -6.827429 18.283562 1.147725 1.953488 0.032254 -0.011057 -613513.000000 1 0 0
11.019945 7.695672 9.254371 16.318882 0.609611 0.967821 0.007038 -0.013490 1148740.000000 1 0 0
8.887445 16.183172 -2.689029 18.657776 1.068584 1.715424 0.065720 -0.031598 -811752.000000 1 0 0
14.445445 11.644272 -6.366429 19.616099 0.678441 1.901334 0.086171 -0.020453 347841.000000 1 0 0
11.207645 6.601972 15.780971 20.450828 0.532336 0.689358 0.087635 -0.030492 -26270.000000 1 0 0
8.456245 8.383372 10.177971 15.664612 0.781071 0.863550 0.007960 -0.009974 -16784.700000 1 0 0
16.304645 9.238772 4.307571 19.228924 0.515525 1.344864 0.044791 -0.011859 -80237.900000 1 0 0
-3.342055 14.310272 4.637671 15.409776 -1.341366 1.265101 -0.002715 -0.000017 -1132820.000000 1 0 0
4.481245 14.643572 12.628671 19.849410 1.273825 0.881202 0.014169 -0.004903 -502685.000000 1 0 0
15.866145 10.847972 -4.388529 19.714772 0.599715 1.795278 0.056542 -0.027313 -340798.000000 1 0 0
14.499545 13.991672 6.230571 21.090844 0.767574 1.270905 0.059720 -0.012298 -348561.000000 1 0 0
6.165145 9.534772 9.220271 14.626492 0.996818 0.888752 0.004122 -0.001095 402287.000000 1 0 0
10.366345 12.229372 8.739471 18.259162 0.867663 1.071697 0.023985 -0.006595 762583.000000 1 0 0
7.929345 11.482472 -0.403029 13.960089 0.966434 1.599670 0.010514 -0.006345 905993.000000 1 0 0
7.250045 13.621472 -8.618829 17.674610 1.081682 2.080180 0.040385 -0.017140 -884940.000000 1 0 0
2.571345 15.225472 -2.307729 15.612572 1.403491 1.719152 0.010581 -0.009956 339146.000000 1 0 0
11.997945 14.181372 -7.679229 20.100561 0.868608 1.962800 0.108357 -0.034252 289640.000000 1 0 0
-8.098755 14.623872 9.722171 19.338254 -1.065037 1.044027 0.039205 -0.029919 193630.000000 1 0 0
11.468745 9.524772 2.078471 15.052356 0.693063 1.432271 0.024476 -0.001317 -1736040.000000 1 0 0
11.988845 8.733672 4.402671 15.472328 0.629588 1.282258 0.012625 -0.001894 -22481.400000 1 0 0
14.067345 8.090872 6.023171 17.309852 0.521949 1.215400 0.026224 -0.012100 -3091260.000000 1 0 0
16.148545 7.547072 7.034471 19.162922 0.437191 1.194920 0.075640 -0.024070 -689354.000000 1 0 0
13.534045 8.221272 2.565171 16.041813 0.545880 1.410202 0.020357 -0.002398 -1973200.000000 1 0 0
-4.524555 17.226172 -7.184529 19.204948 -1.313942 1.954220 0.020223 -0.012284 8159.210000 1 0 0
2.857445 19.595372 -3.869329 20.177098 1.425995 1.763760 0.040185 -0.018257 329660.000000 1 0 0
-0.152555 14.890472 6.227171 16.140851 -1.560552 1.174719 0.002799 0.005013 -450514.000000 1 0 0
6.702045 16.238572 8.156671 19.368528 1.179370 1.136105 0.022163 -0.001384 -708109.000000 1 0 0
12.733245 15.169972 -2.232729 19.931097 0.872505 1.683054 0.111996 -0.034429 -302107.000000 1 0 0
12.550345 15.695272 4.368271 20.565371 0.896284 1.356757 0.057581 -0.017460 183698.000000 1 0 0
2.950945 17.981172 1.169271 18.259184 1.408133 1.506715 0.023574 -0.022283 -647337.000000 1 0 0
10.326545 14.571172 -1.333929 17.909102 0.954257 1.645349 0.061180 -0.013912 -1050790.000000 1 0 0
-6.536255 15.625272 -0.496329 16.944559 -1.174603 1.600092 0.011986 0.000883 -654223.000000 1 0 0
-4.004755 15.749372 -2.506729 16.442763 -1.321793 1.723845 0.003524 -0.000645 -1339460.000000 1 0 0
-7.053855 16.932772 1.814771 18.432824 -1.176079 1.472183 0.018270 -0.002029 -415958.000000 1 0 0
-0.177755 19.302872 -6.765229 20.454847 -1.561588 1.907884 0.042794 -0.004313 -415739.000000 1 0 0
4.569345 15.154772 6.976471 17.297895 1.277953 1.155662 0.008335 0.007758 -1315700.000000 1 0 0
8.550445 12.402372 6.943271 16.587282 0.967206 1.138904 0.009643 -0.002190 -1562560.000000 1 0 0
-7.700655 17.473072 -5.640629 19.910425 -1.155690 1.858030 0.048128 -0.014241 -5693.180000 1 0 0
-7.946755 17.640372 -1.175029 19.383352 -1.147538 1.631454 0.040085 -0.004349 -120517.000000 1 0 0
-13.626855 -9.233628 9.237971 18.875677 0.595537 1.059382 0.049980 -0.014494 184872.000000 1 0 0
-12.565455 -12.944428 7.477671 19.528555 0.800253 1.177852 0.052346 -0.011654 245687.000000 1 0 0
-3.745755 -15.043528 12.490571 19.908611 1.326764 0.892592 0.021621 -0.020542 26294.100000 1 0 0
-2.101955 -14.136528 14.980471 20.704448 1.423188 0.761881 0.034209 -0.007921 271339.000000 1 0 0
-6.871255 -13.877528 12.781371 20.078929 1.111048 0.880771 0.026057 -0.006674 198613.000000 1 0 0
-9.782855 -11.643128 9.016771 17.679617 0.872004 1.035601 0.029030 -0.003588 603757.000000 1 0 0
-10.608355 -10.667928 11.253171 18.787649 0.788198 0.928587 0.063846 -0.017181 157661.000000 1 0 0
-5.777355 -12.422828 10.772271 17.428319 1.135490 0.904486 0.018176 -0.000721 710158.000000 1 0 0
-12.422455 -10.339928 7.221271 17.702493 0.694162 1.150617 0.026091 -0.008106 122106.000000 1 0 0
-7.577055 -11.399828 12.356871 18.440719 0.984181 0.836471 0.029841 -0.014084 558499.000000 1 0 0
-14.771255 -11.528528 7.246971 20.090185 0.662719 1.201754 0.058413 -0.008756 -404896.000000 1 0 0
-11.013255 -9.257828 8.979971 16.959925 0.699016 1.012807 0.029652 -0.009551 -2156620.000000 1 0 0
-5.124455 -12.013428 13.283971 18.629181 1.167605 0.776924 0.026328 -0.010887 -32069.300000 1 0 0
3.886745 -12.477928 14.742871 19.701719 -1.268832 0.725295 -0.002434 -0.000600 211283.000000 1 0 0
6.527845 -12.730428 14.422371 20.314560 -1.096981 0.781366 0.021289 0.002078 47295.500000 1 0 0
6.707145 -8.605928 16.215571 19.544629 -0.908766 0.592282 0.014881 -0.005863 302707.000000 1 0 0
0.761045 -1.684428 14.324671 14.443430 -1.146437 0.128325 0.007619 -0.005321 -1367130.000000 1 0 0
-0.032255 -6.271728 15.581171 16.796086 1.565653 0.382681 0.007036 -0.009760 217430.000000 1 0 0
-1.342655 -4.654628 18.246171 18.878322 1.289964 0.259515 0.023123 -0.027338 -1228340.000000 1 0 0
-5.214355 12.540572 12.950271 18.766058 -1.176745 0.809183 0.024577 -0.014969 -398382.000000 1 0 0
-4.255855 8.752372 11.579371 15.126075 -1.118208 0.698941 0.002964 -0.002668 -343399.000000 1 0 0
-0.566355 -3.861528 14.985071 15.484977 1.425169 0.254788 0.006813 -0.007398 130474.000000 1 0 0
-4.345355 9.291572 14.144571 17.472387 -1.133349 0.627431 0.003125 -0.006705 442631.000000 1 0 0
-13.416755 -2.229728 16.706471 21.542683 0.164685 0.683281 0.064331 -0.006872 -17708.800000 1 0 0
-0.312155 0.992572 17.224971 17.256369 -1.266098 0.060333 0.014829 -0.007284 -1632570.000000 1 0 0
-3.080655 -7.326828 15.325071 17.263564 1.172775 0.478445 0.020048 -0.013650 605213.000000 1 0 0
-7.467355 5.517472 12.637871 15.681826 -0.636346 0.633614 0.007729 0.001144 -1494800.000000 1 0 0
-9.855055 10.066872 13.466971 19.489056 -0.796030 0.807922 0.037227 -0.013837 -202971.000000 1 0 0
-5.584355 2.200372 11.089371 12.609552 -0.375344 0.496107 0.007977 -0.002305 -1160470.000000 1 0 0
-6.957255 -7.459628 16.989171 19.816190 0.820230 0.540721 0.041125 -0.015229 -105953.000000 1 0 0
-4.808755 3.032372 18.556771 19.408069 -0.562612 0.297280 0.018687 -0.005894 -159415.000000 1 0 0
1.129645 -8.341628 16.567071 18.582968 -1.436193 0.470109 0.005284 -0.008940 297768.000000 1 0 0
-14.993055 -3.615228 13.922871 20.777582 0.236610 0.836465 0.076594 -0.018634 132507.000000 1 0 0
-14.441055 2.422172 13.183371 19.703103 -0.166181 0.837798 0.028902 0.000396 -266241.000000 1 0 0
-5.432055 0.968172 16.087471 17.007389 -0.176381 0.330406 0.015744 -0.003649 504473.000000 1 0 0
4.562145 5.712872 15.105271 16.781516 0.896926 0.450766 0.018105 -0.013208 275259.000000 1 0 0
-1.001155 -11.995428 13.900971 18.388301 1.487528 0.713664 0.000885 -0.008431 -48863.700000 1 0 0
-5.741855 -4.205028 16.796871 18.242424 0.632107 0.400776 0.028690 -0.013414 520116.000000 1 0 0
-12.944955 -1.607228 9.829571 16.333264 0.123527 0.925027 0.015219 -0.002342 -582458.000000 1 0 0
-14.725255 10.337472 10.173771 20.668867 -0.612083 1.056150 0.033884 -0.013961 470696.000000 1 0 0
-3.392955 -3.256428 17.596171 18.213778 0.764869 0.261160 0.020700 -0.019589 -1078020.000000 1 0 0
-8.054555 9.140472 11.803671 16.963217 -0.848467 0.801209 0.016956 -0.008986 -175504.000000 1 0 0
-3.896355 10.492772 16.433971 19.883542 -1.215241 0.597915 -0.008407 -0.010200 170918.000000 1 0 0
-12.417455 12.782872 8.362571 19.685720 -0.799898 1.132051 0.031905 -0.017426 191767.000000 1 0 0
-12.727355 3.131572 10.415071 16.741147 -0.241258 0.899344 0.009998 0.000275 646945.000000 1 0 0
-10.073855 -3.491028 13.637271 17.310257 0.333592 0.663544 0.030610 -0.008335 -1100400.000000 1 0 0
-4.022255 -6.504128 17.715171 19.295323 1.016946 0.407519 0.039789 -0.018317 -106130.000000 1 0 0
0.973545 -3.639228 17.915871 18.307654 -1.309403 0.207252 0.021577 -0.018523 -803984.000000 1 0 0
-5.995155 1.828172 13.580271 14.956866 -0.295984 0.432401 0.005973 0.000396 -906295.000000 1 0 0
-10.685955 8.530072 10.146071 17.026289 -0.673673 0.932403 0.024066 -0.010392 196981.000000 1 0 0
4.668845 2.594272 17.310171 18.115473 0.507175 0.299290 0.036927 -0.016153 -438010.000000 1 0 0
0.634745 -5.335228 13.216771 14.267116 -1.452381 0.386113 0.003002 -0.001669 -1464590.000000 1 0 0
-4.171355 6.013472 20.774171 22.025626 -0.964332 0.338717 0.045783 -0.011684 -270.479000 1 0 0
-10.848955 10.756472 8.972371 17.717363 -0.781118 1.039772 0.028575 -0.017880 240596.000000 1 0 0
0.576845 4.160672 12.990671 13.652892 1.433032 0.312734 0.007671 -0.008957 -2468740.000000 1 0 0
-3.231255 7.189972 13.345571 15.499708 -1.148432 0.533523 0.003727 0.002044 -2138880.000000 1 0 0
0.657245 8.929472 14.090171 16.694321 1.497325 0.566080 0.000924 -0.006907 195131.000000 1 0 0
-4.027855 -6.673128 13.078471 15.225001 1.027739 0.537458 0.013316 -0.007807 -363370.000000 1 0 0
-4.997855 8.154372 16.387971 18.974665 -1.020942 0.528278 0.010395 -0.009244 -138743.000000 1 0 0
1.713445 -10.778828 15.713371 19.131886 -1.413151 0.607078 -0.000878 -0.004038 -634036.000000 1 0 0
-15.141055 -0.925428 14.111671 20.718282 0.061045 0.821503 0.048573 -0.002693 586304.000000 1 0 0
-13.331355 -5.358428 8.546771 16.717807 0.382179 1.034172 0.031566 -0.009010 -1504990.000000 1 0 0
-14.181455 -2.073028 12.043271 18.720350 0.145151 0.871963 0.041668 -0.009961 184901.000000 1 0 0
9.516145 1.314072 16.806271 19.358061 0.137221 0.519274 0.073753 -0.025218 -161898.000000 1 0 0
5.152845 -6.657028 16.769071 18.763517 -0.912083 0.465257 0.023162 -0.020709 112827.000000 1 0 0
-6.044555 -2.703028 11.086971 12.913711 0.420510 0.538376 0.007934 -0.002276 165283.000000 1 0 0
0.768845 -6.211228 18.065571 19.118978 -1.447640 0.333500 0.022478 -0.021446 -265137.000000 1 0 0
-8.447455 11.750372 12.173971 18.911274 -0.947492 0.871419 0.034951 -0.015555 186759.000000 1 0 0
-6.404955 -6.012428 14.868771 17.270006 0.753798 0.533644 0.026549 -0.006000 -1010520.000000 1 0 0
-4.185455 -8.968528 17.096871 19.754886 1.134156 0.524748 0.036645 -0.017106 339402.000000 1 0 0
2.597545 -6.048428 16.242271 17.525470 -1.165156 0.385047 0.012453 -0.012623 265958.000000 1 0 0
2.247045 5.291172 15.990271 16.992188 1.169198 0.345115 0.013425 -0.010942 -2396150.000000 1 0 0
1.012645 -8.869728 14.046371 16.643259 -1.457120 0.566159 -0.003954 -0.002759 -72744.000000 1 0 0
-9.752755 -2.804628 11.168371 15.090218 0.280017 0.737567 0.002623 -0.002476 269286.000000 1 0 0
-1.388755 10.069872 12.389371 16.025837 -1.433749 0.687102 -0.007971 -0.008257 -629760.000000 1 0 0
-12.238955 -3.634128 11.385771 17.106569 0.288639 0.842527 0.023577 -0.005627 -1644210.000000 1 0 0
-1.862455 6.919072 20.014271 21.258253 -1.307852 0.343795 0.028451 -0.007803 289619.000000 1 0 0
0.290945 -13.428528 15.683571 20.649078 -1.549134 0.708208 0.004679 -0.013217 -464405.000000 1 0 0
4.105645 -8.601528 15.433071 18.138971 -1.125460 0.553245 0.002913 -0.005867 -435264.000000 1 0 0
4.533845 -4.294228 16.171671 17.335486 -0.758262 0.368510 0.030627 -0.012533 -173000.000000 1 0 0
8.155145 1.882272 14.651571 16.873585 0.226836 0.519003 0.025127 -0.009426 93660.900000 1 0 0
-6.312555 -0.135428 11.804371 13.386929 0.021451 0.491166 0.007082 -0.002245 345457.000000 1 0 0
-3.532655 -11.100228 18.419671 21.794013 1.262681 0.563911 0.062061 -0.015955 259588.000000 1 0 0
3.338445 -1.467228 13.583071 14.064060 -0.414083 0.262285 0.011024 -0.004144 -45505.500000 1 0 0
-2.421455 8.374572 15.808271 18.052654 -1.289329 0.503963 0.007762 -0.015408 677617.000000 1 0 0
-3.346555 4.039772 14.814071 15.715466 -0.878975 0.340335 0.011455 -0.004157 521147.000000 1 0 0
-4.311355 -8.962928 19.729871 22.095015 1.122447 0.466927 0.058560 -0.028368 -162022.000000 1 0 0
-5.575055 -3.114628 19.088271 20.128195 0.509477 0.322850 0.035968 -0.021908 -933358.000000 1 0 0
-6.554655 -8.711728 11.160971 15.602083 0.925765 0.773670 0.019847 -0.004958 419186.000000 1 0 0
-11.807655 2.518972 12.717571 17.535751 -0.210183 0.759418 0.014579 -0.006532 -87570.200000 1 0 0
-11.749655 -7.533228 11.622271 18.162629 0.570125 0.876428 0.049847 -0.010659 323360.000000 1 0 0
-10.963855 -7.316628 15.410271 20.278452 0.588469 0.707586 0.072145 -0.031090 70541.400000 1 0 0
0.297045 5.745672 17.638071 18.552696 1.519143 0.315307 0.010795 -0.011911 -73768.300000 1 0 0
-2.185055 -0.129528 13.212971 13.393052 0.059210 0.164171 0.007649 -0.001316 113749.000000 1 0 0
-6.021055 -10.294928 18.266471 21.815192 1.041586 0.578419 0.076828 -0.029246 -1125450.000000 1 0 0
0.355545 2.694672 19.131771 19.323880 1.439610 0.141124 0.026915 -0.016634 -221409.000000 1 0 0
-0.796155 10.962672 14.740771 18.387614 -1.498299 0.640715 0.007067 -0.006757 -446492.000000 1 0 0
-12.773455 -2.186828 14.187771 19.215520 0.169557 0.740176 0.038137 -0.011706 -94647.300000 1 0 0
-13.817955 8.392372 11.659171 19.932487 -0.545808 0.945999 0.029904 -0.017473 311391.000000 1 0 0
-18.091555 -0.446828 6.828071 19.342352 0.024693 1.210009 0.086418 -0.030994 342396.000000 1 0 0
-1.798355 -7.797228 17.533571 19.273219 1.344120 0.428145 0.028572 -0.022767 -1851520.000000 1 0 0
5.813445 2.854172 14.531471 15.909308 0.456390 0.419251 0.020173 -0.010624 -2922020.000000 1 0 0
-14.389255 -7.436428 11.292771 19.745324 0.477000 0.961950 0.082506 -0.006950 -187669.000000 1 0 0
3.230645 7.656172 16.310371 18.305251 1.171498 0.471206 0.019711 -0.021110 -42191.000000 1 0 0
0.961245 2.054472 14.556771 14.732428 1.133174 0.154576 0.013932 -0.012359 -1145540.000000 1 0 0
-14.414855 0.621372 9.697171 17.384167 -0.043080 0.979044 0.026202 -0.004195 -2025350.000000 1 0 0
-9.432955 -5.195828 15.490971 18.866570 0.503470 0.607495 0.046045 -0.012078 239890.000000 1 0 0
-2.613155 0.144672 18.027171 18.216158 -0.055306 0.144171 0.020469 -0.010447 96107.900000 1 0 0
6.847345 3.843272 17.352571 19.046485 0.511462 0.424938 0.058788 -0.024247 -238051.000000 1 0 0
-4.116155 -0.927428 14.775471 15.366112 0.221614 0.278161 0.013496 -0.001629 -134095.000000 1 0 0
4.814545 -9.008428 17.972971 20.672670 -1.079971 0.516795 0.020208 -0.003786 -373851.000000 1 0 0
1.857345 6.920072 13.329371 15.133051 1.308577 0.493222 0.004075 -0.009853 -815078.000000 1 0 0
-3.656155 -0.925228 20.231171 20.579694 0.247857 0.184300 0.029940 -0.017251 -326532.000000 1 0 0
-10.657455 1.650372 16.067671 19.351360 -0.153636 0.591129 0.026515 -0.015780 -687523.000000 1 0 0
-4.054855 7.096572 18.514571 20.238392 -1.051685 0.415724 0.023742 -0.007908 253409.000000 1 0 0
-12.647355 1.013172 14.586371 19.332468 -0.079939 0.715903 0.026407 -0.009742 -200682.000000 1 0 0
-15.891555 -5.025828 8.546871 18.730976 0.306305 1.096968 0.063154 -0.018938 -146497.000000 1 0 0
-2.360055 0.926972 15.615071 15.819595 -0.374263 0.160975 0.016961 -0.004606 215484.000000 1 0 0
-13.369055 -8.802928 13.260571 20.786196 0.582296 0.878962 0.063166 -0.024053 647392.000000 1 0 0
6.309645 -3.067028 14.620171 16.216278 -0.452454 0.447403 0.030560 -0.010679 999422.000000 1 0 0
-15.803355 0.756172 7.487871 17.503886 -0.047812 1.128757 0.037709 -0.013864 142571.000000 1 0 0
-14.297855 5.982972 12.413671 19.857589 -0.396312 0.895492 0.034235 -0.007714 -253152.000000 1 0 0
0.338945 9.481872 16.617571 19.135423 1.535065 0.518791 0.010769 -0.017459 -428291.000000 1 0 0
-10.400655 -5.445828 10.813971 15.961599 0.482352 0.826439 0.026571 -0.009773 362671.000000 1 0 0
-3.039655 -11.125428 15.299071 19.159234 1.304089 0.645960 0.020291 -0.004438 -654802.000000 1 0 0
-3.613455 2.713972 12.604971 13.390593 -0.644188 0.344246 0.012219 -0.002732 -1702550.000000 1 0 0
-12.414455 -7.753928 7.429971 16.414828 0.558303 1.101075 0.028785 -0.006709 45232.000000 1 0 0
-8.132855 -1.981328 13.239271 15.663566 0.238965 0.563806 0.016242 -0.002015 -1108400.000000 1 0 0
-9.889755 6.335372 9.509771 15.112244 -0.569738 0.890175 0.010068 -0.001532 -456596.000000 1 0 0
-17.498255 -3.568528 6.800071 19.109272 0.201178 1.206971 0.057833 -0.023804 364842.000000 1 0 0
-1.264055 -0.020228 20.327771 20.367045 0.016001 0.062112 0.035121 -0.017231 -1899830.000000 1 0 0
-2.886255 2.606972 20.251071 20.621170 -0.734600 0.189744 0.035442 -0.008890 -393978.000000 1 0 0
-3.900055 11.243772 11.079571 16.260065 -1.236918 0.821126 0.003204 -0.013295 -609886.000000 1 0 0
-4.093255 -4.881428 14.903871 16.208283 0.872995 0.403934 0.018869 -0.010489 12749.300000 1 0 0
-0.151455 -14.430828 13.281371 19.612918 1.560301 0.826880 0.016994 -0.011742 317524.000000 1 0 0
-12.189455 0.385372 8.383771 14.799289 -0.031605 0.968546 0.000457 -0.000454 -719469.000000 1 0 0
-7.770655 1.921372 15.413271 17.367892 -0.242398 0.478997 0.012289 -0.001073 -1655200.000000 1 0 0
3.548545 -2.021228 18.440971 18.887746 -0.517762 0.217936 0.039258 -0.017628 -318097.000000 1 0 0
-2.332155 4.951272 12.484071 13.631070 -1.130599 0.413166 0.002497 -0.004189 148299.000000 1 0 0
-10.201155 -6.143128 13.224171 17.795513 0.542035 0.733078 0.029338 -0.013131 278443.000000 1 0 0
2.486745 -3.715028 14.283971 14.967203 -0.980922 0.303316 0.008015 -0.002605 -417018.000000 1 0 0
6.913945 1.217672 16.807571 18.214823 0.174330 0.395663 0.045087 -0.021803 -1355400.000000 1 0 0
-1.812955 -5.723128 13.810471 15.058888 1.264020 0.410058 0.007541 -0.006237 -1805280.000000 1 0 0
-12.886655 3.584072 14.848971 19.985079 -0.271267 0.733250 0.007571 -0.000468 184407.000000 1 0 0
-13.320355 -6.237728 13.298871 19.829299 0.437956 0.835688 0.069190 -0.029024 -18516.200000 1 0 0
-9.685955 6.766072 11.940071 16.797701 -0.609749 0.780139 0.016748 0.000920 34224.300000 1 0 0
-1.004855 -2.414028 12.776671 13.041495 1.176355 0.201868 0.005522 -0.000731 535226.000000 1 0 0
0.096845 6.694072 15.330371 16.728426 1.556330 0.411739 0.005684 -0.009579 411327.000000 1 0 0
-16.418955 -1.038328 9.283771 18.890437 0.063156 1.057038 0.065889 -0.013824 -70076.000000 1 0 0
-1.333555 2.797372 13.606771 13.955209 -1.125948 0.223933 0.006657 -0.005452 -1689520.000000 1 0 0
-11.214455 -3.343128 15.996771 19.820121 0.289721 0.631577 0.050326 -0.018429 -76480.300000 1 0 0
-5.275255 -1.532328 17.103171 17.963708 0.282695 0.310778 0.026475 -0.006839 403991.000000 1 0 0
-12.071255 6.526272 11.080471 17.637581 -0.495633 0.891519 0.021547 -0.002647 -2088200.000000 1 0 0
-2.796055 4.816472 18.818871 19.625652 -1.044824 0.287727 0.029506 -0.007600 205577.000000 1 0 0
5.099045 -1.694428 16.379971 17.238758 -0.320823 0.316975 0.037009 -0.014957 197346.000000 1 0 0
-7.942255 -4.227928 12.082371 15.064477 0.489179 0.640087 0.017392 -0.004942 -1537770.000000 1 0 0
-11.370355 -0.793728 15.980771 19.629061 0.069694 0.619553 0.031872 -0.013380 258094.000000 1 0 0
2.082745 2.177672 17.351271 17.610982 0.807676 0.171951 0.017731 -0.013559 -1435470.000000 1 0 0
-9.031055 -7.619128 11.591971 16.552488 0.700801 0.794956 0.029974 -0.007341 1210620.000000 1 0 0
-7.440055 6.932372 14.866471 18.011778 -0.750089 0.599930 0.013398 -0.002632 215229.000000 1 0 0
-5.791155 3.520372 15.670771 17.073475 -0.546199 0.408184 0.012651 -0.004303 -12684.800000 1 0 0
-9.351755 4.168972 11.487571 15.388305 -0.419352 0.727990 0.000756 -0.003232 -32828.400000 1 0 0
-10.256655 0.104772 13.894271 17.270226 -0.010215 0.635927 0.017552 -0.008605 -287265.000000 1 0 0
8.151845 -0.589328 15.544471 17.562188 -0.072168 0.484066 0.042137 -0.019036 110172.000000 1 0 0
-8.510555 -7.540228 14.791871 18.657010 0.725018 0.655355 0.048332 -0.009329 -2125780.000000 1 0 0
-0.158755 4.256372 15.513671 16.087756 -1.533515 0.267951 0.010864 -0.012715 -74034.000000 1 0 0
-8.203655 2.929172 9.546271 12.923285 -0.342948 0.739675 0.000943 0.001264 -259001.000000 1 0 0
-2.121455 -9.716828 13.318971 16.622645 1.355841 0.641407 0.003530 -0.004023 605077.000000 1 0 0
-6.202255 10.176072 10.446071 15.847422 -1.023425 0.851088 0.020181 -0.009531 -1037970.000000 1 0 0
-8.567155 -2.794728 15.627171 18.039266 0.315330 0.523077 0.034030 -0.013680 431235.000000 1 0 0
4.082745 5.609472 17.696371 19.007801 0.941635 0.373638 0.028000 -0.019627 -115545.000000 1 0 0
-6.741255 -1.034628 15.111971 16.579706 0.152289 0.423943 0.015614 -0.006233 -964199.000000 1 0 0
-0.748355 -9.940928 15.506571 18.434637 1.495658 0.571362 -0.004150 -0.006802 -168044.000000 1 0 0
-4.421355 5.701372 16.363571 17.883525 -0.911180 0.415268 0.014818 -0.001872 292200.000000 1 0 0
3.783345 0.229272 17.391771 17.799999 0.060526 0.214580 0.036971 -0.014737 -498787.000000 1 0 0
1.293245 0.321372 19.060971 19.107495 0.243567 0.069798 0.020602 -0.018716 -780214.000000 1 0 0
-6.541755 6.491872 17.691471 19.948110 -0.781571 0.480261 0.029594 -0.011669 -83952.100000 1 0 0
-12.286855 0.593372 11.002071 16.503468 -0.048256 0.841088 0.016664 -0.004066 -503725.000000 1 0 0
-5.511355 5.259172 13.985071 15.925330 -0.761988 0.498783 0.005584 0.001513 -1694160.000000 1 0 0
-8.678255 -9.471528 9.854771 16.190691 0.829077 0.916414 0.027127 -0.006488 -463854.000000 1 0 0
6.938145 -3.348828 17.123571 18.776826 -0.449687 0.422779 0.046057 -0.011692 1025920.000000 1 0 0
-16.712255 1.600872 9.747471 19.413280 -0.095499 1.044767 0.057497 -0.012478 127194.000000 1 0 0
-4.085955 -9.558928 11.459071 15.471860 1.166853 0.736775 0.005805 -0.005917 -539807.000000 1 0 0
-11.012455 -3.881628 9.106871 14.807981 0.338879 0.908414 0.008001 -0.002816 -814930.000000 1 0 0
3.699945 -5.296828 18.458971 19.557085 -0.961064 0.336698 0.023986 -0.019896 -360018.000000 1 0 0
2.478445 -1.665928 16.030471 16.306256 -0.591801 0.184178 0.014853 -0.010572 -580265.000000 1 0 0
-2.943555 -4.055828 20.210471 20.822521 0.942991 0.243059 0.041404 -0.024870 -881582.000000 1 0 0
-6.278555 -3.473028 14.386371 16.076375 0.505264 0.462642 0.020378 -0.005311 458829.000000 1 0 0
-9.816955 5.016872 13.833771 17.689399 -0.472442 0.672868 0.018098 -0.003705 778439.000000 1 0 0
-5.816955 -5.301328 11.764871 14.154619 0.739055 0.589591 0.013517 0.000393 -633510.000000 1 0 0
6.392745 2.090772 19.232471 20.374652 0.316088 0.336424 0.090517 -0.033987 476780.000000 1 0 0
-2.845555 11.885872 13.420271 18.151441 -1.335813 0.738692 0.008675 -0.016381 -1641420.000000 1 0 0
3.478045 1.540172 15.167971 15.637655 0.416873 0.245711 0.018541 -0.009718 50623.600000 1 0 0
-5.789255 7.472472 12.971671 16.050469 -0.911646 0.629741 0.000976 -0.000214 -1346530.000000 1 0 0
-1.678755 -1.614128 15.250271 15.427067 0.765774 0.151539 0.013397 -0.003309 165077.000000 1 0 0
-7.274955 10.258872 13.967171 18.794980 -0.953964 0.733056 0.040205 -0.028217 -604577.000000 1 0 0
-10.263555 1.919172 10.648271 14.913399 -0.184854 0.775592 0.003058 0.000830 110939.000000 1 0 0
-13.785455 5.198672 9.110171 17.322245 -0.360622 1.016996 0.017979 -0.003975 23940.300000 1 0 0
0.519445 -4.779628 20.213071 20.776980 -1.462542 0.233515 0.039278 -0.024062 -78045.500000 1 0 0
-14.361955 -3.126428 7.505171 16.503572 0.214344 1.098693 0.028677 -0.005789 44181.000000 1 0 0
-2.349055 2.623772 17.700071 18.047015 -0.840586 0.196399 0.014729 -0.007482 -191911.000000 1 0 0
-6.211555 -8.538728 14.653371 18.061411 0.941880 0.624410 0.024346 -0.004916 84289.100000 1 0 0
-8.079755 1.870772 12.038871 14.619051 -0.227529 0.603233 0.000043 -0.002290 58539.800000 1 0 0
-14.440355 -3.666828 10.112571 18.006487 0.248673 0.974469 0.033433 -0.008534 40928.900000 1 0 0
-0.641255 6.935272 12.849671 14.615856 -1.478596 0.496700 0.000631 -0.007538 -1311230.000000 1 0 0
-1.700555 -2.097228 18.940771 19.132252 0.889469 0.141598 0.027059 -0.028556 -147217.000000 1 0 0
-12.925055 10.412072 7.427371 18.183347 -0.678130 1.150018 0.018581 -0.014503 -33015.400000 1 0 0
-19.551855 2.243572 6.597271 20.756508 -0.114250 1.247345 0.097159 -0.037186 -640328.000000 1 0 0
-16.131655 8.409372 6.652971 19.370334 -0.480539 1.220196 0.030752 -0.016994 336202.000000 1 0 0
-12.453755 7.346572 13.601771 19.851355 -0.532966 0.815944 0.031954 -0.008037 279122.000000 1 0 0
-16.219555 8.299572 10.595771 21.076698 -0.472965 1.044049 0.038552 -0.009892 8250.820000 1 0 0
1.789845 10.910972 14.980971 18.619407 1.408204 0.635813 0.013320 -0.018665 -168491.000000 1 0 0
1.930245 14.352572 12.641871 19.223399 1.437111 0.853129 0.007706 -0.004469 -554400.000000 1 0 0
-3.344055 13.721172 11.643571 18.303715 -1.331742 0.881322 0.000942 -0.007922 316108.000000 1 0 0
9.201745 4.869772 15.685571 18.826150 0.486751 0.585963 0.050328 -0.008527 92387.300000 1 0 0
-0.414255 12.511472 12.802071 17.905350 -1.537698 0.774193 -0.003957 -0.007208 -786768.000000 1 0 0
3.557245 13.271172 14.573671 20.029225 1.308909 0.755950 0.027545 -0.008362 122478.000000 1 0 0
-2.944755 -4.208428 -13.721129 14.651001 0.960253 2.783400 0.007444 -0.004339 -188206.000000 1 0 0
5.664045 -11.611928 16.452471 20.918941 -1.116974 0.665697 0.008343 -0.002739 220671.000000 1 0 0
8.034745 -13.504128 7.371971 17.356974 -1.034073 1.132136 0.001295 0.002015 -349480.000000 1 0 0
-0.312755 15.652872 1.120671 15.696054 -1.550818 1.499337 0.002579 -0.007502 -2885290.000000 1 0 0
-14.046555 8.159572 9.020671 18.581088 -0.526253 1.063889 0.019795 -0.006767 493826.000000 1 0 0
-15.426155 -9.754028 4.974371 18.916969 0.563835 1.304709 0.030145 -0.006307 -1275300.000000 1 0 0
9.690945 -11.123428 11.228871 18.540027 -0.854112 0.920207 0.025655 -0.002105 157186.000000 1 0 0
-5.773555 -10.800328 -16.729429 20.732941 1.079875 2.509683 0.068537 -0.010035 -43996.400000 1 0 0
-0.596255 -12.949328 -14.873329 19.729586 1.524784 2.424712 0.036021 -0.007610 44053.400000 1 0 0
5.602845 -15.647128 -12.558329 20.831134 -1.226946 2.217882 0.021851 -0.000407 79257.000000 1 0 0
1.113145 -11.715928 -16.604829 20.352455 -1.476069 2.525018 0.018582 -0.006902 36482.500000 1 0 0
1.086745 -15.029228 -13.372729 20.146677 -1.498613 2.296642 0.048903 0.016073 284453.000000 1 0 0
-6.113555 -6.130428 -14.417529 16.817338 0.786776 2.600801 0.014445 -0.003901 -50122.300000 1 0 0
-6.072855 -8.226428 -17.241329 20.045377 0.934882 2.606291 0.036647 -0.002560 -74623.900000 1 0 0
-1.973055 -16.192328 -13.222129 20.997837 1.449543 2.251951 0.027783 -0.010848 37109.300000 1 0 0
16.403545 -8.117928 -9.135329 20.455593 -0.459550 2.033750 0.099690 -0.020274 -156851.000000 1 0 0
19.808545 -3.997128 -3.735729 20.550211 -0.199114 1.753598 0.159916 -0.016747 338891.000000 1 0 0
14.925745 -12.394928 -8.606329 21.224538 -0.693028 1.988311 0.004831 -0.001238 -70667.600000 1 0 0
18.243745 -2.673328 -6.493129 19.548443 -0.145498 1.909385 0.157908 -0.003453 -190973.000000 1 0 0
8.710145 -9.523028 -15.743829 20.357378 -0.829951 2.454940 0.062193 -0.010998 256650.000000 1 0 0
-4.321655 10.106172 -16.437529 19.773815 -1.166704 2.552198 0.004591 0.009303 348039.000000 1 0 0
2.483645 -9.507328 -18.698929 21.123630 -1.315272 2.657750 0.038920 -0.009356 228448.000000 1 0 0
11.441445 9.512472 -14.247029 20.600282 0.693599 2.334490 0.111092 -0.041852 466498.000000 1 0 0
18.609145 -6.120828 -9.033929 21.572591 -0.317769 2.002885 0.103800 -0.017651 180117.000000 1 0 0
12.152245 4.732972 -14.310129 19.361247 0.371399 2.402547 0.060435 -0.005033 94841.800000 1 0 0
15.681745 6.576872 -10.784229 20.136334 0.397115 2.135968 0.047532 -0.017848 314318.000000 1 0 0
3.439445 -0.335328 -19.241729 19.549587 -0.097188 2.963890 0.036146 -0.010406 154629.000000 1 0 0
10.181345 -1.606828 -14.807429 18.041664 -0.156530 2.533493 0.029717 -0.004689 94203.300000 1 0 0
12.229045 -5.967128 -13.907329 19.456874 -0.453959 2.367102 0.062654 -0.003506 308790.000000 1 0 0
10.384645 6.777472 -13.297029 18.182023 0.578231 2.391064 0.038109 0.006712 646663.000000 1 0 0
10.744745 5.034972 -16.297129 20.159288 0.438212 2.512256 0.079897 -0.026937 365340.000000 1 0 0
12.154445 -9.947328 -14.885929 21.639565 -0.685867 2.329393 0.111690 -0.016812 358819.000000 1 0 0
-0.914055 2.633772 -17.502729 17.723368 -1.236750 2.983637 0.032444 -0.008444 357452.000000 1 0 0
6.357445 -1.138028 -17.020729 18.204874 -0.177131 2.778927 0.019363 0.002117 24453.200000 1 0 0
7.422845 -6.979928 -16.001129 18.969822 -0.754656 2.574571 0.039534 -0.002427 352409.000000 1 0 0
-2.162955 -4.760028 -20.388329 21.048045 1.144290 2.890561 0.019538 -0.019511 499570.000000 1 0 0
15.905845 -0.193928 -13.380629 20.786408 -0.012192 2.270146 0.101859 -0.016391 -9167.560000 1 0 0
-4.136455 -0.332728 -18.580729 19.038500 0.080265 2.921859 0.023721 -0.013944 199911.000000 1 0 0
4.268845 8.393372 -18.305929 20.585888 1.100295 2.666492 0.040859 -0.003438 168056.000000 1 0 0
9.249045 -0.416328 -17.556129 19.847817 -0.044983 2.656297 0.044895 -0.000902 -690.923000 1 0 0
4.131945 4.623972 -18.346929 19.366566 0.841533 2.815654 0.015750 0.000365 370889.000000 1 0 0
-2.172055 -11.265428 -18.040629 21.379710 1.380326 2.575159 0.037130 -0.016160 68787.500000 1 0 0
5.579245 -9.648628 -16.256129 19.710042 -1.046529 2.540581 0.021206 -0.006297 -39394.500000 1 0 0
10.188345 -12.485628 -10.658129 19.320689 -0.886372 2.155130 0.028096 0.001021 37122.500000 1 0 0
6.133345 6.796972 -17.311329 19.583127 0.836676 2.655130 0.030764 -0.000569 358021.000000 1 0 0
8.296445 1.597872 -20.019929 21.729744 0.190267 2.742244 0.065704 -0.027123 68327.500000 1 0 0
-1.029855 -0.621128 -20.253229 20.288906 0.542712 3.082281 0.038618 -0.019657 170623.000000 1 0 0
-0.780255 6.699672 -19.745529 20.865769 -1.454857 2.812426 0.029161 -0.007787 25129.200000 1 0 0
8.695745 5.774472 -18.010829 20.817072 0.586194 2.616336 0.078991 -0.025040 86651.800000 1 0 0
11.983745 -0.044728 -13.028529 17.701828 -0.003732 2.397938 0.017867 -0.005523 90251.100000 1 0 0
-4.452155 -2.485528 -19.930529 20.572446 0.509174 2.891128 0.011625 -0.011106 438465.000000 1 0 0
5.508445 -11.450328 -14.350929 19.167737 -1.122405 2.416899 0.005840 -0.003048 20523.200000 1 0 0
11.527945 1.376972 -16.004729 19.772226 0.118883 2.514020 0.060130 -0.006144 26976.600000 1 0 0
-2.742655 -4.521528 -17.175929 17.971614 1.025555 2.842912 0.001449 -0.003002 118671.000000 1 0 0
-6.803855 -4.813728 -17.271629 19.177424 0.615742 2.691997 0.031725 -0.009038 65000.900000 1 0 0
2.849945 10.237772 -15.028729 18.406435 1.299295 2.526107 -0.003786 -0.012394 215271.000000 1 0 0
16.964145 -6.205528 -10.857429 21.075449 -0.350683 2.112002 0.123100 -0.020348 -44925.800000 1 0 0
9.461845 -3.451628 -17.629529 20.303708 -0.349793 2.622543 0.039027 -0.022598 130013.000000 1 0 0
-7.174755 -1.234228 -18.691029 20.058789 0.170356 2.770171 0.017219 -0.006947 336547.000000 1 0 0
1.674245 -7.401928 -19.203129 20.648288 -1.348349 2.765238 0.041245 -0.033308 334857.000000 1 0 0
6.081245 10.842172 -13.828429 18.594614 1.059632 2.409353 0.035527 -0.009068 309008.000000 1 0 0
5.874945 -3.494028 -18.382629 19.612350 -0.536538 2.785593 0.033156 -0.016623 475269.000000 1 0 0
4.519445 13.422872 -14.595029 20.337496 1.246021 2.371206 0.032267 -0.014539 96884.500000 1 0 0
8.657345 11.357772 -15.373229 20.982964 0.919508 2.393008 0.078998 -0.025467 276446.000000 1 0 0
17.114745 1.026272 -11.530429 20.662007 0.059892 2.162830 0.136339 -0.012282 147656.000000 1 0 0
15.194245 -2.899428 -12.082229 19.627838 -0.188557 2.233900 0.119497 -0.018106 -26885.200000 1 0 0
-8.889055 0.362872 -17.382629 19.526976 -0.040800 2.668548 0.035294 -0.016496 504564.000000 1 0 0
-3.447455 4.009172 -19.131129 19.848388 -0.860587 2.871939 0.038698 -0.013723 95630.500000 1 0 0
4.264645 2.157672 -16.785929 17.453085 0.468392 2.864206 0.006653 -0.006572 424364.000000 1 0 0
-5.038255 14.227572 -13.959229 20.558888 -1.230457 2.317179 0.023569 -0.005870 238014.000000 1 0 0
1.182545 9.415572 -17.548129 19.949643 1.445856 2.645862 0.016093 -0.004606 415013.000000 1 0 0
1.596545 -4.744628 -19.585629 20.215275 -1.246203 2.891353 0.042287 -0.020369 212128.000000 1 0 0
4.150945 -6.270128 -18.202029 19.694129 -0.986018 2.749827 0.042599 -0.024769 192639.000000 1 0 0
-7.092755 7.312372 -16.247029 19.176650 -0.800643 2.581545 0.015710 0.001767 48352.100000 1 0 0
-11.966855 3.148272 -16.817029 20.878930 -0.257253 2.507238 0.088066 -0.028789 394132.000000 1 0 0
-4.882655 7.069472 -17.855329 19.814907 -0.966361 2.693110 0.010430 0.026795 286890.000000 1 0 0
-8.449355 5.308872 -17.688629 20.309193 -0.560981 2.627963 0.036224 -0.011476 313419.000000 1 0 0
-8.625255 4.699172 -15.127429 18.036528 -0.498854 2.565708 -0.001222 -0.013933 531251.000000 1 0 0
9.553145 13.730972 -12.649429 20.971653 0.962937 2.218263 0.109611 -0.047375 608947.000000 1 0 0
14.772645 9.883372 -11.575729 21.211072 0.589638 2.148068 0.152497 -0.034150 249055.000000 1 0 0
8.640245 15.694372 -9.857429 20.448375 1.067545 2.073806 0.092974 -0.032099 -1407.540000 1 0 0
7.857445 14.015372 -14.429729 21.595999 1.059828 2.302538 0.099108 -0.028503 192123.000000 1 0 0
3.907045 15.430572 -12.896929 20.486540 1.322807 2.251747 0.030714 -0.023975 110090.000000 1 0 0
10.679445 11.878972 -10.942229 19.362151 0.838522 2.171393 0.089220 -0.035658 213337.000000 1 0 0
15.667445 10.953272 -8.751429 21.024521 0.610129 2.000112 0.095157 -0.048813 382340.000000 1 0 0
12.152045 10.638372 -9.234629 18.604449 0.719078 2.090205 0.071444 -0.044713 147137.000000 1 0 0
10.457545 11.975772 -7.340329 17.511704 0.852972 2.003324 0.067638 -0.020755 53700.500000 1 0 0
5.547645 16.943972 -10.056329 20.469594 1.254385 2.084357 0.059848 -0.010343 110205.000000 1 0 0
11.457045 14.412472 -10.181429 21.039123 0.899149 2.075935 0.152371 -0.044267 -80542.600000 1 0 0
8.718145 -19.418228 -1.756329 21.357864 -1.148802 1.653123 0.059876 -0.009933 285466.000000 1 0 0
7.616545 -16.824028 -4.001529 18.896347 -1.145684 1.784174 0.035911 -0.014968 369688.000000 1 0 0
4.005345 -18.646728 5.007271 19.718419 -1.359210 1.314046 0.052225 -0.031997 -79068.800000 1 0 0
10.452445 -17.626228 -2.738429 20.674538 -1.035536 1.703641 0.058442 -0.013001 627560.000000 1 0 0
-3.247455 -15.056528 7.873671 17.298546 1.358366 1.098240 0.034403 -0.031882 176766.000000 1 0 0
-15.205255 -12.771628 -3.927929 20.242107 0.698630 1.766083 0.056125 -0.022099 159888.000000 1 0 0
-9.187755 -12.759728 -7.159229 17.276576 0.946735 1.998068 0.044944 -0.012321 153778.000000 1 0 0
-11.375355 -15.628928 6.684871 20.453596 0.941629 1.237848 0.057945 -0.010746 171991.000000 1 0 0
-14.564755 -8.554328 -8.092629 18.729636 0.531052 2.017590 0.054849 -0.020090 -135678.000000 1 0 0
4.407945 -15.891828 4.961471 17.221974 -1.300226 1.278565 0.018333 -0.010194 163356.000000 1 0 0
2.961245 -14.118628 9.075171 17.042986 -1.364053 1.009260 0.018397 -0.004879 419423.000000 1 0 0
3.329445 -17.481428 10.116571 20.470236 -1.382594 1.053872 0.037372 -0.010464 324494.000000 1 0 0
-8.414055 -17.893628 -5.255429 20.459663 1.131250 1.830576 0.050205 -0.010414 71878.200000 1 0 0
2.302445 -19.781228 -3.936929 20.300189 -1.454922 1.765969 0.039993 -0.019218 230562.000000 1 0 0
-18.006455 -10.797428 -1.842529 21.076333 0.540156 1.658330 0.015255 -0.008050 19707.400000 1 0 0
-4.363855 -14.943728 2.975371 15.849640 1.286677 1.381951 0.015776 -0.006798 124909.000000 1 0 0
-10.098755 -9.689428 -14.861529 20.414087 0.764716 2.386202 0.053867 -0.002842 68289.900000 1 0 0
1.323745 -20.383128 2.440971 20.571402 -1.505944 1.451858 0.057799 -0.019901 165133.000000 1 0 0
7.122445 -18.119728 0.946971 19.492320 -1.196272 1.522195 0.048070 -0.020733 249825.000000 1 0 0
-6.828055 -17.672928 -3.376129 19.244557 1.202106 1.747142 0.003367 -0.056967 115978.000000 1 0 0
-8.724755 -15.787228 -7.677429 19.603593 1.065924 1.973203 0.072230 -0.011489 -169305.000000 1 0 0
-12.057055 -10.956628 -12.603029 20.597491 0.737618 2.229222 0.089024 -0.007588 407754.000000 1 0 0
-13.258055 -15.349728 -3.677429 20.613434 0.858384 1.750156 0.061392 -0.006948 204543.000000 1 0 0
-0.231455 -20.253028 -2.355129 20.390816 1.559369 1.686554 0.054378 -0.026128 302659.000000 1 0 0
-11.685055 -17.014328 -0.821729 20.656794 0.969000 1.610587 0.053426 -0.015195 140824.000000 1 0 0
0.857145 -19.961128 5.185971 20.641600 -1.527882 1.316836 0.063045 -0.032047 224914.000000 1 0 0
-18.153255 -8.765928 2.597371 20.325563 0.449862 1.442658 0.045512 -0.010515 31520.800000 1 0 0
-14.633855 -14.910728 -0.282829 20.894007 0.794769 1.584333 0.057990 -0.020739 103838.000000 1 0 0
10.552145 -15.383928 -4.937929 19.297569 -0.969583 1.829558 0.017566 -0.004084 -69226.800000 1 0 0
0.023345 -18.994528 -7.251429 20.331647 -1.569567 1.935484 0.034893 -0.012102 -92630.800000 1 0 0
-9.996755 -18.535528 -2.656629 21.226366 1.076182 1.696282 0.050447 0.031535 481552.000000 1 0 0
-15.214355 -7.156728 -11.271729 20.242214 0.439683 2.161376 0.100256 -0.028065 108252.000000 1 0 0
-12.548055 -14.769528 1.790771 19.462773 0.866540 1.478656 0.061395 -0.028561 381370.000000 1 0 0
-2.436755 -16.439728 10.291671 19.547914 1.423644 1.016336 0.032210 -0.022445 373722.000000 1 0 0
-12.613955 -14.294728 -6.476229 20.134366 0.847779 1.898268 0.074478 -0.016756 212508.000000 1 0 0
5.372045 -16.900328 -7.800929 19.373551 -1.263030 1.985216 0.028768 -0.010513 2633.680000 1 0 0
-17.453555 -7.274528 -3.033229 19.150609 0.394899 1.729854 -0.005751 -0.010428 -122058.000000 1 0 0
-12.009655 -13.498528 -9.451229 20.390386 0.843700 2.052753 0.082439 -0.033282 59253.400000 1 0 0
-7.697655 -13.798728 9.688471 18.534435 1.061944 1.020748 0.030912 -0.013349 492873.000000 1 0 0
-15.775155 -8.428128 -5.798229 18.801817 0.490683 1.884293 0.046136 -0.009318 162662.000000 1 0 0
-0.557555 -19.479428 0.015471 19.487412 1.542181 1.570002 0.031856 -0.021134 285227.000000 1 0 0
-14.927055 -11.485728 -1.990229 18.939376 0.655838 1.676075 0.017537 -0.000556 217243.000000 1 0 0
-7.145555 -19.172228 1.551971 20.519306 1.214041 1.495089 0.044861 -0.022848 129456.000000 1 0 0
-1.497355 -21.029028 -4.938329 21.652926 1.499712 1.800889 0.041164 -0.013524 -44529.900000 1 0 0
-9.199155 -18.985428 -0.118929 21.097040 1.119595 1.576434 0.056422 -0.046787 -98060.200000 1 0 0
-17.609855 -7.619328 5.234271 19.888659 0.408353 1.304481 0.041677 -0.014915 -100246.000000 1 0 0
-2.895855 -15.736928 -10.967629 19.399118 1.388816 2.171675 0.026201 -0.001705 -40926.000000 1 0 0
-2.886555 -18.026328 -8.439029 20.112134 1.412014 2.003800 0.021864 -0.014808 210831.000000 1 0 0
4.252545 -17.916928 -5.799729 19.306406 -1.337761 1.875913 0.014927 0.018032 540885.000000 1 0 0
0.651545 -17.359528 -9.625429 19.860177 -1.533282 2.076771 0.018655 -0.001639 -21639.700000 1 0 0
-7.510155 -10.055828 -13.958429 18.771251 0.929317 2.409245 0.046933 -0.025899 7468.370000 1 0 0
-4.657355 -19.773428 -1.904629 20.403604 1.339476 1.664280 0.038723 -0.022181 389848.000000 1 0 0
-10.411355 -15.191028 8.588671 20.320653 0.969962 1.134421 0.049414 -0.035284 231008.000000 1 0 0
-7.028355 -15.241728 -10.312229 19.698988 1.138729 2.121739 0.044436 -0.011370 177876.000000 1 0 0
-12.615355 -7.962628 -12.327729 19.352611 0.563035 2.261404 0.074677 -0.022321 222773.000000 1 0 0
-15.416755 -12.899228 3.376071 20.382941 0.696723 1.404397 0.047854 -0.011824 112373.000000 1 0 0
-5.894455 -14.339828 -13.052229 20.266622 1.180796 2.270546 0.024775 -0.004730 399204.000000 1 0 0
-13.920355 -11.802828 -6.816929 19.482135 0.703264 1.928268 0.059015 -0.014820 153855.000000 1 0 0
-11.601455 -10.459128 -8.123629 17.606263 0.733663 2.050375 0.045465 -0.021000 231867.000000 1 0 0
-9.776555 -15.210728 3.312271 18.382558 0.999541 1.389621 0.011601 0.006706 499253.000000 1 0 0
5.192845 -18.069828 8.306671 20.554443 -1.290961 1.154769 0.052566 -0.024712 238444.000000 1 0 0
-4.709355 -16.999328 5.310971 18.421770 1.300542 1.278347 0.013600 0.002282 353629.000000 1 0 0
-18.051755 -7.617828 -6.398529 20.611607 0.399326 1.886445 0.048298 -0.032666 39350.600000 1 0 0
-16.985455 -4.444728 -10.948429 20.691288 0.255940 2.128374 0.085283 -0.009510 -289326.000000 1 0 0
-15.770555 -4.368528 -12.701629 20.715353 0.270230 2.230839 0.088640 -0.027209 410237.000000 1 0 0
-19.562855 -5.288428 -5.904129 21.107618 0.264019 1.854294 0.073621 -0.011851 -15948.700000 1 0 0
5.923145 -13.598328 8.817771 17.255471 -1.159999 1.034433 0.027706 0.003713 148278.000000 1 0 0
19.953545 -3.325128 2.774071 20.418029 -0.165126 1.434511 0.094701 -0.020044 21639.900000 1 0 0
18.317945 -2.662628 -0.246129 18.512084 -0.144345 1.584092 0.059299 -0.010835 230533.000000 1 0 0
14.361045 -11.214728 0.450571 18.226704 -0.662994 1.546073 0.037255 -0.009022 53132.500000 1 0 0
11.089445 -13.566428 5.316771 18.310975 -0.885524 1.276194 0.025188 -0.011074 401196.000000 1 0 0
10.081245 -13.035328 8.592071 18.584267 -0.912500 1.090175 0.029606 -0.016050 -75694.600000 1 0 0
18.028245 5.377772 -4.751029 19.403874 0.289894 1.818161 0.031636 0.012886 -67791.900000 1 0 0
19.021845 -5.933228 -5.581829 20.692767 -0.302353 1.843927 0.094176 -0.008688 -112887.000000 1 0 0
17.516345 -10.080928 0.109271 20.210378 -0.522222 1.565390 0.041412 -0.004332 165253.000000 1 0 0
17.618945 -8.803728 8.796071 21.570900 -0.463387 1.150781 0.129334 -0.034998 -21722.400000 1 0 0
19.759645 0.164072 -2.025529 19.863868 0.008303 1.672944 0.103881 -0.006584 -180815.000000 1 0 0
7.808245 -13.226728 11.764771 19.347477 -1.037511 0.917159 0.029563 0.005641 420991.000000 1 0 0
16.373845 -6.459728 -3.303429 17.909314 -0.375769 1.756312 0.070053 -0.008806 409884.000000 1 0 0
14.385545 -7.217328 10.823471 19.395392 -0.465012 0.978770 0.083816 -0.060030 416875.000000 1 0 0
16.800145 1.101972 10.174671 19.671887 0.065499 1.027198 0.150411 -0.039304 393256.000000 1 0 0
16.679945 -10.195828 2.559371 19.716132 -0.548660 1.440618 0.029481 -0.014481 249739.000000 1 0 0
16.477345 -7.307528 -6.092129 19.026742 -0.417427 1.896724 0.080134 -0.004511 241410.000000 1 0 0
17.969845 -4.122128 6.056971 19.406034 -0.225490 1.253375 0.106914 -0.025562 4268.950000 1 0 0
13.436745 -13.458928 8.148271 20.690171 -0.786223 1.166009 0.068122 -0.019840 63511.900000 1 0 0
15.603145 -13.949928 -1.547329 20.986969 -0.729516 1.644591 0.055472 -0.012392 265704.000000 1 0 0
18.692445 -6.148128 7.420471 21.030225 -0.317764 1.210183 0.163071 -0.046450 261801.000000 1 0 0
19.837645 3.807772 2.743471 20.385237 0.189640 1.435805 0.091103 -0.005512 430823.000000 1 0 0
15.667745 -10.771328 8.073871 20.656407 -0.602277 1.169225 0.077944 -0.041386 134117.000000 1 0 0
14.378945 -4.268128 10.804871 18.485567 -0.288548 0.946529 0.074245 -0.015014 24969.500000 1 0 0
18.897745 -7.956728 2.481771 20.654139 -0.398513 1.450347 0.100146 -0.019632 65989.500000 1 0 0
19.221245 -5.807828 -1.323729 20.123106 -0.293434 1.636625 0.083996 -0.016524 295479.000000 1 0 0
14.840945 -13.349528 -5.928629 20.823357 -0.732542 1.859501 0.061814 -0.022580 409833.000000 1 0 0
14.016645 -9.686928 10.270371 19.894306 -0.604729 1.028334 0.053114 -0.023723 468015.000000 1 0 0
14.371945 2.664272 0.637271 14.630696 0.183299 1.527225 0.008580 -0.002008 -23758.700000 1 0 0
12.755245 3.015472 13.752271 18.997744 0.232148 0.761373 0.054708 -0.021419 241908.000000 1 0 0
18.051845 -3.744328 9.433771 20.709542 -0.204521 1.097831 0.127280 -0.023548 14050.600000 1 0 0
8.106345 -18.932728 4.924271 21.175681 -1.166247 1.336104 0.081687 -0.028496 333295.000000 1 0 0
13.315145 -2.898128 14.604071 19.974261 -0.214314 0.750798 0.093541 -0.016407 171304.000000 1 0 0
11.593845 -13.712628 -6.707729 19.168908 -0.868928 1.928290 0.026361 -0.013114 91039.900000 1 0 0
10.782345 -17.457928 4.567171 21.021353 -1.017522 1.351786 0.073607 -0.030969 413691.000000 1 0 0
18.399245 -0.411128 -4.256729 18.889706 -0.022341 1.798095 0.101095 -0.009958 115587.000000 1 0 0
4.270445 -13.417928 11.717271 18.318623 -1.262669 0.876770 0.001677 -0.001218 105883.000000 1 0 0
9.866745 -2.859228 14.725771 17.954837 -0.282059 0.609112 0.060717 -0.001859 488131.000000 1 0 0
9.172845 -9.162428 13.778271 18.919089 -0.784830 0.754997 0.050830 -0.020393 389354.000000 1 0 0
20.956945 5.932272 -2.592229 21.934107 0.275853 1.689256 0.159822 0.004694 281201.000000 1 0 0
14.783045 -13.146928 1.730971 19.858912 -0.726886 1.483522 0.038191 -0.018666 121589.000000 1 0 0
11.852845 -0.149128 15.036371 19.146922 -0.012581 0.667591 0.082816 -0.017844 41956.300000 1 0 0
19.985145 -0.022728 7.555671 21.365736 -0.001137 1.209342 0.196583 -0.030127 146101.000000 1 0 0
19.826845 0.985072 0.451971 19.856445 0.049643 1.548032 0.084842 -0.011259 222424.000000 1 0 0
18.086245 0.407872 3.148971 18.362860 0.022548 1.398459 0.062118 -0.006117 -51335.600000 1 0 0
10.476445 -8.088228 16.386871 21.064303 -0.657458 0.679408 0.079698 -0.015460 124548.000000 1 0 0
19.099845 3.126472 5.635371 20.157785 0.162252 1.287457 0.080645 -0.008731 88232.100000 1 0 0
15.841245 2.663972 7.383471 17.679294 0.166608 1.139957 0.081899 -0.014357 103505.000000 1 0 0
12.042845 -15.676128 1.994471 19.868292 -0.915731 1.470242 0.065610 -0.020126 252140.000000 1 0 0
7.454245 -16.796228 6.545571 19.507013 -1.153106 1.228608 0.009015 -0.001661 327195.000000 1 0 0
6.145045 6.825972 7.182171 11.659290 0.837846 0.907136 0.000316 -0.000882 -900624.000000 1 0 0
18.440745 2.854772 -6.414229 19.732033 0.153589 1.901879 0.081875 0.002550 347880.000000 1 0 0
14.067545 4.451672 -7.202129 16.419009 0.306479 2.024888 0.009615 0.001418 357232.000000 1 0 0
-10.592955 -3.889328 -14.081029 18.044749 0.351881 2.466005 0.023598 -0.000974 -441461.000000 1 0 0
7.685045 -14.062928 -10.321029 19.061729 -1.070663 2.142961 0.012475 -0.000397 -174811.000000 1 0 0
1.947745 -16.118928 13.613871 21.188465 -1.450543 0.873023 0.010909 -0.012640 395376.000000 1 0 0
-9.441655 -7.895428 2.142271 12.492877 0.696447 1.398465 0.008779 0.002969 445801.000000 1 0 0
-13.736955 3.257172 -9.853429 17.216364 -0.232811 2.180140 0.009319 0.002161 163075.000000 1 0 0
-12.750555 -5.060028 -13.406829 19.181335 0.377786 2.344727 0.043939 -0.005036 217969.000000 1 0 0
-18.099855 -1.339528 -8.536429 20.056663 0.073873 2.010438 0.078998 -0.029079 473856.000000 1 0 0
-12.379155 14.831572 4.947571 19.942353 -0.875282 1.320084 0.035857 -0.023312 441491.000000 1 0 0
-17.650255 6.505672 9.330371 20.997883 -0.353137 1.110350 0.055795 -0.022516 171962.000000 1 0 0
-14.127755 15.176172 0.130271 20.734672 -0.821160 1.564514 0.062676 -0.029105 184375.000000 1 0 0
-15.902955 5.486672 -10.777329 19.978948 -0.332222 2.140561 0.028866 -0.004470 -48566.700000 1 0 0
-17.970355 2.555872 -0.160029 18.151908 -0.141280 1.579613 0.051719 -0.007034 -19339.200000 1 0 0
-9.943955 15.524772 -0.078129 18.436564 -1.001113 1.575034 0.023053 -0.003034 74126.600000 1 0 0
-18.768255 12.020072 2.757371 22.457351 -0.569630 1.447703 0.150117 -0.038589 172902.000000 1 0 0
-8.783155 16.283972 -7.686329 20.034750 -1.076148 1.964542 0.070730 -0.027745 69491.200000 1 0 0
-14.389455 -1.546528 -12.652229 19.223087 0.107066 2.289194 0.042151 -0.030686 70940.600000 1 0 0
-19.437055 4.878272 -4.724929 20.589357 -0.245899 1.802344 0.116470 -0.009728 20797.800000 1 0 0
-16.981055 9.801272 -5.585029 20.386606 -0.523478 1.848300 0.053164 0.009427 125925.000000 1 0 0
-19.065555 1.253372 2.617671 19.285190 -0.065646 1.434641 0.084912 -0.022853 30953.000000 1 0 0
-14.832255 11.728572 -7.711029 20.420949 -0.669074 1.958004 0.054787 -0.010278 -25084.000000 1 0 0
-12.794055 4.540872 -13.510929 19.153396 -0.341052 2.353793 0.037645 -0.021119 -311683.000000 1 0 0
-14.198955 9.355972 -6.628829 18.250641 -0.582620 1.942508 0.029438 -0.010670 373392.000000 1 0 0
-6.536655 11.771072 -15.411329 20.464483 -1.063881 2.423523 0.032266 -0.018057 -293098.000000 1 0 0
-15.291755 13.663472 2.873171 20.707084 -0.729223 1.431594 0.055854 -0.030898 56698.400000 1 0 0
-18.995155 8.401672 -4.446529 21.240895 -0.416437 1.781694 0.101130 -0.013040 222631.000000 1 0 0
-4.970855 16.366172 -10.861729 20.261741 -1.275923 2.136572 0.019184 0.000588 77877.100000 1 0 0
-19.344855 -2.421128 -6.487529 20.546857 0.124509 1.892036 0.048987 -0.015722 41798.000000 1 0 0
-12.230355 13.144772 -6.465729 19.083298 -0.821419 1.916455 0.064324 -0.025822 -33617.900000 1 0 0
-19.207455 3.182572 4.242771 19.926269 -0.164203 1.356230 0.079227 -0.023627 54397.500000 1 0 0
-14.772755 11.898872 0.712971 18.982249 -0.678062 1.533228 0.013208 -0.020809 -60563.000000 1 0 0
-17.352655 2.696972 -8.331029 19.436933 -0.154188 2.013759 0.030466 -0.015548 268425.000000 1 0 0
-16.841455 13.729072 -3.542429 22.015241 -0.683938 1.732407 0.065259 0.020232 269730.000000 1 0 0
-10.896755 15.663672 -7.922029 20.660310 -0.962982 1.964317 0.054089 -0.021803 -225383.000000 1 0 0
-19.060555 1.215772 -7.056629 20.361210 -0.063698 1.924711 0.064913 -0.025597 4745.200000 1 0 0
-17.236455 10.060372 -0.211629 19.958739 -0.528324 1.581400 0.053577 -0.017930 41016.500000 1 0 0
-11.810755 6.671572 -14.667729 19.978641 -0.514190 2.395241 0.036962 -0.016678 433352.000000 1 0 0
-13.874055 12.057672 -4.992629 19.047393 -0.715468 1.836011 0.051154 -0.023560 319145.000000 1 0 0
-18.976755 7.149472 -0.393229 20.282673 -0.360303 1.590185 0.088023 -0.012725 -92245.200000 1 0 0
-14.203955 9.154172 -11.112329 20.224615 -0.572485 2.152497 0.007193 0.009650 420460.000000 1 0 0
-18.499155 11.240672 4.976371 22.211162 -0.546012 1.344830 0.080119 -0.045613 98173.000000 1 0 0
-8.239955 11.550672 -13.632529 19.676400 -0.951150 2.336212 0.008975 -0.021699 397132.000000 1 0 0
-20.893555 -0.697928 -5.742829 21.679664 0.033392 1.838891 0.076346 -0.014061 108562.000000 1 0 0
-10.731855 13.282672 -3.491729 17.429695 -0.891221 1.772493 0.024485 -0.003014 448660.000000 1 0 0
-18.802555 -4.641728 3.912971 19.758367 0.242028 1.371437 0.055897 -0.019639 6100.510000 1 0 0
-11.031355 11.548072 -13.419329 20.859702 -0.808279 2.269615 0.040938 -0.003639 224704.000000 1 0 0
-14.935755 11.227572 -10.225529 21.300155 -0.644604 2.071529 0.039233 -0.022919 411406.000000 1 0 0
-13.028655 9.690872 -13.880629 21.361899 -0.639529 2.278097 0.082797 -0.023384 175522.000000 1 0 0
-18.257555 -5.132428 -3.046029 19.208291 0.274040 1.730047 0.007062 -0.008045 -242236.000000 1 0 0
-9.065555 12.444172 -11.685529 19.328562 -0.941199 2.220026 0.019998 -0.010411 -59856.500000 1 0 0
-15.444255 7.722372 -8.105329 19.075020 -0.463660 2.009668 0.004194 -0.001210 48135.600000 1 0 0
-14.946055 8.859872 2.083371 17.499209 -0.535101 1.451458 0.029450 -0.007054 -58179.600000 1 0 0
-20.004655 6.163672 7.844971 22.354432 -0.298882 1.212226 0.098363 -0.040083 332764.000000 1 0 0
-19.253055 6.117772 3.819171 20.559507 -0.307666 1.383949 0.066999 -0.014584 143396.000000 1 0 0
-14.533655 12.676172 5.911671 20.170779 -0.717239 1.273349 0.035792 -0.023143 46596.000000 1 0 0
17.862145 5.856972 5.459871 19.574742 0.316851 1.288123 0.064992 -0.023651 236388.000000 1 0 0
18.423645 8.525772 0.041271 20.300768 0.433416 1.568763 0.047918 0.005573 23641.700000 1 0 0
15.834245 5.318072 9.115671 19.028942 0.324022 1.071233 0.061383 -0.001070 -166523.000000 1 0 0
11.403145 13.048972 11.131971 20.596799 0.852605 0.999800 0.036941 -0.016741 52828.900000 1 0 0
14.667845 12.916172 4.045971 19.958533 0.721980 1.366663 0.042315 -0.002668 89192.700000 1 0 0
4.899145 10.403672 14.390071 18.420427 1.130694 0.674208 0.034595 -0.016195 302859.000000 1 0 0
12.257245 14.572872 -5.014929 19.691576 0.871492 1.828307 0.076099 0.001649 303490.000000 1 0 0
18.273445 9.236772 -2.856129 20.673515 0.468018 1.709394 0.058406 -0.010123 -113434.000000 1 0 0
14.718545 7.667672 9.429971 19.088035 0.480269 1.054083 0.070799 -0.023416 133684.000000 1 0 0
4.611845 19.068772 -1.556629 19.680200 1.333500 1.649975 0.035802 -0.029582 535347.000000 1 0 0
-4.869355 19.168872 3.526871 20.089676 -1.322034 1.394325 0.020038 -0.016107 362918.000000 1 0 0
8.144745 12.862672 12.407071 19.639771 1.006316 0.887011 0.069120 -0.006522 16089.100000 1 0 0
0.062645 17.087972 -10.297329 19.950882 1.567130 2.113127 0.014685 0.009234 21046.600000 1 0 0
10.485445 8.997572 15.781771 20.975346 0.709178 0.719104 0.062923 -0.030775 149980.000000 1 0 0
-1.160955 12.029872 1.247771 12.150002 -1.474588 1.467918 -0.000059 0.000306 398160.000000 1 0 0
-4.932555 19.140772 -2.587429 19.934744 -1.318585 1.700959 0.021705 0.000694 66222.300000 1 0 0
5.709645 18.702172 6.132471 20.493376 1.274491 1.266899 0.027510 -0.003432 125732.000000 1 0 0
11.174345 17.320472 -1.585229 20.673115 0.997836 1.647552 0.095816 -0.029473 448332.000000 1 0 0
18.256845 10.834172 3.198871 21.469151 0.535575 1.421241 0.049786 -0.014927 333392.000000 1 0 0
11.375545 16.874472 6.295471 21.302201 0.977646 1.270785 0.046901 -0.007857 -102489.000000 1 0 0
18.135845 7.942872 -6.131829 20.726732 0.412801 1.871133 0.056318 0.017808 180672.000000 1 0 0
-0.151355 15.157272 11.373571 18.950565 -1.560811 0.927082 0.005054 0.006097 265146.000000 1 0 0
1.106145 20.288372 -1.779629 20.396290 1.516329 1.658160 0.036139 -0.014942 230634.000000 1 0 0
14.346745 9.919072 -1.056129 17.473765 0.604918 1.631274 0.040109 -0.012871 -103765.000000 1 0 0
10.360545 16.819372 1.705471 19.827778 1.018703 1.484676 0.063602 -0.034689 300446.000000 1 0 0
-0.131555 17.931672 -0.672229 17.944750 -1.563460 1.608266 0.009719 -0.003353 17449.000000 1 0 0
-0.322355 20.994972 1.115071 21.027033 -1.555444 1.517741 0.031712 -0.013960 358451.000000 1 0 0
6.005545 17.214272 -0.366029 18.235451 1.235128 1.590870 0.027451 -0.037519 -139097.000000 1 0 0
6.319445 18.494772 -2.849829 19.751291 1.241545 1.715587 0.041008 -0.033771 -48684.700000 1 0 0
10.447045 9.810372 12.808171 19.220650 0.753979 0.841459 0.040614 -0.010249 216311.000000 1 0 0
12.497245 14.719072 8.352471 21.037965 0.866853 1.162530 0.063124 -0.024218 242125.000000 1 0 0
0.328345 17.570472 6.712171 18.811765 1.552111 1.205949 0.006721 -0.005159 146949.000000 1 0 0
7.508945 17.978272 -7.729529 20.960633 1.175152 1.948475 0.073889 -0.023340 3363.930000 1 0 0
-0.955255 18.596472 9.254271 20.793816 -1.519474 1.109567 0.019098 -0.007797 43504.500000 1 0 0
15.798945 7.209972 -7.879629 19.070367 0.428128 1.996747 0.050785 0.009425 -325291.000000 1 0 0
-5.798755 19.423672 -6.419229 21.262904 -1.280679 1.877479 0.044626 -0.016471 284230.000000 1 0 0
3.715645 15.520872 9.723971 18.688474 1.335822 1.023572 0.015552 -0.002196 230607.000000 1 0 0
9.020945 14.941872 7.494771 18.994961 1.027634 1.165201 0.018865 -0.002125 117741.000000 1 0 0
-2.625255 19.645972 6.391471 20.825635 -1.437955 1.258858 0.013764 0.000410 97238.300000 1 0 0
4.783845 18.309972 8.266371 20.651225 1.315239 1.158969 0.025016 0.001608 -30915.200000 1 0 0
14.573145 12.465272 -5.906029 20.065909 0.707597 1.869552 0.069499 -0.016387 -12725.300000 1 0 0
11.795945 7.094572 15.220971 20.522066 0.541479 0.735213 0.091168 -0.028763 130300.000000 1 0 0
17.044445 8.930372 4.817471 19.836145 0.482621 1.325480 0.066625 -0.023004 187584.000000 1 0 0
5.268845 14.585772 13.156671 20.337243 1.224151 0.867251 0.019189 -0.003749 359870.000000 1 0 0
15.781445 10.403172 -3.553429 19.232962 0.582817 1.756621 0.062149 -0.038844 138106.000000 1 0 0
15.095045 14.341372 6.882871 21.929643 0.759800 1.251539 0.075539 0.006737 348289.000000 1 0 0
12.634145 13.475872 -7.677729 20.004206 0.817625 1.964711 0.169079 -0.065667 474941.000000 1 0 0
-8.397455 15.509172 9.550571 20.056547 -1.074540 1.074488 0.044196 -0.025629 181007.000000 1 0 0
-3.954455 17.356172 -7.933329 19.488769 -1.346779 1.990042 0.007549 0.028811 35960.700000 1 0 0
2.051245 19.888172 -4.277829 20.446193 1.468021 1.781577 0.036080 -0.020470 153171.000000 1 0 0
6.955545 16.807172 8.874271 20.238906 1.178413 1.116894 0.025700 0.001366 481304.000000 1 0 0
13.609645 15.157872 -1.866229 20.456449 0.839165 1.662153 0.135045 -0.041690 171943.000000 1 0 0
12.641945 16.640872 4.362171 21.348675 0.921121 1.365017 0.083166 -0.029853 344613.000000 1 0 0
2.285945 18.163972 0.515971 18.314520 1.445604 1.542620 0.017093 -0.029775 66362.800000 1 0 0
-7.638755 17.497172 1.322871 19.137700 -1.159166 1.501617 0.018685 0.009743 334923.000000 1 0 0
0.232345 19.819972 -6.081929 20.733430 1.559074 1.868514 0.053824 -0.000657 305076.000000 1 0 0
-7.911355 18.022272 -6.386629 20.692531 -1.157147 1.884564 0.066361 -0.017988 42546.200000 1 0 0
-7.377255 18.400772 -1.176929 19.859442 -1.189496 1.630094 0.041167 -0.003934 76848.900000 1 0 0
-14.403655 -8.793628 8.913371 19.085108 0.548114 1.084864 0.060262 -0.015825 389960.000000 1 0 0
-13.217655 -13.630428 7.557871 20.435665 0.800771 1.191962 0.062307 -0.011953 98193.500000 1 0 0
-4.092155 -15.919928 12.371171 20.572694 1.319197 0.925620 0.058344 -0.021388 158060.000000 1 0 0
-1.909755 -14.964528 15.404771 21.561337 1.443864 0.774940 0.033900 -0.007697 472021.000000 1 0 0
-7.814855 -13.935228 12.687971 20.402136 1.059700 0.899637 0.042188 -0.010246 206237.000000 1 0 0
-9.888155 -10.962928 11.797871 18.898444 0.836898 0.896590 0.058182 -0.015110 -95296.300000 1 0 0
-7.407155 -10.662928 12.931871 18.324772 0.963660 0.787380 0.038295 -0.011111 412095.000000 1 0 0
-15.046855 -12.172228 7.888971 20.899925 0.680177 1.183740 0.060232 0.001942 355113.000000 1 0 0
-4.560255 -12.727028 13.557971 19.146586 1.226735 0.783972 0.027064 -0.007030 461575.000000 1 0 0
3.471745 -12.325628 13.902071 18.900839 -1.296241 0.744353 -0.001190 -0.002023 531039.000000 1 0 0
6.725945 -13.311728 15.147171 21.257404 -1.102946 0.777656 0.032088 0.005831 307200.000000 1 0 0
7.270945 -8.851428 16.939671 20.449129 -0.883116 0.594585 0.043920 -0.012535 553878.000000 1 0 0
-5.287855 13.325372 13.480571 19.678738 -1.193029 0.816148 0.023110 -0.010885 426745.000000 1 0 0
-13.596755 -1.460428 17.233871 22.000248 0.107000 0.670761 0.074737 -0.023691 269239.000000 1 0 0
-10.193955 10.951572 13.537671 20.177269 -0.821212 0.835325 0.029224 0.028936 183026.000000 1 0 0
-7.500455 -8.141228 17.367271 20.595109 0.826341 0.567455 0.057906 -0.013041 142184.000000 1 0 0
-5.072355 2.181372 18.226971 19.044937 -0.406141 0.294144 0.023782 -0.007554 597896.000000 1 0 0
-15.535555 -3.588828 14.702271 21.688475 0.227025 0.825916 0.089614 -0.020746 114322.000000 1 0 0
-14.795055 3.279772 12.979371 19.952810 -0.218152 0.862549 0.039459 0.011620 422300.000000 1 0 0
-14.038155 10.648572 9.596171 20.063608 -0.648947 1.072093 -0.022505 -0.006191 -244112.000000 1 0 0
-3.493955 11.081972 15.806771 19.618150 -1.265378 0.633903 -0.030012 -0.014835 173299.000000 1 0 0
-12.990455 13.186672 7.721371 20.056415 -0.792894 1.175607 0.035535 -0.029907 162406.000000 1 0 0
-3.599155 -6.348428 18.551271 19.935047 1.055043 0.374787 0.043147 -0.021976 265770.000000 1 0 0
0.394745 -3.106228 17.383471 17.663226 -1.444392 0.178215 0.013063 -0.031013 30090.600000 1 0 0
-4.696055 6.767772 21.015671 22.572419 -0.964186 0.373562 0.055016 -0.013769 330053.000000 1 0 0
2.093545 -10.858228 16.580371 19.929695 -1.380326 0.588196 0.002944 -0.002949 353104.000000 1 0 0
-14.862255 -0.132828 13.668371 20.192291 0.008937 0.827239 0.029651 -0.006964 44457.800000 1 0 0
-13.329155 -5.832028 9.370271 17.305517 0.412443 0.998622 0.025299 0.003375 417974.000000 1 0 0
9.910545 2.159372 16.625971 19.475746 0.214533 0.547794 0.055824 -0.012482 339303.000000 1 0 0
-7.608255 12.094772 11.891871 18.589934 -1.009288 0.876696 0.037587 -0.019822 59317.000000 1 0 0
-2.102055 7.582872 20.650271 22.098694 -1.300376 0.364066 0.041113 -0.003223 588323.000000 1 0 0
1.064645 -13.967628 15.567871 20.942462 -1.494721 0.732711 0.001852 -0.002762 552798.000000 1 0 0
-3.691055 -11.698728 17.699171 21.534734 1.265172 0.606076 0.058524 -0.020256 288534.000000 1 0 0
-2.047755 8.272872 16.675771 18.727387 -1.328147 0.472467 0.010532 -0.026246 543083.000000 1 0 0
-4.772655 -9.257228 20.506571 22.999869 1.094778 0.469941 0.100043 -0.037501 227255.000000 1 0 0
-6.517455 -2.995928 19.104271 20.406518 0.430873 0.359182 0.039853 -0.023350 189499.000000 1 0 0
-10.574255 -8.067528 15.842671 20.685505 0.651732 0.698383 0.076305 -0.030767 128536.000000 1 0 0
-0.186555 6.536572 17.845771 19.006133 -1.542264 0.351237 0.015339 -0.012209 196431.000000 1 0 0
-6.065655 -11.224028 18.459571 22.439402 1.075340 0.604756 0.096684 -0.041575 422368.000000 1 0 0
0.457845 3.542772 18.716071 19.053928 1.442275 0.188596 0.022077 -0.014880 106927.000000 1 0 0
-18.511755 -0.126928 7.617871 20.018320 0.006857 1.180411 0.086361 -0.031090 121356.000000 1 0 0
-1.401155 -8.659328 17.571771 19.639611 1.410378 0.463013 0.027638 -0.016104 382458.000000 1 0 0
5.161245 3.221272 13.946271 15.215568 0.557971 0.411357 0.025897 -0.018405 -332143.000000 1 0 0
-14.896755 -8.238228 11.339371 20.453925 0.505160 0.983171 0.113724 0.028651 235279.000000 1 0 0
3.703245 8.138572 16.978471 19.189029 1.143772 0.484730 0.034565 -0.015010 227407.000000 1 0 0
6.438345 4.287272 16.619071 18.331025 0.587469 0.435619 0.071524 -0.060578 147556.000000 1 0 0
5.128145 -9.905228 17.974771 21.154286 -1.093073 0.555383 0.013214 -0.004132 328256.000000 1 0 0
-4.451655 -1.030228 19.722671 20.245057 0.227422 0.227662 0.025044 -0.012009 578603.000000 1 0 0
-11.277955 1.708572 16.784771 20.293842 -0.150353 0.596891 0.050784 -0.020565 278794.000000 1 0 0
-16.615455 -4.483428 8.837271 19.346107 0.263558 1.096403 0.064504 -0.018801 347029.000000 1 0 0
-12.864955 -8.828528 14.065471 21.006843 0.601436 0.837172 0.069662 -0.032432 -2492.560000 1 0 0
-15.040155 6.303772 12.912271 20.800734 -0.396888 0.901084 0.046696 -0.014057 440903.000000 1 0 0
1.120245 8.979672 16.816971 19.097119 1.446684 0.493664 0.015045 -0.030900 277891.000000 1 0 0
-3.813855 -10.632328 15.054371 18.820892 1.226389 0.643709 0.029125 -0.009828 574579.000000 1 0 0
-16.931655 -2.840228 7.026071 18.550297 0.166199 1.182343 0.026057 -0.024943 -104529.000000 1 0 0
-0.887355 -0.663228 20.916971 20.946287 0.641849 0.052913 0.040523 -0.021927 249305.000000 1 0 0
-1.973755 2.352972 20.323071 20.553817 -0.872820 0.149983 0.027079 -0.015143 214087.000000 1 0 0
-8.070855 1.707172 16.288871 18.258709 -0.208450 0.468791 0.013329 0.008026 442685.000000 1 0 0
2.713445 -2.175428 18.866871 19.184736 -0.675790 0.182289 0.024145 -0.013400 -21457.800000 1 0 0
-12.050655 4.023972 14.747871 19.465619 -0.322280 0.711112 -0.012710 0.003446 139717.000000 1 0 0
-13.895055 -5.552128 12.979071 19.807952 0.380141 0.856289 0.097192 -0.019511 -3119.600000 1 0 0
-17.146655 -1.169328 9.880271 19.824098 0.068090 1.049048 0.071551 -0.020491 190110.000000 1 0 0
-7.272855 7.864972 14.936471 18.380706 -0.824493 0.622168 0.020760 -0.002740 82278.000000 1 0 0
-9.551355 0.740972 13.879471 16.864671 -0.077423 0.604140 0.018376 -0.009147 54235.600000 1 0 0
7.901245 -0.723728 14.638071 16.650122 -0.091342 0.496706 0.040727 -0.015883 112387.000000 1 0 0
3.761645 6.080072 18.456471 19.792892 1.016752 0.369578 0.031619 -0.017627 -118038.000000 1 0 0
1.250745 0.429972 20.003771 20.047446 0.331116 0.066021 0.028611 -0.012687 65755.600000 1 0 0
-7.279155 6.842972 17.206071 19.896262 -0.754521 0.526066 0.029193 -0.022889 789334.000000 1 0 0
7.534645 -2.609628 17.137771 18.901963 -0.333420 0.435484 0.040285 0.001670 345941.000000 1 0 0
-16.369755 2.457372 9.520471 19.095731 -0.149004 1.048853 0.041138 -0.010214 286007.000000 1 0 0
4.414445 -5.488128 19.055071 20.315083 -0.893401 0.354049 0.051979 -0.029119 10393.100000 1 0 0
-3.637955 -3.562428 20.631071 21.250099 0.774909 0.241963 0.038076 -0.023238 397874.000000 1 0 0
-9.704755 5.660372 14.523571 18.361813 -0.528018 0.658410 0.022118 -0.003798 -41481.700000 1 0 0
6.240345 2.939172 19.631671 20.808247 0.440176 0.337890 0.104352 -0.043565 -14724.400000 1 0 0
-6.872355 11.062972 14.273571 19.322356 -1.014932 0.739645 0.031304 -0.033795 381858.000000 1 0 0
-14.392755 5.001772 9.813671 18.123942 -0.334464 0.998605 0.019276 -0.002484 248677.000000 1 0 0
1.070745 -5.476528 20.549171 21.293362 -1.377717 0.265160 0.046542 -0.020702 185990.000000 1 0 0
-5.599155 -8.265528 13.980471 17.179146 0.975393 0.620127 0.008087 -0.001072 125432.000000 1 0 0
-12.727155 9.926972 6.634871 17.451268 -0.662416 1.180790 0.000073 -0.023816 253286.000000 1 0 0
-19.864555 2.661372 7.391171 21.361481 -0.133183 1.217487 0.101513 -0.038426 -48777.000000 1 0 0
-15.886355 9.146372 6.105971 19.321368 -0.522388 1.249263 0.024736 -0.023491 150992.000000 1 0 0
-13.130555 7.600672 14.218171 20.792741 -0.524726 0.817832 0.038898 -0.014491 307408.000000 1 0 0
-16.721555 8.954972 11.065871 21.960315 -0.491670 1.042685 0.057291 -0.020258 431534.000000 1 0 0
2.149445 10.869772 14.102571 17.934730 1.375570 0.665954 0.009810 -0.056141 292945.000000 1 0 0
1.557645 14.769772 13.409671 20.009790 1.465723 0.836378 0.012071 -0.006744 614090.000000 1 0 0
8.666945 5.153772 16.417471 19.266827 0.536474 0.550791 0.052307 -0.019246 47393.700000 1 0 0
-0.201655 13.158372 13.464571 18.827588 -1.555472 0.773956 -0.004297 0.007235 149312.000000 1 0 0
4.257445 12.639972 14.690871 19.842288 1.245908 0.737158 0.042810 -0.008112 107750.000000 1 0 0
-3.731855 -4.590728 -13.351229 14.603317 0.888232 2.724474 0.010641 -0.006091 143796.000000 1 0 0
5.299845 -12.329928 16.956871 21.625239 -1.164837 0.669513 -0.015207 0.016413 199000.000000 1 0 0
8.760145 -14.033928 7.062971 17.988242 -1.012764 1.167292 0.010439 0.002065 259913.000000 1 0 0
-0.621755 15.086972 0.422971 15.105701 -1.529608 1.542792 0.004412 -0.005362 -194047.000000 1 0 0
-14.623755 7.455872 8.748571 18.600584 -0.471494 1.081122 0.034432 -0.005917 157221.000000 1 0 0
-16.303155 -9.691128 4.614571 19.519352 0.536316 1.332127 0.045124 -0.010427 276879.000000 1 0 0
9.218045 -10.383928 11.592171 18.088028 -0.844806 0.875158 0.014467 0.003941 114107.000000 1 0 0
-26.739265 6.062472 30.921436 41.326469 -0.222956 0.725416 0.069353 -0.027760 194104.000000 0 0 1
-25.589595 5.280972 30.587096 40.227932 -0.203515 0.706953 0.076045 -0.027167 406845.000000 0 0 1
-24.627855 5.177372 31.609073 40.403835 -0.207207 0.672401 0.058399 -0.011792 78910.000000 0 0 1
-23.265955 4.647672 31.132846 39.142811 -0.197167 0.651186 0.062459 -0.020525 -256995.000000 0 0 1
-23.201955 3.231472 31.234666 39.043277 -0.138386 0.643499 0.057627 -0.019205 -958674.000000 0 0 1
-21.926955 2.834472 30.919416 38.010997 -0.128556 0.620765 0.061096 -0.016816 -1106190.000000 0 0 1
-21.495555 1.536272 31.663543 38.301423 -0.071348 0.597591 0.051718 -0.017323 -407958.000000 0 0 1
-22.145655 0.340472 31.355179 38.388712 -0.015373 0.614987 0.053634 -0.011375 -132383.000000 0 0 1
-21.830855 -0.662828 32.291135 38.983881 0.030353 0.594694 0.050883 -0.010401 232350.000000 0 0 1
-22.719855 -1.946228 32.113761 39.386207 0.085453 0.617453 0.075011 -0.028781 -34617.700000 0 0 1
-22.240855 -2.719128 31.020646 38.266562 0.121655 0.625541 0.111846 -0.042612 306982.000000 0 0 1
-22.553255 -4.080728 31.165096 38.685461 0.179001 0.634105 0.123329 -0.048424 -387683.000000 0 0 1
-23.995555 -4.523428 30.763026 39.276098 0.186325 0.670919 0.098501 -0.034979 368157.000000 0 0 1
-25.023875 -4.148728 31.656774 40.565473 0.164296 0.675512 0.078101 -0.031857 -51979.000000 0 0 1
-24.995855 -4.716028 32.937841 41.616524 0.186480 0.657601 0.066707 -0.037182 -578991.000000 0 0 1
-26.182435 -4.320328 -33.489339 42.728457 0.163535 2.471512 0.068152 -0.022667 362346.000000 0 0 1
-26.085395 -4.840328 -32.135109 41.671835 0.183470 2.451437 0.068577 -0.022444 445642.000000 0 0 1
-27.228185 -4.529428 -31.322719 41.749282 0.164841 2.419248 0.081001 -0.022047 354240.000000 0 0 1
-27.372475 -5.060728 -29.867249 40.827882 0.182819 2.391375 0.068194 -0.014997 -303876.000000 0 0 1
-27.640235 -6.442928 -29.913139 41.234571 0.229010 2.382467 0.072480 -0.019330 265849.000000 0 0 1
-27.034605 -7.211028 -28.883749 40.213677 0.260665 2.372090 0.061904 -0.004325 -204476.000000 0 0 1
-27.565555 -8.655428 -28.698709 40.723362 0.304246 2.352830 0.054051 -0.005184 -452400.000000 0 0 1
-28.886755 -8.655828 -28.230489 41.307730 0.291133 2.323232 0.061929 -0.009457 -484935.000000 0 0 1
-29.477925 -9.929528 -28.511789 42.195565 0.324909 2.312718 0.053363 0.000361 882128.000000 0 0 1
-30.854275 -10.370028 -27.924629 42.887163 0.324236 2.279854 0.085353 -0.002803 696946.000000 0 0 1
-30.763535 -10.853628 -26.599309 42.091800 0.339174 2.254845 0.110876 -0.014624 -452249.000000 0 0 1
-31.913495 -11.511128 -26.126579 42.820269 0.346173 2.227040 0.122203 -0.022998 -97623.600000 0 0 1
-31.708585 -12.091928 -24.741429 41.997469 0.364322 2.200762 0.120193 -0.019814 -100294.000000 0 0 1
-31.438645 -11.231128 -23.672529 40.925729 0.343110 2.187595 0.141400 -0.021354 170095.000000 0 0 1
-31.156475 -12.060328 -22.538529 40.300903 0.369327 2.164285 0.153078 -0.027410 -403766.000000 0 0 1
-30.746995 -11.173428 -21.360829 39.070555 0.348561 2.149244 0.168445 -0.031808 20264.800000 0 0 1
-30.457845 -11.857128 -20.174529 38.409419 0.371245 2.123805 0.184630 -0.035102 -1153.650000 0 0 1
-29.325555 -12.691728 -20.113729 37.757519 0.408448 2.132593 0.187930 -0.039576 -482501.000000 0 0 1
-28.941485 -13.102528 -18.634129 36.830919 0.425118 2.101264 0.171243 -0.037645 27475.300000 0 0 1
-28.418365 -11.951728 -17.963329 35.680926 0.398107 2.098376 0.153743 -0.039572 48890.100000 0 0 1
-28.249515 -12.296128 -16.611129 35.002279 0.410536 2.065275 0.150984 -0.043797 18354.700000 0 0 1
-28.003955 -11.038528 -15.734029 33.965134 0.375477 2.052445 0.139886 -0.035320 786517.000000 0 0 1
-26.641605 -10.590428 -15.841729 32.755041 0.378362 2.075608 0.114890 -0.032294 1018210.000000 0 0 1
-26.585865 -9.213428 -15.406029 32.078673 0.333601 2.071745 0.097024 -0.039430 -826159.000000 0 0 1
-25.186245 -8.654028 -15.423929 30.775587 0.330963 2.095751 0.085371 -0.035336 -1017060.000000 0 0 1
-24.241155 -9.292028 -14.615729 29.792532 0.366042 2.083556 0.072554 -0.039099 1307560.000000 0 0 1
-22.920055 -8.788728 -14.983029 28.758683 0.366159 2.118808 0.110614 -0.060313 1869610.000000 0 0 1
-21.691355 -9.204428 -14.086529 27.452991 0.401308 2.109606 0.091521 -0.035897 359441.000000 0 0 1
-21.361955 -10.563628 -14.106429 27.693225 0.459243 2.105263 0.079854 -0.044527 -565879.000000 0 0 1
-20.392855 -10.710728 -13.129129 26.513436 0.483619 2.088847 0.115251 -0.045053 -396515.000000 0 0 1
-19.268055 -11.754228 -13.414729 26.255948 0.547767 2.107053 0.112827 -0.032980 12970.200000 0 0 1
-18.544755 -11.418428 -14.587329 26.212185 0.551900 2.160975 0.139853 -0.029351 8692.790000 0 0 1
-19.171955 -11.603128 -15.807029 27.423687 0.544244 2.185113 0.114390 -0.034853 -674775.000000 0 0 1
-18.321955 -10.918028 -16.915829 27.222099 0.537398 2.241325 0.131996 -0.046497 19844.000000 0 0 1
-18.936055 -11.086128 -18.172029 28.490333 0.529653 2.262476 0.078004 -0.025491 200681.000000 0 0 1
-18.326355 -10.378028 -19.220729 28.513071 0.515264 2.310545 0.077971 -0.031241 -379594.000000 0 0 1
-18.999255 -10.676228 -20.554029 29.956997 0.511955 2.326935 0.097666 -0.025135 225141.000000 0 0 1
-20.211755 -9.959228 -20.772129 30.646087 0.457826 2.315572 0.090985 -0.029812 257200.000000 0 0 1
-20.967855 -10.547728 -21.793129 32.028831 0.466079 2.319135 0.084300 -0.018006 -723252.000000 0 0 1
-22.184355 -9.727328 -22.145529 32.820588 0.413230 2.311416 0.064141 -0.017610 -808061.000000 0 0 1
-21.984455 -8.547028 -22.848629 32.839425 0.370793 2.340285 0.061081 -0.018831 -586281.000000 0 0 1
-22.902055 -8.332828 -23.833829 34.087998 0.348956 2.345054 0.064481 -0.019897 -589253.000000 0 0 1
-22.255055 -7.622928 -25.081529 34.387202 0.330001 2.388220 0.054006 -0.026609 65680.000000 0 0 1
-21.416055 -8.467728 -25.840009 34.612944 0.376527 2.413645 0.065556 -0.028551 -14748.900000 0 0 1
-20.907055 -7.685328 -26.890339 34.917898 0.352263 2.449797 0.048610 -0.038278 -119448.000000 0 0 1
-19.762555 -8.419828 -27.643189 35.008542 0.402759 2.480974 0.084115 -0.046073 -68499.900000 0 0 1
-20.168655 -9.386428 -28.537059 36.183469 0.435584 2.479450 0.095967 -0.045186 781136.000000 0 0 1
-19.011755 -10.028228 -29.114959 36.189682 0.485385 2.505646 0.079322 -0.043157 661257.000000 0 0 1
-19.372955 -11.132328 -30.162749 37.537069 0.521558 2.504024 0.087919 -0.034011 -86563.000000 0 0 1
-19.868655 -10.591028 -31.401839 38.639473 0.489738 2.519547 0.095338 -0.033819 309122.000000 0 0 1
-20.315255 -11.638728 -32.265339 39.865044 0.520259 2.513865 0.093153 -0.033831 218380.000000 0 0 1
-21.012455 -11.165128 -33.540489 41.123567 0.488418 2.524566 0.102319 -0.038206 151625.000000 0 0 1
-20.083755 -10.450828 33.015700 40.032655 0.479804 0.601091 0.097937 -0.039698 104086.000000 0 0 1
-20.372355 -10.507528 31.646418 39.076038 0.476187 0.626870 0.097730 -0.036107 -470832.000000 0 0 1
-19.895855 -11.673728 30.796536 38.477885 0.530614 0.642885 0.097588 -0.027521 994682.000000 0 0 1
-18.449055 -11.706328 30.626626 37.621749 0.565417 0.619675 0.091555 -0.030254 1558110.000000 0 0 1
-18.048555 -12.637128 29.619146 36.915324 0.610843 0.639568 0.090703 -0.029063 70546.400000 0 0 1
-18.122555 -14.152928 29.987326 37.788518 0.663021 0.654165 0.084011 -0.015620 -1857700.000000 0 0 1
-19.386055 -14.652528 29.877306 38.511935 0.647221 0.682825 0.083641 -0.017970 -1342480.000000 0 0 1
-19.552255 -15.963228 30.465336 39.563266 0.684685 0.691891 0.084015 -0.017822 -137349.000000 0 0 1
-19.736655 -15.948328 31.972889 40.818505 0.679634 0.670849 0.056280 -0.023097 393476.000000 0 0 1
-18.486955 -15.639128 32.622026 40.626918 0.702141 0.638542 0.082332 -0.020774 571132.000000 0 0 1
-18.545755 -15.485928 -33.382239 41.208408 0.695728 2.515090 0.076924 -0.017527 309449.000000 0 0 1
-17.141355 -15.111528 -32.836789 40.005488 0.722546 2.533619 0.061513 -0.020731 25209.100000 0 0 1
-16.746855 -13.781528 -33.164389 39.626562 0.688568 2.562434 0.068176 -0.019909 -601111.000000 0 0 1
-15.689655 -13.341228 -32.343549 38.343954 0.704680 2.574583 0.069187 -0.016769 -413543.000000 0 0 1
-15.970155 -12.930328 -30.880249 37.092170 0.680601 2.554451 0.090933 -0.020335 -261318.000000 0 0 1
-16.305055 -14.062628 -30.085219 36.996388 0.711689 2.520415 0.076685 -0.020129 -200035.000000 0 0 1
-16.861855 -13.672928 -28.860189 36.113455 0.681340 2.496682 0.062427 -0.018459 -253906.000000 0 0 1
-17.190055 -14.829428 -27.907559 35.975572 0.711807 2.458677 0.060199 -0.012511 165805.000000 0 0 1
-16.072155 -15.528328 -27.415209 35.369999 0.768190 2.457666 0.100353 -0.032785 132602.000000 0 0 1
-15.301855 -16.301328 -28.351129 36.106324 0.817013 2.473835 0.098503 -0.034022 -794858.000000 0 0 1
-14.015855 -16.900328 -27.855219 35.467993 0.878429 2.474077 0.156969 -0.032131 -204506.000000 0 0 1
-13.002055 -15.895228 -27.604739 34.405426 0.885185 2.501996 0.127294 -0.034241 854999.000000 0 0 1
-11.838855 -16.464628 -27.005289 33.771706 0.947401 2.497496 0.168247 -0.045188 -504490.000000 0 0 1
-10.480055 -15.997828 -27.380529 33.398435 0.990850 2.531884 0.135978 -0.044775 -887050.000000 0 0 1
-10.268555 -14.632528 -27.115769 32.477978 0.958889 2.558742 0.130923 -0.044180 -8394.560000 0 0 1
-8.897355 -14.285728 -27.228639 32.010057 1.013770 2.587974 0.157423 -0.046497 395042.000000 0 0 1
-8.643655 -12.762828 -27.410179 31.447106 0.975501 2.629310 0.125770 -0.045043 72118.000000 0 0 1
-9.266455 -12.280428 -28.611369 32.485175 0.924376 2.648243 0.149141 -0.046041 266923.000000 0 0 1
-8.934255 -10.951328 -28.945479 32.211695 0.886486 2.687368 0.121471 -0.037961 -302394.000000 0 0 1
-7.710155 -10.863928 -29.858379 32.695477 0.953588 2.721930 0.110682 -0.024584 -644579.000000 0 0 1
-6.445555 -10.965328 -29.252159 31.897844 1.039387 2.731434 0.098976 -0.030261 363118.000000 0 0 1
-5.354855 -10.734328 -30.136969 32.436664 1.108066 2.762773 0.098653 -0.026205 203482.000000 0 0 1
-5.134555 -9.251128 -30.653919 32.428534 1.064108 2.809236 0.096692 -0.029716 -1554610.000000 0 0 1
-3.927855 -8.940328 -31.260039 32.749772 1.156841 2.838814 0.123348 -0.040729 -546019.000000 0 0 1
-3.974255 -7.626928 -31.764309 32.907994 1.090426 2.877179 0.140760 -0.040621 237707.000000 0 0 1
-2.594655 -7.006228 -32.130929 32.988120 1.216121 2.913127 0.140295 -0.049437 171798.000000 0 0 1
-1.993055 -7.626928 -33.241279 34.163210 1.315194 2.908748 0.152438 -0.048470 -78585.600000 0 0 1
-0.946655 -6.797328 33.656116 34.348711 1.432418 0.201156 0.185060 -0.049146 131650.000000 0 0 1
-0.161655 -7.330128 32.466699 33.284282 1.548746 0.222103 0.178584 -0.047375 -161860.000000 0 0 1
-0.875855 -7.243028 31.257344 32.097510 1.450457 0.229305 0.183595 -0.048407 255895.000000 0 0 1
-0.143955 -7.837428 30.173156 31.174755 1.552431 0.254173 0.159530 -0.046345 163419.000000 0 0 1
-0.530355 -7.251428 28.809936 29.713245 1.497788 0.247209 0.144618 -0.038141 60558.400000 0 0 1
0.008945 -5.956128 28.593836 29.207585 -1.569295 0.205365 0.155042 -0.047351 -57293.400000 0 0 1
-0.168855 -5.430328 27.277466 27.813255 1.539711 0.196601 0.152786 -0.039770 -407373.000000 0 0 1
-1.392755 -4.582428 27.005776 27.427183 1.275734 0.175522 0.119946 -0.023225 -284208.000000 0 0 1
-2.623655 -5.256328 27.003426 27.635079 1.107835 0.214217 0.083118 -0.009372 -429445.000000 0 0 1
-3.705155 -4.419928 26.688126 27.304212 0.873143 0.212834 0.069395 -0.017762 -229652.000000 0 0 1
-5.106855 -4.933428 26.997286 27.915446 0.768127 0.257187 0.053051 -0.011834 -334886.000000 0 0 1
-5.632655 -5.964528 26.243646 27.496024 0.814007 0.302977 0.052771 -0.010676 -147253.000000 0 0 1
-6.951855 -6.291128 26.656546 28.257354 0.735547 0.338213 0.044066 -0.015423 756736.000000 0 0 1
-7.238955 -7.838128 26.407116 28.481125 0.825118 0.383984 0.048482 -0.015706 664972.000000 0 0 1
-6.431455 -8.505928 27.401746 29.403573 0.923393 0.371128 0.038766 -0.015377 304700.000000 0 0 1
-6.576855 -9.902428 27.388516 29.857058 0.984527 0.409497 0.046474 -0.020146 38157.900000 0 0 1
-5.810755 -10.604728 28.538396 30.994599 1.069536 0.400788 0.039421 -0.015882 -100297.000000 0 0 1
-5.897055 -11.977428 28.425086 31.404133 1.113290 0.439091 0.057270 -0.025084 155870.000000 0 0 1
-5.228655 -12.620028 29.485016 32.495694 1.178011 0.433856 0.064870 -0.023793 -196459.000000 0 0 1
-5.351655 -14.136528 29.269556 32.942200 1.208900 0.476703 0.112254 -0.053312 -336309.000000 0 0 1
-6.647255 -14.610228 29.505726 33.589174 1.143815 0.498230 0.122434 -0.049484 -495215.000000 0 0 1
-6.814955 -15.988628 29.197086 33.978665 1.167878 0.536942 0.162724 -0.058750 129556.000000 0 0 1
-7.026455 -16.788428 30.532316 35.544968 1.174419 0.537528 0.163048 -0.051069 -42533.200000 0 0 1
-8.343055 -16.794828 31.022346 36.249949 1.109741 0.543720 0.159786 -0.052144 -463745.000000 0 0 1
-8.406255 -17.291228 32.360555 37.641164 1.118284 0.536091 0.183525 -0.053429 -118602.000000 0 0 1
-9.825755 -17.379328 32.974091 38.547078 1.056229 0.544428 0.178560 -0.045982 287911.000000 0 0 1
-10.648555 -18.391428 32.490883 38.823882 1.045964 0.579240 0.198441 -0.050901 -23966.300000 0 0 1
-11.382655 -18.145428 31.295516 37.924013 1.010544 0.600211 0.165450 -0.057670 -484245.000000 0 0 1
-12.268155 -19.358328 30.952106 38.513444 1.005936 0.637359 0.149483 -0.056029 -82561.300000 0 0 1
-13.343555 -19.502728 31.881320 39.684070 0.970761 0.637849 0.140085 -0.050245 256668.000000 0 0 1
-13.774555 -20.878428 31.932426 40.562630 0.987597 0.664480 0.140375 -0.047910 -275856.000000 0 0 1
-12.965555 -21.841928 32.826389 41.505991 1.035090 0.658546 0.170882 -0.049513 641794.000000 0 0 1
-11.585555 -21.971528 32.407012 40.831208 1.085549 0.653958 0.167488 -0.057268 1348510.000000 0 0 1
-10.713555 -22.342028 33.511376 41.676838 1.123663 0.636675 0.195410 -0.072564 641826.000000 0 0 1
-10.809455 -23.881728 -33.495649 42.533984 1.145762 2.477544 0.193538 -0.046966 -407220.000000 0 0 1
-10.315955 -24.718628 32.874024 42.404374 1.175436 0.683684 0.186587 -0.048567 -134173.000000 0 0 1
-10.621155 -26.106578 33.015430 43.409457 1.184409 0.706624 0.185086 -0.051135 -768520.000000 0 0 1
-9.948955 -26.925848 31.880033 42.898946 1.216861 0.733042 0.156010 -0.039656 1158530.000000 0 0 1
-8.518955 -26.865438 31.771555 42.470650 1.263729 0.725628 0.182686 -0.054917 1150330.000000 0 0 1
-7.714355 -27.347828 32.888955 43.463759 1.295857 0.712548 0.155737 -0.052824 317484.000000 0 0 1
-6.200855 -27.130808 32.623217 42.881297 1.346102 0.706283 0.151328 -0.061943 381667.000000 0 0 1
-5.697955 -25.826538 32.865632 42.185620 1.353651 0.677612 0.174628 -0.064968 477235.000000 0 0 1
-4.522555 -25.564118 32.046397 41.242566 1.395698 0.680875 0.250331 -0.050482 924332.000000 0 0 1
-3.892755 -24.217428 32.339928 40.589510 1.411418 0.648889 0.255249 -0.063721 -510679.000000 0 0 1
-3.175155 -24.147528 33.522606 41.436094 1.440056 0.628314 0.210170 -0.063632 -162398.000000 0 0 1
-2.771155 -22.792628 -33.636809 40.726136 1.449809 2.542641 0.194287 -0.062891 -182359.000000 0 0 1
35.369696 -15.910128 2.438371 38.859918 -0.422707 1.508007 0.226110 -0.064909 101333.000000 0 0 1
36.298996 -15.531228 3.431671 39.630954 -0.404299 1.484097 0.177849 -0.061643 200492.000000 0 0 1
35.940526 -16.078328 4.668371 39.648805 -0.420656 1.452780 0.140461 -0.052152 299786.000000 0 0 1
37.071756 -15.804628 5.717371 40.703681 -0.402993 1.429867 0.111979 -0.026879 759605.000000 0 0 1
-37.775285 -16.751928 5.541871 41.693064 0.417404 1.437481 0.131245 -0.030714 125902.000000 0 0 1
-37.130255 -16.894028 6.780971 41.352698 0.426999 1.406073 0.129015 -0.028505 26384.800000 0 0 1
-35.833719 -17.745128 6.656271 40.537032 0.459806 1.405847 0.117135 -0.028955 85574.800000 0 0 1
-36.022255 -19.143728 6.427071 41.296398 0.488483 1.414528 0.099437 -0.019948 -154449.000000 0 0 1
-34.978851 -19.837928 7.050271 40.826091 0.515908 1.397236 0.071979 -0.005978 -193501.000000 0 0 1
-35.121094 -21.348328 7.046571 41.700079 0.546171 1.400999 0.070441 -0.001158 -173192.000000 0 0 1
-34.834464 -21.966728 5.869671 41.598439 0.562619 1.429221 0.088187 -0.005196 28193.300000 0 0 1
-35.091765 -23.360228 6.053271 42.588430 0.587326 1.428179 0.102988 -0.009230 -86458.400000 0 0 1
-34.686003 -24.315828 4.914371 42.644219 0.611415 1.455299 0.102311 -0.012883 -199979.000000 0 0 1
-35.422437 -24.115328 3.737471 43.014728 0.597718 1.483798 0.093786 -0.009592 -14991.700000 0 0 1
-34.809858 -24.779728 2.655871 42.811387 0.618641 1.508720 0.098404 -0.011945 115515.000000 0 0 1
-35.379017 -24.386728 1.234071 42.987327 0.603508 1.542085 0.093114 -0.012024 456578.000000 0 0 1
-36.535525 -25.137278 0.829171 44.355551 0.602642 1.552102 0.086965 -0.016977 409352.000000 0 0 1
-37.025575 -24.743128 -0.404629 44.534025 0.589113 1.579882 0.075860 -0.016397 426080.000000 0 0 1
37.783346 -23.615228 -0.369729 44.557793 -0.558611 1.579094 0.086914 -0.024804 1203930.000000 0 0 1
36.457866 -24.056428 0.038671 43.679391 -0.583263 1.569911 0.068357 -0.015279 1071500.000000 0 0 1
35.707826 -22.898328 0.371571 42.420753 -0.570213 1.562037 0.089346 -0.017454 -888408.000000 0 0 1
34.211866 -23.051428 0.272471 41.254022 -0.592914 1.564192 0.065143 -0.008170 -847829.000000 0 0 1
33.911886 -23.176228 -1.109529 41.089958 -0.599515 1.597802 0.068767 -0.025468 -1351540.000000 0 0 1
32.580246 -23.028328 -1.391029 39.921314 -0.615288 1.605648 0.062683 -0.013642 -1074460.000000 0 0 1
32.159416 -22.808628 -2.878729 39.531616 -0.616898 1.643682 0.077779 -0.008376 -17098.500000 0 0 1
32.507866 -21.511828 -3.255829 39.116755 -0.584586 1.654126 0.120244 -0.022719 211109.000000 0 0 1
32.118066 -21.319728 -4.602029 38.823699 -0.586010 1.689612 0.130877 -0.042720 -103356.000000 0 0 1
32.089596 -19.786228 -4.973629 38.025964 -0.552531 1.701968 0.156146 -0.049602 56245.600000 0 0 1
31.020766 -19.143728 -4.327229 36.708244 -0.552917 1.688953 0.191426 -0.049652 39938.400000 0 0 1
31.162036 -17.712328 -4.372929 36.109854 -0.516856 1.692195 0.198508 -0.049699 191853.000000 0 0 1
30.282626 -17.091428 -3.234629 34.923018 -0.513829 1.663551 0.198134 -0.036257 -18003.600000 0 0 1
30.800826 -17.140528 -1.909829 35.300652 -0.507817 1.624925 0.196771 -0.031278 -121769.000000 0 0 1
31.053046 -18.406028 -1.347829 36.123264 -0.535056 1.608117 0.172565 -0.026756 330991.000000 0 0 1
29.866926 -19.415628 -1.112329 35.640387 -0.576425 1.602011 0.147106 -0.019484 956587.000000 0 0 1
28.827726 -18.961028 -0.213629 34.505130 -0.581794 1.576988 0.135362 -0.002258 805237.000000 0 0 1
28.126626 -20.076028 0.322171 34.558035 -0.619910 1.561474 0.119303 -0.011119 101629.000000 0 0 1
26.904026 -19.732928 1.234871 33.387722 -0.632829 1.533802 0.117087 -0.003953 -248066.000000 0 0 1
26.306426 -20.960128 1.688271 33.677964 -0.672767 1.520645 0.101927 0.000570 871017.000000 0 0 1
25.222026 -20.825928 2.650971 32.816117 -0.690219 1.489926 0.087248 0.000542 2241050.000000 0 0 1
23.849426 -20.236028 2.045271 31.344459 -0.703617 1.505499 0.055657 -0.004053 617436.000000 0 0 1
23.810226 -18.869828 1.679471 30.427256 -0.670157 1.515572 0.102292 -0.021884 39883.400000 0 0 1
23.771326 -18.058928 2.834871 29.987286 -0.649676 1.476119 0.128231 -0.025149 -374822.000000 0 0 1
23.699326 -16.527128 2.555971 29.005810 -0.608957 1.482563 0.120775 -0.003726 278898.000000 0 0 1
22.433526 -16.259728 1.961071 27.775666 -0.627174 1.500134 0.093054 -0.007300 184816.000000 0 0 1
22.272026 -14.897028 1.715871 26.849745 -0.589525 1.506846 0.106297 -0.023860 -748338.000000 0 0 1
20.991726 -14.525528 1.003871 25.547041 -0.605313 1.531491 0.072460 -0.015740 -795496.000000 0 0 1
19.896026 -14.524328 1.889371 24.705823 -0.630585 1.494247 0.067336 -0.020037 75055.300000 0 1 0
18.852826 -13.598928 1.651271 23.304218 -0.624892 1.499880 0.081685 -0.021304 -15155.700000 0 1 0
19.156826 -12.138128 1.973871 22.764321 -0.564773 1.483978 0.080411 -0.023024 -1352850.000000 0 1 0
20.132726 -11.584328 1.200071 23.258622 -0.522133 1.519177 0.089744 -0.022853 -231869.000000 0 1 0
20.479926 -10.268028 1.679971 22.971331 -0.464743 1.497598 0.120009 -0.024030 -37124.000000 0 1 0
21.432126 -9.501128 0.752971 23.455797 -0.417279 1.538689 0.131759 -0.022293 -167018.000000 0 1 0
20.747126 -9.108028 -0.388829 22.661655 -0.413670 1.587955 0.129621 -0.020085 547647.000000 0 1 0
21.655826 -8.613128 -1.339329 23.344262 -0.378546 1.628201 0.116543 -0.009267 -280144.000000 0 1 0
20.942826 -8.066128 -2.641229 22.597355 -0.367639 1.687946 0.123438 -0.011589 -312929.000000 0 1 0
21.705526 -7.608128 -3.719529 23.299106 -0.337134 1.731125 0.138122 -0.016107 156535.000000 0 1 0
22.638026 -8.513728 -4.333529 24.571187 -0.359718 1.748090 0.125505 -0.015459 -460100.000000 0 1 0
22.104626 -9.729928 -5.121729 24.688420 -0.414654 1.779769 0.102416 -0.022026 -464057.000000 0 1 0
21.726826 -9.318128 -6.367329 24.483165 -0.405150 1.833891 0.121898 -0.033199 783876.000000 0 1 0
20.329726 -8.950128 -6.390629 23.113690 -0.414715 1.850933 0.113168 -0.020654 310811.000000 0 1 0
19.822026 -8.908428 -7.838929 23.102416 -0.422372 1.916982 0.124593 -0.019125 -382524.000000 0 1 0
19.714526 -10.205828 -8.456229 23.755615 -0.477692 1.934746 0.124502 -0.026247 674983.000000 0 1 0
20.918826 -10.812928 -8.949029 25.191304 -0.477076 1.933970 0.136326 -0.030844 317745.000000 0 0 1
20.655726 -12.228728 -9.422929 25.787446 -0.534536 1.944867 0.105368 -0.038768 -92560.700000 0 0 1
19.650326 -12.296128 -10.405129 25.408597 -0.559136 1.992716 0.137288 -0.043637 -40714.700000 0 0 1
19.626726 -13.566028 -10.865329 26.216424 -0.604797 1.998132 0.128194 -0.036989 321890.000000 0 0 1
18.516526 -13.962928 -11.914129 26.072429 -0.646107 2.045374 0.127850 -0.028091 431274.000000 0 0 1
18.434926 -15.328128 -12.071429 26.842455 -0.693639 2.037241 0.123673 -0.036806 84799.400000 0 0 1
17.743626 -15.570428 -13.257229 27.074501 -0.720257 2.082493 0.120052 -0.028213 -581340.000000 0 0 1
17.700026 -17.070028 -13.540329 28.071646 -0.767281 2.074131 0.102515 -0.039599 -369135.000000 0 0 1
16.749826 -17.672328 -12.681929 27.453582 -0.812191 2.050979 0.098682 -0.031716 528537.000000 0 0 1
16.809226 -19.072628 -12.843129 28.482647 -0.848394 2.038582 0.105964 -0.035049 -703882.000000 0 0 1
15.809826 -19.811728 -11.950729 28.022760 -0.897274 2.011377 0.097570 -0.032495 -1936810.000000 0 0 1
14.557626 -19.520528 -12.393429 27.323480 -0.930014 2.041576 0.082206 -0.030300 -1517880.000000 0 0 1
13.580626 -20.156128 -11.598729 26.930158 -0.977891 2.016061 0.073394 -0.021316 882755.000000 0 0 1
12.079126 -20.007628 -11.999429 26.271596 -1.027642 2.045129 0.049807 -0.025326 765503.000000 0 0 1
11.142126 -20.767928 -11.297029 26.135736 -1.078372 2.017777 0.057111 -0.032919 -782621.000000 0 0 1
9.847826 -20.667428 -11.784329 25.748644 -1.126133 2.046167 0.045282 -0.022416 -225489.000000 0 0 1
8.797326 -21.266528 -10.796729 25.421006 -1.178561 2.009445 0.029866 -0.017753 -186006.000000 0 0 1
8.849126 -22.675228 -10.761729 26.613677 -1.198719 1.987084 0.044593 -0.024065 497709.000000 0 0 1
7.941326 -23.189628 -9.752529 26.380587 -1.240862 1.949467 0.043135 -0.028990 479040.000000 0 0 1
8.044026 -24.699928 -9.579429 27.686789 -1.255959 1.924093 0.044958 -0.025028 797125.000000 0 0 1
9.300526 -25.014468 -8.967429 28.153831 -1.214829 1.894959 0.048650 -0.019377 215138.000000 0 0 1
9.649926 -26.376428 -9.093129 29.521552 -1.220068 1.883904 0.037789 -0.021096 462997.000000 0 0 1
11.165626 -26.730038 -8.995729 30.332974 -1.175109 1.871891 0.028862 -0.009504 501307.000000 0 0 1
11.695826 -26.539358 -7.690229 30.004492 -1.155705 1.829991 0.042911 -0.023127 -619375.000000 0 0 1
12.925426 -27.195308 -7.678729 31.074335 -1.127118 1.820491 0.065880 -0.011445 -867849.000000 0 0 1
13.351126 -27.593768 -6.227229 31.280137 -1.120155 1.771215 0.071720 -0.019221 131774.000000 0 0 1
12.680226 -28.743708 -5.672529 31.924387 -1.155328 1.749431 0.073590 -0.020916 609214.000000 0 0 1
11.273526 -28.664208 -5.499029 31.288473 -1.196082 1.747467 0.069522 -0.021271 130733.000000 0 0 1
10.697726 -29.854348 -4.661429 32.053898 -1.226719 1.716739 0.074772 -0.025811 49730.600000 0 0 1
11.022426 -31.156968 -5.199929 33.455789 -1.230766 1.726856 0.091919 -0.019803 304372.000000 0 0 1
10.063926 -31.590338 -6.173329 33.724503 -1.262386 1.754886 0.093069 -0.019624 414822.000000 0 0 1
10.308626 -33.101698 -6.529729 35.279280 -1.268893 1.756957 0.092962 -0.018253 -11318.600000 0 0 1
9.929626 33.721360 -5.460529 35.574498 1.284429 1.724901 0.090382 -0.016185 13180.400000 0 0 1
10.386226 32.414499 -5.638629 34.501703 1.260713 1.734963 0.090542 -0.013340 33031.400000 0 0 1
10.012226 31.531260 -4.409529 33.375274 1.263333 1.703303 0.081112 -0.014324 1153380.000000 0 0 1
8.614626 31.178310 -4.434029 32.649033 1.301220 1.707026 0.071399 -0.016371 469047.000000 0 0 1
8.321726 30.110260 -3.585029 31.444098 1.301152 1.685058 0.054804 -0.016266 163279.000000 0 0 1
6.842526 29.612800 -3.616529 30.607472 1.343715 1.689231 0.055834 -0.020308 720075.000000 0 0 1
6.391126 28.860710 -4.726329 29.935351 1.352866 1.729344 0.066756 -0.022091 -22111.200000 0 0 1
6.202426 29.715760 -5.838329 30.912498 1.365025 1.760804 0.068064 -0.026500 -610012.000000 0 0 1
6.311226 29.053740 -7.234829 30.598923 1.356894 1.809497 0.075490 -0.036264 -120742.000000 0 0 1
5.403126 27.985420 -7.430329 29.454834 1.380074 1.825813 0.092191 -0.041023 -268966.000000 0 0 1
5.931626 26.720280 -7.203629 28.302823 1.352349 1.828147 0.078142 -0.037201 -169130.000000 0 0 1
5.020526 25.496490 -7.611629 27.077916 1.376373 1.855737 0.090071 -0.045052 867570.000000 0 0 1
3.668126 25.524390 -7.120129 26.751558 1.428063 1.840201 0.095807 -0.041696 511650.000000 0 0 1
2.689226 26.186380 -7.884929 27.479638 1.468459 1.861824 0.096815 -0.041466 36641.300000 0 0 1
2.217426 25.364830 -9.129729 27.048910 1.483597 1.915084 0.095809 -0.044251 -133742.000000 0 0 1
3.176426 25.221050 -10.203629 27.391697 1.445513 1.952507 0.090639 -0.042382 418782.000000 0 0 1
2.653926 24.586800 -11.366629 27.216802 1.463272 2.001635 0.102330 -0.041358 -317695.000000 0 0 1
2.148926 23.131080 -11.269529 25.819896 1.478160 2.022464 0.107395 -0.034244 -146741.000000 0 0 1
0.906726 22.938990 -10.655429 25.309239 1.531289 2.005354 0.125199 -0.028114 -410817.000000 0 0 1
0.809626 21.530550 -10.484129 23.961157 1.533210 2.023665 0.089263 -0.016559 298784.000000 0 1 0
-0.380974 21.061850 -9.573529 23.138693 -1.552710 1.997361 0.089561 -0.007394 1830640.000000 0 1 0
-1.691374 21.024750 -10.225529 23.440612 -1.490522 2.022203 0.095242 -0.020340 891451.000000 0 1 0
-2.570774 20.414950 -9.301729 22.580992 -1.445530 1.995365 0.076440 -0.012109 71815.600000 0 1 0
-3.955874 20.170550 -9.958929 22.840321 -1.377133 2.021972 0.080301 -0.021121 -85329.100000 0 1 0
-4.805874 19.417450 -9.156229 21.999325 -1.328169 2.000064 0.063591 -0.028127 286106.000000 0 1 0
-5.941574 18.996950 -9.939229 22.248026 -1.267670 2.033922 0.073019 -0.026861 373164.000000 0 1 0
-6.998174 18.153850 -9.212029 21.526685 -1.202859 2.013003 0.070100 -0.025405 143909.000000 0 1 0
-8.082374 18.779950 -8.564529 22.166697 -1.164384 1.967488 0.082056 -0.015369 1092530.000000 0 1 0
-9.335374 18.905950 -9.290829 23.041347 -1.112137 1.985834 0.081209 -0.021342 1323300.000000 0 1 0
-10.509574 19.031150 -8.274529 23.261635 -1.066243 1.934476 0.103310 -0.032092 92739.900000 0 1 0
-10.761674 17.895950 -7.478129 22.181097 -1.029387 1.914673 0.096013 -0.028036 -183330.000000 0 1 0
-11.708674 18.097750 -6.461829 22.502818 -0.996555 1.862053 0.101661 -0.029283 -305816.000000 0 1 0
-12.420274 16.781050 -6.053729 21.737398 -0.933638 1.853022 0.095530 -0.033890 1178.840000 0 1 0
-13.372774 17.134750 -5.034529 22.310922 -0.908092 1.798410 0.089083 -0.022225 198309.000000 0 1 0
-13.815774 16.031950 -4.300529 21.596147 -0.859512 1.771271 0.094202 -0.024883 -965394.000000 0 1 0
-14.900174 16.280550 -3.321929 22.318304 -0.829639 1.720195 0.081430 -0.029701 -1776780.000000 0 1 0
-16.122374 16.473950 -3.925029 23.382212 -0.796183 1.739459 0.126853 -0.047762 -982696.000000 0 1 0
-17.085074 16.687050 -2.905629 24.058264 -0.773613 1.691867 0.125383 -0.043327 -940258.000000 0 1 0
-18.433074 17.053550 -3.470029 25.350402 -0.746543 1.708110 0.132630 -0.046196 -991090.000000 0 0 1
-18.398574 18.254750 -4.253129 26.264663 -0.781474 1.733446 0.124277 -0.046955 -685544.000000 0 0 1
-19.651374 18.632350 -4.705129 27.485982 -0.758787 1.742826 0.112311 -0.050087 -595813.000000 0 0 1
-19.637474 19.569050 -5.951729 28.354915 -0.783653 1.782270 0.094914 -0.029150 21126.700000 0 0 1
-19.046874 20.816550 -5.704529 28.786348 -0.829762 1.770285 0.102836 -0.048276 272819.000000 0 0 1
-19.373774 21.643150 -6.840829 29.842352 -0.840670 1.802085 0.084142 -0.021824 -274343.000000 0 0 1
-19.387974 23.168510 -6.641929 30.932000 -0.874001 1.787208 0.093289 -0.031994 919674.000000 0 0 1
-18.146474 23.880600 -6.383529 30.664752 -0.921000 1.780502 0.098221 -0.028029 806311.000000 0 0 1
-17.632774 23.718140 -5.100529 29.991337 -0.931513 1.741694 0.115797 -0.044700 -97898.700000 0 0 1
-16.151274 24.172820 -5.018729 29.502144 -0.981762 1.741742 0.086738 -0.039240 -148426.000000 0 0 1
-16.006574 24.822090 -3.786929 29.777297 -0.998049 1.698317 0.086670 -0.043697 -236503.000000 0 0 1
-14.853674 25.598850 -3.569129 29.810593 -1.045027 1.690811 0.122767 -0.055295 -170617.000000 0 0 1
-14.655174 26.849270 -4.482529 30.915214 -1.071159 1.716304 0.123822 -0.045235 56760.600000 0 0 1
-15.610974 27.882470 -4.306329 32.244055 -1.060396 1.704751 0.134239 -0.041970 36644.500000 0 0 1
-15.229274 28.946240 -5.130329 33.107943 -1.086470 1.726381 0.105478 -0.042658 -97823.000000 0 0 1
-15.956174 30.260000 -4.888329 34.556661 -1.085546 1.712731 0.102301 -0.036482 530402.000000 0 0 1
-17.351174 30.174800 -5.192129 35.192897 -1.048945 1.718870 0.127416 -0.036096 221499.000000 0 0 1
-18.008174 31.389930 -5.109829 36.547673 -1.049945 1.711069 0.138668 -0.032509 -241391.000000 0 0 1
13.274645 -8.640628 18.350356 24.240714 -0.577016 0.712078 0.154664 -0.022917 434318.000000 0 1 0
14.119345 -9.746528 18.707156 25.383231 -0.604184 0.742192 0.155605 -0.029156 161951.000000 0 0 1
14.196045 -10.771228 17.802956 25.189130 -0.649077 0.785872 0.159726 -0.030905 -283663.000000 0 0 1
14.883445 -12.001828 18.355956 26.504753 -0.678624 0.805774 0.184785 -0.040556 -118471.000000 0 0 1
16.284345 -11.710828 18.455756 27.256895 -0.623461 0.826976 0.169445 -0.027124 615120.000000 0 0 1
17.000545 -12.710228 19.152456 28.589946 -0.641987 0.836720 0.160597 -0.033627 19025.400000 0 0 1
17.312145 -14.036728 18.471356 28.947039 -0.681293 0.878757 0.145928 -0.037220 -936310.000000 0 0 1
16.125745 -14.651628 18.045656 28.290556 -0.737539 0.879069 0.161162 -0.046521 6566.650000 0 0 1
16.376645 -15.932028 17.564656 28.819111 -0.771638 0.915392 0.167852 -0.050040 -158194.000000 0 0 1
15.765445 -16.081728 16.123056 27.697007 -0.795329 0.949459 0.154681 -0.052682 -113613.000000 0 0 1
14.391345 -15.759828 16.059956 26.709646 -0.830754 0.925695 0.189444 -0.051928 141864.000000 0 0 1
13.789145 -15.737728 14.774856 25.614702 -0.851296 0.955976 0.215957 -0.056344 -35074.900000 0 0 1
13.243845 -17.127728 14.272556 25.931918 -0.912587 0.987970 0.155060 -0.034008 -407191.000000 0 0 1
14.248045 -18.026328 13.920956 26.865374 -0.901935 1.026081 0.155762 -0.034886 48385.000000 0 0 1
13.644845 -19.215928 13.400656 27.111091 -0.953337 1.053782 0.145636 -0.031958 666369.000000 0 0 1
14.687545 -20.296928 12.914956 28.186617 -0.944384 1.094833 0.147412 -0.032460 229967.000000 0 0 1
15.435445 -20.935028 13.885756 29.484616 -0.935471 1.080430 0.118600 -0.026753 -106325.000000 0 0 1
16.119845 -22.074528 13.404256 30.443526 -0.940058 1.114865 0.092525 -0.028332 372598.000000 0 0 1
17.191345 -22.834128 14.238256 31.932236 -0.925455 1.108628 0.101361 -0.036785 204832.000000 0 0 1
18.424145 -22.162828 14.357256 32.198927 -0.877254 1.108625 0.071584 -0.030060 -292921.000000 0 0 1
19.114545 -22.806328 15.424656 33.517375 -0.873237 1.092577 0.079558 -0.041297 -44111.200000 0 0 1
20.571245 -22.291028 15.507656 34.066897 -0.825500 1.098186 0.053901 -0.025861 -26714.700000 0 0 1
21.542745 -22.935028 14.714356 34.736402 -0.816691 1.133380 0.047793 -0.029995 -1399280.000000 0 0 1
22.635045 -22.092128 14.757056 34.902408 -0.773260 1.134253 0.051069 -0.023504 -449479.000000 0 0 1
23.859945 -22.803128 14.094656 35.887866 -0.762754 1.167186 0.050720 -0.030330 207540.000000 0 0 1
24.393945 -23.856928 14.870056 37.220104 -0.774269 1.159807 0.043963 -0.027308 -60165.600000 0 0 1
25.456945 -24.481028 14.190356 38.062357 -0.765858 1.188752 0.059112 -0.029424 -39647.600000 0 0 1
25.906645 -25.785688 14.913456 39.477426 -0.783058 1.183408 0.068262 -0.027226 -191258.000000 0 0 1
26.639445 -25.526138 16.086956 40.249645 -0.764060 1.159629 0.090336 -0.027525 114024.000000 0 0 1
27.036245 -26.697698 16.771056 41.533046 -0.779098 1.155129 0.127673 -0.024512 110513.000000 0 0 1
27.449445 -26.506158 18.319556 42.327941 -0.767917 1.123199 0.112407 -0.019900 -245740.000000 0 0 1
26.442845 -26.122278 19.191456 41.831919 -0.779300 1.094180 0.113155 -0.015338 -545737.000000 0 0 1
26.917845 -25.948908 20.491556 42.635901 -0.767072 1.069438 0.120076 -0.009231 -171822.000000 0 0 1
25.808745 -25.530398 21.475756 42.179386 -0.779977 1.036596 0.094283 -0.009490 -486511.000000 0 0 1
24.987145 -26.589348 21.728756 42.467513 -0.816453 1.033685 0.101151 -0.010783 -1660960.000000 0 0 1
23.943445 -26.256058 22.523196 42.070934 -0.831434 1.005860 0.095718 -0.015163 -1149580.000000 0 0 1
23.127645 -27.502798 22.903696 42.613040 -0.871598 1.003349 0.105555 -0.021033 -219540.000000 0 0 1
23.837745 -28.468988 23.684916 44.041987 -0.873708 1.002994 0.115865 -0.018533 196851.000000 0 0 1
23.664045 -29.747548 23.113926 44.487720 -0.898808 1.024463 0.131401 -0.025265 -654034.000000 0 0 1
24.776045 -30.691298 23.522036 45.924877 -0.891641 1.033069 0.112542 -0.016079 -507391.000000 0 0 1
24.833345 -30.982578 24.926686 46.882351 -0.895126 1.010206 0.106127 -0.015633 235481.000000 0 0 1
25.958745 -31.786758 25.233996 48.176851 -0.885983 1.019516 0.099256 -0.009328 -768825.000000 0 0 1
25.891345 -32.524288 26.617476 49.362750 -0.898461 1.001283 0.100761 -0.028849 548729.000000 0 0 1
24.882645 -33.554598 26.753226 49.606372 -0.932721 1.001178 0.095516 -0.013330 937577.000000 0 0 1
23.547545 -33.056688 26.661646 48.560013 -0.951838 0.989575 0.095116 -0.022557 -910080.000000 0 0 1
22.615945 33.495115 27.127946 48.675755 0.976908 0.979642 0.115707 -0.042105 -816401.000000 0 0 1
22.610745 33.225439 28.523866 49.282720 0.973261 0.953564 0.104133 -0.019358 413238.000000 0 0 1
21.982145 31.955893 28.845966 48.337186 0.968244 0.931332 0.109050 -0.028210 215412.000000 0 0 1
21.590045 31.823602 30.296516 48.956619 0.974695 0.903526 0.092267 -0.030198 524555.000000 0 0 1
22.733945 31.692462 31.160676 49.922260 0.948534 0.896710 0.080612 -0.022422 530357.000000 0 0 1
22.546845 32.405705 32.410806 51.077884 0.962916 0.883387 0.063902 -0.028308 1126040.000000 0 0 1
23.877845 32.450261 33.296336 52.266786 0.936426 0.880137 0.035882 -0.009205 1185270.000000 0 0 1
24.185245 31.140220 33.684476 51.858300 0.910452 0.863806 0.048661 -0.004657 760565.000000 0 0 1
25.449945 31.043180 -32.995619 51.962386 0.884084 2.258792 0.026026 0.003882 781561.000000 0 0 1
25.814045 29.588690 -32.570559 51.016632 0.853424 2.263253 0.044228 -0.002105 -133223.000000 0 0 1
26.026645 28.798230 33.621176 51.352777 0.835909 0.856997 0.054476 -0.009141 99112.300000 0 0 1
25.511845 27.496270 -33.589569 50.350355 0.822817 2.301128 0.072523 -0.019793 -58796.400000 0 0 1
25.672745 26.623900 32.487580 49.227682 0.803584 0.850050 0.111153 -0.022368 -331337.000000 0 0 1
26.980945 26.236290 32.190144 49.522920 0.771406 0.863205 0.105935 -0.032624 -274084.000000 0 0 1
27.138545 25.443020 31.058786 48.461284 0.753164 0.875128 0.135362 -0.045836 1603860.000000 0 0 1
28.512545 24.577340 31.018316 48.776498 0.711410 0.881587 0.101143 -0.034415 1622450.000000 0 0 1
28.552945 23.584260 32.060215 48.983113 0.690385 0.857254 0.116835 -0.043945 -64669.500000 0 0 1
29.468045 23.885560 33.059704 50.317290 0.681146 0.853931 0.106848 -0.045507 -1074450.000000 0 0 1
29.088745 23.254490 -32.983269 49.747587 0.674395 2.295632 0.102575 -0.051205 312862.000000 0 0 1
27.889245 23.699450 -32.329989 48.833412 0.704361 2.294342 0.091010 -0.044324 2474490.000000 0 0 1
26.585345 23.295260 -32.877299 48.273870 0.719534 2.320003 0.087736 -0.034705 1237030.000000 0 0 1
26.212145 21.819650 -32.847099 47.350877 0.694202 2.337404 0.077910 -0.036486 -980222.000000 0 0 1
25.998245 21.270450 -31.571279 46.098660 0.685710 2.325212 0.050619 -0.054063 249164.000000 0 0 1
26.178545 19.871650 -31.622609 45.609079 0.649288 2.336910 0.061401 -0.046784 -180759.000000 0 0 1
25.951045 19.207250 -30.220129 44.222521 0.637157 2.323158 0.068537 -0.047490 -161866.000000 0 0 1
24.598945 19.202850 -29.825229 43.167138 0.662822 2.333563 0.059592 -0.035700 85062.100000 0 0 1
24.547845 18.587350 -28.536209 41.980966 0.648086 2.318207 0.069607 -0.033064 -632107.000000 0 0 1
23.137045 18.753850 -27.991979 40.872737 0.681144 2.325204 0.067180 -0.027151 -465493.000000 0 0 1
22.826345 18.204550 -26.727469 39.582891 0.673229 2.312070 0.068391 -0.022965 -101238.000000 0 0 1
23.566245 18.801250 -25.711819 39.622626 0.673401 2.276957 0.078278 -0.012975 -426516.000000 0 0 1
23.638145 18.011150 -24.390829 38.445753 0.651107 2.258057 0.109040 -0.006395 23700.400000 0 0 1
24.536445 16.940650 -24.570729 38.636038 0.604273 2.260040 0.095503 -0.021073 65137.500000 0 0 1
24.530745 16.130650 -23.370629 37.525213 0.581678 2.243110 0.119544 -0.024760 -113846.000000 0 0 1
25.550245 14.958050 -23.283829 37.665567 0.529642 2.237212 0.138170 -0.026621 1048010.000000 0 0 1
26.895745 15.448950 -23.015829 38.623562 0.521384 2.209184 0.160864 -0.036573 631853.000000 0 0 1
27.871245 14.483850 -23.005929 38.934059 0.479259 2.202964 0.167612 -0.043199 -637160.000000 0 0 1
28.051945 13.538350 -21.753229 37.992124 0.449645 2.180436 0.158561 -0.030138 -392697.000000 0 0 1
26.897345 12.758750 -21.493829 36.718354 0.442918 2.196133 0.150605 -0.024884 45953.700000 0 0 1
26.771145 12.216850 -20.189929 35.687236 0.428117 2.172135 0.126542 -0.037722 152687.000000 0 0 1
25.391845 11.533250 -20.093229 34.372947 0.426350 2.195140 0.141192 -0.029029 758297.000000 0 0 1
24.236945 12.300550 -19.747529 33.596100 0.469639 2.199124 0.152771 -0.026693 643307.000000 0 0 1
23.131845 12.006550 -20.590529 33.214596 0.478770 2.239442 0.132697 -0.028776 -26441.800000 0 0 1
22.002945 13.000050 -20.553629 32.796075 0.533651 2.248120 0.109958 -0.023791 -861676.000000 0 0 1
22.373645 14.264750 -21.113129 33.909103 0.567587 2.242907 0.111103 -0.021916 310378.000000 0 0 1
21.340845 15.220550 -20.983829 33.577044 0.619538 2.245858 0.080346 -0.016545 127468.000000 0 0 1
20.052845 15.167850 -21.858329 33.316164 0.647581 2.286419 0.066252 -0.004774 257505.000000 0 0 1
19.123145 14.205350 -21.360729 31.996365 0.638900 2.301775 0.051831 -0.002570 276639.000000 0 0 1
18.136545 14.004250 -22.359529 32.015649 0.657531 2.343947 0.057038 -0.004841 233195.000000 0 0 1
16.878245 13.185350 -21.946829 30.665810 0.663174 2.368390 0.055456 -0.002800 565031.000000 0 0 1
15.803845 13.381750 -22.855729 30.841807 0.702598 2.405449 0.052387 -0.002455 145480.000000 0 0 1
14.598445 12.867250 -22.304829 29.600441 0.722450 2.424212 0.066666 -0.009717 -346180.000000 0 0 1
13.382445 13.087550 -23.168529 29.785139 0.774258 2.462042 0.067142 -0.014694 -861419.000000 0 0 1
13.160145 14.457150 -23.330229 30.438433 0.832327 2.444128 0.091417 -0.004054 -150144.000000 0 0 1
12.327345 14.819550 -24.397829 31.093995 0.876946 2.472924 0.086545 -0.012785 -609402.000000 0 0 1
11.902845 16.336450 -24.526529 31.782195 0.941128 2.452317 0.096286 -0.024487 341678.000000 0 0 1
12.983945 17.265950 -24.540729 32.694697 0.926018 2.419770 0.073308 -0.008738 758764.000000 0 0 1
14.172845 17.101750 -25.317189 33.679362 0.878777 2.421451 0.093905 -0.024559 251267.000000 0 0 1
13.966145 17.270450 -26.872939 34.863684 0.890789 2.450893 0.122426 -0.033877 -735609.000000 0 0 1
15.142845 17.368350 -27.602599 35.956485 0.853745 2.445989 0.112757 -0.038053 -468923.000000 0 0 1
14.886445 17.219250 -28.954459 36.830280 0.857931 2.475366 0.165714 -0.043110 202059.000000 0 0 1
16.099345 17.583350 -29.857529 38.207789 0.829428 2.467785 0.146014 -0.058295 526312.000000 0 0 1
17.152345 16.637350 -29.817099 38.210780 0.770158 2.465993 0.095786 -0.049351 -452317.000000 0 0 1
18.277145 17.095650 -30.476779 39.435382 0.752009 2.454082 0.086465 -0.042486 -931066.000000 0 0 1
19.475845 16.157250 -30.380199 39.538864 0.692534 2.447076 0.090390 -0.037256 -1102100.000000 0 0 1
20.662345 16.718550 -30.839849 40.712881 0.680284 2.430265 0.078421 -0.041776 -1303820.000000 0 0 1
21.587645 15.707150 -30.770729 40.737927 0.629010 2.426959 0.091503 -0.037835 -627323.000000 0 0 1
22.996345 16.140250 -31.240659 42.015691 0.611974 2.409156 0.092422 -0.034355 -47442.900000 0 0 1
22.975545 16.489950 -32.617569 43.170591 0.622518 2.427291 0.112218 -0.037520 -283062.000000 0 0 1
24.049845 17.326250 -32.923449 44.300649 0.624307 2.408610 0.099245 -0.042744 -419945.000000 0 0 1
24.175645 17.568650 32.906291 44.451583 0.628427 0.737321 0.070418 -0.029295 -59392.300000 0 0 1
25.057145 18.638850 32.707091 45.221909 0.639556 0.762288 0.072104 -0.024246 -218916.000000 0 0 1
25.029745 19.059650 31.383031 44.437068 0.650808 0.786630 0.099644 -0.027371 -300277.000000 0 0 1
26.115545 20.122650 31.149786 45.356938 0.656507 0.813760 0.130144 -0.032791 -120359.000000 0 0 1
27.422645 19.619950 31.266903 45.984379 0.621030 0.823107 0.105152 -0.025694 -722845.000000 0 0 1
28.330445 20.656150 31.173956 46.915948 0.630000 0.844020 0.094992 -0.034852 124118.000000 0 0 1
29.824545 20.307750 31.452860 47.866382 0.597797 0.853835 0.116197 -0.028763 515546.000000 0 0 1
30.028845 19.798250 32.721112 48.624823 0.582891 0.832633 0.099806 -0.038657 -475620.000000 0 0 1
31.383545 19.776850 33.066833 49.693723 0.562306 0.842750 0.099275 -0.024911 -341300.000000 0 0 1
31.527445 19.528550 -32.756289 49.480486 0.554573 2.294286 0.084368 -0.007428 -359316.000000 0 0 1
30.904145 20.505450 -31.974949 48.968735 0.585819 2.282291 0.067221 -0.032212 -150617.000000 0 0 1
30.608745 20.035550 -30.633879 47.715334 0.579581 2.267918 0.086137 -0.041131 82670.900000 0 0 1
31.658845 19.969450 -29.458119 47.632365 0.562738 2.237562 0.101571 -0.053598 120090.000000 0 0 1
32.799345 19.183450 -29.713189 48.235623 0.529222 2.234452 0.106086 -0.053319 -187375.000000 0 0 1
33.723745 19.413450 -28.664799 48.330567 0.522331 2.205699 0.127433 -0.060240 -678005.000000 0 0 1
35.094045 18.774550 -28.870859 49.169118 0.491237 2.198360 0.084578 -0.048260 -313068.000000 0 0 1
35.940045 19.499850 -29.745749 50.564222 0.497118 2.199722 0.088043 -0.049840 -216240.000000 0 0 1
36.936845 20.163350 -29.028899 51.123069 0.499680 2.174656 0.061273 -0.027675 -542989.000000 0 0 1
37.832345 21.042350 -29.921379 52.624668 0.507591 2.175576 0.061460 -0.027640 171267.000000 0 0 1
-37.308636 20.395650 -30.919969 52.573390 -0.500286 2.199541 0.044017 -0.029777 239310.000000 0 0 1
-36.182436 21.185150 -31.262199 52.300137 -0.529696 2.211483 0.045584 -0.028723 -113579.000000 0 0 1
-35.365236 20.477050 -32.339189 52.113651 -0.524847 2.240242 0.052357 -0.032583 -265776.000000 0 0 1
-34.634536 19.371250 -31.861969 50.891861 -0.509959 2.247302 0.059793 -0.028073 38847.700000 0 0 1
-33.754236 18.842850 -32.799339 50.697121 -0.509145 2.274396 0.066745 -0.025707 -135130.000000 0 0 1
-33.017736 17.484350 -32.520589 49.532435 -0.487003 2.287034 0.052062 -0.016160 403611.000000 0 0 1
-33.889036 16.363950 -32.414429 49.668308 -0.449849 2.281831 0.054061 -0.013135 570440.000000 0 0 1
-33.113836 15.183050 -32.596139 48.883120 -0.429909 2.300727 0.049877 -0.001079 9529.940000 0 0 1
-34.037536 13.970650 -32.648819 49.190226 -0.389481 2.296585 0.069161 -0.004592 -446961.000000 0 0 1
-33.474336 12.686250 -32.745909 48.515633 -0.362259 2.311701 0.084760 -0.019813 -456303.000000 0 0 1
-34.461136 11.741050 -33.005519 49.140477 -0.328369 2.307239 0.093292 -0.023607 -397602.000000 0 0 1
-33.945036 10.270050 -33.144969 48.542027 -0.293794 2.322398 0.101602 -0.021479 -189948.000000 0 0 1
-33.147436 9.979650 33.128201 47.914754 -0.292437 0.807373 0.080596 -0.018858 -196583.000000 0 0 1
-33.315036 8.568950 32.789414 47.523302 -0.251753 0.809356 0.114304 -0.036900 9289.780000 0 0 1
-32.253436 8.003250 31.800906 45.996019 -0.243224 0.807394 0.123271 -0.036349 -31525.800000 0 0 1
-31.055436 7.715950 32.451671 45.575069 -0.243526 0.778385 0.086827 -0.016823 -497380.000000 0 0 1
-30.137236 6.995350 31.649671 44.259345 -0.228078 0.774035 0.082494 -0.020650 -109899.000000 0 0 1
22.221745 -4.121728 -31.747589 38.970553 -0.183398 2.522932 0.102160 -0.052465 762448.000000 0 0 1
23.660345 -4.314628 -31.844669 39.906276 -0.180375 2.494743 0.081061 -0.046324 1290340.000000 0 0 1
24.369345 -3.209828 -31.307849 39.803887 -0.130962 2.476003 0.094101 -0.043162 26258.800000 0 0 1
24.177645 -1.760728 -31.918699 40.080694 -0.072696 2.492051 0.093300 -0.038121 -409579.000000 0 0 1
25.115645 -0.858528 -31.337119 40.168990 -0.034170 2.465673 0.096167 -0.030893 393721.000000 0 0 1
25.016245 0.489272 -31.840459 40.495268 0.019556 2.475555 0.086241 -0.028777 -1083970.000000 0 0 1
26.062345 1.370872 -31.251339 40.715738 0.052551 2.445805 0.079196 -0.019969 -320500.000000 0 0 1
27.306045 1.111172 -31.918439 42.019538 0.040671 2.433509 0.083049 -0.025303 -4399.910000 0 0 1
28.240745 2.021172 -31.400669 42.280336 0.071448 2.407857 0.088964 -0.029525 309702.000000 0 0 1
29.727245 2.026972 -31.892139 43.645461 0.068080 2.390157 0.097468 -0.029916 683418.000000 0 0 1
29.881245 2.465372 -33.217169 44.747594 0.082319 2.407327 0.098145 -0.025776 221229.000000 0 0 1
29.708445 1.443572 33.201164 44.575698 0.048553 0.730521 0.091235 -0.027737 -521978.000000 0 0 1
30.288345 1.863372 31.823341 43.972503 0.061444 0.761633 0.079864 -0.036649 68041.400000 0 0 1
29.557345 2.840472 31.040986 42.956347 0.095806 0.763216 0.074117 -0.019707 497702.000000 0 0 1
29.743345 4.109072 31.621780 43.606055 0.137282 0.759516 0.091899 -0.025271 38418.200000 0 0 1
29.208045 5.306372 30.775686 42.759915 0.179715 0.767380 0.088193 -0.015751 -27834.600000 0 0 1
29.550445 6.563772 31.280457 43.529058 0.218572 0.768994 0.113276 -0.019106 86832.000000 0 0 1
29.065345 7.608572 30.474726 42.794784 0.256030 0.778293 0.104762 -0.022527 37295.400000 0 0 1
29.552745 9.024972 30.946336 43.732031 0.296390 0.784650 0.098530 -0.019978 120548.000000 0 0 1
30.861645 9.334872 30.537046 44.408244 0.293726 0.812558 0.103207 -0.019791 -303067.000000 0 0 1
31.109745 10.632772 30.993636 45.182713 0.329336 0.814871 0.095707 -0.013957 140314.000000 0 0 1
32.476845 11.065572 30.389116 45.833292 0.328385 0.845929 0.115257 -0.014942 -492455.000000 0 0 1
33.527945 10.326372 30.993746 46.812064 0.298774 0.847194 0.127005 -0.024694 -272388.000000 0 0 1
34.765045 10.652572 30.422716 47.409147 0.297333 0.874076 0.132986 -0.035081 -113804.000000 0 0 1
35.441845 12.036172 30.687516 48.401626 0.327383 0.884058 0.119506 -0.029988 -805045.000000 0 0 1
35.848145 12.369872 31.991783 49.614286 0.332270 0.870022 0.118841 -0.031097 432176.000000 0 0 1
36.443445 13.657272 32.240585 50.538115 0.358554 0.878968 0.117440 -0.020046 -8148.800000 0 0 1
35.571045 14.879172 31.960473 50.081542 0.396177 0.878679 0.107294 -0.014699 -455868.000000 0 0 1
35.122245 14.979972 30.568296 48.912088 0.403149 0.895711 0.116176 -0.024289 347175.000000 0 0 1
34.170445 16.008372 30.383826 48.446508 0.438120 0.892892 0.111142 -0.016308 1387090.000000 0 0 1
32.655245 15.640672 30.695866 47.468219 0.446677 0.867597 0.106569 -0.013403 1014220.000000 0 0 1
32.083745 14.875072 29.630376 46.136684 0.434133 0.873392 0.109313 -0.011376 153599.000000 0 0 1
30.688345 14.730772 29.811086 45.248989 0.447530 0.851543 0.083033 -0.018475 153375.000000 0 0 1
29.857945 14.246472 28.630096 43.750900 0.445194 0.857422 0.092777 -0.010781 -126234.000000 0 0 1
29.971545 12.865672 28.264776 43.159200 0.405476 0.856752 0.096910 -0.016555 503425.000000 0 0 1
28.953245 12.458572 27.326816 41.716439 0.406351 0.856533 0.104879 -0.022885 601435.000000 0 0 1
28.749745 10.957972 27.136726 41.024710 0.364152 0.848016 0.100456 -0.009255 417609.000000 0 0 1
29.841945 10.277672 26.503156 41.213948 0.331680 0.872305 0.101045 -0.015803 691856.000000 0 0 1
29.461245 8.875672 26.509276 40.613842 0.292618 0.859633 0.094792 -0.013668 524484.000000 0 0 1
30.629545 7.935472 26.114096 41.025440 0.253505 0.880800 0.108652 -0.022880 219946.000000 0 0 1
31.018245 8.006672 24.744036 40.478459 0.252614 0.913108 0.114835 -0.024871 -653113.000000 0 0 1
32.144045 7.252872 24.502306 41.063448 0.221920 0.931422 0.133574 -0.020715 -397929.000000 0 0 1
32.877045 7.678372 23.181606 40.954173 0.229436 0.969105 0.149368 -0.022813 20525.300000 0 0 1
33.558545 8.914672 23.171806 41.744220 0.259649 0.982325 0.151655 -0.029557 134212.000000 0 0 1
32.826445 10.097672 22.786696 41.216161 0.298422 0.985006 0.161517 -0.033347 -11650.000000 0 0 1
32.335845 10.147372 21.300656 40.028664 0.304080 1.009676 0.158611 -0.012637 543178.000000 0 0 1
33.415945 10.333872 20.383056 40.483123 0.299921 1.043157 0.154624 -0.023101 445794.000000 0 0 1
33.000545 10.006872 19.097456 39.419364 0.294421 1.065040 0.174186 -0.029747 328658.000000 0 0 1
34.004845 10.531672 17.950856 39.868268 0.300342 1.103746 0.188563 -0.058323 1153730.000000 0 0 1
35.287845 9.979872 17.726956 40.731742 0.275616 1.120522 0.195364 -0.046366 91193.300000 0 0 1
36.237145 10.280572 18.751056 42.076394 0.276439 1.108904 0.176316 -0.039482 -58376.800000 0 0 1
37.633945 9.820472 18.245056 42.960884 0.255255 1.132177 0.161152 -0.037397 -185511.000000 0 0 1
37.588445 8.467072 17.898656 42.484637 0.221559 1.135921 0.143624 -0.029441 166953.000000 0 0 1
-37.152136 8.023272 17.256356 41.742495 -0.212691 1.144611 0.149350 -0.025922 -65798.100000 0 0 1
-37.200836 6.510172 16.905056 41.377113 -0.173246 1.149920 0.143387 -0.024984 -521978.000000 0 0 1
37.756545 6.225872 15.938156 41.452901 0.163425 1.176143 0.147564 -0.027867 -281127.000000 0 0 1
37.745045 4.950872 15.407056 41.067955 0.130422 1.186227 0.159270 -0.034541 -606195.000000 0 0 1
36.475445 4.145172 15.712156 39.931346 0.113157 1.166383 0.154353 -0.035275 -391995.000000 0 0 1
36.349645 3.711272 17.028556 40.311809 0.101747 1.134682 0.154933 -0.029821 -405388.000000 0 0 1
35.214545 2.915772 17.185556 39.292610 0.082612 1.118120 0.136065 -0.032427 -363009.000000 0 0 1
35.082845 2.097272 18.513356 39.723405 0.059709 1.085968 0.142614 -0.043024 -180475.000000 0 0 1
35.997245 1.044972 18.569756 40.518260 0.029021 1.094708 0.157624 -0.038967 -134581.000000 0 0 1
35.908345 0.318672 19.805956 41.009592 0.008874 1.066765 0.144897 -0.034240 230036.000000 0 0 1
36.286245 -1.203128 19.710256 41.311418 -0.033144 1.073428 0.141361 -0.035682 255421.000000 0 0 1
35.935145 -1.948128 20.906256 41.619723 -0.054159 1.044521 0.162697 -0.023206 197539.000000 0 0 1
36.285245 -3.323528 20.733556 41.923086 -0.091340 1.053466 0.104213 -0.015997 -376695.000000 0 0 1
35.753445 -4.176528 21.896256 42.133101 -0.116288 1.024305 0.101260 -0.020473 -268651.000000 0 0 1
36.167245 -3.839628 23.197636 43.138645 -0.105767 1.003035 0.100571 -0.022591 159817.000000 0 0 1
35.501345 -4.515928 24.238476 43.223174 -0.126525 0.975475 0.088443 -0.024877 -63712.400000 0 0 1
35.751445 -3.907528 25.658466 44.179084 -0.108865 0.951106 0.081999 -0.024328 269081.000000 0 0 1
34.705245 -4.255628 26.557846 43.907671 -0.122013 0.921211 0.082011 -0.032490 306409.000000 0 0 1
34.949345 -3.737928 27.846786 44.842751 -0.106548 0.900794 0.086061 -0.024904 54019.200000 0 0 1
34.010445 -4.354128 28.893606 44.838703 -0.127331 0.870571 0.075180 -0.027633 -66913.800000 0 0 1
34.237745 -5.729628 29.065426 45.275278 -0.165812 0.873730 0.080301 -0.041648 253473.000000 0 0 1
33.313545 -6.234528 30.013496 45.271090 -0.185007 0.846014 0.088507 -0.052329 -54018.000000 0 0 1
33.693445 -7.670028 30.441166 46.051516 -0.223827 0.848613 0.083277 -0.040721 -698431.000000 0 0 1
34.787745 -7.625428 31.282745 47.401946 -0.215786 0.850049 0.076545 -0.040200 -1001310.000000 0 0 1
35.654145 -8.646728 30.877346 47.952001 -0.237923 0.871183 0.069992 -0.024093 323458.000000 0 0 1
37.026645 -8.607428 31.638936 49.457886 -0.228409 0.876669 0.088708 -0.022379 704857.000000 0 0 1
36.906845 -9.162528 32.941702 50.311260 -0.243341 0.856934 0.073798 -0.023137 -316110.000000 0 0 1
-37.822136 -8.896328 33.610236 51.374182 0.231016 0.857640 0.060110 -0.020815 -534674.000000 0 0 1
37.923945 -9.135028 -32.240229 50.607378 -0.236375 2.261482 0.090620 -0.027339 248797.000000 0 0 1
37.037045 -8.281328 -31.474969 49.305139 -0.219978 2.263176 0.090966 -0.034248 719075.000000 0 0 1
37.296345 -6.892528 -31.589969 49.360414 -0.182743 2.265276 0.075599 -0.026989 205791.000000 0 0 1
36.552345 -6.074828 -30.461099 47.967239 -0.164690 2.258856 0.099114 -0.017257 276478.000000 0 0 1
37.199045 -6.278728 -29.242469 47.731681 -0.167211 2.230196 0.100130 -0.013658 77131.700000 0 0 1
36.678845 -5.392428 -28.303209 46.642122 -0.145972 2.222846 0.111737 -0.020267 330965.000000 0 0 1
37.531545 -5.293828 -26.948249 46.506447 -0.140126 2.188852 0.116254 -0.025457 998110.000000 0 0 1
-37.127736 -4.628928 -27.060129 46.175170 0.124036 2.196949 0.116068 -0.023389 256612.000000 0 0 1
-36.524636 -4.526628 -25.804189 44.948811 0.123305 2.182276 0.132070 -0.027702 609772.000000 0 0 1
-34.963436 -4.395828 -25.774429 43.658749 0.125070 2.202303 0.151777 -0.024490 399431.000000 0 0 1
-34.489836 -3.934928 -24.500029 42.488632 0.113598 2.185389 0.168603 -0.029786 1893360.000000 0 0 1
-33.034536 -3.919528 -24.396429 41.253231 0.118097 2.203568 0.195359 -0.030029 1867080.000000 0 0 1
-32.124436 -2.892728 -25.117229 40.880588 0.089805 2.232428 0.176158 -0.028597 -271921.000000 0 0 1
-31.955336 -3.209628 -26.505619 41.641242 0.100105 2.260778 0.172950 -0.017658 -118783.000000 0 0 1
-31.060836 -2.310128 -27.095519 41.282919 0.074238 2.286750 0.166561 -0.013844 -303945.000000 0 0 1
-30.668236 -2.920828 -28.409439 41.906660 0.094953 2.315728 0.136018 -0.017721 96969.800000 0 0 1
-31.703436 -2.905028 -29.390959 43.328692 0.091376 2.316278 0.162851 -0.020810 376294.000000 0 0 1
-31.353236 -3.829528 -30.421229 43.853642 0.121539 2.337408 0.126097 -0.008187 124256.000000 0 0 1
-32.571636 -4.255928 -31.322869 45.388837 0.129928 2.332425 0.102054 -0.013593 370761.000000 0 0 1
-33.502236 -5.209228 -30.750579 45.772634 0.154254 2.307448 0.096179 -0.015627 907902.000000 0 0 1
-34.465436 -4.672428 -29.828739 45.819773 0.134747 2.279699 0.118212 -0.020082 139025.000000 0 0 1
-35.641136 -3.898628 -30.471399 47.053120 0.108952 2.275221 0.139566 -0.025389 -599509.000000 0 0 1
-35.317236 -2.650228 -31.103859 47.135771 0.074900 2.291453 0.159635 -0.024988 -7469.610000 0 0 1
-34.818636 -1.587828 -30.276449 46.168409 0.045571 2.286015 0.173612 -0.020102 -17311.500000 0 0 1
-34.539036 -0.288628 -31.076329 46.462529 0.008356 2.303453 0.168146 -0.021382 -21091.600000 0 0 1
-35.681936 0.479172 -31.375679 47.516980 -0.013428 2.292021 0.182719 -0.023936 -105108.000000 0 0 1
-35.369936 1.678972 -32.128089 47.812817 -0.047433 2.307643 0.175938 -0.023626 196371.000000 0 0 1
-36.625836 2.564772 -32.323479 48.916636 -0.069912 2.292663 0.154052 -0.028021 70766.700000 0 0 1
-37.266436 2.321172 -33.549279 50.196905 -0.062205 2.302789 0.156591 -0.026057 -564608.000000 0 0 1
37.552245 3.168972 -33.665819 50.533166 0.084189 2.299915 0.143307 -0.024474 -463367.000000 0 0 1
36.576745 2.703772 32.587184 49.062136 0.073786 0.844370 0.117636 -0.019141 -3778.420000 0 0 1
36.988745 2.999172 31.232056 48.503645 0.080906 0.871197 0.137324 -0.030954 352868.000000 0 0 1
-37.953936 2.092872 30.744576 48.888755 -0.055087 0.890700 0.127530 -0.029388 -154643.000000 0 0 1
-37.744136 2.347172 29.248016 47.807692 -0.062106 0.912481 0.135518 -0.030412 -348478.000000 0 0 1
-37.084336 3.579172 29.133806 47.295212 -0.096216 0.907143 0.141777 -0.037005 -82672.000000 0 0 1
-36.582236 3.641972 27.802736 46.092473 -0.099229 0.923296 0.137638 -0.032763 296547.000000 0 0 1
-35.799336 4.969572 27.514636 45.424050 -0.137936 0.920115 0.121620 -0.029056 -137111.000000 0 0 1
-35.147436 5.075272 26.313796 44.198603 -0.143408 0.933091 0.119150 -0.019504 -285572.000000 0 0 1
-34.375436 6.202572 26.147246 43.632797 -0.178515 0.928224 0.118426 -0.020060 -590281.000000 0 0 1
-33.519736 6.221372 24.856546 42.191540 -0.183515 0.940807 0.101109 -0.010871 68769.800000 0 0 1
-32.466536 5.242272 25.006596 41.314492 -0.160085 0.920686 0.094166 -0.008192 541358.000000 0 0 1
-31.524236 5.317172 23.928856 39.932943 -0.167097 0.928262 0.090671 -0.008423 89234.400000 0 0 1
-31.948236 5.068672 22.429916 39.363465 -0.157341 0.964515 0.099868 -0.017570 -445126.000000 0 0 1
-32.184636 3.702072 22.143356 39.241360 -0.114523 0.971228 0.083133 -0.014200 -231451.000000 0 0 1
-32.774936 3.715072 20.890356 39.043632 -0.112869 1.006228 0.104783 -0.023640 -139967.000000 0 0 1
-33.016536 2.280672 20.380156 38.867002 -0.068967 1.018837 0.088188 -0.010931 -41812.500000 0 0 1
-31.802736 1.742672 19.890356 37.550994 -0.054742 1.012562 0.105991 -0.015266 105797.000000 0 0 1
-31.558736 2.022372 18.499856 36.637255 -0.063995 1.041476 0.110030 -0.024897 -513936.000000 0 0 1
-30.164836 1.648172 18.015656 35.173821 -0.054585 1.033064 0.118914 -0.034418 -940700.000000 0 0 1
-30.010636 0.272672 18.076056 35.035074 -0.009086 1.028690 0.131865 -0.034089 -47499.600000 0 0 1
-28.751636 -0.182428 17.635656 33.729901 0.006345 1.020606 0.143899 -0.035522 -187757.000000 0 0 1
-28.370736 -0.027328 16.108656 32.624963 0.000963 1.054397 0.172211 -0.025923 -446844.000000 0 0 1
-28.188336 1.330672 15.700556 32.293350 -0.047171 1.063077 0.174740 -0.038122 195806.000000 0 0 1
-28.244336 1.453772 14.288556 31.686256 -0.051426 1.102980 0.192709 -0.034707 -67492.500000 0 0 1
-27.526036 2.717872 13.760056 30.893505 -0.098419 1.109172 0.184757 -0.032807 331873.000000 0 0 1
-26.111636 2.643072 13.687556 29.599874 -0.100878 1.090074 0.179795 -0.044506 275857.000000 0 0 1
-25.533336 3.650772 12.858556 28.820511 -0.142018 1.108326 0.179885 -0.048140 494572.000000 0 0 1
-23.985136 3.600772 12.750056 27.401026 -0.149012 1.086808 0.164796 -0.052524 -8424.560000 0 0 1
-23.272136 4.184372 13.815056 27.385344 -0.177901 1.042030 0.141217 -0.044979 -638857.000000 0 0 1
-21.965236 4.389672 13.385956 26.094533 -0.197248 1.032144 0.127602 -0.046144 -1054410.000000 0 0 1
-21.061936 4.844672 14.532456 26.043584 -0.226088 0.978816 0.103723 -0.050488 -629117.000000 0 0 1
-21.309136 6.160772 14.978356 26.765379 -0.281440 0.976873 0.092462 -0.040111 372907.000000 0 0 1
-20.619036 6.597972 16.140256 27.003439 -0.309698 0.930153 0.073149 -0.028253 -138132.000000 0 0 1
-20.997136 8.047672 16.437256 27.853691 -0.366005 0.939578 0.077765 -0.033355 -5230.260000 0 0 1
-20.417836 8.968572 15.500556 27.158618 -0.413880 0.963387 0.080448 -0.038055 858231.000000 0 0 1
-20.937736 10.313272 15.706256 28.132523 -0.457685 0.978467 0.092196 -0.030928 -157839.000000 0 0 1
-20.401836 11.093672 16.921356 28.733896 -0.498039 0.941101 0.097485 -0.030992 -146476.000000 0 0 1
-20.809836 10.656372 18.211456 29.635530 -0.473268 0.909026 0.104769 -0.036077 518888.000000 0 0 1
-19.975336 11.221772 19.226256 29.909716 -0.511843 0.872636 0.104380 -0.031022 113909.000000 0 0 1
-12.867855 -33.606807 -20.170629 41.253526 1.205123 2.081674 0.145170 -0.054194 -408356.000000 0 0 1
-13.814155 -33.725807 -19.173129 41.180940 1.182040 2.055089 0.153294 -0.048258 -766959.000000 0 0 1
-14.780655 -32.735907 -19.111829 40.686231 1.146686 2.059789 0.135310 -0.069237 135478.000000 0 0 1
-16.058155 -33.194907 -18.318229 41.174309 1.120230 2.031853 0.126418 -0.056808 -82563.500000 0 0 1
-16.682455 33.406072 -19.063129 41.924609 -1.107642 2.042832 0.110503 -0.065323 -164827.000000 0 0 1
-17.500755 32.571572 -18.288629 41.251153 -1.077755 2.030127 0.122031 -0.062803 288388.000000 0 0 1
-18.921855 32.974472 -17.806729 41.981329 -1.049839 2.008829 0.109038 -0.056544 -252266.000000 0 0 1
-18.912855 -33.487007 -16.967629 42.035415 1.056675 1.986300 0.124876 -0.053090 -268038.000000 0 0 1
-20.224455 -33.140307 -16.624329 42.233598 1.022861 1.975371 0.094356 -0.049755 -383634.000000 0 0 1
-20.685455 -33.702207 -15.283829 42.394837 1.020312 1.939613 0.108034 -0.050797 -696638.000000 0 0 1
-20.640755 32.474172 -15.210629 41.376030 -1.004607 1.947244 0.114074 -0.050735 346217.000000 0 0 1
-21.201955 31.995872 -13.972129 40.847021 -0.985582 1.919905 0.124193 -0.044897 -137028.000000 0 0 1
-21.256255 30.434472 -13.853329 39.623228 -0.961127 1.927969 0.130243 -0.044662 58654.100000 0 0 1
-20.081155 29.759772 -13.450329 38.338077 -0.977201 1.929259 0.151957 -0.051006 3439.870000 0 0 1
-20.084855 28.459172 -13.911229 37.507975 -0.956227 1.950761 0.152238 -0.053313 469534.000000 0 0 1
-18.931555 27.571372 -13.301129 35.993115 -0.969094 1.949317 0.136979 -0.052539 -14417.100000 0 0 1
-17.659655 28.041672 -13.611629 35.825622 -1.008778 1.960529 0.171196 -0.056876 -1097880.000000 0 0 1
-16.725455 27.050872 -13.221429 34.442658 -1.017032 1.964778 0.169033 -0.057767 830092.000000 0 0 1
-15.289055 27.542072 -13.652129 34.332223 -1.064033 1.979748 0.145334 -0.058239 741935.000000 0 0 1
-15.179455 27.618872 -15.060229 34.928905 -1.068257 2.016583 0.122736 -0.047912 -391632.000000 0 0 1
-13.837155 27.747872 -15.454329 34.644589 -1.108210 2.033179 0.160017 -0.056114 -164271.000000 0 0 1
-13.649455 27.993472 -16.937929 35.451876 -1.117122 2.068914 0.171683 -0.068467 -28583.800000 0 0 1
-13.885055 26.870772 -17.747829 35.068769 -1.093851 2.101438 0.140644 -0.071319 229856.000000 0 0 1
-14.291055 27.151272 -19.108629 36.146445 -1.086292 2.127800 0.122283 -0.067784 -121019.000000 0 0 1
-13.782455 26.160972 -20.226429 35.825423 -1.085914 2.170724 0.106694 -0.042517 -7587.550000 0 0 1
-12.409255 26.383372 -20.474429 35.626874 -1.131154 2.183022 0.080903 -0.034632 -200518.000000 0 0 1
-11.732455 25.223172 -20.854429 34.767314 -1.135419 2.214083 0.077298 -0.030586 -135994.000000 0 0 1
-10.451455 25.576372 -21.625729 35.086406 -1.182866 2.234904 0.094176 -0.029393 -182922.000000 0 0 1
-10.704555 26.210872 -22.863529 36.391459 -1.183068 2.250119 0.073006 -0.023021 -52956.600000 0 0 1
-9.546555 26.254072 -23.668329 36.614243 -1.222038 2.273685 0.076594 -0.026636 -223318.000000 0 0 1
-9.724755 27.009872 -24.979729 38.053790 -1.225201 2.286876 0.072635 -0.014700 161582.000000 0 0 1
-10.670855 26.396872 -25.871699 38.470856 -1.186634 2.308380 0.058207 -0.008794 42529.700000 0 0 1
-10.854155 26.930272 -27.105819 39.721249 -1.187666 2.321839 0.075023 -0.008381 9135.130000 0 0 1
-11.930755 26.260772 -27.993859 40.194865 -1.144357 2.341240 0.051689 -0.005076 195102.000000 0 0 1
-12.109855 26.760072 -29.330679 41.509502 -1.145837 2.355480 0.053084 -0.001697 331729.000000 0 0 1
-13.406255 26.291672 -29.704559 41.872909 -1.099256 2.359440 0.056846 -0.000980 497870.000000 0 0 1
-13.735555 26.774272 -31.150819 43.311669 -1.096792 2.373482 0.052040 -0.000675 -156733.000000 0 0 1
-12.991855 26.234072 -32.214669 43.529297 -1.110973 2.403969 0.062636 -0.006099 -98289.300000 0 0 1
-12.889155 24.789172 -32.259899 42.677095 -1.091316 2.427834 0.064528 -0.010535 379061.000000 0 0 1
-12.103155 24.353472 -33.542459 43.181877 -1.109569 2.460320 0.048800 -0.010989 572132.000000 0 0 1
-12.940355 24.498372 32.674345 42.839652 -1.084834 0.703299 0.060710 -0.017691 519937.000000 0 0 1
-12.383555 23.785372 31.572496 41.423651 -1.090775 0.704114 0.057916 -0.017135 -671582.000000 0 0 1
-13.273655 23.798472 30.302066 40.752575 -1.062021 0.732415 0.067631 -0.009347 47240.400000 0 0 1
-14.489555 23.092472 30.491786 40.901815 -1.010431 0.729531 0.074107 -0.021826 -291989.000000 0 0 1
-15.055255 22.972972 29.259146 40.131232 -0.990672 0.753810 0.093347 -0.021043 65799.800000 0 0 1
-16.282855 22.015572 29.216466 40.042710 -0.933980 0.753012 0.100971 -0.027130 580559.000000 0 0 1
-15.848955 20.633372 29.308966 39.191082 -0.915797 0.725982 0.086067 -0.022344 1093700.000000 0 0 1
-16.952555 19.781072 29.724066 39.524676 -0.862247 0.719647 0.086032 -0.018827 846197.000000 0 0 1
-16.493755 18.330772 29.916306 38.769144 -0.838100 0.689361 0.069044 -0.019185 -91362.600000 0 0 1
-16.214655 17.800172 28.651966 37.425877 -0.831977 0.698876 0.092838 -0.021995 242479.000000 0 0 1
-15.618655 16.513272 28.763706 36.660351 -0.813233 0.668746 0.073861 -0.026358 65377.100000 0 0 1
-15.208355 15.916672 27.403506 35.150912 -0.808151 0.676776 0.079679 -0.022887 -260080.000000 0 0 1
-14.275655 16.660172 26.686606 34.547512 -0.862325 0.688089 0.072356 -0.021410 -677746.000000 0 0 1
-13.720755 15.855372 25.720536 33.184302 -0.857447 0.683952 0.058032 -0.011627 543427.000000 0 0 1
-12.435155 16.492972 25.059166 32.474806 -0.924761 0.689366 0.056306 -0.011098 658285.000000 0 0 1
-12.665855 17.517772 24.064856 32.348315 -0.944781 0.731865 0.060633 -0.015971 -267780.000000 0 0 1
-13.101955 18.815672 24.420166 33.496794 -0.962536 0.753893 0.058444 -0.019275 -340397.000000 0 0 1
-12.090055 19.701272 25.129426 34.143778 -1.020387 0.743671 0.058300 -0.015000 -184655.000000 0 0 1
-11.732255 19.359972 26.498056 34.851130 -1.025972 0.706989 0.067840 -0.017456 346228.000000 0 0 1
-12.746355 19.733972 27.448796 36.129428 -0.997302 0.707891 0.080755 -0.018082 482590.000000 0 0 1
-12.335955 19.536572 28.953986 37.043039 -1.007587 0.673520 0.083762 -0.027241 33806.700000 0 0 1
-11.305655 20.351372 29.452756 37.542789 -1.063723 0.668888 0.075849 -0.037017 -254773.000000 0 0 1
-11.153255 20.206372 30.849146 38.527423 -1.066444 0.642323 0.070582 -0.033153 -122062.000000 0 0 1
-9.917055 20.844872 31.482353 39.038381 -1.126732 0.632679 0.048405 -0.025171 113657.000000 0 0 1
-8.614355 20.308372 31.361247 38.342729 -1.169623 0.613012 0.068619 -0.030331 -163130.000000 0 0 1
-7.743655 21.073772 32.104315 39.175950 -1.218657 0.610275 0.079792 -0.026561 -373289.000000 0 0 1
-6.445755 20.360472 32.549989 38.930686 -1.264197 0.580659 0.080878 -0.021250 -130949.000000 0 0 1
-6.612155 19.287572 33.449566 39.174028 -1.240533 0.547419 0.082270 -0.025540 -436016.000000 0 0 1
-5.362155 18.941072 -33.424069 38.790273 -1.294918 2.609330 0.081923 -0.022251 22133.100000 0 0 1
-4.555755 17.860372 33.153635 37.932984 -1.321046 0.507411 0.059885 -0.024419 347703.000000 0 0 1
-5.181355 16.569472 33.313246 37.565492 -1.267725 0.480412 0.063076 -0.020169 225682.000000 0 0 1
-4.991855 15.805172 32.106675 36.132543 -1.264874 0.476555 0.061199 -0.022820 18195.400000 0 0 1
-5.634555 14.374572 32.170689 35.683746 -1.197222 0.447457 0.067108 -0.029916 246131.000000 0 0 1
-5.050455 13.507972 33.176497 36.175300 -1.213002 0.410043 0.070692 -0.028346 81406.300000 0 0 1
-5.664755 12.255572 32.996804 35.652175 -1.137828 0.388390 0.078121 -0.029824 190928.000000 0 0 1
-4.783655 11.085872 33.502496 35.611756 -1.163425 0.345900 0.087528 -0.040901 246556.000000 0 0 1
-4.547555 11.034572 -32.473259 34.597032 -1.179886 2.789387 0.101792 -0.047355 -167293.000000 0 0 1
-3.728755 9.902272 -32.237219 33.929293 -1.210663 2.824447 0.116985 -0.047164 202692.000000 0 0 1
-3.689555 9.417572 -30.742899 32.364013 -1.197402 2.823744 0.133998 -0.047969 15107.900000 0 0 1
-4.818555 8.649172 -30.436879 32.006722 -1.062509 2.827098 0.137353 -0.042006 -118188.000000 0 0 1
-5.384655 8.894572 -29.138709 30.938201 -1.026425 2.798848 0.168491 -0.045389 560844.000000 0 0 1
-6.501255 7.853672 -28.798089 30.549573 -0.879334 2.801331 0.161502 -0.045753 479132.000000 0 0 1
-5.962455 6.673672 -28.239669 29.623769 -0.841623 2.834702 0.168861 -0.039134 477501.000000 0 0 1
-7.056055 5.877572 -27.814119 29.290937 -0.694531 2.822693 0.185164 -0.056984 193317.000000 0 0 1
-6.599555 4.997972 -26.598959 27.857467 -0.648169 2.839861 0.172019 -0.058024 10009.900000 0 0 1
-6.608455 5.694572 -25.315629 26.776499 -0.711253 2.809745 0.144667 -0.043494 -378480.000000 0 0 1
-5.593755 6.630572 -25.127019 26.582356 -0.870011 2.809162 0.134683 -0.040998 -679677.000000 0 0 1
-5.972555 7.851872 -24.236229 26.167119 -0.920512 2.755027 0.088793 -0.020878 24648.600000 0 0 1
-6.050555 7.513972 -22.877829 24.828694 -0.892868 2.742534 0.072598 -0.017426 -70590.200000 0 1 0
-7.364655 7.676472 -22.385529 24.784638 -0.806126 2.697968 0.078417 -0.017678 10937.400000 0 1 0
-7.407255 7.853072 -20.865129 23.492377 -0.814604 2.664135 0.056295 -0.010963 -76900.800000 0 1 0
-6.945055 9.168272 -20.468129 23.478401 -0.922506 2.629632 0.040327 -0.001718 27822.400000 0 1 0
-6.831055 9.436472 -19.092029 22.365507 -0.944210 2.593725 0.037422 0.000751 -625276.000000 0 1 0
-8.095555 9.584672 -18.263629 22.157710 -0.869425 2.539684 0.038849 0.000897 -682000.000000 0 1 0
-7.742855 9.761172 -16.934029 21.023644 -0.900197 2.507274 0.017653 0.005961 348986.000000 0 1 0
-8.895455 9.936972 -16.115529 20.918480 -0.840646 2.450260 0.027638 -0.005093 895455.000000 0 1 0
-9.598055 11.398572 -16.221129 22.026691 -0.870942 2.398575 0.059826 -0.013514 475672.000000 0 1 0
-8.682555 12.386172 -15.728029 21.821432 -0.959408 2.375695 0.040414 -0.011848 589740.000000 0 1 0
-9.018555 13.680172 -16.268529 23.089965 -0.987951 2.352615 0.073377 -0.013396 330712.000000 0 1 0
-7.803955 14.573772 -15.929529 22.957492 -1.079170 2.337647 0.081025 -0.017050 -133554.000000 0 1 0
-7.332355 14.575672 -14.596629 21.892355 -1.104708 2.300630 0.078055 -0.012125 68122.400000 0 1 0
-8.210955 15.026672 -13.559629 21.842257 -1.070702 2.240557 0.067120 -0.029146 -703316.000000 0 1 0
-7.528455 15.720472 -12.379629 21.379104 -1.124175 2.188363 0.047712 -0.023616 52517.000000 0 1 0
-6.987455 17.042672 -12.639829 22.339258 -1.181701 2.172215 0.063296 -0.027297 782892.000000 0 1 0
-5.930855 17.225072 -13.612029 22.741272 -1.239195 2.212499 0.069350 -0.021108 343661.000000 0 1 0
-5.788855 18.692772 -14.187029 24.170278 -1.270479 2.198097 0.101275 -0.010490 207341.000000 0 1 0
-5.445155 19.678372 -13.252529 24.341683 -1.300843 2.146515 0.112323 -0.019797 -37431.200000 0 1 0
-5.784755 20.960172 -13.740629 25.721529 -1.301512 2.134366 0.124133 -0.015421 42556.100000 0 0 1
-5.413055 22.119772 -12.707229 26.077943 -1.330797 2.079767 0.134996 -0.015799 -382911.000000 0 0 1
-5.745355 23.432172 -13.092429 27.449726 -1.330349 2.067989 0.125527 -0.023683 569486.000000 0 0 1
-7.123855 23.816072 -13.080329 28.090027 -1.280147 2.055174 0.128459 -0.030752 838990.000000 0 0 1
-7.954255 23.820972 -11.748629 27.726146 -1.248520 2.008365 0.078781 -0.030687 -271871.000000 0 0 1
-8.173555 22.526672 -11.272929 26.482766 -1.222730 2.010499 0.091370 -0.024123 -252942.000000 0 0 1
-8.472055 22.410272 -9.893529 25.920608 -1.209360 1.962416 0.082886 -0.024479 214174.000000 0 0 1
-7.387655 22.748172 -8.803029 25.486272 -1.256783 1.923464 0.079449 -0.023063 233932.000000 0 0 1
-7.351855 24.101972 -8.484729 26.588446 -1.274730 1.895590 0.074541 -0.018700 -2958.250000 0 0 1
-6.455255 24.442472 -7.425129 26.348383 -1.312592 1.856472 0.078549 -0.022130 62705.200000 0 0 1
-6.350555 26.002372 -7.169729 27.710249 -1.331256 1.832513 0.068004 -0.015382 252809.000000 0 0 1
-5.671755 26.870672 -8.101629 28.632817 -1.362774 1.857664 0.080500 -0.020835 107279.000000 0 0 1
-6.133655 26.856472 -9.445929 29.122455 -1.346261 1.901123 0.082243 -0.021819 -33908.600000 0 0 1
-5.502055 28.099572 -10.012729 30.333369 -1.377437 1.907195 0.085503 -0.018945 191578.000000 0 0 1
-6.291955 29.251572 -9.791429 31.481983 -1.358926 1.887059 0.074511 -0.020710 -40603.200000 0 0 1
-7.047255 29.587872 -10.946129 32.325279 -1.336972 1.916251 0.081605 -0.019310 -134385.000000 0 0 1
-8.078955 30.696172 -10.717429 33.502056 -1.313442 1.896424 0.085645 -0.022334 46319.100000 0 0 1
-9.230355 30.288572 -10.009129 33.208127 -1.274990 1.876963 0.106541 -0.022263 -160283.000000 0 0 1
-10.229655 31.274372 -9.985829 34.386755 -1.254672 1.865439 0.092740 -0.034014 163755.000000 0 0 1
-11.434155 30.959972 -9.068529 34.227152 -1.217014 1.838950 0.119330 -0.039020 376053.000000 0 0 1
-12.285955 29.917372 -9.569429 33.727849 -1.181132 1.858473 0.126762 -0.045122 -257519.000000 0 0 1
-13.330055 29.752572 -8.646529 33.729340 -1.149582 1.830041 0.136024 -0.039340 -31764.200000 0 0 1
-14.348955 28.676372 -9.144429 33.344376 -1.106848 1.848598 0.136847 -0.048519 213339.000000 0 0 1
-14.079755 27.305572 -8.910229 31.987903 -1.094718 1.853080 0.119549 -0.042489 583032.000000 0 0 1
-15.125855 26.518572 -9.545729 31.986670 -1.052436 1.873842 0.134767 -0.042886 886878.000000 0 0 1
-15.425855 25.204672 -8.809929 30.835812 -1.021583 1.860538 0.117896 -0.039779 206915.000000 0 0 1
-14.410655 24.254372 -9.081229 29.637987 -1.034692 1.882210 0.111821 -0.034244 343526.000000 0 0 1
-14.882855 22.975472 -8.687829 28.720203 -0.995989 1.878110 0.115557 -0.035711 306509.000000 0 0 1
-13.939955 21.800072 -9.084329 27.424269 -1.001877 1.908426 0.111826 -0.025619 48810.700000 0 0 1
-13.925255 21.600672 -10.465729 27.749473 -0.998179 1.957514 0.103584 -0.015633 206512.000000 0 0 1
-13.234155 20.372872 -10.709529 26.549779 -0.994704 1.985999 0.100233 -0.016805 -75798.800000 0 0 1
-13.368055 19.885672 -12.202729 26.889616 -0.978941 2.041831 0.109964 -0.012530 36400.600000 0 0 1
-14.705255 19.753972 -12.649529 27.685276 -0.930876 2.045308 0.126175 -0.003610 -75013.600000 0 0 1
-14.708055 19.619972 -14.032129 28.251917 -0.927521 2.090564 0.128748 0.007214 -8378.960000 0 0 1
-16.027055 19.099872 -14.626329 28.906766 -0.872654 2.101317 0.110894 -0.002157 -58683.800000 0 0 1
-17.098255 19.973072 -14.405829 29.980024 -0.862792 2.072037 0.095845 -0.012450 -735468.000000 0 0 1
-18.337255 19.365572 -14.563929 30.387305 -0.812666 2.070627 0.099125 -0.015216 -630419.000000 0 0 1
-19.468755 20.161672 -15.231729 31.898762 -0.802881 2.068606 0.095387 -0.021090 -217007.000000 0 0 1
-19.885955 21.282672 -14.504629 32.539016 -0.819312 2.032821 0.098908 -0.031222 111300.000000 0 0 1
-20.479855 22.211772 -15.377329 33.900583 -0.825944 2.041598 0.108733 -0.032721 -91907.600000 0 0 1
-20.974655 23.483572 -14.609429 34.710945 -0.841771 2.005221 0.103147 -0.036529 706871.000000 0 0 1
-22.233955 23.253272 -13.950229 35.066684 -0.807803 1.979936 0.127250 -0.039881 706745.000000 0 0 1
-22.491755 24.332472 -13.113729 35.635911 -0.824689 1.947645 0.117675 -0.044089 80733.500000 0 0 1
-26.083875 -0.281928 4.236271 26.427146 0.010808 1.409802 0.210416 -0.062440 -575896.000000 0 0 1
-27.032625 0.116072 5.155771 27.520143 -0.004294 1.382337 0.255171 -0.057158 -909993.000000 0 0 1
-28.320355 -0.100828 4.677271 28.704173 0.003560 1.407119 0.262706 -0.061526 -1064150.000000 0 0 1
-29.342915 0.531972 5.589771 29.875328 -0.018127 1.382584 0.256592 -0.045845 -952528.000000 0 0 1
-29.421795 1.956072 5.460571 29.988099 -0.066386 1.387683 0.293321 -0.058646 -62832.500000 0 0 1
-29.877435 2.508772 6.676971 30.717048 -0.083772 1.351677 0.303766 -0.047563 -235995.000000 0 0 1
-28.817335 3.091672 7.637671 29.972175 -0.106876 1.313129 0.311753 -0.048434 152911.000000 0 0 1
-28.035335 2.126472 8.339471 29.326587 -0.075705 1.282452 0.275692 -0.058127 171195.000000 0 0 1
-26.954225 2.635272 9.039471 28.551479 -0.097459 1.248651 0.265429 -0.072938 -330096.000000 0 0 1
-26.004855 1.588372 9.700671 27.800691 -0.061004 1.214360 0.234079 -0.062487 235140.000000 0 0 1
-25.130805 0.968072 8.727471 26.620730 -0.038502 1.236775 0.260367 -0.067273 542043.000000 0 0 1
-25.312685 -0.399528 8.430471 26.682663 0.015782 1.249335 0.218777 -0.054976 -163305.000000 0 0 1
-24.060855 -1.013328 7.740071 25.295460 0.042090 1.259822 0.191751 -0.057994 -314643.000000 0 0 1
-23.003655 -1.122128 8.641271 24.598758 0.048742 1.211849 0.197889 -0.080910 -1443380.000000 0 1 0
-21.971755 -1.776828 8.041271 23.464381 0.080693 1.221006 0.214174 -0.066960 -646368.000000 0 1 0
-20.804355 -1.972128 9.072371 22.781975 0.094512 1.161214 0.170846 -0.043097 866595.000000 0 1 0
-20.065955 -0.776528 9.492371 22.211498 0.038680 1.129222 0.143134 -0.044116 1332960.000000 0 1 0
-20.768055 -0.198928 10.563671 23.301134 0.009578 1.100271 0.167224 -0.044615 -435593.000000 0 1 0
-20.363555 1.310172 10.754371 23.066153 -0.064250 1.085760 0.127275 -0.032840 -160673.000000 0 1 0
-20.674355 2.195172 9.703771 22.943646 -0.105782 1.134110 0.135092 -0.038442 137510.000000 0 1 0
-22.046655 2.275472 9.412171 24.079488 -0.102847 1.169210 0.165997 -0.051741 -724380.000000 0 1 0
-22.468155 3.717572 9.105371 24.526437 -0.163974 1.190444 0.157310 -0.058189 -385742.000000 0 1 0
-22.516355 4.632272 10.159271 25.132747 -0.202898 1.154666 0.148892 -0.055716 466274.000000 0 0 1
-22.697855 5.911772 9.617071 25.350143 -0.254794 1.181682 0.127808 -0.050724 -191762.000000 0 0 1
-22.721655 6.955172 10.717371 26.067414 -0.297047 1.147091 0.127031 -0.058804 115718.000000 0 0 1
-23.874955 6.769772 11.527871 27.363024 -0.276299 1.135925 0.133897 -0.051388 530807.000000 0 0 1
-23.877255 7.633872 12.671071 28.088349 -0.309443 1.102782 0.122995 -0.043070 -143316.000000 0 0 1
-24.781955 7.156172 13.838671 29.272255 -0.281118 1.078379 0.145804 -0.040148 111439.000000 0 0 1
-26.157925 7.221072 13.539271 30.326437 -0.269348 1.108001 0.142765 -0.039503 -174179.000000 0 0 1
-26.930255 6.716972 14.599571 31.360864 -0.244434 1.086558 0.140650 -0.043983 941473.000000 0 0 1
-28.487075 6.746272 14.353671 32.604501 -0.232535 1.114935 0.149907 -0.036341 916257.000000 0 0 1
-28.889875 5.684572 13.491171 32.387512 -0.194285 1.141144 0.175925 -0.031538 399322.000000 0 0 1
-29.960945 6.033172 12.609471 33.061400 -0.198710 1.179491 0.235288 -0.028610 166042.000000 0 0 1
-30.484265 4.849072 11.756771 33.030676 -0.157746 1.206882 0.260917 -0.031280 181750.000000 0 0 1
-31.476765 3.959472 12.276871 34.017433 -0.125133 1.201564 0.218657 -0.030028 706949.000000 0 0 1
-31.901315 3.049772 11.230171 33.957499 -0.095311 1.233738 0.224478 -0.018921 968293.000000 0 0 1
-33.115785 2.077972 11.623071 35.157773 -0.062667 1.233860 0.174973 -0.008257 701744.000000 0 0 1
-32.851615 1.009272 12.479971 35.156748 -0.030712 1.207903 0.174754 -0.007436 657541.000000 0 0 1
-34.056732 0.445672 13.037571 36.469684 -0.013085 1.205217 0.138016 -0.010121 737566.000000 0 0 1
-33.716165 -0.705828 14.080271 36.544932 0.020931 1.175278 0.123336 -0.017882 108018.000000 0 0 1
-33.505345 -2.026628 13.579171 36.209243 0.060413 1.186379 0.144051 -0.014791 382493.000000 0 0 1
-33.857695 -2.934928 14.658671 37.011268 0.086468 1.163575 0.145310 -0.012004 -125494.000000 0 0 1
-33.713485 -4.460528 14.434571 36.943907 0.131543 1.169387 0.151106 -0.011958 -53506.100000 0 0 1
-34.655141 -4.929528 13.475671 37.508303 0.141297 1.203309 0.133014 -0.018469 249233.000000 0 0 1
-34.586051 -6.320928 13.165971 37.543200 0.180765 1.212490 0.153640 -0.017018 -232946.000000 0 0 1
-35.760169 -6.771228 12.231071 38.395811 0.187136 1.246595 0.145952 -0.027843 1118550.000000 0 0 1
-37.097025 -6.788628 12.728471 39.803125 0.180994 1.245293 0.123697 -0.028224 901547.000000 0 0 1
-37.686625 -5.512928 13.047571 40.260566 0.145253 1.240759 0.126415 -0.032181 -25755.600000 0 0 1
36.762816 -5.384128 12.514871 39.206064 -0.145422 1.245903 0.130828 -0.033162 733859.000000 0 0 1
35.822036 -6.198628 13.218571 38.682966 -0.171343 1.222055 0.125012 -0.025890 549496.000000 0 0 1
34.524886 -5.760528 12.837371 37.282027 -0.165328 1.219270 0.136794 -0.027286 125053.000000 0 0 1
33.262906 -6.524928 13.236871 36.389701 -0.193703 1.198502 0.128947 -0.015489 -101778.000000 0 0 1
32.954616 -6.499428 14.627971 36.636413 -0.194725 1.160071 0.128155 -0.010790 175730.000000 0 0 1
31.794796 -7.287128 14.813071 35.825108 -0.225301 1.144520 0.119088 -0.018851 55189.700000 0 0 1
31.247396 -7.384228 16.284471 36.001535 -0.232058 1.101423 0.113430 -0.008559 -40368.800000 0 0 1
32.222606 -7.949528 17.109171 37.339189 -0.241877 1.094817 0.092451 -0.000862 -69051.100000 0 0 1
31.734196 -7.979628 18.433571 37.557026 -0.246345 1.057771 0.075915 -0.002015 -191727.000000 0 0 1
32.677426 -8.797728 19.356171 38.985581 -0.262994 1.051239 0.079102 -0.004861 504725.000000 0 0 1
33.831226 -8.133428 19.825571 40.046944 -0.235934 1.052894 0.081273 -0.002834 780140.000000 0 0 1
34.981156 -8.235928 18.952371 40.628858 -0.231228 1.085494 0.050098 0.004870 24884.800000 0 0 1
36.306836 -7.754228 19.513371 41.941459 -0.210414 1.086876 0.030949 -0.000679 -416267.000000 0 0 1
36.638166 -8.374028 20.723671 42.917946 -0.224701 1.066870 0.031040 -0.009880 320582.000000 0 0 1
37.782586 -7.751128 21.312871 44.066339 -0.202343 1.065971 0.027311 -0.012056 262031.000000 0 0 1
-37.893335 -8.438828 22.698471 44.970426 0.219124 1.041713 0.028106 -0.012304 -395466.000000 0 0 1
37.236206 -7.975428 23.743471 44.876440 -0.210997 1.013274 0.031481 -0.012745 -88973.000000 0 0 1
37.317856 -8.786128 24.901971 45.715714 -0.231229 0.994749 0.030054 -0.015482 -313606.000000 0 0 1
36.980756 -8.076128 26.219571 46.046347 -0.215012 0.965000 0.050780 -0.016585 760589.000000 0 0 1
-37.823105 -7.451828 26.897671 47.006401 0.194527 0.961595 0.033636 -0.030867 586597.000000 0 0 1
37.639606 -6.735928 28.035471 47.414136 -0.177084 0.938140 0.043453 -0.038776 -613970.000000 0 0 1
-37.181205 -6.019828 28.759971 47.390044 0.160512 0.918670 0.062089 -0.032234 -440356.000000 0 0 1
-36.603485 -6.923528 29.688471 47.635656 0.186941 0.897917 0.061769 -0.029023 710929.000000 0 0 1
-35.192346 -6.722628 29.884071 46.655682 0.188751 0.875616 0.067862 -0.030248 862646.000000 0 0 1
-34.631587 -7.360828 31.143771 47.153612 0.209430 0.849345 0.060117 -0.023262 -168690.000000 0 0 1
-34.662534 -8.763428 31.052871 47.355778 0.247632 0.855640 0.054538 -0.025085 108128.000000 0 0 1
-34.145737 -9.439528 32.157171 47.844746 0.269712 0.833735 0.040620 -0.017266 -237683.000000 0 0 1
-34.383183 -10.964928 32.111671 48.307270 0.308708 0.843653 0.049636 -0.017368 42656.500000 0 0 1
-35.765301 -11.233828 32.223971 49.434198 0.304341 0.860767 0.043573 -0.022461 -26564.900000 0 0 1
-36.052265 -12.622428 32.307371 50.028569 0.336777 0.868754 0.045148 -0.020731 44191.700000 0 0 1
-37.530825 -12.937128 32.601571 51.369199 0.331951 0.883238 0.072476 -0.022345 -139887.000000 0 0 1
-37.778985 -14.313028 32.602471 51.913732 0.362152 0.891800 0.081365 -0.030747 -46950.000000 0 0 1
36.788396 -14.452528 32.993071 51.485963 -0.374332 0.875235 0.077246 -0.028803 -170953.000000 0 0 1
36.418226 -15.940228 33.155771 51.765656 -0.412578 0.875650 0.071821 -0.019038 -117135.000000 0 0 1
37.042906 -16.456528 -33.077014 52.317139 -0.418067 2.255238 0.081762 -0.030204 105746.000000 0 0 1
36.676496 -17.811828 -32.930514 52.410355 -0.452099 2.250189 0.092162 -0.039713 157196.000000 0 0 1
37.259176 -18.678628 -31.784214 52.415395 -0.464700 2.222310 0.113257 -0.040784 38073.000000 0 0 1
36.387586 -18.513528 -30.699114 51.080747 -0.470652 2.215538 0.125129 -0.036841 -127187.000000 0 0 1
36.730056 -19.256528 -29.605814 50.955030 -0.482876 2.190776 0.130989 -0.033052 -987806.000000 0 0 1
35.694426 -19.182228 -28.484514 49.531984 -0.493119 2.183490 0.124187 -0.024243 240505.000000 0 0 1
34.473226 -19.890028 -28.589414 49.003787 -0.523314 2.193720 0.119188 -0.021882 447806.000000 0 0 1
33.563456 -19.306828 -29.530714 48.696224 -0.522010 2.222356 0.097282 -0.015406 -470722.000000 0 0 1
32.155346 -19.949228 -29.471814 47.963797 -0.555286 2.232497 0.073511 -0.004970 847760.000000 0 0 1
31.187056 -19.361428 -30.373114 47.644763 -0.555585 2.262034 0.051994 0.000234 201915.000000 0 0 1
29.964026 -20.019528 -30.426114 47.163257 -0.589007 2.271981 0.043197 0.003801 -243882.000000 0 0 1
28.990026 -19.495128 -31.509514 47.046053 -0.592014 2.304680 0.018598 0.014503 71859.400000 0 0 1
29.420326 -19.744128 -32.854814 48.320027 -0.591069 2.318480 0.019052 0.010798 158916.000000 0 0 1
28.383726 -19.695628 33.538471 48.149587 -0.606624 0.800222 0.050864 0.002085 209640.000000 0 0 1
28.958126 -19.677828 32.111871 47.507496 -0.596853 0.828567 0.069347 -0.007491 -491153.000000 0 0 1
29.533426 -18.496828 31.734971 47.132412 -0.559535 0.832113 0.054211 -0.011803 -200320.000000 0 0 1
29.628426 -18.290828 30.323171 46.172424 -0.553072 0.854312 0.054819 -0.022385 -113551.000000 0 0 1
28.327226 -17.788328 29.666571 44.709750 -0.560724 0.845260 0.062591 -0.018944 -321506.000000 0 0 1
28.214826 -16.403228 30.045571 44.360778 -0.526608 0.826709 0.066591 -0.024309 424342.000000 0 0 1
27.189626 -15.733828 29.329571 42.977352 -0.524588 0.819697 0.061112 -0.025064 160219.000000 0 0 1
27.342226 -14.242228 29.804771 42.880797 -0.480218 0.802292 0.084182 -0.028986 -136856.000000 0 0 1
28.517026 -13.535328 29.503671 43.207551 -0.443155 0.819159 0.091145 -0.021596 -26371.100000 0 0 1
28.524126 -12.357428 30.251371 43.375998 -0.408819 0.799003 0.124326 -0.036740 1466110.000000 0 0 1
29.990126 -11.729028 30.123271 44.095229 -0.372807 0.818741 0.126813 -0.032103 1379790.000000 0 0 1
30.377326 -11.342428 28.816771 43.380167 -0.357354 0.844260 0.113378 -0.035618 -328544.000000 0 0 1
31.773556 -11.222328 28.750271 44.295345 -0.339520 0.864450 0.105104 -0.029065 -213748.000000 0 0 1
32.309746 -10.475228 27.535271 43.724606 -0.313520 0.889574 0.113392 -0.035059 -390455.000000 0 0 1
32.200706 -9.093628 27.571871 43.356517 -0.275237 0.881579 0.105875 -0.031153 -72807.500000 0 0 1
32.714956 -8.539228 26.375471 42.881840 -0.255322 0.908318 0.110739 -0.030083 -55840.900000 0 0 1
32.577806 -7.007528 26.269571 42.432408 -0.211873 0.903210 0.112177 -0.030058 -33928.300000 0 0 1
31.273866 -6.485028 26.199471 41.310078 -0.204465 0.883804 0.109753 -0.031333 -277430.000000 0 0 1
31.331086 -5.067228 26.070171 41.072710 -0.160343 0.883134 0.106385 -0.030171 1241960.000000 0 0 1
29.861826 -4.492428 25.988971 39.841400 -0.149321 0.860167 0.102742 -0.022846 1306150.000000 0 0 1
29.048126 -4.758328 24.858571 38.527702 -0.162366 0.869494 0.118478 -0.020912 -295567.000000 0 0 1
27.830526 -4.098528 24.978071 37.619677 -0.146216 0.844690 0.106740 -0.022399 -550472.000000 0 0 1
26.752026 -4.404028 23.927471 36.160617 -0.163161 0.847713 0.118331 -0.006827 -335731.000000 0 0 1
27.135026 -3.916228 22.666571 35.572741 -0.143334 0.879950 0.133336 0.000008 349143.000000 0 0 1
26.224226 -4.348728 21.664271 34.292303 -0.164333 0.886984 0.134397 -0.006291 138181.000000 0 0 1
26.517826 -3.637028 20.332671 33.613101 -0.136304 0.921152 0.154940 -0.001271 17219.800000 0 0 1
26.102226 -2.306628 20.272671 33.130468 -0.088140 0.912330 0.124928 0.003400 -11510.100000 0 0 1
26.577826 -1.637028 19.139771 32.793162 -0.061516 0.947578 0.144025 0.003897 203479.000000 0 0 1
25.500126 -0.658628 18.585371 31.561150 -0.025823 0.941138 0.122011 -0.008561 332496.000000 0 0 1
24.450626 -1.308128 17.916671 30.340590 -0.053450 0.939096 0.117350 -0.000522 -671281.000000 0 0 1
23.447226 -0.526828 17.412871 29.210580 -0.022465 0.932142 0.135938 -0.008621 295333.000000 0 0 1
22.170626 -1.311028 16.923671 27.922501 -0.059065 0.919655 0.142254 -0.017286 656273.000000 0 0 1
22.375026 -1.973928 15.686671 27.397259 -0.087992 0.961167 0.180349 -0.026030 181007.000000 0 0 1
21.172426 -2.619728 15.322971 26.266481 -0.123107 0.947930 0.183919 -0.031286 -189935.000000 0 0 1
21.196426 -2.995028 13.784671 25.461261 -0.140369 0.998698 0.201824 -0.044061 -166158.000000 0 0 1
20.125126 -3.808328 13.366071 24.457635 -0.187021 0.992618 0.208060 -0.051382 467769.000000 0 1 0
20.340426 -4.272328 12.032971 24.016205 -0.207032 1.046001 0.208756 -0.055212 181127.000000 0 1 0
19.212426 -5.266128 11.623971 23.064390 -0.267529 1.042597 0.183720 -0.055918 167401.000000 0 1 0
19.344226 -6.531128 12.165471 23.766644 -0.325610 1.033434 0.203214 -0.067655 466308.000000 0 1 0
18.141226 -7.230028 11.961071 22.900755 -0.379248 1.021250 0.173534 -0.052314 -131380.000000 0 1 0
18.262626 -8.750528 12.333271 23.710859 -0.446829 1.023766 0.187710 -0.065612 -415910.000000 0 1 0
19.129226 -9.414528 11.459671 24.205055 -0.457351 1.077603 0.181289 -0.074277 355658.000000 0 1 0
18.930026 -10.805028 11.494971 24.642014 -0.518663 1.085491 0.199137 -0.075966 -18678.900000 0 1 0
19.525226 -11.418528 10.233871 24.826384 -0.529175 1.145910 0.200974 -0.083190 -90370.800000 0 1 0
18.767226 -10.918628 9.188271 23.576461 -0.526924 1.170466 0.165642 -0.069680 338063.000000 0 1 0
19.211126 -11.433128 7.967871 23.733325 -0.536831 1.228422 0.171032 -0.073220 24485.100000 0 1 0
18.514226 -10.789828 6.701271 22.452260 -0.527666 1.267710 0.133106 -0.051940 -348164.000000 0 1 0
18.881126 -9.474028 6.427271 22.080850 -0.465065 1.275442 0.112821 -0.050175 26778.400000 0 1 0
19.864426 -9.338928 5.459371 22.618924 -0.439470 1.327026 0.127364 -0.038346 -915239.000000 0 1 0
20.105326 -7.862828 5.138571 22.191284 -0.372795 1.337117 0.130164 -0.038949 -308130.000000 0 1 0
21.042126 -7.623028 4.086871 22.750475 -0.347568 1.390177 0.146900 -0.033078 937036.000000 0 1 0
21.365026 -6.261728 4.054171 22.629845 -0.285099 1.390672 0.161973 -0.036330 -243587.000000 0 1 0
22.266526 -5.819728 2.910571 23.197819 -0.255648 1.444997 0.187529 -0.043728 -155776.000000 0 1 0
21.552626 -5.830628 1.676971 22.390269 -0.264206 1.495829 0.156617 -0.047571 843365.000000 0 1 0
22.336526 -5.350628 0.600771 22.976304 -0.235116 1.544646 0.189697 -0.035400 128231.000000 0 1 0
-25.424305 -14.400528 0.026171 29.219363 0.515353 1.569901 0.174351 -0.037954 -2161490.000000 0 0 1
-24.323955 -13.793528 -0.465429 27.966638 0.515859 1.587439 0.133046 -0.027333 -934751.000000 0 0 1
-23.107955 -14.435928 -0.121729 27.246806 0.558396 1.575264 0.125370 -0.015778 439915.000000 0 0 1
-22.575155 -14.234128 1.313671 26.720288 0.562560 1.521613 0.147703 -0.038709 -738956.000000 0 0 1
-23.562155 -14.644128 2.248471 27.833097 0.556086 1.489924 0.147109 -0.018882 87092.700000 0 0 1
-23.095855 -14.525428 3.548071 27.513550 0.561413 1.441479 0.142731 -0.019500 -319780.000000 0 0 1
-23.982555 -15.235428 4.550071 28.774718 0.565951 1.412002 0.176297 -0.013724 -344145.000000 0 0 1
-23.986455 -16.654328 4.498771 29.545823 0.606905 1.417938 0.227439 -0.045710 36342.400000 0 0 1
-24.930855 -17.248828 5.353471 30.785212 0.605246 1.396010 0.232896 -0.039689 -476789.000000 0 0 1
-25.089115 -18.756828 5.146271 31.745337 0.641969 1.407967 0.175248 -0.031156 -83941.400000 0 0 1
-25.685065 -19.393128 6.264171 32.788044 0.646716 1.378564 0.181385 -0.039955 105798.000000 0 0 1
-25.699815 -20.837428 6.064671 33.637169 0.681292 1.389508 0.168696 -0.048150 338739.000000 0 0 1
-26.221325 -21.745728 7.244671 34.826999 0.692362 1.361247 0.148705 -0.040537 439086.000000 0 0 1
-25.162395 -21.923128 8.166271 34.357789 0.716711 1.330816 0.138934 -0.035026 104393.000000 0 0 1
-25.557345 -22.831928 9.180171 35.478872 0.729135 1.309068 0.122865 -0.030576 -143294.000000 0 0 1
-24.474355 -23.173228 10.203271 35.215044 0.758098 1.276839 0.129427 -0.036907 -194750.000000 0 0 1
-24.189655 -21.998728 10.964971 34.486433 0.737999 1.247230 0.116902 -0.035885 -170782.000000 0 0 1
-23.399755 -22.323428 12.091171 34.526518 0.761862 1.213012 0.123353 -0.039751 -223242.000000 0 0 1
-23.697655 -21.463828 13.310071 34.632828 0.735975 1.176326 0.083472 -0.026600 556474.000000 0 0 1
-24.992885 -21.897328 13.774871 35.970604 0.719477 1.177811 0.072346 -0.025757 826395.000000 0 0 1
-25.433075 -21.092028 14.892671 36.242332 0.692362 1.147334 0.062159 -0.008598 -58308.900000 0 0 1
-26.873495 -21.384928 15.339171 37.613695 0.672152 1.150744 0.045414 -0.005218 -830004.000000 0 0 1
-27.967055 -21.048428 14.569871 37.914030 0.645173 1.176361 0.059075 -0.006389 -176573.000000 0 0 1
-28.389475 -22.021328 13.621671 38.424616 0.659739 1.208413 0.057550 -0.014833 38574.400000 0 0 1
-29.507395 -22.967628 14.151971 39.980953 0.661411 1.208986 0.048447 -0.013556 284969.000000 0 0 1
-28.992205 -23.898428 15.162971 40.516645 0.689387 1.187219 0.036207 -0.008336 367823.000000 0 0 1
-30.021135 -24.767928 15.595971 41.927952 0.689810 1.189665 0.024467 -0.007197 -45146.100000 0 0 1
-29.841145 -26.236578 15.095771 42.505697 0.721208 1.207725 0.035308 -0.007174 -19971.800000 0 0 1
-30.276075 -26.621578 13.812371 42.616086 0.721257 1.240724 0.044608 -0.014630 -762760.000000 0 0 1
-31.648645 -26.869868 13.846171 43.764632 0.703916 1.248887 0.068170 -0.028023 -820594.000000 0 0 1
-32.269145 -27.032798 12.479971 43.906942 0.697327 1.282586 0.110708 -0.041310 -366437.000000 0 0 1
-31.875185 -28.216378 11.861771 44.191550 0.724586 1.299047 0.087787 -0.040890 632.202000 0 0 1
-32.542975 -28.451118 10.642371 44.517092 0.718412 1.329396 0.101809 -0.030375 4877.520000 0 0 1
-32.008605 -29.726468 9.953171 44.802671 0.748448 1.346771 0.083509 -0.036400 147249.000000 0 0 1
-32.356875 -30.928078 10.684271 46.018117 0.762825 1.336483 0.090277 -0.027737 107488.000000 0 0 1
-31.884895 -32.089698 10.043071 46.338521 0.788599 1.352330 0.103997 -0.033030 -157245.000000 0 0 1
-31.822795 -33.332398 10.992071 47.376837 0.808563 1.336649 0.099926 -0.027349 742032.000000 0 0 1
-33.128435 33.789090 11.307771 48.652456 -0.795271 1.336232 0.072531 -0.013694 631447.000000 0 0 1
-33.021935 32.436938 11.778171 47.763254 -0.776462 1.321631 0.108964 -0.021670 28329.200000 0 0 1
-34.409735 31.857704 12.253471 48.467419 -0.746906 1.315204 0.107410 -0.016312 1249320.000000 0 0 1
-35.412583 31.687413 11.247671 48.832912 -0.729938 1.338380 0.069204 -0.017454 199760.000000 0 0 1
-35.993195 32.897830 10.880571 49.961626 -0.740497 1.351259 0.097922 -0.016442 -1170730.000000 0 0 1
-37.423785 32.758730 10.310771 50.793563 -0.719025 1.366382 0.103381 0.002879 30666.500000 0 0 1
-37.540955 32.127359 9.102471 50.242865 -0.707849 1.388621 0.076718 0.001144 88920.500000 0 0 1
36.995616 32.005590 8.820071 49.707414 0.713206 1.392412 0.057561 0.000707 71089.500000 0 0 1
36.689806 31.233730 7.517971 48.766870 0.705244 1.416018 0.047547 -0.002251 -262767.000000 0 0 1
36.643186 29.825840 7.574471 47.850563 0.683191 1.411833 0.097764 -0.013467 133395.000000 0 0 1
36.420086 29.374020 6.248871 47.204916 0.678712 1.438029 0.110574 -0.007778 -39923.500000 0 0 1
36.338686 27.809930 6.003771 46.151246 0.653220 1.440338 0.136522 -0.017785 2612.860000 0 0 1
35.286296 27.108930 6.619071 44.986985 0.655083 1.423127 0.148536 -0.025095 25133.300000 0 0 1
35.573676 26.848570 7.978471 45.276794 0.646522 1.393656 0.141161 -0.023750 361460.000000 0 0 1
34.700336 25.651980 8.508371 43.983289 0.636581 1.376124 0.128097 -0.017999 201844.000000 0 0 1
35.024776 24.477100 7.786571 43.433789 0.609954 1.390547 0.133685 -0.025718 192909.000000 0 0 1
33.945296 23.560070 7.827471 42.055074 0.606728 1.383580 0.132248 -0.030074 -314601.000000 0 0 1
34.057036 22.282750 6.932471 41.285128 0.579376 1.402080 0.124565 -0.028484 761969.000000 0 0 1
35.012086 21.279450 7.373171 41.629614 0.546116 1.392743 0.133762 -0.029695 1244380.000000 0 0 1
36.401526 21.601350 7.174171 42.932017 0.535566 1.402903 0.130511 -0.031598 1251820.000000 0 0 1
37.460196 20.454450 7.030171 43.255914 0.499791 1.407547 0.099974 -0.024771 570898.000000 0 0 1
37.274686 19.766750 5.848271 42.594939 0.487592 1.433062 0.129561 -0.033065 -320106.000000 0 0 1
37.919646 18.550150 5.955071 42.631801 0.454967 1.430652 0.144158 -0.044801 -494786.000000 0 0 1
37.418616 17.361950 5.080171 41.561980 0.434429 1.448259 0.144795 -0.051666 -252887.000000 0 0 1
37.683236 17.494850 3.685471 41.709456 0.434650 1.482320 0.176418 -0.048742 436424.000000 0 0 1
37.052376 16.410850 2.988771 40.634065 0.416942 1.497177 0.152050 -0.045595 -150498.000000 0 0 1
37.863526 16.015250 1.689171 41.145936 0.400153 1.529732 0.188449 -0.040181 790292.000000 0 0 1
-36.859545 15.251250 1.909071 39.935839 -0.392318 1.522975 0.197374 -0.052568 368171.000000 0 0 1
-35.732106 16.062050 2.062671 39.230441 -0.422449 1.518194 0.220753 -0.058875 -1003850.000000 0 0 1
-34.405874 15.314250 2.159371 37.722053 -0.418776 1.513521 0.234781 -0.054125 -373804.000000 0 0 1
-34.211575 14.562050 3.378171 37.334933 -0.402418 1.480190 0.226658 -0.053503 337585.000000 0 0 1
-32.873355 14.096450 3.474371 35.936592 -0.405094 1.473964 0.234176 -0.059398 73585.900000 0 0 1
-32.511085 13.296350 4.729671 35.441972 -0.388223 1.436949 0.239096 -0.044069 -149843.000000 0 0 1
-33.063505 12.015050 4.839771 35.510283 -0.348556 1.434079 0.266753 -0.044642 32541.600000 0 0 1
-32.555995 11.305950 5.950471 34.973210 -0.334247 1.399821 0.226584 -0.030946 -95024.100000 0 0 1
-32.849225 9.843250 5.992071 34.811867 -0.291135 1.397808 0.260647 -0.038577 -34507.900000 0 0 1
-34.222208 9.547250 6.138171 36.055328 -0.272061 1.399720 0.241314 -0.017743 25128.000000 0 0 1
-34.392918 8.116450 6.074671 35.855979 -0.231752 1.400557 0.272667 -0.024582 -556206.000000 0 0 1
-35.833239 7.628950 6.052771 37.132976 -0.209769 1.407063 0.227503 -0.012796 -116189.000000 0 0 1
-36.535455 7.551650 7.314071 38.017924 -0.203823 1.377205 0.201356 -0.009731 -392940.000000 0 0 1
-37.750865 6.899750 7.233271 39.051947 -0.180775 1.384499 0.148484 -0.015949 -495180.000000 0 0 1
37.506236 6.406950 8.549471 38.998207 0.169190 1.349774 0.123299 -0.016423 -167817.000000 0 0 1
37.125026 7.440550 9.435071 39.021146 0.197798 1.326582 0.150777 -0.015131 272986.000000 0 0 1
-37.741445 8.034950 10.199871 39.912585 -0.209763 1.312374 0.161542 -0.019627 -17870.100000 0 0 1
37.661816 9.041550 11.216971 40.323472 0.235613 1.288903 0.130813 -0.026247 -220637.000000 0 0 1
37.092416 8.360950 12.353071 39.979384 0.221703 1.256670 0.113322 -0.026937 642188.000000 0 0 1
36.444766 9.284350 13.216271 39.863390 0.249445 1.232862 0.137893 -0.036113 -597869.000000 0 0 1
35.925096 8.693950 14.536471 39.717833 0.237437 1.196096 0.180267 -0.046774 421130.000000 0 0 1
34.654206 8.037850 14.401371 38.378646 0.227914 1.186136 0.185174 -0.049319 652602.000000 0 0 1
34.450226 7.265850 15.564071 38.494817 0.207862 1.154565 0.181999 -0.048822 -190887.000000 0 0 1
32.978966 6.975450 15.912171 37.275545 0.208440 1.129757 0.192547 -0.040728 -135752.000000 0 0 1
32.271056 8.149850 16.259171 37.043241 0.247371 1.116395 0.171722 -0.039796 -560893.000000 0 0 1
30.886226 8.037950 16.216571 35.798669 0.254596 1.100676 0.168035 -0.031135 -147530.000000 0 0 1
30.078226 7.562150 17.478971 35.600564 0.246311 1.057588 0.169541 -0.049046 -6068.170000 0 0 1
30.131426 8.406250 18.613971 36.401205 0.272068 1.034035 0.199274 -0.052675 -332754.000000 0 0 1
29.254226 7.997150 19.605171 36.112696 0.266848 0.996923 0.190516 -0.039162 -606117.000000 0 0 1
29.419326 6.645050 20.448171 36.438731 0.222146 0.975003 0.181150 -0.039374 -31178.700000 0 0 1
28.566826 6.500450 21.593371 36.394959 0.223743 0.935636 0.150524 -0.034795 146670.000000 0 0 1
28.917526 5.352450 22.378071 36.954703 0.183022 0.920334 0.144567 -0.031854 -175123.000000 0 0 1
27.982826 5.089050 23.639271 36.983132 0.179897 0.877351 0.134835 -0.027465 666243.000000 0 0 1
26.655626 4.645450 23.438771 35.797745 0.172544 0.856937 0.093604 -0.015698 -313059.000000 0 0 1
25.805626 5.728550 23.282971 35.225606 0.218446 0.848689 0.113244 -0.010784 -57558.700000 0 0 1
24.311426 5.474850 22.863671 33.819622 0.221502 0.828411 0.094770 -0.019794 138595.000000 0 0 1
24.154926 5.170050 21.473371 32.730651 0.210856 0.855206 0.103512 -0.022593 -412932.000000 0 0 1
22.819126 5.074350 21.105471 31.494482 0.218812 0.836409 0.096813 -0.015490 -400664.000000 0 0 1
21.823326 4.042450 21.776371 31.093557 0.183159 0.794909 0.101050 -0.018443 18715.800000 0 0 1
20.621326 3.749650 21.090171 29.733722 0.179868 0.782290 0.096238 -0.022640 769862.000000 0 0 1
19.508426 4.605050 21.389371 29.313654 0.231811 0.752953 0.107476 -0.023892 318211.000000 0 0 1
18.287726 4.230950 20.510071 27.802965 0.227355 0.741148 0.155987 -0.030640 -174826.000000 0 0 1
17.647826 3.038150 20.908671 27.529050 0.170483 0.708232 0.148563 -0.030093 431087.000000 0 0 1
16.520626 2.873250 20.043971 26.133262 0.172197 0.696658 0.170256 -0.037833 476207.000000 0 0 1
15.387526 1.860250 20.326271 25.561568 0.120310 0.651478 0.186326 -0.037458 -102953.000000 0 0 1
15.858526 0.519450 20.375571 25.824921 0.032744 0.661635 0.140464 -0.035674 -62739.900000 0 0 1
15.127226 -0.233350 21.252271 26.087285 -0.015425 0.618653 0.170270 -0.041566 -554976.000000 0 0 1
15.478426 -1.719250 21.107971 26.231354 -0.110621 0.635652 0.136500 -0.028412 -106513.000000 0 0 1
14.792826 -2.389350 20.066671 25.044120 -0.160138 0.641410 0.145874 -0.025107 168439.000000 0 0 1
15.022226 -3.788150 20.056171 25.342994 -0.247020 0.657718 0.117464 -0.010735 61897.000000 0 0 1
14.288626 -4.492150 18.862071 24.085721 -0.304603 0.671125 0.123788 -0.015140 1287240.000000 0 1 0
12.851126 -4.419450 18.813871 23.208720 -0.331227 0.625555 0.123723 -0.016699 868252.000000 0 1 0
12.461026 -4.939150 17.548371 22.082067 -0.377371 0.652302 0.121155 -0.020942 89683.600000 0 1 0
10.942726 -4.880750 17.270771 21.020097 -0.419545 0.606529 0.111869 -0.019650 96750.700000 0 1 0
10.216626 -5.803750 18.059671 21.545641 -0.516610 0.576812 0.111601 -0.018997 -1640980.000000 0 1 0
8.906026 -5.729250 17.652371 20.585135 -0.571651 0.540347 0.088480 -0.037994 -1350290.000000 0 1 0
7.993226 -6.448750 18.681971 21.318867 -0.678860 0.502645 0.075439 -0.040039 -468046.000000 0 1 0
8.077526 -7.872550 18.782071 21.908666 -0.772548 0.540815 0.075733 -0.037512 542385.000000 0 1 0
9.244326 -8.395350 19.447871 23.111883 -0.737307 0.570805 0.120182 -0.035538 758849.000000 0 1 0
9.408726 -9.838450 19.041671 23.407359 -0.807721 0.620667 0.139383 -0.048514 34138.600000 0 1 0
9.426726 -10.075750 17.634171 22.390799 -0.818665 0.663952 0.109748 -0.032785 135127.000000 0 1 0
9.727426 -11.442250 17.340271 22.939767 -0.866226 0.713762 0.121939 -0.041165 244351.000000 0 1 0
9.693526 -11.632150 15.846271 21.917474 -0.876055 0.762665 0.105758 -0.040485 256429.000000 0 1 0
10.083426 -12.971050 15.496271 22.584464 -0.910002 0.814617 0.077892 -0.030140 -45675.900000 0 1 0
9.881226 -13.127350 14.116671 21.662095 -0.925556 0.861004 0.058365 -0.014129 -300472.000000 0 1 0
10.510226 -14.370150 13.458671 22.318196 -0.939311 0.923495 0.078103 -0.021727 849430.000000 0 1 0
11.876326 -14.276250 13.013371 22.676116 -0.876908 0.959560 0.058910 -0.021054 545593.000000 0 1 0
11.982526 -13.924250 11.662971 21.759838 -0.860209 1.005121 0.016559 -0.016450 -207756.000000 0 1 0
13.286126 -13.294650 11.152071 21.854920 -0.785719 1.035289 0.076919 -0.037471 512265.000000 0 1 0
14.231826 -14.081350 10.398371 22.560040 -0.780084 1.091765 0.097058 -0.039859 947643.000000 0 1 0
15.486626 -13.464950 10.145771 22.892731 -0.715682 1.111645 0.113495 -0.057029 1181570.000000 0 1 0
16.635026 -14.308150 9.443571 23.887827 -0.710341 1.164369 0.115435 -0.061734 1177910.000000 0 1 0
17.339626 -15.286650 10.238571 25.281864 -0.722557 1.153843 0.110986 -0.046145 168871.000000 0 0 1
16.507826 -16.306550 10.670171 25.539468 -0.779264 1.139783 0.160907 -0.041774 -207122.000000 0 0 1
17.125226 -17.096050 11.866271 26.951005 -0.784546 1.114874 0.134298 -0.029192 311917.000000 0 0 1
18.245026 -17.917050 11.584071 28.072983 -0.776329 1.145445 0.158170 -0.042030 7920.730000 0 0 1
18.532726 -18.585250 12.822771 29.211246 -0.786813 1.116348 0.117986 -0.032737 -380582.000000 0 0 1
19.859326 -19.328150 12.688071 30.478802 -0.771844 1.141433 0.082343 -0.032662 -256446.000000 0 0 1
20.941226 -18.466850 12.398771 30.549779 -0.722692 1.152883 0.092418 -0.042601 -236338.000000 0 0 1
22.190426 -19.150750 12.461471 31.850502 -0.712004 1.168808 0.076149 -0.041852 855479.000000 0 0 1
23.149526 -18.471750 11.401671 31.734905 -0.673479 1.203302 0.132517 -0.051611 -179433.000000 0 0 1
22.989126 -18.777650 9.993671 31.320497 -0.684905 1.246040 0.107857 -0.041523 -342275.000000 0 0 1
21.812826 -18.400250 9.313371 30.018452 -0.700739 1.255335 0.110975 -0.043815 -166484.000000 0 0 1
21.413726 -16.879450 9.337371 28.820999 -0.667537 1.240865 0.175931 -0.058845 -58291.600000 0 0 1
22.270326 -15.958650 8.640571 28.728129 -0.621772 1.265296 0.185968 -0.048996 -35021.400000 0 0 1
21.781426 -14.651950 8.661071 27.642798 -0.592155 1.252108 0.203439 -0.061949 -13561.300000 0 0 1
-35.962775 24.596172 7.978871 44.293964 -0.599862 1.389673 0.147560 -0.025190 -304285.000000 0 0 1
-35.222396 23.830972 8.825671 43.432993 -0.594838 1.366169 0.153088 -0.040060 -189690.000000 0 0 1
-34.132987 24.502672 9.415471 43.059178 -0.622612 1.350352 0.178769 -0.030332 -314640.000000 0 0 1
-33.071665 23.620672 10.076571 41.871332 -0.620211 1.327755 0.190824 -0.050985 -156955.000000 0 0 1
-32.305795 23.008772 9.032571 40.677455 -0.618879 1.346876 0.185251 -0.045989 57235.200000 0 0 1
-31.480505 21.960972 9.491471 39.539784 -0.609117 1.328380 0.174254 -0.042239 109091.000000 0 0 1
-30.801805 21.240672 8.315871 38.328463 -0.603706 1.352094 0.162077 -0.054303 411757.000000 0 0 1
-31.781115 20.497772 7.550271 38.564291 -0.572829 1.373739 0.173110 -0.061815 700155.000000 0 0 1
-31.197725 19.720772 6.531871 37.481625 -0.563704 1.395633 0.175855 -0.059049 -466904.000000 0 0 1
-32.234155 19.043472 5.645371 37.862446 -0.533617 1.421136 0.181012 -0.051641 -541097.000000 0 0 1
-33.021495 18.076672 6.270071 38.164106 -0.500861 1.405756 0.191430 -0.057348 533433.000000 0 0 1
-34.083967 17.591372 5.422471 38.737274 -0.476459 1.430354 0.155904 -0.059525 367203.000000 0 0 1
-34.844950 16.455472 6.143371 39.021713 -0.441201 1.412704 0.151317 -0.050690 -345214.000000 0 0 1
-35.605614 16.941972 7.246871 40.091237 -0.444120 1.389038 0.114352 -0.040970 236751.000000 0 0 1
-36.338725 15.818372 7.744871 40.382012 -0.410565 1.377811 0.123965 -0.043558 -320177.000000 0 0 1
-37.153925 16.104872 8.992471 41.480665 -0.409017 1.352274 0.093074 -0.033366 -1294450.000000 0 0 1
37.607696 16.789472 8.717571 42.097757 0.419887 1.362208 0.115954 -0.035519 -1203300.000000 0 0 1
37.151916 17.146672 9.984071 42.118343 0.432400 1.331470 0.112833 -0.034075 725165.000000 0 0 1
36.024926 18.287572 9.916071 41.599988 0.469738 1.330112 0.079133 -0.035914 753901.000000 0 0 1
34.822356 17.908972 9.312971 40.249958 0.475018 1.337302 0.092641 -0.040219 -504646.000000 0 0 1
33.985626 19.004972 9.078771 39.982943 0.509884 1.341732 0.101524 -0.038133 710116.000000 0 0 1
32.470796 18.694772 8.788871 38.484949 0.522391 1.340392 0.100039 -0.041268 485894.000000 0 0 1
31.806126 19.940072 8.706271 38.536155 0.559983 1.342904 0.106607 -0.035902 -877592.000000 0 0 1
30.438626 19.890572 8.463471 37.333298 0.578807 1.342108 0.076932 -0.028611 -444890.000000 0 0 1
29.999626 19.548372 7.006571 36.485729 0.577514 1.377560 0.070562 -0.020580 -1056450.000000 0 0 1
30.149226 18.209372 6.631671 35.840425 0.543337 1.384691 0.078246 -0.022085 6805.670000 0 0 1
29.801526 17.919872 5.315371 35.178202 0.541380 1.419117 0.070590 -0.027213 -184682.000000 0 0 1
28.405026 18.312972 4.803771 34.136295 0.572647 1.429604 0.096269 -0.029158 -1076130.000000 0 0 1
27.337126 17.603972 5.416471 32.962955 0.572116 1.405728 0.109034 -0.029477 973547.000000 0 0 1
26.050826 18.054372 4.947871 32.079390 0.606042 1.415940 0.136058 -0.029323 748640.000000 0 0 1
25.494826 19.495372 5.154871 32.505820 0.652830 1.411541 0.128580 -0.023196 -1014200.000000 0 0 1
25.987226 20.532972 4.357771 33.405523 0.668686 1.439973 0.106464 -0.026604 221955.000000 0 0 1
25.485726 21.773372 4.846471 33.868720 0.707006 1.427208 0.105470 -0.024561 -124847.000000 0 0 1
26.409026 22.959672 4.436071 35.274096 0.715642 1.444702 0.062265 -0.016702 200103.000000 0 0 1
27.631726 22.827372 5.161171 36.211032 0.690471 1.427779 0.066181 -0.017371 -167405.000000 0 0 1
28.495426 23.830272 4.770971 37.451746 0.696477 1.443059 0.064740 -0.009829 -920283.000000 0 0 1
29.844526 23.906372 5.522271 38.635551 0.675369 1.427373 0.068768 -0.016311 -409109.000000 0 0 1
30.749626 22.835872 5.394671 38.679697 0.638773 1.430870 0.058953 -0.019605 282219.000000 0 0 1
31.352036 22.619772 4.124971 38.879552 0.624995 1.464500 0.061267 -0.018762 -112436.000000 0 0 1
32.305776 23.728472 3.563571 40.241801 0.633505 1.482126 0.085178 -0.024553 -496422.000000 0 0 1
31.558456 24.876872 3.199371 40.311671 0.667553 1.491347 0.059793 -0.022750 422602.000000 0 0 1
32.323046 25.805872 2.388771 41.429802 0.673749 1.513106 0.098061 -0.016260 -130371.000000 0 0 1
31.747466 27.255872 2.399371 41.911109 0.709420 1.513516 0.078735 -0.009832 708857.000000 0 0 1
30.509026 27.667372 1.821371 41.226223 0.736591 1.526602 0.097942 -0.008700 387422.000000 0 0 1
29.393826 27.185172 2.535571 40.118071 0.746381 1.507551 0.080505 -0.016440 -641406.000000 0 0 1
28.087426 27.932772 2.200771 39.673500 0.782637 1.515296 0.052659 -0.009409 -151191.000000 0 0 1
27.951626 29.337872 2.474171 40.597113 0.809591 1.509814 0.046966 -0.012573 -228968.000000 0 0 1
26.710826 29.790172 1.994771 40.061224 0.839845 1.520983 0.046808 -0.006155 -62559.800000 0 0 1
26.316426 31.144972 2.557871 40.854696 0.869232 1.508146 0.053867 -0.012110 -118919.000000 0 0 1
25.988826 31.257072 3.968671 40.843285 0.877168 1.473475 0.038847 -0.023164 36296.100000 0 0 1
27.088326 31.212772 4.863071 41.613266 0.856024 1.453665 0.038506 -0.022936 -272387.000000 0 0 1
26.792226 30.990872 6.382371 41.460730 0.857933 1.416244 0.041389 -0.031695 48064.400000 0 0 1
26.273226 29.673172 6.788371 40.210216 0.846095 1.401162 0.047281 -0.039288 253140.000000 0 0 1
27.047326 28.571972 6.419071 39.863766 0.812803 1.409067 0.062556 -0.045904 -8878.070000 0 0 1
26.325326 27.292672 6.932971 38.548395 0.803438 1.389961 0.087455 -0.040243 -582047.000000 0 0 1
25.117526 27.025072 6.329071 37.433965 0.821965 1.400907 0.050132 -0.047785 -809937.000000 0 0 1
24.776326 25.717672 6.595571 36.314825 0.804039 1.388161 0.062660 -0.038798 -150866.000000 0 0 1
23.615426 25.217172 5.692071 35.014193 0.818187 1.407507 0.072302 -0.027044 -309064.000000 0 0 1
23.830926 25.071372 4.318971 34.858861 0.810759 1.446578 0.075644 -0.031167 122270.000000 0 0 1
24.276226 26.174772 3.574771 35.878026 0.823012 1.470994 0.058956 -0.034465 -230640.000000 0 0 1
24.481726 25.805572 2.113571 35.633546 0.811718 1.511447 0.067680 -0.022433 254889.000000 0 0 1
25.586026 24.925872 1.871371 35.769342 0.772330 1.518455 0.054333 -0.001894 487978.000000 0 0 1
25.837126 24.792672 0.497071 35.811740 0.764772 1.556916 0.059372 -0.008662 -425764.000000 0 0 1
27.160926 24.081372 0.197071 36.299686 0.725372 1.565367 0.082076 -0.009025 -1102010.000000 0 0 1
28.292426 24.907272 0.330371 37.695393 0.721853 1.562032 0.109916 -0.012375 861214.000000 0 0 1
29.518026 24.422772 -0.262229 38.312588 0.691217 1.577641 0.100009 0.001343 848172.000000 0 0 1
30.167926 23.191272 0.355371 38.053451 0.655387 1.561457 0.086928 -0.004424 -1069850.000000 0 0 1
29.448326 21.970972 0.119671 36.741554 0.640991 1.567539 0.077329 -0.003160 319900.000000 0 0 1
29.685526 21.059372 1.149971 36.414969 0.617017 1.539211 0.074527 -0.005302 791091.000000 0 0 1
28.337826 20.414472 1.705871 34.967027 0.624284 1.521992 0.074710 -0.019369 1249560.000000 0 0 1
27.766826 19.368372 0.903771 33.866609 0.609071 1.544107 0.094019 -0.026717 1505460.000000 0 0 1
26.340526 19.274972 1.112571 32.658623 0.631726 1.536723 0.111951 -0.032758 878019.000000 0 0 1
25.694626 18.059672 0.405171 31.409070 0.612641 1.557896 0.112858 -0.026817 599895.000000 0 0 1
24.258426 18.094472 0.444071 30.266786 0.640875 1.556124 0.129259 -0.029247 772313.000000 0 0 1
23.819526 16.888072 -0.223729 29.199774 0.616742 1.578458 0.141142 -0.044086 -494357.000000 0 0 1
22.345826 16.616672 0.023271 27.846907 0.639402 1.569961 0.116306 -0.033449 -1035070.000000 0 0 1
21.828526 15.435072 -0.635929 26.741922 0.615479 1.594579 0.130995 -0.034098 959219.000000 0 0 1
20.422926 15.213772 -0.600429 25.473815 0.640252 1.594369 0.138475 -0.038892 335247.000000 0 0 1
19.467226 16.157072 -1.345129 25.334427 0.692746 1.623916 0.160525 -0.040883 -676250.000000 0 0 1
19.401526 17.412672 -0.776229 26.081082 0.731427 1.600563 0.138213 -0.031967 -48274.700000 0 0 1
18.305026 18.122772 -1.260129 25.789469 0.780395 1.619678 0.120409 -0.036783 -315400.000000 0 0 1
18.395926 19.581872 -0.778329 26.878720 0.816615 1.599757 0.119397 -0.026441 -119727.000000 0 0 1
18.036626 19.770872 0.600171 26.768777 0.831236 1.548374 0.122894 -0.024813 126111.000000 0 0 1
18.044226 21.115172 1.036071 27.794208 0.863660 1.533511 0.136215 -0.029704 473882.000000 0 0 1
16.861126 22.030272 0.554471 27.747754 0.917536 1.550812 0.123476 -0.037141 649023.000000 0 0 1
15.616626 21.869172 1.213171 26.900027 0.950674 1.525682 0.109784 -0.029598 151686.000000 0 0 1
14.621126 22.736772 0.734471 27.042144 0.999315 1.543633 0.094288 -0.031778 231974.000000 0 0 1
13.258726 22.578072 1.455771 26.223699 1.039813 1.515254 0.085868 -0.034134 263312.000000 0 0 1
13.140126 23.340272 2.638771 26.914574 1.058042 1.472596 0.078030 -0.017826 107109.000000 0 0 1
11.797826 23.173472 3.063471 26.183646 1.099888 1.453528 0.068716 -0.025595 374034.000000 0 0 1
11.574126 23.480472 4.583471 26.576327 1.112824 1.397465 0.092698 -0.035119 -16875.700000 0 0 1
12.014326 22.432572 5.436071 26.021436 1.079095 1.360339 0.105614 -0.052717 -39346.700000 0 0 1
11.407526 22.386972 6.716371 26.008033 1.099529 1.309594 0.085095 -0.041945 -919029.000000 0 0 1
11.960526 21.318872 7.681571 25.623329 1.059524 1.266326 0.098634 -0.043304 325738.000000 0 0 1
13.275226 21.395772 8.196371 26.480014 1.015468 1.256097 0.127773 -0.048300 -668124.000000 0 0 1
14.311526 21.349572 7.310271 26.721977 0.980253 1.293696 0.132245 -0.038674 -1014760.000000 0 0 1
15.684626 21.285472 8.061671 27.641804 0.935752 1.274847 0.136767 -0.043246 -66024.300000 0 0 1
16.037226 20.034772 8.607771 27.068033 0.895769 1.247172 0.147495 -0.043968 1851950.000000 0 0 1
17.376126 19.974472 9.238371 28.040270 0.854853 1.235056 0.131494 -0.049018 1930170.000000 0 0 1
17.681126 20.945072 10.429371 29.327291 0.869699 1.207219 0.102348 -0.035832 -594602.000000 0 0 1
16.949126 20.667072 11.589071 29.132581 0.883917 1.161674 0.112120 -0.045694 -11378.700000 0 0 1
17.118426 21.570672 12.630371 30.296215 0.899972 1.140769 0.101472 -0.044984 17781.000000 0 0 1
18.075626 21.080072 13.733071 30.978943 0.861979 1.111516 0.119014 -0.031087 547304.000000 0 0 1
19.472826 21.131972 13.493471 31.746258 0.826236 1.131789 0.113174 -0.037033 153841.000000 0 0 1
20.229826 20.801672 14.646271 32.503363 0.799334 1.103350 0.104972 -0.040897 -167415.000000 0 0 1
21.630226 21.398472 14.621271 33.757115 0.780012 1.122832 0.114583 -0.045040 -510395.000000 0 0 1
22.491926 20.911372 13.627771 33.598933 0.748999 1.153160 0.123725 -0.047449 -199071.000000 0 0 1
23.739126 21.574072 13.673071 34.870324 0.737655 1.167870 0.148241 -0.054724 -32421.400000 0 0 1
24.777126 20.939472 12.725471 34.846880 0.701650 1.196967 0.146791 -0.051032 -377821.000000 0 0 1
24.513126 21.168572 11.372471 34.326882 0.712314 1.233116 0.152750 -0.041201 225648.000000 0 0 1
25.515126 20.637872 10.510971 34.459017 0.680113 1.260828 0.163111 -0.067186 -74019.600000 0 0 1
25.447726 21.017472 8.986771 34.206474 0.690340 1.304955 0.131812 -0.053726 -142303.000000 0 0 1
25.674326 22.368772 8.669371 35.138169 0.716702 1.321500 0.105689 -0.036097 -1054910.000000 0 0 1
26.989126 22.715172 8.527471 36.292006 0.699622 1.333610 0.089056 -0.040675 -1551040.000000 0 0 1
27.306526 24.154072 8.988971 37.548197 0.724215 1.329050 0.126853 -0.043059 147938.000000 0 0 1
28.659926 24.502172 8.716371 38.700425 0.707348 1.343621 0.108357 -0.035444 434857.000000 0 0 1
29.007826 25.659772 9.410671 39.855220 0.724231 1.332424 0.118541 -0.041265 -312073.000000 0 0 1
30.444926 26.049572 9.067971 41.081648 0.707753 1.348233 0.117550 -0.043784 -271606.000000 0 0 1
30.405826 26.829272 7.868871 41.306696 0.722990 1.379126 0.117570 -0.040679 -222379.000000 0 0 1
31.684036 27.065472 7.370071 42.317086 0.706945 1.395741 0.132383 -0.034501 -734811.000000 0 0 1
31.566686 27.913372 6.118971 42.579969 0.724054 1.426592 0.153341 -0.010590 135119.000000 0 0 1
31.296316 29.246972 6.329671 43.300225 0.751562 1.424090 0.143488 -0.018193 150112.000000 0 0 1
30.965216 29.952472 5.138271 43.386599 0.768775 1.452088 0.153519 -0.007935 -82854.400000 0 0 1
31.063146 31.469072 5.318571 44.536599 0.791890 1.451090 0.101771 -0.000186 531533.000000 0 0 1
30.022726 32.079572 6.106871 44.359405 0.818506 1.432690 0.099166 -0.014259 643146.000000 0 0 1
30.261026 33.515172 6.089471 45.563999 0.836378 1.436749 0.079190 -0.002645 230408.000000 0 0 1
29.059726 -33.363607 6.701071 44.749327 -0.854236 1.420484 0.090180 -0.020303 -338022.000000 0 0 1
27.990526 -33.292207 5.851571 43.887144 -0.871695 1.437066 0.077716 -0.014345 -1274670.000000 0 0 1
26.854626 -32.624907 6.340571 42.728893 -0.882108 1.421856 0.065819 -0.022566 327357.000000 0 0 1
25.689926 -32.708307 5.298971 41.927135 -0.905006 1.444072 0.065834 -0.021469 155933.000000 0 0 1
25.932626 -31.927607 4.149671 41.341177 -0.888641 1.470251 0.040274 0.003453 -90061.100000 0 0 1
24.764926 -31.738207 3.381771 40.398659 -0.908191 1.486988 0.041753 -0.007180 -67654.900000 0 0 1
25.053726 -31.138407 1.981671 40.015204 -0.893261 1.521253 0.045284 0.011576 -57396.700000 0 0 1
25.511926 -29.826807 2.010171 39.300605 -0.863213 1.519625 0.062873 0.011898 -115359.000000 0 0 1
25.948026 -29.344307 0.748971 39.178429 -0.846745 1.551678 0.046281 0.014828 -192317.000000 0 0 1
26.485826 -27.890807 0.814071 38.471532 -0.811230 1.549634 0.059063 0.001096 481648.000000 0 0 1
25.503726 -26.824707 0.959471 37.026011 -0.810637 1.544880 0.064821 0.004483 423680.000000 0 0 1
24.653726 -26.706207 -0.153829 36.346270 -0.825340 1.575029 0.065958 0.001772 -37210.400000 0 0 1
23.370726 -25.860907 0.034871 34.856542 -0.835936 1.569796 0.044275 0.010609 -209254.000000 0 0 1
23.540626 -24.481207 0.041671 33.963101 -0.804982 1.569569 0.063138 -0.005291 -328450.000000 0 0 1
23.632526 -23.884407 1.335971 33.626566 -0.790699 1.531056 0.058105 -0.001519 1229950.000000 0 0 1
22.251126 -23.727107 2.109871 32.596621 -0.817489 1.506024 0.052787 -0.006420 1014400.000000 0 0 1
22.460626 -23.128607 3.330771 32.411513 -0.800049 1.467850 0.058891 -0.017101 -928605.000000 0 0 1
21.297526 -22.895007 4.039971 31.529150 -0.821531 1.442309 0.049728 -0.017006 -620006.000000 0 0 1
21.470026 -21.957907 5.278071 31.160387 -0.796632 1.400592 0.051846 -0.025936 -223161.000000 0 0 1
21.758426 -20.589807 5.067371 30.381696 -0.757810 1.403223 0.085036 -0.024695 -282582.000000 0 0 1
20.641726 -19.857507 4.634671 29.015196 -0.766037 1.410377 0.061133 -0.016757 -616007.000000 0 0 1
20.591426 -18.364907 5.089471 28.056716 -0.728306 1.388387 0.069905 -0.016377 94098.900000 0 0 1
20.100626 -18.151107 6.402271 27.829605 -0.734477 1.338665 0.105175 -0.031344 80904.200000 0 0 1
18.705426 -18.248707 6.634271 26.961487 -0.773040 1.322178 0.084239 -0.021506 248281.000000 0 0 1
20.203545 -25.621808 -12.073429 34.791206 -0.903089 1.925194 0.132831 -0.041143 283841.000000 0 0 1
19.762745 -24.286828 -12.313729 33.645862 -0.887744 1.945482 0.172392 -0.041973 -81007.400000 0 0 1
18.476645 -24.190428 -12.900629 33.060391 -0.918522 1.971660 0.133097 -0.039925 338255.000000 0 0 1
18.193445 -22.661228 -13.129229 31.889016 -0.894323 1.995133 0.130138 -0.042099 -133040.000000 0 0 1
18.054545 -21.837028 -12.009229 30.774080 -0.879935 1.971687 0.140352 -0.050745 -394964.000000 0 0 1
19.245045 -21.435628 -11.355029 30.964409 -0.839194 1.946269 0.116454 -0.048808 -569056.000000 0 0 1
19.576645 -22.064228 -9.991029 31.143151 -0.845066 1.897381 0.138357 -0.031797 586501.000000 0 0 1
18.755345 -21.534728 -8.893129 29.909785 -0.854273 1.872693 0.123195 -0.043345 861394.000000 0 0 1
17.412545 -22.003428 -8.935129 29.447990 -0.901348 1.879077 0.117263 -0.021894 -443682.000000 0 0 1
16.459345 -21.397828 -7.948229 28.141632 -0.915116 1.857130 0.098761 -0.032292 -908245.000000 0 0 1
16.299845 -19.957528 -8.177529 27.034420 -0.885939 1.878096 0.084468 -0.036841 847586.000000 0 0 1
15.259345 -19.343828 -7.384329 25.720801 -0.902892 1.861990 0.075680 -0.041031 857180.000000 0 0 1
13.800845 -19.552328 -7.868329 25.192607 -0.956161 1.888438 0.059691 -0.025531 -246197.000000 0 0 1
13.355645 -20.793128 -7.455929 25.813142 -0.999846 1.863814 0.066473 -0.029656 -527509.000000 0 0 1
12.044245 -20.939528 -7.960629 25.434215 -1.048818 1.889135 0.060780 -0.029322 -105845.000000 0 0 1
11.540545 -22.360628 -7.656429 26.302144 -1.094344 1.866168 0.063274 -0.024194 -86251.900000 0 0 1
11.525645 -22.676528 -6.266129 26.197897 -1.100560 1.812322 0.071536 -0.024313 273896.000000 0 0 1
10.863445 -23.905328 -6.079829 26.952616 -1.144259 1.798329 0.053513 -0.017819 104252.000000 0 0 1
11.515445 -24.680828 -4.906829 27.673557 -1.134245 1.749050 0.071544 -0.014177 837545.000000 0 0 1
10.564045 -25.480638 -4.138529 27.892461 -1.177775 1.719721 0.064416 -0.017072 633426.000000 0 0 1
11.182745 -25.941218 -2.958429 28.403396 -1.163787 1.675143 0.068262 -0.021438 477866.000000 0 0 1
10.179145 -26.645988 -1.971929 28.592170 -1.205890 1.639819 0.067814 -0.021740 716530.000000 0 0 1
9.295145 -25.740898 -1.309929 27.399078 -1.224264 1.618624 0.063890 -0.019110 142101.000000 0 0 1
8.723545 -26.433668 -0.182129 27.836527 -1.252034 1.577339 0.063485 -0.024498 45565.900000 0 0 1
7.880245 -25.639268 0.808771 26.835135 -1.272610 1.540653 0.072552 -0.025260 -987033.000000 0 0 1
6.531045 -25.527198 0.541671 26.354996 -1.320323 1.550242 0.075201 -0.024132 -1306300.000000 0 0 1
5.909045 -24.942228 1.646771 25.685471 -1.338176 1.506639 0.079423 -0.028246 -884516.000000 0 0 1
4.455445 -24.642428 1.353271 25.078509 -1.391925 1.516809 0.064307 -0.027615 -1152840.000000 0 0 1
3.647445 -25.734538 1.200171 26.019430 -1.430001 1.524654 0.065499 -0.030642 -1023190.000000 0 0 1
2.345445 -25.360518 0.879371 25.483922 -1.478575 1.536283 0.072005 -0.032923 -261394.000000 0 0 1
1.463445 -26.347048 0.074371 26.387765 -1.515308 1.567978 0.103155 -0.028703 308196.000000 0 0 1
0.941045 -27.530808 0.728671 27.556523 -1.536628 1.544350 0.104717 -0.026339 505989.000000 0 0 1
1.868145 -28.622538 0.732071 28.692780 -1.505620 1.545279 0.083135 -0.019988 339445.000000 0 0 1
1.254245 -29.811658 1.569171 29.879264 -1.528749 1.518255 0.135933 -0.032505 219990.000000 0 0 1
1.210345 -29.495558 2.967871 29.669195 -1.529785 1.470597 0.128373 -0.035225 216133.000000 0 0 1
0.501445 -30.451268 3.775871 30.688571 -1.554331 1.447445 0.164227 -0.041884 84255.000000 0 0 1
0.767545 -30.198008 5.261671 30.662583 -1.545385 1.398344 0.156181 -0.047336 -500713.000000 0 0 1
2.108945 -30.361578 5.641571 30.953197 -1.501447 1.387511 0.091138 -0.021224 -363840.000000 0 0 1
2.266845 -30.315998 7.003971 31.197018 -1.496161 1.344359 0.093849 -0.025521 431152.000000 0 0 1
3.699245 -30.740138 7.442071 31.843758 -1.451033 1.334909 0.093247 -0.018723 543151.000000 0 0 1
3.906845 -32.142578 7.279871 33.187427 -1.449842 1.349642 0.090251 -0.019380 382824.000000 0 0 1
5.318945 -32.332398 7.411671 33.594762 -1.407749 1.348346 0.080579 -0.012311 877104.000000 0 0 1
5.834845 -33.792578 7.332271 35.067734 -1.399816 1.360153 0.068618 -0.002283 -55302.600000 0 0 1
5.896245 33.393755 5.989571 34.435207 1.396030 1.395970 0.053752 -0.004933 -75204.100000 0 0 1
5.698845 32.028758 5.848671 33.053367 1.394710 1.392913 0.039680 -0.005938 -327450.000000 0 0 1
5.959145 31.456020 4.439871 32.321897 1.383571 1.432996 0.048403 -0.010069 -1048670.000000 0 0 1
7.229345 31.300320 3.976271 32.369494 1.343810 1.447645 0.045892 -0.006019 -925062.000000 0 0 1
8.027745 30.150160 4.300571 31.495582 1.310575 1.433823 0.041395 -0.014169 156694.000000 0 0 1
9.401345 30.087390 3.623071 31.729528 1.267941 1.456361 0.027905 -0.015359 -96258.800000 0 0 1
10.359845 30.922290 4.258871 32.888484 1.247521 1.440937 0.037884 -0.014609 12420.200000 0 0 1
11.567345 31.052590 3.523471 33.323890 1.214212 1.464864 0.038402 -0.024703 351066.000000 0 0 1
12.747745 31.472040 4.430871 34.243640 1.185944 1.441040 0.040415 -0.024802 -183403.000000 0 0 1
13.062645 30.492500 5.358271 33.602623 1.166059 1.410653 0.049375 -0.028672 -541716.000000 0 0 1
14.166845 30.920710 6.096171 34.553626 1.141172 1.393442 0.081226 -0.032749 -145996.000000 0 0 1
14.858245 29.742260 6.825071 33.940404 1.107495 1.368326 0.078530 -0.032503 5261.450000 0 0 1
14.145345 29.329360 7.957171 33.520422 1.121414 1.331126 0.060906 -0.022677 -280292.000000 0 0 1
14.880645 28.364330 8.589671 33.162497 1.087643 1.308791 0.060678 -0.032004 -108949.000000 0 0 1
14.689845 28.458800 10.117571 33.586605 1.094289 1.264805 0.032701 -0.007861 -239358.000000 0 0 1
15.616345 29.286590 10.743571 34.885511 1.080923 1.257741 0.027210 -0.007169 -443537.000000 0 0 1
15.061545 29.909140 11.846171 35.520959 1.104291 1.230785 0.006934 -0.005348 -244742.000000 0 0 1
15.970745 30.870830 12.664071 36.992587 1.093372 1.221389 0.003082 -0.002647 424041.000000 0 0 1
16.989845 30.170280 13.399671 37.127507 1.057927 1.201553 0.011943 -0.003577 801784.000000 0 0 1
17.812545 31.100990 14.153371 38.534091 1.050668 1.194697 0.022785 -0.001041 65834.100000 0 0 1
18.869445 30.421430 15.020471 38.821822 1.015607 1.173520 0.036461 -0.003914 -382755.000000 0 0 1
20.166645 30.276000 14.513871 39.166084 0.983191 1.191171 0.052745 -0.014920 -232844.000000 0 0 1
20.470945 28.935280 14.715671 38.377871 0.955072 1.177277 0.041396 -0.009604 -229994.000000 0 0 1
21.883045 28.527940 14.235371 38.669843 0.916457 1.193804 0.083079 -0.025131 645860.000000 0 0 1
22.977345 28.875640 15.110671 39.875974 0.898662 1.182144 0.108997 -0.026548 -24784.400000 0 0 1
24.150045 28.749710 14.356371 40.197958 0.872131 1.205590 0.118878 -0.032523 -441639.000000 0 0 1
25.412645 29.031880 15.200971 41.469532 0.851776 1.195490 0.157603 -0.043495 -256587.000000 0 0 1
25.744345 27.991010 16.031971 41.270958 0.827184 1.171840 0.146660 -0.033041 653319.000000 0 0 1
26.783045 28.284490 17.011571 42.505733 0.812657 1.159041 0.134647 -0.036175 1004290.000000 0 0 1
27.786145 27.070520 17.227371 42.446027 0.772354 1.152871 0.088835 -0.015597 103863.000000 0 0 1
27.323645 25.914170 17.898971 41.695310 0.758929 1.127101 0.106656 -0.017621 -27508.900000 0 0 1
27.182645 25.991820 19.268971 42.258302 0.763007 1.097322 0.123155 -0.020184 -186796.000000 0 0 1
26.552945 24.767230 19.942571 41.426811 0.750617 1.068553 0.130612 -0.018483 151282.000000 0 0 1
27.406145 23.615510 19.887671 41.283272 0.711240 1.068161 0.090346 -0.021591 364006.000000 0 0 1
26.709245 22.377550 20.075571 40.214015 0.697381 1.048100 0.096309 -0.022317 190548.000000 0 0 1
27.626145 21.105850 20.079771 40.147951 0.652389 1.047031 0.060984 -0.026092 -168069.000000 0 0 1
26.967845 19.861250 20.029971 39.024782 0.634791 1.031814 0.055100 -0.015582 189982.000000 0 0 1
27.810945 18.669550 19.937771 38.980962 0.591205 1.033896 0.064377 -0.026825 313235.000000 0 0 1
28.447245 18.165650 21.223871 39.870907 0.568300 1.009464 0.112396 -0.019903 -364085.000000 0 0 1
27.645145 17.367850 22.025271 39.382849 0.560927 0.977303 0.085659 -0.016039 366075.000000 0 0 1
28.308045 17.216650 23.305271 40.507951 0.546419 0.957794 0.127078 -0.021361 10353.500000 0 0 1
27.241945 16.710450 24.268071 40.128568 0.550221 0.921334 0.103236 -0.006425 -2951.980000 0 0 1
26.902845 15.402750 23.964271 39.182828 0.519978 0.912713 0.096518 -0.014193 -47864.600000 0 0 1
25.787345 14.923950 24.672071 38.683621 0.524634 0.879169 0.093933 -0.016272 -409358.000000 0 0 1
25.254345 13.673350 24.022671 37.441035 0.496236 0.874196 0.092643 -0.012656 -83157.600000 0 0 1
23.917245 13.486150 24.472571 36.780668 0.513427 0.842814 0.069920 -0.014947 249146.000000 0 0 1
23.428045 12.373450 23.717671 35.559857 0.485911 0.840650 0.079112 -0.012369 -635216.000000 0 0 1
22.075745 11.826550 24.102871 34.758512 0.491818 0.804547 0.090608 -0.020447 -199328.000000 0 0 1
20.979245 12.689450 23.830571 34.191328 0.543983 0.799623 0.118189 -0.025887 527977.000000 0 0 1
19.703645 12.058850 23.922371 33.255515 0.549204 0.767929 0.131025 -0.029785 864432.000000 0 0 1
18.492145 13.037350 23.953171 32.949754 0.614088 0.756911 0.119715 -0.041149 245893.000000 0 0 1
18.310145 13.638150 25.265671 34.053115 0.640191 0.734824 0.148175 -0.026929 365381.000000 0 0 1
17.072545 14.342250 25.296071 33.720366 0.698705 0.722474 0.146120 -0.032853 284040.000000 0 0 1
16.615045 14.571450 26.765971 34.710287 0.719964 0.690190 0.136606 -0.022724 -296325.000000 0 0 1
16.140545 13.411750 27.333371 34.460200 0.693321 0.654772 0.148828 -0.020573 -138590.000000 0 0 1
16.105145 13.370050 28.741771 35.555918 0.692870 0.629446 0.126402 -0.028358 197055.000000 0 0 1
17.509745 13.093550 29.376371 36.619713 0.642083 0.639824 0.130636 -0.021569 154784.000000 0 0 1
18.238545 14.285450 29.364971 37.403477 0.664447 0.667960 0.152690 -0.040225 -899857.000000 0 0 1
19.594445 13.950950 29.407871 37.992027 0.618724 0.685577 0.135636 -0.023091 -1088640.000000 0 0 1
20.504445 15.112550 29.117871 38.686843 0.635154 0.718710 0.146946 -0.020641 -697786.000000 0 0 1
20.493945 15.588750 27.772071 37.872138 0.650283 0.747617 0.157071 -0.032090 267848.000000 0 0 1
21.088445 14.860450 26.693371 37.122655 0.613855 0.768349 0.136079 -0.027039 -276991.000000 0 0 1
20.989745 15.534450 25.277871 36.343627 0.637133 0.801647 0.128502 -0.035235 -375421.000000 0 0 1
21.837745 16.632850 25.111771 37.204030 0.650919 0.829866 0.114038 -0.031545 -145900.000000 0 0 1
22.028645 16.880050 23.801671 36.561138 0.653837 0.861882 0.100526 -0.027030 234047.000000 0 0 1
23.232845 17.858250 23.664071 37.665241 0.655339 0.891464 0.093722 -0.028404 63250.600000 0 0 1
23.411045 18.378450 22.341071 37.215156 0.665548 0.926893 0.104692 -0.034221 1029660.000000 0 0 1
24.601845 19.203950 22.160471 38.277002 0.662793 0.953356 0.080924 -0.035179 902820.000000 0 0 1
24.697945 20.564150 22.905771 39.465771 0.694321 0.951582 0.104772 -0.034930 -182368.000000 0 0 1
23.746745 21.430350 22.274671 38.978568 0.734169 0.962513 0.108310 -0.028117 612194.000000 0 0 1
23.503645 22.624650 23.037571 39.937774 0.766345 0.955946 0.138967 -0.031755 -230782.000000 0 0 1
22.562945 23.575840 22.305971 39.528003 0.807348 0.971201 0.145718 -0.039843 -291825.000000 0 0 1
23.056245 24.139220 21.152571 39.518649 0.808341 1.005986 0.151963 -0.036914 157837.000000 0 0 1
22.228145 25.253550 20.883371 39.597315 0.849029 1.015266 0.146421 -0.041300 131772.000000 0 0 1
22.644045 26.077540 19.579271 39.700613 0.855754 1.055063 0.143664 -0.043205 -35951.800000 0 0 1
22.269345 25.465320 18.405271 38.511819 0.852251 1.072520 0.123926 -0.039491 -116988.000000 0 0 1
22.865845 26.039720 17.301471 38.733122 0.850205 1.107741 0.119835 -0.050862 -197748.000000 0 0 1
22.550045 25.272160 15.990871 37.455233 0.842258 1.129698 0.089050 -0.025319 109479.000000 0 0 1
21.217745 25.423480 15.533271 36.576338 0.875327 1.132187 0.084893 -0.029640 17324.800000 0 0 1
21.190045 25.060300 14.165171 35.744771 0.868884 1.163328 0.094022 -0.021190 1304160.000000 0 0 1
19.682745 24.991880 13.636371 34.611488 0.903683 1.165834 0.078533 -0.018193 422956.000000 0 0 1
19.067245 26.272600 13.629671 35.207630 0.942999 1.173287 0.047249 -0.011726 -148911.000000 0 0 1
18.114845 26.340340 14.683071 35.178881 0.968358 1.140233 0.053142 -0.000513 558216.000000 0 0 1
16.734645 25.670900 14.273671 33.805045 0.993092 1.134887 0.042365 -0.010549 -542544.000000 0 0 1
16.476945 24.282720 14.419671 32.696591 0.974615 1.114068 0.042542 -0.014529 -66826.200000 0 0 1
16.273545 23.696430 15.715371 32.761592 0.969018 1.070496 0.056099 -0.012917 318627.000000 0 0 1
15.123745 24.282480 16.616171 33.082678 1.013762 1.044584 0.091643 -0.028661 268750.000000 0 0 1
15.486145 25.501150 17.169371 34.422618 1.025047 1.048604 0.069957 -0.021203 -94472.700000 0 0 1
14.376045 26.198880 17.688271 34.726458 1.068931 1.036355 0.066772 -0.034219 -199920.000000 0 0 1
14.642845 27.550130 18.327071 36.184307 1.082269 1.039685 0.072644 -0.028955 -343883.000000 0 0 1
15.218945 28.584790 17.563271 36.839856 1.081555 1.073847 0.054650 -0.014933 287880.000000 0 0 1
15.476545 29.663380 18.387771 38.177868 1.089909 1.068278 0.033722 -0.006179 -243829.000000 0 0 1
15.762845 30.953760 17.567771 38.925943 1.099785 1.102561 0.002026 -0.000858 -254363.000000 0 0 1
14.563545 31.473440 17.055371 38.646603 1.137411 1.113731 0.013480 -0.003622 219165.000000 0 0 1
14.781745 32.758851 16.457071 39.528186 1.146921 1.141383 -0.000615 0.004235 -642909.000000 0 0 1
13.443645 33.481789 16.528671 39.685749 1.188979 1.141217 0.014907 0.001888 -294564.000000 0 0 1
13.103445 -32.930178 15.844771 38.822077 -1.192088 1.150383 0.041884 -0.006905 -60704.800000 0 0 1
13.759945 -31.796608 16.367971 38.318023 -1.162381 1.129446 0.029031 -0.007108 -381249.000000 0 0 1
13.558545 -31.414608 17.851171 38.592435 -1.163349 1.089920 0.038253 -0.010132 -190475.000000 0 0 1
14.421345 -32.129368 18.725771 39.886414 -1.148897 1.082097 0.037126 -0.006727 443671.000000 0 0 1
13.904145 -32.315138 20.074971 40.504294 -1.164473 1.052241 0.036929 -0.024844 -283173.000000 0 0 1
14.908045 -33.054408 20.973571 41.889550 -1.147098 1.046404 0.058548 -0.010324 -190470.000000 0 0 1
16.006445 -32.225998 21.266671 41.797040 -1.109797 1.036997 0.066490 -0.014884 -289782.000000 0 0 1
16.868045 -32.764978 22.235571 43.040624 -1.095364 1.027900 0.061963 -0.012597 751350.000000 0 0 1
18.365745 -32.346368 21.988171 43.209580 -1.054402 1.036922 0.095253 -0.024109 869112.000000 0 0 1
18.627145 -30.910468 22.182071 42.361207 -1.028455 1.019677 0.093799 -0.025157 492664.000000 0 0 1
19.841845 -30.630768 21.477471 42.346482 -0.995987 1.038882 0.098004 -0.025015 390446.000000 0 0 1
-4.957755 12.976072 18.245656 22.931675 -1.205843 0.650712 0.030513 -0.008456 -102578.000000 0 1 0
-4.633555 14.234872 17.733556 23.207335 -1.256106 0.701096 0.030718 -0.007244 738512.000000 0 1 0
-5.844655 14.918572 17.360956 23.624702 -1.197404 0.745329 0.031736 -0.010560 530483.000000 0 1 0
-5.648555 16.427072 17.139456 24.403193 -1.239605 0.792110 0.042373 -0.012424 -121385.000000 0 1 0
-5.430155 17.167972 18.303156 25.675501 -1.264457 0.777222 0.048046 0.000185 65764.700000 0 0 1
-4.988055 18.465672 18.036756 26.290422 -1.306967 0.814739 0.051528 -0.004267 -60066.900000 0 0 1
-4.346155 19.173972 19.282156 27.537825 -1.347893 0.795110 0.056682 -0.003862 322296.000000 0 0 1
-5.334755 19.280972 20.289456 28.493464 -1.300864 0.778349 0.045218 0.001321 164061.000000 0 0 1
-4.814055 20.010472 21.391756 29.685035 -1.334706 0.766094 0.064302 0.004331 -268066.000000 0 0 1
-5.709655 20.152872 22.614666 30.824690 -1.294714 0.747112 0.050592 0.003783 -288711.000000 0 0 1
-5.869855 19.025172 23.394576 30.720002 -1.271531 0.705107 0.045653 -0.002316 51205.500000 0 0 1
-6.513755 19.274372 24.666436 31.974419 -1.244897 0.689691 0.036325 -0.004172 479885.000000 0 0 1
-5.611055 19.927472 25.775786 33.060236 -1.296329 0.676672 0.034311 -0.003212 -668477.000000 0 0 1
-5.357655 21.324272 25.487556 33.660727 -1.324645 0.711796 0.050219 -0.010801 -148432.000000 0 0 1
-4.340655 21.952372 26.231416 34.479488 -1.375584 0.706277 0.060576 -0.011825 729004.000000 0 0 1
-2.892255 21.501872 25.838496 33.739050 -1.437087 0.698460 0.077631 -0.007362 -135392.000000 0 0 1
-2.559155 20.163172 26.172156 33.137358 -1.444549 0.660300 0.086585 -0.008011 747420.000000 0 0 1
-1.132255 19.962172 26.087176 32.868085 -1.514137 0.653940 0.080551 -0.004340 1255710.000000 0 0 1
-0.513855 18.810072 26.896616 32.825459 -1.543485 0.610463 0.075559 -0.005934 -492527.000000 0 0 1
-0.862355 17.597572 26.381646 31.723957 -1.521831 0.588814 0.074527 -0.002117 -199297.000000 0 0 1
-0.034855 16.547672 26.844516 31.534976 -1.568690 0.552411 0.071249 -0.011251 1008760.000000 0 0 1
1.449445 16.514972 26.274666 31.067720 1.483255 0.562879 0.076484 -0.002235 556466.000000 0 0 1
1.497245 16.113372 24.911436 29.706264 1.478143 0.576103 0.053709 0.006525 -140857.000000 0 0 1
1.414545 14.705172 24.727786 28.804625 1.474898 0.538526 0.068055 0.003719 -224655.000000 0 0 1
1.485445 14.256072 23.230906 27.296833 1.466974 0.552819 0.074500 -0.003921 741760.000000 0 0 1
2.749245 14.282672 22.541196 26.826453 1.380634 0.573034 0.055528 -0.009109 491801.000000 0 0 1
2.674545 13.438372 21.367256 25.383117 1.374340 0.570206 0.055140 -0.014670 135753.000000 0 0 1
4.053345 13.306072 20.695056 24.935246 1.275103 0.591775 0.058803 -0.017945 124877.000000 0 1 0
4.390745 14.327672 19.777756 24.813715 1.273431 0.648403 0.064107 -0.024210 362475.000000 0 1 0
5.808645 14.457672 19.812056 25.204805 1.188766 0.666415 0.064201 -0.026813 516188.000000 0 0 1
6.573745 15.421872 18.904356 25.267032 1.167858 0.725478 0.074605 -0.030593 -64087.900000 0 0 1
6.396845 15.097072 17.550556 24.017977 1.170015 0.751412 0.083920 -0.043446 80004.000000 0 1 0
6.879845 16.132972 16.737256 24.243365 1.167701 0.808775 0.087245 -0.036118 -390131.000000 0 1 0
6.899845 15.714472 15.219356 22.938641 1.157064 0.845334 0.080267 -0.032721 -221794.000000 0 1 0
8.021945 15.008972 14.777156 22.538526 1.079949 0.855767 0.075709 -0.029864 -129955.000000 0 1 0
8.380845 13.830672 15.472956 22.381653 1.026005 0.807478 0.083415 -0.028927 -805726.000000 0 1 0
9.511245 12.949872 14.936456 21.937654 0.937311 0.821861 0.092209 -0.035027 -220575.000000 0 1 0
10.714245 13.691072 14.995056 22.958488 0.906773 0.859076 0.085463 -0.038745 -37393.500000 0 1 0
11.761745 12.977372 14.341356 22.636813 0.834497 0.884675 0.103169 -0.027264 539648.000000 0 1 0
13.127145 13.727872 14.312456 23.782825 0.807764 0.925046 0.106506 -0.022061 -392104.000000 0 1 0
13.957645 13.396072 15.452556 24.759888 0.764871 0.896822 0.103371 -0.034576 239975.000000 0 1 0
15.180745 14.087172 15.448256 25.837028 0.748051 0.929903 0.099717 -0.026767 -155955.000000 0 0 1
16.200445 13.489472 14.474556 25.572114 0.694341 0.969116 0.106962 -0.026169 -534502.000000 0 0 1
17.545745 14.021072 14.517156 26.743063 0.674201 0.996983 0.108800 -0.035362 1000350.000000 0 0 1
18.241045 13.259472 13.586356 26.327521 0.628554 1.028562 0.117290 -0.035251 -615236.000000 0 0 1
19.728945 13.591572 13.399256 27.449993 0.603248 1.060847 0.102203 -0.039399 -258801.000000 0 0 1
20.540145 13.288972 14.498956 28.437898 0.574246 1.035790 0.069149 -0.028638 -47492.500000 0 0 1
21.890445 13.605572 14.189956 29.422066 0.556100 1.067530 0.102121 -0.045975 226315.000000 0 0 1
22.724445 13.576672 15.499756 30.675215 0.538541 1.041083 0.111564 -0.022032 -225694.000000 0 0 1
22.912145 12.272472 15.863256 30.450334 0.491745 1.022827 0.126080 -0.016642 651332.000000 0 0 1
23.751145 12.117872 17.038856 31.643045 0.471776 1.002175 0.103382 -0.019041 113575.000000 0 0 1
23.896245 10.604772 17.260056 31.327324 0.417673 0.987284 0.128390 -0.015891 268547.000000 0 0 1
22.663745 9.929772 17.531056 30.324637 0.412943 0.954383 0.107147 0.001933 715817.000000 0 0 1
22.671445 8.640872 16.936556 29.588951 0.364138 0.961373 0.105907 0.001567 -271267.000000 0 0 1
21.660445 7.700472 17.606356 28.956103 0.341574 0.917212 0.129405 -0.001976 -321256.000000 0 0 1
21.731445 6.367072 17.141456 28.401141 0.285012 0.922853 0.146233 -0.016975 313597.000000 0 0 1
20.745845 5.524172 17.692856 27.819844 0.260240 0.881519 0.160126 -0.023345 -307285.000000 0 0 1
20.668245 4.150472 17.008756 27.086907 0.198178 0.891902 0.184115 -0.018911 88749.100000 0 0 1
19.828745 4.049672 15.810256 25.681572 0.201462 0.907616 0.190996 -0.028002 1035870.000000 0 0 1
19.811145 2.762572 15.203356 25.124794 0.138552 0.920888 0.185562 -0.031759 -233029.000000 0 0 1
18.961845 1.694272 15.939056 24.828927 0.089115 0.873751 0.191377 -0.032483 -129366.000000 0 1 0
19.545845 1.179572 17.121756 26.011266 0.060276 0.852313 0.187766 -0.038218 798516.000000 0 0 1
18.531145 0.375372 17.728256 25.648300 0.020253 0.807640 0.169039 -0.034626 470617.000000 0 0 1
18.928045 -0.141828 19.135156 26.915519 -0.007493 0.779971 0.156056 -0.031731 53436.800000 0 0 1
19.704545 -1.324028 19.126156 27.492399 -0.067093 0.801418 0.160943 -0.022780 478104.000000 0 0 1
18.883945 -2.360828 19.660856 27.362861 -0.124372 0.769119 0.111952 -0.011154 188253.000000 0 0 1
19.048045 -3.727228 18.915856 27.102211 -0.193234 0.798272 0.099998 -0.007375 -131047.000000 0 0 1
18.577945 -3.726628 17.603656 25.863420 -0.197967 0.822162 0.132768 -0.015525 191366.000000 0 0 1
18.622245 -4.963428 16.931056 25.653153 -0.260477 0.849979 0.149685 -0.016675 -235446.000000 0 0 1
17.969645 -4.901528 15.531556 24.252059 -0.266289 0.875749 0.148230 -0.023326 -275799.000000 0 1 0
16.595645 -4.584228 15.541956 23.194460 -0.269510 0.836491 0.137571 -0.021588 115012.000000 0 1 0
15.999845 -4.427228 14.259056 21.884151 -0.269950 0.861144 0.129926 -0.028433 64031.100000 0 1 0
16.256345 -3.081428 13.492956 21.350031 -0.187330 0.886681 0.122690 -0.026875 -497280.000000 0 1 0
15.257945 -2.119228 13.536256 20.506736 -0.138010 0.849860 0.118130 -0.020762 -34854.600000 0 1 0
15.781045 -0.960728 12.922256 20.419331 -0.060804 0.885575 0.126757 -0.022701 237657.000000 0 1 0
14.757945 0.174372 13.134656 19.757189 0.011815 0.843565 0.123996 -0.017828 -358016.000000 0 1 0
15.094345 1.493772 12.816556 19.857862 0.098641 0.869230 0.123785 -0.015541 -58169.600000 0 1 0
16.010745 2.119372 13.682556 21.167145 0.131607 0.867933 0.150721 -0.022381 -201278.000000 0 1 0
16.335845 3.587772 13.344756 21.396599 0.216193 0.897347 0.136030 -0.023499 201536.000000 0 1 0
15.198545 4.424672 13.503956 20.806977 0.283295 0.864513 0.110481 -0.016394 451557.000000 0 1 0
15.254645 5.509772 12.605256 20.541525 0.346606 0.910124 0.124972 -0.030722 -293390.000000 0 1 0
14.190545 6.620272 12.596956 20.096837 0.436512 0.893340 0.096349 -0.030871 -334409.000000 0 1 0
14.332845 7.637972 11.619256 19.969380 0.489620 0.949790 0.069481 -0.043628 252685.000000 0 1 0
13.402445 8.702972 11.781956 19.854010 0.575923 0.935483 0.055215 -0.037565 -279001.000000 0 1 0
13.565145 9.727872 12.932756 21.116364 0.622125 0.911638 0.058404 -0.040893 -335192.000000 0 1 0
13.156145 9.244572 14.197956 21.450599 0.612523 0.847458 0.070661 -0.037866 252606.000000 0 1 0
13.979245 9.702372 15.230856 22.837125 0.606725 0.840710 0.113086 -0.045783 -279671.000000 0 1 0
13.625545 9.190872 16.645056 23.391996 0.593428 0.779065 0.100091 -0.040727 469341.000000 0 1 0
12.463945 9.719672 17.304856 23.436723 0.662316 0.740154 0.107707 -0.043169 451806.000000 0 1 0
12.029845 8.978872 18.428356 23.768500 0.641182 0.683564 0.134896 -0.031851 -248385.000000 0 1 0
12.589445 9.357272 19.827056 25.281709 0.639176 0.669318 0.150474 -0.030759 -695709.000000 0 0 1
13.895245 8.860572 19.805656 25.765317 0.567658 0.693999 0.177688 -0.045859 -1106600.000000 0 0 1
14.485545 8.980672 21.044656 27.080639 0.554977 0.680734 0.154884 -0.029129 -333198.000000 0 0 1
15.952445 8.554372 20.839256 27.603122 0.492219 0.715203 0.140314 -0.028693 75975.700000 0 0 1
16.744745 9.445872 20.063756 27.787862 0.513611 0.764060 0.144848 -0.026852 57457.500000 0 0 1
17.892145 8.892972 19.474156 27.900834 0.461271 0.798227 0.116072 -0.015790 409776.000000 0 0 1
18.788445 9.909172 18.621356 28.248048 0.485333 0.851031 0.122983 -0.020455 156969.000000 0 0 1
19.419845 10.810372 19.451456 29.535633 0.507947 0.851872 0.104302 -0.019189 -165377.000000 0 0 1
20.178445 11.716572 18.641356 29.865496 0.526068 0.896719 0.091839 -0.018320 87559.700000 0 0 1
21.183445 12.541572 19.527456 31.422140 0.534550 0.900197 0.087212 -0.012869 -389963.000000 0 0 1
20.672145 13.713572 20.185856 31.982314 0.585727 0.887753 0.082817 -0.024462 32776.400000 0 0 1
21.477145 14.377472 21.152856 33.397945 0.589914 0.884911 0.078436 -0.016946 -693760.000000 0 0 1
22.622845 15.191872 20.578756 34.147786 0.591361 0.923994 0.051880 -0.019370 -1396930.000000 0 0 1
23.744645 14.423272 20.337556 34.430439 0.545867 0.938888 0.026600 -0.014056 -647277.000000 0 0 1
24.892345 15.293972 20.348156 35.603116 0.550944 0.962430 0.031809 -0.018120 178721.000000 0 0 1
26.159545 14.430872 20.397156 36.174795 0.504108 0.971756 0.034186 -0.022210 -455644.000000 0 0 1
26.426645 13.579472 19.317256 35.439046 0.474670 0.994307 0.071428 -0.030859 -142838.000000 0 0 1
27.492345 12.722672 19.637456 36.101594 0.433424 0.995659 0.113662 -0.036450 -95586.900000 0 0 1
27.901745 11.865872 18.438656 35.486481 0.402102 1.024418 0.169320 -0.040100 -121614.000000 0 0 1
28.465245 12.592172 17.379556 35.649431 0.416491 1.061557 0.182983 -0.058350 142501.000000 0 0 1
28.699845 11.742672 16.229056 34.999338 0.388373 1.088634 0.239141 -0.071942 -608451.000000 0 0 1
27.481445 11.480872 15.369556 33.515123 0.395729 1.094393 0.206983 -0.064558 -548578.000000 0 0 1
27.229645 12.615472 14.511956 33.334675 0.433858 1.120379 0.234706 -0.060839 -83934.000000 0 0 1
26.344845 12.399872 13.439056 32.068924 0.439914 1.138378 0.225743 -0.055472 -160421.000000 0 0 1
26.143745 13.660172 12.623056 32.084844 0.481487 1.166440 0.198409 -0.062966 3615.210000 0 0 1
25.309445 14.631772 13.235856 32.091192 0.524172 1.145660 0.173617 -0.058968 317331.000000 0 0 1
25.413645 15.936272 12.607656 32.538763 0.560090 1.172915 0.168671 -0.055577 -65841.300000 0 0 1
24.280545 16.887872 13.042156 32.324030 0.607720 1.155477 0.149626 -0.056091 1184610.000000 0 0 1
23.041745 16.786672 12.285856 31.042819 0.629620 1.163889 0.169900 -0.072354 1655850.000000 0 0 1
21.986945 17.624372 12.743556 30.926403 0.675706 1.146082 0.137579 -0.057938 -17000.500000 0 0 1
20.975445 18.116472 11.687956 30.079630 0.712393 1.171720 0.161602 -0.051330 935718.000000 0 0 1
19.915845 17.204772 11.224256 28.611693 0.712493 1.167670 0.148890 -0.056214 1242460.000000 0 0 1
18.797145 17.425972 12.080056 28.335929 0.747563 1.130380 0.132437 -0.038651 -614369.000000 0 0 1
17.401445 17.092972 11.563956 26.994537 0.776456 1.128096 0.127947 -0.033663 -312236.000000 0 0 1
17.332545 15.662372 11.241856 25.925013 0.734822 1.122279 0.135863 -0.035583 549916.000000 0 0 1
15.991045 15.338572 10.886156 24.687926 0.764575 1.114139 0.129277 -0.037171 489136.000000 0 1 0
15.877945 13.971972 10.167656 23.467133 0.721633 1.122676 0.121301 -0.040527 -49646.600000 0 1 0
15.909345 12.849372 11.072156 23.255241 0.679395 1.074565 0.103316 -0.028061 268450.000000 0 1 0
16.273345 11.721772 10.302656 22.546982 0.624224 1.096242 0.094851 -0.019853 156814.000000 0 1 0
16.853945 10.467072 11.078356 22.723226 0.555751 1.061533 0.108907 -0.032913 -957951.000000 0 1 0
17.261645 9.486072 10.160856 22.162873 0.502495 1.094531 0.096461 -0.033249 117260.000000 0 1 0
17.857345 8.377472 10.721756 22.450453 0.438651 1.072905 0.098142 -0.036526 1451840.000000 0 1 0
19.353545 8.579972 11.261956 23.979309 0.417292 1.081899 0.123174 -0.039664 884100.000000 0 1 0
19.332345 9.477672 12.370856 24.831510 0.455817 1.049284 0.122823 -0.038700 -125711.000000 0 1 0
20.440045 9.292272 13.214456 26.053092 0.426682 1.038849 0.137295 -0.039666 -1342240.000000 0 0 1
20.020545 9.642872 14.663056 26.623531 0.448859 0.987527 0.098698 -0.016483 53300.600000 0 0 1
19.285045 8.597572 15.299756 26.075155 0.419369 0.943749 0.105232 -0.018637 1341250.000000 0 0 1
17.885345 8.548972 14.959956 24.834870 0.445883 0.924321 0.107878 -0.026899 478035.000000 0 1 0
17.187145 7.198072 15.298456 24.109188 0.396612 0.883372 0.142597 -0.034008 -140016.000000 0 1 0
16.423245 7.206072 16.477556 24.354882 0.413478 0.827714 0.155520 -0.036131 241659.000000 0 1 0
15.891045 5.894772 16.654856 23.762531 0.355215 0.794156 0.142611 -0.022911 -758732.000000 0 1 0
14.824745 5.593872 17.690656 23.749184 0.360815 0.730418 0.133298 -0.025534 -131335.000000 0 1 0
14.167145 4.331772 17.742156 23.113986 0.296734 0.695718 0.124944 -0.024653 589794.000000 0 1 0
13.519945 3.886872 16.555356 21.725020 0.279942 0.704337 0.109767 -0.024585 -713958.000000 0 1 0
13.313945 2.356572 16.585156 21.398176 0.175186 0.683965 0.114540 -0.025562 1238200.000000 0 1 0
14.590945 1.639672 16.717456 22.249888 0.111906 0.720691 0.130465 -0.019811 1484700.000000 0 1 0
14.546145 0.191872 16.736856 22.175425 0.013190 0.715527 0.134741 -0.020049 -10647.100000 0 1 0
13.651545 -0.430528 17.884156 22.503179 -0.031527 0.652219 0.120814 -0.026779 -694833.000000 0 1 0
12.328945 -0.428128 17.514856 21.423267 -0.034712 0.613631 0.116246 -0.020159 -1181800.000000 0 1 0
11.497445 -1.195328 18.376356 21.709687 -0.103593 0.561497 0.111323 -0.026133 -86564.800000 0 1 0
-26.605275 13.797872 28.424626 41.305947 -0.478428 0.811862 0.070862 -0.005944 -731491.000000 0 0 1
-25.587775 13.889972 29.417166 41.388829 -0.497327 0.780231 0.070198 0.001179 397724.000000 0 0 1
-24.882155 12.680372 29.552296 40.660198 -0.471312 0.757128 0.054489 0.003142 -102106.000000 0 0 1
-23.684655 12.910472 30.508786 40.723816 -0.499072 0.723998 0.060192 -0.006111 68053.700000 0 0 1
-24.054455 12.931772 31.875160 41.974675 -0.493276 0.708421 0.059333 -0.007169 -644154.000000 0 0 1
-22.899855 13.002072 32.599489 41.906848 -0.516391 0.679474 0.047483 -0.006193 -728726.000000 0 0 1
-23.221055 13.161172 -33.288889 42.668302 -0.515633 2.465747 0.056327 -0.006677 -118014.000000 0 0 1
-23.879455 12.120372 -32.662469 42.237053 -0.469681 2.454847 0.047585 -0.010804 -158982.000000 0 0 1
-24.537455 12.604872 -31.519009 41.885767 -0.474547 2.422645 0.046661 -0.014894 -92555.300000 0 0 1
-25.344075 11.595672 -30.643259 41.422109 -0.429098 2.403540 0.040624 -0.018728 219168.000000 0 0 1
-24.658855 10.452272 -30.045909 40.250041 -0.400917 2.413555 0.053660 -0.023642 174669.000000 0 0 1
-24.424555 9.403072 -30.954419 40.535820 -0.367495 2.439715 0.053024 -0.019172 -281249.000000 0 0 1
-23.806955 8.214572 -30.219429 39.337822 -0.332258 2.446826 0.068530 -0.014626 -939.201000 0 0 1
-24.654255 7.582372 -29.260319 39.006294 -0.298367 2.419075 0.062854 -0.011255 659465.000000 0 0 1
-23.881855 6.712472 -28.415409 37.720495 -0.274001 2.423884 0.067990 -0.004114 75535.400000 0 0 1
-24.707555 5.966972 -27.354959 37.341155 -0.236967 2.392884 0.068564 -0.003297 -130495.000000 0 0 1
-25.487175 4.903772 -27.863629 38.079193 -0.190079 2.391651 0.078222 -0.005614 146784.000000 0 0 1
-25.734355 3.961472 -26.872799 37.417879 -0.152738 2.371981 0.108683 -0.003533 -160365.000000 0 0 1
-26.593575 2.740372 -27.337369 38.236888 -0.102684 2.367345 0.128447 -0.006356 1159960.000000 0 0 1
-27.925085 2.913872 -27.853419 39.548881 -0.103970 2.352202 0.135929 -0.014096 949924.000000 0 0 1
-28.231465 3.784072 -28.946969 40.611105 -0.133243 2.364257 0.134071 -0.010495 -550673.000000 0 0 1
-29.518095 3.294572 -29.692989 41.998164 -0.111152 2.356053 0.140816 -0.019146 -78126.300000 0 0 1
-30.628715 3.615172 -28.881759 42.253327 -0.117489 2.323395 0.135753 -0.022893 -630659.000000 0 0 1
-31.789295 3.867572 -29.608769 43.614179 -0.121068 2.317032 0.123727 -0.026241 -197647.000000 0 0 1
-32.084865 5.299472 -30.126979 44.330101 -0.163693 2.318021 0.112454 -0.036100 -223722.000000 0 0 1
-31.089145 5.571072 -31.116459 44.337409 -0.177315 2.348732 0.128507 -0.037599 585523.000000 0 0 1
-31.271255 6.758772 -31.855789 45.148241 -0.212859 2.354041 0.111713 -0.030421 -426666.000000 0 0 1
-30.826175 8.112772 -31.178959 44.589210 -0.257343 2.345143 0.086394 -0.024172 195421.000000 0 0 1
-29.462955 8.359172 -30.858899 43.476582 -0.276453 2.359985 0.057464 -0.025754 454080.000000 0 0 1
-28.922085 7.779772 -29.665969 42.155446 -0.262771 2.351428 0.056349 -0.027303 -350646.000000 0 0 1
-29.174955 8.587572 -28.410009 41.617941 -0.286263 2.322164 0.048834 -0.016288 -270972.000000 0 0 1
-30.530595 8.680472 -28.051559 42.359861 -0.277011 2.294574 0.061990 -0.021700 -28538.400000 0 0 1
-30.944925 7.623372 -27.218609 41.911298 -0.241543 2.277636 0.070280 -0.009559 -645377.000000 0 0 1
-32.231385 7.918872 -26.442969 42.435850 -0.240916 2.243532 0.063192 -0.007519 -237855.000000 0 0 1
-32.084295 8.772972 -25.361559 41.827930 -0.266911 2.222235 0.045957 0.000838 -121537.000000 0 0 1
-32.307165 8.067672 -24.166329 41.144279 -0.244713 2.198584 0.049999 0.000920 74900.900000 0 0 1
-31.939375 8.856972 -22.875029 40.272032 -0.270509 2.174886 0.069322 -0.002088 295224.000000 0 0 1
-32.858115 9.911072 -22.494529 41.035216 -0.292954 2.150978 0.059126 0.001618 179621.000000 0 0 1
-32.317875 10.874072 -21.623329 40.376464 -0.324573 2.135947 0.083450 -0.007223 271697.000000 0 0 1
-33.337865 11.970072 -21.079429 41.219391 -0.344717 2.107605 0.064172 -0.010413 606436.000000 0 0 1
-34.160381 11.476672 -20.023129 41.225858 -0.324117 2.077953 0.075513 -0.013456 358661.000000 0 0 1
-34.642804 12.475372 -19.098429 41.479016 -0.345657 2.049283 0.048729 -0.018043 -79797.800000 0 0 1
-33.513865 13.099572 -18.241429 40.342629 -0.372611 2.039985 0.064224 -0.022418 -211686.000000 0 0 1
-32.892295 12.258672 -17.291829 39.130365 -0.356745 2.028515 0.111805 -0.017364 -53168.400000 0 0 1
-33.667785 11.605272 -16.292029 39.161618 -0.331945 1.999861 0.112262 -0.010517 -391166.000000 0 0 1
-34.171380 12.513272 -15.137329 39.413246 -0.351026 1.964993 0.099547 -0.006669 97119.000000 0 0 1
-35.080992 13.504072 -15.666729 40.724469 -0.367456 1.965680 0.063311 -0.017458 481892.000000 0 0 1
-35.853486 14.097272 -14.633529 41.210990 -0.374623 1.933805 0.040359 -0.017260 25277.700000 0 0 1
-36.528355 15.436772 -15.078929 42.426274 -0.399833 1.934154 0.023643 -0.015009 638677.000000 0 0 1
-37.498995 15.129872 -16.109529 43.527056 -0.383498 1.949917 0.029388 -0.026674 605649.000000 0 0 1
37.673896 16.255072 -16.469029 44.212879 0.407336 1.952491 0.033125 -0.028523 -754604.000000 0 0 1
37.260776 16.339072 -17.983929 44.483169 0.413254 1.986995 0.031920 -0.024891 75397.800000 0 0 1
36.283686 15.433872 -18.460529 43.537356 0.402181 2.008671 0.069540 -0.032544 67594.500000 0 0 1
34.985916 15.873472 -18.090929 42.464846 0.425935 2.010887 0.124379 -0.039971 -910792.000000 0 0 1
33.999736 14.770172 -18.457729 41.410479 0.409822 2.032782 0.139726 -0.046374 -600997.000000 0 0 1
33.966846 14.409372 -19.824129 41.885232 0.401209 2.063825 0.145286 -0.038348 -162225.000000 0 0 1
33.054256 13.383272 -20.057029 40.914303 0.384713 2.083139 0.096092 -0.028429 -284687.000000 0 0 1
33.416306 11.934872 -19.603329 40.538638 0.343037 2.075527 0.103784 -0.018490 -237879.000000 0 0 1
33.403206 11.776572 -18.173629 39.808825 0.338952 2.044879 0.127539 -0.023988 -41447.100000 0 0 1
33.803376 10.495372 -17.769029 39.605043 0.301046 2.036057 0.112005 -0.028579 -165786.000000 0 0 1
33.957776 10.408972 -16.216329 39.044161 0.297434 1.999105 0.090776 -0.028240 -653605.000000 0 0 1
32.745626 10.581072 -15.572429 37.772154 0.312539 1.995744 0.116783 -0.029718 -744496.000000 0 0 1
32.764196 10.379772 -14.172729 37.176584 0.306800 1.961920 0.088396 -0.022176 149610.000000 0 0 1
31.865106 11.443272 -13.453629 36.432589 0.344773 1.949025 0.115014 -0.032341 -715936.000000 0 0 1
30.510926 11.194172 -13.598229 35.229787 0.351642 1.967073 0.110337 -0.029426 -895400.000000 0 0 1
29.814426 12.157072 -12.819129 34.655799 0.387176 1.949696 0.139344 -0.032293 406609.000000 0 0 1
28.262526 12.061972 -12.910629 33.330854 0.403380 1.968549 0.143997 -0.022214 -432416.000000 0 0 1
27.818926 10.902672 -12.252929 32.293887 0.373518 1.959965 0.135506 -0.030172 -222686.000000 0 0 1
26.424326 10.747572 -12.381429 31.097509 0.386295 1.980294 0.149723 -0.021086 -161761.000000 0 0 1
25.910526 10.251972 -13.751829 31.073639 0.376767 2.029243 0.116388 -0.039764 -943023.000000 0 0 1
26.242426 8.922472 -14.161229 31.125806 0.327740 2.043132 0.120275 -0.032364 858417.000000 0 0 1
27.602626 8.780872 -14.587129 32.431358 0.307994 2.037321 0.119445 -0.040354 587592.000000 0 0 1
28.629826 7.997172 -13.752829 32.753045 0.272387 2.004126 0.116642 -0.037392 -256759.000000 0 0 1
28.484726 6.585872 -13.646329 32.264153 0.227215 2.007502 0.120258 -0.049377 428342.000000 0 0 1
27.362326 6.173472 -12.877529 30.864857 0.221904 2.001184 0.138781 -0.044209 175347.000000 0 0 1
27.483726 4.603572 -12.625329 30.593251 0.165961 1.996194 0.135780 -0.041999 266131.000000 0 0 1
26.387726 4.046872 -11.900329 29.228532 0.152176 1.990125 0.183020 -0.041261 735244.000000 0 0 1
26.256526 2.628072 -12.081229 29.021854 0.099760 2.000147 0.195567 -0.048230 168292.000000 0 0 1
25.428726 1.954072 -10.921729 27.743876 0.076694 1.975409 0.258019 -0.042116 137231.000000 0 0 1
26.191026 1.915272 -9.725229 28.003896 0.072997 1.925467 0.267705 -0.032885 309704.000000 0 0 1
25.710126 1.071472 -8.702529 27.164179 0.041651 1.896914 0.304975 -0.017063 -827231.000000 0 0 1
26.767226 0.683272 -7.683229 27.856476 0.025521 1.850234 0.351635 -0.009079 -615980.000000 0 0 1
26.611726 -0.587328 -7.143929 27.560200 -0.022067 1.833002 0.311216 -0.017645 148589.000000 0 0 1
26.951026 -1.708528 -7.903429 28.137893 -0.063309 1.855509 0.250511 -0.023357 -388582.000000 0 0 1
27.133126 -2.954028 -7.011729 28.179729 -0.108445 1.822260 0.225114 -0.029183 69024.400000 0 0 1
28.484426 -3.333728 -6.830829 29.481121 -0.116507 1.804623 0.226954 -0.033307 356374.000000 0 0 1
28.562026 -4.403828 -5.916229 29.498895 -0.152980 1.772723 0.231415 -0.053200 1045340.000000 0 0 1
29.987826 -4.512828 -5.206029 30.769109 -0.149368 1.740811 0.181183 -0.044115 1151260.000000 0 0 1
31.025956 -4.776028 -6.121429 31.982687 -0.152738 1.763383 0.154510 -0.036450 -134787.000000 0 0 1
32.249076 -5.086328 -5.486029 33.105440 -0.156432 1.737278 0.204700 -0.048530 -118072.000000 0 0 1
33.235076 -5.584028 -6.583829 34.338003 -0.166461 1.763727 0.213535 -0.055543 -177827.000000 0 0 1
32.853306 -6.814128 -7.188129 34.313864 -0.204511 1.781841 0.224110 -0.053799 -227957.000000 0 0 1
33.424206 -6.912628 -8.459829 35.164338 -0.203940 1.813759 0.226530 -0.050211 -1515640.000000 0 0 1
32.498196 -7.687228 -9.415929 34.697059 -0.232274 1.845618 0.195520 -0.049016 1023520.000000 0 0 1
31.365546 -6.954828 -9.932229 33.627612 -0.218204 1.870628 0.149258 -0.049428 992899.000000 0 0 1
30.485626 -6.423728 -8.963729 32.418916 -0.207675 1.850943 0.150836 -0.049331 -1858110.000000 0 0 1
29.307426 -5.511228 -9.373729 31.259649 -0.185878 1.875349 0.141888 -0.044413 -127417.000000 0 0 1
28.252526 -6.332428 -9.827029 30.575732 -0.220493 1.898004 0.124619 -0.037274 130077.000000 0 0 1
27.079926 -5.540428 -9.995129 29.392539 -0.201810 1.917773 0.174258 -0.035523 34239.900000 0 0 1
25.798326 -6.340528 -10.199029 28.456565 -0.240996 1.937357 0.214551 -0.032919 -1047250.000000 0 0 1
25.459026 -7.309628 -9.205829 28.041754 -0.279593 1.905289 0.192625 -0.039923 2415940.000000 0 0 1
24.034726 -7.690728 -9.104229 26.827268 -0.309688 1.917038 0.173442 -0.032989 1722980.000000 0 0 1
23.146926 -6.640128 -8.429529 25.513299 -0.279367 1.907521 0.191317 -0.027279 -864975.000000 0 0 1
22.995226 -5.492228 -9.241129 25.383921 -0.234450 1.943414 0.209427 -0.021339 135495.000000 0 0 1
22.490726 -4.389428 -8.530629 24.451410 -0.192743 1.927173 0.218313 -0.028570 -188957.000000 0 1 0
22.628826 -3.013428 -9.311829 24.654709 -0.132389 1.958096 0.253281 -0.027113 590996.000000 0 1 0
23.975126 -2.636628 -9.636329 25.973396 -0.109533 1.950890 0.245199 -0.036998 1082270.000000 0 0 1
24.046026 -2.047128 -10.924229 26.490392 -0.084929 1.995866 0.260418 -0.040154 -183136.000000 0 0 1
25.415426 -2.101928 -11.632129 28.029777 -0.082515 1.998730 0.202927 -0.039356 -490869.000000 0 0 1
26.446926 -1.419228 -11.017029 28.684996 -0.053612 1.964996 0.206079 -0.041490 234957.000000 0 0 1
27.673526 -1.580328 -11.739229 30.102009 -0.057044 1.971408 0.153692 -0.038268 -294530.000000 0 0 1
28.735526 -0.647528 -11.228629 30.858254 -0.022530 1.943224 0.114111 -0.016463 -658280.000000 0 0 1
29.984526 -0.911328 -11.867029 32.260327 -0.030384 1.947494 0.090894 -0.017959 534239.000000 0 0 1
30.968056 0.096872 -11.674029 33.095510 0.003128 1.931291 0.103482 -0.017695 147017.000000 0 0 1
30.824026 1.384472 -12.473429 33.280982 0.044885 1.954968 0.101437 -0.017087 -530166.000000 0 0 1
31.171136 1.326072 -13.810129 34.119171 0.042516 1.987514 0.092723 -0.018475 167837.000000 0 0 1
31.025696 2.549572 -14.503929 34.343239 0.081992 2.006803 0.101454 -0.025015 -161202.000000 0 0 1
31.447786 2.429772 -16.020029 35.376664 0.077110 2.040746 0.101180 -0.011831 -72962.600000 0 0 1
30.545526 1.692772 -16.818829 34.910853 0.055361 2.073464 0.096533 -0.016429 -218260.000000 0 0 1
30.712226 1.914772 -18.188429 35.745295 0.062265 2.104626 0.088519 -0.014532 326902.000000 0 0 1
29.534026 1.272472 -19.003629 35.142791 0.043058 2.142130 0.058873 -0.008171 413870.000000 0 0 1
29.391226 -0.119928 -18.831829 34.906967 -0.004080 2.140623 0.067450 -0.010564 139832.000000 0 0 1
29.056826 -0.709728 -20.077729 35.325883 -0.024421 2.175304 0.048855 -0.009721 -99370.100000 0 0 1
28.940926 -2.254328 -19.884729 35.186100 -0.077737 2.171387 0.064315 -0.011442 793121.000000 0 0 1
27.674726 -2.650328 -19.296929 33.842077 -0.095476 2.177552 0.062815 -0.007579 1119890.000000 0 0 1
27.460426 -4.048728 -19.308029 33.812234 -0.146384 2.178565 0.061292 -0.011524 -172980.000000 0 0 1
28.200126 -4.916728 -18.279129 33.963920 -0.172616 2.139087 0.048479 -0.008983 920425.000000 0 0 1
29.600926 -5.146828 -18.544029 35.307020 -0.172153 2.123772 0.059332 -0.014250 740635.000000 0 0 1
30.274326 -5.509428 -17.392729 35.346791 -0.180014 2.085250 0.068285 -0.012563 -615214.000000 0 0 1
31.794746 -5.384928 -17.505229 36.692456 -0.167773 2.068125 0.101337 -0.016172 -477506.000000 0 0 1
32.393846 -6.308728 -18.412229 37.791156 -0.192343 2.079688 0.077461 -0.017382 -269007.000000 0 0 1
33.670366 -5.794028 -18.688329 38.942495 -0.170412 2.071332 0.113348 -0.014913 -486148.000000 0 0 1
34.553636 -6.850228 -19.412129 40.220767 -0.195711 2.074462 0.107513 -0.007596 -55489.700000 0 0 1
35.013746 -7.781128 -18.411729 40.317491 -0.218677 2.045043 0.120361 -0.018941 -145400.000000 0 0 1
35.718576 -8.846528 -18.922729 41.378103 -0.242787 2.045767 0.108003 -0.014312 -339388.000000 0 0 1
36.520756 -9.642728 -17.862329 41.782899 -0.258143 2.012526 0.118305 -0.019929 -834483.000000 0 0 1
35.710606 -10.180828 -16.868329 40.785257 -0.277725 1.997189 0.105343 -0.023336 288027.000000 0 0 1
36.413296 -11.067428 -15.977929 41.276026 -0.295067 1.968280 0.117461 -0.036833 1188760.000000 0 0 1
37.726706 -10.492028 -15.215429 42.010668 -0.271252 1.941402 0.140146 -0.037516 1109360.000000 0 0 1
-37.734745 -11.310328 -14.147929 41.856880 0.291211 1.915595 0.129827 -0.035117 230525.000000 0 0 1
-37.219295 -12.594828 -14.399329 41.847895 0.326299 1.922063 0.108357 -0.030322 -578531.000000 0 0 1
-35.750233 -12.717128 -14.841829 40.744134 0.341763 1.943644 0.126846 -0.030244 -155847.000000 0 0 1
-35.594125 -12.251828 -16.170929 40.970087 0.331507 1.976539 0.149052 -0.017077 441614.000000 0 0 1
-34.210733 -12.333628 -16.529329 39.946356 0.346015 1.997408 0.170577 -0.028107 441237.000000 0 0 1
-33.984205 -11.534228 -17.847229 40.081021 0.327200 2.032282 0.204604 -0.031195 143880.000000 0 0 1
-34.163296 -10.116128 -17.690829 39.779798 0.287885 2.031657 0.199296 -0.029809 -344956.000000 0 0 1
-35.446917 -9.665728 -18.002029 40.914341 0.266210 2.026387 0.186004 -0.029061 -641524.000000 0 0 1
-35.506840 -8.174328 -18.177029 40.718052 0.226276 2.033548 0.213946 -0.024041 -8260.200000 0 0 1
-36.812535 -7.653228 -18.146029 41.749408 0.204978 2.020437 0.198478 -0.022679 86394.500000 0 0 1
-36.657965 -6.329228 -18.470429 41.533388 0.170971 2.031650 0.181628 -0.024403 144357.000000 0 0 1
26.150745 27.382872 -26.301219 46.102465 0.808410 2.177905 0.077973 -0.006148 -119617.000000 0 0 1
26.550045 26.181472 -25.615989 45.238846 0.778409 2.172732 0.084209 -0.022430 -39478.600000 0 0 1
27.641845 25.577272 -26.267879 45.915900 0.746624 2.179844 0.077251 -0.025000 -195062.000000 0 0 1
28.333645 24.533372 -25.359579 45.252514 0.713638 2.165667 0.091031 -0.031537 -436012.000000 0 0 1
28.842445 25.079172 -24.185829 45.230585 0.715720 2.134976 0.093933 -0.028094 20623.000000 0 0 1
28.677045 24.182572 -23.074429 44.040878 0.700576 2.122257 0.100790 -0.028255 275440.000000 0 0 1
29.458045 24.590772 -21.757129 44.111848 0.695587 2.086591 0.105510 -0.018330 155169.000000 0 0 1
28.962645 25.722872 -21.098629 44.109558 0.726224 2.069541 0.102796 -0.024034 -387895.000000 0 0 1
29.481545 26.064272 -19.847629 44.073077 0.723954 2.037936 0.085966 -0.018035 -170920.000000 0 0 1
28.665445 27.180072 -19.157729 43.903105 0.758807 2.022350 0.098213 -0.017308 -115740.000000 0 0 1
27.536345 26.746372 -18.453029 42.592640 0.770846 2.018886 0.114171 -0.012355 -286663.000000 0 0 1
26.785145 27.833972 -17.970429 42.604111 0.804598 2.006226 0.106271 -0.013681 67352.500000 0 0 1
25.621445 27.417172 -17.055429 41.219503 0.819242 1.997389 0.091729 -0.008931 49869.000000 0 0 1
24.582645 26.704072 -17.687529 40.376510 0.826739 2.024241 0.103705 -0.013882 553512.000000 0 0 1
23.396945 26.685672 -16.881829 39.300614 0.850970 2.014798 0.081679 -0.003162 123233.000000 0 0 1
22.363045 25.638972 -17.244529 38.142318 0.853538 2.039926 0.085002 -0.009563 -616083.000000 0 0 1
21.809745 25.983572 -18.489729 38.635231 0.872508 2.069824 0.083059 -0.017433 -329339.000000 0 0 1
21.129545 24.881672 -19.062129 37.801058 0.866766 2.099339 0.091187 -0.014384 117658.000000 0 0 1
20.278345 25.196872 -20.332829 38.203633 0.893138 2.132020 0.079518 -0.012647 665217.000000 0 0 1
19.252545 26.116272 -19.968529 38.098061 0.935547 2.122495 0.063248 -0.010169 -212609.000000 0 0 1
18.305545 26.305572 -20.987029 38.308373 0.962840 2.150582 0.061522 -0.011620 428426.000000 0 0 1
17.246745 27.422972 -20.621129 38.401830 1.009386 2.137653 0.060914 -0.011506 239986.000000 0 0 1
16.513045 27.225172 -19.466829 37.320880 1.025585 2.119530 0.070837 -0.006733 -557208.000000 0 0 1
15.415045 28.085072 -19.411729 37.459446 1.068821 2.115549 0.072525 -0.022426 -118249.000000 0 0 1
14.707545 28.163472 -18.058329 36.545810 1.089531 2.087629 0.077996 -0.021796 202972.000000 0 0 1
13.834745 27.101972 -17.713029 35.208925 1.098808 2.097959 0.084877 -0.020987 76400.700000 0 0 1
13.168845 27.251272 -16.472329 34.458495 1.120648 2.069211 0.102169 -0.022634 -49442.500000 0 0 1
12.245845 26.081972 -16.204629 33.057828 1.131834 2.083104 0.116852 -0.022464 -132301.000000 0 0 1
13.029945 24.935672 -15.960229 32.346500 1.089278 2.086807 0.117962 -0.019545 230624.000000 0 0 1
12.210345 23.774972 -15.825429 31.061004 1.096344 2.105394 0.123624 -0.017463 103562.000000 0 0 1
13.016745 22.501872 -15.756729 30.398098 1.046355 2.115712 0.114463 -0.014426 -11124.200000 0 0 1
13.492345 22.121772 -17.028529 31.006240 1.023120 2.152199 0.101282 -0.009746 -252734.000000 0 0 1
14.599545 21.260472 -17.069229 30.927543 0.969053 2.155450 0.108066 -0.007239 -215917.000000 0 0 1
14.184145 19.836072 -17.443129 29.982035 0.950029 2.191719 0.113660 -0.009084 -71893.900000 0 0 1
13.391445 19.308372 -16.414529 28.663230 0.964408 2.180554 0.113512 -0.020906 31011.800000 0 0 1
12.789245 18.037872 -16.771029 27.752424 0.954041 2.219694 0.101346 -0.020797 89179.700000 0 0 1
13.775745 16.869772 -16.759829 27.481852 0.886019 2.226669 0.121333 -0.021984 -299953.000000 0 0 1
14.476345 16.673272 -15.561729 27.013514 0.855810 2.184711 0.150233 -0.033884 -290956.000000 0 0 1
15.450745 15.693172 -15.752129 27.076387 0.793182 2.191695 0.149683 -0.037029 -494016.000000 0 0 1
16.110845 15.279072 -14.386029 26.456893 0.758906 2.145700 0.212721 -0.040874 -247038.000000 0 0 1
17.056845 16.063372 -13.695029 27.138933 0.755411 2.099746 0.180659 -0.041859 2337890.000000 0 0 1
18.431745 16.137672 -14.223829 28.327919 0.719134 2.096837 0.142311 -0.033904 2069070.000000 0 0 1
19.299045 14.851872 -14.519729 28.352315 0.655906 2.108445 0.135053 -0.037100 -261866.000000 0 0 1
19.803345 14.096672 -13.431629 27.772239 0.618623 2.075599 0.172680 -0.045898 -144002.000000 0 0 1
20.982945 14.527572 -12.831829 28.565541 0.605574 2.036673 0.164021 -0.033814 -1035680.000000 0 0 1
21.813945 13.353372 -12.372929 28.412147 0.549304 2.021368 0.189155 -0.049090 -611565.000000 0 0 1
21.358245 12.688072 -11.172729 27.239524 0.536040 1.993433 0.278937 -0.056368 366392.000000 0 0 1
22.065545 11.518872 -10.806229 27.135719 0.481116 1.980382 0.287361 -0.022955 -372638.000000 0 0 1
21.866045 10.290672 -11.656329 26.830800 0.439871 2.020211 0.227388 -0.019183 -489731.000000 0 0 1
22.596445 10.118672 -12.845529 27.892552 0.421022 2.049395 0.194824 -0.015500 125202.000000 0 0 1
22.363445 8.875372 -13.476829 27.577542 0.377805 2.081382 0.175165 -0.025084 -127609.000000 0 0 1
22.833745 7.585772 -12.785729 27.246994 0.320746 2.059241 0.194685 -0.005963 -62671.800000 0 0 1
21.933845 7.324972 -11.719429 25.924771 0.322312 2.039864 0.200688 -0.029660 537923.000000 0 0 1
22.330045 6.237972 -10.960729 25.645288 0.272409 2.012408 0.212105 -0.010236 -570422.000000 0 0 1
22.342945 4.757072 -11.465929 25.559821 0.209779 2.035986 0.225613 -0.027792 665739.000000 0 0 1
21.100045 4.053972 -11.676729 24.453887 0.189818 2.068603 0.194746 -0.044645 1215970.000000 0 1 0
20.408145 4.380072 -12.908929 24.542165 0.211416 2.124675 0.140688 -0.050395 427585.000000 0 1 0
19.529945 3.197172 -13.490929 23.950904 0.162267 2.169140 0.147081 -0.060382 390691.000000 0 1 0
20.280845 2.057572 -13.923529 24.686250 0.101108 2.170042 0.178458 -0.080470 501355.000000 0 1 0
20.375745 1.019072 -12.953829 24.166323 0.049972 2.136521 0.228279 -0.088071 -462318.000000 0 1 0
21.300845 -0.143828 -13.388529 25.159479 -0.006752 2.131930 0.241179 -0.075007 -451621.000000 0 0 1
22.661145 0.121572 -13.116229 26.183539 0.005365 2.095474 0.283038 -0.058730 431540.000000 0 0 1
23.439545 0.560472 -14.231429 27.427358 0.023907 2.116333 0.185815 -0.051152 107717.000000 0 0 1
23.911545 -0.582928 -15.202629 28.341166 -0.024374 2.136980 0.151457 -0.032503 -273627.000000 0 0 1
22.861245 -1.106928 -16.046129 27.952461 -0.048382 2.182241 0.174526 -0.031345 553415.000000 0 0 1
23.330945 -2.166028 -16.831929 28.850277 -0.092574 2.193734 0.120020 -0.020922 -769001.000000 0 0 1
22.289145 -2.836628 -17.705729 28.606735 -0.126585 2.238183 0.134095 -0.018718 -292184.000000 0 0 1
21.347845 -3.553728 -16.914329 27.467326 -0.164955 2.234195 0.164357 -0.015730 808113.000000 0 0 1
20.450245 -4.312128 -17.757629 27.425177 -0.207815 2.275087 0.130290 -0.013530 704291.000000 0 0 1
19.711245 -5.529228 -17.014129 26.619281 -0.273483 2.264209 0.138581 -0.012580 -179413.000000 0 0 1
20.584245 -6.516928 -16.628029 27.252025 -0.306614 2.227056 0.147757 -0.007062 -83693.200000 0 0 1
19.965545 -7.444228 -15.767529 26.507631 -0.356888 2.207850 0.156183 -0.005542 -140534.000000 0 0 1
20.906545 -8.582928 -15.302029 27.292900 -0.389558 2.165979 0.200746 -0.004464 5331.990000 0 0 1
21.373545 -9.406328 -16.380029 28.523899 -0.414584 2.182492 0.159838 -0.011423 80037.900000 0 0 1
22.117245 -10.459628 -15.911229 29.184646 -0.441748 2.147414 0.131312 -0.021147 -677372.000000 0 0 1
22.633445 -11.372928 -16.995129 30.503291 -0.465632 2.161755 0.105312 -0.018767 249309.000000 0 0 1
23.808445 -10.928828 -17.688429 31.609522 -0.430339 2.164690 0.082944 -0.010804 577377.000000 0 0 1
24.179745 -11.841128 -18.678629 32.768332 -0.455384 2.177327 0.071345 -0.015192 -594017.000000 0 0 1
23.475045 -11.721528 -20.063529 33.030549 -0.463102 2.223609 0.090991 -0.013962 971946.000000 0 0 1
22.080745 -12.062128 -20.128829 32.221483 -0.499978 2.245546 0.104538 -0.024050 788712.000000 0 0 1
21.787745 -13.431028 -19.987929 32.474847 -0.552426 2.233803 0.085717 -0.012671 -491681.000000 0 0 1
20.274345 -13.704528 -19.828029 31.496252 -0.594405 2.251752 0.091164 -0.016482 282052.000000 0 0 1
19.590745 -13.421128 -21.084429 31.756529 -0.600639 2.296872 0.090620 -0.007962 -214764.000000 0 0 1
18.208345 -13.491228 -20.833329 30.782863 -0.637675 2.314181 0.102733 -0.002782 -178083.000000 0 0 1
17.343945 -12.904528 -21.968129 30.821064 -0.639674 2.364227 0.110863 -0.008898 -96633.600000 0 0 1
17.324045 -13.650528 -23.112029 31.947228 -0.667352 2.379574 0.094610 -0.002621 204512.000000 0 0 1
16.970145 -12.894528 -24.241629 32.278650 -0.649767 2.420389 0.115370 -0.017919 -68412.600000 0 0 1
17.120845 -13.798928 -25.498649 33.670683 -0.678372 2.429958 0.102109 -0.018049 -451924.000000 0 0 1
16.147145 -14.793628 -25.476209 33.594925 -0.741681 2.431552 0.098134 -0.011979 -85471.700000 0 0 1
16.132245 -15.637928 -26.620049 34.834195 -0.769840 2.440586 0.100944 -0.009387 184920.000000 0 0 1
17.208745 -16.783328 -26.661809 35.898093 -0.772884 2.407902 0.091316 -0.014104 1276880.000000 0 0 1
18.555445 -16.319628 -26.868299 36.503977 -0.721376 2.397995 0.082847 -0.007480 535965.000000 0 0 1
19.431045 -17.363128 -27.232859 37.691807 -0.729255 2.378228 0.085063 -0.007681 206750.000000 0 0 1
20.900445 -16.906528 -27.152319 38.208739 -0.680149 2.361191 0.057036 0.006226 228543.000000 0 0 1
21.470445 -16.674428 -25.838699 37.505399 -0.660323 2.330812 0.061843 0.003637 1234740.000000 0 0 1
22.894745 -16.411028 -25.954479 38.303083 -0.621915 2.315302 0.065456 0.005256 1233220.000000 0 0 1
23.523745 -15.984328 -24.591329 37.597856 -0.596833 2.283738 0.073974 0.001379 -17000.500000 0 0 1
23.280145 -14.605328 -24.271529 36.665895 -0.560304 2.294233 0.083533 -0.007832 -500400.000000 0 0 1
21.924945 -14.273128 -24.154229 35.606912 -0.577078 2.316322 0.093135 -0.006599 -355886.000000 0 0 1
21.644645 -12.908928 -23.492329 34.453165 -0.537770 2.321102 0.101024 -0.006378 127705.000000 0 0 1
22.219845 -11.792328 -24.175329 34.888781 -0.487914 2.336335 0.104543 -0.021861 266328.000000 0 0 1
21.918945 -10.603328 -23.489729 33.832501 -0.450565 2.338236 0.123142 -0.027636 5730.410000 0 0 1
22.398445 -9.384528 -24.261129 34.327279 -0.396762 2.355703 0.130563 -0.035366 -176653.000000 0 0 1
21.941745 -8.196228 -23.725529 33.339452 -0.357494 2.362619 0.144932 -0.036784 -134672.000000 0 0 1
21.731845 -7.247928 -24.723629 33.705539 -0.321915 2.394280 0.122977 -0.033066 -455848.000000 0 0 1
21.071345 -5.985728 -24.164629 32.615331 -0.276778 2.405203 0.129418 -0.040825 223112.000000 0 0 1
19.747445 -6.379228 -23.795829 31.573686 -0.312459 2.424410 0.151000 -0.045551 166231.000000 0 0 1
19.102945 -5.530328 -22.844529 30.288274 -0.281797 2.425287 0.142191 -0.042238 -59542.200000 0 0 1
19.798145 -5.300328 -21.461329 29.675725 -0.261584 2.379213 0.128578 -0.028245 -225017.000000 0 0 1
19.732245 -6.419428 -20.557129 29.209007 -0.314527 2.351521 0.138495 -0.033389 275431.000000 0 0 1
20.187045 -7.667128 -21.066829 30.168078 -0.362976 2.343837 0.128592 -0.035437 -398300.000000 0 0 1
19.874645 -8.769628 -19.968029 29.506441 -0.415551 2.314115 0.144032 -0.026486 -600068.000000 0 0 1
18.505745 -8.860228 -19.759629 28.485245 -0.446530 2.337381 0.169653 -0.028011 -610868.000000 0 0 1
18.158845 -9.956928 -18.827429 27.988500 -0.501555 2.308627 0.159391 -0.020343 129231.000000 0 0 1
16.637245 -10.188728 -18.736629 27.049388 -0.549491 2.335998 0.169220 -0.017428 370827.000000 0 0 1
15.871245 -9.118428 -18.181829 25.799633 -0.521477 2.352842 0.168375 -0.009088 1055850.000000 0 0 1
14.449445 -9.227928 -18.342829 25.107778 -0.568345 2.389943 0.149592 -0.026077 1119490.000000 0 0 1
13.673645 -8.052228 -17.622929 23.714438 -0.532208 2.408533 0.167614 -0.013950 146897.000000 0 1 0
12.287945 -7.919628 -17.780829 23.018948 -0.572502 2.453476 0.156285 -0.033461 -253565.000000 0 1 0
11.789545 -6.684928 -17.355329 22.020197 -0.515818 2.478602 0.158206 -0.037713 1099620.000000 0 1 0
10.226745 -6.566028 -17.573729 21.366680 -0.570762 2.536559 0.131340 -0.038609 1003250.000000 0 1 0
9.856945 -6.548328 -18.952829 22.343896 -0.586388 2.583436 0.120882 -0.050659 607945.000000 0 1 0
8.427045 -6.512328 -18.964129 21.750028 -0.657927 2.629892 0.101757 -0.059790 626841.000000 0 1 0
7.758445 -5.918528 -20.220729 22.452179 -0.651674 2.691975 0.106992 -0.071888 -109641.000000 0 1 0
7.772845 -6.730228 -21.355829 23.701994 -0.713632 2.692898 0.109120 -0.058330 -15136.000000 0 1 0
7.095745 -6.136328 -22.428929 24.311746 -0.713018 2.745447 0.125923 -0.060593 -59071.400000 0 1 0
7.042545 -7.036828 -23.627329 25.639132 -0.784992 2.742809 0.120723 -0.048484 106621.000000 0 0 1
6.360845 -8.257828 -23.341329 25.563054 -0.914442 2.721591 0.116483 -0.039443 127301.000000 0 0 1
6.181145 -9.089428 -24.468629 26.824207 -0.973595 2.719380 0.099346 -0.023128 -208289.000000 0 0 1
5.563645 -10.452828 -24.144529 26.891896 -1.081673 2.685628 0.109795 -0.025552 -38480.800000 0 0 1
6.299745 -11.332528 -23.329329 26.690271 -1.063435 2.634327 0.098929 -0.031010 90770.200000 0 0 1
5.597845 -12.610928 -23.284329 27.065317 -1.153036 2.606657 0.116948 -0.029721 -118400.000000 0 0 1
6.187845 -13.802928 -22.450029 27.070539 -1.149358 2.548679 0.116157 -0.017277 71055.000000 0 0 1
7.238845 -14.521528 -23.092929 28.223378 -1.108357 2.529104 0.097362 -0.005129 678978.000000 0 0 1
8.540745 -13.939428 -23.190329 28.373286 -1.021088 2.527557 0.100487 -0.010112 786280.000000 0 0 1
9.364545 -13.726128 -21.867529 27.464343 -0.972088 2.491810 0.097912 -0.005878 -385571.000000 0 0 1
9.801445 -14.820428 -21.112829 27.594655 -0.986486 2.442002 0.092238 0.003728 313680.000000 0 0 1
8.845145 -15.374628 -20.193829 26.877621 -1.048731 2.420864 0.092390 0.000551 275796.000000 0 0 1
9.512645 -15.694928 -18.833129 26.296539 -1.025906 2.369114 0.097568 0.001951 155210.000000 0 0 1
10.085945 -16.977828 -18.809629 27.272240 -1.034752 2.331869 0.093488 0.007863 -468547.000000 0 0 1
10.408845 -17.327828 -17.463129 26.712517 -1.029862 2.283317 0.093816 0.007978 -237782.000000 0 0 1
9.313145 -17.995328 -16.559429 26.168325 -1.093222 2.255966 0.064426 -0.009827 -335858.000000 0 0 1
8.929045 -19.384028 -16.761529 27.137009 -1.139130 2.236564 0.095288 -0.023141 369430.000000 0 0 1
8.223545 -19.512128 -18.009929 27.797615 -1.171930 2.275614 0.093642 -0.015133 624545.000000 0 0 1
6.724045 -19.040428 -18.102529 27.119223 -1.231322 2.301665 0.103401 -0.014466 474768.000000 0 0 1
6.632245 -17.631728 -18.198229 26.192367 -1.211014 2.338926 0.103619 -0.013479 1080290.000000 0 0 1
5.221645 -17.283928 -18.186629 25.627197 -1.277405 2.359814 0.092867 -0.006743 1448050.000000 0 0 1
4.906945 -15.853628 -17.631929 24.213644 -1.270633 2.386461 0.061501 -0.001504 16984.400000 0 1 0
5.160245 -15.881228 -16.231229 23.287214 -1.256630 2.342004 0.025924 0.005228 197597.000000 0 1 0
4.968245 -14.587328 -15.749429 22.034476 -1.242532 2.367082 0.015493 0.007389 -35807.000000 0 1 0
10.808945 29.600272 -17.796229 36.189987 1.220677 2.084888 0.096520 -0.038297 -443613.000000 0 0 1
9.791245 29.367272 -18.704929 36.168764 1.248980 2.114322 0.137323 -0.038106 -148929.000000 0 0 1
8.711745 28.654072 -18.115129 35.001546 1.275645 2.114784 0.126263 -0.036445 99958.900000 0 0 1
7.617545 28.088072 -19.000429 34.756051 1.305964 2.149190 0.137700 -0.033668 -530858.000000 0 0 1
6.874245 29.070772 -19.598929 35.727903 1.338596 2.151438 0.144797 -0.041144 -1000340.000000 0 0 1
6.081445 28.436972 -20.563629 35.616122 1.360113 2.186298 0.132299 -0.043867 -239241.000000 0 0 1
5.043045 29.336372 -21.275629 36.588351 1.400556 2.191351 0.114160 -0.041744 333081.000000 0 0 1
3.838745 29.426172 -20.512529 36.074914 1.441075 2.175611 0.121069 -0.032024 -153297.000000 0 0 1
2.996745 30.381972 -21.081629 37.100940 1.472479 2.175142 0.116649 -0.046972 -195669.000000 0 0 1
1.508145 30.327672 -20.593129 36.689496 1.521109 2.166730 0.111065 -0.032963 890591.000000 0 0 1
0.789845 29.112072 -20.903929 35.848442 1.543672 2.193360 0.117048 -0.050800 147476.000000 0 0 1
0.474545 29.015172 -22.288329 36.590641 1.554443 2.225755 0.155328 -0.070195 -951730.000000 0 0 1
-0.209355 27.663172 -22.506229 35.662659 -1.563228 2.253750 0.144069 -0.062433 1304710.000000 0 0 1
-1.555755 27.622772 -21.941629 35.311089 -1.514534 2.241300 0.150718 -0.056158 1356590.000000 0 0 1
-2.117355 26.322572 -22.176229 34.483998 -1.490530 2.269320 0.158721 -0.068349 268254.000000 0 0 1
-3.056055 25.856772 -21.016329 33.460398 -1.453150 2.249900 0.132509 -0.061930 -480298.000000 0 0 1
-4.285255 26.507372 -20.976729 34.073851 -1.410520 2.233976 0.122716 -0.055804 -498354.000000 0 0 1
-5.100155 26.021672 -19.932629 33.173011 -1.377253 2.215384 0.118505 -0.050949 -384078.000000 0 0 1
-6.226555 26.986172 -19.636129 33.949978 -1.344033 2.187543 0.121667 -0.058544 351997.000000 0 0 1
-7.358655 26.363872 -18.991829 33.315058 -1.298605 2.177384 0.117275 -0.049369 776566.000000 0 0 1
-8.297755 27.335472 -18.464929 34.015208 -1.276083 2.144615 0.108305 -0.059567 1076140.000000 0 0 1
-9.640155 26.661472 -18.035729 33.601402 -1.223846 2.137383 0.136101 -0.055972 398103.000000 0 0 1
-9.449655 25.753072 -16.950729 32.246611 -1.219117 2.124286 0.136473 -0.066210 -686292.000000 0 0 1
-10.622755 25.070672 -16.651629 31.916426 -1.170017 2.119669 0.108380 -0.060317 -421552.000000 0 0 1
-10.640455 24.291872 -15.312129 30.623122 -1.157945 2.094417 0.109387 -0.046385 34533.200000 0 0 1
-10.032055 23.004172 -15.348529 29.417875 -1.159564 2.119687 0.124040 -0.043694 -54919.500000 0 0 1
-10.432055 22.271272 -14.198229 28.397659 -1.132740 2.094371 0.128259 -0.027651 62687.600000 0 0 1
-9.860355 20.794272 -14.062129 26.969832 -1.128012 2.119290 0.145749 -0.013754 239963.000000 0 0 1
-10.623855 19.774072 -14.698329 26.831345 -1.077785 2.150534 0.117974 -0.009107 -80269.200000 0 0 1
-10.861455 19.952272 -16.127929 27.859908 -1.072284 2.188168 0.144841 -0.008852 439897.000000 0 0 1
-9.598255 19.886472 -17.043929 27.894332 -1.121123 2.228142 0.141058 -0.015291 379649.000000 0 0 1
-8.845255 18.710272 -17.075129 26.830446 -1.129187 2.260630 0.128121 -0.009861 -159726.000000 0 0 1
-7.876155 18.714972 -18.095229 27.197818 -1.172448 2.298718 0.133574 -0.019987 366727.000000 0 0 1
-7.090355 17.368672 -18.288029 26.199158 -1.183218 2.343451 0.121550 -0.020444 243930.000000 0 0 1
-7.932955 16.331472 -18.731229 26.086542 -1.118616 2.371781 0.124512 -0.027097 -83843.900000 0 0 1
-7.484855 15.711072 -19.917229 26.449137 -1.126201 2.423465 0.111039 -0.029846 326067.000000 0 0 1
-6.201755 14.828972 -19.801629 25.504209 -1.174683 2.459740 0.077957 -0.016137 90023.600000 0 0 1
-6.486355 13.512372 -19.367729 24.490119 -1.123251 2.482974 0.063811 -0.013082 -9378.940000 0 1 0
-5.349555 12.794072 -18.952729 23.484292 -1.174761 2.509916 0.055039 -0.003478 36016.500000 0 1 0
-4.725655 13.190872 -17.575829 22.477560 -1.226789 2.468549 0.043561 0.000163 -120868.000000 0 1 0
-3.895255 14.325172 -17.649229 23.062499 -1.305299 2.442270 0.053119 -0.012208 -245449.000000 0 1 0
-3.641055 14.878472 -16.366029 22.415912 -1.330793 2.389276 0.046110 -0.003258 309995.000000 0 1 0
-2.711755 16.143572 -16.413829 23.181508 -1.404373 2.357539 0.073228 -0.006021 479047.000000 0 1 0
-3.319955 17.410572 -16.674429 24.334886 -1.382372 2.325684 0.084192 -0.011392 -418585.000000 0 1 0
-2.326655 18.383872 -16.754329 24.981745 -1.444906 2.305898 0.101034 -0.017093 -110261.000000 0 1 0
-2.672355 19.756572 -17.427129 26.479585 -1.436348 2.289135 0.111898 -0.020702 153618.000000 0 0 1
-3.152955 19.693772 -18.754729 27.377466 -1.412044 2.325458 0.129893 -0.025489 -271802.000000 0 0 1
-3.755655 20.885772 -19.192929 28.612741 -1.392879 2.306060 0.152701 -0.027415 43167.800000 0 0 1
-2.863155 22.121072 -19.456929 29.599182 -1.442081 2.288089 0.124584 -0.040445 -250060.000000 0 0 1
-1.982455 22.038372 -20.580429 30.218769 -1.481083 2.319989 0.143139 -0.032981 850112.000000 0 0 1
-0.906955 23.014572 -20.538029 30.859419 -1.531409 2.299007 0.129123 -0.044664 1281440.000000 0 0 1
0.338445 22.677572 -19.665129 30.018396 1.555873 2.285115 0.129565 -0.044380 -75504.700000 0 0 1
-0.003555 22.524172 -18.284229 29.011228 -1.570638 2.252667 0.124188 -0.035954 -453176.000000 0 0 1
0.909345 21.697872 -17.590129 27.947042 1.528911 2.251589 0.124477 -0.033852 -198795.000000 0 0 1
0.930545 21.775872 -16.024529 27.052542 1.528089 2.204767 0.129654 -0.031534 -201785.000000 0 0 1
-0.091455 20.956872 -15.528929 26.083452 -1.566432 2.208504 0.119645 -0.019217 -326043.000000 0 0 1
-0.094555 21.019072 -14.111129 25.316680 -1.566298 2.162029 0.114320 -0.016679 217235.000000 0 0 1
-1.101255 20.100072 -13.396729 24.180529 -1.516062 2.157993 0.099567 -0.010574 -67570.100000 0 1 0
-0.684255 18.748672 -13.467729 23.094602 -1.534316 2.193403 0.067416 -0.006161 -39198.300000 0 1 0
-1.601655 17.811672 -12.939529 22.073793 -1.481116 2.197150 0.049534 -0.001574 -12165.300000 0 1 0
-1.247355 16.334872 -13.160729 21.014012 -1.494583 2.247573 0.024405 0.005718 21792.600000 0 1 0
-0.201255 15.838472 -12.307829 20.059420 -1.558090 2.231368 0.023265 -0.001527 436962.000000 0 1 0
-0.061855 14.465472 -12.259829 18.961991 -1.566520 2.273846 0.012850 -0.001472 -68523.600000 0 1 0
0.557445 13.830172 -13.530529 19.356126 1.530512 2.344838 0.009648 0.000309 -656566.000000 0 1 0
-0.152455 13.825072 -14.741229 20.210386 -1.559769 2.388224 0.012309 0.000548 -82224.900000 0 1 0
0.399645 12.841272 -15.602629 20.211383 1.539684 2.452735 0.011060 -0.002657 -153574.000000 0 1 0
-0.191755 12.842972 -17.047829 21.344957 -1.555867 2.495898 0.011780 0.008728 18674.500000 0 1 0
0.094045 13.973272 -17.796729 22.627080 1.564066 2.475956 0.022563 0.006162 96043.400000 0 1 0
-0.540255 13.795872 -19.047329 23.524853 -1.531656 2.514383 0.037788 -0.002992 -23299.000000 0 1 0
-0.993155 15.186072 -19.632429 24.840197 -1.505490 2.482175 0.051877 -0.004572 -483101.000000 0 1 0
0.004845 16.093772 -19.943429 25.627132 1.570495 2.462615 0.061185 -0.009863 -471243.000000 0 0 1
-0.515655 17.376672 -20.113929 26.585424 -1.541130 2.428859 0.106945 -0.023542 257059.000000 0 0 1
0.644545 18.391672 -20.318429 27.413639 1.535765 2.405622 0.133936 -0.032270 -16667.000000 0 0 1
1.334345 18.139472 -21.467429 28.136656 1.497368 2.438692 0.146736 -0.045912 -103954.000000 0 0 1
2.306245 19.172272 -21.707629 29.053673 1.451081 2.414569 0.151607 -0.044307 576872.000000 0 0 1
2.984845 19.003772 -23.094829 30.057009 1.415003 2.447083 0.170723 -0.050045 24634.500000 0 0 1
3.955245 18.022472 -23.312929 29.731231 1.354759 2.472077 0.155051 -0.044097 -450127.000000 0 0 1
4.383245 17.968972 -24.635829 30.806182 1.331535 2.497598 0.158075 -0.055020 -124358.000000 0 0 1
5.500445 16.947272 -24.780229 30.520889 1.256960 2.518214 0.119976 -0.044150 129619.000000 0 0 1
6.776045 17.237672 -24.135029 30.422882 1.196257 2.487037 0.118826 -0.032862 998940.000000 0 0 1
7.697745 16.196672 -24.271429 30.177636 1.127130 2.505268 0.124486 -0.027065 -39277.900000 0 0 1
8.230945 15.888872 -25.696699 31.313336 1.092827 2.533311 0.108513 -0.029708 -1293700.000000 0 0 1
9.013745 16.950772 -26.226059 32.502037 1.082065 2.509690 0.099233 -0.027687 259317.000000 0 0 1
9.323145 16.983972 -27.645579 33.758767 1.068769 2.530315 0.110405 -0.037220 261136.000000 0 0 1
9.910145 15.715372 -28.318689 33.869338 1.008179 2.560960 0.125398 -0.050451 18043.400000 0 0 1
11.125245 15.236172 -27.769089 33.571332 0.940097 2.544843 0.119828 -0.044066 140218.000000 0 0 1
11.314945 13.850972 -28.079979 33.292080 0.885831 2.574457 0.112596 -0.036046 264868.000000 0 0 1
10.543245 12.795172 -27.137679 31.801416 0.881591 2.593170 0.098021 -0.025970 1884470.000000 0 0 1
9.096745 12.928572 -27.125799 31.395982 0.957648 2.613936 0.106993 -0.030104 643281.000000 0 0 1
8.503845 11.901572 -26.448049 30.223535 0.950395 2.636400 0.114058 -0.029596 529399.000000 0 0 1
6.953645 12.113872 -26.405249 29.871998 1.049696 2.655033 0.117232 -0.037355 -442865.000000 0 0 1
6.514945 13.031772 -25.472369 29.344730 1.107206 2.622035 0.145980 -0.033637 -390893.000000 0 0 1
5.121945 13.022872 -25.279459 28.894300 1.196076 2.636014 0.160164 -0.047875 251455.000000 0 0 1
4.263245 13.678272 -26.409709 30.045684 1.268659 2.644526 0.164004 -0.039465 -841785.000000 0 0 1
4.418145 13.060872 -27.711349 30.951983 1.244606 2.679903 0.164574 -0.047639 -218080.000000 0 0 1
3.938445 13.801972 -28.765889 32.147817 1.292830 2.678781 0.148939 -0.061594 -286007.000000 0 0 1
4.164445 13.134972 -30.160709 33.159289 1.263772 2.713046 0.182734 -0.057559 -975430.000000 0 0 1
5.473445 12.980972 -30.554009 33.645382 1.171765 2.709566 0.162307 -0.050826 -832225.000000 0 0 1
5.466045 12.849172 -31.959129 34.876422 1.168586 2.729672 0.157003 -0.056784 -389580.000000 0 0 1
6.588345 11.905672 -32.476329 35.211692 1.065363 2.744829 0.163723 -0.043211 323139.000000 0 0 1
7.941745 12.331572 -32.545169 35.697717 0.998638 2.718169 0.175134 -0.044262 556286.000000 0 0 1
8.567945 12.603572 -31.287619 34.801937 0.973754 2.688322 0.166029 -0.044454 -842945.000000 0 0 1
8.801345 11.381072 -30.377399 33.612183 0.912529 2.699274 0.159438 -0.041028 -1640390.000000 0 0 1
9.840945 10.545772 -30.611999 33.840094 0.819957 2.701254 0.119346 -0.040484 -1162290.000000 0 0 1
9.818745 9.456872 -29.719119 32.696578 0.766627 2.711523 0.106346 -0.034804 -605866.000000 0 0 1
10.764345 8.341172 -29.982169 32.929876 0.659241 2.715252 0.070390 -0.023329 -408907.000000 0 0 1
12.098545 8.539872 -29.564699 33.066231 0.614648 2.677226 0.061167 -0.024252 -240497.000000 0 0 1
12.800545 7.344372 -29.581979 33.058845 0.520898 2.678842 0.025267 -0.015505 -154835.000000 0 0 1
14.174545 7.488572 -28.860399 33.013922 0.486039 2.634559 0.028995 0.000707 638511.000000 0 0 1
14.901345 6.300072 -28.520969 32.790039 0.399993 2.625605 0.017194 0.010465 474074.000000 0 0 1
15.722745 5.752972 -29.545249 33.959139 0.350770 2.626046 0.013888 0.011351 -440200.000000 0 0 1
16.661245 4.677172 -28.985879 33.758765 0.273678 2.603364 0.031315 0.009140 -643105.000000 0 0 1
17.610945 5.096272 -28.077889 33.533345 0.281686 2.563145 0.026964 0.009623 -418016.000000 0 0 1
18.258145 3.984172 -27.557769 33.296608 0.214846 2.545695 0.040089 0.003488 -361650.000000 0 0 1
18.750345 4.180872 -26.102599 32.409887 0.219387 2.507129 0.067268 0.006175 -636953.000000 0 0 1
19.771945 5.111572 -26.121429 33.157006 0.252987 2.478042 0.089437 0.005186 -332351.000000 0 0 1
20.252645 5.397372 -24.815429 32.482407 0.260449 2.440232 0.107530 -0.003704 876063.000000 0 0 1
21.378445 6.543872 -24.754229 33.356139 0.297041 2.407023 0.116055 -0.016392 780951.000000 0 0 1
20.938145 7.859972 -25.105429 33.622428 0.359113 2.413864 0.115787 -0.003472 410373.000000 0 0 1
21.851845 8.561772 -25.962309 34.997836 0.373426 2.406586 0.113342 -0.023794 -267609.000000 0 0 1
21.784645 8.328772 -27.466609 36.032677 0.365175 2.437609 0.154205 -0.037917 -655585.000000 0 0 1
20.727245 8.864072 -28.174499 36.083138 0.404116 2.466776 0.112296 -0.014191 162831.000000 0 0 1
19.562545 8.012772 -28.194549 35.239612 0.388753 2.498227 0.106399 -0.007184 355911.000000 0 0 1
18.430145 8.557172 -29.113029 35.503012 0.434684 2.532235 0.061905 0.005084 -207105.000000 0 0 1
18.561645 8.723672 -30.527319 36.777090 0.439348 2.550018 0.061175 0.001429 4494.130000 0 0 1
17.445145 9.410972 -31.046579 36.834624 0.494716 2.573380 0.043477 0.009455 -356235.000000 0 0 1
17.166645 8.899372 -32.497039 37.814681 0.478267 2.604845 0.022688 0.014806 -102992.000000 0 0 1
16.406145 7.715472 -32.530709 37.241605 0.439590 2.633152 0.017454 0.014667 368570.000000 0 0 1
15.027845 7.968672 -32.757859 36.910882 0.487562 2.662655 0.024073 0.010314 28812.800000 0 0 1
14.191945 6.773972 -33.235229 36.767900 0.445332 2.699643 0.034429 -0.005084 -129687.000000 0 0 1
14.134445 5.700872 -32.306649 35.721171 0.383375 2.700795 0.030081 -0.002689 191626.000000 0 0 1
13.357345 4.603072 -32.773589 35.689145 0.331865 2.734579 0.042033 -0.019961 -51931.300000 0 0 1
13.061445 3.478072 -31.751279 34.508579 0.260246 2.739127 0.052341 -0.026420 62296.200000 0 0 1
14.192145 2.733972 -31.301609 34.477272 0.190309 2.709022 0.037314 -0.025537 241901.000000 0 0 1
13.945945 1.709572 -30.341329 33.436631 0.121977 2.707918 0.058369 -0.024115 -460015.000000 0 0 1
13.288545 0.411872 -30.896479 33.635509 0.030985 2.735237 0.079245 -0.025730 97395.200000 0 0 1
13.989545 -0.628728 -31.635699 34.596533 -0.044913 2.724865 0.084146 -0.028989 281827.000000 0 0 1
14.941145 -1.354828 -30.855329 34.309251 -0.090430 2.689031 0.087481 -0.026427 399280.000000 0 0 1
15.366845 -2.671128 -31.607739 35.246617 -0.172105 2.683188 0.102156 -0.037025 49182.800000 0 0 1
14.341745 -3.623928 -31.498039 34.798635 -0.247503 2.702533 0.106899 -0.042712 126553.000000 0 0 1
14.637945 -4.819028 -32.313069 35.799817 -0.318039 2.696578 0.116125 -0.054114 -7419.150000 0 0 1
13.646245 -5.963528 -32.036549 35.328801 -0.411998 2.706453 0.121543 -0.057127 -92497.400000 0 0 1
13.756845 -6.678528 -30.784069 34.373135 -0.451956 2.680541 0.128911 -0.047810 -77472.500000 0 0 1
13.163945 -7.923428 -30.944969 34.549403 -0.541818 2.680739 0.152465 -0.056569 -161681.000000 0 0 1
13.331645 -8.789628 -29.659699 33.685131 -0.582889 2.647709 0.131783 -0.055223 -339157.000000 0 0 1
14.693145 -8.960128 -29.353199 34.026206 -0.547607 2.611311 0.122813 -0.053791 -155023.000000 0 0 1
14.870745 -9.678328 -28.087539 33.222266 -0.576959 2.578191 0.130109 -0.053350 -10647.800000 0 0 1
14.750545 -11.156428 -28.100059 33.640122 -0.647546 2.559500 0.111628 -0.034910 472337.000000 0 0 1
13.505745 -11.674728 -28.584739 33.701509 -0.712810 2.583325 0.086205 -0.033815 504203.000000 0 0 1
13.676945 -13.077028 -28.715939 34.390008 -0.762978 2.558944 0.076260 -0.028037 192002.000000 0 0 1
-10.242955 -3.141128 -17.982929 20.932524 0.297558 2.604286 0.035822 0.006540 290674.000000 0 1 0
-10.825155 -2.699728 -19.199329 22.205557 0.244408 2.615186 0.047966 0.001801 353561.000000 0 1 0
-11.843555 -3.609628 -19.660429 23.234278 0.295832 2.579576 0.053516 0.002210 1020860.000000 0 1 0
-12.849455 -2.986728 -20.726829 24.568893 0.228385 2.574788 0.077316 -0.015975 1452830.000000 0 1 0
-13.787355 -2.047328 -20.117629 24.474512 0.147416 2.535680 0.084922 -0.016515 1259990.000000 0 1 0
-14.950455 -1.666928 -20.872529 25.728530 0.111038 2.517100 0.084684 -0.015454 606170.000000 0 0 1
-15.706055 -0.511928 -20.295629 25.668167 0.032583 2.482736 0.089581 -0.014011 -571412.000000 0 0 1
-15.045055 0.724872 -20.372829 25.336363 -0.048143 2.504947 0.105518 -0.020652 -376597.000000 0 0 1
-15.705255 1.807372 -19.752729 25.300038 -0.114577 2.466644 0.118149 -0.015646 -58379.200000 0 0 1
-15.363455 3.204272 -20.414929 25.750193 -0.205617 2.486197 0.150370 -0.028317 -174425.000000 0 0 1
-14.114155 3.726372 -20.070129 24.817440 -0.258127 2.512753 0.150584 -0.030791 -296282.000000 0 1 0
-13.828755 4.754072 -20.952629 25.550897 -0.331124 2.532268 0.160865 -0.042492 -810874.000000 0 0 1
-12.489255 5.405972 -20.719129 24.788875 -0.408501 2.560428 0.139403 -0.037809 -844017.000000 0 1 0
-12.399855 6.097272 -19.468229 23.873523 -0.457003 2.524343 0.133843 -0.045539 1045950.000000 0 1 0
-11.042755 6.491472 -19.190029 23.072470 -0.531437 2.553010 0.098915 -0.028168 675931.000000 0 1 0
-10.942755 7.172372 -17.815829 22.104085 -0.580193 2.508154 0.082623 -0.022665 -106232.000000 0 1 0
-11.501455 8.476172 -17.646929 22.705573 -0.635106 2.461011 0.087445 -0.033672 1098440.000000 0 1 0
-12.774655 8.449172 -16.946929 22.842476 -0.584348 2.406702 0.124591 -0.030669 1005490.000000 0 1 0
-13.575555 9.764972 -17.045729 23.879013 -0.623566 2.365759 0.138881 -0.032764 160690.000000 0 1 0
-13.068855 10.768872 -16.135029 23.390227 -0.689211 2.332036 0.103050 -0.021144 679148.000000 0 1 0
-13.929155 11.867272 -16.271929 24.487327 -0.705639 2.297626 0.122870 -0.022337 103960.000000 0 1 0
-13.350855 13.058872 -15.467429 24.249141 -0.774343 2.262506 0.116345 -0.015318 90547.900000 0 1 0
-13.223655 12.939872 -14.015429 23.210721 -0.774552 2.219099 0.118273 -0.020588 268504.000000 0 1 0
-12.627755 14.145772 -13.584129 23.325772 -0.842036 2.192432 0.109559 -0.018183 -759076.000000 0 1 0
-12.938455 14.372572 -12.112529 22.818585 -0.837861 2.130363 0.082208 -0.021760 600061.000000 0 1 0
-14.233455 14.895672 -11.847529 23.766283 -0.808128 2.092666 0.069916 -0.017000 575164.000000 0 1 0
-15.304255 13.970972 -11.948629 23.920243 -0.739887 2.093840 0.077351 -0.015096 299838.000000 0 1 0
-16.699555 14.468972 -11.409929 24.867906 -0.713955 2.047465 0.042139 -0.003570 925509.000000 0 1 0
-17.721655 13.502572 -11.560929 25.100430 -0.651090 2.049453 0.040498 -0.007425 -590073.000000 0 0 1
-18.881655 13.866072 -10.885029 25.831545 -0.633421 2.005768 0.124974 -0.014904 -567897.000000 0 0 1
-20.099355 13.202372 -11.559729 26.681717 -0.581179 2.018887 0.115584 -0.026716 -377990.000000 0 0 1
-20.276955 11.818072 -11.321829 26.057735 -0.527701 2.020268 0.130046 -0.032653 -299173.000000 0 0 1
-21.513555 11.436472 -11.843229 27.090368 -0.488602 2.023251 0.176201 -0.033304 -546819.000000 0 0 1
-21.874355 9.989772 -11.415929 26.619662 -0.428402 2.014019 0.172191 -0.033891 -584243.000000 0 0 1
-21.143655 8.960572 -12.025229 25.922040 -0.400849 2.053189 0.139517 -0.039629 203571.000000 0 0 1
-21.287655 7.742172 -11.338829 25.331296 -0.348821 2.034900 0.112675 -0.033851 -250861.000000 0 0 1
-20.097955 6.784472 -11.541929 24.148975 -0.325559 2.069112 0.118570 -0.033625 -266390.000000 0 1 0
-20.088755 6.113272 -12.782929 24.583195 -0.295409 2.117631 0.122914 -0.033771 -482125.000000 0 1 0
-19.194155 5.110872 -12.890729 23.679263 -0.260234 2.146457 0.134686 -0.035478 -973111.000000 0 1 0
-19.793055 3.840472 -13.644929 24.345397 -0.191650 2.165753 0.178790 -0.047996 -134322.000000 0 1 0
-20.827355 3.252372 -12.879829 24.703171 -0.154908 2.119268 0.175329 -0.048225 320006.000000 0 1 0
-21.614555 2.528772 -13.825229 25.782177 -0.116464 2.136763 0.158522 -0.044492 -319111.000000 0 0 1
-22.650955 1.566572 -13.253629 26.290276 -0.069051 2.099167 0.209843 -0.047478 -554663.000000 0 0 1
-23.396755 1.019772 -14.281829 27.430252 -0.043558 2.118420 0.132743 -0.039607 -142500.000000 0 0 1
-23.761955 -0.317728 -13.979629 27.571026 0.013371 2.102544 0.118822 -0.047970 -685110.000000 0 0 1
-24.858255 -0.860228 -14.876829 28.982631 0.034592 2.109824 0.107133 -0.032918 41611.700000 0 0 1
-26.082085 -0.155928 -14.649029 29.914771 0.005978 2.082533 0.123233 -0.046340 407415.000000 0 0 1
-27.215255 -0.677928 -15.321429 31.239012 0.024905 2.083412 0.124971 -0.032621 558184.000000 0 0 1
-28.521795 -0.054028 -14.756829 32.113233 0.001894 2.048256 0.120302 -0.039947 59527.800000 0 0 1
-28.701175 -0.429528 -13.418729 31.686026 0.014964 2.008091 0.137196 -0.031066 -1793470.000000 0 0 1
-29.933905 -0.161528 -12.975329 32.625511 0.005396 1.979811 0.196757 -0.045587 -1764020.000000 0 0 1
-30.031895 -0.462028 -11.436929 32.139253 0.015383 1.934626 0.188080 -0.045581 -158372.000000 0 0 1
-30.331735 -1.811628 -11.089729 32.346225 0.059656 1.920740 0.196242 -0.027464 271759.000000 0 0 1
-29.430965 -2.820228 -11.513429 31.728449 0.095534 1.942147 0.190343 -0.040503 -354972.000000 0 0 1
-29.759385 -4.220828 -10.997029 32.005797 0.140892 1.921539 0.188130 -0.032961 -562028.000000 0 0 1
-30.855705 -4.896628 -11.531429 33.302033 0.157382 1.924386 0.189445 -0.029043 -172746.000000 0 0 1
-31.120105 -6.141728 -10.935029 33.552297 0.194852 1.902770 0.190977 -0.034877 -135917.000000 0 0 1
-30.344975 -7.316528 -11.514829 33.270714 0.236596 1.924202 0.189885 -0.035944 1959700.000000 0 0 1
-28.945305 -7.535628 -11.101629 31.903958 0.254687 1.926202 0.119129 -0.033173 2208140.000000 0 0 1
-28.331595 -8.622228 -11.851629 31.898013 0.295427 1.951472 0.112198 -0.034768 455905.000000 0 0 1
-26.961275 -9.029928 -11.238329 30.573682 0.323180 1.947204 0.112479 -0.046781 772026.000000 0 0 1
-25.890045 -8.121228 -11.622629 29.518372 0.303961 1.975495 0.098526 -0.036144 1786890.000000 0 0 1
-24.641055 -8.205828 -10.899929 28.166038 0.321464 1.968160 0.117920 -0.033522 777265.000000 0 0 1
-24.649155 -7.808328 -9.392029 27.509290 0.306778 1.919216 0.128203 -0.044182 -610179.000000 0 0 1
-24.878255 -6.446428 -9.075629 27.255294 0.253543 1.910265 0.124730 -0.029879 1384590.000000 0 0 1
-26.259975 -6.045528 -9.197029 28.473146 0.226276 1.899702 0.133862 -0.033769 586943.000000 0 0 1
-26.471005 -4.625728 -8.626329 28.222775 0.173000 1.881419 0.141431 -0.031975 -314743.000000 0 0 1
-26.321655 -4.571028 -7.174629 27.662233 0.171946 1.833162 0.144399 -0.030804 437935.000000 0 0 1
-26.366885 -3.192828 -6.732829 27.399595 0.120506 1.819066 0.176166 -0.047060 -75763.400000 0 0 1
-26.051625 -2.964028 -5.230729 26.736364 0.113288 1.767707 0.175059 -0.045552 52978.200000 0 0 1
-24.763455 -3.413528 -4.850929 25.463943 0.136982 1.762470 0.141074 -0.030369 14027.300000 0 0 1
-24.372555 -2.817628 -3.647829 24.804579 0.115096 1.718394 0.121204 -0.023894 -317125.000000 0 1 0
-22.986355 -3.219028 -3.124829 23.420060 0.139136 1.704621 0.100484 -0.013712 -186698.000000 0 1 0
-22.908255 -4.585128 -2.647429 23.512134 0.197542 1.683634 0.108078 -0.013350 454295.000000 0 1 0
-21.565355 -5.005528 -2.450929 22.273907 0.228071 1.681055 0.080365 -0.014067 229153.000000 0 1 0
-21.422655 -6.505428 -2.438129 22.520995 0.294821 1.679269 0.092304 -0.011312 27042.000000 0 1 0
-22.006755 -7.055928 -1.260429 23.144591 0.310270 1.625282 0.096539 -0.004245 526689.000000 0 1 0
-22.632255 -8.298328 -1.490029 24.151634 0.351438 1.632530 0.106998 -0.013237 -118126.000000 0 1 0
-22.734455 -9.188328 -0.158129 24.521538 0.384086 1.577245 0.105984 -0.028249 -187366.000000 0 1 0
-21.533955 -9.746528 0.343171 23.639455 0.425024 1.556279 0.065967 -0.018756 123116.000000 0 1 0
-21.656455 -10.576928 1.495071 24.147644 0.454321 1.508843 0.030331 -0.018761 -217689.000000 0 1 0
-20.310055 -11.169828 1.949571 23.260788 0.502817 1.486884 0.042265 -0.019146 -370057.000000 0 1 0
-19.838355 -12.064428 0.973471 23.239157 0.546381 1.528895 0.046733 -0.009173 -80152.700000 0 1 0
-18.709255 -12.687128 1.510171 22.655685 0.595890 1.504089 0.022529 -0.020157 -545677.000000 0 1 0
-18.228255 -13.928228 0.757971 22.952981 0.652465 1.537768 0.031925 -0.008294 -266658.000000 0 1 0
-19.202655 -14.938928 0.874371 24.344981 0.661158 1.534873 0.073283 -0.011421 388949.000000 0 1 0
-18.763355 -16.232628 0.418271 24.814042 0.713209 1.553939 0.071081 -0.020867 501579.000000 0 1 0
-17.600755 -16.901428 1.245571 24.433508 0.765132 1.519796 0.088706 -0.019685 -298001.000000 0 1 0
-16.361555 -16.306028 1.080671 23.124768 0.783698 1.524047 0.085769 -0.012192 -1027150.000000 0 1 0
-15.265555 -16.924428 1.662871 22.852540 0.836886 1.497967 0.092013 -0.016822 -16178.700000 0 1 0
-15.121255 -16.655628 3.174271 22.718678 0.833647 1.430617 0.097075 -0.022355 -463180.000000 0 1 0
-14.852755 -15.299528 3.459071 21.601969 0.800214 1.409976 0.066343 -0.021031 238789.000000 0 1 0
-14.079055 -15.024628 4.634871 21.105480 0.817877 1.349387 0.045235 -0.022695 367281.000000 0 1 0
-14.744855 -15.418528 5.986671 22.158114 0.807729 1.297217 0.113818 -0.027831 5188.110000 0 1 0
-15.810255 -14.651228 6.537971 22.524825 0.747368 1.276302 0.103699 -0.024260 512392.000000 0 1 0
-16.154455 -14.942428 7.882771 23.374787 0.746442 1.226819 0.124596 -0.024798 -234751.000000 0 1 0
-17.021755 -16.148728 8.218671 24.860976 0.759085 1.233873 0.118383 -0.023558 -301079.000000 0 1 0
-16.353455 -17.400528 8.059871 25.202687 0.816409 1.245276 0.120928 -0.020501 82578.700000 0 0 1
-17.125355 -18.465128 8.559071 26.598806 0.823025 1.243183 0.127025 -0.033449 12200.600000 0 0 1
-16.847455 -18.872228 10.040171 27.217693 0.842023 1.192988 0.145784 -0.030476 353494.000000 0 0 1
-15.555255 -19.409028 10.292971 26.918796 0.895175 1.178435 0.099323 -0.023294 202752.000000 0 0 1
-15.272055 -19.713128 11.655371 27.526183 0.911664 1.133570 0.108741 -0.019889 124947.000000 0 0 1
-13.854055 -20.307428 11.797871 27.267494 0.972106 1.123342 0.096491 -0.018958 -26358.500000 0 0 1
-12.800255 -19.415828 11.569871 25.974658 0.987933 1.109143 0.093791 -0.022839 -404137.000000 0 0 1
-11.600955 -20.042628 11.999971 26.082339 1.046100 1.092711 0.101776 -0.023291 170758.000000 0 0 1
-10.414855 -19.115328 12.294571 25.000429 1.071921 1.056670 0.105313 -0.031952 -18749.900000 0 0 1
-9.723255 -18.672428 11.124471 23.810820 1.090704 1.084672 0.095591 -0.029680 -1951.750000 0 1 0
-8.634155 -17.898028 11.612871 23.016230 1.121321 1.041934 0.084346 -0.028560 82281.100000 0 1 0
-7.680555 -17.347128 10.546171 21.705656 1.153982 1.063436 0.054431 -0.022414 -194834.000000 0 1 0
-6.769755 -18.298528 10.072671 21.957332 1.216450 1.094221 0.051805 -0.024603 -465736.000000 0 1 0
-6.020055 -17.716728 9.027071 20.775263 1.243242 1.121302 0.038155 -0.012819 488610.000000 0 1 0
-4.855455 -18.595528 8.418071 20.981731 1.315390 1.157959 0.039236 -0.011996 1154230.000000 0 1 0
-3.678455 -18.499528 9.221871 20.995392 1.374516 1.116052 0.053361 -0.014107 25397.200000 0 1 0
-2.546455 -18.902428 8.495771 20.879760 1.436887 1.151749 0.053614 -0.018466 113419.000000 0 1 0
-1.157255 -18.965528 9.146071 21.087464 1.509853 1.122178 0.059210 -0.029322 517683.000000 0 1 0
-0.205255 -19.635528 8.292371 21.315711 1.560343 1.171222 0.068858 -0.020896 179697.000000 0 1 0
1.016745 -19.775728 8.987671 21.746067 -1.519428 1.144720 0.071330 -0.031442 307402.000000 0 1 0
2.233445 -20.345728 8.208771 22.052684 -1.461459 1.189381 0.066438 -0.040944 336176.000000 0 1 0
2.250545 -21.685628 7.766671 23.144170 -1.467386 1.228578 0.092587 -0.038828 -329440.000000 0 1 0
2.587145 -22.635528 8.727471 24.397320 -1.456994 1.204968 0.103662 -0.043799 -107196.000000 0 1 0
2.473345 -24.022628 8.185471 25.499138 -1.468199 1.244001 0.125044 -0.046751 157403.000000 0 0 1
2.672345 -24.991308 9.180071 26.757814 -1.464270 1.220602 0.119493 -0.050648 -93244.100000 0 0 1
2.502345 -26.292608 8.726971 27.815877 -1.475909 1.251666 0.132409 -0.051804 -1279200.000000 0 0 1
2.335645 -27.228118 9.933071 29.077338 -1.485225 1.222168 0.140468 -0.054342 709516.000000 0 0 1
1.224645 -26.940038 10.789071 29.045989 -1.525369 1.190228 0.148061 -0.055067 615347.000000 0 0 1
-0.083855 -27.017258 10.228271 28.888697 1.567693 1.208890 0.150226 -0.043199 28259.900000 0 0 1
-1.171355 -26.925118 11.325071 29.233394 1.527320 1.172985 0.138876 -0.047187 269425.000000 0 0 1
-1.023555 -28.029498 12.165871 30.573009 1.534295 1.161539 0.146343 -0.051784 -116817.000000 0 0 1
-1.631755 -27.752958 13.429571 30.874629 1.512068 1.120790 0.133458 -0.056375 213585.000000 0 0 1
-1.433655 -29.010448 14.290671 32.371048 1.521418 1.113566 0.115490 -0.050552 102300.000000 0 0 1
-1.868755 -28.899268 15.611671 32.899608 1.506222 1.076373 0.127653 -0.053364 -108138.000000 0 0 1
-1.715755 -30.085418 16.301571 34.261019 1.513829 1.074917 0.140450 -0.052690 84845.900000 0 0 1
-1.817255 -30.065058 17.810671 34.991858 1.510426 1.036780 0.142314 -0.048763 -31675.300000 0 0 1
-3.142155 -29.777028 18.191171 35.035172 1.465663 1.024851 0.142547 -0.044717 -49317.700000 0 0 1
-3.165155 -29.511878 19.585871 35.560871 1.463955 0.987509 0.129982 -0.046044 -433257.000000 0 0 1
-4.561455 -29.313018 20.160671 35.867988 1.416423 0.973898 0.136803 -0.041424 -384590.000000 0 0 1
-5.234655 -28.129948 19.677071 34.725822 1.386812 0.968373 0.109338 -0.034208 95383.400000 0 0 1
-6.411955 -27.850278 20.406071 35.116362 1.344510 0.950718 0.103187 -0.033065 47386.700000 0 0 1
-6.229355 -26.881648 21.609471 35.048497 1.343083 0.906432 0.151340 -0.038933 -289516.000000 0 0 1
-5.435855 -27.375728 22.689671 35.969434 1.374781 0.888207 0.164559 -0.040752 84790.500000 0 0 1
-5.192455 -26.352438 23.619071 35.766928 1.376250 0.849497 0.194295 -0.043245 -192757.000000 0 0 1
-4.040055 -26.623798 24.617971 36.485520 1.420199 0.830194 0.218146 -0.043592 110824.000000 0 0 1
-4.253255 -27.899908 25.228271 37.854468 1.419514 0.841354 0.203711 -0.045528 339655.000000 0 0 1
-3.531355 -28.957628 24.571471 38.141472 1.449446 0.870794 0.197400 -0.041051 107500.000000 0 0 1
-3.778655 -30.337768 25.268071 39.662751 1.446882 0.880101 0.187850 -0.036523 268552.000000 0 0 1
-3.303955 -30.292418 26.596371 40.446430 1.462157 0.853207 0.182178 -0.048239 102605.000000 0 0 1
-3.790055 -31.442758 27.237871 41.772158 1.450837 0.860501 0.151621 -0.033476 -297974.000000 0 0 1
-3.562255 -31.523928 28.720971 42.794181 1.458272 0.835048 0.179683 -0.034394 -1021280.000000 0 0 1
-2.224255 -31.662298 29.049471 43.026971 1.500662 0.829634 0.178461 -0.036396 -605154.000000 0 0 1
-2.068055 -31.793148 30.427171 44.055577 1.505841 0.808403 0.169805 -0.052445 34764.300000 0 0 1
-29.007045 2.599172 -9.629729 30.674029 -0.089366 1.890134 0.224225 -0.041685 -685120.000000 0 0 1
-29.885785 2.442572 -10.681529 31.831139 -0.081549 1.913005 0.210015 -0.052106 -364055.000000 0 0 1
-30.523285 3.579872 -11.137229 32.688290 -0.116750 1.918468 0.204732 -0.048958 -12439.400000 0 0 1
-31.326675 3.308972 -12.461129 33.876092 -0.105238 1.947486 0.193169 -0.047597 537870.000000 0 0 1
-32.442495 2.435672 -12.229529 34.756429 -0.074936 1.930358 0.209053 -0.050987 813829.000000 0 0 1
-33.338035 2.397372 -13.335529 35.986224 -0.071787 1.950422 0.213680 -0.051276 1570420.000000 0 0 1
-34.733992 1.642072 -13.093429 37.156218 -0.047240 1.930919 0.224994 -0.049282 1407460.000000 0 0 1
-34.666643 0.292772 -12.736829 36.933571 -0.008445 1.922884 0.232854 -0.046974 -776572.000000 0 0 1
-35.947200 -0.214128 -12.622429 38.099511 0.005957 1.908479 0.224827 -0.041008 -446568.000000 0 0 1
-35.916189 -1.704928 -12.255229 37.987762 0.047434 1.899282 0.223618 -0.038609 118906.000000 0 0 1
-35.267168 -2.488228 -13.222729 37.746589 0.070437 1.928691 0.217281 -0.031545 84747.200000 0 0 1
-34.978675 -3.804128 -12.677229 37.399081 0.108330 1.916620 0.216107 -0.032167 177125.000000 0 0 1
-35.020810 -4.950328 -13.727929 37.939675 0.140424 1.941033 0.219409 -0.031956 164020.000000 0 0 1
-34.681747 -6.192428 -13.152729 37.605373 0.176688 1.928108 0.209264 -0.035186 305029.000000 0 0 1
-35.161077 -7.136128 -14.077929 38.541066 0.200236 1.944720 0.203125 -0.030001 -289469.000000 0 0 1
-35.000086 -8.569028 -13.561329 38.501219 0.240106 1.930750 0.179004 -0.033900 882824.000000 0 0 1
-33.645805 -9.029128 -13.355529 37.308652 0.262181 1.936894 0.178426 -0.036345 1319600.000000 0 0 1
-32.992525 -9.473628 -14.540229 37.278340 0.279622 1.971477 0.173928 -0.035667 467826.000000 0 0 1
-31.744175 -10.400528 -14.357929 36.359508 0.316614 1.976742 0.152565 -0.039007 290043.000000 0 0 1
-32.166085 -11.724928 -14.062029 37.011777 0.349544 1.960521 0.132535 -0.036943 204290.000000 0 0 1
-31.155445 -12.649128 -13.709629 36.312755 0.385669 1.957938 0.145894 -0.039183 -289895.000000 0 0 1
-31.418775 -14.066728 -14.343329 37.292672 0.420954 1.965587 0.156582 -0.028924 -178184.000000 0 0 1
-31.342515 -13.937528 -15.737229 37.739480 0.418425 2.000935 0.154110 -0.030916 132219.000000 0 0 1
-31.478375 -15.155328 -16.438829 38.610972 0.448699 2.010593 0.164087 -0.037324 87716.000000 0 0 1
-30.353925 -16.240628 -16.233129 38.060915 0.491287 2.011420 0.133633 -0.021903 316641.000000 0 0 1
-29.106655 -15.643228 -16.505129 36.936801 0.493153 2.034035 0.146540 -0.028887 245996.000000 0 0 1
-27.959215 -16.462328 -16.199529 36.265007 0.532142 2.033868 0.151783 -0.025881 1440890.000000 0 0 1
-26.630365 -15.890528 -16.785729 35.262529 0.537995 2.066922 0.150260 -0.023496 631512.000000 0 0 1
-26.739765 -15.794328 -18.233829 36.013170 0.533530 2.101697 0.143409 -0.031735 972902.000000 0 0 1
-25.419515 -15.496328 -18.721329 35.167828 0.547465 2.132162 0.103381 -0.026316 897714.000000 0 0 1
-25.680925 -15.061728 -20.199829 35.977753 0.530430 2.166937 0.105372 -0.031769 131139.000000 0 0 1
-26.060135 -16.029528 -21.135729 37.185958 0.551447 2.175331 0.108528 -0.038387 -330780.000000 0 0 1
-27.450355 -16.111528 -21.240229 38.265529 0.530756 2.159249 0.135134 -0.049165 -647627.000000 0 0 1
-28.020355 -17.407128 -21.828929 39.555664 0.555885 2.155381 0.137630 -0.050150 -214574.000000 0 0 1
-27.487405 -17.479728 -23.183329 39.982060 0.566412 2.189333 0.117367 -0.039265 302894.000000 0 0 1
-27.834305 -18.725828 -23.698129 41.073185 0.592210 2.185814 0.115224 -0.047661 -184504.000000 0 0 1
-27.085735 -19.145928 -24.977529 41.522050 0.615318 2.216235 0.096863 -0.046701 -377623.000000 0 0 1
-25.735375 -19.467028 -24.965829 40.799110 0.647604 2.229283 0.096049 -0.040254 -619328.000000 0 0 1
-25.460515 -20.764028 -24.444029 40.949887 0.684144 2.210460 0.094374 -0.040299 -1006500.000000 0 0 1
-24.014255 -21.211328 -24.455729 40.307414 0.723501 2.222737 0.094774 -0.021075 -573095.000000 0 0 1
-23.369155 -21.226728 -25.696999 40.706599 0.737394 2.253991 0.086636 -0.022325 -1214620.000000 0 0 1
-22.011155 -21.412328 -25.600659 39.979651 0.771609 2.265740 0.067995 -0.019251 -1146560.000000 0 0 1
-21.372155 -21.262028 -26.984969 40.460245 0.782815 2.300904 0.053712 -0.011493 -462570.000000 0 0 1
-21.665855 -22.263728 -27.893749 41.750978 0.799007 2.302446 0.076348 -0.018663 -278005.000000 0 0 1
-22.034955 -21.702028 -29.119069 42.478671 0.777786 2.326085 0.082564 -0.011365 -466396.000000 0 0 1
-21.099855 -21.909728 -30.286829 42.924726 0.804226 2.354038 0.078160 -0.019144 -261890.000000 0 0 1
-20.888655 -23.245528 -30.786259 43.868944 0.838750 2.348687 0.077873 -0.033551 -250992.000000 0 0 1
-20.180255 -23.161128 -31.988559 44.350293 0.854067 2.376431 0.076780 -0.029698 -212240.000000 0 0 1
-19.942955 -24.589528 -32.582999 45.431467 0.889363 2.370558 0.091552 -0.030305 -54043.100000 0 0 1
-19.391955 -24.721128 33.476006 45.911056 0.905623 0.753719 0.094126 -0.036760 98379.400000 0 0 1
-20.104755 -24.006128 32.439236 45.086577 0.873613 0.767732 0.089004 -0.022111 -212941.000000 0 0 1
-19.366955 -23.894828 31.087836 43.732086 0.889681 0.780062 0.090167 -0.017854 63083.300000 0 0 1
-18.491855 -22.768028 31.032196 42.700457 0.888669 0.757230 0.069367 -0.018847 2077.710000 0 0 1
-17.807755 -22.756628 29.784286 41.498000 0.906799 0.770262 0.076815 -0.017301 236703.000000 0 0 1
-16.890255 -21.534828 29.566406 40.288980 0.905688 0.746812 0.060945 -0.014649 145866.000000 0 0 1
-17.654055 -20.345228 29.423756 39.891746 0.856102 0.741302 0.060321 -0.019701 356014.000000 0 0 1
-16.841055 -19.193828 29.238486 38.818981 0.850597 0.717882 0.066809 -0.020816 126100.000000 0 0 1
-16.324655 -18.452728 30.448846 39.167969 0.846513 0.680288 0.071957 -0.025420 -115855.000000 0 0 1
-15.708755 -17.235828 30.230736 38.180311 0.831718 0.657065 0.081677 -0.026269 -306795.000000 0 0 1
-15.346555 -16.651028 31.477225 38.776142 0.826143 0.623623 0.075324 -0.027344 191192.000000 0 0 1
-14.639755 -15.264328 31.243446 37.728969 0.806281 0.595082 0.084974 -0.032097 451307.000000 0 0 1
-13.312655 -15.363728 30.750636 36.862889 0.856801 0.584135 0.090715 -0.036561 139702.000000 0 0 1
-12.925055 -14.207528 30.003366 35.624611 0.832630 0.569429 0.079948 -0.034269 742328.000000 0 0 1
-11.401455 -14.232428 29.627216 34.789756 0.895391 0.551752 0.110147 -0.036817 926223.000000 0 0 1
-10.963855 -12.863628 29.485616 33.986477 0.864960 0.520503 0.118152 -0.039108 -335519.000000 0 0 1
-9.613455 -12.626128 29.785486 33.749264 0.920043 0.489534 0.100779 -0.035336 -18904.200000 0 0 1
-9.338055 -11.121328 29.690526 33.051635 0.872340 0.454895 0.072676 -0.024083 95990.400000 0 0 1
-10.149655 -10.469328 30.680716 33.969526 0.800901 0.443667 0.066398 -0.017129 445213.000000 0 0 1
-9.857855 -9.085828 30.709916 33.508634 0.744667 0.411610 0.035461 -0.009249 -235345.000000 0 0 1
-10.681855 -8.300728 31.725647 34.489430 0.660612 0.403058 0.020273 -0.011062 514572.000000 0 0 1
-11.980855 -7.949028 31.229626 34.380481 0.585792 0.431467 0.045872 -0.023430 935204.000000 0 0 1
-12.950955 -7.361828 32.112413 35.399588 0.516890 0.434357 0.041776 -0.025115 434071.000000 0 0 1
-12.677255 -5.955728 32.721128 35.592917 0.439194 0.404458 0.027299 -0.023201 -451713.000000 0 0 1
-12.511355 -4.955828 31.721236 34.457670 0.377145 0.401219 0.023019 -0.027239 327144.000000 0 0 1
-12.903855 -3.637228 32.124124 34.809456 0.274743 0.395365 0.036248 -0.031425 -481154.000000 0 0 1
-12.308855 -2.599428 31.183626 33.625637 0.208126 0.383458 0.054837 -0.028006 444298.000000 0 0 1
-10.893755 -2.478428 31.355308 33.286211 0.223701 0.342283 0.054594 -0.027557 519182.000000 0 0 1
-10.377255 -1.573428 30.407496 32.167980 0.150477 0.332369 0.059851 -0.025693 -792884.000000 0 0 1
-8.920455 -1.228128 30.654876 31.950027 0.136815 0.285705 0.082758 -0.026037 -656037.000000 0 0 1
-8.694655 -0.797928 31.930164 33.102403 0.091516 0.266921 0.102833 -0.038889 433130.000000 0 0 1
-7.356255 -0.310728 32.059497 32.894109 0.042215 0.225746 0.123784 -0.038074 542566.000000 0 0 1
-7.207155 0.302472 33.491026 34.259063 -0.041944 0.212145 0.162162 -0.056486 -416839.000000 0 0 1
-7.825455 1.529572 -33.679629 34.610616 -0.193027 2.909126 0.149146 -0.052095 -143595.000000 0 0 1
-7.118155 2.643072 33.179173 34.036913 -0.355535 0.224975 0.159738 -0.046144 102583.000000 0 0 1
-7.891655 3.982572 33.355676 34.507104 -0.467366 0.259056 0.150931 -0.047250 315874.000000 0 0 1
-8.982055 4.032272 32.450294 33.911032 -0.421960 0.294579 0.127430 -0.034073 64112.900000 0 0 1
-9.766155 5.182072 32.644927 34.466258 -0.487839 0.326545 0.111027 -0.020734 377358.000000 0 0 1
-11.120455 5.219972 31.861103 34.147365 -0.438872 0.368004 0.094334 -0.015174 840309.000000 0 0 1
-11.804455 6.499472 32.073077 34.788943 -0.503300 0.397755 0.093877 -0.014646 187273.000000 0 0 1
-12.871255 6.670372 31.160446 34.367666 -0.478131 0.435453 0.063119 -0.010699 199957.000000 0 0 1
-13.769655 7.886272 31.538255 35.305215 -0.520125 0.466155 0.080309 -0.019351 221659.000000 0 0 1
-14.568155 7.681272 32.706692 36.619131 -0.485221 0.466476 0.068534 -0.015961 111405.000000 0 0 1
-15.388255 8.808372 32.881645 37.357575 -0.519885 0.494541 0.082317 -0.014335 49824.700000 0 0 1
-16.144355 8.820472 -33.132149 37.896969 -0.500037 2.634724 0.068904 -0.013558 72021.500000 0 0 1
-15.323955 9.159472 -32.047359 36.684503 -0.538743 2.633335 0.068814 -0.014806 -39975.200000 0 0 1
-16.114155 9.571172 -30.932049 36.167181 -0.535967 2.596833 0.069920 -0.017188 219525.000000 0 0 1
-15.200455 9.747372 -29.612079 34.683430 -0.570203 2.594003 0.084691 -0.027886 910474.000000 0 0 1
-14.308155 10.821372 -29.492369 34.519925 -0.647526 2.595110 0.104840 -0.029916 -186484.000000 0 0 1
-13.218755 10.653672 -30.381109 34.802988 -0.678359 2.632004 0.107196 -0.036149 -440853.000000 0 0 1
-12.368355 11.946672 -30.534399 35.043526 -0.768057 2.628698 0.103971 -0.032108 412923.000000 0 0 1
-13.181755 12.941872 -31.170489 36.233273 -0.776216 2.606600 0.099731 -0.037328 531317.000000 0 0 1
-12.452255 14.137372 -31.481529 36.688017 -0.848688 2.602330 0.100425 -0.039424 140830.000000 0 0 1
-12.740155 15.430572 -30.688009 36.635611 -0.880613 2.563772 0.112210 -0.037226 -197034.000000 0 0 1
-13.929455 16.075172 -31.058439 37.643957 -0.856789 2.541101 0.096589 -0.036878 -89812.000000 0 0 1
-14.308255 17.105372 -30.148079 37.499688 -0.874205 2.504713 0.076105 -0.026663 -836737.000000 0 0 1
-15.707755 17.580472 -30.477839 38.531873 -0.841597 2.483201 0.058663 -0.032681 -1079530.000000 0 0 1
-15.677755 18.372772 -31.645229 39.809186 -0.864381 2.489677 0.058637 -0.034040 579114.000000 0 0 1
-16.890355 19.115272 -31.822249 40.783983 -0.847113 2.465883 0.048806 -0.030695 553958.000000 0 0 1
-17.417355 20.099972 -30.707029 40.623820 -0.856780 2.427805 0.028840 -0.032463 -322128.000000 0 0 1
-16.784055 21.395072 -30.720729 41.027025 -0.905589 2.417035 0.034440 -0.025723 536848.000000 0 0 1
-17.533055 22.407072 -30.026659 41.365265 -0.906831 2.383125 0.021158 -0.021406 429585.000000 0 0 1
-18.863655 22.839872 -30.691389 42.655112 -0.880456 2.373913 0.040050 -0.017458 576203.000000 0 0 1
-20.047355 22.154872 -30.251299 42.519124 -0.835295 2.362392 0.048478 -0.020647 632023.000000 0 0 1
-21.057155 22.235172 -31.239139 43.745748 -0.812602 2.366144 0.079960 -0.031804 -1247440.000000 0 0 1
-22.283455 21.406772 -30.878029 43.683577 -0.765335 2.355841 0.089842 -0.034887 -267736.000000 0 0 1
-23.189255 22.005072 -29.944919 43.802545 -0.759202 2.323527 0.135441 -0.033030 529123.000000 0 0 1
-23.945555 23.130872 -30.405959 45.088238 -0.768094 2.310902 0.143547 -0.031450 -121411.000000 0 0 1
-25.367075 22.760972 -30.931459 46.025053 -0.731302 2.307779 0.151608 -0.043065 -88987.800000 0 0 1
-25.323085 21.940572 -32.091409 46.395106 -0.713953 2.334634 0.157268 -0.042174 212921.000000 0 0 1
-26.592985 21.552972 -32.568049 47.248230 -0.681096 2.331314 0.166786 -0.043243 -367985.000000 0 0 1
-26.518045 20.733472 33.515566 47.501334 -0.663583 0.787568 0.151453 -0.031326 -146750.000000 0 0 1
-26.085045 19.406872 -33.641549 46.784721 -0.639640 2.373261 0.143302 -0.033883 233100.000000 0 0 1
-25.764965 18.779772 32.503761 45.530295 -0.629852 0.775754 0.128501 -0.040463 -159189.000000 0 0 1
-24.994265 17.444272 32.693587 44.697724 -0.609336 0.750369 0.103921 -0.018571 205235.000000 0 0 1
-25.806705 16.359272 33.182220 45.107333 -0.564985 0.744203 0.106656 -0.017174 449850.000000 0 0 1
-26.363165 15.604672 32.165774 44.420258 -0.534451 0.761033 0.103310 -0.011683 -439632.000000 0 0 1
-27.177485 14.446872 32.757508 44.948661 -0.488587 0.754264 0.077639 -0.006588 -105947.000000 0 0 1
-28.450005 14.864872 33.225969 46.198833 -0.481478 0.768153 0.081929 -0.007364 622637.000000 0 0 1
-29.560335 13.954972 33.106222 46.525010 -0.441067 0.779053 0.072605 -0.002965 693814.000000 0 0 1
-29.525385 12.605972 -33.523779 46.416621 -0.403524 2.377827 0.072699 -0.007995 236564.000000 0 0 1
-28.462005 11.706372 33.439826 45.446087 -0.390208 0.743930 0.068298 -0.008144 350924.000000 0 0 1
-28.783895 10.403672 -33.591579 45.443847 -0.346830 2.402661 0.080819 -0.012151 -791921.000000 0 0 1
-27.624395 9.435972 -33.413769 44.369187 -0.329155 2.423535 0.066683 -0.016356 136148.000000 0 0 1
-26.756415 8.987272 32.884810 43.336907 -0.324052 0.709301 0.061023 -0.013251 205366.000000 0 0 1
-25.854875 10.005872 32.526160 42.738076 -0.369251 0.705854 0.054314 -0.010106 -1319250.000000 0 0 1
-24.677755 9.280372 31.883604 41.372468 -0.359702 0.690939 0.040815 -0.004599 -742981.000000 0 0 1
-24.631255 9.350772 30.482096 40.290121 -0.362824 0.712752 0.050448 -0.002371 451916.000000 0 0 1
-23.326655 9.117772 29.959246 39.048982 -0.372614 0.696297 0.051844 -0.011441 566915.000000 0 0 1
-23.335455 9.029872 28.414236 37.860941 -0.369214 0.721994 0.072750 -0.016676 -62176.300000 0 0 1
-23.589955 10.285372 27.801806 37.884235 -0.411156 0.746806 0.069702 -0.012268 220316.000000 0 0 1
-23.888555 10.146272 26.420056 37.035513 -0.401645 0.776500 0.068855 -0.015894 -771606.000000 0 0 1
-24.114455 11.472072 25.645526 37.024429 -0.444047 0.805619 0.070920 -0.011307 859479.000000 0 0 1
-25.391085 12.100872 25.839306 38.194346 -0.444736 0.827767 0.073013 -0.012920 1204110.000000 0 0 1
-26.491865 11.475972 25.145716 38.286079 -0.408786 0.854249 0.082132 -0.014410 587000.000000 0 0 1
-27.850585 12.200972 25.330996 39.574969 -0.412903 0.876199 0.081797 -0.012232 159996.000000 0 0 1
-27.864195 13.507172 24.759576 39.647114 -0.451373 0.896307 0.084919 -0.017367 15370.800000 0 0 1
-29.112595 14.154872 24.945986 40.868151 -0.452556 0.914229 0.072694 -0.021046 345623.000000 0 0 1
-29.224725 15.527172 24.120826 40.951091 -0.488375 0.940956 0.086599 -0.023827 191107.000000 0 0 1
-28.438025 16.557172 24.716866 41.155615 -0.527243 0.926581 0.093749 -0.018444 89343.900000 0 0 1
-28.317795 17.652772 23.896096 41.043164 -0.557434 0.949341 0.078958 -0.026694 -82584.500000 0 0 1
-23.782155 -8.745328 31.548712 40.464712 0.352379 0.676674 0.112122 -0.029633 456102.000000 0 0 1
-22.611955 -8.393728 30.804566 39.123861 0.355442 0.664281 0.117201 -0.039081 489370.000000 0 0 1
-22.916255 -8.204128 29.419086 38.183047 0.343788 0.691210 0.109601 -0.039712 223414.000000 0 0 1
-21.634555 -7.907228 28.612256 36.731995 0.350408 0.677812 0.131321 -0.037941 -635568.000000 0 0 1
-21.125055 -6.627028 28.781486 36.311973 0.303982 0.655707 0.131698 -0.037842 960580.000000 0 0 1
-19.697755 -6.448828 28.781836 35.468056 0.316391 0.624106 0.124487 -0.030924 455009.000000 0 0 1
-18.749655 -6.930628 27.723576 34.178646 0.354064 0.624702 0.113564 -0.038145 -1373940.000000 0 0 1
-18.522355 -8.392528 27.652596 34.324601 0.425431 0.634075 0.112405 -0.039086 158106.000000 0 0 1
-18.006255 -9.063928 28.780836 35.138534 0.466345 0.611012 0.100182 -0.040347 147025.000000 0 0 1
-16.596455 -8.725528 29.395176 34.866224 0.484032 0.567803 0.076206 -0.035465 51937.300000 0 0 1
-15.556255 -8.941828 28.503826 33.681174 0.521688 0.561826 0.067543 -0.024601 -914988.000000 0 0 1
-14.328755 -8.590928 29.104116 33.558409 0.540095 0.521109 0.063616 -0.029979 -11532.900000 0 0 1
-13.173855 -9.464028 28.573216 32.856460 0.622965 0.516328 0.066274 -0.027403 -240084.000000 0 0 1
-12.882255 -9.309228 27.230546 31.529619 0.625759 0.528331 0.081021 -0.032620 -817389.000000 0 0 1
-11.915655 -10.180828 26.817996 31.061826 0.707047 0.528876 0.095834 -0.038891 -585627.000000 0 0 1
-11.352455 -9.869328 25.397066 29.517670 0.715625 0.534738 0.087675 -0.036113 46056.900000 0 0 1
-12.303455 -10.174728 24.400616 29.159735 0.690978 0.579400 0.086221 -0.036605 -270719.000000 0 0 1
-11.894555 -9.971728 23.084216 27.817204 0.697688 0.591950 0.105045 -0.045664 -33849.900000 0 0 1
-12.877655 -10.517128 21.992556 27.570211 0.684839 0.647337 0.133854 -0.058701 -121403.000000 0 0 1
-12.949255 -11.896328 22.011656 28.173016 0.743045 0.674046 0.117348 -0.050703 519764.000000 0 0 1
-14.212155 -12.435528 21.641956 28.722848 0.718826 0.717464 0.117371 -0.051030 852920.000000 0 0 1
-15.445955 -12.330928 22.594346 30.018891 0.673720 0.718687 0.121827 -0.051184 17943.700000 0 0 1
-16.588655 -12.997028 22.128956 30.558091 0.664592 0.760980 0.084321 -0.037295 -99721.000000 0 0 1
-17.725855 -12.703428 22.912876 31.631992 0.621821 0.760694 0.078243 -0.030425 409603.000000 0 0 1
-19.049455 -13.327828 22.360096 32.256575 0.610487 0.804884 0.089123 -0.029397 -35576.400000 0 0 1
-19.127255 -14.745928 22.398976 32.939466 0.656767 0.823028 0.081940 -0.020837 1242810.000000 0 0 1
-20.496855 -15.240828 22.419856 33.986083 0.639373 0.850407 0.062798 -0.013263 975225.000000 0 0 1
-21.207455 -15.079828 23.833946 35.287595 0.618112 0.829262 0.069114 -0.018813 -357495.000000 0 0 1
-20.853455 -16.087128 24.743476 36.137265 0.657080 0.816593 0.070167 -0.013399 -136161.000000 0 0 1
-21.518655 -16.023428 25.978676 37.345607 0.640055 0.801502 0.062973 -0.019344 -405966.000000 0 0 1
-20.886755 -16.930528 27.046236 38.136573 0.681163 0.782442 0.064271 -0.015773 -96378.200000 0 0 1
-21.006355 -18.307928 26.664276 38.567225 0.716868 0.807411 0.071289 -0.008283 184614.000000 0 0 1
-20.673655 -19.169128 27.722086 39.539468 0.747655 0.793823 0.063507 -0.009044 -191047.000000 0 0 1
-20.731555 -20.667528 27.274196 40.010322 0.783852 0.820741 0.061985 -0.007304 -117479.000000 0 0 1
-22.053055 -21.124928 27.083546 40.818113 0.763906 0.845285 0.065881 -0.006529 138417.000000 0 0 1
-21.961555 -22.509628 26.699456 41.253536 0.797722 0.866885 0.073004 -0.004154 175928.000000 0 0 1
-23.340855 -23.092328 26.331156 42.087776 0.780046 0.894864 0.077559 -0.001072 -314785.000000 0 0 1
-24.148255 -23.349528 27.425326 43.364585 0.768584 0.886102 0.069674 0.002377 52318.800000 0 0 1
-25.359515 -23.984128 27.011056 44.135480 0.757532 0.912205 0.057788 0.007107 458837.000000 0 0 1
-25.911085 -25.116948 27.922206 45.627788 0.769837 0.912265 0.037593 0.008317 166620.000000 0 0 1
-26.763185 -24.614328 28.964176 46.487167 0.743598 0.898151 0.031956 0.018138 399771.000000 0 0 1
-27.335195 -25.647508 29.725356 47.839360 0.753555 0.900322 0.016644 0.022467 -312406.000000 0 0 1
-28.364495 -25.094218 30.695466 48.749113 0.724300 0.889678 0.031397 0.008130 84014.300000 0 0 1
-29.519095 -24.494428 30.135896 48.780388 0.692639 0.904871 0.031296 0.008114 -184529.000000 0 0 1
-30.319995 -23.772328 30.966926 49.430519 0.664938 0.893775 0.050740 -0.012591 173957.000000 0 0 1
-31.594085 -23.251728 30.200206 49.506379 0.634450 0.914702 0.067410 -0.020025 642443.000000 0 0 1
-32.678175 -24.137928 29.992886 50.498277 0.636201 0.934850 0.073239 -0.019738 274918.000000 0 0 1
-33.673345 -23.585228 29.118486 50.378998 0.611003 0.954535 0.071243 -0.019889 299131.000000 0 0 1
-35.053388 -24.160928 29.466746 51.776246 0.603482 0.965365 0.079294 -0.021348 -337455.000000 0 0 1
-35.052789 -25.555668 29.379206 52.392060 0.629966 0.975497 0.081914 -0.025220 -143633.000000 0 0 1
-36.303595 -26.111128 29.702156 53.683891 0.623525 0.984501 0.086693 -0.016714 -8257.280000 0 0 1
-36.153575 -27.614878 29.970616 54.478439 0.652288 0.988268 0.089664 -0.023348 251060.000000 0 0 1
-35.401023 -27.954938 31.141096 54.813127 0.668407 0.966562 0.083814 -0.026394 252750.000000 0 0 1
-34.909937 -29.279988 31.172066 55.206151 0.697914 0.970789 0.084080 -0.039544 231494.000000 0 0 1
-33.874005 -29.636558 32.258263 55.374808 0.718777 0.948941 0.077975 -0.029536 -178766.000000 0 0 1
-34.467636 -29.826728 33.489826 56.561649 0.713341 0.937141 0.086151 -0.016261 86776.500000 0 0 1
-33.516345 -30.246718 -32.905679 55.865849 0.734165 2.200633 0.075108 -0.016729 219581.000000 0 0 1
-33.867345 -29.887408 -31.463549 55.047336 0.723053 2.179217 0.077642 -0.020767 85864.900000 0 0 1
-33.983056 -28.514438 -31.185879 54.226196 0.698119 2.183532 0.070471 -0.014294 327052.000000 0 0 1
-32.695445 -28.000078 -30.850099 52.959656 0.708193 2.192623 0.068080 -0.016862 331088.000000 0 0 1
-32.661565 -26.468898 -30.560029 51.973992 0.681050 2.199364 0.060013 -0.015522 191474.000000 0 0 1
-33.452405 -26.019398 -29.453569 51.609934 0.661059 2.178149 0.055312 -0.030779 -60440.200000 0 0 1
-33.419775 -24.587228 -29.315879 50.801909 0.634292 2.185924 0.052543 -0.023534 1071550.000000 0 0 1
-32.061375 -23.938028 -28.793819 49.295487 0.641342 2.194575 0.063561 -0.031786 733917.000000 0 0 1
-32.137585 -22.506028 -28.707739 48.615635 0.610929 2.202480 0.065630 -0.027144 1051670.000000 0 0 1
-30.908695 -22.055828 -28.079809 47.225869 0.619782 2.207546 0.093922 -0.031784 941825.000000 0 0 1
-30.691165 -20.493728 -28.147279 46.413466 0.588746 2.222380 0.103585 -0.042316 -152265.000000 0 0 1
-30.322565 -20.123228 -29.428919 46.802389 0.585903 2.250794 0.105329 -0.028169 131993.000000 0 0 1
-30.004315 -18.751528 -29.441279 46.028987 0.558571 2.264806 0.085426 -0.030420 -147421.000000 0 0 1
-29.540905 -18.288828 -30.839869 46.456903 0.554347 2.296736 0.095884 -0.021953 576780.000000 0 0 1
-30.571095 -18.196228 -31.833619 47.739647 0.536890 2.300726 0.084735 -0.026530 851358.000000 0 0 1
-31.372455 -16.995828 -31.797419 47.792939 0.496482 2.298714 0.084109 -0.025677 -93030.000000 0 0 1
-31.860055 -16.372828 -33.172759 48.821763 0.474704 2.317832 0.082713 -0.035736 357205.000000 0 0 1
-32.884565 -17.067828 33.509276 49.955750 0.478750 0.835537 0.090517 -0.037201 1636480.000000 0 0 1
-34.226321 -16.798628 -33.333119 50.643181 0.456269 2.289216 0.095795 -0.035578 1017580.000000 0 0 1
-35.328558 -17.235428 33.069512 51.368859 0.453889 0.871387 0.106808 -0.040365 -235487.000000 0 0 1
-35.447975 -18.620528 33.069788 51.931627 0.483676 0.880462 0.092603 -0.038190 -243657.000000 0 0 1
-36.354215 -19.161928 32.158358 52.182071 0.485084 0.906796 0.102320 -0.043305 -546216.000000 0 0 1
-36.677415 -20.568228 32.642598 53.233674 0.511087 0.910698 0.094051 -0.039123 346269.000000 0 0 1
-35.562614 -21.465128 32.607564 52.808186 0.543053 0.905272 0.093521 -0.033965 467340.000000 0 0 1
-35.912354 -22.749228 33.197524 53.937929 0.564664 0.907806 0.096866 -0.034750 169386.000000 0 0 1
-34.623046 -23.656428 33.330986 53.566189 0.599400 0.899196 0.100813 -0.027339 1532950.000000 0 0 1
-33.676555 -23.302628 -33.003999 52.596453 0.605306 2.249128 0.078913 -0.035774 404758.000000 0 0 1
-32.939365 -22.126328 -33.208339 51.743309 0.591499 2.267626 0.069191 -0.033974 -899919.000000 0 0 1
-31.626865 -22.116728 -32.382839 50.379128 0.610257 2.268922 0.070953 -0.021666 1738.170000 0 0 1
-30.697205 -23.106928 -32.872009 50.564983 0.645251 2.278505 0.059991 -0.020100 377926.000000 0 0 1
-29.438405 -23.034128 -32.221929 49.350213 0.663949 2.282235 0.062003 -0.020313 296223.000000 0 0 1
-29.284115 -23.607328 -30.825479 48.632042 0.678478 2.257319 0.069168 -0.009930 -930124.000000 0 0 1
-29.149995 -24.999968 -30.904709 49.293222 0.708908 2.248437 0.067967 -0.022308 -241434.000000 0 0 1
-28.476505 -25.410208 -29.757489 48.395229 0.728557 2.233036 0.070600 -0.025679 -244419.000000 0 0 1
-28.214985 -26.937588 -29.581079 48.956709 0.762241 2.219595 0.076361 -0.024159 164050.000000 0 0 1
-29.355775 -27.808448 -29.621249 50.124742 0.758337 2.203033 0.057582 -0.012326 367986.000000 0 0 1
-29.151395 -29.144508 -29.125249 50.472630 0.785280 2.185909 0.066773 -0.011344 93217.100000 0 0 1
-30.026085 -30.245358 -29.805719 52.007003 0.789036 2.181092 0.068100 0.004222 -118708.000000 0 0 1
-29.575115 -30.393918 -31.120309 52.601819 0.799051 2.203864 0.077825 -0.017172 421163.000000 0 0 1
-29.925125 -31.672598 -31.631019 53.844108 0.813760 2.198707 0.097306 -0.007246 141664.000000 0 0 1
-29.176965 -31.905798 -32.994949 54.386965 0.830043 2.222661 0.078205 -0.018031 1024800.000000 0 0 1
-27.772385 -32.192628 -32.896339 53.757231 0.858979 2.229311 0.077307 -0.018952 721710.000000 0 0 1
-27.239475 -32.442558 33.163120 53.798709 0.872358 0.906596 0.091363 -0.025798 141122.000000 0 0 1
-25.860535 -33.135398 33.105631 53.504249 0.908090 0.903649 0.102420 -0.027255 194913.000000 0 0 1
-25.550845 -33.736318 31.853168 52.968002 0.922596 0.925586 0.101784 -0.017029 -50068.700000 0 0 1
-24.433955 33.048734 31.861002 52.003465 -0.934158 0.911361 0.095496 -0.005739 -159160.000000 0 0 1
-24.416655 32.146521 30.598276 50.653986 -0.921216 0.922205 0.090708 -0.017275 -107995.000000 0 0 1
-25.538065 31.278120 30.613996 50.672777 -0.886085 0.922097 0.106473 -0.040022 110266.000000 0 0 1
-25.627225 30.581190 29.406106 49.564936 -0.873307 0.935663 0.098788 -0.030951 441158.000000 0 0 1
-27.094485 30.127660 29.079256 49.873742 -0.838356 0.948309 0.104098 -0.029311 440785.000000 0 0 1
-27.581875 29.208760 29.980896 50.127493 -0.814037 0.929677 0.113529 -0.032823 373584.000000 0 0 1
-28.768275 28.576660 29.474046 50.129418 -0.782057 0.942263 0.109707 -0.034933 574714.000000 0 0 1
-29.291225 27.430970 30.357596 50.319157 -0.752614 0.923163 0.116441 -0.047232 -33705.000000 0 0 1
-28.472855 26.253470 30.313976 49.182164 -0.744866 0.906683 0.111099 -0.044397 204626.000000 0 0 1
-29.048465 25.114080 30.925416 49.304276 -0.712885 0.892797 0.104327 -0.041862 509526.000000 0 0 1
-30.222695 24.453570 30.130436 49.185684 -0.680273 0.911469 0.107267 -0.037984 854147.000000 0 0 1
-29.726545 24.097720 28.849256 47.923347 -0.681199 0.924809 0.088967 -0.030448 407661.000000 0 0 1
-30.683935 23.250740 28.230206 47.739348 -0.648442 0.938076 0.086239 -0.012672 537814.000000 0 0 1
-30.063655 23.036060 26.891196 46.450187 -0.653816 0.953386 0.088899 -0.030453 839329.000000 0 0 1
-28.811305 22.328350 26.852066 45.273391 -0.659301 0.935881 0.089222 -0.032073 568927.000000 0 0 1
-28.297995 22.180550 25.543476 44.104676 -0.664797 0.953104 0.091013 -0.024928 661884.000000 0 0 1
-26.856705 21.551150 25.619346 42.919524 -0.676233 0.931145 0.086669 -0.021412 512808.000000 0 0 1
-26.971795 20.257450 26.167336 42.691585 -0.644179 0.911021 0.092425 -0.030730 -419597.000000 0 0 1
-25.727695 19.709850 26.417736 41.812549 -0.653722 0.886906 0.091115 -0.017538 -877901.000000 0 0 1
-25.693925 18.476950 27.327606 41.813556 -0.623442 0.858520 0.104111 -0.023079 -145563.000000 0 0 1
-24.370555 18.074350 27.598076 41.015361 -0.638134 0.832712 0.098406 -0.013846 130148.000000 0 0 1
-24.323255 16.896450 28.331856 40.985422 -0.607135 0.807556 0.090176 -0.010640 -486507.000000 0 0 1
-22.995455 16.133750 28.345496 39.906841 -0.611803 0.780884 0.083398 -0.010560 -663799.000000 0 0 1
-22.113255 16.578450 29.327226 40.297980 -0.643313 0.755747 0.110869 -0.006624 -816504.000000 0 0 1
-20.880255 15.937350 29.296756 39.348241 -0.651942 0.730935 0.090172 -0.009639 -530807.000000 0 0 1
-19.872055 16.581150 30.245056 39.806991 -0.695365 0.707802 0.080164 -0.015976 -531365.000000 0 0 1
-20.034355 16.176750 31.593190 40.757726 -0.679267 0.683850 0.076099 -0.015524 131527.000000 0 0 1
-18.961555 16.534050 32.434566 41.047734 -0.717116 0.659715 0.061987 -0.017969 -843958.000000 0 0 1
-19.025555 15.990450 -33.495619 41.708785 -0.698937 2.503248 0.056426 -0.019885 -96868.600000 0 0 1
-19.918555 16.699150 -32.675959 41.753189 -0.697704 2.469624 0.067580 -0.028962 253810.000000 0 0 1
-21.285355 16.366850 -32.866889 42.440223 -0.655504 2.456607 0.076272 -0.021006 -616454.000000 0 0 1
-22.207455 17.252950 -32.043169 42.633321 -0.660495 2.421279 0.089202 -0.033826 -345670.000000 0 0 1
-22.347755 16.979550 -30.654919 41.562620 -0.649736 2.400246 0.076163 -0.033091 622834.000000 0 0 1
-23.401555 17.793950 -30.113349 42.084097 -0.650108 2.368210 0.086600 -0.032055 -99100.200000 0 0 1
-23.428755 17.575150 -28.561059 40.908759 -0.643599 2.343627 0.087947 -0.033039 72776.700000 0 0 1
-24.238655 16.575150 -27.951749 40.540699 -0.599792 2.331559 0.081900 -0.033292 800137.000000 0 0 1
-25.635895 16.629250 -28.291589 41.643068 -0.575440 2.317718 0.108629 -0.033944 380275.000000 0 0 1
-26.452655 15.599450 -27.507049 41.227704 -0.532820 2.301237 0.108526 -0.032172 -243037.000000 0 0 1
-26.189005 14.263250 -27.800889 40.770010 -0.498709 2.321147 0.066683 -0.021765 265670.000000 0 0 1
-26.966995 13.339950 -26.970019 40.404889 -0.459380 2.301634 0.059351 -0.022281 463558.000000 0 0 1
-26.627965 11.842950 -27.064259 39.771574 -0.418485 2.319231 0.064759 -0.022220 -107963.000000 0 0 1
-25.501515 11.468550 -26.318909 38.399738 -0.422621 2.325940 0.061152 -0.028804 -559497.000000 0 0 1
-25.052115 10.235450 -26.839159 38.114477 -0.387869 2.352053 0.050527 -0.019918 465168.000000 0 0 1
-23.757255 9.710350 -26.118019 36.617605 -0.388011 2.364940 0.075270 -0.023492 424939.000000 0 0 1
-24.024455 9.087250 -24.899529 35.773441 -0.361617 2.340655 0.087092 -0.015134 -491689.000000 0 0 1
-22.904455 8.501450 -24.327229 34.477569 -0.355409 2.354060 0.112144 -0.006965 -664852.000000 0 0 1
-23.291455 7.278350 -23.464329 33.853227 -0.302876 2.336604 0.119872 -0.007671 -20605.500000 0 0 1
-23.832655 6.270950 -24.251029 34.575030 -0.257292 2.348160 0.120756 -0.026061 12544.400000 0 0 1
-24.070055 5.119150 -23.575829 34.079216 -0.209555 2.334768 0.121506 -0.005526 -177971.000000 0 0 1
36.448426 24.660172 -9.687829 45.060690 0.594832 1.787483 0.037558 0.000146 277810.000000 0 0 1
37.147556 23.803872 -8.778129 44.984672 0.569875 1.767192 0.054925 -0.006673 -186632.000000 0 0 1
-37.828315 23.005572 -9.446529 45.271124 -0.546396 1.781007 0.072740 -0.010353 60493.500000 0 0 1
-36.869845 22.305472 -8.428229 43.908480 -0.544072 1.763945 0.135404 -0.017087 291955.000000 0 0 1
-37.508645 21.411672 -7.489829 43.834412 -0.518707 1.742505 0.069729 -0.011310 -265894.000000 0 0 1
-36.588015 20.987472 -6.555629 42.686451 -0.520794 1.724983 0.165983 -0.021466 -475006.000000 0 0 1
-37.212905 20.036272 -5.516929 42.622635 -0.493911 1.700597 0.104804 -0.005490 6110.250000 0 0 1
-37.592145 18.724072 -5.994929 42.422864 -0.462114 1.712585 0.068508 -0.004896 370919.000000 0 0 1
37.751866 18.046472 -4.885629 42.127756 0.445917 1.687030 0.079275 -0.011382 3783.860000 0 0 1
36.904576 16.814572 -5.366129 40.908103 0.427520 1.702351 0.057417 -0.004556 339930.000000 0 0 1
35.730856 17.150972 -6.093229 40.099592 0.447524 1.723340 0.052707 -0.003024 135166.000000 0 0 1
35.404256 16.127872 -7.001829 39.529675 0.427447 1.748864 0.062554 -0.010777 129383.000000 0 0 1
34.277226 16.350272 -8.035529 38.817899 0.445080 1.779310 0.045429 -0.016807 -42147.000000 0 0 1
34.028726 15.327872 -8.916129 38.371802 0.423219 1.805301 0.064465 -0.024097 -78071.800000 0 0 1
33.223506 15.752072 -9.988229 38.101100 0.442734 1.836046 0.039736 -0.015839 -443128.000000 0 0 1
32.611106 14.621272 -10.859829 37.352399 0.421483 1.865796 0.058216 -0.028344 112334.000000 0 0 1
31.478606 13.945572 -10.335329 35.947192 0.417032 1.862427 0.071987 -0.027128 296006.000000 0 0 1
31.682196 13.185172 -9.144929 35.513941 0.394368 1.831233 0.073293 -0.027787 -222182.000000 0 0 1
30.727126 11.952372 -9.048829 34.189132 0.370974 1.838658 0.095952 -0.018090 228406.000000 0 0 1
31.106696 10.903972 -9.882329 34.411968 0.337151 1.862075 0.099819 -0.020188 -153877.000000 0 0 1
30.105526 9.958172 -9.930629 33.228380 0.319447 1.874294 0.151786 -0.016856 -482492.000000 0 0 1
30.610026 8.725272 -10.811329 33.615307 0.277682 1.898235 0.149620 -0.017968 -100393.000000 0 0 1
31.670456 8.024672 -10.209129 34.229219 0.248158 1.873663 0.124675 -0.023232 278028.000000 0 0 1
31.327196 7.174672 -9.077429 33.395641 0.225141 1.846075 0.149583 -0.019859 479420.000000 0 0 1
32.627036 6.970272 -8.212929 34.359283 0.210471 1.812164 0.158312 -0.021145 572177.000000 0 0 1
33.748486 6.328372 -8.727429 35.428471 0.185363 1.819698 0.128374 -0.015738 -588768.000000 0 0 1
34.717726 5.972872 -7.807729 36.082632 0.170373 1.788906 0.123270 -0.013707 -1574540.000000 0 0 1
36.065896 6.378772 -8.277529 37.549368 0.175054 1.793066 0.119481 -0.013597 -1393570.000000 0 0 1
36.574236 5.685372 -9.404029 38.189448 0.154213 1.819602 0.150598 -0.023075 -919736.000000 0 0 1
37.954676 5.710672 -9.439329 39.525563 0.149340 1.811943 0.162725 -0.021041 -1225250.000000 0 0 1
-37.481425 4.957172 -10.730829 39.301164 -0.131494 1.847349 0.159071 -0.036514 1164790.000000 0 0 1
-36.047025 4.816172 -10.937629 37.976509 -0.132821 1.862945 0.182366 -0.042714 1701390.000000 0 0 1
-35.439688 5.848972 -11.694529 37.774912 -0.163566 1.885552 0.175143 -0.042745 -221217.000000 0 0 1
-34.641808 6.863872 -10.858729 36.946984 -0.195605 1.869101 0.165488 -0.022998 -680274.000000 0 0 1
-35.424713 7.713472 -10.055229 37.623338 -0.214396 1.841345 0.162939 -0.017380 210847.000000 0 0 1
-35.748937 8.930772 -10.688229 38.366436 -0.244809 1.853115 0.149149 -0.027155 331544.000000 0 0 1
-36.681995 9.829072 -9.785229 39.216452 -0.261803 1.822979 0.119204 -0.023863 795730.000000 0 0 1
-35.955345 10.392172 -8.640329 38.411448 -0.281362 1.797679 0.132433 -0.013631 779531.000000 0 0 1
-36.765405 11.235272 -7.807729 39.228650 -0.296581 1.771166 0.105986 -0.018156 -83264.500000 0 0 1
-35.960505 12.199672 -6.903929 38.596038 -0.327068 1.750641 0.133959 -0.024152 -140326.000000 0 0 1
-35.265386 13.143872 -7.668429 38.408510 -0.356764 1.771802 0.134599 -0.027174 -240789.000000 0 0 1
-34.669107 14.074472 -6.806629 38.031144 -0.385639 1.750741 0.170060 -0.028730 -134801.000000 0 0 1
-33.811075 15.085872 -7.569629 37.789835 -0.419674 1.772469 0.138811 -0.024818 -251697.000000 0 0 1
-34.615997 15.974172 -8.292029 39.015371 -0.432350 1.784962 0.111269 -0.022529 -111916.000000 0 0 1
-34.086648 17.261672 -8.387829 39.118034 -0.468759 1.786898 0.107537 -0.018649 132883.000000 0 0 1
-34.821308 18.039072 -9.505529 40.352035 -0.477981 1.808596 0.089879 -0.018794 -60032.700000 0 0 1
-34.142508 17.934372 -10.712029 40.026243 -0.483666 1.841724 0.073270 -0.015910 -200179.000000 0 0 1
-34.898639 18.352772 -11.811729 41.161343 -0.484143 1.861850 0.060676 -0.012752 -309658.000000 0 0 1
-34.056240 18.360172 -13.103529 40.848817 -0.494446 1.897350 0.029679 -0.009885 -314952.000000 0 0 1
-33.077485 19.354272 -13.042229 40.482189 -0.529406 1.898819 0.037918 -0.016006 -458349.000000 0 0 1
-32.752995 19.670472 -14.360329 40.815502 -0.540839 1.930327 0.021279 -0.010449 -505728.000000 0 0 1
-32.072145 21.019072 -14.489629 40.992356 -0.580140 1.932076 0.022406 -0.008798 -1099520.000000 0 0 1
-30.795505 21.025072 -13.895629 39.793282 -0.599042 1.927509 0.045760 -0.014581 53908.300000 0 0 1
-30.157995 22.279372 -13.971329 40.013412 -0.636265 1.927477 0.061381 -0.014238 73434.100000 0 0 1
-29.545455 22.656972 -15.364029 40.278104 -0.654199 1.962159 0.063239 -0.017004 -713186.000000 0 0 1
-30.526225 23.066972 -16.329929 41.600507 -0.647104 1.974190 0.057741 0.000277 625114.000000 0 0 1
-29.923885 23.613972 -17.493929 41.941580 -0.668080 2.001051 0.072824 0.003186 415112.000000 0 0 1
-29.181325 24.989172 -17.362629 42.160044 -0.708164 1.995254 0.092734 0.000568 731488.000000 0 0 1
-30.127105 26.057572 -17.140829 43.364127 -0.713093 1.977165 0.114996 -0.008040 738223.000000 0 0 1
-29.634355 27.388172 -17.451029 43.964137 -0.746027 1.978974 0.118364 -0.013248 -482519.000000 0 0 1
-30.555065 28.477072 -16.989029 45.090828 -0.750212 1.957107 0.121569 -0.015129 -655767.000000 0 0 1
-30.530685 28.847372 -15.610829 44.810619 -0.757057 1.926632 0.112366 -0.020098 1492750.000000 0 0 1
-29.270705 29.361772 -15.063929 44.111334 -0.786951 1.919307 0.107143 -0.020436 1134220.000000 0 0 1
-29.389695 29.866972 -13.543129 44.036423 -0.793452 1.883407 0.123753 -0.016223 406806.000000 0 0 1
-30.275675 30.998772 -13.332429 45.335351 -0.797199 1.869294 0.112813 -0.012996 668955.000000 0 0 1
-30.071915 31.655472 -12.117229 45.312429 -0.811047 1.841506 0.118854 -0.013775 650573.000000 0 0 1
-29.029845 32.861772 -12.318929 45.545405 -0.847233 1.844684 0.111508 -0.022744 545978.000000 0 0 1
-29.462395 -33.717807 -13.057429 46.641394 0.852650 1.854542 0.093539 -0.029989 270171.000000 0 0 1
-28.462815 -32.675007 -13.204729 45.300693 0.854186 1.866581 0.109663 -0.030383 628171.000000 0 0 1
-28.544425 -31.928607 -14.523629 45.223400 0.841302 1.897743 0.095898 -0.032815 23885.800000 0 0 1
-28.065615 -32.646707 -15.674929 45.816914 0.860711 1.919970 0.086157 -0.039198 -129861.000000 0 0 1
-28.069895 -31.803407 -16.796329 45.623375 0.847674 1.947817 0.087748 -0.026107 -99249.200000 0 0 1
-27.161335 -32.279707 -17.967729 45.853646 0.871295 1.973437 0.088668 -0.023152 -310720.000000 0 0 1
-27.337875 -33.552407 -18.575329 47.097412 0.887107 1.976214 0.094498 -0.012162 -129006.000000 0 0 1
-26.942625 33.035072 -17.719129 46.164798 -0.886629 1.964730 0.071021 -0.027735 -968946.000000 0 0 1
-27.091835 31.615172 -18.315729 45.485740 -0.862296 1.985228 0.088380 -0.039590 1122730.000000 0 0 1
-28.421515 31.110572 -18.599729 46.060831 -0.830537 1.986472 0.114425 -0.032248 1113360.000000 0 0 1
-29.210925 31.879572 -19.485929 47.426645 -0.829054 1.994199 0.109238 -0.030846 102525.000000 0 0 1
-30.731705 31.508572 -19.400429 48.099942 -0.797879 1.985956 0.116412 -0.040704 665295.000000 0 0 1
-31.057995 30.192572 -19.872229 47.656017 -0.771270 2.000931 0.117775 -0.038514 564618.000000 0 0 1
-32.456015 29.933572 -19.908329 48.432976 -0.744990 1.994401 0.117839 -0.036844 451621.000000 0 0 1
-32.983805 28.840172 -20.949429 48.565064 -0.718475 2.016805 0.116340 -0.032878 -530360.000000 0 0 1
-34.333160 28.515172 -20.812229 49.244591 -0.693089 2.007141 0.104368 -0.028952 -216165.000000 0 0 1
-34.598788 27.536772 -21.818229 49.309077 -0.672229 2.029157 0.110140 -0.021902 -282930.000000 0 0 1
-35.998745 26.900572 -21.799529 49.947671 -0.641748 2.022443 0.115430 -0.022042 284293.000000 0 0 1
-36.903875 27.441472 -22.771329 51.317286 -0.639388 2.030560 0.107415 -0.019898 344786.000000 0 0 1
37.958506 26.566072 -23.131029 51.784639 0.610640 2.033845 0.104137 -0.012682 347483.000000 0 0 1
37.121856 27.076272 -24.327529 51.990243 0.630179 2.057738 0.110333 -0.013856 277990.000000 0 0 1
37.891796 27.254472 -25.473069 53.173975 0.623543 2.070370 0.118259 -0.026594 -170565.000000 0 0 1
36.969836 27.553572 -26.486329 53.174183 0.640485 2.092208 0.126967 -0.020298 334204.000000 0 0 1
37.580466 27.524872 -27.920669 54.309057 0.632158 2.110763 0.124948 -0.027953 245784.000000 0 0 1
37.905836 26.169972 -28.345989 54.085256 0.604250 2.122452 0.098103 -0.020990 -43337.100000 0 0 1
-37.627305 26.111272 -29.688699 54.580504 -0.606650 2.145926 0.078688 -0.016575 -995091.000000 0 0 1
-37.025665 24.725772 -29.939359 53.652855 -0.588787 2.162794 0.062945 -0.009981 779760.000000 0 0 1
-35.777465 24.350272 -29.340869 52.286225 -0.597589 2.166581 0.074922 -0.007923 550532.000000 0 0 1
-34.643676 25.073772 -29.759349 52.100837 -0.626496 2.178748 0.063387 -0.006927 1020550.000000 0 0 1
-33.289405 24.757572 -28.935029 50.580211 -0.639462 2.179814 0.071170 -0.006802 1584080.000000 0 0 1
-32.763555 23.470072 -29.241709 49.793296 -0.621613 2.198468 0.083309 -0.010704 78752.300000 0 0 1
-33.288845 22.525072 -28.347429 49.184376 -0.594886 2.185052 0.053315 -0.004478 -214481.000000 0 0 1
-33.014835 21.057972 -28.611459 48.497764 -0.567775 2.201798 0.058134 -0.018125 328315.000000 0 0 1
-31.632525 20.737972 -28.498449 47.358650 -0.580295 2.216497 0.100866 -0.024878 249634.000000 0 0 1
-31.379345 19.497572 -29.126419 47.044308 -0.555971 2.238427 0.092032 -0.024282 -1405190.000000 0 0 1
-29.949925 19.085872 -29.204489 45.980112 -0.567367 2.259005 0.122451 -0.027867 -1651420.000000 0 0 1
-29.173055 19.637872 -30.228449 46.373185 -0.592478 2.280820 0.134226 -0.034387 -7463.570000 0 0 1
-28.036295 18.885472 -30.613049 45.605413 -0.592793 2.306703 0.137569 -0.040039 -29472.400000 0 0 1
-28.213585 17.508072 -31.261009 45.604711 -0.555396 2.326056 0.129262 -0.033522 -682190.000000 0 0 1
-28.450105 16.492872 -30.328509 44.735241 -0.525368 2.315774 0.097772 -0.023901 -878.053000 0 0 1
-28.321405 15.220072 -30.924909 44.610566 -0.493122 2.336743 0.068136 -0.013401 44076.200000 0 0 1
-29.033575 14.025072 -30.178239 44.163076 -0.450007 2.323119 0.065223 -0.004110 1198860.000000 0 0 1
-30.470845 14.111172 -30.299649 45.229043 -0.433698 2.304892 0.069085 -0.008765 1536730.000000 0 0 1
-31.344215 12.966672 -30.045139 45.313406 -0.392249 2.295685 0.061500 -0.005034 715350.000000 0 0 1
-31.074005 12.023872 -28.851909 44.074936 -0.369200 2.284463 0.056771 -0.018157 -583161.000000 0 0 1
-31.182845 12.686272 -27.618459 43.544123 -0.386385 2.257852 0.037360 -0.017118 155561.000000 0 0 1
-31.360895 11.759672 -26.565739 42.749668 -0.358752 2.241357 0.045335 -0.007213 -9071.360000 0 0 1
-31.212505 12.375172 -25.182839 41.970713 -0.377469 2.214310 0.040382 -0.016162 798362.000000 0 0 1
-29.837805 12.684172 -24.920229 40.892550 -0.401959 2.226109 0.054442 -0.018784 475788.000000 0 0 1
-29.709585 13.519772 -23.750829 40.367630 -0.427057 2.199829 0.053762 -0.012140 546493.000000 0 0 1
-28.255155 13.763672 -23.239929 39.088192 -0.453291 2.207504 0.083097 -0.006721 181999.000000 0 0 1
-27.389275 14.504372 -24.104129 39.262683 -0.487018 2.231813 0.104267 -0.021706 1343230.000000 0 0 1
-25.984065 14.553372 -23.785029 38.114300 -0.510556 2.244705 0.096210 -0.030132 1410060.000000 0 0 1
-25.523355 14.941672 -22.346529 37.068350 -0.529624 2.217860 0.097080 -0.019997 -895372.000000 0 0 1
-26.036445 16.244472 -22.103529 37.819907 -0.557817 2.194988 0.111015 -0.018566 351069.000000 0 0 1
-26.117085 16.541272 -20.760129 37.238405 -0.564582 2.162159 0.106900 -0.005023 -146149.000000 0 0 1
-27.554655 16.830472 -20.287529 38.132763 -0.548325 2.131785 0.105058 -0.010642 679723.000000 0 0 1
-28.517335 15.742372 -20.541629 38.509988 -0.504399 2.133424 0.100748 -0.014797 610723.000000 0 0 1
-29.753095 16.179372 -20.041029 39.353038 -0.498061 2.105124 0.076153 -0.006434 -544530.000000 0 0 1
-30.870575 15.099372 -20.102129 39.813051 -0.454905 2.100078 0.061454 -0.006939 535945.000000 0 0 1
-31.609585 14.837072 -21.307829 40.906334 -0.438857 2.118693 0.054785 -0.008578 692140.000000 0 0 1
-32.538585 15.866972 -21.656229 42.184269 -0.453707 2.109906 0.036720 -0.004304 -59644.300000 0 0 1
-33.079185 15.762472 -23.114029 43.323739 -0.444677 2.133552 0.022181 -0.003989 253334.000000 0 0 1
-34.163520 14.875872 -23.393529 43.996533 -0.410673 2.131418 0.036581 -0.007996 498323.000000 0 0 1
-34.714721 15.204472 -24.685029 45.228735 -0.412816 2.148118 0.028558 -0.009973 1267130.000000 0 0 1
-36.077625 14.458072 -25.075329 46.253681 -0.381152 2.143762 0.038564 -0.017954 1082490.000000 0 0 1
-36.110475 13.063872 -25.436869 46.061540 -0.347126 2.155841 0.037339 -0.020279 -53493.000000 0 0 1
-35.850844 12.285772 -24.240829 44.987121 -0.330149 2.139855 0.024492 -0.014749 -199481.000000 0 0 1
-35.541005 10.821372 -24.630429 44.574916 -0.295558 2.156232 0.034670 -0.015593 -540211.000000 0 0 1
-36.662555 10.099672 -25.001029 45.510414 -0.268809 2.152379 0.053780 -0.009312 -517052.000000 0 0 1
-36.364195 8.916272 -25.698599 45.412252 -0.240450 2.172316 0.052732 -0.005372 386846.000000 0 0 1
-37.698665 8.333672 -26.259179 46.692440 -0.217561 2.168065 0.085495 -0.011510 956416.000000 0 0 1
37.319766 7.829672 -25.238939 45.728249 0.206800 2.155477 0.077978 -0.001663 706741.000000 0 0 1
36.278556 7.055272 -25.852409 45.102744 0.192077 2.181189 0.093989 -0.014348 435957.000000 0 0 1
35.358236 6.395272 -24.813329 43.666986 0.178936 2.175162 0.089607 -0.018861 87851.500000 0 0 1
36.108836 5.500972 -24.005829 43.707992 0.151182 2.152241 0.071288 -0.020793 59736.100000 0 0 1
35.311576 4.622872 -23.285729 42.550012 0.130176 2.149878 0.089755 -0.013848 -187274.000000 0 0 1
36.164406 3.578572 -22.550729 42.769216 0.098632 2.126175 0.065097 -0.008243 358056.000000 0 0 1
36.910266 2.738172 -23.453629 43.817097 0.074049 2.135614 0.075695 -0.011669 291799.000000 0 0 1
37.750066 1.837672 -22.786229 44.132264 0.048642 2.113341 0.103329 -0.012331 -185230.000000 0 0 1
-37.843015 0.560972 -23.606929 44.606004 -0.014823 2.128492 0.125078 -0.016233 195765.000000 0 0 1
36.974696 -0.290128 -23.958829 44.059480 -0.007847 2.145736 0.099281 -0.021934 243510.000000 0 0 1
37.361986 -1.548528 -24.506529 44.708902 -0.041423 2.150930 0.115356 -0.019065 -72160.500000 0 0 1
-23.703155 29.012672 26.778056 46.050396 -0.885779 0.950232 0.092185 -0.025266 -433334.000000 0 0 1
-25.045985 29.364472 26.486146 46.809075 -0.864601 0.969352 0.078887 -0.028261 658120.000000 0 0 1
-25.336955 29.072772 25.133566 46.031332 -0.853951 0.993202 0.072642 -0.025696 -296614.000000 0 0 1
-25.677665 27.629672 24.700946 45.087448 -0.822000 0.991010 0.080258 -0.018055 -124538.000000 0 0 1
-26.944605 27.067772 25.029046 45.663214 -0.787678 0.990678 0.083334 -0.019756 624186.000000 0 0 1
-27.252225 26.775072 26.440236 46.461536 -0.776567 0.965412 0.082223 -0.026917 -588430.000000 0 0 1
-26.626615 25.475572 26.985056 45.674661 -0.763310 0.938734 0.084406 -0.025473 555722.000000 0 0 1
-25.280425 25.534572 27.457766 45.222153 -0.790400 0.918296 0.095243 -0.024143 383858.000000 0 0 1
-25.182325 26.045672 28.759686 46.256308 -0.802250 0.899826 0.097812 -0.026820 -504403.000000 0 0 1
-23.849055 25.757872 29.460026 45.827268 -0.823858 0.872584 0.102976 -0.021067 -1408830.000000 0 0 1
-22.784555 26.498572 28.913196 45.357283 -0.860617 0.879607 0.097316 -0.024534 369128.000000 0 0 1
-21.604355 26.329572 29.726726 45.206999 -0.883658 0.853209 0.112919 -0.023443 488568.000000 0 0 1
-20.852455 25.036372 29.445906 43.917037 -0.876322 0.835928 0.120847 -0.015131 -1181170.000000 0 0 1
-20.176555 25.080972 28.195116 42.791507 -0.893344 0.851447 0.104820 -0.021355 180113.000000 0 0 1
-20.831655 24.223772 27.277756 42.009820 -0.860544 0.864108 0.115417 -0.029044 235755.000000 0 0 1
-20.453855 22.690072 27.419146 41.048862 -0.837183 0.839327 0.110037 -0.018003 201350.000000 0 0 1
-20.881855 22.049072 28.603586 41.717845 -0.812580 0.815308 0.098102 -0.020779 -59370.700000 0 0 1
-20.757055 20.601172 28.511686 40.843357 -0.781629 0.798092 0.103964 -0.012012 278735.000000 0 0 1
-21.238755 19.903672 29.789406 41.649124 -0.752959 0.773819 0.103586 -0.013156 -215720.000000 0 0 1
-20.275255 20.179172 30.757226 42.003475 -0.783023 0.749170 0.099093 -0.023333 -87742.700000 0 0 1
-20.677655 19.941472 32.071415 43.055817 -0.767276 0.730441 0.089818 -0.020389 313898.000000 0 0 1
-19.618255 20.528772 33.090475 43.603738 -0.808074 0.709188 0.103781 -0.027326 -102072.000000 0 0 1
-19.728455 21.904772 33.222811 44.416057 -0.837624 0.725766 0.067923 -0.024174 591064.000000 0 0 1
-18.795255 22.719472 32.452229 43.847271 -0.879644 0.737548 0.097090 -0.019799 1382590.000000 0 0 1
-17.337355 22.716272 33.052292 43.692870 -0.918892 0.712899 0.084513 -0.013915 288471.000000 0 0 1
-16.672255 21.512972 32.978676 42.759386 -0.911495 0.689975 0.115545 -0.033761 264724.000000 0 0 1
-15.288155 21.692672 33.336946 42.610464 -0.956882 0.672342 0.078886 -0.030725 295082.000000 0 0 1
-14.461055 20.418272 33.001740 41.414282 -0.954561 0.648702 0.068218 -0.030964 -22740.200000 0 0 1
-13.094755 20.344872 33.357366 41.208012 -0.998906 0.627518 0.056105 -0.028082 333597.000000 0 0 1
-12.936355 20.250472 -32.594249 40.494641 -1.002322 2.506308 0.065827 -0.029443 -1164610.000000 0 0 1
-11.469755 20.280272 -32.214669 39.757133 -1.056084 2.515437 0.070161 -0.029412 -489745.000000 0 0 1
-10.838255 21.568972 -32.224999 40.263369 -1.105156 2.498684 0.067412 -0.028377 238732.000000 0 0 1
-9.444955 21.386872 -32.030539 39.655528 -1.154930 2.511070 0.072068 -0.027622 50388.300000 0 0 1
-8.669455 22.719672 -32.037909 40.221519 -1.206266 2.492341 0.081322 -0.025221 -40034.100000 0 0 1
-8.838655 23.542672 -30.877089 39.821776 -1.211648 2.458116 0.070973 -0.021230 206572.000000 0 0 1
-7.928755 23.142572 -29.854019 38.596713 -1.240725 2.455119 0.066980 -0.021635 213706.000000 0 0 1
-7.596955 24.285472 -28.890629 38.498913 -1.267621 2.419504 0.070300 -0.021950 106285.000000 0 0 1
-6.785255 25.315472 -29.427389 39.406649 -1.308923 2.413977 0.086858 -0.018550 -59539.100000 0 0 1
-6.431255 26.184172 -28.347749 39.122459 -1.329948 2.381236 0.095074 -0.016346 786515.000000 0 0 1
-5.028655 26.848772 -28.652999 39.587097 -1.385646 2.380085 0.108363 -0.030503 1008240.000000 0 0 1
-3.918855 25.913772 -28.515869 38.730295 -1.420707 2.398335 0.106280 -0.021618 1591000.000000 0 0 1
-2.690355 26.295672 -29.190779 39.380223 -1.468839 2.405734 0.113046 -0.024127 1212180.000000 0 0 1
-1.992355 27.607572 -28.809279 39.951496 -1.498754 2.376194 0.112131 -0.034562 -668396.000000 0 0 1
-1.253655 27.504972 -27.581609 38.972301 -1.525249 2.357067 0.132248 -0.051359 429523.000000 0 0 1
-0.274255 28.513772 -27.483779 39.603895 -1.561178 2.337780 0.129378 -0.043067 -470683.000000 0 0 1
0.486545 28.566772 -26.151279 38.732242 1.553766 2.312007 0.142806 -0.053861 159516.000000 0 0 1
1.536645 27.643272 -25.855729 37.881796 1.515265 2.322025 0.197505 -0.068596 840887.000000 0 0 1
2.775545 28.013472 -26.460399 38.634324 1.472040 2.325254 0.185432 -0.070044 403933.000000 0 0 1
3.982445 28.134472 -25.481189 38.166731 1.430180 2.301815 0.178888 -0.071234 75520.500000 0 0 1
4.481045 26.954172 -24.940629 36.995163 1.406056 2.310622 0.183144 -0.060839 -179463.000000 0 0 1
5.720345 27.105072 -24.303729 36.852117 1.362805 2.290941 0.143012 -0.050240 -70174.500000 0 0 1
6.355445 25.815172 -23.693529 35.611769 1.329406 2.298730 0.141033 -0.044611 -136300.000000 0 0 1
7.535345 26.178672 -23.028129 35.670702 1.290530 2.272573 0.133742 -0.048724 -445383.000000 0 0 1
8.160945 25.066772 -22.415829 34.603662 1.256051 2.275473 0.116090 -0.035386 -151958.000000 0 0 1
9.653145 25.192572 -22.117729 34.886141 1.204879 2.257508 0.114686 -0.012001 -753331.000000 0 0 1
9.846345 25.758372 -20.855829 34.574699 1.205678 2.218317 0.123364 -0.019193 33884.700000 0 0 1
11.175345 26.093072 -20.524929 35.028694 1.166144 2.196843 0.137253 -0.025922 373608.000000 0 0 1
12.096145 24.947072 -19.997629 34.184474 1.119324 2.195666 0.100673 -0.007389 -103783.000000 0 0 1
12.410845 23.924172 -20.850629 34.075560 1.092256 2.229249 0.087932 -0.004676 -15841.600000 0 0 1
12.584645 22.754072 -20.233429 32.947120 1.065597 2.232065 0.063068 0.008820 -385149.000000 0 0 1
12.721545 21.530172 -21.193729 32.780484 1.037117 2.273830 0.072366 0.002158 -217449.000000 0 0 1
11.571645 21.328272 -21.972729 32.735286 1.073691 2.306656 0.073098 -0.011230 -32017.800000 0 0 1
11.673345 20.127072 -22.752329 32.542810 1.045226 2.345005 0.080922 -0.011175 -163213.000000 0 0 1
11.025145 20.214472 -24.168729 33.381224 1.071485 2.380411 0.089445 -0.013607 581544.000000 0 0 1
9.612645 20.392772 -24.061229 32.972880 1.130310 2.388720 0.085744 -0.018912 312439.000000 0 0 1
9.078345 20.288672 -25.373459 33.732165 1.150058 2.422196 0.091108 -0.025385 -417717.000000 0 0 1
7.543545 20.247972 -25.522149 33.440477 1.214168 2.439065 0.100672 -0.038061 185943.000000 0 0 1
6.847445 21.481672 -25.303539 33.891279 1.262221 2.413747 0.114636 -0.045317 104120.000000 0 0 1
6.777045 21.895372 -23.952829 33.152280 1.270629 2.378221 0.118472 -0.048667 -509288.000000 0 0 1
5.366245 21.894672 -23.309829 32.427170 1.330441 2.372923 0.144617 -0.051538 34922.600000 0 0 1
4.605245 22.961272 -23.786729 33.380185 1.372857 2.363994 0.143903 -0.049726 -1073500.000000 0 0 1
3.265545 22.912772 -23.425429 32.930375 1.429229 2.362231 0.166533 -0.052811 -517023.000000 0 0 1
2.529245 24.103372 -24.147629 34.212243 1.466246 2.354374 0.154750 -0.044554 -610265.000000 0 0 1
1.147445 23.920672 -24.103629 33.977935 1.522864 2.359430 0.180569 -0.063728 -793716.000000 0 0 1
0.582745 24.665072 -25.145069 35.227544 1.547174 2.365691 0.178663 -0.051140 650297.000000 0 0 1
-0.985955 24.647472 -25.180299 35.249361 -1.530815 2.366488 0.185508 -0.049569 653827.000000 0 0 1
-1.416955 23.434272 -25.778769 34.867145 -1.510405 2.402890 0.196694 -0.048697 1162230.000000 0 0 1
-2.669455 23.776172 -26.478289 35.686582 -1.458990 2.406797 0.190595 -0.036522 1555010.000000 0 0 1
-3.373555 22.534472 -27.138099 35.435289 -1.422194 2.443158 0.190119 -0.041243 -432436.000000 0 0 1
-2.576355 21.893572 -28.081729 35.700835 -1.453659 2.476055 0.207722 -0.051632 -296024.000000 0 0 1
-3.146555 20.775572 -28.770829 35.627037 -1.420484 2.510793 0.174090 -0.042301 530833.000000 0 0 1
-4.460255 20.926572 -29.616489 36.536991 -1.360800 2.515954 0.146434 -0.038787 499886.000000 0 0 1
-4.298055 21.429572 -30.879889 37.832094 -1.372856 2.525660 0.136962 -0.039937 121951.000000 0 0 1
-3.679155 22.727072 -31.014729 38.626020 -1.410304 2.503023 0.157254 -0.036225 154208.000000 0 0 1
-3.059955 22.871672 -32.428729 39.800743 -1.437798 2.523141 0.122283 -0.030738 -392183.000000 0 0 1
-1.950755 22.065572 -32.679679 39.479822 -1.482618 2.545894 0.115931 -0.031842 -227415.000000 0 0 1
-1.399955 22.275272 33.423936 40.190883 -1.508031 0.588760 0.103291 -0.022902 613003.000000 0 0 1
-0.185755 21.343872 33.066832 39.357474 -1.562094 0.573206 0.103464 -0.015448 856630.000000 0 0 1
-0.699155 20.022672 32.904016 38.523635 -1.535892 0.546929 0.089785 -0.012054 460059.000000 0 0 1
0.242845 19.254272 32.145577 37.471643 1.558184 0.539698 0.095934 -0.019300 299464.000000 0 0 1
-0.211955 17.835972 31.649122 36.329516 -1.558913 0.513220 0.076731 -0.017874 132321.000000 0 0 1
-1.205355 17.877172 30.636066 35.491051 -1.503474 0.529212 0.071860 -0.020141 164022.000000 0 0 1
-1.569655 16.622772 30.178876 34.489780 -1.476647 0.505341 0.062187 -0.021702 -479891.000000 0 0 1
-2.666355 16.559172 29.129856 33.613451 -1.411147 0.522422 0.071042 -0.018118 -497620.000000 0 0 1
-3.977455 16.898572 29.534256 34.258636 -1.339632 0.531404 0.058487 -0.022204 49840.900000 0 0 1
-4.351255 18.223172 29.158556 34.658892 -1.336409 0.571111 0.070059 -0.020365 462662.000000 0 0 1
-5.858155 18.609872 29.252336 35.161690 -1.265829 0.588206 0.053967 -0.019944 1133690.000000 0 0 1
-6.717055 17.984372 28.286386 34.185905 -1.213347 0.596284 0.051598 -0.013253 2838130.000000 0 0 1
-8.170955 18.286672 28.420856 34.769411 -1.150585 0.613896 0.062015 -0.019108 2411320.000000 0 0 1
-9.114855 17.518172 27.477506 33.837557 -1.091034 0.623154 0.059584 -0.018439 31501.400000 0 0 1
-9.431455 16.131372 27.846556 33.535118 -1.041729 0.591025 0.064916 -0.025354 365268.000000 0 0 1
-10.326855 16.041072 28.967616 34.685482 -0.998809 0.582389 0.072694 -0.022955 -390893.000000 0 0 1
-10.759255 14.589372 29.216486 34.383345 -0.935361 0.555327 0.072798 -0.020269 -129563.000000 0 0 1
-9.758155 13.590472 29.361406 33.793708 -0.948082 0.517937 0.078006 -0.020303 632366.000000 0 0 1
-8.985255 13.540872 30.619026 34.664315 -0.984944 0.487939 0.074315 -0.020861 395981.000000 0 0 1
-9.741255 13.118872 31.902785 35.843891 -0.932088 0.473346 0.097717 -0.029681 -190867.000000 0 0 1
-10.024855 11.732672 31.971298 35.500946 -0.863731 0.449704 0.097860 -0.024948 205166.000000 0 0 1
-10.513455 11.319672 33.232182 36.647587 -0.822308 0.435156 0.100723 -0.026753 -153932.000000 0 0 1
-10.848155 9.806472 33.279486 36.350702 -0.735007 0.414019 0.097077 -0.025059 -663670.000000 0 0 1
-9.764655 8.932372 33.408496 35.934153 -0.740913 0.377160 0.110862 -0.027248 -334791.000000 0 0 1
-9.599355 8.307272 -32.701979 35.079593 -0.713366 2.771302 0.145446 -0.038093 -313575.000000 0 0 1
-8.773455 9.108772 -31.728359 34.155995 -0.804147 2.762295 0.134762 -0.042846 -651453.000000 0 0 1
-9.489355 10.162672 -31.119979 34.084907 -0.819647 2.721408 0.128736 -0.037943 564793.000000 0 0 1
-8.686455 10.916672 -30.150009 33.221247 -0.898679 2.708214 0.126527 -0.036155 692520.000000 0 0 1
-7.632855 11.855872 -30.821519 33.893778 -0.998789 2.712530 0.092921 -0.036964 -90162.900000 0 0 1
-8.201955 13.021072 -31.322769 34.898943 -1.008682 2.684927 0.087073 -0.033739 -497997.000000 0 0 1
-7.264655 13.957072 -31.743239 35.428919 -1.090884 2.681406 0.070069 -0.027674 -351793.000000 0 0 1
-7.881355 15.352172 -32.027759 36.381071 -1.096509 2.647378 0.070515 -0.023650 53999.100000 0 0 1
-8.417055 15.522072 -33.285339 37.678845 -1.073912 2.653856 0.064614 -0.028707 -365605.000000 0 0 1
-8.821055 16.843872 -33.521639 38.538647 -1.088373 2.625631 0.087452 -0.028114 -1484580.000000 0 0 1
-9.492855 17.022172 32.465340 37.866435 -1.062079 0.540669 0.094007 -0.034123 1023600.000000 0 0 1
-10.757455 16.339472 32.362147 37.815469 -0.988558 0.543718 0.078767 -0.031162 766961.000000 0 0 1
-11.793355 16.831572 33.222436 39.065525 -0.959622 0.553997 0.077029 -0.041590 -1379360.000000 0 0 1
-13.132855 16.434872 32.608649 38.805939 -0.896614 0.572959 0.092342 -0.034925 -639048.000000 0 0 1
-13.345755 15.047972 32.477771 38.201521 -0.845277 0.554489 0.091573 -0.034802 176245.000000 0 0 1
-14.710255 14.752172 32.704658 38.776447 -0.786821 0.567187 0.095286 -0.027813 44807.100000 0 0 1
-14.930455 13.185172 32.803960 38.377950 -0.723402 0.545707 0.095159 -0.025707 -148614.000000 0 0 1
-14.849855 12.413072 31.613413 37.067647 -0.696254 0.549363 0.078669 -0.022498 472001.000000 0 0 1
-13.564355 12.240872 31.018176 35.999415 -0.734156 0.532324 0.074017 -0.009526 258032.000000 0 0 1
-13.651155 11.473472 29.648276 34.597902 -0.698939 0.541496 0.073310 -0.010324 5551.310000 0 0 1
-14.307655 10.217872 29.566876 34.399332 -0.620162 0.536469 0.073421 -0.009945 103934.000000 0 0 1
-14.350355 9.860772 28.182196 33.127084 -0.602046 0.553424 0.061574 -0.007428 155843.000000 0 0 1
-15.272155 8.652372 27.915576 32.975470 -0.515457 0.561315 0.072894 -0.004814 420586.000000 0 0 1
-14.641555 7.407872 28.288366 32.702956 -0.468395 0.525627 0.060960 -0.015731 -83169.400000 0 0 1
-15.396055 6.343972 27.800906 32.406402 -0.390852 0.539661 0.071655 -0.011017 -226339.000000 0 0 1
-14.752355 4.949772 27.828556 31.883550 -0.323721 0.509848 0.079478 -0.015047 -205895.000000 0 0 1
-13.674855 4.739172 26.965166 30.603620 -0.333608 0.492591 0.075251 -0.024124 -413638.000000 0 0 1
-14.060255 4.510972 25.629496 29.578889 -0.310457 0.522690 0.067445 -0.014045 156349.000000 0 0 1
-12.900055 4.396072 24.572036 28.098431 -0.328437 0.506395 0.060117 -0.008923 813637.000000 0 0 1
-12.051455 3.250772 24.728806 27.700522 -0.263470 0.467451 0.057874 -0.017293 299358.000000 0 0 1
-11.632455 2.623672 23.534366 26.383026 -0.221836 0.468987 0.057081 -0.017464 375990.000000 0 0 1
-10.712055 1.362472 23.781766 26.118515 -0.126511 0.426225 0.053882 -0.015250 1096350.000000 0 0 1
-9.375355 1.705372 24.158006 25.969498 -0.179932 0.375715 0.041877 -0.018165 555898.000000 0 0 1
-8.567655 0.683272 24.687666 26.141010 -0.079582 0.335020 0.032923 -0.009621 1007780.000000 0 0 1
-7.030155 0.961272 24.464786 25.472983 -0.135893 0.282287 0.046533 -0.017138 202706.000000 0 0 1
-6.680655 1.149172 23.119366 24.092672 -0.170348 0.285214 0.051567 -0.015413 661943.000000 0 1 0
-5.280455 1.294172 22.833646 23.471972 -0.240349 0.233750 0.043711 -0.018317 845696.000000 0 1 0
-4.644955 2.641572 23.243886 23.850194 -0.517084 0.225964 0.059105 -0.017031 -465205.000000 0 1 0
-4.600055 2.722072 24.670726 25.243116 -0.534329 0.213360 0.065399 -0.014240 -103910.000000 0 0 1
-3.927655 3.889072 25.107836 25.709041 -0.780462 0.216687 0.057921 -0.015332 137595.000000 0 0 1
4.479745 -23.458728 12.914371 27.150710 -1.382105 1.075088 0.132741 -0.049493 317002.000000 0 0 1
4.122245 -24.736928 13.387371 28.427631 -1.405670 1.080454 0.158483 -0.065015 -27226.800000 0 0 1
2.736445 -24.989958 13.232771 28.409371 -1.461729 1.086270 0.140409 -0.057651 121050.000000 0 0 1
2.155545 -26.210658 13.931271 29.761137 -1.488742 1.083654 0.131744 -0.046292 -281303.000000 0 0 1
1.996545 -26.079178 15.320571 30.312203 -1.494388 1.040921 0.159512 -0.055141 -70065.900000 0 0 1
1.803245 -27.337548 15.863171 31.658071 -1.504930 1.045952 0.177646 -0.055607 -67401.300000 0 0 1
1.456045 -27.297838 17.353871 32.379760 -1.517508 1.005166 0.164008 -0.059243 158597.000000 0 0 1
2.509745 -26.839338 18.195971 32.522950 -1.477558 0.977037 0.178446 -0.059710 124045.000000 0 0 1
2.305445 -26.974598 19.604471 33.425728 -1.485536 0.944055 0.181127 -0.063439 44624.300000 0 0 1
3.378045 -26.304248 20.469571 33.501164 -1.443073 0.913460 0.152357 -0.058985 428344.000000 0 0 1
2.850545 -24.992788 20.859971 32.678792 -1.457232 0.878465 0.140510 -0.046270 571329.000000 0 0 1
3.889645 -24.294228 21.495371 32.670933 -1.412038 0.852722 0.116259 -0.046289 303680.000000 0 0 1
3.321745 -22.966528 22.167071 32.091657 -1.427158 0.808281 0.134160 -0.040755 -142310.000000 0 0 1
2.875345 -22.061228 21.188471 30.723227 -1.441192 0.809782 0.129327 -0.035010 -12163.600000 0 0 1
3.842945 -21.297628 20.502371 29.811146 -1.392277 0.812423 0.107885 -0.031083 134633.000000 0 0 1
3.082345 -20.172728 19.700771 28.364770 -1.419171 0.803001 0.074192 -0.028368 25362.200000 0 0 1
2.616945 -19.122728 20.434971 28.108987 -1.434791 0.756867 0.055557 -0.024376 -221424.000000 0 0 1
1.945245 -18.160528 19.681971 26.850861 -1.464089 0.748059 0.046486 -0.034633 -296983.000000 0 0 1
1.459445 -16.901828 20.414371 26.543329 -1.484662 0.693371 0.074618 -0.038732 679040.000000 0 0 1
2.559745 -16.043228 20.804671 26.396435 -1.412577 0.662979 0.026061 -0.010115 656401.000000 0 0 1
2.139845 -14.855628 21.398071 26.137063 -1.427738 0.611676 0.048078 -0.005998 -80199.400000 0 0 1
3.124245 -13.732528 21.090071 25.360093 -1.347097 0.588770 0.000411 0.008170 -612801.000000 0 0 1
3.300445 -13.275028 19.708471 23.990480 -1.327116 0.606738 -0.009337 0.002034 -69681.100000 0 1 0
2.224145 -12.848128 18.866671 22.934090 -1.399385 0.604744 -0.002779 0.003814 306024.000000 0 1 0
1.473445 -11.575928 19.337571 22.585721 -1.444192 0.542955 0.003362 -0.006044 163862.000000 0 1 0
2.273045 -10.420728 19.022671 21.808721 -1.356033 0.511011 0.004957 -0.005268 36739.000000 0 1 0
2.016945 -9.242528 19.793571 21.938046 -1.355940 0.445840 0.020469 -0.023488 952859.000000 0 1 0
0.491845 -8.812628 19.892071 21.762326 -1.515043 0.417612 0.036992 -0.026002 1264550.000000 0 1 0
0.042945 -8.101528 21.056871 22.561658 -1.565496 0.367292 0.055945 -0.030248 1028260.000000 0 1 0
-1.357355 -7.762928 20.887771 22.324973 1.397695 0.360775 0.057243 -0.033224 1016930.000000 0 1 0
-2.036655 -7.119928 22.078271 23.287151 1.292186 0.323627 0.054542 -0.030428 -85222.400000 0 1 0
-2.359555 -8.009128 23.164071 24.622912 1.284293 0.345953 0.059679 -0.020409 81624.000000 0 1 0
-2.707755 -7.345928 24.366771 25.593634 1.217643 0.310883 0.067611 -0.014131 -42531.200000 0 0 1
-2.972255 -8.275128 25.598071 27.066091 1.225967 0.330865 0.063582 -0.015409 740170.000000 0 0 1
-1.779455 -8.970828 25.990971 27.553090 1.374978 0.338346 0.075313 -0.021908 565810.000000 0 0 1
-2.098055 -10.006328 26.864871 28.744560 1.364118 0.363643 0.081939 -0.027994 -610839.000000 0 0 1
-1.019855 -11.058828 26.981771 29.177967 1.478836 0.390468 0.105914 -0.038770 -869477.000000 0 0 1
0.146845 -10.584128 27.582971 29.544299 -1.556923 0.366426 0.113301 -0.034819 -763891.000000 0 0 1
1.059345 -11.606628 27.778071 30.124031 -1.479778 0.397263 0.136426 -0.050637 -272838.000000 0 0 1
2.344345 -11.279828 28.527971 30.766469 -1.365878 0.383816 0.177010 -0.059426 77790.900000 0 0 1
1.901445 -10.972528 29.835571 31.846085 -1.399209 0.357234 0.172661 -0.062745 1238610.000000 0 0 1
2.993045 -10.480228 30.672871 32.551782 -1.292612 0.341423 0.232344 -0.059069 995283.000000 0 0 1
2.430345 -9.909928 31.989271 33.577175 -1.330299 0.308768 0.222405 -0.065516 -206105.000000 0 0 1
1.817145 -10.886528 32.788771 34.596561 -1.405404 0.324700 0.218739 -0.068588 -92364.400000 0 0 1
1.921545 -10.661728 -33.216614 34.938636 -1.392482 2.826324 0.192816 -0.071068 915648.000000 0 0 1
3.322645 -11.070828 -32.577414 34.567197 -1.279224 2.800642 0.179344 -0.047363 1608800.000000 0 0 1
4.454545 -10.247028 -32.886414 34.732705 -1.160725 2.814072 0.165420 -0.059423 491394.000000 0 0 1
4.886345 -9.412028 -31.811014 33.532123 -1.091939 2.819809 0.169058 -0.057614 47232.000000 0 0 1
3.954945 -8.237728 -31.315714 32.621706 -1.123194 2.857676 0.155083 -0.047615 91046.000000 0 0 1
3.963245 -7.156028 -32.196514 33.219446 -1.065015 2.892785 0.177519 -0.058386 340275.000000 0 0 1
3.279445 -6.041528 -31.579214 32.318750 -1.073485 2.927255 0.157012 -0.035772 406718.000000 0 0 1
3.562645 -4.709128 -32.326014 32.860912 -0.923123 2.960916 0.161587 -0.041928 -1218.690000 0 0 1
2.833145 -4.691928 -33.528414 33.973452 -1.027563 2.979554 0.169370 -0.055084 -178149.000000 0 0 1
2.901545 -3.436528 33.207871 33.511063 -0.869606 0.134620 0.166415 -0.039083 124936.000000 0 0 1
2.051445 -3.343428 31.901671 32.141928 -1.020455 0.122346 0.195140 -0.043153 1346220.000000 0 0 1
0.628945 -3.330728 32.108371 32.286790 -1.384163 0.105178 0.197943 -0.042224 961494.000000 0 0 1
-0.092455 -3.713828 30.904971 31.127452 1.545907 0.119633 0.188438 -0.034090 472260.000000 0 0 1
-1.620655 -3.878228 30.882771 31.167494 1.174967 0.135272 0.164790 -0.036608 -125114.000000 0 0 1
-2.287655 -2.725728 30.499671 30.706561 0.872558 0.116148 0.153364 -0.035046 -1949180.000000 0 0 1
-3.613355 -3.005628 30.460471 30.820941 0.693839 0.153092 0.109479 -0.030965 -1231750.000000 0 0 1
-4.571055 -1.957528 29.795571 30.207656 0.404615 0.165366 0.069475 -0.017511 269379.000000 0 0 1
-4.540555 -1.913128 28.394371 28.818692 0.398769 0.171814 0.069583 -0.023981 -16349.100000 0 0 1
-5.572355 -1.167028 27.762171 28.339923 0.206448 0.202268 0.047560 -0.022368 228060.000000 0 0 1
-5.624655 0.346872 27.872671 28.436646 -0.061592 0.199492 0.070945 -0.024762 36135.400000 0 0 1
-6.497855 0.768672 28.914071 29.645176 -0.117749 0.222548 0.068842 -0.021050 -93479.900000 0 0 1
-6.636755 2.151672 28.878471 29.709296 -0.313513 0.237051 0.073998 -0.022691 471362.000000 0 0 1
-7.996855 2.703572 29.447971 30.634000 -0.326016 0.279172 0.078307 -0.028174 -21258.600000 0 0 1
-9.040255 2.302372 28.659571 30.139644 -0.249378 0.314689 0.063607 -0.023828 -514890.000000 0 0 1
-10.307455 2.671472 29.179571 31.061676 -0.253598 0.349899 0.071223 -0.017385 258861.000000 0 0 1
-11.582155 2.351472 28.377371 30.740054 -0.200303 0.394627 0.067877 -0.012756 -162987.000000 0 0 1
-11.924755 0.982872 28.498171 30.908115 -0.082237 0.397507 0.062076 -0.014510 111252.000000 0 0 1
-12.169555 0.476772 27.188371 29.791490 -0.039157 0.421144 0.052087 -0.011653 -825278.000000 0 0 1
-12.482255 -1.021928 27.185971 29.932057 0.081688 0.431699 0.051760 -0.021581 -358801.000000 0 0 1
-11.394655 -1.826628 27.568971 29.886835 0.158953 0.396430 0.052481 -0.022963 642573.000000 0 0 1
-10.234555 -1.790528 26.718871 28.667929 0.173196 0.370869 0.044048 -0.021151 -146343.000000 0 0 1
-10.370755 -2.540128 25.372971 27.528031 0.240203 0.398320 0.046780 -0.019669 -852018.000000 0 0 1
-11.090555 -1.797428 24.426471 26.886495 0.160671 0.431108 0.042177 -0.022465 236127.000000 0 0 1
-11.039955 -2.459928 23.170871 25.784125 0.219239 0.454117 0.047139 -0.020740 -595760.000000 0 0 1
-9.880355 -1.997928 22.278171 24.452608 0.199522 0.424911 0.038888 -0.021590 -786739.000000 0 1 0
-8.684755 -2.349728 22.866171 24.572504 0.264232 0.374859 0.050235 -0.020113 -752920.000000 0 1 0
-7.580355 -2.138028 21.988771 23.356776 0.274907 0.343950 0.035657 -0.021100 232566.000000 0 1 0
-6.175655 -2.260228 22.619071 23.555673 0.350848 0.282940 0.047178 -0.017586 418038.000000 0 1 0
-5.540555 -3.565628 22.578771 23.520467 0.571828 0.283927 0.050556 -0.019812 444032.000000 0 1 0
-6.238155 -4.533928 23.357571 24.597707 0.628491 0.318892 0.064008 -0.021834 -222761.000000 0 1 0
-5.774355 -5.974328 23.108471 24.556816 0.802417 0.345162 0.072522 -0.024564 -304930.000000 0 1 0
-6.298655 -6.679128 21.972571 23.813393 0.814707 0.395775 0.055162 -0.030676 188715.000000 0 1 0
-5.884055 -6.154528 20.726671 22.407481 0.807862 0.389790 0.045316 -0.028082 -142386.000000 0 1 0
-7.098755 -6.058228 19.775171 21.866683 0.706477 0.440938 0.053559 -0.023448 -383059.000000 0 1 0
-8.003955 -5.096028 20.159871 22.281230 0.566961 0.439906 0.050195 -0.019360 -872059.000000 0 1 0
-8.935955 -4.936328 19.133571 21.686682 0.504693 0.490127 0.062973 -0.016655 -417886.000000 0 1 0
-9.657855 -3.609928 19.049871 21.661102 0.357702 0.496089 0.057858 -0.024505 -99501.100000 0 1 0
-8.868455 -2.522028 18.636471 20.792503 0.277067 0.459426 0.048371 -0.024337 21962.600000 0 1 0
-9.628455 -1.379928 18.784671 21.153610 0.142348 0.477792 0.043288 -0.018890 -184042.000000 0 1 0
-8.874655 -0.140728 18.255171 20.298536 0.015856 0.452552 0.041764 -0.016343 -433867.000000 0 1 0
-7.770155 0.231772 19.037071 20.563052 -0.029820 0.387676 0.034244 -0.009029 -87646.300000 0 1 0
-7.988755 0.954172 20.264371 21.803105 -0.118876 0.377942 0.049561 -0.006612 -364296.000000 0 1 0
-7.829655 2.469172 20.052971 21.668455 -0.305490 0.388587 0.045795 -0.016582 -26530.400000 0 1 0
-8.794055 2.838572 19.090871 21.209768 -0.312225 0.450802 0.034343 -0.022794 164207.000000 0 1 0
-8.490555 4.086572 18.535371 20.793017 -0.448582 0.470321 0.031707 -0.026587 -278076.000000 0 1 0
-9.498855 4.539972 17.475571 20.401842 -0.445852 0.542214 0.030740 -0.015077 -69023.800000 0 1 0
-10.781455 4.800472 18.041671 21.558900 -0.418899 0.579284 0.025073 -0.003458 -304605.000000 0 1 0
-11.523555 5.580272 17.202071 21.443950 -0.450968 0.639846 0.023680 0.009304 -635291.000000 0 1 0
-11.364855 7.098972 17.312071 21.892079 -0.558342 0.658695 0.022629 0.010592 -475189.000000 0 1 0
-10.065755 7.595372 17.098771 21.245636 -0.646423 0.635435 0.025695 0.005254 138680.000000 0 1 0
-10.236555 8.910172 16.642871 21.474715 -0.716234 0.684084 0.021357 -0.013607 180873.000000 0 1 0
-9.154155 9.903272 17.110071 21.785956 -0.824686 0.667500 0.031947 -0.000538 12189.000000 0 1 0
-9.380355 10.376872 18.419071 23.128612 -0.835794 0.649517 0.064018 0.017518 -48823.600000 0 1 0
-8.681555 11.570472 18.789971 23.713039 -0.927091 0.656080 0.084408 0.010102 -97478.000000 0 1 0
-9.036055 12.868472 18.002371 23.902577 -0.958605 0.717950 0.076453 -0.002234 -27303.500000 0 1 0
-8.679155 12.901572 16.647771 22.779960 -0.978614 0.751292 0.060969 -0.015536 -184250.000000 0 1 0
-9.340855 13.966072 16.013271 23.210506 -0.981301 0.809425 0.070157 -0.033046 -523689.000000 0 1 0
-8.886555 14.196572 14.549771 22.185791 -1.011503 0.855535 0.084754 -0.034039 436521.000000 0 1 0
-7.589655 14.746072 14.391671 21.958362 -1.095466 0.856075 0.067140 -0.024627 166747.000000 0 1 0
-7.514455 15.297672 13.102071 21.497675 -1.114201 0.915411 0.061312 -0.032484 -186620.000000 0 1 0
-6.523355 16.477372 13.078271 22.024965 -1.193831 0.935032 0.027884 -0.019636 392728.000000 0 1 0
-5.141255 16.176072 13.138071 21.464079 -1.263062 0.912088 0.009764 -0.019747 -137403.000000 0 1 0
-4.399155 17.373572 13.384271 22.368108 -1.322799 0.929339 0.004921 -0.018013 510453.000000 0 1 0
-2.878355 17.046772 13.311271 21.818966 -1.403524 0.914637 0.006455 -0.020000 298814.000000 0 1 0
-2.240355 16.531272 14.491871 22.097883 -1.436095 0.855550 0.017691 -0.019902 121628.000000 0 1 0
-2.614955 15.150872 14.840671 21.368959 -1.399886 0.803076 0.012928 -0.015163 269762.000000 0 1 0
-1.647555 14.455672 15.902771 21.554095 -1.457313 0.740980 0.011212 -0.007429 932527.000000 0 1 0
-0.335855 14.302272 15.353371 20.985561 -1.547318 0.750107 0.010722 -0.013286 497748.000000 0 1 0
0.633345 13.794072 16.290371 21.355414 1.524914 0.703131 0.020006 -0.006188 657564.000000 0 1 0
1.487045 14.853072 17.022771 22.640666 1.471012 0.719907 0.026903 -0.007104 -601232.000000 0 1 0
0.723845 15.653972 17.797771 23.713528 1.524589 0.721929 0.016173 -0.010480 -638058.000000 0 1 0
1.530745 16.656672 18.385471 24.855853 1.479154 0.738196 0.048113 -0.012182 92129.200000 0 1 0
0.692045 17.886572 18.821671 25.974288 1.532125 0.760303 0.059058 -0.008907 407614.000000 0 0 1
0.149945 18.845672 17.900471 25.992473 1.562840 0.811131 0.050229 -0.008395 689754.000000 0 0 1
-0.903055 18.349272 17.041771 25.058596 -1.521621 0.822929 0.046303 -0.004470 56555.100000 0 0 1
-1.665855 19.444272 16.340971 25.453528 -1.485332 0.873702 0.043909 -0.006040 -125402.000000 0 0 1
-2.290055 20.461572 17.147971 26.795021 -1.459340 0.876339 0.036176 -0.008899 205132.000000 0 0 1
-2.889755 21.422272 16.298771 27.072391 -1.436711 0.924738 0.044366 -0.013717 -655629.000000 0 0 1
-3.669655 22.465172 17.116071 28.479996 -1.408878 0.926063 0.043819 -0.003026 -208334.000000 0 0 1
-4.914555 21.987072 17.581471 28.577829 -1.350891 0.908139 0.062113 0.001786 -111009.000000 0 0 1
-5.468955 23.051372 18.345471 29.963837 -1.337852 0.911888 0.068832 -0.002746 -39971.100000 0 0 1
-6.620455 22.729172 19.305771 30.547642 -1.287363 0.886679 0.057883 -0.010027 580829.000000 0 0 1
-7.885555 22.440972 18.688971 30.249906 -1.232883 0.904830 0.049821 -0.011829 387223.000000 0 0 1
-8.768155 21.972472 19.699171 30.785181 -1.191108 0.876439 0.029318 -0.008292 -287814.000000 0 0 1
-10.232755 22.172072 19.312771 31.133473 -1.138407 0.901643 0.040438 -0.012906 -458328.000000 0 0 1
-10.751255 23.428872 19.614571 32.391865 -1.140575 0.920352 0.052192 -0.010661 -68422.800000 0 0 1
-11.634555 23.892972 18.607671 32.441985 -1.117647 0.959942 0.044540 -0.017658 213655.000000 0 0 1
-12.184855 25.326372 18.922471 33.881495 -1.122372 0.978232 0.053059 -0.023408 371418.000000 0 0 1
-13.085655 25.342772 20.029071 34.851888 -1.094157 0.958570 0.056550 -0.018580 339870.000000 0 0 1
-13.605455 26.631472 20.245871 36.114249 -1.098484 0.975679 0.052591 -0.014333 -215428.000000 0 0 1
-14.483355 26.793272 21.514071 37.289438 -1.075230 0.955809 0.075555 -0.020856 756.091000 0 0 1
-15.753855 26.190672 21.396971 37.309055 -1.029270 0.960017 0.080150 -0.025080 342595.000000 0 0 1
-16.618755 26.511172 22.492571 38.534932 -1.010862 0.947527 0.072390 -0.019442 77550.200000 0 0 1
-18.008655 25.878072 22.493371 38.729033 -0.962825 0.951100 0.093738 -0.017469 -142127.000000 0 0 1
-18.000355 24.579272 22.953671 38.144782 -0.938695 0.925104 0.099192 -0.017116 -231952.000000 0 0 1
-19.343455 24.186972 23.094871 38.633559 -0.896210 0.930051 0.106148 -0.014294 50339.300000 0 0 1
28.607145 23.697372 23.397976 43.902157 0.691803 1.008705 0.091218 -0.019816 -60485.000000 0 0 1
28.724445 22.805572 24.463006 44.086579 0.671037 0.982571 0.102905 -0.034756 212545.000000 0 0 1
28.009645 21.604472 24.199696 42.859289 0.657008 0.970810 0.110151 -0.022147 -102163.000000 0 0 1
27.599845 20.819972 25.485256 42.950214 0.646280 0.935560 0.123112 -0.030318 52986.100000 0 0 1
26.557945 21.524572 26.131656 43.029002 0.681096 0.918134 0.132730 -0.028067 -185730.000000 0 0 1
26.295345 20.961172 27.375016 43.361358 0.672997 0.887539 0.138874 -0.036332 488980.000000 0 0 1
24.892745 21.367272 27.939086 43.090620 0.709335 0.865342 0.159486 -0.036089 458267.000000 0 0 1
24.721845 22.761772 28.121176 43.818585 0.744143 0.874001 0.154542 -0.052674 -176354.000000 0 0 1
23.561645 22.961972 28.898786 43.789760 0.772509 0.850052 0.183053 -0.047775 7397.140000 0 0 1
23.153345 24.402172 29.345446 44.639652 0.811653 0.853453 0.175672 -0.033137 -497869.000000 0 0 1
22.589945 25.168072 28.312916 44.106220 0.839329 0.873789 0.168271 -0.045944 77606.000000 0 0 1
22.122545 26.447772 28.752856 44.895638 0.874215 0.875728 0.150424 -0.040740 96214.600000 0 0 1
20.864245 26.490772 29.644796 44.898682 0.903660 0.849632 0.148624 -0.043180 72221.700000 0 0 1
19.634845 26.045872 29.063796 43.687742 0.924832 0.842952 0.152595 -0.034769 1198920.000000 0 0 1
18.505845 26.055172 29.958546 43.804711 0.953220 0.817686 0.129808 -0.025242 892420.000000 0 0 1
18.168645 24.771372 30.796826 43.499023 0.937969 0.784150 0.111685 -0.027720 -233102.000000 0 0 1
18.642645 24.749072 32.103261 44.617083 0.925208 0.767673 0.104107 -0.025809 -260976.000000 0 0 1
17.810645 24.049572 33.004483 44.552181 0.933351 0.736528 0.115103 -0.025705 -211396.000000 0 0 1
18.332345 23.906872 -32.962269 44.655622 0.916615 2.401111 0.131832 -0.035202 -377293.000000 0 0 1
18.357345 25.137972 -32.339069 44.885689 0.940047 2.375285 0.124485 -0.035868 163531.000000 0 0 1
18.809545 25.088372 -31.002199 44.094917 0.927467 2.350514 0.094868 -0.025946 -51078.900000 0 0 1
18.920645 26.542972 -30.354419 44.541115 0.951511 2.320596 0.089224 -0.020628 262900.000000 0 0 1
17.662345 27.162272 -30.081719 44.211506 0.994243 2.319111 0.116558 -0.027696 588736.000000 0 0 1
17.804845 28.397572 -29.439109 44.610489 1.010771 2.291501 0.108229 -0.022836 -25363.800000 0 0 1
17.312545 28.344272 -27.964829 43.418356 1.022477 2.270614 0.117972 -0.028901 -23019.000000 0 0 1
18.132845 27.553072 -27.123259 42.704133 0.988744 2.258991 0.086811 -0.020198 285412.000000 0 0 1
17.651645 27.590472 -25.792399 41.690077 1.001644 2.237845 0.077202 -0.013842 -321021.000000 0 0 1
18.403545 26.656272 -24.841329 40.820815 0.966541 2.225023 0.071376 -0.024168 242091.000000 0 0 1
19.801045 26.931172 -24.862629 41.659569 0.936805 2.210309 0.082470 -0.021285 16770.500000 0 0 1
20.507845 26.267172 -23.828629 40.967543 0.907910 2.191548 0.083213 -0.019669 275545.000000 0 0 1
21.999445 26.724272 -23.952629 42.093832 0.882068 2.176121 0.073108 -0.018920 -9648.900000 0 0 1
22.755945 25.870072 -23.168829 41.519733 0.849353 2.162794 0.077883 -0.015594 -1262750.000000 0 0 1
24.094445 25.904372 -23.550129 42.499263 0.821582 2.158114 0.088539 -0.010113 -701052.000000 0 0 1
24.985145 25.809872 -22.319329 42.291363 0.801633 2.126748 0.113159 -0.016980 -379870.000000 0 0 1
24.570245 24.730872 -21.569229 40.994446 0.788656 2.124863 0.121063 -0.025624 285451.000000 0 0 1
25.290545 24.629372 -20.321829 40.733209 0.772154 2.093126 0.121356 -0.019470 434142.000000 0 0 1
24.677545 23.662172 -19.237729 39.229706 0.764396 2.083330 0.112878 -0.011977 -359239.000000 0 0 1
25.194145 22.417372 -19.421329 38.916211 0.727143 2.093304 0.124461 -0.007314 180041.000000 0 0 1
24.635645 21.547972 -18.454029 37.573678 0.718641 2.084197 0.117435 -0.016142 -515219.000000 0 0 1
24.755845 20.035472 -18.688329 36.925948 0.680400 2.101457 0.135292 -0.017175 254830.000000 0 0 1
24.064945 19.514672 -19.829929 36.785460 0.681362 2.140129 0.129232 -0.018215 -12864.400000 0 0 1
22.664845 19.585772 -19.735129 35.871618 0.712650 2.153352 0.116181 -0.019666 -340495.000000 0 0 1
21.909245 19.356772 -21.116529 36.063935 0.723623 2.196330 0.091973 -0.009048 147770.000000 0 0 1
22.038345 20.349272 -22.102529 37.259942 0.745571 2.205822 0.087676 -0.010279 -73137.100000 0 0 1
21.747045 21.703672 -21.763129 37.651256 0.784400 2.187095 0.088205 -0.006059 -243894.000000 0 0 1
21.125445 22.468072 -22.933129 38.432110 0.816187 2.210201 0.097361 -0.024996 234257.000000 0 0 1
19.733245 22.197372 -22.925329 37.519261 0.844097 2.228155 0.101265 -0.012922 67421.000000 0 0 1
19.127245 22.734072 -24.113129 38.263984 0.871347 2.252579 0.103010 -0.015144 -666544.000000 0 0 1
17.617345 22.810472 -24.190729 37.628179 0.913153 2.269060 0.097679 -0.018110 -878480.000000 0 0 1
17.148245 23.893372 -23.439229 37.607884 0.948290 2.243692 0.088130 -0.026474 -901786.000000 0 0 1
15.764045 23.917672 -23.455829 37.023453 0.988053 2.256916 0.088209 -0.023656 -717066.000000 0 0 1
15.122345 25.191872 -22.851929 37.222659 1.030166 2.231820 0.082589 -0.022950 -141222.000000 0 0 1
15.355445 26.403472 -23.508229 38.543091 1.044039 2.226757 0.076961 -0.019506 18701.600000 0 0 1
14.465545 27.427972 -23.110029 38.673234 1.085469 2.211265 0.100579 -0.017397 66398.600000 0 0 1
14.482645 28.708672 -23.983329 40.114024 1.103580 2.211649 0.096990 -0.017246 -34630.500000 0 0 1
14.208445 28.488872 -25.407099 40.731025 1.108160 2.244363 0.099736 -0.034775 -1159.940000 0 0 1
13.774345 29.607772 -26.199689 41.866173 1.135352 2.246948 0.127813 -0.044327 -25424.600000 0 0 1
14.549945 30.953772 -26.133949 43.044398 1.131391 2.223252 0.128356 -0.042490 255387.000000 0 0 1
15.853845 30.906472 -26.673859 43.795538 1.096833 2.225664 0.100392 -0.024297 127511.000000 0 0 1
16.619345 32.101872 -26.601059 44.881501 1.093084 2.205198 0.098106 -0.032244 828651.000000 0 0 1
18.070045 32.060372 -27.180939 45.751474 1.057552 2.206942 0.093914 -0.008777 1053560.000000 0 0 1
18.985845 31.294972 -26.352729 45.103258 1.025484 2.194783 0.046914 -0.007041 965312.000000 0 0 1
20.294545 31.321172 -26.940879 46.029287 0.995864 2.196045 0.060540 -0.005159 -52583.900000 0 0 1
21.259845 30.330172 -26.274649 45.412085 0.959435 2.187786 0.037026 0.002056 -956202.000000 0 0 1
21.624145 30.710272 -24.947629 45.090006 0.957301 2.157099 0.039350 -0.001393 -65599.800000 0 0 1
22.311245 31.915972 -24.681429 46.104163 0.960700 2.135707 0.037020 -0.005643 -641010.000000 0 0 1
23.796545 31.834372 -25.079829 46.996815 0.928890 2.133706 0.031341 0.003981 -718104.000000 0 0 1
23.930445 31.619372 -26.454189 47.668385 0.922939 2.159115 0.026442 0.010090 -1382100.000000 0 0 1
25.222745 31.755572 -26.900009 48.664296 0.899554 2.156477 0.025394 0.016613 -1318140.000000 0 0 1
25.387745 31.066672 -28.284839 49.088775 0.885654 2.184865 0.029150 0.008708 362679.000000 0 0 1
24.584745 31.648872 -29.349169 49.673277 0.910365 2.202901 0.044988 -0.001767 241477.000000 0 0 1
23.281745 31.109472 -29.377089 48.711931 0.928332 2.218150 0.039898 -0.002743 -241322.000000 0 0 1
22.398045 31.831872 -30.463179 49.426165 0.957634 2.234879 0.050981 -0.000572 18507.600000 0 0 1
21.695545 32.928872 -29.929959 49.505653 0.988217 2.220031 0.069441 -0.009218 -48263.800000 0 0 1
20.895745 33.634972 -30.845069 50.193244 1.014898 2.232582 0.076625 -0.022689 -935542.000000 0 0 1
19.413145 33.655372 -30.476049 49.379589 1.047594 2.235949 0.078068 -0.029186 -352261.000000 0 0 1
18.701245 32.388872 -30.402059 48.198141 1.047162 2.253345 0.114537 -0.031661 544714.000000 0 0 1
18.648545 31.545972 -31.576299 48.373332 1.036906 2.282022 0.117630 -0.030884 -951634.000000 0 0 1
18.112345 32.084072 -32.901209 49.395691 1.056868 2.299730 0.126450 -0.046476 -564237.000000 0 0 1
18.878845 33.106272 -33.540729 50.768263 1.052539 2.292498 0.118625 -0.038312 -44528.100000 0 0 1
18.586045 33.463372 32.500407 50.214687 1.063806 0.866852 0.098775 -0.033138 -496294.000000 0 0 1
17.175145 -33.700407 32.156399 49.646117 -1.099465 0.866218 0.101576 -0.037732 -459947.000000 0 0 1
16.189445 32.914972 32.106826 48.747736 1.113685 0.851797 0.114411 -0.035685 48663.800000 0 0 1
14.844645 33.281072 31.944934 48.461036 1.151242 0.851058 0.106587 -0.035433 41308.800000 0 0 1
14.319845 -33.565607 30.756876 47.725185 -1.167552 0.870482 0.080087 -0.024361 -992047.000000 0 0 1
14.818345 -32.222507 30.543036 46.805452 -1.139760 0.859848 0.089491 -0.017741 225419.000000 0 0 1
14.405745 -31.624707 29.371326 45.500795 -1.143360 0.869102 0.068959 -0.020168 -381271.000000 0 0 1
14.944445 -30.234007 29.073726 44.527667 -1.111725 0.859342 0.067747 -0.020417 -388064.000000 0 0 1
14.530845 -29.341507 30.079506 44.461738 -1.110971 0.827762 0.072615 -0.012585 440836.000000 0 0 1
15.088545 -28.046107 29.927516 43.702454 -1.077220 0.816465 0.080849 -0.026775 -690213.000000 0 0 1
14.438445 -27.116407 30.932786 43.595934 -1.081518 0.781960 0.099065 -0.028560 376460.000000 0 0 1
13.032545 -26.905807 30.849986 42.959182 -1.119725 0.769695 0.090001 -0.021856 530800.000000 0 0 1
12.585245 -26.101907 29.754786 41.533663 -1.121524 0.772165 0.081573 -0.023028 -464951.000000 0 0 1
12.826445 -24.575107 30.024516 40.864717 -1.089760 0.745528 0.092565 -0.024981 222142.000000 0 0 1
12.076645 -24.075507 31.160036 41.187658 -1.105857 0.712793 0.102086 -0.030842 402822.000000 0 0 1
12.599545 -22.815507 31.471939 40.862927 -1.066238 0.691668 0.101774 -0.032698 197485.000000 0 0 1
11.782545 -21.942907 32.476207 40.927051 -1.078017 0.654234 0.094009 -0.034406 -226720.000000 0 0 1
11.570545 -22.593607 -33.654069 42.153825 -1.097503 2.495369 0.105139 -0.037167 899465.000000 0 0 1
12.734745 -23.054707 -32.921189 42.160383 -1.066135 2.466831 0.108566 -0.036922 1369640.000000 0 0 1
13.603445 -21.915807 -32.210199 41.265642 -1.015285 2.466353 0.105572 -0.034708 394937.000000 0 0 1
14.072345 -20.856607 -33.023289 41.515859 -0.977240 2.490526 0.093056 -0.033589 208682.000000 0 0 1
15.093345 -20.066007 -32.441269 41.023038 -0.925898 2.482921 0.084813 -0.032205 -3290.650000 0 0 1
15.317545 -18.746907 -33.182869 41.075254 -0.885733 2.511301 0.068428 -0.026203 -456455.000000 0 0 1
15.844245 -18.979307 32.931971 41.179714 -0.875183 0.643979 0.083663 -0.011526 -102029.000000 0 0 1
15.431645 -18.099507 31.896231 39.788156 -0.864795 0.640744 0.059712 -0.001558 -418122.000000 0 0 1
16.124345 -16.761407 31.661719 39.286177 -0.804768 0.633560 0.071404 -0.001513 -525924.000000 0 0 1
15.925145 -15.813307 32.697365 39.658398 -0.781874 0.601522 0.054357 -0.003492 317400.000000 0 0 1
16.753345 -14.673807 32.562392 39.450026 -0.719324 0.599871 0.083150 -0.017650 454657.000000 0 0 1
18.245745 -14.778107 32.995693 40.497103 -0.680777 0.618470 0.078453 -0.007131 999153.000000 0 0 1
19.146745 -15.543907 32.142030 40.513219 -0.681913 0.654469 0.085014 -0.004574 953366.000000 0 0 1
20.504545 -15.375907 32.546045 41.425836 -0.643423 0.667057 0.101833 -0.004407 660640.000000 0 0 1
21.479145 -16.163107 31.610460 41.494829 -0.645101 0.704720 0.124252 -0.016755 7031.850000 0 0 1
21.514845 -15.562107 30.361096 40.334400 -0.626206 0.718590 0.112312 -0.012966 509923.000000 0 0 1
22.430545 -16.183707 29.448446 40.401147 -0.625012 0.754081 0.099237 -0.021378 336063.000000 0 0 1
22.782945 -15.339207 28.174976 39.346958 -0.592564 0.772648 0.085687 -0.014011 -249313.000000 0 0 1
23.625345 -14.239107 28.353766 39.558123 -0.542406 0.771648 0.082239 -0.024738 33297.500000 0 0 1
24.005145 -13.662807 27.121446 38.710361 -0.517435 0.794523 0.071032 -0.023545 160617.000000 0 0 1
24.838545 -12.379907 27.177596 38.843753 -0.462379 0.795868 0.065694 -0.020379 164999.000000 0 0 1
24.011045 -11.339607 27.677776 38.355915 -0.441215 0.764680 0.077236 -0.023614 218435.000000 0 0 1
24.710545 -10.146107 28.031036 38.720711 -0.389609 0.761316 0.078300 -0.032832 65417.400000 0 0 1
23.838245 -8.879107 28.065906 37.878695 -0.356554 0.736325 0.086100 -0.031728 -237116.000000 0 0 1
22.948245 -8.763507 29.113806 38.092449 -0.364790 0.700851 0.096852 -0.038788 -273129.000000 0 0 1
21.950345 -7.778407 28.840606 37.068879 -0.340557 0.679276 0.090126 -0.042057 -93541.200000 0 0 1
20.753145 -7.799507 29.775146 37.122562 -0.359492 0.640032 0.075888 -0.030972 -714317.000000 0 0 1
20.962145 -7.316207 31.113186 38.222621 -0.335801 0.619792 0.092219 -0.040799 260101.000000 0 0 1
21.439445 -8.329607 32.020140 39.424884 -0.370569 0.622916 0.111230 -0.043276 -203136.000000 0 0 1
21.437145 -7.896607 33.478796 40.530696 -0.352937 0.598803 0.131388 -0.055346 -69725.300000 0 0 1
20.115145 -7.709007 -33.444629 39.781793 -0.365979 2.569374 0.113928 -0.062467 41584.000000 0 0 1
20.081345 -6.806707 -32.341569 38.672584 -0.326803 2.561281 0.126166 -0.061112 608271.000000 0 0 1
18.670845 -6.792707 -31.640949 37.361624 -0.348927 2.580894 0.122086 -0.057213 857707.000000 0 0 1
18.695345 -5.913107 -30.535139 36.288779 -0.306332 2.570755 0.124907 -0.053211 745483.000000 0 0 1
17.432845 -5.966107 -29.861129 35.088254 -0.329739 2.588739 0.122794 -0.046135 649319.000000 0 0 1
17.269745 -4.921207 -28.725619 33.876593 -0.277603 2.582900 0.111879 -0.040787 291065.000000 0 0 1
18.105745 -5.245707 -27.572829 33.400544 -0.282005 2.541920 0.115755 -0.040122 649637.000000 0 0 1
17.564245 -6.174307 -26.660049 32.517426 -0.338035 2.531980 0.148298 -0.048235 393947.000000 0 0 1
16.176145 -5.902207 -26.005339 31.189443 -0.349861 2.556728 0.139909 -0.049805 416431.000000 0 0 1
16.284745 -4.939007 -25.026529 30.264069 -0.294473 2.544438 0.133087 -0.041988 -9069.590000 0 0 1
14.990245 -4.787407 -24.472029 29.094792 -0.309130 2.570135 0.127443 -0.045627 284319.000000 0 0 1
14.822345 -3.604207 -23.515029 28.029428 -0.238531 2.566130 0.124568 -0.044744 -24775.200000 0 0 1
14.719445 -2.377707 -24.194529 28.419901 -0.160152 2.589299 0.091054 -0.040790 57612.400000 0 0 1
14.554245 -1.312707 -23.271329 27.479156 -0.089951 2.580872 0.106143 -0.036376 95457.700000 0 0 1
15.096145 0.015293 -23.846429 28.223147 0.001013 2.577220 0.076958 -0.032579 -14085.200000 0 0 1
14.294445 0.454293 -24.900129 28.715048 0.031770 2.620239 0.077584 -0.031244 -22461.800000 0 0 1
14.935145 1.565293 -25.494759 29.588705 0.104425 2.609285 0.060755 -0.013685 -187887.000000 0 0 1
14.368645 2.229293 -26.756619 30.452330 0.153923 2.643802 0.039829 -0.005112 -73643.900000 0 0 1
13.225645 3.019293 -26.458619 29.733690 0.224444 2.667820 0.063565 -0.019602 448819.000000 0 0 1
12.650845 3.636293 -27.611789 30.588844 0.279890 2.696742 0.075247 -0.023002 932414.000000 0 0 1
11.185045 4.206293 -27.471509 29.958003 0.359703 2.731291 0.086256 -0.032198 637642.000000 0 0 1
11.081545 5.382293 -26.733949 29.435926 0.452141 2.709779 0.059838 -0.026902 -800790.000000 0 0 1
9.809945 5.902293 -26.776349 29.121212 0.541642 2.737550 0.068052 -0.034423 -1021650.000000 0 0 1
9.003245 4.938172 -31.326409 32.966466 0.501682 2.824836 0.093652 -0.041164 -86428.500000 0 0 1
8.980345 4.240772 -30.068409 31.666070 0.441184 2.822583 0.085465 -0.023973 485702.000000 0 0 1
8.641245 2.893972 -30.287579 31.628842 0.323162 2.849327 0.080095 -0.015920 -57052.700000 0 0 1
8.410645 2.057672 -28.968199 30.234575 0.239938 2.851142 0.087384 -0.016570 -949370.000000 0 0 1
9.645345 1.755172 -28.451639 30.093339 0.180001 2.809758 0.095996 -0.030138 -571519.000000 0 0 1
9.483645 0.681272 -27.545329 29.140158 0.071713 2.809219 0.112233 -0.031540 -762530.000000 0 0 1
10.726645 0.063972 -26.960459 29.016054 0.005964 2.762921 0.106676 -0.041732 -688765.000000 0 0 1
11.319245 -0.835128 -27.890719 30.111708 -0.073646 2.755113 0.085624 -0.030185 330831.000000 0 0 1
12.556845 -1.321028 -27.386729 30.157129 -0.104818 2.709603 0.088594 -0.037202 181266.000000 0 0 1
12.980945 -2.638428 -28.034709 31.006631 -0.200522 2.700187 0.079268 -0.036455 -47087.500000 0 0 1
12.155045 -3.780428 -27.760049 30.539435 -0.301533 2.711651 0.085350 -0.035706 393281.000000 0 0 1
12.854045 -4.999928 -27.894819 31.118269 -0.370968 2.682405 0.104889 -0.037825 408672.000000 0 0 1
11.974645 -6.113328 -27.180779 30.324242 -0.472030 2.682237 0.097927 -0.047196 518674.000000 0 0 1
11.876545 -5.819828 -25.807119 28.998795 -0.455637 2.668005 0.115379 -0.040999 -98332.300000 0 0 1
11.221245 -6.826828 -25.135789 28.360709 -0.546562 2.660067 0.119997 -0.045001 -220238.000000 0 0 1
11.094545 -6.529728 -23.626029 26.905678 -0.531960 2.642685 0.127660 -0.046149 291016.000000 0 0 1
12.373945 -6.560228 -23.016829 26.943005 -0.487487 2.594958 0.145894 -0.050128 236027.000000 0 0 1
12.194445 -6.378628 -21.619129 25.627683 -0.481938 2.574721 0.158189 -0.061455 1065030.000000 0 0 1
13.516145 -6.301928 -20.727729 25.535059 -0.436287 2.517915 0.167948 -0.057779 718633.000000 0 0 1
14.202645 -5.116028 -20.875629 25.762002 -0.345747 2.515505 0.153883 -0.053953 -946757.000000 0 0 1
15.357645 -5.264328 -20.117329 25.851061 -0.330230 2.462593 0.160114 -0.043456 -394176.000000 0 0 1
16.101745 -3.958828 -19.747229 25.785491 -0.241082 2.443123 0.167755 -0.034700 -6685.200000 0 0 1
16.800645 -3.330928 -20.809129 26.951375 -0.195724 2.452934 0.144471 -0.033655 205550.000000 0 0 1
17.315945 -2.120628 -20.285629 26.755294 -0.121860 2.431331 0.153533 -0.014667 94706.100000 0 0 1
18.406445 -1.405328 -21.121629 28.051656 -0.076202 2.423337 0.112120 -0.016330 1029630.000000 0 0 1
19.698045 -2.052828 -21.136729 28.965296 -0.103840 2.388717 0.132299 -0.029184 1403290.000000 0 0 1
20.704745 -1.092328 -21.509929 29.875687 -0.052709 2.374571 0.123424 -0.013624 45018.600000 0 0 1
22.099245 -1.617728 -21.778429 31.069175 -0.073073 2.347547 0.089281 -0.016510 -897597.000000 0 0 1
23.023145 -1.735028 -20.667129 30.987187 -0.075218 2.300914 0.084363 -0.011272 1089730.000000 0 0 1
24.210445 -2.431928 -21.074429 32.189928 -0.100114 2.284569 0.062488 -0.011816 1188420.000000 0 0 1
25.267145 -1.569928 -21.882129 33.462230 -0.062053 2.283571 0.059364 -0.014414 -758135.000000 0 0 1
24.898645 -1.360428 -23.207829 34.064595 -0.054584 2.320318 0.072122 -0.021696 138670.000000 0 0 1
25.865945 -0.622728 -23.928629 35.242222 -0.024071 2.317164 0.079224 -0.017347 95286.300000 0 0 1
27.115845 -1.405528 -24.417329 36.516442 -0.051788 2.303211 0.082928 -0.024155 -970773.000000 0 0 1
28.083345 -1.647828 -23.430829 36.611383 -0.058609 2.265278 0.076846 -0.014127 762750.000000 0 0 1
29.188345 -2.476128 -23.881629 37.794482 -0.084630 2.254775 0.061790 -0.005023 761507.000000 0 0 1
30.183145 -1.856228 -24.884829 39.162770 -0.061421 2.259349 0.066199 -0.013426 -1300910.000000 0 0 1
29.876645 -1.706828 -26.262819 39.815359 -0.057067 2.291103 0.066142 -0.019322 -59751.700000 0 0 1
30.619745 -0.672428 -26.863779 40.739214 -0.021957 2.290828 0.076427 -0.027544 -746467.000000 0 0 1
30.062545 -0.185828 -28.195829 41.216452 -0.006181 2.324154 0.076082 -0.036528 141293.000000 0 0 1
28.756945 0.375472 -28.152859 40.245327 0.013056 2.345537 0.084196 -0.035992 458150.000000 0 0 1
28.689045 1.668972 -27.555589 39.814033 0.058109 2.335201 0.076272 -0.036299 -1000540.000000 0 0 1
27.271045 2.243172 -27.608899 38.871494 0.082070 2.360665 0.100673 -0.033466 -816981.000000 0 0 1
26.442545 1.725072 -26.613409 37.556059 0.065146 2.358353 0.111945 -0.022780 -1646050.000000 0 0 1
25.183245 2.030772 -27.043819 37.009296 0.080466 2.390188 0.094293 -0.022587 -1798060.000000 0 0 1
24.073345 1.517672 -26.120689 35.554460 0.062960 2.395972 0.088225 -0.024243 -455650.000000 0 0 1
23.932045 2.207872 -24.914329 34.617066 0.091995 2.374184 0.102892 -0.026326 45130.300000 0 0 1
22.941845 1.620072 -24.122829 33.329623 0.070499 2.380040 0.089741 -0.010939 -536819.000000 0 0 1
22.930945 2.272472 -22.706429 32.350800 0.098778 2.348832 0.088425 -0.013270 -334957.000000 0 0 1
22.437845 3.578572 -22.672729 32.098531 0.158156 2.355122 0.105371 -0.020361 405442.000000 0 0 1
22.418545 4.011972 -21.354129 31.219960 0.177083 2.324014 0.105016 -0.028636 -142028.000000 0 0 1
21.903545 5.474772 -21.170629 30.950508 0.244931 2.324050 0.117666 -0.026726 -30892.900000 0 0 1
22.845445 6.482272 -21.498729 32.033257 0.276478 2.306539 0.111644 -0.019381 422124.000000 0 0 1
22.495745 7.758872 -20.938629 31.696763 0.332128 2.292403 0.122234 -0.019124 -229030.000000 0 0 1
22.772645 8.011072 -19.418629 30.981507 0.338264 2.248212 0.124904 -0.031457 788545.000000 0 0 1
24.176545 7.905572 -19.064729 31.787848 0.316034 2.213984 0.111075 -0.029921 1507420.000000 0 0 1
24.546145 7.974672 -17.703929 31.297567 0.314128 2.172035 0.111352 -0.045078 -233982.000000 0 0 1
24.495045 9.370572 -17.103529 31.310470 0.365373 2.148684 0.108165 -0.055480 84852.300000 0 0 1
23.137045 9.777172 -16.948429 30.301240 0.399816 2.164375 0.123109 -0.060175 370572.000000 0 0 1
22.996845 11.151472 -16.628929 30.491498 0.451505 2.147618 0.094204 -0.057517 -1316140.000000 0 0 1
21.599545 11.720872 -16.557129 29.632038 0.497178 2.163683 0.095193 -0.060283 -205853.000000 0 0 1
20.673045 11.621572 -17.653829 29.565070 0.512132 2.210700 0.098009 -0.062419 602199.000000 0 0 1
20.180945 10.283572 -17.776729 28.792959 0.471273 2.236228 0.100692 -0.061181 -1191920.000000 0 0 1
19.271345 10.170672 -18.971329 28.891843 0.485609 2.287142 0.113915 -0.039579 -490275.000000 0 0 1
19.962845 10.193172 -20.213029 30.182486 0.472097 2.304593 0.115715 -0.034622 610614.000000 0 0 1
19.102945 9.995072 -21.358429 30.348088 0.482052 2.351503 0.101004 -0.024043 -12973.500000 0 0 1
19.845045 10.066872 -22.670229 31.766444 0.469450 2.365496 0.102200 -0.012728 -323333.000000 0 0 1
20.134645 11.401272 -23.058429 32.666253 0.515235 2.354460 0.088812 -0.014626 158689.000000 0 0 1
20.949845 11.471672 -24.196729 33.999661 0.500982 2.362677 0.101988 -0.017109 -126375.000000 0 0 1
21.167245 12.947172 -24.675629 34.993831 0.548949 2.353420 0.113311 -0.028040 191119.000000 0 0 1
22.060145 13.148072 -25.783949 36.391397 0.537481 2.358192 0.109791 -0.026981 258671.000000 0 0 1
22.251045 14.467072 -26.206759 37.298785 0.576498 2.349865 0.106413 -0.017933 -309248.000000 0 0 1
21.051345 15.198872 -26.822509 37.331111 0.625333 2.372444 0.079250 -0.023114 22442.700000 0 0 1
19.914345 15.207772 -25.975349 36.091221 0.652186 2.374186 0.073735 -0.022295 -326894.000000 0 0 1
18.829645 15.871272 -26.593879 36.244823 0.700350 2.394591 0.081532 -0.025039 479614.000000 0 0 1
17.450845 15.338472 -26.108059 34.948983 0.721064 2.414385 0.086654 -0.028158 81909.600000 0 0 1
17.197745 13.976272 -26.451599 34.507763 0.682425 2.444233 0.088449 -0.020050 39086.000000 0 0 1
15.940645 13.488572 -26.043169 33.381018 0.702269 2.465748 0.064633 -0.017937 -147007.000000 0 0 1
15.754845 11.940072 -26.110549 32.749675 0.648517 2.493566 0.050083 -0.013641 490101.000000 0 0 1
14.401245 11.505372 -25.979799 31.854660 0.674079 2.524515 0.046006 -0.011491 583108.000000 0 0 1
14.377245 10.072972 -25.833949 31.234002 0.611141 2.544742 0.043764 -0.015910 -413275.000000 0 0 1
12.962645 9.491272 -25.829759 30.418594 0.632013 2.585158 0.083693 -0.031330 -170063.000000 0 0 1
12.222945 9.864972 -24.674829 29.250047 0.679047 2.574716 0.109142 -0.037855 -137399.000000 0 0 1
10.950945 9.258972 -24.620829 28.492753 0.701873 2.614173 0.114360 -0.039151 -32739.800000 0 0 1
10.185845 9.824072 -23.400929 27.347163 0.767320 2.597696 0.119217 -0.042180 -94552.500000 0 0 1
9.624445 11.100772 -23.675329 27.863565 0.856511 2.586189 0.127184 -0.044265 -54570.300000 0 0 1
8.929545 11.751972 -22.621129 27.010389 0.921031 2.563483 0.131140 -0.032636 139916.000000 0 0 1
9.795245 12.555672 -21.618829 26.850800 0.908280 2.506719 0.115030 -0.030293 520324.000000 0 0 1
10.714245 11.683272 -20.903929 26.234865 0.828636 2.492776 0.146794 -0.027593 345614.000000 0 0 1
11.269845 12.318872 -19.759829 25.869187 0.829840 2.440033 0.177983 -0.042165 -13650.500000 0 0 1
12.164345 11.303672 -18.997629 25.232007 0.748740 2.423281 0.177369 -0.042742 -537298.000000 0 0 1
13.274645 10.773172 -19.632929 26.033235 0.681750 2.425153 0.151882 -0.040729 -481298.000000 0 0 1
13.042945 9.822372 -20.651729 26.326627 0.645469 2.472593 0.144378 -0.045138 -549625.000000 0 0 1
14.183945 8.813872 -21.005429 26.834617 0.556005 2.469907 0.152082 -0.034768 191561.000000 0 0 1
14.637945 7.966872 -19.934229 25.982955 0.498427 2.445267 0.163504 -0.059850 -351986.000000 0 0 1
15.512045 7.074272 -20.482829 26.649862 0.427874 2.447431 0.118231 -0.054447 -526725.000000 0 0 1
16.306245 6.236372 -19.393929 26.094261 0.365289 2.408675 0.189154 -0.063166 462015.000000 0 0 1
17.403245 6.910572 -18.786429 26.524684 0.377991 2.357830 0.144418 -0.042344 247669.000000 0 0 1
17.624045 6.278972 -17.554229 25.655085 0.342252 2.324357 0.150673 -0.060223 -763891.000000 0 0 1
18.775145 6.632872 -16.638029 25.948508 0.339593 2.266850 0.212816 -0.043938 -461216.000000 0 0 1
20.040445 6.260672 -17.144229 27.106088 0.302795 2.255555 0.165152 -0.057497 91833.100000 0 0 1
21.070145 6.567372 -16.217129 27.387527 0.302148 2.204503 0.156561 -0.074568 -7.569100 0 0 1
22.080545 5.375072 -16.176729 27.894953 0.238786 2.189422 0.146125 -0.073632 -926911.000000 0 0 1
23.057545 5.618772 -15.200829 28.183083 0.239026 2.140473 0.123280 -0.062512 432865.000000 0 0 1
23.862545 4.517172 -14.795929 28.438449 0.187086 2.117974 0.193458 -0.077272 309507.000000 0 0 1
24.924945 3.982472 -15.809829 29.783614 0.158439 2.130368 0.076010 -0.011773 23315.900000 0 0 1
25.850045 3.088572 -15.147429 30.119905 0.118917 2.097752 0.088508 -0.020993 426226.000000 0 0 1
26.775345 2.580172 -16.052729 31.325173 0.096067 2.108837 0.070309 -0.027407 276576.000000 0 0 1
27.710445 1.432072 -15.559929 31.812434 0.051634 2.081871 0.082380 -0.037130 -163220.000000 0 0 1
26.942945 0.258072 -15.591729 31.130225 0.009578 2.095383 0.105708 -0.034469 -3003.970000 0 0 1
27.748945 -0.922328 -15.602429 31.847926 -0.033226 2.082776 0.099375 -0.025097 -352786.000000 0 0 1
27.132245 -2.299028 -15.924729 31.544274 -0.084532 2.099990 0.083620 -0.026334 -373548.000000 0 0 1
26.516045 -2.940728 -14.814129 30.515683 -0.110452 2.077685 0.100415 -0.026033 551621.000000 0 0 1
25.952245 -4.227428 -15.162829 30.352950 -0.161474 2.093876 0.088573 -0.022086 -709647.000000 0 0 1
25.388045 -5.101128 -13.990429 29.433084 -0.198286 2.066135 0.111228 -0.030529 1094130.000000 0 0 1
24.080145 -4.768328 -13.483429 28.007020 -0.195490 2.073082 0.160677 -0.021764 1300460.000000 0 0 1
23.016645 -5.083528 -14.396929 27.620278 -0.217373 2.119105 0.173926 -0.025917 -584531.000000 0 0 1
21.667745 -4.636328 -13.791729 26.099780 -0.210795 2.127539 0.193575 -0.027476 -125874.000000 0 0 1
20.898545 -5.701928 -13.188429 25.361306 -0.266356 2.117673 0.204415 -0.030854 639484.000000 0 0 1
21.331245 -6.134428 -11.906329 25.187574 -0.280023 2.063156 0.226210 -0.028688 -359650.000000 0 0 1
20.839745 -7.578128 -11.581129 25.016905 -0.348773 2.052097 0.179925 -0.019087 578896.000000 0 0 1
19.472645 -7.755428 -11.185229 23.757944 -0.379017 2.060993 0.180826 -0.022307 956629.000000 0 1 0
19.147645 -8.963228 -11.854729 24.238531 -0.437813 2.081838 0.166629 -0.027332 -916498.000000 0 1 0
17.763145 -9.393728 -11.419229 23.112123 -0.486447 2.087572 0.154716 -0.037218 -699032.000000 0 1 0
16.725345 -8.494528 -11.726529 22.122515 -0.469935 2.129482 0.137337 -0.026822 195116.000000 0 1 0
15.474445 -9.111728 -11.950629 21.570804 -0.532162 2.157980 0.124866 -0.022756 151338.000000 0 1 0
14.299545 -8.155828 -12.250929 20.520229 -0.518337 2.210574 0.092814 -0.011888 -360802.000000 0 1 0
14.248045 -7.249828 -13.384129 20.849501 -0.470686 2.267822 0.090535 -0.014717 -640398.000000 0 1 0
15.340745 -6.441528 -13.556929 21.462108 -0.397540 2.254499 0.102235 -0.009624 -975870.000000 0 1 0
15.086045 -5.353328 -14.641929 21.694077 -0.340992 2.311663 0.100395 -0.013760 -238035.000000 0 1 0
14.134345 -4.447228 -14.160329 20.495669 -0.304833 2.333521 0.104567 -0.020037 -10258.100000 0 1 0
13.765845 -3.430528 -15.095429 20.715670 -0.244231 2.387212 0.091984 -0.025702 -524945.000000 0 1 0
14.752745 -2.280428 -15.276629 21.359289 -0.153363 2.367738 0.132652 -0.028425 -1085940.000000 0 1 0
15.747345 -2.559128 -16.228729 22.757409 -0.161103 2.364733 0.130669 -0.020409 518019.000000 0 1 0
16.785745 -1.557628 -16.151629 23.346575 -0.092530 2.334803 0.142162 -0.028212 1438040.000000 0 1 0
17.993745 -1.873928 -15.165329 23.606645 -0.103769 2.268445 0.175521 -0.027654 376168.000000 0 1 0
17.542645 -1.973428 -13.802129 22.408426 -0.112022 2.234368 0.157587 -0.021429 314226.000000 0 1 0
18.472645 -2.686928 -13.020029 22.759160 -0.144441 2.179834 0.161879 -0.019034 -173030.000000 0 1 0
18.099745 -2.683228 -11.520529 21.622282 -0.147175 2.132712 0.163687 -0.022486 -349863.000000 0 1 0
18.135545 -1.457328 -10.861229 21.189339 -0.080185 2.108983 0.164544 -0.021838 699453.000000 0 1 0
17.755945 -1.675428 -9.465729 20.191104 -0.094080 2.058736 0.147534 -0.018767 -429023.000000 0 1 0
17.615045 -0.453228 -8.536729 19.579861 -0.025724 2.021940 0.123891 -0.013565 592345.000000 0 1 0
18.861545 -0.013328 -7.954729 20.470363 -0.000707 1.969905 0.143326 -0.012906 1969210.000000 0 1 0
19.831045 0.697872 -8.788629 21.702474 0.035176 1.987731 0.171242 -0.011843 556888.000000 0 1 0
19.331045 1.936272 -9.645629 21.690473 0.099831 2.031629 0.171441 -0.014019 -571875.000000 0 1 0
18.966945 3.047172 -8.855929 21.153197 0.159296 2.002762 0.124535 0.002672 290828.000000 0 1 0
18.510545 4.088072 -9.658129 21.275151 0.217362 2.042004 0.130800 -0.009478 -456318.000000 0 1 0
18.728045 5.522872 -9.061829 21.525764 0.286770 2.005317 0.126368 0.007661 -241994.000000 0 1 0
18.114245 6.545572 -9.822829 21.620785 0.346750 2.042409 0.114040 0.005063 492900.000000 0 1 0
18.434445 7.843672 -9.381129 22.121427 0.402286 2.008736 0.129900 0.005290 -30658.400000 0 1 0
-27.703245 -28.680588 5.294771 40.225372 0.802730 1.438786 0.139968 -0.021844 71227.400000 0 0 1
-28.013085 -27.567748 6.007271 39.759288 0.777386 1.419124 0.117078 -0.017324 -404641.000000 0 0 1
-27.226815 -26.470588 5.642371 38.390466 0.771316 1.423289 0.157138 -0.029524 -625542.000000 0 0 1
-27.231765 -25.375438 6.722471 37.824245 0.750126 1.392118 0.118020 -0.022635 419348.000000 0 0 1
-28.416255 -24.560028 6.815071 38.172290 0.712735 1.391300 0.096989 -0.027208 1385510.000000 0 0 1
-29.570335 -25.232738 7.405971 39.572013 0.706414 1.382534 0.091027 -0.022019 752096.000000 0 0 1
-29.637025 -25.396618 8.919571 40.036237 0.708499 1.346123 0.094302 -0.024259 -597646.000000 0 0 1
-28.666155 -26.264538 9.408471 40.001172 0.741705 1.333367 0.091242 -0.024936 -453883.000000 0 0 1
-28.759835 -26.438388 10.841671 40.542056 0.743366 1.300084 0.070685 -0.027407 341819.000000 0 0 1
-27.388945 -27.020368 11.334571 40.108941 0.778624 1.284298 0.047172 -0.021301 1889120.000000 0 0 1
-26.317255 -26.071518 11.672071 38.840176 0.780708 1.265563 0.063444 -0.005276 974193.000000 0 0 1
-26.596285 -25.428738 12.890771 38.989166 0.762960 1.233831 0.067514 -0.011726 -163895.000000 0 0 1
-25.320745 -24.982158 13.668171 38.106001 0.778667 1.203934 0.080853 -0.022395 239156.000000 0 0 1
-24.564955 -26.072498 14.121971 38.505094 0.815161 1.195277 0.064636 -0.016468 204552.000000 0 0 1
-23.423955 -25.677688 14.895471 37.814024 0.831265 1.165910 0.072115 -0.021622 224092.000000 0 0 1
-22.746055 -26.884508 15.586771 38.511131 0.868591 1.154108 0.067182 -0.024544 -660664.000000 0 0 1
-23.540955 -27.649818 16.429671 39.857535 0.865492 1.145918 0.054308 -0.015910 -183285.000000 0 0 1
-22.829355 -28.778238 16.860771 40.418462 0.900163 1.140483 0.055724 -0.014778 356718.000000 0 0 1
-23.691555 -29.720178 17.817371 41.976630 0.897793 1.132432 0.062555 -0.022963 453777.000000 0 0 1
-24.755155 -30.370198 17.160171 42.774269 0.886908 1.157992 0.046775 -0.009072 282145.000000 0 0 1
-25.349395 -31.383478 17.957771 44.158760 0.891359 1.151997 0.063734 -0.012300 -165921.000000 0 0 1
-26.227005 -32.335658 17.121671 45.017799 0.889332 1.180642 0.056509 -0.015282 80768.900000 0 0 1
-25.457015 -33.293138 16.373271 44.995296 0.917996 1.198357 0.058383 -0.019905 246161.000000 0 0 1
-26.211185 33.407059 15.649071 45.254295 -0.905516 1.217702 0.061345 -0.023521 -909101.000000 0 0 1
-25.484805 32.759377 14.451271 43.948735 -0.909653 1.235741 0.078549 -0.027430 162241.000000 0 0 1
-24.402755 31.876189 14.692471 42.748738 -0.917418 1.219949 0.062635 -0.024738 -66121.600000 0 0 1
-23.195355 32.575554 14.821071 42.648041 -0.952030 1.215871 0.057738 -0.020610 -386196.000000 0 0 1
-21.940355 31.655450 14.637371 41.203147 -0.964717 1.207616 0.071210 -0.030284 -79512.800000 0 0 1
-21.823955 31.212740 13.323771 40.349015 -0.960607 1.234267 0.057475 -0.013560 -442410.000000 0 0 1
-20.810455 30.308680 13.058071 39.015437 -0.969109 1.229520 0.070655 -0.025035 -463184.000000 0 0 1
-20.866455 29.689950 11.629271 38.106981 -0.958186 1.260675 0.070939 -0.022475 -28521.200000 0 0 1
-20.438255 30.548460 10.586171 38.249153 -0.981150 1.290366 0.063623 -0.014143 189296.000000 0 0 1
-20.893455 30.047800 9.285371 37.757448 -0.963204 1.322326 0.078539 -0.026532 4582.200000 0 0 1
-20.195855 30.744760 8.122271 37.670733 -0.989594 1.353478 0.074807 -0.029484 -336430.000000 0 0 1
-18.816955 30.492810 8.085071 36.732242 -1.017902 1.348871 0.076153 -0.033941 -588050.000000 0 0 1
-18.211255 30.971900 6.919171 36.589388 -1.039252 1.380548 0.101193 -0.036742 8557.110000 0 0 1
-17.461555 29.924990 6.078371 35.176093 -1.042589 1.397126 0.111345 -0.042448 -226332.000000 0 0 1
-18.266255 28.852950 5.608571 34.606428 -1.006407 1.408011 0.107222 -0.032259 -67873.700000 0 0 1
-18.485755 27.863810 6.574471 34.078420 -0.985036 1.376657 0.079265 -0.030731 -193285.000000 0 0 1
-19.729855 27.026380 6.255171 34.041439 -0.940204 1.385995 0.070428 -0.019315 -85233.700000 0 0 1
-19.481055 26.175420 5.096171 33.024764 -0.930985 1.415864 0.083988 -0.031571 437316.000000 0 0 1
-20.679755 25.827640 4.420571 33.380544 -0.895639 1.437977 0.075822 -0.027825 -655579.000000 0 0 1
-20.460555 25.007260 3.139171 32.463083 -0.885065 1.473945 0.096345 -0.043157 -1427710.000000 0 0 1
-20.166455 25.800830 1.996171 32.807826 -0.907363 1.509914 0.113867 -0.046120 717298.000000 0 0 1
-18.893555 26.452470 1.898971 32.562335 -0.950574 1.512445 0.115308 -0.046173 263246.000000 0 0 1
-17.624755 25.600640 2.149671 31.155189 -0.967864 1.501743 0.117961 -0.054847 -1323370.000000 0 0 1
-17.398655 24.440990 1.312471 30.029948 -0.952152 1.527077 0.162590 -0.066411 240149.000000 0 0 1
-17.300755 24.633270 -0.091629 30.101869 -0.958506 1.573840 0.140459 -0.059730 -400441.000000 0 0 1
-16.716555 23.481970 -0.871429 28.837571 -0.952136 1.601019 0.145343 -0.060195 -224082.000000 0 0 1
-17.616755 22.372950 -0.909029 28.490793 -0.903778 1.602708 0.164640 -0.072057 299191.000000 0 0 1
-17.435355 21.283250 -1.780629 27.570618 -0.884454 1.635426 0.155695 -0.055771 50267.300000 0 0 1
-16.147755 20.437850 -1.526429 26.091870 -0.902127 1.629332 0.149389 -0.051168 262208.000000 0 0 1
-16.398955 19.295050 -0.745029 25.333372 -0.866358 1.600210 0.151747 -0.053885 292504.000000 0 0 1
-15.242755 18.583250 -0.370429 24.037803 -0.883834 1.586207 0.139609 -0.048290 102055.000000 0 1 0
-15.761055 17.584550 0.684371 23.624047 -0.840028 1.541823 0.111981 -0.040726 444740.000000 0 1 0
-16.360355 16.415650 0.113971 23.176448 -0.787085 1.565879 0.100266 -0.041036 187408.000000 0 1 0
-17.052655 15.756950 1.133071 23.245609 -0.745927 1.522034 0.117275 -0.054960 47259.000000 0 1 0
-17.875055 14.505750 0.720871 23.031588 -0.681719 1.539492 0.119239 -0.051744 -202993.000000 0 1 0
-18.895455 14.657550 -0.217329 23.915042 -0.659759 1.579884 0.157040 -0.066854 45488.200000 0 1 0
-19.662555 13.448250 -0.287229 23.823392 -0.599874 1.582853 0.170614 -0.060210 -40304.000000 0 1 0
-20.916155 13.611750 -1.186529 24.983457 -0.576921 1.618307 0.174864 -0.053775 -44902.900000 0 1 0
-21.718455 12.441850 -1.309529 25.064034 -0.520232 1.623067 0.173844 -0.057966 678620.000000 0 0 1
-22.587455 12.040550 -0.269729 25.597670 -0.489747 1.581334 0.183755 -0.058858 10679.300000 0 0 1
-23.955555 12.789450 -0.188629 27.156477 -0.490385 1.577742 0.203636 -0.059955 -243773.000000 0 0 1
-23.954355 14.067550 0.424071 27.782853 -0.531003 1.555532 0.214581 -0.064026 -12767.000000 0 0 1
-25.244945 14.616650 0.392971 29.173758 -0.524830 1.557326 0.201341 -0.052923 -168676.000000 0 0 1
-25.175645 16.082950 0.810071 29.885291 -0.568483 1.543687 0.195335 -0.056815 -132969.000000 0 0 1
-24.948555 16.250250 2.183671 29.854136 -0.577324 1.497586 0.190580 -0.054505 47242.500000 0 0 1
-24.818955 17.616550 2.529871 30.540524 -0.617274 1.487865 0.166379 -0.052875 371461.000000 0 0 1
-26.150415 18.441150 2.466071 32.093640 -0.614204 1.493881 0.189287 -0.048790 -512818.000000 0 0 1
-26.954155 18.087550 3.552871 32.654384 -0.591030 1.461778 0.198547 -0.063051 473582.000000 0 0 1
-28.158495 18.850550 3.776971 34.095595 -0.589923 1.459793 0.182764 -0.060659 1246370.000000 0 0 1
-29.293585 18.620550 2.722271 34.817377 -0.566223 1.492529 0.187333 -0.062135 522343.000000 0 0 1
-30.528745 19.341650 3.024271 36.266374 -0.564728 1.487309 0.179224 -0.058489 1391720.000000 0 0 1
-31.348295 19.297750 1.843371 36.858062 -0.551805 1.520763 0.166399 -0.051229 561411.000000 0 0 1
-32.715535 20.033250 1.972271 38.412592 -0.549449 1.519429 0.170449 -0.054064 520154.000000 0 0 1
-33.762655 19.307450 2.627071 38.981996 -0.519470 1.503353 0.205847 -0.051692 840412.000000 0 0 1
-35.026753 19.946950 2.463171 40.383430 -0.517674 1.509764 0.188570 -0.047875 534907.000000 0 0 1
-35.524072 20.623550 3.750871 41.247540 -0.525996 1.479735 0.164460 -0.050386 -721998.000000 0 0 1
-34.641752 21.635650 4.068771 41.045185 -0.558279 1.471504 0.174038 -0.052710 -31431.600000 0 0 1
-34.589284 21.856450 5.480971 41.281521 -0.563535 1.437633 0.177430 -0.050343 149734.000000 0 0 1
-33.336845 22.733600 5.795471 40.764559 -0.598499 1.428144 0.181038 -0.052339 85832.800000 0 0 1
-33.494585 24.048540 5.244671 41.565924 -0.622693 1.444282 0.163461 -0.044069 792890.000000 0 0 1
-32.458805 24.897550 5.753571 41.310599 -0.654325 1.431066 0.156842 -0.045698 248174.000000 0 0 1
-32.663255 26.360950 5.368771 42.315619 -0.679026 1.443579 0.161105 -0.032511 97513.400000 0 0 1
-33.805695 26.802630 6.081271 43.568198 -0.670362 1.430759 0.158945 -0.026055 424346.000000 0 0 1
-34.285032 28.108470 5.862871 44.720496 -0.686726 1.439318 0.143442 -0.018526 15990.800000 0 0 1
-35.359032 28.476020 6.900571 45.921267 -0.677988 1.419955 0.127496 -0.013698 -312407.000000 0 0 1
-34.737934 28.626540 8.200071 45.754169 -0.689247 1.390603 0.138344 -0.017077 1097740.000000 0 0 1
-35.614093 29.074360 9.275771 46.901193 -0.684645 1.371711 0.140871 -0.017933 52306.200000 0 0 1
-36.850685 28.225090 9.570571 47.394351 -0.653619 1.367463 0.135788 -0.023264 -626342.000000 0 0 1
-36.623025 27.141180 10.401271 46.755492 -0.637778 1.346458 0.152665 -0.035914 -339262.000000 0 0 1
-37.747135 26.646970 11.066371 47.511807 -0.614697 1.335719 0.150684 -0.043299 -456859.000000 0 0 1
-37.503475 25.340800 11.860771 46.790433 -0.594225 1.314513 0.170176 -0.040702 145822.000000 0 0 1
-36.301075 25.495940 12.612071 46.118059 -0.612299 1.293794 0.182006 -0.051081 305439.000000 0 0 1
-36.005265 24.420730 13.426671 45.530502 -0.595982 1.271452 0.172918 -0.043976 189322.000000 0 0 1
-34.627717 24.715160 14.114371 44.823357 -0.619888 1.250457 0.175533 -0.046327 449101.000000 0 0 1
-34.688569 25.627040 15.173371 45.719505 -0.636278 1.232501 0.167532 -0.041443 -951030.000000 0 0 1
-33.434625 26.012560 15.565571 45.131080 -0.661189 1.218667 0.194548 -0.038317 -944559.000000 0 0 1
-33.574415 27.228110 16.474971 46.260523 -0.681399 1.206668 0.195387 -0.030821 43650.900000 0 0 1
-33.552475 28.474080 15.822771 46.764323 -0.703706 1.225632 0.205143 -0.029620 140934.000000 0 0 1
-33.581975 29.445000 16.839171 47.731695 -0.719854 1.210247 0.172956 -0.023069 -112381.000000 0 0 1
-33.260295 30.878740 16.386971 48.252219 -0.748284 1.224293 0.142392 -0.017680 -933815.000000 0 0 1
-31.926755 31.138140 16.163371 47.435809 -0.772894 1.223090 0.135108 -0.012582 -1182380.000000 0 0 1
-31.653935 32.415958 15.695271 47.949009 -0.797291 1.237317 0.108401 -0.004463 231873.000000 0 0 1
-30.192475 32.556497 15.154171 46.916521 -0.823055 1.241896 0.131217 -0.013255 567366.000000 0 0 1
-29.853755 31.904623 13.920671 45.857788 -0.818594 1.262368 0.124785 -0.013229 5096.460000 0 0 1
-29.622125 30.484630 14.039871 44.764952 -0.799747 1.251777 0.147906 -0.021767 493020.000000 0 0 1
-30.814415 29.531690 13.579171 44.788869 -0.764145 1.262766 0.179924 -0.026486 814042.000000 0 0 1
-31.023665 29.560840 12.172671 44.547558 -0.761258 1.294025 0.176192 -0.028216 649766.000000 0 0 1
-31.927395 28.462860 11.801471 44.370797 -0.728092 1.301582 0.172202 -0.030131 833832.000000 0 0 1
-31.913675 28.295800 10.269771 43.870299 -0.725382 1.334510 0.166904 -0.026132 -429813.000000 0 0 1
-30.799635 27.577380 9.869171 42.503293 -0.730257 1.336460 0.154733 -0.023370 -671866.000000 0 0 1
-30.737625 27.405510 8.491071 42.047138 -0.728152 1.367456 0.152071 -0.026306 -253726.000000 0 0 1
-29.497595 26.734360 7.903071 40.586853 -0.736298 1.374824 0.169807 -0.026757 -286109.000000 0 0 1
-29.336745 27.029750 6.550271 40.424721 -0.744493 1.408042 0.167433 -0.034161 -310008.000000 0 0 1
-28.302915 26.273540 5.975571 39.077632 -0.748231 1.417279 0.134937 -0.028293 -200784.000000 0 0 1
-27.974345 26.577060 4.526671 38.850931 -0.759790 1.454017 0.124745 -0.019638 -207979.000000 0 0 1
-27.216325 27.757900 4.352671 39.117453 -0.795249 1.459294 0.102547 -0.019184 300116.000000 0 0 1
-27.008965 28.004580 2.982871 39.020997 -0.803494 1.494279 0.102755 -0.018278 -145343.000000 0 0 1
-25.882575 29.049520 2.778871 39.006466 -0.842986 1.499495 0.091835 -0.018320 313107.000000 0 0 1
-24.589855 28.552350 3.076171 37.806884 -0.859824 1.489341 0.074312 -0.019314 -37970.300000 0 0 1
-23.607355 29.544770 2.938971 37.932021 -0.896643 1.493239 0.080316 -0.012542 -333662.000000 0 0 1
-22.157355 29.081260 3.120271 36.693380 -0.919715 1.485657 0.060940 -0.023798 -295189.000000 0 0 1
-21.301055 30.172480 2.893871 37.047105 -0.956071 1.492603 0.081821 -0.017490 -828049.000000 0 0 1
-19.966155 29.808860 3.120071 36.013196 -0.980623 1.484051 0.099724 -0.038909 205133.000000 0 0 1
-18.923855 30.887030 2.634871 36.318913 -1.021106 1.498184 0.091556 -0.033330 485114.000000 0 0 1
-18.743455 32.118045 3.365671 37.339170 -1.042538 1.480536 0.115288 -0.033833 179679.000000 0 0 1
-17.504255 32.662840 2.936471 37.173686 -1.078837 1.491721 0.120050 -0.021455 293504.000000 0 0 1
-17.198655 -33.742228 3.781571 38.060899 1.099413 1.471276 0.128394 -0.027543 -554841.000000 0 0 1
-18.108955 -32.713088 3.662471 37.569856 1.065217 1.473157 0.146083 -0.031990 -573991.000000 0 0 1
-17.722455 -31.628658 4.471871 36.530194 1.060058 1.448073 0.136563 -0.049252 4496.710000 0 0 1
-18.774755 -30.511468 4.622071 36.122080 1.019178 1.442488 0.177571 -0.041423 35978.300000 0 0 1
-19.227755 -29.898188 3.416071 35.711032 0.999282 1.474991 0.197018 -0.047862 97449.900000 0 0 1
-20.201255 -28.926358 3.700071 35.475561 0.961166 1.466307 0.222067 -0.057627 -199647.000000 0 0 1
-20.537255 -27.881258 2.606271 34.726590 0.935928 1.495675 0.204088 -0.067902 223883.000000 0 0 1
-19.456855 -26.969818 2.479371 33.347978 0.945832 1.496379 0.215449 -0.067843 356237.000000 0 0 1
-19.895955 -25.834838 1.803571 32.657936 0.914542 1.515542 0.177044 -0.068345 262104.000000 0 0 1
-18.826955 -24.711128 1.680471 31.111382 0.919734 1.516755 0.147797 -0.052186 453294.000000 0 0 1
-17.689955 -25.064358 0.927771 30.692301 0.956201 1.540564 0.197237 -0.050426 15963.300000 0 0 1
-16.586355 -24.169828 1.071571 29.333190 0.969364 1.534257 0.158904 -0.043174 42481.100000 0 0 1
-15.344055 -24.606428 0.316271 29.000282 1.013219 1.559890 0.125482 -0.035907 -774125.000000 0 0 1
-15.476455 -24.687228 -1.056129 29.156394 1.010831 1.607027 0.108812 -0.030457 50814.400000 0 0 1
-15.486255 -23.466128 -1.741629 28.169426 0.987465 1.632663 0.116710 -0.036810 -161924.000000 0 0 1
-15.564555 -23.601328 -3.286829 28.461928 0.987787 1.686536 0.070573 -0.022141 678315.000000 0 0 1
-14.298255 -23.960928 -3.856329 28.168022 1.032783 1.708132 0.100676 -0.022251 614272.000000 0 0 1
-14.394055 -23.804228 -5.237429 28.306550 1.026939 1.756894 0.084335 -0.020361 788963.000000 0 0 1
-13.117455 -24.421628 -5.907829 28.344065 1.077892 1.780768 0.110943 -0.030770 526488.000000 0 0 1
-13.154955 -25.825628 -5.989429 29.595425 1.099676 1.774581 0.088201 -0.032962 -406475.000000 0 0 1
-12.249155 -26.319778 -6.920129 29.843940 1.135212 1.804803 0.109132 -0.034788 -258733.000000 0 0 1
24.083045 12.852872 27.684876 38.879837 0.490235 0.778365 0.091153 -0.012682 920056.000000 0 0 1
25.389645 12.205872 27.718216 39.521094 0.448123 0.793503 0.088749 -0.017534 1415280.000000 0 0 1
25.480545 11.111572 28.665956 39.930718 0.411218 0.770026 0.100872 -0.020918 -344847.000000 0 0 1
25.559445 11.485272 30.173096 41.177814 0.422318 0.748440 0.121832 -0.028646 332538.000000 0 0 1
24.409645 12.253072 30.538386 40.970252 0.465228 0.729692 0.126257 -0.021105 365512.000000 0 0 1
24.558145 12.909972 31.775992 42.183925 0.483988 0.717773 0.101645 -0.023289 -1242720.000000 0 0 1
23.461845 13.886672 32.023161 42.056874 0.534430 0.705288 0.101126 -0.022812 -1051280.000000 0 0 1
22.278545 13.197372 32.323352 41.416220 0.534798 0.675409 0.133400 -0.022788 -343074.000000 0 0 1
21.452245 14.040272 33.124379 41.887379 0.579525 0.658688 0.110189 -0.022076 518963.000000 0 0 1
20.191345 13.372572 -33.608049 41.424836 0.584968 2.517172 0.102529 -0.016997 406591.000000 0 0 1
19.064945 13.202672 32.929529 40.275756 0.605682 0.613563 0.106546 -0.009513 731711.000000 0 0 1
18.052545 12.475772 -33.685209 40.202395 0.604715 2.564204 0.081764 -0.014014 1292300.000000 0 0 1
16.568045 12.487672 33.220029 39.166470 0.645878 0.558265 0.065697 -0.007219 714835.000000 0 0 1
16.262245 11.520872 32.260955 37.920447 0.616370 0.553379 0.066694 0.000895 -969259.000000 0 0 1
14.899245 11.315472 32.115131 37.167311 0.649532 0.527498 0.080791 -0.003447 -608316.000000 0 0 1
14.664545 10.323372 30.955576 35.775251 0.613384 0.525089 0.095176 -0.002867 74015.700000 0 0 1
15.110745 9.002972 31.365579 35.960918 0.537325 0.511088 0.060018 -0.008494 314136.000000 0 0 1
15.462045 8.185772 30.197726 34.899632 0.486898 0.525101 0.060408 -0.018260 5918.350000 0 0 1
15.966245 6.766572 30.506726 35.090850 0.400858 0.516882 0.089321 -0.029746 -44719.400000 0 0 1
15.000045 5.830072 30.942046 34.876945 0.370701 0.479604 0.091911 -0.025898 98109.800000 0 0 1
15.604045 4.555172 31.261426 35.235104 0.284030 0.479504 0.085054 -0.037554 185385.000000 0 0 1
14.546245 3.398972 31.296735 34.678983 0.229548 0.445327 0.060190 -0.034129 41796.900000 0 0 1
15.023445 2.111372 31.771044 35.207400 0.139624 0.445497 0.060075 -0.037666 -647060.000000 0 0 1
14.034445 1.162472 31.911210 34.880400 0.082641 0.415598 0.066484 -0.042397 -843282.000000 0 0 1
14.528945 -0.186828 32.560261 35.655234 -0.012858 0.419734 0.056822 -0.043745 -308710.000000 0 0 1
15.333145 -0.933728 31.705198 35.230622 -0.060821 0.451181 0.086067 -0.051266 -232044.000000 0 0 1
15.618245 -2.195028 32.192785 35.848614 -0.139628 0.455547 0.114209 -0.058051 61247.400000 0 0 1
16.071645 -3.211828 31.055826 35.115209 -0.197246 0.485593 0.121573 -0.063561 -1409050.000000 0 0 1
16.208245 -4.628428 31.384564 35.624716 -0.278157 0.492873 0.130935 -0.060706 -338506.000000 0 0 1
17.300645 -5.052028 32.135864 36.844932 -0.284114 0.511130 0.099883 -0.060391 503026.000000 0 0 1
18.760145 -4.630228 31.725488 37.146852 -0.241976 0.547063 0.111016 -0.056351 -5381.860000 0 0 1
18.987545 -3.238728 31.766679 37.150210 -0.168945 0.545077 0.112457 -0.057884 -253924.000000 0 0 1
19.765145 -2.769728 30.680886 36.601217 -0.139225 0.576735 0.121545 -0.061576 -141622.000000 0 0 1
19.809845 -1.298328 30.620036 36.492495 -0.065446 0.575211 0.115133 -0.055926 -261586.000000 0 0 1
20.372045 -0.685328 31.789943 37.763611 -0.033628 0.570161 0.103937 -0.052166 367258.000000 0 0 1
20.178245 0.731172 31.869698 37.727627 0.036220 0.564734 0.086398 -0.036084 48445.200000 0 0 1
21.392545 1.467772 31.252032 37.900987 0.068504 0.601354 0.104751 -0.031303 -166026.000000 0 0 1
21.534845 1.294572 29.844156 36.825251 0.060043 0.625917 0.109161 -0.039860 713940.000000 0 0 1
22.503745 2.243072 29.303396 37.015387 0.099347 0.657284 0.092295 -0.032802 727366.000000 0 0 1
21.896545 3.671272 29.082566 36.588694 0.166119 0.652034 0.070974 -0.023029 -77476.700000 0 0 1
21.616245 4.386572 30.238856 37.428498 0.200211 0.630200 0.081381 -0.026225 443289.000000 0 0 1
20.919745 5.642872 30.057726 37.053267 0.263469 0.624590 0.084199 -0.023335 10805.300000 0 0 1
20.281845 6.180472 31.308758 37.812561 0.295790 0.595267 0.093150 -0.018900 -422320.000000 0 0 1
19.258145 5.401972 31.857227 37.615693 0.273475 0.560643 0.087409 -0.008267 -78443.100000 0 0 1
19.120645 5.700672 33.245535 38.773216 0.289752 0.540531 0.080046 -0.011201 216944.000000 0 0 1
17.870245 5.026072 -33.507329 38.305981 0.274171 2.635671 0.076397 -0.011181 121327.000000 0 0 1
18.180545 3.640672 -33.403359 38.204334 0.197637 2.634859 0.072581 -0.007043 -157793.000000 0 0 1
17.077045 2.937372 -32.947279 37.226023 0.170340 2.657420 0.053093 -0.012231 -672517.000000 0 0 1
17.180145 1.404972 -33.081209 37.302784 0.081597 2.661235 0.050014 -0.026050 -857760.000000 0 0 1
18.284945 0.863072 -32.446159 37.253689 0.047166 2.627932 0.059212 -0.021376 -367719.000000 0 0 1
18.361945 -0.547928 -32.709719 37.515157 -0.029832 2.629879 0.071010 -0.025668 -178551.000000 0 0 1
19.451245 -1.176228 -31.797319 37.293484 -0.060397 2.591783 0.080104 -0.028652 -61860.000000 0 0 1
19.226845 -1.294128 -30.377679 35.974293 -0.067207 2.576292 0.086351 -0.028382 371074.000000 0 0 1
18.816545 -0.125728 -29.662849 35.127806 -0.006682 2.576290 0.060587 -0.017615 -134345.000000 0 0 1
18.546145 -0.490428 -28.192659 33.749460 -0.026438 2.559568 0.085283 -0.022184 90933.100000 0 0 1
17.392245 -1.289128 -27.974029 32.965108 -0.073986 2.584120 0.104003 -0.023069 234591.000000 0 0 1
17.012645 -1.509228 -26.630259 31.636665 -0.088481 2.571319 0.092812 -0.021846 -654482.000000 0 0 1
17.926445 -2.336528 -25.801809 31.504764 -0.129609 2.530430 0.114373 -0.029012 241478.000000 0 0 1
19.160045 -1.675428 -25.364229 31.831722 -0.087222 2.492814 0.111832 -0.020734 1461020.000000 0 0 1
20.251845 -2.550228 -25.109929 32.359688 -0.125266 2.459037 0.093685 -0.024506 404348.000000 0 0 1
21.070745 -2.944428 -26.347429 33.864922 -0.138841 2.462297 0.116770 -0.038024 -757135.000000 0 0 1
22.042245 -1.990428 -26.657299 34.647279 -0.090056 2.448683 0.117625 -0.027336 -504330.000000 0 0 1
22.421045 -2.077528 -28.030299 35.954375 -0.092396 2.464835 0.125096 -0.032801 78543.400000 0 0 1
23.854545 -1.544928 -28.208899 36.975236 -0.064674 2.438604 0.109336 -0.035347 320578.000000 0 0 1
24.892445 -2.452128 -27.848869 37.432690 -0.098192 2.409791 0.095832 -0.039914 381669.000000 0 0 1
26.175845 -1.910828 -28.171769 38.502918 -0.072870 2.391578 0.065617 -0.038513 245136.000000 0 0 1
27.350345 -2.808328 -27.825949 39.117918 -0.102321 2.362192 0.064076 -0.029411 -744915.000000 0 0 1
27.502645 -3.950228 -28.663349 39.919762 -0.142655 2.371756 0.087884 -0.040443 290444.000000 0 0 1
28.782945 -4.534228 -28.490859 40.752254 -0.156248 2.344967 0.084054 -0.039602 214508.000000 0 0 1
28.883145 -5.661228 -27.422749 40.228009 -0.193551 2.320857 0.076102 -0.027092 -294111.000000 0 0 1
28.761545 -5.350828 -26.050799 39.172720 -0.183938 2.298322 0.065703 -0.013239 334466.000000 0 0 1
28.762845 -6.537928 -25.331499 38.880980 -0.223507 2.280375 0.039712 -0.009551 -302754.000000 0 0 1
28.794545 -6.391828 -23.789629 37.893637 -0.218439 2.249520 0.025260 -0.001238 777615.000000 0 0 1
30.020245 -5.731228 -23.379529 38.479403 -0.188642 2.223813 0.032460 0.003862 1180320.000000 0 0 1
30.049145 -5.337528 -22.012929 37.629900 -0.175793 2.195658 0.041506 -0.007886 117514.000000 0 0 1
31.508945 -4.999628 -21.572829 38.512295 -0.157361 2.165368 0.048469 -0.007087 157541.000000 0 0 1
32.010545 -3.871828 -22.257029 39.179604 -0.120370 2.174964 0.068919 -0.016753 307409.000000 0 0 1
33.229145 -3.480728 -21.624629 39.798444 -0.104369 2.145223 0.097844 -0.015083 349144.000000 0 0 1
33.846345 -2.290428 -22.381229 40.641611 -0.067568 2.153996 0.098670 -0.020725 70826.300000 0 0 1
33.095945 -1.120628 -22.261429 39.901987 -0.033847 2.162653 0.079010 -0.016707 439731.000000 0 0 1
33.889545 -0.147328 -22.922329 40.914009 -0.004347 2.165491 0.080222 -0.016518 284116.000000 0 0 1
33.148645 1.200572 -22.951729 40.336781 0.036202 2.176089 0.083064 -0.012413 -414350.000000 0 0 1
32.105645 1.349772 -23.850329 40.017902 0.042017 2.209296 0.072221 -0.011494 53499.400000 0 0 1
30.952345 1.798072 -23.152429 38.695164 0.058026 2.212210 0.064624 -0.015473 247696.000000 0 0 1
29.661145 2.071772 -23.964029 38.188355 0.069735 2.249163 0.067657 -0.014381 206565.000000 0 0 1
28.668045 2.769072 -23.247429 37.013072 0.096292 2.249889 0.072888 -0.014783 -238922.000000 0 0 1
27.571545 3.004872 -24.077829 36.728207 0.108556 2.285731 0.109955 -0.024723 -246526.000000 0 0 1
26.473645 4.009572 -23.620829 35.705379 0.150313 2.293678 0.104559 -0.016646 97787.500000 0 0 1
26.904445 5.297872 -23.374129 36.031466 0.194427 2.276690 0.092333 -0.011455 241006.000000 0 0 1
25.782645 6.131372 -23.128229 35.174614 0.233473 2.288327 0.107952 -0.024458 288414.000000 0 0 1
26.222145 7.478672 -22.525129 35.368246 0.277828 2.261234 0.119794 -0.018862 -36676.600000 0 0 1
27.129445 8.112272 -23.380829 36.721641 0.290558 2.261013 0.118788 -0.024327 -38929.100000 0 0 1
27.505745 9.390872 -22.930529 37.021124 0.329006 2.238762 0.138922 -0.027012 -248774.000000 0 0 1
28.475145 10.165872 -23.834529 38.500177 0.342905 2.238362 0.176784 -0.022958 -336879.000000 0 0 1
28.025345 10.561172 -25.149829 39.108467 0.360386 2.269308 0.178263 -0.032869 -71833.300000 0 0 1
27.018045 11.528472 -25.207639 38.707951 0.403306 2.279996 0.174082 -0.031224 -228466.000000 0 0 1
26.671945 12.001072 -26.581959 39.522385 0.422813 2.308486 0.150023 -0.027435 -430306.000000 0 0 1
25.982645 11.055672 -27.400459 39.346040 0.402296 2.341161 0.124156 -0.023819 517045.000000 0 0 1
26.736745 9.952072 -27.974309 39.955716 0.356335 2.346380 0.132271 -0.039785 716634.000000 0 0 1
27.841045 10.249472 -29.069709 41.535809 0.352745 2.346013 0.127989 -0.037496 -166955.000000 0 0 1
29.120345 10.521772 -28.563049 42.125407 0.346724 2.315900 0.135635 -0.039063 200108.000000 0 0 1
30.084445 10.857172 -29.548089 43.543559 0.346343 2.316633 0.145020 -0.040923 508670.000000 0 0 1
30.795145 9.642072 -30.258639 44.236814 0.303435 2.324049 0.122066 -0.032442 -399357.000000 0 0 1
29.909045 8.954372 -31.124319 44.084634 0.290894 2.354649 0.107971 -0.028394 278144.000000 0 0 1
30.473445 7.754072 -31.687969 44.641728 0.249166 2.360051 0.111132 -0.021074 -27515.300000 0 0 1
29.485345 6.945772 -32.579619 44.486637 0.231349 2.392557 0.106319 -0.030963 63538.000000 0 0 1
28.508145 6.354272 -31.779469 43.162782 0.219308 2.398338 0.115336 -0.035730 -160552.000000 0 0 1
27.350045 5.892172 -32.474969 42.864510 0.212192 2.430454 0.082902 -0.029989 452532.000000 0 0 1
26.107645 6.093572 -31.566999 41.415168 0.229297 2.437515 0.116198 -0.022618 -617363.000000 0 0 1
25.776145 7.463572 -31.511689 41.389625 0.281845 2.436178 0.113713 -0.018775 272851.000000 0 0 1
24.707745 7.859772 -30.657059 40.151014 0.307987 2.439580 0.117215 -0.022215 1434350.000000 0 0 1
23.239445 7.507072 -31.144679 39.578011 0.312450 2.476596 0.125363 -0.018529 687349.000000 0 0 1
22.824645 8.417172 -32.167049 40.330289 0.353303 2.494086 0.117667 -0.018032 118036.000000 0 0 1
21.520545 8.115972 -32.637439 39.927500 0.360634 2.527710 0.111092 -0.014358 218497.000000 0 0 1
21.107145 9.101772 33.654346 40.754985 0.407125 0.599226 0.114896 -0.008253 337833.000000 0 0 1
21.989445 8.928272 32.511201 40.252055 0.385690 0.630572 0.099169 -0.009816 470972.000000 0 0 1
21.808345 9.836272 31.456138 39.520182 0.423712 0.650219 0.106081 -0.020936 101687.000000 0 0 1
20.454645 9.845172 30.697756 38.179472 0.448590 0.636740 0.100415 -0.016999 323291.000000 0 0 1
20.256645 8.856872 29.662106 36.994815 0.412186 0.640510 0.087494 -0.021741 953672.000000 0 0 1
21.220845 8.964772 28.511936 36.655448 0.399710 0.679581 0.101465 -0.018726 394699.000000 0 0 1
20.982645 10.123372 27.457206 36.009057 0.449521 0.703615 0.118247 -0.016685 -213017.000000 0 0 1
19.867845 9.982572 26.628506 34.690926 0.465605 0.695719 0.111373 -0.006883 256819.000000 0 0 1
18.613545 10.208472 27.286626 34.572198 0.501647 0.661185 0.114726 -0.025992 -242440.000000 0 0 1
17.484745 9.377472 26.672376 33.242577 0.492282 0.639564 0.128876 -0.026836 -813144.000000 0 0 1
17.229145 9.750572 25.320526 32.141035 0.514995 0.663577 0.124650 -0.026168 696398.000000 0 0 1
15.930845 9.353272 24.866526 30.977728 0.530893 0.638949 0.152073 -0.033415 695186.000000 0 0 1
15.792245 7.818572 24.651986 30.302565 0.459711 0.620603 0.146571 -0.029798 -339632.000000 0 0 1
15.860845 7.018672 25.831976 31.114613 0.416613 0.591294 0.116561 -0.024677 29378.900000 0 0 1
15.849645 5.659172 25.583406 30.622673 0.342945 0.581863 0.122619 -0.030938 -141110.000000 0 0 1
16.161345 4.797672 26.788896 31.652040 0.288574 0.561690 0.084000 -0.032026 149082.000000 0 0 1
17.496045 4.989572 27.267956 32.780312 0.277808 0.588383 0.091427 -0.028326 749879.000000 0 0 1
17.757745 4.194372 28.458416 33.805498 0.231948 0.570135 0.087884 -0.030365 -305108.000000 0 0 1
17.987245 2.660472 28.218296 33.569202 0.146844 0.572405 0.086769 -0.034020 -442492.000000 0 0 1
16.803545 1.994972 27.834106 32.574169 0.118170 0.546240 0.082157 -0.043595 307715.000000 0 0 1
16.263345 1.262872 28.945006 33.225060 0.077496 0.513196 0.072201 -0.043749 -250335.000000 0 0 1
16.550145 -0.261628 29.050466 33.435091 -0.015807 0.517898 0.092316 -0.048056 -880585.000000 0 0 1
15.815845 -0.957128 28.099256 32.258723 -0.060443 0.513442 0.100445 -0.042657 545473.000000 0 0 1
16.492345 -1.059028 26.816166 31.499615 -0.064125 0.552305 0.117116 -0.037750 -320271.000000 0 0 1
17.723045 -2.028628 26.698966 32.110067 -0.113967 0.589025 0.098924 -0.034251 593654.000000 0 0 1
18.880845 -1.618328 27.417566 33.329089 -0.085504 0.604772 0.097063 -0.042599 189682.000000 0 0 1
19.544545 -0.491928 26.869376 33.229423 -0.025164 0.629024 0.091803 -0.038329 194882.000000 0 0 1
21.098445 -0.312828 27.145626 34.382077 -0.014826 0.660756 0.082257 -0.033360 1219480.000000 0 0 1
21.916445 -1.138928 26.358086 34.298344 -0.051920 0.694312 0.075039 -0.030075 -52483.300000 0 0 1
23.278245 -0.985628 26.710856 35.444576 -0.042316 0.717282 0.073711 -0.036555 864178.000000 0 0 1
24.327045 -1.513228 25.624286 35.365223 -0.062124 0.760398 0.078398 -0.017994 551804.000000 0 0 1
24.293445 -0.971128 24.261036 34.346942 -0.039954 0.786465 0.086512 -0.006374 391275.000000 0 0 1
23.194845 -1.435528 23.482996 33.038049 -0.061811 0.780181 0.101402 0.002298 -487041.000000 0 0 1
23.240545 -0.890528 22.104056 32.085904 -0.038299 0.810823 0.099952 -0.012120 -169072.000000 0 0 1
22.782045 0.418072 21.885156 31.593613 0.018349 0.805559 0.081945 -0.007993 -62245.300000 0 0 1
22.318245 0.618072 20.594156 30.374419 0.027686 0.825745 0.086209 -0.005292 -11488.300000 0 0 1
-32.389845 -26.272107 -10.262729 42.949380 0.681486 1.812080 0.060825 0.004317 -61511.700000 0 0 1
-32.092485 -25.411607 -9.161429 41.947695 0.669736 1.790972 0.066958 0.003991 -269879.000000 0 0 1
-32.184815 -26.053507 -7.913429 42.157679 0.680505 1.759627 0.090516 -0.002870 -217051.000000 0 0 1
-32.321655 -25.090507 -6.629729 41.450889 0.660106 1.731428 0.126732 -0.019514 993736.000000 0 0 1
-31.167135 -24.305907 -6.249629 40.015313 0.662337 1.727619 0.131468 -0.012319 209727.000000 0 0 1
-30.102265 -25.047807 -5.650929 39.566046 0.694004 1.714109 0.154387 -0.021508 -443132.000000 0 0 1
-28.989255 -24.049507 -5.357829 38.045526 0.692531 1.712093 0.147874 -0.031041 -855820.000000 0 0 1
-29.165585 -22.955307 -4.443929 37.380824 0.666806 1.689961 0.170686 -0.026541 -233264.000000 0 0 1
-29.940555 -21.907507 -4.936329 37.426502 0.631686 1.703076 0.166769 -0.023176 -308833.000000 0 0 1
-29.992465 -20.559007 -4.120329 36.595052 0.600909 1.683628 0.171312 -0.028735 -300766.000000 0 0 1
-28.761455 -19.889807 -4.072529 35.205272 0.605028 1.686735 0.192477 -0.028834 -102792.000000 0 0 1
-28.749575 -18.737707 -3.298929 34.474957 0.577609 1.666634 0.206281 -0.026763 211756.000000 0 0 1
-27.498395 -17.858107 -3.539729 32.978832 0.575970 1.678337 0.199606 -0.020962 409424.000000 0 0 1
-27.821075 -16.932807 -4.522029 32.881316 0.546743 1.708759 0.182320 -0.033700 -52205.300000 0 0 1
-26.879205 -15.908907 -4.472629 31.552962 0.534418 1.713025 0.148988 -0.033010 -98350.500000 0 0 1
-27.226215 -14.798807 -5.512729 31.474778 0.497878 1.746852 0.153066 -0.048684 -667028.000000 0 0 1
-28.419965 -14.172707 -5.230529 32.185687 0.462598 1.734031 0.139360 -0.035671 -797812.000000 0 0 1
-28.679745 -13.096907 -6.136529 32.120301 0.428379 1.763026 0.147052 -0.054241 17716.400000 0 0 1
-30.137005 -12.593107 -6.016629 33.211824 0.395809 1.752961 0.132981 -0.046579 575878.000000 0 0 1
-31.143925 -13.577507 -6.320329 34.557768 0.411117 1.754723 0.130439 -0.046226 863622.000000 0 0 1
-32.352475 -12.942007 -6.727629 35.488578 0.380533 1.761522 0.140351 -0.045492 241647.000000 0 0 1
-33.378345 -13.779807 -7.506829 36.882916 0.391523 1.775760 0.114851 -0.043562 14549.700000 0 0 1
-34.159076 -14.644607 -6.675929 37.760760 0.405016 1.748526 0.109418 -0.037126 526120.000000 0 0 1
-34.895467 -15.598707 -7.419029 38.936554 0.420367 1.762510 0.109580 -0.036511 -138805.000000 0 0 1
-35.979575 -16.434507 -6.689629 40.117004 0.428472 1.738332 0.112931 -0.041863 1021520.000000 0 0 1
-37.340875 -15.970407 -6.732429 41.166983 0.404149 1.735074 0.093748 -0.037808 806811.000000 0 0 1
-37.738775 -14.981607 -5.779629 41.013020 0.377902 1.712189 0.130415 -0.039564 -567477.000000 0 0 1
36.671056 -15.037307 -5.531629 40.018569 -0.389148 1.709467 0.178038 -0.037765 -1170380.000000 0 0 1
35.923636 -14.580807 -6.619629 39.330993 -0.385568 1.739907 0.228129 -0.047178 579906.000000 0 0 1
34.546746 -14.932307 -6.506629 38.194079 -0.407983 1.741988 0.225756 -0.045316 1331100.000000 0 0 1
33.573226 -14.110507 -5.519029 36.833783 -0.397875 1.721199 0.266161 -0.055785 42483.800000 0 0 1
33.740236 -14.508307 -4.182329 36.964663 -0.406098 1.684183 0.237898 -0.045072 244406.000000 0 0 1
32.893316 -13.908007 -3.235929 35.859087 -0.400024 1.661159 0.276167 -0.047276 -1180360.000000 0 0 1
32.937346 -14.549707 -1.819229 36.053742 -0.415963 1.621277 0.268219 -0.046702 -17543.100000 0 0 1
34.192206 -14.408507 -1.137729 37.121509 -0.398815 1.601450 0.283928 -0.041576 1306800.000000 0 0 1
35.340076 -15.082807 -1.686729 38.461111 -0.403386 1.614666 0.228135 -0.039952 -189813.000000 0 0 1
35.201946 -16.586207 -1.996429 38.964919 -0.440321 1.622055 0.185501 -0.039511 -1253320.000000 0 0 1
35.438436 -17.441507 -0.825729 39.506591 -0.457359 1.591699 0.142895 -0.030024 291117.000000 0 0 1
35.323386 -18.880207 -1.112829 40.067969 -0.490862 1.598573 0.107398 -0.031277 -119137.000000 0 0 1
36.412576 -19.560107 -1.957029 41.379988 -0.492947 1.618108 0.083124 -0.046241 -196008.000000 0 0 1
36.212226 -19.206607 -3.263229 41.120162 -0.487663 1.650238 0.067307 -0.043468 -385722.000000 0 0 1
37.310686 -19.632007 -3.972129 42.347146 -0.484369 1.664734 0.074745 -0.035823 -780391.000000 0 0 1
37.383826 -18.927007 -5.363129 42.243877 -0.468666 1.698096 0.100499 -0.042034 -506349.000000 0 0 1
36.322566 -19.129507 -6.241829 41.523815 -0.484745 1.721688 0.089344 -0.048457 -170623.000000 0 0 1
36.461736 -18.306007 -7.380829 41.461364 -0.465295 1.749767 0.114775 -0.048478 -160414.000000 0 0 1
35.246506 -18.381007 -8.329429 40.614738 -0.480698 1.777346 0.119247 -0.051624 -47604.600000 0 0 1
35.347166 -19.533607 -9.083629 41.394398 -0.504854 1.792038 0.117153 -0.052703 -95858.000000 0 0 1
34.400376 -19.549707 -10.086929 40.832867 -0.516784 1.820410 0.119677 -0.062290 -793511.000000 0 0 1
34.234336 -20.819707 -10.928929 41.531812 -0.546393 1.837078 0.118317 -0.045021 -195229.000000 0 0 1
33.806216 -21.893107 -10.103429 41.524061 -0.574690 1.816578 0.111766 -0.048932 212262.000000 0 0 1
33.607656 -23.034607 -10.861529 42.166817 -0.600858 1.831318 0.098166 -0.040037 -162720.000000 0 0 1
32.934596 -24.143607 -10.015229 42.046476 -0.632582 1.811302 0.123979 -0.033367 808125.000000 0 0 1
31.583966 -23.865607 -9.624929 40.740070 -0.647091 1.809303 0.127851 -0.038411 523328.000000 0 0 1
30.892026 -24.889707 -9.006629 40.680881 -0.678207 1.794043 0.087131 -0.026973 228705.000000 0 0 1
29.397326 -24.606607 -8.694629 39.310106 -0.696919 1.793821 0.068936 -0.030836 -186713.000000 0 0 1
28.589926 -24.441407 -9.758229 38.858580 -0.707329 1.824635 0.071213 -0.029848 -1020270.000000 0 0 1
27.306926 -24.083707 -9.322129 37.584507 -0.722760 1.821444 0.101224 -0.037888 204000.000000 0 0 1
26.269226 -23.604207 -10.397629 36.814963 -0.732013 1.857122 0.180039 -0.052294 103502.000000 0 0 1
25.777126 -24.632507 -11.239729 37.383848 -0.762696 1.876178 0.148739 -0.043927 228897.000000 0 0 1
24.983826 -24.010607 -12.250629 36.752941 -0.765537 1.910623 0.155255 -0.033139 89436.800000 0 0 1
24.215126 -25.097707 -13.062429 37.241029 -0.803294 1.929172 0.144620 -0.041360 -195524.000000 0 0 1
25.039026 -26.101007 -13.605229 38.643468 -0.806161 1.930579 0.148225 -0.032949 -127963.000000 0 0 1
24.383126 -27.337407 -13.744029 39.125042 -0.842456 1.929739 0.138366 -0.026453 -303802.000000 0 0 1
25.232926 -28.500407 -14.311329 40.666791 -0.846133 1.930415 0.121557 -0.031600 -261525.000000 0 0 1
25.343926 -28.395507 -15.701829 41.172403 -0.842122 1.962072 0.127772 -0.026619 366157.000000 0 0 1
25.676026 -29.696507 -16.203729 42.470009 -0.857879 1.962251 0.126546 -0.025177 -186935.000000 0 0 1
25.653026 -29.816907 -17.731929 43.145648 -0.860323 1.994323 0.128780 -0.018870 539538.000000 0 0 1
24.304626 -29.625207 -18.172329 42.409919 -0.883737 2.013620 0.135624 -0.021767 712641.000000 0 0 1
24.031026 -30.097207 -19.453329 43.148164 -0.897003 2.038513 0.126205 -0.016750 213168.000000 0 0 1
22.654226 -29.593807 -19.971029 42.282967 -0.917445 2.062716 0.101048 -0.009938 240759.000000 0 0 1
22.478026 -29.577307 -21.404929 42.874814 -0.920941 2.093521 0.082837 -0.005732 1044160.000000 0 0 1
21.060026 -29.483707 -21.670629 42.218832 -0.950542 2.109814 0.084552 -0.011934 960556.000000 0 0 1
20.748926 -29.610807 -23.204629 42.962456 -0.959586 2.141369 0.069840 -0.012174 -325258.000000 0 0 1
21.240526 -28.559607 -23.970229 42.911338 -0.931323 2.163492 0.074766 -0.013143 260509.000000 0 0 1
21.076526 -28.744407 -25.371839 43.751469 -0.938109 2.189412 0.067826 -0.013919 -227902.000000 0 0 1
21.642626 -27.627907 -26.304029 43.858938 -0.906284 2.213974 0.073385 -0.017599 563369.000000 0 0 1
20.753126 -26.520807 -26.611799 42.921245 -0.906804 2.239558 0.085875 -0.034706 79638.700000 0 0 1
19.849226 -26.750707 -27.625769 43.275573 -0.932430 2.263173 0.111278 -0.042507 -802966.000000 0 0 1
19.123526 -25.460807 -28.002799 42.404229 -0.926594 2.292118 0.111080 -0.040546 -221565.000000 0 0 1
18.132326 -25.177707 -27.024709 41.146483 -0.946659 2.287354 0.090391 -0.011988 -144628.000000 0 0 1
17.675526 -23.864607 -27.040529 40.163838 -0.933301 2.309399 0.072541 -0.010318 122095.000000 0 0 1
16.563326 -23.623907 -25.974609 38.821554 -0.959315 2.303762 0.070401 -0.012506 -101020.000000 0 0 1
15.374826 -24.340307 -26.281289 38.981303 -1.007421 2.310681 0.115331 -0.032551 -1179150.000000 0 0 1
14.290126 -23.990307 -25.537069 37.840248 -1.033572 2.311578 0.094196 -0.030573 -618454.000000 0 0 1
14.216626 -24.342707 -24.017929 37.034318 -1.042210 2.276450 0.079293 -0.025223 -264479.000000 0 0 1
15.120926 -23.540607 -23.249229 36.377592 -0.999829 2.264135 0.039758 -0.019826 57269.000000 0 0 1
15.094726 -24.017307 -21.912029 35.844369 -1.009689 2.228511 0.056275 -0.029286 -282843.000000 0 0 1
16.269726 -23.490207 -21.125329 35.535522 -0.965042 2.207421 0.037294 -0.036421 -425208.000000 0 0 1
16.108226 -22.133007 -20.808229 34.384987 -0.941660 2.220756 0.026622 -0.038513 -156053.000000 0 0 1
17.353126 -21.496607 -20.657729 34.496041 -0.891651 2.212853 0.043849 -0.036119 -276299.000000 0 0 1
17.304226 -20.135307 -19.928029 33.196282 -0.860872 2.214684 0.068653 -0.017898 -4695.720000 0 0 1
16.563126 -20.084407 -18.725729 32.068262 -0.881189 2.194362 0.066757 -0.022761 854353.000000 0 0 1
15.202826 -19.696207 -19.014329 31.314712 -0.913447 2.223330 0.056094 -0.021456 407645.000000 0 0 1
14.289726 -19.695707 -17.763529 30.127398 -0.943144 2.201377 0.063715 -0.021719 -89220.400000 0 0 1
14.458926 -18.544307 -16.949829 28.987041 -0.908559 2.195354 0.086183 -0.021502 294823.000000 0 0 1
13.863826 -18.745907 -15.664329 28.088892 -0.934007 2.162372 0.081700 -0.027270 -65344.900000 0 0 1
13.747726 -17.434707 -14.849929 26.711221 -0.903091 2.160294 0.094629 -0.024161 333147.000000 0 0 1
12.697926 -16.537107 -15.268729 25.842742 -0.915972 2.202887 0.092037 -0.030006 715495.000000 0 0 1
12.726326 -15.283607 -14.580729 24.660609 -0.876445 2.203411 0.083965 -0.029442 138464.000000 0 1 0
11.285326 -14.760507 -14.365529 23.486157 -0.918040 2.228953 0.081411 -0.017590 275643.000000 0 1 0
10.611926 -14.134907 -15.444329 23.472023 -0.926809 2.288941 0.103273 -0.010914 86182.500000 0 1 0
9.368126 -13.598507 -15.066929 22.353825 -0.967553 2.310434 0.100220 -0.014133 36961.800000 0 1 0
8.540126 -12.945107 -16.206129 22.430964 -0.987619 2.378192 0.076047 -0.011525 187593.000000 0 1 0
9.123826 -11.793507 -16.842529 22.494483 -0.912342 2.416956 0.077162 -0.005466 642156.000000 0 1 0
10.151426 -12.063207 -17.814329 23.789130 -0.871246 2.417111 0.111210 -0.005124 449551.000000 0 1 0
10.431226 -10.815407 -18.674129 23.968867 -0.803478 2.464024 0.114236 -0.012139 -287263.000000 0 1 0
9.772726 -10.957007 -19.901229 24.730974 -0.842466 2.505981 0.123105 -0.015390 263095.000000 0 1 0
9.750126 -9.723307 -20.562029 24.746812 -0.784021 2.551513 0.122347 -0.028688 -168.475000 0 1 0
9.408826 -9.824107 -22.066529 25.922399 -0.806987 2.589165 0.128592 -0.026783 662565.000000 0 0 1
10.571726 -10.290407 -22.751229 27.115905 -0.771914 2.566306 0.121574 -0.023751 426576.000000 0 0 1
10.328526 -10.296507 -24.151829 28.213602 -0.783846 2.598346 0.105669 -0.016189 1055500.000000 0 0 1
11.563326 -10.968307 -24.875829 29.543546 -0.758996 2.571786 0.118442 -0.014597 844512.000000 0 0 1
11.499126 -12.371307 -24.626529 29.862101 -0.821920 2.540424 0.103403 -0.010906 290804.000000 0 0 1
12.738026 -12.983307 -24.969329 30.891600 -0.794934 2.512036 0.089523 -0.019454 342062.000000 0 0 1
12.774326 -14.495307 -24.764429 31.409780 -0.848424 2.479050 0.076323 -0.010910 -546082.000000 0 0 1
11.945326 -15.198007 -25.579739 32.062334 -0.904663 2.494455 0.075311 -0.005920 -699248.000000 0 0 1
12.006626 -16.508107 -25.018229 32.289138 -0.941971 2.457225 0.065186 -0.010195 256532.000000 0 0 1
10.800026 -17.378607 -25.446089 32.652105 -1.014750 2.464359 0.072015 -0.011441 200101.000000 0 0 1
10.832326 -17.930307 -26.701139 33.937973 -1.027342 2.476343 0.083552 -0.025986 -216681.000000 0 0 1
9.717226 -18.797107 -26.755329 34.111630 -1.093678 2.472438 0.092633 -0.025732 32057.700000 0 0 1
9.673526 -19.754607 -27.915879 35.540370 -1.115435 2.474251 0.104411 -0.032964 -261196.000000 0 0 1
10.574026 -20.836207 -27.818269 36.329239 -1.101180 2.442967 0.094048 -0.034617 42426.200000 0 0 1
10.454726 -21.769507 -28.900169 37.662083 -1.123076 2.445502 0.106323 -0.039321 -388727.000000 0 0 1
11.601526 -22.744707 -28.725309 38.432544 -1.099121 2.414969 0.092527 -0.034359 -352924.000000 0 0 1
11.459026 -23.847607 -29.573549 39.681386 -1.122862 2.411744 0.099360 -0.033402 291475.000000 0 0 1
12.279426 -24.970007 -29.186719 40.325551 -1.113757 2.380057 0.126902 -0.037428 -19459.200000 0 0 1
11.659826 -26.029907 -28.317869 40.192155 -1.149657 2.352602 0.123700 -0.037754 -263068.000000 0 0 1
11.286026 -25.470007 -27.086489 38.855804 -1.153687 2.342145 0.129428 -0.043734 -392154.000000 0 0 1
10.709226 -26.349107 -26.149399 38.636175 -1.184754 2.314219 0.119832 -0.038580 598392.000000 0 0 1
9.746526 -25.536607 -25.202529 37.179033 -1.206192 2.315657 0.103971 -0.034887 748272.000000 0 0 1
10.490126 -24.508707 -24.521429 36.221816 -1.166374 2.314447 0.098092 -0.034780 95646.200000 0 0 1
9.806826 -23.279107 -24.617629 35.272061 -1.172088 2.343307 0.093083 -0.028065 138722.000000 0 0 1
10.695026 -21.991407 -24.495229 34.612451 -1.118146 2.357034 0.099141 -0.019072 91609.400000 0 0 1
11.199926 -21.779807 -23.193529 33.730374 -1.095826 2.328996 0.090571 -0.028869 -585178.000000 0 0 1
12.150226 -20.792807 -23.336229 33.534287 -1.041965 2.340457 0.076208 -0.027645 -163151.000000 0 0 1
13.053226 -20.517207 -22.045529 32.822977 -1.004177 2.307229 0.058680 -0.016972 427742.000000 0 0 1
12.381826 -20.003607 -20.909329 31.474655 -1.016538 2.297384 0.053165 -0.013051 -253894.000000 0 0 1
11.911526 -18.642107 -20.924429 30.450687 -1.002223 2.328366 0.047689 -0.005180 -326177.000000 0 0 1
12.959026 -17.563907 -20.786229 30.141242 -0.935135 2.331771 0.067012 -0.008548 -629641.000000 0 0 1
13.884226 -17.444307 -21.820829 31.196540 -0.898550 2.345442 0.061719 -0.003738 -535152.000000 0 0 1
14.890626 -16.551307 -21.421429 30.895859 -0.838167 2.336914 0.070200 -0.003824 633689.000000 0 0 1
16.153226 -16.434807 -22.354629 32.105436 -0.794039 2.341009 0.049799 0.001773 -11980.800000 0 0 1
17.183526 -17.348407 -22.182629 32.989541 -0.790173 2.308262 0.049371 0.007953 -477693.000000 0 0 1
18.228626 -16.912707 -23.019229 33.885208 -0.747969 2.317645 0.054709 0.005884 -567444.000000 0 0 1
19.624126 -17.160607 -22.454329 34.406244 -0.718527 2.281838 0.055369 -0.005553 -488362.000000 0 0 1
19.916626 -18.511407 -22.217229 35.113380 -0.748847 2.255868 0.057927 -0.017093 -500395.000000 0 0 1
21.213826 -18.615907 -21.714229 35.610197 -0.720265 2.226574 0.048334 -0.028966 -172811.000000 0 0 1
21.677126 -20.078907 -21.410729 36.489445 -0.747142 2.197854 0.075933 -0.035248 -8341.850000 0 0 1
21.034426 -20.554507 -20.295429 35.732887 -0.773859 2.174841 0.080501 -0.039634 37115.000000 0 0 1
21.731726 -21.716207 -19.930129 36.620644 -0.785041 2.146270 0.117556 -0.038109 200952.000000 0 0 1
-17.085055 12.634672 27.827286 35.012739 -0.636758 0.652158 0.079116 -0.027541 -121178.000000 0 0 1
-18.280955 13.285272 27.485856 35.583199 -0.628440 0.688123 0.081881 -0.025525 -162107.000000 0 0 1
-18.608055 13.043172 26.125876 34.625791 -0.611358 0.715873 0.084407 -0.026658 140968.000000 0 0 1
-19.802655 13.874072 25.600416 35.213865 -0.611140 0.756856 0.107127 -0.023512 108328.000000 0 0 1
-19.568955 15.275572 25.760776 35.775755 -0.662801 0.766904 0.102846 -0.017399 -456162.000000 0 0 1
-20.660855 16.073872 25.417926 36.487138 -0.661173 0.800111 0.103970 -0.017556 -952050.000000 0 0 1
-20.700355 17.535172 25.993186 37.571700 -0.702805 0.806778 0.097936 -0.009371 -468786.000000 0 0 1
-19.737855 18.411172 25.497916 37.130821 -0.750636 0.813850 0.095057 -0.009852 -92202.300000 0 0 1
-18.491955 18.224872 26.153366 36.852366 -0.778124 0.781753 0.089611 -0.000514 -334614.000000 0 0 1
-17.285755 19.015372 25.646716 36.306139 -0.833009 0.786395 0.095668 -0.004400 -100467.000000 0 0 1
-17.394855 20.413772 25.846566 37.247121 -0.865076 0.803876 0.105554 -0.007354 482248.000000 0 0 1
-16.259455 21.066672 25.256946 36.689070 -0.913483 0.811508 0.119975 -0.016737 564527.000000 0 0 1
-16.388655 22.580672 25.134796 37.553065 -0.942975 0.837511 0.116555 -0.022656 -6708.130000 0 0 1
-16.310055 23.363872 26.325106 38.793035 -0.961354 0.824936 0.118011 -0.027610 47109.300000 0 0 1
-16.435255 24.715072 25.920906 39.406164 -0.983956 0.852918 0.111163 -0.028632 -168276.000000 0 0 1
-15.745855 25.705772 26.854316 40.371685 -1.021206 0.843065 0.085520 -0.015719 -133268.000000 0 0 1
-14.335555 25.678272 26.915426 39.866301 -1.061622 0.829639 0.073349 -0.023607 -97587.400000 0 0 1
-13.882655 26.709772 27.766416 40.952581 -1.091466 0.825739 0.084046 -0.016697 -990417.000000 0 0 1
-12.412755 26.878972 27.992076 40.744471 -1.138172 0.813423 0.100263 -0.020007 -962288.000000 0 0 1
-11.656455 27.486972 27.004976 40.257611 -1.169712 0.835504 0.084337 -0.015472 -704566.000000 0 0 1
-10.280555 27.326372 27.125936 39.852689 -1.210962 0.822140 0.073457 -0.008095 -626906.000000 0 0 1
-9.482455 28.126872 26.075866 39.509349 -1.245631 0.849988 0.074287 -0.013375 80895.200000 0 0 1
-8.073655 28.024672 26.214956 39.214666 -1.290301 0.838608 0.070514 -0.014667 461667.000000 0 0 1
-7.421255 28.496072 25.032086 38.648499 -1.316025 0.866253 0.085688 -0.019787 -419248.000000 0 0 1
-5.927555 28.218672 25.028146 38.181637 -1.363749 0.855949 0.098729 -0.024841 -1170470.000000 0 0 1
-5.132155 28.881072 25.987876 39.189603 -1.394932 0.845801 0.119286 -0.025377 107021.000000 0 0 1
-3.774455 28.529072 25.818596 38.662053 -1.439258 0.839544 0.126517 -0.016412 389786.000000 0 0 1
-2.958855 29.484172 24.871976 38.687031 -1.470777 0.872515 0.136796 -0.016877 -262803.000000 0 0 1
-3.376455 29.356272 23.512486 37.762788 -1.456283 0.898689 0.146239 -0.023970 -72049.800000 0 0 1
-2.689955 30.241672 22.643386 37.875025 -1.482081 0.929987 0.141422 -0.029875 -540217.000000 0 0 1
-3.231755 30.044872 21.252356 36.943216 -1.463644 0.957861 0.145026 -0.026716 626012.000000 0 0 1
-4.630755 30.225072 21.035656 37.114656 -1.418769 0.968210 0.135557 -0.022755 169119.000000 0 0 1
-5.325355 29.057772 21.354556 36.451757 -1.389540 0.944892 0.147154 -0.017552 -1291750.000000 0 0 1
-6.769655 29.014472 20.861456 36.371254 -1.341577 0.959939 0.112655 -0.018832 -822048.000000 0 0 1
-6.798955 28.796672 19.465756 35.417365 -1.338940 0.988898 0.094224 -0.019079 -297504.000000 0 0 1
-7.745455 27.913272 18.960456 34.621405 -1.300123 0.991242 0.063335 -0.020308 -1332540.000000 0 0 1
-7.293055 26.439972 18.837156 33.273100 -1.301654 0.968984 0.059220 -0.018043 164818.000000 0 0 1
-6.176655 26.239472 17.996056 32.411710 -1.339610 0.982153 0.062564 -0.019161 1790520.000000 0 0 1
-4.869155 26.597372 18.571556 32.802920 -1.389732 0.968962 0.090441 -0.013476 971484.000000 0 0 1
-3.747055 26.917072 17.567556 32.360287 -1.432478 0.996941 0.086260 -0.019201 197250.000000 0 0 1
-3.169355 25.803972 16.875056 30.994472 -1.448584 0.995059 0.080800 -0.018457 47411.800000 0 0 1
-2.507755 26.180872 15.692256 30.626357 -1.475302 1.032845 0.082641 -0.030654 -143141.000000 0 0 1
-1.954755 25.006572 14.925756 29.187804 -1.492785 1.034019 0.068013 -0.031402 -181073.000000 0 0 1
-0.827955 24.385472 15.516056 28.915130 -1.536857 1.004386 0.070937 -0.028043 194100.000000 0 0 1
-0.300555 23.318272 14.765256 27.601538 -1.557908 1.006356 0.061021 -0.039894 -365905.000000 0 0 1
1.025545 22.703872 15.266956 27.378778 1.525657 0.979280 0.053976 -0.036323 -137352.000000 0 0 1
2.122145 23.554272 15.006456 28.008944 1.480943 1.005373 0.059292 -0.043063 -545997.000000 0 0 1
3.237145 22.935372 15.581956 27.916084 1.430580 0.978616 0.064301 -0.043641 -1209730.000000 0 0 1
4.486345 23.763872 15.487956 28.718037 1.384204 1.001178 0.110324 -0.056884 -1365620.000000 0 0 1
5.663645 23.021272 15.433556 28.288699 1.329569 0.993723 0.109344 -0.052470 -498153.000000 0 0 1
6.696045 23.984672 15.203056 29.175921 1.298548 1.022678 0.126884 -0.052016 -517265.000000 0 0 1
8.120945 23.451872 15.305156 29.157980 1.237438 1.018193 0.151540 -0.054189 -244221.000000 0 0 1
8.515845 22.557972 14.244556 28.005161 1.209828 1.037191 0.125987 -0.056718 46687.600000 0 0 1
8.927945 23.177472 13.033256 28.049405 1.203114 1.087553 0.137641 -0.055358 -357550.000000 0 0 1
9.527145 22.161472 12.001356 26.943085 1.164785 1.109138 0.109406 -0.049904 -425062.000000 0 0 1
10.786745 21.680772 12.334356 27.176204 1.109130 1.099697 0.103891 -0.037117 -495961.000000 0 0 1
11.370245 20.826272 11.386656 26.318662 1.071063 1.123371 0.101101 -0.047956 247212.000000 0 0 1
12.812545 20.341972 11.630756 26.706396 1.008712 1.120198 0.135125 -0.041257 320378.000000 0 0 1
12.756645 19.460972 12.732956 26.525263 0.990565 1.070106 0.122500 -0.039281 315373.000000 0 0 1
14.083945 19.018772 12.984756 26.993982 0.933385 1.068974 0.106999 -0.032567 259163.000000 0 0 1
14.271145 18.359872 14.295856 27.296922 0.910050 1.019588 0.114342 -0.033648 -1148810.000000 0 0 1
15.610045 18.307972 14.621056 28.153696 0.864774 1.024730 0.125149 -0.025720 -756575.000000 0 0 1
15.960845 17.658072 15.847356 28.595362 0.835840 0.983403 0.114493 -0.044429 911033.000000 0 0 1
17.501345 17.330772 15.751156 29.236136 0.780501 1.001836 0.096425 -0.041592 948762.000000 0 0 1
18.131845 16.900572 16.963856 30.036070 0.750266 0.970626 0.095324 -0.044307 -28800.200000 0 0 1
19.313045 16.212372 16.644556 30.213837 0.698338 0.987364 0.092124 -0.038700 132114.000000 0 0 1
20.197545 15.906772 17.913356 31.334558 0.667109 0.962244 0.099083 -0.042243 -74945.100000 0 0 1
20.658045 17.008372 18.667856 32.627111 0.688805 0.961662 0.123618 -0.034376 211771.000000 0 0 1
19.751645 17.580372 19.607556 32.918888 0.727302 0.932744 0.106647 -0.037688 -133039.000000 0 0 1
20.354245 18.673672 20.523256 34.412284 0.742364 0.931796 0.102744 -0.038274 892518.000000 0 0 1
19.259845 19.376872 21.182456 34.570236 0.788427 0.911277 0.141403 -0.048576 1194720.000000 0 0 1
19.722345 20.535172 21.837556 35.882349 0.805586 0.916517 0.129799 -0.035773 -61293.700000 0 0 1
18.538445 21.348772 22.354026 36.043674 0.855739 0.901808 0.144000 -0.042858 -215125.000000 0 0 1
17.858245 20.890872 23.493866 36.156703 0.863502 0.863503 0.149930 -0.042602 275595.000000 0 0 1
16.939445 21.902272 23.931176 36.597206 0.912480 0.858059 0.132664 -0.048721 285590.000000 0 0 1
16.309845 21.570872 25.314516 37.042385 0.923399 0.818396 0.145289 -0.044349 707865.000000 0 0 1
15.313645 20.519572 25.198776 35.924070 0.929671 0.793373 0.148277 -0.050224 367090.000000 0 0 1
14.511045 20.457572 26.364796 36.389354 0.953840 0.760459 0.136799 -0.040842 -96.192700 0 0 1
13.310145 19.508772 26.324736 35.365857 0.972073 0.731229 0.140742 -0.034321 -396863.000000 0 0 1
13.619145 18.094372 26.294526 34.702874 0.925587 0.711008 0.137089 -0.041954 251210.000000 0 0 1
14.208345 17.619072 25.035336 33.750212 0.892154 0.735071 0.158200 -0.052940 799221.000000 0 0 1
13.181345 17.587072 23.818066 32.409153 0.927621 0.745251 0.158908 -0.051146 286342.000000 0 0 1
12.963445 18.826972 23.099646 32.497683 0.967792 0.780149 0.151109 -0.050335 819687.000000 0 0 1
14.115645 19.209572 22.306006 32.646852 0.937079 0.818590 0.157901 -0.058608 1045090.000000 0 0 1
14.741345 18.258572 21.268856 31.670916 0.891580 0.834487 0.177738 -0.067274 -384968.000000 0 0 1
13.767945 17.878872 20.322756 30.368154 0.914575 0.837647 0.143675 -0.054013 132497.000000 0 0 1
14.307445 16.884272 19.505256 29.499773 0.867824 0.848379 0.115322 -0.049981 -301563.000000 0 0 1
13.262045 16.215872 18.640456 28.041093 0.885270 0.843631 0.124435 -0.043507 -349491.000000 0 0 1
12.605445 16.975972 17.670156 27.555676 0.932083 0.874666 0.144446 -0.045247 81721.200000 0 0 1
11.595245 16.291772 16.964456 26.223354 0.952245 0.867256 0.123493 -0.045069 77933.300000 0 0 1
11.074745 16.915672 15.670356 25.580265 0.991122 0.911456 0.107427 -0.033848 93121.900000 0 0 1
10.080745 17.920772 15.799256 25.930522 1.058394 0.915629 0.111133 -0.041663 317950.000000 0 0 1
9.662845 18.474472 14.537756 25.416983 1.088889 0.961891 0.094697 -0.023193 585343.000000 0 0 1
8.462645 19.484872 14.675456 25.819481 1.161059 0.966252 0.094584 -0.029344 -378547.000000 0 0 1
7.283545 18.918472 15.091856 25.272964 1.203291 0.930848 0.065987 -0.030047 -1250830.000000 0 0 1
6.382845 19.980872 15.325056 25.977553 1.261594 0.939819 0.084600 -0.036653 -112557.000000 0 0 1
4.988845 19.528672 15.803356 25.612568 1.320683 0.905852 0.063748 -0.037632 297165.000000 0 0 1
4.173145 18.832472 14.841356 24.338097 1.352727 0.914989 0.046406 -0.038879 -35328.300000 0 1 0
2.886345 18.666272 15.405956 24.374252 1.417382 0.886589 0.025245 -0.028597 172594.000000 0 1 0
1.846345 18.424372 14.292756 23.391223 1.470918 0.913434 0.026977 -0.025799 -60111.800000 0 1 0
1.269045 19.527172 13.632656 23.848904 1.505899 0.962310 0.027240 -0.028723 -622885.000000 0 1 0
0.124445 19.074472 12.987056 23.076277 1.564272 0.973041 0.023277 -0.025351 -724994.000000 0 1 0
-0.582055 20.193572 12.208156 23.604199 -1.541981 1.027217 0.019156 -0.021076 -436028.000000 0 1 0
-1.471155 20.917672 13.017156 24.681159 -1.500581 1.015244 0.025414 -0.016637 -625995.000000 0 1 0
-2.486055 21.356072 12.162756 24.702123 -1.454908 1.055978 0.024128 -0.015046 -7870.700000 0 1 0
-3.775855 21.888272 12.844156 25.657861 -1.399972 1.046512 0.025906 -0.021340 -132382.000000 0 0 1
-4.523655 20.953272 13.506256 25.336180 -1.358167 1.008557 0.031231 -0.020577 -164387.000000 0 0 1
-5.679455 21.617372 14.005956 26.376766 -1.313876 1.011021 0.043053 -0.014169 219410.000000 0 0 1
-6.555855 20.855172 15.037256 26.533686 -1.266226 0.968273 0.037668 -0.016767 -1109020.000000 0 0 1
-7.342155 19.763572 14.646156 25.671305 -1.215098 0.963650 0.043127 -0.021364 166575.000000 0 0 1
-8.193055 19.318772 15.687056 26.199710 -1.169690 0.928858 0.043345 -0.005642 204064.000000 0 0 1
-9.312855 20.284172 16.219056 27.590481 -1.140385 0.942398 0.043618 -0.001370 -214633.000000 0 0 1
-10.475255 20.332572 15.408456 27.578342 -1.095066 0.977960 0.046922 -0.018747 -196976.000000 0 0 1
-11.500455 19.474372 15.802856 27.590612 -1.037359 0.960925 0.044314 -0.011586 -324187.000000 0 0 1
-12.815755 19.712972 15.034856 27.908632 -0.994338 1.001883 0.060942 -0.024248 380793.000000 0 0 1
-13.630755 20.899072 15.150356 29.190786 -0.992863 1.025102 0.044289 -0.017427 800842.000000 0 0 1
-14.508055 21.021172 14.024356 29.138563 -0.966702 1.068660 0.046427 -0.027900 277022.000000 0 0 1
-15.563855 22.159572 14.053556 30.508730 -0.958492 1.092080 0.037660 -0.023891 -709741.000000 0 0 1
-16.660955 21.844872 14.822656 31.216934 -0.919220 1.076028 0.027469 -0.034490 -1177410.000000 0 0 1
-17.653955 22.815272 14.641956 32.350976 -0.912250 1.101121 0.046823 -0.041597 -734865.000000 0 0 1
-18.956055 22.434872 15.321056 33.126881 -0.869249 1.089988 0.114314 -0.037548 -931125.000000 0 0 1
-19.615355 21.225572 14.879256 32.506604 -0.824804 1.095356 0.109064 -0.038661 1016720.000000 0 0 1
-20.881855 20.913672 15.469156 33.357583 -0.786159 1.088587 0.128950 -0.032720 815220.000000 0 0 1
-22.060355 21.887372 15.337756 34.654914 -0.781462 1.112317 0.131348 -0.037550 -916921.000000 0 0 1
-22.543955 22.076172 14.014056 34.525078 -0.774915 1.152823 0.152729 -0.041078 -41633.100000 0 0 1
-23.461655 23.133372 13.995956 35.797890 -0.778353 1.169109 0.175430 -0.052884 -313956.000000 0 0 1
-22.941055 24.422472 13.441056 36.102785 -0.816666 1.189311 0.149851 -0.049256 -563807.000000 0 0 1
-21.854655 24.986072 14.106956 36.068489 -0.852151 1.168953 0.103542 -0.050043 -210312.000000 0 0 1
-21.349655 26.089372 13.367456 36.265024 -0.884979 1.193289 0.085322 -0.041799 -318982.000000 0 0 1
-19.891655 26.434972 13.733856 35.820448 -0.925713 1.177313 0.063065 -0.030459 -188146.000000 0 0 1
-19.001855 25.594872 13.005556 34.428367 -0.932171 1.183424 0.061893 -0.024388 -887949.000000 0 0 1
-17.731555 26.119772 13.222856 34.227101 -0.974403 1.174150 0.027000 -0.024735 -883113.000000 0 0 1
-16.720255 25.688272 12.140056 32.967183 -0.993795 1.193674 0.039026 -0.029832 -664815.000000 0 0 1
-15.470755 26.218272 12.408656 32.874257 -1.037706 1.183746 0.037478 -0.024903 -762630.000000 0 0 1
-14.446555 25.679672 11.603856 31.666985 -1.058355 1.195623 0.039606 -0.022969 276325.000000 0 0 1
-13.076655 26.383872 11.784556 31.717241 -1.110650 1.190118 0.038521 -0.019779 -338929.000000 0 0 1
-11.962655 25.574072 11.437456 30.462332 -1.133268 1.185901 0.023445 -0.017143 1271080.000000 0 0 1
-10.682855 26.127972 11.845256 30.612161 -1.182670 1.173479 0.034930 -0.017336 1202270.000000 0 0 1
-10.176455 27.315872 10.980656 31.149509 -1.214178 1.210540 0.043367 -0.022451 -585156.000000 0 0 1
-9.105055 27.995972 11.627956 31.652580 -1.256359 1.194625 0.060544 -0.028132 217100.000000 0 0 1
-8.748155 29.116472 10.870456 32.287241 -1.278923 1.227408 0.062373 -0.029745 -807406.000000 0 0 1
-7.562855 29.889072 11.432256 32.882364 -1.322967 1.215710 0.061598 -0.029657 -782363.000000 0 0 1
-6.331155 29.308572 11.204356 32.009584 -1.358048 1.213192 0.072635 -0.029959 -1185590.000000 0 0 1
-5.261855 29.942972 11.826856 32.621208 -1.396843 1.199793 0.121789 -0.043474 550553.000000 0 0 1
-3.854555 29.517472 11.268656 31.829567 -1.440946 1.208918 0.124066 -0.047290 672814.000000 0 0 1
-3.479055 30.104672 10.014756 31.916930 -1.455741 1.251629 0.121444 -0.046238 857664.000000 0 0 1
-2.162555 29.677772 9.622856 31.273729 -1.498057 1.258024 0.153641 -0.046744 794421.000000 0 0 1
-1.795355 30.321372 8.260856 31.477780 -1.511654 1.305252 0.156631 -0.050269 -108391.000000 0 0 1
-2.534555 29.908972 7.140356 30.853772 -1.486256 1.337253 0.155934 -0.045581 -83590.900000 0 0 1
-2.272155 30.671572 5.986456 31.332821 -1.496851 1.378554 0.168981 -0.038920 79019.900000 0 0 1
12.372145 -33.582107 -26.573019 44.575253 -1.217811 2.209479 0.204931 -0.057277 -121261.000000 0 0 1
12.933545 -33.377507 -25.308849 43.839165 -1.201118 2.186228 0.176670 -0.047379 726600.000000 0 0 1
14.010445 -32.410807 -25.356099 43.470504 -1.162778 2.193575 0.166872 -0.036746 450453.000000 0 0 1
14.746145 -32.392507 -24.008329 42.931610 -1.143599 2.164244 0.123071 -0.028440 -27193.100000 0 0 1
13.964045 -31.810307 -22.900729 41.609296 -1.157145 2.153610 0.129629 -0.035147 711003.000000 0 0 1
14.355045 -32.075007 -21.522229 41.207763 -1.149985 2.120326 0.092872 -0.027178 -613972.000000 0 0 1
15.774645 -31.752807 -21.039429 41.227876 -1.109716 2.106354 0.045833 -0.015075 -316048.000000 0 0 1
16.682845 -32.763907 -21.435829 42.559202 -1.099829 2.098639 0.072536 -0.008766 22045.100000 0 0 1
18.011845 -32.267207 -21.348829 42.677531 -1.061672 2.094667 0.054742 -0.015501 282299.000000 0 0 1
19.041145 -33.421507 -21.496029 44.064062 -1.052934 2.080405 0.031331 -0.003581 -169656.000000 0 0 1
20.392345 -33.076507 -21.258129 44.292336 -1.018318 2.071395 0.047790 0.002602 60597.500000 0 0 1
21.110545 33.366372 -21.414129 44.916977 1.006687 2.067749 0.044164 0.007338 -1010650.000000 0 0 1
22.588045 33.456372 -21.124029 45.560654 0.976944 2.052902 0.085075 0.006560 -680819.000000 0 0 1
23.404945 -33.449207 -22.010829 46.380141 -0.960261 2.065277 0.069857 0.006337 805027.000000 0 0 1
24.810545 -33.600607 -21.835829 47.131384 -0.934763 2.052508 0.070966 0.008590 1084640.000000 0 0 1
25.665445 -33.030607 -23.054229 47.762260 -0.910225 2.074517 0.102634 0.001559 309475.000000 0 0 1
25.880845 -31.622407 -23.136029 46.958179 -0.884916 2.085980 0.106719 -0.001135 -448384.000000 0 0 1
24.797745 -30.869107 -23.587329 46.088957 -0.894035 2.108050 0.078064 0.000570 -431074.000000 0 0 1
24.920145 -29.340107 -23.349029 45.022579 -0.866677 2.116017 0.076861 -0.019581 -322187.000000 0 0 1
25.753245 -28.701107 -24.261129 45.558594 -0.839480 2.132378 0.075450 -0.023328 -330350.000000 0 0 1
25.947045 -27.348707 -23.895629 44.634090 -0.811692 2.135739 0.095875 -0.018054 431358.000000 0 0 1
26.826545 -26.602207 -24.939529 45.269427 -0.781199 2.154255 0.101046 -0.020036 541399.000000 0 0 1
26.021745 -26.471107 -26.108539 45.381786 -0.793958 2.183778 0.075148 -0.020345 166676.000000 0 0 1
26.653145 -25.614007 -27.016129 45.785791 -0.765519 2.201923 0.072179 -0.017233 111469.000000 0 0 1
25.695245 -25.081207 -28.166469 45.636197 -0.773306 2.235970 0.064479 -0.010720 239529.000000 0 0 1
24.836245 -24.021407 -27.915939 44.420341 -0.768722 2.250355 0.073432 -0.012978 930043.000000 0 0 1
23.489345 -24.386007 -27.508589 43.625097 -0.804125 2.253081 0.078367 -0.016266 1293120.000000 0 0 1
22.456545 -23.249507 -27.394619 42.370994 -0.802746 2.273839 0.079598 -0.010440 28899.600000 0 0 1
22.155345 -22.607407 -28.621749 42.675036 -0.795497 2.305936 0.095598 -0.019597 239849.000000 0 0 1
21.557345 -21.317807 -28.358839 41.513754 -0.779811 2.322821 0.084529 -0.005226 -89799.600000 0 0 1
20.653945 -20.834807 -29.531489 41.626716 -0.789757 2.359494 0.100878 -0.019897 -338405.000000 0 0 1
19.478645 -21.578107 -29.495179 41.412533 -0.836489 2.363464 0.093485 -0.029185 -221868.000000 0 0 1
18.425445 -21.062007 -30.318269 41.258970 -0.852069 2.396210 0.081848 -0.033803 -259385.000000 0 0 1
17.204845 -21.944807 -30.165029 41.079316 -0.905885 2.395449 0.090174 -0.040072 -923025.000000 0 0 1
17.261145 -23.159507 -30.789189 42.217106 -0.930300 2.388103 0.091082 -0.028167 -461543.000000 0 0 1
16.206345 -23.967107 -30.408309 41.973004 -0.976229 2.381066 0.100038 -0.039314 -651916.000000 0 0 1
16.324345 -25.400707 -30.986869 43.265069 -0.999589 2.369153 0.122954 -0.044412 689140.000000 0 0 1
15.314445 -26.245007 -30.388719 42.974491 -1.042584 2.356233 0.138892 -0.044269 719454.000000 0 0 1
15.647945 -27.576407 -30.672139 44.114584 -1.054662 2.339611 0.173949 -0.046723 378283.000000 0 0 1
14.809945 -28.575607 -29.780979 43.849817 -1.092638 2.317412 0.171357 -0.056438 188637.000000 0 0 1
15.108845 -28.731507 -28.360809 43.105825 -1.086673 2.288869 0.202238 -0.067173 -89113.000000 0 0 1
15.129245 -27.604407 -27.571249 41.845801 -1.069433 2.290122 0.165110 -0.059937 -53718.500000 0 0 1
16.249445 -27.681507 -26.495959 41.621462 -1.039980 2.260870 0.114574 -0.033680 -158751.000000 0 0 1
16.164145 -28.756207 -25.547529 41.723797 -1.058703 2.229764 0.106815 -0.034085 -66924.300000 0 0 1
16.972045 -28.482007 -24.404029 41.168333 -1.033407 2.205311 0.116191 -0.033898 -1001640.000000 0 0 1
16.510545 -27.332007 -23.433329 39.607545 -1.027387 2.203885 0.097792 -0.030965 1047800.000000 0 0 1
15.334345 -27.592207 -22.632229 38.841856 -1.063550 2.192814 0.092943 -0.033910 1229630.000000 0 0 1
14.136745 -27.876007 -23.386229 39.036329 -1.101461 2.213159 0.111994 -0.031524 -609192.000000 0 0 1
12.895845 -27.849807 -22.480629 38.043307 -1.137143 2.202998 0.091763 -0.024758 -187571.000000 0 0 1
12.520445 -26.520507 -22.152929 36.753926 -1.129713 2.217722 0.064678 -0.022893 -333291.000000 0 0 1
11.265445 -26.448707 -21.535329 35.919559 -1.168134 2.213727 0.066087 -0.022927 -282621.000000 0 0 1
10.746345 -24.989007 -21.252229 34.519438 -1.164662 2.234019 0.080042 -0.028545 -39386.100000 0 0 1
11.369645 -24.366107 -20.136029 33.592196 -1.134210 2.213580 0.069155 -0.029786 123065.000000 0 0 1
11.045945 -22.977407 -20.033929 32.424257 -1.122683 2.236825 0.076290 -0.036065 -88670.400000 0 0 1
11.501845 -22.359107 -18.726629 31.351375 -1.095684 2.210945 0.069857 -0.036793 138233.000000 0 0 1
10.608845 -22.731807 -17.707229 30.705514 -1.134145 2.185454 0.077059 -0.038605 175326.000000 0 0 1
10.894045 -21.901707 -16.563529 29.541758 -1.109226 2.166005 0.069658 -0.035459 -44608.700000 0 0 1
10.116345 -22.190207 -15.280229 28.779005 -1.143053 2.130518 0.059420 -0.021422 24342.400000 0 0 1
10.471245 -23.499807 -14.831629 29.696214 -1.151617 2.093755 0.049443 -0.017071 60502.000000 0 0 1
9.530145 -24.015107 -13.924429 29.350276 -1.193017 2.065104 0.033198 -0.020215 -198599.000000 0 0 1
9.780945 -25.424807 -13.498729 30.402358 -1.203548 2.030857 0.045854 -0.019176 -580174.000000 0 0 1
11.020545 -25.723307 -12.935229 30.829548 -1.166027 2.003771 0.038936 -0.018171 -577465.000000 0 0 1
11.336245 -27.069107 -13.254629 32.201431 -1.174198 1.995023 0.037594 -0.022531 -252124.000000 0 0 1
12.622645 -27.662107 -12.587329 32.908421 -1.142703 1.963292 0.055192 -0.023160 1465020.000000 0 0 1
13.902745 -27.242707 -13.099029 33.272150 -1.098920 1.975442 0.068083 -0.021085 706327.000000 0 0 1
14.193845 -27.642707 -14.407229 34.251317 -1.096427 2.004939 0.068709 -0.020730 -871130.000000 0 0 1
15.537845 -27.148007 -14.986329 34.684708 -1.050965 2.017587 0.062222 -0.024276 161612.000000 0 0 1
16.629145 -27.991507 -14.646529 35.701172 -1.034742 1.993528 0.117067 -0.028319 463730.000000 0 0 1
17.819945 -27.392607 -15.162629 36.025139 -0.994043 2.005223 0.145952 -0.039634 1023470.000000 0 0 1
19.207545 -28.081807 -14.973829 37.171672 -0.970899 1.985402 0.130642 -0.037221 784434.000000 0 0 1
19.355345 -29.286607 -15.675529 38.445506 -0.986801 1.990767 0.113986 -0.025773 -77182.800000 0 0 1
20.717145 -29.619007 -15.879429 39.479639 -0.960437 1.984735 0.123820 -0.022387 378504.000000 0 0 1
21.010945 -30.698807 -16.955129 40.882183 -0.970602 1.998444 0.114469 -0.023500 -83872.800000 0 0 1
20.822645 -32.023207 -16.516729 41.615750 -0.994255 1.978919 0.095708 -0.012708 -113318.000000 0 0 1
20.874445 -32.931007 -17.617529 42.785172 -1.005834 1.995189 0.080581 -0.012940 -14318.700000 0 0 1
20.822545 33.189472 -17.180429 42.781848 1.010484 1.984040 0.056007 -0.007487 7030.390000 0 0 1
21.816345 32.903572 -16.211829 42.678113 0.985310 1.960444 0.083052 -0.008972 111015.000000 0 0 1
21.681045 31.535872 -15.832329 41.415475 0.968506 1.963059 0.070562 -0.013753 -612457.000000 0 0 1
22.645145 31.017872 -14.767829 41.146078 0.940174 1.937899 0.059538 -0.014682 34456.800000 0 0 1
23.973545 30.879672 -15.293729 41.978365 0.910641 1.943703 0.075470 -0.008405 928579.000000 0 0 1
25.004445 30.572472 -14.355229 42.023456 0.885251 1.919416 0.085048 -0.009937 462744.000000 0 0 1
24.920445 29.354672 -13.423329 40.778807 0.866916 1.906225 0.077168 -0.004698 -1273760.000000 0 0 1
24.833645 28.108172 -14.108929 40.072947 0.847171 1.930590 0.092782 -0.002309 141585.000000 0 0 1
24.672645 27.025772 -13.179529 38.895137 0.830883 1.916488 0.058053 0.001690 -629866.000000 0 0 1
23.214045 26.845772 -12.758529 37.714286 0.857819 1.915900 0.049814 0.000633 -921318.000000 0 0 1
22.510745 26.348072 -13.904829 37.340310 0.863776 1.952370 0.058482 -0.004344 -493073.000000 0 0 1
21.141745 26.102072 -13.881629 36.345442 0.890009 1.962686 0.062009 -0.014455 -305386.000000 0 0 1
20.253445 27.431072 -13.868129 36.810199 0.934800 1.957078 0.065865 -0.016252 -122233.000000 0 0 1
20.121745 28.148872 -15.106429 37.755103 0.950184 1.982440 0.071586 -0.019156 334674.000000 0 0 1
19.293245 27.487172 -16.086429 37.236368 0.958796 2.017515 0.070744 -0.012995 5774.950000 0 0 1
19.216545 28.267072 -17.410029 38.358989 0.973742 2.041901 0.062523 -0.007963 -345549.000000 0 0 1
18.514645 29.422772 -17.281729 38.822026 1.009138 2.032141 0.064424 -0.013731 -612377.000000 0 0 1
18.800245 30.234472 -18.398529 40.075907 1.014491 2.047769 0.050543 -0.015993 -364666.000000 0 0 1
17.764745 31.300472 -18.714329 40.565155 1.054575 2.050301 0.041280 -0.007575 -393211.000000 0 0 1
17.724945 32.422872 -17.880329 41.050243 1.070505 2.021470 0.054600 -0.026902 -289739.000000 0 0 1
16.673145 33.298172 -18.183329 41.441470 1.106571 2.025027 0.051509 -0.019468 -463858.000000 0 0 1
16.628145 -32.997307 -17.377329 40.832450 -1.104014 2.010395 0.059322 -0.014172 1103470.000000 0 0 1
15.434045 -32.234107 -17.739129 39.898923 -1.124243 2.031526 0.039810 -0.012251 1083150.000000 0 0 1
15.146345 -31.310007 -16.730029 38.595623 -1.120230 2.019136 0.046454 -0.012478 -179784.000000 0 0 1
14.025345 -30.325207 -17.031029 37.501792 -1.137598 2.042202 0.041148 -0.014085 -221961.000000 0 0 1
12.715345 -30.805407 -17.148629 37.479708 -1.179336 2.046028 0.043826 -0.015157 -438900.000000 0 0 1
11.844145 -29.810707 -17.611829 36.594242 -1.192610 2.072903 0.025529 -0.002934 -126244.000000 0 0 1
10.500445 -30.366907 -18.097729 36.877312 -1.237881 2.083753 0.043972 -0.011545 -600211.000000 0 0 1
9.718445 -31.058207 -17.079229 36.752693 -1.267537 2.054100 0.049656 -0.008564 419704.000000 0 0 1
8.683545 -31.894107 -17.541329 37.421066 -1.304978 2.058678 0.076909 -0.007553 563059.000000 0 0 1
7.463245 -31.194907 -18.241229 36.899386 -1.335965 2.087884 0.085739 -0.000510 -492841.000000 0 0 1
7.632945 -30.790307 -19.601229 37.289583 -1.327794 2.124274 0.080595 0.002977 -83244.700000 0 0 1
7.655345 -31.758507 -20.642829 38.643673 -1.334260 2.134338 0.102385 -0.018397 -560438.000000 0 0 1
8.111345 -31.021607 -22.000329 38.886353 -1.315048 2.172151 0.120229 -0.014524 1670500.000000 0 0 1
9.526645 -30.869407 -22.329629 39.271995 -1.271458 2.175586 0.094470 -0.016519 1828650.000000 0 0 1
10.347245 -32.056207 -22.390929 40.447739 -1.258570 2.157449 0.106867 -0.020888 -33652.300000 0 0 1
9.990445 -33.211207 -23.429729 41.853858 -1.278592 2.164939 0.139582 -0.033263 241165.000000 0 0 1
8.725545 33.820972 -23.150929 41.904162 1.318310 2.156125 0.145856 -0.049531 398949.000000 0 0 1
8.399845 32.726172 -23.945929 41.412163 1.319549 2.187359 0.155495 -0.061863 155727.000000 0 0 1
7.132845 31.983672 -23.410229 40.272466 1.351372 2.191117 0.156107 -0.064717 329258.000000 0 0 1
5.897045 32.626072 -23.548129 40.666326 1.391981 2.188368 0.153327 -0.064650 -60941.200000 0 0 1
5.575945 33.475372 -22.422129 40.674851 1.405743 2.154661 0.123543 -0.053270 200330.000000 0 0 1
4.267045 -33.342207 -22.704729 40.563717 -1.443511 2.164856 0.117346 -0.048470 589885.000000 0 0 1
3.078545 33.590372 -22.456229 40.522497 1.479402 2.158158 0.114321 -0.052088 511818.000000 0 0 1
1.912845 -33.254107 -22.737829 40.329932 -1.513338 2.169770 0.113735 -0.046645 173512.000000 0 0 1
0.589445 -33.817007 -22.248229 40.483590 -1.553368 2.152636 0.091203 -0.043829 -404500.000000 0 0 1
0.385945 -33.795107 -20.818029 39.694439 -1.559377 2.122874 0.084599 -0.038459 183942.000000 0 0 1
-0.840555 33.237272 -20.425129 39.020618 -1.545512 2.121685 0.093909 -0.043942 388642.000000 0 0 1
-1.148355 33.276672 -18.911929 38.292514 -1.536301 2.087343 0.108843 -0.035869 362604.000000 0 0 1
-0.283655 32.424572 -18.173929 37.171562 -1.562048 2.081648 0.106486 -0.043449 8151.600000 0 0 1
-0.838955 32.210072 -16.906129 36.386945 -1.544756 2.054003 0.078774 -0.030901 822690.000000 0 0 1
0.058745 31.231072 -15.977729 35.080922 1.568915 2.043678 0.046651 -0.023660 1484110.000000 0 0 1
1.098245 31.946172 -15.288929 35.433252 1.536432 2.016935 0.054853 -0.013537 384514.000000 0 0 1
1.977245 31.119472 -14.554029 34.411492 1.507344 2.007485 0.065455 -0.003866 482011.000000 0 0 1
2.962745 31.788672 -13.550929 34.683212 1.477864 1.972194 0.086629 -0.019962 290237.000000 0 0 1
4.068545 32.426972 -14.174929 35.622888 1.445981 1.980041 0.081984 -0.023470 128080.000000 0 0 1
4.967145 32.960372 -13.237029 35.864712 1.421221 1.948818 0.093333 -0.033872 781071.000000 0 0 1
6.369645 33.375372 -13.839229 36.688037 1.382215 1.957582 0.083497 -0.038948 861871.000000 0 0 1
7.254445 32.285172 -13.889429 35.886983 1.349768 1.968207 0.083875 -0.033644 -68407.000000 0 0 1
8.258745 32.478972 -14.885229 36.669613 1.321794 1.988791 0.081512 -0.025693 332951.000000 0 0 1
9.279345 31.349472 -15.060629 35.996085 1.283016 2.002475 0.073722 -0.037491 66320.800000 0 0 1
10.162645 31.100772 -13.982829 35.581693 1.254969 1.974664 0.074856 -0.040542 -102693.000000 0 0 1
10.969745 29.968272 -14.206929 34.932355 1.219899 1.989633 0.092967 -0.044089 -69540.400000 0 0 1
10.328945 28.624272 -13.822729 33.423104 1.224492 1.997166 0.092628 -0.036879 137576.000000 0 0 1
9.357545 28.081372 -14.730029 33.062075 1.249139 2.032559 0.098638 -0.043400 492815.000000 0 0 1
8.998745 26.736672 -14.367829 31.658514 1.246136 2.041864 0.088031 -0.029315 -229635.000000 0 0 1
8.113145 26.127972 -15.460629 31.424912 1.269720 2.085166 0.087431 -0.027390 131792.000000 0 0 1
8.911245 25.528272 -16.481929 31.666337 1.234947 2.118218 0.106432 -0.028301 233502.000000 0 0 1
8.151245 24.592872 -17.246929 31.124085 1.250744 2.158119 0.090341 -0.023059 349170.000000 0 0 1
9.026745 23.610772 -18.070629 31.072468 1.205628 2.191446 0.105753 -0.014104 16902.800000 0 0 1
8.257745 22.777772 -18.905529 30.731682 1.222998 2.233411 0.108296 -0.018885 -257692.000000 0 0 1
9.094745 22.023372 -19.730029 30.935697 1.179169 2.262403 0.102359 -0.013682 -911030.000000 0 0 1
8.427045 21.002872 -20.568929 30.581310 1.189227 2.308510 0.083682 -0.022699 -443269.000000 0 0 1
7.869845 19.949272 -19.794629 29.184503 1.195046 2.316186 0.101502 -0.032693 129047.000000 0 0 1
7.259045 19.072872 -20.754429 29.106949 1.207129 2.364621 0.101801 -0.034677 31771.600000 0 0 1
25.741545 -12.761828 -9.583029 30.287387 -0.460256 1.892732 0.138842 -0.030781 -192809.000000 0 0 1
26.140345 -11.987928 -8.516229 29.992569 -0.429982 1.858702 0.150037 -0.042418 490505.000000 0 0 1
25.130245 -11.962628 -7.509429 28.827508 -0.444284 1.834331 0.121821 -0.032693 -306083.000000 0 0 1
25.573545 -11.352128 -6.177129 28.653690 -0.417771 1.788081 0.108052 -0.036396 -265811.000000 0 0 1
25.503445 -9.917028 -6.118929 28.039516 -0.370858 1.790792 0.128967 -0.052710 1003820.000000 0 0 1
26.603845 -9.336328 -6.844229 29.013360 -0.337511 1.808940 0.090749 -0.051955 -577934.000000 0 0 1
26.848645 -7.867628 -6.352529 28.689788 -0.285056 1.794068 0.132459 -0.046757 94458.700000 0 0 1
27.472645 -7.648328 -5.071529 28.964867 -0.271523 1.746796 0.158273 -0.055839 1696180.000000 0 0 1
28.730645 -8.359528 -4.858129 30.313909 -0.283145 1.731751 0.160155 -0.065407 715874.000000 0 0 1
29.367645 -8.158228 -3.470829 30.676732 -0.270964 1.684181 0.184072 -0.081859 -541510.000000 0 0 1
29.895845 -6.896828 -3.166429 30.844028 -0.226729 1.673637 0.196892 -0.065745 751054.000000 0 0 1
30.943445 -7.083028 -2.188829 31.819130 -0.225026 1.639640 0.252804 -0.069609 596912.000000 0 0 1
31.609545 -5.686028 -1.888729 32.172372 -0.177980 1.629537 0.242378 -0.069925 155443.000000 0 0 1
30.622445 -4.743228 -1.414329 31.019875 -0.153673 1.616406 0.247408 -0.062134 641602.000000 0 0 1
31.109045 -3.540228 -0.847029 31.321292 -0.113313 1.597843 0.226383 -0.038601 -467730.000000 0 0 1
31.924345 -3.544428 0.440771 32.123528 -0.110573 1.557075 0.200621 -0.043222 197265.000000 0 0 1
31.122545 -3.588328 1.650671 31.372179 -0.114790 1.518156 0.237391 -0.068733 691656.000000 0 0 1
31.841645 -3.082528 2.735471 32.107244 -0.096507 1.485495 0.172299 -0.050576 -268976.000000 0 0 1
31.247945 -3.714728 4.012371 31.722742 -0.118324 1.443974 0.183943 -0.053151 43001.600000 0 0 1
31.465945 -5.092128 4.034171 32.129581 -0.160439 1.444905 0.164676 -0.052033 148674.000000 0 0 1
31.300445 -5.663028 5.312771 32.249237 -0.178989 1.405301 0.156153 -0.043039 -155248.000000 0 0 1
32.034745 -6.981728 5.371471 33.223818 -0.214587 1.408408 0.113911 -0.031192 629463.000000 0 0 1
33.466545 -6.932028 5.352571 34.593535 -0.204245 1.415445 0.127580 -0.050782 683239.000000 0 0 1
33.959745 -8.247328 5.238471 35.337293 -0.238244 1.422006 0.121257 -0.045213 192746.000000 0 0 1
35.485845 -8.363428 5.484671 36.868330 -0.231460 1.421478 0.200462 -0.061564 253507.000000 0 0 1
36.299545 -7.864028 4.451671 37.407449 -0.213346 1.451509 0.219352 -0.065826 708728.000000 0 0 1
37.674645 -7.688328 4.823271 38.752460 -0.201308 1.446009 0.252231 -0.067690 749382.000000 0 0 1
-37.210336 -7.822528 3.702871 38.203564 0.207207 1.473719 0.276630 -0.070637 -111901.000000 0 0 1
-36.995236 -9.150628 3.311571 38.253732 0.242479 1.484119 0.346290 -0.086779 459518.000000 0 0 1
-35.992336 -9.134728 2.276871 37.203167 0.248549 1.509557 0.373219 -0.089801 297284.000000 0 0 1
-35.757036 -10.458028 1.521371 37.286064 0.284539 1.529982 0.376446 -0.070920 -248573.000000 0 0 1
-34.762036 -11.320728 2.035471 36.615587 0.314832 1.515177 0.357119 -0.069517 262546.000000 0 0 1
-34.178436 -12.154828 1.038771 36.290280 0.341680 1.542168 0.359709 -0.066126 -406288.000000 0 0 1
-33.326936 -13.279728 1.627971 35.912201 0.379185 1.525449 0.234696 -0.064364 374579.000000 0 0 1
-32.086736 -12.941828 2.230871 34.670252 0.383381 1.506406 0.256147 -0.054165 700265.000000 0 0 1
-30.973636 -12.883028 1.363171 33.573752 0.394168 1.530183 0.261886 -0.036803 485131.000000 0 0 1
-29.537436 -13.136428 1.912071 32.383358 0.418470 1.511717 0.265795 -0.042038 889199.000000 0 0 1
-28.741236 -12.043528 2.347671 31.250869 0.396806 1.495602 0.252608 -0.058146 997883.000000 0 0 1
-27.475136 -12.421728 2.905671 30.292332 0.424606 1.474728 0.230098 -0.033221 668221.000000 0 0 1
-26.730336 -11.250628 3.593471 29.223288 0.398387 1.447518 0.203751 -0.034465 -161708.000000 0 0 1
-25.409536 -11.621928 3.902271 28.212435 0.428978 1.432034 0.160312 -0.022018 -31809.400000 0 0 1
-24.818636 -10.669028 4.747471 27.428659 0.405997 1.396836 0.159356 -0.027742 533776.000000 0 0 1
-23.410936 -11.093528 5.309671 26.444865 0.442519 1.368640 0.131116 -0.015109 741342.000000 0 0 1
-23.472536 -12.161328 6.303671 27.177088 0.478030 1.336717 0.134813 -0.016725 -640631.000000 0 0 1
-22.192136 -12.382228 6.779471 26.301553 0.508931 1.310094 0.111913 -0.012926 -727943.000000 0 0 1
-21.824836 -11.920228 8.221571 26.191784 0.499904 1.251500 0.137022 -0.018838 -743813.000000 0 0 1
-21.718436 -10.489228 8.382371 25.533870 0.449926 1.236310 0.128419 -0.010399 392402.000000 0 0 1
-22.933036 -9.801828 8.609671 26.384208 0.403911 1.238389 0.150101 -0.026315 -373068.000000 0 0 1
-23.527036 -10.004828 10.036071 27.465264 0.402081 1.196724 0.113443 -0.009500 -1029590.000000 0 0 1
-24.021436 -11.284728 10.410771 28.508922 0.439179 1.196975 0.105976 -0.017192 567429.000000 0 0 1
-25.298836 -11.639728 9.880571 29.548944 0.431213 1.229849 0.105353 -0.019060 471678.000000 0 0 1
-26.465836 -10.924528 10.671771 30.556055 0.391474 1.214023 0.114847 -0.019148 -493123.000000 0 0 1
-26.510336 -11.262428 12.027171 31.213668 0.401728 1.175245 0.101144 -0.017972 1426950.000000 0 0 1
-27.822536 -11.024928 12.620071 32.479359 0.377277 1.171732 0.106406 -0.022717 1226770.000000 0 0 1
-28.075836 -11.706128 13.982971 33.478493 0.395030 1.139917 0.101530 -0.016965 -176462.000000 0 0 1
-28.114936 -13.135228 13.874071 33.992259 0.437063 1.150365 0.095084 -0.022523 359974.000000 0 0 1
-27.945036 -13.812228 15.096671 34.635418 0.459048 1.119787 0.071075 -0.011474 -573409.000000 0 0 1
-27.827136 -15.373528 14.994071 35.149922 0.504734 1.130094 0.091125 -0.012079 -256479.000000 0 0 1
-28.987636 -16.166028 14.953471 36.403706 0.508726 1.147500 0.110366 -0.020162 -85855.800000 0 0 1
-28.576636 -17.507528 15.065471 36.743790 0.549670 1.148327 0.081517 -0.011339 648578.000000 0 0 1
-29.614336 -18.521528 15.748371 38.315364 0.558904 1.147224 0.064041 0.000874 552317.000000 0 0 1
-29.649036 -18.239628 17.128071 38.795879 0.551510 1.113535 0.068325 0.004762 202781.000000 0 0 1
-30.357436 -19.204928 17.929671 40.148179 0.564065 1.107849 0.068976 0.011037 -20023.700000 0 0 1
-29.548436 -20.508328 18.091971 40.261905 0.606727 1.104751 0.031958 0.021117 -502367.000000 0 0 1
-28.344036 -20.269528 18.743771 39.567248 0.620805 1.077287 0.040788 0.019807 -368589.000000 0 0 1
-27.594136 -21.427028 18.949771 39.744782 0.660251 1.073801 0.035695 0.024667 -498651.000000 0 0 1
-26.238736 -21.305328 19.664771 39.103600 0.682003 1.043858 0.028741 0.021459 -236273.000000 0 0 1
-25.246736 -21.013928 18.683971 37.789862 0.694153 1.053632 0.032153 0.009160 281329.000000 0 0 1
-23.996436 -20.969428 19.382071 37.298935 0.718182 1.024365 0.048688 0.005692 -181570.000000 0 0 1
-22.820136 -20.877128 18.435871 36.006867 0.740962 1.033273 0.059740 -0.005621 -613876.000000 0 0 1
-22.580436 -22.050328 17.633171 36.152756 0.773521 1.061296 0.059336 -0.008022 569799.000000 0 0 1
-21.293236 -21.966728 17.026571 35.012043 0.800965 1.062939 0.069331 -0.017395 202309.000000 0 0 1
-20.980136 -22.997928 15.891071 34.951351 0.831248 1.098803 0.074809 -0.019340 -660667.000000 0 0 1
-20.924436 -24.395228 16.308371 36.040563 0.861834 1.101229 0.074869 -0.029779 191799.000000 0 0 1
-19.917636 -24.800928 17.251671 36.185887 0.894168 1.073841 0.092261 -0.035079 1095660.000000 0 0 1
-18.470136 -24.839128 16.601871 35.124782 0.931410 1.078496 0.092516 -0.031195 757021.000000 0 0 1
-17.908936 -23.561328 16.302571 33.788164 0.920863 1.067297 0.100363 -0.037958 -294070.000000 0 0 1
-16.581536 -23.749828 15.860571 33.023619 0.961296 1.069823 0.113249 -0.040740 289885.000000 0 0 1
-15.732736 -22.426928 15.794971 31.622258 0.959057 1.047787 0.108279 -0.032750 -136754.000000 0 0 1
-16.178636 -21.536628 14.741671 30.706538 0.926518 1.070048 0.116017 -0.025019 202968.000000 0 0 1
-17.341636 -20.753328 14.980071 30.916590 0.874717 1.064968 0.091120 -0.015301 47822.900000 0 0 1
-17.193836 -19.514328 15.808971 30.436172 0.848529 1.024631 0.106729 -0.014317 -256680.000000 0 0 1
-16.498936 -18.458028 15.141871 29.020509 0.841383 1.021878 0.109867 -0.016044 74487.000000 0 0 1
-16.534436 -17.306728 15.951371 28.763808 0.808215 0.982957 0.117065 -0.021989 -595247.000000 0 0 1
-15.766436 -16.136028 15.360771 27.292952 0.796983 0.973014 0.112152 -0.018845 -136559.000000 0 0 1
-16.233436 -15.521328 14.117071 26.527868 0.762977 1.009647 0.111666 -0.024511 144738.000000 0 0 1
-16.209636 -16.248628 12.897971 26.327322 0.786599 1.058812 0.138807 -0.023093 -158686.000000 0 0 1
-16.985036 -15.457328 11.810871 25.824739 0.738343 1.095787 0.118675 -0.017866 928112.000000 0 0 1
-18.407936 -15.585128 12.002871 26.940996 0.702548 1.109036 0.107857 -0.016083 305796.000000 0 0 1
-19.052736 -14.535628 11.442271 26.555919 0.651716 1.125335 0.138933 -0.022770 213393.000000 0 0 1
-20.598236 -14.634328 11.735771 27.859993 0.617715 1.135983 0.109786 -0.021245 1564390.000000 0 0 1
-21.451236 -15.649528 11.112471 28.784549 0.630277 1.174443 0.114287 -0.027465 822611.000000 0 0 1
-21.668736 -15.566228 9.750971 28.406391 0.622951 1.220403 0.156268 -0.032680 -229168.000000 0 0 1
-22.544036 -16.701728 9.164871 29.515693 0.637619 1.255069 0.157928 -0.023805 254419.000000 0 0 1
-21.857436 -17.960628 9.197871 29.747815 0.687843 1.256450 0.161544 -0.017274 31973.100000 0 0 1
-22.545336 -18.978528 8.525371 30.678309 0.699711 1.289193 0.147283 -0.027292 -111768.000000 0 0 1
-21.941736 -20.374028 8.697571 31.179938 0.748367 1.288098 0.160186 -0.029433 985491.000000 0 0 1
-20.736236 -20.624928 7.937671 30.304880 0.782707 1.305778 0.187167 -0.031957 636410.000000 0 0 1
-20.326836 -21.980028 7.884171 30.959039 0.824455 1.313295 0.178754 -0.038773 -427479.000000 0 0 1
-19.020036 -22.316728 7.178271 30.188172 0.864982 1.330712 0.186043 -0.049365 416705.000000 0 0 1
-17.904136 -21.839928 7.958771 29.340801 0.884105 1.296102 0.154078 -0.043190 -76121.400000 0 0 1
-16.650236 -22.140028 7.440471 28.684000 0.925989 1.308401 0.165152 -0.038637 -1502140.000000 0 0 1
-15.501436 -21.984628 8.358171 28.168731 0.956653 1.269542 0.116704 -0.017552 -1094610.000000 0 0 1
-14.319436 -22.369828 7.680671 27.648656 1.001396 1.289298 0.109091 -0.011115 -539531.000000 0 0 1
-13.211936 -21.812928 8.340171 26.831279 1.026201 1.254722 0.094785 -0.015446 217358.000000 0 0 1
-11.884636 -21.974928 7.543171 26.096771 1.075023 1.277566 0.089277 -0.018160 332491.000000 0 0 1
-11.441836 -23.264728 7.422171 26.967607 1.113722 1.291972 0.071596 -0.006627 40877.100000 0 0 1
-10.229036 -23.430328 6.678071 26.423666 1.159165 1.315295 0.084723 -0.023705 670430.000000 0 0 1
-9.876036 -24.908728 6.545071 27.582944 1.193320 1.331224 0.102135 -0.016180 -267191.000000 0 0 1
-10.767036 -25.625578 5.758071 28.385819 1.173026 1.366529 0.097718 -0.026156 -715226.000000 0 0 1
-10.898836 -26.934678 6.198971 29.710079 1.186297 1.360603 0.113368 -0.028027 -252475.000000 0 0 1
-10.092036 -27.978348 5.427371 30.233980 1.224613 1.390306 0.139103 -0.033234 -996537.000000 0 0 1
-8.722036 -27.752248 5.583171 29.621496 1.266289 1.381178 0.138165 -0.034754 -850220.000000 0 0 1
-7.873036 -28.787308 5.155071 30.286442 1.303835 1.399753 0.167780 -0.031095 57652.000000 0 0 1
-7.945036 -30.155858 5.933871 31.744452 1.313185 1.382764 0.197633 -0.041431 -600269.000000 0 0 1
-7.713036 -29.967198 7.323271 31.798651 1.318881 1.338409 0.183077 -0.041409 67429.600000 0 0 1
-7.500036 -31.260668 7.870671 33.097241 1.335328 1.330692 0.200901 -0.050094 -147880.000000 0 0 1
-7.646036 -31.309168 9.406171 33.573828 1.331274 1.286832 0.162097 -0.052634 -729797.000000 0 0 1
-6.606036 -30.797828 10.147071 33.092431 1.359501 1.259148 0.158016 -0.044179 -288290.000000 0 0 1
-6.906036 -31.041018 11.522971 33.823321 1.351881 1.223155 0.122428 -0.040499 -121009.000000 0 0 1
-6.061036 -30.147448 12.476871 33.185496 1.372395 1.185349 0.111936 -0.033070 95627.900000 0 0 1
-6.420036 -28.772698 12.659671 32.083521 1.351263 1.165180 0.117312 -0.033105 335843.000000 0 0 1
-5.472036 -28.079058 13.474771 31.621925 1.378329 1.130596 0.099293 -0.035456 405100.000000 0 0 1
-6.202036 -27.431518 14.692371 31.730415 1.348443 1.089377 0.104214 -0.035006 131496.000000 0 0 1
-6.837036 -28.253778 15.630771 33.005182 1.333374 1.077439 0.090328 -0.028418 -91578.000000 0 0 1
-6.004036 -29.266588 16.211171 33.990936 1.368454 1.073642 0.071291 -0.034046 42108.600000 0 0 1
-6.731036 -30.537648 16.698771 35.450018 1.353848 1.080314 0.074382 -0.029937 137375.000000 0 0 1
-7.407036 -31.185008 15.598671 35.646703 1.337598 1.117879 0.078667 -0.028000 198990.000000 0 0 1
-7.751036 -32.576358 15.675471 36.973208 1.337205 1.132974 0.076785 -0.035362 210608.000000 0 0 1
-6.590036 -33.566298 15.341371 37.489767 1.376933 1.149203 0.089435 -0.042277 265958.000000 0 0 1
-6.102036 -33.379598 14.025771 36.717226 1.389985 1.178843 0.084752 -0.042037 370813.000000 0 0 1
-5.126036 33.244541 13.723371 36.329143 -1.417809 1.183430 0.118879 -0.049015 -412162.000000 0 0 1
-4.160036 33.643985 12.678471 36.193469 -1.447772 1.212908 0.157490 -0.055542 -1505180.000000 0 0 1
-4.684036 33.804700 11.389271 35.977957 -1.433111 1.248693 0.147187 -0.048443 -184236.000000 0 0 1
-3.760036 -33.179788 10.589071 35.030910 1.457955 1.263715 0.166462 -0.054095 -667951.000000 0 0 1
-4.307036 -32.967258 9.180471 34.491618 1.440886 1.301384 0.168976 -0.061790 -766383.000000 0 0 1
-4.385036 33.614189 8.239471 34.885973 -1.441077 1.332361 0.175625 -0.066535 585952.000000 0 0 1
-5.142036 32.418033 8.572271 33.924227 -1.413490 1.315338 0.181132 -0.066427 645661.000000 0 0 1
-6.648036 32.507439 8.947271 34.365442 -1.369070 1.307405 0.157368 -0.058578 73330.700000 0 0 1
-7.544036 32.903659 7.938271 34.678226 -1.345415 1.339836 0.161746 -0.053527 -681536.000000 0 0 1
-8.827036 32.940697 8.516271 35.150148 -1.308980 1.326078 0.110710 -0.050197 -137291.000000 0 0 1
-10.004036 33.169159 7.555071 35.459172 -1.277866 1.356086 0.113357 -0.062018 -188975.000000 0 0 1
-10.214036 -33.133858 7.083671 35.388663 1.271774 1.369267 0.124239 -0.051841 -324217.000000 0 0 1
-11.172136 -33.126578 6.075171 35.483722 1.245520 1.398739 0.116318 -0.041629 -636554.000000 0 0 1
-11.482136 -31.775218 5.488071 34.228977 1.224042 1.409767 0.097409 -0.045348 548675.000000 0 0 1
-12.502336 -31.160878 6.307471 34.162742 1.189240 1.385101 0.089730 -0.037730 450251.000000 0 0 1
-13.060236 -29.992418 5.651171 33.197148 1.160107 1.399733 0.091241 -0.034249 67548.300000 0 0 1
-14.261336 -29.398658 6.454371 33.306542 1.119138 1.375776 0.079024 -0.028006 301606.000000 0 0 1
-15.350636 -30.311298 6.482471 34.589583 1.102016 1.382270 0.095410 -0.031975 -638345.000000 0 0 1
-16.309636 -29.850918 7.343271 34.799500 1.070745 1.358182 0.096884 -0.035956 -760308.000000 0 0 1
35.230716 -12.419328 -12.648629 39.438951 -0.338913 1.897280 0.167446 -0.052246 -564982.000000 0 0 1
34.215226 -12.561928 -11.711729 38.283787 -0.351866 1.881700 0.196271 -0.058080 -230290.000000 0 0 1
33.980436 -13.958028 -11.361329 38.452261 -0.389753 1.870739 0.193874 -0.056358 544596.000000 0 0 1
34.978096 -14.667228 -10.304329 39.303613 -0.397055 1.836069 0.178445 -0.053430 835154.000000 0 0 1
36.284596 -14.782728 -10.830329 40.649686 -0.386878 1.840484 0.178420 -0.053552 -204406.000000 0 0 1
37.232526 -14.821328 -9.812129 41.257855 -0.378846 1.810922 0.141811 -0.041146 -324846.000000 0 0 1
-37.219005 -15.014328 -10.204829 41.410421 0.383438 1.819793 0.098142 -0.041377 -144844.000000 0 0 1
-36.458305 -13.998128 -10.803129 40.519911 0.366593 1.840673 0.102140 -0.049196 242987.000000 0 0 1
-35.093672 -14.342728 -10.955429 39.462655 0.387982 1.852107 0.090857 -0.047109 127934.000000 0 0 1
-34.209226 -13.229828 -11.519429 38.444724 0.369017 1.875108 0.098869 -0.051088 -348064.000000 0 0 1
-33.850485 -12.309428 -10.473729 37.511017 0.348775 1.853775 0.120134 -0.049255 267698.000000 0 0 1
-33.177525 -11.185828 -10.979429 36.693580 0.325182 1.874671 0.131783 -0.043242 -351800.000000 0 0 1
-33.522715 -9.858028 -10.166729 36.391147 0.286008 1.853938 0.149141 -0.039283 -139792.000000 0 0 1
-33.019265 -9.737128 -8.894829 35.555612 0.286764 1.823649 0.155692 -0.041074 316807.000000 0 0 1
-33.648585 -8.639128 -8.174729 35.688766 0.251317 1.801904 0.200369 -0.047939 179408.000000 0 0 1
-33.321705 -8.696528 -6.690529 35.081745 0.255292 1.762684 0.185389 -0.044534 -441422.000000 0 0 1
-32.115535 -8.062728 -6.301329 33.706408 0.245970 1.758850 0.165772 -0.049889 322295.000000 0 0 1
-31.844645 -8.178428 -4.924429 33.244821 0.251390 1.719470 0.193746 -0.043216 -350426.000000 0 0 1
-31.133695 -9.453928 -4.429329 32.837520 0.294807 1.706095 0.175249 -0.042909 -409196.000000 0 0 1
-31.947505 -10.613328 -4.226329 33.928567 0.320741 1.695686 0.197894 -0.039255 380835.000000 0 0 1
-31.970925 -10.939028 -2.854629 33.910932 0.329669 1.655076 0.195286 -0.048693 170147.000000 0 0 1
-32.926245 -12.149628 -2.610629 35.193273 0.353496 1.645044 0.210725 -0.046125 864139.000000 0 0 1
-34.334831 -11.879128 -2.557929 36.421660 0.333088 1.641085 0.250410 -0.056252 800526.000000 0 0 1
-35.066912 -13.074728 -2.578729 37.513820 0.356885 1.639591 0.266508 -0.061633 437979.000000 0 0 1
-36.600815 -12.800528 -2.422529 38.850249 0.336437 1.633192 0.271026 -0.058381 363284.000000 0 0 1
-37.078645 -12.163228 -1.284129 39.043809 0.316978 1.603692 0.303941 -0.071140 -35638.300000 0 0 1
37.470226 -11.866228 -1.461029 39.331410 -0.306692 1.607952 0.329174 -0.070678 -53220.400000 0 0 1
36.893556 -11.006928 -0.347829 38.502051 -0.289936 1.579830 0.314373 -0.089390 -271631.000000 0 0 1
36.767066 -11.749728 0.825871 38.607710 -0.309315 1.549403 0.335816 -0.085958 43787.000000 0 0 1
36.516016 -10.981428 2.010871 38.184483 -0.292126 1.518110 0.309448 -0.076455 -348805.000000 0 0 1
36.571066 -11.774328 3.313571 38.562383 -0.311478 1.484763 0.279574 -0.071987 448303.000000 0 0 1
35.427276 -11.719128 4.174971 37.548105 -0.319463 1.459376 0.228825 -0.065815 338605.000000 0 0 1
35.810076 -12.153528 5.457871 38.208090 -0.327190 1.427460 0.228622 -0.062671 472500.000000 0 0 1
34.642986 -12.276528 6.517371 37.327279 -0.340565 1.395296 0.171292 -0.047051 375658.000000 0 0 1
34.086226 -11.061328 6.939071 36.501705 -0.313789 1.379530 0.152701 -0.036559 35132.200000 0 0 1
34.019896 -10.978428 8.360371 36.712055 -0.312156 1.341052 0.116214 -0.032372 -388509.000000 0 0 1
33.147736 -9.780428 8.860771 35.678319 -0.286915 1.319818 0.111561 -0.037108 -504859.000000 0 0 1
31.843806 -9.845728 8.328171 34.355855 -0.299865 1.325948 0.127151 -0.027124 16937.700000 0 0 1
31.062916 -8.828028 8.983471 33.519271 -0.276898 1.299470 0.145587 -0.021182 273258.000000 0 0 1
29.549026 -8.962528 8.683571 32.076101 -0.294491 1.296658 0.140022 -0.011120 116204.000000 0 0 1
29.140726 -8.314328 7.504371 31.218993 -0.277932 1.328041 0.154567 -0.015633 -8639.210000 0 0 1
28.167526 -9.062428 6.817871 30.364790 -0.311274 1.344333 0.181849 -0.027040 188570.000000 0 0 1
27.403426 -8.404528 5.604071 29.205983 -0.297589 1.377718 0.190785 -0.032145 258172.000000 0 0 1
26.725326 -7.265228 6.093371 28.357640 -0.265434 1.354232 0.213806 -0.043999 53115.800000 0 0 1
25.756026 -6.748828 5.235171 27.135338 -0.256268 1.376651 0.248306 -0.057844 -248145.000000 0 0 1
26.258426 -5.530728 4.368071 27.187753 -0.207592 1.409434 0.247239 -0.064201 -193486.000000 0 0 1
27.096526 -5.912928 3.311871 27.931218 -0.214849 1.451944 0.228262 -0.057232 34784.100000 0 0 1
27.722326 -4.789828 2.762771 28.268405 -0.171090 1.472907 0.234448 -0.063988 -145987.000000 0 0 1
28.081126 -5.015028 1.260671 28.553273 -0.176728 1.526630 0.211807 -0.072228 597510.000000 0 0 1
26.925326 -5.147828 0.423771 27.416289 -0.188909 1.555339 0.209125 -0.070098 835749.000000 0 0 1
27.398326 -4.961928 -0.900529 27.858570 -0.179161 1.603127 0.211766 -0.073945 495179.000000 0 0 1
26.345126 -5.380228 -1.977229 26.961490 -0.201451 1.644198 0.199908 -0.050555 1897800.000000 0 0 1
25.063226 -4.664628 -2.009929 25.572717 -0.184009 1.649474 0.227537 -0.044182 1717400.000000 0 0 1
24.314526 -5.085428 -3.135529 25.037757 -0.206180 1.696358 0.221812 -0.042386 864847.000000 0 0 1
22.852526 -4.530728 -3.361329 23.538563 -0.195721 1.714087 0.177627 -0.031778 728629.000000 0 1 0
22.698526 -3.159328 -3.640129 23.204632 -0.138298 1.728318 0.201078 -0.037169 329879.000000 0 1 0
23.173026 -2.752828 -4.948329 23.854835 -0.118240 1.779749 0.226916 -0.035557 339993.000000 0 1 0
22.206126 -1.696028 -5.603029 22.964809 -0.076229 1.817267 0.189324 -0.013188 482142.000000 0 1 0
22.155426 -0.521628 -4.840229 22.683977 -0.023540 1.785826 0.200840 -0.003599 311969.000000 0 1 0
21.181726 0.301772 -5.462029 21.876707 0.014246 1.823139 0.181260 0.002363 -224539.000000 0 1 0
20.959526 1.687272 -4.822929 21.573346 0.080328 1.796261 0.158364 0.010112 -289942.000000 0 1 0
22.092826 2.554372 -4.845029 22.761636 0.115109 1.785297 0.217152 0.006322 198120.000000 0 1 0
22.788026 2.428072 -3.634829 23.203483 0.106150 1.728094 0.234159 0.001691 -9934.290000 0 1 0
24.026026 3.379772 -3.671329 24.538774 0.139754 1.720974 0.288709 -0.010677 125785.000000 0 1 0
23.641426 4.743172 -3.510029 24.366678 0.198001 1.715350 0.234568 0.002459 65101.500000 0 1 0
24.697726 5.615372 -3.338029 25.547064 0.223563 1.701833 0.235978 -0.002029 -618177.000000 0 0 1
24.158926 7.044772 -3.379229 25.390976 0.283734 1.704280 0.216905 -0.006996 1581.870000 0 0 1
23.458726 7.445672 -2.195929 24.709754 0.307338 1.659783 0.237256 -0.016539 754898.000000 0 1 0
22.820726 8.690872 -2.398029 24.537060 0.363874 1.668683 0.211028 -0.012967 -568645.000000 0 1 0
21.786126 9.131772 -1.370229 23.662249 0.396910 1.628737 0.154059 -0.009675 -374696.000000 0 1 0
22.317226 9.509972 -0.090629 24.259149 0.402825 1.574532 0.132929 -0.025520 782139.000000 0 1 0
21.264926 9.950272 0.750171 23.489737 0.437655 1.538855 0.087897 -0.024727 72809.100000 0 1 0
21.751526 10.459972 2.153971 24.231786 0.448239 1.481789 0.109195 -0.020501 -288000.000000 0 1 0
22.498426 11.651872 2.152071 25.427872 0.477863 1.486061 0.124276 -0.032571 318379.000000 0 0 1
21.932326 12.850372 1.608271 25.470483 0.529995 1.507612 0.125993 -0.025205 -204485.000000 0 0 1
20.817526 13.540672 2.429171 24.952355 0.576689 1.473290 0.115673 -0.020856 119051.000000 0 1 0
19.548426 12.919472 2.553071 23.570572 0.583997 1.462267 0.121694 -0.021999 727873.000000 0 1 0
18.605526 13.723672 3.247971 23.346393 0.635526 1.431223 0.117618 -0.022461 -34834.200000 0 1 0
18.682126 13.555172 4.826871 23.580992 0.627681 1.364646 0.126635 -0.023118 -318809.000000 0 1 0
18.442826 12.268472 5.218871 22.757193 0.586998 1.339409 0.114325 -0.019033 168101.000000 0 1 0
18.587526 12.190572 6.594871 23.186170 0.580475 1.282383 0.127525 -0.028813 -59416.000000 0 1 0
18.392026 10.747572 7.120871 22.460715 0.528840 1.248193 0.082470 -0.030962 62636.400000 0 1 0
19.345126 9.863772 6.548471 22.680616 0.471524 1.277901 0.073161 -0.044253 527088.000000 0 1 0
19.267126 8.565472 7.083571 22.243345 0.418324 1.246694 0.070434 -0.038075 41715.900000 0 1 0
20.327326 7.646372 6.393771 22.639511 0.359789 1.284484 0.092140 -0.036888 351161.000000 0 1 0
19.897626 7.250272 5.133471 21.790697 0.349427 1.332980 0.070502 -0.037272 875070.000000 0 1 0
20.997526 6.703672 4.408071 22.478131 0.309032 1.373412 0.097737 -0.035781 334686.000000 0 1 0
20.731526 6.682672 2.870271 21.970269 0.311827 1.439778 0.098270 -0.023782 -325515.000000 0 1 0
21.688926 5.933572 2.167271 22.590127 0.267042 1.474710 0.107049 -0.022343 170209.000000 0 1 0
21.500126 5.828372 0.756971 22.288973 0.264723 1.536828 0.113920 -0.008935 -55573.100000 0 1 0
22.441626 4.810472 0.058571 22.951484 0.211159 1.568244 0.187303 -0.017291 -89586.500000 0 1 0
22.307526 3.447372 0.408171 22.576020 0.153326 1.552716 0.162268 -0.013221 82851.100000 0 1 0
23.311326 2.658872 -0.150429 23.462952 0.113568 1.577208 0.214020 -0.014158 -294542.000000 0 1 0
23.073526 1.103872 0.096271 23.100117 0.047805 1.566629 0.231413 -0.017343 421386.000000 0 1 0
21.996926 0.521172 -0.677729 22.013534 0.023688 1.601588 0.140871 -0.025179 1175180.000000 0 1 0
22.281126 -0.753928 -1.271829 22.330126 -0.033824 1.627783 0.193563 -0.030877 -1193210.000000 0 1 0
22.228526 -1.992128 -0.349229 22.320347 -0.089382 1.586443 0.216661 -0.027021 508658.000000 0 1 0
23.284626 -1.996028 0.593771 23.377564 -0.085514 1.545394 0.230066 -0.033145 1467030.000000 0 1 0
24.658126 -2.171828 0.187471 24.754295 -0.087851 1.563223 0.253095 -0.051883 1074940.000000 0 1 0
25.690926 -2.029528 1.371471 25.807433 -0.078834 1.517629 0.258035 -0.048698 -33500.200000 0 0 1
25.620926 -0.683728 1.776971 25.691573 -0.026680 1.501576 0.249449 -0.039724 485063.000000 0 0 1
26.498226 -0.330128 2.841771 26.652216 -0.012458 1.463969 0.240131 -0.041348 -411303.000000 0 0 1
26.438126 1.218572 3.225371 26.662003 0.046059 1.449527 0.212512 -0.037132 -185886.000000 0 0 1
27.057526 2.160872 2.377071 27.247560 0.079693 1.483446 0.257664 -0.029496 1372630.000000 0 0 1
28.502626 2.011972 2.277871 28.664201 0.070472 1.491245 0.249089 -0.026635 1062350.000000 0 0 1
29.129526 3.005572 1.334771 29.314575 0.102816 1.525248 0.290023 -0.032427 -415544.000000 0 0 1
28.901426 2.670672 -0.024029 29.024567 0.092145 1.571624 0.355446 -0.024825 -3475.610000 0 0 1
29.133826 3.818172 -0.890829 29.396459 0.130314 1.601105 0.337895 -0.018763 -245776.000000 0 0 1
30.567626 3.817772 -1.425529 30.838081 0.124253 1.617039 0.294992 -0.008739 -640084.000000 0 0 1
31.565306 4.250772 -0.525829 31.854577 0.133861 1.587304 0.238794 -0.005389 642054.000000 0 0 1
32.839906 3.901372 -1.139029 33.090444 0.118246 1.605225 0.198125 0.003233 1560010.000000 0 0 1
34.013776 4.359472 -0.163029 34.292397 0.127473 1.575550 0.114970 0.015763 463319.000000 0 0 1
34.103046 3.624272 1.066771 34.311675 0.105877 1.539701 0.143221 0.002757 -214098.000000 0 0 1
33.247916 4.040272 2.081871 33.557143 0.120927 1.508717 0.128487 0.007001 -326402.000000 0 0 1
33.254176 3.102372 3.315771 33.562766 0.093023 1.471842 0.148912 -0.008554 95144.400000 0 0 1
32.503716 1.900872 3.074871 32.704123 0.058415 1.476636 0.185629 -0.017056 334050.000000 0 0 1
32.498816 0.920772 4.123671 32.772328 0.028325 1.444634 0.167892 -0.021843 368931.000000 0 0 1
33.757836 -0.003128 4.160071 34.013198 -0.000093 1.448182 0.156949 -0.018248 668375.000000 0 0 1
34.966256 0.596472 4.587571 35.270960 0.017057 1.440360 0.140437 -0.019539 989707.000000 0 0 1
36.095356 -0.277128 4.452071 36.369939 -0.007678 1.448078 0.111376 -0.028123 367484.000000 0 0 1
37.522536 0.166272 4.836671 37.833341 0.004431 1.442604 0.164367 -0.047383 433960.000000 0 0 1
-37.743085 1.017172 3.889171 37.956564 -0.026943 1.468152 0.126688 -0.036986 78222.600000 0 0 1
-36.964315 0.305172 2.974071 37.085022 -0.008256 1.490514 0.169677 -0.027861 -264165.000000 0 0 1
-36.394935 1.207772 1.816871 36.460267 -0.033173 1.520944 0.162609 -0.027364 693976.000000 0 0 1
-35.301181 2.050972 2.221071 35.430397 -0.058034 1.508067 0.191392 -0.058030 582271.000000 0 0 1
-34.607229 2.473772 1.061471 34.711764 -0.071360 1.540212 0.246042 -0.041148 233734.000000 0 0 1
-33.497285 3.517472 1.444271 33.712411 -0.104624 1.527942 0.269272 -0.042925 111505.000000 0 0 1
-32.568015 3.063572 2.396571 32.799461 -0.093791 1.497664 0.274970 -0.059099 -3272.600000 0 0 1
-31.961375 4.115172 3.115571 32.375468 -0.128050 1.474415 0.279707 -0.045655 -546626.000000 0 0 1
-32.555605 4.293372 4.471871 33.140581 -0.131121 1.435447 0.290442 -0.049512 -1017010.000000 0 0 1
-33.799855 4.906072 4.603071 34.462850 -0.144144 1.436830 0.281222 -0.024672 -305250.000000 0 0 1
-34.884229 4.003772 4.661571 35.421319 -0.114273 1.438810 0.256732 -0.026841 -396429.000000 0 0 1
-35.114118 3.079372 5.894871 35.738401 -0.087472 1.405094 0.204152 -0.025104 -819860.000000 0 0 1
-35.199419 3.896972 7.068271 36.112961 -0.110262 1.373798 0.200291 -0.022391 333792.000000 0 0 1
-35.129965 3.193972 8.300171 36.238222 -0.090669 1.339700 0.159659 -0.023820 207830.000000 0 0 1
-36.198805 2.091872 8.686371 37.285151 -0.057724 1.335664 0.145672 -0.025032 2300.840000 0 0 1
-36.097625 0.928372 7.869671 36.957166 -0.025713 1.356213 0.142006 -0.038545 460976.000000 0 0 1
-36.914615 -0.207128 8.279571 37.832301 0.005611 1.350161 0.135620 -0.032932 -26842.900000 0 0 1
-36.578485 -0.994528 9.533371 37.813487 0.027182 1.315930 0.137674 -0.029553 -1141620.000000 0 0 1
-35.404943 -1.696128 9.356071 36.659554 0.047870 1.312726 0.144611 -0.037971 -710602.000000 0 0 1
-35.127923 -2.499928 10.503771 36.749828 0.071047 1.280936 0.132336 -0.023503 449566.000000 0 0 1
-33.827755 -3.375228 10.437371 35.561888 0.099448 1.272912 0.159378 -0.016882 397839.000000 0 0 1
-33.851155 -4.230828 9.282871 35.354947 0.124339 1.305120 0.179278 -0.035443 387656.000000 0 0 1
-32.716275 -5.090728 9.189971 34.361690 0.154364 1.300053 0.201682 -0.042780 467794.000000 0 0 1
-33.005575 -6.184928 8.143471 34.553400 0.185242 1.332880 0.218139 -0.034772 296090.000000 0 0 1
-33.949935 -7.191128 8.462471 35.720076 0.208731 1.331611 0.224734 -0.042823 -6539.430000 0 0 1
-34.619964 -7.574228 7.302771 36.183440 0.215388 1.367574 0.234187 -0.055694 215130.000000 0 0 1
-35.643638 -8.746128 7.401671 37.439931 0.240623 1.371791 0.237038 -0.067768 1447970.000000 0 0 1
-36.910625 -8.499028 8.087971 38.730389 0.226315 1.360420 0.219823 -0.056995 1030920.000000 0 0 1
-37.697385 -9.630928 7.874671 39.697079 0.250130 1.371103 0.211489 -0.059928 -409411.000000 0 0 1
8.503445 -23.708128 10.747871 27.384314 -1.226417 1.167467 0.139867 -0.051970 81555.000000 0 0 1
7.936045 -24.498228 9.706471 27.520167 -1.257520 1.210337 0.136338 -0.049740 421419.000000 0 0 1
6.686145 -25.120198 10.026671 27.861497 -1.310661 1.202662 0.131306 -0.051105 825662.000000 0 0 1
6.267545 -26.048788 8.873671 28.223457 -1.334677 1.250964 0.124346 -0.045169 -231047.000000 0 0 1
5.876045 -25.476168 7.659671 27.243965 -1.344112 1.285803 0.118125 -0.040608 -268005.000000 0 0 1
5.599045 -26.420588 6.699871 27.825978 -1.361966 1.327629 0.114245 -0.036151 -683415.000000 0 0 1
4.958645 -25.737738 5.452271 26.772123 -1.380468 1.365707 0.091385 -0.033753 907590.000000 0 0 1
3.528445 -25.679388 5.484871 26.494617 -1.434248 1.362270 0.089719 -0.041440 508610.000000 0 0 1
2.816445 -26.863468 5.076171 27.483555 -1.466335 1.385031 0.099760 -0.039775 27184.300000 0 0 1
1.305645 -26.568948 4.947171 27.057129 -1.521694 1.386920 0.130282 -0.050416 -330710.000000 0 0 1
0.595245 -26.198618 6.123771 26.911382 -1.548080 1.341232 0.126404 -0.050436 -116906.000000 0 0 1
-0.798055 -26.086368 5.939971 26.766000 1.540213 1.347011 0.146735 -0.047206 520115.000000 0 0 1
-1.564955 -27.439498 6.065371 28.145406 1.513825 1.353591 0.170903 -0.046999 -430981.000000 0 0 1
-1.479955 -28.049108 7.342871 29.032060 1.518082 1.315096 0.161322 -0.056423 -174389.000000 0 0 1
-2.029855 -29.348928 7.342271 30.321426 1.501743 1.326217 0.189713 -0.052182 -263499.000000 0 0 1
-1.897555 -30.101738 8.727171 31.398708 1.507842 1.289140 0.171243 -0.055224 310906.000000 0 0 1
-0.560655 -30.354468 9.145371 31.707190 1.552328 1.278207 0.166948 -0.044707 317101.000000 0 0 1
-0.535855 -30.774428 10.469471 32.510958 1.553386 1.242924 0.162904 -0.035479 1237910.000000 0 0 1
0.933645 -30.852008 11.071471 32.791700 -1.540544 1.226398 0.156571 -0.029875 1090030.000000 0 0 1
1.664445 -31.955618 10.630071 33.718398 -1.518757 1.250065 0.158315 -0.022320 380110.000000 0 0 1
3.066845 -31.875958 10.881371 33.821391 -1.474880 1.243240 0.162759 -0.014659 1002110.000000 0 0 1
3.632645 -32.680898 12.137071 35.050617 -1.460096 1.217201 0.185266 -0.015497 79933.700000 0 0 1
3.187345 -32.069208 13.334171 34.876832 -1.471732 1.178489 0.199900 -0.029680 268011.000000 0 0 1
4.034745 -32.453038 14.405571 35.735128 -1.447105 1.155872 0.186021 -0.036552 246220.000000 0 0 1
3.743245 -31.607858 15.734171 35.505390 -1.452918 1.111688 0.217633 -0.054463 49464.100000 0 0 1
4.016545 -30.213898 15.631171 34.254135 -1.438634 1.096931 0.213145 -0.049142 909196.000000 0 0 1
5.378845 -29.938368 16.002471 34.370292 -1.393029 1.086495 0.187417 -0.032870 817923.000000 0 0 1
5.869045 -28.550598 15.545871 33.034171 -1.368054 1.080826 0.177257 -0.034536 -9819.090000 0 0 1
6.224345 -28.370008 14.170671 32.317298 -1.354820 1.116883 0.154430 -0.015725 305713.000000 0 0 1
5.119345 -28.393018 13.235071 31.741744 -1.392410 1.140697 0.166201 -0.011275 123379.000000 0 0 1
5.440445 -28.521618 11.707171 31.307172 -1.382312 1.187537 0.135569 -0.011087 16638.200000 0 0 1
5.856645 -29.760618 11.107871 32.301385 -1.376487 1.219748 0.115501 -0.016457 -6518.900000 0 0 1
7.139745 -30.219518 11.459071 33.098422 -1.338788 1.217266 0.108629 -0.004882 -198282.000000 0 0 1
7.590445 -31.626658 10.994071 34.332637 -1.335250 1.244832 0.090233 -0.001566 -5666.850000 0 0 1
7.433845 -32.726118 11.909871 35.610475 -1.347433 1.229776 0.095890 -0.012433 73715.400000 0 0 1
7.760545 33.712590 11.293071 36.390908 1.344541 1.255260 0.106807 -0.007302 -106022.000000 0 0 1
7.269745 32.393380 11.981271 35.294916 1.350033 1.224452 0.087829 -0.003889 -464581.000000 0 0 1
5.902545 32.108416 11.957471 34.767391 1.388994 1.219700 0.130476 -0.014183 -423662.000000 0 0 1
5.527345 30.873720 12.636471 33.814472 1.393642 1.187801 0.138535 -0.011369 224519.000000 0 0 1
4.776545 31.002930 13.989571 34.346836 1.417931 1.151297 0.156558 -0.033593 119031.000000 0 0 1
5.538545 31.692875 14.974371 35.487259 1.397787 1.135185 0.127853 -0.032187 95918.800000 0 0 1
5.021745 31.507040 16.294071 35.824687 1.412741 1.098617 0.175585 -0.049862 39400.000000 0 0 1
5.785745 32.201295 17.481171 37.094333 1.393019 1.080075 0.231960 -0.047448 -339202.000000 0 0 1
5.550745 33.576032 17.537471 38.284769 1.406960 1.094963 0.275690 -0.045790 76174.400000 0 0 1
5.910045 -33.463758 18.793571 38.832333 -1.395989 1.065614 0.221608 -0.035872 -180969.000000 0 0 1
5.302545 -32.037138 19.048471 37.647569 -1.406771 1.040292 0.205999 -0.046730 197112.000000 0 0 1
3.900045 -32.140258 19.194071 37.637998 -1.450042 1.035652 0.242329 -0.057072 -102744.000000 0 0 1
3.300145 -30.948338 19.633471 36.798964 -1.464564 1.008024 0.206885 -0.048335 2154540.000000 0 0 1
1.759245 -30.710818 19.179671 36.250643 -1.513575 1.013274 0.208487 -0.052461 2968600.000000 0 0 1
0.643345 -31.409218 19.746171 37.106120 -1.550317 1.009654 0.228443 -0.054070 694842.000000 0 0 1
0.299045 -31.116748 21.073871 37.582569 -1.561186 0.975523 0.182343 -0.048309 -218449.000000 0 0 1
-0.624155 -32.182468 21.741371 38.843121 1.551404 0.976745 0.204209 -0.043702 630864.000000 0 0 1
-1.950855 -32.166278 21.203371 38.575358 1.510221 0.988838 0.188741 -0.042174 55628.900000 0 0 1
-2.619655 -33.342108 21.575771 39.800411 1.492388 0.997863 0.180185 -0.031005 752624.000000 0 0 1
-3.978855 -33.076238 22.333771 40.108181 1.451078 0.980222 0.173127 -0.032023 757262.000000 0 0 1
-4.990955 -32.609008 21.469571 39.359872 1.418920 0.993848 0.151735 -0.038304 -638551.000000 0 0 1
-6.082655 -32.161758 22.224671 39.564042 1.383877 0.974310 0.125474 -0.027345 -34714.300000 0 0 1
-7.296055 -31.735948 21.340171 38.933350 1.344824 0.990681 0.094758 -0.029972 79548.800000 0 0 1
-8.113055 -32.817498 20.972471 39.782589 1.328438 1.015521 0.088302 -0.022986 -1138010.000000 0 0 1
-9.151755 -32.315898 20.230871 39.209183 1.294826 1.028653 0.085639 -0.029677 -1177910.000000 0 0 1
-10.216255 -33.392138 20.043271 40.263376 1.273892 1.049731 0.085506 -0.032635 -267075.000000 0 0 1
-10.813355 -33.776498 21.269971 41.354470 1.260962 1.030567 0.085139 -0.025820 -1634810.000000 0 0 1
-12.179855 33.790160 21.255171 41.736148 -1.224837 1.036454 0.074575 -0.027546 -1003940.000000 0 0 1
-12.795655 33.576304 22.677871 42.489796 -1.206696 1.007797 0.075551 -0.019564 24840.100000 0 0 1
-12.796555 -33.035348 23.644671 42.592916 1.201234 0.982275 0.090942 -0.021220 -39518.000000 0 0 1
-11.515955 -32.591128 24.048371 42.108467 1.231143 0.962945 0.091270 -0.020178 -40019.400000 0 0 1
-11.528255 -31.297798 24.910271 41.629010 1.217877 0.929310 0.099274 -0.027142 -330006.000000 0 0 1
-12.112155 -31.428598 26.196071 42.669605 1.202951 0.909769 0.121554 -0.021891 -142190.000000 0 0 1
-13.128855 -30.470618 26.257971 42.312013 1.163965 0.901315 0.128937 -0.026940 -472493.000000 0 0 1
-13.900255 -30.440598 27.559271 43.351592 1.142438 0.881862 0.106110 -0.026018 248392.000000 0 0 1
-13.172255 -29.836088 28.700171 43.444220 1.155044 0.849150 0.095540 -0.018804 876346.000000 0 0 1
-14.076955 -29.410318 29.695671 44.101705 1.124382 0.832072 0.104558 -0.018540 118783.000000 0 0 1
-13.345555 -28.821958 30.902971 44.314814 1.137156 0.799102 0.086915 -0.017894 -193857.000000 0 0 1
-14.274955 -28.348018 31.872271 44.980286 1.104304 0.783308 0.090789 -0.024411 301856.000000 0 0 1
-13.846355 -28.013378 33.165371 45.567672 1.111738 0.755649 0.078466 -0.021357 -653333.000000 0 0 1
-13.226455 -29.083078 -33.273814 46.129289 1.143973 2.376497 0.085835 -0.015890 926986.000000 0 0 1
-11.912655 -29.469228 33.623571 46.269767 1.186640 0.757312 0.090767 -0.020296 849462.000000 0 0 1
-11.496355 -30.666118 -33.037314 46.519256 1.212124 2.360558 0.095612 -0.018337 443964.000000 0 0 1
-9.972255 -30.914198 -33.187214 46.438397 1.258756 2.366920 0.097639 -0.031582 492456.000000 0 0 1
-9.085155 -30.012108 -32.560814 45.204793 1.276849 2.375025 0.134888 -0.040558 116739.000000 0 0 1
-7.743655 -30.457888 -32.519714 45.223655 1.321830 2.373283 0.144568 -0.048292 -78257.200000 0 0 1
-6.863755 -29.646678 -31.586514 43.860513 1.343286 2.374827 0.168761 -0.046919 -486071.000000 0 0 1
-7.219155 -29.703898 -30.238614 42.997809 1.332381 2.350768 0.184569 -0.056757 -600995.000000 0 0 1
-6.351955 -29.060078 -29.382914 41.811376 1.355601 2.350051 0.184385 -0.059186 -337095.000000 0 0 1
-6.699755 -29.303508 -27.912614 41.020682 1.346026 2.319176 0.192777 -0.055824 111047.000000 0 0 1
-6.273355 -30.588338 -27.402014 41.543614 1.368512 2.291078 0.164198 -0.051566 97894.600000 0 0 1
-7.116955 -31.046048 -26.349514 41.337696 1.345451 2.261943 0.182442 -0.054385 373308.000000 0 0 1
-6.419655 -32.041688 -25.366614 41.368429 1.373061 2.230886 0.160053 -0.056337 413982.000000 0 0 1
-5.618855 -31.416858 -24.371714 40.156830 1.393819 2.222967 0.120369 -0.053127 -113102.000000 0 0 1
-4.900555 -32.425038 -23.702414 40.462365 1.420797 2.196650 0.133256 -0.056472 38360.700000 0 0 1
-4.205155 -31.913588 -22.401914 39.217422 1.439784 2.178792 0.153918 -0.072830 -162979.000000 0 0 1
-5.072755 -31.549608 -21.363414 38.438342 1.411374 2.160102 0.164763 -0.061370 -113688.000000 0 0 1
-5.320255 -30.144778 -21.224614 37.249121 1.396105 2.177061 0.155802 -0.046279 -147301.000000 0 0 1
-6.154155 -29.791468 -19.922614 36.363660 1.367087 2.150614 0.186632 -0.071598 199970.000000 0 0 1
-7.531355 -29.525608 -20.035614 36.467913 1.321043 2.152447 0.209386 -0.081021 -117136.000000 0 0 1
-7.978355 -28.291068 -20.480914 35.826060 1.295925 2.179344 0.197955 -0.074538 -142383.000000 0 0 1
-8.015755 -28.023068 -21.987714 36.510331 1.292194 2.217091 0.226012 -0.094868 -555367.000000 0 0 1
-6.746955 -27.779518 -22.541014 36.404950 1.332535 2.238487 0.230149 -0.063053 -521920.000000 0 0 1
-6.755155 -27.705158 -23.951314 37.240749 1.331640 2.269399 0.276297 -0.068752 -1193320.000000 0 0 1
-5.370055 -27.635048 -24.565714 37.363187 1.378868 2.288272 0.247323 -0.064957 -649286.000000 0 0 1
-4.621255 -26.477288 -24.244414 36.196608 1.398000 2.304733 0.216607 -0.069237 138038.000000 0 0 1
-4.138855 -26.288808 -22.911014 35.116181 1.414640 2.281589 0.155410 -0.059540 -806238.000000 0 0 1
-2.704555 -26.836228 -22.562714 35.164952 1.470355 2.267411 0.124618 -0.051665 973026.000000 0 0 1
-1.659355 -25.885548 -22.807314 34.539668 1.506780 2.292044 0.118326 -0.051842 391442.000000 0 0 1
-1.598555 -24.786928 -21.927014 33.132177 1.506394 2.294019 0.119695 -0.056855 -1061220.000000 0 0 1
-1.084355 -23.447928 -22.607914 32.589860 1.524584 2.337424 0.113366 -0.049897 -176001.000000 0 0 1
-1.826555 -22.900628 -23.657314 32.976410 1.491205 2.370861 0.179288 -0.056525 1113960.000000 0 0 1
-3.192155 -22.537928 -23.270214 32.552280 1.430097 2.367215 0.188594 -0.057787 1580840.000000 0 0 1
-4.113655 -22.243028 -24.543114 33.377222 1.387921 2.396943 0.188879 -0.070705 276957.000000 0 0 1
-3.735155 -21.133328 -25.270314 33.153548 1.395861 2.437533 0.186343 -0.064719 221157.000000 0 0 1
-4.499155 -20.899828 -26.488914 34.039797 1.358760 2.462551 0.254791 -0.067112 243104.000000 0 0 1
-4.240855 -21.782128 -27.733314 35.518765 1.378508 2.466753 0.220120 -0.049562 -157178.000000 0 0 1
-4.874655 -21.409528 -28.939714 36.326812 1.346927 2.492527 0.227704 -0.049261 -247592.000000 0 0 1
-4.520355 -22.241528 -29.987114 37.607795 1.370288 2.493712 0.246081 -0.041914 614966.000000 0 0 1
-5.697755 -22.358428 -31.030714 38.668708 1.321270 2.502230 0.273185 -0.063586 292750.000000 0 0 1
-5.890955 -21.234228 -31.848914 38.729177 1.300175 2.536324 0.300063 -0.073535 -965874.000000 0 0 1
-6.752455 -21.551428 -32.848214 39.863077 1.267166 2.539277 0.296130 -0.066672 -628200.000000 0 0 1
-6.515555 -20.743028 33.253071 39.730245 1.266447 0.579071 0.261656 -0.057806 -487094.000000 0 0 1
-5.314655 -21.072628 32.643271 39.215869 1.323742 0.587373 0.259767 -0.068457 -871105.000000 0 0 1
-5.172955 -20.506128 31.350571 37.816915 1.323688 0.593463 0.243450 -0.058374 706426.000000 0 0 1
-3.672655 -20.329928 30.916171 37.183383 1.392071 0.589082 0.198349 -0.060781 45642.200000 0 0 1
-3.066255 -21.586028 30.787971 37.726088 1.429692 0.616180 0.256923 -0.064767 1539100.000000 0 0 1
-1.752155 -21.668728 30.129671 37.153747 1.490111 0.625030 0.238850 -0.052089 2222620.000000 0 0 1
-0.526755 -20.967128 30.794671 37.258686 1.545679 0.597917 0.176897 -0.054336 -334394.000000 0 0 1
-0.473755 -19.561128 30.538071 36.268939 1.546582 0.569836 0.136145 -0.059865 -121954.000000 0 0 1
0.395645 -18.876328 31.403871 36.642536 -1.549840 0.541312 0.140919 -0.056365 91959.900000 0 0 1
-0.279555 -18.689028 32.806271 37.757242 1.555839 0.517874 0.136297 -0.056482 49232.200000 0 0 1
-1.399055 -17.851128 32.704971 37.285859 1.492583 0.500919 0.144767 -0.057563 -555823.000000 0 0 1
-2.079755 -17.926228 -33.433114 37.992739 1.455295 2.646631 0.149330 -0.061357 -19730.500000 0 0 1
-3.309055 -17.002128 -33.384614 37.610566 1.378573 2.662990 0.144964 -0.061618 74494.200000 0 0 1
-2.970855 -15.639928 -33.424914 37.022402 1.383080 2.697101 0.132452 -0.043330 182227.000000 0 0 1
-4.118655 -14.850928 -33.148314 36.555768 1.300262 2.706397 0.153844 -0.042746 268009.000000 0 0 1
-3.820855 -13.374628 -33.316114 36.103228 1.292529 2.746086 0.122076 -0.049257 -130601.000000 0 0 1
-2.797155 -12.893028 -32.426914 35.007985 1.357156 2.755193 0.123195 -0.043573 300943.000000 0 0 1
-2.523955 -11.542728 -32.585514 34.661516 1.355523 2.793739 0.116304 -0.036817 -127348.000000 0 0 1
-1.872155 -11.108428 33.437671 35.284274 1.403831 0.324955 0.127555 -0.041302 -393890.000000 0 0 1
-2.758055 -11.187028 32.281671 34.276271 1.329076 0.342827 0.106994 -0.035150 338301.000000 0 0 1
-2.134755 -11.029628 30.998371 32.971334 1.379613 0.347693 0.118443 -0.033185 348016.000000 0 0 1
-1.272955 -12.290628 30.616071 33.015508 1.467593 0.383598 0.114806 -0.048203 559186.000000 0 0 1
-2.106855 -13.351728 30.183971 33.072339 1.414290 0.421038 0.115321 -0.059531 447510.000000 0 0 1
-1.236355 -14.444328 29.918371 33.245693 1.485410 0.451217 0.116933 -0.059676 -103829.000000 0 0 1
-1.827755 -15.844928 30.024571 33.998196 1.455951 0.488320 0.096559 -0.049958 -256858.000000 0 0 1
-2.093455 -16.327428 28.707371 33.092002 1.443275 0.520638 0.128096 -0.048330 101353.000000 0 0 1
-2.059955 -17.750328 28.697171 33.805993 1.455261 0.556937 0.159621 -0.041191 -524962.000000 0 0 1
-2.698355 -18.475228 27.531571 33.265637 1.425769 0.595928 0.173043 -0.049188 373113.000000 0 0 1
-4.127855 -18.476328 27.437871 33.335426 1.350993 0.603975 0.191578 -0.055808 609212.000000 0 0 1
-4.785355 -19.394628 26.581171 33.250712 1.328892 0.644473 0.200833 -0.052218 86270.500000 0 0 1
-4.102755 -19.772028 25.249571 32.331201 1.366197 0.674585 0.194504 -0.055772 -454043.000000 0 0 1
-4.942955 -20.463428 24.316471 32.163263 1.333786 0.713566 0.222204 -0.047505 -168273.000000 0 0 1
-4.378055 -21.642228 23.939771 32.567868 1.371198 0.745022 0.224027 -0.055075 -183540.000000 0 0 1
-31.113795 -33.010507 -0.547329 45.365861 0.814968 1.582861 0.134138 -0.018697 442542.000000 0 0 1
-30.170905 -32.034007 -0.098529 44.005350 0.815340 1.573035 0.134498 -0.019500 322564.000000 0 0 1
-30.676545 -31.443307 1.088071 43.942188 0.797741 1.546032 0.107424 -0.009780 239170.000000 0 0 1
-30.211035 -29.989207 1.386771 42.590871 0.781713 1.538230 0.116788 -0.022443 322049.000000 0 0 1
-28.805305 -30.000207 1.597571 41.621031 0.805715 1.532403 0.150107 -0.027986 -109894.000000 0 0 1
-28.265245 -28.710207 1.604171 40.320881 0.793208 1.531001 0.152676 -0.030492 1018410.000000 0 0 1
-26.702905 -28.578007 1.495671 39.140575 0.819305 1.532574 0.171121 -0.035798 1014790.000000 0 0 1
-25.966535 -29.210707 2.525171 39.165071 0.844126 1.506277 0.151383 -0.019931 -433.930000 0 0 1
-24.629755 -28.744407 2.583971 37.941305 0.862337 1.502639 0.170756 -0.019876 568337.000000 0 0 1
-23.804555 -29.622707 3.631371 38.175233 0.893869 1.475529 0.166449 -0.023798 -66838.600000 0 0 1
-24.249755 -29.418007 4.956671 38.445264 0.881403 1.441508 0.145919 -0.014899 -9127.940000 0 0 1
-23.545255 -30.134407 5.935671 38.700048 0.907537 1.416812 0.126936 -0.014279 167209.000000 0 0 1
-24.221155 -29.849907 7.326871 39.132650 0.889124 1.382453 0.112279 -0.000175 302721.000000 0 0 1
-23.936855 -28.569407 7.818671 38.083010 0.873399 1.364020 0.127870 -0.025704 -105343.000000 0 0 1
-24.464855 -28.441107 9.093671 38.602079 0.860414 1.332987 0.077457 -0.011823 -85133.900000 0 0 1
-23.873455 -27.203007 9.796571 37.495576 0.850494 1.306456 0.086318 -0.021211 506952.000000 0 0 1
-22.578955 -27.464707 10.343471 37.028458 0.882720 1.287691 0.091502 -0.031090 85656.000000 0 0 1
-22.206455 -26.364307 11.098771 36.213064 0.870794 1.259298 0.105778 -0.032917 739318.000000 0 0 1
-20.818755 -26.576507 11.807171 35.765074 0.906289 1.234354 0.092341 -0.033946 522904.000000 0 0 1
-20.773855 -27.438807 12.920971 36.761293 0.922768 1.211642 0.076799 -0.024934 -206682.000000 0 0 1
-19.469655 -27.306507 13.454971 36.135149 0.951396 1.189255 0.085574 -0.037668 307508.000000 0 0 1
-19.137255 -28.342407 14.531071 37.157483 0.976898 1.169006 0.095609 -0.034344 57444.600000 0 0 1
-19.173355 -29.701507 14.053271 38.043284 0.997567 1.192431 0.081209 -0.026565 -30995.700000 0 0 1
-18.942555 -30.655507 15.078271 39.063215 1.017307 1.174508 0.081826 -0.028799 181675.000000 0 0 1
-19.000355 -32.021407 14.399671 39.921604 1.035270 1.201779 0.075964 -0.032843 124578.000000 0 0 1
-18.642655 -33.018907 15.311971 40.893193 1.056809 1.187006 0.075519 -0.029868 29969.200000 0 0 1
-18.517255 33.349572 14.711571 40.884141 -1.063934 1.202705 0.066778 -0.029175 38737.400000 0 0 1
-18.278555 32.137372 15.652971 40.148870 -1.053662 1.170302 0.065129 -0.020405 373153.000000 0 0 1
-19.357655 31.913472 16.557371 40.833014 -1.025562 1.153282 0.070718 -0.031721 243511.000000 0 0 1
-19.042455 30.836972 17.362571 40.186973 -1.017594 1.124037 0.042215 -0.014836 -215627.000000 0 0 1
-19.652955 30.840472 18.727271 41.086299 -1.003440 1.097522 0.042908 -0.029118 -195513.000000 0 0 1
-19.155355 31.875672 19.567771 42.022419 -1.029686 1.086427 0.054660 -0.023059 186666.000000 0 0 1
-19.979455 32.078672 20.715971 43.097230 -1.013761 1.069366 0.052667 -0.021209 119357.000000 0 0 1
-19.403255 33.142572 21.659571 44.091421 -1.041145 1.057281 0.051270 -0.008786 -67960.700000 0 0 1
-18.314355 32.660072 22.446371 43.657021 -1.059732 1.030777 0.053595 -0.013097 183418.000000 0 0 1
-18.200655 33.271872 23.724171 44.733853 -1.070238 1.011794 0.060507 -0.016364 -227433.000000 0 0 1
-19.092155 32.621472 24.788371 45.201041 -1.041283 0.990344 0.068530 -0.019602 791723.000000 0 0 1
-20.497055 32.801272 24.546871 45.810496 -1.012279 1.005300 0.064041 -0.024556 181735.000000 0 0 1
-21.284755 31.872072 25.187471 45.861514 -0.981997 0.989381 0.071437 -0.021898 -392907.000000 0 0 1
-22.769355 32.178972 24.910471 46.631119 -0.954998 1.007232 0.111209 -0.039610 -149681.000000 0 0 1
-23.120255 31.805672 23.569871 45.844146 -0.942229 1.030803 0.098555 -0.028496 -194729.000000 0 0 1
-24.463655 32.058372 23.257271 46.552232 -0.918966 1.047665 0.087372 -0.033192 -316172.000000 0 0 1
-24.731455 31.545072 21.879471 45.666702 -0.905886 1.071153 0.080893 -0.032550 -256710.000000 0 0 1
-24.093955 32.351972 20.947471 45.452891 -0.930667 1.091831 0.069274 -0.032167 -88467.000000 0 0 1
-24.050955 31.731572 19.698871 44.422816 -0.922226 1.111363 0.043727 -0.020058 32078.800000 0 0 1
-23.583555 32.721072 18.594171 44.413914 -0.946283 1.138831 0.037443 -0.009912 862416.000000 0 0 1
-22.279655 33.310272 18.781671 44.257298 -0.981282 1.132525 0.024572 -0.011276 602970.000000 0 0 1
-21.923755 -33.440707 17.777871 43.760537 0.990494 1.152446 0.042868 -0.003879 368551.000000 0 0 1
-20.657055 -32.616307 18.150971 42.661401 1.006226 1.131320 0.040876 -0.011400 411777.000000 0 0 1
-20.941555 -31.734207 19.210571 42.598763 0.987490 1.102950 0.057598 -0.028749 -959022.000000 0 0 1
-19.840355 -30.994607 19.463671 41.630996 1.001396 1.084304 0.058071 -0.042340 -1357050.000000 0 0 1
-20.103355 -29.918307 20.499771 41.466740 0.979151 1.053690 0.051748 -0.031504 -395667.000000 0 0 1
-20.760055 -28.802507 20.019471 40.759582 0.946265 1.057376 0.078689 -0.038661 -44545.100000 0 0 1
-21.223555 -28.058007 21.157471 41.052766 0.923201 1.029354 0.091331 -0.034348 -508378.000000 0 0 1
-22.202655 -26.982707 20.696771 40.612568 0.882278 1.036059 0.082516 -0.044946 -857585.000000 0 0 1
-21.643755 -25.782007 20.230671 39.273961 0.872435 1.029653 0.078862 -0.035881 351880.000000 0 0 1
-22.551355 -24.757207 19.862871 38.936057 0.831991 1.035448 0.063350 -0.019425 69931.300000 0 0 1
-23.636255 -24.840807 18.726671 39.069508 0.810241 1.070920 0.048893 -0.018789 765793.000000 0 0 1
-24.924155 -25.300107 19.126271 40.337614 0.792883 1.076793 0.053722 -0.014366 546734.000000 0 0 1
-25.769225 -25.451707 17.970371 40.432370 0.779199 1.110231 0.032377 -0.003551 182056.000000 0 0 1
-27.265935 -25.666207 18.299971 41.678223 0.755185 1.116225 0.023652 0.003987 -91477.100000 0 0 1
-27.583985 -26.875407 18.936471 42.915657 0.772388 1.113807 0.024131 0.001577 -86536.500000 0 0 1
-27.879905 -27.909007 18.010171 43.365516 0.785920 1.142512 0.040197 0.001116 -1037990.000000 0 0 1
-28.635325 -29.140907 18.545471 44.867681 0.794149 1.144681 0.059866 -0.002842 -62300.700000 0 0 1
-30.017855 -28.950807 18.714671 45.710609 0.767305 1.148982 0.027289 0.001642 -196811.000000 0 0 1
-30.729495 -29.072907 17.494171 45.777525 0.757704 1.178668 0.035597 0.002632 -519679.000000 0 0 1
-32.231155 -28.712607 17.598671 46.615173 0.727728 1.183668 0.033584 0.003599 78820.200000 0 0 1
-32.416995 -27.310407 17.604371 45.898080 0.700107 1.177155 0.033738 0.001801 1355290.000000 0 0 1
-33.761955 -26.885807 17.980271 46.754747 0.672502 1.176059 0.041768 0.001573 1132830.000000 0 0 1
-34.067166 -25.522507 17.240571 45.926108 0.642977 1.185970 0.062302 -0.013783 -254032.000000 0 0 1
-34.052204 -25.664307 15.785671 45.468634 0.645849 1.216237 0.077600 -0.030638 349643.000000 0 0 1
-34.721332 -24.630807 15.090171 45.165925 0.616997 1.230141 0.095509 -0.030189 -14690.300000 0 0 1
-33.852285 -23.376707 14.748571 43.703180 0.604356 1.226567 0.096192 -0.023679 -45690.900000 0 0 1
-33.435515 -22.769607 15.927771 43.475080 0.597861 1.195696 0.076476 -0.007688 127722.000000 0 0 1
-33.065915 -21.432307 15.749371 42.435141 0.575087 1.190560 0.081539 -0.004101 372902.000000 0 0 1
-34.271091 -20.410907 15.811871 42.908368 0.537157 1.193398 0.093980 -0.014065 392604.000000 0 0 1
-34.871028 -20.363807 17.077671 43.844270 0.528553 1.170700 0.099363 -0.010777 96728.300000 0 0 1
-35.900705 -19.402507 17.042071 44.223863 0.495481 1.175199 0.124279 -0.023597 -219247.000000 0 0 1
-36.310075 -18.834507 18.406571 44.854900 0.478506 1.147950 0.087360 -0.021026 -756961.000000 0 0 1
-37.208105 -19.567707 19.148571 46.195303 0.484152 1.143388 0.092921 -0.020952 -216594.000000 0 0 1
-37.088955 -19.190507 20.499571 46.519873 0.477485 1.114460 0.089055 -0.016652 258304.000000 0 0 1
37.490306 -19.400007 21.324471 47.292878 -0.477524 1.103020 0.085152 -0.015363 634473.000000 0 0 1
37.024176 -20.718607 21.380071 47.509553 -0.510181 1.104013 0.105049 -0.024397 510276.000000 0 0 1
37.922566 -21.696207 21.942571 48.890927 -0.519666 1.105367 0.078006 -0.012199 173458.000000 0 0 1
37.089546 -22.971707 22.257871 48.977000 -0.554532 1.099035 0.079057 -0.006137 315884.000000 0 0 1
36.255096 -22.840207 23.389171 48.817623 -0.562177 1.071152 0.099293 -0.020225 -22008.000000 0 0 1
35.711506 -24.062907 23.785471 49.194346 -0.592934 1.066147 0.097202 -0.032286 -395659.000000 0 0 1
34.702626 -23.858907 24.949371 48.948858 -0.602304 1.035957 0.105662 -0.036398 -984211.000000 0 0 1
33.413196 -23.559707 24.562271 47.694932 -0.614142 1.029804 0.111474 -0.035904 -765852.000000 0 0 1
32.636016 -23.675507 25.763771 47.847790 -0.627597 1.002197 0.086776 -0.026353 181756.000000 0 0 1
31.256236 -24.370407 25.609971 47.188342 -0.662238 0.997126 0.087612 -0.020885 -243621.000000 0 0 1
30.253826 -23.498707 25.156171 45.829206 -0.660383 0.989735 0.102193 -0.017489 -222284.000000 0 0 1
29.117126 -24.289807 24.804771 45.310908 -0.695256 0.991500 0.105041 -0.014325 503959.000000 0 0 1
27.951726 -23.373507 24.311671 43.802707 -0.696433 0.982401 0.097105 -0.010752 -5346.070000 0 0 1
27.960726 -22.840707 22.968771 42.790939 -0.684952 1.004196 0.100831 -0.012698 -363362.000000 0 0 1
29.018726 -22.001207 22.600671 42.859420 -0.648711 1.015352 0.119714 -0.010762 -308495.000000 0 0 1
28.923626 -21.398507 21.171471 41.745699 -0.636959 1.038918 0.127379 -0.021813 371304.000000 0 0 1
27.916826 -20.384707 21.144971 40.521540 -0.630704 1.021813 0.116301 -0.016693 358910.000000 0 0 1
27.947626 -19.729007 19.909871 39.581643 -0.614693 1.043721 0.126982 -0.024187 -229475.000000 0 0 1
26.931326 -18.580207 19.776271 38.231156 -0.603922 1.027125 0.095791 -0.017307 -160224.000000 0 0 1
27.166626 -17.359907 20.447771 38.177261 -0.568615 1.005577 0.081291 -0.022320 17940.700000 0 0 1
26.780626 -17.463507 21.804671 38.699091 -0.577846 0.972251 0.081056 -0.016751 40652.800000 0 0 1
27.051126 -16.268807 22.717271 38.891025 -0.541455 0.946993 0.092275 -0.019798 548629.000000 0 0 1
25.939226 -15.402607 22.470071 37.616324 -0.535845 0.930605 0.062854 -0.019925 525296.000000 0 0 1
26.186426 -14.166507 23.111971 37.690609 -0.495897 0.910688 0.070823 -0.020021 -51736.000000 0 0 1
24.950426 -13.253607 23.049271 36.461633 -0.488293 0.886470 0.066070 -0.018016 633128.000000 0 0 1
23.859126 -13.900307 23.768871 36.433990 -0.527526 0.860073 0.067105 -0.018066 644039.000000 0 0 1
22.699226 -13.088307 23.548271 35.228961 -0.523034 0.838694 0.062543 -0.020652 3555.000000 0 0 1
21.446726 -13.613507 24.263671 35.128554 -0.565586 0.808325 0.061367 -0.012650 -291300.000000 0 0 1
20.803426 -14.580707 23.461871 34.580904 -0.611316 0.825128 0.078464 -0.022915 -13556.700000 0 0 1
19.643326 -15.104107 24.084771 34.555325 -0.655499 0.799603 0.097987 -0.024490 145161.000000 0 0 1
18.935026 -16.165507 23.216071 34.041809 -0.706659 0.820320 0.125517 -0.032244 235009.000000 0 0 1
19.776626 -17.313907 23.026971 34.944637 -0.719098 0.851367 0.109712 -0.026653 605925.000000 0 0 1
19.082726 -18.352807 22.310971 34.623046 -0.765903 0.870562 0.130606 -0.028393 305648.000000 0 0 1
19.641226 -19.796407 22.551471 35.864248 -0.789333 0.890786 0.105182 -0.022808 30625.200000 0 0 1
19.187326 -20.401807 23.804771 36.756690 -0.816066 0.866325 0.102929 -0.022205 229584.000000 0 0 1
19.594926 -21.722707 24.051971 37.872607 -0.836851 0.882690 0.096497 -0.021996 -468186.000000 0 0 1
18.947626 -22.828207 23.144271 37.627075 -0.878023 0.908288 0.085422 -0.024162 -24077.300000 0 0 1
19.405726 -23.042507 21.823371 37.199446 -0.870865 0.943870 0.095833 -0.015492 323562.000000 0 0 1
20.706126 -23.646707 21.787571 38.244066 -0.851601 0.964658 0.092217 -0.021591 504791.000000 0 0 1
21.338426 -23.707507 20.343971 37.831884 -0.837942 1.003034 0.084491 -0.022148 -438668.000000 0 0 1
20.681926 -24.564207 19.448671 37.541884 -0.870992 1.026224 0.073680 -0.025348 -355963.000000 0 0 1
21.455826 -24.809307 18.309871 37.564684 -0.857756 1.061661 0.079365 -0.014584 -49613.900000 0 0 1
20.768226 -25.828507 17.371071 37.419047 -0.893572 1.088030 0.067586 -0.021708 120708.000000 0 0 1
20.414226 -27.054207 17.981571 38.366751 -0.924378 1.083005 0.088075 -0.036573 196621.000000 0 0 1
19.697426 -27.861607 17.042671 38.140665 -0.955405 1.107569 0.093768 -0.045190 41082.200000 0 0 1
18.837726 -28.941507 17.723471 38.814844 -0.993796 1.096609 0.080541 -0.029459 658544.000000 0 0 1
17.775026 -28.409907 18.545571 38.301599 -1.011720 1.065350 0.085560 -0.040133 493475.000000 0 0 1
16.895726 -29.412307 18.975771 38.866814 -1.049380 1.060741 0.085752 -0.041000 -427871.000000 0 0 1
15.637026 -29.012107 19.727871 38.411037 -1.076451 1.031422 0.080369 -0.034789 -259043.000000 0 0 1
14.748426 -28.314207 18.874871 37.087344 -1.090581 1.036855 0.088191 -0.044358 270584.000000 0 0 1
13.455926 -28.052707 19.405371 36.668579 -1.123548 1.013127 0.071358 -0.040728 -158525.000000 0 0 1
12.495526 -27.480007 18.425571 35.366518 -1.144030 1.022787 0.103587 -0.053856 -685803.000000 0 0 1
12.120526 -28.500007 17.506371 35.575701 -1.168687 1.056310 0.087340 -0.042019 -307055.000000 0 0 1
11.244726 -28.120707 16.510771 34.493819 -1.190399 1.071670 0.141023 -0.042327 -423963.000000 0 0 1
11.038626 -29.192907 15.365771 34.787698 -1.209287 1.113302 0.104811 -0.036828 201433.000000 0 0 1
10.234426 -30.312607 15.798171 35.681645 -1.245184 1.112129 0.117819 -0.037973 337897.000000 0 0 1
9.987526 -31.219407 14.724571 35.933480 -1.261171 1.148591 0.081255 -0.013080 -81896.000000 0 0 1
9.189426 -32.495107 15.084371 36.985345 -1.295199 1.150701 0.093448 -0.012135 -116100.000000 0 0 1
9.825926 -33.589807 15.703471 38.359131 -1.286210 1.149022 0.084336 -0.011954 -484113.000000 0 0 1
8.917726 33.031872 16.052371 37.792975 1.307109 1.132116 0.122170 -0.000771 37326.300000 0 0 1
9.652726 31.806272 16.710271 37.202784 1.276145 1.104963 0.132610 -0.008513 322068.000000 0 0 1
10.392026 31.005172 15.788171 36.312273 1.247393 1.120993 0.072549 -0.013581 -374122.000000 0 0 1
11.227826 30.176672 16.507571 36.182806 1.214597 1.097046 0.124542 -0.018221 -68515.400000 0 0 1
12.357326 29.586272 15.606371 35.659638 1.175150 1.117815 0.021460 -0.034052 152506.000000 0 0 1
11.974626 28.398072 15.005371 34.278321 1.171749 1.117701 0.102154 -0.019251 589882.000000 0 0 1
13.134926 27.853672 14.360371 33.979016 1.130151 1.134457 0.064200 -0.031579 567973.000000 0 0 1
12.876626 26.589072 13.524171 32.491374 1.119801 1.141492 0.055636 -0.031906 -145723.000000 0 0 1
12.548326 25.479872 14.276271 31.788303 1.113183 1.105033 0.090965 -0.036072 94767.300000 0 0 1
12.456926 24.393972 13.419671 30.501285 1.098660 1.115230 0.089338 -0.033931 -111405.000000 0 0 1
-9.542455 -9.262428 19.153856 23.317831 0.770508 0.606891 0.104746 -0.040477 151892.000000 0 1 0
-9.691155 -9.520028 17.771956 22.369440 0.776491 0.652654 0.100204 -0.037635 73149.900000 0 1 0
-9.469355 -10.883428 17.450656 22.641623 0.854765 0.690805 0.107742 -0.035797 98912.200000 0 1 0
-9.666455 -11.087628 15.949256 21.696881 0.853768 0.744990 0.094760 -0.030371 305777.000000 0 1 0
-11.020555 -10.970428 15.536556 21.981527 0.783119 0.785831 0.108361 -0.037277 309130.000000 0 1 0
-11.322255 -11.664028 14.347356 21.681551 0.800266 0.847671 0.102889 -0.034186 -52598.900000 0 1 0
-11.373055 -13.241828 14.275056 22.549271 0.861173 0.885296 0.081366 -0.027265 147589.000000 0 1 0
-10.104155 -13.896028 14.408256 22.423010 0.942096 0.872954 0.078430 -0.010782 320432.000000 0 1 0
-10.108755 -15.295628 14.539356 23.399488 0.986802 0.900327 0.090948 -0.019660 40530.200000 0 1 0
-10.225255 -15.774828 15.978056 24.671833 0.995687 0.866335 0.132759 -0.028018 -60059.700000 0 1 0
-11.451955 -15.382128 16.523756 25.313863 0.930826 0.859581 0.149936 -0.034665 -418517.000000 0 0 1
-11.197455 -15.136228 17.911756 25.986909 0.933869 0.810328 0.175854 -0.041267 252259.000000 0 0 1
-12.402055 -14.543928 18.715056 26.750517 0.864719 0.795938 0.133258 -0.043596 99286.500000 0 0 1
-12.815755 -13.257628 18.243256 25.938864 0.802344 0.790743 0.130135 -0.041737 578292.000000 0 0 1
-13.846855 -13.259228 17.235056 25.779637 0.763723 0.838535 0.141435 -0.052892 164283.000000 0 0 1
-15.289055 -13.324828 17.752356 26.952781 0.716860 0.851778 0.101376 -0.042807 -723146.000000 0 0 1
-15.786555 -14.571028 18.092856 28.087037 0.745379 0.870857 0.112433 -0.033616 369428.000000 0 0 1
-16.969655 -14.358828 18.873956 29.161128 0.702253 0.866851 0.108882 -0.034645 713596.000000 0 0 1
-17.709155 -15.553128 19.584756 30.644358 0.720670 0.877471 0.087509 -0.018586 94479.500000 0 0 1
-18.517055 -16.340228 18.754856 31.010144 0.723029 0.921285 0.065496 -0.011579 -268917.000000 0 0 1
-18.882155 -17.559228 19.271456 32.190857 0.749111 0.928966 0.072797 -0.013833 561860.000000 0 0 1
-20.126155 -18.136428 18.479156 32.794380 0.733443 0.972198 0.064683 -0.006845 439588.000000 0 0 1
-19.985655 -18.236128 17.061556 31.985614 0.739657 1.008165 0.070293 -0.008039 -34757.800000 0 0 1
-20.477555 -17.184328 16.279256 31.299291 0.698178 1.023810 0.057258 -0.003519 -469454.000000 0 0 1
-20.018955 -17.366328 14.825956 30.367036 0.714563 1.060741 0.078997 -0.012369 -145864.000000 0 0 1
-20.547455 -18.550328 14.160156 31.093771 0.734362 1.097973 0.085244 -0.014209 324726.000000 0 0 1
-20.092655 -18.611228 12.802956 30.232570 0.747141 1.133511 0.118827 -0.024909 162918.000000 0 0 1
-20.295755 -19.909828 11.946656 30.838961 0.775800 1.172999 0.145993 -0.033793 61367.600000 0 0 1
-19.507655 -20.961428 12.495956 31.242263 0.821306 1.159313 0.129542 -0.034375 147821.000000 0 0 1
-19.187455 -21.923528 11.525456 31.331066 0.851853 1.194089 0.121581 -0.026484 25262.800000 0 0 1
-18.580455 -23.238428 12.114256 32.124960 0.896325 1.184135 0.099446 -0.021289 171234.000000 0 0 1
-18.797555 -24.368128 11.260256 32.771133 0.913740 1.220046 0.122283 -0.042211 331222.000000 0 0 1
-17.839455 -24.486428 10.179556 31.960205 0.941169 1.246642 0.117042 -0.036239 250110.000000 0 0 1
-18.167955 -25.605028 9.206256 32.717690 0.953692 1.285560 0.134940 -0.042259 1139830.000000 0 0 1
-19.320955 -25.174758 8.411456 32.830175 0.916206 1.311696 0.126629 -0.045641 675136.000000 0 0 1
-19.697755 -26.211578 7.526956 33.640801 0.926342 1.345141 0.155473 -0.054041 775047.000000 0 0 1
-21.032555 -25.959508 6.742456 34.084090 0.889863 1.371665 0.154666 -0.052291 734222.000000 0 0 1
-20.883255 -25.002268 5.707856 33.072699 0.874925 1.397343 0.184185 -0.056396 318337.000000 0 0 1
-22.133655 -24.667128 5.101856 33.531997 0.839479 1.418054 0.195946 -0.054483 455555.000000 0 0 1
-22.144455 -23.227328 4.526556 32.409495 0.809260 1.430671 0.197795 -0.056673 225911.000000 0 0 1
-23.408555 -22.824328 4.021356 32.940579 0.772762 1.448412 0.208332 -0.058508 467435.000000 0 0 1
-23.205455 -21.678828 3.192456 31.916399 0.751399 1.470603 0.195476 -0.054499 47051.400000 0 0 1
-23.469255 -21.883028 1.714756 32.134300 0.750437 1.517409 0.168097 -0.052559 31045.500000 0 0 1
-22.566155 -22.800428 1.118356 32.098935 0.790562 1.535948 0.176177 -0.062727 110092.000000 0 0 1
-22.720055 -22.875128 -0.290944 32.242163 0.788799 1.579820 0.153749 -0.053047 -539746.000000 0 0 1
-21.772955 -23.768828 -1.039244 32.250563 0.829195 1.603026 0.155393 -0.049890 -762250.000000 0 0 1
-20.408955 -23.399328 -1.083744 31.068127 0.853553 1.605686 0.147470 -0.051078 604828.000000 0 0 1
-19.610355 -24.032628 -2.139244 31.091954 0.886382 1.639655 0.129382 -0.044405 617450.000000 0 0 1
-19.479555 -25.538068 -2.157944 32.191656 0.919175 1.637881 0.151900 -0.041431 -254136.000000 0 0 1
-20.568555 -26.282158 -2.692944 33.482372 0.906752 1.651312 0.203451 -0.046676 47789.100000 0 0 1
-20.079855 -27.530098 -3.012744 34.207946 0.940624 1.658982 0.185122 -0.035437 34306.000000 0 0 1
-21.106455 -28.415208 -3.787744 35.598505 0.931927 1.677400 0.192393 -0.045910 232151.000000 0 0 1
-21.456055 -28.025478 -5.135544 35.667402 0.917391 1.715283 0.158953 -0.034240 233410.000000 0 0 1
-22.413855 -28.940858 -5.643844 37.037915 0.911817 1.723772 0.174173 -0.054978 189911.000000 0 0 1
-23.151155 -28.471408 -6.941544 37.346782 0.888096 1.757751 0.154593 -0.014646 276520.000000 0 0 1
-22.293355 -28.216548 -8.045444 36.849647 0.902133 1.790901 0.147187 -0.016860 557163.000000 0 0 1
-23.054255 -28.141808 -9.262144 37.539944 0.884447 1.820098 0.139738 -0.012336 769075.000000 0 0 1
-23.878055 -26.822348 -9.573744 37.165259 0.843405 1.831333 0.117747 -0.011835 142450.000000 0 0 1
-23.090855 -25.660638 -9.767744 35.875685 0.838061 1.846544 0.109020 -0.019813 166539.000000 0 0 1
-22.776255 -24.849528 -8.607244 34.789963 0.828903 1.820798 0.102275 -0.013867 296592.000000 0 0 1
-22.352955 -23.376628 -8.972144 33.565171 0.807780 1.841392 0.082839 -0.018177 571499.000000 0 0 1
-23.498955 -22.690528 -9.457444 34.007414 0.767898 1.852611 0.098361 -0.020106 302018.000000 0 0 1
-23.190955 -21.326028 -9.641344 32.948071 0.743530 1.867764 0.108026 -0.021262 302885.000000 0 0 1
-24.388955 -20.417028 -10.046344 33.355737 0.696982 1.876734 0.128126 -0.014234 -93646.100000 0 0 1
-24.850055 -20.703328 -11.338344 34.274059 0.694618 1.907963 0.117722 -0.007866 174135.000000 0 0 1
-26.067505 -20.116428 -11.767744 34.966632 0.657248 1.914039 0.108180 -0.004823 75753.900000 0 0 1
-26.262935 -18.562528 -11.799944 34.257086 0.615272 1.922452 0.116813 -0.020350 -1155410.000000 0 0 1
-25.528465 -17.988028 -12.813744 33.755944 0.613824 1.960160 0.144262 -0.011095 127805.000000 0 0 1
-25.402995 -16.515528 -12.757444 32.875937 0.576474 1.969309 0.123355 -0.031518 38307.100000 0 0 1
-24.467455 -15.969628 -11.623144 31.444918 0.578263 1.949413 0.112571 -0.030882 -362206.000000 0 0 1
-25.071835 -15.968228 -10.375144 31.483724 0.567110 1.906613 0.137539 -0.037831 717668.000000 0 0 1
-24.139355 -16.334028 -9.346844 30.608372 0.594886 1.881122 0.137080 -0.043905 346899.000000 0 0 1
-25.003065 -16.662428 -8.122744 31.125050 0.587829 1.834825 0.138296 -0.047815 156126.000000 0 0 1
-25.717415 -17.843828 -8.340244 32.393631 0.606581 1.831195 0.133632 -0.037088 356372.000000 0 0 1
-26.780525 -18.091728 -7.409744 33.157374 0.594131 1.796171 0.143236 -0.037884 496227.000000 0 0 1
-27.188245 -19.529628 -7.341244 34.270993 0.622910 1.786681 0.147526 -0.034039 82897.000000 0 0 1
-27.807645 -20.011128 -8.547544 35.309643 0.623777 1.815299 0.144734 -0.028152 369177.000000 0 0 1
-28.336865 -21.352028 -8.489244 36.482247 0.645742 1.805644 0.147958 -0.022569 -205731.000000 0 0 1
-27.286855 -22.462028 -8.480344 36.345996 0.688717 1.806290 0.127669 -0.015083 -185235.000000 0 0 1
-27.782825 -23.746128 -8.871344 37.609370 0.707219 1.808922 0.144961 -0.010875 -222460.000000 0 0 1
-26.789305 -24.742528 -8.845644 37.524725 0.745700 1.808764 0.118039 0.001124 -80832.700000 0 0 1
-27.392205 -26.150118 -8.533444 38.819857 0.762204 1.792428 0.143806 -0.012976 -2494.490000 0 0 1
-27.369275 -26.355418 -7.151444 38.663012 0.766529 1.756836 0.176277 -0.035333 144191.000000 0 0 1
-27.788215 -27.669998 -6.829144 39.805162 0.783267 1.743214 0.176186 -0.038670 -153269.000000 0 0 1
-27.516035 -28.035208 -5.368844 39.647567 0.794744 1.706628 0.207608 -0.051908 -380113.000000 0 0 1
-28.425915 -27.479168 -4.464644 39.787817 0.768465 1.683244 0.175341 -0.049657 -152684.000000 0 0 1
-28.281115 -28.018468 -3.144144 39.934217 0.780733 1.649611 0.183054 -0.049864 126237.000000 0 0 1
-28.913075 -29.449108 -2.842444 41.367806 0.794583 1.639562 0.156963 -0.030187 83368.100000 0 0 1
-28.109475 -30.495058 -3.387544 41.612097 0.826082 1.652294 0.210318 -0.050085 138191.000000 0 0 1
-27.848825 -31.534398 -2.454544 42.142617 0.847383 1.629073 0.196580 -0.052898 83157.200000 0 0 1
-26.782325 -31.367188 -1.338344 41.267234 0.864081 1.603233 0.209672 -0.054435 -227706.000000 0 0 1
-25.550325 -30.975838 -1.883744 40.197888 0.881087 1.617675 0.219047 -0.062776 963383.000000 0 0 1
-24.455855 -30.959248 -0.889944 39.463349 0.902222 1.593349 0.226385 -0.040491 1614450.000000 0 0 1
-23.424855 -29.814908 -0.980744 37.929072 0.904851 1.596657 0.243244 -0.037866 222306.000000 0 0 1
-23.962955 -28.518418 -0.751044 37.257046 0.871983 1.590956 0.225406 -0.056932 -186747.000000 0 0 1
-24.288255 -27.802968 -1.922144 36.967811 0.852768 1.622815 0.246877 -0.067522 144962.000000 0 0 1
-25.091545 -26.505618 -1.603744 36.533621 0.812797 1.614708 0.169664 -0.049211 -6430.810000 0 0 1
-26.370105 -26.659538 -1.031544 37.512365 0.790856 1.598299 0.192304 -0.052736 -166935.000000 0 0 1
-27.040405 -25.397148 -0.927544 37.108746 0.754071 1.595794 0.190625 -0.078951 192978.000000 0 0 1
-26.810075 -24.476528 0.282056 36.303721 0.739929 1.563027 0.193558 -0.068803 -306906.000000 0 0 1
-27.170145 -25.079878 1.505756 37.006545 0.745414 1.530096 0.161389 -0.072288 -80284.600000 0 0 1
-26.769335 -24.412228 2.687656 36.328745 0.739377 1.496747 0.177768 -0.058880 -69269.400000 0 0 1
-27.602155 -23.157128 2.999756 36.154254 0.698050 1.487730 0.179087 -0.058447 -70725.400000 0 0 1
-27.481205 -22.119028 1.992756 35.333258 0.677709 1.514368 0.176846 -0.063348 -216399.000000 0 0 1
-28.097645 -20.907828 2.374356 35.103455 0.639723 1.503106 0.138356 -0.058807 -9958.080000 0 0 1
-27.719335 -19.728328 1.448256 34.053868 0.618547 1.528255 0.154569 -0.042407 197920.000000 0 0 1
-26.459595 -19.248128 1.868956 32.773368 0.628915 1.513739 0.134451 -0.035722 -183795.000000 0 0 1
-26.028995 -18.171328 1.052856 31.761837 0.609462 1.537642 0.113239 -0.034619 1094300.000000 0 0 1
-24.600855 -17.638528 1.473656 30.306623 0.622037 1.522152 0.141350 -0.038122 1568100.000000 0 0 1
-23.501155 -18.544328 1.280156 29.963899 0.668048 1.528060 0.152283 -0.047715 1102840.000000 0 0 1
-22.225455 -17.987328 1.633056 28.638815 0.680393 1.513743 0.155163 -0.040833 734210.000000 0 0 1
-21.110255 -19.035628 1.435756 28.461543 0.733767 1.520329 0.139847 -0.049157 -564983.000000 0 0 1
-20.847055 -19.240728 0.060556 28.369156 0.745349 1.568662 0.086111 -0.033204 -520847.000000 0 0 1
-19.779655 -20.117428 0.037556 28.212534 0.793864 1.569465 0.116143 -0.033932 -505563.000000 0 0 1
-19.256455 -20.429128 -1.402544 28.109206 0.814939 1.620713 0.107836 -0.033501 337983.000000 0 0 1
-18.585955 -19.390228 -2.156044 26.945635 0.806573 1.650897 0.111506 -0.035740 191963.000000 0 0 1
-18.322755 -19.872028 -3.432844 27.247115 0.825938 1.697121 0.112486 -0.033537 -45071.100000 0 0 1
-17.529655 -18.907728 -4.325044 26.143776 0.823200 1.736993 0.121190 -0.023115 -49331.500000 0 0 1
-16.140755 -18.868328 -4.108444 25.167779 0.863152 1.734772 0.155394 -0.038397 -226998.000000 0 0 1
-15.509455 -18.228128 -5.173644 24.486210 0.865807 1.783689 0.155100 -0.026214 10409.800000 0 1 0
-13.989255 -17.956028 -5.000444 23.304992 0.908940 1.787043 0.171200 -0.040314 21745.300000 0 1 0
-13.227555 -19.117028 -5.244944 23.831459 0.965510 1.792698 0.145265 -0.039656 -385115.000000 0 1 0
-12.030455 -18.751828 -5.903744 23.048148 1.000376 1.829832 0.128761 -0.047520 84561.500000 0 1 0
-10.950755 -19.868528 -5.773444 23.409616 1.067062 1.819995 0.127198 -0.052273 242075.000000 0 1 0
-11.216855 -21.005128 -6.598144 24.709690 1.080316 1.841103 0.124319 -0.043566 -606741.000000 0 1 0
-10.066055 -21.746128 -6.851144 24.923036 1.137275 1.849274 0.128501 -0.037558 -275911.000000 0 1 0
-10.274755 -22.992128 -7.729444 26.342985 1.150539 1.868594 0.133790 -0.030672 -45598.400000 0 0 1
-10.694255 -22.640028 -9.069244 26.630606 1.129504 1.918306 0.129778 -0.036547 83183.500000 0 0 1
-10.686655 -23.822828 -9.864544 27.911306 1.149117 1.932026 0.150791 -0.031886 47451.700000 0 0 1
-11.271255 -23.650728 -11.279544 28.524135 1.126067 1.977342 0.183336 -0.041294 -563513.000000 0 0 1
-10.477055 -22.966528 -12.124744 28.004277 1.142808 2.018571 0.159948 -0.032301 -461593.000000 0 0 1
-11.311355 -22.521528 -13.183644 28.442477 1.105353 2.052759 0.162231 -0.043092 20575.400000 0 0 1
-10.885755 -21.257128 -13.989944 27.678217 1.097516 2.100699 0.134241 -0.021323 -286694.000000 0 0 1
-10.998455 -20.084028 -13.195144 26.428130 1.069781 2.093569 0.136259 -0.029271 -9331.640000 0 0 1
-10.701755 -18.915828 -13.845544 25.768881 1.055936 2.138025 0.123943 -0.016950 -245137.000000 0 0 1
-10.585555 -17.802328 -12.826944 24.362007 1.034345 2.125292 0.129437 -0.005859 -398447.000000 0 1 0
-11.784555 -17.446028 -12.187844 24.326594 0.976713 2.095561 0.154500 -0.016787 -343054.000000 0 1 0
-11.664655 -16.212828 -11.461644 23.028011 0.947122 2.091772 0.150277 -0.021514 40280.800000 0 1 0
-11.489355 -14.924228 -12.326444 22.509534 0.914714 2.150301 0.156673 -0.005563 46088.900000 0 1 0
-12.672755 -14.523328 -12.981244 23.238728 0.853339 2.163498 0.158258 0.004129 57368.000000 0 1 0
-12.352655 -13.905428 -14.240944 23.425489 0.844464 2.224241 0.167583 -0.009974 -119874.000000 0 1 0
-13.515755 -13.096428 -14.830644 23.961220 0.769643 2.238193 0.166554 -0.010717 -136724.000000 0 1 0
-13.715255 -11.944628 -14.052944 22.984073 0.716504 2.228651 0.150687 -0.009942 -323125.000000 0 1 0
-14.806155 -11.247828 -14.572444 23.623971 0.649663 2.235530 0.142924 -0.022069 -566271.000000 0 1 0
-14.937455 -9.810228 -13.990344 22.695768 0.581108 2.234997 0.130286 -0.033599 758788.000000 0 1 0
-13.832755 -8.907328 -14.235344 21.756163 0.572096 2.284070 0.112568 -0.021763 786242.000000 0 1 0
-13.617955 -8.599628 -15.573544 22.403964 0.563254 2.339389 0.105755 -0.022590 -399552.000000 0 1 0
-12.576255 -7.507628 -15.760744 21.515756 0.538187 2.392814 0.093328 0.002723 -468582.000000 0 1 0
-11.252655 -7.835928 -15.437844 20.648270 0.608281 2.415325 0.080511 -0.009216 -201131.000000 0 1 0
-10.348455 -6.815028 -15.796944 20.076817 0.582366 2.476444 0.054167 0.013128 310044.000000 0 1 0
12.243045 21.315872 15.598956 29.113329 1.049441 1.005340 0.128415 -0.038870 185651.000000 0 0 1
12.903245 21.550772 16.844656 30.243543 1.031306 0.980067 0.149204 -0.047255 173370.000000 0 0 1
13.413645 20.311972 17.349656 29.891681 0.987158 0.951555 0.141318 -0.048027 -716847.000000 0 0 1
14.566545 20.498272 18.305356 31.103849 0.952976 0.941565 0.159577 -0.052172 -1867820.000000 0 0 1
15.702845 20.876672 17.647056 31.525122 0.925907 0.976679 0.135304 -0.035763 -1404220.000000 0 0 1
16.743245 20.536972 18.555156 32.348064 0.886812 0.959891 0.140666 -0.048658 -151763.000000 0 0 1
18.128345 20.965072 18.028856 33.063738 0.857834 0.994078 0.121721 -0.032989 -503380.000000 0 0 1
18.359245 22.343072 18.243456 34.192081 0.882965 1.007995 0.126204 -0.041062 817072.000000 0 0 1
19.608245 22.826572 17.717056 34.920334 0.861095 1.038682 0.115790 -0.035697 -264054.000000 0 0 1
20.871145 22.666072 18.488856 35.933178 0.826602 1.030332 0.105453 -0.038855 -1360390.000000 0 0 1
21.451645 21.411872 18.135356 35.320425 0.784470 1.031593 0.119403 -0.031474 -249814.000000 0 0 1
22.742145 21.401372 18.689056 36.393745 0.755034 1.031510 0.126010 -0.042471 26180.400000 0 0 1
23.587745 20.115772 18.366556 36.032712 0.706121 1.035938 0.106327 -0.040969 207439.000000 0 0 1
23.763145 19.817872 16.957056 35.284229 0.695117 1.069475 0.106872 -0.046459 118588.000000 0 0 1
23.194245 18.630672 16.450356 33.995428 0.676717 1.065692 0.083558 -0.029371 -18672.600000 0 0 1
23.972545 17.333872 16.862456 34.051262 0.626043 1.052722 0.086396 -0.038648 36704.900000 0 0 1
25.244845 17.181872 16.293656 34.612167 0.597593 1.080656 0.111610 -0.050515 -166859.000000 0 0 1
25.827245 15.979372 16.768156 34.692333 0.554058 1.066332 0.091790 -0.039464 -103252.000000 0 0 1
27.263445 15.671672 16.306156 35.422979 0.521702 1.092433 0.247379 -0.069626 -174772.000000 0 0 1
28.238245 16.604872 16.749756 36.792316 0.531570 1.098142 0.200758 -0.068397 1102830.000000 0 0 1
29.431645 16.128572 17.398656 37.802986 0.501307 1.092525 0.193993 -0.072626 1005450.000000 0 0 1
30.508345 15.521572 16.464656 37.983723 0.470635 1.122461 0.174809 -0.077926 -479686.000000 0 0 1
31.179345 16.497572 15.704256 38.612758 0.486670 1.151945 0.214289 -0.075589 -305654.000000 0 0 1
32.294445 16.060572 14.973756 39.052356 0.461499 1.177291 0.208994 -0.065356 -196828.000000 0 0 1
32.174245 15.272872 13.655656 38.143408 0.443197 1.204662 0.174021 -0.074654 -698307.000000 0 0 1
32.261945 16.123672 12.628456 38.213659 0.463467 1.233995 0.171931 -0.067970 -147536.000000 0 0 1
31.553745 15.605672 11.521456 37.039435 0.459298 1.254489 0.175792 -0.056849 1045280.000000 0 0 1
30.071645 16.153872 11.402156 35.989728 0.492947 1.248425 0.167622 -0.062714 562564.000000 0 0 1
29.929845 17.515572 11.170956 36.433242 0.529482 1.259162 0.172034 -0.062230 -147741.000000 0 0 1
30.224745 18.404172 12.250656 37.447661 0.546946 1.237520 0.195504 -0.075344 -341959.000000 0 0 1
29.334445 18.426572 13.528856 37.189758 0.560865 1.198475 0.194536 -0.077129 463793.000000 0 0 1
28.041445 19.031172 13.303656 36.407353 0.596274 1.196722 0.201203 -0.063834 766363.000000 0 0 1
27.152045 18.899772 14.373856 36.069969 0.608085 1.160916 0.179937 -0.062678 -558065.000000 0 0 1
27.543345 19.576572 15.711956 37.265850 0.617908 1.135567 0.167637 -0.058066 -517283.000000 0 0 1
27.696445 20.982772 15.776756 38.161182 0.648346 1.144585 0.143728 -0.055921 558962.000000 0 0 1
26.517245 21.617372 16.284556 37.890128 0.683952 1.126543 0.120536 -0.043554 299332.000000 0 0 1
26.501145 23.162172 16.195556 38.743940 0.718267 1.139537 0.117177 -0.033691 -56391.400000 0 0 1
26.224945 23.554472 14.864656 38.255965 0.731803 1.171730 0.146570 -0.046755 62576.600000 0 0 1
26.091845 24.943772 14.720256 38.982843 0.762906 1.183584 0.146471 -0.048256 -328164.000000 0 0 1
25.728045 25.429072 13.292956 38.539235 0.779554 1.218643 0.135067 -0.046196 -170111.000000 0 0 1
24.494245 24.946272 12.832156 37.241760 0.794541 1.219022 0.129451 -0.040378 -75939.900000 0 0 1
24.214345 25.403272 11.497956 36.930525 0.809355 1.254193 0.110192 -0.045254 164943.000000 0 0 1
23.451245 24.321272 10.686756 35.435743 0.803608 1.264446 0.110704 -0.042257 -781408.000000 0 0 1
22.092245 24.130272 10.941156 34.497046 0.829461 1.248061 0.098377 -0.034512 -273582.000000 0 0 1
21.661545 22.746272 10.693956 33.180960 0.809820 1.242647 0.113128 -0.038032 195494.000000 0 0 1
21.576745 22.453872 9.161756 32.460284 0.805316 1.284663 0.135597 -0.038051 251207.000000 0 0 1
20.383445 22.966572 8.548256 31.875083 0.844915 1.299293 0.135709 -0.033076 697373.000000 0 0 1
20.736745 23.352472 7.270856 32.065805 0.844657 1.342059 0.123519 -0.035670 748097.000000 0 0 1
19.477745 23.528872 6.323456 31.192570 0.879319 1.366658 0.121479 -0.033815 374493.000000 0 0 1
18.870445 22.278672 6.020556 29.810736 0.868036 1.367438 0.121516 -0.029085 1318430.000000 0 0 1
17.868445 22.335372 4.951456 29.028728 0.896051 1.399387 0.152168 -0.038865 1797870.000000 0 0 1
16.486645 23.103072 5.020156 28.822965 0.950993 1.395731 0.130983 -0.036825 671811.000000 0 0 1
16.616545 24.490572 5.089656 30.030022 0.974655 1.400489 0.132105 -0.040926 299231.000000 0 0 1
15.336045 24.996472 5.410956 29.821071 1.020489 1.388338 0.124544 -0.043879 149816.000000 0 0 1
15.217145 26.492372 5.118656 30.977538 1.049415 1.404797 0.106482 -0.044114 -237648.000000 0 0 1
14.954745 26.623472 3.751756 30.765716 1.059005 1.448546 0.094826 -0.032889 268784.000000 0 0 1
14.801345 28.001272 3.402256 31.854770 1.084535 1.463787 0.085459 -0.029105 -115535.000000 0 0 1
14.226845 28.240372 1.962756 31.682394 1.104132 1.508806 0.090151 -0.032772 -203740.000000 0 0 1
15.056145 27.961372 0.855456 31.768815 1.076854 1.543866 0.115382 -0.036562 -151057.000000 0 0 1
15.205745 26.557772 0.601456 30.608686 1.050803 1.551145 0.100335 -0.031034 16266.200000 0 0 1
16.258445 26.191972 -0.475744 30.831522 1.015265 1.586227 0.108220 -0.037184 153048.000000 0 0 1
16.045345 26.874072 -1.748644 31.348470 1.032544 1.626606 0.103402 -0.023447 -545680.000000 0 0 1
17.112745 26.628272 -2.607344 31.760181 0.999603 1.652984 0.096159 -0.020500 -240728.000000 0 0 1
16.795745 27.049572 -4.042844 32.095497 1.015133 1.697095 0.103148 -0.023799 419553.000000 0 0 1
15.730645 26.233072 -4.598744 30.931791 1.030635 1.720023 0.132842 -0.029696 224735.000000 0 0 1
15.575945 26.454472 -6.021544 31.284311 1.038665 1.764483 0.118839 -0.016679 871208.000000 0 0 1
14.210945 26.125472 -6.739744 30.494514 1.072610 1.793651 0.128239 -0.030706 684802.000000 0 0 1
13.960245 24.754472 -7.053544 29.281817 1.057307 1.814074 0.160467 -0.040475 696670.000000 0 0 1
12.661745 24.750572 -7.685544 28.844032 1.097933 1.840506 0.129086 -0.037567 785755.000000 0 0 1
12.179645 23.340172 -8.007744 27.517836 1.089836 1.866070 0.153676 -0.045983 -647806.000000 0 0 1
12.949045 22.845772 -9.037344 27.771940 1.055144 1.902245 0.153112 -0.047151 -151721.000000 0 0 1
12.813045 21.472672 -9.314244 26.683420 1.032796 1.927369 0.161775 -0.047082 -11021.600000 0 0 1
13.252445 21.232472 -10.839544 27.275279 1.012802 1.979492 0.158254 -0.039350 332364.000000 0 0 1
12.622845 20.065572 -11.383544 26.297309 1.009269 2.018480 0.169260 -0.045052 77947.100000 0 0 1
12.914945 19.861372 -12.794944 26.925461 0.994242 2.065986 0.159375 -0.037406 568278.000000 0 0 1
14.294445 19.300272 -13.268644 27.438815 0.933316 2.075527 0.157332 -0.037657 740799.000000 0 0 1
15.386345 20.137072 -12.904944 28.439037 0.918344 2.041794 0.140004 -0.032015 98996.200000 0 0 1
16.588045 19.666172 -13.492344 29.051074 0.870099 2.053793 0.136013 -0.025970 543576.000000 0 0 1
17.876145 20.450672 -13.114844 30.162653 0.852470 2.020617 0.137815 -0.020789 -7953.960000 0 0 1
18.035845 21.639672 -13.888744 31.408029 0.875982 2.028850 0.118972 -0.018569 295517.000000 0 0 1
17.192645 22.759072 -13.632244 31.613295 0.923836 2.016639 0.126557 -0.022086 148740.000000 0 0 1
17.793045 24.034272 -14.309944 33.151367 0.933519 2.017123 0.114786 -0.019839 199886.000000 0 0 1
17.900945 24.024272 -15.744744 33.845331 0.930426 2.054653 0.097103 -0.019398 -589391.000000 0 0 1
16.672945 24.209272 -16.362044 33.642122 0.967694 2.078711 0.112617 -0.017820 -466613.000000 0 0 1
16.739145 24.202772 -17.898044 34.442896 0.965716 2.117231 0.086087 -0.008207 155840.000000 0 0 1
16.972845 22.914672 -18.488244 33.984920 0.933275 2.146009 0.095023 -0.008489 -57004.200000 0 0 1
16.877945 22.944872 -19.884244 34.737808 0.936584 2.180237 0.092582 -0.008338 -93674.600000 0 0 1
17.209745 21.587572 -20.538144 34.409503 0.897761 2.210396 0.092421 -0.003128 217693.000000 0 0 1
16.249545 20.547272 -20.327544 33.157912 0.901668 2.230715 0.090071 -0.001368 223410.000000 0 0 1
16.413845 19.620572 -21.348144 33.318529 0.874155 2.266244 0.088161 0.003276 6162.980000 0 0 1
15.342845 18.504872 -21.502744 32.252150 0.878547 2.300579 0.086989 0.002815 -699980.000000 0 0 1
15.427245 17.540372 -20.440344 31.039848 0.849408 2.289646 0.089759 0.000577 147646.000000 0 0 1
14.610845 16.400272 -20.595844 30.110372 0.843037 2.324044 0.080579 -0.010351 503904.000000 0 0 1
13.083345 16.517272 -20.890044 29.671335 0.900891 2.351878 0.085014 -0.014946 -205402.000000 0 0 1
12.282945 16.743072 -19.744744 28.654076 0.937865 2.331005 0.072420 -0.009283 783662.000000 0 0 1
10.951245 17.028372 -20.234844 28.624188 0.999275 2.355922 0.076262 -0.006352 710422.000000 0 0 1
9.806745 16.804472 -19.250544 27.370531 1.042538 2.350869 0.103418 -0.020990 -820021.000000 0 0 1
9.442245 15.459272 -19.242144 26.427356 1.022487 2.386364 0.130297 -0.029599 98102.400000 0 0 1
8.060345 15.183672 -19.098444 25.695595 1.082770 2.408723 0.130622 -0.019127 423602.000000 0 0 1
7.449545 15.337072 -17.683444 24.564724 1.118637 2.374413 0.129747 -0.022493 -334262.000000 0 1 0
7.420045 16.666572 -17.161344 25.046824 1.151937 2.325634 0.139163 -0.027497 -384079.000000 0 0 1
6.867445 16.736872 -15.898144 24.083929 1.181427 2.291767 0.108972 -0.036351 -386872.000000 0 1 0
6.519045 18.174972 -15.482244 24.749291 1.226408 2.246649 0.092208 -0.026944 -387344.000000 0 1 0
7.545745 18.989272 -14.966344 25.328288 1.192560 2.202963 0.093380 -0.031276 -346945.000000 0 0 1
8.119745 19.700972 -16.067244 26.687354 1.179860 2.216868 0.110345 -0.027596 50871.500000 0 0 1
9.324745 20.619672 -15.696844 27.541108 1.146093 2.177232 0.117661 -0.016865 171955.000000 0 0 1
9.162445 21.796172 -14.944944 27.970964 1.172854 2.134478 0.101210 -0.023477 -168669.000000 0 0 1
8.920645 21.678072 -13.562444 27.082403 1.180411 2.095301 0.101809 -0.032138 -33615.100000 0 0 1
8.574645 22.993972 -12.842444 27.697935 1.213861 2.052919 0.096822 -0.035697 -154226.000000 0 0 1
7.365645 23.639672 -13.225844 28.071511 1.268750 2.061388 0.074966 -0.024918 -252356.000000 0 0 1
6.869745 24.603572 -12.312144 28.356975 1.298513 2.019929 0.068070 -0.029759 159752.000000 0 0 1
6.297845 24.036572 -10.942244 27.150549 1.314546 1.985612 0.062132 -0.033537 -695284.000000 0 0 1
7.280145 23.505872 -10.092044 26.596538 1.270450 1.959998 0.055127 -0.034185 -474353.000000 0 0 1
6.762645 22.717572 -9.063344 25.376478 1.281466 1.936017 0.070543 -0.043474 -191389.000000 0 0 1
7.801545 22.461672 -7.969244 25.077872 1.236505 1.894183 0.070724 -0.047230 -9713.510000 0 0 1
8.003145 23.630672 -7.210444 25.970165 1.244245 1.852136 0.065201 -0.042664 263540.000000 0 0 1
9.071245 23.492872 -6.280944 25.954821 1.202306 1.815218 0.081574 -0.043060 -123777.000000 0 0 1
9.322245 24.802772 -5.533144 27.068384 1.211276 1.776661 0.052131 -0.032347 134803.000000 0 0 1
9.740645 25.894172 -6.405144 28.397432 1.210999 1.798308 0.069925 -0.031437 160503.000000 0 0 1
10.081445 27.085272 -5.616744 29.441387 1.214473 1.762750 0.054686 -0.022103 207341.000000 0 0 1
10.545045 28.130472 -6.596644 30.757716 1.212147 1.786947 0.058515 -0.019666 853926.000000 0 0 1
11.787545 28.038772 -7.325044 31.285383 1.172827 1.807126 0.076327 -0.024248 489356.000000 0 0 1
11.968045 29.181372 -8.121244 32.569021 1.181591 1.822810 0.079523 -0.015940 -128356.000000 0 0 1
13.355845 29.407172 -8.744244 33.460755 1.144480 1.835194 0.088136 -0.014620 -205444.000000 0 0 1
14.374645 29.597572 -7.793244 33.813922 1.118679 1.803362 0.082010 -0.009937 82134.000000 0 0 1
15.514945 30.065572 -8.545844 34.895323 1.094402 1.818212 0.079919 -0.011116 511424.000000 0 0 1
16.745645 30.468472 -7.710244 35.611687 1.068256 1.789033 0.072027 -0.005616 -244592.000000 0 0 1
17.376245 29.357372 -7.137644 34.853050 1.036364 1.777048 0.079077 -0.016272 -731854.000000 0 0 1
18.507745 29.921272 -6.520944 35.781864 1.016850 1.754062 0.061084 -0.004008 465057.000000 0 0 1
19.616945 28.843472 -6.160344 35.422030 0.973539 1.745598 0.063572 -0.005812 330058.000000 0 0 1
19.492245 28.088072 -4.986644 34.550745 0.964130 1.715630 0.079890 -0.017250 65332.300000 0 0 1
20.667445 27.299772 -4.750344 34.568578 0.922795 1.708651 0.079517 -0.019386 405812.000000 0 0 1
20.883045 26.028572 -5.654744 33.846185 0.894647 1.738655 0.096196 -0.009543 -411596.000000 0 0 1
21.266345 26.425872 -6.996144 34.634234 0.893163 1.774197 0.081119 -0.006094 222349.000000 0 0 1
21.353345 25.252772 -7.865344 33.993109 0.868871 1.804293 0.091595 -0.016517 -581189.000000 0 0 1
21.920145 25.601172 -9.267344 34.954204 0.862704 1.839133 0.091282 -0.018011 -295639.000000 0 0 1
23.294245 25.875072 -9.328444 36.043877 0.837839 1.832584 0.070020 -0.012782 462096.000000 0 0 1
24.120245 24.690272 -9.546844 35.812539 0.797076 1.840637 0.074741 -0.009437 -224203.000000 0 0 1
25.628045 24.805472 -9.462044 36.900384 0.769090 1.830114 0.036190 0.002451 -57225.100000 0 0 1
26.369045 25.277172 -10.602844 38.035276 0.764260 1.853303 0.049172 -0.001185 -77884.600000 0 0 1
27.761245 25.212572 -10.485844 38.939869 0.737323 1.843445 0.034094 0.006578 -221720.000000 0 0 1
28.446345 25.507272 -11.822544 39.994849 0.730978 1.870882 0.056006 -0.004071 -247474.000000 0 0 1
28.377245 26.810372 -12.358444 40.948690 0.757014 1.877380 0.053106 0.002083 -84700.900000 0 0 1
29.169345 26.954072 -13.497144 41.946937 0.745947 1.898392 0.072028 0.003137 -185355.000000 0 0 1
28.752845 28.188272 -14.364444 42.750930 0.775483 1.913466 0.082332 -0.013431 170409.000000 0 0 1
29.294745 29.485872 -14.023144 43.866243 0.788650 1.896188 0.081767 -0.020806 213817.000000 0 0 1
29.357845 30.312672 -15.178844 44.845718 0.801398 1.916085 0.095782 -0.012685 14870.200000 0 0 1
29.940245 31.712772 -14.804444 46.057461 0.814140 1.898040 0.093706 -0.023034 589067.000000 0 0 1
31.328845 31.597372 -14.488844 46.795481 0.789665 1.885590 0.096453 -0.028275 740527.000000 0 0 1
31.968145 32.856372 -14.259744 48.008788 0.799099 1.872370 0.110969 -0.028792 38907.400000 0 0 1
17.028745 -31.425507 -27.995039 45.401132 -1.074211 2.235233 0.115248 -0.050219 -233709.000000 0 0 1
18.117145 -32.224207 -27.576179 46.120235 -1.058618 2.211699 0.090748 -0.030974 239326.000000 0 0 1
18.606545 -31.728807 -26.334729 45.237580 -1.040419 2.192158 0.084843 -0.034834 11526.600000 0 0 1
19.827745 -32.468707 -25.729459 45.927785 -1.022566 2.165442 0.015142 -0.020135 865742.000000 0 0 1
21.164645 -31.993007 -25.886729 46.277612 -0.986352 2.164433 0.032821 -0.026654 1034780.000000 0 0 1
21.739245 -32.397207 -27.150039 47.532077 -0.979784 2.178756 0.050183 -0.026681 -531118.000000 0 0 1
23.167045 -31.919107 -27.390289 48.018426 -0.942961 2.177804 0.066952 -0.019905 -384001.000000 0 0 1
23.220345 -30.519907 -27.590469 47.242810 -0.920402 2.194461 0.071388 -0.039286 513911.000000 0 0 1
24.539345 -30.006007 -27.401749 47.469946 -0.885287 2.186146 0.046056 -0.020761 465467.000000 0 0 1
24.974245 -28.830807 -28.374029 47.539603 -0.856952 2.210366 0.023788 -0.006816 88597.200000 0 0 1
25.302245 -29.362707 -29.644559 48.797254 -0.859541 2.223712 0.021514 -0.016203 -43509.700000 0 0 1
25.795545 -28.374207 -30.500459 48.997793 -0.832966 2.242712 0.025416 -0.024250 -98718.000000 0 0 1
26.208245 -28.835007 -31.890269 50.351951 -0.833084 2.256667 0.034962 -0.011236 1230350.000000 0 0 1
27.467245 -29.552607 -32.015619 51.505397 -0.821954 2.241577 0.035923 -0.028474 786067.000000 0 0 1
27.475345 -30.345807 -33.183099 52.696116 -0.835001 2.251972 0.039796 -0.032667 -755925.000000 0 0 1
28.707345 -31.159007 -33.507259 54.016032 -0.826328 2.239948 0.041512 -0.036746 -429257.000000 0 0 1
29.804545 -30.271307 -33.659369 54.199779 -0.793168 2.240845 0.060822 -0.039175 825243.000000 0 0 1
31.044545 -30.990907 33.429276 55.151759 -0.784534 0.919607 0.063947 -0.029732 1965840.000000 0 0 1
32.268245 -29.989307 33.334376 55.242907 -0.748809 0.923020 0.081953 -0.037176 698152.000000 0 0 1
32.285045 -29.264607 32.132889 54.141148 -0.736364 0.935393 0.086861 -0.030136 40088.400000 0 0 1
33.480945 -28.523307 32.036922 54.414309 -0.705611 0.941273 0.089360 -0.035574 85218.100000 0 0 1
33.408445 -27.402907 30.986236 53.171330 -0.686960 0.948673 0.080259 -0.034593 -826160.000000 0 0 1
34.691645 -26.908007 30.797046 53.628435 -0.659706 0.959088 0.098936 -0.040168 -320200.000000 0 0 1
34.828145 -26.012107 29.657666 52.623251 -0.641495 0.972077 0.085070 -0.034270 -472671.000000 0 0 1
35.494345 -26.626007 28.439976 52.703178 -0.643596 1.000804 0.087725 -0.030416 -326744.000000 0 0 1
34.767545 -27.626507 27.726976 52.352567 -0.671443 1.012644 0.068610 -0.032362 683909.000000 0 0 1
33.766345 -27.187107 26.820226 50.976753 -0.677876 1.016757 0.080512 -0.028710 -154026.000000 0 0 1
32.940645 -28.293307 26.184896 50.707456 -0.709649 1.028165 0.080108 -0.018588 -626014.000000 0 0 1
31.819045 -27.780407 25.532426 49.356938 -0.717739 1.027101 0.081248 -0.011103 -213170.000000 0 0 1
31.196945 -28.895907 24.842686 49.248166 -0.747125 1.042064 0.069989 -0.006371 141721.000000 0 0 1
29.928245 -28.477207 24.053726 47.804109 -0.760559 1.043530 0.080488 -0.000010 -104010.000000 0 0 1
28.816745 -28.310107 24.877996 47.442403 -0.776530 1.018806 0.084939 -0.005540 -987398.000000 0 0 1
27.714545 -27.803207 24.215836 46.125058 -0.786995 1.018077 0.094120 -0.001837 -535641.000000 0 0 1
26.469845 -27.649807 25.093396 45.769455 -0.807198 0.990518 0.098786 -0.007798 -572276.000000 0 0 1
26.283545 -26.559907 25.960886 45.499681 -0.790628 0.963593 0.093987 -0.011136 359481.000000 0 0 1
25.038345 -26.623707 26.656006 45.235861 -0.816076 0.940645 0.094584 -0.018012 248390.000000 0 0 1
24.991845 -25.633807 27.813196 45.334956 -0.798078 0.910306 0.083407 -0.022963 -445576.000000 0 0 1
23.958345 -25.773107 28.763086 45.448547 -0.821873 0.885540 0.082560 -0.019943 -43358.200000 0 0 1
23.910945 -24.715107 29.748936 45.470528 -0.801934 0.857610 0.078531 -0.019627 -147082.000000 0 0 1
23.459145 -23.283007 29.304086 44.171929 -0.781630 0.845430 0.074012 -0.013104 -165658.000000 0 0 1
24.183045 -22.714707 28.183006 43.532280 -0.754099 0.866622 0.088626 -0.019434 274438.000000 0 0 1
23.996745 -21.301307 27.971386 42.567451 -0.725964 0.853821 0.096450 -0.013829 -88315.600000 0 0 1
24.748545 -20.288207 28.903056 43.121786 -0.686682 0.836230 0.093480 -0.015016 -195838.000000 0 0 1
24.312545 -20.065707 30.224086 43.671819 -0.689992 0.806439 0.092255 -0.007422 -267826.000000 0 0 1
24.982145 -18.991607 30.800706 43.971265 -0.650002 0.794736 0.081934 -0.007940 -373983.000000 0 0 1
24.648245 -18.625507 32.245759 44.656852 -0.647109 0.763994 0.104667 -0.008327 -4811.550000 0 0 1
24.801945 -19.720407 33.096665 45.819430 -0.671755 0.763633 0.071881 0.001117 401968.000000 0 0 1
24.072845 -19.394507 -33.077539 45.274412 -0.678182 2.389998 0.084054 -0.003506 159668.000000 0 0 1
24.058845 -20.482607 -31.971719 44.950595 -0.705280 2.362090 0.044459 0.007000 -123271.000000 0 0 1
25.311845 -20.707107 -31.368199 45.314872 -0.685668 2.335367 0.016072 0.014492 -119940.000000 0 0 1
25.217945 -21.778207 -30.447249 45.136127 -0.712337 2.311172 0.023630 -0.000565 695890.000000 0 0 1
26.558445 -22.053707 -29.670309 45.519712 -0.692995 2.280768 0.034601 0.009967 1111460.000000 0 0 1
27.561845 -22.723407 -30.457799 46.943434 -0.689474 2.276828 0.021678 0.012789 755307.000000 0 0 1
28.462745 -23.439307 -29.582969 47.272413 -0.688912 2.246950 0.040668 -0.003090 28749.300000 0 0 1
29.432045 -24.467907 -30.172809 48.737277 -0.693558 2.238381 0.050863 -0.011145 -77099.300000 0 0 1
30.520845 -23.962207 -30.927379 49.620682 -0.665595 2.243721 0.051387 -0.011290 22598.700000 0 0 1
30.276045 -23.668407 -32.287499 50.192778 -0.663516 2.269558 0.038514 -0.008525 -210023.000000 0 0 1
30.397145 -24.876707 -33.240569 51.456510 -0.685854 2.273120 0.041197 -0.000350 140383.000000 0 0 1
29.396045 -25.851707 -32.959609 51.173958 -0.721332 2.270603 0.043791 -0.008251 243557.000000 0 0 1
29.523145 -26.936107 33.543436 52.175972 -0.739609 0.872530 0.056861 -0.020567 -41330.900000 0 0 1
29.091745 -26.784807 32.068989 50.913412 -0.744135 0.889407 0.055180 -0.030911 -253866.000000 0 0 1
29.972845 -26.038007 31.231096 50.514657 -0.715262 0.904272 0.053214 -0.032764 -21469.500000 0 0 1
29.672545 -26.024107 29.876166 49.500498 -0.719986 0.922847 0.052663 -0.035244 -747771.000000 0 0 1
30.862745 -25.600807 28.990946 49.481161 -0.692475 0.944808 0.064198 -0.029526 -164812.000000 0 0 1
31.287645 -24.197507 28.978896 49.032769 -0.658303 0.938485 0.064269 -0.032890 320765.000000 0 0 1
31.769845 -23.740907 30.222546 49.863373 -0.641757 0.919639 0.064803 -0.021318 -1586120.000000 0 0 1
32.245245 -22.255607 30.194206 49.464714 -0.604117 0.914207 0.059802 -0.017522 -840251.000000 0 0 1
33.490145 -21.917107 29.723336 49.854047 -0.579486 0.932028 0.079323 -0.035125 -279774.000000 0 0 1
34.543545 -22.411907 30.605236 51.305268 -0.575532 0.931623 0.073062 -0.029774 -174109.000000 0 0 1
35.907745 -21.826707 30.166706 51.728149 -0.546175 0.948161 0.069502 -0.031813 -231058.000000 0 0 1
36.230245 -22.204907 28.892476 51.385442 -0.549839 0.973668 0.090487 -0.038303 525748.000000 0 0 1
37.460745 -21.533107 28.562166 51.795554 -0.521697 0.986706 0.082968 -0.035192 811730.000000 0 0 1
-37.787236 -22.020907 27.234456 51.521948 0.527647 1.013847 0.086188 -0.032765 1504.170000 0 0 1
-37.377136 -23.368307 27.150026 51.771150 0.558745 1.018758 0.086473 -0.026109 172855.000000 0 0 1
-37.153336 -23.714407 25.801736 51.073213 0.568095 1.041193 0.074156 -0.014108 -227377.000000 0 0 1
-36.878736 -25.173107 25.469676 51.404580 0.598947 1.052415 0.070988 -0.019143 540079.000000 0 0 1
37.885145 -25.967207 25.802846 52.681751 -0.600873 1.058951 0.078678 -0.015003 505770.000000 0 0 1
-37.893136 -27.316307 25.462276 53.201484 0.624601 1.071736 0.068064 -0.011166 40176.500000 0 0 1
-36.868836 -28.139107 26.274746 53.305559 0.651910 1.055367 0.069240 -0.021180 -894680.000000 0 0 1
-36.657536 -29.395007 25.622686 53.519748 0.675887 1.071564 0.069255 -0.016981 757024.000000 0 0 1
-35.471636 -30.017107 26.127096 53.309369 0.702300 1.058588 0.071591 -0.032804 1997880.000000 0 0 1
-34.043636 -29.317407 25.965256 51.890982 0.710944 1.046758 0.062783 -0.029758 97975.200000 0 0 1
-33.598636 -29.476907 24.620266 51.028559 0.720145 1.067312 0.061635 -0.028442 59312.600000 0 0 1
-32.403136 -28.714907 24.473576 49.733942 0.725125 1.056307 0.038545 -0.020860 51057.200000 0 0 1
-31.851936 -28.829207 23.048406 48.753441 0.735626 1.078382 0.046075 -0.017336 -464075.000000 0 0 1
-31.428836 -30.143907 22.789606 49.150717 0.764533 1.088666 0.061275 -0.022459 333247.000000 0 0 1
-30.946836 -30.242107 21.455356 48.297246 0.773881 1.110475 0.054459 -0.014435 -622988.000000 0 0 1
-30.878836 -31.591607 20.652656 48.765401 0.796807 1.133479 0.083696 -0.015250 251225.000000 0 0 1
-29.956836 -32.593107 21.048356 49.017914 0.827520 1.126967 0.085426 -0.031140 1062640.000000 0 0 1
-28.546136 -32.319507 20.938156 47.935777 0.847314 1.118762 0.103248 -0.026062 1048760.000000 0 0 1
-27.718236 -33.645307 21.039456 48.404194 0.881689 1.121134 0.110564 -0.018923 -180212.000000 0 0 1
-27.726536 33.153472 19.889956 47.576505 -0.874305 1.139485 0.104714 -0.017685 -235256.000000 0 0 1
-28.757236 32.210272 19.683056 47.454219 -0.841975 1.143095 0.116695 -0.013816 -148165.000000 0 0 1
-28.894736 31.088872 20.661856 47.205254 -0.821961 1.117755 0.115439 -0.014754 76697.900000 0 0 1
-28.002636 29.979072 20.517756 45.867970 -0.819472 1.107027 0.107485 -0.021154 251200.000000 0 0 1
-28.072136 29.064972 21.582956 45.810931 -0.802773 1.080224 0.109291 -0.024421 -406142.000000 0 0 1
-27.055736 27.949472 21.358456 44.377578 -0.801645 1.068671 0.100558 -0.023471 -1341290.000000 0 0 1
-25.774836 28.436272 21.300056 43.893691 -0.834453 1.064131 0.094788 -0.021377 -1315780.000000 0 0 1
-24.996636 27.572272 20.494256 42.486192 -0.834354 1.067433 0.085576 -0.019990 -750185.000000 0 0 1
-23.522736 27.957672 20.482156 41.886385 -0.871334 1.059861 0.064121 -0.013554 -807598.000000 0 0 1
-22.973236 27.607472 21.738456 41.982169 -0.876764 1.026517 0.071112 -0.012181 1038880.000000 0 0 1
-21.669936 28.217472 21.868156 41.761562 -0.915899 1.019675 0.077962 -0.017176 757326.000000 0 0 1
-21.136236 28.356572 23.289026 42.346362 -0.930263 0.988474 0.075498 -0.014600 -235668.000000 0 0 1
-20.815236 27.155072 24.002156 41.794443 -0.916798 0.959059 0.077129 -0.022957 321686.000000 0 0 1
-20.656336 27.253472 25.437766 42.620604 -0.922237 0.931237 0.085805 -0.021096 -714291.000000 0 0 1
-19.242936 27.481672 25.954266 42.416468 -0.959930 0.912347 0.102687 -0.021502 -1100640.000000 0 0 1
-18.871936 28.805172 25.606276 42.913509 -0.990804 0.931420 0.078060 -0.018223 -653029.000000 0 0 1
-17.562436 29.193072 25.831526 42.754442 -1.029204 0.922056 0.080789 -0.011966 -866975.000000 0 0 1
-17.118536 29.422672 27.278496 43.621717 -1.043856 0.895226 0.070077 -0.007351 -543197.000000 0 0 1
-17.008336 28.282172 27.988556 43.272670 -1.029363 0.867422 0.068719 -0.013070 173004.000000 0 0 1
-17.648436 28.355072 29.263616 44.405367 -1.014063 0.851294 0.063879 -0.003622 -94169.500000 0 0 1
-17.360536 27.179272 30.199586 44.182757 -1.002376 0.818229 0.061703 -0.007576 308271.000000 0 0 1
-15.982936 27.183972 30.567846 43.918285 -1.039281 0.800962 0.063290 -0.004231 447799.000000 0 0 1
-15.712536 26.210072 31.602687 43.961136 -1.030756 0.768610 0.081408 -0.006593 -201236.000000 0 0 1
-16.182736 26.438872 33.059611 45.319232 -1.021541 0.753230 0.082809 -0.003843 -310058.000000 0 0 1
-17.551436 26.209272 33.234222 45.820217 -0.980721 0.759300 0.078107 -0.003234 -432739.000000 0 0 1
-18.061336 26.780272 -32.878719 46.091268 -0.977440 2.365048 0.078217 0.000378 470857.000000 0 0 1
-19.400136 26.125072 -32.470889 45.970026 -0.932057 2.355124 0.058765 0.002889 259733.000000 0 0 1
-20.457236 26.265672 -33.409689 47.165574 -0.909080 2.357953 0.058616 -0.002976 140820.000000 0 0 1
-21.644736 25.801772 -32.794849 47.007746 -0.872790 2.342905 0.078355 -0.009440 -152630.000000 0 0 1
-22.877436 25.708872 33.654336 48.134577 -0.843609 0.796558 0.101047 -0.029443 -547979.000000 0 0 1
-22.939236 24.850572 32.543866 46.934664 -0.825371 0.804618 0.109168 -0.026178 -88995.900000 0 0 1
-23.032036 23.443572 32.924493 46.519866 -0.794253 0.784486 0.097066 -0.031945 -256603.000000 0 0 1
-23.312936 22.575272 31.728166 45.385156 -0.769324 0.796677 0.101758 -0.033708 73996.200000 0 0 1
-24.684736 22.527272 31.394755 45.852424 -0.739733 0.816616 0.111862 -0.039076 -74510.200000 0 0 1
-24.852136 22.103772 30.063966 44.833553 -0.726934 0.835822 0.119347 -0.034726 -288260.000000 0 0 1
-26.329636 22.053972 29.676756 45.390938 -0.697257 0.858196 0.108461 -0.032940 -201778.000000 0 0 1
-26.934436 20.884872 30.218846 45.550196 -0.659558 0.845418 0.114689 -0.041172 195417.000000 0 0 1
-28.273436 20.689872 29.787576 45.986494 -0.631737 0.866174 0.110690 -0.037265 163087.000000 0 0 1
-28.789036 19.286972 30.189836 45.958917 -0.590266 0.854113 0.131601 -0.039937 -684170.000000 0 0 1
-29.317336 19.323772 31.512614 47.180072 -0.582763 0.839383 0.128511 -0.035888 38870.100000 0 0 1
-29.640636 18.030872 32.062870 47.240949 -0.546512 0.824793 0.104704 -0.026476 240166.000000 0 0 1
-30.523536 17.058672 31.202306 46.864362 -0.509627 0.842230 0.077040 -0.022280 -79862.600000 0 0 1
-31.918736 17.241572 31.333075 47.935781 -0.495266 0.858403 0.073977 -0.025345 363140.000000 0 0 1
-32.638036 16.145272 30.669856 47.608311 -0.459380 0.870803 0.080343 -0.009171 584804.000000 0 0 1
-34.175836 16.319972 30.679906 48.739982 -0.445510 0.889937 0.078805 -0.013350 47963.300000 0 0 1
-34.757936 16.184172 31.986793 49.931918 -0.435772 0.875506 0.082645 -0.013661 217670.000000 0 0 1
-36.163436 16.172972 31.918476 50.873846 -0.420539 0.892581 0.095106 -0.012774 -186950.000000 0 0 1
-36.720436 17.044272 33.063785 52.269604 -0.434569 0.885939 0.085584 -0.010491 83188.100000 0 0 1
37.798845 16.979172 33.319886 53.171983 0.422187 0.893557 0.074104 -0.017570 217111.000000 0 0 1
37.448345 17.404772 -32.760759 52.712161 0.435066 2.241456 0.078634 -0.022244 -846419.000000 0 0 1
35.996345 17.722572 -32.515629 51.643901 0.457504 2.251850 0.072085 -0.027406 -955988.000000 0 0 1
35.212345 16.567172 -32.446919 50.667376 0.439765 2.265803 0.082725 -0.020983 -610841.000000 0 0 1
33.944145 16.845072 -31.945229 49.562678 0.460650 2.271220 0.092287 -0.027160 -382233.000000 0 0 1
32.933445 15.677672 -31.876579 48.440866 0.444297 2.289024 0.102876 -0.017859 147635.000000 0 0 1
32.530245 15.163172 -33.121729 48.838382 0.436183 2.316094 0.108265 -0.025276 304726.000000 0 0 1
31.629745 14.041472 -33.055999 47.857108 0.417797 2.333285 0.099969 -0.025448 474470.000000 0 0 1
32.346545 12.689772 -33.325509 48.144769 0.373857 2.335321 0.107382 -0.022128 416568.000000 0 0 1
33.230245 12.401072 -32.244249 47.934615 0.357180 2.308610 0.109607 -0.019107 38601.000000 0 0 1
33.948045 11.232472 -32.459349 48.293349 0.319534 2.307876 0.113908 -0.021024 -268693.000000 0 0 1
18.478045 -20.847128 9.715971 29.503237 -0.845569 1.235214 0.068068 -0.029372 106958.000000 0 0 1
18.690845 -21.914428 10.625071 30.699869 -0.864620 1.217391 0.059596 -0.028638 462347.000000 0 0 1
19.861745 -22.702528 10.395471 31.905478 -0.852040 1.238916 0.064965 -0.031608 80764.100000 0 0 1
19.705845 -24.009128 11.243671 33.032994 -0.883522 1.223479 0.068007 -0.026480 195016.000000 0 0 1
18.779245 -24.881228 10.634971 32.936882 -0.924259 1.242015 0.054148 -0.034207 139740.000000 0 0 1
17.429745 -24.754628 11.053371 32.229872 -0.957324 1.220736 0.056250 -0.025451 67679.100000 0 0 1
16.497445 -25.624598 10.175771 32.129924 -0.998783 1.248541 0.078062 -0.026377 -114323.000000 0 0 1
16.249245 -25.236658 8.843071 31.291002 -0.998739 1.284285 0.071596 -0.034379 -147279.000000 0 0 1
15.395745 -26.049268 8.087471 31.320928 -1.037003 1.309624 0.083740 -0.026576 -200685.000000 0 0 1
15.113345 -25.502948 6.643871 30.380168 -1.035827 1.350323 0.084195 -0.023374 -319353.000000 0 0 1
14.257945 -24.398628 6.735871 29.050887 -1.041945 1.336802 0.094982 -0.031860 -65486.500000 0 0 1
13.866445 -23.963728 5.433571 28.214575 -1.046229 1.377005 0.112855 -0.026350 222244.000000 0 0 1
13.134545 -22.599328 5.573471 26.726569 -1.044321 1.360718 0.148097 -0.040148 74023.400000 0 0 1
12.305045 -22.265728 4.473871 25.830066 -1.065925 1.396714 0.135431 -0.038929 412232.000000 0 0 1
11.487045 -21.130428 4.875671 24.540158 -1.072860 1.370784 0.148288 -0.041316 478579.000000 0 1 0
10.674145 -20.610528 3.664371 23.498061 -1.092933 1.414214 0.130615 -0.038229 228035.000000 0 1 0
11.470245 -19.885628 2.747071 23.120362 -1.047602 1.451699 0.122554 -0.038936 294130.000000 0 1 0
10.640845 -19.081728 1.934371 21.933575 -1.062102 1.482489 0.083424 -0.030006 463771.000000 0 1 0
11.431745 -18.584728 0.703371 21.830521 -1.019337 1.538571 0.077581 -0.019918 501304.000000 0 1 0
12.337045 -17.499128 0.835771 21.427102 -0.956716 1.531781 0.078106 -0.024700 22152.900000 0 1 0
13.118745 -17.333428 -0.323029 21.740597 -0.922928 1.585655 0.088697 -0.021643 -252005.000000 0 1 0
14.331045 -16.450728 0.000371 21.817546 -0.854151 1.570779 0.070927 -0.011262 -147764.000000 0 1 0
15.324745 -17.086628 0.775171 22.965225 -0.839705 1.537036 0.079295 -0.022487 -351807.000000 0 1 0
16.556745 -16.435528 0.681171 23.339160 -0.781724 1.541606 0.077154 -0.025515 37046.400000 0 1 0
17.783345 -17.146328 1.319171 24.738313 -0.767163 1.517446 0.068619 -0.017173 131543.000000 0 1 0
18.257945 -18.227328 0.532671 25.804492 -0.784559 1.550152 0.068861 -0.016951 241979.000000 0 0 1
19.431945 -18.736528 1.158971 27.018534 -0.767181 1.527888 0.055587 -0.012316 378331.000000 0 0 1
19.829245 -20.110228 0.578671 28.248099 -0.792433 1.550310 0.037378 -0.006546 -78164.200000 0 0 1
19.031645 -21.160228 1.066671 28.479757 -0.838309 1.533334 0.053093 -0.007440 5289.160000 0 0 1
19.141645 -22.316128 0.323371 29.402665 -0.861821 1.559798 0.052517 -0.007814 -257804.000000 0 0 1
18.148845 -23.368828 0.801371 29.599407 -0.910471 1.543719 0.060940 -0.011474 -174160.000000 0 0 1
18.454145 -23.994228 2.037371 30.338578 -0.915178 1.503591 0.045417 -0.003590 102034.000000 0 0 1
17.366645 -24.758328 2.549871 30.349251 -0.959100 1.486680 0.050381 -0.002622 -263597.000000 0 0 1
17.620745 -25.471498 3.842571 31.209826 -0.965607 1.447363 0.042744 -0.013425 177369.000000 0 0 1
18.541445 -26.554198 3.926671 32.624061 -0.961246 1.450143 0.022219 -0.003677 806528.000000 0 0 1
19.924945 -26.181378 3.896271 33.130785 -0.920270 1.452921 0.027120 0.002408 187714.000000 0 0 1
20.961945 -27.309508 3.842571 34.640695 -0.916145 1.459641 0.036793 -0.002101 -124315.000000 0 0 1
21.061745 -27.899668 2.548871 35.049755 -0.924160 1.498011 0.030291 0.006204 253444.000000 0 0 1
21.867945 -29.098608 2.478871 36.483980 -0.926328 1.502800 0.069768 0.005921 243040.000000 0 0 1
21.165645 -30.323368 3.040171 37.104364 -0.961415 1.488769 0.063408 0.004975 -282511.000000 0 0 1
21.207045 -30.398468 4.466071 37.332980 -0.961659 1.450881 0.092591 -0.002232 -252328.000000 0 0 1
20.547045 -31.557288 4.866071 37.970016 -0.993646 1.442287 0.073790 -0.014859 -612677.000000 0 0 1
20.556745 -31.966948 6.416871 38.544024 -0.999314 1.403536 0.088100 -0.025992 974531.000000 0 0 1
21.718645 -32.772398 6.833271 39.905178 -0.985537 1.398711 0.080125 -0.044865 1083820.000000 0 0 1
21.482045 33.770230 7.736271 40.764648 1.004238 1.379859 0.071873 -0.033142 -590109.000000 0 0 1
22.758445 33.091267 8.189071 40.988286 0.968341 1.369652 0.093784 -0.043755 28010.000000 0 0 1
23.657245 33.804100 9.015171 42.233348 0.960182 1.355680 0.090621 -0.040119 -64007.000000 0 0 1
24.869245 33.187906 9.327071 42.507772 0.927714 1.349576 0.130795 -0.045314 -416389.000000 0 0 1
25.802945 -33.605628 10.181771 43.575207 -0.915990 1.334956 0.123426 -0.035999 -427938.000000 0 0 1
26.343745 -32.567248 9.419471 42.934194 -0.890650 1.349604 0.089048 -0.023988 -278494.000000 0 0 1
27.292445 -31.862398 10.172871 43.169170 -0.862499 1.332908 0.085356 -0.018809 5303.930000 0 0 1
28.062745 -30.799758 9.380971 42.710015 -0.831863 1.349347 0.075628 -0.016801 -45279.400000 0 0 1
27.207745 -29.731658 9.048171 41.304991 -0.829695 1.349948 0.066650 -0.022721 156672.000000 0 0 1
27.742445 -28.961968 7.972171 40.890028 -0.806902 1.374573 0.072816 -0.024282 215239.000000 0 0 1
27.164045 -27.531378 7.909271 39.476812 -0.792114 1.369079 0.065919 -0.027553 11549.000000 0 0 1
27.590545 -26.744908 9.005871 39.466872 -0.769836 1.340580 0.054238 -0.033123 201336.000000 0 0 1
27.066545 -25.396348 8.941371 38.177486 -0.753573 1.334395 0.062289 -0.034861 -298196.000000 0 0 1
27.695045 -24.519628 10.028571 38.324926 -0.724658 1.306042 0.079086 -0.053905 355493.000000 0 0 1
29.041345 -24.261528 9.651871 39.053554 -0.695965 1.321064 0.103656 -0.042735 -199227.000000 0 0 1
29.780645 -23.588728 10.642571 39.453507 -0.669895 1.297663 0.076825 -0.049717 164962.000000 0 0 1
31.264945 -23.397428 10.245171 40.372019 -0.642451 1.314221 0.080084 -0.046217 238898.000000 0 0 1
31.441145 -22.579928 9.089571 39.762030 -0.622813 1.340158 0.092621 -0.040221 108617.000000 0 0 1
32.805145 -22.274728 8.792571 40.615888 -0.596493 1.352588 0.094518 -0.036663 797253.000000 0 0 1
33.030645 -21.532928 7.425371 40.122645 -0.577715 1.384656 0.082371 -0.010615 -13462.200000 0 0 1
32.444345 -20.241128 7.488571 38.966877 -0.557788 1.377415 0.080660 -0.005510 -41436.100000 0 0 1
32.787445 -19.530428 6.356771 38.689310 -0.537228 1.405745 0.068876 -0.006814 32825.100000 0 0 1
32.410445 -18.009828 6.429671 37.631523 -0.507193 1.399095 0.087371 -0.005138 80364.200000 0 0 1
33.031945 -17.414128 7.532571 38.093318 -0.485163 1.371745 0.087832 -0.013668 43729.100000 0 0 1
32.726445 -16.033228 7.477871 37.202193 -0.455548 1.368411 0.096469 -0.016043 -3804.440000 0 0 1
33.262445 -15.341428 8.713971 37.652131 -0.432148 1.337245 0.092302 -0.042290 39436.500000 0 0 1
34.666645 -15.439028 8.865071 38.970878 -0.418986 1.341308 0.095886 -0.042894 -164503.000000 0 0 1
35.149545 -14.615128 9.878971 39.327936 -0.394051 1.316882 0.085000 -0.051989 -440585.000000 0 0 1
36.670945 -14.503528 9.913471 40.661867 -0.376625 1.324511 0.086362 -0.056497 -550223.000000 0 0 1
37.135745 -13.768528 8.796771 40.571161 -0.355050 1.352237 0.137857 -0.046836 326209.000000 0 0 1
-37.360936 -13.872628 8.741971 40.800875 0.355535 1.354863 0.132071 -0.046417 837251.000000 0 0 1
-36.599336 -12.933828 7.772971 39.588059 0.339691 1.373166 0.161622 -0.061728 50240.100000 0 0 1
-37.130836 -13.002128 6.457771 39.867996 0.336827 1.408101 0.207083 -0.076435 813810.000000 0 0 1
-36.263736 -12.266228 5.523971 38.678588 0.326169 1.427489 0.245663 -0.061839 1339000.000000 0 0 1
-35.020136 -13.080628 4.998171 37.715971 0.357470 1.437884 0.253235 -0.052793 71415.500000 0 0 1
-34.050836 -13.338428 5.919771 37.046144 0.373349 1.410314 0.214834 -0.050088 -1483230.000000 0 0 1
-33.003436 -14.086628 5.446471 36.294958 0.403414 1.420166 0.212297 -0.028178 -411416.000000 0 0 1
-32.180536 -14.710828 6.622871 35.998025 0.428771 1.385764 0.150920 -0.013143 443741.000000 0 0 1
-32.900436 -15.715628 7.384671 37.201519 0.445626 1.370964 0.126203 -0.025231 129793.000000 0 0 1
-32.347236 -15.930028 8.639371 37.077597 0.457605 1.335627 0.106627 -0.026837 -141738.000000 0 0 1
-33.325136 -16.704228 9.537871 38.478136 0.464647 1.320307 0.060198 -0.016763 -538239.000000 0 0 1
-34.468736 -15.934128 9.879571 39.237688 0.433017 1.316269 0.065984 -0.019412 187532.000000 0 0 1
-35.406236 -16.552928 10.708971 40.525092 0.437323 1.303365 0.065239 -0.018040 223358.000000 0 0 1
-36.189036 -17.830328 10.163671 41.603692 0.457790 1.324001 0.071317 -0.024482 -419182.000000 0 0 1
-35.425936 -19.039528 10.074671 41.460820 0.493154 1.325347 0.092553 -0.021327 -134473.000000 0 0 1
-35.088436 -19.676928 11.319771 41.791352 0.511083 1.296506 0.093801 -0.030210 255570.000000 0 0 1
-36.246536 -20.416428 12.064571 43.315076 0.512971 1.288533 0.095023 -0.035939 485903.000000 0 0 1
-36.600336 -21.653828 11.389571 44.024939 0.534242 1.309113 0.114121 -0.034484 -170292.000000 0 0 1
-37.888236 -22.135528 11.693771 45.411940 0.528745 1.310358 0.113892 -0.040299 -49789.400000 0 0 1
37.796845 -23.639328 11.465571 46.031279 -0.558909 1.319064 0.117883 -0.042551 -363304.000000 0 0 1
-37.568636 -24.496928 12.507671 46.561183 0.577821 1.298827 0.111698 -0.038582 414838.000000 0 0 1
37.728245 -25.771898 12.585371 47.392012 -0.599289 1.302013 0.121289 -0.043171 -313414.000000 0 0 1
36.326145 -25.882978 13.189371 46.513190 -0.619077 1.283290 0.128768 -0.056278 -398469.000000 0 0 1
35.254645 -25.652238 12.277971 45.295429 -0.629028 1.296298 0.124720 -0.054379 1449800.000000 0 0 1
34.020245 -25.200438 12.930671 44.267837 -0.637554 1.274374 0.126830 -0.028612 1434270.000000 0 0 1
33.973445 -23.657728 13.189371 43.449310 -0.608278 1.262372 0.128993 -0.036832 -712586.000000 0 0 1
34.801045 -23.375028 14.267871 44.284047 -0.591463 1.242755 0.125828 -0.042726 -268545.000000 0 0 1
34.885545 -22.062228 14.655671 43.801048 -0.563915 1.229619 0.114083 -0.044045 287086.000000 0 0 1
36.128145 -21.868528 15.580771 45.013729 -0.544311 1.217349 0.084290 -0.032537 362886.000000 0 0 1
36.359145 -20.545928 16.065571 44.746231 -0.514349 1.203560 0.100136 -0.014926 201417.000000 0 0 1
35.562045 -20.282928 17.203671 44.407460 -0.518335 1.172981 0.108057 -0.029887 24563.400000 0 0 1
35.837445 -18.859028 17.737671 44.210976 -0.484417 1.157964 0.096941 -0.017721 -345279.000000 0 0 1
35.392845 -17.826628 16.843171 43.059663 -0.466586 1.168906 0.066351 -0.026312 208146.000000 0 0 1
35.427145 -16.506728 17.435571 42.796656 -0.436026 1.151186 0.060433 -0.024721 -15021.200000 0 0 1
36.800445 -15.836028 17.704671 43.800775 -0.406369 1.154682 0.041565 -0.025796 20200.200000 0 0 1
37.479845 -16.294928 18.871371 45.015465 -0.410113 1.138211 0.070523 -0.014743 20029.900000 0 0 1
-37.637436 -15.290628 19.371171 45.006913 0.385892 1.125856 0.070634 -0.020138 -522448.000000 0 0 1
-37.090936 -15.455128 20.836271 45.263105 0.394804 1.092422 0.065518 -0.016611 -65575.000000 0 0 1
-36.022736 -16.368328 20.997371 44.793407 0.426498 1.082910 0.071653 -0.013782 200892.000000 0 0 1
-35.600236 -16.232528 22.337971 45.053931 0.427805 1.052035 0.066849 -0.014428 -212549.000000 0 0 1
-34.559536 -17.283228 22.732171 44.831051 0.463728 1.039022 0.075345 -0.009066 -801694.000000 0 0 1
-35.099336 -18.596928 22.820971 45.810543 0.487231 1.049321 0.076534 -0.011160 891364.000000 0 0 1
-34.155136 -19.568928 23.308571 45.747194 0.520287 1.036183 0.058988 0.000477 678144.000000 0 0 1
-32.922436 -20.002628 22.447471 44.585658 0.545966 1.043188 0.046571 0.008056 681869.000000 0 0 1
-31.796036 -19.144328 22.595071 43.451472 0.541961 1.023937 0.057617 0.019706 -189609.000000 0 0 1
-30.685436 -19.598028 21.891671 42.484397 0.568373 1.029453 0.048251 0.019412 -269007.000000 0 0 1
-29.517236 -18.586128 21.986771 41.232627 0.561951 1.008374 0.061956 0.021048 102391.000000 0 0 1
-28.936636 -18.454828 23.288871 41.476272 0.567727 0.974601 0.047957 0.010095 630817.000000 0 0 1
-27.924436 -17.457328 23.406271 40.402796 0.558717 0.952898 0.056703 0.003808 110206.000000 0 0 1
-27.302636 -17.349828 24.831171 40.780357 0.566088 0.916123 0.056266 -0.013595 -820327.000000 0 0 1
-26.399636 -16.287728 24.765371 39.693255 0.552803 0.897049 0.066432 -0.024168 -183523.000000 0 0 1
-25.998036 -15.789228 26.037471 40.039324 0.545787 0.862820 0.070415 -0.033617 343890.000000 0 0 1
-24.951936 -16.632328 26.856971 40.255811 0.587939 0.840410 0.047292 -0.018299 -358957.000000 0 0 1
-25.468936 -17.891728 27.209971 41.342027 0.612397 0.852414 0.050588 -0.012909 -575415.000000 0 0 1
-24.500036 -18.681728 27.779771 41.484629 0.651465 0.837072 0.044459 -0.008749 -891291.000000 0 0 1
-25.039336 -19.984528 28.287371 42.737865 0.673597 0.847471 0.044606 -0.000297 654896.000000 0 0 1
-26.110536 -19.755428 29.261171 43.911880 0.647717 0.841478 0.042697 -0.004751 867377.000000 0 0 1
-26.571336 -21.047128 29.633671 45.024126 0.669905 0.852407 0.037061 -0.005170 -809535.000000 0 0 1
-27.745736 -20.923528 30.581671 46.291020 0.646131 0.849126 0.048622 -0.010556 -767149.000000 0 0 1
-27.347236 -20.237828 31.782371 46.557063 0.637091 0.819408 0.058280 -0.016933 1491630.000000 0 0 1
-28.447736 -20.328428 32.745071 47.903636 0.620450 0.818166 0.066941 -0.018677 1973740.000000 0 0 1
-29.720436 -19.404228 32.599371 48.192815 0.578405 0.827883 0.055325 -0.028975 757835.000000 0 0 1
-30.531636 -19.827628 31.486871 48.132512 0.575962 0.857711 0.063490 -0.031101 513898.000000 0 0 1
-31.835636 -19.277228 31.683171 48.876810 0.544471 0.865545 0.090434 -0.034249 516198.000000 0 0 1
-32.954936 -19.904328 30.821971 49.317380 0.543345 0.895701 0.083423 -0.015086 -136232.000000 0 0 1
-33.129336 -19.219928 29.574471 48.390163 0.525695 0.913262 0.075377 -0.034870 368443.000000 0 0 1
-34.355236 -19.632428 28.999171 49.057786 0.519165 0.938346 0.074602 -0.032124 116129.000000 0 0 1
-34.714636 -18.875928 27.681271 48.245823 0.498029 0.959713 0.062342 -0.026273 82814.800000 0 0 1
-35.952436 -19.262728 27.102771 48.971324 0.491863 0.984306 0.049219 -0.028114 505337.000000 0 0 1
-36.473336 -18.330828 26.186971 48.498257 0.465711 1.000410 0.073605 -0.022055 -238790.000000 0 0 1
-37.678736 -18.763028 25.354271 49.138350 0.462025 1.028648 0.061050 -0.028650 153637.000000 0 0 1
37.031245 -19.006228 26.059171 49.108352 -0.474190 1.011433 0.060557 -0.030400 37822.900000 0 0 1
36.028245 -19.521428 25.226471 48.119595 -0.496554 1.018968 0.090348 -0.027884 -38991.200000 0 0 1
34.876745 -20.182428 26.009471 47.960508 -0.524595 0.997612 0.091667 -0.032088 -132280.000000 0 0 1
33.970745 -19.289828 26.610871 47.267827 -0.516434 0.972808 0.093112 -0.038197 -215917.000000 0 0 1
32.822745 -19.969128 27.028571 46.974911 -0.546568 0.957724 0.089875 -0.040276 -412394.000000 0 0 1
-30.319945 -5.264828 33.025792 45.141117 0.171928 0.750112 0.068456 -0.016659 195759.000000 0 0 1
-31.587425 -5.183628 32.392798 45.540408 0.162654 0.779453 0.077965 -0.012864 533854.000000 0 0 1
-31.621445 -4.009928 31.647354 44.917150 0.126137 0.788977 0.079523 -0.015363 739621.000000 0 0 1
-32.568455 -4.202428 30.354766 44.718861 0.128325 0.824681 0.082333 -0.016953 610885.000000 0 0 1
-32.111155 -5.080528 29.357686 43.804244 0.156916 0.836316 0.062065 -0.013309 -75224.200000 0 0 1
-30.899435 -4.739128 28.718126 42.449561 0.152187 0.827765 0.071718 -0.018845 98005.700000 0 0 1
-30.466405 -5.675528 27.576016 41.483131 0.184177 0.843634 0.076575 -0.019879 -187355.000000 0 0 1
-31.306565 -5.507428 26.433506 41.342025 0.174137 0.877097 0.066299 -0.016152 -6360.960000 0 0 1
-31.013715 -6.383528 25.370586 40.574211 0.202994 0.895295 0.077771 -0.017992 -53279.700000 0 0 1
-31.772315 -6.109728 24.066546 40.323782 0.189978 0.931249 0.086467 -0.019123 -121311.000000 0 0 1
-31.178465 -5.032128 23.436566 39.328001 0.160018 0.932378 0.103920 -0.024944 5314.410000 0 0 1
-31.742345 -4.824128 22.147456 39.004596 0.150824 0.966945 0.099850 -0.024771 -7232.870000 0 0 1
-31.248335 -3.563328 21.440856 38.063973 0.113542 0.972440 0.108546 -0.030197 -349926.000000 0 0 1
-29.884355 -3.580428 21.150256 36.786240 0.119241 0.958253 0.126836 -0.027928 -654740.000000 0 0 1
-29.432805 -2.371628 20.583456 35.994351 0.080404 0.962034 0.132486 -0.031053 -497550.000000 0 0 1
-27.930965 -2.515428 20.375756 34.664645 0.089816 0.942464 0.137283 -0.033499 -628311.000000 0 0 1
-27.624865 -3.215228 19.147456 33.765307 0.115868 0.967846 0.152409 -0.029584 45785.700000 0 0 1
-26.400195 -2.783828 18.589556 32.408203 0.105059 0.959894 0.142070 -0.029265 -350018.000000 0 0 1
-26.192925 -3.505228 17.238456 31.551867 0.133033 0.992793 0.146970 -0.031130 -55143.300000 0 0 1
-27.061635 -3.060328 16.216856 31.696753 0.112609 1.033721 0.149178 -0.024150 257014.000000 0 0 1
-26.801475 -3.761828 15.044456 30.964594 0.139448 1.063450 0.156748 -0.023782 -216051.000000 0 0 1
-28.029925 -3.793628 14.123656 31.615597 0.134525 1.107689 0.178155 -0.022791 -100694.000000 0 0 1
-28.355135 -2.525728 13.564156 31.533781 0.088840 1.126141 0.176935 -0.027080 728128.000000 0 0 1
-29.657565 -2.702328 12.975856 32.484559 0.090867 1.159883 0.174506 -0.024289 768347.000000 0 0 1
-30.077365 -1.497928 12.150556 32.473492 0.049761 1.187296 0.183534 -0.021363 -62365.600000 0 0 1
-29.300195 -1.317028 10.964356 31.312188 0.044919 1.213052 0.213297 -0.029463 275402.000000 0 0 1
-29.681075 -0.205228 10.167656 31.374983 0.006914 1.240769 0.208586 -0.020855 320230.000000 0 0 1
-31.059185 -0.274028 9.433156 32.461246 0.008823 1.275945 0.209000 -0.019320 409614.000000 0 0 1
-31.179625 -0.996928 8.291456 32.278648 0.031963 1.311013 0.222820 -0.034621 -452188.000000 0 0 1
-32.505775 -1.097828 7.849956 33.458220 0.033761 1.333969 0.210327 -0.045489 -269255.000000 0 0 1
-32.709235 -2.016628 6.613056 33.431921 0.061575 1.371676 0.251960 -0.057146 -117205.000000 0 0 1
-32.169075 -1.579728 5.386956 32.655233 0.049068 1.405074 0.271621 -0.067965 220716.000000 0 0 1
-32.937825 -0.561228 4.841656 33.296500 0.017037 1.424869 0.239536 -0.056882 -285454.000000 0 0 1
-32.436945 -0.261828 3.435756 32.619448 0.008072 1.465272 0.248689 -0.048900 -140257.000000 0 0 1
-32.853585 -1.213628 2.470656 32.968699 0.036924 1.495787 0.232427 -0.065829 173938.000000 0 0 1
-32.262405 -1.113828 1.218256 32.304606 0.034510 1.533076 0.229772 -0.065304 -224175.000000 0 0 1
-33.009315 -2.068328 0.234956 33.074886 0.062577 1.563693 0.204555 -0.059818 366435.000000 0 0 1
-34.342585 -1.597228 0.087356 34.379819 0.046475 1.568255 0.223210 -0.053417 282167.000000 0 0 1
-34.944860 -2.297528 -1.007944 35.034809 0.065653 1.599570 0.240121 -0.063381 381657.000000 0 0 1
-36.460425 -2.001528 -1.189944 36.534705 0.054841 1.603372 0.227731 -0.048793 614153.000000 0 0 1
-37.368035 -2.592328 -0.253244 37.458702 0.069262 1.577557 0.232298 -0.052336 -219230.000000 0 0 1
37.218046 -2.366428 -0.615344 37.298278 -0.063497 1.587295 0.180806 -0.039147 107538.000000 0 0 1
36.223046 -3.310228 0.164856 36.374357 -0.091131 1.566264 0.199006 -0.044565 229029.000000 0 0 1
36.138446 -3.123428 1.597556 36.308336 -0.086215 1.526782 0.198162 -0.048789 194224.000000 0 0 1
35.302496 -4.149728 2.091756 35.607048 -0.117011 1.512017 0.194776 -0.050549 -289491.000000 0 0 1
35.370096 -4.334928 3.634556 35.819621 -0.121951 1.469153 0.173802 -0.047335 11121.900000 0 0 1
34.984526 -3.239528 4.456056 35.415646 -0.092336 1.444640 0.159401 -0.047714 186730.000000 0 0 1
35.080836 -3.628828 5.848256 35.749623 -0.103075 1.406468 0.139422 -0.050567 -103248.000000 0 0 1
34.482616 -2.582028 6.777456 35.237076 -0.074740 1.377251 0.132078 -0.041054 -286165.000000 0 0 1
33.080066 -2.513028 6.820656 33.869269 -0.075822 1.368028 0.158894 -0.043814 -239845.000000 0 0 1
32.640596 -1.528728 7.712456 33.574208 -0.046801 1.339013 0.159467 -0.038876 -500871.000000 0 0 1
31.125946 -1.409928 7.827856 32.126122 -0.045267 1.324658 0.161414 -0.040323 -953305.000000 0 0 1
30.434326 -0.914728 6.680156 31.172253 -0.030047 1.354823 0.211034 -0.042435 1266370.000000 0 0 1
29.012226 -0.806828 6.935356 29.840566 -0.027803 1.336238 0.192820 -0.033917 1398110.000000 0 0 1
28.201526 -2.128228 6.770256 29.080780 -0.075322 1.335832 0.260256 -0.051720 -644693.000000 0 0 1
28.428326 -3.091828 7.811156 29.643604 -0.108333 1.304145 0.202124 -0.053407 276886.000000 0 0 1
27.977426 -4.407928 7.578656 29.318973 -0.156268 1.309338 0.238966 -0.064806 -281143.000000 0 0 1
28.161026 -5.218928 8.817256 29.967058 -0.183246 1.272145 0.193156 -0.042430 553917.000000 0 0 1
27.029526 -5.207928 9.716056 29.191086 -0.190343 1.231479 0.195948 -0.035699 1176220.000000 0 0 1
27.285426 -6.113128 10.788856 29.971056 -0.220404 1.202554 0.169568 -0.031973 -101895.000000 0 0 1
26.045726 -6.110128 11.694456 29.197154 -0.230426 1.158697 0.151899 -0.030501 344098.000000 0 0 1
25.103426 -7.139428 11.347156 28.458942 -0.277085 1.160675 0.192667 -0.044484 294955.000000 0 0 1
23.890226 -6.931128 12.047356 27.639143 -0.282372 1.119780 0.192599 -0.049341 17363.100000 0 0 1
23.070926 -8.218628 12.060756 27.299731 -0.342217 1.113203 0.188375 -0.046534 -208680.000000 0 0 1
23.518126 -9.137328 13.005356 28.385424 -0.370573 1.094861 0.172068 -0.049641 33605.500000 0 0 1
22.639526 -10.222628 13.029556 28.050304 -0.424133 1.087719 0.218906 -0.067356 -224952.000000 0 0 1
23.068226 -11.291328 14.065256 29.282564 -0.455193 1.069767 0.160252 -0.062021 -186037.000000 0 0 1
22.996226 -10.827828 15.365556 29.701323 -0.440059 1.027062 0.135308 -0.051189 278040.000000 0 0 1
23.280026 -11.881628 16.282056 30.793474 -0.471916 1.013669 0.129908 -0.050804 17481.100000 0 0 1
22.916626 -11.525628 17.793256 31.218773 -0.465995 0.964347 0.124126 -0.035637 1104750.000000 0 0 1
21.509426 -11.697628 18.089156 30.441870 -0.498099 0.934501 0.100429 -0.032884 1002190.000000 0 0 1
21.136526 -11.911628 19.425256 31.080222 -0.513192 0.895660 0.100129 -0.025369 70003.000000 0 0 1
21.325626 -10.790028 20.505256 31.490833 -0.468409 0.861698 0.090984 -0.026476 -182278.000000 0 0 1
20.464926 -9.658128 20.376456 30.451479 -0.440945 0.837739 0.080848 -0.019428 76410.000000 0 0 1
20.904326 -8.622728 19.512256 29.867548 -0.391223 0.858871 0.103386 -0.014510 -870140.000000 0 0 1
21.919326 -7.659828 20.182356 30.764546 -0.336190 0.855255 0.097836 -0.006389 655111.000000 0 0 1
23.226426 -8.151328 20.449156 32.001234 -0.337521 0.877584 0.112637 -0.014384 222624.000000 0 0 1
24.046326 -8.266228 19.315056 31.931610 -0.331107 0.921171 0.132078 -0.012946 -425333.000000 0 0 1
25.517226 -8.622128 19.702856 33.371731 -0.325850 0.939235 0.167033 -0.015450 491803.000000 0 0 1
25.567526 -9.958628 20.056256 33.987145 -0.371425 0.939598 0.133493 -0.028469 254108.000000 0 0 1
26.625626 -10.568428 19.324256 34.554920 -0.377854 0.977336 0.125525 -0.030545 238295.000000 0 0 1
26.873126 -12.054728 19.625656 35.392764 -0.421672 0.983022 0.103008 -0.029494 430884.000000 0 0 1
25.833726 -12.876028 19.079156 34.600400 -0.462382 0.986738 0.118916 -0.036753 542928.000000 0 0 1
26.177226 -14.265928 19.092156 35.401614 -0.498977 1.001188 0.099920 -0.030113 451580.000000 0 0 1
25.077126 -15.104528 18.368556 34.560279 -0.542126 1.010434 0.120593 -0.027344 59893.800000 0 0 1
24.964226 -14.853128 16.990456 33.652691 -0.536718 1.041557 0.144532 -0.044120 519067.000000 0 0 1
23.847326 -15.432428 16.311356 32.755383 -0.574358 1.049534 0.141859 -0.045708 345388.000000 0 0 1
23.786126 -17.018928 16.385156 33.524574 -0.621052 1.060139 0.101799 -0.037211 -626323.000000 0 0 1
24.956526 -17.545128 15.839556 34.373700 -0.612755 1.091895 0.162425 -0.049244 -212327.000000 0 0 1
24.925726 -18.961228 16.095656 35.212074 -0.650320 1.096058 0.127361 -0.033380 -289697.000000 0 0 1
26.185926 -19.723228 15.669256 36.335025 -0.645546 1.124925 0.125814 -0.028786 -297471.000000 0 0 1
26.277726 -19.951828 14.288056 35.954734 -0.649406 1.162125 0.127862 -0.041390 30763.200000 0 0 1
27.393626 -20.759828 13.974056 37.103308 -0.648496 1.184645 0.120102 -0.043920 46436.500000 0 0 1
27.903226 -20.680828 12.525356 36.921149 -0.637821 1.224681 0.101930 -0.060558 -347299.000000 0 0 1
26.934726 -21.088528 11.613056 36.125732 -0.664257 1.243523 0.106681 -0.054134 -138376.000000 0 0 1
27.384126 -20.885428 10.334656 35.956871 -0.651569 1.279266 0.121706 -0.045080 -63805.500000 0 0 1
26.194626 -20.941128 9.344256 34.813853 -0.674402 1.299058 0.077013 -0.046055 194847.000000 0 0 1
25.642226 -22.221328 9.138456 35.140042 -0.714048 1.307714 0.052679 -0.044948 783646.000000 0 0 1
24.224526 -22.236828 9.412856 34.203889 -0.742643 1.292000 0.035912 -0.033201 1046230.000000 0 0 1
23.412826 -23.092528 8.441856 33.951292 -0.778511 1.319514 0.031916 -0.031574 -519966.000000 0 0 1
23.776226 -24.428228 8.623856 35.162738 -0.798923 1.323013 0.027356 -0.026441 -85370.900000 0 0 1
23.260526 -25.390828 7.726656 35.290897 -0.829157 1.350066 0.034213 -0.013859 853255.000000 0 0 1
21.725326 -25.742818 7.738656 34.562541 -0.869832 1.344979 0.042410 -0.006102 704649.000000 0 0 1
20.900426 -24.665328 7.417256 33.169593 -0.867837 1.345273 0.044533 -0.017983 -936063.000000 0 0 1
19.583526 -25.144068 7.269356 32.689175 -0.909084 1.346543 0.041900 -0.038022 -446704.000000 0 0 1
18.562126 -24.022928 7.270356 31.217170 -0.912935 1.335742 0.048807 -0.032312 -854920.000000 0 0 1
18.349226 -23.406828 6.001756 30.341305 -0.905934 1.371675 0.052230 -0.029419 76734.800000 0 0 1
17.624626 -22.199328 6.068056 28.987220 -0.899770 1.359901 0.081673 -0.025251 -94621.500000 0 0 1
17.321326 -21.544128 4.733256 28.046060 -0.893625 1.401218 0.093376 -0.018338 132159.000000 0 0 1
16.451526 -20.411628 4.864056 26.663577 -0.892415 1.387346 0.139364 -0.029135 410320.000000 0 0 1
16.026726 -19.976128 3.578956 25.859439 -0.894658 1.431950 0.148285 -0.028477 460731.000000 0 0 1
15.135826 -18.684028 3.602656 24.313890 -0.889931 1.422076 0.159442 -0.029863 327144.000000 0 1 0
15.913526 -17.539028 3.886956 23.999297 -0.833951 1.408119 0.122281 -0.027687 -92833.300000 0 1 0
15.160126 -16.416928 4.213656 22.739829 -0.825178 1.384421 0.094762 -0.020402 -566400.000000 0 1 0
16.017226 -15.263728 4.656556 22.610096 -0.761315 1.363362 0.080683 -0.022686 -1515780.000000 0 1 0
16.638926 -15.403728 5.930156 23.437053 -0.746869 1.314991 0.114907 -0.029358 -54837.000000 0 1 0
17.612626 -14.395328 6.036356 23.534393 -0.685219 1.311407 0.103965 -0.029040 -460008.000000 0 1 0
18.962026 -14.732928 5.411356 24.615044 -0.660540 1.349147 0.121522 -0.045395 -1616470.000000 0 1 0
19.818126 -13.641728 5.427356 24.663963 -0.602862 1.348928 0.142713 -0.041520 -116553.000000 0 1 0
21.157026 -13.973428 5.130256 25.868822 -0.583695 1.371155 0.155952 -0.031279 316767.000000 0 0 1
22.112526 -12.744328 5.058756 26.018699 -0.522841 1.375122 0.154380 -0.029508 113632.000000 0 0 1
22.188626 -11.965328 6.221656 25.965616 -0.494556 1.328831 0.180995 -0.044130 150514.000000 0 0 1
23.119926 -10.918028 6.182756 26.305147 -0.441190 1.333537 0.182541 -0.046898 -360099.000000 0 0 1
23.525926 -10.335928 7.583156 26.791880 -0.413956 1.283835 0.214121 -0.046239 100424.000000 0 0 1
24.497126 -11.086928 8.314956 28.145473 -0.424998 1.270893 0.226577 -0.033966 688476.000000 0 0 1
24.758126 -10.644228 9.605556 28.609982 -0.406038 1.228404 0.249099 -0.054258 -22360.700000 0 0 1
25.226026 -11.739628 10.592656 29.772061 -0.435568 1.207035 0.219476 -0.050529 -758805.000000 0 0 1
24.211426 -12.621528 10.884456 29.393324 -0.480546 1.191460 0.226012 -0.058484 -522387.000000 0 0 1
24.581526 -13.731828 11.646756 30.470665 -0.509440 1.178590 0.225715 -0.064890 -761335.000000 0 0 1
23.493326 -14.750028 11.933056 30.197641 -0.560638 1.164549 0.196491 -0.068174 -37206.700000 0 0 1
22.488726 -14.184528 12.813056 29.514709 -0.562716 1.121730 0.170376 -0.062567 778098.000000 0 0 1
21.360926 -15.077428 12.820956 29.120352 -0.614636 1.114892 0.131080 -0.056561 971150.000000 0 0 1
20.066526 -14.414628 13.413056 28.113289 -0.622930 1.073436 0.113057 -0.057339 -270750.000000 0 0 1
20.191326 -13.989628 14.727456 28.640833 -0.605913 1.030708 0.110531 -0.061707 96156.200000 0 0 1
19.435426 -12.823628 14.952956 27.672588 -0.583239 0.999940 0.135856 -0.072419 -242242.000000 0 0 1
17.907526 -12.813728 14.959856 26.620826 -0.621086 0.974042 0.157667 -0.067906 -1109620.000000 0 0 1
17.347326 -12.832828 13.639656 25.527464 -0.636914 1.007102 0.169703 -0.086834 -499808.000000 0 0 1
15.954526 -12.820128 13.711856 24.635697 -0.676897 0.980527 0.204898 -0.078787 -645932.000000 0 1 0
15.328526 -11.415628 13.618756 23.468080 -0.640120 0.951687 0.171130 -0.079391 -1056970.000000 0 1 0
15.687426 -10.647928 14.686656 23.982735 -0.596325 0.911723 0.152863 -0.058695 -62413.100000 0 1 0
15.253426 -9.340128 14.548656 23.055767 -0.549436 0.887929 0.141608 -0.047945 -307452.000000 0 1 0
16.005126 -8.353228 15.522156 23.809196 -0.481021 0.860657 0.161559 -0.042189 1145260.000000 0 1 0
17.434326 -8.256928 15.470556 24.727933 -0.442307 0.894856 0.155864 -0.047648 599112.000000 0 1 0
18.159126 -9.243728 16.133856 25.990415 -0.470854 0.901082 0.151473 -0.039463 -1146000.000000 0 0 1
19.615526 -9.153728 15.715356 26.749430 -0.436619 0.942827 0.114408 -0.033425 -966822.000000 0 0 1
20.202826 -8.062328 16.330656 27.200103 -0.379704 0.926808 0.106303 -0.028470 419622.000000 0 0 1
21.521926 -7.891228 15.780956 27.829900 -0.351439 0.967876 0.105608 -0.015468 677196.000000 0 0 1
22.168626 -6.496128 15.788856 27.980987 -0.285052 0.971246 0.089283 0.002519 236946.000000 0 0 1
22.960626 -6.257228 16.982456 29.236057 -0.266059 0.950995 0.126294 -0.007224 737912.000000 0 0 1
23.463626 -4.912728 16.902556 29.332116 -0.206395 0.956667 0.129723 -0.010527 -159054.000000 0 0 1
-5.386255 -32.602607 -6.045429 33.592989 1.407066 1.751743 0.093377 -0.039287 187761.000000 0 0 1
-6.141355 -31.422107 -6.306229 32.631787 1.377782 1.765274 0.080949 -0.036413 198309.000000 0 0 1
-5.687455 -30.390107 -5.465029 31.397010 1.385788 1.745750 0.102453 -0.045527 -518839.000000 0 0 1
-6.444455 -29.065407 -5.754029 30.322231 1.352604 1.761717 0.099026 -0.044760 187615.000000 0 0 1
-7.808855 -28.987207 -5.464129 30.513818 1.307653 1.750838 0.083762 -0.042939 179601.000000 0 0 1
-8.731855 -29.788107 -6.201929 31.655023 1.285652 1.767994 0.082199 -0.037185 107994.000000 0 0 1
-10.238555 -29.516107 -5.973529 31.807414 1.236903 1.759721 0.104736 -0.030904 858867.000000 0 0 1
-11.209855 -30.280807 -6.690829 32.975071 1.216243 1.775121 0.081140 -0.035836 1225900.000000 0 0 1
-12.550855 -30.007307 -6.214029 33.114598 1.174648 1.759568 0.083177 -0.033402 1119970.000000 0 0 1
-13.652255 -30.624607 -7.088629 34.270968 1.151446 1.779141 0.092670 -0.041777 -71220.500000 0 0 1
-13.837155 -29.928107 -8.287129 33.997572 1.137723 1.817034 0.126799 -0.055903 -19381.100000 0 0 1
-14.971355 -30.406807 -8.972829 35.060334 1.113272 1.829601 0.129327 -0.050738 -20347.300000 0 0 1
-15.307955 -29.630907 -10.287229 34.902023 1.093940 1.869986 0.152602 -0.040549 -558456.000000 0 0 1
-15.853255 -28.317907 -10.183529 34.013730 1.060436 1.874854 0.152003 -0.046730 179339.000000 0 0 1
-15.046555 -27.376907 -9.510429 32.654894 1.068254 1.866320 0.141240 -0.047468 -385122.000000 0 0 1
-15.824155 -26.108107 -9.210129 31.888299 1.025903 1.863795 0.140239 -0.033643 -169820.000000 0 0 1
-16.139355 -25.360607 -10.370329 31.799102 1.004045 1.902993 0.153774 -0.043661 172043.000000 0 0 1
-16.408455 -24.027707 -10.031129 30.776479 0.971641 1.902797 0.110907 -0.022704 -457931.000000 0 0 1
-16.982655 -23.087807 -11.087929 30.731085 0.936596 1.939927 0.143375 -0.035012 -536109.000000 0 0 1
-18.346755 -23.395507 -11.229229 31.781264 0.905764 1.931923 0.133704 -0.038735 -651777.000000 0 0 1
-18.874655 -22.686607 -12.317029 31.978804 0.876861 1.966180 0.150222 -0.039122 285337.000000 0 0 1
-20.320355 -23.229007 -12.576629 33.326794 0.852089 1.957754 0.119353 -0.034915 339391.000000 0 0 1
-20.539955 -24.556507 -13.029429 34.564111 0.874230 1.957313 0.142348 -0.034450 -24048.800000 0 0 1
-20.448655 -25.513307 -11.979629 34.822232 0.895148 1.921994 0.139521 -0.038052 -1007710.000000 0 0 1
-20.539355 -27.025207 -12.369829 36.128100 0.920921 1.920254 0.132142 -0.038368 134354.000000 0 0 1
-19.520855 -27.714507 -13.071529 36.332114 0.957153 1.938827 0.131713 -0.041080 389570.000000 0 0 1
-18.162355 -27.467907 -12.743629 35.309448 0.986573 1.940043 0.162161 -0.051094 38579.100000 0 0 1
-17.119655 -28.432007 -13.331129 35.765634 1.028815 1.952752 0.135488 -0.049967 -382661.000000 0 0 1
-17.079555 -28.431807 -14.748829 36.298854 1.029848 1.989216 0.132159 -0.052971 -224527.000000 0 0 1
-16.271355 -29.437507 -15.323229 36.961130 1.065850 1.998274 0.171917 -0.056937 -20678.200000 0 0 1
-16.874255 -30.892607 -15.284229 38.375790 1.070857 1.980435 0.154037 -0.060294 8230.570000 0 0 1
-16.987555 -31.392307 -13.963729 38.328053 1.074783 1.943700 0.147719 -0.056546 243697.000000 0 0 1
-17.604855 -32.667807 -13.905129 39.629145 1.076511 1.929308 0.131833 -0.057728 -1138540.000000 0 0 1
-18.114455 -33.087807 -12.544929 39.753134 1.069901 1.891854 0.169206 -0.054612 930502.000000 0 0 1
-19.480555 -32.753207 -12.181929 40.008299 1.034233 1.880194 0.190352 -0.055694 1319150.000000 0 0 1
-19.833655 -31.374807 -12.154829 39.057550 1.007070 1.887255 0.183970 -0.057470 -689668.000000 0 0 1
-19.077455 -30.463307 -11.173429 37.640508 1.011303 1.872184 0.176346 -0.052848 -556171.000000 0 0 1
-19.115755 -30.741507 -9.794129 37.501697 1.014485 1.835025 0.181450 -0.054163 56481.800000 0 0 1
-18.634055 -29.694407 -8.987129 36.190528 1.010382 1.821750 0.157457 -0.042846 -574899.000000 0 0 1
-18.891755 -29.850307 -7.480729 36.109563 1.006548 1.779475 0.196673 -0.048037 16460.000000 0 0 1
-18.102155 -30.873307 -6.910629 36.450046 1.040484 1.761543 0.171167 -0.048194 127049.000000 0 0 1
-18.305855 -31.007607 -5.522029 36.428956 1.037490 1.722966 0.199012 -0.053578 -309752.000000 0 0 1
-17.489355 -32.185707 -4.970929 36.966301 1.073043 1.705677 0.175467 -0.039902 -280908.000000 0 0 1
-16.140855 -32.070607 -4.658229 36.204283 1.104519 1.699819 0.169610 -0.033925 -608295.000000 0 0 1
-16.094655 -31.622807 -3.323729 35.638280 1.100009 1.664195 0.147708 -0.037442 -550193.000000 0 0 1
-14.861055 -30.804207 -2.953329 34.328884 1.121298 1.656933 0.135042 -0.039675 -1063440.000000 0 0 1
-13.646255 -31.436507 -3.173429 34.417218 1.161252 1.663132 0.084564 -0.039224 -1445860.000000 0 0 1
-12.677655 -30.783907 -2.444629 33.381852 1.180136 1.644094 0.087139 -0.025302 -117939.000000 0 0 1
-11.295455 -31.496107 -2.617329 33.562516 1.226454 1.648859 0.080105 -0.033033 -54808.800000 0 0 1
-11.318455 -32.664907 -1.826029 34.618462 1.237241 1.623568 0.088188 -0.024201 -109263.000000 0 0 1
-10.061155 -33.259807 -1.632729 34.786598 1.277046 1.617749 0.110653 -0.028204 759199.000000 0 0 1
-8.998655 -32.541107 -0.676429 33.769172 1.301006 1.590829 0.135248 -0.032208 341072.000000 0 0 1
-9.516055 -32.314007 0.636471 33.692068 1.284405 1.551904 0.137733 -0.033933 -136358.000000 0 0 1
-8.541555 -31.697607 1.455471 32.860536 1.307579 1.526489 0.139616 -0.035136 681719.000000 0 0 1
-7.478155 -32.640307 2.076271 33.550310 1.345575 1.508871 0.165474 -0.047275 -43003.700000 0 0 1
-8.176155 -33.650407 2.797671 34.742285 1.332442 1.490183 0.164373 -0.056687 -295198.000000 0 0 1
-7.333355 33.021172 3.316871 33.987902 -1.352263 1.473051 0.171248 -0.052664 -312159.000000 0 0 1
-6.573255 33.488772 4.586571 34.434607 -1.376978 1.437203 0.182030 -0.052364 157005.000000 0 0 1
-5.521055 -33.257707 4.261871 33.981181 1.406288 1.445047 0.204582 -0.051781 -516598.000000 0 0 1
-4.732555 -33.078407 5.394071 33.847807 1.428690 1.410751 0.214242 -0.058400 -371894.000000 0 0 1
-3.407555 -32.316507 5.214771 32.911424 1.465741 1.411677 0.220465 -0.054042 -157120.000000 0 0 1
-3.496955 -31.032907 4.683871 31.578610 1.458584 1.421923 0.220129 -0.048956 -71986.200000 0 0 1
-3.765555 -30.953707 3.328871 31.359093 1.449740 1.464443 0.221409 -0.060826 -210253.000000 0 0 1
-3.691655 -29.531607 2.710071 29.884588 1.446435 1.479987 0.202033 -0.057887 507051.000000 0 0 1
-2.347555 -29.066407 2.587171 29.275595 1.490206 1.482308 0.178019 -0.047270 60413.200000 0 0 1
-2.201055 -27.831107 1.854271 27.979518 1.491874 1.504475 0.164583 -0.046194 109850.000000 0 0 1
-2.678255 -26.550707 2.533471 26.805439 1.470263 1.476142 0.171439 -0.048783 -736556.000000 0 0 1
-2.855555 -25.459507 1.651771 25.672339 1.459102 1.506411 0.164453 -0.049416 -222581.000000 0 0 1
-3.311355 -24.248407 2.194971 24.571695 1.435076 1.481348 0.140168 -0.042392 -148932.000000 0 1 0
-4.675155 -24.283607 2.893871 24.898295 1.380600 1.454305 0.126981 -0.033033 -764082.000000 0 1 0
-4.598855 -24.927907 4.165971 25.688622 1.388361 1.407905 0.166783 -0.035691 -163092.000000 0 0 1
-5.782255 -24.673607 4.893871 25.810295 1.340601 1.380032 0.135014 -0.034201 15449.300000 0 0 1
-6.129855 -25.844607 5.835371 27.195043 1.337918 1.354540 0.148123 -0.040313 2859.110000 0 0 1
-5.187755 -26.048707 6.889871 27.439356 1.374212 1.316986 0.152221 -0.036462 -82823.100000 0 0 1
-5.652055 -26.952507 7.811271 28.625151 1.364087 1.294410 0.149763 -0.039338 27983.000000 0 0 1
-4.734655 -27.270907 9.019071 29.111217 1.398894 1.255799 0.145571 -0.043180 -183286.000000 0 0 1
-4.550655 -26.307007 10.039271 28.522868 1.399509 1.211118 0.134508 -0.045631 -524926.000000 0 0 1
-5.648055 -25.789607 10.762371 28.510225 1.355195 1.183710 0.134985 -0.045381 -119958.000000 0 0 1
-5.288955 -24.688907 11.803371 27.871755 1.359762 1.133503 0.114818 -0.043731 81482.500000 0 0 1
-4.548955 -25.092607 12.926871 28.590836 1.391457 1.101641 0.105554 -0.049247 77212.700000 0 0 1
-3.775355 -24.009407 13.496171 27.800207 1.414829 1.063895 0.094348 -0.049658 870389.000000 0 0 1
-2.717355 -24.382407 14.570871 28.534121 1.459807 1.034859 0.085790 -0.048985 442444.000000 0 0 1
-3.386955 -24.996807 15.690071 29.706735 1.436121 1.014358 0.084295 -0.054003 177159.000000 0 0 1
-2.477255 -25.659807 16.544571 30.631443 1.474552 1.000220 0.103923 -0.047329 123577.000000 0 0 1
-2.972955 -25.906707 17.987871 31.679006 1.456540 0.966945 0.117472 -0.043155 84539.800000 0 0 1
-2.788855 -24.763307 18.765071 31.194983 1.458648 0.925367 0.126333 -0.040192 -225526.000000 0 0 1
-3.514455 -24.934807 19.963871 32.134905 1.430773 0.900457 0.165729 -0.044676 -84887.500000 0 0 1
-2.972955 -24.123307 21.175071 32.235943 1.448175 0.854126 0.151808 -0.045112 -548415.000000 0 0 1
-1.732555 -24.621207 21.621671 32.813141 1.500544 0.851397 0.109701 -0.064198 -13393.100000 0 0 1
-1.003455 -23.764707 22.491471 32.735828 1.528597 0.813362 0.119067 -0.056877 321079.000000 0 0 1
-0.420455 -22.449107 21.887771 31.356238 1.552069 0.798146 0.121314 -0.062282 -608431.000000 0 0 1
-1.312255 -21.365507 21.650271 30.445708 1.509454 0.779720 0.159031 -0.055550 -77342.700000 0 0 1
-0.663355 -20.249407 21.013471 29.189801 1.538049 0.767151 0.170623 -0.045293 -63706.700000 0 0 1
-1.669955 -19.278207 20.325071 28.063259 1.484388 0.760837 0.155321 -0.021926 485678.000000 0 0 1
-2.583955 -18.517307 21.140071 28.221801 1.432149 0.724141 0.162560 -0.047486 627254.000000 0 0 1
-3.756855 -19.203407 21.544271 29.103958 1.377602 0.737351 0.190062 -0.060107 310130.000000 0 0 1
-5.044855 -18.960607 20.679771 28.506281 1.310751 0.759114 0.174396 -0.061673 373744.000000 0 0 1
-5.104355 -19.632707 19.396971 28.066708 1.316435 0.807783 0.170364 -0.069211 -110817.000000 0 0 1
-5.614355 -20.976107 19.600771 29.252491 1.309272 0.836514 0.180691 -0.063726 165175.000000 0 0 1
-5.644155 -21.808407 18.290971 29.017627 1.317547 0.888805 0.144465 -0.065439 113128.000000 0 0 1
-6.248955 -23.060007 18.534871 30.238300 1.306165 0.910995 0.147375 -0.067392 -157057.000000 0 0 1
-6.279655 -23.783807 17.300871 30.073637 1.312657 0.957845 0.127267 -0.060091 135261.000000 0 0 1
-7.046955 -25.134707 17.288271 31.309701 1.297447 0.985832 0.107738 -0.053086 338336.000000 0 0 1
-8.449455 -25.003507 17.396471 31.610217 1.244914 0.988021 0.127726 -0.054760 -506765.000000 0 0 1
-9.011355 -26.287907 17.327971 32.749307 1.240555 1.013245 0.125711 -0.050760 1330310.000000 0 0 1
-10.581655 -26.330707 17.543471 33.362417 1.188675 1.017088 0.122101 -0.052897 230853.000000 0 0 1
-11.296055 -25.701907 16.537271 32.583281 1.156706 1.038471 0.132069 -0.055604 -519517.000000 0 0 1
-12.696855 -25.835907 16.603171 33.232055 1.114018 1.047644 0.136891 -0.054397 170312.000000 0 0 1
-13.311955 -24.960207 17.709771 33.374482 1.080844 1.011443 0.126020 -0.052499 -1225690.000000 0 0 1
-13.294055 -23.578307 17.364171 32.158714 1.057400 1.000416 0.125121 -0.044925 -207454.000000 0 0 1
-13.514255 -22.698307 18.508471 32.255414 1.033776 0.959646 0.122000 -0.041090 -209535.000000 0 0 1
-12.236755 -22.150807 19.191471 31.760179 1.066090 0.921957 0.132981 -0.046653 202734.000000 0 0 1
-11.516355 -23.199607 19.873471 32.646639 1.110030 0.916319 0.143281 -0.049845 636714.000000 0 0 1
-10.122455 -22.888807 19.716871 31.860894 1.154410 0.903528 0.168702 -0.060579 841696.000000 0 0 1
-9.225955 -23.790207 20.607371 32.798718 1.200847 0.891433 0.167521 -0.062166 121292.000000 0 0 1
-9.179455 -23.376307 21.962471 33.362617 1.196614 0.852244 0.176626 -0.058801 -314381.000000 0 0 1
-8.118855 -23.962707 22.627171 33.942834 1.244123 0.841123 0.174170 -0.057447 -605582.000000 0 0 1
-8.127155 -23.578507 24.160071 34.723272 1.238864 0.801279 0.191752 -0.053714 -520684.000000 0 0 1
-7.141755 -24.061107 24.996471 35.422663 1.282262 0.787438 0.210908 -0.051339 -631100.000000 0 0 1
-6.951555 -23.316007 26.207471 35.760199 1.281042 0.748270 0.222044 -0.059034 583416.000000 0 0 1
-5.844655 -23.932207 27.171471 36.676959 1.331268 0.736488 0.214573 -0.063621 384662.000000 0 0 1
-4.558555 -23.807107 26.627671 36.008216 1.381608 0.738486 0.208976 -0.054415 -1101880.000000 0 0 1
-3.603855 -24.026507 27.605771 36.774167 1.421911 0.721700 0.195702 -0.051214 -554703.000000 0 0 1
-2.200955 -23.833607 26.992171 36.075785 1.478711 0.725440 0.180824 -0.045874 -185479.000000 0 0 1
-1.832355 -22.489507 26.907871 35.116505 1.489500 0.697819 0.180761 -0.049638 -132252.000000 0 0 1
-0.676655 -22.222107 26.139171 34.315246 1.540356 0.704807 0.167135 -0.047346 477926.000000 0 0 1
0.462945 -21.534007 26.963871 34.510550 -1.549301 0.674014 0.143097 -0.033404 590078.000000 0 0 1
1.168745 -22.515807 27.779971 35.777846 -1.518935 0.681772 0.131866 -0.033387 477341.000000 0 0 1
2.216945 -21.898407 28.512471 36.019662 -1.469902 0.657405 0.116255 -0.046416 122956.000000 0 0 1
3.055945 -22.879907 29.370171 37.355533 -1.438018 0.666107 0.112962 -0.050278 54991.500000 0 0 1
3.909545 -23.754207 28.632871 37.408397 -1.407675 0.699114 0.105914 -0.047477 290981.000000 0 0 1
4.501745 -24.813907 29.331771 38.682663 -1.391328 0.710146 0.103209 -0.038980 57714.400000 0 0 1
5.829745 -24.539307 30.092471 39.264746 -1.337553 0.697580 0.087529 -0.038588 767184.000000 0 0 1
7.007545 -24.181507 29.361771 38.677701 -1.288733 0.708806 0.094687 -0.029630 870567.000000 0 0 1
7.742645 -25.205607 28.704271 38.976997 -1.272766 0.743002 0.093247 -0.026530 540985.000000 0 0 1
9.045845 -24.749507 27.953271 38.415501 -1.220384 0.755898 0.081662 -0.025396 654218.000000 0 0 1
8.809745 -23.955107 26.804171 37.012461 -1.218388 0.760933 0.081444 -0.032896 -377050.000000 0 0 1
10.017245 -23.679607 26.177171 36.692141 -1.170593 0.776419 0.078006 -0.022775 -337155.000000 0 0 1
9.819445 -22.452207 25.200271 35.150771 -1.158513 0.771423 0.084892 -0.015702 -69751.900000 0 0 1
9.143245 -22.862207 24.063571 34.428692 -1.190352 0.796883 0.086419 -0.014617 -337340.000000 0 0 1
8.536245 -21.773207 23.405871 33.087381 -1.197160 0.784989 0.076884 -0.010843 30858.800000 0 0 1
7.639645 -22.284907 22.248471 32.403328 -1.240535 0.813980 0.082893 -0.020874 191336.000000 0 0 1
8.434445 -22.809207 21.192571 32.257167 -1.216608 0.853980 0.083968 -0.016360 -85137.900000 0 0 1
7.719145 -22.922407 20.013671 31.393772 -1.245973 0.879541 0.081891 -0.011816 -152527.000000 0 0 1
8.392945 -23.886007 18.987771 31.646773 -1.232897 0.927307 0.131624 -0.037069 872262.000000 0 0 1
9.705645 -23.456507 18.624371 31.484511 -1.178474 0.937828 0.137959 -0.039546 396375.000000 0 0 1
10.363745 -24.288507 17.675771 31.776904 -1.167492 0.980935 0.147824 -0.047110 395057.000000 0 0 1
11.835045 -23.943707 17.325971 31.836436 -1.111730 0.995339 0.140200 -0.046401 502242.000000 0 0 1
11.869645 -22.751007 16.547771 30.534005 -1.089924 0.998046 0.134474 -0.035690 -334304.000000 0 0 1
13.202645 -22.475507 16.214571 30.698054 -1.039675 1.014322 0.134225 -0.040270 -125618.000000 0 0 1
-12.366055 22.599972 11.096571 28.050168 -1.070127 1.164078 0.058244 -0.027171 466959.000000 0 0 1
-13.588955 21.864072 10.936371 27.969654 -1.014703 1.169069 0.051414 -0.035145 727953.000000 0 0 1
-13.299755 20.511372 10.554071 26.626833 -0.995540 1.163237 0.080413 -0.034420 163447.000000 0 0 1
-14.300455 19.911172 9.523071 26.299176 -0.947951 1.200271 0.091529 -0.037237 -357682.000000 0 0 1
-14.294155 20.605472 8.245271 26.398728 -0.964307 1.253145 0.097695 -0.038075 109765.000000 0 0 1
-15.049255 20.092472 7.145071 26.100566 -0.927936 1.293505 0.098217 -0.030311 252172.000000 0 0 1
-16.587355 19.995872 7.278771 26.980655 -0.878302 1.297634 0.091652 -0.031712 -120012.000000 0 0 1
-17.056355 18.907572 8.058471 26.708696 -0.836827 1.264303 0.081690 -0.036866 -312985.000000 0 0 1
-18.439755 19.049772 8.223171 27.758583 -0.801668 1.270044 0.086002 -0.033546 -286114.000000 0 0 1
-19.098655 17.999272 9.167771 27.798929 -0.755772 1.234717 0.091614 -0.031046 -3467.900000 0 0 1
-19.140555 16.734872 8.589471 26.836464 -0.718442 1.244996 0.093003 -0.037681 456426.000000 0 0 1
-19.842055 15.805272 9.463571 27.075320 -0.672636 1.213730 0.111686 -0.039573 -212693.000000 0 0 1
-19.012155 15.055272 10.530371 26.438834 -0.669768 1.161143 0.101025 -0.029867 -441664.000000 0 0 1
-18.075755 14.212872 9.923071 25.044081 -0.666328 1.163396 0.072594 -0.018888 -236565.000000 0 0 1
-17.230655 13.592772 10.861471 24.487353 -0.667918 1.111236 0.083230 -0.025595 50023.100000 0 1 0
-17.861255 12.390672 11.640571 24.658793 -0.606497 1.079164 0.073081 -0.026324 -605214.000000 0 1 0
-18.523555 11.490972 10.824071 24.337729 -0.555244 1.109907 0.059881 -0.030949 53480.400000 0 1 0
-19.329355 10.626472 11.627571 24.934841 -0.502658 1.085672 0.082293 -0.035083 -154365.000000 0 1 0
-20.234955 9.600572 10.947371 24.929286 -0.443003 1.116159 0.090184 -0.042537 -413955.000000 0 1 0
-19.611955 8.580672 10.143571 23.688578 -0.412429 1.128291 0.066951 -0.037532 112555.000000 0 1 0
-19.185655 9.091372 8.885671 23.015159 -0.442520 1.174419 0.080458 -0.039209 -317780.000000 0 1 0
-20.211555 9.418172 7.768471 23.612667 -0.436063 1.235556 0.096669 -0.041288 -82389.100000 0 1 0
-20.598955 8.322472 7.019271 23.299156 -0.383970 1.264775 0.068370 -0.048007 440994.000000 0 1 0
-21.805355 8.493972 6.284671 24.230521 -0.371453 1.308426 0.118778 -0.041855 323834.000000 0 1 0
-22.118755 7.205072 5.485371 23.900663 -0.314905 1.339225 0.143240 -0.039346 -380566.000000 0 1 0
-22.758755 6.201072 6.236271 24.398879 -0.266012 1.312332 0.163511 -0.042150 181772.000000 0 1 0
-22.645455 4.930172 5.635971 23.851361 -0.214366 1.332245 0.178426 -0.050170 -168871.000000 0 1 0
-23.821155 3.927872 5.699871 24.806534 -0.163420 1.338952 0.214995 -0.048795 -656361.000000 0 1 0
-24.936655 4.229472 4.944971 25.771650 -0.168010 1.377723 0.254721 -0.053185 -610856.000000 0 0 1
-25.824745 3.167972 4.928171 26.480944 -0.122062 1.383602 0.261911 -0.055913 2438.970000 0 0 1
-27.074105 3.286972 3.996071 27.564106 -0.120815 1.425310 0.276214 -0.055942 131635.000000 0 0 1
-26.720665 3.206072 2.607271 27.038319 -0.119414 1.474218 0.274388 -0.046839 848396.000000 0 0 1
-27.886325 3.074172 1.796471 28.112719 -0.109796 1.506850 0.275545 -0.038877 395690.000000 0 0 1
-27.490545 3.210572 0.318671 27.679223 -0.116262 1.559283 0.280042 -0.037158 -297620.000000 0 0 1
-27.127795 4.556872 -0.025229 27.507871 -0.166424 1.571713 0.278010 -0.040461 289822.000000 0 0 1
-27.413235 4.945972 -1.389129 27.890460 -0.178502 1.620624 0.314285 -0.031818 276457.000000 0 0 1
-28.923055 5.122272 -1.719029 29.423390 -0.175282 1.629254 0.291706 -0.045126 341157.000000 0 0 1
-29.563395 3.878672 -2.000429 29.883777 -0.130453 1.637787 0.240274 -0.044205 1056250.000000 0 0 1
-30.974615 3.933672 -1.709529 31.270162 -0.126320 1.625493 0.216897 -0.009818 842097.000000 0 0 1
-31.749085 2.622672 -1.979129 31.918643 -0.082419 1.632842 0.175374 -0.004749 -197113.000000 0 0 1
-31.765945 2.289972 -3.345729 32.023634 -0.071964 1.675464 0.164251 -0.027707 621970.000000 0 0 1
-32.375715 0.990472 -3.500529 32.579467 -0.030584 1.678450 0.164717 -0.040257 -13364.300000 0 0 1
-32.414135 0.582772 -5.007729 32.803859 -0.017977 1.724052 0.175316 -0.044626 -89683.400000 0 0 1
-31.116945 0.425172 -5.559629 31.612569 -0.013663 1.747583 0.186853 -0.058061 415481.000000 0 0 1
-31.074985 -0.155428 -6.862929 31.824184 0.005002 1.788155 0.190815 -0.062568 -133948.000000 0 0 1
-31.665095 0.632672 -8.095629 32.689719 -0.019977 1.821051 0.191875 -0.055961 -742300.000000 0 0 1
-33.041015 0.831372 -8.008629 34.007911 -0.025156 1.808522 0.209887 -0.051543 -470212.000000 0 0 1
-33.552385 1.569072 -9.086129 34.796297 -0.046731 1.834982 0.235680 -0.044385 254201.000000 0 0 1
-35.093857 1.701972 -8.969729 36.261985 -0.048460 1.820750 0.232645 -0.040586 427610.000000 0 0 1
-35.696200 2.500972 -7.936029 36.653160 -0.069948 1.789042 0.182150 -0.034355 -353308.000000 0 0 1
-37.082755 2.398572 -7.986429 38.008774 -0.064592 1.782495 0.182803 -0.026170 -638527.000000 0 0 1
-37.660165 2.892072 -6.654029 38.352682 -0.076643 1.745175 0.178863 -0.015307 1118740.000000 0 0 1
36.838166 2.712372 -6.424129 37.492357 0.073497 1.742991 0.178829 -0.009678 1286370.000000 0 0 1
36.389856 3.364372 -5.243729 36.919335 0.092191 1.713310 0.167829 -0.008907 -202884.000000 0 0 1
34.954736 2.968472 -4.883129 35.418785 0.084720 1.709105 0.189488 -0.008203 -255931.000000 0 0 1
34.807356 1.643472 -4.409929 35.124073 0.047181 1.696681 0.183282 -0.009568 -776262.000000 0 0 1
33.513156 1.184672 -4.185429 33.794273 0.035335 1.694965 0.224969 -0.018427 -602265.000000 0 0 1
33.363616 -0.148728 -3.489529 33.545935 -0.004458 1.675007 0.280675 -0.032915 -128856.000000 0 0 1
33.811076 -1.337828 -4.188629 34.095795 -0.039547 1.693956 0.177073 -0.028687 270687.000000 0 0 1
33.780876 -2.353728 -3.261529 34.019482 -0.069564 1.666816 0.197131 -0.028578 -96599.200000 0 0 1
34.864766 -3.425128 -3.490029 35.206018 -0.097926 1.670091 0.156615 -0.028206 -393611.000000 0 0 1
34.678346 -4.510728 -2.571729 35.064913 -0.129347 1.644204 0.161546 -0.048302 612317.000000 0 0 1
35.654826 -5.577528 -2.647929 36.185452 -0.155174 1.644038 0.205635 -0.048678 347639.000000 0 0 1
35.367346 -6.745928 -1.665429 36.043451 -0.188475 1.617019 0.257940 -0.068678 -188498.000000 0 0 1
35.578056 -6.412528 -0.321629 36.152759 -0.178324 1.579693 0.243161 -0.090051 187655.000000 0 0 1
35.286866 -7.518228 0.535471 36.082868 -0.209921 1.555956 0.277539 -0.090495 748867.000000 0 0 1
33.963866 -7.275628 1.362971 34.761137 -0.211027 1.531577 0.273177 -0.080599 754315.000000 0 0 1
32.751286 -7.626528 0.662771 33.634059 -0.228785 1.551090 0.231259 -0.065680 747368.000000 0 0 1
31.643936 -7.338328 1.497271 32.518173 -0.227875 1.524736 0.276806 -0.071035 -839676.000000 0 0 1
31.266126 -8.580128 2.393671 32.510289 -0.267829 1.497102 0.218595 -0.060195 -455753.000000 0 0 1
30.204626 -9.402728 1.946671 31.694167 -0.301792 1.509337 0.192577 -0.051039 704393.000000 0 0 1
28.919226 -8.793028 1.978771 30.291162 -0.295173 1.505425 0.209330 -0.046925 652997.000000 0 0 1
27.619626 -9.739728 2.029171 29.356832 -0.339023 1.501620 0.166174 -0.035039 1391700.000000 0 0 1
26.353226 -9.118828 2.171971 27.970752 -0.333128 1.493067 0.124550 -0.042039 763529.000000 0 0 1
25.784026 -8.257428 1.196871 27.100435 -0.309933 1.526618 0.151948 -0.047353 -438988.000000 0 0 1
25.375126 -8.899828 -0.169629 26.891127 -0.337325 1.577104 0.121591 -0.033485 -327725.000000 0 0 1
26.448926 -9.574828 -0.838729 28.141188 -0.347336 1.600605 0.122808 -0.048577 562059.000000 0 0 1
26.124026 -10.255328 -2.030929 28.138251 -0.374079 1.643036 0.115952 -0.042077 233257.000000 0 0 1
25.135326 -11.505628 -1.928729 27.710721 -0.429278 1.640455 0.102568 -0.026915 243927.000000 0 0 1
23.766726 -11.285728 -1.771529 26.369741 -0.443329 1.638027 0.075206 -0.004622 -292790.000000 0 0 1
23.079226 -12.522528 -1.750729 26.315954 -0.497135 1.637373 0.069289 -0.001490 669274.000000 0 0 1
21.522826 -12.408628 -1.672329 24.899855 -0.522986 1.638009 0.054636 -0.009207 419568.000000 0 1 0
20.817326 -12.011428 -2.800629 24.196673 -0.523330 1.686801 0.071537 -0.007253 521671.000000 0 1 0
19.418426 -12.025828 -2.514829 22.978689 -0.554490 1.680458 0.074489 -0.018559 810084.000000 0 1 0
18.508026 -11.396128 -3.625429 22.035483 -0.551913 1.736075 0.065183 -0.011646 225211.000000 0 1 0
18.318426 -12.309128 -4.708829 22.566622 -0.591654 1.781004 0.062143 -0.009272 261845.000000 0 1 0
17.612526 -11.728628 -5.783729 21.936575 -0.587489 1.837608 0.070126 -0.016150 -706753.000000 0 1 0
17.673826 -12.511628 -7.090729 22.785596 -0.616021 1.887245 0.089421 -0.023803 -416560.000000 0 1 0
16.997126 -13.750628 -7.045129 22.969891 -0.680203 1.882532 0.063109 -0.023147 504138.000000 0 1 0
17.477326 -14.586628 -8.084129 24.157396 -0.695487 1.912024 0.089019 -0.030661 -480199.000000 0 1 0
16.589226 -15.802728 -8.415029 24.407813 -0.761122 1.922788 0.082002 -0.031603 -428264.000000 0 1 0
15.443026 -15.363528 -9.090029 23.604103 -0.782818 1.966117 0.093171 -0.019683 -91893.600000 0 1 0
15.009626 -16.325928 -10.023329 24.337049 -0.827380 1.995285 0.087020 -0.016283 -45177.800000 0 1 0
14.117426 -15.758028 -11.144529 23.912710 -0.840258 2.055618 0.087803 -0.035333 1319580.000000 0 1 0
12.886426 -15.034028 -10.794329 22.552151 -0.862166 2.069900 0.055556 -0.031544 1401670.000000 0 1 0
13.080526 -13.672328 -10.521129 21.650101 -0.807516 2.078260 0.047402 -0.031215 -426743.000000 0 1 0
13.179126 -12.772728 -11.780629 21.808603 -0.769740 2.141450 0.063753 -0.013725 -352979.000000 0 1 0
14.378126 -12.834928 -12.540429 22.994092 -0.728751 2.147634 0.093953 -0.015792 317111.000000 0 1 0
14.286426 -12.077728 -13.737729 23.209883 -0.701817 2.204200 0.125801 -0.019156 27878.400000 0 1 0
15.693526 -11.733628 -14.292029 24.253389 -0.642010 2.200963 0.138575 -0.027184 437297.000000 0 1 0
16.581126 -12.818028 -14.610829 25.548227 -0.658090 2.179607 0.141495 -0.025983 388435.000000 0 0 1
17.619126 -12.227828 -15.353929 26.376060 -0.606694 2.192125 0.132011 -0.023560 -409214.000000 0 0 1
18.784126 -13.101228 -15.827729 27.838868 -0.609021 2.175536 0.106694 -0.015189 426949.000000 0 0 1
19.844426 -13.270628 -14.866929 28.123591 -0.589432 2.127780 0.114198 -0.035633 536431.000000 0 0 1
20.699926 -14.332328 -15.161229 29.389887 -0.605597 2.112814 0.082868 -0.029865 205322.000000 0 0 1
21.935126 -14.491628 -14.205029 29.882100 -0.583832 2.066180 0.102650 -0.041083 541224.000000 0 0 1
22.876326 -13.455328 -14.274929 30.135457 -0.531681 2.064275 0.102863 -0.030691 380703.000000 0 0 1
23.887826 -13.487428 -13.266229 30.471819 -0.513995 2.021235 0.118011 -0.039519 694798.000000 0 0 1
24.867426 -12.279028 -13.156429 30.696173 -0.458659 2.013741 0.122023 -0.034935 -217720.000000 0 0 1
24.235826 -11.105828 -12.693529 29.526943 -0.429685 2.015174 0.129126 -0.030118 716208.000000 0 0 1
25.089126 -9.932928 -12.789929 29.861507 -0.376972 2.013416 0.149287 -0.033504 792108.000000 0 0 1
26.183326 -9.737528 -11.681729 30.279511 -0.356048 1.966867 0.158235 -0.038063 -378084.000000 0 0 1
27.337926 -10.461428 -11.919929 31.605195 -0.365479 1.957514 0.154421 -0.045998 -483622.000000 0 0 1
28.346926 -10.052428 -10.999129 32.024684 -0.340786 1.921393 0.165053 -0.043785 747348.000000 0 0 1
29.765326 -10.592628 -11.402929 33.588766 -0.341896 1.917167 0.183038 -0.051533 397743.000000 0 0 1
30.222026 -10.136528 -12.612229 34.281021 -0.323611 1.947554 0.159245 -0.045323 486589.000000 0 0 1
31.586526 -10.533428 -12.800929 35.672475 -0.321881 1.937828 0.157555 -0.046771 635567.000000 0 0 1
32.196416 -9.820628 -14.009329 36.459775 -0.296058 1.965182 0.119751 -0.034374 -175692.000000 0 0 1
31.611406 -10.281728 -15.200429 36.551990 -0.314461 1.999682 0.102072 -0.023733 865062.000000 0 0 1
32.357016 -9.711428 -16.313429 37.515547 -0.291579 2.020662 0.073715 -0.021462 264852.000000 0 0 1
31.995146 -10.555328 -17.603229 38.012866 -0.318661 2.052270 0.046754 -0.012336 227963.000000 0 0 1
30.738026 -10.307628 -18.196229 37.177630 -0.323554 2.082244 0.049268 -0.009154 254575.000000 0 0 1
30.549626 -9.018628 -18.800829 36.987653 -0.287059 2.104006 0.034872 -0.005190 210434.000000 0 0 1
29.081926 -8.759528 -19.295729 35.983509 -0.292559 2.136770 0.017137 -0.004947 650080.000000 0 0 1
28.730926 -9.470228 -20.486729 36.535700 -0.318403 2.166066 0.006788 0.003661 -107976.000000 0 0 1
27.377026 -9.248228 -20.760229 35.581152 -0.325774 2.193781 0.023843 0.008181 -468280.000000 0 0 1
26.940826 -9.565328 -22.185229 36.186848 -0.341166 2.230743 0.044533 -0.004551 -199145.000000 0 0 1
26.831626 -10.964228 -22.270629 36.553131 -0.387925 2.225933 0.041777 -0.008254 92949.900000 0 0 1
26.157226 -11.122828 -23.495529 36.877604 -0.402065 2.261555 0.068759 -0.018673 -857604.000000 0 0 1
26.297026 -12.565728 -24.008729 37.760431 -0.445762 2.259863 0.063699 -0.010686 1318740.000000 0 0 1
27.506926 -12.997928 -24.691729 39.182376 -0.441434 2.252574 0.046411 -0.003320 1002840.000000 0 0 1
28.718726 -12.789528 -24.009429 39.557426 -0.418970 2.223015 0.021404 0.001716 6835.280000 0 0 1
30.053926 -13.312328 -24.626229 41.071982 -0.416974 2.213781 0.032671 0.008218 718519.000000 0 0 1
30.548026 -12.700528 -25.814509 41.962771 -0.394015 2.233406 0.053682 -0.005197 103538.000000 0 0 1
31.895406 -13.039828 -26.043279 43.192666 -0.388096 2.217998 0.046529 -0.008245 84052.600000 0 0 1
32.479096 -12.500828 -27.373009 44.276901 -0.367412 2.237277 0.068715 -0.014573 104538.000000 0 0 1
31.909826 -13.178328 -28.457039 44.740456 -0.391651 2.260161 0.083207 -0.016556 704080.000000 0 0 1
32.784526 -12.957828 -29.586649 46.022823 -0.376398 2.269034 0.089775 -0.024080 602329.000000 0 0 1
32.624796 -13.944028 -30.738499 46.943248 -0.403907 2.284716 0.092128 -0.026902 -124665.000000 0 0 1
33.012266 -15.232628 -30.283299 47.317236 -0.432313 2.265302 0.108875 -0.020477 -229424.000000 0 0 1
33.160856 -16.174628 -31.356829 48.420158 -0.453810 2.275225 0.102889 -0.024823 -297756.000000 0 0 1
31.974946 -16.642128 -32.198949 48.333528 -0.479892 2.299875 0.083503 -0.012448 -266329.000000 0 0 1
31.377086 -15.678228 -33.032249 48.181509 -0.463385 2.326196 0.063012 -0.008621 -575623.000000 0 0 1
30.175426 -16.090628 -33.590759 47.935412 -0.489882 2.347245 0.038096 -0.007994 -351812.000000 0 0 1
29.641226 -15.083228 32.700827 46.641721 -0.470710 0.793848 0.066850 -0.009972 -252469.000000 0 0 1
29.134726 -13.841028 33.199686 46.288502 -0.443505 0.770972 0.076178 -0.011376 441305.000000 0 0 1
30.060926 -13.035528 -33.437209 46.814861 -0.409163 2.366339 0.089832 -0.023683 -158832.000000 0 0 1
29.406426 -11.761928 -32.918219 45.680302 -0.380488 2.375495 0.098314 -0.031716 39302.300000 0 0 1
29.190826 -10.890828 33.389706 45.668226 -0.357096 0.750810 0.124646 -0.032445 -15724.700000 0 0 1
28.477426 -9.723028 -33.603799 45.107831 -0.329019 2.411280 0.112947 -0.043772 269922.000000 0 0 1
21.844945 -29.339007 9.053771 37.682220 -0.930779 1.328156 0.053244 -0.020246 -142008.000000 0 0 1
22.291145 -28.732907 7.882671 37.210369 -0.910983 1.357338 0.060836 -0.024231 7570.910000 0 0 1
23.397545 -29.508207 7.460471 38.390597 -0.900390 1.375221 0.069124 -0.023790 307833.000000 0 0 1
23.971145 -29.189707 6.027071 38.248926 -0.883250 1.412562 0.063220 -0.019482 233621.000000 0 0 1
24.261645 -27.808407 5.948271 37.380701 -0.853408 1.410990 0.059582 -0.012960 253493.000000 0 0 1
25.107045 -27.574707 4.823771 37.603150 -0.832205 1.442161 0.053421 -0.004663 78560.300000 0 0 1
25.367945 -26.126907 4.415171 36.682988 -0.800136 1.450144 0.052086 -0.013451 84464.200000 0 0 1
26.186345 -25.377707 5.289871 36.847461 -0.769717 1.426737 0.061404 -0.015834 37394.400000 0 0 1
26.289345 -24.030007 4.912471 35.954182 -0.740528 1.433736 0.054824 -0.013948 -56348.600000 0 0 1
27.106445 -23.212107 5.909471 36.172961 -0.708158 1.406694 0.063646 -0.017097 814774.000000 0 0 1
28.449345 -22.911807 5.470371 36.935634 -0.677997 1.422144 0.057415 -0.014509 804552.000000 0 0 1
29.210445 -22.125007 6.392571 37.197190 -0.648242 1.398083 0.071635 -0.022181 332255.000000 0 0 1
28.814745 -20.596907 6.629971 36.034408 -0.620593 1.385752 0.084650 -0.020470 -219454.000000 0 0 1
29.092345 -19.808607 5.531271 35.627803 -0.597783 1.414914 0.086555 -0.005038 -192352.000000 0 0 1
28.541045 -18.510707 5.517371 34.462717 -0.575365 1.410008 0.106215 -0.004797 24302.500000 0 0 1
28.739945 -17.781307 4.137471 34.048171 -0.554054 1.448977 0.125784 0.003816 -53066.600000 0 0 1
30.066545 -17.490707 3.761071 34.986677 -0.526880 1.463088 0.127684 0.009003 73697.400000 0 0 1
30.077445 -16.779307 2.558071 34.536090 -0.508865 1.496659 0.137446 0.017988 352565.000000 0 0 1
31.180545 -15.707007 2.625671 35.011863 -0.466638 1.495732 0.148532 0.003444 129363.000000 0 0 1
30.729145 -14.870107 3.667171 34.334364 -0.450692 1.463785 0.160383 -0.000335 504645.000000 0 0 1
31.698445 -13.928007 4.140271 34.870082 -0.413996 1.451781 0.146911 -0.010041 245820.000000 0 0 1
31.159145 -12.798107 5.068671 34.064281 -0.389725 1.421444 0.152579 -0.013808 -68397.500000 0 0 1
31.142045 -13.294307 6.403471 34.461137 -0.403473 1.383893 0.134080 -0.016033 -5914.630000 0 0 1
30.525445 -12.431007 7.307771 33.759979 -0.386727 1.352607 0.121127 -0.006696 -313989.000000 0 0 1
30.682445 -12.745507 8.825771 34.376658 -0.393712 1.311151 0.156679 -0.012166 -565638.000000 0 0 1
30.214745 -13.960307 9.236271 34.541709 -0.432818 1.300108 0.101950 -0.004659 -328698.000000 0 0 1
29.685145 -13.967407 10.526071 34.454237 -0.439785 1.260324 0.172983 -0.015880 -186213.000000 0 0 1
30.296045 -14.936607 11.579671 35.707721 -0.458049 1.240535 0.164760 -0.030750 351814.000000 0 0 1
31.563145 -14.413007 11.992771 36.712306 -0.428362 1.238019 0.122973 -0.018935 436553.000000 0 0 1
32.152445 -15.416207 12.849571 37.901855 -0.447091 1.224919 0.137517 -0.026039 401461.000000 0 0 1
33.209945 -14.835207 13.837571 38.916091 -0.420114 1.207268 0.125357 -0.030861 -310394.000000 0 0 1
34.429345 -14.538207 13.246271 39.651014 -0.399549 1.230176 0.074989 -0.028101 -266912.000000 0 0 1
35.398245 -14.263407 14.259171 40.740698 -0.383039 1.213227 0.035187 -0.027773 1880570.000000 0 0 1
36.922545 -14.157007 13.760671 41.869454 -0.366136 1.235916 0.064191 -0.027787 1466030.000000 0 0 1
37.205345 -13.171707 12.829371 41.500895 -0.340258 1.256513 0.088659 -0.033245 1561080.000000 0 0 1
-37.277336 -13.100307 12.579571 41.466413 0.337947 1.262571 0.113567 -0.032513 1228650.000000 0 0 1
-36.924736 -11.684307 12.135571 40.586097 0.306466 1.267143 0.136943 -0.043372 -780569.000000 0 0 1
-35.627136 -11.688907 11.618671 39.254514 0.317024 1.270312 0.137551 -0.039428 -516441.000000 0 0 1
-34.978536 -10.455107 11.914771 38.402721 0.290448 1.255331 0.141721 -0.046764 628227.000000 0 0 1
-33.517236 -10.308107 11.334771 36.852940 0.298366 1.258161 0.166133 -0.043873 741225.000000 0 0 1
-32.619236 -11.301307 11.757671 36.468849 0.333519 1.242529 0.155389 -0.042752 18897.900000 0 0 1
-32.798036 -12.582607 11.126271 36.848705 0.366323 1.264064 0.150508 -0.037981 -1237350.000000 0 0 1
-31.797936 -13.634107 11.587271 36.486469 0.405062 1.247623 0.107412 -0.028361 -1650410.000000 0 0 1
-30.613336 -13.454407 10.969571 35.192739 0.414084 1.253815 0.132285 -0.026422 -1478660.000000 0 0 1
-29.754836 -14.572507 11.210771 34.976987 0.455416 1.244520 0.124191 -0.017661 210697.000000 0 0 1
-28.435236 -14.521407 10.410671 33.582971 0.472158 1.255605 0.118455 -0.009535 -384335.000000 0 0 1
-28.671036 -14.640307 9.000471 33.427165 0.472116 1.298176 0.126506 -0.017040 205055.000000 0 0 1
-27.493536 -14.632807 8.211871 32.209445 0.489096 1.312998 0.089877 -0.012224 -296.284000 0 0 1
-27.710036 -14.406607 6.658971 31.933342 0.479445 1.360727 0.143460 -0.015237 -30506.700000 0 0 1
-28.011836 -15.665507 6.052371 32.660408 0.509914 1.384407 0.142966 -0.001609 108503.000000 0 0 1
-27.998536 -15.601107 4.652071 32.387564 0.508363 1.426660 0.165184 -0.002686 -638809.000000 0 0 1
-28.700536 -16.821807 4.069471 33.514990 0.530147 1.449074 0.147739 -0.001044 275627.000000 0 0 1
-30.112336 -16.614507 4.172771 34.643998 0.504186 1.450056 0.117783 -0.015811 62858.800000 0 0 1
-30.732536 -17.800307 3.796571 35.717694 0.524985 1.464301 0.124327 -0.011871 -1435220.000000 0 0 1
-32.200836 -17.713307 4.057871 36.974605 0.502911 1.460827 0.146748 -0.031112 -1445750.000000 0 0 1
-33.030736 -16.940407 3.225271 37.261364 0.473889 1.484130 0.192977 -0.034951 -1700580.000000 0 0 1
-34.304836 -17.288207 3.537771 38.577451 0.466809 1.478962 0.190039 -0.038206 -1502860.000000 0 0 1
-35.378036 -16.374307 2.911871 39.092229 0.433479 1.496240 0.188498 -0.039388 71619.600000 0 0 1
-35.635436 -16.558907 1.535671 39.324801 0.434991 1.531735 0.178600 -0.036561 -168239.000000 0 0 1
-36.588536 -15.665107 0.996771 39.813441 0.404529 1.545758 0.219042 -0.043877 21990.800000 0 0 1
-36.958936 -16.226907 -0.410129 40.366368 0.413713 1.580957 0.172771 -0.038378 -267655.000000 0 0 1
-35.840036 -16.320307 -1.246029 39.400675 0.427307 1.602426 0.192210 -0.031603 -55566.600000 0 0 1
-36.176236 -17.098707 -2.365529 40.083432 0.441529 1.629846 0.148042 -0.026623 -21685.300000 0 0 1
-34.963836 -17.644707 -3.156129 39.290796 0.467365 1.651210 0.137698 -0.027877 -319225.000000 0 0 1
-35.282836 -18.547307 -4.151529 40.076381 0.483976 1.674573 0.115332 -0.027057 54493.100000 0 0 1
-34.215636 -19.366807 -4.636429 39.588880 0.515061 1.688180 0.109269 -0.027037 -168413.000000 0 0 1
-34.584536 -20.520407 -5.582129 40.599722 0.535508 1.708725 0.095873 -0.027837 -276268.000000 0 0 1
-35.284436 -21.580707 -4.982129 41.659812 0.548921 1.690674 0.110571 -0.032530 -122971.000000 0 0 1
-35.609236 -22.457407 -6.012129 42.526445 0.562661 1.712645 0.106915 -0.020463 375536.000000 0 0 1
-36.387936 -23.747307 -5.582529 43.808459 0.578211 1.698574 0.113264 -0.028311 1035630.000000 0 0 1
-35.524036 -24.646107 -4.820929 43.504357 0.606544 1.681839 0.148420 -0.030307 799779.000000 0 0 1
-36.283336 -25.817607 -4.518829 44.759905 0.618439 1.671926 0.126116 -0.026201 690868.000000 0 0 1
-35.368536 -26.954907 -4.002929 44.648894 0.651210 1.660570 0.106420 -0.020203 -7541.380000 0 0 1
-34.449136 -27.488807 -4.966429 44.351357 0.673492 1.683011 0.097815 -0.023521 1046360.000000 0 0 1
-33.561936 -28.547307 -4.525929 44.292621 0.704834 1.673157 0.108049 -0.021496 1171980.000000 0 0 1
-32.473836 -28.200307 -3.430329 43.145967 0.715080 1.650386 0.133644 -0.034765 100476.000000 0 0 1
-33.077036 -28.029407 -2.113729 43.407439 0.702981 1.619511 0.101004 -0.035043 -259756.000000 0 0 1
-32.180836 -27.791107 -1.087329 42.533917 0.712332 1.596363 0.121021 -0.048083 -318316.000000 0 0 1
-32.838136 -27.782507 0.332471 43.015362 0.702193 1.563067 0.097693 -0.033698 -100167.000000 0 0 1
-33.317036 -28.993007 0.778071 44.172669 0.716114 1.553181 0.091710 -0.021259 115962.000000 0 0 1
-34.298736 -28.768007 1.794071 44.802011 0.697925 1.530741 0.084694 -0.013073 320683.000000 0 0 1
-34.796036 -30.060207 2.476771 46.049045 0.712507 1.516985 0.074218 -0.011213 -496225.000000 0 0 1
-35.737636 -29.835907 3.518171 46.687659 0.695638 1.495369 0.057365 -0.008111 237177.000000 0 0 1
-36.318136 -31.007907 4.109771 47.931070 0.706688 1.484948 0.052696 0.000356 174317.000000 0 0 1
-37.216236 -31.845107 3.155471 49.082747 0.707781 1.506463 0.044456 0.010243 -614077.000000 0 0 1
37.938645 -32.846907 3.792071 50.325340 -0.713590 1.495374 0.065314 0.004630 -35901.000000 0 0 1
36.927745 -33.292107 2.907371 49.804372 -0.733669 1.512387 0.059279 0.003808 -412199.000000 0 0 1
35.738645 33.666672 3.652171 49.234478 0.755554 1.496549 0.058852 0.003530 -40682.700000 0 0 1
34.875345 -33.177507 4.426671 48.338722 -0.760455 1.479092 0.056886 0.008041 596912.000000 0 0 1
34.168245 -32.109507 3.758771 47.038471 -0.754346 1.490803 0.059590 0.006951 -65998.800000 0 0 1
33.065245 -32.359207 2.699271 46.343443 -0.774607 1.512518 0.057309 0.004127 -36531.600000 0 0 1
33.646645 -32.805107 1.446771 47.014518 -0.772735 1.540019 0.056786 0.006503 29139.600000 0 0 1
32.749545 -32.776307 0.360871 46.335183 -0.785807 1.563008 0.053310 0.007189 -563538.000000 0 0 1
33.376645 -33.367907 -0.905429 47.204210 -0.785267 1.589979 0.045469 -0.002528 903305.000000 0 0 1
34.370245 -32.599007 -1.603629 47.398107 -0.758956 1.604636 0.036355 0.001536 -4392.330000 0 0 1
35.649545 -32.525807 -1.055629 48.269374 -0.739611 1.592668 0.039748 0.005217 -1077260.000000 0 0 1
36.825645 -32.444207 -1.991429 49.119451 -0.722231 1.611350 0.038922 0.002241 -619565.000000 0 0 1
37.119245 -33.663407 -2.671429 50.181668 -0.736614 1.624057 0.035300 0.000832 436892.000000 0 0 1
-37.721236 -33.437107 -3.579029 50.534554 0.725265 1.641679 0.041753 0.000398 98272.400000 0 0 1
-37.172036 32.935272 -4.261729 49.846311 -0.725039 1.656398 0.046063 -0.006535 -7026.930000 0 0 1
-36.078436 32.284872 -3.645529 48.551585 -0.729964 1.645953 0.072523 0.001239 57299.100000 0 0 1
-35.576436 31.317172 -4.571129 47.616628 -0.721812 1.666943 0.097480 -0.013688 1017390.000000 0 0 1
-34.132336 30.806172 -4.191029 46.169268 -0.734223 1.661697 0.132081 -0.026926 29652.100000 0 0 1
-33.056536 31.665172 -4.287529 45.976087 -0.763904 1.664188 0.133185 -0.023988 -222409.000000 0 0 1
-31.836036 31.119972 -3.808129 44.682073 -0.774025 1.656127 0.184619 -0.036291 445067.000000 0 0 1
-31.586336 31.198972 -2.267829 44.454645 -0.779229 1.621833 0.169141 -0.023315 -40511.000000 0 0 1
-32.506736 30.403172 -1.508529 44.534441 -0.751973 1.604676 0.133642 -0.008567 184899.000000 0 0 1
-32.064736 30.271772 -0.198329 44.097242 -0.756643 1.575294 0.134294 -0.012797 -340527.000000 0 0 1
-33.076636 29.571072 0.717871 44.373725 -0.729500 1.554618 0.140371 -0.017464 -61427.700000 0 0 1
-33.352836 28.255672 0.320971 43.713816 -0.702851 1.563454 0.140392 -0.025878 462047.000000 0 0 1
-34.452136 28.090572 -0.576029 44.456290 -0.684031 1.583754 0.123740 -0.017008 64700.500000 0 0 1
-34.788336 26.634972 -0.965029 43.824437 -0.653429 1.592818 0.126475 -0.009646 191966.000000 0 0 1
-35.008436 25.752072 0.192071 43.460289 -0.634219 1.566377 0.115091 -0.023445 152323.000000 0 0 1
-35.480036 24.459272 -0.264029 43.094763 -0.603564 1.576923 0.142244 -0.019757 -307497.000000 0 0 1
-35.237536 23.283172 0.761871 42.241810 -0.583895 1.552759 0.158010 -0.031283 43831.500000 0 0 1
-33.870736 23.014072 0.994371 40.961726 -0.596813 1.546518 0.164448 -0.037321 123624.000000 0 0 1
-33.381236 23.826972 2.080471 41.065312 -0.619917 1.520112 0.160764 -0.043129 -1289240.000000 0 0 1
-31.882236 23.653472 2.272171 39.763381 -0.638298 1.513623 0.139709 -0.046480 25376.500000 0 0 1
-31.015836 24.371572 1.360271 39.469050 -0.666009 1.536325 0.147477 -0.043041 365999.000000 0 0 1
-30.694536 25.631472 1.863771 40.032493 -0.695751 1.524223 0.123585 -0.035673 -203752.000000 0 0 1
-30.115936 26.652172 0.826271 40.224254 -0.724458 1.550253 0.120114 -0.028677 1133100.000000 0 0 1
-28.835436 26.268272 0.288871 39.007537 -0.738844 1.563391 0.121146 -0.033186 577756.000000 0 0 1
-28.305336 27.266672 -0.566429 39.306288 -0.766710 1.585207 0.119905 -0.021510 -136894.000000 0 0 1
-27.248236 26.813572 -1.539629 38.259697 -0.777358 1.611049 0.112542 -0.021695 -513931.000000 0 0 1
-27.800936 25.853172 -2.446229 38.042904 -0.749112 1.635143 0.128477 -0.032848 382326.000000 0 0 1
-26.828836 25.144072 -3.213829 36.909883 -0.752993 1.657979 0.120571 -0.015074 491367.000000 0 0 1
-25.722236 24.302072 -2.545729 35.478231 -0.757016 1.642613 0.101228 -0.021465 340780.000000 0 0 1
-26.212136 23.107172 -1.944929 34.997146 -0.722525 1.626399 0.070436 -0.014848 -771086.000000 0 0 1
-25.124636 22.414672 -1.451129 33.701196 -0.728455 1.613868 0.089230 -0.035473 -1447170.000000 0 0 1
-25.385836 20.973972 -0.882029 32.941253 -0.690518 1.597575 0.112707 -0.042996 -537669.000000 0 0 1
-26.273636 20.822372 0.244971 33.525142 -0.670163 1.563489 0.098993 -0.041396 718957.000000 0 0 1
-27.618136 21.231672 0.050471 34.836014 -0.655399 1.569348 0.095785 -0.042716 262521.000000 0 0 1
-28.433436 20.626372 -1.167829 35.146427 -0.627588 1.604030 0.127417 -0.043112 -892064.000000 0 0 1
-28.652336 19.186272 -1.012029 34.497733 -0.590047 1.600137 0.159579 -0.050551 -99600.000000 0 0 1
-29.622636 18.719772 -1.887629 35.092643 -0.563575 1.624612 0.177437 -0.045402 -427517.000000 0 0 1
-29.908636 17.224172 -1.541729 34.548162 -0.522505 1.615437 0.167842 -0.045820 208907.000000 0 0 1
-30.591036 17.066572 -0.275129 35.030773 -0.508884 1.578650 0.181954 -0.048771 345166.000000 0 0 1
-31.074536 15.775372 -0.049429 34.849556 -0.469759 1.572215 0.191163 -0.057146 356197.000000 0 0 1
-30.073636 14.756272 0.643371 33.505001 -0.456157 1.551593 0.230934 -0.057391 37956.200000 0 0 1
-29.870436 15.025472 2.028571 33.498102 -0.466062 1.510201 0.258739 -0.053370 285974.000000 0 0 1
-28.638636 14.517572 2.509171 32.206013 -0.469170 1.492807 0.279264 -0.060885 161250.000000 0 0 1
-28.331736 12.983572 2.575071 31.271255 -0.429710 1.488357 0.302127 -0.056679 -414203.000000 0 0 1
-28.312436 12.425272 1.270671 30.945048 -0.413554 1.529723 0.275996 -0.059975 229571.000000 0 0 1
-28.292336 11.039072 1.414571 30.402605 -0.372011 1.524252 0.333896 -0.057787 1075.880000 0 0 1
-28.046536 10.281372 0.063971 29.871707 -0.351371 1.568655 0.297668 -0.047184 916964.000000 0 0 1
-29.281736 10.234772 -0.682729 31.026388 -0.336254 1.592803 0.277936 -0.038265 1145360.000000 0 0 1
-29.049136 9.277372 -1.765329 30.545676 -0.309130 1.628622 0.291036 -0.040504 -145410.000000 0 0 1
-30.157136 9.073072 -2.811129 31.617652 -0.292245 1.659824 0.271661 -0.039977 -498831.000000 0 0 1
-29.872636 8.278472 -3.915129 31.244771 -0.270341 1.696432 0.277712 -0.037768 -244120.000000 0 0 1
-30.973236 8.022572 -4.735029 32.343833 -0.253446 1.717721 0.246353 -0.041234 -309149.000000 0 0 1
-11.754655 18.275572 -19.845929 29.428376 -0.999224 2.310922 0.182954 -0.014206 226561.000000 0 0 1
-11.849055 17.492772 -21.020929 29.803970 -0.975421 2.353652 0.172967 -0.019509 -736247.000000 0 0 1
-10.652455 16.862672 -21.344829 29.213460 -1.007381 2.390071 0.174474 -0.029647 -663608.000000 0 0 1
-10.863955 15.813672 -22.444429 29.527108 -0.968850 2.434309 0.157100 -0.024009 -17392.300000 0 0 1
-9.886055 14.778372 -22.467329 28.651618 -0.981212 2.472131 0.193815 -0.032828 86244.700000 0 0 1
-10.170155 13.656772 -23.315329 28.871163 -0.930698 2.510807 0.169980 -0.032949 -132204.000000 0 0 1
-9.323255 12.495772 -22.785529 27.608834 -0.929788 2.541527 0.150062 -0.029579 -506478.000000 0 0 1
-7.959555 12.669072 -22.975529 27.417783 -1.009851 2.564366 0.117447 -0.026655 -937493.000000 0 0 1
-7.210155 11.712172 -22.275329 26.179221 -1.018976 2.588451 0.100920 -0.020496 199947.000000 0 0 1
-5.694655 11.678972 -22.553429 26.028535 -1.117119 2.618921 0.075689 -0.016687 410468.000000 0 0 1
-5.149655 11.183172 -23.805529 26.800849 -1.139259 2.664291 0.071791 -0.028243 322797.000000 0 0 1
-3.738655 11.030572 -23.714129 26.419897 -1.244012 2.685059 0.063532 -0.024270 468974.000000 0 0 1
-2.990655 10.669172 -25.027629 27.370741 -1.297502 2.724804 0.093935 -0.033531 -156480.000000 0 0 1
-3.108855 9.330572 -25.473109 27.305747 -1.249175 2.773137 0.106888 -0.041640 -835.893000 0 0 1
-2.434555 9.141072 -26.692049 28.318752 -1.310507 2.801002 0.115505 -0.043914 -218060.000000 0 0 1
-1.878955 7.726172 -26.960739 28.108818 -1.332234 2.854799 0.122547 -0.024158 315357.000000 0 0 1
-0.721455 7.246372 -26.287569 27.277586 -1.471562 2.871349 0.117434 -0.032156 288141.000000 0 0 1
-0.817355 7.045672 -24.912429 25.902484 -1.455304 2.864218 0.127809 -0.050636 -338913.000000 0 0 1
0.223845 6.091072 -24.305729 25.058327 1.534063 2.895888 0.064725 -0.038682 6083.760000 0 0 1
1.564245 6.544072 -24.345029 25.257715 1.336167 2.871946 0.080466 -0.013157 859229.000000 0 0 1
2.550545 5.731272 -23.655829 24.473476 1.152089 2.882374 0.078013 0.010986 858577.000000 0 1 0
2.606745 6.017672 -22.130229 23.081476 1.162016 2.853500 0.062817 -0.002781 -74076.300000 0 1 0
3.159945 7.324872 -21.906529 23.313837 1.163518 2.792362 0.074273 -0.019213 363142.000000 0 1 0
2.528545 7.898772 -20.777129 22.371259 1.260986 2.761801 0.068569 -0.014204 56434.200000 0 1 0
2.876945 9.412972 -20.626829 22.854910 1.274177 2.696363 0.043502 -0.020300 -115958.000000 0 1 0
2.379045 10.090172 -19.451129 22.041276 1.339247 2.651919 0.057456 -0.025613 219243.000000 0 1 0
2.792045 11.443372 -19.393229 22.690165 1.331484 2.595764 0.059706 -0.020966 664221.000000 0 1 0
4.068545 11.715772 -18.502729 22.274724 1.236555 2.551089 0.059531 -0.026858 1035800.000000 0 1 0
5.236945 11.058072 -18.940529 22.548840 1.128503 2.568039 0.065204 -0.023328 295881.000000 0 1 0
6.280045 10.895872 -17.966329 21.930526 1.047934 2.530878 0.064162 -0.019596 578104.000000 0 1 0
7.500545 10.116672 -18.490029 22.371553 0.932819 2.543653 0.106771 -0.029441 -94002.900000 0 1 0
7.287145 8.772372 -18.802129 21.990385 0.877618 2.596378 0.080841 -0.015417 131195.000000 0 1 0
6.923745 8.586972 -20.181429 22.999226 0.892221 2.641385 0.065833 -0.000343 95134.700000 0 1 0
6.791545 7.066472 -20.546929 22.764806 0.805234 2.696508 0.073310 -0.001079 -1069570.000000 0 1 0
8.010045 6.451072 -20.621229 23.043703 0.678008 2.678947 0.076585 -0.004360 -909911.000000 0 1 0
7.940945 5.048372 -20.689129 22.728500 0.566285 2.714738 0.068840 -0.001679 -453459.000000 0 1 0
8.028245 4.502072 -22.146529 23.983122 0.511081 2.747698 0.091324 -0.016662 -763802.000000 0 1 0
6.956945 4.922872 -22.922229 24.455313 0.615822 2.785628 0.087701 -0.019051 -296203.000000 0 1 0
7.213145 4.657472 -24.254429 25.729338 0.573341 2.801357 0.083522 -0.028542 -266997.000000 0 0 1
6.306645 5.467572 -25.177269 26.524762 0.714255 2.821476 0.076371 -0.026624 -320719.000000 0 0 1
6.550445 6.870372 -25.212439 26.940257 0.809232 2.781502 0.063062 -0.037314 204090.000000 0 0 1
6.170045 7.590872 -24.046729 25.960277 0.888284 2.755240 0.093113 -0.039123 -1115320.000000 0 0 1
6.006245 9.098372 -24.336529 26.666871 0.987322 2.720427 0.111218 -0.048530 153624.000000 0 0 1
4.868945 9.533472 -25.044629 27.236504 1.098609 2.737665 0.114186 -0.053134 117882.000000 0 0 1
3.625945 9.290472 -24.401429 26.360768 1.198692 2.753605 0.114413 -0.041547 -131357.000000 0 0 1
2.419645 9.589872 -25.349479 27.210594 1.323642 2.769596 0.138839 -0.034051 244593.000000 0 0 1
2.011445 10.963872 -25.449409 27.783535 1.389353 2.728762 0.153965 -0.049244 3412.340000 0 0 1
0.949545 11.129072 -26.358339 28.627258 1.485681 2.740776 0.172571 -0.056245 42544.200000 0 0 1
0.565745 12.569372 -26.693389 29.510103 1.525817 2.701121 0.157775 -0.053571 383867.000000 0 0 1
-0.203455 13.276472 -25.696629 28.924433 -1.555473 2.664657 0.148762 -0.048558 153168.000000 0 0 1
-0.626555 14.466672 -26.210289 29.944222 -1.527513 2.636860 0.141403 -0.047131 -283160.000000 0 0 1
-1.157755 15.414272 -25.171629 29.538976 -1.495828 2.590876 0.140694 -0.048276 493810.000000 0 0 1
-2.356255 14.982272 -24.497929 28.812652 -1.414804 2.587255 0.116842 -0.034633 321162.000000 0 0 1
-2.407055 15.437072 -23.175129 27.949664 -1.416115 2.548424 0.106200 -0.036636 -102982.000000 0 0 1
-3.737555 14.986672 -22.511829 27.301137 -1.326390 2.540247 0.086091 -0.031297 972512.000000 0 0 1
-4.978555 15.603572 -22.862729 28.124044 -1.261942 2.519953 0.090518 -0.029517 386480.000000 0 0 1
-5.439155 15.226372 -24.167029 29.077003 -1.227705 2.551949 0.106580 -0.039459 -814261.000000 0 0 1
-6.943755 15.274072 -24.452029 29.654928 -1.144115 2.540206 0.096303 -0.036007 -86326.100000 0 0 1
-7.488655 16.593772 -24.670929 30.660854 -1.146868 2.505864 0.107220 -0.032915 -131355.000000 0 0 1
-8.794255 16.521072 -25.197079 31.387538 -1.081640 2.502728 0.125435 -0.035326 -161843.000000 0 0 1
-9.432855 17.877872 -25.478549 32.523123 -1.085292 2.470911 0.130648 -0.032406 -160734.000000 0 0 1
-9.720655 18.737172 -24.410529 32.271453 -1.092230 2.428607 0.133015 -0.036640 -195501.000000 0 0 1
-10.846955 19.519972 -24.697629 33.296526 -1.063599 2.406469 0.115852 -0.025509 -70567.100000 0 0 1
-11.080455 20.529272 -23.579329 33.169447 -1.075865 2.361538 0.096584 -0.024304 -215414.000000 0 0 1
-10.500255 21.799872 -23.629229 33.820559 -1.121923 2.344326 0.130869 -0.015324 -449748.000000 0 0 1
-11.272755 22.850172 -24.144629 35.102257 -1.112496 2.329301 0.099847 -0.020262 -353426.000000 0 0 1
-11.351655 23.017072 -25.667389 36.296839 -1.112616 2.356259 0.081244 -0.018612 -101528.000000 0 0 1
-11.937355 21.965672 -26.406129 36.363097 -1.072992 2.383545 0.082777 -0.023321 -5478.720000 0 0 1
-11.839955 22.378672 -27.742129 37.558158 -1.084162 2.401854 0.079107 -0.013369 -125849.000000 0 0 1
-12.696855 21.641372 -28.766959 38.171940 -1.040218 2.424341 0.091163 -0.013314 -21615.800000 0 0 1
-12.046655 20.461572 -29.294409 37.708888 -1.038693 2.460455 0.114703 -0.022573 160013.000000 0 0 1
-12.012055 19.311272 -28.403889 36.386750 -1.014341 2.466439 0.129984 -0.025604 -773875.000000 0 0 1
-10.888655 18.468172 -28.940699 36.016666 -1.038066 2.504009 0.111556 -0.023753 -1564980.000000 0 0 1
-9.631155 19.099172 -28.900889 35.955513 -1.103738 2.504445 0.097030 -0.027710 -221376.000000 0 0 1
-8.634155 18.404172 -29.634029 35.936581 -1.132139 2.540327 0.087281 -0.025015 514046.000000 0 0 1
-8.080855 17.081472 -28.962589 34.581910 -1.128918 2.563501 0.111650 -0.039943 -958535.000000 0 0 1
-9.026655 16.060372 -28.869909 34.247448 -1.058752 2.573595 0.083620 -0.034199 -316163.000000 0 0 1
-8.537055 14.886572 -28.283639 33.082557 -1.050110 2.596234 0.093559 -0.038948 -41161.000000 0 0 1
-9.714555 13.916472 -28.122279 32.846664 -0.961372 2.598604 0.097303 -0.029220 597431.000000 0 0 1
-10.771055 14.336672 -27.260319 32.629447 -0.926468 2.559750 0.111027 -0.028548 365572.000000 0 0 1
-11.963755 13.582272 -27.402279 32.840439 -0.848670 2.557852 0.143980 -0.031848 319609.000000 0 0 1
-13.055055 13.987272 -26.406469 32.609505 -0.819857 2.514570 0.131906 -0.031560 170213.000000 0 0 1
-13.714555 15.218372 -26.813649 33.744031 -0.837327 2.489176 0.132073 -0.030238 199346.000000 0 0 1
-14.780955 15.466172 -25.891199 33.586207 -0.808048 2.451030 0.102226 -0.027439 321004.000000 0 0 1
-15.719755 16.588972 -26.305069 34.846253 -0.812295 2.426282 0.084139 -0.019719 -226262.000000 0 0 1
-15.062155 17.836172 -26.394969 35.237649 -0.869520 2.417432 0.086278 -0.020941 9315.580000 0 0 1
-15.996755 18.891472 -26.537009 36.290450 -0.868180 2.390934 0.055637 -0.019877 -503105.000000 0 0 1
-15.394655 20.279872 -26.584779 36.810584 -0.921490 2.377781 0.065494 -0.018990 -203303.000000 0 0 1
-16.295055 21.366172 -26.419079 37.683018 -0.919244 2.347717 0.021597 -0.008381 37675.700000 0 0 1
-15.599355 22.596372 -26.470889 38.139794 -0.966578 2.337895 0.027037 -0.010785 15579.800000 0 0 1
-15.219055 23.275272 -25.157099 37.499834 -0.991704 2.306163 0.005084 -0.008032 -52053.900000 0 0 1
-14.595855 24.509872 -25.426119 38.213353 -1.033685 2.298789 0.031549 -0.010802 42239.200000 0 0 1
-14.119055 25.256272 -24.294129 37.781367 -1.061045 2.269230 0.038112 -0.011203 -110315.000000 0 0 1
-13.593455 26.653272 -24.635029 38.756465 -1.099172 2.259629 0.048053 -0.007043 -409404.000000 0 0 1
-14.615555 27.484672 -25.116529 39.998271 -1.082056 2.249700 0.066801 -0.010342 -308698.000000 0 0 1
-14.936055 28.416172 -24.121029 40.154559 -1.086865 2.215179 0.064493 -0.016456 -176329.000000 0 0 1
-16.281055 29.109972 -24.396129 41.323532 -1.060845 2.202312 0.052804 -0.015496 -396415.000000 0 0 1
-17.402055 28.300072 -24.210029 41.107798 -1.019484 2.200543 0.031165 -0.013560 148817.000000 0 0 1
-18.578155 29.038972 -24.628329 42.367019 -1.001649 2.191133 0.040653 -0.007124 1071110.000000 0 0 1
-19.838255 28.174072 -24.935029 42.533403 -0.957303 2.197213 0.074571 0.009461 91459.100000 0 0 1
-20.314855 27.698772 -23.734529 41.752164 -0.937991 2.175432 0.070322 -0.001053 -506921.000000 0 0 1
-21.490255 26.964472 -24.033629 42.030098 -0.897897 2.179518 0.068642 -0.011959 62149.100000 0 0 1
-22.130255 26.478572 -22.704329 41.307984 -0.874616 2.152724 0.074220 -0.009643 -294411.000000 0 0 1
-22.924955 27.457072 -22.072729 42.031533 -0.875112 2.123684 0.080015 -0.004303 -31443.300000 0 0 1
-23.406555 26.908372 -20.867029 41.320215 -0.854884 2.100187 0.064608 -0.001281 29461.000000 0 0 1
-24.555555 27.681572 -20.141629 42.129917 -0.845170 2.069268 0.053690 -0.000841 -67767.200000 0 0 1
-25.834405 27.305472 -20.549429 42.840218 -0.813074 2.071082 0.084897 -0.009784 -579326.000000 0 0 1
-26.728475 28.389272 -20.532129 44.067340 -0.815521 2.055477 0.089427 -0.019291 -133939.000000 0 0 1
-28.189435 28.031572 -20.842929 44.886980 -0.782590 2.053688 0.092654 -0.017076 -180543.000000 0 0 1
-28.356885 27.557372 -22.128429 45.312129 -0.771100 2.081001 0.093818 -0.019356 726410.000000 0 0 1
-29.760895 27.571472 -22.430829 46.357729 -0.747228 2.075861 0.096897 -0.019945 632461.000000 0 0 1
-30.054815 27.114372 -23.848029 46.980949 -0.734009 2.103206 0.092500 -0.016692 -10499.800000 0 0 1
-30.121995 25.740972 -24.056629 46.353572 -0.707134 2.116455 0.097598 0.006294 -70107.200000 0 0 1
-30.368705 25.529572 -25.448069 47.134080 -0.699043 2.141124 0.116225 0.006847 -35225.000000 0 0 1
-30.693625 24.077172 -25.753449 46.744507 -0.665178 2.154287 0.100869 -0.000484 164567.000000 0 0 1
-29.633915 23.116272 -25.728189 45.546357 -0.662464 2.171083 0.132841 -0.008076 76471.200000 0 0 1
-30.094555 21.838972 -25.993209 45.368159 -0.627753 2.180884 0.117678 -0.011925 -92619.500000 0 0 1
-29.008415 20.714572 -25.882369 44.050865 -0.620119 2.198832 0.126852 -0.018167 167577.000000 0 0 1
-28.783755 20.345072 -24.534029 42.945839 -0.615292 2.178859 0.116536 -0.006398 -128701.000000 0 0 1
-28.111095 19.112172 -24.540329 41.925369 -0.597095 2.196088 0.122571 -0.011369 -443193.000000 0 0 1
-28.935235 17.809672 -24.606229 41.951147 -0.551740 2.197582 0.106438 -0.011881 11829.100000 0 0 1
-29.696305 17.690772 -25.826829 43.149265 -0.537269 2.212481 0.105277 -0.018000 287381.000000 0 0 1
-30.279115 16.402872 -25.809809 43.035163 -0.496466 2.213970 0.073902 -0.015620 60056.500000 0 0 1
-30.978825 16.037372 -27.162359 44.211748 -0.477698 2.232383 0.062365 -0.016266 -4036.800000 0 0 1
-32.192085 16.671072 -27.448389 45.471629 -0.477835 2.218852 0.048199 -0.013210 -511984.000000 0 0 1
-32.824365 16.079472 -28.548329 46.378826 -0.455506 2.233876 0.045338 -0.009190 -760337.000000 0 0 1
-34.053963 16.856472 -28.908179 47.744066 -0.459634 2.221168 0.042705 -0.010990 -748199.000000 0 0 1
-35.216097 16.528772 -28.160879 48.025086 -0.438831 2.197377 0.020538 -0.003765 294746.000000 0 0 1
-36.370455 17.127672 -28.764709 49.432536 -0.440116 2.191857 0.036170 -0.004641 -350260.000000 0 0 1
-37.587395 16.578072 -28.072699 49.756619 -0.415390 2.170261 0.038313 -0.017460 -954954.000000 0 0 1
37.929876 17.264572 -26.872329 49.586923 0.427146 2.143521 0.057464 -0.029221 488249.000000 0 0 1
36.847266 16.571672 -26.230749 48.170463 0.422637 2.146637 0.071379 -0.024444 243254.000000 0 0 1
36.141706 17.403272 -25.150329 47.345916 0.448762 2.130817 0.073028 -0.020026 87149.700000 0 0 1
35.332496 18.461972 -25.650779 47.404558 0.481502 2.142545 0.074396 -0.038614 224722.000000 0 0 1
34.797336 19.255172 -24.630529 46.779046 0.505413 2.125309 0.098523 -0.027617 -110948.000000 0 0 1
34.233626 20.638672 -25.077629 47.188806 0.542532 2.131086 0.109037 -0.034778 493092.000000 0 0 1
32.983726 20.749172 -25.738719 46.700492 0.561523 2.154532 0.114200 -0.043473 612412.000000 0 0 1
31.861376 21.103672 -24.923029 45.625317 0.585014 2.148682 0.131502 -0.037038 -104850.000000 0 0 1
30.573626 21.257672 -25.696109 45.242958 0.607561 2.174819 0.099194 -0.040303 -665031.000000 0 0 1
30.052926 20.013472 -25.995589 44.491438 0.587500 2.194793 0.123546 -0.055940 -494885.000000 0 0 1
28.750826 20.106972 -26.538749 43.990971 0.610291 2.218400 0.121823 -0.060525 -183410.000000 0 0 1
28.152426 18.701672 -26.669429 43.053107 0.586363 2.238844 0.128108 -0.044353 -88812.100000 0 0 1
28.819726 17.775472 -27.568499 43.664243 0.552667 2.254121 0.128571 -0.055544 155942.000000 0 0 1
29.855526 17.115772 -26.883079 43.669234 0.520546 2.233952 0.140872 -0.046147 -252266.000000 0 0 1
30.737126 16.130872 -27.710779 44.416925 0.483291 2.244492 0.111909 -0.037650 -169479.000000 0 0 1
30.227726 14.924672 -28.306549 44.019563 0.458628 2.269264 0.121986 -0.045475 -59227.800000 0 0 1
29.612026 13.901572 -27.561829 42.775930 0.438916 2.270944 0.138019 -0.036801 -192847.000000 0 0 1
30.501326 13.308372 -26.438119 42.501974 0.411420 2.242148 0.130128 -0.026139 31448.000000 0 0 1
30.650326 14.255872 -25.396149 42.280453 0.435351 2.215122 0.133330 -0.030102 254648.000000 0 0 1
31.522306 13.765772 -24.378529 42.159992 0.411738 2.187364 0.104683 -0.017676 294435.000000 0 0 1
-16.230155 -31.122507 -23.143429 42.043390 1.090103 2.153718 0.115581 -0.021020 -27665.100000 0 0 1
-15.608655 -29.963707 -23.652129 41.241691 1.090554 2.181569 0.128483 -0.045962 171662.000000 0 0 1
-15.648655 -29.971307 -25.071629 42.092116 1.089609 2.208855 0.110307 -0.035370 -649084.000000 0 0 1
-14.712755 -28.913607 -25.597559 41.324289 1.100092 2.238814 0.131782 -0.043662 -731775.000000 0 0 1
-15.095055 -27.586207 -25.410209 40.429423 1.070109 2.250430 0.130497 -0.025729 -186477.000000 0 0 1
-14.241955 -26.682507 -26.116749 39.960906 1.080510 2.283071 0.125274 -0.028083 53295.100000 0 0 1
-14.529755 -25.198207 -25.934159 38.969783 1.047746 2.298952 0.073017 -0.009571 -76889.000000 0 0 1
-14.119155 -24.783307 -24.638929 37.691374 1.052951 2.283263 0.124679 -0.036755 -23664.800000 0 0 1
-14.404655 -23.441507 -24.390929 36.768407 1.019788 2.296105 0.093715 -0.030719 -151015.000000 0 0 1
-13.892055 -22.752807 -23.090429 35.268220 1.022645 2.284594 0.116078 -0.025658 152326.000000 0 0 1
-12.561455 -22.274207 -23.147229 34.492385 1.057309 2.306464 0.157831 -0.041596 -103647.000000 0 0 1
-12.235355 -21.482907 -21.997729 33.092587 1.053076 2.297932 0.130589 -0.033074 273613.000000 0 0 1
-10.701155 -21.306907 -21.930429 32.395103 1.105359 2.314431 0.142177 -0.040146 -5812.240000 0 0 1
-10.205355 -20.279907 -22.750429 32.140409 1.104572 2.357239 0.161466 -0.052092 1331560.000000 0 0 1
-8.746555 -20.327907 -22.724829 31.719771 1.164468 2.369460 0.176582 -0.057544 1268480.000000 0 0 1
-8.150555 -19.240607 -23.584729 31.509871 1.170102 2.416574 0.205020 -0.053979 -447877.000000 0 0 1
-8.306355 -18.000207 -22.939929 30.319026 1.138454 2.428922 0.155417 -0.048769 -233280.000000 0 0 1
-8.332955 -16.847607 -23.810729 30.335306 1.111472 2.473360 0.151575 -0.046758 -374613.000000 0 0 1
-7.037955 -16.519007 -24.552829 30.417952 1.168035 2.510159 0.180020 -0.053372 -547626.000000 0 0 1
-6.731655 -17.443807 -25.550809 31.661418 1.202499 2.509853 0.207144 -0.060539 -47642.200000 0 0 1
-5.738055 -16.824407 -26.362119 31.795397 1.242112 2.548324 0.169582 -0.057035 111438.000000 0 0 1
-5.279655 -17.619207 -27.580119 33.150779 1.279658 2.553427 0.175437 -0.041745 -541238.000000 0 0 1
-6.264755 -17.745507 -28.561379 34.203838 1.231422 2.558992 0.221129 -0.041079 -229064.000000 0 0 1
-5.757255 -18.304807 -29.765989 35.415054 1.266071 2.568983 0.211427 -0.046103 281779.000000 0 0 1
-6.888355 -18.535707 -30.871869 36.661890 1.214987 2.571906 0.229992 -0.044512 1124210.000000 0 0 1
-7.420155 -17.424507 -31.645729 36.879863 1.168209 2.602308 0.178380 -0.036319 204977.000000 0 0 1
-7.687255 -16.247607 -30.927349 35.771211 1.128874 2.615126 0.139484 -0.023612 -384598.000000 0 0 1
-8.323655 -15.184907 -31.835709 36.240544 1.069372 2.643417 0.094417 -0.023274 -20703.900000 0 0 1
-7.346055 -14.657507 -32.716279 36.594562 1.106205 2.677036 0.108338 -0.037187 -14028.300000 0 0 1
-7.826355 -13.752107 33.660406 37.194021 1.053406 0.439428 0.097169 -0.024178 -342929.000000 0 0 1
-7.989755 -12.263707 -33.283499 36.359676 0.993370 2.727287 0.069052 -0.021639 -601029.000000 0 0 1
-6.863255 -11.458507 -33.375809 35.949218 1.031138 2.760921 0.070530 -0.022271 -779834.000000 0 0 1
-6.646155 -10.866707 32.742928 35.133403 1.021886 0.371014 0.051544 -0.020307 10433.600000 0 0 1
-5.571755 -9.786907 32.876691 34.752047 1.053251 0.330019 0.076218 -0.029429 -146990.000000 0 0 1
-5.588455 -8.893807 31.743299 33.436023 1.009789 0.319558 0.050134 -0.023241 -311912.000000 0 0 1
-4.440655 -8.099407 31.790919 33.105624 1.069283 0.282765 0.065602 -0.035466 -420844.000000 0 0 1
-4.613055 -7.057607 30.569896 31.711333 0.991874 0.269119 0.062654 -0.029612 519715.000000 0 0 1
-5.671655 -6.116107 30.690826 31.804107 0.823085 0.265369 0.033192 -0.021266 284838.000000 0 0 1
-6.894055 -6.606707 30.162716 31.638047 0.764117 0.306589 0.038149 -0.019133 -270567.000000 0 0 1
-8.085855 -5.669807 30.208526 31.781800 0.611531 0.315963 0.026238 -0.009142 426092.000000 0 0 1
-9.258355 -6.084507 29.497806 31.509664 0.581414 0.359278 0.037717 -0.009149 521261.000000 0 0 1
-10.286855 -5.102107 29.390886 31.554319 0.460429 0.372452 0.041056 -0.015658 729821.000000 0 0 1
-11.488755 -5.685207 28.570076 31.313932 0.459519 0.421745 0.037501 -0.016353 7488.810000 0 0 1
-11.140755 -5.662807 27.254086 29.982812 0.470263 0.429941 0.044316 -0.019150 372570.000000 0 0 1
-12.075455 -6.219207 26.341026 29.636882 0.475598 0.476094 0.044215 -0.024056 93839.900000 0 0 1
-11.570255 -5.973707 24.874246 28.076397 0.476601 0.482261 0.044919 -0.025805 838910.000000 0 0 1
-10.382855 -6.702707 24.502996 27.443155 0.573244 0.467132 0.047198 -0.021796 741926.000000 0 0 1
-9.737555 -6.346307 23.289436 26.028704 0.577594 0.462903 0.058777 -0.029169 -43475.300000 0 0 1
-10.547555 -6.618607 21.984456 25.266048 0.560396 0.515354 0.088762 -0.038448 -270622.000000 0 0 1
-11.711755 -5.838907 21.974356 25.575972 0.462488 0.537132 0.058931 -0.028194 -156342.000000 0 0 1
-12.459955 -5.997707 20.759856 24.943829 0.448624 0.587617 0.067245 -0.036009 -808932.000000 0 1 0
-13.540955 -4.976107 20.706056 25.236082 0.352167 0.608522 0.074939 -0.034841 -1024560.000000 0 0 1
-13.119655 -3.619807 20.400456 24.523600 0.269209 0.588327 0.055762 -0.028691 145668.000000 0 1 0
-14.210755 -2.727207 20.460556 25.060279 0.189606 0.615554 0.069234 -0.025212 165732.000000 0 0 1
-13.895655 -1.293707 19.889656 24.297352 0.092834 0.611838 0.047876 -0.023299 -171708.000000 0 1 0
-13.102755 -0.451707 20.691956 24.495781 0.034461 0.564764 0.049530 -0.020543 -115293.000000 0 1 0
-13.253855 0.980293 20.489656 24.422360 -0.073828 0.575406 0.052935 -0.027121 -549517.000000 0 1 0
-12.826855 1.523293 19.114556 23.069783 -0.118205 0.594277 0.058734 -0.034050 -140158.000000 0 1 0
-13.543055 1.083293 17.961256 22.520981 -0.079819 0.647599 0.066646 -0.026202 -378604.000000 0 1 0
-14.827055 1.636293 17.999056 23.377019 -0.109914 0.692039 0.059131 -0.023755 -837489.000000 0 1 0
-15.905255 0.881293 17.212556 23.452631 -0.055352 0.746708 0.091605 -0.014648 -236752.000000 0 1 0
-16.214855 -0.396707 17.747856 24.042989 0.024461 0.740440 0.075286 -0.015530 291204.000000 0 1 0
-17.087755 -1.084707 16.873756 24.039376 0.063394 0.792705 0.096799 -0.012571 -352.953000 0 1 0
-17.089155 -2.571707 17.216856 24.394119 0.149367 0.787274 0.094055 -0.013339 13208.800000 0 1 0
-17.855355 -2.897307 18.357856 25.772446 0.160863 0.778019 0.106548 -0.014138 141273.000000 0 0 1
-17.803055 -4.297407 18.584956 26.092471 0.236855 0.778065 0.131632 -0.023877 90520.600000 0 0 1
-18.739755 -4.698407 19.756856 27.633075 0.245655 0.774213 0.126426 -0.025667 -268008.000000 0 0 1
-18.333555 -4.175907 21.007256 28.193301 0.223953 0.730089 0.117533 -0.023074 -34926.900000 0 0 1
-19.103155 -4.527107 22.139356 29.590139 0.232690 0.725451 0.112338 -0.024455 -730421.000000 0 0 1
-18.824555 -5.867207 22.822566 30.160529 0.302136 0.712541 0.133193 -0.022545 -71410.300000 0 0 1
-17.510655 -6.151107 23.245076 29.745465 0.337813 0.673784 0.066845 -0.031012 196143.000000 0 0 1
-16.622255 -6.635507 22.263756 28.565786 0.379811 0.677112 0.085510 -0.028299 -627105.000000 0 0 1
-15.339055 -7.256507 22.815746 28.434165 0.441876 0.639480 0.093066 -0.026912 -537411.000000 0 0 1
-15.421855 -8.555607 23.378856 29.284858 0.506499 0.646286 0.098962 -0.036208 -45231.200000 0 0 1
-15.463355 -8.600407 24.749266 30.423815 0.507575 0.620680 0.085872 -0.031191 -88231.400000 0 0 1
-16.679855 -9.320207 25.336716 31.733783 0.509552 0.646139 0.076983 -0.019145 -503100.000000 0 0 1
-16.592755 -10.753907 25.165306 32.004041 0.575044 0.665972 0.089933 -0.030623 144447.000000 0 0 1
-15.795355 -11.372907 26.183096 32.625002 0.624034 0.639244 0.076367 -0.026169 140302.000000 0 0 1
-15.781555 -12.899207 25.988236 33.027798 0.685237 0.665093 0.077682 -0.030416 -83779.300000 0 0 1
-16.962055 -13.611907 26.310126 34.135290 0.676258 0.690763 0.085900 -0.025965 50159.100000 0 0 1
-16.929055 -15.012107 26.039126 34.496265 0.725455 0.715388 0.090190 -0.026422 73522.600000 0 0 1
-16.038155 -15.928407 26.936616 35.164156 0.781965 0.698162 0.085103 -0.019790 1198110.000000 0 0 1
-14.619955 -15.745507 26.793416 34.344595 0.822448 0.675915 0.095059 -0.030511 874673.000000 0 0 1
-13.868355 -16.689707 27.519096 35.045374 0.877465 0.667710 0.102637 -0.035817 634539.000000 0 0 1
-12.476255 -16.983407 26.834496 34.120129 0.937215 0.665722 0.118823 -0.041703 554782.000000 0 0 1
-11.587655 -17.507807 27.799856 34.837179 0.986131 0.646837 0.155160 -0.049439 135171.000000 0 0 1
-10.474555 -18.102907 27.123406 34.250703 1.046252 0.656869 0.154517 -0.054023 558603.000000 0 0 1
-9.461355 -18.834107 28.067506 35.100224 1.105269 0.644103 0.191217 -0.065388 -10891.300000 0 0 1
-9.794855 -20.107407 28.475686 36.209276 1.117500 0.665805 0.189547 -0.058418 114970.000000 0 0 1
-8.853555 -20.666207 29.383056 36.997858 1.166043 0.653135 0.215992 -0.061667 55656.700000 0 0 1
-9.140355 -22.086507 29.855656 38.245523 1.178413 0.675121 0.210244 -0.061269 -85974.500000 0 0 1
-9.090355 -23.040907 28.809886 37.993782 1.195013 0.710127 0.239569 -0.062939 130416.000000 0 0 1
-9.054155 -24.351207 29.302066 39.160823 1.214820 0.725377 0.199330 -0.053987 -142738.000000 0 0 1
-9.215455 -25.435107 28.230126 39.099991 1.223195 0.764110 0.188185 -0.040737 -628543.000000 0 0 1
-10.442655 -25.361407 27.574126 38.891932 1.180199 0.782726 0.164053 -0.040063 -437857.000000 0 0 1
-10.754555 -26.647307 27.124516 39.515551 1.187200 0.814233 0.142128 -0.035449 549393.000000 0 0 1
-12.125955 -26.611207 26.326256 39.348022 1.143236 0.837851 0.124002 -0.030777 740800.000000 0 0 1
-12.236455 -26.119307 25.011666 38.177643 1.132679 0.856430 0.136285 -0.035997 -39231.700000 0 0 1
-12.259455 -24.719907 24.954996 37.203761 1.110406 0.835556 0.119518 -0.020977 -157910.000000 0 0 1
-12.669155 -24.171007 23.555506 36.050061 1.088018 0.858715 0.129865 -0.042705 -232376.000000 0 0 1
-14.019455 -24.367907 23.247126 36.479705 1.048718 0.879856 0.103301 -0.029608 -333118.000000 0 0 1
-14.159855 -24.139907 21.848456 35.504811 1.040307 0.907946 0.119152 -0.044273 -363033.000000 0 0 1
-15.594355 -24.161907 21.335156 35.807409 0.997654 0.932497 0.094796 -0.048966 -330788.000000 0 0 1
-16.204855 -25.450607 21.050256 36.789183 1.003815 0.961627 0.105463 -0.049848 932445.000000 0 0 1
-17.376555 -25.367207 20.215356 36.798104 0.970208 0.989200 0.095893 -0.054422 434217.000000 0 0 1
-17.773855 -26.781907 19.802456 37.753380 0.984884 1.018643 0.089251 -0.055797 853581.000000 0 0 1
-16.662055 -27.360607 19.059456 37.275860 1.023800 1.034090 0.099680 -0.058075 1009910.000000 0 0 1
-16.865955 -28.696807 18.762956 38.210151 1.039448 1.057506 0.101267 -0.048875 100586.000000 0 0 1
-15.817155 -29.272507 17.781656 37.725977 1.075399 1.079990 0.111073 -0.045066 193592.000000 0 0 1
-16.072255 -28.756307 16.520356 36.853286 1.061136 1.105963 0.108309 -0.051944 466288.000000 0 0 1
-14.865755 -28.880307 15.779756 36.111819 1.095429 1.118570 0.109727 -0.058008 586645.000000 0 0 1
-15.114055 -28.395107 14.344956 35.220654 1.081662 1.151314 0.112001 -0.039745 78574.200000 0 0 1
-15.114655 -27.003407 14.204556 34.050054 1.060512 1.140471 0.113450 -0.048117 -222598.000000 0 0 1
-15.398555 -26.555807 12.887356 33.292797 1.045320 1.173321 0.122094 -0.042574 54475.300000 0 0 1
-14.450755 -26.932407 11.713256 32.731930 1.078333 1.204828 0.106850 -0.034380 291811.000000 0 0 1
-14.778655 -26.321107 10.454956 31.945507 1.059185 1.237378 0.095648 -0.031978 223472.000000 0 0 1
-13.712455 -26.593707 9.551556 31.408420 1.094725 1.261794 0.092118 -0.031578 395950.000000 0 0 1
-13.842955 -25.793307 8.235756 30.409698 1.078231 1.296545 0.099413 -0.027878 -90105.800000 0 0 1
-14.852055 -26.139907 7.321556 30.943229 1.054106 1.331918 0.099115 -0.041398 -287649.000000 0 0 1
-14.900255 -25.238907 6.246356 29.967265 1.037489 1.360817 0.099761 -0.043162 383512.000000 0 0 1
-15.868955 -25.746907 5.127656 30.676046 1.018446 1.402853 0.099229 -0.045482 583712.000000 0 0 1
-15.291355 -26.875007 4.433656 31.236978 1.053498 1.428379 0.065945 -0.035221 385701.000000 0 0 1
-16.028255 -27.168107 3.264656 31.712284 1.037788 1.467668 0.127312 -0.040569 -42462.800000 0 0 1
-15.384655 -28.379307 2.640656 32.388975 1.074032 1.489176 0.131407 -0.036720 -376695.000000 0 0 1
-14.094755 -28.193107 2.150656 31.593333 1.107200 1.502671 0.058778 -0.014288 -773810.000000 0 0 1
-13.576155 -29.419507 1.704756 32.445732 1.138447 1.518230 0.064465 -0.016182 956630.000000 0 0 1
-12.233755 -29.196007 0.875956 31.667631 1.174000 1.543132 0.070247 -0.018285 731202.000000 0 0 1
-12.393655 -28.504407 -0.315044 31.083808 1.160656 1.580932 0.077515 -0.019190 45467.100000 0 0 1
-12.531155 -27.093107 -0.222544 29.851563 1.137578 1.578251 0.068544 -0.021348 -457094.000000 0 0 1
-12.338455 -26.340707 -1.625644 29.132680 1.132732 1.626627 0.083840 -0.032062 -1896450.000000 0 0 1
-11.085555 -26.478307 -2.062144 28.779206 1.174303 1.642512 0.095576 -0.038732 -2310800.000000 0 0 1
-10.924155 -25.969307 -3.370444 28.374318 1.172610 1.689862 0.117861 -0.035946 38308.400000 0 0 1
-9.574355 -26.236007 -4.047044 28.220115 1.220882 1.714702 0.108248 -0.035697 167751.000000 0 0 1
-8.944855 -25.203907 -4.834344 27.177532 1.229763 1.749628 0.114374 -0.039380 -507599.000000 0 0 1
-7.630655 -25.610807 -5.052644 27.196866 1.281224 1.757662 0.123147 -0.031656 -486156.000000 0 0 1
-6.806355 -24.653307 -5.918644 26.251521 1.301424 1.798211 0.092842 -0.026694 -71365.100000 0 0 1
-7.204055 -24.540507 -7.259444 26.586357 1.285260 1.847360 0.114498 -0.029986 -65.767100 0 0 1
-6.230855 -23.743107 -7.907544 25.789299 1.314155 1.882437 0.094030 -0.016240 203870.000000 0 0 1
-6.343155 -23.619407 -9.437544 26.214103 1.308430 1.939083 0.108931 -0.031040 -93073.400000 0 0 1
-6.000655 -24.886907 -10.012044 27.488307 1.334195 1.943601 0.093667 -0.028796 -118973.000000 0 0 1
-6.096055 -24.911507 -11.440244 28.082454 1.330804 1.990380 0.084754 -0.007602 80045.400000 0 0 1
-7.545055 -24.911407 -11.982744 28.654706 1.276704 2.002234 0.117697 -0.020851 -60395.200000 0 0 1
-7.507755 -24.878507 -13.401844 29.238945 1.277710 2.046941 0.132525 -0.025906 -2942.300000 0 0 1
-8.506155 -25.662507 -14.011644 30.450699 1.250731 2.048951 0.167132 -0.030131 -685944.000000 0 0 1
-8.488355 -25.352307 -15.546444 30.927068 1.247712 2.097493 0.169365 -0.033348 -394679.000000 0 0 1
-7.396955 -25.855707 -16.242644 31.417447 1.292153 2.114132 0.145564 -0.049904 -563104.000000 0 0 1
-6.267355 -25.026407 -16.163444 30.444338 1.325413 2.130480 0.146589 -0.039700 -1500030.000000 0 0 1
-5.020355 -25.656507 -16.710744 31.027556 1.377562 2.139544 0.138399 -0.036609 -1074690.000000 0 0 1
-5.013455 -25.972607 -18.090244 32.046341 1.380113 2.170627 0.210359 -0.048103 125637.000000 0 0 1
-3.989755 -26.881107 -18.453844 32.848994 1.423450 2.167330 0.185490 -0.057978 111918.000000 0 0 1
-26.849145 14.687972 -4.287129 30.902954 -0.500580 1.709974 0.182751 -0.051767 -334517.000000 0 0 1
-26.205845 13.646172 -3.634929 29.768726 -0.480094 1.693207 0.191742 -0.047748 -498446.000000 0 0 1
-24.963345 13.399472 -4.199629 28.641776 -0.492626 1.717953 0.215416 -0.043122 -781252.000000 0 0 1
-24.408555 11.984872 -3.985129 27.482649 -0.456431 1.716315 0.210329 -0.041828 -282710.000000 0 0 1
-24.832255 11.025672 -4.915529 27.611026 -0.417858 1.749778 0.215510 -0.019301 515184.000000 0 0 1
-26.188735 10.626972 -4.725129 28.655003 -0.385483 1.736450 0.233877 -0.028089 234131.000000 0 0 1
-26.498115 9.679272 -5.929729 28.827072 -0.350223 1.777975 0.246920 -0.024743 -80757.600000 0 0 1
-26.645615 10.372172 -7.156329 29.475139 -0.371217 1.816039 0.281042 -0.031677 112679.000000 0 0 1
-26.740115 9.593572 -8.316029 29.601127 -0.344467 1.855566 0.266862 -0.032076 -178307.000000 0 0 1
-27.093965 10.372372 -9.552129 30.543612 -0.365617 1.888870 0.271406 -0.032548 -100125.000000 0 0 1
-26.123745 11.330072 -9.909929 30.150079 -0.409223 1.905709 0.233075 -0.030122 249574.000000 0 0 1
-26.509565 11.882572 -11.187929 31.130729 -0.421387 1.938406 0.226457 -0.037322 176861.000000 0 0 1
-25.531245 12.913272 -11.841129 30.964648 -0.468263 1.963197 0.185271 -0.028421 24168.800000 0 0 1
-25.378275 14.121372 -11.117929 31.097883 -0.507771 1.936401 0.167588 -0.033320 169732.000000 0 0 1
-24.839255 15.150572 -11.923529 31.443584 -0.547700 1.959732 0.137269 -0.023229 -40582.100000 0 0 1
-24.830255 16.526372 -11.252029 31.879001 -0.587246 1.931530 0.146682 -0.035113 -66181.600000 0 0 1
-23.984255 16.567472 -10.113029 30.854481 -0.604501 1.904734 0.133288 -0.024985 131453.000000 0 0 1
-23.884755 17.914172 -9.678429 31.385842 -0.643517 1.884275 0.093472 -0.018212 270033.000000 0 0 1
-22.777455 18.206172 -8.620529 30.407083 -0.674318 1.858242 0.092968 -0.021422 81358.500000 0 0 1
-23.124755 17.610472 -7.369929 29.986645 -0.650847 1.819114 0.120491 -0.032754 352645.000000 0 0 1
-24.006455 18.338372 -6.538329 30.908826 -0.652334 1.783943 0.123028 -0.032157 -76982.100000 0 0 1
-24.381655 17.665072 -5.221929 30.557952 -0.626996 1.742525 0.125935 -0.021792 -664486.000000 0 0 1
-23.293855 17.467372 -4.395229 29.445387 -0.643418 1.720623 0.123856 -0.035193 -593297.000000 0 0 1
-23.680655 17.145472 -3.096429 29.399464 -0.626671 1.676315 0.125906 -0.034865 275652.000000 0 0 1
-22.532855 16.866972 -2.050229 28.221051 -0.642573 1.643509 0.140709 -0.050925 164215.000000 0 0 1
-21.833355 18.022672 -1.721729 28.363294 -0.690077 1.631536 0.133150 -0.049459 -190180.000000 0 0 1
-20.805955 17.776372 -0.798329 27.377445 -0.707036 1.599961 0.178366 -0.072588 -183849.000000 0 0 1
-20.174855 19.026272 -0.126629 27.731567 -0.756107 1.575363 0.150102 -0.057066 -91929.600000 0 0 1
-21.037155 19.775972 0.696971 28.881425 -0.754507 1.546662 0.127032 -0.046501 -28273.900000 0 0 1
-20.607255 21.106072 0.881971 29.511067 -0.797356 1.540906 0.149879 -0.049187 -178314.000000 0 0 1
-21.654255 21.933272 1.635671 30.865038 -0.791799 1.517777 0.115201 -0.034504 -5367.030000 0 0 1
-21.732555 21.535272 2.983271 30.740393 -0.780839 1.473596 0.125525 -0.035066 -441665.000000 0 0 1
-22.936255 21.886072 3.561071 31.902244 -0.761973 1.458939 0.097137 -0.034037 -731480.000000 0 0 1
-22.936055 21.526172 5.073771 31.861918 -0.753699 1.410873 0.118934 -0.036362 -444691.000000 0 0 1
-22.157455 22.491672 5.780771 32.097436 -0.792883 1.389708 0.102584 -0.032830 996897.000000 0 0 1
-21.185955 21.914072 6.690471 31.206308 -0.802290 1.354724 0.094729 -0.029426 522344.000000 0 0 1
-21.733255 21.680872 8.112871 31.752374 -0.784192 1.312427 0.096973 -0.039100 111705.000000 0 0 1
-22.690455 20.584272 8.210471 31.717201 -0.736766 1.308949 0.115325 -0.041042 1078990.000000 0 0 1
-23.150155 20.207572 9.488971 32.160787 -0.717635 1.271291 0.135383 -0.036743 28792.600000 0 0 1
-23.916755 21.247972 10.330471 33.618538 -0.726377 1.258458 0.155236 -0.036889 291511.000000 0 0 1
-25.181035 21.661772 9.792271 34.629546 -0.710410 1.284113 0.182250 -0.035695 906952.000000 0 0 1
-26.057975 22.130472 10.801471 35.853140 -0.704075 1.264772 0.193436 -0.041354 1110300.000000 0 0 1
-27.398235 22.781172 10.229771 37.071462 -0.693645 1.291221 0.189510 -0.040256 996509.000000 0 0 1
-28.229725 23.393072 11.186471 38.331323 -0.691979 1.274650 0.186985 -0.037197 109923.000000 0 0 1
-28.025315 24.791972 11.287171 39.082738 -0.724257 1.277821 0.172470 -0.035517 -117942.000000 0 0 1
-28.611605 25.338372 12.564971 40.231027 -0.724801 1.253162 0.175613 -0.036534 -57692.500000 0 0 1
-27.686425 25.413972 13.638771 39.980297 -0.742629 1.222670 0.153670 -0.039573 300288.000000 0 0 1
-28.272295 25.856972 14.862171 41.094887 -0.740806 1.200754 0.144927 -0.032051 314153.000000 0 0 1
-27.152495 26.051772 15.911071 40.854804 -0.764712 1.170758 0.129758 -0.038373 509229.000000 0 0 1
-26.479305 24.832472 16.279071 39.784587 -0.753315 1.149241 0.145981 -0.040694 292144.000000 0 0 1
-25.298225 25.101972 17.008771 39.489333 -0.781504 1.125508 0.121685 -0.030479 -257424.000000 0 0 1
-24.738155 23.856872 17.648571 38.634165 -0.767265 1.096388 0.128502 -0.026138 -745899.000000 0 0 1
-23.585755 24.081672 18.397671 38.401680 -0.795801 1.071184 0.126045 -0.040926 -175132.000000 0 0 1
-23.202755 22.910372 19.119171 37.799414 -0.779058 1.040480 0.132232 -0.044726 -1218640.000000 0 0 1
-21.789055 22.968372 19.620571 37.246152 -0.811741 1.015987 0.108250 -0.040916 -1846340.000000 0 0 1
-20.843455 22.977272 18.558471 36.149986 -0.834054 1.031684 0.113763 -0.046822 639579.000000 0 0 1
-19.546555 22.524072 18.963971 35.341672 -0.856055 1.004406 0.098932 -0.039743 481640.000000 0 0 1
-19.465455 21.007172 19.208171 34.484185 -0.823473 0.980010 0.108349 -0.020204 -703465.000000 0 0 1
-20.159255 20.474772 20.323671 35.194651 -0.793163 0.955176 0.120726 -0.018491 -126970.000000 0 0 1
-19.442055 20.660272 21.531071 35.614988 -0.815767 0.921594 0.106742 -0.014506 -320386.000000 0 0 1
-20.139255 20.278972 22.845571 36.588883 -0.788855 0.896452 0.108942 -0.012081 198432.000000 0 0 1
-21.290055 21.121872 22.978571 37.781141 -0.781433 0.917003 0.112946 -0.016923 274567.000000 0 0 1
-21.993055 20.941972 24.174971 38.816103 -0.760922 0.898470 0.101333 -0.018683 -910781.000000 0 0 1
-23.166655 21.841472 24.304471 40.055600 -0.755963 0.918808 0.104181 -0.015696 -1320030.000000 0 0 1
-22.813955 23.195372 24.432471 40.687190 -0.793688 0.926676 0.107561 -0.020973 1426650.000000 0 0 1
-23.949055 24.141772 24.532371 41.931129 -0.789405 0.945838 0.111084 -0.024093 1225440.000000 0 0 1
-24.655955 24.487272 23.183171 41.773221 -0.781966 0.982461 0.098225 -0.027796 869164.000000 0 0 1
-25.773405 23.605872 22.900871 41.784632 -0.741531 0.990742 0.086783 -0.031622 792922.000000 0 0 1
-26.336435 23.848972 21.623971 41.592997 -0.735873 1.024069 0.090292 -0.036041 -412381.000000 0 0 1
-27.452755 22.890672 21.283371 41.600703 -0.695026 1.033738 0.100321 -0.034999 125801.000000 0 0 1
-28.723385 23.200372 21.872671 42.915077 -0.679429 1.035991 0.078973 -0.035459 551025.000000 0 0 1
-29.647785 22.173672 21.577271 42.851388 -0.642158 1.043108 0.085387 -0.035412 917275.000000 0 0 1
-31.120155 22.444872 22.074571 44.266500 -0.624834 1.048728 0.103873 -0.029069 210034.000000 0 0 1
-31.687745 23.533972 21.394571 44.896422 -0.638802 1.074091 0.114486 -0.031627 -339294.000000 0 0 1
-33.083895 23.648072 21.475571 45.988863 -0.620584 1.084931 0.116071 -0.028748 -117703.000000 0 0 1
-33.888065 22.734172 20.545571 45.687679 -0.590901 1.104371 0.120702 -0.044113 -1051580.000000 0 0 1
-33.887735 21.430972 21.009771 45.266716 -0.563911 1.088141 0.107993 -0.044242 340484.000000 0 0 1
-34.603062 20.547672 20.139671 45.002056 -0.535856 1.106797 0.104657 -0.037989 935083.000000 0 0 1
-36.148275 20.448572 20.377571 46.261077 -0.514806 1.114651 0.134617 -0.040401 590382.000000 0 0 1
-36.848155 19.556272 19.544771 46.067693 -0.487925 1.132650 0.118560 -0.031389 -951901.000000 0 0 1
37.705096 19.778572 19.558871 46.855262 0.483102 1.140179 0.153432 -0.050745 -901165.000000 0 0 1
37.020976 18.988272 18.459771 45.517801 0.473919 1.153215 0.156938 -0.056490 -260966.000000 0 0 1
37.354276 17.631672 18.411771 45.224010 0.441008 1.151493 0.147889 -0.056955 350570.000000 0 0 1
36.714446 17.025372 17.298371 44.011901 0.434208 1.166863 0.171323 -0.068134 95399.300000 0 0 1
37.128626 15.545072 17.227871 43.783372 0.396507 1.166383 0.182486 -0.072325 15431.300000 0 0 1
36.315066 14.753272 16.378571 42.481768 0.385889 1.175000 0.207628 -0.071971 221804.000000 0 0 1
36.752846 13.432372 16.304471 42.391462 0.350397 1.176004 0.194224 -0.060689 246510.000000 0 0 1
35.699286 12.674972 15.442771 40.909327 0.341165 1.183714 0.181667 -0.064635 316617.000000 0 0 1
35.655786 13.200272 14.104871 40.552800 0.354568 1.215557 0.176959 -0.065324 277038.000000 0 0 1
34.692656 12.493472 13.345171 39.214293 0.345661 1.223546 0.177987 -0.055641 -180222.000000 0 0 1
34.644806 12.873572 11.844271 38.810799 0.355775 1.260669 0.183724 -0.055665 -243317.000000 0 0 1
35.856826 12.558072 11.192071 39.606559 0.336878 1.284312 0.158975 -0.041730 329354.000000 0 0 1
35.770936 12.773672 9.786371 39.223712 0.342983 1.318631 0.152324 -0.039805 -1228750.000000 0 0 1
37.122416 12.824972 9.146771 40.326382 0.332640 1.341986 0.095099 -0.015736 -1374570.000000 0 0 1
37.786486 11.575072 9.128771 40.560267 0.297252 1.343785 0.147305 -0.029818 350288.000000 0 0 1
-36.821625 11.653272 8.580971 39.563416 -0.306506 1.352167 0.189850 -0.032851 347287.000000 0 0 1
-36.720405 11.339272 7.052671 39.073103 -0.299511 1.389302 0.151875 -0.039206 -453413.000000 0 0 1
-37.034865 12.465772 6.303571 39.581709 -0.324684 1.410861 0.149794 -0.047240 58340.400000 0 0 1
-36.783325 12.244272 4.933671 39.080383 -0.321339 1.444214 0.185676 -0.054884 219285.000000 0 0 1
-37.884885 12.892772 3.997371 40.217746 -0.328020 1.471239 0.168841 -0.059073 448627.000000 0 0 1
36.828206 12.134572 4.174971 38.999935 0.318289 1.463540 0.142731 -0.054762 1273820.000000 0 0 1
35.671626 13.032272 4.376271 38.229004 0.350275 1.456070 0.139135 -0.050649 1239920.000000 0 0 1
35.610556 13.782172 5.774571 38.618721 0.369271 1.420706 0.107955 -0.038828 -985815.000000 0 0 1
34.870836 15.008072 5.759971 38.397847 0.406427 1.420220 0.101573 -0.035788 337520.000000 0 0 1
34.301466 15.440572 6.984071 38.259365 0.422973 1.387222 0.080169 -0.029119 30925.000000 0 0 1
33.014016 14.750772 7.456371 36.920292 0.420192 1.367439 0.138723 -0.039339 -501356.000000 0 0 1
33.165766 13.396972 7.750271 36.599365 0.383898 1.357421 0.168758 -0.043088 -186429.000000 0 0 1
31.936896 12.793572 8.061371 35.335909 0.381014 1.340634 0.185660 -0.040500 -337828.000000 0 0 1
31.706766 11.487772 7.201871 34.484124 0.347602 1.360402 0.185950 -0.040402 -279523.000000 0 0 1
31.465066 11.734072 5.811071 34.080894 0.356949 1.399451 0.152840 -0.039763 245457.000000 0 0 1
31.662866 10.577872 4.990871 33.754070 0.322421 1.422392 0.165120 -0.040845 -202584.000000 0 0 1
31.309936 10.639772 3.493071 33.252344 0.327578 1.465555 0.148323 -0.050043 -45578.900000 0 0 1
29.921426 10.667872 3.244571 31.931527 0.342480 1.469010 0.146348 -0.042624 27905.300000 0 0 1
29.723826 10.931472 1.836571 31.723428 0.352415 1.512871 0.172162 -0.055722 -819849.000000 0 0 1
28.249226 10.873372 1.507971 30.307143 0.367429 1.521019 0.186798 -0.042724 -640050.000000 0 0 1
27.753426 9.541472 1.240571 29.373991 0.331136 1.528550 0.184622 -0.040000 -601208.000000 0 0 1
26.383426 9.376472 1.366171 28.033369 0.341471 1.522043 0.194001 -0.036536 -892801.000000 0 0 1
25.988226 7.885272 1.390871 27.193747 0.294589 1.519627 0.215381 -0.038118 121597.000000 0 0 1
26.533826 7.110772 2.451071 27.579244 0.261836 1.481805 0.229346 -0.031457 189693.000000 0 0 1
27.940026 6.985672 2.503471 28.908684 0.245001 1.484088 0.247430 -0.037910 -281988.000000 0 0 1
28.383326 6.496572 3.933171 29.381771 0.225011 1.436529 0.236164 -0.043556 -520234.000000 0 0 1
29.784326 6.414472 3.974771 30.725402 0.212124 1.441068 0.253273 -0.038782 -154461.000000 0 0 1
30.068926 5.982672 5.284571 31.110438 0.196400 1.400104 0.238286 -0.027361 476757.000000 0 0 1
31.577876 5.904672 5.664571 32.620772 0.184853 1.396262 0.188586 -0.031733 398441.000000 0 0 1
32.267456 7.090772 5.880871 33.556704 0.216312 1.394635 0.187788 -0.040380 246509.000000 0 0 1
33.625936 6.838572 6.244771 34.877884 0.200636 1.390779 0.168817 -0.035522 641839.000000 0 0 1
34.255696 7.914272 7.149071 35.877536 0.227051 1.370190 0.126613 -0.036295 -373036.000000 0 0 1
33.704526 8.025072 8.417571 35.654625 0.233748 1.332460 0.155866 -0.036002 -213947.000000 0 0 1
34.283586 9.010272 9.206171 36.623801 0.257004 1.316700 0.178727 -0.038482 -432618.000000 0 0 1
33.945206 8.879472 10.669671 36.673749 0.255850 1.275593 0.191577 -0.042159 -1017240.000000 0 0 1
32.626906 9.207672 10.953971 35.627036 0.275058 1.258271 0.199202 -0.045082 -402979.000000 0 0 1
32.378716 8.913872 12.337771 35.777911 0.268645 1.218725 0.209839 -0.048421 274755.000000 0 0 1
31.038676 9.522072 12.879471 34.927783 0.297666 1.193137 0.191416 -0.045767 142234.000000 0 0 1
30.992886 10.962272 12.946771 35.331986 0.339970 1.195625 0.239184 -0.069322 198893.000000 0 0 1
30.775626 11.772972 11.824971 35.008169 0.365366 1.226242 0.227185 -0.067144 -140071.000000 0 0 1
29.407326 11.716272 11.095571 33.543606 0.379138 1.233666 0.191040 -0.050033 -232581.000000 0 0 1
29.337526 12.596872 9.997971 33.456404 0.405573 1.267324 0.170136 -0.035907 -632237.000000 0 0 1
28.152126 12.557872 9.291471 32.195865 0.419582 1.278040 0.169400 -0.034669 -818717.000000 0 0 1
27.975726 13.838172 8.387971 32.318637 0.459358 1.308251 0.170736 -0.033667 -208005.000000 0 0 1
27.598626 14.959872 9.091571 32.682389 0.496720 1.288898 0.157372 -0.032490 66583.000000 0 0 1
27.876326 16.102472 8.348571 33.257747 0.523816 1.317056 0.151141 -0.026104 -1227740.000000 0 0 1
27.215926 17.370772 8.953771 33.505527 0.568076 1.300276 0.161200 -0.036748 60515.500000 0 0 1
25.884226 17.670072 8.616071 32.503250 0.598992 1.302506 0.173832 -0.043876 25786.400000 0 0 1
24.932426 16.688072 9.032571 31.332171 0.589846 1.278362 0.199390 -0.045983 -1698040.000000 0 0 1
23.557926 17.292172 9.191671 30.634651 0.633200 1.266060 0.188899 -0.058707 -1051890.000000 0 0 1
23.074326 17.724372 7.912671 30.152748 0.655012 1.305268 0.187559 -0.051401 -138331.000000 0 0 1
21.952526 18.558772 8.093871 29.863893 0.701820 1.296338 0.218043 -0.057016 -215018.000000 0 0 1
21.412226 19.221672 6.799071 29.566593 0.731541 1.338762 0.192124 -0.050242 260404.000000 0 0 1
22.246526 20.240972 6.232971 30.715709 0.738230 1.366453 0.124932 -0.030825 137193.000000 0 0 1
21.770826 20.563772 4.960771 30.355342 0.756894 1.406637 0.157158 -0.037556 -73955.500000 0 0 1
19.094845 17.018372 32.842778 41.627949 0.727962 0.661682 0.131198 -0.039575 -21263.500000 0 0 1
18.188545 17.776272 32.070921 40.931198 0.773935 0.670466 0.130348 -0.041081 125169.000000 0 0 1
17.739045 16.934172 31.049346 39.566422 0.762189 0.668520 0.158525 -0.048238 -117653.000000 0 0 1
17.170045 17.687572 29.814836 38.685722 0.800244 0.690867 0.160456 -0.054528 -76928.000000 0 0 1
18.173645 18.190572 28.953056 38.722832 0.785864 0.726205 0.154108 -0.042397 334211.000000 0 0 1
17.610845 18.437772 27.642176 37.605627 0.808333 0.745050 0.142990 -0.043117 323335.000000 0 0 1
18.715745 18.630972 26.566166 37.458689 0.783128 0.782416 0.142202 -0.040641 -190672.000000 0 0 1
19.301845 19.862672 26.743356 38.500572 0.799717 0.802902 0.146465 -0.041792 -181166.000000 0 0 1
20.095645 20.106072 25.580366 38.241916 0.785658 0.838056 0.145150 -0.039415 571570.000000 0 0 1
21.008245 21.416272 25.707216 39.507771 0.795016 0.862307 0.155387 -0.034376 1107900.000000 0 0 1
20.163045 22.577572 25.588106 39.636426 0.841831 0.869026 0.134982 -0.044818 818540.000000 0 0 1
20.874945 23.698972 26.061156 40.946165 0.848670 0.880879 0.135838 -0.041275 -279565.000000 0 0 1
20.128645 24.970372 25.865526 41.203243 0.892346 0.892131 0.152474 -0.040438 -444030.000000 0 0 1
20.309545 25.367272 24.545926 40.724422 0.895677 0.923875 0.155222 -0.042689 666993.000000 0 0 1
19.322445 26.355272 24.198266 40.663415 0.938165 0.933423 0.154828 -0.047187 279772.000000 0 0 1
19.542645 27.048872 22.826756 40.430399 0.945133 0.970855 0.135005 -0.048057 -533768.000000 0 0 1
20.593245 27.952072 22.953846 41.620657 0.935840 0.986633 0.151675 -0.044212 -475941.000000 0 0 1
20.752445 28.730572 21.794156 41.606429 0.945252 1.019471 0.137292 -0.043143 514032.000000 0 0 1
22.066145 29.598772 21.731056 42.839711 0.930176 1.038789 0.150575 -0.032706 609851.000000 0 0 1
23.241845 28.828472 21.511456 42.825306 0.892279 1.044531 0.152259 -0.035872 -71272.200000 0 0 1
24.253445 29.592672 20.882156 43.589221 0.884232 1.071205 0.155127 -0.047971 -153904.000000 0 0 1
24.199645 29.815472 19.311556 42.982803 0.888994 1.104831 0.154901 -0.047051 -172507.000000 0 0 1
23.300545 30.850172 18.904156 43.035051 0.923924 1.116007 0.135454 -0.035139 374983.000000 0 0 1
23.358045 30.952672 17.528256 42.554740 0.924334 1.146259 0.145068 -0.020749 -73024.600000 0 0 1
22.755545 32.181072 16.870756 42.872585 0.955315 1.166351 0.157084 -0.025299 -132363.000000 0 0 1
23.674545 33.261372 17.037356 44.238834 0.952213 1.175456 0.155088 -0.033646 540989.000000 0 0 1
23.922745 -33.630807 15.838556 44.206207 -0.952504 1.204363 0.143871 -0.035569 -108326.000000 0 0 1
24.865845 33.344872 14.790456 44.146894 0.930042 1.229161 0.121294 -0.030999 -135337.000000 0 0 1
24.374045 32.278372 13.941956 42.782771 0.924026 1.238856 0.151085 -0.037499 267817.000000 0 0 1
23.308745 32.575572 13.043056 42.125844 0.949725 1.256002 0.112568 -0.030118 27369.100000 0 0 1
22.952645 31.349272 12.139756 40.705950 0.938812 1.267958 0.113247 -0.044569 -170929.000000 0 0 1
23.960045 30.905772 11.246756 40.690785 0.911323 1.290755 0.128012 -0.057690 -41293.300000 0 0 1
23.504345 29.747972 10.578856 39.361253 0.902111 1.298688 0.107962 -0.054910 -864437.000000 0 0 1
24.504345 29.045772 9.619056 39.200076 0.870003 1.322881 0.108690 -0.052360 916468.000000 0 0 1
25.719445 28.508372 10.188656 39.724373 0.836783 1.311414 0.127477 -0.051356 418700.000000 0 0 1
26.635345 29.481872 10.551556 41.109095 0.836079 1.311219 0.122825 -0.047342 -593476.000000 0 0 1
28.082145 28.907772 10.794356 41.722706 0.799884 1.309103 0.135189 -0.052291 757791.000000 0 0 1
28.162545 28.059772 11.892956 41.496049 0.783570 1.280116 0.140611 -0.045863 -175731.000000 0 0 1
29.407845 28.134672 12.556056 42.591497 0.763276 1.271548 0.108258 -0.034915 147040.000000 0 0 1
29.578945 27.014572 13.588956 42.300837 0.740117 1.243752 0.102560 -0.047415 34560.600000 0 0 1
30.859545 27.148272 14.158656 43.471918 0.721506 1.239048 0.082647 -0.050871 18405.700000 0 0 1
31.028745 26.187072 15.202456 43.355050 0.700978 1.212531 0.091483 -0.049793 -35926.200000 0 0 1
32.202045 26.453472 16.163956 44.699344 0.687704 1.200797 0.089711 -0.060095 666519.000000 0 0 1
33.515045 26.148272 15.671656 45.305531 0.662548 1.217587 0.119259 -0.050998 621538.000000 0 0 1
34.444345 26.309972 16.736356 46.462168 0.652300 1.202298 0.093668 -0.042968 1169350.000000 0 0 1
35.950345 26.127672 16.300056 47.336818 0.628468 1.219258 0.120866 -0.053632 1022250.000000 0 0 1
36.405145 27.026772 15.335156 47.863848 0.638612 1.244654 0.133361 -0.044117 319685.000000 0 0 1
37.828545 27.153672 15.240956 48.995994 0.622579 1.254483 0.162878 -0.041077 1068240.000000 0 0 1
-37.707036 28.249072 14.217256 49.213423 -0.642971 1.277729 0.131137 -0.043388 254911.000000 0 0 1
37.617745 29.413472 14.781256 49.987324 0.663609 1.270608 0.126235 -0.035850 25474.400000 0 0 1
37.870345 30.542872 13.942156 50.610411 0.678699 1.291707 0.097557 -0.004755 93448.000000 0 0 1
36.887345 31.695672 14.225356 50.672010 0.709843 1.286238 0.072527 -0.013563 -946100.000000 0 0 1
36.953445 32.816172 13.412056 51.208802 0.726168 1.305796 0.036909 -0.010512 158578.000000 0 0 1
35.936545 33.778772 13.655056 51.175201 0.754457 1.300695 0.041886 -0.007555 265143.000000 0 0 1
34.523245 33.425972 13.141456 49.818148 0.769251 1.303849 0.097855 -0.006521 -236766.000000 0 0 1
33.902245 32.383872 13.917056 48.905642 0.762496 1.282239 0.091978 -0.028286 -1302.150000 0 0 1
32.846245 31.790772 13.172856 47.571557 0.769070 1.290223 0.114444 -0.024490 -342200.000000 0 0 1
32.118245 30.682572 13.943856 46.555697 0.762541 1.266618 0.133891 -0.037516 -886050.000000 0 0 1
31.293145 31.209972 14.891356 46.637707 0.784067 1.245807 0.129100 -0.032525 -463663.000000 0 0 1
30.774545 30.204572 15.724056 45.898090 0.776051 1.221128 0.114014 -0.042545 275586.000000 0 0 1
29.788345 30.750172 16.809856 45.994454 0.801285 1.196653 0.107660 -0.043469 310980.000000 0 0 1
29.434945 29.851872 17.876756 45.575526 0.792430 1.167726 0.085752 -0.035237 -113053.000000 0 0 1
30.367145 29.855072 18.935356 46.605112 0.776895 1.152402 0.073511 -0.035403 -109768.000000 0 0 1
30.210145 28.717372 19.995856 46.229585 0.760071 1.123495 0.069971 -0.025281 -317404.000000 0 0 1
29.131845 28.704772 20.889856 45.924006 0.778014 1.098560 0.094227 -0.031420 -183819.000000 0 0 1
29.250645 27.636972 21.841656 45.787120 0.757040 1.073528 0.069125 -0.022082 -269756.000000 0 0 1
28.138645 27.688572 22.900396 45.638454 0.777336 1.045143 0.089907 -0.023777 -302777.000000 0 0 1
26.830345 27.571872 22.372286 44.503873 0.799028 1.044072 0.141685 -0.035672 -93233.300000 0 0 1
25.815445 27.456972 23.336856 44.327546 0.816202 1.016360 0.167760 -0.042584 -42073.900000 0 0 1
25.687745 26.122472 24.197726 43.906420 0.793789 0.987090 0.131773 -0.042267 86200.900000 0 0 1
26.660045 25.947672 25.285686 44.982280 0.771858 0.973843 0.099628 -0.032312 478422.000000 0 0 1
26.306145 24.959472 26.172876 44.721448 0.759136 0.945618 0.134651 -0.039466 -904903.000000 0 0 1
27.492345 24.612072 27.065796 45.761779 0.730175 0.937941 0.124530 -0.042239 247334.000000 0 0 1
28.046245 25.616672 27.992146 47.184382 0.740154 0.935706 0.156310 -0.032185 400026.000000 0 0 1
28.569445 26.737272 27.291386 47.706547 0.752283 0.961771 0.106840 -0.017528 -1033800.000000 0 0 1
29.085945 27.865372 28.242646 49.194696 0.763970 0.959293 0.063751 -0.006152 -550205.000000 0 0 1
30.247345 27.474372 28.896666 50.047580 0.737395 0.955275 0.052323 0.002945 -739616.000000 0 0 1
30.586745 28.527872 29.798246 51.354882 0.750584 0.951771 0.055508 -0.002296 -198740.000000 0 0 1
32.105945 28.727772 29.793156 52.380423 0.729924 0.965769 0.048604 -0.000269 -151775.000000 0 0 1
32.597645 29.200972 28.498886 52.225374 0.730490 0.993584 0.038073 0.004045 450750.000000 0 0 1
34.004145 29.430472 28.428966 53.203765 0.713422 1.007068 0.055005 -0.004030 711706.000000 0 0 1
34.479445 30.108672 27.099876 53.195559 0.717830 1.036264 0.048823 -0.001779 -75658.700000 0 0 1
34.043745 31.409672 26.890146 53.559537 0.745176 1.044816 0.043371 0.003004 190143.000000 0 0 1
34.584845 31.949872 25.681356 53.632433 0.745816 1.071463 0.045011 -0.002257 37514.400000 0 0 1
34.327445 33.457172 25.554506 54.321161 0.772560 1.081014 0.044616 -0.006378 -347011.000000 0 0 1
35.196745 -33.406507 26.351956 55.219843 -0.759309 1.073309 0.072575 -0.020345 204677.000000 0 0 1
35.024845 -32.027107 26.070726 54.149405 -0.740720 1.068478 0.068270 -0.013835 -60313.500000 0 0 1
36.089745 -31.231007 26.851846 54.761913 -0.713350 1.058319 0.069527 -0.020305 174189.000000 0 0 1
35.739745 -30.982007 28.174086 55.054457 -0.714212 1.033577 0.082511 -0.026510 650198.000000 0 0 1
36.806945 -30.192607 28.687576 55.581667 -0.686995 1.028465 0.081201 -0.032960 237188.000000 0 0 1
36.591645 -29.876007 30.199336 56.067139 -0.684704 1.001988 0.096755 -0.035203 -92929.200000 0 0 1
36.703545 -30.934507 31.161476 57.228764 -0.700311 0.994995 0.105755 -0.034677 -344072.000000 0 0 1
35.570045 -31.749007 31.148406 56.951301 -0.728699 0.992103 0.096907 -0.033849 -572565.000000 0 0 1
35.446545 -32.857107 32.199108 58.076067 -0.747506 0.983119 0.100366 -0.027512 -586557.000000 0 0 1
35.119245 -32.241307 33.397126 58.208515 -0.742700 0.959719 0.092022 -0.032634 164580.000000 0 0 1
35.250145 -33.015407 -32.800839 58.382230 -0.752674 2.167392 0.094714 -0.030185 197004.000000 0 0 1
34.217845 33.453472 -32.635449 57.922951 0.774103 2.169326 0.099496 -0.027922 475047.000000 0 0 1
34.556345 32.383272 -33.511259 58.015702 0.752946 2.186611 0.093429 -0.028278 334339.000000 0 0 1
33.535945 31.414672 -33.378619 56.795012 0.752750 2.199014 0.088434 -0.021398 352713.000000 0 0 1
33.716845 30.347472 32.889156 56.031163 0.732853 0.943473 0.083663 -0.015768 5326.400000 0 0 1
34.854945 29.565172 33.133089 56.451467 0.703468 0.943534 0.086906 -0.015506 -259043.000000 0 0 1
35.203145 28.767872 32.007994 55.600032 0.685139 0.957357 0.072839 -0.012670 5679.240000 0 0 1
36.621645 28.151472 32.068105 56.231784 0.655369 0.963944 0.066518 -0.013506 44160.300000 0 0 1
36.721445 26.935272 32.836687 56.144647 0.632859 0.946090 0.055666 -0.007098 618621.000000 0 0 1
-37.821836 26.630272 33.061262 56.856923 -0.613471 0.950248 0.060329 -0.015842 594769.000000 0 0 1
-37.648936 25.243372 33.677806 56.470035 -0.590647 0.931808 0.056240 -0.022915 43594.500000 0 0 1
37.811645 24.209072 32.884952 55.652670 0.569494 0.938627 0.049572 -0.018688 -50306.200000 0 0 1
37.755145 22.998672 33.642546 55.553674 0.547123 0.920294 0.053483 -0.027801 -285108.000000 0 0 1
37.489245 21.747772 32.788431 54.346023 0.525664 0.923130 0.050721 -0.029908 -265521.000000 0 0 1
-37.373136 21.324672 31.959146 53.599253 -0.518512 0.931961 0.056867 -0.026704 -187513.000000 0 0 1
-37.744936 20.305072 31.095426 52.951880 -0.493548 0.943152 0.047042 -0.020132 -201727.000000 0 0 1
-36.558736 19.621372 30.400006 51.436366 -0.492581 0.938472 0.053991 -0.032675 54619.000000 0 0 1
-35.814936 20.452372 29.498486 50.706704 -0.518866 0.949921 0.050266 -0.027058 105080.000000 0 0 1
-34.841236 19.778672 28.720876 49.294993 -0.516316 0.948832 0.054171 -0.026914 -19216.300000 0 0 1
-35.416636 18.964972 27.515156 48.693861 -0.491629 0.970285 0.074110 -0.026030 -99415.900000 0 0 1
-36.074036 17.792272 27.955096 48.983552 -0.458205 0.963434 0.074745 -0.024775 145719.000000 0 0 1
-36.346436 16.868572 26.909876 48.267521 -0.434522 0.979407 0.095290 -0.032206 87785.200000 0 0 1
-36.880336 15.535472 27.483316 48.547325 -0.398682 0.969012 0.114892 -0.048736 161055.000000 0 0 1
-35.858736 14.705472 28.018796 47.824186 -0.389178 0.944842 0.096238 -0.039279 254985.000000 0 0 1
-36.394436 13.716872 28.875636 48.440788 -0.360431 0.932159 0.093945 -0.048477 65421.300000 0 0 1
-35.327036 12.736772 29.391206 47.687187 -0.346033 0.906718 0.098592 -0.038497 -342592.000000 0 0 1
-34.228336 13.262372 30.080096 47.458210 -0.369656 0.884311 0.108135 -0.026743 -22803.400000 0 0 1
-33.450936 12.157172 30.558166 46.910164 -0.348591 0.861343 0.089688 -0.021746 -433730.000000 0 0 1
-31.963036 12.495772 30.566266 45.957335 -0.372676 0.843167 0.107890 -0.017508 -1381890.000000 0 0 1
-31.415936 12.596472 29.291556 44.761897 -0.381332 0.857426 0.092081 -0.017430 1015960.000000 0 0 1
-30.013336 12.906272 29.147856 43.783212 -0.406113 0.842323 0.071153 -0.012203 1190780.000000 0 0 1
-28.992736 11.854572 29.676376 43.148545 -0.388139 0.812380 0.087379 -0.007516 -915988.000000 0 0 1
-29.072736 10.621472 28.951666 42.382055 -0.350276 0.818782 0.081936 -0.013317 497008.000000 0 0 1
-28.106236 9.695172 29.501546 41.884342 -0.332166 0.789279 0.068109 -0.001635 80161.200000 0 0 1
-27.739836 8.556972 28.518176 40.694061 -0.299211 0.794286 0.059168 -0.007892 401164.000000 0 0 1
-28.654936 7.477772 28.265756 40.938678 -0.255266 0.808697 0.071779 -0.023248 595408.000000 0 0 1
-29.950736 7.858272 27.789486 41.605944 -0.256590 0.839384 0.077734 -0.025991 -63582.000000 0 0 1
-30.806036 6.629072 27.595056 41.886078 -0.211955 0.851558 0.088800 -0.030250 -575347.000000 0 0 1
-31.278936 6.094672 28.833026 42.975112 -0.192438 0.835342 0.089886 -0.031286 -59256.900000 0 0 1
-32.122436 4.989472 28.635056 43.321036 -0.154095 0.848650 0.112966 -0.036102 5783.610000 0 0 1
-32.867136 4.467672 29.927726 44.675245 -0.135103 0.836729 0.108001 -0.033735 254321.000000 0 0 1
-33.997036 5.216272 30.312836 45.846221 -0.152246 0.848399 0.121589 -0.040167 -256025.000000 0 0 1
-34.697536 4.721372 31.428153 47.052515 -0.135242 0.839362 0.130192 -0.041956 824477.000000 0 0 1
-36.072036 5.452872 31.666453 48.308279 -0.150030 0.855942 0.141590 -0.044050 591354.000000 0 0 1
-36.128136 6.811072 32.068892 48.785723 -0.186338 0.853510 0.147580 -0.044709 991560.000000 0 0 1
-37.493036 7.307172 31.984123 49.820745 -0.192481 0.873713 0.149774 -0.044943 1379990.000000 0 0 1
-37.587336 8.754472 32.420965 50.404043 -0.228831 0.872098 0.133620 -0.038152 30270.200000 0 0 1
-37.631536 8.842172 -33.495389 51.149366 -0.230781 2.284786 0.136353 -0.032740 19472.600000 0 0 1
37.942345 10.104172 -33.122019 51.369095 0.260263 2.271538 0.131901 -0.031640 -254740.000000 0 0 1
37.711245 10.283972 -31.636069 50.286568 0.266230 2.251211 0.117075 -0.030404 -49566.300000 0 0 1
36.591245 9.550672 -31.189589 49.019639 0.255314 2.260446 0.123939 -0.028584 -27708.100000 0 0 1
36.310145 9.656172 -29.769029 47.936034 0.259920 2.240834 0.100108 -0.025929 164644.000000 0 0 1
35.013145 9.018672 -29.244699 46.502787 0.252100 2.250909 0.107727 -0.024316 40422.900000 0 0 1
35.215945 7.583572 -29.273329 46.417681 0.212106 2.253187 0.111621 -0.029146 11424.200000 0 0 1
33.988245 6.905572 -29.200439 45.338211 0.200447 2.270588 0.128985 -0.023239 -354984.000000 0 0 1
37.302746 5.551572 -19.235729 42.335896 0.147740 2.042450 0.097872 -0.016641 -518265.000000 0 0 1
36.716526 6.355572 -18.235929 41.485487 0.171400 2.025920 0.089031 -0.020181 282201.000000 0 0 1
36.954206 7.739372 -18.435029 42.016205 0.206448 2.025015 0.055582 -0.014584 306896.000000 0 0 1
-37.526415 8.192572 -18.009229 42.422664 -0.214942 2.009227 0.081212 -0.024169 811706.000000 0 0 1
-36.390915 7.888872 -18.804829 41.715160 -0.213478 2.038448 0.096288 -0.024837 374958.000000 0 0 1
-36.234515 8.702972 -19.947629 42.268070 -0.235719 2.062277 0.079582 -0.016103 -138995.000000 0 0 1
-35.175222 8.126972 -20.952029 41.741244 -0.227058 2.096649 0.070144 -0.009694 68511.100000 0 0 1
-35.481798 6.871172 -21.496129 42.050619 -0.191286 2.107373 0.062291 0.001284 137010.000000 0 0 1
-36.364005 6.879772 -22.603229 43.365633 -0.186982 2.119081 0.053306 0.003534 151512.000000 0 0 1
-36.184225 5.598672 -23.518729 43.517513 -0.153510 2.141760 0.073852 -0.000095 -1617.170000 0 0 1
-34.962616 5.591072 -24.210429 42.892767 -0.158573 2.170552 0.083832 -0.002976 -168275.000000 0 0 1
-34.787340 4.269172 -24.696329 42.875326 -0.122111 2.184627 0.091374 -0.002420 326811.000000 0 0 1
-33.527465 4.024572 -25.602569 42.376640 -0.119466 2.219516 0.103563 -0.006624 908677.000000 0 0 1
-32.341575 4.065872 -24.800529 40.958211 -0.125060 2.221201 0.105900 -0.009818 68272.200000 0 0 1
-31.193865 3.792372 -25.595669 40.528726 -0.120981 2.254339 0.116759 -0.009868 -461476.000000 0 0 1
-29.989895 4.222972 -24.795929 39.141607 -0.139893 2.256855 0.112927 -0.017965 -932176.000000 0 0 1
-29.762855 5.632072 -24.823729 39.163316 -0.187020 2.257319 0.089931 -0.006083 77024.300000 0 0 1
-28.467555 6.039772 -24.436929 38.000580 -0.209063 2.269293 0.090820 -0.006682 136462.000000 0 0 1
-28.078375 7.494872 -24.666329 38.118185 -0.260845 2.274573 0.080651 -0.010257 22059.200000 0 0 1
-28.644955 8.387672 -23.703929 38.115125 -0.284852 2.241967 0.087180 -0.011561 -199540.000000 0 0 1
-28.276975 9.700072 -23.922929 38.288187 -0.330459 2.245687 0.075687 -0.014714 738634.000000 0 0 1
-26.854625 10.154272 -23.436029 37.061133 -0.361503 2.255394 0.095050 -0.014199 599369.000000 0 0 1
-26.759885 10.111572 -22.014029 36.096438 -0.361278 2.226689 0.081990 -0.010923 -628350.000000 0 0 1
-25.479185 10.499672 -21.637029 35.037024 -0.390884 2.236417 0.114656 -0.025636 -822892.000000 0 0 1
-25.276795 10.824372 -20.109429 34.065709 -0.404606 2.202243 0.137652 -0.038834 -808528.000000 0 0 1
-25.792045 12.108272 -19.782829 34.687176 -0.438917 2.177693 0.132653 -0.041732 2146840.000000 0 0 1
-27.248865 12.220472 -19.664429 35.756543 -0.421586 2.153105 0.124228 -0.019635 1727880.000000 0 0 1
-28.045005 11.301272 -18.684729 35.543778 -0.383063 2.124313 0.109893 -0.024237 -596069.000000 0 0 1
-27.780975 11.592972 -17.316329 34.728012 -0.395330 2.092811 0.130230 -0.034489 283113.000000 0 0 1
-28.604955 10.814472 -16.474429 34.736193 -0.361453 2.064934 0.138201 -0.037583 -943445.000000 0 0 1
-28.049025 10.611772 -15.043829 33.551070 -0.361686 2.035755 0.177796 -0.040390 793890.000000 0 0 1
-26.981275 9.664672 -14.758429 32.236723 -0.343960 2.046331 0.197971 -0.040205 1721080.000000 0 0 1
-25.783145 9.950872 -15.477629 31.675660 -0.368331 2.081313 0.172771 -0.030798 -676217.000000 0 0 1
-24.723055 8.832872 -15.457729 30.466219 -0.343139 2.102930 0.121258 -0.026255 -140911.000000 0 0 1
-23.422355 9.245972 -15.814729 29.735507 -0.375972 2.131576 0.102511 -0.017840 151148.000000 0 0 1
-22.525555 8.213772 -15.454029 28.525317 -0.349659 2.143332 0.109369 -0.027164 10166.400000 0 0 1
-21.034055 8.574472 -15.306629 27.390618 -0.387081 2.163768 0.156534 -0.038938 -143267.000000 0 0 1
-20.358055 8.866372 -16.485529 27.655662 -0.410749 2.209431 0.162043 -0.049648 -323248.000000 0 0 1
-18.979655 8.963572 -16.253329 26.547008 -0.441221 2.229696 0.159454 -0.047743 -665354.000000 0 0 1
-18.219055 9.560772 -17.457329 26.983341 -0.483265 2.274396 0.113931 -0.034918 -240372.000000 0 0 1
-17.970955 8.733872 -18.585129 27.288143 -0.452384 2.320019 0.158916 -0.059697 381249.000000 0 0 1
-17.082055 7.637772 -18.430729 26.264500 -0.420458 2.348627 0.180653 -0.052211 -425206.000000 0 0 1
-16.897455 6.771372 -19.749329 26.859104 -0.381138 2.396896 0.167804 -0.051061 259377.000000 0 0 1
-17.982655 5.913572 -20.056229 27.578951 -0.317709 2.385073 0.167824 -0.043428 -232200.000000 0 0 1
-19.022555 6.530972 -20.728029 28.881870 -0.330718 2.371266 0.141250 -0.044598 -459069.000000 0 0 1
-20.025955 5.575572 -21.444329 29.866120 -0.271540 2.371743 0.125328 -0.028489 310381.000000 0 0 1
-20.849955 4.802972 -20.577029 29.685069 -0.226409 2.336685 0.125583 -0.028104 261610.000000 0 0 1
-21.496655 3.729272 -21.230329 30.442413 -0.171772 2.342550 0.096057 -0.006398 -418974.000000 0 0 1
-22.290055 3.044572 -20.133729 30.190777 -0.135749 2.300815 0.111470 -0.010324 -477473.000000 0 0 1
-22.921855 1.871372 -20.539529 30.834814 -0.081461 2.299784 0.124208 -0.007881 -37340.000000 0 0 1
-23.617255 1.286072 -19.465229 30.632073 -0.054401 2.259391 0.115961 -0.013610 -503534.000000 0 0 1
-24.072955 -0.172328 -19.817729 31.181393 0.007158 2.259533 0.121093 -0.005525 -9553.420000 0 0 1
-23.039855 -1.146928 -19.829129 30.419480 0.049739 2.280826 0.100526 -0.013342 75396.900000 0 0 1
-23.394355 -2.381028 -20.392929 31.126142 0.101429 2.285205 0.123503 -0.029064 -464573.000000 0 0 1
-23.840355 -2.472028 -21.869629 32.446173 0.103322 2.310444 0.122419 -0.026981 908574.000000 0 0 1
-22.781355 -2.264028 -22.846529 32.343158 0.099056 2.355166 0.075268 -0.018877 1396370.000000 0 0 1
-21.794055 -3.325928 -22.916929 31.799816 0.151439 2.375554 0.054172 -0.024874 561147.000000 0 0 1
-20.947555 -3.276428 -24.194829 32.170247 0.155154 2.422020 0.060328 -0.014218 -293219.000000 0 0 1
-21.779455 -3.508228 -25.269199 33.543774 0.159708 2.423892 0.055986 -0.010983 -143696.000000 0 0 1
-21.044455 -3.825528 -26.458589 34.022944 0.179820 2.461746 0.050697 -0.012518 -237504.000000 0 0 1
-21.777055 -3.942428 -27.834019 35.560027 0.179096 2.469842 0.057511 -0.020925 37209.800000 0 0 1
-22.612455 -5.118228 -27.831639 36.223191 0.222595 2.447036 0.065620 -0.028934 345859.000000 0 0 1
-23.372055 -5.148328 -29.027029 37.620828 0.216815 2.452099 0.046689 -0.021497 -153876.000000 0 0 1
-23.039055 -6.358428 -29.894649 38.274244 0.269282 2.467165 0.066664 -0.033619 -560635.000000 0 0 1
-21.796155 -6.143228 -30.479779 37.971418 0.274723 2.502611 0.066910 -0.038954 -668923.000000 0 0 1
-21.177255 -7.353428 -30.860419 38.143342 0.334207 2.513355 0.087470 -0.043319 -1091420.000000 0 0 1
-19.722755 -7.158028 -31.219509 37.614920 0.348149 2.549862 0.099616 -0.044479 -1253500.000000 0 0 1
-19.503055 -6.551228 -32.508059 38.471570 0.324066 2.577341 0.094650 -0.054778 272305.000000 0 0 1
-19.618255 -7.483928 -33.580069 39.604371 0.364438 2.582785 0.103053 -0.052440 -652756.000000 0 0 1
-19.472455 -6.928728 32.366626 38.402894 0.341852 0.568300 0.093334 -0.052093 -561368.000000 0 0 1
-18.207555 -6.740628 31.823579 37.278564 0.354565 0.547805 0.104628 -0.051074 -593592.000000 0 0 1
-17.754455 -5.377728 31.910710 36.911164 0.294110 0.526587 0.072366 -0.054831 1146500.000000 0 0 1
-16.353455 -5.180128 31.179176 35.586658 0.306762 0.502984 0.069621 -0.046873 877574.000000 0 0 1
-16.480355 -5.355028 29.758696 34.436295 0.314172 0.527305 0.064381 -0.045943 -402873.000000 0 0 1
-15.439455 -4.818528 29.022996 33.225431 0.302513 0.508414 0.045283 -0.030642 -524801.000000 0 0 1
-15.786355 -4.815228 27.486246 32.060710 0.296060 0.540758 0.055814 -0.030433 207233.000000 0 0 1
-16.864655 -3.950028 27.145836 32.201176 0.230072 0.567946 0.066726 -0.034596 100297.000000 0 0 1
-17.330155 -3.963528 25.826176 31.353392 0.224840 0.602869 0.090079 -0.033879 -141424.000000 0 0 1
-16.314855 -3.545528 24.708766 29.820603 0.213992 0.594229 0.080945 -0.026828 -48451.000000 0 0 1
-15.923155 -2.217128 24.755556 29.517793 0.138350 0.575968 0.072818 -0.023580 128529.000000 0 0 1
-14.848455 -2.081328 23.816726 28.143294 0.139264 0.561858 0.068394 -0.021523 325694.000000 0 0 1
-14.355455 -0.641728 23.897496 27.885143 0.044673 0.541382 0.071992 -0.021692 -40905.000000 0 0 1
-15.325155 0.239772 23.340246 27.922839 -0.015644 0.581056 0.070025 -0.024493 295255.000000 0 0 1
-15.639155 1.338372 24.150706 28.803316 -0.085370 0.576327 0.050813 -0.014544 -353503.000000 0 0 1
-16.508155 2.283372 23.323756 28.665843 -0.137446 0.620406 0.057490 -0.018925 -662570.000000 0 0 1
-15.854055 2.963572 22.278956 27.504285 -0.184796 0.626614 0.058549 -0.021959 141312.000000 0 0 1
-16.597355 3.988672 21.670456 27.586054 -0.235847 0.667198 0.063233 -0.017960 -393994.000000 0 0 1
-15.686955 4.612872 20.590956 26.293471 -0.285996 0.671128 0.051626 -0.012069 448845.000000 0 0 1
-14.715455 5.448272 21.232156 26.401377 -0.354592 0.636457 0.048556 -0.018987 586102.000000 0 0 1
-13.616055 5.716872 20.377156 25.165613 -0.397511 0.627118 0.040340 -0.016096 209416.000000 0 0 1
-12.570355 6.748072 20.793156 25.217169 -0.492671 0.601366 0.032707 -0.016970 -115098.000000 0 0 1
-13.048155 8.041172 20.653856 25.719575 -0.552296 0.638417 0.046087 -0.023263 562709.000000 0 0 1
-12.018055 9.007972 20.281156 25.236927 -0.643204 0.637426 0.051504 -0.027908 589728.000000 0 0 1
-12.415255 10.489772 20.189856 25.919185 -0.701532 0.677800 0.044164 -0.027103 -320996.000000 0 0 1
-13.049455 10.845172 18.994856 25.469797 -0.693408 0.729092 0.059697 -0.027338 -19590.300000 0 0 1
-13.066755 12.241872 19.019256 26.121554 -0.752817 0.755242 0.028406 -0.021977 -364045.000000 0 0 1
-13.702055 12.802672 17.747456 25.819119 -0.751478 0.812926 0.053003 -0.022214 -272693.000000 0 0 1
-12.846555 13.439672 16.818156 25.070084 -0.807958 0.835448 0.053248 -0.028138 61358.700000 0 0 1
-12.485855 14.798672 17.190756 25.892457 -0.869963 0.844735 0.071256 -0.035600 -174369.000000 0 0 1
-13.566555 15.948572 16.970856 26.952148 -0.865929 0.889673 0.072319 -0.021711 535700.000000 0 0 1
-13.769355 16.416072 15.596956 26.501841 -0.872856 0.941565 0.081588 -0.033471 111700.000000 0 0 1
-14.267555 15.523372 14.640856 25.668908 -0.827528 0.963836 0.106553 -0.036540 -594695.000000 0 0 1
-14.681955 16.290172 13.401056 25.700541 -0.837276 1.022269 0.092092 -0.036481 1705140.000000 0 0 1
-15.969055 16.995472 13.603456 26.998348 -0.816525 1.042732 0.082449 -0.031179 1752920.000000 0 0 1
-16.407455 17.513472 12.332656 26.981858 -0.817992 1.096096 0.080523 -0.030787 20350.100000 0 0 1
-17.666055 18.400772 12.534556 28.421699 -0.805766 1.114061 0.076918 -0.030598 -156003.000000 0 0 1
-18.846555 17.647272 12.635256 28.744887 -0.752547 1.115682 0.090189 -0.031495 -1182800.000000 0 0 1
-19.909055 18.513572 12.744956 30.025934 -0.749095 1.132425 0.101687 -0.036710 -967199.000000 0 0 1
-21.238455 17.774272 12.927956 30.563520 -0.696834 1.134058 0.115956 -0.024553 -493087.000000 0 0 1
-21.670555 17.174572 11.757756 30.047025 -0.670170 1.168740 0.118540 -0.030150 126549.000000 0 0 1
-22.939455 16.552972 11.934956 30.702812 -0.625072 1.171549 0.154258 -0.037387 488454.000000 0 0 1
-23.490955 15.778872 10.679556 30.246499 -0.591479 1.209931 0.147653 -0.037759 313901.000000 0 0 1
-22.815155 14.532572 10.405356 28.982725 -0.567161 1.203579 0.121454 -0.037373 452755.000000 0 0 1
-23.328655 14.028172 9.150656 28.718465 -0.541395 1.246509 0.137419 -0.032716 187301.000000 0 0 1
-22.601255 12.737372 8.620356 27.338030 -0.513201 1.249998 0.155150 -0.030952 -502591.000000 0 0 1
-22.739855 11.506172 9.318656 27.135408 -0.468429 1.220248 0.146565 -0.027918 1528490.000000 0 0 1
-24.063655 10.967172 9.662356 28.154919 -0.427631 1.220490 0.177521 -0.017189 2028670.000000 0 0 1
-25.123815 10.779172 8.507856 28.631805 -0.405289 1.269093 0.210906 -0.035276 314852.000000 0 0 1
-25.597525 12.015472 7.892356 29.358034 -0.438869 1.298617 0.218375 -0.036731 1606540.000000 0 0 1
-26.947165 11.898372 7.349656 30.360145 -0.415800 1.326285 0.285079 -0.047597 990479.000000 0 0 1
-27.316065 13.088272 6.438156 30.966435 -0.446822 1.361361 0.279041 -0.051137 -300748.000000 0 0 1
-26.628905 13.174772 5.174356 30.157042 -0.459442 1.398363 0.268439 -0.056060 1429530.000000 0 0 1
-25.226945 13.517672 5.224056 29.093246 -0.491909 1.390255 0.249773 -0.058930 639033.000000 0 0 1
-24.972745 15.041472 5.608056 29.687273 -0.542120 1.380750 0.223521 -0.055423 480214.000000 0 0 1
-23.564155 15.369772 5.739856 28.713154 -0.577957 1.369537 0.177454 -0.059833 1542810.000000 0 0 1
-23.452255 16.667372 6.348656 29.463791 -0.617867 1.353620 0.164223 -0.059781 62785.700000 0 0 1
-22.015955 17.240172 6.364956 28.678188 -0.664336 1.346988 0.132996 -0.050574 72704.200000 0 0 1
-21.611455 17.804272 5.106956 28.462749 -0.689106 1.390393 0.137662 -0.055691 4723.840000 0 0 1
-20.219055 17.976172 5.091456 27.529545 -0.726744 1.384780 0.136714 -0.042979 -354864.000000 0 0 1
-19.710855 18.944272 4.001656 27.629993 -0.765569 1.425455 0.126869 -0.032718 -156154.000000 0 0 1
-18.300955 19.002372 4.039656 26.689584 -0.804199 1.418855 0.110827 -0.036888 244305.000000 0 0 1
-17.660655 19.992772 3.194956 26.866660 -0.847256 1.451595 0.121842 -0.036945 315388.000000 0 0 1
-17.797955 21.516472 3.432056 28.133694 -0.879702 1.448501 0.137972 -0.045664 -298433.000000 0 0 1
-17.171255 21.961672 4.618456 28.257692 -0.907206 1.406619 0.110017 -0.044081 326448.000000 0 0 1
-17.777855 23.177072 5.091356 29.650475 -0.916475 1.398229 0.098362 -0.046866 -31863.200000 0 0 1
-17.080255 23.718572 6.353256 29.911028 -0.946693 1.356761 0.071585 -0.033665 91068.100000 0 0 1
-17.346755 22.998772 7.550756 29.780318 -0.924583 1.314449 0.071516 -0.031481 -357101.000000 0 0 1
-16.475055 23.427672 8.514656 29.879468 -0.957905 1.281825 0.072250 -0.035850 -487114.000000 0 0 1
-16.644555 22.782972 9.910956 29.905385 -0.939847 1.232998 0.055822 -0.031084 133488.000000 0 0 1
-17.886755 23.146472 10.467456 31.068679 -0.912885 1.227160 0.053119 -0.028877 -507099.000000 0 0 1
-18.750455 22.122872 10.863156 30.967873 -0.867721 1.212384 0.052416 -0.032601 15129.800000 0 0 1
-20.000355 22.732972 11.564956 32.412195 -0.849257 1.205947 0.077422 -0.034825 4917.260000 0 0 1
-20.989455 23.263672 10.714156 33.114178 -0.836744 1.241315 0.108488 -0.031693 -122956.000000 0 0 1
-20.616455 24.519672 10.039756 33.571554 -0.871660 1.267094 0.064432 -0.032909 -842039.000000 0 0 1
-21.671155 25.451272 9.437056 34.734194 -0.865446 1.295644 0.088344 -0.030439 -187642.000000 0 0 1
-22.503155 26.075172 10.402956 35.979551 -0.858797 1.277473 0.108512 -0.043063 416461.000000 0 0 1
-23.445555 26.970372 9.795556 37.054661 -0.855199 1.303262 0.119515 -0.031003 80975.300000 0 0 1
-24.453155 27.617472 10.750556 38.422077 -0.846093 1.287209 0.127922 -0.033561 -585060.000000 0 0 1
-23.851355 28.295872 11.811856 38.846666 -0.870423 1.261841 0.130929 -0.032452 -218402.000000 0 0 1
-24.693755 29.179072 12.465056 40.206683 -0.868464 1.255578 0.124042 -0.036636 -500108.000000 0 0 1
10.462945 -32.512307 27.542556 43.876140 -1.259448 0.892157 0.087480 -0.028215 -564450.000000 0 0 1
11.747345 -32.881907 27.148106 44.229397 -1.227670 0.909928 0.056015 -0.028655 -139767.000000 0 0 1
12.150445 -32.270707 25.933866 43.146231 -1.210697 0.925958 0.062731 -0.022990 -440981.000000 0 0 1
13.627145 -32.540207 25.640776 43.612080 -1.174207 0.942301 0.005098 -0.007540 -505156.000000 0 0 1
13.911045 33.784172 25.353036 44.470933 1.180191 0.964164 0.025229 -0.027062 -465813.000000 0 0 1
15.300545 33.674672 25.450496 44.897861 1.144320 0.968115 0.040014 -0.015244 -680768.000000 0 0 1
15.881845 32.324072 25.048956 43.869452 1.114107 0.963087 0.073805 -0.008790 -156412.000000 0 0 1
15.978545 32.081072 23.655246 42.942749 1.108696 0.987407 0.060688 -0.019272 477133.000000 0 0 1
16.918245 31.032572 23.459606 42.421700 1.071664 0.984824 0.076289 -0.026757 -216299.000000 0 0 1
16.883345 30.436072 22.016756 41.184212 1.064340 1.006771 0.082275 -0.030486 576243.000000 0 0 1
15.683145 29.681972 21.734356 39.992033 1.084709 0.996234 0.065428 -0.017778 818251.000000 0 0 1
15.839745 28.243772 21.933856 39.111407 1.059682 0.975439 0.075291 -0.021629 -110406.000000 0 0 1
15.421045 27.674472 23.271796 39.309814 1.062419 0.937246 0.109331 -0.036032 31437.600000 0 0 1
16.273845 28.109372 24.342626 40.589878 1.046001 0.927643 0.110833 -0.030771 549154.000000 0 0 1
15.891545 27.504972 25.584916 40.787897 1.046883 0.892757 0.105327 -0.030192 -424729.000000 0 0 1
16.728845 28.004472 26.767836 42.197414 1.032318 0.883632 0.114982 -0.030107 120078.000000 0 0 1
16.487845 29.364872 27.194376 43.286011 1.059181 0.891496 0.097154 -0.030782 132425.000000 0 0 1
17.339545 29.488172 28.299936 44.397054 1.039234 0.879640 0.121273 -0.030998 44195.900000 0 0 1
17.329245 30.914672 28.844076 45.694643 1.059889 0.887651 0.119429 -0.037519 42756.700000 0 0 1
17.965145 31.897972 28.044676 46.116492 1.057870 0.917098 0.113912 -0.025357 151314.000000 0 0 1
17.856345 33.170672 28.608386 47.303089 1.076967 0.921295 0.092864 -0.008176 121066.000000 0 0 1
18.661245 -33.376407 27.804036 47.278864 -1.060982 0.942106 0.072817 -0.014837 -171911.000000 0 0 1
18.294645 -33.129007 26.479436 46.188588 -1.066247 0.960281 0.089704 -0.016884 -124773.000000 0 0 1
18.367045 -31.773007 26.081756 45.023663 -1.046657 0.952939 0.066682 -0.027027 35269.100000 0 0 1
19.714345 -31.260007 25.470456 44.884157 -1.008139 0.967365 0.087837 -0.021263 161897.000000 0 0 1
20.593645 -30.871307 26.483016 45.590415 -0.982507 0.950975 0.071779 -0.021179 200424.000000 0 0 1
21.581145 -29.918007 26.042136 45.155573 -0.945889 0.956088 0.079087 -0.024977 437060.000000 0 0 1
21.990245 -29.019807 27.200616 45.448801 -0.922343 0.929182 0.074137 -0.027110 -156117.000000 0 0 1
20.930445 -28.133507 27.460826 44.538463 -0.931167 0.906425 0.078564 -0.025637 -20179.300000 0 0 1
21.196345 -27.391607 28.614876 44.926565 -0.912220 0.880293 0.086238 -0.024456 219729.000000 0 0 1
19.929645 -26.795307 29.302636 44.427735 -0.931292 0.850567 0.086196 -0.030006 332404.000000 0 0 1
19.229245 -25.806507 28.566376 43.032284 -0.930418 0.844860 0.090390 -0.027974 55299.800000 0 0 1
18.005745 -25.557607 29.234976 42.802826 -0.957046 0.818914 0.089000 -0.023523 -33308.700000 0 0 1
16.979945 -24.957307 28.217526 41.320872 -0.973374 0.819088 0.092388 -0.016579 -652388.000000 0 0 1
16.522445 -25.835807 27.207496 40.996682 -1.001826 0.845107 0.086954 -0.016467 -19156.200000 0 0 1
15.912845 -25.179107 26.143636 39.632004 -1.007189 0.850430 0.085306 -0.027374 -450049.000000 0 0 1
14.482945 -24.661607 26.348626 38.887024 -1.039792 0.826345 0.087600 -0.019898 -82062.600000 0 0 1
13.373645 -25.540207 26.508206 39.164289 -1.088423 0.827326 0.076737 -0.015475 600240.000000 0 0 1
12.946145 -26.351807 25.489346 38.880935 -1.114148 0.855853 0.066828 -0.023902 -477537.000000 0 0 1
12.204045 -27.651707 25.858416 39.777044 -1.155160 0.863101 0.065809 -0.021004 -464963.000000 0 0 1
10.886045 -27.484807 26.272466 39.549501 -1.193678 0.844248 0.071341 -0.032911 -1033020.000000 0 0 1
10.141945 -28.606107 26.304096 40.163090 -1.230085 0.856704 0.060266 -0.028943 -535871.000000 0 0 1
8.639845 -28.333307 26.564016 39.787814 -1.274817 0.839759 0.070178 -0.037961 718988.000000 0 0 1
7.666145 -28.189507 25.518266 38.789173 -1.305268 0.852808 0.102055 -0.038194 553156.000000 0 0 1
7.900045 -27.017807 24.769736 37.495498 -1.286325 0.849171 0.118861 -0.038565 -23.482000 0 0 1
6.643645 -26.641107 23.875946 36.386088 -1.326405 0.855047 0.118151 -0.040621 315805.000000 0 0 1
6.278245 -27.412307 22.742336 36.167178 -1.345649 0.890773 0.131640 -0.045662 -210951.000000 0 0 1
5.814845 -28.681907 23.081546 37.272268 -1.370772 0.902985 0.134782 -0.040263 26864.300000 0 0 1
4.371845 -28.832507 23.698636 37.577278 -1.420314 0.888388 0.162208 -0.039549 272670.000000 0 0 1
3.341445 -28.802207 22.697516 36.822678 -1.455299 0.906633 0.162249 -0.035407 1217750.000000 0 0 1
2.011145 -28.748307 23.250266 37.028161 -1.500953 0.891934 0.188393 -0.035351 863429.000000 0 0 1
1.501145 -27.339707 23.609186 36.153930 -1.515944 0.859233 0.160812 -0.040809 -1097350.000000 0 0 1
2.349045 -26.643907 24.447096 36.236394 -1.482859 0.830298 0.140261 -0.046303 -472183.000000 0 0 1
1.986545 -25.352507 24.795416 35.517722 -1.492599 0.798036 0.126114 -0.033863 -57000.100000 0 0 1
3.091445 -24.777507 25.736466 35.858716 -1.446670 0.770276 0.118225 -0.022679 922829.000000 0 0 1
4.381945 -24.717307 25.099566 35.498379 -1.395337 0.785461 0.122885 -0.032134 821470.000000 0 0 1
5.350345 -23.893407 25.753166 35.535146 -1.350505 0.760163 0.101863 -0.023296 200344.000000 0 0 1
5.137045 -22.354207 25.960646 34.641809 -1.344916 0.723638 0.077981 -0.010358 -652748.000000 0 0 1
5.141945 -21.569307 24.759006 33.236771 -1.336773 0.730369 0.076620 -0.023507 310976.000000 0 0 1
4.411645 -20.357407 24.960816 32.510444 -1.357387 0.695430 0.087952 -0.036629 -18266.900000 0 0 1
4.473345 -19.255607 23.849226 30.977004 -1.342531 0.692110 0.085674 -0.039410 248175.000000 0 0 1
5.765545 -18.705607 23.617216 30.674323 -1.271810 0.692058 0.054492 -0.018689 203631.000000 0 0 1
5.729745 -17.740407 22.630976 29.320864 -1.258395 0.689068 0.052056 -0.018178 -383367.000000 0 0 1
7.098945 -17.164707 22.281676 29.008538 -1.178640 0.694916 0.068474 -0.022891 -525787.000000 0 0 1
7.872545 -18.114207 21.519556 29.209463 -1.160817 0.742571 0.086191 -0.023006 1067990.000000 0 0 1
9.121545 -17.582507 21.001756 28.869030 -1.092234 0.756149 0.083020 -0.021065 1322100.000000 0 0 1
10.318445 -17.551907 21.995056 29.972024 -1.039335 0.746820 0.101636 -0.008225 -494975.000000 0 0 1
10.278945 -16.500407 22.871226 30.016880 -1.013672 0.704485 0.101093 0.001335 -571699.000000 0 0 1
11.344345 -16.583107 23.731526 31.094676 -0.970828 0.702542 0.112738 -0.002392 -721205.000000 0 0 1
11.273845 -15.573007 24.879846 31.442405 -0.944187 0.657892 0.133031 -0.021808 -88896.400000 0 0 1
11.441345 -14.206307 24.590276 30.617073 -0.892789 0.638223 0.160512 -0.017887 212104.000000 0 0 1
11.426545 -13.440207 25.761266 31.222554 -0.866200 0.600443 0.149755 -0.021743 92722.200000 0 0 1
11.579245 -11.926107 25.534666 30.468510 -0.800154 0.577065 0.158549 -0.024759 375691.000000 0 0 1
10.336845 -11.324707 25.216336 29.512081 -0.830971 0.546322 0.180938 -0.017874 121765.000000 0 0 1
10.510345 -9.959907 24.983186 28.876057 -0.758515 0.525273 0.172531 -0.022638 -673403.000000 0 0 1
9.365145 -9.241607 24.302136 27.635250 -0.778759 0.496219 0.172162 -0.020548 -401539.000000 0 0 1
8.213845 -9.326207 25.123206 28.028929 -0.848732 0.459372 0.161826 -0.029384 -289739.000000 0 0 1
7.170945 -8.533207 24.596606 27.004279 -0.871927 0.425479 0.158177 -0.036958 -388174.000000 0 0 1
5.817945 -9.006807 25.143696 27.334529 -0.997274 0.403096 0.136370 -0.033129 -1413420.000000 0 0 1
5.405845 -8.175307 26.226306 27.997820 -0.986560 0.357637 0.149830 -0.029874 624178.000000 0 0 1
4.053645 -8.422707 26.619006 28.212506 -1.122240 0.337704 0.154895 -0.034500 1101120.000000 0 0 1
2.900945 -8.182607 25.609786 27.041296 -1.230095 0.326838 0.134655 -0.030762 -814017.000000 0 0 1
2.812545 -6.830507 25.137536 26.200419 -1.180191 0.285814 0.145722 -0.033215 -256876.000000 0 0 1
1.959545 -6.797007 24.028436 25.048051 -1.290112 0.286306 0.116294 -0.035225 69385.400000 0 0 1
2.021545 -5.483307 23.208166 23.932661 -1.217584 0.246683 0.088502 -0.036820 -219634.000000 0 1 0
1.336845 -4.481107 23.894986 24.348261 -1.280873 0.193258 0.095240 -0.032835 -184610.000000 0 1 0
1.644345 -3.152907 23.540666 23.807722 -1.090071 0.149922 0.092894 -0.027786 -780261.000000 0 1 0
0.839645 -2.483707 22.363576 22.516734 -1.244797 0.116702 0.061398 -0.030558 328997.000000 0 1 0
-0.297755 -1.744707 22.753826 22.822560 1.401763 0.077630 0.055007 -0.034328 -38483.000000 0 1 0
-1.425355 -2.507707 23.159006 23.337947 1.053944 0.123913 0.062258 -0.032692 -570124.000000 0 1 0
-2.317255 -1.550707 23.963906 24.125570 0.589754 0.115831 0.054328 -0.029257 -711892.000000 0 1 0
-1.692455 -0.976707 25.019496 25.095688 0.523407 0.077943 0.078749 -0.033092 -200207.000000 0 0 1
-2.427155 0.152293 25.491076 25.606820 -0.062664 0.095115 0.058711 -0.023802 -169964.000000 0 0 1
-1.728555 0.990293 26.600086 26.674579 -0.520256 0.074752 0.097837 -0.036310 -69050.300000 0 0 1
-1.675555 0.391293 27.873846 27.926902 -0.229419 0.061651 0.126923 -0.040231 108163.000000 0 0 1
-0.956055 -0.819707 28.072656 28.100889 0.708765 0.044830 0.146011 -0.041725 311885.000000 0 0 1
0.436545 -0.616707 28.775546 28.785464 -0.954812 0.026252 0.151407 -0.037732 719140.000000 0 0 1
1.543045 -0.019707 28.113346 28.155667 -0.012770 0.054836 0.136592 -0.040854 369640.000000 0 0 1
2.143945 -0.759707 27.049176 27.144642 -0.340545 0.083893 0.127238 -0.042259 207138.000000 0 0 1
3.279345 -1.756707 27.429476 27.680612 -0.491789 0.134806 0.136095 -0.046547 -25695.500000 0 0 1
2.778445 -2.908807 28.065776 28.352578 -0.808316 0.142356 0.171107 -0.052110 -8051.100000 0 0 1
3.768345 -3.880307 28.300496 28.812762 -0.800035 0.188850 0.178388 -0.049843 134019.000000 0 0 1
4.369745 -4.697907 27.132056 27.880342 -0.821573 0.232207 0.176486 -0.044968 1188990.000000 0 0 1
5.540245 -4.069107 26.527886 27.404027 -0.633483 0.253547 0.156994 -0.039302 857900.000000 0 0 1
6.016745 -4.903407 25.499786 26.654900 -0.683797 0.295474 0.152601 -0.034956 -266762.000000 0 0 1
7.117645 -4.232507 24.652116 26.005803 -0.536476 0.324072 0.152325 -0.041620 -628841.000000 0 0 1
8.322345 -4.008707 25.351136 26.981683 -0.448884 0.349429 0.137468 -0.035584 545888.000000 0 0 1
9.355945 -5.010407 25.182006 27.327117 -0.491667 0.398865 0.144355 -0.033419 493356.000000 0 0 1
10.103945 -4.903707 23.841866 26.354708 -0.451840 0.440232 0.135787 -0.032907 -1000340.000000 0 0 1
9.349945 -5.278507 22.707056 25.117613 -0.513945 0.441693 0.129044 -0.034798 -361140.000000 0 0 1
10.003045 -5.138307 21.492756 24.256992 -0.474527 0.482056 0.140397 -0.026887 -181204.000000 0 1 0
9.949545 -3.642107 20.964856 23.490074 -0.350908 0.467942 0.149427 -0.040443 -36526.400000 0 1 0
8.625145 -3.275507 20.680256 22.644978 -0.362939 0.419634 0.123495 -0.041810 -321577.000000 0 1 0
8.537845 -2.007707 20.047256 21.881914 -0.230958 0.412413 0.108415 -0.040450 -1516640.000000 0 1 0
7.147145 -1.478707 19.963256 21.255584 -0.204016 0.350502 0.102688 -0.032578 -815875.000000 0 1 0
6.573245 -1.088707 21.251556 22.271539 -0.164137 0.303814 0.110603 -0.030763 647615.000000 0 1 0
5.250945 -0.588707 21.118056 21.769044 -0.111648 0.245172 0.071486 -0.022978 530038.000000 0 1 0
4.556445 -0.230707 22.488646 22.946756 -0.050590 0.200154 0.076832 -0.033171 424764.000000 0 1 0
3.203745 0.183293 22.415876 22.644405 0.057150 0.142191 0.068354 -0.025059 138743.000000 0 1 0
2.708045 0.693293 23.626156 23.790952 0.250629 0.117770 0.089430 -0.031060 -786912.000000 0 1 0
1.250245 1.091293 23.558856 23.617234 0.717619 0.070326 0.080081 -0.032714 -788545.000000 0 1 0
1.080445 2.343293 22.979176 23.123601 1.138767 0.111824 0.075138 -0.031302 1553770.000000 0 1 0
-0.356255 2.560293 22.857446 23.003149 -1.432538 0.112612 0.046259 -0.023260 1510220.000000 0 1 0
-0.776955 3.993293 22.443116 22.808847 -1.378632 0.179319 0.044581 -0.020123 -148046.000000 0 1 0
-0.680255 4.948293 23.448926 23.974997 -1.434180 0.209872 0.054631 -0.017370 369247.000000 0 1 0
-1.576955 6.053293 23.217246 24.045159 -1.315949 0.263177 0.046741 -0.014057 389657.000000 0 1 0
-1.307155 7.233293 24.141766 25.235967 -1.392012 0.295553 0.074018 -0.014071 322879.000000 0 0 1
-0.256955 7.996293 23.556216 24.877742 -1.538673 0.327408 0.060178 -0.018542 213069.000000 0 1 0
-0.256755 9.326293 24.137936 25.878285 -1.543273 0.368833 0.068510 -0.011742 -516030.000000 0 0 1
0.499945 10.422293 23.340166 25.566335 1.522864 0.420400 0.062165 -0.017358 1568760.000000 0 0 1
1.947145 10.448293 23.265636 25.578273 1.386550 0.428510 0.058867 -0.020876 808089.000000 0 0 1
2.598645 10.660293 24.429166 26.780197 1.331691 0.422150 0.084944 -0.022313 420619.000000 0 0 1
3.992445 11.454293 24.342446 27.197337 1.235410 0.462297 0.079175 -0.024407 1847990.000000 0 0 1
5.186945 10.766293 23.957486 26.772721 1.121834 0.462708 0.064553 -0.022924 491761.000000 0 0 1
5.215945 10.306293 22.594546 25.375959 1.102286 0.472591 0.078346 -0.030298 -1056980.000000 0 0 1
6.593845 9.929293 22.054556 25.069366 0.984587 0.495479 0.090215 -0.034541 -304669.000000 0 0 1
7.316645 11.117293 21.696456 25.453167 0.988726 0.550225 0.085945 -0.035842 -251319.000000 0 0 1
8.553245 10.685293 21.192256 25.227866 0.895770 0.573451 0.115289 -0.042830 -525410.000000 0 0 1
9.456145 11.834293 20.781656 25.716656 0.896637 0.629875 0.101122 -0.047035 -655384.000000 0 0 1
9.052345 12.435293 19.546156 24.872348 0.941553 0.666713 0.093409 -0.044102 -105035.000000 0 1 0
9.851245 13.483293 19.088956 25.362067 0.939810 0.718707 0.110729 -0.047445 712921.000000 0 0 1
11.257245 13.091293 18.477956 25.289175 0.860581 0.751499 0.113977 -0.050790 1104390.000000 0 0 1
12.335945 12.936293 19.409556 26.386627 0.809149 0.744269 0.124857 -0.049324 758978.000000 0 0 1
13.511145 12.613293 18.661256 26.265732 0.751043 0.780617 0.119908 -0.050000 507000.000000 0 0 1
14.855745 12.517293 19.413356 27.463688 0.700176 0.785728 0.140716 -0.043106 374118.000000 0 0 1
15.376345 13.791293 19.873056 28.663044 0.731109 0.804691 0.151073 -0.049880 -64296.300000 0 0 1
16.706945 13.583293 20.290156 29.585779 0.682637 0.815083 0.159104 -0.046405 208579.000000 0 0 1
17.391045 14.913293 20.743956 30.905768 0.708848 0.834970 0.171987 -0.041934 -34988.900000 0 0 1
16.808045 15.459293 21.929656 31.660858 0.743623 0.805650 0.171417 -0.046643 633864.000000 0 0 1
17.598145 16.545293 22.478106 32.995555 0.754572 0.821332 0.163051 -0.040522 40945.400000 0 0 1
-22.276255 12.570572 -24.477829 35.403601 -0.513759 2.334213 0.058565 -0.023859 12554.500000 0 0 1
-22.157955 12.518872 -25.886639 36.301725 -0.514274 2.364702 0.067289 -0.033834 -153439.000000 0 0 1
-22.686755 13.657672 -26.512089 37.471479 -0.541897 2.356789 0.068748 -0.031534 -300988.000000 0 0 1
-22.609455 13.682672 -28.010929 38.509935 -0.544216 2.385276 0.057126 -0.026770 -94429.700000 0 0 1
-21.258155 13.668172 -28.402539 38.018842 -0.571411 2.414432 0.061064 -0.024218 -297119.000000 0 0 1
-21.084355 14.098672 -29.748399 39.093348 -0.589395 2.435585 0.062659 -0.031167 -675426.000000 0 0 1
-19.661655 14.599272 -29.881289 38.634322 -0.638700 2.455045 0.054866 -0.032302 -906399.000000 0 0 1
-18.690355 13.632372 -30.235049 38.070056 -0.630173 2.488478 0.051209 -0.030732 -278014.000000 0 0 1
-17.398455 14.168372 -30.011719 37.472020 -0.683428 2.499610 0.052631 -0.022607 203323.000000 0 0 1
-16.639755 13.600472 -28.837479 35.964628 -0.685230 2.501146 0.093283 -0.029667 -165467.000000 0 0 1
-17.302555 13.964572 -27.636839 35.470869 -0.679044 2.464092 0.089711 -0.023328 149597.000000 0 0 1
-18.009955 12.897672 -26.968689 34.900123 -0.621477 2.453942 0.097910 -0.022833 577766.000000 0 0 1
-18.666055 13.350972 -25.618549 34.394478 -0.620890 2.411099 0.092671 -0.029392 772233.000000 0 0 1
-17.622755 13.729372 -24.703029 33.306108 -0.661848 2.406393 0.163811 -0.037969 546767.000000 0 0 1
-18.221855 14.244272 -23.537329 32.999108 -0.663491 2.364951 0.126868 -0.035021 212247.000000 0 0 1
-17.292455 14.966272 -22.507929 32.087773 -0.713413 2.348225 0.150129 -0.029388 199239.000000 0 0 1
-16.638955 16.082572 -23.078129 32.681860 -0.768396 2.354835 0.133895 -0.027230 -192884.000000 0 0 1
-16.007855 16.916672 -22.157729 32.146387 -0.812994 2.331285 0.142986 -0.021151 -645301.000000 0 0 1
-15.772455 18.334972 -22.760629 33.211260 -0.860388 2.325851 0.118106 -0.021085 -158199.000000 0 0 1
-16.804855 19.252572 -22.572229 34.096484 -0.853178 2.294294 0.081828 -0.016838 -86732.500000 0 0 1
-18.013455 18.953472 -23.256929 34.994334 -0.810821 2.297743 0.065051 -0.015639 118012.000000 0 0 1
-19.151955 19.981272 -22.942629 35.950144 -0.806587 2.262927 0.038437 -0.013900 387302.000000 0 0 1
-18.980455 21.281272 -23.442429 36.914735 -0.842483 2.258860 0.034388 -0.010550 605891.000000 0 0 1
-20.185155 22.024772 -23.157929 37.799745 -0.828953 2.230203 0.044147 -0.018123 981414.000000 0 0 1
-19.951755 23.514672 -23.429329 38.729134 -0.867185 2.220504 0.036092 -0.016247 -344462.000000 0 0 1
-19.184755 24.075472 -22.448629 38.100185 -0.897974 2.200865 0.037098 -0.018024 -236786.000000 0 0 1
-18.262655 25.034272 -22.972729 38.574417 -0.940541 2.208738 0.029781 -0.007130 -84858.900000 0 0 1
-17.101755 25.311972 -21.997229 37.643645 -0.976608 2.194881 0.025960 -0.022990 413264.000000 0 0 1
-16.035955 24.310172 -21.936629 36.460280 -0.987674 2.216372 0.051738 -0.030565 715856.000000 0 0 1
-16.298555 23.055072 -21.365929 35.407374 -0.955428 2.218594 0.074309 -0.018114 -992882.000000 0 0 1
-15.091755 22.107972 -21.368429 34.251033 -0.971818 2.244490 0.106804 -0.024194 400523.000000 0 0 1
-14.132555 22.606072 -20.391029 33.564232 -1.012077 2.223734 0.135426 -0.037662 -79378.100000 0 0 1
-13.183855 21.631672 -20.109229 32.343846 -1.023443 2.241749 0.149189 -0.034536 -605832.000000 0 0 1
-12.463255 22.030172 -18.806029 31.532966 -1.055952 2.209796 0.138928 -0.034816 -187856.000000 0 0 1
-13.193155 21.962272 -17.583929 31.074029 -1.029848 2.172287 0.142793 -0.028350 -20297.300000 0 0 1
-13.969255 23.118572 -17.356029 32.106700 -1.027262 2.141915 0.138872 -0.039865 -303304.000000 0 0 1
-14.704455 23.126972 -16.031229 31.750246 -1.004458 2.100082 0.142095 -0.045774 -25738.400000 0 0 1
-13.816355 23.428172 -14.950529 31.036901 -1.037961 2.073392 0.134940 -0.062525 228111.000000 0 0 1
-14.464855 23.537772 -13.698729 30.836892 -1.019756 2.031113 0.130489 -0.050042 -467556.000000 0 0 1
-13.514955 23.872672 -12.580729 30.180013 -1.055656 2.000780 0.160131 -0.042737 -366210.000000 0 0 1
-12.976555 25.198272 -12.609429 31.021631 -1.095238 1.989386 0.158251 -0.051409 -441273.000000 0 0 1
-11.993755 25.294072 -11.648729 30.320506 -1.128023 1.965123 0.099963 -0.041882 -810486.000000 0 0 1
-11.426655 26.692772 -11.708029 31.307355 -1.166319 1.954083 0.127429 -0.043572 47290.200000 0 0 1
-10.576055 26.854272 -12.844429 31.590888 -1.195619 1.989511 0.128187 -0.046335 156755.000000 0 0 1
-10.533855 28.241372 -13.183329 32.898896 -1.213786 1.983102 0.106481 -0.023970 -418888.000000 0 0 1
-9.822255 28.576972 -14.513629 33.522611 -1.239734 2.018560 0.140858 -0.046711 1497580.000000 0 0 1
-8.377855 28.566972 -14.619129 33.165935 -1.285525 2.027272 0.104113 -0.042884 1083270.000000 0 0 1
-7.833055 27.250772 -14.586329 31.886083 -1.290899 2.045923 0.111198 -0.043269 -116729.000000 0 0 1
-6.357355 27.189472 -15.087929 31.738446 -1.341106 2.066196 0.118008 -0.045208 440583.000000 0 0 1
-5.577155 27.982472 -14.258729 31.897253 -1.374065 2.034228 0.099818 -0.037393 -1954800.000000 0 0 1
-4.277255 28.087572 -14.678129 31.978963 -1.419675 2.047658 0.105705 -0.040354 -1119010.000000 0 0 1
-3.465455 29.053672 -13.800429 32.350843 -1.452080 2.011511 0.089696 -0.028459 -219570.000000 0 0 1
-3.547555 30.491972 -13.989329 33.734949 -1.454973 1.998391 0.078040 -0.022459 -157269.000000 0 0 1
-4.650155 31.140172 -13.387829 34.213567 -1.422562 1.972842 0.078177 -0.022160 45164.300000 0 0 1
-4.723655 32.664472 -13.718229 35.741718 -1.427181 1.964721 0.084634 -0.030287 141572.000000 0 0 1
-3.725955 33.445472 -13.076429 36.103674 -1.459850 1.941414 0.068364 -0.028895 63242.200000 0 0 1
-3.731855 -32.893307 -13.622929 35.797773 1.457826 1.961190 0.087849 -0.031436 266019.000000 0 0 1
-2.718855 -32.016307 -12.875529 34.615247 1.486079 1.951917 0.081193 -0.031203 31345.700000 0 0 1
-3.182355 -31.789007 -11.544229 33.969656 1.471020 1.917543 0.080425 -0.025626 -312902.000000 0 0 1
-2.129055 -31.593907 -10.668529 33.414448 1.503510 1.895765 0.063794 -0.030641 -627056.000000 0 0 1
-2.529055 -31.553307 -9.173729 32.957011 1.490815 1.852877 0.068416 -0.029714 198985.000000 0 0 1
-1.439955 -31.029407 -8.413629 32.182087 1.524423 1.835308 0.089885 -0.043466 386771.000000 0 0 1
-1.865555 -30.902507 -7.057929 31.753103 1.510500 1.794944 0.088401 -0.048103 -214685.000000 0 0 1
-0.754455 -30.392307 -6.144429 31.016375 1.545978 1.770218 0.107463 -0.047258 -457030.000000 0 0 1
-0.872955 -30.347507 -4.749529 30.729322 1.542039 1.725979 0.111985 -0.045708 240025.000000 0 0 1
0.313045 -29.774907 -4.173529 30.067614 -1.560283 1.710051 0.098617 -0.041378 144156.000000 0 0 1
0.446645 -29.952207 -2.623429 30.070194 -1.555886 1.658151 0.106811 -0.037301 -37239.800000 0 0 1
0.785045 -31.273807 -2.083529 31.352964 -1.545699 1.637299 0.108776 -0.044007 876356.000000 0 0 1
1.974545 -31.895507 -2.623929 32.064110 -1.508969 1.652722 0.097965 -0.044205 1064520.000000 0 0 1
3.333445 -31.622207 -1.908429 31.854637 -1.465770 1.630743 0.086898 -0.038101 -534895.000000 0 0 1
3.530245 -32.259907 -0.625229 32.458514 -1.461799 1.590060 0.082788 -0.032380 -50508.100000 0 0 1
4.778845 -32.031707 -0.006829 32.386226 -1.422698 1.571007 0.060947 -0.028805 51085.200000 0 0 1
5.125645 -30.568907 0.321771 30.997319 -1.404667 1.560416 0.039125 -0.031990 -900674.000000 0 0 1
5.374545 -29.817807 -0.855629 30.310385 -1.392465 1.599029 0.047346 -0.035448 -216728.000000 0 0 1
5.424045 -28.414307 -0.609529 28.933797 -1.382174 1.591864 0.068013 -0.026929 -327808.000000 0 0 1
4.771745 -27.678607 -1.766929 28.142439 -1.400076 1.633623 0.054152 -0.023448 -89255.800000 0 0 1
3.458545 -28.006307 -2.171429 28.302471 -1.447927 1.647594 0.076960 -0.023012 189304.000000 0 0 1
2.831245 -27.144607 -3.118529 27.469453 -1.466870 1.684569 0.071771 -0.018706 127681.000000 0 0 1
3.428845 -27.164607 -4.561329 27.757495 -1.445236 1.735873 0.059795 -0.026456 13609.200000 0 0 1
2.913145 -28.277107 -5.354529 28.926668 -1.468137 1.756977 0.063095 -0.034664 144080.000000 0 0 1
3.339345 -28.217407 -6.671629 29.187050 -1.453001 1.801417 0.079588 -0.050238 103519.000000 0 0 1
2.323045 -28.925507 -7.635929 30.006481 -1.490657 1.828102 0.085136 -0.045805 -132489.000000 0 0 1
1.219445 -28.134307 -7.973529 29.267788 -1.527480 1.846718 0.088480 -0.045966 -481685.000000 0 0 1
0.847745 -28.395507 -9.285529 29.887196 -1.540950 1.886711 0.099116 -0.038303 290599.000000 0 0 1
-0.514655 -27.773207 -9.733429 29.433918 1.552268 1.907828 0.095221 -0.038411 -530057.000000 0 0 1
-0.580555 -26.392307 -9.548529 28.072501 1.548803 1.917860 0.099418 -0.035472 598182.000000 0 0 1
-1.905855 -25.845807 -9.699429 27.671591 1.497190 1.928922 0.100107 -0.033621 1395650.000000 0 0 1
-2.964455 -26.280007 -8.640129 27.822268 1.458468 1.886565 0.104129 -0.033727 -409714.000000 0 0 1
-2.636055 -25.935407 -7.291929 27.069657 1.469505 1.843542 0.117363 -0.039996 104226.000000 0 0 1
-1.749355 -26.888407 -6.671729 27.758938 1.505828 1.813518 0.112803 -0.036684 497506.000000 0 0 1
-1.312255 -26.583507 -5.244629 27.127679 1.521473 1.765353 0.119049 -0.028782 224909.000000 0 0 1
-2.373155 -26.822807 -4.350429 27.276749 1.482551 1.730973 0.133077 -0.031462 177089.000000 0 0 1
-1.883255 -26.773807 -3.032129 27.010686 1.500573 1.683290 0.138246 -0.027704 311847.000000 0 0 1
-3.043255 -27.135407 -2.045929 27.382066 1.459112 1.645584 0.145232 -0.035882 892222.000000 0 0 1
-4.114855 -26.179907 -2.230129 26.594981 1.414896 1.654750 0.129060 -0.030706 181296.000000 0 0 1
-4.934555 -26.321607 -1.090629 26.802356 1.385476 1.611499 0.132008 -0.037845 396094.000000 0 0 1
-6.144955 -25.345107 -0.955729 26.096902 1.332935 1.607427 0.117186 -0.021097 209814.000000 0 0 1
-5.673955 -24.049207 -0.555529 24.715718 1.339102 1.593275 0.093384 -0.023182 -32016.400000 0 1 0
-6.680455 -23.201007 -0.066629 24.143728 1.290442 1.573556 0.108225 -0.031609 -259849.000000 0 1 0
-6.107355 -21.804307 0.217471 22.644533 1.297696 1.561193 0.081462 -0.037185 269022.000000 0 1 0
-5.253655 -21.745107 1.380171 22.413287 1.333737 1.509179 0.079310 -0.034169 341280.000000 0 1 0
-4.442055 -20.577907 1.355571 21.095489 1.358193 1.506493 0.044765 -0.024134 137825.000000 0 1 0
-3.469555 -20.501907 2.545771 20.948674 1.403154 1.448971 0.041944 -0.013063 -84219.500000 0 1 0
-4.127355 -20.060907 3.728171 20.817644 1.367887 1.390738 0.041751 -0.020213 322067.000000 0 1 0
-3.179955 -19.755907 4.736471 20.563125 1.411203 1.338371 0.064166 -0.030577 436134.000000 0 1 0
-2.301455 -20.915107 5.323071 21.704227 1.461199 1.323014 0.080148 -0.034656 138730.000000 0 1 0
-1.257955 -21.245907 4.449971 21.743349 1.511656 1.364681 0.071190 -0.038122 -361703.000000 0 1 0
-0.671155 -22.518407 4.776671 23.029235 1.541000 1.361862 0.080571 -0.039851 -109987.000000 0 1 0
0.286145 -23.106507 3.666271 23.397309 -1.558413 1.413452 0.081226 -0.035559 893777.000000 0 1 0
1.602645 -22.600807 3.593771 22.940796 -1.500004 1.413494 0.075315 -0.033848 57070.300000 0 1 0
2.452545 -22.966807 4.663071 23.563391 -1.464413 1.371587 0.086724 -0.034866 -1152530.000000 0 1 0
3.669245 -22.072407 4.789771 22.882229 -1.406066 1.359914 0.082881 -0.033830 -516647.000000 0 1 0
4.551545 -22.085007 3.693871 22.849699 -1.367550 1.408424 0.061108 -0.020691 -695959.000000 0 1 0
5.618145 -21.231807 3.969971 22.318464 -1.312115 1.391966 0.060282 -0.020587 -127093.000000 0 1 0
6.286945 -20.689707 2.674871 21.788634 -1.275794 1.447721 0.059542 -0.017608 333921.000000 0 1 0
7.070645 -21.670907 2.012071 22.883851 -1.255413 1.482757 0.082088 -0.018601 -67972.700000 0 1 0
6.831245 -21.463607 0.640571 22.533589 -1.262663 1.542365 0.060177 -0.022763 -350748.000000 0 1 0
7.756145 -22.170107 -0.348629 23.490273 -1.234258 1.585638 0.083256 -0.021033 -273486.000000 0 1 0
9.038645 -21.575007 -0.433329 23.395850 -1.174069 1.589319 0.088115 -0.020641 -637743.000000 0 1 0
9.684945 -22.382807 -1.360629 24.426205 -1.162425 1.626529 0.085600 -0.018598 -496912.000000 0 1 0
11.131945 -21.964407 -1.652129 24.679645 -1.101710 1.637789 0.093711 -0.016181 -89469.000000 0 1 0
11.256045 -20.905907 -2.564129 23.881588 -1.076891 1.678372 0.080341 -0.013425 -605411.000000 0 1 0
12.610645 -20.898607 -2.908329 24.581263 -1.027866 1.689389 0.082355 -0.024123 -298064.000000 0 1 0
13.034545 -19.819907 -3.952729 24.048953 -0.989063 1.735907 0.064125 -0.019617 -127289.000000 0 1 0
12.770545 -18.520907 -3.401329 22.752579 -0.967138 1.720851 0.070455 -0.024068 312536.000000 0 1 0
13.015245 -17.533007 -4.359329 22.266717 -0.932223 1.767847 0.068746 -0.021038 -936966.000000 0 1 0
13.273045 -16.072807 -3.813529 21.190843 -0.880516 1.751743 0.045902 -0.021211 1084480.000000 0 1 0
14.624345 -15.751107 -3.417529 21.763463 -0.822476 1.728480 0.057551 -0.022611 1353740.000000 0 1 0
15.589945 -15.795707 -4.464129 22.638003 -0.791954 1.769294 0.057376 -0.018839 1292270.000000 0 1 0
17.088245 -15.280707 -4.196529 23.304913 -0.729614 1.751855 0.068450 -0.015540 1697480.000000 0 1 0
17.676645 -16.175507 -3.271529 24.182921 -0.741083 1.706495 0.080126 -0.021588 -115516.000000 0 1 0
19.000145 -15.821707 -2.972629 24.903181 -0.694373 1.690449 0.072052 -0.010782 -157289.000000 0 1 0
19.816145 -16.840907 -2.128529 26.092650 -0.704412 1.652463 0.058630 -0.019262 924045.000000 0 0 1
21.225945 -16.782707 -2.419229 27.167124 -0.669026 1.659964 0.074898 -0.014215 1015060.000000 0 0 1
21.881645 -17.568807 -1.406329 28.097101 -0.676508 1.620870 0.079927 -0.015396 347738.000000 0 0 1
23.428145 -17.502307 -1.443229 29.279543 -0.641619 1.620108 0.104771 -0.026721 361631.000000 0 0 1
24.112545 -16.295207 -1.137629 29.124608 -0.594298 1.609867 0.094553 -0.019658 118473.000000 0 0 1
25.469445 -16.510107 -0.844629 30.364282 -0.575131 1.598616 0.160263 -0.018414 158869.000000 0 0 1
26.219445 -15.225207 -0.347229 30.321391 -0.526095 1.582248 0.143361 -0.017055 301109.000000 0 0 1
25.651045 -14.671507 0.834971 29.562246 -0.519551 1.542548 0.113930 -0.014076 -82337.700000 0 0 1
26.493945 -13.698207 1.331971 29.855387 -0.477180 1.526167 0.095580 -0.008485 -109922.000000 0 0 1
25.821745 -12.908107 2.481771 28.974832 -0.463562 1.485039 0.121492 -0.010111 -132364.000000 0 0 1
25.577545 -13.641307 3.719971 29.225575 -0.489956 1.443165 0.144223 -0.004325 704121.000000 0 0 1
26.724945 -14.202107 4.395571 30.581752 -0.488465 1.426565 0.154972 0.004432 703275.000000 0 0 1
26.347445 -14.995107 5.695271 30.846024 -0.517411 1.385095 0.148854 -0.002533 195693.000000 0 0 1
25.600845 -16.185207 5.537171 30.790005 -0.563770 1.389976 0.155853 -0.020944 -318081.000000 0 0 1
24.886345 -16.377307 6.690571 30.533753 -0.582037 1.349883 0.149443 -0.026359 -258315.000000 0 0 1
24.202845 -17.769007 6.766771 30.778312 -0.633293 1.349130 0.140529 -0.021441 96814.300000 0 0 1
25.174145 -18.790307 6.667871 32.113450 -0.641201 1.361640 0.127021 -0.023232 312556.000000 0 0 1
24.481345 -19.991007 6.358271 32.239792 -0.684770 1.372277 0.084045 -0.020606 75777.800000 0 0 1
2.549645 23.126472 -3.046929 23.465254 1.460992 1.701013 0.062653 -0.031800 183548.000000 0 1 0
3.255545 24.298772 -2.721929 24.666531 1.437610 1.681371 0.074937 -0.032850 -402016.000000 0 1 0
3.957045 24.783572 -3.837629 25.389191 1.412469 1.722530 0.094569 -0.035980 -106615.000000 0 0 1
5.103645 25.727372 -3.406329 26.448968 1.374965 1.699944 0.074514 -0.031689 -139415.000000 0 0 1
6.069545 25.034272 -2.617629 25.892202 1.332937 1.672067 0.052696 -0.034394 -185829.000000 0 0 1
6.908245 26.027272 -2.050629 27.006440 1.311355 1.646801 0.045714 -0.034230 235509.000000 0 0 1
8.177945 25.479472 -1.353029 26.793897 1.260221 1.621315 0.025934 -0.042595 270490.000000 0 0 1
9.261645 25.076172 -2.179429 26.820558 1.216997 1.652146 0.027560 -0.043912 -249310.000000 0 0 1
10.058145 24.184072 -1.413829 26.230412 1.176659 1.624723 0.026960 -0.037335 -534853.000000 0 0 1
11.204145 23.751672 -2.299229 26.362117 1.130027 1.658124 0.061564 -0.036981 -183409.000000 0 0 1
12.289045 24.714172 -2.448229 27.709289 1.109354 1.659266 0.067906 -0.031158 1469630.000000 0 0 1
13.340845 24.506872 -3.417729 28.111310 1.072285 1.692676 0.088706 -0.039039 891340.000000 0 0 1
14.174945 23.208972 -3.346329 27.400426 1.022508 1.693229 0.104915 -0.039062 -875312.000000 0 0 1
13.519245 21.991672 -3.527629 26.054707 1.019606 1.706607 0.123788 -0.044515 -401682.000000 0 0 1
13.211245 21.766772 -4.931329 25.935446 1.025285 1.762100 0.157605 -0.052028 -429459.000000 0 0 1
12.249145 20.622772 -5.227529 24.549283 1.034828 1.785380 0.158857 -0.057918 -244046.000000 0 1 0
10.969245 20.964472 -4.727929 24.128546 1.088738 1.768020 0.131842 -0.052483 -655748.000000 0 1 0
10.122845 19.847272 -4.752029 22.780868 1.099151 1.780937 0.117642 -0.050972 -401090.000000 0 1 0
8.668745 20.335272 -4.685329 22.596962 1.167833 1.779655 0.083990 -0.038645 -428094.000000 0 1 0
8.477245 21.121872 -3.497929 23.026781 1.189127 1.723294 0.096845 -0.026967 -548474.000000 0 1 0
7.180245 21.630572 -3.568229 23.068806 1.250292 1.726098 0.085835 -0.017873 -275399.000000 0 1 0
6.616845 22.069472 -2.207029 23.145522 1.279506 1.666296 0.067256 -0.026104 -61094.300000 0 1 0
6.004545 21.156372 -1.362229 22.034116 1.294251 1.632659 0.055820 -0.033671 23347.200000 0 1 0
5.171145 21.788872 -0.411729 22.397883 1.337778 1.589180 0.062279 -0.030061 209845.000000 0 1 0
4.622445 20.881972 0.722771 21.399676 1.352949 1.537015 0.034862 -0.028903 150007.000000 0 1 0
3.790245 21.549972 1.654571 21.943218 1.396695 1.495322 0.041502 -0.028754 344095.000000 0 1 0
3.282345 20.751172 2.750171 21.188401 1.413920 1.440633 0.043106 -0.027732 577628.000000 0 1 0
2.369845 21.611972 3.716171 22.056822 1.461578 1.401507 0.031323 -0.011123 975602.000000 0 1 0
1.022445 21.736872 3.267771 22.004893 1.523794 1.421743 0.023758 -0.009887 324234.000000 0 1 0
0.086345 22.009672 4.276171 22.421390 1.566873 1.378902 0.034626 -0.022970 22123.500000 0 1 0
-1.337555 22.312272 3.829971 22.678077 -1.510921 1.401099 0.034171 -0.013845 -598426.000000 0 1 0
-2.268655 22.605272 4.815871 23.223645 -1.470772 1.361911 0.052636 -0.022154 -137418.000000 0 1 0
-3.549455 22.558672 4.176271 23.214942 -1.414733 1.389916 0.060494 -0.027298 978233.000000 0 1 0
-4.745555 22.777072 5.177571 23.835321 -1.365387 1.351828 0.065813 -0.036311 436183.000000 0 1 0
-5.095155 24.071572 5.549571 25.222984 -1.362208 1.348961 0.089741 -0.025387 -647140.000000 0 0 1
-6.370555 24.064272 6.099971 25.629725 -1.312002 1.330486 0.089903 -0.024111 -461857.000000 0 0 1
-6.847755 25.481972 6.483171 27.170832 -1.308269 1.329864 0.099224 -0.031582 -327934.000000 0 0 1
-6.335655 26.083572 7.659271 27.913396 -1.332513 1.292837 0.072928 -0.037330 -258673.000000 0 0 1
-6.989255 27.226072 8.191571 29.278157 -1.319511 1.287227 0.124210 -0.031511 -150633.000000 0 0 1
-6.858455 28.640672 7.556071 30.404287 -1.335757 1.319644 0.142829 -0.039514 573044.000000 0 0 1
-7.744055 28.781872 6.411871 30.487352 -1.307961 1.358902 0.106645 -0.053566 160875.000000 0 0 1
-7.684455 30.107772 5.859071 31.620523 -1.320900 1.384426 0.136939 -0.055279 -1128650.000000 0 0 1
-8.956555 30.368472 5.062171 32.063835 -1.283998 1.412255 0.116515 -0.060506 219183.000000 0 0 1
-10.032855 30.734372 5.935771 32.870856 -1.255265 1.389222 0.092041 -0.045153 254173.000000 0 0 1
-10.785855 29.664772 6.497371 32.226529 -1.222065 1.367789 0.082460 -0.041162 -1112470.000000 0 0 1
-11.736355 30.125372 7.574171 33.206146 -1.199302 1.340675 0.054363 -0.044315 -781897.000000 0 0 1
-11.153055 30.367172 8.810471 33.528796 -1.218817 1.304901 0.063385 -0.034102 -173767.000000 0 0 1
-12.151055 30.656772 9.771971 34.394436 -1.193434 1.282713 0.076986 -0.028478 -321227.000000 0 0 1
-11.581555 31.151772 11.133271 35.050178 -1.214853 1.247559 0.073940 -0.041326 -320680.000000 0 0 1
-10.986655 32.435072 11.046471 35.982843 -1.244199 1.258765 0.065581 -0.040087 394173.000000 0 0 1
-10.106955 32.738972 12.129871 36.347277 -1.271365 1.230548 0.065617 -0.044998 307304.000000 0 0 1
-9.791955 -33.395307 12.417571 36.950304 1.285577 1.228064 0.081830 -0.044586 -76484.700000 0 0 1
-10.801355 -32.654407 13.051471 36.787504 1.251347 1.208118 0.092542 -0.036644 -350437.000000 0 0 1
-10.519355 -31.278207 12.990271 35.464492 1.246364 1.195778 0.091867 -0.034591 -30662.100000 0 0 1
-11.558555 -30.341607 13.644971 35.219292 1.206822 1.172955 0.092523 -0.034339 -63201.300000 0 0 1
-11.739355 -30.415407 15.028571 35.899406 1.202445 1.138860 0.090154 -0.041014 507254.000000 0 0 1
-10.632555 -29.907107 15.802271 35.456988 1.229213 1.108869 0.099668 -0.033264 622456.000000 0 0 1
-10.722255 -30.286907 17.294771 36.487978 1.230542 1.076985 0.092631 -0.043448 -169928.000000 0 0 1
-11.766155 -29.568007 17.890771 36.507384 1.192071 1.058639 0.110835 -0.049039 56526.600000 0 0 1
-12.442555 -30.373207 18.866671 37.858950 1.181994 1.049112 0.106459 -0.047682 -20759.800000 0 0 1
-12.658255 -29.503107 20.158871 37.908374 1.165502 1.010097 0.131866 -0.049703 -88770.200000 0 0 1
-11.461455 -29.250707 20.845471 37.702817 1.197348 0.984969 0.136693 -0.048930 -123836.000000 0 0 1
-11.771255 -28.460207 21.967871 37.830321 1.178618 0.951214 0.146785 -0.055034 42559.300000 0 0 1
-10.539955 -27.988107 22.762871 37.584213 1.210635 0.920214 0.151561 -0.048267 154798.000000 0 0 1
-9.946155 -29.079507 23.468471 38.669275 1.241236 0.918639 0.131139 -0.032952 123345.000000 0 0 1
-8.627555 -28.794007 23.905771 38.405929 1.279679 0.898927 0.128406 -0.029113 104514.000000 0 0 1
-8.097055 -29.589807 25.080471 39.625105 1.303692 0.885446 0.125000 -0.034184 -146095.000000 0 0 1
-7.890055 -30.973707 24.867271 40.496971 1.321367 0.909611 0.123188 -0.017361 153351.000000 0 0 1
-7.720055 -31.744307 26.046571 41.781863 1.332233 0.897720 0.115630 -0.011679 -359211.000000 0 0 1
-7.947555 -33.265907 25.719471 42.793403 1.336282 0.926026 0.098831 -0.019342 293201.000000 0 0 1
-6.927555 33.688272 24.946871 42.488081 -1.367986 0.943263 0.115321 -0.022487 876680.000000 0 0 1
-7.360955 32.427172 24.500571 41.303548 -1.347579 0.935789 0.097130 -0.015794 -247355.000000 0 0 1
-8.316755 32.357072 23.326671 40.746559 -1.319212 0.961267 0.094279 -0.017506 -216177.000000 0 0 1
-8.671955 31.030272 23.026771 39.601928 -1.298281 0.950279 0.086930 -0.012234 144956.000000 0 0 1
-9.642055 30.905472 21.997171 39.140681 -1.268380 0.973991 0.084100 -0.015820 144228.000000 0 0 1
-10.512355 29.622872 22.178971 38.469870 -1.229787 0.956323 0.079950 -0.019398 187639.000000 0 0 1
-9.727555 28.447872 22.002271 37.255961 -1.241317 0.939031 0.064251 -0.016609 144328.000000 0 0 1
-10.416955 27.259572 22.313371 36.735320 -1.205781 0.918001 0.047287 -0.013504 56666.100000 0 0 1
-9.544355 25.952972 22.167171 35.440583 -1.218392 0.895057 0.060398 -0.015621 291152.000000 0 0 1
-8.445555 25.855472 23.043471 35.648764 -1.255077 0.867936 0.054069 -0.023265 -207885.000000 0 0 1
-7.842755 24.626872 22.931671 34.552180 -1.262488 0.845065 0.056748 -0.022116 313402.000000 0 0 1
-6.388855 24.515872 23.496871 34.553558 -1.315866 0.823016 0.067786 -0.020193 375200.000000 0 0 1
-5.411055 25.025872 22.634171 34.174251 -1.357856 0.846890 0.080147 -0.014396 -505803.000000 0 0 1
-4.153855 24.969672 23.256971 34.374783 -1.405950 0.827701 0.121095 -0.007986 -110428.000000 0 0 1
-3.012955 25.506072 22.364371 34.055876 -1.453214 0.854367 0.123975 -0.005099 -20317.700000 0 0 1
-2.650055 24.709772 21.220571 32.678865 -1.463957 0.864045 0.103017 -0.003088 319687.000000 0 0 1
-1.685155 25.348672 20.391271 32.576047 -1.504415 0.894436 0.112663 -0.001592 98083.500000 0 0 1
-1.006755 24.448172 19.356471 31.199353 -1.529640 0.901528 0.081929 -0.002444 -498495.000000 0 0 1
0.030345 23.617272 19.770671 30.800257 1.569511 0.873823 0.076494 -0.000873 -344555.000000 0 0 1
0.188545 22.570172 18.820371 29.388000 1.562443 0.875764 0.070164 -0.007798 -86104.500000 0 0 1
1.396445 21.683672 19.132771 28.951590 1.506484 0.848840 0.062391 0.004823 364837.000000 0 0 1
2.691145 22.202172 18.846471 29.246677 1.450174 0.870562 0.056603 -0.007806 253140.000000 0 0 1
3.677945 21.214472 19.108471 28.787406 1.399133 0.844936 0.060474 0.001297 603378.000000 0 0 1
5.130645 21.776272 19.068071 29.395932 1.339409 0.864969 0.059554 -0.007747 -304596.000000 0 0 1
6.067245 20.804372 18.947771 28.786305 1.287033 0.852342 0.069960 -0.013142 -1030840.000000 0 0 1
7.308845 21.307572 18.523771 29.164394 1.240357 0.882593 0.095474 -0.026421 -364749.000000 0 0 1
8.423845 20.293672 18.294171 28.591449 1.177343 0.876496 0.108180 -0.024647 -445686.000000 0 0 1
8.871445 19.667972 19.510171 29.089146 1.147061 0.835640 0.108271 -0.032538 -48780.500000 0 0 1
9.813545 18.680072 19.177171 28.513411 1.087076 0.833125 0.121374 -0.042811 -97781.200000 0 0 1
10.309745 17.874572 20.399371 29.015952 1.047623 0.791133 0.131425 -0.043514 460587.000000 0 0 1
9.297145 17.024072 20.952471 28.552792 1.070939 0.746875 0.110652 -0.037544 412866.000000 0 0 1
9.881945 16.210472 21.970671 29.036918 1.023346 0.712628 0.102168 -0.038457 286496.000000 0 0 1
8.952745 15.041272 22.395371 28.424358 1.033905 0.663415 0.085759 -0.031377 167484.000000 0 0 1
7.914545 15.527972 23.222371 29.035090 1.099422 0.643828 0.072172 -0.012130 91115.100000 0 0 1
6.778945 14.695972 23.479071 28.516529 1.138602 0.603508 0.075080 -0.010653 748401.000000 0 0 1
7.023045 13.401172 24.340171 28.659352 1.088085 0.556153 0.078257 -0.016072 -592000.000000 0 0 1
7.400945 13.743372 25.700971 30.069821 1.076817 0.545805 0.096976 -0.027155 33332.000000 0 0 1
7.734245 12.674172 26.544871 30.415183 1.022884 0.509987 0.117052 -0.039577 98568.500000 0 0 1
8.844645 13.133572 27.544171 31.771053 0.978121 0.521730 0.102620 -0.034686 700193.000000 0 0 1
10.145645 13.417872 27.040771 31.846141 0.923384 0.556505 0.141653 -0.033196 -29959.600000 0 0 1
10.358445 14.752672 26.520671 32.066878 0.958635 0.596970 0.126910 -0.029766 -389224.000000 0 0 1
11.649445 14.933872 25.701171 31.926169 0.908327 0.635089 0.150041 -0.041867 -109640.000000 0 0 1
11.667945 14.178172 24.500371 30.617473 0.882217 0.643153 0.149684 -0.047102 -799952.000000 0 0 1
12.919245 13.921072 23.958071 30.572737 0.822706 0.670290 0.183623 -0.058093 -879018.000000 0 0 1
12.938245 12.857372 22.827171 29.219684 0.782263 0.674169 0.156077 -0.056330 45315.900000 0 0 1
12.680245 11.523772 23.260771 28.890299 0.737654 0.634883 0.154860 -0.048421 971795.000000 0 0 1
11.321745 11.276872 23.682471 28.569374 0.783413 0.593576 0.150956 -0.040358 409086.000000 0 0 1
11.026345 9.846872 24.242571 28.394425 0.728952 0.547595 0.149336 -0.035079 -79350.200000 0 0 1
11.009645 8.801472 23.279271 27.214015 0.674395 0.544445 0.162568 -0.034805 139263.000000 0 0 1
11.049345 7.580772 23.950571 27.444234 0.601325 0.510092 0.165050 -0.040238 3897.730000 0 0 1
11.607445 6.341672 23.173071 26.682218 0.500033 0.518661 0.156834 -0.042374 -426121.000000 0 0 1
12.968145 6.504672 22.856471 27.072159 0.464918 0.565577 0.168828 -0.034380 -256686.000000 0 0 1
13.501945 5.574472 21.989071 26.398797 0.391547 0.586365 0.176196 -0.043563 -236936.000000 0 0 1
13.423045 4.054572 22.343371 26.378853 0.293346 0.560446 0.149484 -0.046640 -385533.000000 0 0 1
14.293545 3.657272 23.404171 27.666519 0.250495 0.562474 0.148893 -0.036435 232109.000000 0 0 1
13.794745 2.519872 23.970071 27.770650 0.180677 0.529333 0.155561 -0.032102 -290016.000000 0 0 1
14.843545 1.818572 24.891071 29.037965 0.121908 0.541007 0.118874 -0.020730 632180.000000 0 0 1
15.828245 1.132172 24.094571 28.850710 0.071407 0.582397 0.118818 -0.025033 -370309.000000 0 0 1
17.058745 1.770172 24.121571 29.597035 0.103399 0.618068 0.099391 -0.025144 -699485.000000 0 0 1
18.064745 0.931372 23.235271 29.446227 0.051512 0.661495 0.086787 -0.025637 58005.800000 0 0 1
18.382245 -0.316128 23.767271 30.048128 -0.017196 0.658398 0.086253 -0.028115 409306.000000 0 0 1
19.484045 -0.907928 23.075071 30.214421 -0.046565 0.701755 0.084423 -0.016763 144587.000000 0 0 1
19.865345 -2.342528 23.500071 30.860536 -0.117378 0.705183 0.068297 -0.010416 -1058010.000000 0 0 1
18.900445 -3.315828 23.227271 30.128519 -0.173669 0.690481 0.063447 -0.004127 -266990.000000 0 0 1
19.344345 -4.662228 23.406471 30.721376 -0.236502 0.704562 0.071264 0.000030 -522804.000000 0 0 1
18.372745 -5.780428 23.094271 30.071855 -0.304815 0.695131 0.074578 -0.001929 -424788.000000 0 0 1
18.060245 -5.800828 21.691171 28.815429 -0.310785 0.718548 0.092209 -0.004745 -187246.000000 0 0 1
16.976745 -6.638428 21.413571 28.121515 -0.372750 0.705225 0.122070 -0.020448 -516721.000000 0 0 1
17.212945 -8.139728 21.232271 28.519291 -0.441721 0.731029 0.126805 -0.019111 -283413.000000 0 0 1
17.282745 -8.781528 22.442471 29.655910 -0.470114 0.712451 0.109160 -0.006574 121324.000000 0 0 1
17.882345 -10.048928 22.221271 30.241430 -0.511969 0.745431 0.097830 -0.010911 -212179.000000 0 0 1
17.549845 -11.169128 23.230471 31.183349 -0.566772 0.730316 0.114157 -0.026701 483413.000000 0 0 1
16.307445 -11.825028 22.962371 30.545614 -0.627394 0.720099 0.134706 -0.025969 424397.000000 0 0 1
15.977645 -12.777528 23.931771 31.484600 -0.674566 0.707313 0.148409 -0.024314 276265.000000 0 0 1
14.865945 -13.685028 23.346971 30.876486 -0.744060 0.713401 0.170017 -0.030501 -70827.400000 0 0 1
15.362645 -14.584428 22.407271 30.835081 -0.759418 0.757318 0.166220 -0.038440 -100699.000000 0 0 1
14.353145 -15.316428 21.753671 30.229587 -0.817854 0.767548 0.175797 -0.024802 -381353.000000 0 0 1
14.753945 -16.417528 20.791471 30.323248 -0.838716 0.815285 0.146899 -0.031256 -357375.000000 0 0 1
15.095745 -17.640128 21.357871 31.547017 -0.862967 0.827094 0.172006 -0.037399 284338.000000 0 0 1
15.691845 -18.529228 20.391871 31.707959 -0.868122 0.872237 0.158278 -0.031044 183192.000000 0 0 1
-25.420855 -32.339807 25.439246 48.365672 0.904617 1.016933 0.086808 -0.036257 -185328.000000 0 0 1
-26.158775 -33.481007 24.961906 49.278353 0.907561 1.039619 0.097731 -0.028948 1485330.000000 0 0 1
-27.416635 -33.661907 25.694416 50.447982 0.887294 1.036396 0.075275 -0.040656 924643.000000 0 0 1
-27.281005 33.596272 27.184946 51.107573 -0.888766 1.009934 0.080824 -0.039090 -513983.000000 0 0 1
-28.352915 -33.581707 28.004516 52.114026 0.869623 1.003481 0.092348 -0.038442 495006.000000 0 0 1
-27.973775 -33.383907 29.353526 52.522822 0.873344 0.977772 0.074812 -0.030224 -377966.000000 0 0 1
-29.087525 -32.712207 30.132746 53.142779 0.843983 0.967919 0.064698 -0.034886 -506959.000000 0 0 1
-29.246725 -31.303107 29.943986 52.267559 0.819347 0.960759 0.039855 -0.027898 520976.000000 0 0 1
-30.117735 -30.690707 30.910926 52.957368 0.794820 0.947525 0.040928 -0.007812 70392.300000 0 0 1
-30.358455 -29.183007 30.618156 52.064913 0.765659 0.942118 0.029424 -0.010977 -79196.800000 0 0 1
-31.164995 -28.946007 29.473456 51.747588 0.748500 0.964824 0.027247 0.002326 620809.000000 0 0 1
-31.684965 -27.607407 29.411676 51.294762 0.716736 0.960164 0.034275 0.003853 -44351.000000 0 0 1
-32.081725 -27.226307 27.998036 50.541061 0.703713 0.983676 0.027180 -0.014190 -529587.000000 0 0 1
-31.028035 -27.064707 27.096766 49.289675 0.717280 0.988737 0.031908 -0.011499 -54444.500000 0 0 1
-30.597075 -25.694307 26.964476 48.202296 0.698521 0.977132 0.025715 -0.009738 139919.000000 0 0 1
-29.344245 -25.509207 26.074876 46.815633 0.715597 0.980064 0.024450 0.014886 -236882.000000 0 0 1
-29.592175 -25.921707 24.749656 46.477706 0.719376 1.009238 0.021119 0.006775 477992.000000 0 0 1
-28.564825 -25.644607 23.797746 45.165560 0.731581 1.015847 0.019964 0.017281 -77217.500000 0 0 1
-28.943575 -26.054407 22.361226 44.906426 0.732914 1.049561 0.021302 0.024872 -73190.100000 0 0 1
-29.759745 -25.037107 21.807256 44.587617 0.699426 1.059753 0.013282 0.021583 429251.000000 0 0 1
-30.197475 -25.415307 20.475856 44.464435 0.699619 1.092238 0.015091 0.023635 149879.000000 0 0 1
-30.876125 -24.230207 19.661756 43.897866 0.665376 1.106384 0.020194 0.014915 -369063.000000 0 0 1
-32.138205 -23.824307 20.057256 44.752155 0.637915 1.106062 0.050424 0.009145 -652560.000000 0 0 1
-32.558595 -22.634407 19.384756 44.137821 0.607490 1.116103 0.060232 0.007882 192411.000000 0 0 1
-34.013137 -22.158207 19.702456 45.122792 0.577401 1.118935 0.102459 0.001521 508108.000000 0 0 1
-34.912048 -23.164707 19.198656 46.087342 0.585818 1.141126 0.069500 -0.004764 16847.800000 0 0 1
-36.197105 -22.626107 19.091856 46.761844 0.558657 1.150229 0.077683 -0.020628 -486489.000000 0 0 1
-37.173445 -23.235807 18.069756 47.416071 0.558646 1.179822 0.089184 -0.024670 -34602.500000 0 0 1
-37.777305 -24.453507 18.494356 48.653263 0.574480 1.180864 0.074350 -0.031147 498645.000000 0 0 1
37.224616 -24.902107 17.462656 48.070066 -0.589595 1.199016 0.095365 -0.025118 367608.000000 0 0 1
36.848776 -26.379707 17.494756 48.577646 -0.621312 1.202378 0.096444 -0.007813 372995.000000 0 0 1
35.768896 -26.816407 18.310156 48.309371 -0.643317 1.182061 0.103883 -0.017088 346042.000000 0 0 1
36.053566 -26.533507 19.677656 48.898842 -0.634446 1.156642 0.110787 -0.012025 -180186.000000 0 0 1
34.861776 -26.804307 20.628856 48.573284 -0.655471 1.132171 0.092256 -0.010862 816225.000000 0 0 1
33.688376 -26.057107 20.289556 47.175688 -0.658356 1.126209 0.096762 -0.013445 -130382.000000 0 0 1
32.666326 -26.015407 21.216556 46.840500 -0.672541 1.100721 0.103564 -0.013013 563408.000000 0 0 1
31.483476 -25.060207 20.723356 45.262354 -0.672285 1.095221 0.126236 -0.008154 727919.000000 0 0 1
31.949856 -23.780807 20.352756 44.727561 -0.639854 1.098381 0.104863 -0.016279 288183.000000 0 0 1
32.574566 -23.085507 21.445256 45.320436 -0.616539 1.077886 0.106098 -0.024498 -34888.700000 0 0 1
33.431216 -21.838607 21.162956 45.193380 -0.578650 1.083458 0.099039 -0.026994 -37800.000000 0 0 1
32.707646 -20.638507 20.894256 43.958025 -0.562902 1.075465 0.107261 -0.037231 20858.700000 0 0 1
33.532596 -19.535207 20.591956 43.932766 -0.527507 1.082961 0.094093 -0.031251 -521145.000000 0 0 1
32.837056 -18.137307 20.788856 42.888351 -0.504640 1.064753 0.083571 -0.020474 -21878.000000 0 0 1
32.408756 -17.890107 22.117756 43.122830 -0.504389 1.032235 0.077116 -0.036104 272176.000000 0 0 1
31.122006 -18.428707 22.355126 42.519973 -0.534623 1.017193 0.098918 -0.028498 -630459.000000 0 0 1
30.660926 -18.233707 23.758946 42.860797 -0.536505 0.983241 0.095784 -0.023160 -87939.300000 0 0 1
30.286926 -16.849207 24.044176 42.181939 -0.507682 0.964277 0.106883 -0.026269 216950.000000 0 0 1
30.359126 -16.509407 25.402926 42.889925 -0.498074 0.936908 0.103223 -0.030950 -153096.000000 0 0 1
30.256626 -14.999707 25.765156 42.477027 -0.460241 0.919061 0.090782 -0.027809 -211817.000000 0 0 1
28.996626 -14.403807 25.603826 41.277474 -0.461037 0.901689 0.109537 -0.028417 -116570.000000 0 0 1
28.978726 -13.005907 25.855056 40.956124 -0.421863 0.887585 0.094923 -0.033888 -112847.000000 0 0 1
29.675926 -12.101407 24.834346 40.544412 -0.387200 0.911549 0.119209 -0.039064 -184715.000000 0 0 1
28.863126 -11.778507 23.715686 39.169465 -0.387454 0.920448 0.115309 -0.027301 -18482.900000 0 0 1
29.374126 -10.833407 22.799316 38.729972 -0.353331 0.941379 0.118072 -0.016455 247381.000000 0 0 1
30.446226 -11.377707 21.758556 39.113420 -0.357629 0.980877 0.108975 -0.029173 396063.000000 0 0 1
30.053526 -12.451907 20.999556 38.720095 -0.392794 0.997573 0.106029 -0.028978 10732.300000 0 0 1
30.404626 -13.728207 21.660056 39.775155 -0.424115 0.994929 0.097676 -0.025677 -163936.000000 0 0 1
30.067926 -14.986207 20.793856 39.510138 -0.462376 1.016563 0.110139 -0.020217 -97379.100000 0 0 1
30.671226 -14.974407 19.512756 39.315450 -0.454182 1.051450 0.104514 -0.028947 24285.100000 0 0 1
30.376826 -16.106607 18.677756 39.128415 -0.487536 1.073165 0.127898 -0.042717 -332295.000000 0 0 1
30.729526 -15.929107 17.188056 38.645432 -0.478231 1.109887 0.147083 -0.047781 91411.400000 0 0 1
30.122226 -16.901507 16.313856 38.198839 -0.511323 1.129538 0.129656 -0.052422 760972.000000 0 0 1
28.710626 -16.884607 16.129256 37.007335 -0.531621 1.119826 0.163525 -0.059311 342553.000000 0 0 1
28.082426 -15.740007 15.219756 35.609148 -0.510864 1.129169 0.156548 -0.051845 60480.100000 0 0 1
28.098426 -15.934807 13.827156 35.137300 -0.515882 1.166341 0.167328 -0.057771 -1450320.000000 0 0 1
26.916026 -16.472307 13.459056 34.306785 -0.549188 1.167650 0.175711 -0.069037 -1614570.000000 0 0 1
26.922326 -17.238307 12.098756 34.181146 -0.569524 1.208995 0.185855 -0.049684 -291502.000000 0 0 1
26.921826 -16.441107 10.956256 33.393625 -0.548249 1.236511 0.192971 -0.045614 -13033.400000 0 0 1
27.063426 -17.191307 9.750256 33.511752 -0.565917 1.275576 0.158198 -0.045788 506933.000000 0 0 1
28.520826 -17.446607 9.255256 34.691229 -0.548989 1.300736 0.153035 -0.031016 556478.000000 0 0 1
29.271626 -18.294407 10.085356 35.961476 -0.558590 1.286535 0.149989 -0.032701 -100322.000000 0 0 1
30.648226 -18.342907 9.729456 37.019431 -0.539314 1.304852 0.133231 -0.014015 142340.000000 0 0 1
31.433416 -19.204207 10.699556 38.358072 -0.548431 1.288107 0.116198 -0.030938 -332118.000000 0 0 1
31.564706 -18.707607 12.004456 38.605856 -0.535016 1.254605 0.125480 -0.056039 84512.800000 0 0 1
31.989376 -19.781207 12.888856 39.758507 -0.553816 1.240653 0.086845 -0.048119 148324.000000 0 0 1
32.094976 -19.208907 14.346356 40.061047 -0.539317 1.204551 0.107749 -0.036893 147215.000000 0 0 1
32.089436 -20.235807 15.293856 40.903811 -0.562621 1.187588 0.123719 -0.038740 39399.000000 0 0 1
31.657836 -19.765407 16.572756 40.835598 -0.558128 1.152898 0.129843 -0.048617 -210595.000000 0 0 1
30.921126 -20.812607 17.380556 41.126200 -0.592434 1.134467 0.119520 -0.042480 -1199790.000000 0 0 1
29.685026 -21.161507 16.906056 40.184883 -0.619310 1.136572 0.074863 -0.032037 -1082440.000000 0 0 1
29.352126 -22.422107 17.514756 40.878660 -0.652338 1.128012 0.110659 -0.035746 -290975.000000 0 0 1
27.932926 -22.957807 17.353256 40.105420 -0.687947 1.123321 0.109001 -0.018129 -361508.000000 0 0 1
26.897126 -22.181607 17.936056 39.206902 -0.689611 1.095646 0.130444 -0.014827 754919.000000 0 0 1
25.697526 -22.986307 17.891356 38.843709 -0.729765 1.092127 0.125859 -0.026534 865393.000000 0 0 1
24.490426 -22.347207 18.660556 38.044644 -0.739672 1.058143 0.092627 -0.019544 113926.000000 0 0 1
23.993026 -21.177707 18.099056 36.765967 -0.723153 1.056092 0.091126 -0.020308 29815.200000 0 0 1
22.848926 -20.605407 18.717556 36.013929 -0.733815 1.024260 0.083441 -0.013777 260698.000000 0 0 1
22.905026 -20.026907 20.160556 36.498838 -0.718459 0.985602 0.069068 -0.014893 -280325.000000 0 0 1
23.094026 -20.995807 21.168556 37.712938 -0.737844 0.974831 0.080190 -0.014844 -49628.100000 0 0 1
23.585726 -20.377607 22.345506 38.351727 -0.712555 0.948815 0.072328 -0.007590 40754.700000 0 0 1
23.962926 -21.493407 23.335836 39.758641 -0.731124 0.943525 0.075200 -0.004795 -129489.000000 0 0 1
22.855926 -22.142207 23.892116 39.793264 -0.769538 0.926788 0.080775 -0.009473 -280200.000000 0 0 1
23.299226 -23.186607 24.769946 41.158509 -0.782976 0.925020 0.080279 -0.007065 39570.800000 0 0 1
22.242526 -23.967107 25.602626 41.528865 -0.822702 0.906504 0.089298 -0.015134 -418897.000000 0 0 1
21.538426 -24.911507 24.885626 41.276886 -0.857888 0.923672 0.092663 -0.017607 -784762.000000 0 0 1
20.520726 -25.391507 25.682476 41.538155 -0.891092 0.904236 0.085621 -0.017850 -489762.000000 0 0 1
19.724226 -26.563607 25.001576 41.469857 -0.932094 0.923683 0.085827 -0.025654 -214253.000000 0 0 1
18.914326 -26.091207 23.976946 40.167110 -0.943533 0.931127 0.094925 -0.029451 -93055.600000 0 0 1
18.504826 -27.098907 23.084666 40.120831 -0.971665 0.957729 0.079417 -0.033161 97610.600000 0 0 1
17.480726 -26.569407 22.018956 38.682600 -0.988869 0.965238 0.088317 -0.032377 618765.000000 0 0 1
16.259926 -26.110007 22.595386 38.166334 -1.013819 0.937228 0.083821 -0.032412 -178003.000000 0 0 1
15.669826 -25.202007 21.768856 36.804452 -1.014524 0.937911 0.085132 -0.032089 357573.000000 0 0 1
14.215826 -24.805607 22.180856 36.185607 -1.050399 0.910976 0.062039 -0.028150 656261.000000 0 0 1
13.147826 -25.659807 21.870556 36.188565 -1.097286 0.921847 0.069826 -0.030604 -427935.000000 0 0 1
11.936626 -24.976507 21.761156 35.211601 -1.124973 0.904586 0.086407 -0.029262 -549286.000000 0 0 1
10.679326 -25.803907 21.957956 35.525222 -1.178395 0.904480 0.091561 -0.035498 -427965.000000 0 0 1
10.452126 -26.858307 21.065756 35.698482 -1.199671 0.939611 0.112879 -0.045578 543898.000000 0 0 1
9.135326 -27.348207 21.345756 35.875059 -1.248412 0.933527 0.129168 -0.053253 347196.000000 0 0 1
8.461926 -28.156507 20.202356 35.672514 -1.278852 0.968752 0.148334 -0.048222 25145.600000 0 0 1
9.039426 -29.442407 19.992256 36.718617 -1.272911 0.995037 0.139393 -0.044951 150248.000000 0 0 1
8.701926 -30.065707 18.767356 36.494984 -1.289065 1.030669 0.133073 -0.042927 8661.610000 0 0 1
9.379726 -31.478107 18.712956 37.802449 -1.281197 1.052939 0.106150 -0.021211 -21237.500000 0 0 1
9.066426 -32.400607 19.723856 39.000383 -1.297952 1.040563 0.106515 -0.030272 278125.000000 0 0 1
9.886226 -33.579307 19.680556 40.157584 -1.284472 1.058611 0.073155 -0.018828 84273.800000 0 0 1
9.486826 32.918572 20.669056 40.010525 1.290209 1.027932 0.100715 -0.034615 -262892.000000 0 0 1
8.456626 32.125772 20.132256 38.844400 1.313401 1.025958 0.098686 -0.035324 -174790.000000 0 0 1
8.297126 30.947072 20.888256 38.247650 1.308850 0.993057 0.113328 -0.046014 251275.000000 0 0 1
7.198926 29.965572 20.353156 36.932519 1.335025 0.987126 0.106735 -0.041095 1706730.000000 0 0 1
5.812226 30.329772 20.589056 37.115849 1.381457 0.982765 0.165942 -0.053027 1222520.000000 0 0 1
4.961226 29.251572 20.205156 35.895912 1.402790 0.972928 0.185796 -0.040717 -547414.000000 0 0 1
3.501926 29.457472 20.528056 36.075022 1.452471 0.965461 0.188521 -0.036247 -842040.000000 0 0 1
3.184126 29.236172 21.866756 36.647611 1.462313 0.931444 0.143081 -0.031372 -239098.000000 0 0 1
1.847126 28.881772 22.098756 36.413234 1.506929 0.918657 0.147853 -0.026139 -342204.000000 0 0 1
1.718326 28.332772 23.567106 36.893185 1.510223 0.877868 0.142917 -0.017270 -240765.000000 0 0 1
1.596126 29.405072 24.504756 38.310428 1.516569 0.876771 0.155571 -0.025605 115590.000000 0 0 1
1.496626 29.000672 25.892116 38.906047 1.519235 0.842628 0.155569 -0.030718 776819.000000 0 0 1
2.775626 28.369472 26.607226 38.993275 1.473268 0.819818 0.110692 -0.029341 660794.000000 0 0 1
3.051026 27.040872 26.162186 37.748874 1.458441 0.805073 0.112384 -0.032234 643296.000000 0 0 1
4.019826 26.361772 26.980126 37.934538 1.419475 0.779552 0.085974 -0.019457 238092.000000 0 0 1
4.465926 24.939872 26.602756 36.737560 1.393607 0.761025 0.072671 -0.000804 -515424.000000 0 0 1
3.458826 23.966572 26.572446 35.950729 1.427467 0.739011 0.084388 0.001456 -427045.000000 0 0 1
3.999426 22.669472 26.513286 35.112030 1.396170 0.714981 0.073300 0.006262 533146.000000 0 0 1
2.916426 21.545772 26.277696 34.106350 1.436255 0.691229 0.070357 0.003274 573401.000000 0 0 1
3.389826 20.192372 26.409716 33.417000 1.404471 0.659485 0.080521 0.000734 147858.000000 0 0 1
4.031026 19.700072 25.211326 32.248301 1.368963 0.673269 0.076803 0.009337 254681.000000 0 0 1
4.631126 18.286772 25.372596 31.616799 1.322761 0.639317 0.087525 -0.001711 222041.000000 0 0 1
5.693126 18.248272 26.312036 32.522828 1.268384 0.628292 0.063910 -0.008247 1219090.000000 0 0 1
6.938526 17.768772 25.732866 32.032058 1.198515 0.637901 0.071190 -0.002767 1486170.000000 0 0 1
8.174726 17.726372 26.719226 33.090292 1.138699 0.630956 0.076996 -0.018754 842826.000000 0 0 1
8.675826 18.951372 27.305496 34.351340 1.141480 0.651972 0.082803 -0.016566 104427.000000 0 0 1
9.323926 19.813072 26.393786 34.294684 1.130948 0.692555 0.073246 -0.014155 -457853.000000 0 0 1
9.811926 21.059472 27.073186 35.675378 1.134787 0.709211 0.074203 -0.013526 -250814.000000 0 0 1
10.868526 20.870472 27.968606 36.550572 1.090678 0.699440 0.095376 -0.030324 -396397.000000 0 0 1
11.138626 22.021772 28.758896 37.895930 1.102519 0.709187 0.115750 -0.044105 557366.000000 0 0 1
12.184226 21.810972 29.914496 38.975004 1.061353 0.695817 0.144708 -0.048795 291710.000000 0 0 1
13.491126 21.579472 29.473736 38.940791 1.012065 0.712261 0.135286 -0.050293 -470588.000000 0 0 1
14.381126 21.517172 30.586056 40.066348 0.981625 0.702259 0.133867 -0.040263 476865.000000 0 0 1
15.838526 21.164772 30.206966 40.140593 0.928356 0.718902 0.104342 -0.040581 304802.000000 0 0 1
16.487626 22.139772 29.401816 40.329618 0.930692 0.753881 0.096654 -0.049735 209422.000000 0 0 1
17.800326 21.694572 29.075496 40.409040 0.883682 0.767672 0.158708 -0.033666 429869.000000 0 0 1
-8.714755 16.700172 4.441071 19.353702 -1.089833 1.339264 0.028684 -0.017078 -122179.000000 0 1 0
-8.642255 18.082672 4.782771 20.604526 -1.124960 1.336537 0.040735 -0.020522 -582047.000000 0 1 0
-7.369755 18.439472 5.204171 20.528293 -1.190572 1.314487 0.039126 -0.013072 -834358.000000 0 1 0
-7.193155 19.934072 5.538371 21.903932 -1.224491 1.315173 0.047396 -0.018518 -234320.000000 0 1 0
-7.323855 20.780372 4.425771 22.473321 -1.231949 1.372566 0.053607 -0.035722 -204024.000000 0 1 0
-8.627855 21.105472 4.014971 23.151691 -1.182729 1.396495 0.057138 -0.036898 -225380.000000 0 1 0
-8.770555 22.386072 3.067671 24.237769 -1.197391 1.443890 0.102999 -0.047987 452904.000000 0 1 0
-8.155255 22.308972 1.708771 23.814246 -1.220328 1.498980 0.078062 -0.043815 537875.000000 0 1 0
-8.797155 21.373472 0.814571 23.127446 -1.180337 1.535568 0.093866 -0.039148 -804980.000000 0 1 0
-8.140055 21.345972 -0.558529 22.852198 -1.206480 1.595240 0.065288 -0.015781 285591.000000 0 1 0
-6.858855 20.763372 -0.620129 21.875695 -1.251747 1.599148 0.047382 -0.013851 233620.000000 0 1 0
-5.777955 21.514972 -0.073429 22.277436 -1.308432 1.574092 0.054621 -0.022370 -67805.400000 0 1 0
-4.341555 21.096772 -0.460129 21.543783 -1.367837 1.592156 0.044994 -0.024213 60352.900000 0 1 0
-4.042855 21.518172 -1.825429 21.970630 -1.385080 1.653977 0.034699 -0.022595 239482.000000 0 1 0
-2.706855 21.343372 -2.265029 21.633237 -1.444646 1.675690 0.035499 -0.018054 168669.000000 0 1 0
-2.608755 21.821172 -3.723329 22.289736 -1.451809 1.738625 0.039898 -0.008925 468203.000000 0 1 0
-1.315555 22.061972 -4.272529 22.510348 -1.511237 1.761758 0.063613 -0.016722 262760.000000 0 1 0
-1.396155 22.414972 -5.649629 23.158120 -1.508590 1.817242 0.074951 -0.022874 708638.000000 0 1 0
-0.050855 23.072972 -6.149829 23.878547 -1.568592 1.831278 0.079220 -0.023527 668268.000000 0 1 0
1.001145 22.145572 -6.102729 22.992867 1.525620 1.839434 0.083588 -0.017572 -209631.000000 0 1 0
2.193245 22.732672 -6.620929 23.778591 1.474614 1.852967 0.073522 -0.012013 570661.000000 0 1 0
3.346045 21.751072 -6.945629 23.076978 1.418159 1.876513 0.067528 -0.008515 19510.100000 0 1 0
3.051745 20.910672 -7.977129 22.587694 1.425877 1.931746 0.055573 -0.008448 -65565.300000 0 1 0
3.782645 19.704172 -7.940829 21.578219 1.381132 1.947656 0.042919 -0.013312 281444.000000 0 1 0
3.348045 18.848572 -9.150629 21.218201 1.395001 2.016689 0.035128 -0.007672 74704.700000 0 1 0
3.942345 19.388072 -10.336029 22.322027 1.370193 2.052220 0.040084 -0.009534 124015.000000 0 1 0
3.163345 19.109472 -11.456029 22.503761 1.406746 2.104902 0.040776 -0.009667 -454022.000000 0 1 0
3.782345 19.550272 -12.762529 23.651668 1.379690 2.140763 0.035816 -0.005697 -103655.000000 0 1 0
3.926545 20.947572 -12.892429 24.908497 1.385500 2.114830 0.080530 -0.017058 309468.000000 0 1 0
4.650245 21.272972 -14.111929 25.948230 1.355583 2.145814 0.095488 -0.025659 482720.000000 0 0 1
4.756745 22.792772 -14.478429 27.418278 1.365054 2.127108 0.091563 -0.037438 145314.000000 0 0 1
3.528645 23.393472 -14.884629 27.950993 1.421086 2.132378 0.114975 -0.039370 177568.000000 0 0 1
3.776345 24.761572 -15.202729 29.300498 1.419454 2.116308 0.101737 -0.035934 -658900.000000 0 0 1
2.539845 25.551372 -15.535929 30.011473 1.471720 2.114917 0.100530 -0.032280 -737855.000000 0 0 1
1.676045 25.753072 -14.454729 29.579875 1.505807 2.081358 0.129157 -0.039800 -231786.000000 0 0 1
1.692445 27.131372 -14.083829 30.615845 1.508497 2.048811 0.107456 -0.034560 -560469.000000 0 0 1
0.809545 27.471172 -12.884029 30.353234 1.541336 2.009172 0.124880 -0.039592 844439.000000 0 0 1
-0.620555 27.431272 -12.950329 30.340909 -1.548178 2.011778 0.109521 -0.037633 887539.000000 0 0 1
-1.310255 26.183172 -13.131529 29.320851 -1.520796 2.035163 0.100982 -0.040035 -101784.000000 0 0 1
-1.349655 25.102372 -12.040329 27.873287 -1.517082 2.017469 0.134430 -0.041947 -526121.000000 0 0 1
-2.097955 25.366772 -10.916229 27.695461 -1.488279 1.975942 0.135192 -0.038691 -477329.000000 0 0 1
-2.441655 24.153072 -10.323229 26.379947 -1.470048 1.972871 0.147882 -0.032257 357907.000000 0 0 1
-3.387155 24.258972 -9.070129 26.119682 -1.432068 1.925436 0.124945 -0.026884 -77789.000000 0 0 1
-2.797155 24.731472 -7.866329 26.102661 -1.458174 1.876916 0.131304 -0.034756 -76689.400000 0 0 1
-2.368055 26.088772 -7.863629 27.350838 -1.480275 1.862422 0.134923 -0.034309 12125.300000 0 0 1
-2.130355 26.622472 -6.462729 27.478378 -1.490946 1.808214 0.128309 -0.031409 -387799.000000 0 0 1
-1.251655 25.812172 -5.789429 26.483057 -1.522343 1.791185 0.116748 -0.040415 -632228.000000 0 0 1
-0.931655 26.195572 -4.417029 26.581687 -1.535246 1.737739 0.114837 -0.041689 854797.000000 0 0 1
-1.997255 25.696772 -3.329929 25.988488 -1.493228 1.699280 0.109855 -0.033192 761250.000000 0 0 1
-3.313255 26.169072 -3.520429 26.611866 -1.444857 1.703473 0.104322 -0.035592 116305.000000 0 0 1
-4.071955 26.052372 -2.288829 26.467822 -1.415752 1.657380 0.100492 -0.026587 273925.000000 0 0 1
-5.297855 25.149572 -2.406129 25.813905 -1.363178 1.664142 0.085638 -0.027654 -269617.000000 0 0 1
-6.466155 25.560872 -3.087529 26.546227 -1.323024 1.687368 0.093850 -0.039767 62976.000000 0 0 1
-7.317055 24.445372 -3.354329 25.736492 -1.279961 1.701502 0.070165 -0.033564 -896319.000000 0 0 1
-8.643655 24.905872 -3.860229 26.644260 -1.236749 1.716188 0.070988 -0.029070 -825888.000000 0 0 1
-9.446355 25.414272 -2.751229 27.252304 -1.214926 1.671923 0.106743 -0.043270 -588026.000000 0 0 1
-10.607355 25.993372 -3.263629 28.263450 -1.183345 1.686526 0.116493 -0.043409 -225259.000000 0 0 1
-11.338055 26.797472 -2.122729 29.174680 -1.170535 1.643620 0.131089 -0.042921 -48511.000000 0 0 1
-12.027955 25.938972 -1.223829 28.618171 -1.136606 1.613573 0.131442 -0.047898 -115571.000000 0 0 1
-11.231155 25.148872 -0.353929 27.545051 -1.150784 1.583646 0.143233 -0.060015 -240045.000000 0 0 1
-11.766255 23.696772 -0.118429 26.457433 -1.109925 1.575273 0.125106 -0.045347 9409.720000 0 0 1
-12.872255 23.666172 0.751771 26.950840 -1.072641 1.542899 0.150524 -0.054489 -111289.000000 0 0 1
-13.294055 22.286872 0.745171 25.961353 -1.032956 1.542089 0.143416 -0.046982 461620.000000 0 0 1
-14.158255 21.857472 2.009971 26.119825 -0.996002 1.493768 0.149513 -0.053921 546872.000000 0 0 1
-13.442755 21.702872 3.249071 25.734777 -1.016234 1.444206 0.142547 -0.046324 153221.000000 0 0 1
-13.223155 22.867372 3.992671 26.715350 -1.046520 1.420782 0.138727 -0.060528 -53002.700000 0 0 1
-12.846255 22.631572 5.433171 26.584463 -1.054522 1.364972 0.131180 -0.054119 -780960.000000 0 0 1
-11.538655 22.306472 5.751271 25.764246 -1.093422 1.345673 0.107743 -0.046611 -670595.000000 0 0 1
-11.503755 21.926772 7.078271 25.753089 -1.087628 1.292361 0.076482 -0.042560 -1002510.000000 0 0 1
-10.146455 21.685572 7.676971 25.142602 -1.133165 1.260504 0.060875 -0.029076 -776180.000000 0 0 1
-9.547555 22.914172 8.161371 26.130883 -1.176006 1.253155 0.069669 -0.030640 173357.000000 0 0 1
-8.405555 22.778572 8.989071 25.890540 -1.217286 1.216218 0.061864 -0.027372 -78449.800000 0 0 1
-8.567655 22.328872 10.512171 26.124490 -1.204418 1.156673 0.054557 -0.032869 -446948.000000 0 0 1
-8.966755 21.019972 10.611671 25.196219 -1.167586 1.136071 0.071886 -0.034470 -218455.000000 0 0 1
-8.943755 20.555472 11.956771 25.406348 -1.160399 1.080801 0.054316 -0.026920 -119142.000000 0 0 1
-10.034255 19.499572 12.245171 25.117002 -1.095546 1.061543 0.064061 -0.025458 -251768.000000 0 0 1
-10.052255 18.311972 11.486971 23.839602 -1.068764 1.068038 0.079023 -0.040946 -292781.000000 0 1 0
-10.730455 17.265772 12.124771 23.669804 -1.014727 1.032998 0.091269 -0.041279 -176134.000000 0 1 0
-10.763455 15.886772 11.417171 22.329202 -0.975324 1.034087 0.094056 -0.055186 -290483.000000 0 1 0
-11.260955 14.842172 12.247171 22.295568 -0.921742 0.989258 0.089784 -0.039965 82399.600000 0 1 0
-11.765355 13.866172 11.359671 21.441465 -0.867178 1.012433 0.079113 -0.027423 85369.000000 0 1 0
-12.436055 12.613472 11.958971 21.372228 -0.792481 0.976946 0.068934 -0.034234 326185.000000 0 1 0
-13.639955 12.920572 12.639071 22.643667 -0.758320 0.978615 0.102854 -0.027095 357785.000000 0 1 0
-14.219955 11.701172 13.172871 22.641755 -0.688531 0.949862 0.077694 -0.016040 362043.000000 0 1 0
-15.072755 11.912872 14.458571 24.044848 -0.668834 0.925648 0.087539 -0.021795 736679.000000 0 1 0
-16.327455 12.566372 14.244671 25.048156 -0.655957 0.965882 0.115502 -0.032418 192592.000000 0 0 1
-16.902655 13.076172 15.409471 26.346495 -0.658445 0.946067 0.087175 -0.025453 -493615.000000 0 0 1
-18.159155 13.875372 15.077071 27.378804 -0.652463 0.987613 0.088447 -0.028661 -153239.000000 0 0 1
-19.211155 13.161772 14.438071 27.399975 -0.600663 1.015803 0.099930 -0.031359 -62168.100000 0 0 1
-20.170355 14.108972 14.057671 28.346506 -0.610384 1.051899 0.131755 -0.036441 -707832.000000 0 0 1
-21.355755 13.562172 13.275971 28.570127 -0.565800 1.087523 0.117287 -0.031286 -517512.000000 0 0 1
-22.216855 12.773672 14.064971 29.233179 -0.521800 1.068853 0.122430 -0.020238 -173652.000000 0 0 1
-23.246455 12.237372 13.283171 29.437961 -0.484559 1.102658 0.111179 -0.019309 -6654.860000 0 0 1
-24.255055 11.347772 14.060871 30.245458 -0.437600 1.087284 0.126988 -0.029003 324587.000000 0 0 1
-25.022645 12.028572 15.053171 31.581913 -0.448095 1.073969 0.117262 -0.016956 185047.000000 0 0 1
-26.082345 11.247672 15.522171 32.368760 -0.407142 1.070664 0.106078 -0.022149 147080.000000 0 0 1
-26.945285 11.945672 16.648671 33.851524 -0.417294 1.056624 0.105070 -0.022468 327522.000000 0 0 1
-27.877585 12.955172 16.293371 34.791812 -0.435024 1.083419 0.111502 -0.017938 575602.000000 0 0 1
-28.615905 13.431272 17.437171 36.101579 -0.438840 1.066715 0.100084 -0.015444 8505.470000 0 0 1
-29.833175 14.299772 17.174471 37.275518 -0.446971 1.091963 0.093168 -0.019015 -295367.000000 0 0 1
-29.460055 15.526872 16.592171 37.205896 -0.485051 1.108555 0.085992 -0.017060 -162346.000000 0 0 1
-30.574935 16.388672 16.584671 38.450833 -0.492044 1.124839 0.082990 -0.017401 -137480.000000 0 0 1
-30.308975 17.891272 16.320471 38.795481 -0.533254 1.136602 0.116050 -0.017362 -3017.850000 0 0 1
-29.702605 18.604972 17.453871 39.153893 -0.559588 1.108755 0.110190 -0.024500 566967.000000 0 0 1
-30.451555 18.600772 18.679071 40.276465 -0.548346 1.088549 0.095606 -0.034931 -408575.000000 0 0 1
-29.551495 19.082172 19.863871 40.397939 -0.573365 1.056750 0.075228 -0.031765 374513.000000 0 0 1
-28.780405 18.145872 20.517671 39.731086 -0.562540 1.028139 0.075552 -0.026320 179405.000000 0 0 1
-27.818465 17.350372 19.807271 38.304443 -0.557664 1.027336 0.091767 -0.020128 49538.800000 0 0 1
-27.297165 16.096472 20.565271 37.777798 -0.532793 0.995153 0.088656 -0.015471 73927.200000 0 0 1
-28.290985 15.112772 20.663771 38.154517 -0.490624 0.998479 0.068385 -0.015321 210224.000000 0 0 1
-27.744125 13.814872 21.032971 37.456281 -0.461997 0.974558 0.075609 -0.011971 -124025.000000 0 0 1
-28.824325 12.873572 21.597471 38.249462 -0.420041 0.970790 0.077818 -0.020881 406371.000000 0 0 1
-29.840895 12.747772 20.576271 38.423530 -0.403725 1.005682 0.074043 -0.027898 276851.000000 0 0 1
-30.703465 11.664972 20.842971 38.899920 -0.363080 1.005329 0.112025 -0.026735 26378.100000 0 0 1
-31.711415 11.381572 19.693771 39.025615 -0.344591 1.041835 0.119686 -0.032496 272572.000000 0 0 1
-31.067225 10.928772 18.469471 37.758865 -0.338258 1.059690 0.139179 -0.032413 693077.000000 0 0 1
-30.406625 9.695172 18.442571 36.860380 -0.308660 1.046810 0.148897 -0.034184 111410.000000 0 0 1
-29.556595 9.283672 17.159771 35.415203 -0.304340 1.064969 0.145107 -0.039581 63832.400000 0 0 1
-30.283715 8.850872 16.044671 35.395943 -0.284345 1.100342 0.161832 -0.034074 266818.000000 0 0 1
-31.128885 9.787072 15.375471 36.072141 -0.304619 1.130462 0.154055 -0.033103 -165353.000000 0 0 1
-30.441745 10.897172 14.558971 35.460003 -0.343756 1.147712 0.142636 -0.021087 -278964.000000 0 0 1
-29.941805 10.410672 13.334171 34.390317 -0.334622 1.172628 0.152531 -0.028782 370490.000000 0 0 1
-28.950095 11.322072 12.881171 33.648505 -0.372801 1.177954 0.134323 -0.017592 5166.810000 0 0 1
-28.401645 11.344872 11.424171 32.647684 -0.380027 1.213308 0.174014 -0.017958 192789.000000 0 0 1
-27.510325 10.334272 11.003171 31.379690 -0.359341 1.212535 0.192082 -0.026554 468692.000000 0 0 1
-28.160915 9.089672 11.029271 31.580122 -0.312219 1.214029 0.213370 -0.019458 -312594.000000 0 0 1
-27.417465 7.920372 10.364071 30.362208 -0.281224 1.222446 0.234503 -0.029310 -305820.000000 0 0 1
-27.411205 7.991672 8.967771 29.927611 -0.283684 1.266472 0.239379 -0.023221 302588.000000 0 0 1
-26.884155 6.811372 8.413571 28.981731 -0.248139 1.276250 0.274403 -0.051980 -386491.000000 0 0 1
-25.967905 7.081072 7.221171 27.867884 -0.266213 1.308684 0.275618 -0.047173 -523016.000000 0 0 1
-26.630235 7.625072 6.106171 28.365410 -0.278870 1.353830 0.274032 -0.048550 329154.000000 0 0 1
-25.751635 7.990672 5.041571 27.430184 -0.300877 1.385949 0.262222 -0.048456 -190005.000000 0 0 1
-26.502085 8.752772 3.915171 28.183330 -0.318989 1.431428 0.249905 -0.047461 -515027.000000 0 0 1
-27.346545 8.021672 3.063771 28.662998 -0.285330 1.463702 0.287703 -0.045713 -123219.000000 0 0 1
-26.825935 6.994372 2.261071 27.814825 -0.255053 1.489416 0.293307 -0.044560 -278700.000000 0 0 1
-25.727935 7.396172 1.204771 26.797042 -0.279928 1.525822 0.274737 -0.035732 1045100.000000 0 0 1
-24.530655 7.811172 1.905371 25.814684 -0.308274 1.496920 0.233292 -0.037578 241415.000000 0 0 1
-23.431555 7.832872 1.048371 24.728339 -0.322609 1.528388 0.221606 -0.024888 -315215.000000 0 1 0
-22.197155 8.456572 1.772271 23.819493 -0.363999 1.496323 0.157133 -0.031656 171965.000000 0 1 0
-22.392355 9.826172 2.038971 24.538309 -0.413516 1.487607 0.165892 -0.040211 -8235.130000 0 1 0
-21.520355 10.128672 3.052571 23.979864 -0.439898 1.443153 0.145169 -0.042172 -709453.000000 0 1 0
-21.720255 11.516672 3.658171 24.855290 -0.487536 1.423081 0.136814 -0.057729 -345295.000000 0 1 0
-21.576055 12.590372 2.732471 25.129863 -0.528224 1.461847 0.194445 -0.052692 230613.000000 0 0 1
-21.662255 13.926272 3.304971 25.963767 -0.571355 1.443158 0.183545 -0.057253 -302965.000000 0 0 1
-20.488255 14.485972 4.126071 25.429047 -0.615434 1.407818 0.142493 -0.052845 -13743.900000 0 0 1
-19.952355 13.655972 5.157571 24.722107 -0.600199 1.360631 0.128175 -0.053843 92065.200000 0 1 0
-18.939855 14.257372 5.921371 24.434676 -0.645272 1.326025 0.111658 -0.050547 -17469.600000 0 1 0
-18.229855 13.400272 7.010671 23.686376 -0.633879 1.270316 0.077999 -0.045825 81689.800000 0 1 0
-17.339255 12.397072 6.583071 22.308608 -0.620703 1.271246 0.076160 -0.040580 196257.000000 0 1 0
-16.834155 11.605772 7.619271 21.820541 -0.603589 1.214102 0.059847 -0.035596 -139007.000000 0 1 0
11.163245 -32.546307 -14.469829 37.326345 -1.240375 1.968885 0.043269 -0.017361 -339927.000000 0 0 1
12.317245 -32.631207 -13.661129 37.458465 -1.209863 1.944108 0.041879 -0.022553 205372.000000 0 0 1
12.868045 -31.312507 -13.482229 36.439404 -1.180881 1.949795 0.046312 -0.025700 -239827.000000 0 0 1
14.197145 -31.201607 -12.719229 36.563342 -1.143781 1.926093 0.062617 -0.023243 105475.000000 0 0 1
15.307945 -31.551407 -13.544329 37.593527 -1.119079 1.939368 0.069122 -0.029269 -651081.000000 0 0 1
16.487445 -31.028807 -13.066529 37.488089 -1.082377 1.926822 0.075335 -0.025652 -1064350.000000 0 0 1
17.730345 -31.656307 -13.679029 38.776316 -1.060240 1.931324 0.096439 -0.025119 -273885.000000 0 0 1
18.006045 -32.970907 -13.172929 39.809853 -1.070938 1.908049 0.090708 -0.029005 -125080.000000 0 0 1
19.036845 -33.635507 -13.888129 41.068588 -1.055771 1.915767 0.088917 -0.012431 119107.000000 0 0 1
19.216045 32.547172 -13.466829 40.123936 1.037461 1.913071 0.069932 -0.018082 -196865.000000 0 0 1
19.755245 32.340372 -12.192329 39.809826 1.022434 1.882063 0.052981 -0.014294 -38655.800000 0 0 1
19.431245 31.003772 -11.812729 38.449287 1.010948 1.883076 0.055425 -0.007255 107166.000000 0 0 1
19.989945 30.523272 -10.401529 37.940214 0.990978 1.848508 0.039970 -0.003369 127095.000000 0 0 1
21.335045 30.137772 -10.511629 38.392236 0.954777 1.848134 0.045182 -0.010755 -315462.000000 0 0 1
22.004245 29.924272 -9.323829 38.295987 0.936750 1.816736 0.034924 -0.007731 644649.000000 0 0 1
23.295845 29.043372 -9.420129 38.405112 0.894773 1.818608 0.041618 0.000439 1960150.000000 0 0 1
24.522945 29.644572 -9.952129 39.739405 0.879670 1.823926 0.045064 -0.008944 1329800.000000 0 0 1
25.632045 28.777572 -9.757329 39.753689 0.843146 1.818775 0.056368 -0.001682 680112.000000 0 0 1
26.838545 29.314072 -10.606429 41.135369 0.829455 1.831584 0.038715 -0.006085 61310.800000 0 0 1
27.312245 30.590272 -10.280329 42.277755 0.841951 1.816420 0.050155 -0.020527 -521352.000000 0 0 1
28.460445 30.825072 -11.018429 43.377272 0.825262 1.827624 0.055834 -0.011700 -588037.000000 0 0 1
29.103645 32.229872 -11.042629 44.807660 0.836325 1.819807 0.056083 -0.019595 -526736.000000 0 0 1
28.421945 33.244772 -11.642529 45.261134 0.863447 1.830951 0.069871 -0.016282 -557884.000000 0 0 1
29.071245 -33.177207 -11.436629 45.570394 -0.851264 1.824475 0.059539 -0.019949 226734.000000 0 0 1
28.080245 -31.998807 -11.650829 44.138029 -0.850529 1.837925 0.054248 -0.016132 534936.000000 0 0 1
26.917645 -32.101007 -10.821929 43.268330 -0.872999 1.823592 0.076407 -0.026862 69858.900000 0 0 1
25.841745 -31.261907 -11.180129 42.072531 -0.880033 1.839762 0.080161 -0.028477 171724.000000 0 0 1
26.004545 -29.732607 -10.913029 40.979976 -0.852185 1.840350 0.071061 -0.024362 -389489.000000 0 0 1
27.055345 -29.115707 -11.648329 41.417383 -0.822062 1.855885 0.054170 -0.019767 -75780.900000 0 0 1
27.433545 -27.872107 -11.122929 40.659233 -0.793328 1.847893 0.043283 -0.021195 -202136.000000 0 0 1
28.305845 -27.076007 -12.106329 40.998710 -0.763195 1.870551 0.087055 -0.020872 1098390.000000 0 0 1
29.625545 -27.558007 -12.446229 42.332319 -0.749258 1.869218 0.065936 -0.012534 908943.000000 0 0 1
29.546745 -28.697007 -13.340529 43.295474 -0.770810 1.884021 0.089519 -0.015760 -1741440.000000 0 0 1
30.845345 -29.300507 -13.746029 44.709152 -0.759719 1.883313 0.073079 -0.016057 -1359900.000000 0 0 1
31.411145 -29.975407 -12.672529 45.230278 -0.762014 1.854776 0.080482 -0.014819 -280091.000000 0 0 1
32.492245 -30.741507 -13.147329 46.622296 -0.757718 1.856671 0.081589 -0.016953 -347468.000000 0 0 1
33.361345 -31.435507 -12.057629 47.397857 -0.755686 1.828015 0.094501 -0.016908 91459.800000 0 0 1
34.096845 -32.400807 -12.799329 48.746589 -0.759898 1.836480 0.088143 -0.017882 250907.000000 0 0 1
34.935545 -33.306807 -12.064029 49.753155 -0.761536 1.815715 0.091637 -0.014888 356806.000000 0 0 1
34.171845 33.197872 -11.322429 48.969491 0.770942 1.804122 0.084621 -0.020832 -14748.400000 0 0 1
33.536245 33.646372 -10.130029 48.573403 0.787037 1.780889 0.062632 -0.024349 -188109.000000 0 0 1
32.939945 32.580872 -9.489329 47.292711 0.779918 1.772819 0.054864 -0.024056 -536041.000000 0 0 1
32.085945 32.952172 -8.260429 46.728879 0.798716 1.748504 0.040711 -0.020151 -100269.000000 0 0 1
30.970645 33.709072 -8.697729 46.595416 0.827711 1.758563 0.035977 -0.027327 -110637.000000 0 0 1
30.290945 -33.494907 -7.497829 45.778462 -0.835586 1.735323 0.032194 -0.026308 200125.000000 0 0 1
29.325245 -32.323707 -7.625329 44.305052 -0.833998 1.743767 0.028604 -0.025896 -141320.000000 0 0 1
29.955845 -31.029907 -7.777329 43.825730 -0.803008 1.749202 0.019843 -0.027300 338223.000000 0 0 1
29.072745 -29.988707 -8.182329 42.561691 -0.800906 1.764247 0.011933 -0.017127 500809.000000 0 0 1
28.037545 -29.433707 -7.162029 41.276406 -0.809687 1.745193 0.026966 -0.020594 274194.000000 0 0 1
27.220345 -28.406607 -7.630029 40.076175 -0.806720 1.762354 0.034553 -0.031096 -311135.000000 0 0 1
26.124145 -28.129207 -6.792429 38.985386 -0.822339 1.745920 0.049313 -0.034591 206893.000000 0 0 1
25.028645 -27.296207 -7.517029 37.789174 -0.828707 1.771052 0.097627 -0.046407 -387190.000000 0 0 1
24.296745 -28.009707 -8.496529 38.040327 -0.856264 1.796052 0.120401 -0.043945 -221056.000000 0 0 1
23.631245 -27.129807 -9.310829 37.163876 -0.854212 1.824029 0.153523 -0.050730 83724.700000 0 0 1
22.376545 -27.808407 -9.969729 37.059583 -0.893215 1.843171 0.138484 -0.043373 283646.000000 0 0 1
22.718345 -28.721407 -11.008629 38.239146 -0.901573 1.862818 0.147505 -0.041377 719213.000000 0 0 1
21.596745 -29.458307 -11.562429 38.313196 -0.938180 1.877363 0.127225 -0.041581 924862.000000 0 0 1
21.235745 -30.788407 -10.846329 38.942595 -0.966995 1.853050 0.113926 -0.043926 30669.600000 0 0 1
22.219845 -31.760207 -11.023429 40.298241 -0.960330 1.847874 0.086837 -0.032382 -311339.000000 0 0 1
21.865645 -32.912507 -10.282229 40.829692 -0.984395 1.825369 0.064070 -0.027046 -176018.000000 0 0 1
22.930345 33.633972 -10.300629 41.989853 0.972416 1.818638 0.051954 -0.014993 -549652.000000 0 0 1
23.977845 -33.636307 -9.461929 42.377662 -0.951494 1.795971 0.056139 -0.013262 -866667.000000 0 0 1
24.976545 33.030172 -9.542729 42.495690 0.923356 1.797285 0.065072 -0.016879 1136590.000000 0 0 1
26.329145 33.335372 -8.722129 43.365267 0.902290 1.773309 0.061849 -0.020129 1037150.000000 0 0 1
26.318745 33.009372 -7.323329 42.847708 0.897697 1.742555 0.048101 -0.026590 233168.000000 0 0 1
26.649045 31.657472 -6.996129 41.967999 0.871086 1.738280 0.048986 -0.020201 -438411.000000 0 0 1
26.584645 31.535772 -5.414729 41.600090 0.870380 1.701328 0.045658 -0.012087 -671565.000000 0 0 1
27.682045 31.939972 -4.597729 42.515838 0.856692 1.679150 0.051928 -0.018343 -192581.000000 0 0 1
28.652745 30.940372 -4.474729 42.406480 0.823767 1.676513 0.055331 -0.010760 -568339.000000 0 0 1
28.363645 29.769872 -3.531529 41.270005 0.809583 1.656472 0.059106 -0.003030 -695144.000000 0 0 1
28.344745 30.020072 -2.106329 41.340850 0.814095 1.621769 0.059318 -0.000852 -214375.000000 0 0 1
28.195245 28.883872 -1.287829 40.384506 0.797462 1.602691 0.055562 -0.001261 -99227.700000 0 0 1
26.819945 28.188272 -1.276029 38.929633 0.810268 1.603580 0.067776 -0.004074 43735.700000 0 0 1
25.720245 28.903772 -0.753229 38.697886 0.843613 1.590262 0.078770 -0.011396 -953620.000000 0 0 1
24.539545 28.394572 -1.270629 37.550705 0.858097 1.604640 0.080639 -0.009995 -94364.600000 0 0 1
23.272645 29.017372 -0.600229 37.201937 0.894822 1.586931 0.084923 -0.014201 446241.000000 0 0 1
22.956945 28.507672 0.707671 36.608871 0.892838 1.551465 0.088008 -0.019848 36806.400000 0 0 1
21.882245 29.288772 1.213071 36.580546 0.929141 1.537629 0.071341 -0.019877 -256184.000000 0 0 1
21.144345 28.542872 2.291071 35.595334 0.933214 1.506387 0.084006 -0.037722 -631780.000000 0 0 1
20.274245 27.560372 1.800671 34.261662 0.936555 1.518216 0.107431 -0.034013 11249.800000 0 0 1
19.848245 26.610472 2.783071 33.313893 0.929937 1.487158 0.138939 -0.043250 444584.000000 0 0 1
18.997245 25.399372 2.182571 31.792877 0.928614 1.502093 0.145074 -0.033436 117813.000000 0 0 1
19.715145 24.367272 1.594771 31.384616 0.890541 1.519961 0.143857 -0.034702 -314194.000000 0 0 1
20.511445 23.687472 2.513071 31.434554 0.857132 1.490765 0.127679 -0.022955 180101.000000 0 0 1
21.882245 23.133372 2.016671 31.906935 0.813184 1.507549 0.132261 -0.025906 196668.000000 0 0 1
21.679945 22.064872 1.195571 30.956549 0.794197 1.532166 0.148941 -0.022572 -308116.000000 0 0 1
22.831845 21.468772 0.710171 31.348136 0.754639 1.548140 0.123444 -0.030061 -631601.000000 0 0 1
22.468345 20.415372 -0.362829 30.360263 0.737562 1.582747 0.130311 -0.026689 -115764.000000 0 0 1
22.107445 21.060272 -1.567829 30.573391 0.761145 1.622100 0.115179 -0.018388 298604.000000 0 0 1
22.223945 20.146272 -2.598529 30.108609 0.736401 1.657209 0.145072 -0.012921 -51871.600000 0 0 1
22.205745 20.796172 -3.996729 30.684682 0.752631 1.701419 0.134262 -0.022423 -109102.000000 0 0 1
23.149345 21.845572 -4.145029 32.098324 0.756430 1.700293 0.130139 -0.021122 334396.000000 0 0 1
22.940245 22.604672 -5.291829 32.637853 0.778030 1.733653 0.101237 -0.013034 -593957.000000 0 0 1
24.030845 23.665372 -5.410329 34.158498 0.777736 1.729855 0.082827 -0.008773 -389951.000000 0 0 1
23.910045 24.821572 -4.620229 34.772794 0.804101 1.704059 0.092472 -0.014150 3734.850000 0 0 1
24.495145 24.765372 -3.351629 34.993845 0.790884 1.666721 0.087916 -0.013309 95518.800000 0 0 1
23.459545 24.571772 -2.180729 34.042294 0.808550 1.634900 0.095831 -0.019470 -619252.000000 0 0 1
22.469245 25.609372 -2.204029 34.140366 0.850618 1.635399 0.107658 -0.020619 711208.000000 0 0 1
21.315745 25.289472 -1.449529 33.106185 0.870456 1.614595 0.112413 -0.018989 287930.000000 0 0 1
20.441745 24.077572 -1.917929 31.642895 0.866886 1.631445 0.148282 -0.029589 -896202.000000 0 0 1
19.708945 24.379172 -3.120829 31.504382 0.890934 1.670019 0.121531 -0.030408 -34077.600000 0 0 1
18.959745 23.319272 -3.558129 30.264181 0.888148 1.688638 0.133589 -0.032449 -160880.000000 0 0 1
18.269745 23.590472 -4.932229 30.242698 0.911827 1.734616 0.133433 -0.032723 229866.000000 0 0 1
17.577645 22.480372 -5.513129 29.064330 0.907183 1.761640 0.136315 -0.043912 353614.000000 0 0 1
16.969645 22.807072 -6.744729 29.216823 0.931113 1.803748 0.130689 -0.042867 250368.000000 0 0 1
16.299645 21.628772 -7.571929 28.121456 0.924989 1.843419 0.158073 -0.043262 300400.000000 0 0 1
17.172645 20.648772 -8.156129 28.067667 0.877050 1.865638 0.157832 -0.049667 590738.000000 0 0 1
16.424645 19.692072 -8.925029 27.151478 0.875621 1.905736 0.221649 -0.067504 -57907.500000 0 0 1
17.159145 18.371272 -9.266629 26.791982 0.819500 1.923966 0.207129 -0.065640 -1023460.000000 0 0 1
18.248145 18.636372 -10.053829 27.953329 0.795923 1.938705 0.182524 -0.052162 -744941.000000 0 0 1
18.988945 17.424472 -10.196029 27.715542 0.742460 1.947526 0.181935 -0.049195 -7022.600000 0 0 1
20.496445 17.712672 -10.367129 29.005523 0.712670 1.936299 0.154892 -0.042184 -346608.000000 0 0 1
20.881645 18.219172 -11.600429 30.042491 0.717411 1.967233 0.157492 -0.042386 1090810.000000 0 0 1
22.306645 18.180372 -11.837029 31.116355 0.683833 1.961038 0.138949 -0.025212 1100760.000000 0 0 1
22.719845 18.448872 -13.267729 32.133858 0.682025 1.996421 0.128291 -0.025617 -108353.000000 0 0 1
22.296845 17.439372 -14.169229 31.655142 0.663759 2.034890 0.118107 -0.026418 204179.000000 0 0 1
22.642245 17.816272 -15.483329 32.708168 0.666677 2.063918 0.115644 -0.023431 183927.000000 0 0 1
22.310645 16.742372 -16.567929 32.443307 0.643770 2.106764 0.111755 -0.024275 117747.000000 0 0 1
23.274845 15.698872 -16.463429 32.545621 0.593406 2.101171 0.119794 -0.020083 229650.000000 0 0 1
23.349345 14.885072 -17.633729 32.828428 0.567533 2.137849 0.123428 -0.029101 -47850.800000 0 0 1
24.113445 15.582472 -18.809729 34.323134 0.573710 2.150790 0.131350 -0.025196 -1117700.000000 0 0 1
25.473945 15.703072 -18.528929 35.197010 0.552418 2.125198 0.143924 -0.021777 -61155.100000 0 0 1
26.237545 16.323972 -19.572129 36.577986 0.556555 2.135398 0.165338 -0.024678 1342810.000000 0 0 1
27.792145 16.399072 -19.298629 37.600132 0.533080 2.109775 0.150303 -0.027924 1187900.000000 0 0 1
28.219145 17.473572 -18.447529 37.973111 0.554425 2.078080 0.133200 -0.026277 535237.000000 0 0 1
29.577245 17.282372 -18.037229 38.714796 0.528805 2.055448 0.123663 -0.039220 501494.000000 0 0 1
30.018745 18.377972 -17.073929 39.120250 0.549354 2.022443 0.128372 -0.031775 -129452.000000 0 0 1
29.327445 18.477572 -15.852129 38.115740 0.562218 1.999723 0.110187 -0.027179 419494.000000 0 0 1
28.378045 19.581472 -15.771429 37.914185 0.603998 1.999813 0.120562 -0.022262 540621.000000 0 0 1
27.439645 19.411172 -14.548229 36.624837 0.615684 1.979285 0.113118 -0.028256 -196136.000000 0 0 1
27.999345 19.476372 -13.243829 36.588131 0.607767 1.941177 0.088937 -0.021195 170693.000000 0 0 1
26.976745 19.512572 -12.238329 35.471988 0.626200 1.923050 0.095829 -0.023327 269143.000000 0 0 1
27.508345 19.909372 -10.836929 35.644511 0.626493 1.879714 0.083410 -0.019955 -135228.000000 0 0 1
27.711445 21.335772 -10.743529 36.586374 0.656132 1.868838 0.089369 -0.022095 32826.300000 0 0 1
28.344045 21.721972 -9.525329 36.958907 0.653895 1.831466 0.075224 -0.014514 33951.300000 0 0 1
27.436245 21.738772 -8.283129 35.971266 0.670051 1.803152 0.093633 -0.018435 -443310.000000 0 0 1
27.303745 20.462072 -7.674629 34.972715 0.643132 1.792043 0.099430 -0.028082 310149.000000 0 0 1
26.404545 20.492072 -6.564829 34.062031 0.659985 1.764741 0.119639 -0.029522 143826.000000 0 0 1
24.985845 19.969172 -6.902029 32.721526 0.674265 1.783325 0.173524 -0.029792 -374422.000000 0 0 1
24.306345 20.806172 -7.806329 32.933781 0.707966 1.810105 0.122911 -0.027705 -632125.000000 0 0 1
23.190845 20.122072 -8.281129 31.800788 0.714665 1.834239 0.072817 -0.030298 264220.000000 0 0 1
21.888645 21.019572 -8.331229 31.469740 0.765147 1.838728 0.146105 -0.037465 118811.000000 0 0 1
21.975445 22.114872 -9.267529 32.524988 0.788560 1.859736 0.126802 -0.031109 -234677.000000 0 0 1
21.387345 21.865372 -10.499929 32.338236 0.796450 1.901481 0.150744 -0.031114 -592528.000000 0 0 1
19.874245 22.097772 -10.497129 31.519626 0.838325 1.910317 0.158336 -0.034675 -825174.000000 0 0 1
19.604045 23.426472 -10.119629 32.179575 0.873996 1.890698 0.132637 -0.030351 -389624.000000 0 0 1
18.218445 23.612972 -10.183029 31.514730 0.913649 1.899820 0.133670 -0.030671 -412162.000000 0 0 1
17.874045 25.093172 -9.824429 32.336792 0.951858 1.879492 0.098282 -0.031311 -16804.800000 0 0 1
18.317545 25.940172 -10.886729 33.570014 0.955958 1.901067 0.141699 -0.022930 148920.000000 0 0 1
18.174445 27.323172 -10.621429 34.491751 0.983833 1.883825 0.127657 -0.026640 91564.800000 0 0 1
21.145145 29.038972 33.095602 48.843606 0.941417 0.826325 0.081595 -0.003998 190679.000000 0 0 1
19.750945 29.193172 33.134765 48.376169 0.975975 0.816275 0.106976 -0.018091 -259401.000000 0 0 1
19.007045 27.986272 33.175555 47.382661 0.974197 0.795171 0.111019 -0.023321 278796.000000 0 0 1
17.486345 28.201772 33.343316 47.041353 1.015769 0.782989 0.136308 -0.036568 294717.000000 0 0 1
16.881645 28.713672 32.111354 46.266661 1.039299 0.803698 0.134878 -0.035777 -1023860.000000 0 0 1
15.615945 29.143772 32.428467 46.312230 1.078902 0.795099 0.146076 -0.037492 -686244.000000 0 0 1
14.566645 29.038672 31.297769 45.110774 1.105846 0.804047 0.151081 -0.042805 195072.000000 0 0 1
14.341945 27.764372 30.756776 43.846676 1.093989 0.793350 0.150483 -0.047669 -589084.000000 0 0 1
13.002345 27.670672 30.388576 43.106758 1.131520 0.788428 0.143252 -0.033599 -563967.000000 0 0 1
12.471445 26.250972 30.076986 41.824341 1.127279 0.768252 0.121105 -0.036769 -41496.400000 0 0 1
12.695745 25.700972 28.756356 40.603570 1.111977 0.783819 0.118581 -0.025152 -41779.000000 0 0 1
14.042945 25.433872 28.447966 40.661688 1.066315 0.795923 0.110629 -0.031346 -269767.000000 0 0 1
14.271045 24.658772 27.116746 39.332374 1.046155 0.810101 0.112106 -0.025989 -388970.000000 0 0 1
13.798345 25.233872 25.915986 38.714092 1.070399 0.837369 0.106007 -0.027826 169449.000000 0 0 1
13.569645 24.356572 24.762586 37.290260 1.062500 0.844574 0.114397 -0.044065 -920815.000000 0 0 1
12.423345 23.406972 24.786926 36.285224 1.082849 0.818779 0.114364 -0.037192 -1065060.000000 0 0 1
12.358245 22.730072 23.571746 35.000137 1.072806 0.831895 0.133102 -0.049788 1770050.000000 0 0 1
11.006345 22.163172 23.475346 34.109202 1.109868 0.811735 0.124556 -0.040942 1605490.000000 0 0 1
10.735545 21.645072 22.059256 32.716537 1.110369 0.830842 0.135654 -0.048254 -150720.000000 0 0 1
10.787745 22.778172 21.156456 32.906172 1.128491 0.872475 0.140574 -0.049901 54873.900000 0 0 1
11.002745 22.384372 19.818956 31.857676 1.113942 0.899362 0.149276 -0.043089 -654113.000000 0 0 1
10.737445 23.529672 18.879356 32.021372 1.142686 0.940250 0.125818 -0.044390 20839.600000 0 0 1
9.406645 23.959572 18.675756 31.801413 1.196681 0.943125 0.130397 -0.048287 195135.000000 0 0 1
8.860345 24.780472 19.732856 32.893207 1.227408 0.927412 0.135408 -0.050020 -186476.000000 0 0 1
7.478145 25.428572 19.447056 32.874350 1.284776 0.937808 0.121026 -0.043673 336380.000000 0 0 1
7.456945 26.471072 18.516756 33.154093 1.296210 0.978213 0.106290 -0.040423 147956.000000 0 0 1
6.156645 26.546672 17.942656 32.627733 1.342907 0.988527 0.109731 -0.048708 42553.900000 0 0 1
5.992845 27.598872 16.832756 32.877858 1.356975 1.033310 0.129715 -0.053437 -45282.300000 0 0 1
6.716145 27.339972 15.670556 32.220288 1.329913 1.062881 0.113964 -0.047208 -321008.000000 0 0 1
7.860745 28.136672 15.465356 33.055118 1.298365 1.083922 0.118537 -0.045661 -158675.000000 0 0 1
8.778345 27.682172 14.349756 32.392552 1.263715 1.111859 0.094968 -0.035858 -479791.000000 0 0 1
8.229345 27.807072 13.042756 31.797308 1.283064 1.148140 0.126705 -0.047595 -482361.000000 0 0 1
7.578245 26.639672 12.679456 30.460967 1.293645 1.141476 0.116966 -0.048797 96598.100000 0 0 1
6.510445 26.948472 11.560956 30.037672 1.333750 1.175716 0.108395 -0.055876 -68248.300000 0 0 1
6.944945 27.436272 10.294956 30.115899 1.322874 1.221917 0.080349 -0.044290 -163985.000000 0 0 1
7.265145 28.797172 10.287756 31.430834 1.323667 1.237337 0.097601 -0.047606 -511513.000000 0 0 1
7.753345 29.415572 8.942756 31.707461 1.313078 1.284877 0.064618 -0.028407 -538546.000000 0 0 1
6.929745 29.549572 7.794056 31.336015 1.340446 1.319432 0.060445 -0.028612 -152328.000000 0 0 1
6.530845 28.281272 7.179956 29.900402 1.343850 1.328298 0.068921 -0.025111 46410.300000 0 0 1
4.996545 28.132172 7.082056 29.437052 1.395020 1.327830 0.079251 -0.034046 64738.700000 0 0 1
4.419845 29.117072 6.215556 30.099369 1.420151 1.362799 0.065330 -0.029545 761565.000000 0 0 1
2.980445 29.072772 6.214856 29.878647 1.468637 1.361263 0.100790 -0.021512 990392.000000 0 0 1
2.272645 29.877872 5.131856 30.400462 1.494878 1.401176 0.124453 -0.029523 -185344.000000 0 0 1
2.332945 29.265772 3.854256 29.610527 1.491249 1.440261 0.095170 -0.033827 -50019.900000 0 0 1
1.889845 30.146672 2.859556 30.340903 1.508190 1.476409 0.094567 -0.034595 1105670.000000 0 0 1
0.654345 29.529372 2.049356 29.607631 1.548641 1.501524 0.141405 -0.044751 927621.000000 0 0 1
1.029745 28.442572 1.198556 28.486432 1.534608 1.528709 0.127778 -0.048638 178078.000000 0 0 1
-0.055355 27.625472 0.740856 27.635459 -1.568793 1.543985 0.129436 -0.045643 404521.000000 0 0 1
-0.615055 28.006572 -0.629644 28.020400 -1.548839 1.593269 0.123178 -0.047272 -368285.000000 0 0 1
-1.433255 29.109772 -0.699544 29.153428 -1.521600 1.594794 0.139997 -0.051384 -555432.000000 0 0 1
-1.227855 29.780072 -1.930144 29.867804 -1.529589 1.635464 0.129694 -0.043099 1276170.000000 0 0 1
-2.497555 30.603572 -2.486144 30.805800 -1.489367 1.651588 0.164541 -0.043424 568999.000000 0 0 1
-3.622655 29.950472 -2.954744 30.313114 -1.450426 1.668425 0.143940 -0.045848 -460664.000000 0 0 1
-3.473855 29.395472 -4.233144 29.901186 -1.453165 1.712845 0.110962 -0.040947 241971.000000 0 0 1
-4.817755 28.976372 -4.937844 29.786292 -1.406039 1.737341 0.113277 -0.033532 411727.000000 0 0 1
-5.577955 30.033572 -5.424644 31.025083 -1.387165 1.746547 0.111561 -0.030336 -444959.000000 0 0 1
-6.567255 29.557772 -6.295944 30.926196 -1.352164 1.775809 0.101636 -0.029346 -233438.000000 0 0 1
-7.200555 30.770372 -7.006544 32.369050 -1.340923 1.788981 0.102913 -0.022177 -211295.000000 0 0 1
-8.015755 31.591472 -6.213444 33.179516 -1.322309 1.759176 0.098509 -0.019750 -232205.000000 0 0 1
-8.504655 32.699272 -6.932444 34.491018 -1.316347 1.773168 0.089908 -0.033554 50961.300000 0 0 1
-9.552355 33.440372 -6.060544 35.302070 -1.292553 1.743328 0.086387 -0.042639 112362.000000 0 0 1
-10.856855 32.925072 -6.146744 35.209574 -1.252279 1.746271 0.091745 -0.035064 -505978.000000 0 0 1
-11.778055 33.758972 -5.468844 36.170416 -1.235114 1.722575 0.082803 -0.038686 64994.700000 0 0 1
-13.234255 33.361072 -5.751044 36.348055 -1.193140 1.729686 0.103778 -0.039956 -191340.000000 0 0 1
-13.710255 33.599872 -7.040844 36.966146 -1.183374 1.762435 0.099959 -0.042723 150944.000000 0 0 1
-15.067555 33.179472 -7.133344 37.132104 -1.144519 1.764105 0.121198 -0.053067 -43578.400000 0 0 1
-15.477455 33.233072 -8.627144 37.661868 -1.134943 1.801917 0.165773 -0.053549 95086.800000 0 0 1
-16.829555 32.953572 -8.899944 38.057599 -1.098621 1.806837 0.210538 -0.053388 154880.000000 0 0 1
-17.736055 -33.594207 -8.878644 39.012417 1.085040 1.800393 0.200600 -0.057761 -145602.000000 0 0 1
-19.204255 33.621772 -9.134344 39.782700 -1.051834 1.802469 0.194662 -0.052367 161598.000000 0 0 1
-19.889355 32.980372 -8.091244 39.354283 -1.028125 1.777873 0.179645 -0.045582 161427.000000 0 0 1
-20.524855 -33.743407 -7.194244 40.145290 1.024323 1.750975 0.160187 -0.035973 -20876.100000 0 0 1
-21.116155 33.176072 -5.946944 39.773231 -1.003979 1.720880 0.177341 -0.039355 -653342.000000 0 0 1
-21.024455 -33.584907 -4.791744 39.911583 1.011472 1.691146 0.152751 -0.041918 200664.000000 0 0 1
-22.007855 33.759572 -3.834944 40.481615 -0.993087 1.665672 0.172370 -0.034153 931714.000000 0 0 1
-23.492555 -33.436207 -4.111044 41.070436 0.958322 1.671062 0.215778 -0.051400 649746.000000 0 0 1
-24.075655 33.650072 -5.298944 41.713826 -0.949762 1.698171 0.239436 -0.057300 -460985.000000 0 0 1
-25.369565 -33.471807 -5.442244 42.350852 0.922234 1.699656 0.244217 -0.067264 -239493.000000 0 0 1
-25.838315 -33.362107 -6.897644 42.757762 0.911811 1.732823 0.276734 -0.054978 -30728.500000 0 0 1
-25.212175 -32.291407 -7.605844 41.668184 0.907891 1.754359 0.285538 -0.040260 98050.600000 0 0 1
-25.285875 -32.408207 -9.027844 42.085262 0.908227 1.786990 0.237533 -0.035964 245069.000000 0 0 1
-26.462255 -31.548607 -9.576344 42.276139 0.872854 1.799299 0.197395 -0.022417 -108671.000000 0 0 1
-27.747035 -31.971507 -9.152844 43.311081 0.856020 1.783730 0.213914 -0.020393 389180.000000 0 0 1
-28.849165 -31.411907 -9.854044 43.773101 0.827900 1.797859 0.128658 -0.011557 417075.000000 0 0 1
-29.140485 -29.905007 -9.623044 42.849507 0.798345 1.797306 0.091294 0.000424 -389926.000000 0 0 1
-28.288575 -28.957707 -10.323244 41.777525 0.797086 1.820483 0.110106 0.004652 361529.000000 0 0 1
-28.488595 -28.945707 -11.720644 42.270882 0.793357 1.851753 0.095555 -0.003244 110656.000000 0 0 1
-27.351215 -28.148007 -12.431944 41.169801 0.799754 1.877552 0.136787 -0.009696 113265.000000 0 0 1
-26.111865 -28.817707 -12.350944 40.802396 0.834619 1.878322 0.132538 -0.016702 -206737.000000 0 0 1
-25.152505 -28.045207 -13.078844 39.877792 0.839721 1.904954 0.120318 -0.025949 278353.000000 0 0 1
-23.749455 -28.693307 -13.146344 39.498972 0.879392 1.910097 0.128017 -0.034055 -56520.000000 0 0 1
-23.741355 -29.833707 -13.960844 40.603044 0.898628 1.921797 0.133389 -0.044240 -222331.000000 0 0 1
-24.292255 -30.994907 -13.432544 41.608066 0.906043 1.899520 0.128680 -0.044952 -253526.000000 0 0 1
-24.335355 -32.205907 -14.396844 42.856727 0.923710 1.913388 0.134836 -0.042000 118768.000000 0 0 1
-24.806755 -33.359907 -13.680744 43.765526 0.931397 1.888717 0.134679 -0.046815 145641.000000 0 0 1
-24.729155 33.096172 -14.488844 43.781438 -0.929096 1.908091 0.147698 -0.036747 -170487.000000 0 0 1
-25.292775 31.824472 -13.749244 42.913438 -0.899259 1.896943 0.131259 -0.035347 210676.000000 0 0 1
-24.526455 31.262872 -12.664044 41.704822 -0.905564 1.879327 0.148435 -0.040288 362531.000000 0 0 1
-24.322555 32.213072 -11.637344 42.008290 -0.924070 1.851493 0.201872 -0.040903 -150065.000000 0 0 1
-23.588955 31.616272 -10.393144 40.792706 -0.929795 1.828416 0.201132 -0.039294 208826.000000 0 0 1
-24.279255 30.716472 -9.535644 40.297796 -0.901917 1.809692 0.192475 -0.036942 343923.000000 0 0 1
-23.401655 30.354272 -8.472944 39.253153 -0.914021 1.788363 0.172835 -0.032629 378147.000000 0 0 1
-24.052455 29.346172 -7.502744 38.678283 -0.884211 1.766012 0.171825 -0.033660 -33109.100000 0 0 1
-24.387755 28.186972 -8.228744 38.170410 -0.857536 1.788081 0.170541 -0.012606 27597.800000 0 0 1
-24.886455 27.108972 -7.404644 37.537458 -0.828117 1.769359 0.159242 -0.021113 -70645.700000 0 0 1
-23.892755 26.459072 -6.432144 36.225940 -0.836322 1.749299 0.155294 -0.022097 -86666.500000 0 0 1
-23.408455 27.292672 -5.371144 36.355122 -0.861859 1.719080 0.155102 -0.019807 64361.900000 0 0 1
-22.432855 26.640372 -4.593344 35.128923 -0.870929 1.701929 0.115974 -0.018032 449841.000000 0 0 1
-20.983255 27.154172 -4.816644 34.653226 -0.912897 1.710243 0.097212 -0.028706 167712.000000 0 0 1
-20.304855 26.933472 -6.002444 34.259719 -0.924811 1.746909 0.118381 -0.031580 -588019.000000 0 0 1
-18.962955 27.310272 -5.912144 33.769780 -0.963871 1.746775 0.098152 -0.034526 -338405.000000 0 0 1
-18.168155 27.197372 -7.232444 33.497569 -0.981863 1.788420 0.113493 -0.034245 -440859.000000 0 0 1
-18.607155 27.889272 -8.370644 34.555830 -0.982439 1.815466 0.128128 -0.041296 6168.910000 0 0 1
-18.614855 29.296072 -8.340944 35.697955 -1.004750 1.806630 0.153142 -0.042095 -39527.100000 0 0 1
-18.518655 29.984972 -9.697444 36.552422 -1.017538 1.839314 0.168291 -0.038378 120839.000000 0 0 1
-17.192655 30.175772 -10.152344 36.183348 -1.052916 1.855195 0.152488 -0.042417 39738.700000 0 0 1
-17.181755 30.854972 -11.353344 37.096366 -1.062705 1.881838 0.169313 -0.049528 1192300.000000 0 0 1
-15.702755 31.179272 -11.859444 36.869634 -1.104251 1.898277 0.166468 -0.051497 1408650.000000 0 0 1
-15.491555 31.962972 -13.006744 37.825854 -1.119486 1.921819 0.167671 -0.052740 -384728.000000 0 0 1
-15.920755 31.323472 -14.180844 37.890984 -1.100555 1.954388 0.158524 -0.053458 -16558.000000 0 0 1
-15.146455 31.661472 -15.492544 38.365125 -1.124588 1.986483 0.180002 -0.062072 -708635.000000 0 0 1
-13.782355 31.445372 -15.489844 37.665634 -1.157719 1.994617 0.176155 -0.068006 -895831.000000 0 0 1
-13.217655 31.756672 -16.737344 38.253513 -1.176389 2.023655 0.181919 -0.075324 42704.500000 0 0 1
-11.687955 31.926972 -16.850644 37.945804 -1.219865 2.030934 0.181004 -0.068115 120481.000000 0 0 1
-10.945955 30.718572 -17.055144 36.801121 -1.228493 2.052671 0.177006 -0.077130 727480.000000 0 0 1
-9.739555 30.945372 -17.808744 37.008463 -1.265878 2.072828 0.164631 -0.062525 697372.000000 0 0 1
-9.960555 30.979872 -19.362344 37.866416 -1.259718 2.107531 0.155966 -0.062324 -353648.000000 0 0 1
-10.216055 29.675472 -19.854444 37.137587 -1.239245 2.134853 0.136374 -0.068117 50736.500000 0 0 1
-10.553255 29.710272 -21.224544 38.007272 -1.229492 2.163293 0.132329 -0.068994 1288220.000000 0 0 1
-12.116355 29.476672 -21.420744 38.399590 -1.180801 2.162575 0.121635 -0.049994 1260890.000000 0 0 1
-12.848155 30.672872 -21.179744 39.426916 -1.174123 2.137898 0.115614 -0.045120 -102963.000000 0 0 1
-14.178955 30.391972 -20.815644 39.471581 -1.134276 2.126284 0.102241 -0.046277 112086.000000 0 0 1
-15.262455 31.460272 -21.015344 40.796273 -1.119112 2.111954 0.136553 -0.055119 -150755.000000 0 0 1
-15.649755 31.560772 -22.381144 41.736228 -1.110465 2.136787 0.102221 -0.043069 423480.000000 0 0 1
-16.498355 32.724772 -22.597644 43.055312 -1.103830 2.123337 0.100830 -0.040036 453058.000000 0 0 1
-16.821955 32.988372 -24.057744 44.158645 -1.099232 2.146950 0.084213 -0.025340 80746.900000 0 0 1
-15.713955 33.257172 -24.901044 44.418801 -1.129391 2.165903 0.112996 -0.025733 102744.000000 0 0 1
-16.110155 33.223772 -26.249344 45.303247 -1.119303 2.188806 0.118780 -0.019141 256588.000000 0 0 1
-16.765355 -33.103207 -26.742244 45.738901 1.101996 2.195272 0.093836 -0.011421 577232.000000 0 0 1
-18.141855 -32.910907 -26.424244 45.940128 1.067001 2.183631 0.097063 -0.011193 364410.000000 0 0 1
-18.638655 -31.963507 -27.352044 46.013037 1.042879 2.207367 0.091883 -0.008182 -323296.000000 0 0 1
-20.059955 -31.452007 -27.096744 46.107093 1.003048 2.198999 0.083167 -0.019517 277770.000000 0 0 1
-21.061455 -32.472007 -27.269044 47.345716 0.995403 2.184569 0.077939 -0.018350 -198316.000000 0 0 1
-22.349255 -31.942407 -27.053644 47.452146 0.960290 2.177454 0.072931 -0.018396 28083.200000 0 0 1
-23.396155 -33.061207 -27.202844 48.789529 0.954947 2.162234 0.057877 -0.003111 -249918.000000 0 0 1
-23.389855 33.591072 -26.154644 48.574796 -0.962550 2.139382 0.088722 -0.007699 349376.000000 0 0 1
-24.582455 32.796672 -26.118544 48.601411 -0.927589 2.138151 0.075012 -0.004431 716385.000000 0 0 1
-24.450355 31.558972 -27.060344 48.229149 -0.911642 2.166485 0.083484 -0.002601 -24046.000000 0 0 1
-23.681155 30.444772 -26.650344 46.882002 -0.909715 2.175424 0.087486 -0.032188 -336758.000000 0 0 1
-24.241955 29.763872 -25.569444 46.123280 -0.887291 2.158404 0.065750 -0.022454 -58516.800000 0 0 1
32.898526 9.813372 -26.276699 43.232860 0.289889 2.224077 0.079690 -0.019429 122999.000000 0 0 1
32.545086 8.449372 -26.192289 42.621714 0.254013 2.232585 0.067792 -0.014712 941174.000000 0 0 1
31.116166 8.286172 -26.093009 41.445404 0.260258 2.251803 0.082759 -0.027546 1048100.000000 0 0 1
30.713226 6.904572 -25.496909 40.510094 0.221131 2.251573 0.075563 -0.026235 -113814.000000 0 0 1
30.909126 6.768072 -24.087629 39.766754 0.215565 2.221470 0.066906 -0.015149 -524.233000 0 0 1
30.242126 5.621872 -23.636629 38.792807 0.183797 2.225979 0.070650 -0.019126 -202599.000000 0 0 1
30.404826 5.308272 -22.127029 37.976790 0.172844 2.192777 0.088724 -0.014943 86316.700000 0 0 1
31.644496 4.761772 -21.701029 38.665013 0.149357 2.166701 0.094034 -0.009250 283448.000000 0 0 1
31.747186 4.832472 -20.297629 37.989871 0.151058 2.134465 0.084261 -0.011206 -877227.000000 0 0 1
33.146246 4.583072 -19.791729 38.876609 0.137397 2.104925 0.074755 -0.007114 -1008080.000000 0 0 1
33.622206 3.275872 -19.891529 39.202767 0.097125 2.102963 0.090070 -0.010731 69537.200000 0 0 1
34.553096 3.096072 -18.839529 39.476955 0.089365 2.068295 0.106804 -0.015938 -310542.000000 0 0 1
35.059336 1.654872 -18.840529 39.835426 0.047167 2.063443 0.130301 -0.025071 -271620.000000 0 0 1
34.067126 0.729372 -18.469629 38.758589 0.021407 2.067500 0.121613 -0.018738 -26889.100000 0 0 1
34.433606 -0.636928 -18.633529 39.157212 -0.018495 2.066743 0.116236 -0.014585 80087.000000 0 0 1
33.245166 -1.578628 -18.294629 37.979291 -0.047449 2.073390 0.108349 -0.015341 357556.000000 0 0 1
33.015246 -1.946728 -16.939529 37.158362 -0.058896 2.044150 0.119543 -0.015227 -9046.130000 0 0 1
31.736196 -1.484528 -16.565629 35.830295 -0.046743 2.051424 0.105464 -0.021311 -102321.000000 0 0 1
31.342626 -1.981728 -15.168129 34.876347 -0.063144 2.020736 0.111356 -0.020542 -229509.000000 0 0 1
31.188456 -3.367928 -15.074029 34.803578 -0.107570 2.018745 0.103396 -0.025302 397758.000000 0 0 1
30.504026 -3.575028 -13.829829 33.682942 -0.116666 1.993896 0.094976 -0.020549 3798.290000 0 0 1
30.378226 -5.077928 -13.454429 33.610171 -0.165626 1.982650 0.104124 -0.023169 -236618.000000 0 0 1
29.495926 -5.743028 -14.296129 33.277189 -0.192300 2.014854 0.086308 -0.021394 102344.000000 0 0 1
29.203226 -7.037828 -13.825429 33.068140 -0.236485 2.002137 0.101909 -0.028471 -141815.000000 0 0 1
28.603826 -7.962128 -14.926229 33.232012 -0.271486 2.036612 0.074409 -0.024181 435164.000000 0 0 1
27.260426 -7.641428 -15.283329 32.173007 -0.273298 2.065801 0.071359 -0.018218 449649.000000 0 0 1
26.728326 -8.585428 -16.192729 32.408602 -0.310801 2.093983 0.072303 -0.014954 -860726.000000 0 0 1
25.348826 -8.146128 -16.614229 31.383992 -0.310937 2.128672 0.053780 -0.013461 -1028350.000000 0 0 1
25.323226 -6.902328 -17.315329 31.444054 -0.266105 2.153964 0.039456 -0.001470 -248270.000000 0 0 1
24.049926 -6.646728 -17.855929 30.682440 -0.269641 2.191932 0.088834 -0.004362 -27008.300000 0 0 1
23.800926 -7.139628 -19.234629 31.423388 -0.291432 2.229525 0.041237 -0.000467 47982.800000 0 0 1
24.484526 -6.376728 -20.256129 32.410884 -0.254779 2.245901 0.037545 -0.007967 429774.000000 0 0 1
24.382126 -6.952828 -21.558329 33.280496 -0.277788 2.275459 0.050265 -0.015069 -90843.700000 0 0 1
24.826226 -5.856728 -22.568129 34.058233 -0.231673 2.295126 0.057826 -0.021414 44624.900000 0 0 1
24.968626 -6.169128 -23.948229 35.142682 -0.242224 2.320548 0.082617 -0.032171 66300.000000 0 0 1
25.033426 -4.999628 -24.733229 35.544357 -0.197124 2.340387 0.080811 -0.034405 -162707.000000 0 0 1
25.046726 -5.392928 -26.256549 36.685536 -0.212077 2.368450 0.109049 -0.041086 481610.000000 0 0 1
23.843526 -5.997828 -26.769819 36.347089 -0.246437 2.398685 0.134164 -0.042953 508446.000000 0 0 1
23.813826 -5.971528 -28.189199 37.381659 -0.245693 2.425066 0.142214 -0.050793 720151.000000 0 0 1
22.421726 -6.502928 -28.680819 36.981228 -0.282283 2.458383 0.134734 -0.054370 918388.000000 0 0 1
22.413026 -7.933428 -28.700179 37.269066 -0.340203 2.449764 0.107287 -0.038184 243041.000000 0 0 1
21.063126 -8.350228 -28.673059 36.544848 -0.377432 2.472846 0.129800 -0.047199 131975.000000 0 0 1
21.021626 -9.821228 -28.225549 36.538294 -0.437062 2.453553 0.146883 -0.039868 -422306.000000 0 0 1
19.769426 -10.202728 -27.723719 35.546174 -0.476434 2.465359 0.154885 -0.041040 -32566.500000 0 0 1
19.762526 -11.500228 -27.127679 35.478496 -0.527020 2.441253 0.151711 -0.045450 -103044.000000 0 0 1
19.908126 -12.759528 -28.045689 36.683780 -0.569966 2.441101 0.129113 -0.024583 571150.000000 0 0 1
18.711326 -13.030928 -28.794229 36.729095 -0.608319 2.471819 0.120441 -0.023369 605279.000000 0 0 1
18.910526 -14.164028 -29.595619 37.869887 -0.642862 2.467876 0.096266 -0.021679 -545298.000000 0 0 1
17.802826 -14.662328 -30.502679 38.240527 -0.688964 2.494190 0.077328 -0.028473 -473545.000000 0 0 1
16.697926 -15.269228 -29.871039 37.473311 -0.740735 2.493321 0.081278 -0.028108 272817.000000 0 0 1
15.716026 -15.637328 -30.816519 37.962842 -0.782888 2.517947 0.074914 -0.035338 -708487.000000 0 0 1
14.451226 -16.211628 -30.224699 37.218104 -0.842747 2.518533 0.087749 -0.040010 -679746.000000 0 0 1
14.636726 -17.458828 -29.574149 37.331953 -0.873101 2.485192 0.072952 -0.036836 668560.000000 0 0 1
13.455926 -17.832228 -28.836579 36.477371 -0.924368 2.482476 0.075410 -0.029415 626156.000000 0 0 1
13.599826 -19.175128 -28.144159 36.670622 -0.953894 2.445705 0.072731 -0.024147 362369.000000 0 0 1
14.516426 -19.064028 -27.035049 36.125582 -0.920003 2.416387 0.074462 -0.018111 393580.000000 0 0 1
14.541626 -20.272028 -26.359129 36.293494 -0.948537 2.383687 0.066002 -0.012090 56869.100000 0 0 1
15.511126 -20.223128 -25.161929 35.814698 -0.916504 2.349783 0.043573 -0.003409 -121337.000000 0 0 1
16.861426 -20.542728 -25.412919 36.771291 -0.883502 2.333817 0.064576 -0.007424 -402906.000000 0 0 1
17.608026 -20.320328 -24.276729 36.225929 -0.856788 2.305204 0.071370 -0.000808 -366330.000000 0 0 1
19.095926 -20.698128 -24.493929 37.323176 -0.825639 2.286656 0.049107 0.008100 96145.000000 0 0 1
19.495926 -22.095228 -24.587529 38.377556 -0.847814 2.266173 0.089385 -0.007566 134061.000000 0 0 1
19.242926 -22.893828 -23.490129 38.028986 -0.871826 2.236598 0.085373 -0.018648 -535923.000000 0 0 1
19.970726 -24.272628 -23.428329 39.203023 -0.882326 2.211320 0.078618 -0.024049 1155040.000000 0 0 1
21.389626 -24.157928 -23.153729 39.714189 -0.846102 2.193224 0.085994 -0.020553 1407960.000000 0 0 1
22.030926 -25.380928 -22.733429 40.575387 -0.855938 2.165516 0.100796 -0.037885 184898.000000 0 0 1
21.984126 -25.774858 -21.210729 39.969240 -0.864604 2.130195 0.121474 -0.033807 449875.000000 0 0 1
20.633526 -26.046828 -20.804929 39.204907 -0.900848 2.130189 0.095522 -0.028402 808334.000000 0 0 1
20.710026 -26.218028 -19.396629 38.633139 -0.902235 2.096790 0.104084 -0.036424 114726.000000 0 0 1
19.353026 -26.716988 -18.881829 38.011321 -0.943900 2.090637 0.092053 -0.027870 -603825.000000 0 0 1
19.203126 -28.074178 -19.164229 39.040840 -0.970880 2.083892 0.091022 -0.022568 -88529.000000 0 0 1
17.990526 -28.719308 -18.883229 38.794768 -1.011172 2.079158 0.080901 -0.016903 708171.000000 0 0 1
16.634926 -28.241878 -19.516229 38.147184 -1.038492 2.107846 0.074976 -0.020188 696615.000000 0 0 1
16.005526 -27.083398 -18.928129 36.714594 -1.037042 2.112443 0.079124 -0.021432 -30438.000000 0 0 1
14.767026 -26.777398 -19.526329 36.281836 -1.066823 2.139078 0.060156 -0.008519 -121949.000000 0 0 1
13.848526 -25.877568 -18.706529 34.804661 -1.079421 2.138233 0.043719 -0.016512 -512717.000000 0 0 1
13.132126 -26.578978 -17.728629 34.542714 -1.111896 2.109750 0.034352 -0.011076 33000.600000 0 0 1
12.206526 -25.755448 -17.014029 33.193668 -1.128214 2.108970 0.047027 -0.022636 -73734.500000 0 0 1
10.752326 -25.795288 -17.443329 32.943575 -1.175864 2.128797 0.057466 -0.021574 -1108650.000000 0 0 1
10.019026 -26.889018 -16.987629 33.346360 -1.214126 2.105318 0.055461 -0.000933 733951.000000 0 0 1
8.590226 -26.721898 -17.085229 32.859654 -1.259763 2.117583 0.050936 0.005072 1220310.000000 0 0 1
8.016026 -27.470918 -18.287129 33.960670 -1.286879 2.139428 0.073221 -0.002365 -259487.000000 0 0 1
8.301026 -26.869958 -19.493829 34.218578 -1.271164 2.176920 0.084978 -0.015068 -48688.000000 0 0 1
7.520226 -27.493198 -20.498029 35.108389 -1.303797 2.194259 0.090937 -0.011026 87827.000000 0 0 1
7.320926 -26.608228 -21.762029 35.145123 -1.302302 2.238526 0.102150 -0.016799 -61819.700000 0 0 1
6.161026 -25.801938 -21.821229 34.349153 -1.336404 2.259164 0.110418 -0.021668 40053.400000 0 0 1
6.125526 -25.129598 -23.027029 34.630375 -1.331702 2.298206 0.100163 -0.026042 -12021.000000 0 0 1
4.752226 -24.492928 -23.313329 34.146720 -1.379153 2.322302 0.073648 -0.022494 291515.000000 0 0 1
3.665126 -25.409158 -23.445529 34.767101 -1.427540 2.310893 0.066574 -0.020484 -783905.000000 0 0 1
2.550826 -24.736328 -23.889029 34.483016 -1.468039 2.336129 0.061042 -0.023772 -494582.000000 0 0 1
1.533926 -25.771528 -24.418629 35.535814 -1.511346 2.328363 0.030034 -0.019940 204460.000000 0 0 1
2.202526 -26.422438 -25.469879 36.765624 -1.487630 2.336110 0.031805 -0.017503 416561.000000 0 0 1
1.259326 -27.269788 -26.092169 37.762793 -1.524649 2.333597 0.040780 -0.025403 -951.213000 0 0 1
1.823526 -28.297478 -27.148929 39.257316 -1.506444 2.334448 0.043629 -0.027246 -912230.000000 0 0 1
2.394926 -27.613978 -28.237489 39.567958 -1.484284 2.365485 0.045220 -0.021576 -75943.300000 0 0 1
2.844926 -28.434968 -29.287189 40.919195 -1.471078 2.368468 0.076270 -0.034419 -503387.000000 0 0 1
4.197426 -29.088498 -29.045639 41.320797 -1.427487 2.350305 0.088211 -0.031309 -1016850.000000 0 0 1
4.233526 -30.031038 -27.973639 41.259066 -1.430748 2.315834 0.072190 -0.045156 -281750.000000 0 0 1
5.393426 -30.815808 -28.140179 42.078175 -1.397530 2.303335 0.105339 -0.053263 -45442.700000 0 0 1
5.637426 -31.898078 -27.023039 42.184270 -1.395870 2.266069 0.135926 -0.073926 -798967.000000 0 0 1
4.747826 -32.937028 -27.181589 42.967761 -1.427634 2.255708 0.108062 -0.071601 -339392.000000 0 0 1
5.018626 33.580007 -26.405929 43.012516 1.422442 2.231804 0.118569 -0.070409 -728526.000000 0 0 1
3.822126 32.666471 -26.256389 42.084497 1.454321 2.244516 0.153990 -0.066340 -419557.000000 0 0 1
3.168926 32.279680 -27.460439 42.498183 1.472939 2.273333 0.122611 -0.067301 411224.000000 0 0 1
1.782826 32.064510 -27.260999 42.124498 1.515252 2.274640 0.046645 -0.052540 -145769.000000 0 0 1
0.985526 32.337892 -28.531469 43.136472 1.540330 2.293511 0.066018 -0.041259 -379107.000000 0 0 1
0.918626 31.256910 -29.484139 42.978515 1.541415 2.326802 0.103897 -0.046162 -117090.000000 0 0 1
0.054526 31.684750 -30.483449 43.967795 1.569075 2.336873 0.094970 -0.038056 -100453.000000 0 0 1
-0.166374 30.620750 -31.512189 43.939459 -1.565363 2.370533 0.089788 -0.038352 -173897.000000 0 0 1
1.014026 30.511940 -32.265159 44.418996 1.537575 2.383839 0.116668 -0.037442 -8604.300000 0 0 1
1.046526 29.306150 -33.041759 44.178088 1.535101 2.415722 0.135586 -0.036872 853602.000000 0 0 1
2.352126 29.201170 33.420596 44.442964 1.490421 0.719723 0.145522 -0.033753 1003780.000000 0 0 1
2.587226 30.203230 32.430779 44.392389 1.485344 0.751672 0.144539 -0.036319 -276714.000000 0 0 1
3.597626 29.917550 31.503884 43.594694 1.451120 0.763162 0.118379 -0.028911 -290761.000000 0 0 1
3.207826 28.952410 30.375446 42.085626 1.460450 0.764464 0.120666 -0.025593 -208706.000000 0 0 1
2.892026 27.624010 30.637756 41.353619 1.466484 0.736428 0.125409 -0.031910 -153842.000000 0 0 1
4.039426 26.832300 30.782496 41.034757 1.421375 0.722497 0.112701 -0.024974 -242808.000000 0 0 1
3.647226 25.415370 31.307448 40.489499 1.428265 0.686887 0.096856 -0.024983 19128.300000 0 0 1
2.900126 24.735350 30.334526 39.248334 1.454083 0.687418 0.111177 -0.016342 -40018.900000 0 0 1
2.972426 23.359050 30.542166 38.565586 1.444227 0.656794 0.092133 -0.009123 -171599.000000 0 0 1
1.980826 22.588150 29.679206 37.349745 1.483327 0.652399 0.090092 -0.003378 -1505590.000000 0 0 1
0.663926 22.681250 30.032486 37.640804 1.541533 0.647042 0.083791 -0.015129 -1697930.000000 0 0 1
-0.047374 22.025550 28.999266 36.415443 -1.568645 0.649568 0.099763 -0.012060 357682.000000 0 0 1
-1.401074 21.438450 29.538076 36.524896 -1.505536 0.628839 0.095201 -0.014730 9244.040000 0 0 1
-2.299974 22.469550 29.848426 37.431258 -1.468792 0.647789 0.110481 -0.019210 75536.700000 0 0 1
-3.587474 21.922550 30.104146 37.412936 -1.408591 0.635718 0.086406 -0.021290 603990.000000 0 0 1
-4.715374 22.987340 30.262816 38.294785 -1.368474 0.659564 0.065810 -0.028869 268175.000000 0 0 1
-4.761374 23.453440 31.585743 39.628193 -1.370504 0.648398 0.078389 -0.028313 146277.000000 0 0 1
-5.798974 24.394270 31.807531 40.502191 -1.337410 0.667570 0.058946 -0.031151 98192.700000 0 0 1
-5.837774 25.009370 33.254326 42.016644 -1.341479 0.657609 0.091099 -0.027728 77864.000000 0 0 1
-7.035274 25.698490 33.542446 42.836937 -1.303581 0.671280 0.066965 -0.019050 -91090.100000 0 0 1
-7.011274 26.083190 -32.483519 42.245352 -1.308199 2.447955 0.078558 -0.018474 -280827.000000 0 0 1
-8.331874 26.607350 -31.927259 42.387747 -1.267327 2.423739 0.099336 -0.009111 -465524.000000 0 0 1
-8.772274 27.744440 -32.647339 43.732774 -1.264561 2.413611 0.088614 -0.015570 982115.000000 0 0 1
-9.985174 28.424330 -32.173579 44.077040 -1.232973 2.389030 0.082204 -0.016336 1335270.000000 0 0 1
-10.018974 29.024800 -30.724669 43.437589 -1.238416 2.356509 0.080802 -0.006205 119279.000000 0 0 1
-9.017074 30.030830 -30.505999 43.746707 -1.279100 2.342465 0.096070 -0.008606 518290.000000 0 0 1
-8.871274 30.247970 -29.117419 42.912274 -1.285511 2.316561 0.104674 -0.007093 375525.000000 0 0 1
-8.095574 31.560330 -28.697599 43.418256 -1.319699 2.292890 0.097358 -0.011439 -1169530.000000 0 0 1
-6.762274 31.633360 -28.920959 43.391470 -1.360196 2.300317 0.066387 -0.019414 -1802450.000000 0 0 1
-6.213474 32.790591 -28.348379 43.788819 -1.383527 2.274949 0.083775 -0.016115 -19785.800000 0 0 1
-4.659274 32.688268 -28.360669 43.526535 -1.429213 2.280451 0.101146 -0.023942 297686.000000 0 0 1
-3.952474 -33.746878 -28.027879 44.045838 1.454206 2.260533 0.107973 -0.024121 193574.000000 0 0 1
-4.143674 -32.604578 -28.844749 43.729259 1.444385 2.291111 0.113846 -0.034758 -626359.000000 0 0 1
-3.308474 -32.717388 -30.163219 44.622789 1.470016 2.313063 0.095987 -0.035244 -430863.000000 0 0 1
-3.700874 -33.593908 -31.246709 46.028296 1.461074 2.317004 0.086800 -0.018032 38419.500000 0 0 1
-4.773874 -33.069678 -32.008379 46.270183 1.427429 2.334735 0.110713 -0.027262 56288.600000 0 0 1
-4.358674 -32.029608 -33.057389 46.235104 1.435544 2.367398 0.081183 -0.031890 -487799.000000 0 0 1
-3.916574 -30.825398 -32.584959 45.025818 1.444417 2.379938 0.092607 -0.035714 -66850.900000 0 0 1
-3.414374 -30.101488 -33.662219 45.286892 1.457850 2.408802 0.086008 -0.053461 -180234.000000 0 0 1
35.105516 18.063572 13.385256 41.687587 0.475220 1.243921 0.105777 -0.064525 -122363.000000 0 0 1
36.468266 17.722472 13.311756 42.675792 0.452360 1.253575 0.101447 -0.067406 -216689.000000 0 0 1
36.645646 16.397972 13.805756 42.454631 0.420751 1.239585 0.116997 -0.046638 558465.000000 0 0 1
-37.773535 15.924772 13.832956 43.264177 -0.398975 1.245349 0.072874 -0.057996 754849.000000 0 0 1
-37.163265 15.602472 12.586356 42.225132 -0.397488 1.268119 0.077283 -0.042781 -103112.000000 0 0 1
-37.511695 14.369272 12.042756 41.936037 -0.365819 1.279526 0.119996 -0.059177 -578412.000000 0 0 1
-36.292615 13.444872 11.838456 40.473047 -0.354782 1.273954 0.142692 -0.040006 -17903.500000 0 0 1
-35.774788 12.980772 13.083156 40.243072 -0.348074 1.239675 0.109607 -0.030118 -369021.000000 0 0 1
-36.567465 12.021372 13.778956 40.884624 -0.317615 1.227046 0.111153 -0.024688 -378591.000000 0 0 1
-35.949303 11.275072 14.990256 40.548581 -0.303921 1.192125 0.144006 -0.038231 -136342.000000 0 0 1
-35.960665 12.120172 16.104956 41.224236 -0.325083 1.169440 0.139268 -0.031835 -164140.000000 0 0 1
-35.204385 11.645072 17.158556 40.857955 -0.319455 1.137399 0.128175 -0.026964 -371233.000000 0 0 1
-35.221358 12.567972 18.425956 41.689493 -0.342745 1.112991 0.118134 -0.034734 281833.000000 0 0 1
-36.565255 12.767972 18.844656 43.071569 -0.335947 1.117958 0.135540 -0.044597 335431.000000 0 0 1
-36.550895 13.515072 20.044256 43.822338 -0.354169 1.095729 0.152337 -0.045052 -660007.000000 0 0 1
-37.870175 13.590572 20.771556 45.280364 -0.344557 1.094229 0.175873 -0.062589 -706728.000000 0 0 1
37.793126 12.345372 21.436156 45.168986 0.315729 1.076313 0.150473 -0.047827 27601.700000 0 0 1
36.559056 12.370472 22.120556 44.484965 0.326276 1.050360 0.197473 -0.050409 80140.000000 0 0 1
36.343136 11.081572 22.986246 44.407119 0.295960 1.026723 0.172226 -0.045107 -657051.000000 0 0 1
37.413786 10.822772 23.834086 45.661662 0.281586 1.021636 0.148863 -0.035392 -645755.000000 0 0 1
37.419586 11.420172 25.029906 46.445042 0.296214 1.001648 0.156090 -0.034780 -816661.000000 0 0 1
-37.164555 11.371772 25.820436 46.660650 -0.296938 0.984396 0.137346 -0.036843 583632.000000 0 0 1
-36.203165 12.296672 25.286826 45.839948 -0.327431 0.986476 0.127179 -0.043458 -43123.800000 0 0 1
-35.493334 11.931672 24.148796 44.556772 -0.324298 0.998007 0.117226 -0.042986 -1306830.000000 0 0 1
-34.492592 12.987172 23.716916 43.828046 -0.360103 0.999009 0.112073 -0.047764 -33725.600000 0 0 1
-33.423275 13.311672 24.590686 43.577721 -0.379019 0.971217 0.091340 -0.045589 -114382.000000 0 0 1
-33.770215 13.963372 25.799236 44.732580 -0.392074 0.956059 0.086095 -0.041564 -654660.000000 0 0 1
-32.622445 14.559772 26.683276 44.589327 -0.419782 0.929265 0.075141 -0.033230 -13668.400000 0 0 1
-32.035495 15.684772 26.157366 44.232260 -0.455298 0.938047 0.069038 -0.032483 -484064.000000 0 0 1
-31.685375 16.584772 27.169046 44.912968 -0.482208 0.921123 0.077862 -0.028857 170763.000000 0 0 1
-30.948405 17.867572 26.689856 44.602716 -0.523587 0.929305 0.072117 -0.020175 -262831.000000 0 0 1
-31.806685 18.652772 25.934566 45.079849 -0.530391 0.957822 0.074309 -0.038025 -241894.000000 0 0 1
-31.315745 19.945672 25.612166 45.105307 -0.567126 0.966929 0.070410 -0.040678 -433816.000000 0 0 1
-32.411345 20.884272 25.074996 45.993516 -0.572394 0.994186 0.074911 -0.028590 -389716.000000 0 0 1
-33.141995 21.457272 26.113026 47.335996 -0.574570 0.986452 0.083558 -0.035425 37923.400000 0 0 1
-34.237924 22.250672 25.682246 48.238010 -0.576294 1.009355 0.099261 -0.031509 -125579.000000 0 0 1
-34.066964 23.737572 25.415136 48.682230 -0.608569 1.021530 0.104261 -0.028481 -396522.000000 0 0 1
-35.144713 24.237272 24.649736 49.297116 -0.603740 1.047170 0.109622 -0.028356 92904.900000 0 0 1
-35.106030 25.633272 24.462076 49.878764 -0.630687 1.058212 0.117261 -0.025540 -31896.100000 0 0 1
-36.268055 26.077272 23.553106 50.498958 -0.623374 1.085571 0.118619 -0.020838 125529.000000 0 0 1
-36.065035 25.863672 22.143856 49.598051 -0.622137 1.107984 0.135833 -0.030799 -235356.000000 0 0 1
-37.268455 26.142172 21.484156 50.338056 -0.611702 1.129848 0.143716 -0.031013 -191187.000000 0 0 1
-37.198345 26.087272 19.961456 49.625823 -0.611599 1.156835 0.185857 -0.045926 12668.000000 0 0 1
-37.031115 24.828172 19.382656 48.615110 -0.590630 1.160702 0.170003 -0.048101 173858.000000 0 0 1
-36.524085 24.849972 18.064056 47.726722 -0.597431 1.182633 0.167630 -0.054579 -14208.200000 0 0 1
-36.656355 23.460472 17.347556 46.851038 -0.569321 1.191496 0.158398 -0.048962 7313.760000 0 0 1
37.949756 23.220672 16.916156 47.597688 0.549109 1.207456 0.152778 -0.058142 -386171.000000 0 0 1
-37.916125 22.534972 15.680556 46.811722 -0.536245 1.229222 0.128338 -0.055805 554279.000000 0 0 1
36.615266 22.396772 14.954956 45.452654 0.548962 1.235528 0.130468 -0.048731 1083400.000000 0 0 1
35.643836 21.525972 15.551856 44.448967 0.543296 1.213352 0.136414 -0.058077 339848.000000 0 0 1
34.403426 21.652872 14.880956 43.288398 0.561744 1.219875 0.131476 -0.053242 -1328580.000000 0 0 1
33.355286 20.693172 15.337056 42.142706 0.555275 1.198311 0.125750 -0.058308 -458354.000000 0 0 1
32.594986 21.127872 16.480056 42.194932 0.575105 1.169546 0.120892 -0.054853 -37649.000000 0 0 1
31.494066 21.890472 16.031256 41.570062 0.607407 1.174890 0.117543 -0.047857 -584987.000000 0 0 1
30.705626 22.493572 17.241156 41.785807 0.632243 1.145481 0.101465 -0.043693 35481.800000 0 0 1
31.306026 23.621672 17.869656 43.097276 0.646401 1.143254 0.044727 -0.029783 69250.500000 0 0 1
30.575426 24.177572 18.947956 43.340935 0.669076 1.118331 0.037147 -0.008436 404090.000000 0 0 1
31.634086 24.795472 19.896256 44.848543 0.664798 1.111149 0.032683 -0.017233 351571.000000 0 0 1
32.505726 25.818072 19.509656 45.867436 0.671233 1.131449 0.056816 -0.026545 -88827.700000 0 0 1
33.198356 26.246272 20.637656 47.084078 0.668976 1.117073 0.069083 -0.023782 -1017800.000000 0 0 1
34.495466 26.972172 20.297856 48.264253 0.663610 1.136737 0.090610 -0.028303 -719536.000000 0 0 1
35.380306 27.254672 21.340056 49.497284 0.656389 1.125045 0.091581 -0.016333 74701.300000 0 0 1
34.895206 28.112272 22.426626 50.109168 0.678158 1.106767 0.045860 0.002619 -71760.700000 0 0 1
35.936626 28.311672 23.589996 51.473097 0.667271 1.094717 0.042409 -0.008391 1279660.000000 0 0 1
37.091406 29.117772 23.237726 52.570038 0.665544 1.112932 0.082603 -0.010944 325961.000000 0 0 1
37.749076 29.459172 24.431456 53.756223 0.662672 1.099001 0.089847 -0.007416 -124582.000000 0 0 1
-36.941955 30.367672 24.263006 53.624593 -0.688035 1.101274 0.091979 -0.017997 211544.000000 0 0 1
-35.756127 29.756772 23.776266 52.242482 -0.694078 1.098296 0.109613 -0.020107 -32692.400000 0 0 1
-34.665581 30.501572 24.262906 52.160684 -0.721588 1.086984 0.117461 -0.014572 -664844.000000 0 0 1
-33.277865 29.914872 24.129806 50.838601 -0.732230 1.076246 0.143100 -0.028195 -1075550.000000 0 0 1
-32.821825 29.799472 22.792346 49.847485 -0.737172 1.095905 0.139748 -0.020724 -33876.700000 0 0 1
-33.225565 28.749772 21.902056 49.093662 -0.713304 1.108362 0.142036 -0.020897 -365945.000000 0 0 1
-32.736175 27.369172 22.303556 48.147454 -0.696341 1.089155 0.130556 -0.017902 -198213.000000 0 0 1
-31.324225 27.314672 22.212856 47.124403 -0.717127 1.079957 0.116091 -0.020371 89455.000000 0 0 1
-30.718565 26.254472 22.894966 46.444666 -0.707203 1.055318 0.108836 -0.026182 -76807.500000 0 0 1
-30.431745 26.367572 24.415766 47.090016 -0.713967 1.025711 0.113922 -0.025694 572784.000000 0 0 1
-31.610865 26.326972 25.267616 48.278449 -0.694450 1.019992 0.100174 -0.023307 800952.000000 0 0 1
-31.355715 26.829472 26.559146 49.075347 -0.707764 0.998943 0.105654 -0.031556 -605065.000000 0 0 1
-32.553625 27.281072 27.384356 50.536109 -0.697507 0.998127 0.102931 -0.031833 -275442.000000 0 0 1
-33.332535 26.204172 27.877386 50.743129 -0.666235 0.989171 0.088364 -0.028038 323975.000000 0 0 1
-34.287797 26.511072 28.893606 52.089638 -0.658180 0.982806 0.086612 -0.018519 718489.000000 0 0 1
-35.177304 25.293872 29.249126 52.275559 -0.623390 0.976992 0.083037 -0.016687 54632.400000 0 0 1
-34.350043 24.513472 30.042276 51.801294 -0.619820 0.952126 0.086501 -0.030670 -134392.000000 0 0 1
-34.984096 23.380172 30.518626 51.979860 -0.589138 0.943295 0.069708 -0.036100 -378556.000000 0 0 1
-34.068873 22.559072 31.417604 51.542853 -0.584877 0.915312 0.091575 -0.052772 -472797.000000 0 0 1
-33.038985 21.859372 30.712486 50.126475 -0.584503 0.911324 0.086021 -0.047397 72836.800000 0 0 1
-32.399865 20.913972 31.513140 49.801842 -0.573202 0.885670 0.096592 -0.048456 -57014.900000 0 0 1
-31.439045 21.311572 32.640769 50.080100 -0.595718 0.860879 0.103457 -0.052852 -969577.000000 0 0 1
-32.118175 21.951172 -33.680119 51.456599 -0.599532 2.284363 0.135450 -0.059720 302330.000000 0 0 1
-31.451205 21.777872 -32.418389 50.143853 -0.605630 2.273794 0.114479 -0.046112 167388.000000 0 0 1
-30.107835 22.436872 -32.055369 49.370453 -0.640433 2.277437 0.132974 -0.038718 -77816.500000 0 0 1
-30.311145 23.748872 -31.536799 49.772926 -0.664601 2.257011 0.129241 -0.033314 557895.000000 0 0 1
-29.241965 23.946072 -30.608789 48.635428 -0.686156 2.251515 0.145025 -0.020861 84387.100000 0 0 1
-29.358405 25.143172 -29.619309 48.697007 -0.708210 2.224634 0.130335 -0.008811 -105572.000000 0 0 1
-29.416655 26.487772 -30.151119 49.759739 -0.733055 2.221736 0.119619 -0.013151 369625.000000 0 0 1
-30.637035 26.681572 -30.855289 51.015518 -0.716499 2.220338 0.113078 -0.010326 -97070.400000 0 0 1
-30.585785 27.941472 -31.759329 52.200298 -0.740248 2.224855 0.120697 -0.005011 109027.000000 0 0 1
-30.677155 29.098672 -30.962369 52.406954 -0.758998 2.202854 0.097201 -0.013711 331285.000000 0 0 1
-29.571865 29.946672 -31.260459 52.426278 -0.791695 2.209649 0.101236 -0.025185 248674.000000 0 0 1
-29.759815 31.374972 -30.767519 53.072363 -0.811812 2.189191 0.088077 -0.015442 -635.705000 0 0 1
-29.509075 31.530672 -29.380659 52.232097 -0.818505 2.168205 0.089568 -0.017582 68746.500000 0 0 1
-29.891335 32.791972 -28.848169 52.924684 -0.831640 2.147280 0.063026 -0.016330 -604240.000000 0 0 1
-29.558695 32.987072 -27.330279 52.046206 -0.840157 2.123647 0.025998 -0.015578 -144343.000000 0 0 1
-28.189545 33.270572 -27.118949 51.351911 -0.867883 2.127158 0.063335 0.001093 23282.700000 0 0 1
-27.731795 -33.052207 -27.424909 51.123639 0.872705 2.137013 0.061219 0.010979 -477207.000000 0 0 1
-27.958835 -31.909107 -26.436049 49.987521 0.851286 2.128045 0.053077 0.009308 637913.000000 0 0 1
-29.345345 -31.569507 -26.296759 50.490619 0.821895 2.118613 0.041341 -0.006335 505383.000000 0 0 1
-29.553585 -30.652407 -25.254969 49.505534 0.803647 2.106149 0.043580 -0.004304 1649510.000000 0 0 1
-31.102605 -30.357907 -24.992429 50.135776 0.773282 2.092658 0.023121 -0.003756 1544970.000000 0 0 1
-31.687455 -29.527007 -25.931159 50.481323 0.750120 2.110263 0.019510 -0.000951 -744037.000000 0 0 1
-33.075245 -29.526507 -25.887799 51.341646 0.728771 2.099282 0.015469 -0.000900 -841295.000000 0 0 1
-33.708035 -28.731607 -27.037519 51.891852 0.705866 2.118861 0.036805 -0.008866 -627003.000000 0 0 1
-35.100899 -28.787107 -27.051059 52.844398 0.686892 2.108192 0.054184 -0.011396 -730251.000000 0 0 1
-35.617255 -28.073507 -28.126289 53.364771 0.667504 2.125930 0.060889 -0.019313 158618.000000 0 0 1
-37.136945 -28.164007 -28.407229 54.583282 0.648844 2.118160 0.049222 -0.022283 625594.000000 0 0 1
-37.945225 -27.399907 -27.512909 54.291391 0.625399 2.102223 0.052804 -0.015273 -465797.000000 0 0 1
36.612126 -27.608707 -27.721789 53.583449 -0.646111 2.114556 0.065011 -0.023753 -529160.000000 0 0 1
35.645826 -26.887907 -26.787909 52.068959 -0.646252 2.111186 0.070210 -0.019754 -200949.000000 0 0 1
35.447726 -27.459607 -25.565749 51.615683 -0.659092 2.088988 0.070049 -0.012599 184599.000000 0 0 1
34.437116 -26.877207 -24.765529 50.215840 -0.662720 2.086540 0.081671 0.000830 136120.000000 0 0 1
34.075226 -27.530107 -23.442829 49.684947 -0.679552 2.062161 0.075368 0.009099 134414.000000 0 0 1
33.450746 -28.814807 -23.587829 50.056280 -0.711081 2.061477 0.096796 0.001254 15239.700000 0 0 1
33.010586 -29.428307 -22.402029 49.573934 -0.728088 2.039681 0.110277 -0.001002 -405117.000000 0 0 1
33.876466 -29.508907 -21.130529 49.647656 -0.716602 2.010432 0.093514 0.002374 -861823.000000 0 0 1
35.042776 -30.276907 -21.288129 50.969321 -0.712565 2.001671 0.066435 -0.003519 -5735.950000 0 0 1
36.055016 -30.145307 -20.331129 51.206039 -0.696364 1.979092 0.040574 0.005563 402818.000000 0 0 1
36.935906 -28.879907 -20.402329 51.132819 -0.663602 1.981229 0.024892 0.008582 -522336.000000 0 0 1
36.173506 -27.847707 -19.878029 49.791097 -0.656076 1.981472 0.023716 0.023807 57978.900000 0 0 1
36.703626 -26.621007 -20.303729 49.679730 -0.627502 1.991817 0.006245 0.019101 253334.000000 0 0 1
35.628916 -25.527207 -20.071129 48.206930 -0.621697 2.000227 0.027843 0.023163 733619.000000 0 0 1
34.544306 -25.586507 -20.985429 47.836875 -0.637514 2.024934 0.047633 0.017497 69348.700000 0 0 1
33.550656 -24.616407 -20.848529 46.543261 -0.632993 2.035255 0.065308 0.004291 -109403.000000 0 0 1
32.337946 -24.758207 -21.788829 46.189442 -0.653416 2.062045 0.090100 -0.005290 103369.000000 0 0 1
31.487846 -25.837607 -21.434229 46.027085 -0.687151 2.055207 0.111795 -0.010377 -597396.000000 0 0 1
30.271926 -25.790207 -22.096229 45.494698 -0.705626 2.077946 0.124705 -0.015716 -506786.000000 0 0 1
29.776626 -27.247707 -22.416629 46.169148 -0.741079 2.077769 0.122201 -0.017437 -75648.700000 0 0 1
29.191626 -27.922707 -21.319229 45.676450 -0.763185 2.056402 0.128085 -0.020652 81964.100000 0 0 1
28.902926 -29.294307 -21.543029 46.450378 -0.792123 2.053060 0.120037 -0.017797 156692.000000 0 0 1
28.291726 -30.009307 -20.272929 45.956195 -0.814850 2.027660 0.135340 -0.011464 292057.000000 0 0 1
29.240926 -30.304707 -19.239329 46.298583 -0.803261 1.999343 0.130831 -0.010116 478895.000000 0 0 1
29.927526 -31.531107 -19.555929 47.668667 -0.811484 1.993521 0.136885 -0.001688 314671.000000 0 0 1
30.893426 -32.012207 -18.439229 48.157972 -0.803181 1.963720 0.115100 -0.000134 419932.000000 0 0 1
30.254526 -32.629107 -17.284029 47.736072 -0.823142 1.941289 0.127687 -0.008861 58222.200000 0 0 1
29.557026 -31.695307 -16.516929 46.379081 -0.820293 1.934918 0.112892 -0.017777 -345804.000000 0 0 1
28.707426 -32.292307 -15.388029 45.866118 -0.844099 1.912931 0.102140 -0.015664 -104304.000000 0 0 1
27.472726 -32.785507 -15.865429 45.621836 -0.873338 1.925977 0.124747 -0.022256 18586.000000 0 0 1
26.774226 -33.506007 -14.849129 45.387314 -0.896612 1.904098 0.097288 -0.019732 441470.000000 0 0 1
25.226626 -33.531407 -14.982129 44.555606 -0.925807 1.913736 0.104551 -0.019393 488475.000000 0 0 1
24.616826 -32.317907 -14.539729 43.149031 -0.919844 1.914488 0.104131 -0.016322 -410296.000000 0 0 1
23.252426 -32.507107 -14.317929 42.454568 -0.949874 1.914794 0.103609 -0.021127 -482400.000000 0 0 1
0.133445 -6.893128 -29.010689 29.818671 -1.551440 2.908270 0.161070 -0.038402 191819.000000 0 0 1
0.303045 -8.213428 -28.619539 29.776337 -1.533917 2.861937 0.148184 -0.036078 -183260.000000 0 0 1
0.009345 -9.102128 -29.705699 31.068914 -1.569770 2.844265 0.168287 -0.046093 94145.300000 0 0 1
0.268045 -10.647228 -29.446609 31.313545 -1.545627 2.794540 0.184129 -0.039662 -612096.000000 0 0 1
1.624345 -10.829028 -29.231619 31.215283 -1.421907 2.783172 0.120843 -0.041279 -950351.000000 0 0 1
1.824445 -12.189228 -28.875109 31.395506 -1.422222 2.738166 0.149131 -0.040346 -471420.000000 0 0 1
3.268645 -12.619828 -28.670069 31.494713 -1.317357 2.714838 0.122025 -0.027007 -1025610.000000 0 0 1
4.065845 -12.592528 -29.857529 32.658459 -1.258485 2.724414 0.139497 -0.033961 601758.000000 0 0 1
5.460545 -12.731928 -29.588399 32.670980 -1.165639 2.703701 0.130636 -0.031944 838891.000000 0 0 1
6.004945 -14.125328 -29.149779 32.943799 -1.168825 2.656933 0.137294 -0.032173 -737985.000000 0 0 1
5.489545 -14.564528 -27.903819 31.951271 -1.210350 2.632781 0.127124 -0.026618 -85878.300000 0 0 1
6.267545 -15.506228 -27.189129 31.921372 -1.186679 2.590119 0.126386 -0.015213 -18561.300000 0 0 1
5.938645 -16.952128 -27.641659 32.965186 -1.233838 2.565340 0.100550 -0.023459 -2525.590000 0 0 1
6.338745 -17.323728 -28.962149 34.337987 -1.220028 2.574457 0.116215 -0.042665 175102.000000 0 0 1
5.993945 -18.686128 -29.171149 35.157570 -1.260395 2.549413 0.102825 -0.044102 -242207.000000 0 0 1
6.494245 -19.223328 -30.519929 36.649388 -1.245003 2.554860 0.122809 -0.062406 279645.000000 0 0 1
7.904745 -19.192628 -30.703429 37.061335 -1.180105 2.547129 0.122629 -0.057766 326800.000000 0 0 1
8.247145 -20.015328 -31.830099 38.493947 -1.179953 2.544344 0.124548 -0.055535 117204.000000 0 0 1
9.695545 -19.981528 -32.358149 39.246846 -1.119038 2.540075 0.103541 -0.047827 63021.300000 0 0 1
10.091845 -18.772028 -32.966889 39.256212 -1.077523 2.567689 0.118679 -0.052666 -637563.000000 0 0 1
11.395245 -18.762928 -33.446419 40.007025 -1.025006 2.560774 0.104551 -0.047312 -782197.000000 0 0 1
11.693045 -17.405428 33.346416 39.391112 -0.979245 0.561332 0.103684 -0.036547 -336913.000000 0 0 1
10.840445 -17.059028 32.267851 38.075450 -1.004706 0.559593 0.131125 -0.036527 -32800.100000 0 0 1
10.790345 -15.662528 32.095660 37.307878 -0.967540 0.534955 0.118541 -0.028831 -113250.000000 0 0 1
9.685845 -15.121528 31.169376 35.972298 -1.001105 0.522683 0.172787 -0.040963 -191169.000000 0 0 1
9.796445 -15.579128 29.798666 35.023422 -1.009456 0.553250 0.157202 -0.036795 53227.400000 0 0 1
8.672845 -15.191128 29.017126 33.881886 -1.052037 0.542501 0.161932 -0.032204 101152.000000 0 0 1
8.461545 -15.850328 27.586566 32.921866 -1.080444 0.577298 0.116313 -0.018028 -355414.000000 0 0 1
7.996345 -17.206128 27.558546 33.458420 -1.135754 0.602951 0.104310 -0.027571 120227.000000 0 0 1
8.160245 -17.952728 26.363636 32.923113 -1.144173 0.642227 0.082361 -0.015501 -186383.000000 0 0 1
7.840145 -19.434628 26.622576 33.881178 -1.187353 0.666868 0.091701 -0.025275 -26788.900000 0 0 1
8.661045 -20.071028 27.619306 35.223372 -1.163416 0.669521 0.092895 -0.023692 366261.000000 0 0 1
7.994745 -21.030228 28.363946 36.203589 -1.207514 0.670587 0.096125 -0.029227 -508485.000000 0 0 1
8.646145 -21.107728 29.745906 37.484809 -1.182025 0.654183 0.106050 -0.038891 -135931.000000 0 0 1
8.194645 -20.351028 30.859496 37.863241 -1.187995 0.618024 0.123331 -0.047007 -112697.000000 0 0 1
8.375845 -18.949828 30.710996 37.046134 -1.154614 0.593491 0.126743 -0.048629 -31315.600000 0 0 1
7.686445 -18.117128 31.840379 37.431558 -1.169549 0.553615 0.137452 -0.050049 214669.000000 0 0 1
6.292945 -18.307928 31.994004 37.395156 -1.239720 0.544154 0.161722 -0.064925 -8580.190000 0 0 1
5.768245 -17.377128 32.967751 37.710872 -1.250296 0.506961 0.171517 -0.059080 -404927.000000 0 0 1
4.298045 -17.602328 33.287086 37.899146 -1.331308 0.498487 0.173657 -0.060861 -444510.000000 0 0 1
4.084445 -18.651028 -33.135149 38.242407 -1.355207 2.618845 0.147761 -0.058906 97074.200000 0 0 1
3.073545 -18.231728 -32.233689 37.159835 -1.403784 2.620817 0.140909 -0.069959 -115546.000000 0 0 1
2.502445 -19.330928 -31.304569 36.877135 -1.442059 2.584675 0.100136 -0.045595 -233613.000000 0 0 1
1.653945 -20.295428 -31.915219 37.857908 -1.489483 2.573682 0.077193 -0.038834 287783.000000 0 0 1
1.018545 -21.186828 -31.023889 37.581922 -1.522759 2.541884 0.077616 -0.044606 668736.000000 0 0 1
0.051145 -20.713428 -29.846309 36.329752 -1.568327 2.534901 0.085508 -0.043444 163491.000000 0 0 1
-1.182955 -20.277728 -30.415109 36.574096 1.512525 2.552783 0.099116 -0.054342 68522.500000 0 0 1
-1.929055 -19.436128 -29.551169 35.422534 1.471869 2.557563 0.136217 -0.036719 33013.800000 0 0 1
-1.551455 -17.900028 -29.538429 34.573644 1.484339 2.595119 0.135090 -0.036637 -122232.000000 0 0 1
-2.585955 -17.043828 -29.096859 33.820208 1.420221 2.606732 0.161791 -0.039156 -392553.000000 0 0 1
-2.179055 -15.704728 -29.164639 33.195827 1.432925 2.643642 0.170557 -0.043431 -719079.000000 0 0 1
-3.266355 -14.684628 -29.057769 32.720962 1.351926 2.663877 0.148468 -0.025375 -637006.000000 0 0 1
-3.420055 -14.157028 -27.742819 31.333405 1.333758 2.658165 0.136332 -0.036034 307842.000000 0 0 1
-4.529255 -13.277228 -27.575299 30.938586 1.242046 2.670982 0.132779 -0.037722 249261.000000 0 0 1
-4.684455 -12.885628 -26.096979 29.479414 1.222109 2.657851 0.124092 -0.034944 -352974.000000 0 0 1
-5.087855 -13.899028 -25.249509 29.267849 1.219888 2.611390 0.137466 -0.035479 81979.100000 0 0 1
-5.089655 -13.708628 -23.837429 27.965230 1.215296 2.591345 0.108073 -0.040868 -247266.000000 0 0 1
-6.056255 -12.615828 -23.278829 27.161393 1.123234 2.600324 0.099502 -0.041910 1141180.000000 0 0 1
-7.423855 -13.064928 -23.472929 27.870852 1.054066 2.572154 0.109167 -0.043113 468085.000000 0 0 1
-8.338955 -12.044728 -23.192429 27.431778 0.965235 2.578219 0.095573 -0.036048 -898798.000000 0 0 1
-9.745755 -12.459328 -23.576229 28.391076 0.907000 2.550639 0.127759 -0.044820 -987983.000000 0 0 1
-10.213755 -13.413028 -22.707329 28.281671 0.919988 2.502939 0.101826 -0.046472 -858831.000000 0 0 1
-11.185055 -14.136428 -23.387529 29.528302 0.901431 2.484936 0.096203 -0.040979 -520784.000000 0 0 1
-11.994455 -15.074828 -22.562329 29.667762 0.898707 2.434879 0.090889 -0.038285 -136631.000000 0 0 1
-11.171055 -16.166228 -22.200729 29.648133 0.966128 2.417057 0.099948 -0.035274 90272.800000 0 0 1
-11.952755 -17.330628 -21.867229 30.354485 0.967024 2.375168 0.119139 -0.037594 824573.000000 0 0 1
-12.814855 -17.975828 -22.992029 31.874509 0.951469 2.376517 0.124664 -0.031005 95384.200000 0 0 1
-13.967855 -17.316328 -23.418929 32.301741 0.892026 2.381838 0.094822 -0.020037 -895950.000000 0 0 1
-14.721055 -18.240628 -24.134729 33.643947 0.891773 2.370798 0.065861 -0.022573 220590.000000 0 0 1
-15.956955 -17.559528 -24.827729 34.342067 0.833176 2.378864 0.075659 -0.025025 118504.000000 0 0 1
-17.004455 -17.291428 -23.937329 34.075515 0.793766 2.349671 0.078434 -0.016085 -316755.000000 0 0 1
-18.203455 -17.120628 -24.661829 35.109650 0.754754 2.349593 0.057263 -0.014897 76444.100000 0 0 1
-18.984755 -15.816628 -24.343629 34.687158 0.694614 2.348725 0.070294 -0.016471 -172306.000000 0 0 1
-19.720255 -15.913228 -23.147129 34.320677 0.678963 2.310998 0.070799 -0.016144 -14194.000000 0 0 1
-20.306355 -14.648328 -22.899229 33.930757 0.624923 2.311600 0.080387 -0.019748 52523.500000 0 0 1
-21.031055 -14.734828 -21.532529 33.512241 0.611144 2.268588 0.067463 -0.023866 11670.000000 0 0 1
-20.095855 -14.538828 -20.480329 32.166206 0.626307 2.261012 0.086301 -0.019160 124920.000000 0 0 1
-20.545355 -14.495628 -19.144229 31.602791 0.614436 2.221538 0.076301 -0.018033 -403437.000000 0 0 1
-21.189555 -13.197728 -18.644129 31.157356 0.557045 2.212282 0.070023 -0.025392 -455167.000000 0 0 1
-22.476855 -12.935928 -19.141629 32.232735 0.522227 2.206640 0.066335 -0.026914 19191.700000 0 0 1
-23.074855 -11.994228 -18.233829 31.761344 0.479359 2.182287 0.068007 -0.024447 1050480.000000 0 0 1
-24.580955 -11.590028 -18.477929 32.863140 0.440592 2.167924 0.092116 -0.025440 981693.000000 0 0 1
-24.785955 -11.003428 -19.716629 33.528562 0.417801 2.199448 0.083919 -0.030093 294981.000000 0 0 1
-26.146785 -10.679728 -19.977229 34.594807 0.387772 2.186414 0.105645 -0.034180 234344.000000 0 0 1
-26.349825 -9.630828 -21.115929 35.113368 0.350415 2.216004 0.099862 -0.021104 1588.250000 0 0 1
-26.595075 -10.050528 -22.467829 36.236922 0.361319 2.239572 0.090766 -0.020202 89017.600000 0 0 1
-27.076195 -8.976928 -23.249529 36.800084 0.320139 2.254643 0.069638 -0.022728 -393502.000000 0 0 1
-27.385155 -9.355428 -24.717129 38.057946 0.329194 2.277671 0.064931 -0.010848 201864.000000 0 0 1
-26.350915 -9.486228 -25.694799 38.007657 0.345552 2.313175 0.065283 -0.017492 -110564.000000 0 0 1
-25.508805 -10.602528 -25.634559 37.686117 0.393918 2.318849 0.057083 -0.008453 123627.000000 0 0 1
-24.436255 -10.519928 -26.771119 37.742447 0.406524 2.359316 0.073259 -0.016669 216317.000000 0 0 1
-24.907155 -10.768128 -28.091429 39.056976 0.408063 2.373507 0.075474 -0.010675 -104245.000000 0 0 1
-23.918155 -10.405328 -29.029539 39.026442 0.410343 2.409598 0.092845 -0.013117 70663.500000 0 0 1
-24.372755 -10.523428 -30.480369 40.420622 0.407591 2.425048 0.097591 -0.015295 205516.000000 0 0 1
-25.380045 -9.577328 -30.811749 41.051624 0.360835 2.419707 0.079872 -0.017545 87778.900000 0 0 1
-25.174095 -9.068028 -32.081519 41.775448 0.345744 2.446433 0.079064 -0.029724 -116724.000000 0 0 1
-26.310785 -8.123428 -32.615169 42.684854 0.299464 2.440429 0.083940 -0.030261 -132245.000000 0 0 1
-27.266805 -8.754628 -33.470749 44.050122 0.310676 2.433853 0.091308 -0.030746 1089030.000000 0 0 1
-28.417275 -9.244228 -32.778719 44.355853 0.314506 2.402373 0.081560 -0.018555 72062.100000 0 0 1
-29.441995 -8.255028 -32.158719 44.375216 0.273364 2.381395 0.055745 -0.008021 -1083280.000000 0 0 1
-30.707585 -8.850028 -32.039719 45.252872 0.280599 2.357480 0.059176 -0.010009 -476063.000000 0 0 1
-31.481355 -8.074628 -31.144559 45.013986 0.251077 2.334895 0.065753 -0.005874 51350.000000 0 0 1
-32.963735 -8.506528 -31.297289 46.243802 0.252547 2.314188 0.061823 -0.006919 -8340.580000 0 0 1
-33.222195 -9.802828 -30.803889 46.353957 0.286927 2.297670 0.062266 -0.007684 65569.100000 0 0 1
-34.484636 -10.337728 -31.155679 47.610242 0.291253 2.284172 0.054851 -0.008461 -7113.310000 0 0 1
-34.578099 -11.856928 -31.021489 47.943347 0.330338 2.274498 0.051330 -0.009586 -1619830.000000 0 0 1
-35.789123 -12.357428 -31.344489 49.153274 0.332468 2.262290 0.071439 -0.016528 -1450100.000000 0 0 1
-35.633936 -13.740528 -31.346749 49.408483 0.368033 2.258081 0.073687 -0.018371 103243.000000 0 0 1
-36.929545 -14.515828 -31.037809 50.377040 0.374516 2.234591 0.081767 -0.023631 -43023.100000 0 0 1
-37.282265 -14.277128 -29.677929 49.745183 0.365720 2.210053 0.111432 -0.028778 -150393.000000 0 0 1
-37.881675 -15.372928 -29.024809 50.137688 0.385509 2.188178 0.116238 -0.036764 -149868.000000 0 0 1
-37.785815 -15.333228 -27.489339 49.178649 0.385491 2.163938 0.138033 -0.039923 1108910.000000 0 0 1
-36.406215 -15.187228 -27.073309 47.843793 0.395212 2.172283 0.117813 -0.045765 1036320.000000 0 0 1
-36.320565 -15.529028 -25.737389 47.146022 0.404033 2.148269 0.141852 -0.048473 29857.900000 0 0 1
-34.970767 -15.120328 -25.106229 45.627860 0.408097 2.153447 0.143299 -0.046425 949.961000 0 0 1
-33.906735 -16.015628 -25.351839 45.264587 0.441279 2.165280 0.131809 -0.046437 -221232.000000 0 0 1
-32.724125 -15.625228 -24.700729 43.876442 0.445473 2.168761 0.118556 -0.031218 446271.000000 0 0 1
-31.500525 -16.563628 -24.971929 43.476823 0.484090 2.182635 0.105105 -0.041129 216432.000000 0 0 1
-31.556855 -17.851528 -24.309129 43.651414 0.514813 2.161436 0.121986 -0.056949 -328861.000000 0 0 1
-32.347615 -18.843228 -24.881329 44.950150 0.527470 2.157395 0.113044 -0.058162 -179266.000000 0 0 1
-32.194145 -20.200628 -24.143429 45.027031 0.560368 2.136723 0.102065 -0.056991 -241538.000000 0 0 1
-30.916535 -20.743828 -24.320029 44.470242 0.590971 2.149433 0.096536 -0.043407 -425932.000000 0 0 1
-30.725435 -21.933628 -23.653429 44.549087 0.619967 2.130520 0.104739 -0.035992 1004740.000000 0 0 1
-29.232555 -22.497228 -23.798029 43.897765 0.655924 2.143759 0.099446 -0.037728 2055630.000000 0 0 1
-28.213635 -21.802628 -23.044029 42.454577 0.657915 2.144555 0.111387 -0.038795 235828.000000 0 0 1
-28.295575 -21.807128 -21.613929 41.753471 0.656612 2.114905 0.131166 -0.040217 -616236.000000 0 0 1
-28.209425 -23.160528 -20.836729 42.027979 0.687428 2.089532 0.131316 -0.046245 -10443.700000 0 0 1
-28.161435 -23.042828 -19.443229 41.256242 0.685765 2.061537 0.126553 -0.034681 34632.500000 0 0 1
-28.468705 -24.243528 -18.762129 41.835790 0.705414 2.035850 0.127462 -0.020389 -15629.900000 0 0 1
-28.579805 -24.033328 -17.254929 41.135614 0.699199 2.003652 0.109090 -0.011893 396023.000000 0 0 1
-29.807425 -23.473028 -16.806229 41.495964 0.667066 1.987785 0.113838 -0.006647 28473.300000 0 0 1
-29.630645 -22.382028 -15.958529 40.417880 0.646928 1.976688 0.102671 -0.011222 194402.000000 0 0 1
-30.971875 -21.770528 -15.471229 40.897089 0.612678 1.958752 0.113634 0.005465 238832.000000 0 0 1
-31.618135 -20.985328 -16.437529 41.355566 0.585954 1.979553 0.117595 -0.001960 -318646.000000 0 0 1
-32.464075 -20.004328 -15.926329 41.324778 0.552245 1.966431 0.121972 -0.008504 -323195.000000 0 0 1
-33.149325 -19.211728 -17.056729 41.939245 0.525248 1.989636 0.134863 -0.028070 127140.000000 0 0 1
-34.330664 -19.860328 -17.543429 43.368180 0.524461 1.987254 0.065546 -0.018031 115747.000000 0 0 1
-34.782618 -19.098428 -18.634429 43.838595 0.502136 2.009834 0.076197 -0.023723 -388881.000000 0 0 1
-36.154725 -19.654128 -19.116629 45.375042 0.497925 2.005678 0.047584 -0.017415 1217540.000000 0 0 1
-37.382685 -19.350828 -18.424629 45.949828 0.477661 1.983375 0.042257 -0.010041 989272.000000 0 0 1
-37.406705 -19.830728 -17.106329 45.663398 0.487467 1.954781 0.068995 -0.016704 -1143110.000000 0 0 1
-37.606215 -21.388128 -16.962229 46.469309 0.517116 1.944451 0.048433 0.025265 -825837.000000 0 0 1
36.978346 -21.762828 -17.028029 46.162458 -0.531942 1.948591 0.050637 -0.003421 -676005.000000 0 0 1
36.864106 -23.126928 -16.895829 46.682825 -0.560292 1.941132 0.068591 0.002399 -399259.000000 0 0 1
35.489516 -23.493928 -16.357329 45.596410 -0.584762 1.937716 0.052107 -0.005098 -454175.000000 0 0 1
34.451296 -23.512828 -17.310729 45.159785 -0.598881 1.964186 0.063928 -0.001706 770031.000000 0 0 1
33.189256 -23.814928 -16.678429 44.123095 -0.622407 1.958429 0.078680 -0.003867 1284950.000000 0 0 1
31.953566 -23.957428 -17.611729 43.648159 -0.643346 1.986128 0.083609 -0.024671 404067.000000 0 0 1
31.568836 -22.755428 -18.251229 42.982651 -0.624562 2.009337 0.048867 -0.024021 1784590.000000 0 0 1
30.166426 -22.746428 -18.677929 42.145917 -0.646076 2.029931 0.098762 -0.025397 1607270.000000 0 0 1
36.041556 28.411972 -17.874429 49.251691 0.667573 1.942196 0.090105 -0.019285 -506423.000000 0 0 1
35.152716 28.515372 -18.950329 49.070916 0.681524 1.967286 0.082298 -0.031006 -350019.000000 0 0 1
35.742356 28.531572 -20.223629 50.005617 0.673677 1.987149 0.092660 -0.026809 -102059.000000 0 0 1
34.807426 28.835272 -21.433629 50.024296 0.691833 2.013589 0.111434 -0.028353 -591169.000000 0 0 1
33.709966 27.979172 -21.623729 48.854698 0.692766 2.029307 0.098760 -0.024190 407584.000000 0 0 1
32.879926 28.421572 -22.712329 49.037997 0.712798 2.052351 0.113482 -0.018520 630354.000000 0 0 1
31.878356 29.593672 -22.554229 48.997022 0.748249 2.049150 0.116846 -0.012202 -771750.000000 0 0 1
32.584746 30.829272 -22.349429 50.116929 0.757722 2.033027 0.124589 -0.013358 724601.000000 0 0 1
31.782786 32.022072 -22.501429 50.416990 0.789148 2.033430 0.124731 -0.003154 -213009.000000 0 0 1
32.558946 33.218172 -21.977729 51.444654 0.795420 2.012202 0.114394 0.003612 -84884.200000 0 0 1
32.792316 33.090972 -20.561529 50.922734 0.789931 1.986440 0.121734 -0.001802 1618240.000000 0 0 1
34.147006 32.641672 -20.239829 51.392095 0.762863 1.975593 0.123547 -0.003182 1053580.000000 0 0 1
34.343066 32.730972 -18.681029 50.987680 0.761368 1.945915 0.092815 -0.003783 -133140.000000 0 0 1
34.365976 -33.548607 -18.234629 51.371500 -0.773363 1.933663 0.101864 0.001549 254965.000000 0 0 1
34.597546 -33.482507 -16.854529 51.011210 -0.769021 1.907533 0.070226 -0.017539 -449191.000000 0 0 1
34.556676 -31.978507 -16.451729 49.874323 -0.746669 1.906956 0.074303 0.004872 -57104.400000 0 0 1
35.691146 -31.220507 -16.777129 50.299602 -0.718683 1.910857 0.064412 0.005867 -234755.000000 0 0 1
36.785926 -31.360407 -15.894129 50.885192 -0.705950 1.888465 0.070739 0.001534 -687668.000000 0 0 1
-37.951245 -30.533507 -16.357929 51.382622 0.677506 1.894790 0.049942 0.007311 -566898.000000 0 0 1
-37.399485 -31.092007 -17.553829 51.706588 0.693566 1.917170 0.057129 0.002514 -1328540.000000 0 0 1
-36.346615 -30.315407 -17.927229 50.611124 0.695169 1.932871 0.048541 0.000826 -528789.000000 0 0 1
-35.254791 -31.092207 -18.773629 50.616941 0.722741 1.950770 0.067979 -0.010941 -404616.000000 0 0 1
-34.491193 -31.901307 -17.948529 50.293990 0.746409 1.935714 0.072454 -0.014021 -460943.000000 0 0 1
-33.723175 -32.790507 -18.718529 50.624630 0.771377 1.949538 0.092664 -0.021411 636222.000000 0 0 1
-32.258005 -32.323807 -19.054829 49.482258 0.786417 1.966095 0.081586 -0.022282 -419716.000000 0 0 1
-32.146315 -31.212007 -19.920329 49.034625 0.770653 1.989143 0.085314 -0.014805 -38962.200000 0 0 1
-30.881165 -30.858707 -20.437729 48.203806 0.785034 2.008638 0.088258 -0.018306 232253.000000 0 0 1
-30.009145 -31.943207 -21.176429 48.676056 0.816607 2.020888 0.082521 -0.010104 -283146.000000 0 0 1
-30.602755 -32.594507 -22.276829 49.951853 0.816904 2.033050 0.071553 0.001016 -341382.000000 0 0 1
-29.841555 -33.685607 -22.711329 50.408759 0.845835 2.038170 0.061184 -0.006790 -231853.000000 0 0 1
-30.487915 33.187372 -23.881929 51.002560 -0.827767 2.058105 0.056175 -0.015794 -383507.000000 0 0 1
-31.656945 32.560472 -23.375029 51.075811 -0.799467 2.046151 0.075875 -0.037097 186019.000000 0 0 1
-32.386545 31.798672 -24.320629 51.493076 -0.776239 2.062705 0.070523 -0.026857 843704.000000 0 0 1
-33.401255 32.511572 -25.281549 53.026436 -0.771901 2.067776 0.071181 -0.038848 234278.000000 0 0 1
-32.721605 33.095172 -26.368169 53.490879 -0.791074 2.086270 0.061180 -0.030266 -440395.000000 0 0 1
-33.603675 -33.638607 -26.873869 54.616551 0.785918 2.085235 0.055655 -0.032139 -341388.000000 0 0 1
-32.999015 -32.789407 -28.006859 54.299764 0.782212 2.112717 0.049242 -0.028122 35785.900000 0 0 1
-32.796675 -33.526107 -29.208539 55.251792 0.796396 2.127799 0.059911 -0.031177 -601511.000000 0 0 1
-33.952595 -33.588207 -29.957529 56.377299 0.780003 2.131020 0.074331 -0.027990 -664259.000000 0 0 1
-33.743675 33.231772 -31.271059 56.752669 -0.777755 2.154366 0.108369 -0.028108 -74127.200000 0 0 1
-32.852145 33.757972 -32.203589 57.060803 -0.798996 2.170470 0.089162 -0.026552 -196009.000000 0 0 1
-33.062815 33.099872 -33.453469 57.514223 -0.785958 2.191559 0.091743 -0.036467 1033600.000000 0 0 1
-32.020545 33.622972 32.777992 56.834992 -0.809804 0.956086 0.098386 -0.040033 2311310.000000 0 0 1
-30.674145 33.089272 32.740465 55.747118 -0.823256 0.943073 0.100516 -0.034343 1017330.000000 0 0 1
-30.564995 31.717172 32.401033 54.681120 -0.803895 0.936582 0.112871 -0.039781 -24919.800000 0 0 1
-29.069735 31.347772 32.174818 53.506553 -0.823085 0.925638 0.109341 -0.034691 431029.000000 0 0 1
-28.372265 31.212272 33.412846 53.810869 -0.833026 0.900866 0.116424 -0.044518 -564874.000000 0 0 1
-27.024165 30.885572 33.310776 52.856710 -0.851979 0.888974 0.110786 -0.040546 -614032.000000 0 0 1
-26.623235 29.387372 32.965328 51.566725 -0.834708 0.877241 0.122905 -0.041437 -467836.000000 0 0 1
-26.479025 28.637872 -33.223469 51.235392 -0.824547 2.276340 0.125108 -0.032954 267614.000000 0 0 1
-26.231195 27.272272 -33.545849 50.568532 -0.804854 2.296115 0.112758 -0.029101 -339574.000000 0 0 1
-26.196145 26.392072 -32.281209 49.242826 -0.789124 2.285709 0.128214 -0.035793 -182753.000000 0 0 1
-25.137615 26.460772 -31.343279 48.108973 -0.811036 2.280364 0.120069 -0.024130 29806.300000 0 0 1
-25.170785 27.650072 -30.549939 48.284508 -0.832301 2.255840 0.106310 -0.022896 1071630.000000 0 0 1
-23.927155 27.853072 -29.567439 47.143778 -0.861072 2.248718 0.125412 -0.021209 1296480.000000 0 0 1
-22.660155 28.141772 -30.147849 47.056718 -0.892884 2.266167 0.115238 -0.017142 499125.000000 0 0 1
-21.599955 28.219772 -29.209499 46.001178 -0.917500 2.258770 0.079606 -0.014093 368080.000000 0 0 1
-21.412855 29.620472 -28.510949 46.354686 -0.944861 2.233259 0.074080 -0.006655 -310872.000000 0 0 1
-20.760255 30.619772 -29.348939 47.222016 -0.974987 2.241465 0.069804 0.002477 417592.000000 0 0 1
-20.732255 31.867372 -28.658879 47.609738 -0.994014 2.216742 0.085710 -0.004936 -146631.000000 0 0 1
-20.191255 33.035472 -29.492949 48.670969 -1.022183 2.221776 0.087843 0.001512 555697.000000 0 0 1
-18.781155 32.928172 -29.727349 48.173764 -1.052451 2.235830 0.075873 0.002454 395904.000000 0 0 1
-18.450255 -33.657507 -30.589009 49.080823 1.069354 2.243672 0.077622 -0.002431 12936.500000 0 0 1
-16.954055 -33.513607 -30.960419 48.673909 1.102451 2.260202 0.069745 0.004130 -640038.000000 0 0 1
-16.201555 -32.994307 -29.898809 47.381995 1.114342 2.253659 0.091114 -0.016066 1797130.000000 0 0 1
-14.749455 -32.915107 -30.120599 46.991501 1.149519 2.266570 0.118451 -0.011347 2147630.000000 0 0 1
-13.946455 33.479572 -30.428919 47.342417 -1.176091 2.268867 0.124967 -0.016019 -1067660.000000 0 0 1
-13.787555 32.607872 -29.343509 45.982730 -1.170766 2.262879 0.132072 -0.016774 -114125.000000 0 0 1
-13.367355 31.300372 -29.629669 45.125566 -1.167176 2.287105 0.108524 -0.012206 30860.900000 0 0 1
-13.203455 30.315172 -28.418699 43.600038 -1.160033 2.280758 0.088054 -0.016313 248703.000000 0 0 1
-12.171655 30.724472 -27.528119 43.010925 -1.193609 2.265329 0.105239 -0.013084 205951.000000 0 0 1
-12.304555 30.278972 -26.184449 41.878916 -1.184808 2.246238 0.081063 -0.027009 23733.400000 0 0 1
-11.148155 30.882472 -25.349979 41.480476 -1.224368 2.228284 0.101160 -0.025291 97710.600000 0 0 1
-9.886155 30.332572 -25.584779 40.894766 -1.255728 2.246728 0.105575 -0.012008 -89324.800000 0 0 1
-8.853155 30.992572 -24.844529 40.696050 -1.292552 2.227475 0.114462 -0.018024 -159612.000000 0 0 1
-7.464455 30.532472 -25.239049 40.310787 -1.331023 2.247353 0.110395 -0.024165 -768432.000000 0 0 1
-7.301255 29.200672 -24.856229 39.036133 -1.325783 2.261071 0.100316 -0.038965 -75521.300000 0 0 1
-6.055955 28.682072 -25.253989 38.692374 -1.362712 2.281921 0.092405 -0.046169 -219835.000000 0 0 1
-5.552055 27.505172 -24.447229 37.215948 -1.371618 2.287499 0.108184 -0.031440 -183594.000000 0 0 1
-6.246155 26.333072 -24.706329 36.644888 -1.337902 2.310690 0.123267 -0.034701 67413.400000 0 0 1
-5.434755 25.279272 -24.270629 35.463243 -1.359031 2.324561 0.132989 -0.042049 -52593.600000 0 0 1
-6.211755 23.951272 -24.233429 34.633920 -1.317037 2.345777 0.137690 -0.040678 47124.700000 0 0 1
-6.320955 23.267872 -25.438369 35.049379 -1.305538 2.382973 0.133416 -0.039005 233996.000000 0 0 1
-7.082155 22.068872 -25.245029 34.271030 -1.260267 2.398868 0.121995 -0.044090 128188.000000 0 0 1
-7.255555 21.164472 -26.443479 34.638642 -1.240534 2.439372 0.114060 -0.029875 1153340.000000 0 0 1
-6.059255 20.405172 -26.793469 34.219521 -1.282143 2.470251 0.140849 -0.044122 719437.000000 0 0 1
-5.843555 19.318172 -25.919369 32.850458 -1.277057 2.479994 0.127049 -0.041115 -218007.000000 0 0 1
-4.646055 18.433672 -26.303669 32.454107 -1.323897 2.515781 0.138427 -0.047427 -41969.500000 0 0 1
-4.712755 17.663272 -27.469609 32.996676 -1.310059 2.554394 0.136458 -0.051071 -344350.000000 0 0 1
-3.618955 16.787472 -27.530239 32.447344 -1.358471 2.583863 0.130637 -0.047770 -299339.000000 0 0 1
-3.143855 16.454172 -28.957279 33.453664 -1.382004 2.617131 0.116952 -0.046157 -284654.000000 0 0 1
-2.304555 17.426172 -29.490789 34.332042 -1.439313 2.604085 0.124924 -0.050166 -248672.000000 0 0 1
-2.050655 17.248972 -30.829569 35.386361 -1.452466 2.628494 0.117102 -0.054780 -87348.900000 0 0 1
-1.175355 18.344972 -31.438299 36.418211 -1.506814 2.612485 0.121523 -0.036283 -430996.000000 0 0 1
0.175945 18.309872 -31.055559 36.051770 1.561187 2.608847 0.134785 -0.040473 -360006.000000 0 0 1
0.899345 19.439472 -31.501729 37.027838 1.524565 2.588222 0.122004 -0.020810 -1068.880000 0 0 1
0.776045 20.761772 -30.634779 37.015444 1.533435 2.545653 0.124633 -0.027840 -109284.000000 0 0 1
1.543845 20.773472 -29.459359 36.080111 1.496615 2.526116 0.146610 -0.050606 -123218.000000 0 0 1
1.126145 21.888872 -28.663499 36.083058 1.519393 2.488775 0.156213 -0.063392 476860.000000 0 0 1
2.258245 22.100272 -27.624849 35.449315 1.468968 2.464308 0.165304 -0.058886 583624.000000 0 0 1
3.444245 22.566072 -28.244999 36.316255 1.419336 2.461876 0.141293 -0.059474 -20142.500000 0 0 1
4.545645 22.640372 -27.342569 35.789180 1.372655 2.440271 0.144950 -0.058013 436577.000000 0 0 1
5.069445 24.109872 -27.113889 36.635340 1.363551 2.404018 0.148066 -0.053569 325031.000000 0 0 1
6.028445 24.529472 -28.104359 37.787460 1.329809 2.409457 0.143335 -0.060382 435841.000000 0 0 1
6.209645 25.913472 -27.980269 38.638881 1.335601 2.380595 0.142345 -0.064484 -167121.000000 0 0 1
7.215145 26.555372 -28.959609 39.948780 1.305499 2.381712 0.160345 -0.060308 187314.000000 0 0 1
8.556245 26.257072 -28.602239 39.758411 1.255783 2.373736 0.150071 -0.056844 483892.000000 0 0 1
9.422945 26.891072 -29.582359 41.073563 1.233755 2.374928 0.152737 -0.057729 42296.600000 0 0 1
10.907145 26.755072 -29.246319 41.111396 1.183698 2.362273 0.146166 -0.049094 -442109.000000 0 0 1
11.785645 27.411772 -30.123589 42.399732 1.164742 2.360957 0.149889 -0.047012 -26571.100000 0 0 1
13.103945 27.433672 -29.596909 42.429904 1.125181 2.342767 0.136651 -0.053636 -200443.000000 0 0 1
13.932245 28.365072 -30.440229 43.878153 1.114233 2.337472 0.144991 -0.053627 -611700.000000 0 0 1
13.424945 29.675872 -30.495399 44.619008 1.145960 2.323291 0.149956 -0.055590 -25527.000000 0 0 1
14.244245 30.454072 -31.300719 45.935651 1.133297 2.320475 0.180051 -0.056034 -342103.000000 0 0 1
13.964045 31.927972 -31.313959 46.850336 1.158503 2.302829 0.183973 -0.057344 -400470.000000 0 0 1
12.826445 32.260572 -32.050479 47.249290 1.192370 2.316280 0.155666 -0.054633 -305537.000000 0 0 1
12.200645 33.375972 -31.511659 47.495219 1.220335 2.296244 0.157177 -0.042506 -30540.700000 0 0 1
11.055745 -33.797807 -32.451459 48.141650 -1.254653 2.310519 0.116680 -0.031356 338166.000000 0 0 1
11.533445 -33.044807 -33.582039 48.504979 -1.234991 2.335526 0.096658 -0.019273 -286772.000000 0 0 1
10.521445 -32.942507 32.850529 47.697660 -1.261649 0.811069 0.107577 -0.021802 -309775.000000 0 0 1
10.720245 -32.030107 31.578963 46.239402 -1.247823 0.819010 0.109562 -0.013915 -195621.000000 0 0 1
10.216645 -30.749407 31.757893 45.370360 -1.250017 0.795441 0.102395 -0.016821 21160.200000 0 0 1
10.581445 -29.895307 30.695096 44.134853 -1.230607 0.801703 0.108100 -0.018895 -88899.400000 0 0 1
10.055245 -28.500007 30.936476 43.248397 -1.231615 0.773713 0.110675 -0.024301 110616.000000 0 0 1
8.654545 -28.359707 30.814006 42.763034 -1.274603 0.766164 0.093555 -0.023210 342407.000000 0 0 1
7.950145 -27.967607 32.038010 43.264603 -1.293839 0.736963 0.099274 -0.032162 186525.000000 0 0 1
6.445745 -27.633507 31.884145 42.682045 -1.341636 0.727235 0.098618 -0.034924 513692.000000 0 0 1
5.609445 -28.804507 31.743049 43.229465 -1.378462 0.746173 0.133005 -0.043373 228792.000000 0 0 1
5.820445 -29.663807 30.577366 42.997608 -1.377044 0.779676 0.132063 -0.037084 -808322.000000 0 0 1
5.472245 -29.075407 29.183126 41.556944 -1.384764 0.792251 0.119615 -0.045568 -593668.000000 0 0 1
4.103845 -28.893607 28.996546 41.139783 -1.429707 0.788613 0.163345 -0.051806 -472763.000000 0 0 1
3.843645 -28.137707 27.870906 39.790596 -1.435035 0.794783 0.174232 -0.045203 953673.000000 0 0 1
2.380645 -28.379607 27.284836 39.440231 -1.487107 0.806815 0.156832 -0.050018 1149090.000000 0 0 1
2.092245 -29.621407 26.687246 39.925109 -1.500281 0.838697 0.174041 -0.050984 92884.500000 0 0 1
1.873945 -30.682307 27.575356 41.295470 -1.509796 0.839604 0.209746 -0.056714 -793280.000000 0 0 1
2.245245 -32.072107 26.962656 41.960052 -1.500904 0.872937 0.221111 -0.051335 710235.000000 0 0 1
3.662645 -32.285407 26.992476 42.241641 -1.457833 0.877597 0.195411 -0.043301 681315.000000 0 0 1
4.296245 -31.793807 25.833246 41.190538 -1.436482 0.892889 0.193687 -0.056877 -979490.000000 0 0 1
5.813145 -31.968707 25.890436 41.546426 -1.390923 0.898008 0.200881 -0.041501 -474744.000000 0 0 1
6.364045 -31.628707 24.642116 40.596921 -1.372237 0.918523 0.163853 -0.050165 22458.300000 0 0 1
7.733145 -31.303207 24.785866 40.669785 -1.328605 0.915440 0.126794 -0.044480 -347369.000000 0 0 1
8.560445 -31.295007 23.494816 40.058270 -1.303788 0.944046 0.110268 -0.027986 678749.000000 0 0 1
9.917745 -30.896207 23.804386 40.244081 -1.260185 0.937878 0.094190 -0.007240 902990.000000 0 0 1
10.646745 -30.890907 22.588006 39.721774 -1.238890 0.965926 0.088784 -0.019749 -271843.000000 0 0 1
11.776045 -29.873907 22.571466 39.250434 -1.195307 0.958115 0.048142 -0.020186 340380.000000 0 0 1
12.972545 -30.217807 23.286786 40.294877 -1.165288 0.954632 0.040009 -0.011653 921087.000000 0 0 1
13.992545 -29.237507 23.078446 39.789920 -1.124429 0.952059 0.043374 -0.016688 687927.000000 0 0 1
15.295945 -29.400407 23.905736 40.863603 -1.091070 0.945900 0.060823 -0.016591 135023.000000 0 0 1
15.085045 -29.175507 25.258356 41.433722 -1.093606 0.915229 0.049658 -0.010946 185013.000000 0 0 1
16.242345 -28.709607 25.925076 41.954318 -1.055944 0.904682 0.058423 -0.018536 -118459.000000 0 0 1
-11.346855 -13.641528 25.416816 30.997693 0.876971 0.609458 0.116351 -0.053113 -912146.000000 0 0 1
-10.017855 -13.761228 25.052316 30.287743 0.941540 0.596790 0.131367 -0.051435 -1422390.000000 0 0 1
-9.385055 -14.258628 26.211156 31.279585 0.988677 0.577255 0.137628 -0.054470 -1003540.000000 0 0 1
-7.872555 -14.091128 26.100916 30.688676 1.061307 0.553849 0.139650 -0.046080 -770582.000000 0 0 1
-7.247055 -15.028228 25.273526 30.283966 1.121466 0.583478 0.143838 -0.055105 -85044.200000 0 0 1
-7.370655 -14.799128 23.905386 29.065585 1.108713 0.605068 0.164955 -0.056291 -756999.000000 0 0 1
-6.707155 -15.890428 23.056816 28.794243 1.171395 0.642260 0.175818 -0.059127 83254.900000 0 0 1
-7.449955 -17.109228 22.966746 29.592211 1.160121 0.682326 0.193282 -0.060248 -197674.000000 0 0 1
-7.242055 -18.044928 24.013256 30.898273 1.189140 0.680638 0.194305 -0.062821 -64490.700000 0 0 1
-8.070455 -19.354228 23.808916 31.726690 1.175733 0.722072 0.194714 -0.055760 -320091.000000 0 0 1
-9.447055 -19.191228 23.801356 32.000854 1.113361 0.732100 0.177514 -0.052608 -787128.000000 0 0 1
-10.193355 -20.370228 23.696906 32.869348 1.106825 0.765635 0.159325 -0.051194 -498799.000000 0 0 1
-11.701555 -20.251428 23.530006 33.176919 1.046850 0.782394 0.123762 -0.046395 -593367.000000 0 0 1
-12.336655 -20.274128 24.765576 34.301124 1.024156 0.764101 0.121951 -0.047663 -951910.000000 0 0 1
-13.713655 -20.147128 24.615166 34.639248 0.973158 0.780425 0.100316 -0.030911 -379547.000000 0 0 1
-14.438355 -20.287828 26.014896 36.011622 0.952277 0.763525 0.090747 -0.031262 -242976.000000 0 0 1
-14.215155 -21.528428 26.665946 37.102783 0.987217 0.768859 0.086211 -0.025952 -436629.000000 0 0 1
-13.171555 -21.386128 27.573266 37.298007 1.018773 0.738812 0.112059 -0.032210 -430271.000000 0 0 1
-12.950055 -22.732828 28.280376 38.526161 1.052982 0.746520 0.124959 -0.033681 501799.000000 0 0 1
-13.986855 -23.191228 29.170206 39.804097 1.028093 0.748303 0.072409 -0.020074 501274.000000 0 0 1
-13.491655 -24.302728 29.886476 40.814811 1.064008 0.749183 0.096722 -0.012415 299759.000000 0 0 1
-14.628255 -25.009618 30.641306 42.170564 1.041550 0.757430 0.077234 -0.028993 150266.000000 0 0 1
-14.709655 -24.556528 31.976692 42.917431 1.031104 0.730149 0.121296 -0.032770 360508.000000 0 0 1
-15.978555 -24.819228 32.580425 43.963535 0.998794 0.736121 0.101269 -0.028776 369545.000000 0 0 1
-16.018555 -24.192128 -33.384799 44.231188 0.985935 2.426114 0.093143 -0.029791 8737.240000 0 0 1
-15.928655 -22.759028 -33.369249 43.418916 0.960149 2.447355 0.106759 -0.037164 1229470.000000 0 0 1
-17.185655 -22.092228 33.652836 43.771300 0.909674 0.693782 0.076090 -0.037018 691502.000000 0 0 1
-17.098855 -20.569328 -33.439529 42.821376 0.877272 2.466913 0.069275 -0.030888 -4036.860000 0 0 1
-17.095155 -20.314228 -32.040919 41.611690 0.871237 2.449634 0.058946 -0.025565 103395.000000 0 0 1
-17.162955 -18.935028 -31.800839 40.797006 0.834449 2.464647 0.051941 -0.021306 -244609.000000 0 0 1
-17.208655 -18.684228 -30.272689 39.518020 0.826485 2.443466 0.054124 -0.011193 634827.000000 0 0 1
-18.467655 -19.068128 -29.696129 39.830992 0.801394 2.412161 0.058499 -0.007856 576295.000000 0 0 1
-18.393155 -19.079928 -28.250759 38.735736 0.803723 2.388124 0.053157 -0.002697 -148394.000000 0 0 1
-17.537355 -20.095628 -27.486849 38.300392 0.853273 2.371240 0.043901 -0.005018 -145253.000000 0 0 1
-16.142455 -19.954728 -27.621989 37.706025 0.890619 2.392874 0.046223 -0.012452 -156684.000000 0 0 1
-15.505255 -21.027228 -26.968389 37.547987 0.935415 2.372063 0.042089 -0.018580 244225.000000 0 0 1
-13.980955 -21.199128 -27.222119 37.227865 0.987767 2.390919 0.164893 -0.027511 217195.000000 0 0 1
-13.262155 -20.158028 -26.552539 35.878520 0.988881 2.403968 0.164197 -0.032063 537297.000000 0 0 1
-11.845555 -20.178528 -26.672409 35.481088 1.039963 2.421487 0.143733 -0.048795 673008.000000 0 0 1
-11.011855 -21.243528 -25.910459 35.268972 1.092567 2.395952 0.192672 -0.062987 -515359.000000 0 0 1
-10.956655 -22.581528 -26.296159 36.351915 1.119055 2.379478 0.197720 -0.062602 103187.000000 0 0 1
-10.371555 -23.246428 -25.188359 35.810879 1.151143 2.350926 0.246473 -0.063297 -1884.170000 0 0 1
-10.498155 -24.783628 -25.404439 37.011147 1.170119 2.327323 0.232497 -0.062723 -124795.000000 0 0 1
-9.632555 -25.299408 -26.384349 37.801853 1.207001 2.343347 0.244153 -0.069448 -25767.400000 0 0 1
-10.131355 -26.433328 -27.103299 39.191250 1.204787 2.334450 0.237598 -0.054402 -79881.000000 0 0 1
-10.022055 -27.855718 -26.491469 39.726321 1.225432 2.300769 0.257562 -0.046835 -12031.600000 0 0 1
-10.976855 -28.008778 -25.452829 39.405958 1.197285 2.273015 0.207167 -0.051809 325379.000000 0 0 1
-10.714055 -29.110128 -24.632129 39.609751 1.218130 2.241925 0.197638 -0.057298 -511054.000000 0 0 1
-11.719955 -29.081718 -23.510329 39.189785 1.187706 2.214184 0.200084 -0.059398 -388412.000000 0 0 1
-11.473755 -28.026288 -22.564729 37.766214 1.182219 2.211157 0.200413 -0.059796 84298.700000 0 0 1
-12.318555 -26.901868 -22.756429 37.327100 1.141386 2.226414 0.176535 -0.052049 -60678.000000 0 0 1
-12.103955 -25.812868 -21.700429 35.829018 1.132327 2.221399 0.196471 -0.060112 -137527.000000 0 0 1
-12.494355 -26.119088 -20.412329 35.425681 1.124609 2.184870 0.135426 -0.040655 68306.800000 0 0 1
-12.620855 -24.945628 -19.588029 34.135923 1.102412 2.181964 0.127963 -0.035611 -105542.000000 0 0 1
-13.168155 -25.308188 -18.196429 33.838067 1.091031 2.138563 0.159280 -0.036203 -519314.000000 0 0 1
-14.520855 -25.646548 -18.230829 34.654925 1.055607 2.124766 0.181438 -0.041500 -521968.000000 0 0 1
-14.956355 -25.918428 -16.926129 34.379519 1.047419 2.085563 0.160725 -0.034358 670461.000000 0 0 1
-16.488455 -25.982198 -16.615629 34.971745 1.005319 2.065892 0.144323 -0.040843 482650.000000 0 0 1
-17.273755 -24.746428 -16.630529 34.457842 0.961394 2.074456 0.118357 -0.031346 2283540.000000 0 0 1
-18.658055 -24.912828 -16.154929 35.067845 0.927978 2.049553 0.119119 -0.030404 2820610.000000 0 0 1
-19.623455 -25.644748 -17.262829 36.616095 0.917636 2.061736 0.119175 -0.028719 -92210.600000 0 0 1
-19.339455 -27.055208 -17.469829 37.565859 0.950197 2.054482 0.098086 -0.029819 -72115.400000 0 0 1
-19.757855 -27.868248 -16.392029 37.890774 0.954073 2.018185 0.097427 -0.037088 -492535.000000 0 0 1
-21.277755 -28.105608 -16.242629 38.813543 0.922789 2.002566 0.113920 -0.034964 -69495.500000 0 0 1
-21.644255 -28.978868 -17.316829 40.101386 0.929284 2.017313 0.091559 -0.033014 -475043.000000 0 0 1
-22.948355 -29.451768 -17.137029 41.081765 0.908877 2.001097 0.087294 -0.028536 -233290.000000 0 0 1
-23.535455 -30.463368 -18.153529 42.561545 0.912999 2.011443 0.075131 -0.029883 111734.000000 0 0 1
-23.027055 -31.753488 -18.027729 43.168603 0.943369 2.001612 0.067511 -0.033831 343078.000000 0 0 1
-23.698855 -32.549308 -19.028829 44.533017 0.941465 2.012297 0.064453 -0.002331 204527.000000 0 0 1
-23.142355 33.671494 -18.998429 45.058611 -0.968646 2.006047 0.041915 -0.011564 287820.000000 0 0 1
-23.628455 32.848697 -17.920929 44.254949 -0.947227 1.987718 0.061804 -0.017015 413638.000000 0 0 1
-22.802055 31.663510 -17.963229 42.955665 -0.946683 2.002238 0.060596 -0.020588 353336.000000 0 0 1
-23.502855 30.334210 -17.661129 42.242916 -0.911613 2.002133 0.082456 -0.029751 -192747.000000 0 0 1
-23.823555 30.129640 -16.304829 41.727742 -0.901751 1.972235 0.082085 -0.037785 493764.000000 0 0 1
-24.675755 28.958340 -16.207529 41.354109 -0.865077 1.973515 0.081215 -0.027361 377228.000000 0 0 1
-23.919255 27.643630 -15.856629 39.846376 -0.857503 1.980071 0.086470 -0.028894 370441.000000 0 0 1
-23.049755 27.283090 -16.950529 39.534525 -0.869307 2.013908 0.064495 -0.018417 280558.000000 0 0 1
-22.609155 25.944410 -16.840829 38.313181 -0.853983 2.025902 0.075005 -0.018581 -154663.000000 0 0 1
-21.691655 25.469720 -17.970929 37.976161 -0.865337 2.063734 0.060729 -0.008783 -1586000.000000 0 0 1
-21.540455 24.047060 -17.876029 36.902638 -0.840327 2.076486 0.082174 -0.020435 143898.000000 0 0 1
-20.839955 23.497840 -18.999329 36.707311 -0.845273 2.114828 0.069420 -0.009641 840414.000000 0 0 1
-19.391755 24.096740 -19.165029 36.386692 -0.893168 2.125515 0.058493 -0.017358 -996174.000000 0 0 1
-18.582955 23.839490 -18.039429 35.200405 -0.908679 2.108864 0.081190 -0.025573 566597.000000 0 0 1
-17.355055 24.584650 -18.054429 35.093665 -0.956101 2.111179 0.098018 -0.036762 267973.000000 0 0 1
-17.336455 25.892560 -17.250329 35.616726 -0.980798 2.076396 0.122255 -0.045451 -632016.000000 0 0 1
-18.157155 26.891900 -17.728529 36.975090 -0.976916 2.070850 0.085036 -0.035768 -248509.000000 0 0 1
-17.747855 28.114500 -17.107629 37.390940 -1.007701 2.046016 0.106104 -0.047885 -152361.000000 0 0 1
-18.910455 29.156320 -17.079629 38.722216 -0.995414 2.027599 0.088690 -0.034930 405905.000000 0 0 1
-19.235755 29.690550 -18.364529 39.859741 -0.995917 2.049612 0.069593 -0.034149 100206.000000 0 0 1
-19.827255 28.810380 -19.277329 39.934615 -0.968035 2.074557 0.042810 -0.023096 -790467.000000 0 0 1
-19.983455 29.358190 -20.689229 41.100924 -0.973157 2.098298 0.045262 -0.026093 287888.000000 0 0 1
-20.723555 30.593250 -20.833729 42.420006 -0.975407 2.084183 0.058119 -0.017522 399173.000000 0 0 1
-21.035555 30.672560 -22.198329 43.313581 -0.969657 2.108893 0.056584 -0.016271 -184265.000000 0 0 1
-21.768455 31.933376 -22.696629 44.819004 -0.972469 2.101808 0.066508 -0.014908 -92158.200000 0 0 1
-21.120155 33.177136 -22.389729 45.255754 -1.003908 2.088329 0.047605 -0.015575 -59117.200000 0 0 1
-21.302855 -33.566408 -23.448129 46.155500 1.005289 2.103686 0.062140 -0.007176 -174078.000000 0 0 1
-20.192255 -32.469748 -23.479529 44.869812 1.014444 2.121493 0.073052 -0.010558 210618.000000 0 0 1
-20.211355 -31.641018 -22.341729 43.689882 1.002356 2.107575 0.059463 -0.016286 250669.000000 0 0 1
-19.613955 -32.300568 -21.237229 43.348055 1.025076 2.082798 0.058678 -0.029920 -610638.000000 0 0 1
-19.544155 -31.408858 -20.000429 42.053627 1.014177 2.066435 0.085861 -0.036041 385536.000000 0 0 1
-18.580555 -30.369738 -20.237229 40.952454 1.021737 2.087669 0.095041 -0.040205 412331.000000 0 0 1
-18.327555 -29.719128 -19.011129 39.756118 1.018193 2.069393 0.091034 -0.038709 -16046.900000 0 0 1
-17.088555 -28.776728 -19.093929 38.531766 1.034924 2.089250 0.104556 -0.037265 130651.000000 0 0 1
-15.918355 -29.549418 -19.278729 38.706996 1.076668 2.092166 0.115846 -0.046151 -752485.000000 0 0 1
-14.930155 -28.681568 -19.757029 37.893035 1.090845 2.119275 0.110801 -0.046570 -607020.000000 0 0 1
-13.629455 -29.424298 -20.168529 38.187969 1.137016 2.127203 0.202253 -0.065177 409669.000000 0 0 1
-12.916455 -29.971878 -19.045929 37.787508 1.163895 2.099052 0.199379 -0.060579 367408.000000 0 0 1
-11.997955 -29.063138 -18.419929 36.440510 1.179284 2.100734 0.165966 -0.052522 -80715.600000 0 0 1
-11.123255 -29.761808 -17.383629 36.217159 1.213129 2.071432 0.170893 -0.032348 -490571.000000 0 0 1
-11.866755 -30.254498 -16.340529 36.375369 1.197005 2.036688 0.193869 -0.049012 -306204.000000 0 0 1
-12.146455 -31.633608 -16.441229 37.663451 1.204182 2.022535 0.200174 -0.045615 39858.000000 0 0 1
-13.177055 -32.127328 -15.391829 37.983002 1.181570 1.988026 0.189193 -0.056847 93089.400000 0 0 1
-12.645455 -32.142258 -14.050529 37.288734 1.195974 1.957139 0.168662 -0.050501 480650.000000 0 0 1
-13.660255 -32.369798 -13.073829 37.487750 1.171464 1.927033 0.160191 -0.044980 128966.000000 0 0 1
-13.204255 -33.143028 -11.831829 37.587297 1.191668 1.891024 0.130940 -0.041356 371085.000000 0 0 1
-12.099055 -32.514268 -11.177429 36.448590 1.214557 1.882481 0.119534 -0.035997 445960.000000 0 0 1
-11.925455 -32.954268 -9.905029 36.418538 1.223578 1.846244 0.115356 -0.039969 -814974.000000 0 0 1
-10.665755 -32.438018 -9.235229 35.373335 1.253128 1.834936 0.111471 -0.045978 -116264.000000 0 0 1
-9.490355 -33.091478 -9.690829 35.763458 1.291501 1.845197 0.087207 -0.032178 608420.000000 0 0 1
-8.292855 -32.313808 -9.489429 34.684333 1.319583 1.847924 0.084133 -0.041015 1491610.000000 0 0 1
-7.015455 -32.963658 -10.144229 35.195522 1.361101 1.863169 0.085981 -0.045533 749578.000000 0 0 1
-6.400255 33.681920 -9.339629 35.533979 -1.383015 1.836757 0.070846 -0.022958 155818.000000 0 0 1
-5.138055 33.314775 -9.883429 35.127710 -1.417774 1.856004 0.075267 -0.019302 235224.000000 0 0 1
-4.243255 32.402620 -9.061229 33.912252 -1.440583 1.841279 0.078265 -0.026428 -105158.000000 0 0 1
-3.614755 33.003554 -7.947029 34.138780 -1.461705 1.805738 0.101449 -0.028294 -521719.000000 0 0 1
-2.795355 32.078768 -7.348029 33.028092 -1.483876 1.795152 0.097651 -0.040447 -255369.000000 0 0 1
-2.308955 32.410976 -5.920529 33.028098 -1.499677 1.751028 0.111220 -0.037479 -508077.000000 0 0 1
-1.346855 33.400834 -5.788129 33.925391 -1.530494 1.742249 0.098135 -0.036726 -520778.000000 0 0 1
-1.169955 -33.819088 -4.419829 34.126741 1.536216 1.700673 0.107764 -0.039013 200213.000000 0 0 1
-0.132955 32.961053 -3.632629 33.160891 -1.566763 1.680562 0.109438 -0.044926 398656.000000 0 0 1
1.205845 33.191119 -4.120629 33.467656 1.534482 1.694232 0.109532 -0.047586 468755.000000 0 0 1
2.036545 32.246442 -3.441229 32.493423 1.507724 1.676901 0.097991 -0.038768 873937.000000 0 0 1
3.492745 32.223160 -4.061629 32.665396 1.462825 1.695459 0.077932 -0.030230 845265.000000 0 0 1
4.194245 33.397477 -3.647429 33.856859 1.445865 1.678737 0.068706 -0.033124 225080.000000 0 0 1
5.530745 33.249364 -4.134029 33.958791 1.405964 1.692836 0.066284 -0.023220 1022430.000000 0 0 1
6.562745 -33.274558 -3.745329 34.121743 -1.376066 1.680782 0.074477 -0.021625 431993.000000 0 0 1
6.460545 -32.114978 -4.537129 33.071075 -1.372277 1.708424 0.073329 -0.024501 -182585.000000 0 0 1
7.007145 -31.010708 -3.856629 32.025579 -1.348569 1.691513 0.060147 -0.030905 -59694.000000 0 0 1
6.705045 -29.643628 -4.548729 30.730982 -1.348351 1.719360 0.062097 -0.029786 75309.700000 0 0 1
7.564145 -29.495668 -5.679529 30.975277 -1.319757 1.755196 0.074447 -0.033457 102179.000000 0 0 1
7.291845 -28.387588 -6.499629 30.021182 -1.319365 1.789026 0.060436 -0.026973 -140593.000000 0 0 1
7.736945 -27.052278 -5.923329 28.753642 -1.292233 1.778285 0.054194 -0.023656 -320731.000000 0 0 1
6.843545 -26.562458 -4.976529 27.877664 -1.318640 1.750271 0.047267 -0.023687 -476320.000000 0 0 1
7.218845 -25.284258 -4.467829 26.671463 -1.292688 1.739103 0.046414 -0.021185 -386256.000000 0 0 1
6.255545 -24.717028 -3.453229 25.729130 -1.322915 1.705417 0.047942 -0.022903 -22946.800000 0 0 1
5.096745 -24.103628 -4.016129 24.961791 -1.362414 1.732390 0.035262 -0.024493 -316879.000000 0 1 0
4.324845 -23.597428 -2.976729 24.174446 -1.389532 1.694245 0.043004 -0.019988 -602709.000000 0 1 0
3.076645 -22.923628 -3.543729 23.399071 -1.437381 1.722829 0.056543 -0.021055 -149254.000000 0 1 0
2.159445 -23.860528 -4.102529 24.306764 -1.480539 1.740390 0.069341 -0.028229 -630556.000000 0 1 0
1.093645 -23.145428 -4.643629 23.631974 -1.523580 1.768581 0.081127 -0.028838 -114565.000000 0 1 0
-15.968255 23.068772 17.908056 33.284409 -0.965323 1.002696 0.032637 -0.019739 -134978.000000 0 0 1
-16.013655 22.364872 19.163556 33.524118 -0.949401 0.962299 0.056062 -0.018048 287751.000000 0 0 1
-15.861255 23.298272 20.248856 34.704539 -0.973079 0.947809 0.067013 -0.018173 -893960.000000 0 0 1
-15.723755 22.604972 21.641656 35.022600 -0.963037 0.904684 0.084242 -0.020745 -359287.000000 0 0 1
-14.594655 21.815872 21.944956 34.212824 -0.981185 0.874442 0.081176 -0.018029 140997.000000 0 0 1
-13.322755 22.429972 21.890256 34.055583 -1.034822 0.872674 0.058119 -0.020275 -266933.000000 0 0 1
-12.910555 23.521772 22.898826 35.274813 -1.068816 0.864323 0.083800 -0.017606 -648281.000000 0 0 1
-12.743055 23.041572 24.195066 35.758925 -1.065617 0.827639 0.079021 -0.016598 195969.000000 0 0 1
-12.382055 24.118872 25.131446 36.967889 -1.096505 0.823282 0.094582 -0.026808 -53463.300000 0 0 1
-11.777455 23.501572 26.414396 37.265971 -1.106241 0.782990 0.093105 -0.024889 838149.000000 0 0 1
-10.404955 23.114972 26.244636 36.487613 -1.147827 0.768038 0.055133 -0.017545 343907.000000 0 0 1
-9.939555 22.229972 27.229866 36.529878 -1.150337 0.729641 0.046412 -0.011792 -1533940.000000 0 0 1
-8.449155 22.066872 27.376196 36.163395 -1.205128 0.712065 0.054499 -0.023586 -518376.000000 0 0 1
-7.760455 23.213972 27.916036 37.127055 -1.248175 0.719849 0.051350 -0.025850 134677.000000 0 0 1
-7.590955 24.267372 27.016226 37.099924 -1.267634 0.755102 0.049089 -0.019062 -1311070.000000 0 0 1
-6.631455 25.301572 27.528376 37.973112 -1.314465 0.759843 0.057800 -0.024362 170252.000000 0 0 1
-5.276355 24.841472 27.554686 37.472648 -1.361506 0.744646 0.081267 -0.022027 1112870.000000 0 0 1
-4.338855 25.862572 28.056936 38.404296 -1.404578 0.751643 0.103554 -0.016012 2182600.000000 0 0 1
-2.831255 25.356272 28.032346 37.904735 -1.459598 0.738399 0.105851 -0.025564 1310970.000000 0 0 1
-2.155355 25.509372 26.750766 37.026708 -1.486504 0.763425 0.107676 -0.020776 372089.000000 0 0 1
-0.837655 25.005172 26.926876 36.756182 -1.537310 0.748690 0.114409 -0.011515 461788.000000 0 0 1
-0.052755 24.820572 25.613006 35.666365 -1.568671 0.769688 0.111869 -0.018085 304358.000000 0 0 1
-0.479555 23.605072 24.926266 34.332901 -1.550483 0.758284 0.104273 -0.003654 174811.000000 0 0 1
0.082145 23.521372 23.619156 33.333560 1.567304 0.783327 0.098529 0.006394 -90171.500000 0 0 1
-0.183355 22.184072 22.910756 31.891525 -1.562531 0.769302 0.075228 0.003812 -175454.000000 0 0 1
0.525745 21.029272 23.222606 31.333626 1.545801 0.736029 0.088706 0.008494 -402132.000000 0 0 1
0.003245 19.877372 22.523976 30.040629 1.570633 0.723061 0.072868 0.011421 -90953.800000 0 0 1
0.791945 18.576572 22.603416 29.268252 1.528191 0.688367 0.070314 0.012076 927469.000000 0 0 1
2.032945 18.669472 21.856156 28.816203 1.462332 0.709838 0.076458 0.013546 587359.000000 0 0 1
2.812145 17.500672 21.870756 28.151583 1.411470 0.681081 0.055613 0.007883 920024.000000 0 0 1
4.272045 17.747272 21.323356 28.069584 1.334575 0.708005 0.060591 0.002126 1001360.000000 0 0 1
5.168145 18.345572 22.227956 29.280569 1.296202 0.708810 0.055741 0.006432 -528208.000000 0 0 1
6.335745 18.817072 21.597856 29.337539 1.246017 0.743380 0.072947 -0.014189 116440.000000 0 0 1
7.317545 19.465472 22.633256 30.736222 1.211216 0.743106 0.089103 -0.020427 -219225.000000 0 0 1
7.018845 20.673472 23.270796 31.909036 1.243497 0.753519 0.073972 -0.014559 -19241.100000 0 0 1
6.979445 21.817372 22.425086 32.056120 1.261181 0.796019 0.089160 -0.025899 -208551.000000 0 0 1
5.770145 22.684072 22.842556 32.705413 1.321709 0.797590 0.066151 -0.013372 87812.300000 0 0 1
5.711445 23.878272 22.154456 33.069811 1.336017 0.836682 0.070278 -0.024842 -444801.000000 0 0 1
4.599345 24.595572 22.560026 33.690516 1.385933 0.837092 0.053693 -0.008300 -820035.000000 0 0 1
4.416745 26.021172 21.929356 34.314802 1.402662 0.877516 0.054089 -0.002135 -181125.000000 0 0 1
4.253945 25.979972 20.499656 33.366014 1.408497 0.909187 0.064925 -0.010020 262829.000000 0 0 1
2.966745 25.517872 20.105956 32.622275 1.455054 0.906728 0.084376 -0.011789 141574.000000 0 0 1
2.465345 25.940172 18.666556 32.053248 1.476041 0.949167 0.086426 -0.023407 -24877.700000 0 0 1
1.896045 27.261772 18.528656 33.016818 1.501359 0.974975 0.132520 -0.035933 419573.000000 0 0 1
1.381745 27.489472 17.224756 32.469562 1.520574 1.011619 0.142684 -0.029980 -237695.000000 0 0 1
0.839245 28.922572 17.095556 33.607700 1.541788 1.037146 0.156779 -0.025795 -486936.000000 0 0 1
1.618545 30.037372 17.453756 34.777823 1.516964 1.045043 0.189404 -0.037042 -473721.000000 0 0 1
0.922545 31.221072 17.435056 35.771323 1.541256 1.061683 0.169088 -0.041700 -385900.000000 0 0 1
1.668645 32.290972 18.240156 37.124042 1.519167 1.057180 0.187397 -0.034730 44478.400000 0 0 1
1.609445 32.130872 19.620756 37.682321 1.520748 1.023139 0.218015 -0.040165 -618751.000000 0 0 1
2.528245 32.943272 20.216756 38.734589 1.494201 1.021684 0.235214 -0.039584 -822082.000000 0 0 1
2.517945 32.742972 21.764756 39.397295 1.494047 0.985504 0.220269 -0.062130 -345554.000000 0 0 1
1.355245 33.079572 22.467496 40.011037 1.529850 0.974560 0.212649 -0.047012 -414779.000000 0 0 1
1.319545 32.566372 23.767396 40.338553 1.530300 0.940730 0.217958 -0.053033 -388604.000000 0 0 1
-0.087555 32.503972 24.372866 40.626991 -1.568103 0.927398 0.186790 -0.033388 -514188.000000 0 0 1
-0.625955 33.775072 24.727136 41.863809 -1.552265 0.938924 0.201102 -0.026513 664042.000000 0 0 1
-1.683355 33.477272 25.688056 42.230766 -1.520555 0.916907 0.194399 -0.024538 276441.000000 0 0 1
-1.390955 33.512772 27.193736 43.180318 -1.529315 0.889537 0.191261 -0.032715 32998.800000 0 0 1
-0.359455 32.558172 27.545356 42.648685 -1.559756 0.868639 0.206006 -0.046907 726020.000000 0 0 1
0.032445 32.630272 28.869746 43.568313 1.569802 0.846469 0.196756 -0.046348 -712800.000000 0 0 1
1.144345 31.652272 29.250756 43.113600 1.534658 0.825135 0.168114 -0.040312 511026.000000 0 0 1
2.495545 32.065572 29.004426 43.309183 1.493127 0.836983 0.157255 -0.038909 837796.000000 0 0 1
2.968045 32.020572 27.660376 42.417245 1.478369 0.860442 0.158122 -0.040994 -540123.000000 0 0 1
4.504445 31.888172 27.615226 42.423416 1.430467 0.861970 0.118901 -0.032199 -47715.500000 0 0 1
4.856845 30.563972 28.091936 41.795959 1.413206 0.833727 0.107760 -0.031394 875221.000000 0 0 1
6.277245 30.438972 27.869206 41.744789 1.367423 0.839803 0.096111 -0.040918 782554.000000 0 0 1
6.845245 29.203472 28.629146 41.464782 1.340555 0.808692 0.099967 -0.022410 1711.660000 0 0 1
6.837445 29.302172 30.061406 42.532999 1.341556 0.785862 0.125634 -0.033962 118234.000000 0 0 1
7.792445 28.454872 30.678636 42.562667 1.303497 0.765859 0.095966 -0.024314 156713.000000 0 0 1
7.855945 28.406372 32.198600 43.650746 1.300984 0.741226 0.133700 -0.040852 -775552.000000 0 0 1
6.650945 27.827272 32.601885 43.375973 1.336189 0.720294 0.138692 -0.045872 -229603.000000 0 0 1
6.599645 27.872172 -33.373949 43.979924 1.338296 2.432334 0.146570 -0.044105 35866.100000 0 0 1
6.616445 26.574672 -32.642279 42.608789 1.326782 2.443536 0.134815 -0.037057 453512.000000 0 0 1
7.913245 25.985172 -32.735599 42.537842 1.275189 2.448955 0.124805 -0.040335 290155.000000 0 0 1
7.957645 24.640572 -32.293479 41.392640 1.258421 2.465741 0.133005 -0.047086 -295066.000000 0 0 1
9.289845 23.881172 -32.340779 41.261817 1.199806 2.471549 0.147429 -0.051763 -632559.000000 0 0 1
9.792945 23.738572 -33.645579 42.325483 1.179533 2.489680 0.130546 -0.036492 148094.000000 0 0 1
11.051345 23.096372 -33.662379 42.293385 1.124506 2.491331 0.138317 -0.051568 -173290.000000 0 0 1
11.046345 21.509772 -33.505329 41.319476 1.096368 2.516459 0.144150 -0.052565 -523301.000000 0 0 1
10.294545 20.882272 32.825469 40.243736 1.112780 0.616916 0.132425 -0.055231 460635.000000 0 0 1
9.666245 19.630972 33.086552 39.667761 1.113249 0.584312 0.125151 -0.052395 1015840.000000 0 0 1
8.317645 19.716372 -33.466509 39.723114 1.171584 2.572694 0.145402 -0.058359 377083.000000 0 0 1
8.479245 20.100872 -32.123199 38.830948 1.171610 2.545005 0.155885 -0.052298 413159.000000 0 0 1
7.264145 20.717372 -31.705919 38.564784 1.233560 2.535968 0.171579 -0.049200 243826.000000 0 0 1
7.274645 21.239872 -30.225869 37.651770 1.240819 2.502730 0.172865 -0.055644 616053.000000 0 0 1
8.394745 22.114972 -29.982259 38.190045 1.208003 2.473622 0.170931 -0.051934 650372.000000 0 0 1
8.413045 22.368872 -28.558129 37.238589 1.211057 2.444787 0.142273 -0.044686 -853237.000000 0 0 1
9.762945 22.882472 -28.109299 37.537385 1.167524 2.417098 0.149722 -0.056610 -592086.000000 0 0 1
10.763345 21.942772 -28.341349 37.424148 1.114762 2.429967 0.156499 -0.049119 -652455.000000 0 0 1
12.068345 22.387472 -28.614259 38.283412 1.076386 2.414985 0.161116 -0.050775 512767.000000 0 0 1
13.064845 21.185772 -28.826979 38.085717 1.018202 2.429349 0.162541 -0.064635 107292.000000 0 0 1
12.896345 20.239972 -29.890159 38.332672 1.003492 2.465073 0.168664 -0.058051 -504450.000000 0 0 1
11.645345 19.611172 -29.919319 37.621507 1.034939 2.490252 0.178744 -0.055599 -370251.000000 0 0 1
11.492045 18.552872 -30.974679 37.890723 1.016219 2.527808 0.168723 -0.061414 -174416.000000 0 0 1
11.998645 17.245572 -30.686579 37.189291 0.962927 2.541256 0.169231 -0.053897 261795.000000 0 0 1
11.962045 16.284772 -31.719209 37.608410 0.937254 2.574390 0.154570 -0.053498 862235.000000 0 0 1
13.360145 16.219372 -32.460409 38.668329 0.881761 2.567080 0.136858 -0.044474 892939.000000 0 0 1
13.837745 17.436972 -33.028129 39.829493 0.899978 2.548539 0.138765 -0.054484 152253.000000 0 0 1
14.517245 17.337972 33.107272 40.092981 0.873716 0.599244 0.145058 -0.056279 538889.000000 0 0 1
13.524445 17.393172 31.855125 38.732183 0.909881 0.605099 0.137668 -0.056415 336358.000000 0 0 1
14.164445 17.637972 30.580136 38.037800 0.894189 0.636904 0.120450 -0.052486 -6789.210000 0 0 1
13.407645 17.323872 29.392746 36.658082 0.912149 0.640482 0.119975 -0.044989 1214750.000000 0 0 1
11.904045 17.809472 29.238086 36.245679 0.981587 0.632311 0.123947 -0.040354 1524780.000000 0 0 1
10.958945 16.890272 29.815376 35.976887 0.995243 0.593949 0.109212 -0.041049 51704.600000 0 0 1
9.658745 17.422072 29.834376 35.873527 1.064584 0.588716 0.107557 -0.035796 629888.000000 0 0 1
8.582145 16.547272 30.621036 35.848476 1.092345 0.546825 0.130651 -0.037409 822494.000000 0 0 1
8.793545 16.470572 32.024556 37.069911 1.080402 0.527842 0.154080 -0.041397 -535084.000000 0 0 1
7.981945 15.524072 32.583991 36.965182 1.095881 0.491814 0.165319 -0.045352 -590934.000000 0 0 1
7.665245 15.597972 -33.290889 37.554440 1.114032 2.660457 0.163407 -0.045448 -568274.000000 0 0 1
6.797845 16.612172 -32.961709 37.531976 1.182377 2.642945 0.156706 -0.048840 -487713.000000 0 0 1
6.787045 16.754772 -31.563649 36.373758 1.185917 2.621471 0.159392 -0.051748 -139069.000000 0 0 1
5.641545 17.601472 -30.982349 36.076929 1.260626 2.603691 0.140761 -0.046298 -583921.000000 0 0 1
5.705545 17.609272 -29.592229 34.904723 1.257462 2.582620 0.136964 -0.056370 28110.000000 0 0 1
4.918045 18.621572 -29.005309 34.817496 1.312587 2.555426 0.138703 -0.057932 1087060.000000 0 0 1
3.372145 18.390972 -28.812299 34.347457 1.389452 2.565960 0.157248 -0.056006 -98503.300000 0 0 1
3.052845 17.445072 -27.774489 32.940441 1.397553 2.573954 0.176792 -0.055942 508301.000000 0 0 1
1.678645 17.062672 -27.719729 32.593496 1.472731 2.587671 0.172636 -0.053185 724232.000000 0 0 1
0.550745 18.082372 -27.516969 32.931126 1.540348 2.560005 0.170481 -0.056959 -708885.000000 0 0 1
0.317445 18.558572 -26.190569 32.100892 1.553693 2.525051 0.184135 -0.062482 705209.000000 0 0 1
-0.622355 19.699572 -26.172349 32.763582 -1.539215 2.496135 0.190239 -0.051105 739088.000000 0 0 1
-0.990955 20.180172 -24.778629 31.971890 -1.521730 2.457532 0.164842 -0.060387 -36117.300000 0 0 1
-2.116655 19.480472 -24.297929 31.214714 -1.462566 2.462930 0.155452 -0.051509 -116790.000000 0 0 1
-2.415955 19.701972 -22.918629 30.319434 -1.448780 2.427833 0.140328 -0.051086 -110779.000000 0 0 1
-3.604355 18.916072 -22.331329 29.487241 -1.382509 2.429998 0.122019 -0.038789 -572371.000000 0 0 1
-4.817355 19.560472 -22.549629 30.237472 -1.329322 2.412458 0.128027 -0.033076 -1416280.000000 0 0 1
-5.848655 18.649172 -22.254129 29.618316 -1.266896 2.420923 0.117288 -0.036589 -886922.000000 0 0 1
-7.230555 19.243372 -22.320429 30.344519 -1.211375 2.397300 0.161406 -0.032086 -869392.000000 0 0 1
-7.586455 20.280972 -21.387629 30.435223 -1.212843 2.350018 0.109415 -0.027334 -326626.000000 0 0 1
-6.913955 21.495572 -21.511329 31.186530 -1.259601 2.331959 0.107898 -0.034459 -289493.000000 0 0 1
-7.389255 22.618172 -20.531829 31.428312 -1.255032 2.282719 0.115455 -0.040314 66799.800000 0 0 1
-6.916655 22.308072 -19.257529 30.271151 -1.270144 2.260317 0.135175 -0.042194 -13854.900000 0 0 1
-7.162955 23.370772 -18.382529 30.584608 -1.273394 2.215596 0.132949 -0.044884 -476992.000000 0 0 1
-6.523855 23.396672 -17.004329 29.649825 -1.298866 2.181575 0.147902 -0.040779 416763.000000 0 0 1
-5.129955 23.640372 -17.189129 29.675744 -1.357110 2.188582 0.144684 -0.046679 5163.870000 0 0 1
-4.433155 23.544172 -15.965129 28.790037 -1.384684 2.158602 0.129454 -0.043889 -32747.100000 0 0 1
-2.930755 23.887972 -16.007229 28.904254 -1.448719 2.157720 0.119397 -0.045260 255316.000000 0 0 1
-2.715255 25.251872 -16.198029 30.123177 -1.463681 2.138535 0.098769 -0.045093 -305692.000000 0 0 1
-1.440355 25.435072 -16.783829 30.507612 -1.514228 2.153343 0.097462 -0.045538 363856.000000 0 0 1
-1.152855 26.930172 -17.182629 31.965700 -1.528013 2.138305 0.086672 -0.051059 163233.000000 0 0 1
-2.091355 27.370872 -18.135129 32.900172 -1.494536 2.154618 0.088309 -0.052218 -55949.100000 0 0 1
-1.547955 28.447872 -18.868229 34.171445 -1.516436 2.155753 0.097735 -0.056269 -319009.000000 0 0 1
-2.572055 29.419672 -19.502629 35.390466 -1.483592 2.154442 0.137450 -0.046720 193370.000000 0 0 1
-3.174355 30.398772 -18.656529 35.808210 -1.466750 2.118833 0.130639 -0.041881 642659.000000 0 0 1
-4.425055 29.940972 -18.098829 35.264862 -1.424066 2.109735 0.082279 -0.042945 656906.000000 0 0 1
-5.168855 31.007272 -17.259029 35.861428 -1.405617 2.072899 0.121534 -0.033190 293913.000000 0 0 1
-5.699255 32.109672 -17.998529 37.248618 -1.395132 2.075102 0.174905 -0.051063 51425.600000 0 0 1
-6.327255 33.049372 -17.153629 37.769592 -1.381637 2.042231 0.173825 -0.062299 -277645.000000 0 0 1
-6.977855 -33.347407 -17.750429 38.416373 1.364525 2.051106 0.173356 -0.055322 -140451.000000 0 0 1
-8.183555 -33.733307 -18.363029 39.269675 1.332798 2.057385 0.171908 -0.067562 142550.000000 0 0 1
-9.115755 -32.648307 -18.457929 38.596685 1.298520 2.069430 0.215568 -0.070932 280596.000000 0 0 1
28.543645 -19.878828 -26.997279 44.031359 -0.608330 2.230823 0.099983 -0.014552 3144.390000 0 0 1
29.083645 -21.140628 -26.630549 44.743387 -0.628546 2.208291 0.080588 -0.019066 -16306.400000 0 0 1
28.326345 -21.677328 -25.553729 43.878029 -0.653203 2.192451 0.061488 -0.017472 14953.800000 0 0 1
28.921445 -22.885928 -24.760129 44.421613 -0.669422 2.162034 0.070053 -0.012159 -39684.200000 0 0 1
29.081345 -24.047628 -25.481119 45.533509 -0.690935 2.164714 0.073687 -0.002928 -368412.000000 0 0 1
30.345645 -24.248228 -26.061549 46.776480 -0.674172 2.161747 0.092720 -0.010529 -359493.000000 0 0 1
30.622645 -25.628608 -26.637229 48.001187 -0.696849 2.159073 0.093157 -0.015493 -203382.000000 0 0 1
30.626645 -26.648158 -25.669729 48.031768 -0.716046 2.134632 0.113975 -0.016528 -313215.000000 0 0 1
30.821245 -27.944128 -26.136719 49.131981 -0.736478 2.131721 0.108845 -0.015064 -294790.000000 0 0 1
29.751645 -28.717068 -26.908279 49.334429 -0.767705 2.147694 0.087733 -0.013559 -564205.000000 0 0 1
29.299645 -28.114388 -28.098609 49.380359 -0.764757 2.176115 0.077489 -0.018165 69575.100000 0 0 1
30.123945 -28.226918 -29.268269 50.604768 -0.752899 2.187525 0.057499 -0.014484 -304911.000000 0 0 1
30.312345 -29.666168 -29.869279 51.875752 -0.774625 2.184360 0.070074 -0.009223 -161174.000000 0 0 1
31.087645 -30.629758 -29.147759 52.480621 -0.777979 2.159641 0.079700 -0.008011 851729.000000 0 0 1
32.445745 -30.345088 -28.803129 52.944981 -0.751956 2.146017 0.087206 -0.009257 349485.000000 0 0 1
33.499745 -29.985098 -29.841079 53.961366 -0.730093 2.156767 0.092546 -0.021322 -807256.000000 0 0 1
33.334945 -28.713328 -30.458049 53.510434 -0.711051 2.176327 0.087664 -0.020013 -713645.000000 0 0 1
34.488145 -28.287468 -31.104669 54.379348 -0.686942 2.179731 0.076921 -0.018733 -545943.000000 0 0 1
34.301145 -26.915228 -31.793099 53.961090 -0.665326 2.200847 0.068697 -0.015181 126096.000000 0 0 1
34.353145 -25.766268 -30.950889 52.933890 -0.643527 2.195317 0.081013 -0.012110 13910.700000 0 0 1
33.317945 -25.581258 -29.977569 51.605628 -0.654791 2.190627 0.073686 -0.013376 113994.000000 0 0 1
33.302745 -24.189428 -29.264609 50.503649 -0.628192 2.188857 0.073596 -0.012066 -63933.600000 0 0 1
34.406345 -24.047828 -28.388139 50.675251 -0.610011 2.165420 0.086189 -0.018172 173296.000000 0 0 1
34.358945 -22.840528 -27.755009 49.724917 -0.586683 2.162976 0.086075 -0.017005 -340829.000000 0 0 1
35.491545 -22.563828 -26.773989 49.856019 -0.566294 2.137704 0.105879 -0.016145 -568906.000000 0 0 1
35.511845 -23.307428 -25.517249 49.552572 -0.580811 2.111749 0.094995 -0.021144 500316.000000 0 0 1
34.415045 -23.045028 -24.613929 48.180018 -0.590045 2.106998 0.112444 -0.012143 560378.000000 0 0 1
34.502845 -21.645728 -23.926929 47.238563 -0.560295 2.101932 0.127412 -0.017500 -85997.700000 0 0 1
33.986645 -20.556428 -24.711729 46.779572 -0.543970 2.127345 0.125384 -0.030582 212667.000000 0 0 1
34.182045 -19.351428 -24.028529 46.046283 -0.515142 2.119796 0.104554 -0.034560 -18602.800000 0 0 1
34.049145 -18.125328 -25.015329 45.974324 -0.489175 2.146131 0.092805 -0.044508 327947.000000 0 0 1
32.782845 -17.972428 -25.641329 45.334323 -0.501481 2.171963 0.116673 -0.031027 318508.000000 0 0 1
32.781245 -16.759628 -26.392369 45.299584 -0.472612 2.192743 0.129974 -0.032065 59696.100000 0 0 1
31.524245 -16.557228 -27.265369 44.847744 -0.483621 2.224278 0.094649 -0.020306 268194.000000 0 0 1
30.298245 -16.329228 -26.576789 43.485090 -0.494320 2.228334 0.073701 -0.011883 162531.000000 0 0 1
29.349045 -15.965428 -27.545619 43.301530 -0.498213 2.260275 0.029461 -0.004319 -384351.000000 0 0 1
27.919045 -15.819628 -27.009499 41.943376 -0.515517 2.270448 -0.017286 0.000449 -123677.000000 0 0 1
27.337745 -16.969428 -26.455819 41.656022 -0.555525 2.258937 0.025847 0.014908 -47649.600000 0 0 1
27.268645 -16.878328 -25.044329 40.689991 -0.554248 2.233805 0.044826 0.005522 -243940.000000 0 0 1
26.789145 -18.034228 -24.128729 40.312371 -0.592506 2.212479 0.059750 0.008896 -148510.000000 0 0 1
26.486445 -17.566228 -22.795029 39.111603 -0.585610 2.192991 0.063941 0.003312 99090.200000 0 0 1
25.907045 -18.559128 -21.947729 38.695207 -0.621631 2.173892 0.094664 -0.008792 102009.000000 0 0 1
25.979945 -18.068028 -20.495929 37.702709 -0.607673 2.145540 0.094762 -0.019771 36119.500000 0 0 1
25.128445 -16.989028 -20.124029 36.401132 -0.594496 2.156566 0.093054 -0.022999 35404.400000 0 0 1
25.285445 -15.739528 -20.824629 36.342147 -0.556781 2.180977 0.079477 -0.020788 -166219.000000 0 0 1
26.543745 -14.859328 -20.586229 36.730952 -0.510340 2.165737 0.081548 -0.017738 157423.000000 0 0 1
26.663545 -14.136628 -19.367629 35.859363 -0.487503 2.141352 0.095743 -0.032687 1471870.000000 0 0 1
27.932545 -13.410928 -19.298829 36.503765 -0.447616 2.127842 0.081118 -0.024900 1086180.000000 0 0 1
28.069145 -12.487028 -18.141929 35.678178 -0.418577 2.104224 0.096025 -0.022304 -175501.000000 0 0 1
28.305645 -13.164028 -16.911329 35.503440 -0.435313 2.067272 0.104679 -0.024256 352493.000000 0 0 1
28.203545 -12.195528 -15.880329 34.588375 -0.408131 2.047804 0.097001 -0.023107 -234256.000000 0 0 1
28.597445 -12.782428 -14.544029 34.535968 -0.420338 2.005484 0.121037 -0.039488 -365895.000000 0 0 1
27.730845 -13.723128 -13.968129 33.947498 -0.459534 1.994855 0.149690 -0.046251 37225.400000 0 0 1
28.109545 -14.014528 -12.675529 33.870674 -0.462502 1.954366 0.160117 -0.041320 -77643.400000 0 0 1
27.376245 -15.288428 -12.098129 33.608921 -0.509312 1.939030 0.158527 -0.061213 583881.000000 0 0 1
26.061145 -15.066428 -11.582029 32.254053 -0.524175 1.938086 0.136436 -0.057628 511364.000000 0 0 1
25.562945 -16.228728 -11.059629 32.235868 -0.565654 1.920995 0.116662 -0.054174 922180.000000 0 0 1
24.014445 -16.255528 -10.705129 30.911738 -0.595058 1.924434 0.126151 -0.053784 816932.000000 0 0 1
23.743345 -15.492828 -9.578229 29.925184 -0.578139 1.896602 0.104827 -0.052327 548930.000000 0 0 1
22.416545 -15.713228 -9.128029 28.857026 -0.611374 1.892643 0.115377 -0.052223 -155124.000000 0 0 1
22.169245 -15.396128 -7.621029 28.046324 -0.607013 1.845987 0.097502 -0.035878 -424462.000000 0 0 1
22.455945 -14.074928 -7.228429 27.470407 -0.559878 1.837067 0.111779 -0.034422 271174.000000 0 0 1
22.258545 -13.808828 -5.878729 26.845596 -0.555273 1.791568 0.098523 -0.024494 -387822.000000 0 0 1
23.183845 -14.513828 -4.868229 27.782036 -0.559341 1.746935 0.095416 -0.019498 -199213.000000 0 0 1
24.548245 -14.135428 -4.973129 28.760366 -0.522452 1.744586 0.125315 -0.024911 -234550.000000 0 0 1
25.219045 -14.904728 -4.094829 29.579026 -0.533784 1.709679 0.133870 -0.029571 -197059.000000 0 0 1
26.770745 -14.813728 -4.294429 30.895978 -0.505415 1.710244 0.142980 -0.026416 412745.000000 0 0 1
27.256845 -13.688928 -3.626229 30.715987 -0.465422 1.689129 0.152745 -0.032121 -550253.000000 0 0 1
28.620645 -13.485028 -3.820229 31.868189 -0.440314 1.690961 0.179449 -0.049157 -613862.000000 0 0 1
29.037845 -12.151028 -3.195829 31.639489 -0.396314 1.671976 0.223187 -0.049812 -819787.000000 0 0 1
29.335745 -12.259028 -1.808229 31.845555 -0.395831 1.627608 0.244470 -0.052278 551131.000000 0 0 1
29.927945 -11.108628 -1.194429 31.945425 -0.355417 1.608195 0.241227 -0.049675 551425.000000 0 0 1
31.397045 -10.734028 -1.560529 33.217902 -0.329423 1.617792 0.273576 -0.063824 -30058.500000 0 0 1
31.535645 -10.021328 -2.759829 33.204526 -0.307686 1.654008 0.277884 -0.071771 211320.000000 0 0 1
32.789645 -10.269528 -3.372129 34.525285 -0.303517 1.668624 0.321461 -0.071773 -28117.200000 0 0 1
32.655745 -10.054528 -4.907829 34.519241 -0.298684 1.713456 0.284082 -0.073194 165970.000000 0 0 1
31.768045 -10.875128 -5.702729 34.058746 -0.329825 1.739027 0.280911 -0.069046 758887.000000 0 0 1
31.713745 -10.332628 -6.983329 34.077730 -0.314964 1.777182 0.259278 -0.071847 101397.000000 0 0 1
30.499445 -11.057928 -7.625929 33.326397 -0.347821 1.801667 0.231187 -0.055853 85551.700000 0 0 1
30.707045 -12.465828 -7.798929 34.046186 -0.385634 1.801918 0.240144 -0.051398 16322.300000 0 0 1
29.572645 -13.085328 -8.345529 33.397829 -0.416583 1.823355 0.224836 -0.045156 -81283.300000 0 0 1
29.768845 -14.628528 -8.530329 34.248277 -0.456747 1.822520 0.211898 -0.046108 405043.000000 0 0 1
30.668545 -14.981728 -9.594629 35.455165 -0.454409 1.844826 0.232650 -0.058194 744264.000000 0 0 1
30.738945 -16.400428 -9.743029 36.177111 -0.490118 1.843478 0.199286 -0.055614 -83536.000000 0 0 1
31.003445 -16.869828 -11.218329 37.035869 -0.498323 1.878535 0.172930 -0.056604 1177880.000000 0 0 1
32.399345 -16.723628 -11.619229 38.267529 -0.476501 1.879298 0.181844 -0.047493 1721170.000000 0 0 1
32.643245 -17.368228 -12.857429 39.147800 -0.488967 1.905440 0.160790 -0.034781 -189442.000000 0 0 1
32.267845 -16.565828 -14.109929 38.919540 -0.474298 1.941789 0.147200 -0.037332 -682381.000000 0 0 1
32.969645 -15.399028 -14.340429 39.112344 -0.436956 1.946199 0.133902 -0.044534 -70145.500000 0 0 1
32.373145 -14.530028 -15.251629 38.623237 -0.421880 1.976736 0.113048 -0.039112 -293987.000000 0 0 1
33.439445 -13.481028 -15.751629 39.345246 -0.383217 1.982688 0.105140 -0.037871 1139060.000000 0 0 1
34.425145 -13.941928 -16.700429 40.723117 -0.384803 1.993357 0.063918 -0.026942 1718550.000000 0 0 1
35.535545 -14.698428 -16.152729 41.710064 -0.392198 1.968457 0.082596 -0.032384 526014.000000 0 0 1
36.603645 -15.117628 -17.224029 43.186070 -0.391670 1.981040 0.087517 -0.033335 -143642.000000 0 0 1
37.772045 -15.594828 -16.610729 44.111703 -0.391549 1.956877 0.090938 -0.039002 -360360.000000 0 0 1
-37.282136 -16.099628 -17.581429 44.252258 0.407643 1.979369 0.104938 -0.045777 1030570.000000 0 0 1
-35.733536 -15.971928 -17.198829 42.752635 0.420334 1.984810 0.127827 -0.045585 1322450.000000 0 0 1
-35.348136 -16.817228 -16.154529 42.347122 0.444068 1.962192 0.118544 -0.042326 92167.900000 0 0 1
-35.530936 -16.310228 -14.852829 41.821974 0.430349 1.933865 0.091755 -0.035207 -390899.000000 0 0 1
-34.893636 -17.138328 -13.706029 41.220667 0.456550 1.909754 0.090169 -0.032539 470063.000000 0 0 1
-33.484336 -17.036428 -13.469829 39.910863 0.470653 1.915054 0.118285 -0.037204 610960.000000 0 0 1
-33.157736 -17.605028 -12.196429 39.473097 0.488098 1.884918 0.112084 -0.020349 428903.000000 0 0 1
-31.607736 -17.742628 -12.169329 38.235356 0.511506 1.894705 0.133035 -0.021434 358428.000000 0 0 1
-30.930036 -16.490928 -12.064929 37.069939 0.489829 1.902299 0.135155 -0.046993 894475.000000 0 0 1
-29.658836 -16.485128 -11.394129 35.794304 0.507305 1.894756 0.152327 -0.041546 768652.000000 0 0 1
-29.814836 -16.253728 -9.891329 35.368723 0.499116 1.854240 0.161537 -0.047544 260323.000000 0 0 1
-30.634136 -17.295728 -9.322029 36.393581 0.513976 1.829828 0.136779 -0.039106 428822.000000 0 0 1
-31.042136 -16.950828 -7.970329 36.255633 0.499812 1.792444 0.165987 -0.047734 -238058.000000 0 0 1
-31.666336 -18.109628 -7.206129 37.183918 0.519493 1.765827 0.156673 -0.034229 235850.000000 0 0 1
-32.943536 -18.618028 -7.555429 38.587460 0.514400 1.767870 0.107029 -0.030303 181881.000000 0 0 1
-32.972836 -19.276228 -8.780229 39.190220 0.529026 1.796756 0.103958 -0.024611 271975.000000 0 0 1
-34.367736 -19.843328 -9.225829 40.743280 0.523623 1.799216 0.073389 -0.022938 586330.000000 0 0 1
-35.427536 -18.949628 -9.446629 41.272721 0.491164 1.801727 0.086941 -0.022298 237186.000000 0 0 1
-36.546236 -19.670528 -9.964829 42.683192 0.493767 1.806431 0.081565 -0.025922 635926.000000 0 0 1
-37.566436 -18.694828 -10.677729 43.298356 0.461764 1.819975 0.086983 -0.047803 292761.000000 0 0 1
-37.344536 -18.443228 -12.079429 43.366804 0.458729 1.853071 0.071064 -0.052323 259322.000000 0 0 1
37.504445 -17.638128 -12.531829 43.298195 -0.439602 1.864428 0.095201 -0.053687 -50237.300000 0 0 1
36.963245 -17.898528 -13.952829 43.374188 -0.450948 1.898305 0.083093 -0.042961 -318273.000000 0 0 1
36.101345 -18.990528 -14.093829 43.157656 -0.484257 1.903465 0.058415 -0.032156 201374.000000 0 0 1
35.503645 -18.947628 -15.394129 43.087128 -0.490228 1.936149 0.053115 -0.027369 350167.000000 0 0 1
34.263545 -19.898428 -15.571529 42.572414 -0.526142 1.945252 0.078390 -0.038663 376029.000000 0 0 1
33.081945 -19.520228 -14.896829 41.199149 -0.533076 1.940759 0.104379 -0.037011 194560.000000 0 0 1
31.976045 -20.386128 -15.019129 40.787693 -0.567569 1.947898 0.131629 -0.037890 174663.000000 0 0 1
31.045345 -19.953928 -16.186029 40.298390 -0.571251 1.984119 0.140424 -0.038219 -888876.000000 0 0 1
30.309645 -18.805428 -15.983429 39.086938 -0.555316 1.992067 0.137542 -0.044039 162811.000000 0 0 1
29.721545 -18.379928 -17.222929 38.959226 -0.553842 2.028708 0.122827 -0.040700 -71282.100000 0 0 1
28.870145 -17.094528 -17.195129 37.701202 -0.534604 2.044393 0.119289 -0.032252 -121948.000000 0 0 1
27.609545 -17.306628 -16.593129 36.566902 -0.559918 2.041793 0.143069 -0.045430 72212.600000 0 0 1
26.889845 -16.121628 -16.438229 35.400368 -0.540084 2.053699 0.114523 -0.041642 -1085320.000000 0 0 1
25.602145 -16.323628 -15.611229 34.141487 -0.567600 2.045698 0.113267 -0.049045 -193171.000000 0 0 1
24.425145 -16.662228 -16.275629 33.750758 -0.598663 2.073995 0.113381 -0.049969 98587.100000 0 0 1
23.902145 -15.711028 -17.201829 33.377416 -0.581494 2.112240 0.101917 -0.036859 -900084.000000 0 0 1
22.826245 -16.281928 -18.135929 33.392373 -0.619596 2.144940 0.088866 -0.039145 828670.000000 0 0 1
21.489445 -16.428328 -17.627729 32.286577 -0.652706 2.148351 0.077975 -0.032354 1350510.000000 0 0 1
20.584745 -17.156728 -18.508829 32.567803 -0.694818 2.175255 0.066373 -0.034034 1027270.000000 0 0 1
19.159045 -17.436428 -17.958429 31.521472 -0.738361 2.176962 0.076842 -0.026479 314423.000000 0 0 1
18.406245 -16.225428 -18.045429 30.458035 -0.722509 2.204916 0.080933 -0.017991 -3293.570000 0 0 1
17.093945 -16.557028 -17.648129 29.627599 -0.769444 2.208890 0.092970 -0.017144 109539.000000 0 0 1
16.038445 -15.433128 -17.490029 28.307495 -0.766167 2.236813 0.104004 -0.012267 124491.000000 0 0 1
15.428645 -14.970228 -18.679729 28.479521 -0.770319 2.286171 0.094468 0.000754 378611.000000 0 0 1
14.245945 -14.286528 -18.288229 27.230703 -0.786821 2.307167 0.106079 0.004796 -120244.000000 0 0 1
13.467545 -13.632428 -19.381729 27.255629 -0.791482 2.361871 0.103437 -0.004574 -94487.800000 0 0 1
14.031345 -12.404728 -19.925529 27.345615 -0.723945 2.387153 0.126636 -0.016905 711563.000000 0 0 1
13.208545 -11.970328 -21.039729 27.575798 -0.736261 2.438704 0.112086 -0.011649 739981.000000 0 0 1
13.671845 -10.533628 -21.444829 27.527393 -0.656468 2.463923 0.137870 -0.017591 588526.000000 0 0 1
14.913045 -10.366928 -22.127429 28.626827 -0.607469 2.454292 0.136394 -0.021892 233743.000000 0 0 1
15.213145 -9.049428 -22.587529 28.697185 -0.536619 2.476888 0.149484 -0.032770 148384.000000 0 0 1
16.669145 -8.831328 -23.052529 29.787109 -0.487203 2.455788 0.143890 -0.036430 104025.000000 0 0 1
16.892245 -9.420528 -24.321029 31.074214 -0.508723 2.469749 0.169541 -0.036908 77950.800000 0 0 1
18.191445 -9.163928 -24.804929 32.096585 -0.466643 2.454071 0.155184 -0.042795 -156108.000000 0 0 1
21.778145 5.207472 -7.003129 23.461653 0.234708 1.873909 0.200717 0.017482 -253124.000000 0 1 0
21.575745 6.567272 -7.197629 23.673776 0.295472 1.879720 0.222645 0.011220 681767.000000 0 1 0
21.158645 7.083172 -5.929929 23.087304 0.323038 1.830556 0.221500 0.007758 -378635.000000 0 1 0
20.992545 8.631172 -5.926029 23.458514 0.390085 1.826181 0.181608 0.010067 -480538.000000 0 1 0
19.986045 9.064672 -6.845129 22.988389 0.425802 1.873147 0.081415 -0.005308 744413.000000 0 1 0
19.744745 10.489372 -6.922629 23.405227 0.488333 1.871061 0.096609 0.001214 -41459.300000 0 1 0
19.091845 11.104172 -5.641629 22.795375 0.526794 1.820885 0.112371 -0.010095 -602168.000000 0 1 0
19.975945 11.388272 -4.592529 23.448293 0.518143 1.767928 0.121190 -0.000632 -6141.330000 0 1 0
20.571945 12.643872 -4.616629 24.584256 0.551098 1.759706 0.176126 -0.017117 -421389.000000 0 1 0
21.355445 13.000672 -3.405029 25.232255 0.546847 1.706157 0.161851 -0.027965 -152534.000000 0 0 1
22.543645 12.255372 -3.209929 25.859499 0.497938 1.695247 0.147697 -0.048749 467054.000000 0 0 1
23.371645 12.785172 -2.204029 26.731108 0.500566 1.653342 0.126447 -0.049537 -516674.000000 0 0 1
24.485845 11.889472 -1.739029 27.275270 0.452033 1.634598 0.152189 -0.043121 -626624.000000 0 0 1
25.554345 11.620272 -2.625029 28.194787 0.426779 1.664035 0.163941 -0.029169 623981.000000 0 0 1
26.385245 10.581172 -2.132129 28.507689 0.381391 1.645658 0.183580 -0.032019 -138377.000000 0 0 1
27.784745 10.302472 -2.689929 29.755145 0.355080 1.661322 0.206757 -0.035109 -200194.000000 0 0 1
28.674745 11.347372 -2.358629 30.928417 0.376817 1.647131 0.159645 -0.040960 1489530.000000 0 0 1
30.055045 10.858572 -2.417429 32.047750 0.346697 1.646300 0.129367 -0.038711 1483880.000000 0 0 1
31.092345 11.933772 -2.032429 33.365844 0.366478 1.631748 0.101990 -0.041412 -291515.000000 0 0 1
31.047945 12.322372 -0.687029 33.410892 0.377816 1.591361 0.150670 -0.051385 242501.000000 0 0 1
32.087345 13.161572 -0.229729 34.682523 0.389251 1.577420 0.114628 -0.052469 -433929.000000 0 0 1
33.414445 12.529472 0.241871 35.687130 0.358746 1.564019 0.117726 -0.053076 200887.000000 0 0 1
34.380045 13.394072 0.834371 36.906433 0.371499 1.548187 0.116060 -0.061234 186676.000000 0 0 1
35.396545 13.830972 -0.032829 38.002792 0.372501 1.571660 0.135910 -0.046208 -676890.000000 0 0 1
35.121745 15.005472 -1.019729 38.206557 0.403768 1.597489 0.080890 -0.022090 -168286.000000 0 0 1
34.261245 14.634372 -2.115629 37.315863 0.403682 1.627522 0.081629 -0.015556 215615.000000 0 0 1
34.025745 15.750072 -2.972929 37.611891 0.433519 1.649921 0.050571 -0.002520 -323900.000000 0 0 1
32.777045 15.561572 -3.846329 36.486866 0.443261 1.676409 0.052541 -0.016349 -603494.000000 0 0 1
32.771945 14.554672 -4.766929 36.174058 0.417953 1.702958 0.045516 -0.018579 915377.000000 0 0 1
31.595345 14.596672 -5.602829 35.252239 0.432778 1.730409 0.054803 -0.021723 491750.000000 0 0 1
30.342245 13.878472 -5.125029 33.756921 0.428989 1.723207 0.077992 -0.018812 -891853.000000 0 0 1
29.235745 13.907372 -5.967529 32.920437 0.444017 1.753075 0.129055 -0.030878 -72518.200000 0 0 1
28.215445 13.041572 -5.518529 31.569734 0.432964 1.746503 0.134313 -0.013965 -8381.800000 0 0 1
27.087645 12.848872 -6.563829 30.690680 0.442913 1.786332 0.120685 -0.008884 -606204.000000 0 0 1
27.444645 12.101872 -7.730429 30.974560 0.415307 1.823036 0.118423 -0.007119 481971.000000 0 0 1
26.362145 11.820472 -8.614729 30.147965 0.421513 1.860584 0.148611 -0.000196 154235.000000 0 0 1
25.784345 13.086672 -9.276629 30.366911 0.469664 1.881244 0.158361 0.002073 19346.400000 0 0 1
24.935245 13.886072 -8.422629 29.757858 0.508114 1.857757 0.158206 -0.013676 272015.000000 0 0 1
24.700745 15.104272 -9.043729 30.332406 0.548826 1.873554 0.152975 -0.023232 -1151060.000000 0 0 1
23.660545 16.081972 -8.411829 29.819625 0.596969 1.856769 0.153647 -0.015872 1247010.000000 0 0 1
22.281945 15.772372 -8.694329 28.650377 0.615978 1.879121 0.183917 -0.038375 1051880.000000 0 0 1
21.822745 14.487872 -8.278629 27.471191 0.586077 1.876912 0.190343 -0.042576 -557175.000000 0 0 1
20.288245 14.189472 -8.475029 26.168303 0.610319 1.900609 0.203387 -0.035021 796210.000000 0 0 1
19.461245 14.899172 -7.559929 25.649130 0.653399 1.869984 0.265751 -0.068902 -390826.000000 0 0 1
18.128345 14.582872 -7.812629 24.542498 0.677433 1.894764 0.278137 -0.068710 -525380.000000 0 1 0
17.141345 15.163572 -6.748029 23.859914 0.724252 1.857528 0.248771 -0.048641 90961.000000 0 1 0
17.243545 14.356372 -5.607229 23.127608 0.694285 1.815684 0.218943 -0.052423 367073.000000 0 1 0
16.790745 14.944172 -4.478929 22.919821 0.727276 1.767479 0.197682 -0.037921 -641867.000000 0 1 0
16.612545 13.950372 -3.325729 21.946526 0.698513 1.722920 0.141345 -0.023243 -259741.000000 0 1 0
17.820345 13.495672 -2.758529 22.523484 0.648168 1.693578 0.141447 -0.023809 387288.000000 0 1 0
17.655645 12.455472 -1.812929 21.682880 0.614386 1.654505 0.135190 -0.024265 -235434.000000 0 1 0
17.360145 12.895072 -0.329429 21.627899 0.638876 1.586029 0.139970 -0.030595 -1507730.000000 0 1 0
16.167945 13.519072 -0.201129 21.076247 0.696407 1.580339 0.120417 -0.040975 -919283.000000 0 1 0
16.231245 14.461672 0.865271 21.756423 0.727808 1.531015 0.114171 -0.031527 -1010300.000000 0 1 0
14.922145 15.200072 1.113471 21.329613 0.794625 1.518570 0.117289 -0.029597 -1154190.000000 0 1 0
14.698745 16.307272 0.325771 21.956464 0.837230 1.555959 0.129872 -0.033366 -6360.760000 0 1 0
13.621045 17.008572 0.871771 21.807896 0.895547 1.530811 0.098702 -0.041207 -395557.000000 0 1 0
13.447545 18.420472 0.300471 22.808782 0.940197 1.557622 0.101591 -0.045157 -159710.000000 0 1 0
13.127445 18.584572 -1.087729 22.779360 0.955813 1.618565 0.113182 -0.049592 -84048.000000 0 1 0
12.716545 19.861872 -1.396029 23.625269 1.001306 1.629921 0.106868 -0.045114 310376.000000 0 1 0
11.206445 20.239372 -1.361729 23.174790 1.065120 1.629589 0.089738 -0.043067 473145.000000 0 1 0
10.688245 20.347672 -0.038529 22.984077 1.087129 1.572473 0.066286 -0.039966 -377705.000000 0 1 0
9.292545 20.190472 -0.084129 22.226417 1.139456 1.574581 0.057630 -0.039865 11079.000000 0 1 0
8.524845 20.321372 1.240171 22.071908 1.173592 1.514579 0.024744 -0.031458 -128166.000000 0 1 0
8.472245 21.650772 1.706571 23.311954 1.197800 1.497525 0.021174 -0.027864 272671.000000 0 1 0
7.674545 21.897372 2.875471 23.380801 1.233696 1.447500 0.026908 -0.023020 301126.000000 0 1 0
7.547945 23.409072 3.186171 24.801367 1.258885 1.441973 0.032605 -0.013203 -19034.000000 0 1 0
7.574845 23.599072 4.583871 25.205284 1.260204 1.387917 0.038273 -0.022039 21557.700000 0 0 1
7.447345 24.951672 5.003871 26.515799 1.280743 1.380945 0.040814 -0.018411 -108481.000000 0 0 1
7.970345 25.076472 6.419071 27.084318 1.263053 1.331516 0.053607 -0.032222 143777.000000 0 0 1
7.112645 24.456972 7.362471 26.513000 1.287780 1.289405 0.050440 -0.035998 479457.000000 0 0 1
7.703745 24.681772 8.678771 27.273771 1.268255 1.246956 0.057795 -0.034368 228319.000000 0 0 1
7.131445 23.745172 9.699371 26.622706 1.279035 1.197886 0.063408 -0.034278 554590.000000 0 0 1
5.903545 24.126572 10.344871 26.906498 1.330821 1.176157 0.077273 -0.035815 955649.000000 0 0 1
5.316845 23.038872 11.089071 26.115626 1.343990 1.132260 0.078358 -0.039391 885320.000000 0 0 1
3.933045 23.316872 11.804071 26.428799 1.403691 1.107794 0.050077 -0.041286 911203.000000 0 0 1
2.887145 23.412572 10.855671 25.967859 1.448100 1.139507 0.048404 -0.031382 -707828.000000 0 0 1
1.653145 23.415572 11.492271 26.136070 1.500313 1.115521 0.058349 -0.036360 -662718.000000 0 0 1
0.506145 23.799372 10.547871 26.036971 1.549532 1.153696 0.067504 -0.026620 -445375.000000 0 0 1
0.553745 25.183672 10.254771 27.197137 1.548812 1.184184 0.076984 -0.029856 135985.000000 0 0 1
-0.121755 25.454972 9.023271 27.007218 -1.566013 1.230140 0.076231 -0.023490 -63038.000000 0 0 1
-1.530655 26.029472 9.219471 27.656372 -1.512059 1.230933 0.084400 -0.034602 -310512.000000 0 0 1
-2.405255 25.125572 9.863471 27.099219 -1.475358 1.198263 0.068412 -0.028355 642599.000000 0 0 1
-3.733655 25.686072 9.793971 27.742320 -1.426450 1.209985 0.074194 -0.030295 1060950.000000 0 0 1
-4.899855 24.925472 10.500071 27.487073 -1.376691 1.178837 0.056354 -0.024573 341428.000000 0 0 1
-5.029655 24.914872 11.896671 28.063838 -1.371600 1.133033 0.047759 -0.024570 -15904.800000 0 0 1
-5.767255 26.001772 12.435771 29.393907 -1.352527 1.133962 0.055582 -0.023980 6164.770000 0 0 1
-6.080555 25.792572 13.943571 29.944166 -1.339275 1.086425 0.052829 -0.027835 217790.000000 0 0 1
-7.245355 24.982072 14.017071 29.547882 -1.288518 1.076531 0.049050 -0.021420 147135.000000 0 0 1
-7.625655 24.690472 15.338571 30.050653 -1.271240 1.035119 0.044084 -0.009731 -342849.000000 0 0 1
-8.910255 23.891772 15.404671 29.791161 -1.213831 1.027350 0.049378 -0.017017 833332.000000 0 0 1
-10.170255 24.543072 15.078271 30.547515 -1.177952 1.054571 0.050699 -0.016573 1259080.000000 0 0 1
-11.261255 23.650172 15.174271 30.272182 -1.126402 1.045741 0.049080 -0.018694 708057.000000 0 0 1
-12.688455 24.197672 14.859771 31.102042 -1.087846 1.072676 0.046520 -0.025247 539074.000000 0 0 1
-13.213755 25.103172 15.865871 32.503821 -1.086270 1.060858 0.048566 -0.024810 -28661.500000 0 0 1
-14.399455 25.673572 15.384771 33.213969 -1.059648 1.089192 0.041285 -0.024282 -259133.000000 0 0 1
-15.049555 26.812472 16.228971 34.767474 -1.059327 1.085143 0.038827 -0.019498 315919.000000 0 0 1
-16.069555 26.308472 17.100371 35.253212 -1.022464 1.064350 0.047514 -0.019689 255242.000000 0 0 1
-16.621755 27.376172 17.824371 36.653045 -1.025128 1.062946 0.058207 -0.024285 815366.000000 0 0 1
-18.014255 27.105172 18.521271 37.446511 -0.984222 1.053415 0.055452 -0.021992 1223580.000000 0 0 1
-19.138655 27.021372 17.654271 37.524871 -0.954536 1.080975 0.049602 -0.026567 674555.000000 0 0 1
-20.232455 26.351672 18.329071 37.943612 -0.916009 1.066649 0.066885 -0.023409 429169.000000 0 0 1
-21.509655 26.351872 17.487271 38.247759 -0.886226 1.095940 0.072364 -0.031486 -398168.000000 0 0 1
-22.143855 27.636872 17.374871 39.446586 -0.895298 1.114679 0.059805 -0.029515 437776.000000 0 0 1
-23.004255 27.684072 16.247271 39.491485 -0.877462 1.146794 0.072047 -0.031664 -50318.800000 0 0 1
-23.986955 28.929972 16.243571 40.941066 -0.878539 1.162817 0.061998 -0.029082 300597.000000 0 0 1
-25.132055 28.552272 16.996271 41.662041 -0.849022 1.150582 0.083149 -0.037345 76520.100000 0 0 1
-26.017395 29.667072 17.078871 42.996835 -0.850847 1.162319 0.080278 -0.031480 624865.000000 0 0 1
-27.411285 29.307572 17.700771 43.859202 -0.818819 1.155368 0.100455 -0.027742 347172.000000 0 0 1
-28.324825 28.713172 16.777871 43.683394 -0.792207 1.176586 0.133886 -0.021360 1091270.000000 0 0 1
-29.722735 28.726872 17.113371 44.738592 -0.768362 1.178275 0.173868 -0.023606 1025680.000000 0 0 1
-30.129115 27.766072 18.286771 44.867854 -0.744605 1.151005 0.156619 -0.032101 -720673.000000 0 0 1
-30.120015 26.424872 17.870971 43.873235 -0.720142 1.151266 0.154944 -0.028962 137806.000000 0 0 1
-30.470365 25.585672 18.953871 44.071748 -0.698478 1.126228 0.141800 -0.029501 -55769.600000 0 0 1
-30.620945 24.132972 18.501071 43.154747 -0.667455 1.127727 0.135550 -0.036094 212341.000000 0 0 1
-31.613755 24.090272 17.464271 43.413955 -0.651149 1.156798 0.163218 -0.040210 299217.000000 0 0 1
-31.424195 23.032172 16.510871 42.315125 -0.632496 1.169960 0.154612 -0.035079 -443114.000000 0 0 1
-31.822745 21.587772 16.817871 41.970940 -0.596065 1.158513 0.119709 -0.033132 -371783.000000 0 0 1
-33.195605 21.362772 16.638871 42.838864 -0.571822 1.171895 0.116475 -0.034863 -296627.000000 0 0 1
-33.573535 19.981472 16.675071 42.479400 -0.536850 1.167399 0.082006 -0.032479 697805.000000 0 0 1
-35.027189 19.782672 16.121871 43.337891 -0.514120 1.189629 0.079644 -0.044414 671351.000000 0 0 1
-35.198250 19.756372 14.693171 42.954864 -0.511469 1.221687 0.067461 -0.043551 633943.000000 0 0 1
-36.572745 19.513572 14.333171 43.860973 -0.490130 1.237895 0.096575 -0.052343 921937.000000 0 0 1
-36.815005 19.663672 12.842471 43.668451 -0.490570 1.272293 0.107733 -0.046635 -129013.000000 0 0 1
-36.963845 21.029172 12.507571 44.328222 -0.517247 1.284753 0.112290 -0.052766 -155580.000000 0 0 1
-37.103365 21.422772 11.134771 44.267121 -0.523622 1.316529 0.077343 -0.039857 -690549.000000 0 0 1
-35.932554 21.196972 10.214171 42.951011 -0.532967 1.330686 0.105222 -0.039258 -934742.000000 0 0 1
-35.911900 19.939872 9.595871 42.182269 -0.506860 1.341301 0.130902 -0.041327 555504.000000 0 0 1
-34.638638 19.495572 9.112071 40.779191 -0.512638 1.345445 0.150002 -0.041585 539410.000000 0 0 1
-33.942425 18.406172 9.981371 39.881113 -0.496894 1.317829 0.097077 -0.042353 -101791.000000 0 0 1
-33.475145 18.914872 11.192971 40.045478 -0.514319 1.287516 0.100994 -0.047702 30440.000000 0 0 1
-33.140925 17.868372 12.080771 39.541682 -0.494485 1.260312 0.107343 -0.057184 -293880.000000 0 0 1
-32.559945 18.330872 13.403871 39.696784 -0.512760 1.226370 0.080399 -0.029474 531601.000000 0 0 1
-31.300115 19.017772 13.283871 38.959390 -0.545985 1.222851 0.123828 -0.026060 375570.000000 0 0 1
-31.470765 20.437072 13.144971 39.760196 -0.575952 1.233850 0.134067 -0.026330 -77103.500000 0 0 1
-30.219765 21.340272 13.177171 39.271863 -0.614854 1.228621 0.150883 -0.030359 8866.550000 0 0 1
-29.665545 21.456572 14.453071 39.361406 -0.626182 1.194811 0.134857 -0.026966 -394329.000000 0 0 1
-28.440755 22.162372 14.423271 38.833980 -0.661958 1.190271 0.176838 -0.036047 -46402.900000 0 0 1
-27.741775 22.009072 15.817371 38.783947 -0.670676 1.150717 0.149524 -0.038340 -188206.000000 0 0 1
-27.018385 20.782072 15.941971 37.630228 -0.655665 1.133328 0.171566 -0.039731 202181.000000 0 0 1
-26.437315 20.649472 17.214171 37.704907 -0.663093 1.096683 0.135347 -0.028027 -234614.000000 0 0 1
-25.493945 19.456872 17.335471 36.455859 -0.651893 1.075242 0.143746 -0.029510 -442013.000000 0 0 1
-24.925355 19.384072 18.599071 36.646159 -0.660985 1.038479 0.137873 -0.029349 68984.200000 0 0 1
-23.907155 18.384372 18.503871 35.382629 -0.655545 1.020471 0.133458 -0.026338 415002.000000 0 0 1
-23.179255 18.237172 19.897671 35.577937 -0.666633 0.977291 0.128790 -0.024493 4032.120000 0 0 1
-24.042055 17.716472 20.852471 36.424158 -0.635061 0.961257 0.126527 -0.018992 -6868.130000 0 0 1
-23.528755 18.018572 22.135071 36.989628 -0.653543 0.929278 0.124964 -0.014193 355775.000000 0 0 1
-24.381155 17.433272 23.325871 37.979678 -0.620743 0.909466 0.107931 -0.015154 263481.000000 0 0 1
-24.358655 15.985272 23.244571 37.271746 -0.580754 0.897391 0.095312 -0.026885 21379.400000 0 0 1
-25.045085 15.354472 24.304571 38.127788 -0.549977 0.879612 0.088000 -0.020455 78402.000000 0 0 1
22.075545 24.310072 33.591886 46.975782 0.833534 0.774044 0.090063 -0.027164 90114.800000 0 0 1
22.803045 23.791472 32.504448 46.287710 0.806608 0.792277 0.107353 -0.033351 -196354.000000 0 0 1
23.260445 22.464472 32.742312 46.019124 0.767992 0.779175 0.115169 -0.036253 -220221.000000 0 0 1
22.222145 21.344072 32.440630 44.741341 0.765246 0.759659 0.091889 -0.040105 94973.400000 0 0 1
22.168745 21.052772 31.014266 43.549479 0.759584 0.778224 0.116274 -0.043061 -67346.600000 0 0 1
21.218145 20.068572 30.702596 42.374599 0.757562 0.760412 0.127299 -0.042293 -157277.000000 0 0 1
21.397245 19.542672 29.326686 41.228784 0.740129 0.779428 0.147857 -0.039350 208572.000000 0 0 1
22.557945 18.724672 29.292586 41.443091 0.692809 0.785811 0.149429 -0.036054 -45934.000000 0 0 1
22.843445 18.251172 28.021786 40.498750 0.674111 0.806655 0.145317 -0.037952 23485.100000 0 0 1
24.035945 17.272972 28.036956 40.769512 0.623121 0.812488 0.144907 -0.033147 205708.000000 0 0 1
25.321545 17.852372 28.085216 41.817068 0.614092 0.834402 0.146342 -0.032737 -67256.600000 0 0 1
26.304045 16.898972 28.497856 42.303733 0.571048 0.831662 0.129440 -0.020039 905293.000000 0 0 1
27.702945 17.574072 28.687726 43.580807 0.565313 0.852284 0.105505 -0.026055 658153.000000 0 0 1
28.511445 17.755672 27.511336 43.417047 0.556984 0.884530 0.119213 -0.020565 211182.000000 0 0 1
29.802645 18.227772 27.804906 44.649323 0.548917 0.898557 0.113330 -0.010510 82727.300000 0 0 1
30.824145 18.005372 26.669436 44.559849 0.528670 0.929159 0.108524 -0.008048 59356.500000 0 0 1
30.752645 18.990472 25.659376 44.325689 0.553205 0.953439 0.117368 -0.011504 831947.000000 0 0 1
31.788945 18.653672 24.701596 44.369644 0.530655 0.980361 0.122085 -0.011431 517862.000000 0 0 1
32.078645 19.819972 23.745566 44.561448 0.553445 1.008805 0.134577 -0.021203 -522934.000000 0 0 1
31.026045 20.112872 22.878106 43.480464 0.575149 1.016706 0.109752 -0.023213 -272331.000000 0 0 1
31.234545 21.133372 21.848456 43.584071 0.594850 1.045702 0.092374 -0.030815 139512.000000 0 0 1
32.001345 20.672772 20.558356 43.290825 0.573556 1.075958 0.124537 -0.030008 319600.000000 0 0 1
31.214645 19.688372 19.853956 41.906629 0.562717 1.077234 0.131251 -0.050336 177816.000000 0 0 1
31.763045 19.192472 18.653956 41.535672 0.543531 1.105031 0.169293 -0.054056 279877.000000 0 0 1
32.972645 18.207672 18.760056 42.079143 0.504535 1.108697 0.180302 -0.071421 443745.000000 0 0 1
32.582945 16.922372 19.277556 41.468532 0.479018 1.087306 0.202809 -0.062250 283593.000000 0 0 1
33.712345 16.142472 19.622256 42.215335 0.446568 1.087372 0.184523 -0.056960 -766730.000000 0 0 1
33.322145 14.667272 19.863056 41.473307 0.414646 1.071354 0.205055 -0.049148 -8290.080000 0 0 1
32.558645 14.410672 21.009056 41.341423 0.416689 1.037721 0.174399 -0.052627 669564.000000 0 0 1
31.194945 14.820972 20.828556 40.331309 0.443537 1.028112 0.171924 -0.039138 -95505.200000 0 0 1
30.247645 14.618572 22.039556 40.179157 0.450195 0.990189 0.134645 -0.038214 -121887.000000 0 0 1
29.858045 13.295072 22.128456 39.470626 0.418919 0.975649 0.135959 -0.031598 -57597.500000 0 0 1
29.143445 13.038772 23.336576 39.546753 0.420689 0.939612 0.112905 -0.014516 65217.900000 0 0 1
28.790845 11.530572 23.413976 38.859762 0.380932 0.924135 0.130762 -0.015041 -299259.000000 0 0 1
27.644345 11.127872 22.737076 37.483516 0.382692 0.919034 0.124374 -0.010622 -449546.000000 0 0 1
27.399045 9.741972 22.966826 37.055212 0.341618 0.902308 0.133365 -0.011273 -110206.000000 0 0 1
26.492745 9.166372 21.895256 35.570917 0.333103 0.907728 0.100092 -0.024884 148240.000000 0 0 1
25.125645 9.553772 21.927256 34.689727 0.363357 0.886540 0.094309 -0.015393 168516.000000 0 0 1
24.350945 8.731472 21.116456 33.393290 0.344287 0.886205 0.104947 -0.006574 -108.842000 0 0 1
22.839245 9.045272 21.143756 32.411517 0.377089 0.860111 0.085560 -0.003681 369335.000000 0 0 1
22.085845 8.538972 22.240556 32.486011 0.368925 0.816715 0.074401 -0.005693 186061.000000 0 0 1
20.703345 8.798072 22.170656 31.584372 0.401836 0.792664 0.091432 -0.010767 213682.000000 0 0 1
19.922145 8.303872 23.429856 31.855993 0.394918 0.744402 0.083478 -0.017509 33257.000000 0 0 1
20.143745 6.922272 23.588286 31.782000 0.331001 0.734464 0.073805 -0.018698 307342.000000 0 0 1
20.045445 6.534172 24.938336 32.656329 0.315107 0.701833 0.086229 -0.024407 -190441.000000 0 0 1
20.057745 5.048572 25.113226 32.534218 0.246580 0.688969 0.075678 -0.032385 -117345.000000 0 0 1
21.333445 4.526272 24.821296 33.040880 0.209068 0.720873 0.068891 -0.030419 64507.700000 0 0 1
21.382345 3.138072 25.050666 33.084559 0.145720 0.711825 0.059199 -0.024959 120067.000000 0 0 1
22.768745 2.501172 24.773096 33.739856 0.109412 0.746252 0.057570 -0.026083 130041.000000 0 0 1
23.755645 2.955072 25.662046 35.094212 0.123759 0.750669 0.057953 -0.032669 12837.700000 0 0 1
25.056645 2.506172 25.312026 35.704552 0.099689 0.782816 0.072349 -0.037734 549834.000000 0 0 1
26.112045 2.999972 26.358976 37.224109 0.114387 0.783970 0.070916 -0.035809 -826012.000000 0 0 1
25.992745 2.287472 27.535426 37.934878 0.087778 0.758512 0.089148 -0.037700 418841.000000 0 0 1
26.988445 2.690772 28.443636 39.302122 0.099372 0.761622 0.095540 -0.028548 520478.000000 0 0 1
28.511745 2.606072 28.182166 40.173943 0.091150 0.793291 0.086899 -0.034909 -678614.000000 0 0 1
28.989245 3.780372 27.421446 40.082455 0.129674 0.817392 0.113704 -0.029588 -276117.000000 0 0 1
30.330645 3.808172 27.037646 40.810348 0.124902 0.846619 0.120051 -0.030781 -233964.000000 0 0 1
30.773445 2.713872 25.992936 40.373292 0.087961 0.871323 0.140301 -0.027765 -412850.000000 0 0 1
30.462645 3.050172 24.641016 39.299567 0.099796 0.893094 0.143316 -0.032154 -80177.500000 0 0 1
30.997945 2.139772 23.749276 39.108558 0.068920 0.918182 0.143452 -0.033812 -484833.000000 0 0 1
30.927445 2.484172 22.231456 38.169564 0.080150 0.949070 0.150598 -0.035144 170674.000000 0 0 1
31.693345 3.572072 21.742356 38.599972 0.112234 0.972454 0.146636 -0.036736 -202855.000000 0 0 1
33.089445 3.390972 21.734756 39.734238 0.102122 0.992016 0.143666 -0.038630 -439852.000000 0 0 1
33.854045 4.591772 21.271756 40.245103 0.134812 1.013899 0.163784 -0.041883 -947702.000000 0 0 1
33.672445 4.886972 19.878456 39.406459 0.144126 1.042055 0.148675 -0.042781 242281.000000 0 0 1
34.452845 5.963172 19.367056 39.970499 0.171384 1.064966 0.156474 -0.031240 -99995.500000 0 0 1
35.995645 5.930172 19.343256 41.291826 0.163280 1.083258 0.133639 -0.033615 -582810.000000 0 0 1
36.666745 5.918772 20.549756 42.447314 0.160040 1.065435 0.127182 -0.032016 -84202.400000 0 0 1
36.600245 7.127272 21.266656 42.926059 0.192326 1.052472 0.133867 -0.028981 -455156.000000 0 0 1
37.293545 6.936172 22.652406 44.182015 0.183887 1.032462 0.144079 -0.029436 221234.000000 0 0 1
36.544945 6.074072 23.455576 43.847364 0.164703 1.006363 0.151420 -0.021638 646434.000000 0 0 1
37.365745 5.531472 24.480436 45.012085 0.146969 0.995762 0.153456 -0.018733 771838.000000 0 0 1
36.471645 4.400472 25.102736 44.493734 0.120074 0.971349 0.159127 -0.015533 593401.000000 0 0 1
36.370645 3.184372 24.404886 43.915401 0.087331 0.981562 0.163059 -0.027294 -167876.000000 0 0 1
35.496445 2.384472 25.133636 43.558959 0.067074 0.955742 0.159102 -0.039412 -309825.000000 0 0 1
35.366445 0.971372 24.579216 43.079773 0.027459 0.963619 0.129880 -0.031358 257456.000000 0 0 1
34.217945 0.711072 23.780156 41.675763 0.020778 0.963561 0.141164 -0.028212 146155.000000 0 0 1
34.265945 -0.657328 23.406426 41.502383 -0.019181 0.971601 0.117695 -0.025000 375962.000000 0 0 1
33.118545 -1.225828 22.487296 40.050208 -0.036996 0.974626 0.136790 -0.017261 553855.000000 0 0 1
31.850045 -1.168328 23.093616 39.358677 -0.036666 0.943760 0.132426 -0.020601 -855068.000000 0 0 1
30.862145 -1.727728 22.334436 38.135076 -0.055924 0.945094 0.148954 -0.016311 -1035240.000000 0 0 1
29.417945 -1.715028 22.805616 37.261950 -0.058233 0.912165 0.120473 -0.013136 -695885.000000 0 0 1
28.932745 -0.421328 22.798606 36.838264 -0.014561 0.903475 0.135844 -0.021052 -979453.000000 0 0 1
27.545345 -0.498028 22.786276 35.752041 -0.018078 0.879752 0.113330 -0.022117 -438928.000000 0 0 1
26.732745 0.800672 22.517656 34.961773 0.029942 0.870996 0.096480 -0.013675 110224.000000 0 0 1
27.005045 1.373972 21.256156 34.394540 0.050834 0.904588 0.109128 -0.023463 -101542.000000 0 0 1
26.271845 2.549472 21.032356 33.750106 0.096739 0.897995 0.103461 -0.023399 -242703.000000 0 0 1
26.717245 3.455272 19.874656 33.477635 0.128614 0.935185 0.126739 -0.029010 -222908.000000 0 0 1
26.374045 3.079572 18.569556 32.402198 0.116239 0.960518 0.117479 -0.021251 254096.000000 0 0 1
25.337145 3.840572 17.974756 31.301961 0.150434 0.959124 0.133346 -0.022416 177343.000000 0 0 1
24.933545 3.547972 16.519856 30.119353 0.141348 0.990251 0.141846 -0.022602 405231.000000 0 0 1
26.070545 3.776272 15.683456 30.657859 0.143848 1.033792 0.143325 -0.012642 664439.000000 0 0 1
25.729145 3.750572 14.254556 29.652117 0.144752 1.069313 0.125279 -0.015815 -792817.000000 0 0 1
25.254645 2.419172 13.650556 28.809498 0.095500 1.077171 0.128821 -0.004291 -91620.000000 0 0 1
23.899345 2.063672 13.786956 27.667988 0.086135 1.049160 0.153846 -0.001221 120772.000000 0 0 1
23.549545 0.885472 13.103856 26.964350 0.037583 1.063324 0.147915 0.001792 -1041080.000000 0 0 1
22.059345 0.594572 13.289056 25.759798 0.026947 1.028758 0.216616 -0.024761 -162467.000000 0 0 1
21.118745 1.289372 12.419856 24.533990 0.060978 1.039988 0.255051 -0.028234 1173840.000000 0 1 0
21.212345 1.006672 11.041256 23.935043 0.047421 1.091336 0.258234 -0.030369 -1133720.000000 0 1 0
20.917945 -0.469428 10.661956 23.483145 -0.022438 1.099518 0.257842 -0.026649 202863.000000 0 1 0
21.989645 -1.350928 11.022256 24.634521 -0.061358 1.106905 0.249230 -0.038690 546159.000000 0 1 0
23.101645 -1.388028 10.178156 25.282553 -0.060011 1.156467 0.264719 -0.037125 -302249.000000 0 0 1
24.169545 -2.409428 10.664356 26.527358 -0.099360 1.157082 0.254390 -0.049293 176429.000000 0 0 1
24.799445 -2.013228 11.879556 27.571532 -0.081003 1.125347 0.221199 -0.044311 1394220.000000 0 0 1
26.067945 -2.720628 12.056256 28.849486 -0.103990 1.139662 0.146161 -0.036821 1256930.000000 0 0 1
26.638545 -2.508728 13.461456 29.951904 -0.093900 1.104663 0.121708 -0.026080 -105188.000000 0 0 1
27.206545 -1.186028 13.613956 30.445731 -0.043566 1.107214 0.095871 -0.017807 220591.000000 0 0 1
27.195445 -0.868828 15.020056 31.079723 -0.031937 1.066404 0.105367 -0.014513 -390111.000000 0 0 1
28.199945 0.218672 15.357356 32.111261 0.007754 1.072130 0.153732 -0.020450 -1364270.000000 0 0 1
29.504945 -0.228728 15.365956 33.267201 -0.007752 1.090666 0.174668 -0.028055 -1008710.000000 0 0 1
30.337745 0.838472 14.949356 33.831421 0.027631 1.113105 0.158749 -0.028489 220256.000000 0 0 1
31.847545 0.520972 15.164356 35.277404 0.016357 1.126458 0.166669 -0.033556 320749.000000 0 0 1
32.322345 -0.549628 14.340056 35.364859 -0.017003 1.153283 0.191404 -0.033653 991177.000000 0 0 1
33.716445 -0.821828 14.594456 36.748771 -0.024370 1.162396 0.153752 -0.034307 814812.000000 0 0 1
34.161845 -1.907828 13.629256 36.829717 -0.055789 1.191721 0.134766 -0.036730 -348714.000000 0 0 1
34.418945 -1.277828 12.361556 36.593779 -0.037109 1.226213 0.149396 -0.040843 403418.000000 0 0 1
35.316045 -2.093428 11.634356 37.241962 -0.059208 1.253079 0.136134 -0.051541 51571.500000 0 0 1
35.605645 -1.741228 10.161156 37.068085 -0.048864 1.293120 0.178489 -0.050817 -359138.000000 0 0 1
36.221745 -0.498428 9.927156 37.560773 -0.013760 1.303323 0.127402 -0.040233 278988.000000 0 0 1
35.314045 0.616372 9.895456 36.679445 0.017452 1.297630 0.149662 -0.039956 -160446.000000 0 0 1
35.873745 1.949872 9.309656 37.113303 0.054300 1.317244 0.162419 -0.045203 -315822.000000 0 0 1
35.758545 1.972472 7.922556 36.678755 0.055105 1.353082 0.135594 -0.041533 396217.000000 0 0 1
36.147845 3.249472 7.429256 37.046182 0.089653 1.368887 0.132502 -0.036346 -66423.400000 0 0 1
36.370645 3.244272 5.876456 36.984887 0.088965 1.411232 0.116483 -0.029915 -69669.700000 0 0 1
36.594445 4.554872 5.331756 37.260272 0.123832 1.427209 0.101761 -0.008253 199718.000000 0 0 1
36.901945 4.528672 3.957656 37.388841 0.122111 1.464746 0.125043 -0.009016 -131699.000000 0 0 1
37.387545 5.876672 3.444156 38.002973 0.155907 1.480043 0.164785 -0.034268 79776.000000 0 0 1
36.364045 6.828772 3.684756 37.182702 0.185627 1.471535 0.149519 -0.033415 244435.000000 0 0 1
36.671145 8.119872 3.197856 37.695244 0.217908 1.485860 0.143329 -0.043258 -885732.000000 0 0 1
35.482745 9.115772 3.377256 36.790329 0.251469 1.478870 0.166919 -0.051414 590010.000000 0 0 1
34.452245 8.993272 2.408556 35.688055 0.255338 1.503256 0.188860 -0.055559 200619.000000 0 0 1
33.676345 7.826472 2.458056 34.661101 0.228349 1.499820 0.189881 -0.036651 -1595540.000000 0 0 1
32.420145 7.801872 1.611256 33.384594 0.236158 1.522514 0.224159 -0.038798 -384791.000000 0 0 1
32.704545 7.798572 0.207456 33.622136 0.234084 1.564626 0.248756 -0.030800 248930.000000 0 0 1
31.538845 7.547872 -0.548044 32.434078 0.234902 1.587694 0.246282 -0.028801 32770.800000 0 0 1
31.926245 7.521672 -2.073344 32.865779 0.231376 1.633923 0.217976 -0.012219 -491530.000000 0 0 1
30.964345 6.948372 -2.873744 31.864226 0.220742 1.661106 0.261856 -0.016111 190446.000000 0 0 1
31.566545 6.590572 -4.128044 32.510354 0.205827 1.698116 0.223728 -0.011311 -212602.000000 0 0 1
30.711045 5.695272 -5.015844 31.634840 0.183364 1.730023 0.281026 -0.007591 -491353.000000 0 0 1
30.759345 4.321372 -4.659144 31.408903 0.139576 1.719684 0.292806 -0.004152 798434.000000 0 0 1
29.632445 3.660572 -5.212044 30.309190 0.122910 1.743618 0.299651 -0.005218 397.459000 0 0 1
29.742345 2.135172 -5.079344 30.248401 0.071666 1.739517 0.337105 -0.005802 -239750.000000 0 0 1
29.323645 1.679572 -3.816544 29.618628 0.057215 1.700012 0.390090 -0.019996 338471.000000 0 0 1
29.214145 0.283472 -3.617544 29.438635 0.009703 1.693992 0.347282 -0.036019 -82304.300000 0 0 1
29.286245 -0.217728 -2.170644 29.367384 -0.007434 1.644777 0.343856 -0.036115 64331.200000 0 0 1
30.597745 -0.165328 -1.651044 30.642703 -0.005403 1.624703 0.303699 -0.034687 154621.000000 0 0 1
30.561845 0.006072 -0.182344 30.562389 0.000199 1.576763 0.308412 -0.028027 -216423.000000 0 0 1
31.863445 0.573872 0.430856 31.871525 0.018008 1.557277 0.321456 -0.021535 -538475.000000 0 0 1
32.916245 -0.256528 0.130156 32.917502 -0.007793 1.566842 0.258085 -0.016541 -840518.000000 0 0 1
34.184445 0.188572 0.522056 34.188951 0.005516 1.555526 0.159645 -0.022510 -30401.000000 0 0 1
-2.575155 -21.013728 -7.893829 22.594706 1.448858 1.927691 0.059207 -0.018452 69530.400000 0 1 0
-3.286655 -21.588628 -6.846329 22.885437 1.419716 1.874605 0.062204 -0.017353 -378254.000000 0 1 0
-2.729855 -22.802828 -6.456329 23.855928 1.451648 1.844852 0.067748 -0.011484 -326013.000000 0 1 0
-3.353155 -23.272228 -5.161329 24.072382 1.427697 1.786883 0.079217 -0.017724 -403524.000000 0 1 0
-2.903555 -22.532928 -4.006929 23.069872 1.442644 1.745368 0.082743 -0.019981 36671.800000 0 1 0
-3.235555 -23.148928 -2.754429 23.535688 1.431925 1.688097 0.091648 -0.028564 -273647.000000 0 1 0
-2.735155 -22.320928 -1.585929 22.543737 1.448866 1.641203 0.092708 -0.044116 1442260.000000 0 1 0
-1.274155 -22.310628 -1.644129 22.407382 1.513749 1.644237 0.084529 -0.035898 1057810.000000 0 1 0
-0.743155 -22.378328 -0.346929 22.393352 1.537600 1.586289 0.069490 -0.033200 -422022.000000 0 1 0
0.783745 -22.383528 -0.305329 22.399327 -1.535796 1.584428 0.066242 -0.030694 -519408.000000 0 1 0
1.348445 -21.144928 -0.574829 21.195677 -1.507111 1.597920 0.052483 -0.029446 -239708.000000 0 1 0
2.646845 -21.083228 -0.018429 21.248733 -1.445907 1.571664 0.046969 -0.025785 305230.000000 0 1 0
3.583045 -19.992028 -0.609029 20.319703 -1.393455 1.600773 0.049576 -0.023965 400535.000000 0 1 0
3.994745 -20.284328 -1.937729 20.764555 -1.376347 1.664251 0.028248 -0.016628 -232762.000000 0 1 0
5.102545 -19.528828 -2.376329 20.323829 -1.315227 1.687988 0.039118 -0.008693 295956.000000 0 1 0
5.852245 -20.132728 -3.660729 21.283244 -1.287909 1.743656 0.033179 0.001049 -307995.000000 0 1 0
6.844045 -21.066128 -3.344829 22.401129 -1.256669 1.720672 0.043039 -0.002606 114436.000000 0 1 0
7.749445 -21.505128 -4.371429 23.273028 -1.224928 1.759751 0.039632 -0.004641 1035540.000000 0 1 0
8.900345 -20.512228 -4.717229 22.852131 -1.161408 1.778715 0.061006 -0.016541 -56367.100000 0 1 0
8.473645 -19.494828 -5.570129 21.974470 -1.160771 1.827074 0.042623 -0.013537 1276710.000000 0 1 0
9.678345 -18.747028 -5.934329 21.916608 -1.094225 1.844988 0.059802 -0.026333 1275570.000000 0 1 0
9.474445 -17.875728 -7.198129 21.473701 -1.083424 1.912621 0.040266 -0.008598 700900.000000 0 1 0
10.638145 -17.025528 -7.371229 21.386299 -1.012316 1.922684 0.052405 -0.026754 1021100.000000 0 1 0
10.526745 -16.197728 -8.575729 21.135797 -0.994498 1.988589 0.049562 -0.009763 -279018.000000 0 1 0
10.740245 -16.990328 -9.913129 22.411922 -1.007080 2.028975 0.043359 0.007405 -158179.000000 0 1 0
9.650645 -17.655328 -10.582229 22.733877 -1.070557 2.054976 0.039841 -0.003807 505377.000000 0 1 0
8.874945 -16.691928 -11.294629 22.021666 -1.082119 2.109341 0.025882 -0.012356 -158411.000000 0 1 0
8.376245 -17.195628 -12.662829 22.939014 -1.117510 2.155583 0.037726 -0.020529 -870133.000000 0 1 0
7.210745 -17.927628 -12.555129 23.044001 -1.188383 2.146986 0.024569 -0.011675 -400549.000000 0 1 0
6.863645 -18.390828 -13.812329 24.002346 -1.213596 2.183960 0.042078 -0.005179 146125.000000 0 1 0
5.777845 -19.517428 -13.748929 24.563114 -1.282981 2.164867 0.041139 0.008716 331817.000000 0 1 0
6.281845 -20.789428 -13.475229 25.558633 -1.277354 2.126131 0.041850 0.002338 -377831.000000 0 0 1
5.248645 -21.553928 -12.969529 25.696863 -1.331933 2.099845 0.072862 -0.013740 -422892.000000 0 0 1
5.664645 -22.962228 -12.597029 26.796218 -1.328932 2.060206 0.034916 -0.019324 -674391.000000 0 0 1
6.042045 -23.657128 -13.778529 28.035939 -1.320741 2.084561 0.057202 -0.020097 -125110.000000 0 0 1
5.715145 -25.037888 -13.782729 29.146567 -1.346381 2.063349 0.054334 -0.016312 2203180.000000 0 0 1
4.126145 -25.358638 -13.865529 29.194837 -1.409498 2.065682 0.072753 -0.029277 2003400.000000 0 0 1
3.425445 -24.879328 -12.736929 28.159262 -1.433974 2.040159 0.082331 -0.030983 346379.000000 0 0 1
1.993445 -24.814428 -12.828929 28.005555 -1.490634 2.046636 0.086868 -0.047805 1481410.000000 0 0 1
1.116845 -26.084288 -12.568729 28.976031 -1.528006 2.019461 0.092430 -0.033301 -268146.000000 0 0 1
1.289345 -26.956838 -13.656629 30.246274 -1.523003 2.039258 0.093048 -0.028363 151857.000000 0 0 1
0.793545 -28.275138 -13.412129 31.304926 -1.542739 2.013556 0.080571 -0.027926 222961.000000 0 0 1
-0.695855 -28.499118 -13.742129 31.646960 1.546384 2.019982 0.071185 -0.032478 -50896.400000 0 0 1
-1.684155 -27.876538 -12.958929 30.787524 1.510455 2.005250 0.081175 -0.039181 -615981.000000 0 0 1
-2.934855 -28.281578 -13.431529 31.446256 1.467394 2.012109 0.095646 -0.031492 -772229.000000 0 0 1
-4.112755 -27.511448 -12.782629 30.613562 1.422403 2.001541 0.086272 -0.033022 43984.700000 0 0 1
-4.554955 -27.926108 -11.506229 30.545187 1.409113 1.957023 0.078124 -0.035655 178391.000000 0 0 1
-5.114655 -29.268348 -11.468129 31.848295 1.397793 1.939157 0.082415 -0.040548 -753947.000000 0 0 1
-5.679055 -29.726058 -10.057229 31.891034 1.382025 1.891635 0.073336 -0.039756 277816.000000 0 0 1
-7.001355 -29.317578 -9.740029 31.676609 1.336376 1.883343 0.090435 -0.034132 87243.700000 0 0 1
-6.953055 -27.958808 -9.351529 30.290115 1.327052 1.884656 0.102497 -0.028637 -681714.000000 0 0 1
-8.361455 -27.408548 -8.938029 30.017176 1.274697 1.873146 0.106338 -0.028080 213149.000000 0 0 1
-9.215255 -27.261308 -10.006929 30.467007 1.244821 1.905460 0.148574 -0.043125 -564612.000000 0 0 1
-9.884255 -28.454448 -10.329229 31.844106 1.236465 1.901141 0.149744 -0.047218 -624342.000000 0 0 1
-11.397655 -28.444758 -10.683029 32.452087 1.189691 1.906246 0.152248 -0.047975 391393.000000 0 0 1
-11.647255 -27.937058 -11.984829 32.554169 1.175797 1.947815 0.168457 -0.053509 25748.200000 0 0 1
-12.668155 -28.609418 -12.699329 33.767646 1.153949 1.956358 0.177232 -0.058024 -147130.000000 0 0 1
-13.002355 -27.895828 -13.999829 33.811739 1.134631 1.997698 0.180935 -0.052188 -177858.000000 0 0 1
-13.931655 -26.827348 -13.999329 33.313344 1.091822 2.004497 0.180947 -0.060773 -222001.000000 0 0 1
-13.746855 -25.684978 -13.121829 31.951159 1.079379 1.994000 0.177008 -0.052635 -309735.000000 0 0 1
-14.593955 -24.438128 -13.402329 31.461533 1.032453 2.010853 0.175121 -0.047756 -296121.000000 0 0 1
-14.141255 -23.737828 -14.536229 31.221172 1.033525 2.055096 0.185480 -0.043556 155716.000000 0 0 1
-14.944355 -22.609928 -14.792829 30.876697 0.986752 2.070418 0.187637 -0.042689 -224735.000000 0 0 1
-14.565355 -21.999228 -16.142829 30.930673 0.985972 2.119877 0.178514 -0.031770 118848.000000 0 0 1
-13.255055 -21.469628 -16.266729 30.020791 1.017691 2.143432 0.173153 -0.026804 353168.000000 0 0 1
-12.861255 -21.053428 -17.549929 30.276373 1.022410 2.189105 0.121465 -0.025584 -142489.000000 0 0 1
-13.102855 -19.522628 -17.811529 29.496922 0.979688 2.219111 0.118078 -0.016909 369553.000000 0 0 1
-12.013755 -18.696228 -17.408829 28.230243 0.999658 2.235306 0.098002 -0.006591 563969.000000 0 0 1
-12.457255 -17.364828 -17.591029 27.679682 0.948498 2.259480 0.109750 -0.005671 471233.000000 0 0 1
-11.250155 -16.409428 -17.569629 26.542931 0.969806 2.294190 0.115489 -0.006612 214984.000000 0 0 1
-10.595855 -16.234628 -16.334429 25.350520 0.992546 2.270960 0.134828 -0.006167 -322356.000000 0 0 1
-9.405355 -15.516128 -16.501329 24.525595 1.025855 2.308811 0.119959 -0.010062 -751440.000000 0 1 0
-8.776955 -15.047228 -15.186129 23.110010 1.042751 2.287793 0.109487 -0.011945 -73006.300000 0 1 0
-8.341455 -16.102228 -14.322729 23.108488 1.092828 2.239289 0.099177 -0.001731 318877.000000 0 1 0
-7.050255 -16.579328 -14.713429 23.260809 1.168719 2.255627 0.088813 -0.002103 -270655.000000 0 1 0
-6.525355 -17.471928 -13.625229 23.097520 1.213362 2.201731 0.071642 -0.000530 -988329.000000 0 1 0
-6.023455 -16.656128 -12.627029 21.752023 1.223793 2.190138 0.070601 -0.010508 109414.000000 0 1 0
-5.459955 -17.262628 -11.490829 21.444081 1.264465 2.136312 0.061864 -0.017690 248179.000000 0 1 0
-4.297855 -18.312328 -11.614929 22.107001 1.340271 2.123977 0.061370 -0.020099 737999.000000 0 1 0
-2.975055 -17.854428 -11.955729 21.692649 1.405685 2.154529 0.061838 -0.008866 428572.000000 0 1 0
-2.118155 -18.937928 -11.647529 22.333756 1.459412 2.119429 0.045165 -0.002185 -373371.000000 0 1 0
-0.672055 -18.683828 -12.061829 22.249153 1.534842 2.143761 0.031731 0.009205 -859711.000000 0 1 0
-0.522755 -18.507328 -13.483729 22.904267 1.542558 2.200245 0.042006 0.012775 -52730.400000 0 1 0
0.694745 -17.889228 -13.871629 22.647942 -1.531980 2.230003 0.044821 0.002909 781377.000000 0 1 0
1.990145 -18.761828 -13.878629 23.421854 -1.465117 2.205018 0.043840 -0.008026 18681.500000 0 1 0
1.998445 -19.730728 -14.875129 24.790419 -1.469855 2.214342 0.062835 0.003076 -9062.520000 0 1 0
1.525945 -21.026628 -14.462229 25.565674 -1.498351 2.172065 0.076778 0.001708 -646232.000000 0 0 1
1.415645 -22.006028 -15.673229 27.054010 -1.506555 2.188704 0.089875 -0.007545 817828.000000 0 0 1
2.573445 -22.757928 -16.105629 27.998879 -1.458196 2.183674 0.097610 -0.016515 899060.000000 0 0 1
3.677045 -21.913928 -16.467329 27.657076 -1.404550 2.208574 0.088691 -0.023582 -186341.000000 0 0 1
5.015645 -22.575328 -16.776329 28.570043 -1.352174 2.198392 0.094660 -0.018694 -92773.800000 0 0 1
5.320145 -22.793628 -18.135329 29.609857 -1.341497 2.229985 0.094555 -0.030234 -16317.700000 0 0 1
6.578145 -23.415728 -18.298129 30.436653 -1.296927 2.215782 0.096575 -0.033513 134428.000000 0 0 1
7.102445 -23.259028 -19.760529 31.335374 -1.274427 2.253141 0.102864 -0.026750 -4289.520000 0 0 1
7.373145 -21.937428 -20.084329 30.643014 -1.246559 2.285547 0.122061 -0.034870 -184632.000000 0 0 1
7.700045 -21.851328 -21.446029 31.570610 -1.232000 2.317610 0.112342 -0.028478 16698.200000 0 0 1
7.870445 -20.412028 -21.889229 30.947264 -1.202784 2.356478 0.101704 -0.027042 -477189.000000 0 0 1
6.659645 -19.748628 -21.837829 30.186917 -1.245551 2.379540 0.121843 -0.025944 -567476.000000 0 0 1
6.855145 -18.382728 -22.263129 29.674309 -1.213857 2.419235 0.121688 -0.017990 166644.000000 0 0 1
5.512445 -17.644428 -22.466429 29.093871 -1.267986 2.453100 0.130030 -0.018425 -633848.000000 0 0 1
4.914445 -18.048428 -23.707029 30.198026 -1.304949 2.473577 0.134642 -0.019404 -122942.000000 0 0 1
3.964745 -17.165928 -24.236629 29.963353 -1.343811 2.513034 0.145802 -0.021745 -408091.000000 0 0 1
2.661345 -16.882128 -23.515129 29.069749 -1.414440 2.513111 0.146286 -0.024108 -1103740.000000 0 0 1
2.780145 -16.205228 -22.236829 27.655293 -1.400892 2.504908 0.145449 -0.028265 -658223.000000 0 0 1
1.654045 -15.441628 -21.889329 26.838824 -1.464087 2.524535 0.126587 -0.036612 101659.000000 0 0 1
1.909745 -14.876728 -20.470029 25.376885 -1.443123 2.509243 0.120339 -0.037065 -168270.000000 0 0 1
2.855045 -13.860628 -20.426329 24.849612 -1.367655 2.535707 0.102815 -0.030455 -445840.000000 0 1 0
2.837645 -13.204528 -19.184529 23.461841 -1.359116 2.528184 0.091695 -0.032013 236967.000000 0 1 0
3.897545 -12.073628 -19.016029 22.859850 -1.258542 2.553234 0.085219 -0.036176 -341602.000000 0 1 0
5.226245 -12.456228 -19.207129 23.481590 -1.173535 2.528662 0.087546 -0.038680 -221877.000000 0 1 0
6.180245 -11.454428 -19.558529 23.493306 -1.076011 2.554428 0.088526 -0.032278 436578.000000 0 1 0
6.487145 -10.145928 -18.721229 22.259994 -1.001920 2.569973 0.085327 -0.020533 -762006.000000 0 1 0
5.425345 -9.224528 -18.604929 21.463217 -1.039141 2.619602 0.054165 -0.012061 -61866.200000 0 1 0
5.186845 -8.362728 -19.686629 22.009133 -1.015632 2.678053 0.069760 -0.013385 -596615.000000 0 1 0
4.480045 -8.813128 -20.965229 23.179363 -1.100501 2.700951 0.083699 -0.033925 -773177.000000 0 1 0
3.096645 -8.892128 -20.744429 22.781363 -1.235685 2.715500 0.080411 -0.035175 -882388.000000 0 1 0
2.438945 -8.908628 -21.972429 23.834843 -1.303571 2.743654 0.081953 -0.037435 -918571.000000 0 1 0
0.939945 -8.984028 -21.833829 23.628634 -1.466552 2.749316 0.053686 -0.036933 -736357.000000 0 1 0
0.313145 -7.820128 -21.256729 22.651733 -1.530774 2.788811 0.048107 -0.037588 395080.000000 0 1 0
-1.053255 -7.646428 -21.620329 22.956826 1.433913 2.798688 0.060393 -0.031650 418317.000000 0 1 0
-1.291155 -6.652128 -22.755729 23.743233 1.379084 2.852171 0.045573 -0.022657 -42337.400000 0 1 0
-1.018855 -7.176328 -24.059729 25.127840 1.429764 2.848978 0.059877 -0.026123 -60973.800000 0 0 1
-1.625255 -6.365028 -25.097629 25.943131 1.320797 2.885588 0.093854 -0.032166 -133570.000000 0 0 1
-0.912055 -5.043228 -25.532979 26.042255 1.391883 2.943503 0.094052 -0.028486 -33866.400000 0 0 1
-1.473455 -4.461628 -26.710119 27.120245 1.251823 2.967462 0.096132 -0.027607 -104293.000000 0 0 1
-1.065655 -3.151628 -27.060829 27.264572 1.244736 3.019264 0.085124 -0.026676 -444814.000000 0 0 1
-1.499755 -1.969528 -26.176389 26.293187 0.919989 3.047302 0.080360 -0.029271 1170120.000000 0 0 1
-2.907255 -1.721328 -25.959589 26.178529 0.534576 3.012171 0.061768 -0.035638 849294.000000 0 0 1
-3.612255 -0.993828 -26.940889 27.200140 0.268484 3.003416 0.084424 -0.029435 -667257.000000 0 0 1
-5.109355 -1.053028 -26.666679 27.172158 0.203252 2.948405 0.059226 -0.037683 -485507.000000 0 0 1
-5.663655 -0.060128 -25.796279 26.410767 0.010616 2.925457 0.069976 -0.035261 297895.000000 0 0 1
-7.066355 -0.272428 -25.740169 26.693893 0.038534 2.873477 0.110689 -0.046910 225515.000000 0 0 1
-7.944555 0.958372 -25.390319 26.621471 -0.120052 2.836281 0.123226 -0.043270 -940299.000000 0 0 1
-8.098655 2.035672 -26.326839 27.619461 -0.246258 2.834442 0.143739 -0.041350 50597.500000 0 0 1
-9.150655 1.887072 -27.246399 28.803850 -0.203372 2.811243 0.164724 -0.044947 215946.000000 0 0 1
-10.606355 1.958372 -26.697139 28.793528 -0.182585 2.757643 0.165529 -0.046151 638481.000000 0 0 1
-11.658355 2.093972 -27.702629 30.128684 -0.177716 2.737544 0.168372 -0.054115 1134470.000000 0 0 1
-12.922655 1.716272 -27.172769 30.138016 -0.132038 2.694276 0.112888 -0.032313 -40122.700000 0 0 1
-14.100455 2.239272 -28.002699 31.432282 -0.157493 2.670097 0.087463 -0.018537 -1811810.000000 0 0 1
-15.275755 1.688872 -27.510469 31.512329 -0.110112 2.632130 0.078193 -0.015632 -635430.000000 0 0 1
-16.386455 2.102772 -28.289619 32.760344 -0.127626 2.613029 0.072222 -0.015071 133951.000000 0 0 1
-17.016755 3.447072 -27.692209 32.685023 -0.199865 2.581573 0.070642 -0.004551 -571202.000000 0 0 1
-16.195855 4.619172 -27.724519 32.439042 -0.277831 2.595702 0.089966 -0.016557 103441.000000 0 0 1
-15.989355 5.296272 -28.971849 33.512356 -0.319863 2.614976 0.069223 -0.019444 -1101720.000000 0 0 1
-17.170055 5.768472 -29.769619 34.847041 -0.324114 2.594987 0.063330 -0.012653 -695802.000000 0 0 1
-17.942055 6.729872 -29.061079 34.810269 -0.358849 2.558642 0.066275 -0.013911 9872.160000 0 0 1
-19.066255 7.131772 -29.788229 36.079397 -0.357939 2.542114 0.046683 -0.009452 -401317.000000 0 0 1
-19.872155 8.293272 -29.162439 36.250914 -0.395357 2.505563 0.051140 -0.017756 -201907.000000 0 0 1
-19.190955 9.486572 -28.915009 35.977292 -0.459097 2.504287 0.045494 -0.016756 259376.000000 0 0 1
-20.130555 10.422072 -28.405649 36.341983 -0.477726 2.468056 0.064290 -0.020957 292641.000000 0 0 1
-9.407955 25.017272 30.412636 40.488294 -1.211098 0.720999 0.064412 -0.016433 -888831.000000 0 0 1
-10.270155 26.116572 30.482976 41.433841 -1.196129 0.744093 0.058886 -0.012402 115467.000000 0 0 1
-9.796755 27.167772 31.413515 42.671690 -1.224708 0.743406 0.075946 -0.021182 1155890.000000 0 0 1
-8.425655 27.861172 31.020636 42.538411 -1.277125 0.753588 0.076481 -0.020712 805260.000000 0 0 1
-8.448355 28.858172 30.004936 42.478994 -1.286000 0.786471 0.082508 -0.012536 794551.000000 0 0 1
-7.119855 28.908072 29.451156 41.877673 -1.329310 0.790815 0.092192 -0.006307 888748.000000 0 0 1
-7.009355 30.098572 28.516466 42.050492 -1.341994 0.825556 0.112965 -0.008890 -132282.000000 0 0 1
-6.854155 31.406172 29.117336 43.372184 -1.355923 0.834786 0.109984 -0.013269 258242.000000 0 0 1
-6.262255 32.386072 28.302066 43.463553 -1.379791 0.861674 0.116292 -0.016958 -54921.000000 0 0 1
-6.438355 33.748572 28.960596 44.934782 -1.382287 0.870423 0.121451 -0.022128 -146393.000000 0 0 1
-5.765155 33.775472 30.201456 45.674363 -1.401735 0.848333 0.132299 -0.029914 246233.000000 0 0 1
-6.425755 -32.976407 31.141476 45.809663 1.378349 0.823304 0.127825 -0.037250 812254.000000 0 0 1
-7.641555 -33.528207 31.946732 46.937487 1.346710 0.822184 0.088460 -0.032251 435157.000000 0 0 1
-7.285755 33.095872 32.919407 47.245172 -1.354112 0.799900 0.094465 -0.029560 64346.000000 0 0 1
-7.296355 31.752172 32.440910 45.976623 -1.344927 0.787533 0.095647 -0.019898 -123085.000000 0 0 1
-7.021255 30.890972 -33.669289 46.229549 -1.347302 2.386644 0.086811 -0.018928 -234270.000000 0 0 1
-5.701555 31.012772 -33.214769 45.798697 -1.388981 2.382170 0.099018 -0.020585 -544931.000000 0 0 1
-5.651355 30.435772 -31.936229 44.476924 -1.387206 2.371779 0.100722 -0.018269 -603911.000000 0 0 1
-4.250155 30.151072 -31.385619 43.728801 -1.430757 2.371338 0.090082 -0.023713 -194747.000000 0 0 1
-3.755355 28.884472 -31.683309 43.037745 -1.441509 2.398197 0.105347 -0.017713 -121244.000000 0 0 1
-3.242855 28.672872 -32.963769 43.809357 -1.458177 2.422550 0.095106 -0.017623 -778445.000000 0 0 1
-2.560255 27.330972 -33.122829 43.019283 -1.477393 2.449564 0.114302 -0.034697 -32079.500000 0 0 1
-1.436655 27.191772 -32.211479 42.178618 -1.518011 2.439809 0.130992 -0.030224 1339030.000000 0 0 1
-0.603755 26.027372 -32.374589 41.543984 -1.547604 2.464320 0.146100 -0.033120 681310.000000 0 0 1
0.072745 25.695672 33.625736 42.319770 1.567965 0.652508 0.138554 -0.024974 -294294.000000 0 0 1
-0.919355 25.353072 32.676640 41.368904 -1.534550 0.660176 0.142292 -0.026656 130533.000000 0 0 1
-0.425255 25.300972 31.348675 40.287212 -1.553990 0.679114 0.141374 -0.021272 18908.700000 0 0 1
-0.285455 26.669072 30.578946 40.575766 -1.560093 0.717235 0.132826 -0.025327 58282.000000 0 0 1
-1.545355 27.241172 30.307436 40.780022 -1.514128 0.732966 0.132731 -0.025683 18957.200000 0 0 1
-1.426755 28.462672 29.670386 41.139897 -1.520711 0.765253 0.118243 -0.021395 132148.000000 0 0 1
-2.696655 29.317472 29.875286 41.944234 -1.479073 0.778081 0.127782 -0.029773 116374.000000 0 0 1
-2.635555 30.035072 31.085946 43.305747 -1.483271 0.770123 0.140179 -0.025302 -246459.000000 0 0 1
-3.525155 31.108372 31.118576 44.142080 -1.457959 0.788424 0.139781 -0.023137 -208279.000000 0 0 1
-3.306355 32.018372 32.375692 45.654064 -1.467897 0.782501 0.115775 -0.017118 2010230.000000 0 0 1
-1.964355 32.638572 32.302958 45.963204 -1.510684 0.791470 0.202929 -0.035778 1505720.000000 0 0 1
-1.341555 33.018472 33.482626 47.043655 -1.530188 0.778831 0.138356 -0.031494 97346.900000 0 0 1
0.111945 33.481972 33.210113 47.158950 1.567453 0.789477 0.143137 -0.044980 158220.000000 0 0 1
0.250945 -32.908507 32.570293 46.301801 -1.563171 0.790578 0.158258 -0.051704 994071.000000 0 0 1
1.607045 -32.693907 32.123302 45.862628 -1.521682 0.794804 0.173580 -0.052248 916093.000000 0 0 1
1.925745 -31.256207 31.739695 44.587747 -1.509263 0.778670 0.172532 -0.054239 1036.030000 0 0 1
1.740045 -30.357707 32.823021 44.743366 -1.513541 0.747215 0.141507 -0.042155 186719.000000 0 0 1
2.167145 -29.079307 32.409880 43.597052 -1.496409 0.732663 0.146753 -0.052537 79692.400000 0 0 1
2.121445 -28.082007 33.590396 43.833940 -1.495395 0.697718 0.143073 -0.055605 -217478.000000 0 0 1
0.835145 -27.541607 33.642616 43.486356 -1.540483 0.686237 0.131948 -0.059113 -425550.000000 0 0 1
0.345445 -27.272207 -32.462219 42.399154 -1.558130 2.442822 0.111788 -0.046364 -318055.000000 0 0 1
-1.152755 -26.946107 -32.474229 42.213707 1.528042 2.448512 0.152143 -0.048095 -359362.000000 0 0 1
-1.721655 -26.711407 -31.234169 41.134373 1.506431 2.433064 0.154511 -0.050565 -291804.000000 0 0 1
-3.033055 -26.222207 -31.368379 40.997302 1.455641 2.442044 0.188577 -0.061737 -227386.000000 0 0 1
-3.525655 -25.668807 -30.048569 39.676623 1.434299 2.430022 0.193625 -0.067909 -277887.000000 0 0 1
-3.851155 -26.657007 -29.069629 39.629165 1.427318 2.394314 0.187594 -0.063540 26378.500000 0 0 1
-4.200155 -26.016907 -27.837919 38.333673 1.410738 2.383575 0.205735 -0.059682 492961.000000 0 0 1
-3.016055 -25.579407 -26.870359 37.221215 1.453429 2.377355 0.182060 -0.060960 294290.000000 0 0 1
-2.250555 -24.576507 -27.471399 36.928951 1.479478 2.409682 0.175582 -0.056734 456832.000000 0 0 1
-1.138855 -24.330907 -26.582879 36.054673 1.524024 2.399852 0.138151 -0.051850 -133483.000000 0 0 1
-0.134455 -23.240807 -27.027249 35.645832 1.565011 2.431369 0.080810 -0.036280 465161.000000 0 0 1
0.694445 -23.355307 -28.174689 36.602810 -1.541071 2.449232 0.048066 -0.043616 344964.000000 0 0 1
1.685345 -24.372207 -28.010569 37.167685 -1.501756 2.424359 0.036079 -0.034875 -349439.000000 0 0 1
2.392045 -24.664407 -29.366869 38.424834 -1.474115 2.440702 0.038520 -0.038528 874571.000000 0 0 1
3.517145 -23.767607 -29.543309 38.079871 -1.423882 2.458818 0.056169 -0.039141 722343.000000 0 0 1
4.244445 -24.005007 -30.699109 39.200650 -1.395790 2.470476 0.076778 -0.039521 -234673.000000 0 0 1
5.335345 -22.996507 -31.130009 39.068948 -1.342823 2.492772 0.095581 -0.045433 938206.000000 0 0 1
6.553345 -22.829307 -30.336779 38.528480 -1.291254 2.477353 0.082356 -0.041015 2065120.000000 0 0 1
7.578645 -23.829907 -30.477279 39.422898 -1.262881 2.454488 0.089972 -0.034111 330807.000000 0 0 1
8.348145 -23.923307 -31.797489 40.658289 -1.235053 2.468771 0.100218 -0.029620 -670509.000000 0 0 1
7.528845 -24.394207 -32.850069 41.603940 -1.271439 2.480937 0.077092 -0.035275 -122016.000000 0 0 1
7.821145 -23.928107 33.209826 41.672738 -1.254883 0.648618 0.101844 -0.038823 -130210.000000 0 0 1
7.135445 -22.596207 32.804388 40.467654 -1.264925 0.625565 0.096000 -0.031701 933307.000000 0 0 1
5.696645 -22.734507 32.795862 40.309777 -1.325279 0.620486 0.101794 -0.032227 912354.000000 0 0 1
5.100245 -21.470507 32.582812 39.352697 -1.337572 0.595320 0.126722 -0.050713 154221.000000 0 0 1
3.588145 -21.412707 32.925725 39.439601 -1.404768 0.582956 0.106191 -0.050111 421013.000000 0 0 1
2.817645 -22.406207 32.251584 39.371841 -1.445700 0.610863 0.103066 -0.048105 -35223.500000 0 0 1
2.276545 -23.300307 33.189281 40.615457 -1.473401 0.614332 0.094905 -0.037457 -538564.000000 0 0 1
0.915445 -23.883507 32.825567 40.605145 -1.532486 0.629352 0.118898 -0.049581 -267195.000000 0 0 1
0.949945 -24.780907 31.777851 40.309149 -1.532481 0.662669 0.124601 -0.049504 -1280090.000000 0 0 1
-0.335155 -25.186607 31.578515 40.394060 1.557490 0.673311 0.147620 -0.056313 -1375770.000000 0 0 1
-0.433655 -26.275507 30.479316 40.243993 1.554294 0.711531 0.149395 -0.064653 887475.000000 0 0 1
-1.795955 -26.458207 30.048646 40.077216 1.503021 0.723084 0.170995 -0.058647 884083.000000 0 0 1
-1.887555 -27.521407 29.135116 40.122882 1.502319 0.758095 0.180891 -0.069111 772799.000000 0 0 1
-3.278155 -27.616907 28.394356 39.745179 1.452648 0.775016 0.202634 -0.059082 925331.000000 0 0 1
-4.369755 -28.022507 29.217796 40.718979 1.416105 0.770522 0.208096 -0.055016 -75319.400000 0 0 1
-5.479655 -28.253407 28.381846 40.420425 1.379228 0.792361 0.189235 -0.046519 162044.000000 0 0 1
-6.694155 -28.798107 29.216716 41.566322 1.342401 0.791338 0.152158 -0.037249 480609.000000 0 0 1
-7.719455 -29.346107 28.371896 41.542128 1.313575 0.818980 0.148425 -0.028852 1076520.000000 0 0 1
-9.038155 -29.377707 28.942856 42.218797 1.272333 0.815445 0.128293 -0.027896 718039.000000 0 0 1
-9.363355 -30.280207 30.186746 43.769886 1.270899 0.809764 0.079329 -0.019449 -553550.000000 0 0 1
-9.466555 -31.674507 29.951346 44.609115 1.280377 0.834676 0.090225 -0.019765 -419499.000000 0 0 1
-10.596055 -32.076507 29.243416 44.680600 1.251745 0.857276 0.085391 -0.020092 -766897.000000 0 0 1
-10.664255 -33.484607 28.685936 45.363291 1.262471 0.886200 0.098785 -0.013063 -228594.000000 0 0 1
-10.898955 33.174572 29.658836 45.814692 -1.253372 0.866674 0.089634 -0.013251 148443.000000 0 0 1
-10.549855 31.871772 29.278726 44.546078 -1.251139 0.853608 0.089870 -0.018241 42673.700000 0 0 1
-11.180155 30.727672 30.163156 44.485971 -1.221840 0.825707 0.080339 -0.001360 527116.000000 0 0 1
-12.602855 30.721672 30.083216 44.806840 -1.181505 0.834703 0.079965 0.005834 390829.000000 0 0 1
-13.312055 29.599972 30.611686 44.614397 -1.148165 0.814628 0.077367 -0.001715 87960.000000 0 0 1
-13.431855 29.367272 32.122514 45.548955 -1.141826 0.788048 0.079119 -0.013351 -807190.000000 0 0 1
-14.291955 30.248672 32.748609 46.815740 -1.129404 0.796069 0.090015 -0.004616 -178533.000000 0 0 1
-14.461155 29.889772 -33.231179 46.976960 -1.120179 2.356600 0.090811 -0.007414 -381432.000000 0 0 1
-15.859755 30.130472 -32.665509 47.184877 -1.086276 2.335451 0.084094 -0.001800 -435712.000000 0 0 1
-15.953055 29.588372 -31.398019 45.997906 -1.076309 2.322106 0.068604 0.004637 214048.000000 0 0 1
-17.228955 29.649272 -30.766349 46.070429 -1.044396 2.302061 0.086114 0.007559 371129.000000 0 0 1
-17.242655 29.219872 -29.307769 44.833641 -1.037688 2.283260 0.089790 -0.002619 16563.900000 0 0 1
-17.258555 27.812172 -29.158329 43.835862 -1.015411 2.298519 0.079011 -0.002856 94241.900000 0 0 1
-17.239655 27.491072 -27.802119 42.730815 -1.010688 2.279215 0.062290 0.001334 -100810.000000 0 0 1
-17.692855 26.081672 -27.435309 41.785008 -0.974740 2.287075 0.047683 -0.008926 558521.000000 0 0 1
-19.106855 25.943772 -27.553309 42.395000 -0.936010 2.278274 0.049979 -0.003776 211399.000000 0 0 1
-19.557055 24.658872 -27.247849 41.629120 -0.900274 2.284368 0.044419 -0.005582 855192.000000 0 0 1
-21.053555 24.375772 -27.656699 42.453780 -0.858398 2.280296 0.059830 -0.007709 964707.000000 0 0 1
-22.002855 25.151672 -26.933019 42.919922 -0.852076 2.249158 0.074161 -0.009508 -513283.000000 0 0 1
-23.286755 24.780972 -27.321919 43.621747 -0.816474 2.247642 0.098335 -0.013579 -318371.000000 0 0 1
-24.359055 24.921072 -26.213369 43.606927 -0.796802 2.215709 0.106588 -0.012808 29709.200000 0 0 1
-24.739055 26.230872 -25.828479 44.353014 -0.814658 2.192399 0.088627 -0.004002 63985.500000 0 0 1
-25.857405 26.460172 -24.988629 44.645018 -0.796919 2.164842 0.092252 -0.004036 262708.000000 0 0 1
-25.804515 25.878072 -23.514329 43.456545 -0.786821 2.142541 0.088780 -0.001557 -581584.000000 0 0 1
-25.941195 24.467872 -23.434929 42.671047 -0.756179 2.152203 0.104123 0.002736 463274.000000 0 0 1
-27.212205 23.923372 -23.037229 42.936532 -0.721171 2.137130 0.107466 0.005866 563789.000000 0 0 1
-27.772685 24.104972 -21.592629 42.645203 -0.714816 2.101722 0.088410 0.003638 -2988.040000 0 0 1
-27.182515 23.400872 -20.476129 41.300869 -0.710776 2.089529 0.100884 0.003598 654642.000000 0 0 1
-25.878055 23.845872 -20.107529 40.529151 -0.744552 2.089927 0.089520 0.009291 221179.000000 0 0 1
-25.270945 23.181372 -18.883529 39.148235 -0.742298 2.074143 0.081575 0.006638 -398320.000000 0 0 1
-25.947625 23.442472 -17.695829 39.191467 -0.734720 2.039267 0.079309 0.005165 -147927.000000 0 0 1
-25.208885 23.159172 -16.562029 38.028094 -0.743046 2.021413 0.094350 -0.019928 -634057.000000 0 0 1
-26.059875 23.261572 -15.324329 38.145155 -0.728723 1.984209 0.099754 -0.025180 -691148.000000 0 0 1
-26.336015 24.584072 -14.919129 38.994137 -0.751006 1.963404 0.107871 -0.024693 48683.000000 0 0 1
-26.907695 24.646972 -13.607729 38.944416 -0.741575 1.927742 0.090265 -0.034497 79507.000000 0 0 1
-26.740115 26.047272 -12.970329 39.518648 -0.772274 1.905202 0.089455 -0.028056 -115001.000000 0 0 1
-25.379225 26.354672 -12.891229 38.792494 -0.804251 1.909551 0.105197 -0.028704 -549757.000000 0 0 1
-25.227585 27.505272 -12.013429 39.208335 -0.828564 1.882205 0.117247 -0.028634 929119.000000 0 0 1
-23.729755 27.873972 -11.680129 38.425057 -0.865535 1.879655 0.125372 -0.027992 279867.000000 0 0 1
-23.020555 26.895572 -11.116529 37.106535 -0.862873 1.875053 0.118273 -0.031147 -1120130.000000 0 0 1
-21.869455 27.376372 -10.497629 36.577849 -0.896761 1.861884 0.111435 -0.028460 -463676.000000 0 0 1
-20.957355 26.264472 -10.007129 35.059604 -0.897315 1.860253 0.137456 -0.031575 -102754.000000 0 0 1
-20.276055 25.486472 -11.017429 34.381134 -0.898768 1.897001 0.127255 -0.043213 -21777.300000 0 0 1
-19.309655 24.723172 -10.359029 33.036457 -0.907727 1.889740 0.134512 -0.029661 -589476.000000 0 0 1
-18.464355 23.827272 -11.260029 32.178557 -0.911533 1.928286 0.124873 -0.038616 -338234.000000 0 0 1
-17.843955 22.726772 -10.715829 30.817882 -0.905175 1.925929 0.091055 -0.029442 -109573.000000 0 0 1
-17.522355 21.708772 -11.616429 30.219946 -0.891707 1.965350 0.090443 -0.012253 122263.000000 0 0 1
-17.304255 20.388972 -10.842229 28.856565 -0.867054 1.955979 0.077139 -0.004148 67384.200000 0 0 1
-18.527755 19.722872 -10.619529 29.069637 -0.816632 1.944766 0.079096 -0.001148 190039.000000 0 0 1
-18.217055 18.455172 -10.102729 27.830192 -0.791891 1.942296 0.102908 -0.021173 448443.000000 0 0 1
-19.473755 17.471772 -10.081029 28.037780 -0.731264 1.938584 0.106227 -0.009209 921742.000000 0 0 1
-19.939055 16.980472 -11.334229 28.537118 -0.705433 1.979233 0.105966 -0.011006 123872.000000 0 0 1
-20.702155 17.895472 -12.090629 29.916725 -0.712809 1.986838 0.112450 -0.015938 -418787.000000 0 0 1
-21.415555 17.287572 -13.341729 30.585746 -0.679142 2.022176 0.116678 -0.017288 168524.000000 0 0 1
-20.540255 17.078572 -14.409829 30.351653 -0.693637 2.065491 0.115590 -0.024126 195533.000000 0 0 1
-21.342655 16.636172 -15.483829 31.177237 -0.662103 2.090518 0.123762 -0.022609 192242.000000 0 0 1
-20.536655 16.369272 -16.773329 31.161705 -0.672955 2.139176 0.132499 -0.026753 -190419.000000 0 0 1
-20.008155 17.555272 -17.346929 31.771525 -0.720191 2.148366 0.119075 -0.025410 532835.000000 0 0 1
-19.221155 17.211872 -18.515729 31.757417 -0.730304 2.193257 0.119323 -0.015786 -370549.000000 0 0 1
-18.449155 18.419872 -18.988729 32.252672 -0.784604 2.200307 0.095486 -0.017521 87182.900000 0 0 1
-17.172055 18.575872 -18.348629 31.250835 -0.824648 2.198318 0.112209 -0.017360 627208.000000 0 0 1
-16.914155 19.920272 -18.375529 31.946298 -0.866829 2.183646 0.113241 -0.022405 -50353.300000 0 0 1
34.806406 30.082372 3.016471 46.103514 0.712724 1.505321 0.075254 -0.000110 86028.600000 0 0 1
35.632316 29.987372 1.863771 46.608776 0.699584 1.530798 0.092675 -0.007587 153413.000000 0 0 1
35.415056 30.988472 0.891671 47.067044 0.718835 1.551850 0.071735 0.006343 -283277.000000 0 0 1
36.604926 31.052272 -0.076629 48.001771 0.703511 1.572393 0.048219 0.008233 -72568.700000 0 0 1
37.731896 31.678472 0.495671 49.269333 0.698406 1.560736 0.056225 0.005513 252906.000000 0 0 1
-37.102245 31.666772 -0.447529 48.780747 -0.706523 1.579971 0.046361 0.007747 487191.000000 0 0 1
-36.163805 32.887172 -0.214929 48.881827 -0.737981 1.575193 0.056178 -0.000686 -169023.000000 0 0 1
-35.405845 32.759872 0.931271 48.245729 -0.746601 1.551492 0.044199 0.009608 -159105.000000 0 0 1
-34.642117 -33.771007 1.334471 48.397706 0.772666 1.543220 0.042035 0.000405 79485.200000 0 0 1
-34.001635 33.592972 2.745771 47.876280 -0.779352 1.513413 0.061593 -0.000723 -44976.400000 0 0 1
-33.348765 -32.900307 3.237871 46.958004 0.778629 1.501789 0.076127 -0.006325 87537.600000 0 0 1
-32.911355 -33.126807 4.566071 46.918990 0.788661 1.473324 0.089649 -0.005076 -237970.000000 0 0 1
-32.537925 -31.893907 5.420971 45.883818 0.775403 1.452374 0.108188 -0.009947 -603480.000000 0 0 1
-33.550425 -31.157607 6.018171 46.180579 0.748436 1.440106 0.089663 -0.008076 -450704.000000 0 0 1
-34.019004 -31.875407 7.223371 47.175325 0.752879 1.417074 0.077835 -0.020220 -403554.000000 0 0 1
-35.194521 -31.191107 7.948371 47.693983 0.725166 1.403362 0.081186 -0.021115 1106220.000000 0 0 1
-36.531415 -31.225407 7.431171 48.629133 0.707248 1.417382 0.060844 -0.013173 658624.000000 0 0 1
-37.236335 -32.438407 7.347471 49.927750 0.716645 1.423098 0.058010 -0.004779 187744.000000 0 0 1
37.152436 -32.142007 7.163971 49.646093 -0.713217 1.425990 0.064663 0.002220 528187.000000 0 0 1
36.505526 -31.929207 8.410171 49.222542 -0.718626 1.399094 0.058687 0.008723 1007160.000000 0 0 1
35.117466 -31.647207 8.111171 47.964291 -0.733467 1.400871 0.052430 0.013128 372758.000000 0 0 1
34.245926 -31.729007 9.325371 47.607518 -0.747267 1.373641 0.059839 0.010781 -979922.000000 0 0 1
32.878096 -31.608407 8.997071 46.486641 -0.765711 1.376026 0.062528 0.002558 154213.000000 0 0 1
31.928886 -31.721707 10.023971 46.110741 -0.782143 1.351658 0.081966 0.001857 -8013.260000 0 0 1
31.952836 -30.574307 11.027971 45.578373 -0.763355 1.326415 0.087916 -0.006214 -809707.000000 0 0 1
31.422446 -29.284907 10.675771 44.260004 -0.750202 1.327188 0.075162 -0.018360 128582.000000 0 0 1
31.792226 -28.704007 9.415471 43.855635 -0.734394 1.354419 0.066925 -0.015593 -271707.000000 0 0 1
31.322576 -27.326707 9.031171 42.537215 -0.717372 1.356856 0.060699 -0.022096 -42674.500000 0 0 1
31.560316 -27.073407 7.656171 42.280490 -0.709023 1.388711 0.064578 -0.029343 287977.000000 0 0 1
30.856726 -25.853407 7.317571 40.915559 -0.697400 1.390983 0.049855 -0.028094 426952.000000 0 0 1
31.011656 -25.500407 5.849071 40.573454 -0.688182 1.426132 0.041809 -0.016824 729620.000000 0 0 1
32.366996 -25.153407 5.549471 41.365600 -0.660640 1.436234 0.065090 -0.019734 368239.000000 0 0 1
32.401546 -24.612307 4.229071 40.908567 -0.649619 1.467233 0.057809 -0.009851 278665.000000 0 0 1
33.855876 -24.220007 3.869771 41.806748 -0.620977 1.478100 0.068342 -0.004342 143484.000000 0 0 1
34.655816 -25.306607 3.484071 43.053323 -0.630726 1.489783 0.066018 -0.001365 -660832.000000 0 0 1
35.993226 -24.900307 3.398271 43.898585 -0.605205 1.493307 0.066671 -0.007854 -330922.000000 0 0 1
36.999676 -26.016307 3.209971 45.344549 -0.612837 1.499946 0.066399 -0.009963 -220204.000000 0 0 1
36.808836 -26.851007 4.325671 45.766564 -0.630233 1.476139 0.050573 -0.015154 -384918.000000 0 0 1
37.369206 -28.121907 4.298571 46.965699 -0.645126 1.479142 0.045116 -0.008030 -959881.000000 0 0 1
36.926846 -28.973407 5.522171 47.260391 -0.665290 1.453683 0.061394 -0.002798 -183845.000000 0 0 1
35.618516 -29.450107 5.465271 46.538765 -0.690882 1.453090 0.051109 0.003958 -521900.000000 0 0 1
34.579656 -28.513707 5.688771 45.179046 -0.689550 1.444545 0.051961 0.001749 -1384840.000000 0 0 1
33.218956 -29.165707 5.652771 44.565584 -0.720517 1.443612 0.042960 0.000919 -1025220.000000 0 0 1
32.759856 -29.458307 4.342071 44.270233 -0.732384 1.472557 0.027837 -0.002912 -43795.000000 0 0 1
31.784376 -28.557507 3.811771 42.898803 -0.731973 1.481824 0.039052 -0.008143 567873.000000 0 0 1
30.366726 -29.206707 3.957771 42.318243 -0.765929 1.477135 0.046721 -0.005717 237686.000000 0 0 1
30.205826 -30.384307 3.137471 42.958605 -0.788344 1.497696 0.058218 -0.000312 787308.000000 0 0 1
28.965926 -31.107107 3.392971 42.640230 -0.821026 1.491140 0.073031 0.001283 1100290.000000 0 0 1
29.025326 -32.557207 2.806071 43.707153 -0.842687 1.506551 0.074914 0.001599 -15614.200000 0 0 1
29.037626 -32.600807 1.359071 43.678866 -0.843142 1.539676 0.071932 -0.002378 107038.000000 0 0 1
29.043726 33.734672 0.903571 44.523954 0.859982 1.550501 0.064463 -0.005361 4890.730000 0 0 1
28.610826 33.535972 -0.587929 44.086125 0.864483 1.584133 0.057848 -0.006068 290183.000000 0 0 1
29.592826 -33.503207 -1.446729 44.724638 -0.847294 1.603149 0.059305 -0.008063 531154.000000 0 0 1
29.296026 -33.638107 -2.831629 44.696728 -0.854283 1.634191 0.056507 -0.012358 402905.000000 0 0 1
30.455526 -33.181107 -3.801329 45.199281 -0.828202 1.654997 0.045420 -0.004967 663261.000000 0 0 1
30.586726 -31.733907 -3.683029 44.228422 -0.803804 1.654166 0.032140 -0.014005 123996.000000 0 0 1
31.586376 -31.237207 -4.557829 44.656870 -0.779840 1.673038 0.028738 -0.017025 92381.200000 0 0 1
31.812956 -29.718407 -4.478029 43.764147 -0.751371 1.673298 0.029349 -0.008324 -625753.000000 0 0 1
30.664826 -29.116307 -5.012829 42.581913 -0.759501 1.688792 0.032689 -0.024880 -131259.000000 0 0 1
30.652626 -27.665007 -4.943029 41.585690 -0.734213 1.689942 0.042316 -0.024010 -17414.100000 0 0 1
31.670766 -26.861107 -5.843829 41.936938 -0.703411 1.710599 0.074209 -0.028759 50665.700000 0 0 1
33.012656 -27.101407 -5.440729 43.057208 -0.687379 1.697496 0.066075 -0.030102 -31104.400000 0 0 1
33.911466 -26.385107 -6.278629 43.423295 -0.661218 1.715896 0.081960 -0.031057 194573.000000 0 0 1
34.281526 -27.072607 -7.640529 44.345538 -0.668438 1.743956 0.099365 -0.001818 305019.000000 0 0 1
33.110216 -27.083507 -8.502529 43.613022 -0.685609 1.767007 0.097806 -0.006571 801170.000000 0 0 1
33.111346 -28.171507 -9.506529 44.501338 -0.704965 1.786079 0.088920 -0.001681 142403.000000 0 0 1
33.004446 -29.666907 -9.074429 45.296402 -0.732194 1.772496 0.086665 -0.002953 1702860.000000 0 0 1
34.222676 -30.069207 -8.327029 46.310778 -0.720884 1.751587 0.094210 -0.000157 1099330.000000 0 0 1
34.060156 -31.355807 -7.790929 46.946559 -0.744081 1.737521 0.093025 -0.009539 -343358.000000 0 0 1
35.299506 -32.130407 -7.357929 48.296555 -0.738434 1.723741 0.081587 -0.012799 -450441.000000 0 0 1
35.159746 -33.398807 -6.736729 48.959897 -0.759719 1.708831 0.065197 -0.012382 -74600.000000 0 0 1
34.663586 -33.371507 -5.392529 48.417982 -0.766409 1.682402 0.057925 -0.013391 -75081.200000 0 0 1
34.576086 32.876772 -4.737629 47.946146 0.760211 1.669769 0.024557 -0.001677 217765.000000 0 0 1
33.421816 32.146472 -5.150529 46.657704 0.765950 1.681411 0.037528 -0.014130 461602.000000 0 0 1
33.374966 30.782072 -4.748929 45.650592 0.745005 1.675013 0.039245 -0.002148 -410926.000000 0 0 1
32.167006 30.064872 -5.325329 44.350557 0.751632 1.691160 0.055486 -0.014577 -586296.000000 0 0 1
32.294716 29.635172 -6.662929 44.334937 0.742480 1.721654 0.036741 -0.010378 -1082360.000000 0 0 1
31.087196 29.271972 -7.192429 43.301190 0.755334 1.737672 0.027879 -0.006982 -1186050.000000 0 0 1
31.080106 29.068072 -8.712229 43.437641 0.751959 1.772735 0.039021 -0.009395 -214205.000000 0 0 1
31.770566 27.905372 -9.176829 43.269999 0.720719 1.784502 0.057011 -0.011129 183944.000000 0 0 1
31.946296 27.823272 -10.573829 43.663556 0.716525 1.815394 0.044868 -0.012788 70655.400000 0 0 1
33.188276 28.607672 -11.056629 45.189706 0.711409 1.817977 0.070067 -0.017147 343708.000000 0 0 1
34.427026 28.125272 -10.505229 45.679436 0.684993 1.802851 0.057746 -0.019530 1124720.000000 0 0 1
35.610536 28.739372 -11.005629 47.065758 0.679023 1.806817 0.078676 -0.019221 368352.000000 0 0 1
36.022906 30.146872 -10.457329 48.123168 0.696828 1.789847 0.079890 -0.026187 -787660.000000 0 0 1
36.492436 29.972472 -9.166829 48.104861 0.687615 1.762528 0.064031 -0.018873 92211.900000 0 0 1
36.428686 31.202172 -8.475529 48.707897 0.708271 1.745694 0.063971 -0.013637 -606153.000000 0 0 1
37.484966 31.308672 -7.336629 49.388072 0.695858 1.719899 0.060932 -0.001382 2227240.000000 0 0 1
-37.078585 31.541772 -7.894829 49.315648 -0.704885 1.731576 0.075121 -0.006527 1571490.000000 0 0 1
-36.321585 30.399872 -8.147929 48.060363 -0.696877 1.741154 0.089205 -0.019931 -246502.000000 0 0 1
-34.870907 30.758772 -8.577629 47.282744 -0.722823 1.753218 0.144718 -0.021355 293673.000000 0 0 1
-34.018993 31.302272 -7.559729 46.843074 -0.743832 1.732889 0.137621 -0.019590 676506.000000 0 0 1
-32.748725 31.751072 -8.023829 46.314052 -0.769932 1.744923 0.174178 -0.030105 511403.000000 0 0 1
-32.756245 33.084372 -8.794129 47.380206 -0.790382 1.757487 0.129298 -0.026931 -577108.000000 0 0 1
-32.891735 -33.328007 -8.072729 47.516221 0.791986 1.741519 0.098224 -0.023518 32254.200000 0 0 1
-31.811995 -32.885807 -7.246829 46.324894 0.801994 1.727876 0.157425 -0.033570 123592.000000 0 0 1
-31.992195 -31.596607 -6.385529 45.416088 0.779177 1.711864 0.114109 -0.035472 344439.000000 0 0 1
-32.990525 -31.663507 -5.343529 46.038090 0.764876 1.687126 0.109450 -0.040654 456663.000000 0 0 1
-32.670015 -32.482007 -4.177329 46.258629 0.782512 1.661223 0.131919 -0.037191 -373742.000000 0 0 1
-33.846035 -32.563807 -3.219929 47.077846 0.766093 1.639246 0.106850 -0.028441 -618838.000000 0 0 1
-34.217668 -31.295807 -2.772129 46.453859 0.740828 1.630507 0.078950 -0.027820 -16937.200000 0 0 1
-35.189204 -31.303707 -1.744829 47.130103 0.727030 1.607826 0.078128 -0.016289 -17028.700000 0 0 1
-35.859010 -29.922207 -1.622429 46.731567 0.695391 1.605521 0.090849 -0.019959 356976.000000 0 0 1
-36.958025 -29.937007 -0.720929 47.567213 0.680825 1.585953 0.069322 -0.006506 69638.700000 0 0 1
-37.733565 -28.747307 -0.769229 47.442821 0.651042 1.587011 0.080410 -0.013578 -505900.000000 0 0 1
37.229296 -28.622507 0.383671 46.961852 -0.655435 1.562626 0.076626 -0.010087 -1560970.000000 0 0 1
36.157776 -29.506207 0.128471 46.669235 -0.684445 1.568044 0.040665 -0.006295 127723.000000 0 0 1
35.136446 -29.456007 1.139771 45.864204 -0.697681 1.545943 0.043359 -0.007166 631715.000000 0 0 1
34.278516 -28.169307 1.132871 44.382540 -0.687879 1.545268 0.036888 -0.004662 -1532740.000000 0 0 1
33.324876 -28.020207 0.133071 43.539603 -0.699140 1.567740 0.031624 -0.006774 -372190.000000 0 0 1
32.708526 -26.777007 0.188071 42.271635 -0.686013 1.566347 0.036953 -0.009800 253865.000000 0 0 1
31.406816 -26.635107 -0.687529 41.186037 -0.703371 1.587490 0.034090 -0.012066 274387.000000 0 0 1
30.267226 -27.228507 -0.128429 40.712566 -0.732596 1.573951 0.035681 -0.000615 -202317.000000 0 0 1
30.059726 -28.653507 -0.204229 41.528933 -0.761452 1.575714 0.039686 -0.001953 -413557.000000 0 0 1
29.641526 -29.242307 -1.596429 41.668707 -0.778618 1.609118 0.034959 -0.017171 218775.000000 0 0 1
28.401626 -28.750707 -2.100529 40.468107 -0.791506 1.622725 0.051963 -0.008767 291446.000000 0 0 1
27.930826 -29.263007 -3.296529 40.587211 -0.808686 1.652107 0.043231 -0.005856 568618.000000 0 0 1
26.430326 -29.721707 -3.200029 39.902157 -0.843947 1.651079 0.049095 -0.008010 606648.000000 0 0 1
25.490326 -28.722507 -3.189029 38.534517 -0.844948 1.653649 0.059824 -0.006453 -584755.000000 0 0 1
24.169626 -29.138507 -3.472729 38.016881 -0.878340 1.662271 0.047390 -0.002434 246251.000000 0 0 1
23.192026 -27.959807 -3.616629 36.506175 -0.878338 1.670028 0.040458 -0.004042 -59322.800000 0 0 1
23.183326 -27.367507 -4.911629 36.201811 -0.867982 1.706890 0.052204 -0.014482 -173431.000000 0 0 1
22.781426 -26.070107 -4.799629 34.952543 -0.852617 1.708550 0.076479 -0.023415 -263956.000000 0 0 1
22.235926 -25.512107 -6.109329 34.389357 -0.853905 1.749396 0.087493 -0.048580 -21519.500000 0 0 1
20.952126 -25.981107 -6.486329 34.001205 -0.892143 1.762740 0.094857 -0.044857 -183784.000000 0 0 1
20.469626 -25.387607 -7.670429 33.501815 -0.892235 1.801801 0.119165 -0.048571 -570500.000000 0 0 1
18.987926 -25.694207 -7.817129 32.891353 -0.934375 1.810758 0.105593 -0.040176 -412348.000000 0 0 1
18.249026 -25.103007 -6.742229 31.759180 -0.942201 1.784716 0.094322 -0.041901 -541367.000000 0 0 1
16.874126 -25.302707 -6.841729 31.173263 -0.982639 1.792072 0.092256 -0.038703 -616794.000000 0 0 1
16.002126 -24.538807 -5.870629 29.877840 -0.992936 1.768571 0.090392 -0.028505 -278514.000000 0 0 1
16.121126 -24.949707 -4.522729 30.047190 -0.997136 1.721891 0.077303 -0.026762 35999.100000 0 0 1
15.619926 -23.920607 -3.687329 28.805796 -0.992322 1.699155 0.096167 -0.022192 78535.300000 0 0 1
15.501826 -24.295307 -2.166929 28.900936 -1.002862 1.645845 0.087255 -0.018632 222752.000000 0 0 1
14.638826 -25.407607 -1.897829 29.384408 -1.048091 1.635428 0.088457 -0.011448 280222.000000 0 0 1
15.382026 -26.627407 -1.909029 30.810224 -1.046953 1.632797 0.085210 -0.014081 129853.000000 0 0 1
14.599526 -27.977407 -2.075429 31.625762 -1.089835 1.636468 0.085914 -0.004262 279677.000000 0 0 1
13.667026 -28.369007 -1.082129 31.508080 -1.121848 1.605148 0.100378 -0.019589 41328.800000 0 0 1
13.052726 -29.624707 -1.261929 32.397366 -1.155785 1.609758 0.087297 -0.017414 305670.000000 0 0 1
13.896726 -30.906707 -0.860129 33.898131 -1.148246 1.596173 0.077040 -0.012322 585890.000000 0 0 1
15.006726 -31.185107 -1.720829 34.650742 -1.122290 1.620479 0.071812 -0.006136 87427.500000 0 0 1
15.777726 -32.244607 -1.185129 35.917347 -1.115734 1.603798 0.067428 -0.006098 -246958.000000 0 0 1
17.099226 -32.330307 -1.988729 36.627685 -1.084304 1.625119 0.043077 0.001467 -328035.000000 0 0 1
17.985226 -31.409107 -1.443329 36.222693 -1.050759 1.610653 0.039603 0.010440 -401302.000000 0 0 1
19.155926 -31.152907 -2.194329 36.636978 -1.019493 1.630726 0.035193 0.015455 211569.000000 0 0 1
20.054526 -30.145807 -1.393529 36.233901 -0.983774 1.609265 0.033901 0.012679 -173811.000000 0 0 1
19.637726 -28.808807 -1.487629 34.897000 -0.972487 1.613438 0.024434 0.005321 -232053.000000 0 0 1
20.224626 -27.927207 -0.598629 34.486558 -0.944019 1.588156 0.022603 0.012492 -548552.000000 0 0 1
19.749426 -26.433307 -0.594129 33.001704 -0.929127 1.588800 0.028165 0.007573 -310675.000000 0 0 1
19.844826 -25.653507 -1.806829 32.483598 -0.912379 1.626448 0.034356 0.005244 436979.000000 0 0 1
19.009126 -26.052307 -2.912629 32.381367 -0.940445 1.660866 0.050544 -0.004243 37622.800000 0 0 1
33.923786 -28.823507 13.894771 46.633490 -0.704294 1.268245 0.077257 -0.046125 -131991.000000 0 0 1
34.945946 -29.462307 14.588371 47.979862 -0.700464 1.261853 0.086801 -0.037268 -322802.000000 0 0 1
34.440866 -30.077707 15.744671 48.360483 -0.717875 1.239183 0.083496 -0.031444 557896.000000 0 0 1
35.516166 -30.223407 16.883771 49.597520 -0.705060 1.223437 0.077211 -0.019222 251712.000000 0 0 1
34.887146 -30.746607 18.046671 49.881350 -0.722396 1.200607 0.081108 -0.020189 422225.000000 0 0 1
35.797446 -30.853007 19.123271 50.981022 -0.711349 1.186286 0.053701 -0.012015 -214669.000000 0 0 1
36.511146 -32.235607 19.078071 52.308421 -0.723286 1.197461 0.032853 -0.002628 -449088.000000 0 0 1
37.364716 -32.374907 17.984371 52.608879 -0.713971 1.221911 0.048080 0.001060 -437898.000000 0 0 1
37.945026 -33.660607 18.009071 53.825533 -0.725636 1.229634 0.045790 0.010432 -715913.000000 0 0 1
-36.974175 -33.798207 16.875071 52.859970 0.740552 1.245868 0.063660 0.007410 -611874.000000 0 0 1
-35.943214 -32.899907 17.210071 51.676929 0.741221 1.231279 0.073255 0.003802 -56235.200000 0 0 1
-34.920937 -32.801407 16.233071 50.585736 0.754111 1.244114 0.083562 0.004406 -599453.000000 0 0 1
-33.742455 -31.947807 16.612871 49.347777 0.758085 1.227441 0.070722 -0.002514 -1021190.000000 0 0 1
-32.652205 -31.922907 15.761671 48.308061 0.774105 1.238437 0.088963 -0.005557 -444998.000000 0 0 1
-32.805765 -31.011807 14.678871 47.470197 0.757295 1.256421 0.086776 -0.002951 -786167.000000 0 0 1
-31.553505 -30.955307 13.778571 46.300148 0.775829 1.268627 0.082376 -0.013140 -178388.000000 0 0 1
-30.398685 -30.569607 14.473071 45.475825 0.788202 1.246904 0.065304 -0.011372 -554614.000000 0 0 1
-29.366905 -30.392407 13.504071 44.367482 0.802557 1.261521 0.054422 -0.001950 215287.000000 0 0 1
-28.056995 -29.977007 14.214771 43.449691 0.818470 1.237505 0.058266 -0.011421 67588.000000 0 0 1
-26.972845 -29.817907 13.317471 42.355601 0.835454 1.250950 0.060986 -0.004122 80227.100000 0 0 1
-25.823575 -29.494507 14.129671 41.670500 0.851661 1.224857 0.054462 -0.015353 220260.000000 0 0 1
-24.494055 -29.594807 13.386171 40.681702 0.879423 1.235503 0.072210 -0.010918 -305923.000000 0 0 1
-24.115355 -30.898307 12.923471 41.270714 0.908075 1.252300 0.083537 -0.010831 -254165.000000 0 0 1
-22.872055 -30.839307 12.279171 40.310939 0.932659 1.261266 0.064984 -0.013779 -78848.100000 0 0 1
-22.353955 -32.282707 11.971971 41.051194 0.965160 1.274860 0.062171 -0.014097 16886.700000 0 0 1
-23.001755 -32.892907 10.855371 41.579600 0.960546 1.306661 0.073192 -0.012417 41784.700000 0 0 1
-22.755155 33.323772 10.658571 41.735788 -0.971673 1.312553 0.098599 -0.004436 -352436.000000 0 0 1
-23.682355 32.720172 9.653371 41.528919 -0.944285 1.336201 0.094971 0.001022 -263740.000000 0 0 1
-23.358755 33.170672 8.348571 41.420086 -0.957258 1.367848 0.102844 -0.007490 -59964.700000 0 0 1
-24.402355 32.877372 7.474771 41.620532 -0.932291 1.390223 0.101885 -0.006656 -688057.000000 0 0 1
-24.207055 33.642472 6.118071 41.895444 -0.947077 1.424240 0.109115 -0.009419 -95791.900000 0 0 1
-23.460855 32.946172 5.110271 40.767350 -0.951998 1.445114 0.095756 -0.012313 1058020.000000 0 0 1
-22.043955 32.799572 5.294071 39.871983 -0.979055 1.437626 0.110960 -0.017414 1110650.000000 0 0 1
-21.119955 -33.541007 5.179571 39.973486 1.008842 1.440856 0.121113 -0.017024 -144470.000000 0 0 1
-21.205655 -32.441207 6.078471 39.230849 0.991850 1.415228 0.131887 -0.026008 2238.300000 0 0 1
-20.589055 -32.708307 7.327271 39.337405 1.008986 1.383435 0.125298 -0.028724 -39937.700000 0 0 1
-20.800555 -31.540507 8.325771 38.688307 0.987781 1.353898 0.118281 -0.035147 115888.000000 0 0 1
-19.898855 -30.471907 8.017071 37.266271 0.992299 1.353972 0.126351 -0.052459 135282.000000 0 0 1
-19.701055 -29.440607 8.984871 36.545982 0.981056 1.322399 0.117845 -0.041195 266178.000000 0 0 1
-19.056455 -29.861807 10.359571 36.907949 1.002793 1.286287 0.099074 -0.031906 293457.000000 0 0 1
-17.714855 -30.266607 10.194871 36.521486 1.041260 1.287890 0.093834 -0.038434 -96432.600000 0 0 1
-16.943755 -30.335107 11.393771 36.566755 1.061410 1.253932 0.101497 -0.040861 715660.000000 0 0 1
-15.577555 -31.054407 11.207471 36.505394 1.105852 1.258748 0.102940 -0.045698 705058.000000 0 0 1
-14.627755 -30.310307 10.451371 35.240844 1.121165 1.269697 0.103979 -0.044670 688748.000000 0 0 1
-13.460255 -31.076507 10.100971 35.340591 1.162057 1.280937 0.083500 -0.035741 590815.000000 0 0 1
-12.277055 -30.330707 9.501171 34.072718 1.186182 1.288200 0.079241 -0.024736 32910.000000 0 0 1
-11.564455 -29.511407 10.434771 33.369809 1.197323 1.252761 0.093707 -0.032973 113435.000000 0 0 1
-10.516155 -28.793807 9.785571 32.178101 1.220625 1.261796 0.105414 -0.031158 589974.000000 0 0 1
-9.484055 -28.104507 10.702671 31.533439 1.245339 1.224510 0.124851 -0.031495 120133.000000 0 0 1
-10.114855 -27.181407 11.530571 31.210467 1.214549 1.192384 0.110637 -0.039315 -247059.000000 0 0 1
-9.416755 -26.945407 12.764471 31.267586 1.234589 1.150278 0.111877 -0.024004 322229.000000 0 0 1
-9.818355 -25.529107 13.327971 30.426472 1.203641 1.117381 0.096753 -0.031158 710764.000000 0 0 1
-9.173255 -24.365807 12.741871 28.986142 1.210728 1.115660 0.099112 -0.031199 -35267.700000 0 0 1
-9.761755 -24.120307 11.523771 28.458362 1.186235 1.153889 0.088558 -0.028141 65269.500000 0 0 1
-9.044555 -22.989407 10.750871 26.942495 1.195973 1.160337 0.094419 -0.032093 243350.000000 0 0 1
-7.774555 -23.322307 10.217071 26.622589 1.249028 1.176916 0.080283 -0.028152 -250187.000000 0 0 1
-7.482455 -22.278007 9.297271 25.273226 1.246767 1.194079 0.082656 -0.022393 -85195.000000 0 0 1
-6.189155 -22.566807 8.541571 24.910336 1.303119 1.220802 0.082869 -0.022894 1030680.000000 0 1 0
-4.926155 -22.551707 9.242371 24.864993 1.355736 1.189954 0.090950 -0.038226 561445.000000 0 1 0
-3.800555 -22.587707 8.411471 24.400851 1.404100 1.218855 0.098682 -0.039354 246372.000000 0 1 0
-2.588555 -23.237507 9.126271 25.099226 1.459858 1.198659 0.102398 -0.043587 71534.500000 0 0 1
-1.863555 -22.459607 10.043671 24.673510 1.488012 1.151560 0.086737 -0.041220 -199220.000000 0 1 0
-0.913055 -23.315807 10.680471 25.661897 1.531656 1.141535 0.102075 -0.050452 168559.000000 0 0 1
0.037645 -22.639807 11.631571 25.453010 -1.569134 1.096197 0.090013 -0.045067 -497512.000000 0 0 1
-0.582855 -22.316107 12.834571 25.750234 1.544684 1.049015 0.090255 -0.042493 -526421.000000 0 0 1
0.288345 -22.322807 13.945771 26.322526 -1.557880 1.012427 0.110876 -0.047632 -402282.000000 0 0 1
1.024445 -21.005207 14.170371 25.358777 -1.522064 0.977864 0.085329 -0.038596 -255463.000000 0 0 1
2.164145 -20.915607 13.340071 24.901880 -1.467693 1.005453 0.086364 -0.041042 -315743.000000 0 1 0
2.573145 -19.583107 13.114871 23.709048 -1.440149 0.984645 0.070205 -0.034431 -858511.000000 0 1 0
4.035745 -19.447107 12.773871 23.614592 -1.366177 0.999252 0.083381 -0.029418 -553330.000000 0 1 0
4.369545 -20.069307 11.497571 23.538567 -1.356419 1.060476 0.073302 -0.017337 -616437.000000 0 1 0
5.750845 -20.242707 11.315871 23.893269 -1.293995 1.077422 0.103936 -0.020508 49179.700000 0 1 0
6.090945 -21.101207 10.094871 24.171614 -1.289781 1.139957 0.097562 -0.031594 -402814.000000 0 1 0
5.983445 -20.471207 8.869471 23.098472 -1.286432 1.176688 0.085006 -0.031381 -381868.000000 0 1 0
6.232345 -21.396707 7.804571 23.612973 -1.287362 1.233941 0.088120 -0.038871 69310.300000 0 1 0
7.714645 -21.811007 7.557171 24.338171 -1.230825 1.255070 0.093789 -0.032191 -169832.000000 0 1 0
8.541845 -20.845207 6.940571 23.572384 -1.181892 1.271930 0.102735 -0.040387 -79883.500000 0 1 0
9.038145 -19.803907 7.767171 23.113020 -1.142648 1.228075 0.102898 -0.020682 249481.000000 0 1 0
10.060245 -20.172407 8.912071 24.239627 -1.108179 1.194299 0.100743 -0.013317 559154.000000 0 1 0
9.425845 -20.574507 10.140871 24.799075 -1.141200 1.149525 0.108405 -0.014139 -211334.000000 0 1 0
10.176345 -20.010007 11.165471 25.072417 -1.100322 1.109255 0.100753 -0.004550 121794.000000 0 0 1
9.540445 -20.169607 12.565271 25.607014 -1.128972 1.057907 0.122493 -0.017852 84916.800000 0 0 1
9.363745 -21.519907 13.040971 26.848706 -1.160385 1.063609 0.106876 -0.024944 -421829.000000 0 0 1
8.465645 -21.538307 14.092271 27.095348 -1.196295 1.023829 0.141734 -0.035297 -137318.000000 0 0 1
8.477645 -22.838407 14.916071 28.564881 -1.215360 1.021389 0.152384 -0.046917 134022.000000 0 0 1
8.252245 -23.911107 14.046571 28.933488 -1.238474 1.063887 0.153403 -0.046780 -220116.000000 0 0 1
8.422845 -25.135207 14.684471 30.304399 -1.247455 1.064930 0.169319 -0.055489 113349.000000 0 0 1
8.525145 -26.286207 13.660471 30.826145 -1.257180 1.111692 0.174190 -0.059271 675814.000000 0 0 1
9.863645 -26.462407 13.172271 31.161822 -1.214007 1.134368 0.153300 -0.045064 381869.000000 0 0 1
9.909345 -27.466507 12.153571 31.627731 -1.224551 1.176380 0.143292 -0.037195 721204.000000 0 0 1
11.270545 -27.832707 11.444971 32.135216 -1.186040 1.206651 0.118817 -0.034533 505603.000000 0 0 1
12.230345 -28.449907 12.213971 33.289031 -1.164791 1.195115 0.095409 -0.034774 890665.000000 0 0 1
13.555145 -28.590907 11.653171 33.719108 -1.128077 1.217923 0.119936 -0.028576 1360940.000000 0 0 1
14.540345 -29.484307 12.447571 35.152354 -1.112639 1.208841 0.093474 -0.028661 -470815.000000 0 0 1
15.040745 -28.798807 13.582071 35.214598 -1.089492 1.174836 0.089236 -0.033396 320977.000000 0 0 1
16.093845 -29.398107 14.308771 36.441754 -1.069917 1.167288 0.071403 -0.026109 684644.000000 0 0 1
17.491245 -29.569607 13.650771 36.968214 -1.036630 1.192587 0.082284 -0.022867 -246510.000000 0 0 1
18.116045 -28.378507 13.237271 36.176734 -1.002639 1.196191 0.071077 -0.026641 1833520.000000 0 0 1
19.480145 -28.632607 12.756971 36.905860 -0.973382 1.217852 0.065630 -0.018146 1476940.000000 0 0 1
20.395745 -27.415007 12.613271 36.423393 -0.931170 1.217177 0.041515 -0.018513 -414986.000000 0 0 1
21.672645 -27.779007 12.178171 37.278473 -0.908258 1.238007 0.035171 -0.019166 -386852.000000 0 0 1
22.419545 -26.648507 11.799971 36.769800 -0.871371 1.244101 0.032469 -0.017675 505378.000000 0 0 1
23.830445 -26.911207 11.168271 37.640848 -0.846038 1.269555 0.045791 -0.017661 1091570.000000 0 0 1
24.721545 -27.470007 12.180771 38.911788 -0.838011 1.252409 0.063870 -0.027384 372138.000000 0 0 1
25.860845 -28.039007 11.564971 39.858722 -0.825787 1.276414 0.053701 -0.030500 -1111430.000000 0 0 1
26.872045 -28.528607 12.573271 41.159146 -0.815291 1.260354 0.077961 -0.028890 60568.200000 0 0 1
27.746745 -27.507607 13.185171 41.235894 -0.781070 1.245331 0.066831 -0.037489 1024520.000000 0 0 1
28.895345 -27.359407 12.343171 41.663316 -0.758102 1.270022 0.047011 -0.040054 118957.000000 0 0 1
30.185745 -26.717207 12.930571 42.334241 -0.724518 1.260396 0.083925 -0.053414 236446.000000 0 0 1
30.174245 -25.313407 13.086271 41.503061 -0.698019 1.250015 0.095540 -0.053613 323926.000000 0 0 1
29.677145 -24.836107 14.343371 41.271024 -0.696826 1.215849 0.107229 -0.052020 884374.000000 0 0 1
30.870745 -24.851207 15.399671 42.517469 -0.677787 1.200173 0.113235 -0.046518 849217.000000 0 0 1
31.085445 -26.213607 15.777171 43.616249 -0.700577 1.200677 0.135096 -0.044608 647287.000000 0 0 1
32.038745 -26.195807 16.892371 44.699593 -0.685398 1.183260 0.152403 -0.027726 638018.000000 0 0 1
32.192445 -27.526007 17.660871 45.890532 -0.707416 1.175753 0.115894 -0.011401 -770569.000000 0 0 1
31.086145 -28.072207 18.282571 45.701746 -0.734495 1.159235 0.101144 -0.021792 -773448.000000 0 0 1
31.406145 -29.165607 19.160371 46.947826 -0.748425 1.150402 0.117768 -0.025284 533278.000000 0 0 1
30.147045 -29.973907 19.644371 46.831407 -0.782518 1.137935 0.105178 -0.016148 -194620.000000 0 0 1
29.266045 -29.159207 20.406071 46.077852 -0.783570 1.112009 0.108939 -0.010973 1401960.000000 0 0 1
27.991945 -29.744707 20.763971 45.819636 -0.815747 1.100481 0.129540 -0.016526 1124960.000000 0 0 1
27.039645 -30.391707 19.753871 45.221827 -0.843698 1.118734 0.152032 -0.028730 -1054640.000000 0 0 1
27.421645 -31.620907 19.185671 46.042570 -0.856401 1.140991 0.138661 -0.024055 -272292.000000 0 0 1
26.698345 -31.963307 18.024271 45.379829 -0.874910 1.162347 0.150667 -0.022071 -299794.000000 0 0 1
26.893845 -31.114607 16.703771 44.389341 -0.858031 1.184995 0.144239 -0.019167 221688.000000 0 0 1
28.241545 -31.188607 16.260171 45.107729 -0.834946 1.202020 0.136531 -0.032371 266939.000000 0 0 1
28.555545 -30.065307 15.465871 44.255338 -0.811147 1.213792 0.122809 -0.049069 654156.000000 0 0 1
30.120245 -29.936907 15.330871 45.149564 -0.782345 1.224350 0.138123 -0.037305 883246.000000 0 0 1
30.805545 -30.730107 14.386371 45.828907 -0.784172 1.251483 0.172676 -0.032300 177169.000000 0 0 1
31.025145 -32.117107 14.730071 47.021730 -0.802690 1.252171 0.187729 -0.043334 36681.000000 0 0 1
29.937345 -33.171507 14.274071 46.907809 -0.836601 1.261592 0.173237 -0.042141 310930.000000 0 0 1
29.905945 -33.472807 12.878971 46.697561 -0.841617 1.291379 0.158133 -0.028057 173608.000000 0 0 1
29.318045 32.924372 12.544671 45.835911 0.843273 1.293573 0.126241 -0.036237 -290890.000000 0 0 1
29.394645 32.443672 11.111371 45.167461 0.834665 1.322241 0.130440 -0.030080 -972498.000000 0 0 1
30.601345 31.875072 10.759471 45.477782 0.805783 1.331944 0.133014 -0.025109 -634620.000000 0 0 1
30.698145 31.213172 9.525871 44.803799 0.793717 1.356548 0.127808 -0.034212 425733.000000 0 0 1
32.173545 30.723872 9.308171 45.450361 0.762354 1.364538 0.114078 -0.029154 800613.000000 0 0 1
32.665745 29.908772 10.368871 45.487350 0.741368 1.340824 0.104803 -0.029106 200456.000000 0 0 1
34.013345 29.522672 10.191771 46.177570 0.714836 1.348256 0.113684 -0.024813 176192.000000 0 0 1
34.619645 28.714072 11.346371 46.387044 0.692422 1.323687 0.105988 -0.033774 34924.100000 0 0 1
34.194645 27.346772 11.350271 45.232160 0.674581 1.317152 0.107559 -0.046894 114100.000000 0 0 1
34.602445 26.696972 12.514571 45.460664 0.657141 1.291912 0.114307 -0.059687 -137143.000000 0 0 1
34.438445 25.186972 12.529471 44.467715 0.631466 1.285163 0.107143 -0.062364 27942.300000 0 0 1
35.345245 24.510072 11.674671 44.568238 0.606315 1.305754 0.116125 -0.052684 -212331.000000 0 0 1
35.411845 23.079472 11.737971 43.868448 0.577601 1.299924 0.121495 -0.052185 -839736.000000 0 0 1
34.211145 22.346472 11.141871 42.354557 0.578616 1.304602 0.105230 -0.047831 -434002.000000 0 0 1
33.145145 22.353772 12.067071 41.760100 0.593352 1.277654 0.118983 -0.060468 -948156.000000 0 0 1
31.982745 22.106872 11.343871 40.500533 0.604804 1.286906 0.120736 -0.050504 -952520.000000 0 0 1
30.730945 22.062772 12.211271 39.752635 0.622661 1.258566 0.130607 -0.048111 -432308.000000 0 0 1
30.162945 23.290372 12.565771 40.126590 0.657528 1.252285 0.133582 -0.041470 -412743.000000 0 0 1
28.885945 23.032272 13.080171 39.191507 0.673124 1.230517 0.176426 -0.040300 -372557.000000 0 0 1
24.651245 9.382372 25.503186 36.689580 0.363675 0.802228 0.069278 -0.013605 -97599.300000 0 0 1
24.810345 8.076872 25.997986 36.833196 0.314724 0.787202 0.074825 -0.023991 719949.000000 0 0 1
23.555445 7.392372 25.999436 35.853547 0.304095 0.759535 0.054262 -0.021179 186738.000000 0 0 1
23.627845 6.142072 26.946076 36.360571 0.254322 0.736120 0.083386 -0.023036 -213085.000000 0 0 1
23.749045 6.437772 28.329646 37.523737 0.264713 0.715174 0.069377 -0.020845 539738.000000 0 0 1
25.071445 6.387972 28.864836 38.762898 0.249482 0.730784 0.054245 -0.019453 234325.000000 0 0 1
25.153945 6.421172 30.407446 39.982060 0.249937 0.706672 0.067401 -0.029189 -82283.000000 0 0 1
25.219445 7.729572 30.870216 40.604641 0.297403 0.707078 0.091667 -0.025589 105296.000000 0 0 1
25.356645 7.637572 32.310672 41.776446 0.292563 0.686580 0.087478 -0.021925 8460.770000 0 0 1
25.478745 8.961272 33.073039 42.700079 0.338202 0.684804 0.140709 -0.024132 743638.000000 0 0 1
26.704845 9.706472 32.869887 43.448749 0.348626 0.712820 0.104551 -0.022792 632114.000000 0 0 1
27.101345 10.309872 -33.249829 44.117202 0.363513 2.424425 0.124219 -0.022099 831564.000000 0 0 1
28.371745 11.225172 -33.484249 45.300721 0.376747 2.402611 0.093511 -0.025971 592413.000000 0 0 1
28.156945 12.414472 33.151783 45.232437 0.415263 0.748191 0.104673 -0.029167 105116.000000 0 0 1
27.733245 13.488172 -33.408579 45.466436 0.452671 2.396163 0.098262 -0.029079 -210584.000000 0 0 1
27.370945 14.668972 33.049797 45.350153 0.491979 0.754273 0.091543 -0.028334 -230329.000000 0 0 1
28.521445 15.363172 32.561399 45.931956 0.494090 0.782852 0.075977 -0.020613 460084.000000 0 0 1
28.539745 16.755072 32.818547 46.608009 0.530864 0.789586 0.097680 -0.034063 -14166.200000 0 0 1
28.888945 17.109172 -33.067179 47.124656 0.534694 2.348571 0.088199 -0.041730 -401619.000000 0 0 1
27.874045 16.707272 -32.172979 45.729595 0.539967 2.351175 0.077882 -0.037457 459228.000000 0 0 1
28.419145 16.296372 -30.903439 45.036009 0.520653 2.327040 0.095844 -0.044044 593414.000000 0 0 1
27.213045 15.833672 -30.019369 43.501925 0.526960 2.332382 0.081369 -0.042960 685818.000000 0 0 1
26.663445 14.593772 -30.467969 43.037363 0.500793 2.357377 0.088387 -0.030786 -67072.800000 0 0 1
25.680245 14.091572 -29.595129 41.640353 0.501869 2.361334 0.111542 -0.043433 -229208.000000 0 0 1
25.051845 12.755472 -30.081429 41.172677 0.470951 2.390020 0.100703 -0.035510 -879888.000000 0 0 1
24.123045 13.030872 -31.096109 41.457121 0.495275 2.418978 0.114338 -0.040200 155626.000000 0 0 1
23.393645 11.869072 -31.543299 41.025811 0.469521 2.447860 0.102197 -0.030850 358253.000000 0 0 1
22.302945 11.317172 -30.568319 39.495846 0.469574 2.455872 0.095970 -0.029233 -1174380.000000 0 0 1
21.416045 12.364572 -30.370989 39.165375 0.523599 2.458232 0.132944 -0.028393 -738965.000000 0 0 1
20.464245 11.817272 -29.484339 37.785705 0.523681 2.465948 0.131169 -0.017262 -410110.000000 0 0 1
19.266745 12.715972 -29.169209 37.198739 0.583370 2.472114 0.094683 0.001226 -297374.000000 0 0 1
18.333845 12.879672 -30.194429 37.599460 0.612407 2.503200 0.075517 -0.004451 1028530.000000 0 0 1
17.079445 13.403772 -29.666539 36.762373 0.665397 2.509819 0.070774 -0.006486 877905.000000 0 0 1
16.020545 13.825572 -30.737019 37.317136 0.711987 2.538650 0.083901 -0.013384 -42576.300000 0 0 1
15.216945 12.777272 -31.139329 36.938759 0.698469 2.573630 0.090445 -0.018270 1028270.000000 0 0 1
13.971245 12.610872 -30.366499 35.726097 0.734267 2.586745 0.083631 -0.019876 1410220.000000 0 0 1
12.954545 11.707072 -31.176639 35.733158 0.734858 2.631061 0.090143 -0.022721 201136.000000 0 0 1
12.671945 12.489372 -32.316039 36.890229 0.778142 2.638313 0.110160 -0.027986 -541884.000000 0 0 1
11.681945 11.882072 -33.070619 37.031302 0.793891 2.674864 0.105437 -0.024425 -378556.000000 0 0 1
11.052345 12.835672 33.235992 37.303350 0.859914 0.471330 0.130278 -0.031835 -111947.000000 0 0 1
11.930545 13.066772 32.172688 36.717302 0.830821 0.502820 0.105902 -0.020091 -194668.000000 0 0 1
11.275445 13.590272 31.059236 35.728242 0.878224 0.516974 0.129039 -0.033446 -468627.000000 0 0 1
12.056845 13.599672 29.738766 34.852730 0.845460 0.548573 0.132662 -0.027337 -405860.000000 0 0 1
12.447745 12.290872 29.447256 34.251318 0.779057 0.536034 0.119312 -0.023857 -7102.850000 0 0 1
12.557145 12.135872 28.033236 33.027618 0.768339 0.557120 0.140774 -0.026842 -630212.000000 0 0 1
13.140345 10.739572 27.608996 32.407772 0.685200 0.551146 0.150485 -0.023195 179867.000000 0 0 1
12.293445 9.640072 27.848136 31.930838 0.665010 0.511239 0.141869 -0.032477 422014.000000 0 0 1
12.966345 8.425272 27.428096 31.486692 0.576221 0.513356 0.114815 -0.030072 -3341.870000 0 0 1
12.191545 7.140672 27.676516 31.074306 0.529844 0.472010 0.114223 -0.025421 285049.000000 0 0 1
10.911145 7.100972 27.036646 30.007617 0.576937 0.448744 0.124986 -0.033654 624294.000000 0 0 1
10.050245 6.009672 27.373746 29.773235 0.538920 0.404224 0.126100 -0.043742 -15738.300000 0 0 1
10.510145 4.583572 27.070446 29.398662 0.411243 0.400656 0.122772 -0.035026 -833564.000000 0 0 1
11.523845 4.054472 27.846866 30.408645 0.338307 0.413413 0.113783 -0.034250 -373672.000000 0 0 1
11.916845 2.812172 27.270626 29.893252 0.231743 0.422011 0.098944 -0.034148 -147498.000000 0 0 1
12.259345 1.696672 28.270216 30.860579 0.137525 0.412647 0.084411 -0.027518 20989.500000 0 0 1
11.185445 1.403472 29.145806 31.249991 0.124821 0.369062 0.068918 -0.027922 155776.000000 0 0 1
11.276645 0.084272 29.727596 31.794650 0.007473 0.362573 0.067147 -0.030169 -510926.000000 0 0 1
10.233145 -0.185928 30.786896 32.443563 -0.018167 0.320947 0.077360 -0.024918 -451965.000000 0 0 1
10.501745 0.527872 31.961283 33.646529 0.050223 0.317838 0.064420 -0.026767 379744.000000 0 0 1
9.322445 1.060772 32.539654 33.865355 0.113300 0.280729 0.068829 -0.022695 -311434.000000 0 0 1
9.716245 2.162072 33.575316 35.019735 0.218954 0.288210 0.069839 -0.026832 -2175.750000 0 0 1
9.937845 3.499072 33.117284 34.752824 0.338541 0.308013 0.046051 -0.015636 932835.000000 0 0 1
10.918945 3.601972 32.049939 34.049907 0.318642 0.344443 0.052924 -0.019617 -181936.000000 0 0 1
10.842645 4.947872 31.260245 33.455153 0.428109 0.364246 0.062020 -0.019425 11413.700000 0 0 1
11.218445 6.082672 32.029581 34.478203 0.496837 0.379147 0.065990 -0.023612 -14662.700000 0 0 1
11.319245 7.255772 31.239146 34.009642 0.570031 0.406430 0.081232 -0.030857 -131411.000000 0 0 1
11.380645 8.541972 32.141192 35.150257 0.643866 0.416787 0.111584 -0.040606 -366114.000000 0 0 1
10.138945 8.980672 32.603645 35.305075 0.724892 0.393733 0.117343 -0.038794 -431104.000000 0 0 1
9.663045 8.324672 -33.615609 35.953912 0.711130 2.778954 0.104060 -0.032003 -1020680.000000 0 0 1
8.229145 8.606672 -33.249889 35.317825 0.807818 2.797695 0.109122 -0.037707 -988309.000000 0 0 1
7.803445 7.962972 -32.096459 33.977719 0.795516 2.807269 0.125513 -0.035629 -146366.000000 0 0 1
6.443245 8.214072 -31.806929 33.476367 0.905631 2.824452 0.115017 -0.035473 76995.600000 0 0 1
6.030545 7.686172 -30.478079 32.005594 0.905518 2.831396 0.113817 -0.031465 -577086.000000 0 0 1
6.479245 8.544872 -29.404179 31.298581 0.922029 2.791886 0.117083 -0.039706 338945.000000 0 0 1
5.975645 8.172572 -28.106009 29.873852 0.939447 2.795847 0.116889 -0.039409 -302557.000000 0 0 1
4.462245 8.121672 -27.900789 29.399442 1.068395 2.820923 0.112154 -0.035061 -504797.000000 0 0 1
3.770645 7.043672 -28.540139 29.637318 1.079291 2.868643 0.106563 -0.023349 817504.000000 0 0 1
2.468345 6.764272 -27.958749 28.871089 1.220902 2.889528 0.140607 -0.024028 827365.000000 0 0 1
1.596645 6.064672 -28.964299 29.635454 1.313368 2.928365 0.142588 -0.035486 -575297.000000 0 0 1
1.021345 6.872272 -29.954479 30.749668 1.423258 2.913679 0.116738 -0.037703 -88864.800000 0 0 1
0.262645 6.092772 -30.875229 31.471743 1.527715 2.946584 0.141389 -0.031670 -379265.000000 0 0 1
-0.119855 6.969172 -32.127199 32.874620 -1.553600 2.927947 0.151788 -0.040513 79098.700000 0 0 1
0.935745 7.717172 -32.731709 33.642163 1.450131 2.908415 0.111374 -0.028203 200312.000000 0 0 1
1.989245 6.947772 -33.304669 34.079754 1.291942 2.927911 0.117542 -0.032910 73488.300000 0 0 1
1.744445 6.491572 32.580012 33.266211 1.308274 0.203464 0.138415 -0.040897 398395.000000 0 0 1
0.533745 5.766172 32.310999 32.825817 1.478495 0.177339 0.142744 -0.043738 257240.000000 0 0 1
0.257045 5.571772 30.939986 31.438725 1.524696 0.178359 0.152751 -0.044919 287065.000000 0 0 1
1.008745 4.376172 30.210376 30.542352 1.344245 0.147574 0.141628 -0.042858 334423.000000 0 0 1
0.712645 4.362372 28.800586 29.137809 1.408865 0.152288 0.125030 -0.040408 122462.000000 0 0 1
1.530845 3.455372 28.079626 28.332816 1.153751 0.133788 0.110560 -0.029226 120849.000000 0 0 1
1.603745 3.791872 26.586776 26.903660 1.170669 0.153634 0.109667 -0.027870 439730.000000 0 0 1
2.364345 5.002972 26.380716 26.954814 1.129318 0.206759 0.109912 -0.029732 313049.000000 0 0 1
2.328645 5.395872 25.015446 25.696509 1.163382 0.230747 0.090376 -0.024626 -294749.000000 0 0 1
2.908245 6.875872 24.732726 25.834923 1.170652 0.293155 0.093657 -0.024500 768105.000000 0 0 1
4.328045 6.953872 24.854676 26.169509 1.014074 0.318338 0.094794 -0.020890 173588.000000 0 0 1
4.892445 6.610872 23.603816 24.995595 0.933687 0.335278 0.114564 -0.035623 -800105.000000 0 1 0
6.427245 6.543172 23.490246 25.217340 0.794336 0.372249 0.135436 -0.040477 106574.000000 0 0 1
7.186945 5.638772 24.258966 25.921909 0.665271 0.360139 0.149067 -0.036321 166055.000000 0 0 1
6.945345 4.260872 24.047046 25.390023 0.550277 0.326701 0.150455 -0.038430 -1123460.000000 0 0 1
7.030245 3.581072 22.628566 23.964566 0.471124 0.335484 0.149204 -0.042925 -190163.000000 0 1 0
5.976445 3.789672 21.726756 22.850195 0.565117 0.314877 0.114734 -0.040137 -541259.000000 0 1 0
4.750845 3.216272 22.119956 22.851857 0.595115 0.253774 0.111627 -0.035015 -761450.000000 0 1 0
3.653945 3.547972 21.105556 21.711377 0.770685 0.236787 0.061628 -0.027622 -409577.000000 0 1 0
3.272145 4.911672 21.190356 21.996878 0.983118 0.271630 0.054850 -0.031429 -371100.000000 0 1 0
2.166245 5.178972 20.385356 21.144198 1.174634 0.268722 0.037907 -0.026953 -695448.000000 0 1 0
1.609045 6.595072 20.544156 21.636690 1.331494 0.319140 0.033774 -0.019894 -10547.800000 0 1 0
2.362945 7.581172 19.888156 21.414864 1.268653 0.379883 0.028620 -0.017604 -215019.000000 0 1 0
1.748245 8.767672 20.187156 22.078263 1.373981 0.416908 0.028641 -0.016407 413497.000000 0 1 0
2.725945 9.881672 19.731256 22.235122 1.301632 0.479141 0.039458 -0.021197 -79996.600000 0 1 0
2.695545 10.082072 18.309856 21.075221 1.309547 0.518051 0.026695 -0.022359 141038.000000 0 1 0
3.503645 11.160272 17.758156 21.264508 1.266601 0.582468 0.042060 -0.027327 1281660.000000 0 1 0
5.060145 11.095172 17.979656 21.725007 1.142908 0.595975 0.055298 -0.027348 768434.000000 0 1 0
5.603845 9.867972 17.481056 20.841479 1.054328 0.575789 0.059517 -0.016711 -698758.000000 0 1 0
6.968045 9.714572 17.703456 21.362090 0.948569 0.593957 0.057437 -0.011268 -387856.000000 0 1 0
7.285745 8.215172 17.946256 21.038993 0.845286 0.549090 0.073395 -0.023211 -27503.400000 0 1 0
6.872845 7.885072 19.284956 21.939003 0.853880 0.496981 0.086832 -0.026645 39239.500000 0 1 0
7.011445 6.482172 19.531256 21.740489 0.746194 0.454725 0.089414 -0.041201 700092.000000 0 1 0
8.451645 5.958172 19.875156 22.404284 0.614055 0.479742 0.124106 -0.034837 750108.000000 0 1 0
9.334545 5.983972 18.698656 21.738937 0.570062 0.535241 0.117423 -0.036836 -208300.000000 0 1 0
10.650745 5.744272 19.086256 22.599119 0.494615 0.565058 0.129566 -0.031949 -525907.000000 0 1 0
11.033845 4.237372 19.137256 22.493013 0.366667 0.553274 0.149992 -0.030660 -553994.000000 0 1 0
10.350645 3.504672 20.179256 22.948223 0.326478 0.496325 0.156134 -0.037092 264414.000000 0 1 0
10.537745 2.127972 20.116756 22.809125 0.199258 0.490790 0.156380 -0.043097 149435.000000 0 1 0
9.704545 1.343572 21.186356 23.341916 0.137573 0.433139 0.166947 -0.043478 53552.700000 0 1 0
9.968045 1.601272 22.543616 24.701024 0.159280 0.421053 0.150702 -0.031864 -56328.400000 0 1 0
9.447045 0.572672 23.297346 25.146390 0.060545 0.385877 0.163274 -0.042748 -472907.000000 0 0 1
9.991945 0.553572 24.778686 26.723186 0.055345 0.383835 0.147808 -0.037772 381945.000000 0 0 1
11.305045 0.036772 25.000226 27.437505 0.003253 0.424682 0.138505 -0.035334 468955.000000 0 0 1
11.459045 -1.336128 24.757966 27.313949 -0.116076 0.436062 0.137221 -0.037154 -95575.100000 0 0 1
12.881045 -1.911128 24.993346 28.182283 -0.147293 0.480322 0.126960 -0.035920 242361.000000 0 0 1
12.947545 -3.294328 24.841186 28.205957 -0.249150 0.493443 0.131972 -0.032733 1089780.000000 0 0 1
14.292545 -3.803428 24.988246 29.037137 -0.260085 0.534425 0.121399 -0.030712 938479.000000 0 0 1
14.157045 -5.365728 25.112706 29.323386 -0.362286 0.542530 0.123485 -0.029177 55342.900000 0 0 1
13.954245 -5.852328 23.795986 28.199639 -0.397113 0.566396 0.142508 -0.026247 296656.000000 0 0 1
13.535445 -7.221428 23.911516 28.409820 -0.490103 0.570439 0.144655 -0.030473 39192.500000 0 0 1
13.451545 -8.020528 22.563706 27.466229 -0.537660 0.606747 0.161480 -0.034710 -32530.400000 0 0 1
12.867645 -9.279428 22.747946 27.733610 -0.624776 0.608983 0.165660 -0.026410 -187993.000000 0 0 1
13.182345 -10.163328 21.684456 27.336479 -0.656794 0.654681 0.155391 -0.024890 248230.000000 0 0 1
12.355145 -11.473628 21.726156 27.501265 -0.748421 0.659978 0.180905 -0.026885 154323.000000 0 0 1
10.964145 -11.348828 21.571456 26.727067 -0.802637 0.631570 0.172482 -0.029756 -497574.000000 0 0 1
10.325645 -12.582928 21.527456 26.988523 -0.883616 0.647404 0.154325 -0.031663 495840.000000 0 0 1
8.822545 -12.548428 21.953656 26.781773 -0.958006 0.609868 0.119691 -0.028881 251924.000000 0 0 1
8.009845 -11.823728 21.104556 25.482552 -0.975374 0.594915 0.105599 -0.041507 213890.000000 0 0 1
6.644045 -11.920028 21.549456 25.507047 -1.062301 0.564524 0.066615 -0.034856 786233.000000 0 0 1
5.744645 -10.802328 21.068056 24.362968 -1.082036 0.526129 0.054748 -0.033688 -113269.000000 0 1 0
6.097245 -9.549228 21.654556 24.439393 -1.002543 0.482039 0.073061 -0.025441 103851.000000 0 1 0
5.343545 -8.444628 21.117956 23.363075 -1.006626 0.441988 0.048952 -0.022319 341712.000000 0 1 0
5.760945 -7.111528 21.742456 23.590183 -0.889936 0.398423 0.079814 -0.026662 723892.000000 0 1 0
4.889045 -6.104428 21.181556 22.579307 -0.895506 0.353705 0.055821 -0.026341 584294.000000 0 1 0
5.424645 -4.814628 21.516656 22.706252 -0.725892 0.325130 0.090264 -0.042134 397247.000000 0 1 0
-8.610055 -16.034928 -20.323729 27.281971 1.078023 2.411258 0.091330 -0.027091 -409518.000000 0 0 1
-7.942455 -15.354728 -19.341629 25.941259 1.093433 2.412221 0.082108 -0.018976 -268757.000000 0 0 1
-7.320555 -14.168928 -19.770129 25.400927 1.093908 2.462787 0.093059 -0.025286 159227.000000 0 0 1
-6.448055 -13.486528 -18.698129 23.939171 1.124813 2.467171 0.070523 -0.017797 -450370.000000 0 1 0
-5.385655 -14.226228 -18.228829 23.741969 1.208898 2.446180 0.071438 -0.014945 -153296.000000 0 1 0
-4.503155 -13.393628 -17.437529 22.444044 1.246453 2.460577 0.067811 -0.009966 125536.000000 0 1 0
-3.433255 -14.198828 -16.709229 22.194421 1.333552 2.423189 0.060862 -0.009192 -1336800.000000 0 1 0
-2.341755 -14.411928 -17.487829 22.781828 1.409717 2.445919 0.061630 -0.007964 -1176260.000000 0 1 0
-1.292755 -15.012928 -16.752129 22.532045 1.484899 2.409056 0.067066 -0.013402 -16977.800000 0 1 0
-0.115355 -15.456728 -17.633929 23.449504 1.563333 2.421881 0.059730 0.007052 -353140.000000 0 1 0
-0.308155 -16.436028 -18.630629 24.846294 1.552050 2.418609 0.102652 -0.024724 -359427.000000 0 1 0
-0.481955 -17.775028 -18.241129 25.473961 1.543689 2.368952 0.086856 -0.014997 -63031.300000 0 0 1
-0.867855 -18.658928 -19.491229 26.996607 1.524318 2.377468 0.107785 -0.031557 -796472.000000 0 0 1
-2.132955 -18.329028 -19.926029 27.157861 1.454947 2.394564 0.113136 -0.033510 -1126010.000000 0 0 1
-2.428855 -18.956428 -21.169929 28.520369 1.443362 2.407254 0.107339 -0.032275 -373337.000000 0 0 1
-3.662655 -18.344228 -21.829229 28.747887 1.373725 2.433084 0.119998 -0.040732 -259473.000000 0 0 1
-3.665255 -16.910628 -22.198929 28.145975 1.357355 2.479499 0.110533 -0.049324 -432464.000000 0 0 1
-4.074655 -16.142928 -21.123929 26.896419 1.323550 2.474107 0.086493 -0.036015 -817624.000000 0 0 1
-3.028755 -15.201728 -20.619829 25.796187 1.374134 2.496986 0.086065 -0.023831 -627518.000000 0 0 1
-2.737955 -14.114228 -21.508029 25.870894 1.379191 2.552347 0.073114 -0.027140 -174460.000000 0 0 1
-1.934855 -13.216928 -20.799529 24.719451 1.425437 2.570709 0.068052 -0.023113 -242129.000000 0 1 0
-1.466755 -11.978228 -21.601529 24.743795 1.448951 2.632133 0.060417 -0.036489 446196.000000 0 1 0
-2.545855 -11.180128 -22.116829 24.912462 1.346902 2.663299 0.055883 -0.036770 496971.000000 0 1 0
-2.369655 -10.727328 -23.464729 25.909156 1.353389 2.703716 0.069304 -0.031105 110825.000000 0 0 1
-3.336655 -9.563628 -23.890329 25.948875 1.235111 2.740588 0.044662 -0.017126 -127011.000000 0 0 1
-4.714555 -9.794828 -23.848029 26.208666 1.122195 2.713910 0.078337 -0.029502 -346344.000000 0 0 1
-5.369155 -8.570328 -24.061029 26.100028 1.011132 2.743695 0.049441 -0.021878 8469.090000 0 0 1
-6.875255 -8.613128 -23.687229 26.125465 0.897136 2.706123 0.062819 -0.034558 724256.000000 0 0 1
-7.867955 -8.889928 -24.681929 27.388559 0.846307 2.693273 0.087009 -0.040770 598422.000000 0 0 1
-8.537755 -7.725628 -25.104629 27.619214 0.735504 2.711567 0.084075 -0.042189 -8067.260000 0 0 1
-9.356755 -8.050328 -26.377189 29.122376 0.710487 2.703910 0.075877 -0.041650 414218.000000 0 0 1
-10.391055 -7.149128 -26.749319 29.573808 0.602632 2.700987 0.096889 -0.053462 280223.000000 0 0 1
-11.029355 -7.636128 -27.938859 30.992531 0.605570 2.693952 0.085889 -0.043970 238861.000000 0 0 1
-12.065555 -6.659628 -28.587679 31.736157 0.504342 2.692386 0.080046 -0.049607 168930.000000 0 0 1
-11.488455 -5.491428 -29.070859 31.737285 0.445889 2.728751 0.069420 -0.039125 -35503.700000 0 0 1
-12.192755 -5.032028 -30.233249 32.985360 0.391412 2.730202 0.089959 -0.036304 63501.300000 0 0 1
-11.460855 -3.979828 -31.085279 33.368920 0.334226 2.769487 0.072911 -0.027794 -92314.900000 0 0 1
-10.380855 -4.425128 -31.875369 33.813948 0.402952 2.801337 0.047978 -0.021593 -14998.400000 0 0 1
-10.030655 -3.508228 -32.882499 34.556916 0.336453 2.829022 0.049133 -0.025188 -861916.000000 0 0 1
-8.941555 -3.984328 33.577756 34.975591 0.419186 0.283673 0.044819 -0.019029 -1500840.000000 0 0 1
-7.697755 -4.022328 -33.196139 34.313528 0.481511 2.885693 0.055789 -0.022977 -791442.000000 0 0 1
-6.737655 -4.322328 33.149498 34.102313 0.570389 0.236943 0.055774 -0.025199 868851.000000 0 0 1
-5.304355 -3.812328 33.560806 34.190609 0.623177 0.192235 0.104459 -0.037187 644608.000000 0 0 1
-5.093255 -2.427228 33.555916 34.026933 0.444718 0.166581 0.140969 -0.047935 -746928.000000 0 0 1
-3.744655 -2.224128 -33.534279 33.815929 0.535957 3.012438 0.140484 -0.047714 -472452.000000 0 0 1
-3.364955 -0.730228 -33.339979 33.517315 0.213696 3.038680 0.151941 -0.050004 -41184.900000 0 0 1
-3.404955 -0.547028 -31.971139 32.156597 0.159295 3.034142 0.168413 -0.049765 107516.000000 0 0 1
-3.753755 0.782472 -31.578599 31.810546 -0.205508 3.020759 0.191138 -0.056721 -444141.000000 0 0 1
-4.018055 0.890072 -30.069159 30.349487 -0.217998 3.005571 0.200594 -0.059884 350747.000000 0 0 1
-5.161955 0.238972 -29.562839 30.011070 -0.046262 2.968544 0.159298 -0.056556 689266.000000 0 0 1
-6.447755 0.850172 -29.798559 30.500008 -0.131099 2.926711 0.144661 -0.054993 707110.000000 0 0 1
-7.521055 -0.255128 -29.986369 30.916237 0.033909 2.895711 0.116064 -0.047677 -80450.300000 0 0 1
-7.909255 -0.957428 -28.831629 29.912135 0.120466 2.871992 0.090121 -0.046881 144992.000000 0 0 1
-9.074455 -1.711628 -29.117249 30.546516 0.186430 2.834479 0.081576 -0.042868 114015.000000 0 0 1
-9.651455 -2.412128 -27.846859 29.570535 0.244907 2.798473 0.090868 -0.044823 -124668.000000 0 0 1
-10.296655 -1.524828 -26.972789 28.911547 0.147021 2.773295 0.098277 -0.040995 -7989.350000 0 0 1
-10.676355 -2.252528 -25.816699 28.027851 0.207933 2.741715 0.097123 -0.039726 -221653.000000 0 0 1
-11.394055 -1.464628 -24.736629 27.273989 0.127842 2.706825 0.107748 -0.036821 -221142.000000 0 0 1
-10.664155 -0.359628 -24.253329 26.496745 0.033710 2.727129 0.100601 -0.041476 -389300.000000 0 0 1
-11.268755 0.284872 -23.194329 25.788426 -0.025274 2.689211 0.111116 -0.044369 -140649.000000 0 0 1
-10.410355 1.457672 -22.657329 24.977087 -0.139117 2.707197 0.115055 -0.047502 70086.900000 0 1 0
-10.353855 2.548072 -23.579029 25.877898 -0.241304 2.716898 0.123474 -0.044950 -122599.000000 0 0 1
-9.611355 3.631372 -23.069229 25.253799 -0.361242 2.722591 0.108961 -0.042495 -584098.000000 0 0 1
-9.712455 4.894772 -23.916629 26.273480 -0.466817 2.714794 0.146220 -0.047037 1632110.000000 0 0 1
-11.021455 5.567572 -24.019829 27.007823 -0.467765 2.666752 0.154690 -0.042020 1597300.000000 0 0 1
-11.867455 4.991872 -25.006029 28.125732 -0.398168 2.666128 0.136749 -0.039956 -168180.000000 0 0 1
-13.372455 5.264672 -24.844229 28.701482 -0.375059 2.617159 0.124262 -0.027433 -36506.200000 0 0 1
-13.727855 6.559372 -25.229779 29.462198 -0.445742 2.598944 0.122942 -0.026068 -375551.000000 0 0 1
-15.106355 6.585772 -25.498649 30.360426 -0.411117 2.567830 0.117034 -0.037245 -341242.000000 0 0 1
-15.616555 7.967472 -25.916889 31.289656 -0.471769 2.546844 0.123845 -0.031233 -847597.000000 0 0 1
-15.568755 8.719772 -24.744229 30.507334 -0.510550 2.516812 0.169454 -0.035975 145544.000000 0 0 1
-15.675655 10.144272 -24.903829 31.126084 -0.574359 2.498250 0.134889 -0.028830 -358870.000000 0 0 1
-15.132055 10.976072 -23.717129 30.198600 -0.627539 2.474093 0.149625 -0.039137 -733297.000000 0 0 1
-15.902355 10.824772 -22.572029 29.657328 -0.597657 2.435795 0.165483 -0.039060 -199824.000000 0 0 1
-15.532655 11.785372 -21.575729 29.080414 -0.649076 2.406746 0.161321 -0.032364 -596234.000000 0 0 1
-16.397555 11.828672 -20.325829 28.669437 -0.624923 2.358836 0.160541 -0.037864 317521.000000 0 0 1
-17.706155 12.359372 -20.551529 29.809853 -0.609400 2.331485 0.127983 -0.034182 447053.000000 0 0 1
-18.302855 12.870472 -19.386329 29.605292 -0.612867 2.284749 0.123482 -0.024008 245507.000000 0 0 1
-19.813255 13.177472 -19.583529 30.817616 -0.586906 2.259407 0.101130 -0.028493 289436.000000 0 0 1
-20.201355 14.413372 -20.136229 31.957906 -0.619719 2.252460 0.083257 -0.029330 667765.000000 0 0 1
-21.610055 14.555972 -20.332529 33.049698 -0.592769 2.233450 0.067338 -0.030512 659362.000000 0 0 1
-21.945955 15.869272 -21.101929 34.332931 -0.626066 2.232709 0.073507 -0.025409 -165995.000000 0 0 1
-21.874555 15.652672 -22.493929 35.063929 -0.621096 2.267264 0.076541 -0.031000 157907.000000 0 0 1
-22.149255 16.843472 -23.187629 36.220963 -0.650158 2.265518 0.071485 -0.022065 -194760.000000 0 0 1
-21.956255 16.815472 -24.683029 37.068709 -0.653576 2.299459 0.059428 -0.020496 -1447960.000000 0 0 1
-20.655255 16.750672 -25.072029 36.549025 -0.681391 2.326751 0.046168 -0.025051 -1469060.000000 0 0 1
-20.433155 16.415972 -26.438259 37.228746 -0.676810 2.360518 0.032749 -0.025621 -250166.000000 0 0 1
-19.500155 17.343972 -27.230679 37.717096 -0.726943 2.377444 0.018744 -0.010546 -217085.000000 0 0 1
-20.080755 18.626772 -27.432959 38.765456 -0.747852 2.356984 0.024208 -0.018828 557013.000000 0 0 1
-19.551555 19.679772 -26.583539 38.421885 -0.788666 2.334893 0.014385 -0.026574 -1223800.000000 0 0 1
-20.224955 21.044872 -26.899399 39.692734 -0.805263 2.315414 0.068618 -0.014013 674479.000000 0 0 1
-21.387355 21.357772 -26.144579 39.963889 -0.784706 2.283927 0.092364 -0.010251 555599.000000 0 0 1
-22.534855 20.540572 -26.347919 40.298234 -0.739134 2.283423 0.123359 -0.020457 -253936.000000 0 0 1
-23.558955 20.658272 -25.164259 40.187417 -0.719891 2.247431 0.144716 -0.003936 302652.000000 0 0 1
-23.188355 20.065972 -23.922929 38.892796 -0.713337 2.233308 0.113051 -0.000484 383980.000000 0 0 1
-24.236455 20.219972 -22.975029 39.039787 -0.695296 2.200002 0.103842 -0.007379 261919.000000 0 0 1
-23.715955 19.703872 -21.690329 37.698269 -0.693258 2.183849 0.092563 0.001417 160142.000000 0 0 1
-22.816355 20.564172 -21.003229 37.210306 -0.733528 2.170559 0.088666 -0.002484 157299.000000 0 0 1
-21.884955 19.959272 -20.148329 35.822883 -0.739410 2.168134 0.075766 -0.003937 -118661.000000 0 0 1
-22.450455 19.498972 -18.739429 35.148244 -0.715156 2.133121 0.090557 -0.014963 -179651.000000 0 0 1
-23.343055 18.378972 -18.919029 35.222358 -0.666975 2.137829 0.104541 -0.018237 804678.000000 0 0 1
-24.049555 17.980972 -17.732629 34.873236 -0.642004 2.104224 0.096190 -0.023526 467020.000000 0 0 1
-25.244575 18.833172 -17.209829 35.890878 -0.640954 2.070886 0.085023 -0.021383 -52625.600000 0 0 1
-26.355315 18.885572 -18.091429 37.129062 -0.621764 2.079743 0.084871 -0.012586 151345.000000 0 0 1
-27.284435 19.840372 -17.639829 38.068942 -0.628728 2.052585 0.076837 -0.009989 -709599.000000 0 0 1
-28.626345 19.773472 -18.448829 39.380415 -0.604487 2.058363 0.057336 0.014052 554590.000000 0 0 1
-29.470255 18.690072 -18.090129 39.307347 -0.565189 2.049042 0.044851 0.004749 395913.000000 0 0 1
-30.031955 18.746372 -16.767429 39.172586 -0.558034 2.013119 0.051340 -0.004497 -1215240.000000 0 0 1
-30.802625 17.441572 -16.494129 39.052099 -0.515223 2.006846 0.050818 -0.014295 -366636.000000 0 0 1
-30.102635 16.291672 -16.112129 37.831044 -0.496065 2.010749 0.071865 -0.024875 141248.000000 0 0 1
-31.064095 15.258972 -15.839029 38.061648 -0.456590 1.999994 0.070150 -0.020868 839852.000000 0 0 1
-30.413005 13.955972 -15.217629 36.759982 -0.430215 1.997610 0.126406 -0.017313 -122218.000000 0 0 1
-29.810925 14.034072 -13.946729 35.779291 -0.439991 1.971210 0.149493 -0.018590 -226444.000000 0 0 1
-30.602125 14.238372 -12.756429 36.082513 -0.435483 1.932144 0.109824 -0.014843 -5264.950000 0 0 1
-29.887215 14.846672 -11.533029 35.308357 -0.461050 1.903540 0.146221 -0.037745 191378.000000 0 0 1
-29.497805 16.205572 -11.678329 35.624773 -0.502369 1.904786 0.128362 -0.029003 136775.000000 0 0 1
-30.428925 17.015772 -10.997029 36.556677 -0.509877 1.876350 0.096017 -0.025567 113350.000000 0 0 1
-30.220075 18.512572 -11.376629 37.220907 -0.549627 1.881419 0.155124 -0.021436 72451.600000 0 0 1
-29.004805 19.077772 -10.918329 36.392994 -0.581801 1.875501 0.118840 -0.037940 4639.610000 0 0 1
-28.920045 20.455072 -11.032129 37.101036 -0.615607 1.872716 0.071382 -0.040214 -298208.000000 0 0 1
-27.548085 20.890472 -10.511629 36.135898 -0.648809 1.865955 0.116255 -0.038322 -248305.000000 0 0 1
-27.454355 22.300272 -10.328629 36.847311 -0.682176 1.854912 0.158979 -0.034907 603739.000000 0 0 1
-26.145705 22.878272 -10.171029 36.200318 -0.718847 1.855596 0.138816 -0.028506 521556.000000 0 0 1
-26.314805 24.319472 -9.548929 37.082175 -0.746012 1.831238 0.182601 -0.010885 48123.800000 0 0 1
-26.839165 24.381272 -8.236329 37.183657 -0.737448 1.794153 0.147921 -0.017668 733906.000000 0 0 1
-28.270795 24.366272 -8.170129 38.206074 -0.711356 1.786304 0.190610 -0.022230 514315.000000 0 0 1
-28.716895 24.172572 -6.699029 38.129389 -0.699688 1.747405 0.180721 -0.019641 -85618.100000 0 0 1
-28.452835 22.878772 -6.271629 37.045045 -0.677233 1.740913 0.191408 -0.028118 198874.000000 0 0 1
-29.103585 22.574672 -5.057229 37.178085 -0.659726 1.707247 0.150694 -0.018412 -348590.000000 0 0 1
-29.528505 21.077372 -5.071729 36.632099 -0.619926 1.709693 0.161276 -0.027693 339105.000000 0 0 1
-28.505675 20.076972 -4.878729 35.205970 -0.613616 1.709820 0.160421 -0.026090 835013.000000 0 0 1
-27.551775 19.901372 -5.948529 34.504346 -0.625553 1.744061 0.148803 -0.025646 30567.200000 0 0 1
-27.949725 19.165172 -7.293029 34.665245 -0.601065 1.782765 0.173455 -0.033983 -443496.000000 0 0 1
-28.002365 17.734472 -7.078129 33.893124 -0.564560 1.781182 0.165756 -0.034243 388778.000000 0 0 1
-27.978485 16.981972 -8.247729 33.752156 -0.545525 1.817658 0.135874 -0.037050 -188096.000000 0 0 1
-27.570395 15.511772 -8.089329 32.652397 -0.512484 1.821144 0.189739 -0.037012 68547.000000 0 0 1
-28.513335 14.745172 -7.372029 32.935956 -0.477259 1.796538 0.173330 -0.029609 64454.800000 0 0 1
-28.385225 13.378872 -7.692929 32.309385 -0.440452 1.811208 0.199094 -0.042750 25229.300000 0 0 1
-29.429635 12.502372 -6.997529 32.731913 -0.401720 1.786242 0.183964 -0.036380 -61792.100000 0 0 1
-30.791435 12.738772 -7.276929 34.107807 -0.392270 1.785800 0.192057 -0.029121 -5885.530000 0 0 1
-31.692805 11.855872 -6.657229 34.486436 -0.357970 1.765055 0.200217 -0.034297 18393.100000 0 0 1
-32.229875 10.687272 -7.535829 34.781768 -0.320185 1.789189 0.166801 -0.021852 -307336.000000 0 0 1
-31.242345 9.733672 -7.818429 33.644559 -0.302023 1.805324 0.214356 -0.018846 -107466.000000 0 0 1
-31.738515 8.654072 -8.597229 34.002039 -0.266197 1.826416 0.164672 -0.005774 309703.000000 0 0 1
-30.668165 7.537272 -8.863329 32.800997 -0.240992 1.844413 0.238136 -0.012521 826015.000000 0 0 1
-29.658505 7.901372 -9.816529 32.224569 -0.260364 1.880345 0.246794 -0.037965 693226.000000 0 0 1
-28.898765 6.789872 -10.256629 31.407633 -0.230768 1.903463 0.263299 -0.046430 -116481.000000 0 0 1
-27.982215 7.021972 -11.483629 31.051348 -0.245867 1.949619 0.225062 -0.034753 -689557.000000 0 0 1
-26.762575 7.539872 -11.096629 29.936938 -0.274614 1.950523 0.251334 -0.041542 -622721.000000 0 0 1
-25.762395 7.347172 -12.052529 29.375932 -0.277815 1.993564 0.202468 -0.031209 -272585.000000 0 0 1
-33.201825 25.300272 -33.644119 53.613354 -0.651146 2.249176 0.108035 -0.015194 -63037.700000 0 0 1
-33.579475 26.629872 33.577696 54.444402 -0.670483 0.906210 0.108825 -0.023992 320062.000000 0 0 1
-33.332605 27.105472 32.275385 53.735181 -0.682727 0.926498 0.111421 -0.026681 -91991.200000 0 0 1
-33.808805 28.573672 32.220439 54.750769 -0.701674 0.941603 0.120727 -0.029650 62435.900000 0 0 1
-33.699625 29.132472 30.907306 54.218329 -0.712838 0.964226 0.129755 -0.026919 169058.000000 0 0 1
-34.038769 30.524872 30.838606 55.149118 -0.731026 0.977393 0.134563 -0.032254 -60818.000000 0 0 1
-33.640755 31.263972 29.529946 54.599945 -0.748795 0.999358 0.119736 -0.030199 865193.000000 0 0 1
-32.221655 31.376772 29.347686 53.703105 -0.772114 0.992641 0.113353 -0.026432 691072.000000 0 0 1
-31.961885 32.027972 28.139906 53.284213 -0.786431 1.014423 0.095820 -0.021957 343079.000000 0 0 1
-30.593345 31.729672 27.461316 51.931192 -0.803629 1.013608 0.114948 -0.031029 31488.600000 0 0 1
-30.618565 30.444172 26.840336 50.840415 -0.782542 1.014631 0.128077 -0.040168 244419.000000 0 0 1
-29.596515 30.240372 25.883546 49.602336 -0.796158 1.021812 0.103909 -0.029581 -109524.000000 0 0 1
-29.832495 30.853672 24.475226 49.406108 -0.802224 1.052514 0.119774 -0.029531 -460038.000000 0 0 1
-29.681165 32.230372 24.419476 50.160535 -0.826550 1.062343 0.109832 -0.037408 -577535.000000 0 0 1
-30.737515 32.840772 23.754656 50.868407 -0.818467 1.084921 0.117538 -0.036591 -435327.000000 0 0 1
-30.821935 -33.354807 24.212536 51.466316 0.824845 1.080991 0.101776 -0.031489 -236631.000000 0 0 1
-31.362785 -33.231107 25.506796 52.330941 0.814314 1.061671 0.094290 -0.039825 220209.000000 0 0 1
-31.309015 -31.884707 25.983826 51.691858 0.794508 1.044114 0.066713 -0.040543 -318877.000000 0 0 1
-31.647025 -31.926507 27.464606 52.679603 0.789794 1.022362 0.078133 -0.036619 42716.600000 0 0 1
-32.965875 -32.361407 27.747566 53.888190 0.776145 1.029894 0.056087 -0.041630 108388.000000 0 0 1
-33.213545 -32.518007 29.164316 54.873652 0.774817 1.010448 0.058013 -0.035213 -359413.000000 0 0 1
-34.677528 -32.738507 29.553806 56.104975 0.756644 1.016013 0.074787 -0.036705 -183721.000000 0 0 1
-34.854572 -32.993507 30.895996 57.078676 0.757975 0.998828 0.088434 -0.042357 -151223.000000 0 0 1
-36.242675 -32.919807 31.151426 58.031513 0.737391 1.004154 0.095376 -0.045671 239880.000000 0 0 1
-36.691675 -33.370807 32.595547 59.349469 0.738035 0.989373 0.115371 -0.025483 87818.100000 0 0 1
-36.564055 32.870172 32.748812 59.075062 -0.732249 0.983203 0.102221 -0.024693 159419.000000 0 0 1
-37.420425 32.461672 -33.564589 59.838366 -0.714558 2.166294 0.109431 -0.020999 379210.000000 0 0 1
-37.194865 30.935872 -33.182949 58.665103 -0.693788 2.171998 0.095700 -0.021435 629920.000000 0 0 1
-36.110805 30.721872 -32.280639 57.357330 -0.704939 2.168564 0.093954 -0.024723 -33265.300000 0 0 1
-36.095945 29.319772 -31.856009 56.368179 -0.682180 2.171401 0.100483 -0.023473 536452.000000 0 0 1
-35.214474 29.158272 -30.572249 54.999331 -0.691594 2.160201 0.090852 -0.016798 341491.000000 0 0 1
-35.806043 29.611472 -29.380219 54.973714 -0.690987 2.134643 0.086015 -0.030177 -421394.000000 0 0 1
-35.563095 30.940272 -29.059079 55.375665 -0.715997 2.123233 0.079149 -0.020653 394841.000000 0 0 1
-36.437675 31.401572 -27.831179 55.572812 -0.711298 2.095326 0.072302 -0.012572 491330.000000 0 0 1
-36.061095 30.770472 -26.630909 54.373062 -0.706399 2.082635 0.064812 -0.028043 -235012.000000 0 0 1
-37.010395 30.995872 -25.624819 54.654778 -0.697187 2.058783 0.101039 -0.025574 -177784.000000 0 0 1
-36.585035 30.448872 -24.221729 53.406842 -0.694114 2.041521 0.099555 -0.033470 -389178.000000 0 0 1
-36.080525 31.489872 -23.425529 53.312022 -0.717564 2.025732 0.089903 -0.031344 -93250.700000 0 0 1
-36.136225 31.223772 -22.072529 52.611284 -0.712599 2.003735 0.086598 -0.039827 2080400.000000 0 0 1
-37.596505 31.145972 -21.323429 53.275298 -0.691836 1.982586 0.068690 -0.029693 2240630.000000 0 0 1
37.480526 32.294372 -21.350829 53.884823 0.711208 1.978204 0.080032 -0.032408 175316.000000 0 0 1
37.924296 33.474872 -20.644629 54.635336 0.723161 1.958283 0.077378 -0.030167 -297527.000000 0 0 1
-37.691325 33.373272 -19.143029 53.859696 -0.724710 1.934164 0.082823 -0.027713 -102362.000000 0 0 1
-36.559525 32.584272 -18.879529 52.485905 -0.727969 1.938750 0.083922 -0.036085 -111304.000000 0 0 1
-36.339655 32.566572 -17.488729 51.836356 -0.730696 1.914932 0.084368 -0.017283 -267103.000000 0 0 1
-35.290741 31.500272 -17.182029 50.328180 -0.728708 1.919202 0.094308 -0.029822 -185311.000000 0 0 1
-35.229818 31.212472 -15.833929 49.659559 -0.725008 1.895312 0.075123 -0.015187 -355897.000000 0 0 1
-34.006457 30.604372 -15.549429 48.320301 -0.732792 1.898425 0.084836 -0.008842 -211390.000000 0 0 1
-33.596765 30.332972 -14.062629 47.398200 -0.734390 1.872022 0.099468 -0.015240 240091.000000 0 0 1
-34.576109 29.483972 -13.470929 47.394914 -0.706075 1.858997 0.083269 -0.005090 448425.000000 0 0 1
-34.087555 28.889072 -12.292829 46.342783 -0.703039 1.839269 0.119153 -0.002666 -240391.000000 0 0 1
-35.206108 28.154272 -11.585929 46.544246 -0.674557 1.822364 0.109888 -0.010669 -173218.000000 0 0 1
-34.714498 27.619572 -10.326029 45.547382 -0.672065 1.799494 0.136728 -0.013771 333242.000000 0 0 1
-35.703724 26.801572 -9.771329 45.700755 -0.643927 1.786271 0.150636 -0.025249 -474247.000000 0 0 1
-35.113589 25.810972 -8.786829 44.456482 -0.633878 1.769757 0.168430 -0.017218 -82732.900000 0 0 1
-34.848190 26.442672 -7.578729 44.396491 -0.649107 1.742342 0.174933 -0.022313 784845.000000 0 0 1
-33.442985 26.698472 -7.436029 43.434274 -0.673721 1.742846 0.182128 -0.024967 187267.000000 0 0 1
-33.156345 27.338272 -6.063029 43.399132 -0.689518 1.710959 0.189617 -0.030600 -701117.000000 0 0 1
-32.026795 26.877072 -5.406829 42.158349 -0.698194 1.699401 0.200807 -0.026597 -320386.000000 0 0 1
-32.010475 27.370372 -4.092029 42.314920 -0.707415 1.667652 0.194363 -0.029193 141473.000000 0 0 1
-31.179145 26.498872 -3.117329 41.037142 -0.704431 1.646833 0.193760 -0.028476 280283.000000 0 0 1
-31.788605 25.221872 -2.840029 40.678299 -0.670719 1.640670 0.186100 -0.020131 -102407.000000 0 0 1
-30.950585 24.416072 -2.079929 39.476694 -0.667919 1.623508 0.171832 -0.021297 -215743.000000 0 0 1
-31.637365 23.173372 -1.541829 39.246723 -0.632186 1.610092 0.165956 -0.031727 123028.000000 0 0 1
-32.053215 22.171672 -2.551729 39.057687 -0.605144 1.636175 0.168839 -0.029575 49748.900000 0 0 1
-32.781665 21.124872 -2.017029 39.050815 -0.572436 1.622471 0.137083 -0.029810 90810.800000 0 0 1
-33.420635 20.142872 -3.027829 39.138752 -0.542408 1.648235 0.194060 -0.020256 619412.000000 0 0 1
-32.354595 19.355372 -3.548429 37.868742 -0.539114 1.664637 0.183141 -0.028031 409235.000000 0 0 1
-32.827865 18.624772 -4.636629 38.026953 -0.516063 1.693031 0.182354 -0.023141 702264.000000 0 0 1
-31.799845 17.522172 -5.174229 36.674641 -0.503622 1.712353 0.162367 -0.032403 713026.000000 0 0 1
-31.541605 16.490672 -4.209329 35.840390 -0.481739 1.688515 0.198640 -0.036831 377191.000000 0 0 1
-30.839365 15.429972 -4.896929 34.830021 -0.463914 1.711859 0.192183 -0.044464 60651.100000 0 0 1
-30.653355 14.298772 -3.896529 34.047995 -0.436463 1.685490 0.195954 -0.045163 1182800.000000 0 0 1
-31.903465 13.562772 -3.660729 34.859444 -0.401971 1.676004 0.185306 -0.040403 1607110.000000 0 0 1
-31.703255 12.480172 -2.787629 34.185113 -0.375025 1.652432 0.176580 -0.047020 -324210.000000 0 0 1
-33.007485 11.829972 -2.334829 35.141055 -0.344141 1.637287 0.166414 -0.038506 -364902.000000 0 0 1
-33.814755 11.220672 -3.329529 35.783053 -0.320395 1.663979 0.178966 -0.013036 -238073.000000 0 0 1
-34.725673 10.395672 -2.710229 36.349521 -0.290875 1.645426 0.173428 -0.007336 -413360.000000 0 0 1
-35.735109 9.747272 -3.697329 37.224690 -0.266287 1.670285 0.133235 -0.001326 95966.100000 0 0 1
-35.055538 8.829472 -4.485129 36.427554 -0.246739 1.694234 0.112953 0.000769 590956.000000 0 0 1
-35.900247 8.388072 -5.550329 37.282619 -0.229532 1.720224 0.128221 0.001860 526060.000000 0 0 1
-35.094808 7.547772 -6.616529 36.501957 -0.211841 1.753069 0.148895 -0.009667 255953.000000 0 0 1
-34.526193 6.324872 -6.162329 35.637569 -0.181182 1.744586 0.139142 -0.005768 270604.000000 0 0 1
-33.944825 5.591572 -7.195829 35.146789 -0.163259 1.776991 0.141885 -0.013838 -367438.000000 0 0 1
-33.024725 4.489472 -6.639329 33.983357 -0.135114 1.767431 0.168977 -0.029670 389905.000000 0 0 1
-31.716395 4.965772 -6.288129 32.712829 -0.155307 1.764222 0.187649 -0.032482 818106.000000 0 0 1
-30.925935 3.812672 -6.005129 31.733445 -0.122665 1.761181 0.179556 -0.039021 330208.000000 0 0 1
-29.446835 4.000872 -5.561529 30.233321 -0.135041 1.755804 0.229906 -0.035735 510308.000000 0 0 1
-28.570315 4.256172 -6.618429 29.634128 -0.147884 1.796034 0.237053 -0.029725 964214.000000 0 0 1
-27.169925 4.462972 -6.340329 28.254605 -0.162808 1.797123 0.243827 -0.044573 1532370.000000 0 0 1
-26.382055 4.969072 -7.593229 27.899133 -0.186169 1.846441 0.244067 -0.049003 113330.000000 0 0 1
-26.247205 4.022072 -8.640229 27.923940 -0.152055 1.885380 0.222505 -0.058231 -386796.000000 0 0 1
-25.152235 4.289672 -9.430429 27.202375 -0.168923 1.924822 0.224072 -0.056863 -547239.000000 0 0 1
-25.302735 3.382872 -10.682029 27.672694 -0.132908 1.967102 0.186277 -0.067453 163398.000000 0 0 1
-26.277615 3.901272 -11.585629 28.982060 -0.147387 1.982042 0.204601 -0.039773 617159.000000 0 0 1
-26.533045 3.074672 -12.722829 29.585917 -0.115366 2.015322 0.184076 -0.041163 302809.000000 0 0 1
-27.485605 3.912272 -13.669129 30.945266 -0.141389 2.028311 0.159978 -0.033523 -27042.500000 0 0 1
-26.840195 5.006872 -14.345029 30.842255 -0.184424 2.054555 0.132367 -0.029017 875322.000000 0 0 1
-27.670775 6.049472 -14.985129 32.044064 -0.215237 2.057417 0.154137 -0.041241 36195.400000 0 0 1
-28.393675 5.705072 -16.267529 33.217181 -0.198287 2.082579 0.114515 -0.007629 74791.400000 0 0 1
-29.552305 4.891372 -16.093729 34.004005 -0.164029 2.063817 0.145052 -0.030338 33162.800000 0 0 1
-30.110435 4.661772 -17.353029 35.064199 -0.153603 2.088508 0.144594 -0.011273 -357835.000000 0 0 1
-31.602215 4.288072 -17.300529 36.282170 -0.134865 2.067844 0.151554 -0.023653 -108270.000000 0 0 1
-31.838905 3.065072 -16.652929 36.061484 -0.095972 2.050812 0.166625 -0.030249 -8061.350000 0 0 1
-31.599195 1.872672 -17.441129 36.141514 -0.059194 2.074393 0.184393 -0.027996 10513.000000 0 0 1
-32.084905 0.613872 -16.633429 36.145386 -0.019130 2.048996 0.175837 -0.033931 50370.300000 0 0 1
-31.791485 -0.685628 -17.119529 36.114359 0.021563 2.064666 0.177047 -0.032279 119975.000000 0 0 1
-31.888565 -1.679028 -16.147129 35.783090 0.052604 2.038962 0.186284 -0.037021 -72701.300000 0 0 1
-31.817055 -3.081028 -16.741329 36.084482 0.096535 2.053243 0.170899 -0.024022 322651.000000 0 0 1
-32.797105 -3.337128 -17.750529 37.441525 0.101402 2.064723 0.187725 -0.029517 550000.000000 0 0 1
-32.476925 -4.562228 -18.410129 37.609805 0.139563 2.082317 0.193220 -0.028481 290558.000000 0 0 1
-33.270065 -4.767928 -19.747229 38.981835 0.142341 2.102004 0.213201 -0.030792 110893.000000 0 0 1
-33.001615 -5.997728 -20.370629 39.243367 0.179778 2.116576 0.207096 -0.028235 511212.000000 0 0 1
-33.976492 -6.368528 -21.346329 40.627896 0.185289 2.123994 0.203753 -0.027937 -128744.000000 0 0 1
-33.538595 -7.607528 -22.109229 40.884348 0.223055 2.142154 0.199628 -0.026681 147766.000000 0 0 1
-32.299895 -7.360728 -22.764929 40.195840 0.224061 2.172867 0.189905 -0.015267 110235.000000 0 0 1
-32.127705 -8.200228 -23.853429 40.846288 0.249903 2.194420 0.167749 -0.016822 -409905.000000 0 0 1
-30.817905 -7.780028 -24.517729 40.142137 0.247285 2.227833 0.148326 -0.008405 -746159.000000 0 0 1
-30.812065 -6.482128 -25.112329 40.274439 0.207353 2.244046 0.137399 -0.016463 -85301.700000 0 0 1
-30.907105 -6.510728 -26.558559 41.267370 0.207619 2.269954 0.099645 -0.014797 275840.000000 0 0 1
-32.331405 -6.615028 -27.173439 42.748967 0.201815 2.259648 0.137694 -0.015892 401099.000000 0 0 1
-33.005085 -7.864628 -26.944719 43.326735 0.233923 2.241958 0.124764 -0.014438 862583.000000 0 0 1
-34.256148 -8.030228 -27.654359 44.751892 0.230260 2.236927 0.105892 -0.015192 1875020.000000 0 0 1
-35.282025 -9.078228 -27.039459 45.369240 0.251842 2.209290 0.106277 -0.022275 694072.000000 0 0 1
-34.945217 -10.399628 -27.477789 45.654675 0.289252 2.216626 0.106074 -0.013488 517916.000000 0 0 1
-35.834641 -11.440628 -26.968119 46.284867 0.309033 2.192788 0.106786 -0.015223 646631.000000 0 0 1
-37.136635 -11.685028 -27.759379 47.814775 0.304842 2.190213 0.089551 -0.002028 -119076.000000 0 0 1
37.786056 -10.707728 -27.531849 47.962946 -0.276138 2.182207 0.082950 -0.014528 -48239.100000 0 0 1
36.962396 -10.585428 -28.676289 47.964566 -0.278918 2.211630 0.089186 -0.014606 -71083.000000 0 0 1
35.942196 -9.449728 -28.515309 46.842947 -0.257096 2.225271 0.088081 -0.008120 331057.000000 0 0 1
34.808996 -9.735128 -27.692799 45.533834 -0.272705 2.224563 0.074983 -0.006940 385849.000000 0 0 1
33.949636 -8.605628 -27.522339 44.543392 -0.248253 2.236836 0.035977 -0.001093 61881.900000 0 0 1
32.602666 -8.903928 -26.870759 43.176978 -0.266603 2.242525 0.028506 -0.001524 -502896.000000 0 0 1
32.729946 -9.118828 -25.469169 42.462701 -0.271718 2.214049 0.018451 0.009094 242411.000000 0 0 1
31.510016 -9.259228 -24.747229 41.122254 -0.285805 2.216545 -0.001671 0.009139 48493.200000 0 0 1
31.691486 -9.246428 -23.188329 40.342847 -0.283884 2.183134 -0.014488 0.007611 -137755.000000 0 0 1
32.286626 -10.447928 -22.780629 40.872270 -0.312964 2.162001 -0.017778 0.002317 192424.000000 0 0 1
32.574496 -10.565928 -21.405229 40.384656 -0.313655 2.129437 0.001119 0.000148 -70704.500000 0 0 1
33.252726 -11.910028 -21.015929 41.100630 -0.343932 2.107526 0.034239 -0.003177 387825.000000 0 0 1
34.595296 -11.980928 -21.492629 42.453625 -0.333390 2.101640 0.051175 -0.006752 681858.000000 0 0 1
35.390626 -12.769228 -20.596929 42.892693 -0.346271 2.071675 0.095704 -0.012049 868297.000000 0 0 1
36.917016 -12.835928 -20.962429 44.351443 -0.334622 2.063085 0.136084 -0.032018 305987.000000 0 0 1
37.763916 -11.720228 -20.703229 44.632956 -0.300930 2.053138 0.164068 -0.032452 455426.000000 0 0 1
37.644836 -10.578228 -21.607529 44.675697 -0.273936 2.075620 0.167363 -0.018898 -685042.000000 0 0 1
-37.682755 -10.648428 -23.041129 45.434268 0.275400 2.102649 0.129293 -0.022018 -61226.600000 0 0 1
37.725006 -11.561928 -24.030029 46.198447 -0.297390 2.117821 0.136920 -0.018453 1314990.000000 0 0 1
36.318236 -11.416228 -24.371229 45.202891 -0.304559 2.140226 0.168135 -0.022737 1158420.000000 0 0 1
35.942566 -12.527728 -25.395159 45.757252 -0.335381 2.159156 0.128939 -0.035154 -226154.000000 0 0 1
35.995376 -13.892228 -25.056029 46.005061 -0.368331 2.146752 0.135899 -0.045750 744710.000000 0 0 1
35.078146 -14.238628 -23.996329 44.822301 -0.385592 2.135737 0.096204 -0.033511 193022.000000 0 0 1
-30.712045 8.329572 -18.944629 37.033910 -0.264844 2.107782 0.104071 -0.010844 1303990.000000 0 0 1
-29.424415 7.655472 -18.940629 35.821082 -0.254531 2.127931 0.105946 -0.007989 1093310.000000 0 0 1
-28.776365 7.754972 -20.193429 35.999908 -0.263237 2.166305 0.114396 -0.029745 339739.000000 0 0 1
-27.420605 7.025572 -20.336929 34.854540 -0.250820 2.193804 0.096546 -0.028087 206643.000000 0 0 1
-26.305275 7.553572 -19.659929 33.697726 -0.279627 2.193730 0.093488 -0.023152 176873.000000 0 0 1
-25.202075 6.658972 -19.790229 32.728270 -0.258320 2.220164 0.102382 -0.029058 453129.000000 0 0 1
-23.886155 7.254372 -19.238829 31.516771 -0.294853 2.227402 0.087947 -0.031863 -67291.300000 0 0 1
-23.266655 8.258172 -19.975129 31.757526 -0.341065 2.251048 0.089458 -0.029275 -307747.000000 0 0 1
-22.040155 8.546672 -19.324729 30.532920 -0.369925 2.256108 0.093399 -0.028548 65089.500000 0 0 1
-21.238055 9.618972 -20.092129 30.777805 -0.425273 2.282087 0.097527 -0.028899 -173532.000000 0 0 1
-20.799355 9.217572 -21.368929 31.212304 -0.417156 2.324894 0.113918 -0.037070 -7734.640000 0 0 1
-20.115755 10.298272 -22.036629 31.564395 -0.473162 2.343604 0.103897 -0.034915 194327.000000 0 0 1
-19.140455 9.721272 -23.082729 31.522572 -0.469941 2.392431 0.120888 -0.033876 -90885.200000 0 0 1
-19.773655 8.860172 -24.023629 32.351736 -0.421256 2.407705 0.122262 -0.033649 -734755.000000 0 0 1
-18.850455 8.168672 -24.779929 32.188690 -0.408914 2.449376 0.104900 -0.027367 -1362060.000000 0 0 1
-19.349955 7.008572 -25.650269 32.885820 -0.347503 2.465430 0.091132 -0.018093 -342842.000000 0 0 1
-19.930555 5.936072 -24.976929 32.500938 -0.289472 2.447288 0.108106 -0.017868 201824.000000 0 0 1
-20.443755 4.951572 -25.867889 33.340859 -0.237628 2.458876 0.098582 -0.014276 -606491.000000 0 0 1
-20.719055 3.540872 -25.189769 32.807644 -0.169264 2.446199 0.095782 -0.001528 -57767.400000 0 0 1
-19.648955 2.687472 -24.849429 31.793051 -0.135931 2.468022 0.079690 0.004351 -611293.000000 0 0 1
-18.630455 3.232672 -24.113029 30.642817 -0.171805 2.476576 0.093997 -0.007740 -1287420.000000 0 0 1
-17.652355 2.219072 -23.522029 29.492639 -0.125054 2.494029 0.093163 -0.004166 -203536.000000 0 0 1
-18.149955 1.384372 -22.456029 28.906930 -0.076127 2.460427 0.093583 -0.003677 501323.000000 0 0 1
-19.170555 0.466872 -22.897529 29.866788 -0.024349 2.444412 0.062864 0.003115 338499.000000 0 0 1
-19.727055 -0.418528 -21.793429 29.398732 0.021213 2.405809 0.110837 -0.007577 182647.000000 0 0 1
-18.754855 -1.310028 -21.237129 28.363294 0.069737 2.416977 0.109481 -0.013634 487622.000000 0 0 1
-19.336955 -2.134328 -20.227729 28.064822 0.109931 2.375680 0.125413 -0.017469 149037.000000 0 0 1
-18.542255 -3.456828 -19.946529 27.452303 0.184314 2.384140 0.084185 -0.030982 119868.000000 0 0 1
-18.696555 -4.357828 -21.012429 28.461799 0.228993 2.401295 0.078073 -0.030914 447569.000000 0 0 1
-19.139555 -5.631928 -20.541429 28.635494 0.286179 2.370775 0.093037 -0.024987 -101174.000000 0 0 1
-19.313755 -6.677228 -21.615929 29.746511 0.332860 2.384260 0.056073 -0.025652 -406946.000000 0 0 1
-18.067855 -7.003728 -22.146729 29.427491 0.369801 2.422777 0.055627 -0.023333 -294382.000000 0 0 1
-18.262955 -7.670028 -23.382029 30.644480 0.397609 2.438753 0.076071 -0.030275 -192654.000000 0 0 1
-16.968055 -7.942428 -24.141729 30.558471 0.437788 2.481634 0.068263 -0.033918 -1382520.000000 0 0 1
-17.080955 -8.528228 -25.465449 31.827328 0.463074 2.498279 0.097152 -0.058849 103206.000000 0 0 1
-15.898255 -8.524528 -26.262679 31.861425 0.492181 2.539723 0.102866 -0.062285 851425.000000 0 0 1
-14.698055 -9.354828 -25.659539 31.015441 0.566803 2.545107 0.093825 -0.056131 -464967.000000 0 0 1
-14.054155 -8.782728 -24.557229 29.626223 0.558542 2.547938 0.103848 -0.049339 -79935.500000 0 0 1
-13.041955 -9.689128 -24.118129 29.080164 0.638954 2.548770 0.085030 -0.041401 121428.000000 0 0 1
-12.129155 -8.988228 -23.087429 27.585033 0.637744 2.562492 0.109725 -0.038064 -52090.200000 0 0 1
-12.740655 -8.626428 -21.872729 26.742398 0.595176 2.528556 0.107330 -0.026187 -268729.000000 0 0 1
-11.755655 -8.039428 -21.085029 25.444180 0.599823 2.547538 0.111068 -0.017774 -930735.000000 0 0 1
-12.156355 -7.740928 -19.598529 24.326966 0.567026 2.507534 0.094618 -0.015332 61205.500000 0 1 0
-13.110955 -6.744628 -19.306429 24.292496 0.475122 2.489390 0.090551 -0.009569 -305062.000000 0 1 0
-14.399455 -7.052828 -19.740129 25.431465 0.455453 2.459427 0.097767 -0.021311 -207641.000000 0 0 1
-15.548655 -6.027428 -19.317029 25.519369 0.369814 2.429438 0.096225 -0.017410 671431.000000 0 0 1
-15.779155 -5.932028 -17.928329 24.608854 0.359595 2.386972 0.088321 -0.013608 606709.000000 0 1 0
-14.987155 -4.882328 -17.336629 23.430977 0.314926 2.403721 0.097681 -0.026550 38452.200000 0 1 0
-15.243255 -4.605128 -15.824429 22.449423 0.293391 2.353068 0.114284 -0.026813 952173.000000 0 1 0
-16.601755 -4.215128 -15.512429 23.108895 0.248643 2.306724 0.162429 -0.031828 1146500.000000 0 1 0
-16.767555 -2.801028 -15.432629 22.960024 0.165522 2.307908 0.101143 -0.034539 -741973.000000 0 1 0
-17.930155 -2.338928 -14.591529 23.235184 0.129714 2.249768 0.096362 -0.035975 -691424.000000 0 1 0
-17.877455 -2.661128 -13.223729 22.395357 0.147769 2.202434 0.125405 -0.039503 425630.000000 0 1 0
-18.685255 -1.738328 -12.569129 22.586358 0.092765 2.160954 0.122927 -0.037593 -44182.900000 0 1 0
-17.772255 -0.637428 -11.943429 21.422065 0.035851 2.162203 0.084598 -0.035387 195499.000000 0 1 0
-17.475555 0.321472 -12.885129 21.714625 -0.018393 2.206054 0.113180 -0.037841 395554.000000 0 1 0
-16.562855 1.245872 -12.330229 20.686105 -0.075079 2.209386 0.085253 -0.027738 -741430.000000 0 1 0
-16.146355 2.250472 -13.461529 21.141953 -0.138487 2.261035 0.089521 -0.019139 3716.960000 0 1 0
-15.461655 1.757872 -14.584429 21.327411 -0.113206 2.323802 0.090682 -0.029518 602301.000000 0 1 0
-14.169655 1.224072 -14.318629 20.181690 -0.086173 2.359565 0.085678 -0.024780 -398051.000000 0 1 0
-13.627355 0.201172 -15.336229 20.516949 -0.014761 2.415073 0.077229 -0.026201 47650.600000 0 1 0
-13.270155 0.768672 -16.590029 21.258338 -0.057860 2.466103 0.096986 -0.027408 -39389.200000 0 1 0
-12.711755 -0.206428 -17.397729 21.547907 0.016238 2.510524 0.049847 -0.021364 65650.600000 0 1 0
-12.114455 0.517072 -18.715829 22.300441 -0.042656 2.566714 0.071970 -0.027074 553162.000000 0 1 0
-10.918355 1.210472 -18.368029 21.402341 -0.110415 2.602598 0.046060 -0.021586 -262839.000000 0 1 0
-10.629955 2.258172 -19.285529 22.136552 -0.209323 2.628453 0.063231 -0.026997 -179540.000000 0 1 0
-9.193855 2.747772 -19.076729 21.354129 -0.290420 2.675544 0.037995 -0.027521 -755570.000000 0 1 0
-8.269755 1.753972 -19.440029 21.198585 -0.208998 2.731399 0.041266 -0.021623 397087.000000 0 1 0
-6.885255 2.081372 -19.239729 20.540351 -0.293560 2.783821 0.033407 -0.015033 1149410.000000 0 1 0
-6.261155 3.142172 -20.223229 21.402203 -0.465128 2.808126 0.036714 -0.015601 -699431.000000 0 1 0
-6.185955 2.690372 -21.556929 22.587725 -0.410240 2.838322 0.038270 -0.019194 242706.000000 0 1 0
-5.732655 3.729572 -22.420329 23.440226 -0.576785 2.845519 0.058092 -0.017580 -437316.000000 0 1 0
-5.252655 3.264772 -23.788429 24.579229 -0.556112 2.887241 0.087980 -0.029670 -154811.000000 0 1 0
-3.973855 2.669872 -23.738729 24.216668 -0.591589 2.942589 0.082924 -0.035741 -166856.000000 0 1 0
-3.559155 2.230572 -24.993229 25.343728 -0.559831 2.975089 0.113235 -0.039909 -898567.000000 0 0 1
-2.218155 1.544972 -24.949129 25.095143 -0.608381 3.033666 0.093947 -0.034662 -1432840.000000 0 0 1
-1.170255 2.485872 -24.846529 24.997981 -1.130811 3.031459 0.106401 -0.035422 484072.000000 0 1 0
0.147045 1.929772 -24.803529 24.878921 1.494745 3.063723 0.096747 -0.030723 699762.000000 0 1 0
0.568045 0.990072 -23.629729 23.657283 1.049909 3.093324 0.086493 -0.030730 -1211700.000000 0 1 0
0.207745 -0.339228 -23.623429 23.626778 -1.021306 3.124756 0.070813 -0.029874 7628.040000 0 1 0
0.838145 -1.151428 -22.616029 22.660826 -0.941579 3.078704 0.064618 -0.024275 -715186.000000 0 1 0
0.328645 -2.581328 -22.671029 22.819878 -1.444161 3.027313 0.071297 -0.031619 -287590.000000 0 1 0
-0.926255 -2.874028 -22.126629 22.331720 1.259022 3.005961 0.053811 -0.022123 -213417.000000 0 1 0
-2.122355 -2.598528 -22.815929 23.061296 0.885923 2.995588 0.064414 -0.021331 49145.100000 0 1 0
-2.801855 -1.217528 -22.597729 22.803292 0.409926 3.007219 0.070952 -0.026394 -1868760.000000 0 1 0
-3.428755 -0.951728 -21.355429 21.649862 0.270756 2.976483 0.048650 -0.029374 93888.700000 0 1 0
-4.365855 0.082772 -21.506729 21.945545 -0.018957 2.941280 0.036482 -0.026150 -11307.200000 0 1 0
-5.653755 -0.272328 -22.280229 22.987991 0.048131 2.892805 0.036178 -0.022063 -1231980.000000 0 1 0
-6.384855 -1.341928 -21.722729 22.681360 0.207159 2.849818 0.044424 -0.012197 -373920.000000 0 1 0
-7.761055 -1.211428 -21.930029 23.294371 0.154841 2.797644 0.051835 -0.011022 -271381.000000 0 1 0
-8.517755 -2.536028 -21.726129 23.473566 0.289377 2.753301 0.044005 -0.008713 -32747.200000 0 1 0
-8.978355 -3.176328 -22.935329 24.834034 0.340035 2.748018 0.088622 -0.007529 321095.000000 0 1 0
-9.527055 -4.471228 -22.659829 24.984486 0.438803 2.706797 0.079202 0.000739 -607064.000000 0 1 0
-10.529755 -5.124528 -23.561529 26.311256 0.452928 2.680333 0.095090 -0.015043 -1043950.000000 0 0 1
-11.841155 -4.843428 -23.182429 26.478232 0.388269 2.637324 0.088897 -0.019804 -630700.000000 0 0 1
-12.744455 -5.341928 -24.153029 27.826717 0.396911 2.621916 0.090067 -0.041940 240509.000000 0 0 1
-14.236855 -5.103328 -23.838229 28.231068 0.344191 2.576235 0.080189 -0.044312 250668.000000 0 0 1
-14.808755 -3.810328 -24.094629 28.537151 0.251840 2.576100 0.086452 -0.041379 1813680.000000 0 0 1
-16.203455 -3.737128 -23.630429 28.894901 0.226674 2.528385 0.098513 -0.039470 1648670.000000 0 0 1
-16.807055 -2.430528 -24.118529 29.497255 0.143618 2.528119 0.084346 -0.026502 -468534.000000 0 0 1
-17.084555 -2.422828 -25.541859 30.824320 0.140875 2.547447 0.064911 -0.025154 188603.000000 0 0 1
-17.262655 -1.120828 -26.076819 31.293067 0.064837 2.555865 0.069932 -0.016345 -158254.000000 0 0 1
-18.725555 -0.932928 -26.518279 32.476698 0.049780 2.526175 0.054439 -0.003421 -174410.000000 0 0 1
-19.053255 -1.603828 -27.738879 33.690417 0.083978 2.538078 0.062504 -0.019129 38636.200000 0 0 1
-19.004555 -0.790128 -28.934729 34.626810 0.041552 2.560050 0.039066 -0.023191 -176132.000000 0 0 1
-19.108655 -1.499528 -30.263549 35.822782 0.078313 2.577012 0.037423 -0.028184 -276391.000000 0 0 1
-20.362855 -2.061828 -30.489539 36.722051 0.100910 2.550404 0.049611 -0.027564 -554640.000000 0 0 1
-20.278855 -2.836228 -31.600879 37.654903 0.138960 2.566650 0.064885 -0.031402 204964.000000 0 0 1
-21.653355 -3.520828 -31.951279 38.757558 0.161189 2.539917 0.052381 -0.028995 1282910.000000 0 0 1
-22.792455 -2.707228 -32.228369 39.566310 0.118224 2.522733 0.054754 -0.019802 780344.000000 0 0 1
-23.325355 -1.998528 -31.109229 38.933924 0.085472 2.496470 0.042541 -0.006145 -1167890.000000 0 0 1
-24.183355 -0.803828 -31.451199 39.681970 0.033227 2.485828 0.044263 -0.004096 -305476.000000 0 0 1
-23.554955 0.322072 -32.011729 39.745320 -0.013672 2.507182 0.049727 -0.006821 610678.000000 0 0 1
-24.575655 1.147972 -32.587569 40.831732 -0.046678 2.494922 0.038717 -0.010681 444494.000000 0 0 1
-24.108055 2.554772 -32.985089 40.935819 -0.105578 2.507780 0.049625 -0.016493 -587521.000000 0 0 1
-23.762855 3.486472 -31.946369 39.967478 -0.145680 2.496941 0.040167 -0.011026 284414.000000 0 0 1
-24.742355 3.872172 -31.014579 39.863291 -0.155240 2.462310 0.051682 -0.010499 -157056.000000 0 0 1
-25.920685 4.732572 -31.557559 41.111540 -0.180590 2.445897 0.049221 -0.016340 -392309.000000 0 0 1
-26.936815 3.999972 -32.170779 42.149150 -0.147417 2.439141 0.059372 -0.022769 -102598.000000 0 0 1
-27.948385 4.845172 -32.669399 43.265200 -0.171655 2.426598 0.079265 -0.036631 -197604.000000 0 0 1
-29.017145 4.134672 -33.514519 44.523176 -0.141538 2.423016 0.094802 -0.043059 -323874.000000 0 0 1
-28.710715 3.882072 32.502378 43.540558 -0.134398 0.728032 0.093684 -0.036291 547967.000000 0 0 1
-29.785745 3.259472 31.782056 43.679673 -0.108997 0.755955 0.114065 -0.046034 279418.000000 0 0 1
-29.780815 1.718472 31.818840 43.615234 -0.057640 0.753155 0.122933 -0.030211 -380676.000000 0 0 1
-30.172125 1.169672 33.104189 44.806390 -0.038747 0.739468 0.128736 -0.024555 483077.000000 0 0 1
-30.510425 -0.232828 32.941436 44.900762 0.007631 0.747119 0.107665 -0.011151 -590539.000000 0 0 1
-30.608795 -0.965128 -33.049439 45.056578 0.031521 2.394268 0.085767 -0.007060 243431.000000 0 0 1
-29.453965 -1.680428 -32.570449 43.945353 0.056991 2.405590 0.093998 -0.015045 376593.000000 0 0 1
-28.446335 -0.792128 -32.167739 42.948631 0.027839 2.417320 0.090406 -0.009847 -882059.000000 0 0 1
-28.314895 -0.307328 -30.701639 41.766235 0.010854 2.396585 0.109911 -0.010102 -221620.000000 0 0 1
-27.469835 -1.154528 -29.905169 40.623194 0.042004 2.398175 0.095023 -0.012201 600425.000000 0 0 1
-27.385955 -0.769828 -28.571909 39.584557 0.028103 2.377188 0.108453 -0.014960 299289.000000 0 0 1
-26.174255 -1.306628 -27.712539 38.141627 0.049879 2.384112 0.101882 -0.011623 438805.000000 0 0 1
-26.258705 -2.647528 -27.253449 37.937837 0.100485 2.372254 0.092534 -0.007885 -16965.100000 0 0 1
-25.188545 -2.920128 -26.388689 36.597170 0.115416 2.376125 0.092159 -0.010452 -210273.000000 0 0 1
-25.398645 -4.213428 -25.614199 36.317095 0.164395 2.353633 0.086505 -0.016921 -204529.000000 0 0 1
-26.371195 -4.057228 -24.632029 36.313054 0.152654 2.316276 0.119332 -0.017928 -432361.000000 0 0 1
-26.660315 -5.265028 -23.952629 36.224596 0.194977 2.293248 0.111686 -0.019591 575324.000000 0 0 1
-28.028025 -5.092628 -23.205229 36.742179 0.179737 2.254372 0.125482 -0.029080 499548.000000 0 0 1
-28.376495 -6.160728 -22.396329 36.671182 0.213789 2.227783 0.130594 -0.024510 -112494.000000 0 0 1
-29.571545 -5.978528 -21.643129 37.130097 0.199483 2.193089 0.164135 -0.021596 213633.000000 0 0 1
-29.931345 -7.125128 -20.645629 37.052596 0.233699 2.161804 0.168421 -0.033333 -144445.000000 0 0 1
-28.946155 -7.374028 -19.648729 35.753724 0.249444 2.152631 0.153821 -0.038564 504533.000000 0 0 1
-29.433935 -8.339728 -18.705429 35.858063 0.276101 2.119582 0.169684 -0.024838 -12368.000000 0 0 1
-30.265725 -7.643028 -17.635829 35.853207 0.247359 2.085055 0.178444 -0.023100 193770.000000 0 0 1
-29.456255 -6.815428 -16.761729 34.569880 0.227374 2.077005 0.140001 -0.034431 764287.000000 0 0 1
-30.209115 -6.233528 -15.728329 34.624094 0.203490 2.042337 0.151525 -0.031177 106917.000000 0 0 1
-29.241385 -5.648228 -14.650129 33.190170 0.190809 2.027954 0.142342 -0.029377 91411.800000 0 0 1
-28.712885 -4.439428 -15.015529 32.704807 0.153400 2.047804 0.135336 -0.022612 637642.000000 0 0 1
-27.377875 -4.412728 -14.480729 31.284369 0.159804 2.052031 0.126395 -0.035555 395660.000000 0 0 1
-14.200255 21.031472 -4.583829 25.787236 -0.976916 1.749502 0.107380 -0.038261 -101548.000000 0 0 1
-14.596355 20.712472 -5.907329 26.018390 -0.956914 1.799838 0.138343 -0.037037 87911.700000 0 0 1
-15.315855 19.505472 -5.942729 25.502056 -0.905140 1.805988 0.122350 -0.044751 -82610.600000 0 0 1
-15.710255 18.966772 -7.356729 25.703541 -0.879033 1.861070 0.141801 -0.044335 -779401.000000 0 0 1
-14.624255 18.500372 -8.095029 24.933152 -0.901885 1.901458 0.117604 -0.033125 -371431.000000 0 1 0
-14.784755 17.398272 -9.019529 24.548742 -0.866428 1.947022 0.100061 -0.028581 -474726.000000 0 1 0
-15.251755 16.055972 -8.383929 23.679116 -0.811080 1.932710 0.094520 -0.030132 -791149.000000 0 1 0
-16.534355 16.128272 -7.878929 24.404581 -0.772966 1.899532 0.096482 -0.021286 -871094.000000 0 1 0
-16.805755 15.169772 -6.907529 23.670009 -0.734279 1.866932 0.098665 -0.015397 -276346.000000 0 1 0
-18.222755 15.063172 -6.342429 24.478447 -0.690759 1.832889 0.126732 -0.035955 -46189.900000 0 1 0
-19.232355 14.696672 -7.255929 25.269035 -0.652505 1.862043 0.116484 -0.036047 372207.000000 0 0 1
-20.563655 14.917172 -6.801929 26.299281 -0.627580 1.832406 0.108395 -0.039749 288277.000000 0 0 1
-21.600755 14.437972 -7.800129 27.127286 -0.589202 1.862452 0.104606 -0.019043 -433421.000000 0 0 1
-21.821355 13.020472 -7.801229 26.581260 -0.537978 1.868668 0.140530 -0.027284 -461587.000000 0 0 1
-22.716755 12.534872 -8.743229 27.379153 -0.504216 1.895828 0.155795 -0.023205 -116981.000000 0 0 1
-23.235655 11.146772 -8.292829 27.072444 -0.447298 1.882121 0.190093 -0.025346 218795.000000 0 0 1
-22.111955 10.264672 -8.244329 25.734627 -0.434611 1.896905 0.178497 -0.027649 546934.000000 0 0 1
-22.410355 9.088072 -7.489229 25.316114 -0.385265 1.871119 0.208685 -0.045061 820543.000000 0 0 1
-21.088755 8.298072 -7.113129 23.752688 -0.374876 1.874930 0.155989 -0.021790 621641.000000 0 1 0
-20.719155 7.335172 -8.029529 23.400032 -0.340259 1.921056 0.141669 -0.020408 -231430.000000 0 1 0
-19.624855 6.601972 -7.595229 22.054670 -0.324516 1.922377 0.089198 -0.017108 -679184.000000 0 1 0
-19.346155 5.365772 -8.454429 21.783999 -0.270555 1.969368 0.076088 -0.027101 -61209.400000 0 1 0
-20.394555 4.398772 -8.478629 22.520529 -0.212429 1.956795 0.108804 -0.029904 733877.000000 0 1 0
-20.166455 3.475172 -9.517629 22.568739 -0.170648 2.006135 0.106466 -0.027620 126409.000000 0 1 0
-21.225255 2.332172 -9.409929 23.334465 -0.109438 1.985876 0.123232 -0.032863 468123.000000 0 1 0
-20.969255 1.466472 -8.307929 22.602697 -0.069821 1.947184 0.118342 -0.036702 402836.000000 0 1 0
-22.007155 0.489472 -8.350129 23.543133 -0.022238 1.933361 0.139646 -0.033337 159852.000000 0 1 0
-21.646355 -0.845428 -9.080829 23.489166 0.039037 1.967735 0.091795 -0.044521 -587882.000000 0 1 0
-20.826155 -1.669028 -8.387329 22.513589 0.079970 1.952546 0.102845 -0.030449 -188883.000000 0 1 0
-20.593855 -2.921628 -9.026829 22.674356 0.140928 1.980249 0.067612 -0.020724 -259472.000000 0 1 0
-21.465155 -3.995328 -8.379529 23.386578 0.184025 1.937248 0.064252 -0.020277 -82168.200000 0 1 0
-21.214755 -4.105728 -6.985529 22.709480 0.191168 1.883470 0.077701 -0.023221 925812.000000 0 1 0
-22.303055 -4.763228 -6.293429 23.658442 0.210407 1.840050 0.101316 -0.028768 331518.000000 0 1 0
-22.522655 -6.296828 -6.543729 24.284572 0.272617 1.843629 0.108570 -0.035890 377140.000000 0 1 0
-21.362555 -7.073928 -6.181629 23.336919 0.319772 1.838882 0.093532 -0.030500 1043440.000000 0 1 0
-21.674855 -8.395028 -5.922729 23.986550 0.369525 1.820296 0.114629 -0.037247 -485760.000000 0 1 0
-20.472755 -9.141928 -5.322529 23.044259 0.419974 1.803871 0.103694 -0.047698 -104859.000000 0 1 0
-19.616655 -9.700228 -6.312529 22.776207 0.459229 1.851628 0.107971 -0.026371 225859.000000 0 1 0
-18.677555 -10.546428 -5.700929 22.194117 0.514027 1.830575 0.106747 -0.017771 64030.700000 0 1 0
-17.712155 -11.298228 -6.667529 22.041469 0.567808 1.878110 0.086066 -0.021305 733800.000000 0 1 0
-16.692655 -10.537528 -7.346729 21.063207 0.563093 1.927081 0.100012 -0.042580 906007.000000 0 1 0
-17.153655 -10.024728 -8.511829 21.614678 0.528876 1.975557 0.105974 -0.045698 -593399.000000 0 1 0
-16.348255 -10.406828 -9.785229 21.709865 0.566877 2.038376 0.122831 -0.033883 56879.100000 0 1 0
-16.250555 -11.778528 -9.931629 22.393114 0.627182 2.030310 0.126555 -0.044112 1144130.000000 0 1 0
-15.151755 -12.142428 -10.824429 22.230216 0.675586 2.079361 0.122361 -0.025117 1064970.000000 0 1 0
-15.357055 -13.527528 -11.466729 23.458880 0.722143 2.081511 0.135655 -0.026175 -326229.000000 0 1 0
-16.447855 -13.507428 -12.335029 24.599502 0.687551 2.096052 0.136990 -0.024131 -329107.000000 0 1 0
-16.613355 -14.774728 -12.973329 25.741085 0.726888 2.099012 0.124076 -0.015297 -441743.000000 0 0 1
-17.487355 -14.787428 -14.184729 26.938489 0.701938 2.125345 0.147079 -0.018006 -626364.000000 0 0 1
-17.375255 -16.006628 -14.927829 27.945514 0.744422 2.134329 0.120332 -0.013639 108046.000000 0 0 1
-17.672855 -15.747128 -16.248829 28.711084 0.727840 2.172373 0.114878 -0.011134 -50196.100000 0 0 1
-18.214355 -16.913628 -17.148829 30.197945 0.748387 2.174725 0.136048 -0.029125 1206360.000000 0 0 1
-19.566755 -17.292928 -16.796029 31.048509 0.723788 2.142376 0.092982 -0.022899 766540.000000 0 0 1
-20.324955 -17.801728 -17.889929 32.404551 0.719314 2.155654 0.090059 -0.014076 1817460.000000 0 0 1
-21.871555 -17.968828 -17.492429 33.275048 0.687751 2.124325 0.079753 -0.012733 1597100.000000 0 0 1
-22.394155 -16.730028 -17.046029 32.740787 0.641624 2.118392 0.054141 -0.002731 260150.000000 0 0 1
-22.415255 -16.732428 -15.588829 32.022327 0.641241 2.079232 0.065537 -0.008653 -265181.000000 0 0 1
-22.106755 -15.374128 -14.927129 30.787849 0.607665 2.076975 0.061409 -0.017818 -421986.000000 0 0 1
-23.232255 -14.569228 -14.931829 31.224343 0.560117 2.069413 0.078279 -0.026578 159172.000000 0 0 1
-22.858155 -13.374728 -14.246529 30.072283 0.529405 2.064332 0.080186 -0.029773 -273297.000000 0 0 1
-24.078955 -12.480928 -13.956729 30.501802 0.478207 2.046057 0.087913 -0.034992 -365414.000000 0 0 1
-24.871655 -13.098428 -12.972429 30.958876 0.484732 2.003164 0.110509 -0.033432 -82682.900000 0 0 1
-25.952975 -12.276928 -12.628529 31.364943 0.441852 1.985187 0.126435 -0.041269 -721918.000000 0 0 1
-27.007895 -12.996328 -11.790229 32.207770 0.448499 1.945576 0.129440 -0.050053 -895399.000000 0 0 1
-28.027305 -12.136028 -11.392729 32.597658 0.408633 1.927829 0.125934 -0.047997 -411121.000000 0 0 1
-28.817895 -12.802428 -10.433929 33.215059 0.418064 1.890339 0.141756 -0.055732 38506.300000 0 0 1
-29.765395 -11.827028 -9.722729 33.472210 0.378213 1.865516 0.125455 -0.050828 132550.000000 0 0 1
-28.923265 -10.955728 -8.940329 32.194918 0.362086 1.852189 0.135753 -0.053065 804782.000000 0 0 1
-29.611225 -9.821428 -8.383229 32.304236 0.320261 1.833310 0.168032 -0.046689 -111707.000000 0 0 1
-28.690725 -8.803628 -7.693729 30.981528 0.297725 1.821755 0.167532 -0.033569 -77167.300000 0 0 1
-28.289805 -9.258528 -6.361029 30.438399 0.316288 1.781329 0.166915 -0.039549 -103511.000000 0 0 1
-27.398225 -8.386228 -5.749329 29.224072 0.297031 1.768821 0.157533 -0.039925 -804664.000000 0 0 1
-27.805265 -6.930628 -5.430329 29.165988 0.244278 1.758076 0.165654 -0.040023 -625157.000000 0 0 1
-28.776705 -6.860728 -4.415229 29.910911 0.234043 1.718950 0.197923 -0.040098 120976.000000 0 0 1
-28.312215 -7.096528 -3.099129 29.352118 0.245593 1.676578 0.186634 -0.029864 703482.000000 0 0 1
-27.239585 -6.052928 -2.472829 28.013351 0.218658 1.659185 0.204844 -0.028322 1183080.000000 0 0 1
-27.887215 -4.893228 -2.003629 28.384062 0.173697 1.641445 0.236145 -0.039299 273091.000000 0 0 1
-26.957855 -3.993728 -1.479029 27.292185 0.147077 1.625015 0.197734 -0.039771 -191031.000000 0 0 1
-27.650005 -2.759828 -0.832629 27.799869 0.099483 1.600752 0.236184 -0.053282 144463.000000 0 0 1
-28.562665 -2.812228 0.271971 28.702063 0.098142 1.561321 0.242027 -0.045669 781287.000000 0 0 1
-27.975625 -3.173428 1.533971 28.196796 0.112953 1.516367 0.225886 -0.053198 -173531.000000 0 0 1
-29.004155 -3.127228 2.682271 29.295309 0.107405 1.479108 0.256895 -0.043904 -162657.000000 0 0 1
-29.967715 -4.134928 2.589471 30.362262 0.137114 1.485407 0.257113 -0.052472 261239.000000 0 0 1
-30.965505 -3.955828 3.618471 31.426174 0.127061 1.455398 0.296868 -0.066616 739549.000000 0 0 1
-32.077985 -5.044028 3.608071 32.671969 0.155966 1.460137 0.280157 -0.069568 -28565.400000 0 0 1
-31.457725 -6.292528 3.706671 32.294331 0.197426 1.455765 0.274148 -0.067291 460766.000000 0 0 1
-32.328275 -7.384128 3.396271 33.334327 0.224559 1.468734 0.317887 -0.089112 300.657000 0 0 1
-31.597865 -8.695328 3.523371 32.961310 0.268540 1.463698 0.286326 -0.059200 -209721.000000 0 0 1
-31.392465 -9.100028 4.858471 33.043942 0.282146 1.423231 0.240751 -0.044969 430977.000000 0 0 1
-30.726105 -10.381228 4.794471 32.784911 0.325822 1.424030 0.218587 -0.032234 150590.000000 0 0 1
-30.681985 -11.044728 6.203771 33.194232 0.345533 1.382798 0.196969 -0.036174 230915.000000 0 0 1
-29.527505 -10.663128 6.944271 32.152741 0.346551 1.353103 0.160156 -0.029836 368534.000000 0 0 1
-29.544045 -11.050928 8.267571 32.608685 0.357937 1.314459 0.187318 -0.044468 -9275.790000 0 0 1
-30.135165 -10.076728 9.366571 33.127048 0.322696 1.284140 0.182275 -0.045528 -40307.800000 0 0 1
-29.337815 -8.907928 9.455971 32.085417 0.294786 1.271642 0.145797 -0.021616 427491.000000 0 0 1
-29.695605 -8.093728 10.539971 32.533497 0.266093 1.240870 0.148101 -0.019940 -874036.000000 0 0 1
-28.713875 -6.999328 10.732071 31.442878 0.239098 1.222476 0.162963 -0.012090 -944640.000000 0 0 1
-28.603335 -6.104928 9.670071 30.804727 0.210279 1.251482 0.178357 -0.013838 87277.400000 0 0 1
-28.099745 -4.859128 10.095071 30.250905 0.171231 1.230558 0.172071 -0.024342 -293946.000000 0 0 1
-28.030805 -3.789328 8.958271 29.670451 0.134370 1.264084 0.193571 -0.038328 283322.000000 0 0 1
-27.151535 -4.157728 7.875271 28.574682 0.151950 1.291579 0.172143 -0.037621 600837.000000 0 0 1
-27.158985 -3.235828 6.893771 28.206473 0.118585 1.323891 0.192526 -0.054904 -116813.000000 0 0 1
-26.326885 -3.600428 5.630371 27.161904 0.135915 1.361993 0.176871 -0.041324 120451.000000 0 0 1
-24.918355 -3.506928 5.782271 25.819714 0.139818 1.344933 0.192896 -0.058297 308055.000000 0 0 1
-24.400455 -3.886628 4.522671 25.118572 0.157958 1.389756 0.186343 -0.038608 490134.000000 0 0 1
-22.832155 -3.833128 4.467371 23.578753 0.166332 1.380178 0.161912 -0.031693 831147.000000 0 1 0
-22.329155 -2.521328 4.522671 22.921667 0.112440 1.372183 0.131195 -0.035846 -880370.000000 0 1 0
-20.969255 -2.421028 4.332671 21.548621 0.114947 1.368351 0.124029 -0.032133 -1113270.000000 0 1 0
-20.385555 -0.975128 4.651571 20.932244 0.047798 1.346705 0.103384 -0.042094 -492199.000000 0 1 0
-20.556155 0.070872 3.718371 20.889874 -0.003448 1.391844 0.107755 -0.032833 71768.900000 0 1 0
-21.866255 0.561572 3.676571 22.180299 -0.025676 1.404269 0.095979 -0.050264 -640056.000000 0 1 0
-21.999655 1.742672 2.721471 22.235740 -0.079049 1.448097 0.133106 -0.036947 -288734.000000 0 1 0
-21.534655 3.004172 3.223771 21.980881 -0.138609 1.423603 0.125116 -0.051841 433379.000000 0 1 0
-21.822655 4.095472 2.344971 22.327115 -0.185513 1.465574 0.156385 -0.032250 -507336.000000 0 1 0
-20.861755 4.279072 1.204871 21.330143 -0.202310 1.514279 0.118628 -0.016794 -666592.000000 0 1 0
-21.306655 5.085272 0.110471 21.905382 -0.234288 1.565753 0.155333 -0.011601 308571.000000 0 1 0
-22.050855 4.392172 -0.885229 22.501445 -0.196611 1.610147 0.182603 -0.018586 -181276.000000 0 1 0
-21.311255 3.344772 -1.729129 21.641326 -0.155679 1.650781 0.145700 -0.020363 -406226.000000 0 1 0
-21.033255 2.206272 -0.993729 21.171985 -0.104512 1.617750 0.092616 -0.015194 238566.000000 0 1 0
-20.506555 1.191672 -1.781129 20.618228 -0.058046 1.657290 0.077108 -0.010826 -955271.000000 0 1 0
-19.781355 0.165272 -0.988529 19.806729 -0.008355 1.620726 0.079925 -0.011042 -632220.000000 0 1 0
-20.550955 -0.590228 -0.047429 20.559484 0.028712 1.573103 0.102564 -0.014677 611328.000000 0 1 0
-19.780055 -1.280928 0.920971 19.842872 0.064668 1.524366 0.077233 -0.014747 -528029.000000 0 1 0
-19.225655 -2.637228 0.499771 19.412124 0.136322 1.545048 0.052432 -0.012639 -250647.000000 0 1 0
-18.338355 -3.118128 1.478771 18.660245 0.168422 1.491466 0.036846 -0.011673 623427.000000 0 1 0
-17.600955 -4.331028 1.151871 18.162550 0.241274 1.507334 0.017979 -0.005475 46721.000000 0 1 0
-18.333855 -5.658128 0.877371 19.207146 0.299343 1.525101 0.009219 -0.007761 -943685.000000 0 1 0
-19.128655 -5.990128 1.962971 20.140515 0.303476 1.473178 0.044169 -0.015325 -191900.000000 0 1 0
-20.171955 -6.847128 1.596071 21.362078 0.327235 1.496011 0.061991 -0.022238 -758528.000000 0 1 0
-20.947455 -7.255828 2.846271 22.350485 0.333448 1.443102 0.092246 -0.025996 -409484.000000 0 1 0
-20.183855 -7.995528 3.838071 22.046480 0.377170 1.395815 0.083996 -0.022429 913171.000000 0 1 0
-20.850755 -8.292828 5.050171 23.000635 0.378542 1.349426 0.086033 -0.027814 -305249.000000 0 1 0
-19.944255 -9.152228 5.936871 22.732863 0.430223 1.306575 0.072327 -0.020401 -175962.000000 0 1 0
-19.613755 -10.358228 5.264071 22.796990 0.485882 1.337783 0.092173 -0.020663 -397964.000000 0 1 0
-18.575955 -11.042628 5.836371 22.384570 0.536335 1.307016 0.107645 -0.030775 -787534.000000 0 1 0
-18.278655 -12.465728 5.242171 22.737282 0.598531 1.338149 0.095852 -0.022134 385292.000000 0 1 0
-19.291755 -13.424028 5.553471 24.149894 0.607930 1.338761 0.143271 -0.029067 449684.000000 0 1 0
-18.916255 -14.603128 4.899971 24.394380 0.657426 1.368556 0.137023 -0.025056 177916.000000 0 1 0
-19.857855 -15.778128 5.226771 25.896001 0.671411 1.367563 0.156224 -0.037712 -121623.000000 0 0 1
-19.451955 -16.991328 4.607771 26.235765 0.717981 1.394251 0.156975 -0.038466 -131802.000000 0 0 1
-20.049155 -18.049928 5.236971 27.480801 0.732972 1.379055 0.146034 -0.036598 -124542.000000 0 0 1
-19.294955 -19.387328 5.022771 27.809927 0.787786 1.389189 0.169952 -0.050453 -809791.000000 0 0 1
-19.091855 -19.721328 3.677271 27.693899 0.801615 1.437620 0.154994 -0.052242 224271.000000 0 0 1
-18.181955 -20.805328 3.582371 27.861776 0.852585 1.441863 0.149035 -0.052342 904706.000000 0 0 1
-16.664655 -20.478028 3.854271 26.681750 0.887708 1.425836 0.140193 -0.054323 81349.100000 0 0 1
-15.976455 -21.720828 4.063571 27.268189 0.936617 1.421217 0.115365 -0.050161 -8974.110000 0 0 1
-14.594955 -21.463828 3.892371 26.246127 0.973634 1.421945 0.109026 -0.043648 214052.000000 0 0 1
-13.600455 -22.629128 4.058371 26.711799 1.029631 1.418274 0.124592 -0.039674 48449.500000 0 0 1
-13.700455 -23.561028 3.015371 27.421105 1.044100 1.460608 0.108408 -0.036951 83039.700000 0 0 1
-12.861555 -24.699828 3.138371 28.024106 1.090715 1.458573 0.087851 -0.036217 -210740.000000 0 0 1
19.288845 18.614172 -23.603029 35.716241 0.767600 2.292745 0.093218 -0.015641 -367406.000000 0 0 1
18.607245 19.212372 -24.614329 36.348452 0.801397 2.314715 0.087978 -0.018946 -719232.000000 0 0 1
19.475645 19.474672 -25.642819 37.631340 0.785373 2.320500 0.092021 -0.019120 -510944.000000 0 0 1
18.781745 19.727172 -26.967109 38.329365 0.809944 2.351195 0.098553 -0.027157 561898.000000 0 0 1
18.014445 20.989672 -26.982609 38.641270 0.861531 2.343795 0.101584 -0.025177 1018420.000000 0 0 1
17.186145 21.023272 -28.158209 39.118107 0.885486 2.374347 0.102532 -0.026988 281493.000000 0 0 1
16.830645 22.469772 -28.636329 40.102376 0.927913 2.366106 0.113793 -0.032502 6994.010000 0 0 1
16.014845 23.211572 -27.746079 39.561310 0.966847 2.348077 0.109671 -0.028017 313995.000000 0 0 1
15.899645 24.604872 -28.012509 40.532691 0.997098 2.333819 0.112996 -0.027984 512673.000000 0 0 1
14.906745 25.380472 -27.038049 39.967931 1.039744 2.313787 0.113295 -0.026304 456532.000000 0 0 1
13.562745 24.960272 -27.081059 39.247254 1.073055 2.332301 0.125539 -0.044414 -174217.000000 0 0 1
12.830245 25.586672 -26.052029 38.704020 1.105995 2.309201 0.107925 -0.031420 -1500750.000000 0 0 1
11.362545 25.204272 -25.868029 37.861823 1.147262 2.322962 0.125867 -0.037262 -238061.000000 0 0 1
10.710945 26.125072 -25.027129 37.730636 1.181710 2.296030 0.121763 -0.038147 -174909.000000 0 0 1
10.548545 27.421372 -25.567139 38.947170 1.203563 2.286909 0.132303 -0.039012 -1022990.000000 0 0 1
10.017145 28.416272 -24.504229 38.836644 1.231883 2.253582 0.159332 -0.046981 -726460.000000 0 0 1
11.018245 28.918172 -23.724929 38.994033 1.206763 2.224870 0.141844 -0.036141 -730078.000000 0 0 1
10.598245 29.822972 -22.704929 38.951845 1.229344 2.193086 0.164238 -0.048994 -83358.200000 0 0 1
11.574445 29.866772 -21.483529 38.568560 1.201081 2.161592 0.127706 -0.049252 467622.000000 0 0 1
12.796645 30.502472 -21.833629 39.634105 1.173570 2.154214 0.112018 -0.052240 226909.000000 0 0 1
13.453845 31.146172 -20.753629 39.771888 1.163047 2.119775 0.077509 -0.042517 62893.100000 0 0 1
14.754945 31.866572 -21.180929 41.009981 1.137166 2.113534 0.075876 -0.029371 86931.300000 0 0 1
15.754245 30.960072 -21.613629 40.912971 1.100088 2.127373 0.075740 -0.034668 12549.400000 0 0 1
16.675045 31.637972 -22.463629 42.233079 1.085737 2.131635 0.055108 -0.020982 437947.000000 0 0 1
17.866945 30.753872 -22.966829 42.337968 1.044490 2.144164 0.019935 -0.008829 427007.000000 0 0 1
18.757745 30.417572 -21.926929 41.926983 1.018206 2.121139 0.029556 -0.007533 -18202.800000 0 0 1
19.968945 29.953172 -22.506429 42.455749 0.982790 2.129533 0.035103 -0.009290 77081.800000 0 0 1
20.869845 29.216172 -21.490329 41.844586 0.950521 2.110142 0.050499 -0.006976 -10450.500000 0 0 1
21.572645 30.057472 -20.577729 42.335252 0.948281 2.078379 0.048058 0.000448 452875.000000 0 0 1
22.578445 29.232872 -19.967729 41.988774 0.913135 2.066385 0.072740 -0.005275 174165.000000 0 0 1
23.375345 29.938672 -18.880929 42.417217 0.907889 2.032109 0.077374 -0.009864 -284061.000000 0 0 1
24.373245 30.816172 -19.362029 43.801594 0.901614 2.028667 0.100266 -0.009437 109752.000000 0 0 1
25.078745 31.314972 -18.227529 44.066015 0.895534 1.997246 0.110924 -0.011711 -344303.000000 0 0 1
26.337945 32.100872 -18.595029 45.496466 0.883695 1.991841 0.125623 -0.014972 -645451.000000 0 0 1
27.356945 31.257872 -19.008929 45.681466 0.851852 1.999969 0.128898 -0.012311 -517252.000000 0 0 1
28.579745 31.968572 -19.045829 46.920518 0.841309 1.988778 0.126429 -0.006882 105305.000000 0 0 1
29.833045 31.249972 -19.540329 47.417252 0.808591 1.995547 0.141333 -0.010327 -55533.700000 0 0 1
30.209245 30.213172 -18.650029 46.618213 0.785463 1.982377 0.120025 -0.012016 -385641.000000 0 0 1
31.570945 29.918072 -18.805829 47.386441 0.758524 1.978891 0.104330 -0.013800 -214213.000000 0 0 1
32.050645 28.661072 -17.983129 46.605727 0.729625 1.966933 0.103056 -0.023346 -225938.000000 0 0 1
32.284845 28.979872 -16.599329 46.450855 0.731505 1.936228 0.086217 -0.009203 237716.000000 0 0 1
32.612945 27.776872 -15.897729 45.693507 0.705488 1.926149 0.092209 -0.021091 -169494.000000 0 0 1
33.322845 28.099172 -14.534729 45.948164 0.700557 1.892653 0.094135 -0.013043 1891660.000000 0 0 1
34.678745 28.658272 -14.455929 47.253421 0.690628 1.881705 0.081105 -0.012227 1738270.000000 0 0 1
34.727645 30.020172 -14.867229 48.251990 0.712821 1.884009 0.089613 -0.023674 -519614.000000 0 0 1
36.129845 30.627172 -14.887429 49.649017 0.703156 1.875335 0.081590 -0.017157 78623.600000 0 0 1
36.749945 30.921772 -13.606729 49.918508 0.699486 1.846869 0.084617 -0.018429 221484.000000 0 0 1
37.955945 31.626572 -13.827629 51.303968 0.694686 1.843695 0.077762 -0.027935 14975.100000 0 0 1
-37.135536 31.912072 -12.583029 50.554535 -0.709892 1.822341 0.069266 -0.011544 -275702.000000 0 0 1
-37.676836 33.007972 -11.835329 51.469847 -0.719442 1.802819 0.082811 -0.023812 643562.000000 0 0 1
-36.899236 33.455772 -10.696029 50.943570 -0.736493 1.782329 0.086744 -0.009863 -69169.800000 0 0 1
-37.579936 -33.019007 -10.007029 51.016145 0.720884 1.768231 0.090667 -0.002467 -646498.000000 0 0 1
-36.829836 -32.221907 -9.187929 49.790623 0.718765 1.756391 0.090107 -0.003506 -483519.000000 0 0 1
-36.450936 -32.788007 -7.940229 49.666602 0.732545 1.731356 0.073959 -0.006262 121507.000000 0 0 1
-36.127736 -31.746307 -6.862929 48.581283 0.720935 1.712537 0.086003 -0.019496 336307.000000 0 0 1
-37.285736 -31.046607 -6.398729 48.939367 0.694345 1.701920 0.076773 -0.009462 300353.000000 0 0 1
-36.968936 -30.042007 -5.479029 47.950434 0.682394 1.685311 0.114202 -0.011835 -33080.000000 0 0 1
37.647545 -29.380607 -5.033629 48.019736 -0.662683 1.675813 0.095798 -0.015717 89539.300000 0 0 1
36.698845 -30.164807 -4.298329 47.699019 -0.687986 1.661032 0.063386 -0.008229 904320.000000 0 0 1
35.415045 -29.552807 -4.173629 46.314284 -0.695409 1.661034 0.061237 -0.001892 238497.000000 0 0 1
35.333745 -28.529307 -2.987329 45.511746 -0.679251 1.636482 0.050077 -0.004925 -695337.000000 0 0 1
35.983045 -27.311607 -3.215729 45.288456 -0.649245 1.641862 0.086804 -0.018458 579106.000000 0 0 1
35.087545 -26.249907 -2.821729 43.910768 -0.642301 1.635101 0.074851 -0.010819 157893.000000 0 0 1
35.580945 -24.850507 -3.051329 43.507033 -0.609666 1.640988 0.096224 -0.023376 -644583.000000 0 0 1
35.739045 -24.473407 -4.368629 43.535180 -0.600438 1.671313 0.074818 -0.029283 204482.000000 0 0 1
35.788345 -23.052907 -4.308329 42.787893 -0.572249 1.671658 0.082182 -0.030578 -228129.000000 0 0 1
35.491645 -22.395307 -5.656729 42.346254 -0.562904 1.704780 0.084931 -0.030493 -252923.000000 0 0 1
36.546345 -22.713007 -6.543829 43.523990 -0.556068 1.721719 0.093224 -0.031749 357903.000000 0 0 1
36.201745 -22.404907 -7.851629 43.291965 -0.554194 1.753170 0.079130 -0.030725 570978.000000 0 0 1
37.487645 -22.420507 -8.759129 44.550252 -0.539004 1.768698 0.077630 -0.033615 635279.000000 0 0 1
-37.902936 -23.670707 -9.094929 45.603209 0.558246 1.771579 0.073348 -0.012488 196823.000000 0 0 1
-36.664836 -23.491207 -9.782729 44.630133 0.569811 1.791786 0.090482 -0.014232 617646.000000 0 0 1
-36.147836 -24.811707 -10.515629 45.087307 0.601537 1.806192 0.095272 -0.006492 -255704.000000 0 0 1
-35.494036 -25.652907 -9.661329 44.846845 0.625824 1.787928 0.127583 -0.015170 -378520.000000 0 0 1
-36.348536 -26.710307 -9.254029 46.046646 0.633727 1.773145 0.109677 -0.014977 27172.800000 0 0 1
-35.605436 -27.827107 -8.508129 45.983510 0.663384 1.756894 0.098170 -0.001249 -102337.000000 0 0 1
-35.027536 -28.713307 -9.432829 46.264031 0.686659 1.776127 0.107781 -0.002330 -225720.000000 0 0 1
-34.040036 -29.537607 -8.877729 45.934827 0.714698 1.765288 0.123791 -0.017684 -278444.000000 0 0 1
-33.471536 -30.447007 -9.982829 46.335956 0.738115 1.787943 0.113884 -0.013006 193784.000000 0 0 1
-32.724036 -29.750607 -10.996129 45.572755 0.737840 1.814489 0.088587 0.001108 397084.000000 0 0 1
-32.158836 -30.599307 -11.988029 45.980661 0.760553 1.834563 0.076965 0.004912 51407.400000 0 0 1
-32.136536 -30.043007 -13.420329 45.993961 0.751742 1.866888 0.042730 0.010275 295899.000000 0 0 1
-31.170536 -28.996207 -13.552129 44.677092 0.749275 1.878987 0.045484 -0.000397 109736.000000 0 0 1
-31.311636 -28.380507 -14.837329 44.788593 0.736333 1.908451 0.028809 0.006819 -553900.000000 0 0 1
-30.162436 -27.469907 -15.230729 43.547025 0.738713 1.928104 0.060827 -0.005459 -566639.000000 0 0 1
-29.038336 -28.269807 -15.511529 43.393715 0.771988 1.936343 0.093926 -0.016138 -826148.000000 0 0 1
-27.957436 -27.473907 -15.893729 42.297097 0.776675 1.956017 0.116478 -0.009793 111348.000000 0 0 1
-26.776836 -28.321207 -16.488629 42.319790 0.813420 1.971015 0.124671 -0.020655 83643.900000 0 0 1
-26.997236 -28.912407 -17.782029 43.370250 0.819640 1.993256 0.114271 -0.018304 -173579.000000 0 0 1
-27.207436 -28.039107 -18.932429 43.415124 0.800451 2.022033 0.094165 -0.005197 967736.000000 0 0 1
-25.941336 -27.175607 -19.374529 42.271017 0.808631 2.046924 0.105313 -0.015087 941944.000000 0 0 1
-25.502136 -26.267607 -18.407729 40.977928 0.800183 2.036678 0.114649 -0.013802 314072.000000 0 0 1
-24.130136 -25.932807 -18.615629 40.016441 0.821391 2.054656 0.112227 -0.026684 719945.000000 0 0 1
-23.552836 -24.852307 -17.657629 38.524863 0.812237 2.046927 0.113472 -0.026508 -30474.900000 0 0 1
-23.550036 -25.323907 -16.323129 38.240672 0.821677 2.011806 0.121188 -0.023432 74650.500000 0 0 1
-23.220736 -24.231607 -15.513329 36.973460 0.806698 2.003779 0.123129 -0.020553 -98958.200000 0 0 1
-23.843736 -24.243607 -14.100529 36.811698 0.793713 1.963887 0.119413 -0.023187 124760.000000 0 0 1
-25.243436 -24.098507 -13.985829 37.597507 0.762198 1.951946 0.102721 -0.009809 92036.300000 0 0 1
-25.638536 -23.801407 -12.635729 37.195472 0.748256 1.917406 0.110075 -0.010082 688674.000000 0 0 1
-27.175736 -23.559007 -12.437629 38.055775 0.714232 1.903740 0.096210 0.014706 249924.000000 0 0 1
-27.816136 -24.816207 -12.529529 39.326462 0.728462 1.895052 0.106014 0.002593 46147.500000 0 0 1
-29.073936 -24.851607 -11.893229 40.054276 0.707258 1.872270 0.079347 0.012832 201993.000000 0 0 1
-30.359436 -24.301707 -12.580329 40.872154 0.675025 1.883673 0.096366 0.008505 -434936.000000 0 0 1
-30.605536 -22.909307 -12.414129 40.195096 0.642563 1.884777 0.087072 0.008495 287552.000000 0 0 1
-31.110936 -22.469007 -11.127929 39.957195 0.625485 1.853024 0.096488 -0.002776 -464486.000000 0 0 1
-32.546436 -22.885407 -10.701129 41.201050 0.612845 1.833538 0.058743 -0.004701 74390.400000 0 0 1
-33.683536 -22.266007 -11.239629 41.912825 0.584094 1.842286 0.085990 -0.018742 184895.000000 0 0 1
-33.796436 -22.438807 -12.654529 42.495132 0.586113 1.873171 0.080053 -0.010845 -1344690.000000 0 0 1
-35.025336 -21.734807 -13.262629 43.302117 0.555389 1.882080 0.036167 -0.019094 16576.200000 0 0 1
-36.185736 -22.494107 -13.062429 44.564777 0.556172 1.868276 0.066437 -0.014217 426798.000000 0 0 1
-37.439136 -21.885707 -13.416429 45.394643 0.528995 1.870828 0.083596 -0.037145 507868.000000 0 0 1
37.267945 -22.730107 -13.055229 45.563104 -0.547675 1.861400 0.082729 -0.011225 -582461.000000 0 0 1
37.233745 -23.943507 -13.789629 46.365905 -0.571481 1.872774 0.074082 0.002827 57032.100000 0 0 1
36.591745 -25.049807 -13.156529 46.255193 -0.600299 1.859212 0.085645 -0.008092 139997.000000 0 0 1
36.512245 -26.347907 -14.018929 47.158102 -0.625088 1.872634 0.069192 -0.009917 852156.000000 0 0 1
35.545445 -26.269607 -15.111729 46.711190 -0.636452 1.900237 0.074265 -0.015711 640165.000000 0 0 1
35.219545 -27.585107 -15.621729 47.385576 -0.664433 1.906753 0.063885 0.016437 112387.000000 0 0 1
34.224345 -27.638207 -16.801429 47.089959 -0.679334 1.935630 0.058478 0.007777 399592.000000 0 0 1
32.853045 -27.619507 -16.414629 45.952146 -0.699069 1.936077 0.106710 0.006220 -179236.000000 0 0 1
32.080045 -27.695607 -17.550929 45.871680 -0.712181 1.963415 0.108089 -0.005985 -627052.000000 0 0 1
30.610745 -27.947607 -17.204529 44.878527 -0.739951 1.964225 0.112135 -0.022930 -504106.000000 0 0 1
29.944245 -26.818907 -16.766929 43.555039 -0.730394 1.965960 0.101192 -0.021544 478503.000000 0 0 1
28.523545 -27.017507 -16.683229 42.683350 -0.758289 1.972362 0.129904 -0.028286 1017770.000000 0 0 1
27.827445 -25.876407 -15.867829 41.179401 -0.749085 1.966366 0.117881 -0.032996 31054.200000 0 0 1
27.851045 -24.614907 -16.539429 40.683253 -0.723795 1.989462 0.114733 -0.038874 15972.800000 0 0 1
27.591145 -23.669507 -15.535329 39.533065 -0.709043 1.974656 0.124491 -0.036513 -84507.200000 0 0 1
27.366145 -22.312607 -16.200929 38.848789 -0.684023 2.000966 0.141047 -0.040898 378477.000000 0 0 1
26.005945 -21.918807 -16.377029 37.748514 -0.700322 2.019553 0.149738 -0.049013 415879.000000 0 0 1
25.832445 -20.526007 -16.630229 36.948568 -0.671429 2.037664 0.147458 -0.044727 -940575.000000 0 0 1
24.394545 -20.107307 -16.796429 35.798291 -0.689356 2.059177 0.140460 -0.049039 -789558.000000 0 0 1
23.676745 -20.057507 -15.568429 34.716967 -0.702831 2.035814 0.147250 -0.054911 -89771.800000 0 0 1
22.467245 -19.360907 -15.696529 33.555965 -0.711270 2.057564 0.126951 -0.053702 -175375.000000 0 0 1
22.099745 -18.296207 -14.596629 32.190239 -0.691519 2.041427 0.112437 -0.041571 -146855.000000 0 0 1
21.614145 -18.777907 -13.367329 31.598521 -0.715295 2.007590 0.118041 -0.045824 54231.500000 0 0 1
21.321745 -17.671407 -12.530029 30.395675 -0.692055 1.995697 0.116067 -0.053005 -313649.000000 0 0 1
20.333445 -17.840907 -11.337729 29.330718 -0.720197 1.967682 0.125780 -0.049447 -359216.000000 0 0 1
20.812845 -18.592707 -10.235229 29.725800 -0.729117 1.922312 0.124746 -0.054267 105960.000000 0 0 1
19.937945 -18.472207 -9.106029 28.664679 -0.747256 1.894072 0.107597 -0.046696 -112128.000000 0 0 1
20.323245 -19.137007 -7.801429 28.984851 -0.755346 1.843312 0.115089 -0.048398 -508613.000000 0 0 1
21.483545 -18.591507 -7.257429 29.323320 -0.713357 1.820892 0.115961 -0.053760 -399587.000000 0 0 1
22.066045 -19.286307 -6.180729 29.951183 -0.718278 1.778650 0.115522 -0.041015 -517706.000000 0 0 1
23.329945 -18.581407 -5.683329 30.362069 -0.672580 1.759092 0.117437 -0.033391 -899926.000000 0 0 1
24.335945 -18.777107 -6.607129 31.439976 -0.657169 1.782525 0.115517 -0.039266 -483745.000000 0 0 1
25.268545 -17.730707 -6.564929 31.559081 -0.611860 1.780347 0.131430 -0.033264 -149915.000000 0 0 1
26.354645 -17.542407 -7.670729 32.575196 -0.587284 1.808506 0.146283 -0.050032 454903.000000 0 0 1
27.489545 -18.374807 -7.638629 33.936076 -0.589222 1.797830 0.168077 -0.063228 281955.000000 0 0 1
27.360745 -19.527507 -8.469529 34.665066 -0.619865 1.817619 0.176014 -0.073084 397674.000000 0 0 1
28.650645 -20.414507 -8.415229 36.172194 -0.619087 1.805591 0.177382 -0.077194 1597100.000000 0 0 1
29.875345 -19.817807 -8.870629 36.931961 -0.585703 1.813356 0.156466 -0.059040 1222270.000000 0 0 1
31.060245 -20.600507 -8.757529 38.285950 -0.585629 1.801580 0.128287 -0.053976 412452.000000 0 0 1
-30.639755 29.344372 4.102271 42.622944 -0.763806 1.474402 0.127122 -0.019443 141603.000000 0 0 1
-30.234585 30.357772 3.212871 42.965649 -0.787431 1.495949 0.131920 -0.013383 61613.200000 0 0 1
-29.386035 31.306572 3.873971 43.112042 -0.817031 1.480817 0.117727 0.005797 248160.000000 0 0 1
-28.969215 32.453172 2.957871 43.602440 -0.842059 1.502907 0.125319 -0.001360 -389884.000000 0 0 1
-28.081965 31.891772 2.006471 42.540660 -0.848837 1.523613 0.125249 -0.000597 -25737.400000 0 0 1
-27.746535 32.761172 0.925371 42.942064 -0.868085 1.549245 0.149113 -0.019979 -293128.000000 0 0 1
-26.694825 33.813272 1.290271 43.100068 -0.902504 1.540855 0.161088 -0.006085 -400528.000000 0 0 1
-25.419565 33.216172 1.439971 41.851426 -0.917590 1.536383 0.144064 -0.013390 -208470.000000 0 0 1
-24.462455 -33.596607 2.042271 41.609068 0.941444 1.521694 0.133238 -0.010578 -442356.000000 0 0 1
-23.043355 33.500572 1.890071 40.704507 -0.968272 1.524346 0.127141 -0.018770 -398057.000000 0 0 1
-22.494255 -33.700207 0.647471 40.523014 0.982230 1.554818 0.149730 -0.022105 -603887.000000 0 0 1
-21.145555 33.598672 0.651871 39.704284 -1.009070 1.554377 0.138254 -0.028231 -632669.000000 0 0 1
-20.256855 -33.541907 -0.547429 39.188000 1.027494 1.584766 0.147931 -0.035743 265040.000000 0 0 1
-19.991155 -32.160707 -0.537129 37.871438 1.014644 1.584980 0.166094 -0.039384 917568.000000 0 0 1
-18.917755 -31.772507 0.355171 36.979721 1.033757 1.561192 0.172075 -0.034160 285766.000000 0 0 1
-18.576555 -30.249207 0.425271 35.500475 1.020061 1.558817 0.183596 -0.047137 -319172.000000 0 0 1
-17.806555 -29.871407 -0.678629 34.782681 1.033244 1.590308 0.164704 -0.030397 163801.000000 0 0 1
-17.327555 -28.500007 -0.547429 33.358570 1.024527 1.587208 0.147035 -0.030918 -133733.000000 0 0 1
-16.322455 -28.148107 -1.631029 32.579115 1.045304 1.620881 0.112091 -0.032596 -486576.000000 0 0 1
-16.953655 -28.022207 -2.910229 32.880692 1.026703 1.659421 0.092475 -0.027450 -133742.000000 0 0 1
-16.112955 -27.538907 -3.923029 32.146677 1.041406 1.693137 0.075774 -0.020665 -375357.000000 0 0 1
-16.811255 -27.339807 -5.260229 32.523120 1.019493 1.733248 0.120079 -0.029449 -5796.750000 0 0 1
-17.648555 -26.198907 -5.281729 32.027346 0.977984 1.736466 0.106210 -0.029226 22807.600000 0 0 1
-18.434355 -26.170407 -6.484429 32.661345 0.957125 1.770660 0.121906 -0.034177 417963.000000 0 0 1
-18.999855 -24.760707 -6.605429 31.901705 0.916290 1.779361 0.090898 -0.025509 -16388.600000 0 0 1
-17.930955 -23.914607 -7.001229 30.699263 0.927429 1.800880 0.078883 -0.012376 382022.000000 0 0 1
-18.371555 -22.591407 -7.226629 30.001831 0.888052 1.814061 0.068915 -0.011036 827369.000000 0 0 1
-17.169555 -21.599607 -6.950929 28.454385 0.899172 1.817577 0.077223 -0.007224 770306.000000 0 0 1
-16.104255 -21.759507 -7.819029 28.177303 0.933660 1.851981 0.112989 -0.019129 -95697.000000 0 0 1
-14.939755 -20.957207 -7.589629 26.832877 0.951485 1.857559 0.154825 -0.045680 807384.000000 0 0 1
-13.939855 -20.910707 -8.733629 26.605516 0.982814 1.905261 0.151636 -0.038798 24010.100000 0 0 1
-14.489155 -20.247907 -9.834129 26.769823 0.949685 1.946964 0.167940 -0.037714 -129709.000000 0 0 1
-13.568555 -20.232907 -10.895129 26.686702 0.980063 1.991344 0.157559 -0.022854 272169.000000 0 0 1
-14.149455 -19.398007 -12.077329 26.876600 0.940592 2.036848 0.171066 -0.019958 53750.300000 0 0 1
-15.329355 -19.926907 -12.648429 28.143445 0.915070 2.036920 0.147587 -0.005150 -257036.000000 0 0 1
-15.659755 -19.109207 -13.751429 28.275281 0.884285 2.078694 0.156272 -0.028990 33001.100000 0 0 1
-16.935055 -19.576307 -14.474729 29.657135 0.857613 2.080672 0.157864 -0.031877 -1074200.000000 0 0 1
-18.083255 -19.392007 -13.754729 29.870497 0.820307 2.049331 0.138007 -0.030261 -685770.000000 0 0 1
-19.215355 -19.687007 -14.565129 31.127979 0.797522 2.057722 0.116660 -0.019409 -496438.000000 0 0 1
-20.552255 -19.763507 -13.867629 31.706506 0.765836 2.023474 0.091030 -0.013650 -338086.000000 0 0 1
-21.566255 -20.284307 -14.730229 33.068658 0.754776 2.032466 0.109146 -0.012295 969352.000000 0 0 1
-22.867155 -20.227507 -14.106229 33.631005 0.724222 2.003626 0.098826 -0.008567 799613.000000 0 0 1
-23.952555 -20.897107 -14.979229 35.139597 0.717377 2.011170 0.099286 -0.004018 -275615.000000 0 0 1
-24.104455 -20.250807 -16.201929 35.406531 0.698734 2.046087 0.102691 -0.002996 142105.000000 0 0 1
-25.007635 -20.917407 -17.040629 36.787264 0.696569 2.052422 0.109870 -0.012258 -222619.000000 0 0 1
-25.416515 -20.130007 -18.364129 37.262014 0.669847 2.086144 0.116642 -0.020212 809387.000000 0 0 1
-24.315155 -19.756007 -19.232629 36.761673 0.682315 2.121364 0.101878 -0.027091 894463.000000 0 0 1
-24.828555 -19.233107 -20.405829 37.453537 0.659083 2.146983 0.117050 -0.033112 391042.000000 0 0 1
-23.714055 -18.490807 -21.263829 36.829564 0.662265 2.186285 0.085587 -0.025051 1160250.000000 0 0 1
-22.638755 -19.412607 -21.529729 36.781677 0.708829 2.196094 0.069057 -0.021356 614523.000000 0 0 1
-21.604855 -18.791207 -22.288029 36.285472 0.715859 2.232220 0.062264 -0.016050 70595.000000 0 0 1
-20.251455 -19.505207 -22.342829 35.913459 0.766630 2.242256 0.065917 -0.011968 -301813.000000 0 0 1
-20.164055 -20.747907 -22.987929 36.952803 0.799668 2.242204 0.040919 -0.006162 -578091.000000 0 0 1
-18.850355 -21.212307 -22.962129 36.504208 0.844286 2.251097 0.046994 -0.003431 -574115.000000 0 0 1
-18.623655 -22.556707 -23.708129 37.652635 0.880617 2.251904 0.052236 -0.004518 -207354.000000 0 0 1
-18.538655 -22.504607 -25.110829 38.479771 0.881728 2.281770 0.036399 -0.007205 274785.000000 0 0 1
-18.622255 -23.808007 -25.664749 39.652099 0.907013 2.274765 0.045675 -0.017877 -103073.000000 0 0 1
-18.568955 -23.899407 -27.187209 40.683314 0.910261 2.302670 0.052278 -0.010474 -328897.000000 0 0 1
-17.286055 -23.786707 -27.729019 40.416749 0.942368 2.326880 0.038823 -0.004653 -257925.000000 0 0 1
-17.321255 -23.970007 -29.106549 41.494317 0.945049 2.348238 0.063275 -0.012680 -493650.000000 0 0 1
-15.980255 -23.609607 -29.722499 41.185058 0.975774 2.377025 0.049245 -0.025660 -1023100.000000 0 0 1
-15.066355 -24.635407 -29.606189 41.357282 1.021911 2.368657 0.057697 -0.024401 -732360.000000 0 0 1
-13.833355 -24.201807 -30.165449 41.073635 1.051533 2.395613 0.089188 -0.029187 172266.000000 0 0 1
-12.832255 -25.377407 -29.931369 41.286395 1.102634 2.381786 0.121461 -0.033109 -771465.000000 0 0 1
-13.125355 -26.589807 -30.610339 42.617903 1.112263 2.372081 0.101612 -0.026310 1182810.000000 0 0 1
-12.138755 -27.653507 -30.349669 42.815514 1.157162 2.358659 0.121411 -0.030594 3254230.000000 0 0 1
-10.586055 -27.465607 -30.779769 42.588946 1.202913 2.378522 0.156503 -0.036134 1805260.000000 0 0 1
-9.845355 -26.513107 -30.073089 41.282763 1.215239 2.386876 0.201090 -0.056601 53223.800000 0 0 1
-8.676055 -26.212107 -30.821149 41.379847 1.251152 2.411084 0.192469 -0.051747 206149.000000 0 0 1
-7.807455 -24.999707 -30.350939 40.088916 1.268092 2.429644 0.258571 -0.064158 22559.100000 0 0 1
-8.412355 -23.716007 -30.415679 39.475692 1.229930 2.450408 0.275574 -0.058437 304325.000000 0 0 1
-9.396355 -23.427507 -29.402349 38.750970 1.189357 2.432190 0.235228 -0.041194 481556.000000 0 0 1
-9.867355 -21.954807 -29.416629 38.009424 1.148409 2.455820 0.245297 -0.055228 332996.000000 0 0 1
-10.637855 -21.530107 -30.559619 38.866435 1.111886 2.475550 0.222093 -0.050563 279762.000000 0 0 1
-10.946655 -20.135707 -30.404299 38.074891 1.072846 2.495661 0.214025 -0.051151 199354.000000 0 0 1
-11.848555 -19.674407 -31.564379 39.035632 1.028737 2.512572 0.167100 -0.049581 667.324000 0 0 1
-12.516155 -18.457207 -31.376389 38.494161 0.974908 2.523689 0.144964 -0.043276 -78433.000000 0 0 1
-13.317855 -18.140007 -32.479519 39.513849 0.937503 2.535672 0.123056 -0.040920 -202264.000000 0 0 1
-14.089255 -16.787307 -32.316059 39.046747 0.872559 2.545659 0.145054 -0.035073 -555590.000000 0 0 1
-13.367855 -15.604407 -32.439239 38.399236 0.862442 2.576966 0.130861 -0.033108 694030.000000 0 0 1
-12.452855 -15.143007 -31.367399 36.990512 0.882575 2.582968 0.120711 -0.027786 1103080.000000 0 0 1
-11.908255 -13.679407 -31.568549 36.407499 0.854507 2.620125 0.092460 -0.026549 80608.500000 0 0 1
-11.038655 -13.437307 -32.665569 37.006115 0.883087 2.652389 0.091162 -0.026465 81950.100000 0 0 1
-11.651055 -13.460507 33.410686 37.857711 0.857330 0.489574 0.096112 -0.025685 -277221.000000 0 0 1
-12.120755 -12.090607 32.839713 37.034338 0.784153 0.480559 0.087285 -0.014233 -807419.000000 0 0 1
-13.307755 -11.611107 33.317416 37.708943 0.717416 0.487426 0.052586 -0.006220 -1478670.000000 0 0 1
-14.076055 -10.919707 32.384293 36.961030 0.659788 0.502930 0.057193 -0.022205 -294891.000000 0 0 1
-15.206055 -10.220007 33.117305 37.847438 0.591755 0.505317 0.079631 -0.030685 -477774.000000 0 0 1
-14.823955 -9.211107 -33.396699 37.682007 0.555982 2.660040 0.066594 -0.029416 804441.000000 0 0 1
-15.975955 -8.610907 -32.734409 37.428871 0.494352 2.635358 0.089955 -0.039904 1184110.000000 0 0 1
-15.432855 -7.692807 -31.671999 36.062000 0.462422 2.643018 0.083793 -0.051614 98367.500000 0 0 1
-15.022655 -6.366507 -32.039689 35.954892 0.400848 2.670577 0.089159 -0.052469 495972.000000 0 0 1
-16.105755 -5.439407 -32.200879 36.412623 0.325703 2.655859 0.091906 -0.050373 382293.000000 0 0 1
-16.601755 -4.764807 -30.928409 35.424401 0.279494 2.632285 0.096412 -0.052032 44083.600000 0 0 1
-17.273255 -5.703107 -30.055989 35.131941 0.318901 2.597346 0.103405 -0.060899 -159771.000000 0 0 1
-17.640755 -5.212907 -28.778869 34.155438 0.287327 2.572862 0.103006 -0.060048 -72897.600000 0 0 1
-16.470855 -4.939907 -27.793269 32.682680 0.291382 2.587537 0.100728 -0.056577 273789.000000 0 0 1
-15.873155 -3.730307 -28.268019 32.633620 0.230819 2.618391 0.099674 -0.051472 -673722.000000 0 0 1
-14.615455 -3.454707 -27.735389 31.540424 0.232113 2.645313 0.099419 -0.041565 -299346.000000 0 0 1
-14.061155 -2.127707 -28.321399 31.691401 0.150179 2.676237 0.087573 -0.019620 48878.100000 0 0 1
-13.958355 -2.275707 -29.716809 32.910534 0.161614 2.697399 0.081231 -0.034265 25572.500000 0 0 1
-13.873055 -0.995707 -30.296969 33.337058 0.071650 2.711213 0.084810 -0.037497 19664.500000 0 0 1
-14.167455 -1.178707 -31.815539 34.847305 0.083007 2.721371 0.081103 -0.040802 541064.000000 0 0 1
-15.533355 -1.373707 -32.196039 35.773693 0.088206 2.690548 0.064754 -0.037556 727780.000000 0 0 1
-15.584355 -1.480707 -33.576739 37.046755 0.094728 2.705323 0.063913 -0.037150 -290173.000000 0 0 1
-16.988855 -1.610707 33.199224 37.328328 0.094527 0.474800 0.053676 -0.033110 -408679.000000 0 0 1
-16.943555 -1.714707 31.769820 36.046439 0.100858 0.492067 0.065611 -0.035890 -238767.000000 0 0 1
-18.162155 -1.816707 31.082526 36.045634 0.099695 0.530982 0.062656 -0.033764 -389500.000000 0 0 1
-18.105055 -1.946707 29.587046 34.741560 0.107111 0.551704 0.071513 -0.029427 -222749.000000 0 0 1
-17.553455 -0.756707 29.097926 33.990965 0.043082 0.543220 0.065692 -0.018152 -205385.000000 0 0 1
-17.398155 -0.642707 27.705396 32.721520 0.036924 0.561039 0.066220 -0.027504 -381398.000000 0 0 1
-16.820355 0.734293 27.431536 32.186219 -0.043627 0.550476 0.072759 -0.023562 136119.000000 0 0 1
-17.618055 1.847293 27.899616 33.048403 -0.104471 0.565717 0.066955 -0.017729 314607.000000 0 0 1
-18.825855 2.110293 27.207256 33.152691 -0.111629 0.608222 0.076654 -0.021476 -86196.300000 0 0 1
-18.785755 3.037293 25.970816 32.196475 -0.160294 0.632359 0.080270 -0.025296 -506620.000000 0 0 1
-18.551155 4.413293 26.232156 32.430673 -0.233557 0.628571 0.073888 -0.018499 -13047.200000 0 0 1
-19.049355 5.171293 25.182516 31.996552 -0.265080 0.664803 0.076023 -0.017277 -537924.000000 0 0 1
-19.051655 6.679293 25.420976 32.462356 -0.337199 0.671176 0.075190 -0.015859 82110.300000 0 0 1
-17.759555 7.233293 25.357686 31.792052 -0.386775 0.647473 0.062749 -0.019630 65382.000000 0 0 1
-17.172355 7.300293 24.039866 30.431878 -0.401971 0.660058 0.063869 -0.014263 -563046.000000 0 0 1
-15.960055 8.195293 23.858446 29.851493 -0.474380 0.644770 0.070206 -0.027056 -296168.000000 0 0 1
-14.772455 7.586293 24.322626 29.451102 -0.474423 0.599062 0.062292 -0.017827 121031.000000 0 0 1
-13.652455 8.307293 23.818646 28.683245 -0.546634 0.590966 0.073338 -0.022676 -141268.000000 0 0 1
-12.298755 7.962293 24.430336 28.486818 -0.574550 0.540209 0.056634 -0.010116 -398773.000000 0 0 1
-11.222855 8.591293 23.789056 27.670959 -0.653359 0.536091 0.047666 -0.019593 -799025.000000 0 0 1
-10.003955 8.603293 24.444236 27.777985 -0.710265 0.494964 0.047461 -0.016044 -462006.000000 0 0 1
-9.732255 9.875293 25.277476 28.830349 -0.792693 0.501700 0.063476 -0.030890 -647209.000000 0 0 1
-10.619055 10.090293 26.373206 30.168267 -0.759871 0.507003 0.057068 -0.028249 210239.000000 0 0 1
-10.562755 11.421293 26.872226 31.050512 -0.824431 0.524777 0.072875 -0.025258 -298697.000000 0 0 1
-10.994655 12.575293 25.913286 30.830486 -0.852359 0.572575 0.061551 -0.024597 379028.000000 0 0 1
-12.367755 12.592293 25.512376 31.022710 -0.794394 0.605219 0.069728 -0.026804 466871.000000 0 0 1
-12.669955 11.848293 24.396376 29.934812 -0.751898 0.618096 0.068793 -0.027214 -249022.000000 0 0 1
-14.204355 11.818293 24.171786 30.425499 -0.693962 0.652681 0.070268 -0.022177 123257.000000 0 0 1
-14.691255 13.045293 23.582466 30.694386 -0.726125 0.694617 0.053047 -0.023966 1111810.000000 0 0 1
-16.077055 13.039293 23.156406 31.059846 -0.681442 0.729449 0.058982 -0.014211 1185460.000000 0 0 1
-16.318355 12.305293 21.829056 29.903455 -0.646105 0.752497 0.053189 -0.014646 -390133.000000 0 0 1
-16.200655 10.894293 21.749356 29.226381 -0.592003 0.731507 0.054325 -0.017635 -31854.600000 0 0 1
-16.308155 10.433293 20.422456 28.140473 -0.569142 0.758698 0.059175 -0.023120 -161525.000000 0 0 1
-16.550755 8.945293 20.373656 27.731420 -0.495502 0.745605 0.053727 -0.021667 11135.000000 0 0 1
-17.928555 8.761293 20.150756 28.359237 -0.454549 0.780512 0.064008 -0.021944 -390844.000000 0 0 1
-18.298155 7.371293 20.278356 28.290814 -0.382955 0.771620 0.057421 -0.011384 566292.000000 0 0 1
-19.837555 7.192293 20.457256 29.389743 -0.347820 0.800890 0.095008 -0.016026 497039.000000 0 0 1
-20.316955 7.654293 21.712056 30.704727 -0.360299 0.785374 0.082462 -0.017294 74082.100000 0 0 1
-21.731855 7.562293 21.725456 31.645809 -0.334876 0.814105 0.076240 -0.014685 147816.000000 0 0 1
-22.344155 8.243293 22.989416 33.101758 -0.353433 0.803061 0.082099 -0.014545 -722246.000000 0 0 1
-22.377655 9.668293 23.209006 33.658480 -0.407828 0.809937 0.083777 -0.016963 491476.000000 0 0 1
-21.137155 10.382293 23.171966 33.038029 -0.456572 0.793475 0.076376 -0.014767 531567.000000 0 0 1
-20.163455 10.027293 24.330346 33.152334 -0.461486 0.746757 0.069150 -0.022064 -552251.000000 0 0 1
-20.614755 10.498293 25.547276 34.465136 -0.471029 0.735866 0.076751 -0.013820 -22413.300000 0 0 1
-20.096555 9.728293 26.601236 34.729483 -0.450829 0.698270 0.074579 -0.016373 -229697.000000 0 0 1
-32.506625 -13.618528 20.145056 40.595176 0.396732 1.051531 0.136208 -0.025720 333795.000000 0 0 1
-31.375925 -14.458228 19.851156 39.844165 0.431804 1.049252 0.128266 -0.027232 493080.000000 0 0 1
-31.510245 -15.296928 18.733756 39.722099 0.451947 1.079669 0.116268 -0.011150 -59630.700000 0 0 1
-31.332225 -14.757428 17.316656 38.721526 0.440178 1.107153 0.127113 -0.000245 119783.000000 0 0 1
-32.468085 -13.987728 16.974056 39.216727 0.406785 1.123170 0.130476 -0.022137 90932.700000 0 0 1
-32.494385 -13.588428 15.591456 38.517839 0.396078 1.154052 0.117105 -0.021580 -410629.000000 0 0 1
-33.856545 -12.951928 15.346256 39.364015 0.365376 1.170322 0.119098 -0.026321 -667533.000000 0 0 1
-34.986199 -13.801728 15.371256 40.630006 0.375748 1.182813 0.128111 -0.032575 951378.000000 0 0 1
-35.847719 -13.660228 16.541156 41.776437 0.364075 1.163700 0.130820 -0.030331 -63059.500000 0 0 1
-36.811235 -12.488128 16.483856 42.222481 0.327064 1.169725 0.130470 -0.032441 -957395.000000 0 0 1
-37.930045 -12.828728 17.280956 43.610733 0.326143 1.163362 0.061397 -0.028808 -241096.000000 0 0 1
37.249066 -11.699128 17.597456 42.825611 -0.304322 1.147345 0.059166 -0.018868 -344813.000000 0 0 1
36.493236 -11.848528 18.936856 42.787246 -0.313940 1.112321 0.072840 -0.007733 -994352.000000 0 0 1
37.375106 -12.142128 19.979856 44.085422 -0.314116 1.100436 0.075670 -0.010344 -353237.000000 0 0 1
36.865136 -11.845928 21.238056 44.163551 -0.310910 1.069120 0.056909 -0.012708 -1216320.000000 0 0 1
37.743206 -12.153628 22.490766 45.586125 -0.311524 1.054838 0.052762 -0.023453 422195.000000 0 0 1
-36.945285 -11.433228 22.621616 44.804133 0.300116 1.041530 0.061871 -0.020750 138903.000000 0 0 1
-35.932296 -12.029728 21.867356 43.749578 0.323060 1.047394 0.061461 -0.025826 -1150120.000000 0 0 1
-34.603539 -11.271628 21.891456 42.469876 0.314898 1.029254 0.089829 -0.025838 -349987.000000 0 0 1
-34.707104 -10.091428 21.170256 41.887943 0.282958 1.040948 0.109630 -0.026138 355271.000000 0 0 1
-33.409835 -9.535628 20.947456 40.570201 0.278022 1.028241 0.144940 -0.031877 114900.000000 0 0 1
-33.392565 -8.282328 20.039456 39.815075 0.243123 1.043367 0.142779 -0.019435 180029.000000 0 0 1
-33.886055 -8.436128 18.684856 39.605010 0.243996 1.079488 0.142312 -0.026530 583053.000000 0 0 1
-35.277768 -8.666528 18.526756 40.778307 0.240895 1.099178 0.124596 -0.028805 -63506.000000 0 0 1
-35.720803 -8.539528 17.060056 40.496232 0.234659 1.135945 0.123839 -0.028163 557212.000000 0 0 1
-37.139295 -8.537828 16.885056 41.681253 0.225961 1.153709 0.019325 -0.021890 707041.000000 0 0 1
-37.538085 -8.442628 15.538656 41.495008 0.221227 1.186971 0.054217 -0.011740 -44521.700000 0 0 1
36.870676 -8.333928 15.260056 40.764818 -0.222296 1.187107 0.078198 -0.022177 -105925.000000 0 0 1
36.120706 -9.469128 15.600556 40.469088 -0.256383 1.175054 0.083532 -0.008955 -349150.000000 0 0 1
34.744756 -9.200628 15.481856 39.134863 -0.258865 1.164072 0.058045 -0.007821 -395364.000000 0 0 1
33.905226 -10.489328 15.682056 38.800995 -0.300033 1.154729 0.043816 -0.007828 -146582.000000 0 0 1
34.081236 -11.101128 16.935556 39.643142 -0.314888 1.129402 0.015316 -0.011269 711233.000000 0 0 1
33.104656 -12.182728 17.086856 39.195634 -0.352625 1.119716 0.056779 -0.008624 750945.000000 0 0 1
32.954956 -12.731628 18.534856 39.895668 -0.368670 1.087632 0.048324 -0.004350 -347369.000000 0 0 1
33.946876 -13.635028 18.925456 41.188314 -0.381935 1.093380 0.041645 -0.009471 -387157.000000 0 0 1
33.795226 -13.833928 20.329656 41.794614 -0.388537 1.062811 0.054618 -0.005670 -350438.000000 0 0 1
34.607296 -15.063328 20.779056 43.085240 -0.410533 1.067543 0.049087 -0.006407 -167415.000000 0 0 1
34.802546 -14.928728 22.147256 43.870093 -0.405216 1.041603 0.051760 -0.016308 -52589.800000 0 0 1
35.550616 -16.042028 22.575896 45.065109 -0.423889 1.046087 0.054405 -0.015821 -123564.000000 0 0 1
36.077486 -16.044428 24.018236 46.215628 -0.418456 1.024297 0.075529 -0.022953 518889.000000 0 0 1
37.125096 -15.082928 24.246936 46.836752 -0.385903 1.026647 0.069899 -0.015619 489025.000000 0 0 1
37.421236 -14.948028 25.641686 47.762836 -0.380035 1.004092 0.068834 -0.022011 -749601.000000 0 0 1
-37.310245 -14.047828 25.900526 47.541909 0.360097 0.994653 0.057507 -0.017891 -612285.000000 0 0 1
-36.083075 -14.581128 25.442206 46.496274 0.384035 0.991795 0.036104 -0.019822 -582679.000000 0 0 1
-35.138258 -13.577528 25.427026 45.448654 0.368730 0.977054 0.045617 -0.026964 377171.000000 0 0 1
-33.661395 -14.094228 25.251996 44.377924 0.396528 0.965481 0.047099 -0.026070 419839.000000 0 0 1
-33.329925 -14.384628 23.906966 43.466590 0.407433 0.988423 0.063271 -0.025296 388925.000000 0 0 1
-31.952715 -14.686128 23.674426 42.392651 0.430826 0.978273 0.070573 -0.028662 548488.000000 0 0 1
-31.458855 -16.091028 24.148516 42.798734 0.472801 0.971291 0.078362 -0.023791 -827497.000000 0 0 1
-31.403655 -16.247528 25.567726 43.633477 0.477452 0.944725 0.068391 -0.025590 168032.000000 0 0 1
-31.214355 -17.577828 26.018216 44.274864 0.512870 0.942642 0.074585 -0.031207 -273391.000000 0 0 1
-30.999745 -17.675628 27.528636 45.069256 0.518209 0.913716 0.071878 -0.038512 -284110.000000 0 0 1
-29.903585 -16.889928 27.916556 44.258651 0.514145 0.888265 0.066513 -0.036899 -195780.000000 0 0 1
-29.202395 -17.391728 29.032496 44.700536 0.537147 0.863884 0.077736 -0.037111 248472.000000 0 0 1
-27.915685 -16.591728 29.353396 43.774339 0.536256 0.835831 0.067879 -0.035488 -61043.500000 0 0 1
-28.038995 -15.329328 29.950126 43.797073 0.500317 0.817786 0.084507 -0.044811 -443326.000000 0 0 1
-26.946025 -14.539828 29.570596 42.566595 0.494816 0.802807 0.071740 -0.039013 -469438.000000 0 0 1
-26.802045 -13.182828 30.277446 42.530699 0.457114 0.778602 0.079501 -0.031336 -174385.000000 0 0 1
-26.332895 -13.292628 31.638849 43.256585 0.467474 0.750390 0.081927 -0.031388 288766.000000 0 0 1
-26.090165 -12.020428 32.258351 43.194775 0.431738 0.727542 0.096051 -0.029002 -225834.000000 0 0 1
-25.573995 -12.229528 33.676836 44.019540 0.446057 0.699688 0.099398 -0.026883 204602.000000 0 0 1
-24.170955 -12.468228 -33.618649 43.242403 0.476235 2.461392 0.091714 -0.028195 420630.000000 0 0 1
-23.772155 -13.809928 -33.395959 43.256440 0.526278 2.452850 0.082995 -0.023019 -114272.000000 0 0 1
-23.898055 -14.267928 -31.943629 42.368458 0.538235 2.424848 0.077407 -0.022150 -643903.000000 0 0 1
-22.742255 -13.990428 -31.179399 41.049935 0.551502 2.433414 0.073009 -0.016231 115330.000000 0 0 1
-22.670255 -14.857428 -30.060719 40.476295 0.580142 2.407852 0.077195 -0.017314 1130110.000000 0 0 1
-21.215255 -14.915828 -29.403019 39.205950 0.612784 2.418803 0.076889 -0.015831 1367240.000000 0 0 1
-20.886955 -13.723028 -28.664889 38.029755 0.581290 2.424545 0.080665 -0.021020 347175.000000 0 0 1
-21.575655 -13.577028 -27.418399 37.438125 0.561668 2.392586 0.084935 -0.012816 132297.000000 0 0 1
-20.997655 -12.316128 -26.729259 36.153034 0.530469 2.402881 0.085831 -0.017351 -358086.000000 0 0 1
-19.754555 -12.513728 -26.130729 35.066378 0.564660 2.411600 0.075256 -0.018394 -543338.000000 0 0 1
-19.252855 -11.294428 -25.587879 33.955502 0.530535 2.424274 0.071903 -0.024752 512030.000000 0 0 1
-17.857555 -11.536028 -24.941529 32.772734 0.573560 2.435719 0.089411 -0.031068 -514447.000000 0 0 1
-17.978155 -12.312728 -23.752929 32.233818 0.600500 2.399262 0.101679 -0.032530 282705.000000 0 0 1
-16.735855 -12.507728 -23.080529 31.132667 0.641810 2.405892 0.096627 -0.039235 832252.000000 0 0 1
-15.714455 -13.414228 -23.891429 31.586168 0.706594 2.428571 0.082124 -0.033787 -86786.100000 0 0 1
-14.848855 -12.741028 -24.786229 31.578149 0.709148 2.473359 0.086490 -0.047422 68190.900000 0 0 1
-14.209955 -13.564928 -25.732359 32.374132 0.762179 2.489545 0.109065 -0.043037 139316.000000 0 0 1
-13.114355 -12.926628 -26.632619 32.378704 0.778189 2.536651 0.109153 -0.038312 278717.000000 0 0 1
-13.624655 -11.808028 -27.270429 32.691544 0.714090 2.557429 0.104647 -0.039629 -364928.000000 0 0 1
-12.716755 -11.372628 -28.224289 32.979737 0.729658 2.597905 0.103866 -0.045518 -313616.000000 0 0 1
-13.408455 -10.399728 -29.223689 33.792973 0.659691 2.615520 0.081844 -0.031163 -114845.000000 0 0 1
-12.598055 -9.507428 -29.931119 33.837466 0.646486 2.656337 0.073013 -0.027901 -158975.000000 0 0 1
-12.149155 -9.896728 -31.229869 34.940692 0.683582 2.676537 0.081335 -0.020163 365889.000000 0 0 1
-11.396655 -8.759028 -32.065499 35.139729 0.655275 2.720185 0.050281 -0.019371 144097.000000 0 0 1
-10.073955 -8.593628 -31.643819 34.302570 0.706264 2.745281 0.044770 -0.018064 -583048.000000 0 0 1
-9.526455 -7.347528 -32.049599 34.233264 0.656979 2.782489 0.036405 -0.020102 -650547.000000 0 0 1
-8.057855 -7.266528 -31.645029 33.453540 0.733806 2.811276 0.058760 -0.011936 -734942.000000 0 0 1
-7.646055 -7.232028 -30.298169 32.074031 0.757577 2.807269 0.056789 -0.010516 3646.760000 0 0 1
-8.111155 -6.099228 -29.511789 31.207966 0.644752 2.810382 0.074026 -0.018077 -316323.000000 0 0 1
-7.441755 -4.759428 -29.891729 31.169654 0.568999 2.854252 0.057689 -0.025523 862913.000000 0 0 1
-6.007655 -4.725728 -29.757679 30.723670 0.666528 2.890167 0.074485 -0.028094 919956.000000 0 0 1
-5.487955 -3.469028 -30.215249 30.904904 0.563701 2.929938 0.111375 -0.039686 -282744.000000 0 0 1
-3.999355 -3.363928 -29.876499 30.330118 0.699315 2.968425 0.126067 -0.030408 -232433.000000 0 0 1
-3.144155 -4.083228 -30.797669 31.225869 0.914607 2.975795 0.137171 -0.037990 583506.000000 0 0 1
-1.771255 -3.947828 -30.455619 30.761460 1.149053 3.000462 0.155902 -0.035745 718704.000000 0 0 1
-0.987855 -2.696028 -31.034859 31.167401 1.219577 3.049336 0.153619 -0.033866 793257.000000 0 0 1
0.454745 -2.749628 -30.881119 31.006625 -1.406896 3.051588 0.134748 -0.030309 1257000.000000 0 0 1
0.983545 -1.610028 -31.558219 31.614566 -1.022410 3.081880 0.117889 -0.026067 -242474.000000 0 0 1
1.376845 -0.452028 -30.693869 30.728059 -0.317221 3.094415 0.113275 -0.036557 -1082660.000000 0 0 1
0.429745 0.224972 -29.972769 29.976694 0.482271 3.125410 0.124882 -0.031674 -832281.000000 0 0 1
1.017645 1.441172 -29.468889 29.521653 0.955973 3.081796 0.154470 -0.048443 311033.000000 0 0 1
0.091645 2.285272 -28.529709 28.621236 1.530715 3.061598 0.128580 -0.043419 258421.000000 0 0 1
-1.047355 2.819072 -29.161439 29.316099 -1.215076 3.038829 0.111305 -0.058662 -214827.000000 0 0 1
-1.646055 3.760472 -28.323569 28.619490 -1.158196 2.997664 0.148151 -0.055484 13273.500000 0 0 1
-3.016055 4.297872 -28.821009 29.295373 -0.958893 2.961391 0.181777 -0.058758 221692.000000 0 0 1
-2.935055 5.086072 -30.038919 30.607505 -1.047402 2.948541 0.180033 -0.059059 522342.000000 0 0 1
-4.239355 5.310772 -30.599249 31.344704 -0.897120 2.923064 0.203585 -0.053424 134056.000000 0 0 1
-4.315855 5.774472 -32.044679 32.845587 -0.928960 2.920307 0.188673 -0.046904 -20727.800000 0 0 1
-3.870155 4.908672 -33.074089 33.659598 -0.903149 2.954800 0.208021 -0.052909 727034.000000 0 0 1
-2.573855 4.302172 -32.974959 33.353881 -1.031651 2.990714 0.196314 -0.052132 171063.000000 0 0 1
-2.179655 3.615972 33.040844 33.309511 -1.028331 0.127096 0.167624 -0.049361 110340.000000 0 0 1
-3.160355 2.667972 32.606461 32.867723 -0.701117 0.126170 0.169780 -0.057293 344739.000000 0 0 1
-2.902455 2.027272 31.385634 31.584681 -0.609697 0.112327 0.152493 -0.044699 -33400.600000 0 0 1
-2.707055 2.946972 30.076386 30.341420 -0.827806 0.132271 0.136920 -0.041252 -554647.000000 0 0 1
-3.823055 3.723472 29.791576 30.265789 -0.772203 0.177253 0.113271 -0.037214 -768011.000000 0 0 1
-3.667855 4.719272 28.844116 29.456879 -0.910108 0.204326 0.100518 -0.032857 977300.000000 0 0 1
-4.980355 5.565472 28.505796 29.467929 -0.840825 0.256240 0.095826 -0.026706 1141470.000000 0 0 1
-4.911555 6.250672 27.312286 28.445654 -0.904796 0.283234 0.090217 -0.020476 -908446.000000 0 0 1
-6.075455 6.959372 27.102016 28.633255 -0.853106 0.328515 0.077880 -0.017557 -911215.000000 0 0 1
-6.145755 7.694772 25.712716 27.534044 -0.896853 0.365761 0.079663 -0.019122 -199879.000000 0 0 1
-5.283755 8.787572 25.714036 27.683048 -1.029439 0.379438 0.080555 -0.022954 -177619.000000 0 0 1
-5.367555 9.574972 24.551366 26.893499 -1.059865 0.420437 0.084358 -0.025763 314508.000000 0 0 1
-4.657555 10.934272 24.914146 27.603728 -1.168113 0.445107 0.088774 -0.024687 -176062.000000 0 0 1
-4.438655 11.691472 23.748466 26.839929 -1.207956 0.484692 0.091267 -0.030004 184992.000000 0 0 1
-3.774355 12.930072 23.926066 27.457042 -1.286782 0.512747 0.084499 -0.023366 1495610.000000 0 0 1
-2.167755 12.850672 23.951016 27.267015 -1.403682 0.498318 0.077139 -0.012164 1631550.000000 0 0 1
-1.568955 12.245472 25.106866 27.977990 -1.443365 0.457003 0.076908 -0.015521 21010.100000 0 0 1
-1.791755 13.011272 26.299776 29.396969 -1.433949 0.463166 0.088315 -0.020281 -771124.000000 0 0 1
-0.996655 12.515672 27.512726 30.242114 -1.491331 0.428118 0.088042 -0.026471 419711.000000 0 0 1
0.369045 12.874372 27.379476 30.257583 1.542139 0.439699 0.084867 -0.022781 -639030.000000 0 0 1
1.169045 12.414672 28.424666 31.039529 1.476907 0.413408 0.093264 -0.035125 420615.000000 0 0 1
2.658345 12.604772 27.982106 30.804956 1.362942 0.431442 0.093020 -0.033073 506956.000000 0 0 1
2.875945 13.977772 27.855466 31.298181 1.367877 0.473445 0.093908 -0.032626 343930.000000 0 0 1
4.270445 14.259172 27.674576 31.423603 1.279810 0.493471 0.094572 -0.035352 735778.000000 0 0 1
4.650145 15.698272 28.147336 32.562741 1.282811 0.526834 0.092569 -0.030885 -263123.000000 0 0 1
4.556745 15.948472 29.562786 33.898023 1.292494 0.511299 0.103334 -0.027059 8459.550000 0 0 1
3.611045 16.922572 29.943666 34.583756 1.360563 0.523989 0.090792 -0.024317 -181609.000000 0 0 1
3.776445 18.374572 29.401086 34.875640 1.368093 0.567911 0.096034 -0.020034 -89181.900000 0 0 1
4.941945 18.963472 29.947016 35.789102 1.315863 0.579451 0.112952 -0.015880 -116654.000000 0 0 1
5.412445 19.914072 29.032376 35.619428 1.305417 0.617944 0.094980 -0.009986 -323262.000000 0 0 1
6.623945 20.658072 29.575326 36.678774 1.260507 0.632870 0.102238 -0.010080 -231984.000000 0 0 1
6.244145 21.454072 30.701456 37.971646 1.287573 0.629136 0.100920 -0.024977 -130428.000000 0 0 1
7.345645 22.159972 31.184206 38.954814 1.250712 0.642630 0.104042 -0.026371 -250071.000000 0 0 1
7.412545 23.607072 30.700636 39.430555 1.266548 0.678364 0.100592 -0.014485 30909.800000 0 0 1
7.801245 23.612672 29.318066 38.444332 1.251703 0.703457 0.075560 -0.011814 219156.000000 0 0 1
7.581145 24.880672 28.718896 38.746568 1.275033 0.735942 0.061194 -0.011919 23839.000000 0 0 1
8.285245 24.995572 27.348136 37.965042 1.250725 0.766489 0.086376 -0.010236 -4336.820000 0 0 1
7.599545 24.280072 26.354446 36.631022 1.267460 0.767776 0.071240 -0.009773 383052.000000 0 0 1
8.401845 24.255172 25.181496 35.958477 1.237338 0.794987 0.080061 -0.024627 34939.800000 0 0 1
31.618786 2.583272 7.639271 32.630957 0.081519 1.334492 0.193781 -0.002928 187744.000000 0 0 1
30.942526 3.444572 8.523271 32.279267 0.110865 1.303580 0.191225 -0.024444 110373.000000 0 0 1
29.531926 3.348972 8.396471 30.884478 0.112919 1.295464 0.182711 -0.017844 289768.000000 0 0 1
28.805726 4.249272 9.410271 30.600316 0.146459 1.258209 0.156716 -0.018735 -233479.000000 0 0 1
28.635526 5.645372 9.288571 30.629089 0.194650 1.262685 0.185731 -0.016843 753356.000000 0 0 1
29.854826 6.407472 9.176971 31.883900 0.211414 1.278842 0.204369 -0.031388 837858.000000 0 0 1
29.498626 7.892572 8.896371 31.805770 0.261434 1.287305 0.242051 -0.039264 427524.000000 0 0 1
28.757126 7.987272 7.682871 30.818749 0.270920 1.318847 0.209076 -0.034706 2052.110000 0 0 1
28.843326 9.285872 7.216271 31.148666 0.311463 1.337000 0.222160 -0.058991 89256.600000 0 0 1
27.848426 9.557072 6.039771 30.055802 0.330588 1.368467 0.197195 -0.047203 159902.000000 0 0 1
26.498526 9.715072 6.368871 28.932974 0.351410 1.348854 0.199206 -0.042133 -203007.000000 0 0 1
25.687926 10.000872 5.244271 28.060458 0.371267 1.382799 0.210123 -0.038821 -655646.000000 0 0 1
24.257426 10.366572 5.509671 26.948933 0.403865 1.364896 0.154593 -0.041243 -907180.000000 0 0 1
24.065526 11.754572 5.852871 27.414879 0.454357 1.355648 0.151752 -0.041082 -181062.000000 0 0 1
22.731826 12.099072 6.113171 26.466853 0.489115 1.337717 0.150629 -0.033600 -253014.000000 0 0 1
22.422726 13.630872 6.285371 26.983053 0.546211 1.335699 0.147094 -0.018363 -103805.000000 0 0 1
22.275026 14.439572 5.095471 27.030387 0.575137 1.381153 0.137454 -0.028467 318998.000000 0 0 1
22.619526 15.769272 5.414771 28.100402 0.608813 1.376890 0.173916 -0.033453 -126142.000000 0 0 1
22.072226 16.756172 4.371371 28.054613 0.649333 1.414342 0.136359 -0.035692 418304.000000 0 0 1
20.651026 16.852772 4.274671 26.995436 0.684466 1.411779 0.149748 -0.024373 730688.000000 0 0 1
20.320226 17.640872 3.135471 27.091384 0.714933 1.454800 0.155434 -0.024636 -1127560.000000 0 0 1
18.856826 17.448072 2.840071 25.847264 0.746614 1.460695 0.137735 -0.030723 -757786.000000 0 0 1
17.965026 18.192072 3.736471 25.839018 0.791678 1.425682 0.146329 -0.039244 210015.000000 0 0 1
16.691526 17.973172 3.179571 24.733613 0.822354 1.441887 0.115666 -0.040369 -714521.000000 0 1 0
15.718126 18.940872 3.872671 24.916133 0.878116 1.414735 0.146085 -0.046612 197796.000000 0 1 0
14.327426 18.669672 3.731271 23.827592 0.916241 1.413555 0.139738 -0.048787 713436.000000 0 1 0
13.513126 19.796772 4.028071 24.305186 0.971849 1.404299 0.110824 -0.044883 1539200.000000 0 1 0
11.965526 19.513172 3.764671 23.197207 1.020726 1.407786 0.091161 -0.041360 1393770.000000 0 1 0
11.370526 19.061872 4.980171 22.747437 1.032950 1.350075 0.069060 -0.042873 -603946.000000 0 1 0
9.998426 18.928672 4.739471 21.925458 1.084832 1.352914 0.054069 -0.034355 -578685.000000 0 1 0
9.158926 18.605172 5.937471 21.570626 1.113345 1.291939 0.029034 -0.023867 -967065.000000 0 1 0
9.277426 19.558972 6.987571 22.747530 1.127894 1.258569 0.052116 -0.025744 -27607.000000 0 1 0
8.681026 19.057572 8.175671 22.480944 1.143365 1.198590 0.051672 -0.010607 -290242.000000 0 1 0
7.560526 19.922072 8.766171 23.041186 1.208082 1.180506 0.052477 -0.016036 481516.000000 0 1 0
6.434226 20.068772 7.890271 22.503582 1.260541 1.212560 0.044391 -0.021755 250645.000000 0 1 0
6.411826 21.321972 7.228871 23.409283 1.278684 1.256861 0.054419 -0.018140 -476046.000000 0 1 0
5.204926 21.596572 6.311071 23.093999 1.334299 1.293998 0.039238 -0.012340 297647.000000 0 1 0
3.915726 21.705672 6.908571 23.112712 1.392315 1.267248 0.031992 -0.015346 444675.000000 0 1 0
3.568226 22.865172 7.730871 24.399071 1.415990 1.248389 0.049479 -0.028574 -299807.000000 0 1 0
3.653326 24.171072 6.919171 25.405952 1.420787 1.294968 0.075257 -0.029608 -320706.000000 0 0 1
2.563426 24.289772 6.038571 25.160057 1.465650 1.328424 0.042963 -0.017167 -27317.000000 0 0 1
2.637526 25.516272 5.326571 26.199409 1.467796 1.366060 0.068390 -0.019284 245523.000000 0 0 1
1.346926 25.710272 4.475171 26.131579 1.518456 1.398693 0.078507 -0.020539 727340.000000 0 0 1
0.192126 25.874572 5.300171 26.412538 1.563371 1.368756 0.074523 -0.023781 -324922.000000 0 0 1
-0.962574 25.991772 4.532771 26.401605 -1.533779 1.398256 0.094414 -0.027095 -1151480.000000 0 0 1
-2.135274 26.586072 5.253171 27.184084 -1.490653 1.376329 0.121102 -0.028372 -923446.000000 0 0 1
-3.086274 26.953272 4.296271 27.467469 -1.456788 1.413738 0.138327 -0.036130 -656808.000000 0 0 1
-4.113474 27.719072 4.848671 28.439009 -1.423473 1.399466 0.142670 -0.040799 301232.000000 0 0 1
-5.130074 28.408172 3.861671 29.124807 -1.392137 1.437814 0.158348 -0.051405 590610.000000 0 0 1
-4.440974 29.399872 3.117971 29.896429 -1.420876 1.466314 0.165510 -0.051234 -2288.140000 0 0 1
-5.072174 29.664772 1.926571 30.156878 -1.401451 1.506868 0.180426 -0.056746 -384155.000000 0 0 1
-4.097274 30.379872 0.949371 30.669619 -1.436737 1.539837 0.175594 -0.052831 244843.000000 0 0 1
-3.763074 31.739772 1.211371 31.985016 -1.452787 1.532914 0.183491 -0.048800 -434460.000000 0 0 1
-2.773474 31.912972 2.169871 32.106670 -1.484107 1.503162 0.187739 -0.053799 -790798.000000 0 0 1
-1.887874 33.134472 1.870371 33.240872 -1.513882 1.514499 0.189835 -0.053776 -286272.000000 0 0 1
-0.946574 32.893572 0.841771 32.917953 -1.542027 1.545222 0.155008 -0.047574 219128.000000 0 0 1
-0.087474 -33.702007 0.404871 33.704552 1.568201 1.558784 0.133932 -0.050744 1233350.000000 0 0 1
1.257426 -33.711007 1.245571 33.757437 -1.533513 1.533890 0.105151 -0.038425 227539.000000 0 0 1
1.124426 -33.381607 2.661271 33.506393 -1.537125 1.491287 0.116499 -0.040639 471157.000000 0 0 1
2.232926 33.768772 3.415971 34.014478 1.504768 1.470200 0.089730 -0.032813 560956.000000 0 0 1
1.869026 -33.595307 4.902571 34.002545 -1.515220 1.426110 0.092920 -0.032421 329935.000000 0 0 1
1.009026 33.077472 5.477271 33.543073 1.540301 1.406771 0.147586 -0.045760 141551.000000 0 0 1
0.411326 33.404372 6.740071 34.080050 1.558483 1.371712 0.165743 -0.038199 48694.500000 0 0 1
1.304926 33.385372 7.989071 34.352745 1.531729 1.336087 0.134753 -0.024506 -207076.000000 0 0 1
1.656226 32.103972 8.405271 33.227348 1.519253 1.315055 0.144092 -0.033759 10912.600000 0 0 1
2.749726 32.081872 9.287271 33.512100 1.485296 1.289989 0.152056 -0.026808 28287.000000 0 0 1
3.474126 30.723572 9.532571 32.355483 1.458198 1.271739 0.140207 -0.031845 -138706.000000 0 0 1
2.741426 29.747872 10.206271 31.569277 1.478901 1.241584 0.180458 -0.041907 -139739.000000 0 0 1
3.381926 28.513872 10.135271 30.449992 1.452742 1.231472 0.124066 -0.041608 -409234.000000 0 0 1
2.744326 27.530372 11.098371 29.809839 1.471441 1.189304 0.124302 -0.050493 -644170.000000 0 0 1
2.876926 27.942072 12.447371 30.724145 1.468197 1.153672 0.146109 -0.051244 -78511.200000 0 0 1
2.519126 26.944572 13.376171 30.187379 1.477574 1.111737 0.159081 -0.046091 -834167.000000 0 0 1
1.032026 26.555372 13.525971 29.819536 1.531953 1.100002 0.114109 -0.045475 -101579.000000 0 0 1
0.167326 27.552772 14.077971 30.941436 1.564723 1.098438 0.124808 -0.038066 225542.000000 0 0 1
-0.078974 28.585372 13.205971 31.488528 -1.568034 1.138023 0.152250 -0.042858 -1206050.000000 0 0 1
-0.736974 29.819272 13.864771 32.893220 -1.546087 1.135688 0.172284 -0.041087 -68491.700000 0 0 1
-1.977174 29.553272 14.452971 32.957449 -1.503994 1.116829 0.149437 -0.040537 -312008.000000 0 0 1
-2.560974 30.642672 15.160671 34.283784 -1.487415 1.112734 0.170554 -0.039226 408369.000000 0 0 1
-3.862074 30.184772 15.887671 34.328620 -1.443540 1.089632 0.155121 -0.030137 422677.000000 0 0 1
-5.017674 30.066972 15.091471 34.014002 -1.405437 1.111091 0.118775 -0.032815 374470.000000 0 0 1
-6.151974 29.724672 15.899671 34.266637 -1.366712 1.088293 0.091746 -0.029999 481079.000000 0 0 1
-7.357974 29.248172 15.049071 33.705635 -1.324340 1.107963 0.077545 -0.033679 -38259.100000 0 0 1
-8.464874 28.777472 15.798071 33.902448 -1.284716 1.086048 0.073403 -0.031684 -609762.000000 0 0 1
-9.408974 28.335372 14.875871 33.357362 -1.250194 1.108556 0.057006 -0.025364 -358171.000000 0 0 1
-10.695474 27.876572 15.618671 33.696280 -1.204444 1.088840 0.061985 -0.023474 158016.000000 0 0 1
-11.372674 28.988972 16.190171 35.097291 -1.196936 1.091343 0.058116 -0.031044 57524.700000 0 0 1
-11.931574 28.689772 17.463071 35.643012 -1.176674 1.058771 0.079626 -0.025107 -268300.000000 0 0 1
-12.699074 29.867472 18.038071 37.130908 -1.168773 1.063522 0.073459 -0.025275 -1023020.000000 0 0 1
-13.870874 30.147472 17.339571 37.442381 -1.139574 1.089307 0.070028 -0.006554 -101849.000000 0 0 1
-14.645074 31.255372 17.784671 38.828739 -1.132614 1.095020 0.073371 -0.010970 248072.000000 0 0 1
-15.525974 31.104172 19.048971 39.640745 -1.107821 1.069526 0.072423 -0.010587 -499455.000000 0 0 1
-14.866474 30.858572 20.266771 39.799567 -1.121846 1.036517 0.068485 -0.014938 -571486.000000 0 0 1
-15.787074 30.582272 21.261871 40.454594 -1.094260 1.017407 0.070911 -0.017492 -305586.000000 0 0 1
-15.197574 30.384872 22.683071 40.850072 -1.107013 0.982101 0.062188 -0.010528 -385953.000000 0 0 1
-14.291174 29.298272 22.845371 39.806248 -1.116971 0.959519 0.060884 -0.012869 476717.000000 0 0 1
-14.032674 28.965472 24.195671 40.265928 -1.119656 0.926174 0.064033 -0.007499 -197933.000000 0 0 1
-13.503274 30.065572 25.159071 41.463910 -1.148668 0.918805 0.062869 -0.005473 -405937.000000 0 0 1
-14.450774 31.059072 25.512671 42.712846 -1.135319 0.930658 0.067880 -0.004979 354247.000000 0 0 1
-13.797174 32.089572 26.301171 43.724755 -1.164734 0.925398 0.073431 -0.008048 -113780.000000 0 0 1
-14.623674 33.195272 26.950171 45.189486 -1.155841 0.931811 0.092033 -0.015387 -34499.300000 0 0 1
-15.512774 32.770772 27.987271 45.802369 -1.128677 0.913417 0.080994 -0.014605 157331.000000 0 0 1
-14.903374 32.769172 29.218871 46.364551 -1.143959 0.888987 0.086460 -0.006044 -371857.000000 0 0 1
-15.746374 32.084072 30.340671 46.881684 -1.114548 0.866923 0.070142 -0.006768 -1723810.000000 0 0 1
-16.927774 32.703972 30.547771 47.846270 -1.093163 0.878305 0.071467 -0.006115 -1812800.000000 0 0 1
-17.477074 32.007072 31.658571 48.292503 -1.071000 0.855874 0.061325 -0.005297 405642.000000 0 0 1
-18.964774 32.414572 31.880071 49.261608 -1.041428 0.866945 0.056010 -0.002645 238985.000000 0 0 1
-19.217774 33.748672 32.384671 50.567406 -1.053152 0.875744 0.079659 -0.004804 -718058.000000 0 0 1
-20.592374 -33.652107 32.398571 51.050735 1.021659 0.883261 0.086479 -0.001976 -412457.000000 0 0 1
-20.987674 -32.159907 32.547771 50.339840 0.992593 0.867729 0.100337 -0.004306 -91221.200000 0 0 1
-20.629574 -31.478907 -33.613814 50.461762 0.990672 2.299797 0.093053 -0.012390 -131816.000000 0 0 1
-21.435174 -31.793207 -32.511414 50.271928 0.977592 2.274061 0.083062 -0.015207 -139428.000000 0 0 1
-21.155474 -30.998707 -31.218714 48.816821 0.971937 2.264654 0.098196 -0.021642 13007.000000 0 0 1
-21.433074 -29.597707 -31.381214 48.168263 0.944048 2.280345 0.106149 -0.025803 -139375.000000 0 0 1
-20.763974 -28.771307 -30.453814 46.758588 0.945661 2.280091 0.089453 -0.023871 -133828.000000 0 0 1
-21.162074 -27.311807 -30.603514 46.155642 0.911591 2.295683 0.089297 -0.034398 487206.000000 0 0 1
-22.530674 -27.138907 -30.234714 46.457394 0.877911 2.279441 0.098187 -0.029518 353433.000000 0 0 1
-22.872374 -25.797307 -30.049414 45.734165 0.845424 2.287689 0.091955 -0.031273 -8593.320000 0 0 1
-24.138574 -25.539707 -29.210414 45.696780 0.813595 2.264283 0.101956 -0.038275 -47676.300000 0 0 1
-24.001374 -25.830207 -27.766614 44.880401 0.822082 2.237858 0.101276 -0.040191 -68044.200000 0 0 1
-23.083474 -24.986607 -27.127114 43.509282 0.824968 2.243981 0.093875 -0.043481 -252311.000000 0 0 1
-22.980874 -25.321307 -25.645414 42.743145 0.833814 2.214284 0.093298 -0.041204 240767.000000 0 0 1
-24.174774 -25.068707 -24.915314 42.820937 0.803549 2.191796 0.093227 -0.040632 379708.000000 0 0 1
-24.049174 -25.510707 -23.635714 42.282454 0.814880 2.163971 0.096770 -0.029705 180764.000000 0 0 1
-25.258674 -25.007307 -22.725814 42.188015 0.780397 2.139665 0.089882 -0.033495 1530210.000000 0 0 1
-26.553774 -25.591207 -22.841214 43.378956 0.766941 2.125334 0.092492 -0.027225 307945.000000 0 0 1
-26.667474 -26.972907 -22.861414 44.286975 0.791092 2.113217 0.097652 -0.010172 -994002.000000 0 0 1
-28.124974 -27.462907 -22.849314 45.467753 0.773488 2.097329 0.073149 -0.008314 352609.000000 0 0 1
-28.841374 -27.258907 -21.607714 45.185907 0.757198 2.069396 0.081389 -0.006477 1824660.000000 0 0 1
-30.241174 -26.934707 -21.953814 46.064922 0.727633 2.067562 0.075751 -0.009730 1858170.000000 0 0 1
-31.026874 -26.477207 -20.707514 45.743967 0.706444 2.040568 0.087351 -0.011044 -144695.000000 0 0 1
-31.576874 -27.520707 -19.933814 46.387986 0.716871 2.014978 0.080115 0.004084 -25538.100000 0 0 1
-32.229174 -27.042207 -18.802714 46.081913 0.698108 1.991089 0.093315 0.011114 -1015820.000000 0 0 1
-33.411474 -27.838207 -18.232914 47.156458 0.694655 1.967790 0.063576 0.001222 -203143.000000 0 0 1
-34.611274 -27.826407 -19.017214 48.310492 0.677157 1.975390 0.056184 0.009628 766380.000000 0 0 1
-35.377674 -26.624707 -19.015214 48.187480 0.645153 1.976439 0.035540 0.012341 -533502.000000 0 0 1
-35.966974 -26.125707 -17.693814 47.846075 0.628212 1.949598 0.046758 0.004976 -659616.000000 0 0 1
-35.087174 -25.248307 -16.983614 46.443836 0.623752 1.945160 0.039010 0.015597 205487.000000 0 0 1
-35.593074 -24.777807 -15.763414 46.144251 0.608131 1.919428 0.032741 0.012083 -100896.000000 0 0 1
-35.133374 -25.542907 -14.504014 45.794765 0.628635 1.893063 0.047007 0.013835 241796.000000 0 0 1
-35.866674 -26.750107 -14.323414 46.980280 0.640821 1.880610 0.079454 0.014331 144731.000000 0 0 1
-35.317674 -27.379407 -13.254214 46.611632 0.659455 1.859129 0.082658 0.012168 198089.000000 0 0 1
-36.076474 -28.691007 -12.724514 47.818397 0.671858 1.840142 0.101828 0.004277 347790.000000 0 0 1
-35.615574 -29.813707 -13.480514 48.363731 0.696956 1.853270 0.084421 0.008323 231133.000000 0 0 1
-36.109374 -31.077207 -13.097814 49.408829 0.710639 1.839094 0.066154 -0.002972 -457270.000000 0 0 1
-35.792674 -32.343607 -13.949214 50.217577 0.734821 1.852274 0.065377 0.005556 -871734.000000 0 0 1
-34.457074 -32.682907 -13.752814 49.442919 0.758979 1.852670 0.057527 0.000771 -362033.000000 0 0 1
-33.938774 -33.268007 -14.950314 49.820805 0.775418 1.875575 0.091555 -0.024899 14235.200000 0 0 1
-32.430774 -33.599207 -14.904014 49.018277 0.803092 1.879738 0.093668 -0.018469 124375.000000 0 0 1
-31.964474 33.641772 -16.188714 49.148458 -0.810959 1.906447 0.106736 -0.018854 -212800.000000 0 0 1
-30.683074 33.069572 -16.036314 47.877040 -0.822814 1.912346 0.103604 -0.020353 -230976.000000 0 0 1
9.779645 19.179572 -9.353029 23.472890 1.099261 1.980635 0.115979 -0.051781 -573179.000000 0 1 0
8.382045 19.357772 -9.241929 23.030312 1.162164 1.983726 0.095464 -0.046246 -22193.700000 0 1 0
7.708345 19.588272 -10.471729 23.511190 1.195890 2.032410 0.104244 -0.041357 341199.000000 0 1 0
7.659945 18.472072 -11.551829 23.094089 1.177702 2.094634 0.083418 -0.026528 -426446.000000 0 1 0
8.951545 18.169672 -12.032029 23.559220 1.113035 2.106812 0.130737 -0.038636 -220011.000000 0 1 0
8.897845 17.000972 -12.850129 23.093949 1.088626 2.160877 0.106085 -0.037647 88669.400000 0 1 0
10.229845 16.569372 -13.513829 23.702687 1.017685 2.177472 0.136558 -0.037550 169928.000000 0 1 0
10.027945 15.422772 -14.299329 23.300051 0.994278 2.231539 0.131943 -0.043290 -120353.000000 0 1 0
11.179245 15.065372 -15.007929 24.024547 0.932403 2.245533 0.162829 -0.048894 -586467.000000 0 1 0
11.179845 13.578372 -15.483729 23.433032 0.881975 2.292634 0.154682 -0.052717 -301791.000000 0 1 0
11.349845 12.625872 -14.473529 22.309519 0.838570 2.276750 0.148886 -0.051068 1351710.000000 0 1 0
12.652345 12.491872 -13.848929 22.537114 0.779016 2.232541 0.181437 -0.050597 1229030.000000 0 1 0
13.743245 11.712772 -14.651429 23.253606 0.705803 2.252441 0.201290 -0.050563 295531.000000 0 1 0
14.226445 12.276872 -15.897329 24.613784 0.711971 2.272960 0.165830 -0.040393 618233.000000 0 1 0
15.191945 11.463372 -16.558629 25.226817 0.646419 2.286820 0.174230 -0.053083 55740.200000 0 0 1
15.960845 12.098172 -17.721929 26.742870 0.648596 2.295186 0.129716 -0.047695 -23623.200000 0 0 1
16.798345 13.155872 -17.278629 27.455644 0.664391 2.251486 0.111876 -0.041475 -273666.000000 0 0 1
17.458545 13.730372 -18.345329 28.807551 0.666427 2.261168 0.062405 -0.022330 -25475.400000 0 0 1
18.711245 14.598472 -18.020429 29.798690 0.662549 2.220234 0.065707 -0.010489 -40579.900000 0 0 1
18.623545 15.938672 -17.557529 30.152023 0.707872 2.192352 0.088314 -0.022035 131578.000000 0 0 1
17.973145 16.799472 -18.501629 30.782567 0.751658 2.215601 0.073577 -0.004436 -54453.900000 0 0 1
17.745245 18.154672 -17.931529 31.080952 0.796802 2.185761 0.093320 -0.005327 -558514.000000 0 0 1
18.940845 18.849572 -17.792229 32.103354 0.782983 2.158218 0.098820 -0.006752 -418767.000000 0 0 1
18.715245 20.130872 -17.329829 32.493620 0.821824 2.133329 0.086105 -0.009088 -291888.000000 0 0 1
19.874945 21.158772 -17.499229 33.895871 0.816675 2.113280 0.103121 -0.017126 -39555.000000 0 0 1
21.060045 20.954272 -16.804529 34.132084 0.782881 2.085570 0.103120 -0.011268 -552114.000000 0 0 1
20.903145 21.144572 -15.404129 33.486140 0.791140 2.048809 0.111421 -0.016353 -697779.000000 0 0 1
21.780445 22.244172 -14.777829 34.461213 0.795931 2.013988 0.106925 -0.015653 424731.000000 0 0 1
23.084345 21.848172 -14.372129 34.882484 0.757893 1.995461 0.112627 -0.022885 363656.000000 0 0 1
23.866445 23.000072 -14.006729 35.983315 0.766914 1.970620 0.092978 -0.030193 310303.000000 0 0 1
25.368345 22.697572 -13.793029 36.728467 0.729890 1.955776 0.081920 -0.019913 400333.000000 0 0 1
26.155245 22.500172 -14.974129 37.610891 0.710417 1.980277 0.103341 -0.003602 201224.000000 0 0 1
27.109945 23.543772 -15.027429 38.924053 0.715111 1.967164 0.094080 -0.004409 -154338.000000 0 0 1
27.663945 23.736472 -16.471829 40.000438 0.709137 1.995215 0.104980 -0.010664 -131977.000000 0 0 1
28.419045 22.673872 -17.004029 40.135814 0.673423 2.008281 0.120569 -0.018016 -40078.500000 0 0 1
28.520045 22.816372 -18.388029 40.891312 0.674748 2.037204 0.117802 -0.012363 -273395.000000 0 0 1
29.339545 21.720272 -19.085329 41.192583 0.637269 2.052534 0.114730 -0.018145 702980.000000 0 0 1
30.717545 22.039872 -19.262929 42.430931 0.622375 2.042027 0.116993 -0.010229 694416.000000 0 0 1
31.419645 21.256072 -20.303629 43.026178 0.594794 2.062230 0.137501 -0.018459 2103720.000000 0 0 1
32.942245 21.714372 -20.443429 44.436913 0.582791 2.048854 0.136765 -0.018756 1214140.000000 0 0 1
33.138745 22.874472 -21.211929 45.512238 0.604162 2.055641 0.117936 -0.013288 -696338.000000 0 0 1
34.473645 23.244572 -21.262629 46.699483 0.593249 2.043514 0.113840 -0.002954 -678584.000000 0 0 1
34.755645 24.626272 -21.968029 47.927053 0.616444 2.046950 0.101495 -0.007281 -57178.900000 0 0 1
34.704645 24.751272 -23.381829 48.618389 0.619529 2.072506 0.096673 -0.008569 -353633.000000 0 0 1
33.407445 24.625472 -23.871529 47.878190 0.635210 2.092766 0.095543 -0.015184 -655091.000000 0 0 1
33.306245 24.973672 -25.398759 48.765635 0.643386 2.118623 0.096166 -0.026992 -458626.000000 0 0 1
33.263045 26.369372 -25.660529 49.600773 0.670306 2.114538 0.104576 -0.027676 -186846.000000 0 0 1
31.956645 26.840672 -25.882019 49.107308 0.698606 2.125922 0.101845 -0.022163 -109382.000000 0 0 1
31.375445 26.544072 -27.323099 49.351373 0.702176 2.157530 0.105668 -0.022457 -309152.000000 0 0 1
31.179145 25.194572 -27.602229 48.670202 0.679635 2.173811 0.094290 -0.037009 -31175.600000 0 0 1
30.974145 24.976072 -28.968339 49.217542 0.678602 2.200095 0.090947 -0.046083 -459636.000000 0 0 1
30.118845 23.760172 -29.374179 48.317005 0.667924 2.224269 0.094993 -0.055432 787780.000000 0 0 1
28.799345 23.754672 -28.810799 47.156641 0.689701 2.228068 0.085083 -0.047668 830699.000000 0 0 1
27.945345 22.683672 -29.152469 46.318006 0.681844 2.251575 0.089204 -0.060169 -390070.000000 0 0 1
26.550645 22.759372 -28.565749 45.154488 0.708663 2.255731 0.080595 -0.047927 -602077.000000 0 0 1
26.550945 22.490872 -27.147319 44.133535 0.702799 2.233332 0.096549 -0.034621 -774671.000000 0 0 1
25.249945 22.520972 -26.706729 43.104562 0.728334 2.239004 0.092432 -0.039429 -1243570.000000 0 0 1
25.141945 22.455872 -25.168099 42.069190 0.729025 2.212118 0.102726 -0.035237 -180523.000000 0 0 1
25.500345 21.184572 -24.589729 41.276003 0.693215 2.208982 0.100259 -0.033601 280074.000000 0 0 1
25.488045 21.294272 -23.195529 40.510727 0.695993 2.180443 0.113751 -0.025162 -340615.000000 0 0 1
26.207945 20.197172 -22.383929 39.947746 0.656587 2.165581 0.118442 -0.016421 -297908.000000 0 0 1
27.551645 20.107172 -22.771429 41.011333 0.630447 2.159457 0.111862 -0.016314 -542416.000000 0 0 1
28.258545 19.173472 -22.038329 40.643023 0.596151 2.143899 0.139374 -0.023042 929397.000000 0 0 1
29.606345 18.738472 -22.753929 41.778072 0.564275 2.146754 0.161738 -0.031543 560867.000000 0 0 1
30.570045 18.143772 -21.977929 41.794180 0.535637 2.124523 0.175202 -0.036293 -860158.000000 0 0 1
31.555045 17.511872 -22.742929 42.657090 0.506645 2.133124 0.159096 -0.030185 -594424.000000 0 0 1
32.808745 17.143172 -21.966629 43.044568 0.481500 2.106357 0.144512 -0.029309 -527907.000000 0 0 1
33.562445 18.299472 -21.674529 43.944210 0.499179 2.086593 0.122757 -0.022827 -99553.600000 0 0 1
34.850045 17.930272 -21.216629 44.566418 0.475178 2.066974 0.102521 -0.016419 -85865.500000 0 0 1
35.528245 18.982872 -20.347729 45.129100 0.490712 2.038545 0.079882 -0.022837 -502344.000000 0 0 1
34.935245 19.416472 -19.166929 44.326537 0.507274 2.017952 0.104596 -0.021629 -496446.000000 0 0 1
35.738545 20.257572 -18.383229 45.006176 0.515670 1.991563 0.093401 -0.009250 -251232.000000 0 0 1
35.206045 20.325372 -16.948029 44.043411 0.523581 1.965791 0.090754 -0.017270 129400.000000 0 0 1
35.456345 19.124572 -16.255929 43.441419 0.494656 1.954334 0.089421 -0.029519 273615.000000 0 0 1
35.086845 19.368272 -14.918929 42.764367 0.504385 1.927155 0.083302 -0.024455 -345843.000000 0 0 1
35.166345 18.193572 -13.981629 41.990044 0.477437 1.910253 0.087073 -0.020785 545821.000000 0 0 1
36.520845 17.822572 -13.657429 42.871220 0.454010 1.895015 0.063020 -0.015783 626973.000000 0 0 1
36.650445 16.722172 -12.782729 42.264457 0.428048 1.878054 0.054780 -0.012442 -169508.000000 0 0 1
36.562545 17.124472 -11.305629 41.927133 0.438018 1.843825 0.047062 -0.021799 -291807.000000 0 0 1
37.519145 18.048772 -10.831929 43.020635 0.448377 1.825320 0.043754 -0.019866 13715.500000 0 0 1
37.318345 18.529872 -9.471729 42.728546 0.460872 1.794325 0.038264 -0.019701 -250240.000000 0 0 1
36.320045 19.710072 -9.269629 42.350426 0.497204 1.791462 0.038518 -0.017334 -172869.000000 0 0 1
35.009345 19.250972 -9.473929 41.061046 0.502752 1.803622 0.034787 -0.020065 -874538.000000 0 0 1
34.092545 20.296072 -9.438829 40.783865 0.536973 1.804349 0.018023 -0.003652 20939.600000 0 0 1
32.610545 19.902272 -9.648129 39.403483 0.547960 1.818166 0.016386 -0.003255 178532.000000 0 0 1
32.393745 19.689572 -11.029029 39.480038 0.546150 1.853921 0.048430 -0.015654 -589442.000000 0 0 1
31.181845 18.998872 -11.135229 38.174047 0.547224 1.866796 0.057809 -0.021542 -447569.000000 0 0 1
30.859145 18.296572 -12.485629 37.986080 0.535187 1.905712 0.103076 -0.020603 239143.000000 0 0 1
31.861845 17.364772 -12.957529 38.530637 0.498998 1.913773 0.103180 -0.016501 440752.000000 0 0 1
31.403045 16.536172 -14.051729 38.171289 0.484684 1.947786 0.100555 -0.024162 -210909.000000 0 0 1
32.437445 15.689972 -14.798929 38.953451 0.450522 1.960499 0.112245 -0.036730 -52355.300000 0 0 1
33.220245 14.781272 -14.055229 38.982305 0.418644 1.939658 0.093904 -0.036168 853720.000000 0 0 1
34.415545 14.363372 -14.734929 40.098059 0.395374 1.947086 0.103695 -0.038142 874814.000000 0 0 1
35.256345 13.235072 -14.023829 40.185131 0.359117 1.927279 0.075850 -0.045146 320361.000000 0 0 1
36.030045 13.779172 -12.938029 40.686881 0.365274 1.894405 0.068773 -0.028889 152647.000000 0 0 1
36.758445 12.799572 -12.270329 40.811436 0.335077 1.876180 0.065143 -0.023396 96258.900000 0 0 1
37.740145 13.308672 -11.156729 41.544095 0.339024 1.842685 0.082403 -0.015323 503534.000000 0 0 1
-36.865836 13.583372 -11.614429 40.969413 -0.353020 1.858228 0.075298 -0.021886 24964.500000 0 0 1
-36.048536 14.092472 -10.575529 40.124014 -0.372663 1.837519 0.075264 -0.018321 -203820.000000 0 0 1
-34.606636 14.401872 -11.076129 39.085980 -0.394359 1.858112 0.114260 -0.029655 527801.000000 0 0 1
-33.900136 13.254872 -11.603329 38.204032 -0.372722 1.879391 0.134501 -0.036356 337281.000000 0 0 1
-33.547236 12.188572 -10.735429 37.272346 -0.348497 1.862962 0.155713 -0.026204 -661208.000000 0 0 1
-32.439236 11.257572 -11.277929 36.141785 -0.334032 1.888143 0.193064 -0.029152 -17988.700000 0 0 1
-32.700136 10.596272 -12.518829 36.582796 -0.313367 1.920059 0.172555 -0.019914 527884.000000 0 0 1
-31.707136 9.561972 -12.699129 35.468883 -0.292898 1.936960 0.231648 -0.025661 516881.000000 0 0 1
-31.761736 8.845672 -14.096929 35.857736 -0.271618 1.974835 0.223063 -0.034912 747132.000000 0 0 1
-33.013436 8.146472 -14.279329 36.880228 -0.241929 1.968369 0.176198 -0.036479 1010770.000000 0 0 1
-33.070036 7.585572 -15.574529 37.332749 -0.225479 2.001138 0.179325 -0.046157 -271587.000000 0 0 1
-34.455736 7.108872 -16.038929 38.664985 -0.203464 1.998539 0.185051 -0.051082 -461027.000000 0 0 1
-34.955836 6.106972 -15.198129 38.602962 -0.172960 1.975454 0.191991 -0.049213 -428681.000000 0 0 1
-35.934336 5.351972 -15.812229 39.622553 -0.147851 1.981300 0.154694 -0.053482 -178051.000000 0 0 1
-36.984436 4.746872 -14.830829 40.128977 -0.127650 1.949352 0.160698 -0.054816 670561.000000 0 0 1
37.833145 4.022972 -15.410729 41.049016 0.105936 1.955649 0.158095 -0.046023 297298.000000 0 0 1
36.893645 3.776272 -14.390829 39.780614 0.102000 1.940946 0.171999 -0.045483 315959.000000 0 0 1
35.792945 2.755072 -14.780329 38.822461 0.076821 1.961367 0.176060 -0.039072 123775.000000 0 0 1
36.410945 1.533272 -15.139229 39.462692 0.042085 1.964524 0.182092 -0.043776 -148747.000000 0 0 1
35.563645 0.415472 -15.145229 38.656480 0.011682 1.973373 0.158891 -0.029417 -20531.000000 0 0 1
35.114545 -0.136128 -13.725129 37.701843 -0.003877 1.943402 0.159010 -0.039277 -828526.000000 0 0 1
36.180245 -0.450328 -12.928529 38.423427 -0.012446 1.913968 0.187377 -0.036393 -574882.000000 0 0 1
35.892945 -0.299628 -11.522229 37.698210 -0.008348 1.881411 0.184824 -0.030306 -99533.200000 0 0 1
35.915745 1.140572 -11.004429 37.581100 0.031746 1.867969 0.180562 -0.040144 457491.000000 0 0 1
34.782145 1.886572 -11.451329 36.667284 0.054187 1.888413 0.164327 -0.037057 667804.000000 0 0 1
35.017345 3.188372 -10.980629 36.836861 0.090801 1.873485 0.150554 -0.038336 697156.000000 0 0 1
33.842345 4.228472 -11.266329 35.918163 0.124302 1.889848 0.137371 -0.030683 694361.000000 0 0 1
33.827045 4.590872 -12.684129 36.417471 0.134892 1.926551 0.145011 -0.041103 318364.000000 0 0 1
32.803145 5.503972 -13.005529 35.713916 0.166239 1.943526 0.137074 -0.040888 -283396.000000 0 0 1
32.966145 6.281972 -14.316829 36.485634 0.188301 1.974032 0.094840 -0.040593 -296556.000000 0 0 1
32.882745 5.471772 -15.483629 36.755380 0.164892 2.005632 0.092332 -0.028053 84195.200000 0 0 1
33.052845 6.285472 -16.650429 37.539772 0.187921 2.030342 0.093486 -0.028689 -349953.000000 0 0 1
31.927145 7.279472 -17.105129 36.944806 0.224171 2.052164 0.122447 -0.036153 -351744.000000 0 0 1
30.815445 6.812572 -17.790829 36.228668 0.217577 2.084115 0.097123 -0.019894 -705406.000000 0 0 1
29.852745 6.292772 -16.958729 34.905355 0.207752 2.078130 0.088555 -0.022118 -804234.000000 0 0 1
28.459845 6.103372 -17.647429 34.038885 0.211256 2.115833 0.075098 -0.018747 309029.000000 0 0 1
28.377545 5.057772 -18.552029 34.278913 0.176379 2.142670 0.087203 -0.012307 932713.000000 0 0 1
27.141245 5.232172 -19.289629 33.706269 0.190440 2.180087 0.079472 -0.012618 808870.000000 0 0 1
26.650945 3.925072 -19.883229 33.481664 0.146226 2.206637 0.084069 0.000334 -142364.000000 0 0 1
25.819045 3.137272 -19.064829 32.247996 0.120917 2.203335 0.087913 -0.009401 135128.000000 0 0 1
25.525245 1.885072 -19.688329 32.291205 0.073717 2.226493 0.086006 -0.009082 -328467.000000 0 0 1
24.508345 1.082272 -18.866729 30.948081 0.044131 2.226384 0.090638 -0.005589 1014350.000000 0 0 1
23.214545 1.724672 -18.957029 30.020968 0.074156 2.254230 0.092915 -0.017368 885942.000000 0 0 1
22.126645 1.100572 -18.318529 28.746620 0.049699 2.261709 0.116708 -0.025751 -208113.000000 0 0 1
20.906745 1.997072 -18.247129 27.821538 0.095234 2.286122 0.132056 -0.042882 -1805660.000000 0 0 1
20.269745 2.273972 -19.491529 28.212643 0.111718 2.333501 0.124918 -0.022476 -149212.000000 0 0 1
19.097945 3.015672 -19.382829 27.377360 0.156612 2.357441 0.126599 -0.022716 262440.000000 0 0 1
17.884845 2.396672 -18.611729 25.923120 0.133212 2.371662 0.186218 -0.040859 -1072590.000000 0 0 1
18.063345 2.457972 -17.214629 25.073283 0.135244 2.327561 0.199195 -0.048829 240225.000000 0 0 1
16.931645 2.116372 -16.419729 23.680522 0.124350 2.336973 0.175926 -0.034611 912312.000000 0 1 0
15.860845 3.237572 -16.107029 22.836039 0.201357 2.353690 0.165522 -0.034306 283607.000000 0 1 0
15.264145 3.688572 -17.267029 23.339879 0.237104 2.403581 0.151024 -0.022164 380381.000000 0 1 0
14.066845 4.379872 -16.870429 22.398008 0.301847 2.423727 0.144999 -0.035236 467622.000000 0 1 0
-20.501555 -21.662628 -17.298829 34.479454 0.812928 2.096376 0.129600 -0.026477 -11546.800000 0 0 1
-20.466055 -22.064928 -18.644929 35.402738 0.822974 2.125454 0.128369 -0.026948 -289620.000000 0 0 1
-21.717255 -21.919328 -19.251129 36.368972 0.790029 2.128605 0.135082 -0.026551 -448029.000000 0 0 1
-21.815155 -22.657028 -20.616529 37.606957 0.804326 2.151019 0.113705 -0.022161 -34471.300000 0 0 1
-21.794555 -24.055928 -20.479129 38.380790 0.834679 2.133621 0.081491 -0.021795 516890.000000 0 0 1
-20.746655 -24.569128 -21.311129 38.577584 0.869551 2.156064 0.076871 -0.022005 356476.000000 0 0 1
-20.534955 -26.091378 -21.169529 39.377575 0.904008 2.138389 0.073814 -0.014329 -30130.300000 0 0 1
-21.760555 -26.737668 -21.454229 40.604293 0.887665 2.127480 0.094109 -0.012833 43353.800000 0 0 1
-21.753155 -28.143048 -21.269129 41.444020 0.912769 2.109707 0.094014 -0.023629 144541.000000 0 0 1
-23.128255 -28.836728 -21.517629 42.772438 0.894812 2.097946 0.093009 -0.015985 626114.000000 0 0 1
-23.750555 -28.768488 -22.801929 43.722337 0.880654 2.119424 0.077123 -0.012337 558458.000000 0 0 1
-23.020855 -29.468868 -23.810929 44.332091 0.907629 2.137796 0.070026 -0.009070 -513151.000000 0 0 1
-23.595255 -28.972258 -25.149449 45.040233 0.887331 2.163225 0.069460 -0.002949 -404246.000000 0 0 1
-24.936155 -29.332938 -25.298019 46.067591 0.866240 2.152143 0.077389 0.001848 -334037.000000 0 0 1
-25.632925 -28.575718 -26.268739 46.515215 0.839631 2.170908 0.073250 0.000666 -66464.100000 0 0 1
-25.366835 -28.706478 -27.859829 47.367798 0.847081 2.199578 0.084241 -0.022046 -462322.000000 0 0 1
-25.741845 -29.942938 -28.382549 48.629119 0.860700 2.194017 0.058177 -0.008901 302906.000000 0 0 1
-25.126865 -30.095878 -29.672519 49.168889 0.875138 2.218657 0.103108 -0.020699 287381.000000 0 0 1
-25.634565 -31.299338 -30.524049 50.680342 0.884569 2.217158 0.077653 -0.014028 48366.800000 0 0 1
-25.341735 -32.607098 -29.975839 51.029181 0.910123 2.198670 0.074818 -0.015541 83612.300000 0 0 1
-26.035795 -33.612698 -30.652359 52.414151 0.911747 2.195443 0.080185 -0.017341 -427698.000000 0 0 1
-25.235445 32.747770 -30.692199 51.490341 -0.914241 2.209402 0.083345 -0.019021 15837.600000 0 0 1
-24.099755 32.853142 -31.539929 51.525666 -0.937900 2.229536 0.099715 -0.027198 145558.000000 0 0 1
-23.294655 31.693256 -31.360819 50.305113 -0.936962 2.243895 0.102878 -0.019269 445588.000000 0 0 1
-21.982455 31.576790 -32.204799 50.174407 -0.962653 2.267714 0.090863 -0.012956 442553.000000 0 0 1
-22.206555 31.246700 -33.519779 50.922126 -0.952935 2.289296 0.083099 -0.007207 20217.000000 0 0 1
-21.862255 29.916900 33.621456 50.033802 -0.939719 0.833924 0.066493 0.003583 -9693.080000 0 0 1
-22.072455 29.505650 32.171936 48.916358 -0.928528 0.853045 0.061766 -0.005016 170040.000000 0 0 1
-21.174655 30.221750 31.330229 48.407679 -0.959639 0.866870 0.056709 -0.009272 312264.000000 0 0 1
-21.381555 30.039820 29.917156 47.482606 -0.952212 0.889159 0.077219 -0.010867 96722.300000 0 0 1
-20.727655 31.208890 29.071556 47.421365 -0.984532 0.910884 0.087084 -0.025809 170091.000000 0 0 1
-21.539855 32.366476 29.073346 48.547024 -0.983603 0.928707 0.094618 -0.019990 393660.000000 0 0 1
-20.817655 33.546071 28.710936 48.816303 -1.015390 0.942036 0.099195 -0.031258 809688.000000 0 0 1
-21.834455 -32.878578 28.484886 48.673741 0.984577 0.945644 0.112837 -0.037099 938553.000000 0 0 1
-22.403455 -32.436268 29.717016 49.367270 0.966345 0.924846 0.095685 -0.023314 -68646.300000 0 0 1
-23.608155 -31.704058 29.656406 49.416543 0.930734 0.927131 0.109889 -0.026070 108025.000000 0 0 1
-23.526855 -30.201978 29.221706 48.162024 0.909002 0.918846 0.119206 -0.025464 -499667.000000 0 0 1
-23.292455 -30.057528 27.860566 47.140265 0.911531 0.938481 0.104544 -0.019038 33700.500000 0 0 1
-23.783355 -28.795508 27.354566 46.293645 0.880437 0.938632 0.089489 -0.024211 403609.000000 0 0 1
-25.301535 -28.719328 27.050466 46.868915 0.848582 0.955560 0.088574 -0.009260 -1503180.000000 0 0 1
-26.135985 -28.395018 28.129126 47.755780 0.826801 0.940950 0.104352 -0.008489 415272.000000 0 0 1
-27.286505 -29.237898 28.235496 48.955605 0.819907 0.956043 0.094504 -0.016494 982853.000000 0 0 1
-28.281925 -29.371208 27.006696 48.907022 0.804290 0.985790 0.069254 -0.000744 -1017360.000000 0 0 1
-27.731765 -30.054038 25.882286 48.396165 0.825564 1.006525 0.072305 -0.005387 98662.300000 0 0 1
-28.441235 -29.837668 24.648626 48.028586 0.809355 1.031879 0.062996 -0.008842 159555.000000 0 0 1
-27.507645 -29.898258 23.355226 46.861957 0.827018 1.049063 0.046952 -0.013873 -43446.500000 0 0 1
-26.655375 -28.754868 23.351316 45.635901 0.823270 1.033649 0.041202 -0.021833 450981.000000 0 0 1
-25.880965 -28.602778 22.165156 44.488621 0.835313 1.049251 0.058613 -0.030060 1170060.000000 0 0 1
-24.662255 -29.613278 21.907256 44.329459 0.876367 1.053891 0.068673 -0.036033 -212541.000000 0 0 1
-24.978775 -30.813278 21.280456 45.013944 0.889595 1.078385 0.072892 -0.035380 236505.000000 0 0 1
-23.877255 -31.635628 20.948656 44.830598 0.924257 1.084579 0.065953 -0.021854 42851.700000 0 0 1
-22.994855 -32.299718 22.044356 45.365062 0.952114 1.063367 0.069382 -0.027876 -50381.500000 0 0 1
-22.297155 -31.367028 22.835116 44.749258 0.952828 1.035274 0.092532 -0.043493 -251198.000000 0 0 1
-21.660455 -32.072138 23.842856 45.456344 0.976795 1.018643 0.106467 -0.044465 -356708.000000 0 0 1
-20.898855 -31.201198 24.847206 45.029552 0.980621 0.986278 0.111390 -0.034851 -506289.000000 0 0 1
-19.849855 -30.399408 24.326246 43.702483 0.992337 0.980469 0.115283 -0.035849 582317.000000 0 0 1
-19.113455 -29.704788 25.364456 43.486254 0.999042 0.948041 0.126283 -0.033030 453032.000000 0 0 1
-18.127555 -30.580338 26.251636 44.191784 1.035699 0.934726 0.109806 -0.035953 -372382.000000 0 0 1
-18.616055 -31.651968 27.054526 45.610876 1.039137 0.935819 0.131226 -0.036882 -171510.000000 0 0 1
-17.646855 -32.038378 27.982446 46.053083 1.067336 0.917745 0.125229 -0.026194 -374468.000000 0 0 1
-17.912755 -31.496358 29.348296 46.628423 1.053691 0.890005 0.144275 -0.024216 -48175.000000 0 0 1
-18.030555 -30.067318 29.296736 45.688547 1.030617 0.874700 0.132442 -0.022317 240705.000000 0 0 1
-18.433555 -29.429818 30.495336 46.215535 1.011222 0.850177 0.119726 -0.021722 -87773.900000 0 0 1
-18.140555 -27.923458 30.706486 45.295558 0.994665 0.825875 0.114890 -0.025708 150601.000000 0 0 1
-19.052155 -26.980758 30.126636 44.705259 0.955962 0.831329 0.114244 -0.024473 215239.000000 0 0 1
-19.157355 -26.867598 28.746226 43.763199 0.951380 0.854152 0.123842 -0.019006 596.800000 0 0 1
-17.926455 -26.500328 27.865456 42.427690 0.976043 0.854262 0.111759 -0.023708 37564.700000 0 0 1
-17.564755 -25.146128 27.887326 41.455414 0.961073 0.832936 0.101341 -0.015415 421932.000000 0 0 1
-16.388955 -24.919328 27.107746 40.303854 0.989041 0.833101 0.082793 -0.013279 348247.000000 0 0 1
-16.436755 -23.588228 26.328726 38.984269 0.962208 0.829333 0.072059 -0.010461 -538632.000000 0 0 1
-17.397255 -23.688128 25.295736 38.777135 0.937335 0.860133 0.097965 -0.018436 144961.000000 0 0 1
-17.504655 -22.542428 24.458296 37.586996 0.910537 0.862275 0.080932 -0.031294 -76382.300000 0 0 1
-17.931455 -21.234928 25.104716 37.452717 0.869544 0.836178 0.073838 -0.020666 -809832.000000 0 0 1
-17.985755 -20.203028 24.096886 36.225815 0.843394 0.843054 0.078647 -0.020782 261682.000000 0 0 1
-18.474455 -18.935228 24.521666 36.071602 0.797714 0.823299 0.065065 -0.009226 -61905.600000 0 0 1
-18.010955 -17.807928 23.558306 34.590614 0.779730 0.821586 0.081906 -0.023287 665074.000000 0 0 1
-16.628355 -17.503228 23.762396 33.875015 0.811025 0.793335 0.089664 -0.026807 239249.000000 0 0 1
-16.159355 -16.592528 22.841176 32.529311 0.798623 0.792353 0.091897 -0.026912 846668.000000 0 0 1
-14.706655 -16.086928 23.182276 31.819693 0.830192 0.754592 0.123084 -0.037184 878642.000000 0 0 1
-13.626455 -16.987228 22.948016 31.636334 0.894740 0.759226 0.103045 -0.033460 505021.000000 0 0 1
-12.340155 -16.507328 23.295196 31.103657 0.928861 0.724315 0.110438 -0.038456 -48861.100000 0 0 1
-11.637555 -15.683628 22.228556 29.589147 0.932422 0.720857 0.134193 -0.045969 -506871.000000 0 0 1
-11.139255 -16.415428 21.112256 28.970272 0.974588 0.754293 0.159826 -0.045188 -822403.000000 0 0 1
-9.912055 -17.017428 21.308756 29.015596 1.043370 0.746029 0.151558 -0.045422 -1501400.000000 0 0 1
-9.648655 -18.193028 20.367256 28.963908 1.083165 0.790916 0.149895 -0.043884 28099.300000 0 0 1
-9.290955 -17.879728 19.046456 27.726774 1.091563 0.813535 0.145359 -0.041493 -393840.000000 0 0 1
-9.092955 -19.042828 18.305156 27.935459 1.125310 0.856262 0.133675 -0.039535 223752.000000 0 0 1
-8.603955 -18.846328 16.856956 26.708971 1.142524 0.887781 0.124051 -0.044664 624952.000000 0 0 1
-7.310555 -18.278328 16.667156 25.794100 1.190327 0.868252 0.118290 -0.041774 43319.300000 0 0 1
-7.105855 -18.038228 15.315956 24.707274 1.195531 0.902185 0.123580 -0.033774 412623.000000 0 1 0
-6.000255 -16.954228 15.095556 23.480305 1.230643 0.872514 0.096269 -0.035471 216922.000000 0 1 0
-6.340155 -15.706828 15.623856 23.043587 1.187142 0.825740 0.104575 -0.038949 -514106.000000 0 1 0
-5.324355 -14.766028 15.575956 22.113226 1.224726 0.789257 0.070657 -0.021617 -639813.000000 0 1 0
-5.652055 -13.596028 16.518756 22.128421 1.176817 0.728017 0.064638 -0.017238 -117113.000000 0 1 0
-5.461455 -13.812628 17.912556 23.269634 1.194265 0.692296 0.082628 -0.018192 -112373.000000 0 1 0
-6.342855 -14.725828 18.534056 24.507000 1.164082 0.713194 0.119925 -0.034830 -224955.000000 0 1 0
-7.601255 -14.057128 19.099156 24.903006 1.075090 0.696735 0.146222 -0.048473 -243238.000000 0 1 0
-7.384855 -13.223028 20.262156 25.297026 1.061463 0.641883 0.135578 -0.046926 -187442.000000 0 0 1
-8.635955 -12.844228 20.769156 25.901965 0.978862 0.640433 0.129810 -0.041186 179466.000000 0 0 1
-8.434755 -11.888428 22.001456 26.392118 0.953728 0.585135 0.125181 -0.030346 -30979.100000 0 0 1
-7.902955 -10.612228 21.638156 25.363081 0.930694 0.548829 0.105512 -0.026690 245998.000000 0 0 1
-7.423455 -9.746928 22.670696 25.769570 0.919900 0.495467 0.096029 -0.028601 875055.000000 0 0 1
-5.988855 -10.112928 23.203496 26.010381 1.036133 0.468856 0.101421 -0.025024 444690.000000 0 0 1
-5.847555 -11.207328 24.076226 27.193065 1.089891 0.483483 0.109143 -0.026241 -31309.000000 0 0 1
-4.483655 -11.486528 24.337726 27.283116 1.198645 0.468950 0.092316 -0.019288 34106.800000 0 0 1
-4.299255 -12.715628 25.217046 28.566943 1.244755 0.489144 0.107721 -0.026417 -907426.000000 0 0 1
-3.005955 -13.074528 25.569826 28.875510 1.344814 0.483185 0.095707 -0.026637 -675404.000000 0 0 1
-3.035955 -14.309128 26.294496 30.089345 1.361728 0.507668 0.101176 -0.028346 -16722.400000 0 0 1
-2.664055 -15.547728 25.433336 29.927974 1.401097 0.555156 0.125066 -0.056575 92631.100000 0 0 1
-1.308555 -15.879928 25.194046 29.809804 1.488579 0.563932 0.124719 -0.054943 111235.000000 0 0 1
-1.080455 -17.033728 24.386416 29.765963 1.507451 0.610656 0.139394 -0.050410 200008.000000 0 0 1
0.398045 -17.475228 24.574706 30.157225 -1.548023 0.618264 0.136919 -0.051150 439389.000000 0 0 1
0.733245 -18.054528 25.855226 31.543563 -1.530206 0.609966 0.141150 -0.051244 82456.400000 0 0 1
1.223545 -17.114728 26.819706 31.838775 -1.499427 0.569149 0.137756 -0.054415 342651.000000 0 0 1
2.265045 -17.843828 27.749656 33.069261 -1.444534 0.575101 0.114991 -0.041427 1182020.000000 0 0 1
3.591445 -18.134528 27.225086 32.908432 -1.375282 0.596515 0.129249 -0.044364 1653560.000000 0 0 1
4.569345 -18.204828 28.289956 33.950203 -1.324880 0.585786 0.154759 -0.055740 618295.000000 0 0 1
5.150845 -16.882628 28.812276 33.789075 -1.274670 0.549645 0.142525 -0.059667 -1120950.000000 0 0 1
4.179545 -16.091228 29.464966 33.831649 -1.316671 0.513707 0.165887 -0.066077 -52449.700000 0 0 1
4.703945 -14.909528 30.014886 33.842496 -1.265181 0.480207 0.189241 -0.071599 284633.000000 0 0 1
3.552845 -14.023628 30.590916 33.839164 -1.322670 0.441740 0.198121 -0.074038 850935.000000 0 0 1
2.818145 -14.749228 31.612651 34.997734 -1.382001 0.443449 0.199790 -0.078126 -87791.800000 0 0 1
1.789745 -13.939928 32.100772 35.042608 -1.443105 0.412679 0.192666 -0.068910 153759.000000 0 0 1
0.848545 -14.589528 33.191695 36.266555 -1.512701 0.414755 0.181628 -0.061771 1127950.000000 0 0 1
1.577345 -14.804128 -32.925929 36.135399 -1.464649 2.716941 0.211934 -0.063479 601872.000000 0 0 1
0.758445 -15.351028 -31.909469 35.418124 -1.521430 2.692718 0.172573 -0.069094 314486.000000 0 0 1
1.713945 -15.428628 -30.714109 34.414193 -1.460161 2.673618 0.176069 -0.048968 98765.200000 0 0 1
1.257545 -16.152028 -29.617219 33.758689 -1.493096 2.641048 0.137729 -0.040426 191669.000000 0 0 1
2.142845 -16.078528 -28.454629 32.753271 -1.438303 2.623483 0.139550 -0.029786 630131.000000 0 0 1
2.021145 -17.323228 -27.586599 32.637398 -1.454649 2.577820 0.127439 -0.031320 42712.600000 0 0 1
2.488845 -18.505428 -28.215299 33.834130 -1.437106 2.556988 0.118377 -0.026285 24001.400000 0 0 1
2.193945 -19.552228 -27.384439 33.719587 -1.459054 2.518577 0.092396 -0.040127 -156274.000000 0 0 1
3.231045 -20.723928 -27.458699 34.552873 -1.416133 2.489287 0.077055 -0.037040 804990.000000 0 0 1
4.544345 -20.479928 -26.945999 34.149164 -1.352442 2.480086 0.089168 -0.032920 521130.000000 0 0 1
4.724545 -20.718828 -25.588099 33.261720 -1.346598 2.448534 0.099496 -0.026882 -516409.000000 0 0 1
6.203145 -21.014628 -25.165439 33.367543 -1.283765 2.425215 0.086966 -0.027258 522015.000000 0 0 1
6.636445 -22.344328 -25.431769 34.497627 -1.282087 2.399718 0.092165 -0.027666 159658.000000 0 0 1
6.858245 -22.725928 -26.823409 35.818970 -1.277707 2.417137 0.083488 -0.025558 -247122.000000 0 0 1
6.000345 -24.003128 -27.124949 36.713992 -1.325835 2.402111 0.067002 -0.025964 261790.000000 0 0 1
6.411145 -25.119298 -26.395119 36.997084 -1.320903 2.365188 0.095439 -0.026142 61505.500000 0 0 1
5.592345 -26.249858 -26.718229 37.870743 -1.360892 2.353940 0.099512 -0.029888 337873.000000 0 0 1
5.934545 -27.474938 -25.850059 38.187912 -1.358066 2.314363 0.126135 -0.038048 629685.000000 0 0 1
7.287045 -27.930628 -25.786589 38.706191 -1.315587 2.299916 0.142227 -0.045349 319226.000000 0 0 1
7.424745 -29.278358 -25.348889 39.432414 -1.322440 2.269002 0.147673 -0.054169 -169913.000000 0 0 1
8.898945 -29.727128 -25.307479 40.042002 -1.279932 2.254958 0.138202 -0.052506 -93779.100000 0 0 1
9.518645 -29.749798 -26.573759 41.009996 -1.261133 2.275729 0.152239 -0.056670 275771.000000 0 0 1
10.895745 -30.079128 -26.448349 41.508871 -1.223263 2.261622 0.184066 -0.047096 590523.000000 0 0 1
11.702345 -30.009838 -27.791409 42.542893 -1.198983 2.282674 0.182935 -0.057589 189877.000000 0 0 1
11.422445 -31.077718 -28.607189 43.756921 -1.218578 2.283359 0.203239 -0.067206 50263.400000 0 0 1
11.895145 -30.816328 -29.922459 44.570104 -1.202416 2.306835 0.188244 -0.043931 13185.400000 0 0 1
-35.523748 -5.426228 -5.049929 36.288875 0.151578 1.710409 0.277161 -0.046398 50110.100000 0 0 1
-34.829197 -4.709128 -4.074629 35.381513 0.134391 1.686215 0.267569 -0.065170 13998.000000 0 0 1
-34.125144 -3.551328 -4.507429 34.604253 0.103695 1.701424 0.265344 -0.066642 -107280.000000 0 0 1
-34.906818 -2.409628 -5.221029 35.377272 0.068921 1.718919 0.267415 -0.045065 -132240.000000 0 0 1
-35.843369 -1.732828 -4.419329 36.156331 0.048307 1.693331 0.204643 -0.035655 16457.000000 0 0 1
-36.796015 -0.995528 -5.153429 37.168477 0.027049 1.709895 0.183194 -0.036096 -166882.000000 0 0 1
-37.880915 -0.431128 -4.258429 38.121960 0.011381 1.682735 0.181067 -0.027194 -275480.000000 0 0 1
-37.318725 0.483172 -3.315029 37.468789 -0.012946 1.659387 0.170358 -0.012714 374.541000 0 0 1
37.605016 1.190372 -2.620429 37.714995 0.031644 1.640332 0.168562 -0.008676 -611782.000000 0 0 1
-37.729735 2.165872 -1.572229 37.824540 -0.057342 1.612375 0.149976 -0.003534 395381.000000 0 0 1
-37.062345 3.379272 -1.956129 37.267457 -0.090927 1.623309 0.174697 -0.030122 630524.000000 0 0 1
-35.845347 3.222472 -2.673229 36.089048 -0.089658 1.644937 0.127014 0.007069 -307051.000000 0 0 1
-35.191082 4.569272 -3.063029 35.618431 -0.129119 1.656898 0.105509 0.005245 156336.000000 0 0 1
-34.416480 5.102472 -1.973429 34.848583 -0.147185 1.627455 0.109409 -0.005962 426221.000000 0 0 1
-33.879535 6.339972 -2.348229 34.547537 -0.184993 1.638820 0.142962 -0.026825 -281702.000000 0 0 1
-33.594455 7.192372 -1.082129 34.372789 -0.210910 1.602284 0.173382 -0.035677 713284.000000 0 0 1
-32.411065 6.704972 -0.376429 33.099479 -0.203995 1.582169 0.211685 -0.026754 1273220.000000 0 0 1
-32.219095 7.149172 0.968471 33.016945 -0.218355 1.541460 0.252163 -0.043821 165540.000000 0 0 1
-31.923205 8.649072 1.237271 33.097255 -0.264582 1.533405 0.276222 -0.055303 930942.000000 0 0 1
-33.165185 9.366872 1.030171 34.477950 -0.275261 1.540913 0.232403 -0.050267 1184860.000000 0 0 1
-32.976655 10.742772 1.388871 34.710170 -0.314927 1.530772 0.258790 -0.039672 810791.000000 0 0 1
-34.373142 11.459972 1.529571 36.265458 -0.321810 1.528607 0.229807 -0.048673 191108.000000 0 0 1
-34.964073 11.632572 0.242971 36.849181 -0.321181 1.564203 0.193920 -0.043418 491111.000000 0 0 1
-36.168445 12.394672 0.262871 38.234192 -0.330150 1.563921 0.175873 -0.036754 685908.000000 0 0 1
-37.461725 11.587272 0.591871 39.217293 -0.299976 1.555704 0.180488 -0.049856 -338627.000000 0 0 1
-37.938615 10.850272 -0.472229 39.462513 -0.278560 1.582763 0.173797 -0.041011 1008150.000000 0 0 1
36.703996 10.231572 -0.112029 38.103555 0.271858 1.573736 0.164872 -0.044238 1467840.000000 0 0 1
36.233516 9.239072 -1.234529 37.413262 0.249667 1.603799 0.156651 -0.035960 149555.000000 0 0 1
35.844136 9.787372 -2.465729 37.238079 0.266556 1.637060 0.148376 -0.031362 82293.200000 0 0 1
35.571936 8.788672 -3.395129 36.798509 0.242217 1.663190 0.143230 -0.035162 -62041.100000 0 0 1
34.867706 9.303572 -4.682029 36.390036 0.260750 1.699816 0.110812 -0.026620 1924630.000000 0 0 1
33.419586 9.533372 -4.552229 35.049631 0.277882 1.701044 0.153254 -0.024633 1970000.000000 0 0 1
32.946246 10.075372 -5.759829 34.930557 0.296781 1.736447 0.122533 -0.008447 -41807.400000 0 0 1
31.401906 10.210772 -5.784029 33.523045 0.314380 1.744203 0.178749 -0.022410 -55765.300000 0 0 1
30.643426 9.046272 -6.048029 32.518198 0.287057 1.757875 0.215572 -0.009224 -774784.000000 0 0 1
29.332626 9.441172 -6.130929 31.418576 0.311395 1.767194 0.249705 -0.013665 -1545640.000000 0 0 1
28.326526 8.289572 -6.282629 30.175826 0.284694 1.780531 0.286119 -0.003450 -311219.000000 0 0 1
28.506826 7.533572 -7.450329 30.412189 0.258366 1.818294 0.260797 -0.007342 950621.000000 0 0 1
27.508426 6.494472 -7.409729 29.219783 0.231845 1.827182 0.310638 -0.003434 424410.000000 0 0 1
27.790126 5.447172 -8.470829 29.558716 0.193557 1.861448 0.288211 -0.023934 -331932.000000 0 0 1
28.854726 4.595872 -8.163629 30.337470 0.157949 1.843248 0.260119 -0.022135 -31505.100000 0 0 1
28.987126 3.675472 -9.200429 30.633486 0.126124 1.875844 0.238370 -0.023908 -570676.000000 0 0 1
30.014826 2.631672 -8.820729 31.394597 0.087455 1.855594 0.190096 -0.019910 279732.000000 0 0 1
31.382986 3.000472 -9.080029 32.807645 0.095318 1.851223 0.158280 -0.010627 1351930.000000 0 0 1
32.418346 2.530172 -8.242229 33.545272 0.077890 1.819043 0.146483 -0.011865 128482.000000 0 0 1
32.620936 0.972272 -8.033629 33.609670 0.029796 1.812160 0.135190 -0.017280 -1041120.000000 0 0 1
31.589506 0.319772 -7.330029 32.430363 0.010122 1.798790 0.186975 -0.020678 9319.600000 0 0 1
31.667746 -1.101928 -7.076429 32.467464 -0.034783 1.790514 0.198395 -0.029027 -120150.000000 0 0 1
31.421616 -2.035928 -8.273029 32.556197 -0.064703 1.827729 0.178102 -0.024319 125650.000000 0 0 1
32.496396 -2.017328 -9.203029 33.834614 -0.061999 1.846268 0.147981 -0.017753 152212.000000 0 0 1
32.341416 -3.085128 -10.106829 34.024009 -0.095105 1.872398 0.122460 -0.029979 -188923.000000 0 0 1
33.467436 -3.214728 -11.154629 35.423572 -0.095762 1.891140 0.143005 -0.024620 -76876.100000 0 0 1
34.697966 -3.632228 -10.603429 36.463332 -0.104301 1.865856 0.177804 -0.019132 -237852.000000 0 0 1
35.555766 -4.152428 -11.561029 37.617981 -0.116260 1.883179 0.185233 -0.029885 623125.000000 0 0 1
36.946316 -4.610928 -10.945429 38.808418 -0.124159 1.856713 0.231951 -0.031256 833958.000000 0 0 1
36.782256 -5.647728 -9.978629 38.527967 -0.152355 1.832780 0.233119 -0.044726 240317.000000 0 0 1
-37.904055 -5.989028 -9.385829 39.505438 0.156709 1.810673 0.251010 -0.042303 -31053.800000 0 0 1
37.956516 -7.292228 -8.500029 39.574287 -0.189808 1.787270 0.261548 -0.044213 -270279.000000 0 0 1
37.111796 -7.199328 -7.392129 38.519596 -0.191610 1.763900 0.269994 -0.042171 266467.000000 0 0 1
36.968276 -8.433328 -6.715029 38.508000 -0.224285 1.746073 0.288037 -0.047752 -819643.000000 0 0 1
36.301416 -8.227128 -5.335829 37.602520 -0.222869 1.713178 0.286233 -0.052561 -510719.000000 0 0 1
37.128816 -7.772128 -4.287229 38.175061 -0.206349 1.683338 0.318080 -0.054326 649147.000000 0 0 1
-37.900375 -8.643828 -3.581929 39.038243 0.224232 1.662680 0.336639 -0.061072 166993.000000 0 0 1
-36.714665 -9.308928 -4.287729 38.118334 0.248315 1.683520 0.314599 -0.060135 -942205.000000 0 0 1
-37.116665 -10.215428 -5.272229 38.856122 0.268575 1.706902 0.310863 -0.058641 -192295.000000 0 0 1
-36.010355 -10.814728 -5.895829 38.058703 0.291753 1.726337 0.251025 -0.050331 -449984.000000 0 0 1
-36.436805 -11.601928 -7.146929 38.901467 0.308262 1.755565 0.266744 -0.055515 95291.000000 0 0 1
-36.946055 -10.792228 -8.217529 39.357477 0.284201 1.781136 0.222308 -0.060801 183469.000000 0 0 1
-37.460135 -11.530928 -9.280729 40.278480 0.298614 1.803300 0.228777 -0.048554 -155638.000000 0 0 1
-37.648535 -10.827228 -10.602029 40.583791 0.280030 1.835101 0.211437 -0.052133 59372.100000 0 0 1
37.220026 -9.874828 -10.545729 39.925618 -0.259335 1.838103 0.206815 -0.050919 236995.000000 0 0 1
37.158816 -9.113328 -11.748329 40.023163 -0.240506 1.868722 0.184047 -0.052190 -116690.000000 0 0 1
35.836086 -8.355728 -12.025229 38.712393 -0.229072 1.886652 0.186660 -0.043159 -144265.000000 0 0 1
35.825926 -7.822728 -13.339029 39.020786 -0.214980 1.919675 0.179867 -0.037663 722083.000000 0 0 1
34.716706 -6.967828 -13.648429 37.948385 -0.198074 1.938697 0.139416 -0.033889 142713.000000 0 0 1
34.808466 -6.303328 -15.006129 38.425840 -0.179145 1.971995 0.136393 -0.034349 -334080.000000 0 0 1
35.614116 -5.183728 -14.845929 38.931194 -0.144538 1.962039 0.150907 -0.023212 299916.000000 0 0 1
36.152946 -4.593528 -16.077829 39.832557 -0.126381 1.986283 0.161999 -0.028785 -490084.000000 0 0 1
37.362646 -3.749428 -15.794529 40.736871 -0.100017 1.968954 0.181844 -0.025330 -933837.000000 0 0 1
-37.790255 -3.445328 -16.947929 41.559668 0.090918 1.990837 0.184476 -0.025175 555963.000000 0 0 1
-36.479335 -2.925128 -16.716429 40.233534 0.080015 1.999272 0.215262 -0.027405 561364.000000 0 0 1
-36.338435 -1.481128 -16.247929 39.833037 0.040737 1.990950 0.207349 -0.030921 -388480.000000 0 0 1
-36.619805 -0.486428 -17.184829 40.454482 0.013282 2.009531 0.185632 -0.029311 -31860.700000 0 0 1
-36.596165 0.786972 -16.556629 40.174875 -0.021501 1.995569 0.180309 -0.032126 -54537.300000 0 0 1
-36.735585 1.975372 -17.526629 40.750313 -0.053721 2.015398 0.148796 -0.033400 259577.000000 0 0 1
-35.707277 2.166772 -18.495129 40.271260 -0.060607 2.047963 0.127327 -0.024605 108871.000000 0 0 1
-35.815678 3.389272 -19.199829 40.778468 -0.094350 2.061031 0.111352 -0.016261 -531053.000000 0 0 1
-34.946404 3.558672 -20.447529 40.645009 -0.101482 2.097951 0.102401 -0.013661 -792728.000000 0 0 1
-33.588465 3.533272 -20.125929 39.315672 -0.104808 2.108198 0.108454 -0.015831 -101387.000000 0 0 1
-32.877085 3.944772 -21.335629 39.391281 -0.119415 2.143175 0.102300 -0.014733 -85701.300000 0 0 1
-31.462835 4.521572 -21.149329 38.179166 -0.142734 2.157897 0.124206 -0.014750 -361366.000000 0 0 1
-30.637425 3.590572 -20.537029 37.058246 -0.116663 2.158177 0.132783 -0.006642 -554423.000000 0 0 1
-29.413945 3.540272 -21.239829 36.453313 -0.119784 2.192792 0.102324 -0.012399 14066.000000 0 0 1
-28.336505 2.620572 -20.584629 35.121957 -0.092218 2.197021 0.126296 -0.017796 245524.000000 0 0 1
-27.805555 3.192872 -19.380229 34.043158 -0.114328 2.176431 0.119847 -0.010393 231227.000000 0 0 1
-27.078095 2.168572 -18.656729 32.954506 -0.079915 2.172607 0.104457 -0.015061 97761.600000 0 0 1
-26.360775 2.661772 -17.367829 31.679915 -0.100634 2.151041 0.087275 -0.017467 151368.000000 0 0 1
-25.203095 3.459172 -17.582529 30.924217 -0.136400 2.175561 0.086740 -0.019492 47973.700000 0 0 1
-24.700855 3.743872 -16.286929 29.823026 -0.150424 2.148521 0.094945 -0.026344 166817.000000 0 0 1
-23.471955 4.710872 -16.422829 29.031609 -0.198071 2.172064 0.123854 -0.029713 646560.000000 0 0 1
-22.335555 4.134672 -17.029429 28.389681 -0.183044 2.214105 0.141005 -0.036458 186421.000000 0 0 1
-21.149755 4.895272 -16.868629 27.492299 -0.227452 2.231378 0.135557 -0.035912 513976.000000 0 0 1
-19.896655 4.112572 -17.372329 26.731778 -0.203826 2.278217 0.194098 -0.048926 169616.000000 0 0 1
-19.477855 3.008072 -16.604329 25.770896 -0.153225 2.270911 0.243702 -0.048343 399056.000000 0 0 1
-18.281655 2.376472 -17.049529 25.110814 -0.129267 2.317157 0.184255 -0.048865 -21235.400000 0 0 1
-18.113455 0.930972 -16.433029 24.474648 -0.051351 2.306934 0.218114 -0.049921 315585.000000 0 1 0
-18.975155 -0.045628 -17.009929 25.483255 0.002405 2.301635 0.156658 -0.040379 789413.000000 0 0 1
-20.337155 0.017472 -16.593529 26.247769 -0.000859 2.255170 0.161437 -0.045950 778975.000000 0 0 1
-21.396755 -0.991028 -17.181429 27.459148 0.046284 2.246836 0.142651 -0.047814 262116.000000 0 0 1
-21.398255 -2.252328 -16.628629 27.193191 0.104871 2.228751 0.145452 -0.041472 -127603.000000 0 0 1
-22.525355 -2.971828 -17.001329 28.377255 0.131175 2.213196 0.132892 -0.029677 -507289.000000 0 0 1
-22.802655 -4.300828 -16.247629 28.327437 0.186421 2.181648 0.141526 -0.029339 -77696.500000 0 0 1
-23.116755 -3.963828 -14.918429 27.796688 0.169818 2.137315 0.133449 -0.033503 356315.000000 0 0 1
-23.644755 -5.102228 -14.230729 28.064583 0.212528 2.102579 0.145357 -0.037600 -103060.000000 0 0 1
-23.851855 -4.771128 -12.707529 27.443687 0.197426 2.052218 0.130708 -0.038610 -432074.000000 0 0 1
-24.837855 -3.813628 -12.472529 28.053998 0.152351 2.031513 0.110256 -0.037227 129484.000000 0 0 1
-24.596755 -3.106128 -11.269329 27.233182 0.125617 1.997430 0.114833 -0.048949 15859.000000 0 0 1
-25.688935 -2.015528 -11.024929 28.027358 0.078299 1.975083 0.147579 -0.045559 37751.200000 0 0 1
-25.512985 -1.447228 -9.772529 27.358896 0.056664 1.936062 0.142525 -0.062087 802260.000000 0 0 1
-26.285835 -0.237828 -9.630529 27.995514 0.009048 1.921973 0.166470 -0.065059 107852.000000 0 0 1
-26.494115 0.285372 -8.159029 27.723444 -0.010771 1.869520 0.192971 -0.060210 -895297.000000 0 0 1
-25.296195 0.720072 -7.638829 26.434215 -0.028458 1.863952 0.174219 -0.051829 -443725.000000 0 0 1
-25.469585 1.138072 -6.316329 26.265776 -0.044654 1.813654 0.180425 -0.056185 -273102.000000 0 0 1
-24.175855 1.650072 -5.672529 24.887192 -0.068147 1.800747 0.129126 -0.047897 -377339.000000 0 1 0
-23.780455 2.912472 -6.039329 24.707611 -0.121866 1.817730 0.168002 -0.041325 22421.300000 0 1 0
-22.444155 3.182072 -5.680029 23.369391 -0.140839 1.816310 0.161241 -0.028350 -47597.000000 0 1 0
-22.182355 4.654172 -5.581629 23.342510 -0.206814 1.812254 0.166846 -0.032565 -452568.000000 0 1 0
-22.847955 5.236372 -4.475129 23.863684 -0.225293 1.759442 0.182851 -0.027617 651967.000000 0 1 0
-22.671155 6.626972 -4.493929 24.043574 -0.284386 1.758810 0.191894 -0.028132 -530881.000000 0 1 0
-23.212855 7.400672 -3.255229 24.580543 -0.308630 1.703618 0.208398 -0.027889 -719925.000000 0 1 0
-22.501555 7.224172 -2.014929 23.718528 -0.310657 1.655851 0.172233 -0.026231 1402160.000000 0 1 0
-21.138355 7.685972 -1.994829 22.580602 -0.348742 1.659254 0.181720 -0.024054 161273.000000 0 1 0
-20.831055 9.144072 -2.289729 22.864596 -0.413638 1.671107 0.171482 -0.031458 -1016580.000000 0 1 0
-20.893655 9.416672 -3.684329 23.211911 -0.423432 1.730196 0.159976 -0.033632 306436.000000 0 1 0
-20.743955 10.799772 -3.898229 23.709554 -0.480009 1.735962 0.183943 -0.024354 -244623.000000 0 1 0
-20.440155 11.308972 -5.341729 23.963031 -0.505352 1.795600 0.161457 -0.025762 45714.200000 0 1 0
-19.163155 11.028672 -5.886129 22.880224 -0.522221 1.830980 0.107800 -0.021650 267815.000000 0 1 0
-19.098755 11.458072 -7.249529 23.422330 -0.540374 1.885478 0.099807 -0.017832 819723.000000 0 1 0
-17.631555 11.539972 -7.856629 22.489315 -0.579537 1.927673 0.066017 -0.007833 1463630.000000 0 1 0
-16.885455 10.355372 -8.264729 21.462946 -0.550121 1.966080 0.023903 -0.002222 1117280.000000 0 1 0
-17.582655 9.479272 -9.194929 21.989840 -0.494457 2.002198 0.048667 -0.010692 123990.000000 0 1 0
-17.866955 10.008772 -10.645429 23.080918 -0.510628 2.050168 0.052868 -0.011858 -246688.000000 0 1 0
-16.822255 9.679472 -11.522129 22.570775 -0.522132 2.106550 0.057382 -0.013935 85092.700000 0 1 0
-17.091155 10.107672 -12.836429 23.644165 -0.534070 2.144683 0.086856 -0.021496 601026.000000 0 1 0
-15.881055 9.805672 -13.808529 23.217118 -0.553148 2.207759 0.051233 -0.009915 172544.000000 0 1 0
-15.920755 8.542972 -14.526129 23.183210 -0.492492 2.247953 0.077719 -0.030497 229408.000000 0 1 0
-15.678755 7.424072 -13.704629 22.107851 -0.442233 2.239410 0.066745 -0.022708 -340486.000000 0 1 0
-15.697255 6.120372 -14.524229 22.244460 -0.371770 2.282252 0.081464 -0.025546 -71059.200000 0 1 0
-14.689955 6.010872 -15.515129 22.195599 -0.388397 2.344820 0.094012 -0.027026 399206.000000 0 1 0
-14.788855 4.781972 -16.224929 22.468329 -0.312739 2.377665 0.100369 -0.031358 44654.700000 0 1 0
34.069126 -15.874228 27.312506 46.461483 -0.436032 0.942394 0.093392 -0.022990 -55865.900000 0 0 1
33.179396 -14.832028 27.651096 45.666667 -0.420377 0.920404 0.098105 -0.019918 342651.000000 0 0 1
32.445906 -15.055028 28.906606 45.988939 -0.434438 0.891102 0.095095 -0.020866 722788.000000 0 0 1
33.228146 -14.819328 30.247166 47.313985 -0.419512 0.877227 0.072461 -0.035755 69403.000000 0 0 1
33.339596 -13.469428 30.588746 47.208320 -0.383956 0.865903 0.076064 -0.032598 -92884.300000 0 0 1
33.489716 -13.204328 31.936945 48.123630 -0.375566 0.845117 0.063714 -0.028144 -188583.000000 0 0 1
33.530446 -11.707528 32.247509 47.971438 -0.335927 0.833589 0.071806 -0.028149 79439.000000 0 0 1
33.627386 -11.474428 33.630596 48.923211 -0.328834 0.812871 0.048485 -0.036144 -108188.000000 0 0 1
33.689916 -10.112128 -33.410449 48.513129 -0.291597 2.330475 0.068423 -0.025865 102487.000000 0 0 1
33.448856 -9.732728 -31.940459 47.262510 -0.283155 2.312859 0.083178 -0.024150 -19773.600000 0 0 1
32.095146 -9.916228 -31.611479 46.127167 -0.299660 2.325828 0.121281 -0.033018 -282372.000000 0 0 1
31.826386 -9.485228 -30.333849 44.978115 -0.289649 2.310966 0.098856 -0.026168 -373508.000000 0 0 1
30.364826 -9.666328 -29.900629 43.697919 -0.308196 2.324381 0.094832 -0.011557 -367085.000000 0 0 1
30.012226 -9.540628 -28.533349 42.495992 -0.307789 2.306942 0.083934 -0.014866 70671.400000 0 0 1
28.974926 -10.456728 -28.259519 41.802989 -0.346342 2.313140 0.107381 -0.014184 -553919.000000 0 0 1
28.308826 -10.337228 -26.834739 40.352833 -0.350115 2.298294 0.091087 -0.013426 -787456.000000 0 0 1
27.676726 -9.117528 -26.507159 39.392384 -0.318233 2.308919 0.076600 -0.020756 759545.000000 0 0 1
26.532626 -8.756628 -27.302979 39.065476 -0.318777 2.344659 0.076038 -0.026006 538574.000000 0 0 1
25.263326 -9.673128 -27.195769 38.359026 -0.365672 2.358847 0.082961 -0.007011 -414882.000000 0 0 1
25.393126 -10.935028 -27.778319 39.192100 -0.406629 2.358554 0.074375 -0.015516 -186557.000000 0 0 1
24.275726 -11.712928 -27.437339 38.461814 -0.449546 2.365086 0.075485 -0.031582 -285089.000000 0 0 1
24.385026 -13.191828 -27.946289 39.365580 -0.495892 2.360176 0.059970 0.003135 92936.200000 0 0 1
24.672426 -13.289728 -29.342549 40.575000 -0.494085 2.379175 0.070168 -0.006825 -266536.000000 0 0 1
25.996126 -13.647228 -29.592489 41.686458 -0.483425 2.360128 0.052914 0.000293 -751072.000000 0 0 1
26.259026 -13.919528 -31.113849 43.027448 -0.487425 2.379100 0.076811 -0.017374 -258972.000000 0 0 1
25.405326 -14.853328 -31.761429 43.299426 -0.529059 2.394298 0.088051 -0.011809 135733.000000 0 0 1
25.692626 -15.107428 -33.128939 44.563124 -0.531554 2.408960 0.092378 -0.012916 29039.700000 0 0 1
25.861726 -13.975728 33.159921 44.313995 -0.495444 0.725309 0.087771 -0.027606 -249263.000000 0 0 1
24.678726 -13.250228 33.011706 43.294119 -0.492737 0.703630 0.104735 -0.024089 -384684.000000 0 0 1
24.679626 -12.460928 31.826789 42.158073 -0.467566 0.715235 0.095930 -0.024811 -699829.000000 0 0 1
23.706126 -11.273928 31.744762 41.192375 -0.443914 0.690941 0.115921 -0.036838 -241375.000000 0 0 1
22.332226 -11.534528 31.767567 40.508665 -0.476758 0.669364 0.100855 -0.026941 -434440.000000 0 0 1
21.830526 -11.975328 30.571906 39.428692 -0.501736 0.683492 0.091792 -0.030211 -918332.000000 0 0 1
20.300826 -12.194428 30.634826 38.721056 -0.540924 0.658081 0.083523 -0.018469 226670.000000 0 0 1
19.628826 -10.923828 30.743286 38.075851 -0.507835 0.631027 0.083857 -0.026888 -285397.000000 0 0 1
18.462526 -11.100228 31.502890 38.164276 -0.541324 0.599789 0.061179 -0.010219 39884.900000 0 0 1
17.576426 -9.847928 31.758636 37.610150 -0.510710 0.565321 0.066572 -0.021311 -639016.000000 0 0 1
16.650426 -9.570828 30.740456 36.246559 -0.521691 0.558420 0.106096 -0.028367 -37204.600000 0 0 1
15.901726 -8.344628 30.933576 35.768475 -0.483261 0.525989 0.113536 -0.029246 -35363.600000 0 0 1
14.827826 -8.438328 31.982589 36.248528 -0.517379 0.490040 0.119420 -0.034127 -1622290.000000 0 0 1
13.833426 -9.377828 31.774759 35.901847 -0.595747 0.484205 0.117513 -0.027825 320394.000000 0 0 1
12.758126 -9.537628 32.718108 36.389706 -0.641946 0.453079 0.109894 -0.027945 983770.000000 0 0 1
11.444526 -8.805828 32.380947 35.454838 -0.655824 0.419479 0.157878 -0.032675 -190542.000000 0 0 1
11.715526 -7.429628 32.270720 35.126234 -0.565166 0.406002 0.157629 -0.045922 834214.000000 0 0 1
10.521926 -6.725628 31.878223 34.236911 -0.568746 0.373361 0.174556 -0.043341 637611.000000 0 0 1
10.662126 -5.184828 31.787688 33.926693 -0.452615 0.356992 0.143306 -0.046137 -20369.000000 0 0 1
10.890926 -4.603128 33.079644 35.129246 -0.399885 0.343281 0.115652 -0.048676 86658.300000 0 0 1
11.444526 -3.362628 32.891451 34.987598 -0.285777 0.347905 0.085809 -0.043336 -234544.000000 0 0 1
11.293426 -2.548228 -33.209579 35.169747 -0.221922 2.806153 0.073367 -0.042697 -208848.000000 0 0 1
9.960126 -2.250228 -32.896279 34.444634 -0.222193 2.840618 0.084139 -0.025115 -332730.000000 0 0 1
9.881926 -1.290028 -31.864169 33.386253 -0.129810 2.838473 0.091046 -0.020689 598653.000000 0 0 1
8.411026 -1.044128 -31.379729 32.504199 -0.123506 2.877790 0.099706 -0.015419 354169.000000 0 0 1
7.628826 -0.502628 -32.396589 33.286493 -0.065790 2.909840 0.099808 -0.019863 -602671.000000 0 0 1
6.316026 -0.220828 -32.007909 32.625867 -0.034949 2.946653 0.111318 -0.017285 -350601.000000 0 0 1
5.574926 0.634072 -32.995879 33.469537 0.113250 2.973156 0.135712 -0.021441 48727.500000 0 0 1
6.286326 1.882572 -33.033169 33.678661 0.290971 2.945492 0.105385 -0.016483 324068.000000 0 0 1
5.725626 2.766672 33.395496 33.995535 0.450124 0.188163 0.124561 -0.019923 -140875.000000 0 0 1
6.371326 4.178072 33.304646 34.165033 0.580415 0.224899 0.100075 -0.018774 34124.500000 0 0 1
5.716026 5.074672 32.426211 33.314928 0.726032 0.231498 0.124169 -0.033603 -51449.900000 0 0 1
6.512626 6.211472 32.188133 33.422636 0.761735 0.272638 0.115965 -0.037107 -144938.000000 0 0 1
5.919626 7.365372 31.300420 32.695672 0.893797 0.293192 0.129988 -0.037688 -121832.000000 0 0 1
4.866726 8.046772 31.992857 33.346341 1.026851 0.285889 0.146308 -0.043848 481201.000000 0 0 1
4.408726 9.225672 31.334874 32.960950 1.125004 0.315419 0.158993 -0.054012 -50458.100000 0 0 1
3.857426 9.231172 29.901216 31.530572 1.174981 0.322883 0.152345 -0.050959 168776.000000 0 0 1
2.571526 8.616372 29.839036 31.164446 1.280765 0.292693 0.136610 -0.052570 80750.000000 0 0 1
2.337426 8.209272 28.505706 29.756192 1.293407 0.290937 0.097479 -0.034182 518428.000000 0 0 1
0.855326 7.793472 28.230966 29.299441 1.461485 0.270892 0.099955 -0.033883 716839.000000 0 0 1
-0.058774 8.901372 28.323976 29.689821 -1.564194 0.304503 0.101697 -0.039026 -492092.000000 0 0 1
-1.145774 8.689272 27.485256 28.848839 -1.439692 0.308686 0.094394 -0.027393 -440212.000000 0 0 1
-2.496174 8.697372 28.201826 29.617869 -1.291305 0.310472 0.087425 -0.028015 -350761.000000 0 0 1
-3.071874 9.941172 28.513156 30.352321 -1.271098 0.349903 0.099819 -0.028430 636331.000000 0 0 1
-4.467274 9.747772 28.816556 30.746861 -1.141073 0.356227 0.088943 -0.020025 530787.000000 0 0 1
-4.903774 10.964272 29.716726 32.052239 -1.150231 0.384105 0.082274 -0.018605 -186276.000000 0 0 1
-4.876674 12.231172 29.038076 31.884061 -1.191404 0.425725 0.080141 -0.027695 909690.000000 0 0 1
-5.931474 12.302972 28.023846 31.175013 -1.121557 0.453498 0.078396 -0.029238 722839.000000 0 0 1
-6.163374 13.719972 27.498626 31.343249 -1.148586 0.500510 0.070773 -0.023173 1291940.000000 0 0 1
-5.021074 14.300572 26.773766 30.766086 -1.233133 0.515114 0.058806 -0.019187 1060980.000000 0 0 1
-5.242074 15.667972 26.525596 31.250151 -1.247931 0.557057 0.063557 -0.012577 -22063.400000 0 0 1
-4.047174 16.367372 25.853896 30.865748 -1.328388 0.577877 0.076891 -0.016116 14208.500000 0 0 1
-4.023374 16.023172 24.430566 29.492069 -1.324785 0.594591 0.067252 0.007031 -421247.000000 0 0 1
-3.096974 16.928672 23.917316 29.465389 -1.389855 0.623724 0.078840 0.009820 -99920.500000 0 0 1
-2.979674 16.729972 22.393886 28.111502 -1.394541 0.649131 0.078754 0.006148 -67444.800000 0 0 1
-2.470274 15.528672 21.905756 26.964867 -1.413040 0.622572 0.057011 -0.001449 -225769.000000 0 0 1
-2.486574 15.415972 20.517056 25.783421 -1.410875 0.650558 0.050231 -0.000252 -3071.020000 0 0 1
-1.644874 14.290572 19.896556 24.551965 -1.456199 0.625987 0.040968 -0.005842 -17624.500000 0 1 0
-2.064474 12.972072 20.189056 24.085985 -1.412972 0.576808 0.043718 -0.004426 -100103.000000 0 1 0
-1.300074 12.061472 19.426956 22.903622 -1.463423 0.558210 0.037839 -0.006885 -69779.100000 0 1 0
-2.051774 10.724772 19.128756 22.025889 -1.381769 0.518695 0.030506 -0.014004 -329939.000000 0 1 0
-2.187774 9.811872 20.200456 22.563634 -1.351413 0.461768 0.049222 -0.021448 225927.000000 0 1 0
-3.092674 10.183272 21.250256 23.766300 -1.275947 0.464303 0.074840 -0.019841 468325.000000 0 1 0
-4.626674 10.196072 20.996756 23.795583 -1.144811 0.489899 0.066854 -0.018576 -204286.000000 0 1 0
-5.192974 8.941572 20.787056 23.216812 -1.044638 0.461591 0.057651 -0.023405 -888919.000000 0 1 0
-6.528974 9.222172 20.476256 23.387027 -0.954745 0.504246 0.058566 -0.025180 -661083.000000 0 1 0
-7.390274 7.968272 20.514456 23.215349 -0.823014 0.487174 0.063395 -0.025731 -309474.000000 0 1 0
-7.291474 7.295172 21.713256 24.038523 -0.785652 0.443468 0.062450 -0.034970 319911.000000 0 1 0
-8.088474 6.098172 21.639756 23.893308 -0.646014 0.437809 0.058872 -0.027490 513125.000000 0 1 0
-7.920974 5.219472 22.953526 24.836446 -0.582636 0.391894 0.057572 -0.029463 221690.000000 0 1 0
-8.693074 5.677372 24.056986 26.201921 -0.578545 0.407440 0.055581 -0.020230 46319.000000 0 0 1
-8.610874 4.827472 25.197126 27.061907 -0.510964 0.373401 0.072503 -0.014731 215257.000000 0 0 1
-9.567574 5.323672 26.335716 28.521043 -0.507765 0.394006 0.074282 -0.011017 198874.000000 0 0 1
-9.241374 6.604372 26.887736 29.188543 -0.620492 0.399709 0.061236 -0.010719 334866.000000 0 0 1
-10.210574 7.024972 27.870946 30.502388 -0.602633 0.418425 0.079357 -0.012617 578548.000000 0 0 1
-9.577074 8.029072 28.833946 31.425830 -0.697700 0.408988 0.075683 -0.015079 221495.000000 0 0 1
-8.535074 7.548172 29.659296 31.772570 -0.724113 0.366778 0.086928 -0.020315 1790.870000 0 0 1
-8.086474 8.540672 30.551476 32.737239 -0.812708 0.367487 0.090965 -0.025237 -262761.000000 0 0 1
-7.049674 8.009072 31.523447 33.280187 -0.849022 0.326366 0.110926 -0.027289 -464094.000000 0 0 1
-5.760174 7.861372 31.006266 32.501835 -0.938447 0.304540 0.094176 -0.030942 -779509.000000 0 0 1
-4.908974 7.287872 31.975154 33.160542 -0.978022 0.268186 0.119275 -0.030050 974563.000000 0 0 1
-3.370774 7.348272 31.664805 32.680561 -1.140717 0.249975 0.104872 -0.032894 992652.000000 0 0 1
-2.797274 8.645072 31.747341 33.022048 -1.257860 0.278757 0.096314 -0.037757 -384390.000000 0 0 1
-1.397074 8.603872 31.867434 33.038035 -1.409824 0.266995 0.098582 -0.041249 -18788.200000 0 0 1
-0.737874 9.905272 31.348342 32.884303 -1.496441 0.306843 0.100147 -0.041066 -178467.000000 0 0 1
-1.146874 10.998772 32.080222 33.932712 -1.466899 0.331955 0.101942 -0.051700 -222473.000000 0 0 1
-1.621774 12.044072 31.226506 33.507976 -1.436948 0.371145 0.085272 -0.048490 -59925.200000 0 0 1
-1.906374 13.246072 32.114187 34.791000 -1.427858 0.394835 0.084717 -0.056095 -271142.000000 0 0 1
-0.686874 13.739072 32.621746 35.403562 -1.520844 0.399063 0.144613 -0.057416 -407311.000000 0 0 1
-0.799774 14.697572 33.678036 36.754161 -1.516435 0.412041 0.126461 -0.051929 322036.000000 0 0 1
0.552326 15.168672 -33.108639 36.422186 1.534400 2.711732 0.115803 -0.052018 183695.000000 0 0 1
1.389126 16.033572 33.553596 37.213558 1.484374 0.447227 0.123118 -0.050496 -292537.000000 0 0 1
2.620026 16.206372 -33.172819 37.012794 1.410517 2.682044 0.139295 -0.048694 514792.000000 0 0 1
3.682726 17.165672 33.508166 37.828824 1.359460 0.482616 0.146713 -0.033684 487924.000000 0 0 1
3.322426 18.533172 33.516876 38.443438 1.393411 0.511831 0.123548 -0.027318 -452969.000000 0 0 1
4.349026 19.351172 33.034612 38.531383 1.349727 0.540711 0.104486 -0.015761 -196356.000000 0 0 1
4.164326 20.894472 33.236671 39.479068 1.374071 0.570037 0.093160 -0.025260 -202597.000000 0 0 1
4.115726 21.410072 -32.800779 39.385549 1.380880 2.554966 0.111162 -0.043160 97107.700000 0 0 1
4.000526 22.831972 -32.791289 40.156840 1.397341 2.526258 0.094812 -0.035809 99769.000000 0 0 1
3.655326 23.530572 -31.427209 39.429921 1.416684 2.493174 0.113638 -0.033079 47289.200000 0 0 1
3.630126 24.915672 -31.562259 40.375051 1.426118 2.468226 0.129966 -0.038820 69413.500000 0 0 1
3.073626 25.360472 -30.366289 39.682644 1.450187 2.442193 0.129914 -0.043351 -68259.600000 0 0 1
2.686626 26.883672 -30.400499 40.671121 1.471192 2.415044 0.136965 -0.045536 -333003.000000 0 0 1
3.774726 27.750172 -30.400869 41.334410 1.435601 2.397180 0.144854 -0.044756 -288061.000000 0 0 1
3.354826 29.058872 -30.231389 42.066730 1.455856 2.372660 0.137882 -0.040163 -746671.000000 0 0 1
4.473126 30.032472 -29.934969 42.638722 1.422940 2.349083 0.152636 -0.051785 -414543.000000 0 0 1
5.212126 29.703372 -28.773399 41.681711 1.397092 2.332717 0.160543 -0.061287 63193.100000 0 0 1
6.189526 30.696072 -28.519669 42.354818 1.371825 2.309529 0.180103 -0.076277 -235071.000000 0 0 1
7.272826 30.272372 -27.470209 41.520150 1.335018 2.293762 0.196041 -0.076663 241240.000000 0 0 1
8.460726 29.620572 -27.880969 41.548894 1.292568 2.306407 0.195076 -0.070790 1273430.000000 0 0 1
9.641626 30.335472 -28.311379 42.599718 1.263060 2.297742 0.200796 -0.072606 856403.000000 0 0 1
9.483126 31.640972 -29.108719 44.027245 1.279605 2.293150 0.208701 -0.072792 -1663860.000000 0 0 1
9.049726 32.684172 -28.261669 44.146059 1.300679 2.265536 0.215354 -0.075113 165509.000000 0 0 1
9.057426 -33.712607 -28.955189 45.353939 -1.308328 2.263249 0.206972 -0.071304 -5343.160000 0 0 1
7.785526 -33.384107 -29.777649 45.407283 -1.341681 2.286025 0.169878 -0.044315 -14849.200000 0 0 1
7.640426 33.502372 -30.978829 46.265245 1.346575 2.304455 0.154080 -0.042031 -261380.000000 0 0 1
6.303826 33.144972 -31.208329 45.959625 1.382851 2.317248 0.139495 -0.023522 -343340.000000 0 0 1
6.272126 32.269872 -32.523679 46.243636 1.378825 2.350841 0.145939 -0.050780 104809.000000 0 0 1
6.545226 33.016872 33.593466 47.554965 1.375095 0.786378 0.161370 -0.043662 281299.000000 0 0 1
6.551826 32.119272 32.497996 46.159438 1.369573 0.789729 0.154108 -0.039460 -74840.200000 0 0 1
6.380026 32.784972 31.141746 45.665823 1.378596 0.820373 0.141209 -0.039245 408676.000000 0 0 1
7.622426 33.298572 30.680416 45.914967 1.345762 0.839009 0.144543 -0.040463 548137.000000 0 0 1
7.412526 -33.669607 29.478546 45.360474 -1.354098 0.863379 0.124351 -0.051831 43158.700000 0 0 1
19.416045 -21.833628 29.020126 41.180794 -0.843940 0.788795 0.095905 -0.011557 -426724.000000 0 0 1
18.409745 -20.845028 28.872546 40.088126 -0.847357 0.766667 0.104848 -0.009809 762816.000000 0 0 1
17.068545 -21.239028 29.169496 39.916050 -0.893839 0.751345 0.097309 -0.009756 759610.000000 0 0 1
16.689645 -21.662828 30.630276 41.061371 -0.914349 0.728816 0.086056 -0.017084 -621538.000000 0 0 1
17.224945 -22.921728 31.027866 42.247282 -0.926356 0.745963 0.110003 -0.021326 229585.000000 0 0 1
16.802845 -23.196628 32.368808 43.222204 -0.943904 0.724406 0.116889 -0.022750 410656.000000 0 0 1
17.686045 -24.267828 33.109394 44.698497 -0.941011 0.736644 0.114979 -0.033743 343196.000000 0 0 1
17.596845 -25.532418 32.588956 44.984368 -0.967358 0.760559 0.122831 -0.039007 262427.000000 0 0 1
18.589745 -26.294188 33.270736 46.302320 -0.955394 0.769075 0.114545 -0.041678 269288.000000 0 0 1
18.290345 -27.795068 33.255186 47.042640 -0.988788 0.785668 0.103415 -0.033347 -11209.300000 0 0 1
18.483645 -28.445788 32.069547 46.682586 -0.994572 0.813485 0.096597 -0.040657 103273.000000 0 0 1
17.794245 -29.665758 32.009397 47.130604 -1.030506 0.824174 0.099590 -0.041084 -397854.000000 0 0 1
18.209245 -30.423048 30.767896 46.944668 -1.031455 0.856074 0.102763 -0.038596 -13866.400000 0 0 1
19.560345 -30.779188 30.991956 47.858822 -1.004678 0.866405 0.105280 -0.046302 68415.100000 0 0 1
20.241645 -31.097208 29.782636 47.579050 -0.993778 0.894433 0.076894 -0.037739 678070.000000 0 0 1
21.680545 -31.658658 30.081836 48.756882 -0.970330 0.905902 0.068794 -0.035752 588634.000000 0 0 1
22.665845 -30.751808 30.517486 48.895104 -0.935630 0.896763 0.062681 -0.036730 1395400.000000 0 0 1
23.997845 -31.283938 30.251766 49.696586 -0.916442 0.916338 0.063935 -0.034708 796101.000000 0 0 1
25.111745 -30.287678 30.512496 49.789111 -0.878557 0.911153 0.059360 -0.033137 -15576.900000 0 0 1
26.187945 -30.335788 29.558896 49.797559 -0.858649 0.935295 0.061804 -0.031754 45700.200000 0 0 1
27.059045 -29.298128 29.871076 49.828239 -0.825108 0.927944 0.059275 -0.029575 -693468.000000 0 0 1
28.305745 -29.263838 28.982046 49.975458 -0.802039 0.952159 0.067696 -0.022762 -839759.000000 0 0 1
29.213745 -30.236818 29.349356 51.274680 -0.802605 0.961373 0.072077 -0.018313 -329937.000000 0 0 1
30.425245 -29.980538 28.626336 51.419795 -0.778036 0.980366 0.070490 -0.034419 735829.000000 0 0 1
31.541145 -31.011188 28.973926 52.877462 -0.776926 0.990891 0.069663 -0.024462 402921.000000 0 0 1
31.098945 -32.311308 28.561846 53.169014 -0.804515 1.003695 0.045245 -0.015881 309094.000000 0 0 1
32.005945 -33.273308 29.073196 54.559548 -0.804810 1.008807 0.069588 -0.016559 -488707.000000 0 0 1
31.290845 33.053202 29.435616 54.204120 0.812781 0.996730 0.055203 -0.003981 -157901.000000 0 0 1
30.643845 32.996988 30.690856 54.495642 0.822357 0.972567 0.063369 -0.007060 1180170.000000 0 0 1
29.563645 -33.683788 30.964816 54.474090 -0.850450 0.966198 0.058887 -0.004515 1181980.000000 0 0 1
28.230945 -33.628418 30.125906 53.248727 -0.872432 0.969444 0.064875 -0.001134 676517.000000 0 0 1
27.535745 32.778415 30.461716 52.541011 0.872103 0.952350 0.054134 0.001508 -1044480.000000 0 0 1
26.304745 32.709125 29.857336 51.510067 0.893498 0.952509 0.054505 -0.001139 -686867.000000 0 0 1
25.767045 31.255530 29.933736 50.367423 0.881354 0.934392 0.082359 -0.017291 -59377.700000 0 0 1
26.078345 30.418580 28.837336 49.365595 0.862070 0.946953 0.086485 -0.016009 25827.500000 0 0 1
25.427845 29.165870 28.946786 48.323283 0.853761 0.928515 0.122915 -0.029917 -151640.000000 0 0 1
24.947245 28.663750 27.554596 46.938591 0.854611 0.943405 0.122688 -0.035389 -29878.200000 0 0 1
23.653845 29.132800 27.224936 46.361854 0.888822 0.943168 0.154234 -0.040327 89526.700000 0 0 1
23.289245 28.757450 25.930966 45.186224 0.890078 0.959574 0.146027 -0.037940 314881.000000 0 0 1
21.911745 29.307430 25.452766 44.574581 0.928800 0.963054 0.160536 -0.042338 326995.000000 0 0 1
21.802145 30.657650 25.116346 45.233349 0.952627 0.982119 0.162948 -0.049064 312727.000000 0 0 1
20.441745 31.034930 24.898216 44.732012 0.988351 0.980499 0.133548 -0.040343 287778.000000 0 0 1
20.158545 32.475134 24.393156 45.343437 1.015268 1.002776 0.146780 -0.033170 -403469.000000 0 0 1
20.674545 32.772097 23.143686 45.133993 1.007995 1.032380 0.147534 -0.033157 608758.000000 0 0 1
22.027545 33.243687 23.193906 46.133640 0.985609 1.044014 0.148995 -0.029950 393558.000000 0 0 1
22.729445 33.473277 21.873456 45.994956 0.974282 1.075193 0.160634 -0.036156 -252274.000000 0 0 1
22.377645 -32.982738 21.227156 45.157637 -0.974670 1.081429 0.135448 -0.027167 301284.000000 0 0 1
22.966745 -32.904348 19.924556 44.801288 -0.961424 1.109922 0.154115 -0.030661 202589.000000 0 0 1
22.587545 -31.575788 19.160256 43.293683 -0.949847 1.112340 0.134087 -0.025310 -2325.800000 0 0 1
23.191445 -30.448408 19.851956 43.116689 -0.919872 1.092324 0.130315 -0.020819 472960.000000 0 0 1
22.809745 -29.163758 19.449156 41.821991 -0.907049 1.087110 0.118918 -0.028031 -299883.000000 0 0 1
23.421145 -28.705408 18.135856 41.248755 -0.886427 1.115565 0.104566 -0.024618 -92813.900000 0 0 1
22.992045 -29.413728 17.010156 41.026174 -0.907328 1.143274 0.106358 -0.032518 425196.000000 0 0 1
23.774145 -28.843018 15.993756 40.656241 -0.881437 1.166480 0.096996 -0.031748 -96874.900000 0 0 1
23.397445 -29.431268 14.606856 40.336091 -0.899120 1.200246 0.069977 -0.027468 -217343.000000 0 0 1
23.880045 -30.702588 14.198356 41.406507 -0.909748 1.220792 0.109103 -0.028609 73815.500000 0 0 1
23.897145 -30.887288 12.806156 41.098610 -0.912306 1.253924 0.102511 -0.027825 -611496.000000 0 0 1
22.581145 -31.195458 12.097556 40.366020 -0.944236 1.266422 0.100963 -0.028467 -372278.000000 0 0 1
21.889345 -32.397228 12.450856 41.033494 -0.976597 1.262504 0.102158 -0.031593 727425.000000 0 0 1
20.734645 -32.568518 11.601056 40.313997 -1.003866 1.278901 0.084569 -0.020933 439561.000000 0 0 1
19.641745 -33.401648 12.256156 40.640886 -1.039212 1.264455 0.076803 -0.015085 -500317.000000 0 0 1
19.016745 -32.832498 13.377656 40.231470 -1.045808 1.231825 0.071533 -0.012746 137328.000000 0 0 1
19.532945 -33.180808 14.663156 41.200851 -1.038740 1.206925 0.065006 -0.019808 -539700.000000 0 0 1
19.399945 -32.023778 15.690556 40.596475 -1.026124 1.173962 0.065981 -0.024405 -310107.000000 0 0 1
18.166345 -31.657978 16.231656 39.946343 -1.049841 1.152355 0.079768 -0.031554 -96621.400000 0 0 1
17.315345 -32.551338 16.960056 40.583917 -1.081925 1.139663 0.074677 -0.011433 -375955.000000 0 0 1
17.953345 -33.261188 18.185256 41.944401 -1.075842 1.122361 0.047382 -0.010061 -154181.000000 0 0 1
18.818445 33.295922 17.891556 42.223927 1.056368 1.133237 0.051721 -0.009439 268740.000000 0 0 1
19.123545 32.670004 19.179756 42.437038 1.041215 1.101837 0.054744 -0.016036 -50706.400000 0 0 1
19.701645 31.246640 19.042356 41.558617 1.008237 1.094822 0.085052 -0.024119 -188474.000000 0 0 1
18.837245 30.167000 18.766456 40.212803 1.012605 1.085265 0.042843 -0.013213 -246517.000000 0 0 1
19.603045 28.993760 18.466756 39.571941 0.976283 1.085282 0.062220 -0.025987 292951.000000 0 0 1
18.850545 27.630070 18.339856 38.145958 0.972084 1.069251 0.069059 -0.021499 103347.000000 0 0 1
18.514945 26.984620 19.534056 38.112363 0.969440 1.032658 0.086964 -0.037850 29294.900000 0 0 1
18.167045 25.611810 19.295856 36.855615 0.953841 1.019781 0.086921 -0.039177 -547161.000000 0 0 1
18.019245 24.645230 20.516856 36.783446 0.939472 0.979095 0.116937 -0.043781 159394.000000 0 0 1
16.771145 24.621870 21.187256 36.556909 0.972835 0.952596 0.113276 -0.046524 -247439.000000 0 0 1
15.790345 23.886190 20.554356 35.247221 0.986681 0.948198 0.092480 -0.043017 -1069160.000000 0 0 1
14.390345 24.141940 21.114156 35.152850 1.033270 0.926497 0.119576 -0.060395 -510421.000000 0 0 1
13.772945 25.316580 20.678156 35.471247 1.072549 0.948435 0.101441 -0.046580 -1772390.000000 0 0 1
12.589345 25.448380 21.297756 35.492338 1.111397 0.927212 0.104147 -0.047953 -1707200.000000 0 0 1
11.701245 26.546260 20.653456 35.611631 1.155630 0.952112 0.082215 -0.040258 -490025.000000 0 0 1
12.229045 27.842590 20.883956 36.890364 1.156942 0.969019 0.067265 -0.033401 -118668.000000 0 0 1
11.549645 28.835020 20.195656 37.050198 1.189823 0.994301 0.061615 -0.032974 -425294.000000 0 0 1
12.259045 30.210280 20.181756 38.343819 1.185308 1.016510 0.033284 -0.023493 -281679.000000 0 0 1
11.964945 31.136150 21.224456 39.536025 1.203916 1.004111 0.043263 -0.019133 -9430.390000 0 0 1
12.574045 30.818540 22.498246 40.175366 1.183410 0.976409 0.038247 -0.012704 -23714.200000 0 0 1
12.008345 31.693713 23.592156 41.295055 1.208622 0.962699 0.039764 -0.012197 -118846.000000 0 0 1
10.689245 31.406140 23.974856 40.931641 1.242739 0.945017 0.058655 -0.007422 -334556.000000 0 0 1
10.390445 31.946499 25.258556 42.030165 1.256343 0.926091 0.061724 -0.020008 138295.000000 0 0 1
8.975845 31.647980 25.895256 41.865555 1.294439 0.903921 0.165569 -0.042126 1260050.000000 0 0 1
7.907745 32.577991 25.483416 42.110122 1.332669 0.920828 0.139349 -0.032673 891334.000000 0 0 1
7.363145 32.379091 24.254856 41.120791 1.347195 0.939931 0.134826 -0.053946 -571433.000000 0 0 1
6.254245 31.312180 24.216946 40.075287 1.373652 0.921927 0.125822 -0.045081 -647365.000000 0 0 1
6.832245 30.042190 24.313896 39.247653 1.347178 0.902692 0.098612 -0.047458 -364163.000000 0 0 1
6.019945 28.946760 23.959446 38.055350 1.365753 0.889765 0.097571 -0.042117 -990438.000000 0 0 1
6.791145 27.639580 24.239686 37.384868 1.329865 0.865339 0.095579 -0.046073 -303797.000000 0 0 1
7.863745 27.302710 23.424026 36.823381 1.290366 0.881339 0.083152 -0.046320 -270135.000000 0 0 1
8.989245 28.135470 23.420036 37.694950 1.261548 0.900390 0.111748 -0.051454 -1226290.000000 0 0 1
10.144645 27.660560 24.314416 38.199623 1.219274 0.880832 0.101072 -0.055259 -1258940.000000 0 0 1
9.966845 27.573560 25.693866 38.984791 1.223945 0.851209 0.107629 -0.050240 1114180.000000 0 0 1
11.245045 27.470890 26.383216 39.713661 1.182261 0.844191 0.094908 -0.022397 1412260.000000 0 0 1
12.148645 28.745600 26.356226 40.847885 1.170938 0.869474 0.095093 -0.023764 -466534.000000 0 0 1
11.838845 29.743500 27.339416 42.098428 1.191988 0.863979 0.096722 -0.031630 730554.000000 0 0 1
12.928145 30.639070 27.670946 43.261655 1.171512 0.876795 0.084175 -0.017122 442358.000000 0 0 1
12.461745 31.816335 28.586166 44.550456 1.197485 0.874138 0.068751 -0.020250 -93161.300000 0 0 1
12.219845 31.378000 29.913256 45.041163 1.199427 0.844465 0.085535 -0.039847 295547.000000 0 0 1
10.846145 31.301810 30.247226 44.859077 1.237241 0.830818 0.129817 -0.038981 -9531.540000 0 0 1
10.564245 30.980680 31.696795 45.564159 1.242167 0.801469 0.155175 -0.035584 -231417.000000 0 0 1
10.974345 29.713130 32.064751 45.071660 1.216994 0.779284 0.128434 -0.038089 139625.000000 0 0 1
10.989745 29.618580 33.494666 46.042669 1.215500 0.756169 0.168497 -0.037042 -369608.000000 0 0 1
11.225145 28.219910 -33.298099 45.068066 1.192210 2.402144 0.165013 -0.039057 -93728.200000 0 0 1
12.528245 27.759620 -33.590039 45.341417 1.146852 2.405094 0.168119 -0.034967 23862.000000 0 0 1
12.679345 26.409500 -33.299569 44.351874 1.123191 2.420075 0.169390 -0.041942 669739.000000 0 0 1
14.097645 25.835710 33.669736 44.720002 1.071287 0.718337 0.169332 -0.040641 942744.000000 0 0 1
14.305945 24.453710 -33.548019 43.910290 1.041463 2.440306 0.154420 -0.045929 -96359.100000 0 0 1
14.513245 24.030060 -32.269759 42.771666 1.027469 2.425636 0.154108 -0.055497 -501072.000000 0 0 1
14.449345 22.518750 -32.057829 41.756222 1.000308 2.446099 0.148615 -0.072113 736239.000000 0 0 1
15.614245 21.941650 -32.716579 42.374700 0.952310 2.452901 0.141002 -0.052447 981880.000000 0 0 1
15.765445 20.576850 -32.366629 41.467513 0.917024 2.466309 0.142481 -0.050782 326754.000000 0 0 1
17.174745 20.121250 -32.837749 42.168167 0.864238 2.463440 0.161421 -0.059181 699610.000000 0 0 1
18.226645 20.418550 -31.923569 42.050470 0.842056 2.432837 0.130424 -0.056407 -85593.900000 0 0 1
19.465145 19.931850 -32.342049 42.686984 0.797244 2.430510 0.132512 -0.056772 -525901.000000 0 0 1
20.647545 20.268850 -31.429739 42.719736 0.776143 2.397525 0.098338 -0.045624 -102690.000000 0 0 1
21.229345 21.563650 -31.557359 43.721196 0.793210 2.377176 0.079340 -0.036216 166094.000000 0 0 1
22.303345 21.820550 -30.678109 43.757536 0.774457 2.347726 0.051904 -0.017784 200663.000000 0 0 1
21.877445 22.114250 -29.230989 42.686220 0.790781 2.325108 0.068055 -0.028304 -402915.000000 0 0 1
21.089845 23.235190 -29.087569 42.787174 0.833761 2.318313 0.058777 -0.010623 -80140.100000 0 0 1
20.670345 23.625000 -27.792769 41.926624 0.852003 2.295469 0.064779 -0.010432 569919.000000 0 0 1
21.844845 24.330150 -27.006929 42.409051 0.839170 2.261163 0.056631 -0.015815 567506.000000 0 0 1
22.528345 25.398550 -27.627399 43.770833 0.845214 2.253874 0.067284 -0.014027 -179817.000000 0 0 1
21.850445 26.656100 -27.717819 44.229708 0.884148 2.248080 0.064356 -0.011471 -352584.000000 0 0 1
22.498445 27.701350 -28.659109 45.769961 0.888673 2.247409 0.069789 -0.011247 -651102.000000 0 0 1
22.452545 27.429660 -30.067999 46.482121 0.884846 2.274272 0.069395 -0.006652 247014.000000 0 0 1
23.170445 26.303590 -30.575659 46.514721 0.848643 2.288071 0.064139 -0.001627 103655.000000 0 0 1
24.557245 25.928680 -30.010739 46.647606 0.812556 2.269662 0.075553 -0.017696 -864741.000000 0 0 1
25.598045 26.722080 -30.496219 47.951526 0.806879 2.260074 0.068177 -0.013234 -288658.000000 0 0 1
26.827445 26.360610 -29.897429 48.046330 0.776621 2.242426 0.078660 -0.031775 465749.000000 0 0 1
28.078545 27.157510 -30.369599 49.479769 0.768725 2.231634 0.062042 -0.019960 150434.000000 0 0 1
28.226945 28.445360 -29.841619 49.964198 0.789252 2.210877 0.052109 -0.009122 720574.000000 0 0 1
29.565445 28.911780 -30.082149 51.136506 0.774221 2.199716 0.060191 -0.017037 906118.000000 0 0 1
29.978045 30.125320 -29.198609 51.563328 0.787849 2.172766 0.058650 -0.006668 -284110.000000 0 0 1
30.077445 29.833350 -27.839439 50.692364 0.781324 2.152184 0.095886 -0.013945 -358878.000000 0 0 1
28.904445 30.011970 -27.118939 49.715411 0.804194 2.147762 0.079291 -0.011129 -722027.000000 0 0 1
29.235645 30.348260 -25.635269 49.324505 0.804069 2.117328 0.128742 -0.016117 -106593.000000 0 0 1
29.890245 29.331840 -24.887929 48.715424 0.775969 2.107009 0.110065 -0.009919 224588.000000 0 0 1
29.025145 28.346220 -24.338929 47.311211 0.773565 2.111155 0.109102 -0.017070 -375047.000000 0 0 1
28.115945 28.782080 -23.141029 46.415748 0.797105 2.092733 0.111156 -0.008019 109522.000000 0 0 1
27.080545 29.657590 -23.545129 46.554287 0.830787 2.101055 0.142650 -0.003622 10695.600000 0 0 1
26.341445 30.070550 -22.411629 45.830021 0.851407 2.081758 0.106477 0.002149 125123.000000 0 0 1
3.866445 -25.880078 -19.307029 32.519060 -1.422495 2.206463 0.096519 -0.020137 -120529.000000 0 0 1
3.697345 -27.044708 -18.568129 33.013059 -1.434926 2.168140 0.107891 -0.014679 253518.000000 0 0 1
3.397545 -26.675018 -17.205429 31.923764 -1.444110 2.139991 0.105767 -0.018507 -162470.000000 0 0 1
3.539845 -27.849548 -16.146229 32.385623 -1.444368 2.092735 0.087307 -0.014212 429062.000000 0 0 1
4.892545 -28.118158 -15.805629 32.624925 -1.398522 2.076548 0.075942 -0.018174 147195.000000 0 0 1
4.878545 -28.943848 -14.646129 32.803287 -1.403814 2.033628 0.075029 -0.024342 295231.000000 0 0 1
6.198245 -29.741728 -14.498529 33.662977 -1.365335 2.016061 0.085223 -0.015621 1370690.000000 0 0 1
7.314445 -28.883348 -14.067229 32.948989 -1.322770 2.011902 0.067075 -0.012287 1330420.000000 0 0 1
8.606945 -29.481188 -14.048229 33.772366 -1.286744 1.999804 0.067219 -0.011076 525322.000000 0 0 1
8.969645 -30.330518 -12.801529 34.121460 -1.283262 1.955382 0.067203 -0.025383 -905457.000000 0 0 1
9.183145 -29.553938 -11.640629 33.064629 -1.269529 1.930564 0.062155 -0.029117 126549.000000 0 0 1
9.208945 -30.276718 -10.392029 33.308837 -1.275528 1.888083 0.065994 -0.029181 -240099.000000 0 0 1
10.494945 -31.101898 -10.212229 34.376759 -1.245357 1.872417 0.059213 -0.025693 640107.000000 0 0 1
11.722545 -30.380178 -9.956429 34.051487 -1.202537 1.867525 0.050572 -0.026215 1222580.000000 0 0 1
12.705945 -31.318748 -9.524329 35.114354 -1.185388 1.845475 0.066330 -0.023962 377848.000000 0 0 1
13.971245 -30.782138 -8.815229 34.934854 -1.144725 1.825887 0.080162 -0.023736 642808.000000 0 0 1
14.941145 -30.041118 -9.573429 34.890646 -1.109266 1.848745 0.074801 -0.037371 954849.000000 0 0 1
16.031845 -29.703808 -8.728429 34.864334 -1.075877 1.823842 0.076799 -0.034210 1163300.000000 0 0 1
17.291445 -28.914218 -9.319729 34.955449 -1.031830 1.840678 0.091923 -0.042419 916729.000000 0 0 1
17.130945 -27.540478 -9.644129 33.837205 -1.014337 1.859819 0.098992 -0.043558 149155.000000 0 0 1
16.296445 -27.182098 -10.752329 33.467195 -1.030724 1.897877 0.090755 -0.038931 169846.000000 0 0 1
15.843045 -25.702448 -10.807029 32.068829 -1.018404 1.914520 0.091263 -0.039041 -1223780.000000 0 0 1
14.776645 -25.348708 -9.983129 30.993050 -1.043019 1.898752 0.065325 -0.035624 -138781.000000 0 0 1
14.220345 -24.063728 -10.252629 29.772431 -1.037061 1.922360 0.050058 -0.017105 399679.000000 0 0 1
13.587845 -23.853128 -11.665429 29.827563 -1.052995 1.972618 0.020604 -0.010930 118162.000000 0 0 1
14.560145 -23.592628 -12.703229 30.495606 -1.017863 2.000454 0.040852 -0.013118 589882.000000 0 0 1
13.887045 -23.544928 -13.957429 30.692401 -1.037903 2.042890 0.045795 -0.017197 655163.000000 0 0 1
14.794445 -22.845428 -15.022929 31.088223 -0.996118 2.075143 0.063961 -0.022023 608071.000000 0 0 1
15.893445 -23.582628 -15.528729 32.401904 -0.977770 2.070600 0.065087 -0.028495 176208.000000 0 0 1
16.552745 -22.858728 -16.557429 32.720992 -0.944057 2.101359 0.070965 -0.031578 155744.000000 0 0 1
17.668945 -23.736928 -17.275329 34.264710 -0.930911 2.099220 0.081019 -0.038217 679544.000000 0 0 1
18.837945 -23.958228 -16.534529 34.673557 -0.904476 2.067878 0.122813 -0.043017 -52419.800000 0 0 1
19.816245 -22.943228 -16.726229 34.624298 -0.858398 2.074963 0.133527 -0.043990 666580.000000 0 0 1
21.329045 -23.157228 -16.377929 35.488335 -0.826471 2.050484 0.141836 -0.043079 1002740.000000 0 0 1
21.941345 -24.161728 -17.155929 36.871909 -0.833522 2.054752 0.152134 -0.045000 1401580.000000 0 0 1
23.327545 -24.382928 -16.735529 37.666689 -0.807515 2.031196 0.167457 -0.029489 1968200.000000 0 0 1
24.181945 -25.443538 -17.478129 39.212563 -0.810815 2.032783 0.154256 -0.029919 61627.600000 0 0 1
24.568245 -25.105228 -18.788229 39.835521 -0.796208 2.061952 0.162643 -0.032768 -64160.600000 0 0 1
25.175345 -26.213918 -19.449029 41.221745 -0.805605 2.062144 0.153548 -0.036224 284180.000000 0 0 1
26.532445 -25.886468 -20.162329 42.197149 -0.773075 2.068959 0.140692 -0.039856 481027.000000 0 0 1
26.543445 -24.877228 -21.159729 42.085212 -0.753006 2.097612 0.146788 -0.041823 -178439.000000 0 0 1
26.803045 -23.630128 -20.562229 41.226102 -0.722568 2.092972 0.138773 -0.033877 68105.800000 0 0 1
25.541145 -22.691628 -20.460929 39.823482 -0.726388 2.110394 0.161889 -0.033546 607456.000000 0 0 1
25.172745 -21.924028 -21.643529 39.784073 -0.716528 2.146023 0.147631 -0.033140 255987.000000 0 0 1
24.734445 -22.691628 -22.780629 40.566733 -0.742351 2.167066 0.110588 -0.030440 -260182.000000 0 0 1
23.878445 -21.967728 -23.818129 40.250025 -0.743746 2.204030 0.070236 -0.010647 594215.000000 0 0 1
24.709645 -21.102728 -24.677329 40.802724 -0.706828 2.220306 0.047872 0.001399 811333.000000 0 0 1
23.963245 -20.360028 -25.647749 40.578010 -0.704283 2.255005 0.037570 0.007293 32686.600000 0 0 1
24.806745 -19.735328 -26.824199 41.525841 -0.672030 2.273082 0.035080 0.008329 -186000.000000 0 0 1
24.189045 -18.738128 -27.581869 41.194500 -0.659094 2.304402 0.024044 0.012585 230721.000000 0 0 1
25.076545 -18.456128 -28.652809 42.313653 -0.634475 2.314683 0.038483 0.014240 334767.000000 0 0 1
24.446745 -17.343428 -29.526399 42.074293 -0.617032 2.348673 0.091746 0.003029 -18409.400000 0 0 1
23.196545 -17.684128 -30.071899 41.894238 -0.651365 2.371441 0.089727 -0.003030 -44216.300000 0 0 1
22.582145 -16.549128 -30.674909 41.530434 -0.632429 2.401807 0.110471 -0.010346 -113002.000000 0 0 1
21.168045 -16.883628 -31.171799 41.289516 -0.673276 2.426385 0.085235 -0.006959 -214602.000000 0 0 1
21.273245 -17.781328 -32.212819 42.501674 -0.696224 2.430913 0.077793 -0.008807 325094.000000 0 0 1
20.065145 -18.516128 -32.358039 42.337923 -0.745270 2.440721 0.091202 -0.021434 152312.000000 0 0 1
19.871645 -19.349828 -33.632679 43.594211 -0.772095 2.451983 0.109943 -0.014323 700001.000000 0 0 1
20.741545 -20.544428 -33.590089 44.503700 -0.780624 2.426101 0.102981 -0.010628 853202.000000 0 0 1
20.856245 -21.225728 32.540163 44.095087 -0.794178 0.740762 0.096069 -0.017778 250482.000000 0 0 1
21.963445 -22.323328 32.640132 45.233860 -0.793524 0.764706 0.077187 -0.018690 196671.000000 0 0 1
21.631745 -23.439328 33.456116 46.223870 -0.825482 0.761525 0.089079 -0.021901 81854.100000 0 0 1
21.740945 -23.265728 -32.485799 45.489449 -0.819264 2.366190 0.085902 -0.024253 57660.500000 0 0 1
20.702545 -24.219428 -31.806749 45.020499 -0.863528 2.355329 0.101378 -0.031909 67320.100000 0 0 1
21.016245 -25.560518 -31.802639 45.895866 -0.882656 2.336342 0.114718 -0.044352 300547.000000 0 0 1
21.963445 -25.966348 -30.800869 45.883959 -0.868721 2.306727 0.091443 -0.035973 408077.000000 0 0 1
22.191545 -27.502078 -30.860529 46.916961 -0.891860 2.288649 0.079254 -0.042893 -228930.000000 0 0 1
21.063945 -28.123458 -30.287679 46.389247 -0.927947 2.282207 0.091185 -0.043760 -647.838000 0 0 1
21.041345 -29.519228 -30.343229 47.274037 -0.951530 2.267715 0.086017 -0.045173 432453.000000 0 0 1
19.631645 -30.023928 -29.844249 46.663872 -0.991708 2.264719 0.113589 -0.048336 1789040.000000 0 0 1
18.515545 -29.940698 -30.789669 46.768307 -1.016952 2.289414 0.126070 -0.057887 900619.000000 0 0 1
18.486645 -30.878928 -31.810709 48.033171 -1.031347 2.294635 0.126941 -0.051716 -350615.000000 0 0 1
17.059045 -31.407028 -32.063329 48.015305 -1.073220 2.302009 0.145486 -0.054536 285482.000000 0 0 1
16.114045 -30.490578 -32.555089 47.425432 -1.084615 2.327389 0.151923 -0.052846 483852.000000 0 0 1
14.895645 -31.064838 -33.035869 47.731259 -1.123681 2.335222 0.125346 -0.040786 833261.000000 0 0 1
13.759245 -30.141238 -33.501749 47.118768 -1.142556 2.361725 0.122715 -0.031214 201892.000000 0 0 1
12.982145 -29.502868 -32.505209 45.777112 -1.156264 2.360402 0.144184 -0.038710 -181157.000000 0 0 1
12.036845 -28.676578 -33.136549 45.445161 -1.173385 2.387882 0.119278 -0.033986 -145481.000000 0 0 1
11.185845 -27.853578 -32.180539 44.006046 -1.188916 2.390986 0.147558 -0.040980 -273887.000000 0 0 1
10.225545 -28.528588 -31.432959 43.663177 -1.226630 2.374449 0.148878 -0.046026 -302930.000000 0 0 1
9.207845 -27.656158 -31.005409 42.555645 -1.249400 2.387050 0.112078 -0.044956 821696.000000 0 0 1
7.993545 -28.302548 -30.192059 42.148445 -1.295534 2.369320 0.095494 -0.036573 1227880.000000 0 0 1
6.957845 -28.902868 -30.967659 42.927652 -1.334559 2.376606 0.094021 -0.028637 -37695.200000 0 0 1
7.276145 -30.070408 -31.691349 44.288976 -1.333389 2.368219 0.101274 -0.026727 594082.000000 0 0 1
6.023245 -30.641698 -32.516399 45.083360 -1.376701 2.376402 0.147436 -0.035057 894949.000000 0 0 1
5.105545 -31.184948 -31.615549 44.700230 -1.408518 2.356439 0.155439 -0.055280 -505860.000000 0 0 1
4.031945 -31.764138 -32.336689 45.506907 -1.444538 2.361131 0.181335 -0.061016 614468.000000 0 0 1
2.863845 -32.359248 -31.455989 45.219485 -1.482525 2.340092 0.136251 -0.056144 875118.000000 0 0 1
1.992245 -31.353988 -30.928719 44.086589 -1.507341 2.348359 0.093713 -0.043212 1076220.000000 0 0 1
0.634545 -31.806268 -30.779829 44.265554 -1.550849 2.339696 0.072373 -0.025410 967864.000000 0 0 1
-0.374555 -30.671818 -30.508689 43.262927 1.558585 2.353491 0.051656 -0.018918 -269329.000000 0 0 1
-0.617655 -30.470048 -29.156459 42.177061 1.550528 2.334065 0.013503 -0.021325 90967.100000 0 0 1
-1.456055 -29.329418 -28.980289 41.257630 1.521192 2.349592 0.100933 -0.028242 -94409.700000 0 0 1
-2.083055 -29.210438 -27.566309 40.218034 1.499605 2.325979 0.114645 -0.034163 -622427.000000 0 0 1
-1.262455 -29.261818 -26.440449 39.458145 1.527680 2.305124 0.087815 -0.033997 -562967.000000 0 0 1
-1.994255 -29.419098 -25.232739 38.809168 1.503112 2.278611 0.120056 -0.040798 -247376.000000 0 0 1
-1.067255 -29.719578 -24.053029 38.248406 1.534901 2.250887 0.069920 -0.037404 -359252.000000 0 0 1
-1.663155 -29.953628 -22.789729 37.674364 1.515329 2.220453 0.134664 -0.052551 -623935.000000 0 0 1
-0.752455 -30.208088 -21.755329 37.234247 1.545892 2.194792 0.112392 -0.044094 -297142.000000 0 0 1
-1.361555 -30.047818 -20.365429 36.324591 1.525514 2.165968 0.078783 -0.026859 9983.550000 0 0 1
-1.377955 -28.742738 -19.713129 34.880528 1.522892 2.171425 0.057077 -0.027072 -142324.000000 0 0 1
-0.076155 -28.293418 -19.409329 34.311010 1.568105 2.172064 0.080010 -0.027836 7747.690000 0 0 1
0.029245 -26.947718 -18.664729 32.780368 -1.569711 2.176557 0.080888 -0.031951 -406414.000000 0 0 1
-0.544755 -26.932248 -17.384129 32.060111 1.550572 2.143892 0.077595 -0.028243 -28603.700000 0 0 1
-0.544055 -25.621928 -16.856129 30.674229 1.549566 2.152587 0.081859 -0.031950 -270113.000000 0 0 1
-1.293055 -25.379138 -15.571029 29.803181 1.519891 2.120532 0.072904 -0.029282 -377789.000000 0 0 1
-1.427155 -24.032228 -15.047029 28.390102 1.511481 2.129408 0.058568 -0.027876 181764.000000 0 0 1
-2.355955 -24.070528 -13.963329 27.926966 1.473230 2.094389 0.064441 -0.022627 165004.000000 0 0 1
-2.188055 -23.010728 -12.800229 26.422095 1.475993 2.076533 0.061777 -0.013862 549657.000000 0 0 1
-0.958355 -23.195828 -12.083329 26.171965 1.529504 2.050696 0.073091 -0.032102 448025.000000 0 0 1
-0.841455 -22.168628 -11.142629 24.825679 1.532858 2.036257 0.077419 -0.023867 -101755.000000 0 1 0
0.482145 -22.162428 -10.366529 24.471833 -1.549045 2.008224 0.077972 -0.031683 -16192.900000 0 1 0
0.556645 -21.050328 -9.564929 23.128209 -1.544359 1.997158 0.054675 -0.029460 -787094.000000 0 1 0
1.857045 -20.975228 -9.077829 22.930674 -1.482491 1.977824 0.046329 -0.029649 -426077.000000 0 1 0
2.184945 -19.489628 -9.002329 21.579192 -1.459154 2.001133 0.038089 -0.026743 -1417620.000000 0 1 0
2.459045 -18.886228 -10.281129 21.643432 -1.441322 2.065787 0.028732 -0.009559 571737.000000 0 1 0
3.598645 -18.014528 -10.301129 21.061499 -1.373628 2.081851 0.023593 -0.006700 263051.000000 0 1 0
4.975145 -18.629128 -10.084529 21.759922 -1.309824 2.052675 0.040513 -0.015931 -1149080.000000 0 1 0
5.213545 -19.046928 -8.760829 21.603672 -1.303620 1.988349 0.045055 -0.015006 82483.600000 0 1 0
6.351545 -19.900728 -8.668829 22.617023 -1.261854 1.964150 0.041976 -0.003349 -14750.400000 0 1 0
6.123945 -20.924828 -7.553229 23.073847 -1.286083 1.904294 0.032659 -0.008674 -487752.000000 0 1 0
5.166645 -21.795428 -8.046529 23.800873 -1.338041 1.915669 0.053466 -0.029572 -334671.000000 0 1 0
4.912045 -22.901128 -7.182029 24.498396 -1.359508 1.868330 0.064271 -0.018973 -303192.000000 0 1 0
3.899345 -23.918928 -7.683729 25.423606 -1.409195 1.877826 0.069530 -0.022460 -535024.000000 0 0 1
4.320245 -24.588228 -8.807629 26.473002 -1.396868 1.909964 0.069955 -0.028078 -238226.000000 0 0 1
3.544245 -25.673998 -9.272929 27.526407 -1.433615 1.914391 0.069524 -0.033556 -526845.000000 0 0 1
4.297645 -26.479368 -10.287429 28.730783 -1.409898 1.936989 0.053176 -0.031457 -153783.000000 0 0 1
5.497545 -27.007178 -9.725029 29.226476 -1.369981 1.910012 0.078949 -0.037876 -66111.100000 0 0 1
6.127345 -27.909408 -10.570929 30.466768 -1.354681 1.925130 0.096586 -0.027855 -193180.000000 0 0 1
5.629545 -29.383738 -10.464429 31.695428 -1.381503 1.907265 0.083402 -0.036586 -573544.000000 0 0 1
4.415445 -29.772208 -11.045029 32.060462 -1.423562 1.922509 0.085595 -0.034699 -184599.000000 0 0 1
4.225245 -31.154148 -10.934529 33.286598 -1.435995 1.905508 0.102940 -0.036142 -746536.000000 0 0 1
2.848645 -31.637068 -11.327529 33.724350 -1.480997 1.913342 0.104900 -0.039853 -810363.000000 0 0 1
2.562845 -31.711108 -12.672929 34.245667 -1.490153 1.949869 0.102728 -0.038496 122253.000000 0 0 1
1.323445 -32.301988 -12.975029 34.835633 -1.529848 1.952459 0.096975 -0.032360 -237593.000000 0 0 1
0.983845 -32.391508 -14.480729 35.494637 -1.540432 1.991025 0.099489 -0.018655 -153886.000000 0 0 1
0.263245 -31.304558 -14.992329 34.710440 -1.562387 2.017423 0.093347 -0.026894 -117204.000000 0 0 1
0.053445 -31.481468 -16.356829 35.477198 -1.569099 2.049977 0.083116 -0.025873 29746.600000 0 0 1
-1.101655 -30.629428 -16.936529 35.017446 1.534845 2.075628 0.079481 -0.025238 555253.000000 0 0 1
-2.394655 -30.936048 -16.420829 35.105799 1.493544 2.057543 0.096659 -0.031942 -407957.000000 0 0 1
-3.364955 -30.284858 -17.136929 34.959547 1.460140 2.083108 0.100022 -0.028403 -652176.000000 0 0 1
-4.783055 -30.407198 -16.563529 34.954625 1.414775 2.064463 0.126370 -0.022668 -278709.000000 0 0 1
-5.158955 -29.340418 -15.698329 33.673618 1.396744 2.055776 0.114976 -0.020771 306599.000000 0 0 1
-6.555555 -29.056808 -15.763329 33.700979 1.348900 2.057530 0.125221 -0.035174 582155.000000 0 0 1
-7.375155 -29.748918 -14.626229 33.960531 1.327782 2.016046 0.123801 -0.042559 -214835.000000 0 0 1
-7.737355 -31.056338 -15.037629 35.362312 1.326628 2.010028 0.123890 -0.033682 34930.100000 0 0 1
-8.249755 -31.724838 -13.867629 35.592625 1.316390 1.971016 0.126152 -0.022940 323349.000000 0 0 1
-8.892955 -33.116158 -14.026829 37.047490 1.308447 1.959098 0.148877 -0.033428 606777.000000 0 0 1
-7.943955 33.474144 -14.259929 37.242050 -1.337791 1.963728 0.131198 -0.023970 441204.000000 0 0 1
-8.647955 32.258847 -14.481829 36.402523 -1.308875 1.979941 0.154045 -0.031671 5390.960000 0 0 1
-7.818655 -22.108228 -3.524229 23.713400 1.230870 1.719967 0.109814 -0.031216 217889.000000 0 1 0
-7.545155 -21.093628 -4.421629 22.834652 1.227280 1.765664 0.082724 -0.020276 95069.700000 0 1 0
-6.301655 -21.178528 -5.105429 22.678323 1.281589 1.797866 0.080211 -0.011560 191598.000000 0 1 0
-6.111955 -20.051328 -6.204729 21.861163 1.274928 1.858576 0.068568 -0.012788 184738.000000 0 1 0
-6.938555 -20.206128 -7.350129 22.593264 1.240023 1.902151 0.072196 -0.019693 -25713.300000 0 1 0
-6.836455 -19.056528 -8.100229 21.806011 1.226351 1.951386 0.051579 -0.024725 195477.000000 0 1 0
-7.651255 -19.089228 -9.438429 22.627954 1.189587 2.001064 0.063553 -0.028087 442634.000000 0 1 0
-7.034055 -19.961728 -10.345329 23.557894 1.232005 2.025443 0.070719 -0.027207 209397.000000 0 1 0
-8.022655 -20.234628 -11.320029 24.534593 1.193327 2.050358 0.098770 -0.029346 214909.000000 0 1 0
-7.592455 -21.267128 -12.381029 25.753175 1.227895 2.072315 0.092248 -0.022370 232781.000000 0 0 1
-6.536855 -20.714628 -13.176529 25.405654 1.265120 2.116062 0.088528 -0.008438 90859.900000 0 0 1
-5.988855 -21.605228 -14.059329 26.463504 1.300391 2.130898 0.063569 -0.007163 -35071.400000 0 0 1
-5.051255 -20.860528 -15.046329 26.211998 1.333225 2.182209 0.039748 0.004668 701362.000000 0 0 1
-3.727855 -20.578628 -14.565829 25.486079 1.391588 2.179155 0.045271 -0.001191 539318.000000 0 0 1
-2.911755 -19.803428 -15.420429 25.267444 1.424809 2.227221 0.068455 -0.000719 50682.800000 0 0 1
-3.256855 -18.248728 -15.459429 24.137464 1.394186 2.265912 0.069244 -0.003940 -917363.000000 0 1 0
-4.412055 -17.897428 -16.145929 24.504596 1.329097 2.290144 0.069482 -0.003251 -614452.000000 0 1 0
-4.378255 -17.886028 -17.587529 25.463706 1.330731 2.333239 0.090177 -0.012074 165136.000000 0 0 1
-5.860655 -17.735928 -18.068829 25.988325 1.251652 2.339588 0.076371 -0.010205 836131.000000 0 0 1
-6.591155 -18.896928 -17.706729 26.722004 1.235195 2.295118 0.054468 -0.006865 -128584.000000 0 0 1
-7.960255 -18.852928 -18.031729 27.275297 1.171275 2.293082 0.044612 -0.006103 149850.000000 0 0 1
-8.829955 -20.082828 -17.627129 28.142562 1.156560 2.247660 0.094440 -0.022245 105164.000000 0 0 1
-8.499155 -21.233128 -18.312429 29.298915 1.190050 2.245954 0.102693 -0.018657 46187.800000 0 0 1
-9.349255 -22.292328 -18.026729 30.154924 1.173684 2.211555 0.144409 -0.013711 -299886.000000 0 0 1
-8.865955 -23.580628 -18.784429 31.424608 1.211163 2.211503 0.172420 -0.026211 -567298.000000 0 0 1
-8.984255 -23.385928 -20.181729 32.170183 1.204007 2.248933 0.157392 -0.029592 292774.000000 0 0 1
-8.322055 -24.355428 -20.981629 33.206509 1.241542 2.254738 0.172425 -0.053685 -447248.000000 0 0 1
-6.792555 -24.302928 -20.996229 32.827013 1.298256 2.264777 0.136587 -0.041111 -913127.000000 0 0 1
-6.154955 -23.194028 -21.610929 32.293632 1.311407 2.303929 0.153219 -0.057239 152040.000000 0 0 1
-6.062155 -22.030228 -20.881929 30.953767 1.302268 2.311242 0.115248 -0.051155 -676438.000000 0 0 1
-5.194955 -21.991228 -19.608729 29.918288 1.338820 2.285521 0.120994 -0.024650 753489.000000 0 0 1
-3.777055 -22.189728 -19.767629 29.956792 1.402196 2.291444 0.103739 -0.034416 607102.000000 0 0 1
-3.197655 -22.114928 -18.517829 29.020769 1.427199 2.262810 0.049983 -0.027831 920212.000000 0 0 1
-1.698955 -22.623728 -18.517929 29.285376 1.495841 2.255349 0.089733 -0.025700 1251120.000000 0 0 1
-0.724055 -21.809928 -19.129529 29.019582 1.537610 2.290543 0.119370 -0.029953 530484.000000 0 0 1
0.568045 -22.436428 -19.198729 29.534847 -1.545484 2.278429 0.090048 -0.032877 980726.000000 0 0 1
1.598645 -21.608128 -19.987529 29.478267 -1.496947 2.315893 0.091791 -0.029667 -3696.610000 0 0 1
1.246345 -21.519728 -21.350029 30.339345 -1.512945 2.351399 0.086910 -0.041553 -327661.000000 0 0 1
2.216645 -20.843028 -22.103329 30.461492 -1.464845 2.382725 0.091328 -0.037116 -173349.000000 0 0 1
1.940345 -20.969428 -23.646129 31.664196 -1.478527 2.414001 0.115414 -0.048640 489853.000000 0 0 1
1.094445 -20.031628 -24.379429 31.572465 -1.516215 2.453051 0.117351 -0.049389 80279.000000 0 0 1
-0.271255 -19.992828 -24.056429 31.280962 1.557230 2.448140 0.116850 -0.047409 -105161.000000 0 0 1
-1.021655 -18.876628 -24.876829 31.244640 1.516726 2.491777 0.134725 -0.045558 223676.000000 0 0 1
-0.612555 -17.588128 -24.482229 30.151236 1.535983 2.518334 0.095413 -0.035591 -5844.660000 0 0 1
-1.313755 -16.592228 -25.221909 30.218748 1.491782 2.558283 0.135743 -0.042514 259080.000000 0 0 1
-0.922255 -15.141928 -24.856229 29.119764 1.509964 2.593627 0.120671 -0.026843 420796.000000 0 0 1
0.370245 -14.730028 -25.279629 29.260391 -1.545666 2.613866 0.120300 -0.030506 -4091.720000 0 0 1
0.767445 -13.470128 -24.723129 28.164986 -1.513884 2.642039 0.116249 -0.029219 340781.000000 0 0 1
0.367545 -12.184328 -25.529179 28.290139 -1.540640 2.696116 0.113705 -0.022613 84383.600000 0 0 1
1.093945 -11.065028 -25.038929 27.396707 -1.472251 2.723683 0.106971 -0.017991 178462.000000 0 0 1
0.724045 -9.918528 -25.766529 27.619114 -1.497926 2.773246 0.099249 -0.019213 75077.500000 0 0 1
1.680345 -8.688528 -25.601569 27.087902 -1.379757 2.808786 0.102927 -0.027325 733097.000000 0 0 1
3.044945 -8.717328 -25.979689 27.571865 -1.234747 2.800093 0.106576 -0.027152 174845.000000 0 0 1
3.403345 -8.906328 -27.357779 28.971599 -1.205792 2.806247 0.115204 -0.030164 -816375.000000 0 0 1
4.857545 -8.670728 -27.733959 29.460987 -1.060138 2.797492 0.122929 -0.035466 -894895.000000 0 0 1
5.007245 -7.270228 -27.938809 29.300269 -0.967672 2.835553 0.113535 -0.028865 -698863.000000 0 0 1
6.259345 -6.923828 -28.407239 29.901338 -0.835759 2.824136 0.102554 -0.034450 -676815.000000 0 0 1
7.435745 -6.864128 -27.345899 29.158271 -0.745446 2.787160 0.111766 -0.029576 319225.000000 0 0 1
8.102645 -8.106628 -27.202589 29.518657 -0.785644 2.742822 0.090643 -0.028437 337189.000000 0 0 1
9.039345 -8.406128 -28.222819 30.804225 -0.749117 2.729288 0.095890 -0.040233 -750490.000000 0 0 1
9.643145 -9.798128 -28.089789 31.273468 -0.793370 2.686451 0.097260 -0.021457 -25931.200000 0 0 1
8.610345 -10.775128 -28.122899 31.323137 -0.896608 2.685616 0.109849 -0.033960 417866.000000 0 0 1
8.803045 -11.880328 -27.190289 30.950729 -0.933095 2.643515 0.111112 -0.034249 -220671.000000 0 0 1
9.800445 -12.988428 -27.545379 31.992123 -0.924388 2.608039 0.108004 -0.037182 60953.400000 0 0 1
9.298745 -13.929628 -28.497099 33.054287 -0.982181 2.610255 0.128595 -0.047972 -9095.570000 0 0 1
10.263945 -14.927828 -28.641509 33.889890 -0.968461 2.577613 0.109411 -0.049373 -27318.900000 0 0 1
9.837845 -15.956728 -29.720749 35.138630 -1.018309 2.578886 0.133037 -0.056798 36482.500000 0 0 1
9.883945 -15.413628 -31.047479 36.044671 -1.000599 2.608739 0.153499 -0.059806 226196.000000 0 0 1
9.098345 -16.094028 -32.007339 36.963054 -1.056264 2.617799 0.182083 -0.062000 -108680.000000 0 0 1
7.764345 -15.362428 -32.357259 36.650805 -1.102829 2.652698 0.195005 -0.056291 25287.400000 0 0 1
7.856345 -14.212928 -33.149129 36.913334 -1.065836 2.686058 0.195632 -0.051860 -349346.000000 0 0 1
6.594445 -13.749628 -33.534939 36.839261 -1.123594 2.714815 0.218349 -0.069435 -190726.000000 0 0 1
6.651045 -12.486728 33.010526 35.914476 -1.081372 0.404898 0.239940 -0.059551 9612.040000 0 0 1
7.070045 -12.719828 31.666977 34.850782 -1.063489 0.430770 0.229528 -0.045084 226324.000000 0 0 1
7.099045 -11.519528 30.955666 33.783860 -1.018505 0.412090 0.234586 -0.055469 -143960.000000 0 0 1
7.507945 -11.568328 29.469056 32.536452 -0.995118 0.437711 0.240626 -0.044276 256848.000000 0 0 1
6.596945 -12.199328 28.567656 31.756169 -1.075073 0.451958 0.216220 -0.042950 560115.000000 0 0 1
7.068045 -11.907828 27.245416 30.562499 -1.035123 0.470227 0.177792 -0.039004 623488.000000 0 0 1
6.166545 -12.587328 26.147086 29.667107 -1.115261 0.492086 0.150532 -0.048310 162975.000000 0 0 1
6.236845 -14.007428 26.266396 30.414303 -1.151897 0.528390 0.136661 -0.040279 -79295.300000 0 0 1
5.711545 -14.658728 25.130126 29.648327 -1.199258 0.559337 0.079398 -0.031336 -761951.000000 0 0 1
4.221445 -14.900528 25.071836 29.469362 -1.294722 0.553336 0.090118 -0.038624 -532848.000000 0 0 1
3.380845 -13.725128 24.954516 28.679908 -1.329279 0.515382 0.091224 -0.048223 1538730.000000 0 0 1
1.982345 -14.132328 24.850516 28.656597 -1.431435 0.521279 0.088897 -0.047972 1308380.000000 0 0 1
1.080445 -12.930828 24.591896 27.805306 -1.487434 0.485521 0.099447 -0.045932 -603304.000000 0 0 1
1.313145 -12.284328 23.355576 26.421809 -1.464305 0.486551 0.053207 -0.029939 -186658.000000 0 0 1
0.625345 -11.062628 23.128196 25.645394 -1.514329 0.446773 0.056693 -0.024334 -104604.000000 0 0 1
-0.829855 -11.213628 22.669346 25.304809 1.496927 0.460453 0.072156 -0.031439 -460270.000000 0 0 1
-1.010755 -11.868428 21.417956 24.507347 1.485838 0.507545 0.062067 -0.029547 -379511.000000 0 1 0
-2.050555 -12.807728 21.406356 25.029478 1.412041 0.544771 0.088887 -0.032420 -44699.900000 0 0 1
-2.209555 -13.506128 20.050656 24.276047 1.408636 0.598922 0.106682 -0.035853 -39835.600000 0 1 0
-1.352155 -14.607428 19.923956 24.742055 1.478493 0.634671 0.126567 -0.039465 -335708.000000 0 1 0
-1.364355 -15.219828 18.659356 24.117964 1.481392 0.686182 0.129557 -0.042945 597774.000000 0 1 0
-2.570955 -16.169128 18.310356 24.562566 1.413112 0.729575 0.123442 -0.051837 910729.000000 0 1 0
-2.135455 -17.145728 17.354956 24.489399 1.446887 0.783182 0.096938 -0.049569 -429084.000000 0 1 0
-3.159255 -18.088128 17.251256 25.194585 1.397882 0.816576 0.117364 -0.047347 -316375.000000 0 0 1
-2.760755 -19.418628 16.544356 25.659708 1.429572 0.870087 0.110022 -0.052681 152536.000000 0 0 1
-1.862255 -20.215228 17.312556 26.680481 1.478934 0.864679 0.102746 -0.055018 -134744.000000 0 0 1
-2.028855 -21.574528 17.049356 27.572760 1.477033 0.904167 0.102232 -0.064151 43589.800000 0 0 1
-0.949255 -22.494528 17.659956 28.614314 1.528622 0.905653 0.105980 -0.048900 1069850.000000 0 0 1
0.382345 -22.403028 17.109256 28.191639 -1.553731 0.918653 0.111604 -0.054352 691174.000000 0 0 1
1.225845 -23.319428 17.827956 29.379150 -1.518277 0.918738 0.130620 -0.040797 -421516.000000 0 0 1
2.608745 -23.446428 17.233856 29.215516 -1.459988 0.939877 0.130320 -0.050682 -626540.000000 0 0 1
3.379945 -22.266828 17.379656 28.447990 -1.420153 0.913565 0.123109 -0.045388 817939.000000 0 0 1
4.619845 -22.302128 16.603656 28.185267 -1.366537 0.940864 0.118391 -0.036974 1232910.000000 0 0 1
5.296245 -20.921528 16.793256 27.345457 -1.322857 0.909532 0.101931 -0.031248 -1079390.000000 0 0 1
5.988745 -20.917028 17.993356 28.233810 -1.291946 0.879809 0.106596 -0.028197 -527226.000000 0 0 1
6.507445 -19.699528 18.466056 27.774331 -1.251747 0.843489 0.087834 -0.015974 -200481.000000 0 0 1
7.611045 -19.047428 17.641556 27.054704 -1.190649 0.860485 0.087450 -0.021943 -840484.000000 0 0 1
7.064045 -18.462628 16.474956 25.733122 -1.205368 0.876007 0.080813 -0.017682 314676.000000 0 0 1
7.971045 -17.535928 15.858456 24.950691 -1.144161 0.882021 0.106619 -0.021930 126813.000000 0 1 0
7.293045 -16.732028 14.771356 23.480678 -1.159752 0.890420 0.069074 -0.012307 -123185.000000 0 1 0
7.107845 -17.267428 13.480556 23.030652 -1.180302 0.945508 0.078608 -0.022794 77925.000000 0 1 0
6.359145 -16.369128 12.689056 21.665623 -1.200257 0.945081 0.053679 -0.013922 99288.200000 0 1 0
6.579045 -16.588328 11.170456 21.053160 -1.193218 1.011508 0.053695 -0.012858 890405.000000 0 1 0
7.955145 -16.301128 10.875356 21.149101 -1.116785 1.030695 0.061391 -0.009744 410371.000000 0 1 0
8.202145 -16.285328 9.485156 20.553717 -1.104231 1.091132 0.055555 -0.016174 869098.000000 0 1 0
9.695245 -15.863228 9.245556 20.763432 -1.022199 1.109309 0.059755 -0.012230 1026670.000000 0 1 0
10.447845 -16.816328 8.479556 21.537159 -1.014868 1.166124 0.065661 -0.002689 347054.000000 0 1 0
11.771045 -16.311228 8.294356 21.757987 -0.945686 1.179692 0.068808 -0.016677 908648.000000 0 1 0
12.742845 -17.216328 7.474156 22.685790 -0.933622 1.235060 0.094927 -0.023077 234354.000000 0 1 0
13.186745 -18.381828 8.070656 24.019104 -0.948501 1.228119 0.117787 -0.029339 -191524.000000 0 1 0
14.119745 -19.148728 7.351756 24.901592 -0.935426 1.271098 0.127083 -0.035108 81947.200000 0 1 0
14.601245 -20.347728 8.220256 26.359040 -0.948365 1.253649 0.121284 -0.036326 -277303.000000 0 0 1
13.601245 -21.255028 8.580456 26.653223 -1.001549 1.243030 0.117003 -0.031904 -178686.000000 0 0 1
14.180345 -22.434628 9.139356 28.069958 -1.007126 1.239158 0.080092 -0.021757 287948.000000 0 0 1
13.222845 -23.223828 10.058656 28.554621 -1.053207 1.210811 0.102314 -0.026064 -701.229000 0 0 1
13.163845 -22.575128 11.266956 28.458172 -1.042886 1.163735 0.123239 -0.033733 -6756.270000 0 0 1
12.205445 -23.011928 12.248256 28.784397 -1.083128 1.131263 0.150171 -0.036354 179883.000000 0 0 1
12.297545 -24.418528 12.811256 30.193086 -1.104261 1.132596 0.131932 -0.037611 -223028.000000 0 0 1
13.382445 -24.509328 13.701456 31.105095 -1.071018 1.114653 0.116541 -0.037386 -195242.000000 0 0 1
13.574745 -25.837008 14.197756 32.456139 -1.087036 1.118042 0.113366 -0.049615 -180520.000000 0 0 1
14.911645 -26.049698 14.927956 33.522944 -1.050895 1.109281 0.092416 -0.045229 -237093.000000 0 0 1
15.090645 -25.213298 16.035856 33.475165 -1.031466 1.071239 0.087945 -0.044836 545342.000000 0 0 1
16.139145 -25.836708 16.795156 34.786273 -1.012442 1.066936 0.091971 -0.044781 138087.000000 0 0 1
15.992145 -25.529778 18.278856 35.236839 -1.011183 1.025417 0.112555 -0.042019 24487.700000 0 0 1
16.402145 -24.175328 18.602056 34.633991 -0.974669 1.003796 0.096155 -0.027892 -1398630.000000 0 0 1
17.715545 -24.016728 18.924456 35.338065 -0.935257 1.005666 0.089535 -0.035527 -2037500.000000 0 0 1
18.154145 -22.535428 19.149956 34.700711 -0.892661 0.986203 0.095170 -0.035230 -443514.000000 0 0 1
18.110745 -21.618528 18.059256 33.488753 -0.873462 1.001234 0.081537 -0.023655 275819.000000 0 0 1
16.798145 -21.137428 17.814156 32.346757 -0.899289 0.987564 0.094173 -0.026304 -427815.000000 0 0 1
16.773645 -20.017628 16.739756 31.020639 -0.873343 1.000795 0.098715 -0.020605 22133.800000 0 0 1
17.494645 -18.781128 16.974556 30.772210 -0.820847 0.986492 0.091532 -0.021539 484475.000000 0 0 1
18.874845 -19.064228 16.735256 31.619193 -0.790390 1.013050 0.077168 -0.023629 -357817.000000 0 0 1
19.747945 -17.829728 16.977656 31.561390 -0.734396 1.002823 0.085549 -0.027897 -413997.000000 0 0 1
19.933445 -17.526328 18.323256 32.253002 -0.721228 0.966589 0.090586 -0.023446 90814.200000 0 0 1
20.324345 -16.175028 18.418556 31.842640 -0.672202 0.954001 0.096389 -0.025478 -460436.000000 0 0 1
20.853845 -15.760628 19.792356 32.787461 -0.647181 0.922717 0.087292 -0.017077 -184570.000000 0 0 1
22.021945 -16.501128 20.049256 34.047407 -0.643055 0.941145 0.078537 -0.018945 -284151.000000 0 0 1
22.589545 -16.169328 21.271856 34.988949 -0.621244 0.917309 0.073523 -0.019090 55243.600000 0 0 1
35.987426 -1.237128 -7.979129 36.882134 -0.034363 1.788862 0.190966 -0.034559 -481665.000000 0 0 1
37.272026 -1.055828 -8.479029 38.238889 -0.028320 1.794393 0.214512 -0.032586 -548056.000000 0 0 1
-37.814255 -2.181128 -8.237729 38.762552 0.057616 1.784947 0.241390 -0.036523 -90343.700000 0 0 1
-36.417245 -1.871128 -8.784229 37.508393 0.051335 1.807185 0.224133 -0.044975 235487.000000 0 0 1
-35.398101 -2.870228 -8.582429 36.536583 0.080907 1.807912 0.245590 -0.032561 733682.000000 0 0 1
-34.126977 -2.344528 -8.916429 35.350390 0.068592 1.825780 0.274528 -0.041433 -302388.000000 0 0 1
-32.914225 -3.254528 -8.888529 34.248272 0.098559 1.833334 0.240284 -0.032559 -530149.000000 0 0 1
-32.530645 -3.466028 -7.538629 33.572119 0.106146 1.797278 0.255579 -0.039691 164329.000000 0 0 1
-31.280195 -4.119728 -7.545329 32.440018 0.130950 1.805540 0.237982 -0.048143 -118793.000000 0 0 1
-30.731305 -4.178728 -6.084529 31.605322 0.135147 1.764522 0.247084 -0.068193 -216881.000000 0 0 1
-30.318155 -2.968228 -5.498129 30.955296 0.097592 1.749359 0.229902 -0.059382 526824.000000 0 0 1
-29.920095 -3.175728 -4.142129 30.371937 0.105744 1.707603 0.244465 -0.060463 -267950.000000 0 0 1
-29.702445 -1.843328 -3.424229 29.955942 0.061980 1.685356 0.251946 -0.060405 -535966.000000 0 0 1
-28.431235 -1.266728 -3.636829 28.690874 0.044525 1.697897 0.207723 -0.047892 317206.000000 0 0 1
-28.406115 0.136072 -3.368429 28.605458 -0.004790 1.688825 0.242194 -0.066038 34533.100000 0 0 1
-26.999355 0.713172 -3.044329 27.179804 -0.026408 1.683039 0.235557 -0.040250 261947.000000 0 0 1
-26.551445 0.325872 -1.738429 26.610291 -0.012273 1.636172 0.227402 -0.040558 553286.000000 0 0 1
-25.156425 0.564372 -1.594329 25.213213 -0.022431 1.634072 0.201002 -0.036723 255689.000000 0 0 1
-24.519555 -0.142628 -0.387329 24.523029 0.005817 1.586591 0.185991 -0.038836 -22810.100000 0 1 0
-24.420655 -1.556528 -0.500929 24.475337 0.063652 1.591264 0.171732 -0.040543 488830.000000 0 1 0
-23.711955 -2.068228 0.658771 23.811098 0.087003 1.543126 0.148825 -0.033091 306206.000000 0 1 0
-23.374355 -3.567828 0.745171 23.656821 0.151469 1.539292 0.110862 -0.016763 338583.000000 0 1 0
-24.532655 -4.321828 1.145671 24.936759 0.174377 1.524837 0.138156 -0.037117 687733.000000 0 1 0
-24.377655 -5.688828 1.290771 25.065892 0.229260 1.519278 0.101366 -0.022562 -787097.000000 0 0 1
-25.656405 -6.485528 1.544971 26.508492 0.247597 1.512481 0.162699 -0.030189 -358194.000000 0 0 1
-26.055455 -6.369828 2.924671 26.981756 0.239769 1.462189 0.165579 -0.040940 -370706.000000 0 0 1
-27.194255 -7.136228 3.100371 28.285430 0.256630 1.460965 0.218292 -0.035095 -651392.000000 0 0 1
-27.554985 -7.353928 4.571371 28.883471 0.260803 1.411859 0.198617 -0.040040 -4798.040000 0 0 1
-26.695835 -8.250528 5.269671 28.434280 0.299745 1.384391 0.210846 -0.024684 -102907.000000 0 0 1
-26.947745 -8.482228 6.630971 29.018941 0.304948 1.340255 0.170380 -0.027462 -371026.000000 0 0 1
-26.449645 -7.434428 7.640771 28.517290 0.274009 1.299548 0.138129 -0.010374 368763.000000 0 0 1
-25.025875 -7.365028 7.588371 27.168391 0.286216 1.287722 0.172722 -0.027100 261142.000000 0 0 1
-24.606455 -6.101228 8.061971 26.602594 0.243051 1.262903 0.168092 -0.035832 403464.000000 0 0 1
-23.227755 -5.595228 7.521171 25.048018 0.236382 1.265821 0.186123 -0.045577 471191.000000 0 0 1
-22.128655 -6.265428 8.063171 24.371042 0.275915 1.233592 0.186722 -0.057272 756189.000000 0 1 0
-20.844055 -5.732828 7.674571 22.939900 0.268398 1.229667 0.154384 -0.044331 1276610.000000 0 1 0
-19.634955 -6.205628 8.518471 22.284650 0.306116 1.178558 0.172783 -0.045249 125569.000000 0 1 0
-19.403155 -5.477628 9.695871 22.371785 0.275146 1.122537 0.149229 -0.032799 -179805.000000 0 1 0
-18.375055 -6.026428 10.440871 21.976630 0.316914 1.075730 0.148882 -0.039121 -717878.000000 0 1 0
-17.887255 -4.995928 11.496571 21.842260 0.272360 1.016500 0.121231 -0.024706 -184337.000000 0 1 0
-18.798155 -4.948128 12.574271 23.150959 0.257386 0.996621 0.143232 -0.028130 -76526.500000 0 1 0
-19.331855 -3.675728 12.536271 23.332160 0.187896 1.003569 0.165707 -0.025495 133351.000000 0 1 0
-20.739455 -3.635228 13.214171 24.858685 0.173518 1.010341 0.167739 -0.036014 -8017.270000 0 1 0
-20.673555 -4.033828 14.552671 25.601716 0.192699 0.966205 0.174552 -0.031986 -204350.000000 0 0 1
-21.834455 -4.122228 15.339971 27.000943 0.186598 0.966568 0.146653 -0.018656 -379614.000000 0 0 1
-21.618355 -4.849228 16.727371 27.761002 0.220658 0.924105 0.141336 -0.016892 -679149.000000 0 0 1
-22.665955 -4.619028 17.599271 29.065706 0.201034 0.920403 0.116761 -0.016553 -87697.000000 0 0 1
-22.405655 -5.070628 18.926771 29.764867 0.222561 0.881653 0.126385 -0.015122 -685630.000000 0 0 1
-23.444655 -4.688228 19.977171 31.156359 0.197367 0.874747 0.131581 -0.020977 -574897.000000 0 0 1
-23.440555 -3.319628 20.258471 31.159031 0.140683 0.862996 0.130826 -0.026700 110242.000000 0 0 1
-24.081155 -3.070628 21.486671 32.419251 0.126827 0.846278 0.127757 -0.026511 -211270.000000 0 0 1
-24.165355 -1.571728 21.900171 32.650455 0.064949 0.835582 0.119427 -0.025677 177779.000000 0 0 1
-25.107635 -0.841928 21.112671 32.815348 0.033520 0.871894 0.132466 -0.031776 102041.000000 0 0 1
-25.129765 0.543772 21.406771 33.015915 -0.021635 0.865345 0.122103 -0.030237 -310909.000000 0 0 1
-26.373065 1.288872 20.849671 33.643848 -0.048832 0.902414 0.145736 -0.034639 700526.000000 0 0 1
-27.461535 0.763672 21.650071 34.977774 -0.027802 0.903370 0.146665 -0.035029 -667608.000000 0 0 1
-28.656565 1.397572 21.409071 35.798048 -0.048731 0.929729 0.112967 -0.031488 -207998.000000 0 0 1
-29.732645 1.299672 22.551971 37.340470 -0.043684 0.922342 0.099212 -0.023700 385790.000000 0 0 1
-29.317935 2.068972 23.669271 37.736671 -0.070453 0.892815 0.090826 -0.018727 -101628.000000 0 0 1
-30.124025 1.899572 24.789771 39.058904 -0.062975 0.883206 0.093870 -0.021333 -413158.000000 0 0 1
-29.701495 2.732472 25.982271 39.556588 -0.091740 0.854179 0.114645 -0.026410 -77138.400000 0 0 1
-28.477365 2.432772 26.616971 39.055625 -0.085221 0.820966 0.100125 -0.032510 138415.000000 0 0 1
-28.245545 3.437372 27.576471 39.624337 -0.121101 0.801057 0.094298 -0.035779 615152.000000 0 0 1
-26.906405 3.270972 28.370471 39.236941 -0.120975 0.762582 0.114797 -0.036055 424443.000000 0 0 1
-27.175435 2.285072 29.327871 40.048094 -0.083889 0.749079 0.110046 -0.034488 888451.000000 0 0 1
-26.085685 2.031172 30.225671 39.977241 -0.077709 0.713506 0.093888 -0.032208 352490.000000 0 0 1
-26.426455 0.765772 31.062871 40.790267 -0.028969 0.705131 0.090290 -0.032557 -209284.000000 0 0 1
-26.607835 -0.374228 30.330171 40.348931 0.014064 0.720165 0.081625 -0.037105 -222888.000000 0 0 1
-26.943975 -1.492028 31.072471 41.154616 0.055319 0.715115 0.091196 -0.030906 -332802.000000 0 0 1
-27.798965 -2.441628 30.185271 41.108328 0.087607 0.746182 0.088143 -0.022501 1916220.000000 0 0 1
-29.190935 -2.066128 29.900571 41.838065 0.070662 0.774639 0.106949 -0.028636 1737580.000000 0 0 1
-29.261205 -1.034928 28.920171 41.154167 0.035354 0.791572 0.103621 -0.025756 -52613.000000 0 0 1
-30.707605 -0.643428 28.454671 41.869312 0.020950 0.823570 0.095518 -0.024827 983970.000000 0 0 1
-31.453655 -0.144828 29.577871 43.176427 0.004604 0.816128 0.120699 -0.033073 -805422.000000 0 0 1
-32.782445 0.030672 29.214071 43.910723 -0.000936 0.842893 0.125009 -0.041463 -476241.000000 0 0 1
-33.784075 0.387272 30.329571 45.402605 -0.011463 0.839260 0.120384 -0.032825 133580.000000 0 0 1
-34.036366 -0.753428 31.150971 46.145692 0.022132 0.829754 0.127480 -0.033361 -198473.000000 0 0 1
-34.986248 -0.455028 32.136671 47.508001 0.013005 0.827868 0.142705 -0.034235 -21927.400000 0 0 1
-35.436547 -1.686728 32.967171 48.429622 0.047563 0.822047 0.149752 -0.029438 195655.000000 0 0 1
-36.374035 -2.524428 32.306671 48.715133 0.069291 0.845743 0.099294 -0.026207 222070.000000 0 0 1
-36.293145 -3.779028 32.918471 49.143658 0.103751 0.836801 0.094620 -0.021391 -176921.000000 0 0 1
-37.433425 -4.711828 32.461671 49.771706 0.125214 0.860298 0.089943 -0.023175 -339251.000000 0 0 1
37.303266 -4.329328 33.111371 50.066352 -0.115541 0.848179 0.094276 -0.028836 -140198.000000 0 0 1
36.158216 -4.892328 32.464371 48.839398 -0.134487 0.843682 0.088055 -0.028829 -89438.300000 0 0 1
34.815836 -4.370728 33.016971 48.180557 -0.124885 0.815814 0.099135 -0.033425 -437516.000000 0 0 1
34.283596 -4.955128 -33.198814 47.979991 -0.143540 2.334956 0.105471 -0.033113 47304.800000 0 0 1
33.682776 -6.203428 -33.409814 47.845873 -0.182131 2.343788 0.086265 -0.029065 -141059.000000 0 0 1
32.173856 -6.165028 33.592171 46.921195 -0.189321 0.772845 0.073336 -0.025060 252249.000000 0 0 1
31.293756 -5.908328 -32.681414 45.632032 -0.186606 2.369131 0.090382 -0.021652 1304260.000000 0 0 1
29.954026 -6.283228 -33.083514 45.069297 -0.206765 2.395076 0.102340 -0.024623 1018240.000000 0 0 1
28.770426 -6.195728 -32.073614 43.529773 -0.212111 2.399151 0.100566 -0.041301 631308.000000 0 0 1
27.682526 -6.989728 -32.545814 43.294440 -0.247327 2.421481 0.085661 -0.039474 152114.000000 0 0 1
26.455426 -6.512928 -32.016514 42.040040 -0.241385 2.436532 0.091554 -0.036925 -431373.000000 0 0 1
25.240526 -7.181028 -32.638214 41.879641 -0.277180 2.464398 0.105875 -0.047894 -579643.000000 0 0 1
25.123326 -8.568728 -32.431114 41.909209 -0.328694 2.455681 0.104777 -0.055478 -74750.800000 0 0 1
24.670526 -8.989728 -31.141314 40.733666 -0.349438 2.441078 0.112285 -0.053233 -202847.000000 0 0 1
24.338826 -10.480228 -31.039514 40.812560 -0.406602 2.434938 0.111997 -0.040241 668928.000000 0 0 1
23.148026 -10.804228 -31.788914 40.781093 -0.436692 2.464666 0.133596 -0.053065 538960.000000 0 0 1
22.936326 -12.195828 -31.757814 41.028917 -0.488705 2.455986 0.115102 -0.036542 -673301.000000 0 0 1
21.727926 -12.654428 -32.647414 41.207899 -0.527381 2.485302 0.116811 -0.031233 1342310.000000 0 0 1
20.400926 -12.418928 -32.162614 40.060720 -0.546824 2.502851 0.115223 -0.026933 439304.000000 0 0 1
20.082226 -11.052428 -32.097514 39.442393 -0.503119 2.521427 0.116310 -0.041935 -266138.000000 0 0 1
18.688726 -10.677528 -31.463814 38.121512 -0.519076 2.541629 0.099002 -0.043422 965321.000000 0 0 1
17.547626 -10.989528 -32.240314 38.316142 -0.559511 2.570719 0.075922 -0.017159 -1170940.000000 0 0 1
16.418326 -10.723128 -31.509514 37.113291 -0.578565 2.584903 0.093547 -0.028486 -1400250.000000 0 0 1
15.165726 -11.221528 -32.188614 37.309903 -0.637023 2.611453 0.081822 -0.016619 -1602650.000000 0 0 1
15.122626 -12.665228 -32.346314 37.886487 -0.697193 2.593979 0.103045 -0.021475 296884.000000 0 0 1
14.023126 -13.153728 -33.122814 38.298687 -0.753419 2.615658 0.080840 -0.031930 708123.000000 0 0 1
12.652626 -13.160228 -32.369114 37.162348 -0.805060 2.628069 0.071934 -0.031787 21120.500000 0 0 1
12.200426 -11.846928 -32.056614 36.288106 -0.770699 2.653847 0.167831 -0.037277 -665251.000000 0 0 1
10.997026 -11.975828 -31.349214 35.314703 -0.827979 2.663143 0.157693 -0.041927 192497.000000 0 0 1
9.789726 -11.127228 -31.856914 35.135693 -0.849255 2.706148 0.156918 -0.042399 187358.000000 0 0 1
9.970426 -9.744328 -31.908314 34.820997 -0.773930 2.729670 0.136559 -0.051167 -414317.000000 0 0 1
8.737426 -9.108928 -31.992714 34.392571 -0.806212 2.765813 0.123080 -0.041340 -591838.000000 0 0 1
8.887526 -7.592428 -32.233714 34.287686 -0.706973 2.793708 0.139477 -0.043066 -240235.000000 0 0 1
9.301226 -6.888228 -31.080514 33.165628 -0.637440 2.785111 0.134894 -0.047999 444320.000000 0 0 1
9.836926 -5.576628 -31.426614 33.399042 -0.515731 2.796203 0.109415 -0.036225 65024.700000 0 0 1
9.896026 -4.649228 -30.142914 32.064652 -0.439203 2.793622 0.104826 -0.030389 -480355.000000 0 0 1
8.610026 -4.416328 -29.654414 31.193281 -0.473937 2.826174 0.117314 -0.033482 -494315.000000 0 0 1
8.610026 -3.427128 -28.625214 30.087882 -0.378815 2.828504 0.130037 -0.033285 485619.000000 0 0 1
7.187726 -2.966728 -28.183614 29.236638 -0.391449 2.872388 0.140518 -0.035641 -51489.100000 0 0 1
6.628326 -2.052528 -29.169714 29.983659 -0.300296 2.908055 0.120591 -0.022756 646021.000000 0 0 1
5.338326 -1.550128 -28.826314 29.357401 -0.282605 2.951092 0.147703 -0.032448 1056940.000000 0 0 1
4.069426 -2.455428 -28.900314 29.288522 -0.542904 2.978596 0.136183 -0.033179 63203.700000 0 0 1
4.088826 -3.425028 -27.923214 28.428071 -0.697284 2.952850 0.144795 -0.041828 -662448.000000 0 0 1
2.866326 -4.079328 -27.901414 28.343353 -0.958296 2.964771 0.140648 -0.036264 -334541.000000 0 0 1
2.876526 -5.082328 -26.715814 27.346649 -1.055763 2.926384 0.115268 -0.034119 -5444.190000 0 0 1
2.688926 -4.598428 -25.391814 25.944558 -1.041666 2.934803 0.091649 -0.042583 44289.300000 0 0 1
3.050326 -5.508728 -24.372314 25.172610 -1.065097 2.888760 0.083572 -0.050468 6985.580000 0 0 1
3.073226 -4.850128 -22.970314 23.677073 -1.006010 2.896645 0.096509 -0.058254 401829.000000 0 1 0
4.199326 -4.010328 -22.725314 23.455425 -0.762381 2.891431 0.105949 -0.054661 355770.000000 0 1 0
3.887326 -3.361128 -21.548014 22.152323 -0.712931 2.907479 0.085551 -0.045688 161509.000000 0 1 0
4.916426 -2.250028 -21.138114 21.818656 -0.429202 2.891176 0.088389 -0.045156 -126475.000000 0 1 0
6.156326 -2.840028 -20.803114 21.880029 -0.432227 2.826543 0.086518 -0.047529 -466899.000000 0 1 0
7.007026 -1.761028 -20.470614 21.708194 -0.246224 2.802300 0.093595 -0.034241 400850.000000 0 1 0
8.474826 -2.253728 -20.207514 22.028291 -0.259917 2.732152 0.110495 -0.039078 -454447.000000 0 1 0
9.185326 -2.462028 -21.392614 23.411017 -0.261883 2.723301 0.122427 -0.053156 -203348.000000 0 1 0
10.465926 -3.008128 -21.220014 23.851068 -0.279877 2.667458 0.110967 -0.049363 790229.000000 0 1 0
11.612826 -2.275028 -20.415714 23.597349 -0.193456 2.616285 0.115442 -0.040599 -416528.000000 0 1 0
11.436226 -2.157828 -19.033814 22.309854 -0.186491 2.592804 0.097568 -0.030131 467258.000000 0 1 0
12.587026 -1.769728 -18.286714 22.270363 -0.139684 2.534173 0.112265 -0.031632 340527.000000 0 1 0
13.093426 -0.295128 -18.347414 22.542238 -0.022536 2.521652 0.107834 -0.032766 95048.600000 0 1 0
13.675626 0.156172 -19.553414 23.861751 0.011419 2.531240 0.129106 -0.039438 333899.000000 0 1 0
13.971626 1.535272 -19.518314 24.052609 0.109446 2.517484 0.150864 -0.047333 -96704.100000 0 1 0
14.350126 2.212972 -20.850814 25.408263 0.153007 2.533311 0.122304 -0.040573 -946020.000000 0 0 1
15.686226 2.272872 -21.192314 26.463896 0.143895 2.499428 0.138918 -0.039914 -800910.000000 0 0 1
15.929826 3.235372 -22.220414 27.531324 0.200376 2.510013 0.120143 -0.030467 -7704.150000 0 0 1
17.401526 3.149572 -22.663214 28.746377 0.179056 2.478976 0.086900 -0.015153 1381.720000 0 0 1
17.796826 1.968872 -23.359314 29.432313 0.110182 2.487602 0.071782 -0.012549 58012.100000 0 0 1
19.189726 1.866472 -23.548114 30.434240 0.096959 2.455516 0.083857 -0.021151 -182618.000000 0 0 1
10.193845 26.601472 2.935771 28.638637 1.204851 1.468105 0.028684 -0.020595 30842.300000 0 0 1
10.066045 26.687772 4.344071 28.851921 1.210117 1.419657 0.037820 -0.022259 247688.000000 0 0 1
11.256045 27.181372 4.956171 29.834362 1.178187 1.403900 0.039391 -0.022185 124791.000000 0 0 1
11.083845 27.626172 6.428971 30.453056 1.189249 1.358085 0.039220 -0.028532 -74783.500000 0 0 1
10.949045 26.634672 7.414871 29.736638 1.180773 1.318786 0.037078 -0.038943 142130.000000 0 0 1
10.759345 27.212772 8.700371 30.528591 1.194280 1.281799 0.033058 -0.031608 -718501.000000 0 0 1
10.985245 26.288072 9.850371 30.145781 1.174972 1.237925 0.062181 -0.029205 -578113.000000 0 0 1
12.233945 25.788972 10.197471 30.310541 1.127849 1.227670 0.055834 -0.029423 -434862.000000 0 0 1
12.828045 24.901072 9.278271 29.507769 1.095094 1.250935 0.074459 -0.039058 -165937.000000 0 0 1
14.132145 24.181772 9.741071 29.654073 1.041917 1.236092 0.093547 -0.037567 -315590.000000 0 0 1
15.156145 25.076072 9.876371 30.920233 1.027143 1.245685 0.096119 -0.034043 -582747.000000 0 0 1
16.413845 24.482072 10.176371 31.182441 0.980184 1.238357 0.088420 -0.029858 747323.000000 0 0 1
17.472645 25.576272 10.579771 32.731797 0.971463 1.241660 0.078112 -0.027560 -221289.000000 0 0 1
18.093245 26.176572 9.439071 33.191482 0.966001 1.282434 0.067461 -0.032387 -433245.000000 0 0 1
19.477145 26.193872 9.489171 33.992976 0.931419 1.287887 0.075369 -0.038155 -336242.000000 0 0 1
20.306645 26.998072 10.545571 35.390179 0.925920 1.268220 0.071803 -0.037458 -364957.000000 0 0 1
20.401245 28.402972 10.315671 36.460289 0.947908 1.283950 0.081210 -0.050863 830620.000000 0 0 1
19.200745 29.068872 10.769271 36.464299 0.987057 1.270988 0.064283 -0.028213 782536.000000 0 0 1
19.385145 30.600972 10.970971 37.849247 1.006121 1.276716 0.069240 -0.020666 -787026.000000 0 0 1
19.534045 31.517172 9.860271 38.368424 1.015952 1.310891 0.094013 -0.045316 14321.100000 0 0 1
18.529745 31.538872 8.868971 37.639215 1.039603 1.332928 0.089025 -0.049508 711732.000000 0 0 1
17.130845 32.098772 9.319171 37.558540 1.080560 1.320053 0.083060 -0.040246 321172.000000 0 0 1
17.202645 33.500672 9.607971 38.865654 1.096406 1.320997 0.082891 -0.032349 -635398.000000 0 0 1
15.962845 -33.598307 9.861371 38.482532 -1.127259 1.311650 0.083429 -0.021075 -578137.000000 0 0 1
16.215945 -32.040307 10.131571 37.312020 -1.102272 1.295807 0.081745 -0.013975 -59865.000000 0 0 1
16.705945 -31.367807 9.060671 36.675927 -1.081424 1.321165 0.083026 -0.019801 -247340.000000 0 0 1
17.129945 -30.054707 9.313371 35.825400 -1.052759 1.307810 0.075919 -0.021022 777277.000000 0 0 1
18.020945 -29.422307 8.077671 35.435510 -1.021242 1.340820 0.055912 -0.019128 800774.000000 0 0 1
17.318945 -29.442107 6.879471 34.844090 -1.039071 1.372055 0.051842 -0.021468 -64454.000000 0 0 1
18.190845 -29.077107 5.823071 34.789267 -1.011761 1.402623 0.029935 -0.007395 258142.000000 0 0 1
17.595245 -29.305407 4.345071 34.456917 -1.030076 1.444358 0.035326 -0.007698 -117469.000000 0 0 1
17.575445 -30.644907 3.881171 35.539697 -1.050076 1.461371 0.041911 -0.011923 -69205.900000 0 0 1
17.273545 -30.735407 2.482571 35.344076 -1.058781 1.500498 0.040826 -0.008968 -131283.000000 0 0 1
17.578745 -32.145107 2.011071 36.692841 -1.070370 1.515961 0.041949 -0.007483 -731844.000000 0 0 1
18.923845 -32.495707 2.033971 37.659260 -1.043457 1.516760 0.048328 0.001307 -548664.000000 0 0 1
19.147945 33.817372 1.584871 38.894347 1.055588 1.530037 0.074029 -0.010316 993083.000000 0 0 1
20.613645 33.231572 1.735271 39.144232 1.015582 1.526452 0.079215 -0.014165 1137350.000000 0 0 1
20.951945 32.815172 3.061071 39.053676 1.002560 1.492335 0.078188 -0.035027 399642.000000 0 0 1
22.345945 32.518872 3.102171 39.578299 0.968734 1.492335 0.066216 -0.022796 510018.000000 0 0 1
22.844945 32.431772 4.586371 39.934272 0.957123 1.455694 0.066333 -0.021040 -147486.000000 0 0 1
22.237545 31.469872 5.410771 38.911922 0.955635 1.431293 0.089176 -0.036513 -37811.000000 0 0 1
22.934145 30.249272 5.408571 38.343788 0.922086 1.429270 0.072468 -0.046194 -20876.700000 0 0 1
22.179045 29.237672 6.273571 37.230487 0.921828 1.401482 0.091051 -0.051984 -11084.400000 0 0 1
20.990345 28.829372 5.662971 36.108122 0.941466 1.413312 0.090769 -0.050649 -391781.000000 0 0 1
19.990545 28.414272 6.590471 35.361377 0.957699 1.383325 0.086915 -0.058010 524655.000000 0 0 1
18.540645 28.381072 6.018571 34.430567 0.992122 1.395091 0.098289 -0.051729 347074.000000 0 0 1
18.047845 29.755672 5.814071 35.283539 1.025586 1.405260 0.091225 -0.053203 270754.000000 0 0 1
18.610145 30.483372 4.728171 36.026782 1.022691 1.439176 0.103101 -0.047635 -437047.000000 0 0 1
18.505645 31.989472 5.030971 37.297397 1.046342 1.435496 0.105639 -0.042447 -348526.000000 0 0 1
17.200045 32.469572 5.105471 37.096906 1.083650 1.432733 0.091864 -0.041268 -621138.000000 0 0 1
17.211345 -33.773707 5.338371 38.280437 -1.099492 1.430886 0.082085 -0.041206 1003680.000000 0 0 1
15.817045 -33.030207 5.614871 37.049969 -1.124198 1.418662 0.069798 -0.032638 1397240.000000 0 0 1
15.041245 -33.052807 4.380471 36.577528 -1.143737 1.450750 0.071805 -0.023269 -819382.000000 0 0 1
13.947345 -32.246107 4.640771 35.438349 -1.162567 1.439466 0.068358 -0.019567 -823983.000000 0 0 1
13.025945 -32.255207 3.402971 34.952164 -1.186984 1.473281 0.071189 -0.019720 -685497.000000 0 0 1
12.185345 -31.177207 3.356171 33.641711 -1.198210 1.470868 0.084306 -0.027092 -313275.000000 0 0 1
11.601545 -30.960907 2.060971 33.127348 -1.212275 1.508543 0.075814 -0.019707 -129094.000000 0 0 1
10.660845 -29.709207 1.980771 31.626160 -1.226268 1.508125 0.092254 -0.021611 400538.000000 0 0 1
9.937145 -29.455007 0.779571 31.095852 -1.245420 1.545724 0.094165 -0.016123 573254.000000 0 0 1
8.775845 -30.281807 0.647571 31.534467 -1.288718 1.550260 0.077216 -0.019107 -228472.000000 0 0 1
8.914045 -31.024707 -0.657029 32.286596 -1.291012 1.591148 0.089659 -0.019692 -258821.000000 0 0 1
10.071545 -31.809107 -0.808629 33.375278 -1.264158 1.595027 0.082647 -0.025456 -270589.000000 0 0 1
10.125845 -32.626207 -1.945429 34.216762 -1.269863 1.627683 0.070376 -0.010574 735432.000000 0 0 1
11.491345 -33.420307 -2.007129 35.397690 -1.239617 1.627529 0.071861 -0.007131 798689.000000 0 0 1
11.650145 33.261172 -1.011329 35.256974 1.233888 1.599485 0.073297 -0.007523 1325130.000000 0 0 1
12.902045 32.538572 -1.278129 35.026490 1.193298 1.607295 0.084927 -0.012922 1264990.000000 0 0 1
13.273345 31.585272 -0.115229 34.261120 1.172966 1.574160 0.073357 -0.018135 -346651.000000 0 0 1
13.527445 32.172172 1.169371 34.920020 1.172769 1.537303 0.071497 -0.021882 10691.000000 0 0 1
14.802345 32.685272 1.499471 35.912182 1.145554 1.529030 0.082161 -0.018870 320812.000000 0 0 1
15.915745 31.604872 1.730671 35.428436 1.104285 1.521927 0.089122 -0.027193 -176677.000000 0 0 1
16.511345 31.097572 0.576971 35.213866 1.082694 1.554411 0.092546 -0.026875 -26107.200000 0 0 1
17.584745 30.238772 0.879271 34.991137 1.044069 1.545665 0.098968 -0.027833 153758.000000 0 0 1
18.267345 29.441472 -0.282929 34.649332 1.015466 1.578962 0.098376 -0.021066 536427.000000 0 0 1
19.275145 30.177372 -0.996829 35.821762 1.002386 1.598627 0.084717 -0.009977 642745.000000 0 0 1
18.760845 31.250772 -1.880329 36.498160 1.030133 1.622338 0.074936 -0.012859 63973.900000 0 0 1
19.900345 31.942072 -2.664529 37.728230 1.013627 1.641479 0.061541 -0.000207 272276.000000 0 0 1
20.713845 32.677972 -1.743729 38.729237 1.005838 1.615835 0.053833 0.004629 67673.800000 0 0 1
21.478045 33.663172 -2.364129 40.001308 1.002883 1.629932 0.062264 0.010195 -741776.000000 0 0 1
22.476445 -33.118607 -1.507629 40.053784 -0.974533 1.608445 0.060517 0.009789 69943.100000 0 0 1
23.549545 -33.770707 -0.850329 41.179664 -0.961860 1.591447 0.050984 0.005259 591221.000000 0 0 1
24.481545 33.124672 -1.627629 41.221828 0.934325 1.610291 0.051566 0.005139 -224527.000000 0 0 1
25.285445 33.766172 -2.778529 42.275623 0.928038 1.636568 0.056062 -0.004737 -1135690.000000 0 0 1
24.491245 -33.360807 -3.819629 41.561449 -0.937528 1.662829 0.037415 -0.006741 -440209.000000 0 0 1
25.216245 -32.797707 -4.893329 41.659251 -0.915345 1.688529 0.041097 -0.010909 34331.700000 0 0 1
24.355345 -32.216807 -6.063929 40.839646 -0.923477 1.719829 0.046890 -0.015943 97314.300000 0 0 1
23.449045 -31.167207 -5.819029 39.434928 -0.925785 1.718897 0.054533 -0.015021 80177.800000 0 0 1
22.737845 -30.898007 -7.005229 38.997046 -0.936380 1.751412 0.058385 -0.023584 -145731.000000 0 0 1
21.726545 -29.740007 -6.917729 37.474868 -0.939860 1.756458 0.073802 -0.021984 134815.000000 0 0 1
20.547045 -30.110207 -6.224329 36.980371 -0.971984 1.739916 0.063042 -0.013287 -396538.000000 0 0 1
19.643545 -29.050707 -6.360229 35.640776 -0.976236 1.750211 0.072182 -0.024471 -125460.000000 0 0 1
18.375645 -29.051007 -5.490529 34.810504 -1.006800 1.729184 0.066744 -0.009920 251538.000000 0 0 1
17.427345 -30.061207 -5.822529 35.231950 -1.045416 1.736821 0.074362 -0.013979 102488.000000 0 0 1
16.382445 -29.992107 -4.866529 34.519474 -1.070856 1.712247 0.061793 -0.012920 623685.000000 0 0 1
15.105945 -30.885807 -5.024429 34.747194 -1.115915 1.715905 0.060722 -0.009621 529404.000000 0 0 1
15.320045 -32.273407 -4.967829 36.068766 -1.127596 1.708968 0.055987 0.002286 278035.000000 0 0 1
14.087445 -32.963007 -5.141429 36.213950 -1.166919 1.713251 0.059858 0.003650 454931.000000 0 0 1
14.349745 33.153372 -5.231529 36.502467 1.162313 1.714611 0.065656 -0.001016 120491.000000 0 0 1
14.578445 32.595072 -3.935129 35.922903 1.150224 1.680560 0.075572 -0.006960 -32469.100000 0 0 1
15.207945 31.332172 -4.020329 35.059230 1.118915 1.685722 0.081828 -0.011178 384464.000000 0 0 1
14.346945 30.117972 -4.655829 33.683880 1.126240 1.709462 0.088093 -0.015579 968113.000000 0 0 1
13.248245 29.571872 -3.920729 32.640216 1.149606 1.691207 0.080801 -0.014250 433383.000000 0 0 1
13.604945 28.851672 -2.727629 32.014894 1.130168 1.656098 0.090362 -0.026109 19136.200000 0 0 1
12.392645 28.128372 -2.079829 30.807606 1.155808 1.638358 0.066665 -0.022474 490891.000000 0 0 1
11.412045 28.952872 -1.479029 31.155915 1.195335 1.618286 0.053997 -0.022091 -327002.000000 0 0 1
10.525245 28.170372 -0.743629 30.081616 1.213229 1.595519 0.039995 -0.020944 -68657.500000 0 0 1
9.304045 28.895472 -0.133829 30.356736 1.259290 1.575205 0.034422 -0.009909 446902.000000 0 0 1
8.435245 28.113172 0.660071 29.358806 1.279297 1.548312 0.029363 -0.016319 -292513.000000 0 0 1
7.279345 28.831372 1.009871 29.753263 1.323485 1.536848 0.036450 -0.015792 -279273.000000 0 0 1
6.301245 28.038672 1.876971 28.799233 1.349735 1.505576 0.042187 -0.022742 -61967.200000 0 0 1
5.720645 26.930972 1.216471 27.558716 1.361489 1.526641 0.060871 -0.033258 -854223.000000 0 0 1
4.478445 26.618472 1.730071 27.047969 1.404112 1.506790 0.064640 -0.035860 -659980.000000 0 0 1
3.901945 25.442772 0.940971 25.757430 1.418620 1.534256 0.072105 -0.037589 425328.000000 0 0 1
2.490245 25.274972 1.058371 25.419395 1.472587 1.529148 0.079046 -0.031200 477340.000000 0 0 1
2.145145 24.090572 0.390271 24.189039 1.481986 1.554661 0.077743 -0.036089 188649.000000 0 1 0
0.642245 23.742872 0.531371 23.757499 1.543753 1.548428 0.070617 -0.028349 -148199.000000 0 1 0
-0.276855 24.565572 -0.151929 24.567601 -1.559527 1.576980 0.082484 -0.038794 -36691.200000 0 1 0
-1.578455 24.002072 -0.055629 24.053982 -1.505128 1.573109 0.061101 -0.029948 297087.000000 0 1 0
-2.457355 24.655272 1.028871 24.798782 -1.471456 1.529296 0.098658 -0.044373 349231.000000 0 1 0
-3.862055 24.348972 0.932771 24.670994 -1.413494 1.532979 0.090424 -0.034119 384230.000000 0 1 0
-4.502955 24.937172 1.978671 25.417598 -1.392149 1.492871 0.082077 -0.042228 139418.000000 0 0 1
-6.017555 25.175572 1.679371 25.939172 -1.336175 1.506008 0.093999 -0.042188 520302.000000 0 0 1
-6.193255 26.299472 0.806571 27.030893 -1.339520 1.540953 0.126677 -0.046132 -134478.000000 0 0 1
-7.558955 26.394672 0.477071 27.459863 -1.291880 1.553422 0.135321 -0.037822 -246156.000000 0 0 1
-7.745855 27.333672 -0.720029 28.419119 -1.294655 1.596135 0.140863 -0.041340 -300898.000000 0 0 1
-7.539855 28.687772 -0.320029 29.663784 -1.313784 1.581585 0.165187 -0.055205 72535.900000 0 0 1
-7.583155 29.558972 -1.432429 30.549777 -1.319669 1.617702 0.166167 -0.052641 118961.000000 0 0 1
-7.330855 30.989272 -0.947929 31.858672 -1.338506 1.600555 0.145491 -0.057299 -377445.000000 0 0 1
-7.845255 32.003372 -1.852729 33.002976 -1.330398 1.626964 0.133311 -0.038166 187746.000000 0 0 1
-7.165955 32.218172 -3.104329 33.151144 -1.351939 1.664575 0.122033 -0.036659 1245860.000000 0 0 1
-5.603555 32.507072 -3.131829 33.134844 -1.400094 1.665455 0.160388 -0.043423 1001260.000000 0 0 1
-5.228455 -33.818707 -2.628629 34.321296 1.417408 1.647460 0.165539 -0.048339 156640.000000 0 0 1
-4.923355 33.705872 -1.244729 34.086281 -1.425754 1.607321 0.181354 -0.051423 -321637.000000 0 0 1
-4.555755 -32.601507 -0.602429 32.923792 1.431955 1.589095 0.180720 -0.050086 25426.300000 0 0 1
-5.625355 -31.686707 -0.702529 32.189836 1.395096 1.592623 0.164143 -0.041271 -101714.000000 0 0 1
-5.625755 -30.890907 -1.863529 31.454252 1.390654 1.630077 0.173700 -0.039591 -215649.000000 0 0 1
-6.783455 -29.890307 -1.976729 30.714055 1.347631 1.635200 0.165637 -0.035052 -169773.000000 0 0 1
-7.164955 -29.178407 -0.810929 30.056174 1.330004 1.597780 0.152253 -0.029981 208262.000000 0 0 1
-8.338855 -28.392007 -0.993529 29.607932 1.285125 1.604359 0.099704 -0.025411 389577.000000 0 0 1
-8.907455 -27.788707 0.317371 29.183141 1.260602 1.559921 0.090224 -0.019859 -597590.000000 0 0 1
-8.136755 -26.746307 0.818571 27.968585 1.275473 1.541525 0.116166 -0.035951 -643657.000000 0 0 1
-8.388555 -26.510107 2.176671 27.890706 1.264336 1.492674 0.111353 -0.018136 84497.400000 0 0 1
-9.149255 -25.181507 2.368171 26.896568 1.222294 1.482635 0.106370 -0.018232 67767.800000 0 0 1
-8.324355 -24.053407 2.589671 25.584520 1.237620 1.469402 0.113011 -0.033088 -632280.000000 0 0 1
-9.065155 -22.965907 3.030571 24.875576 1.194848 1.448664 0.108653 -0.040116 -327367.000000 0 1 0
-8.258155 -21.700807 3.379871 23.463709 1.207172 1.426247 0.071164 -0.018008 -65291.800000 0 1 0
-7.659355 -21.865407 4.621871 23.624636 1.233858 1.373889 0.081542 -0.018389 -578990.000000 0 1 0
-7.151255 -20.640007 5.200671 22.454338 1.237265 1.337063 0.055273 -0.017844 -290669.000000 0 1 0
-8.104455 -19.668307 5.867171 22.066902 1.179940 1.301679 0.062828 -0.018904 -369823.000000 0 1 0
-8.754255 -20.142807 7.045271 23.065244 1.160815 1.260386 0.079474 -0.020440 160534.000000 0 1 0
-9.276255 -19.091207 7.856671 22.632948 1.118499 1.216283 0.057913 -0.017961 -412511.000000 0 1 0
-28.309805 29.322672 -5.076229 41.073498 -0.802971 1.694702 0.244950 -0.006409 -1107390.000000 0 0 1
-27.158895 30.047672 -5.051229 40.816456 -0.835853 1.694869 0.223979 -0.028605 -1162830.000000 0 0 1
-26.156045 29.254372 -4.440129 39.492679 -0.841256 1.683464 0.194094 -0.018814 167541.000000 0 0 1
-25.140595 30.066272 -3.593629 39.356631 -0.874385 1.662233 0.162927 -0.019701 -79623.600000 0 0 1
-25.751815 30.474572 -2.367229 39.968228 -0.869197 1.630059 0.134144 -0.029859 470963.000000 0 0 1
-25.001125 31.372572 -1.560729 40.146362 -0.897942 1.609682 0.124381 -0.027155 -240193.000000 0 0 1
-23.818055 30.880872 -0.728329 39.005877 -0.913809 1.589470 0.101724 -0.018171 -82646.500000 0 0 1
-22.762255 30.402172 -1.527529 38.009810 -0.928125 1.610995 0.117883 -0.024105 235174.000000 0 0 1
-21.562755 30.139672 -0.779829 37.066971 -0.949791 1.591836 0.090035 -0.022664 652931.000000 0 0 1
-20.546955 29.512072 -1.782529 36.004405 -0.962610 1.620325 0.099301 -0.019275 207997.000000 0 0 1
-19.254955 29.454072 -1.220029 35.210568 -0.991805 1.605453 0.099414 -0.016950 333923.000000 0 0 1
-18.248055 28.726772 -1.937629 34.087730 -1.004876 1.627669 0.098871 -0.016538 -431193.000000 0 0 1
-16.859755 28.958372 -1.442429 33.539816 -1.043563 1.613816 0.112498 -0.032584 -1204900.000000 0 0 1
-16.570855 28.399372 -0.167929 32.880781 -1.042602 1.575904 0.111798 -0.041887 -207674.000000 0 0 1
-15.220855 28.595272 0.153871 32.394254 -1.081655 1.566046 0.129241 -0.061590 -322725.000000 0 0 1
-14.748055 27.880972 1.433671 31.573868 -1.084246 1.525374 0.129780 -0.061484 -377601.000000 0 0 1
-15.465355 28.293372 2.571171 32.346607 -1.070562 1.491224 0.124358 -0.063410 131464.000000 0 0 1
-14.944655 27.726472 3.789571 31.724766 -1.076435 1.451059 0.118556 -0.066662 432118.000000 0 0 1
-13.707655 28.430772 4.426471 31.871652 -1.121537 1.431462 0.106096 -0.061386 152103.000000 0 0 1
-13.922655 29.652072 5.091271 33.151270 -1.131817 1.416609 0.088983 -0.043032 -342345.000000 0 0 1
-13.886955 30.832872 4.275471 34.085087 -1.147614 1.445030 0.098098 -0.039070 -122519.000000 0 0 1
-13.750555 32.137572 5.178971 35.337275 -1.166501 1.423708 0.092973 -0.040886 653027.000000 0 0 1
-14.956355 32.565472 5.874871 36.314138 -1.140260 1.408303 0.098432 -0.046303 930244.000000 0 0 1
-14.721655 33.725872 6.685671 37.401333 -1.159218 1.391076 0.091614 -0.046591 -359157.000000 0 0 1
-15.880355 -33.531107 7.617671 37.875450 1.128490 1.368291 0.093903 -0.044202 38392.900000 0 0 1
-16.106955 33.124272 8.646371 37.833994 -1.118202 1.340224 0.084418 -0.047945 539783.000000 0 0 1
-17.351155 33.507072 9.259671 38.852644 -1.092982 1.330153 0.085839 -0.039891 163795.000000 0 0 1
-17.559055 32.907572 10.682371 38.798734 -1.080641 1.291866 0.077184 -0.020211 296403.000000 0 0 1
-16.668755 33.325772 11.703871 39.056818 -1.107008 1.266457 0.078624 -0.023690 436483.000000 0 0 1
-15.309955 32.894972 11.567771 38.082636 -1.135194 1.262165 0.094901 -0.031709 18239.200000 0 0 1
-14.599855 33.028272 12.909371 38.349372 -1.154581 1.227466 0.083717 -0.026100 -461283.000000 0 0 1
-14.940255 32.223972 14.048571 38.196308 -1.136659 1.194155 0.063225 -0.021115 224345.000000 0 0 1
-14.291055 30.918872 14.040271 36.842097 -1.137834 1.179818 0.053322 -0.025696 13014.000000 0 0 1
-14.955755 29.835972 13.224471 35.899115 -1.106137 1.193532 0.054325 -0.029474 -23290.200000 0 0 1
-14.665455 29.997472 11.849571 35.430724 -1.116076 1.229782 0.060032 -0.027499 201.000000 0 0 1
-15.728555 29.374872 11.180771 35.146553 -1.079198 1.247052 0.039283 -0.022603 -153861.000000 0 0 1
-15.572655 29.109772 9.678271 34.402839 -1.079571 1.285625 0.061172 -0.021004 -78993.700000 0 0 1
-14.854055 27.915372 9.402671 32.989713 -1.081792 1.281771 0.043851 -0.024763 13501.800000 0 0 1
-14.586955 27.867472 8.055471 32.469460 -1.088573 1.320084 0.057493 -0.031616 -295357.000000 0 0 1
-13.760155 26.629272 7.596871 30.922038 -1.093854 1.322577 0.065366 -0.034659 -527297.000000 0 0 1
-12.529055 26.671872 8.264271 30.604969 -1.131642 1.297372 0.053239 -0.032751 -597182.000000 0 0 1
-11.656155 25.634272 8.009971 29.276978 -1.144033 1.293670 0.067212 -0.030915 121684.000000 0 0 1
-10.664955 25.752872 6.801371 28.691642 -1.178171 1.331468 0.100196 -0.044399 -467540.000000 0 0 1
-11.341055 25.886272 5.606871 28.812421 -1.157873 1.374948 0.110304 -0.052574 -496715.000000 0 0 1
-10.492255 25.648572 4.559871 28.084321 -1.182489 1.407711 0.131004 -0.043104 -651693.000000 0 0 1
-10.850955 26.275272 3.189371 28.606034 -1.179157 1.459071 0.139369 -0.052921 -267955.000000 0 0 1
-10.570955 27.643172 3.032271 29.750373 -1.205547 1.468695 0.136577 -0.049105 -69042.600000 0 0 1
-10.896155 28.114472 1.758071 30.203320 -1.201056 1.512556 0.150949 -0.059587 -132822.000000 0 0 1
-10.460655 29.588272 1.439871 31.415989 -1.230971 1.524948 0.174323 -0.061091 315620.000000 0 0 1
-11.242555 30.575372 2.106671 32.644853 -1.218441 1.506218 0.146197 -0.059434 62926.500000 0 0 1
-10.720655 31.891972 1.832771 33.695539 -1.246508 1.516377 0.130432 -0.053028 -523442.000000 0 0 1
-11.321655 33.061172 2.606871 35.043069 -1.240867 1.496337 0.105732 -0.045382 -161144.000000 0 0 1
-12.679555 33.367172 2.361771 35.773135 -1.207649 1.504727 0.124507 -0.045851 -234236.000000 0 0 1
-12.858255 -33.644207 1.125471 36.035178 1.205743 1.539559 0.111173 -0.035154 -1347530.000000 0 0 1
-14.311355 -33.642007 0.712971 36.566485 1.168586 1.551297 0.123584 -0.031069 -707782.000000 0 0 1
-14.804555 32.695772 0.376571 35.893316 -1.145619 1.560305 0.105808 -0.027141 -35250.100000 0 0 1
-15.774755 32.742572 -0.660129 36.350442 -1.121830 1.588957 0.117199 -0.029758 -295067.000000 0 0 1
-15.248855 32.853272 -2.151229 36.283506 -1.136238 1.630121 0.119839 -0.034512 29195.800000 0 0 1
-14.515955 31.743472 -2.649629 35.005449 -1.141897 1.646561 0.115875 -0.033752 -233619.000000 0 0 1
-13.145655 31.860772 -2.365429 34.547247 -1.179478 1.639319 0.140952 -0.033532 -419546.000000 0 0 1
-12.320555 30.564572 -2.627129 33.058901 -1.187621 1.650348 0.110299 -0.038671 185179.000000 0 0 1
-12.179555 30.215472 -4.031129 32.826305 -1.187629 1.693909 0.099650 -0.031089 92994.300000 0 0 1
-10.848755 29.965072 -4.470729 32.180560 -1.223430 1.710174 0.091704 -0.039670 478140.000000 0 0 1
-10.670955 29.312472 -5.831429 31.734773 -1.221668 1.755602 0.086646 -0.032779 -25297.800000 0 0 1
-11.113555 27.933872 -5.871329 30.631435 -1.192143 1.763666 0.083125 -0.025594 -27547.900000 0 0 1
-10.827055 27.361172 -7.136729 30.278569 -1.193995 1.808738 0.068748 -0.015947 318811.000000 0 0 1
-11.376155 25.871872 -7.287029 29.186837 -1.156531 1.823134 0.084447 -0.022866 335183.000000 0 0 1
-10.731455 24.928072 -6.488329 27.904682 -1.164279 1.805462 0.059199 -0.017483 -292333.000000 0 0 1
-11.204655 23.656372 -6.819329 27.049426 -1.128456 1.825653 0.087792 -0.022280 233119.000000 0 0 1
-10.583655 22.493472 -5.923829 25.555073 -1.131009 1.804731 0.079290 -0.023620 1772740.000000 0 0 1
-9.135655 22.346572 -6.142129 24.910946 -1.182712 1.819929 0.073921 -0.018132 1761420.000000 0 1 0
-8.677055 21.069172 -5.711729 23.490958 -1.180128 1.816404 0.076712 -0.015965 -139747.000000 0 1 0
-8.481955 20.817472 -4.159629 22.860735 -1.183889 1.753771 0.085934 -0.032807 334547.000000 0 1 0
-9.685355 20.867972 -3.377129 23.252599 -1.136258 1.716548 0.090762 -0.033024 317172.000000 0 1 0
-10.296055 19.605572 -3.247529 22.381547 -1.087224 1.716409 0.082189 -0.028126 -353243.000000 0 1 0
-11.530255 19.647572 -2.361629 22.903082 -1.040099 1.674094 0.067989 -0.024382 -468759.000000 0 1 0
-11.190055 19.703772 -0.985729 22.680997 -1.054303 1.614271 0.062629 -0.019249 119049.000000 0 1 0
-11.247055 18.433972 -0.415629 21.598155 -1.022964 1.590041 0.069333 -0.008895 -161802.000000 0 1 0
-11.247655 18.250872 1.133271 21.468311 -1.018492 1.517984 0.069255 -0.019039 -214434.000000 0 1 0
-12.464655 18.546972 1.764071 22.415837 -0.979070 1.492017 0.090679 -0.017107 -309123.000000 0 1 0
-12.299355 18.681772 3.157571 22.588780 -0.988566 1.430552 0.087070 -0.010155 53448.500000 0 1 0
-13.537155 18.520872 4.068171 23.298654 -0.939623 1.395287 0.093932 -0.025641 96681.500000 0 1 0
-14.017655 17.193372 4.203471 22.578216 -0.886799 1.383530 0.070923 -0.023096 70395.600000 0 1 0
-15.250155 17.179172 4.895971 23.487480 -0.844812 1.360806 0.093612 -0.033051 122971.000000 0 1 0
-15.486655 15.766072 5.444871 22.760758 -0.794338 1.329232 0.061762 -0.031419 -473310.000000 0 1 0
-14.759855 15.327872 6.562071 22.267864 -0.804275 1.271667 0.063026 -0.022670 -238730.000000 0 1 0
-15.252555 15.846472 7.794371 23.334595 -0.804493 1.230224 0.063104 -0.023481 -791131.000000 0 1 0
-14.199455 15.860572 8.970171 23.100784 -0.840602 1.172004 0.068162 -0.016666 1770460.000000 0 1 0
-13.062255 16.766172 8.818571 23.010741 -0.908940 1.177498 0.070434 -0.026454 862595.000000 0 1 0
-12.266155 16.512472 7.687671 21.959521 -0.931892 1.213136 0.063209 -0.026431 -1702740.000000 0 1 0
-11.146355 17.528772 7.459971 22.071480 -1.004405 1.226014 0.071643 -0.025957 -1033900.000000 0 1 0
-10.074855 17.320172 8.266571 21.675499 -1.043954 1.179509 0.068111 -0.030196 -1306520.000000 0 1 0
-9.163555 18.374172 8.173671 22.099543 -1.108174 1.191941 0.057983 -0.033080 -673719.000000 0 1 0
-7.954155 18.294472 9.090371 21.922388 -1.160667 1.143226 0.055989 -0.033478 -145174.000000 0 1 0
-6.964055 17.286572 8.664771 20.552418 -1.187828 1.135594 0.041582 -0.027173 2025750.000000 0 1 0
-5.645855 17.522772 9.252171 20.604026 -1.259098 1.105098 0.036824 -0.029073 1761140.000000 0 1 0
-4.824255 18.740372 8.746671 21.236271 -1.318841 1.146287 0.024685 -0.023732 -1022390.000000 0 1 0
-5.304355 20.026472 9.114871 22.633529 -1.311875 1.156315 0.035667 -0.029613 -370941.000000 0 1 0
-4.820655 21.176172 8.472171 23.311942 -1.346966 1.198853 0.037765 -0.024317 80774.400000 0 1 0
-3.396755 21.744472 8.721071 23.673130 -1.415836 1.193514 0.035046 -0.019153 1459650.000000 0 1 0
-2.272255 20.895572 8.317971 22.604794 -1.462479 1.193967 0.028302 -0.006101 252200.000000 0 1 0
-1.106355 21.638172 8.229771 23.176790 -1.519711 1.207789 0.030033 -0.006003 -637446.000000 0 1 0
0.122845 20.742572 8.002071 22.232915 1.564874 1.202614 0.024333 -0.001502 180399.000000 0 1 0
0.688645 20.156272 9.175471 22.157138 1.536644 1.143833 0.015150 -0.001307 -227600.000000 0 1 0
2.060045 19.860372 8.999071 21.901174 1.467440 1.147361 0.006600 0.004509 13536.300000 0 1 0
2.690045 19.294472 10.268371 22.021635 1.432269 1.085709 0.003695 -0.016532 696586.000000 0 1 0
4.127645 19.318072 10.330371 22.292194 1.360294 1.088960 0.024399 0.004513 941479.000000 0 1 0
4.562045 18.632872 11.481771 22.356816 1.330681 1.031457 0.023651 -0.013450 920713.000000 0 1 0
6.106345 18.664172 11.786471 22.903267 1.254604 1.030232 0.049536 -0.017950 1125990.000000 0 1 0
6.901945 17.734072 11.053171 22.006970 1.199642 1.044589 0.041545 -0.019142 -88408.200000 0 1 0
7.472545 16.740072 11.912271 21.862551 1.150951 0.994561 0.046589 -0.020307 588414.000000 0 1 0
8.714545 16.122472 11.156171 21.455478 1.075259 1.023982 0.054354 -0.026683 1133160.000000 0 1 0
9.792745 17.062672 10.954571 22.517443 1.049768 1.062725 0.070331 -0.035525 -557913.000000 0 1 0
10.841445 16.422672 10.364871 22.241214 0.987318 1.086008 0.068785 -0.038041 -1025870.000000 0 1 0
11.762445 17.417272 9.668471 23.134299 0.976818 1.139633 0.069321 -0.035196 817599.000000 0 1 0
12.943045 16.821772 9.074871 23.083494 0.914980 1.166760 0.089448 -0.035188 1230330.000000 0 1 0
13.850845 17.791372 8.499871 24.096195 0.909294 1.210291 0.112877 -0.034480 511862.000000 0 1 0
14.718445 17.396972 7.310671 23.931844 0.868609 1.260355 0.125843 -0.038091 506132.000000 0 1 0
15.795845 16.512572 7.664371 24.102205 0.807578 1.247183 0.140960 -0.049491 1351660.000000 0 1 0
16.888745 16.621972 6.708871 24.627801 0.777437 1.294899 0.140972 -0.030675 2311790.000000 0 1 0
18.358245 16.438772 7.323671 25.707869 0.730292 1.281915 0.150731 -0.035197 1467330.000000 0 0 1
18.646245 15.141872 7.898771 25.285357 0.682052 1.253093 0.164386 -0.042922 336101.000000 0 0 1
19.689545 15.346472 8.849471 26.485949 0.662067 1.230125 0.161645 -0.039499 176145.000000 0 0 1
20.139645 14.175472 9.741271 26.484744 0.613311 1.194147 0.160294 -0.043551 -363768.000000 0 0 1
20.746245 13.100772 9.196271 26.203211 0.563243 1.212201 0.181469 -0.055829 -90214.200000 0 0 1
20.787645 11.952872 10.002571 25.981700 0.521833 1.175605 0.162479 -0.060520 -371650.000000 0 0 1
21.852245 10.987772 9.449971 26.221245 0.465902 1.202106 0.159950 -0.047503 -1532990.000000 0 0 1
23.149745 11.277572 9.842971 27.567705 0.453321 1.205692 0.161109 -0.046569 -284809.000000 0 0 1
24.168245 10.612072 9.153471 27.937540 0.413746 1.236991 0.174919 -0.044101 -274080.000000 0 0 1
24.276045 9.099072 9.412171 27.580943 0.358610 1.222543 0.178800 -0.050641 -271372.000000 0 0 1
23.175145 8.257472 8.964271 26.184563 0.342283 1.221380 0.186578 -0.054727 1252050.000000 0 0 1
23.446745 6.873772 9.136471 26.085890 0.285175 1.212963 0.184809 -0.052985 -304630.000000 0 0 1
24.532345 6.247072 8.232271 26.620145 0.249347 1.256392 0.194777 -0.050346 61217.900000 0 0 1
24.218245 6.116272 6.816671 25.892067 0.247375 1.304383 0.178863 -0.033544 562190.000000 0 0 1
25.319245 5.609672 6.067271 26.633519 0.218036 1.340973 0.197984 -0.031109 52937.700000 0 0 1
24.870545 5.146672 4.700571 25.828813 0.204058 1.387787 0.196123 -0.042019 5905.350000 0 0 1
24.108445 3.918472 4.835171 24.898803 0.161126 1.375362 0.195542 -0.036372 703829.000000 0 1 0
23.620145 3.565172 3.524771 24.146339 0.149807 1.424297 0.204835 -0.038637 284462.000000 0 1 0
22.481345 2.480272 3.566271 22.897181 0.109881 1.414408 0.185740 -0.031067 105213.000000 0 1 0
22.974945 1.220172 4.001371 23.352684 0.053059 1.398601 0.206964 -0.036716 180803.000000 0 1 0
22.177245 0.114672 3.718171 22.487066 0.005171 1.404686 0.200109 -0.035885 -596518.000000 0 1 0
22.938145 -1.206628 3.866971 23.293087 -0.052555 1.404010 0.237063 -0.043350 -680442.000000 0 1 0
23.054045 -1.602728 5.226871 23.693415 -0.069409 1.348362 0.223982 -0.043672 523313.000000 0 1 0
23.394845 -2.952328 5.255971 24.159061 -0.125532 1.351486 0.230257 -0.049109 -286759.000000 0 1 0
23.316545 -3.502228 6.669171 24.503157 -0.149089 1.295143 0.252066 -0.056064 -68929.900000 0 1 0
23.331645 -4.923728 6.756171 24.784160 -0.207981 1.294702 0.227437 -0.055281 355436.000000 0 1 0
23.298045 -5.350128 8.127771 25.248434 -0.225725 1.243048 0.269742 -0.062662 -19498.200000 0 0 1
22.740845 -6.782028 8.413971 25.178102 -0.289833 1.230063 0.238890 -0.060006 -1470530.000000 0 0 1
21.382945 -6.807128 8.412771 23.965434 -0.308200 1.212117 0.236495 -0.067196 -1172670.000000 0 1 0
20.888545 -8.111728 8.698471 24.037363 -0.370409 1.200520 0.220143 -0.066695 -257945.000000 0 1 0
-28.492665 -32.117507 5.161371 43.243565 0.845133 1.451155 0.110121 -0.017040 350052.000000 0 0 1
-29.454185 -33.053707 5.649571 44.631986 0.842920 1.443875 0.120303 -0.017173 185254.000000 0 0 1
-29.158445 -33.584107 6.915471 45.010342 0.855818 1.416544 0.096971 0.001878 15108.200000 0 0 1
-30.054215 32.839472 7.231471 45.099678 -0.829654 1.409757 0.103457 -0.004348 -841712.000000 0 0 1
-31.391335 33.095872 7.421571 46.215066 -0.811824 1.409510 0.101632 -0.005091 -1135370.000000 0 0 1
-32.027425 31.841972 7.700271 45.814422 -0.782495 1.401920 0.129536 -0.020306 645955.000000 0 0 1
-33.582865 31.961272 7.690771 46.994464 -0.760663 1.406404 0.128183 -0.019127 194195.000000 0 0 1
-34.160300 32.312472 6.470171 47.464566 -0.757607 1.434055 0.123582 -0.015196 317747.000000 0 0 1
-35.561579 32.058272 6.571971 48.327523 -0.733636 1.434386 0.100275 -0.014608 176280.000000 0 0 1
-36.248575 32.029272 5.187471 48.649186 -0.723681 1.463963 0.086537 -0.009023 -224292.000000 0 0 1
-36.007065 30.779272 4.548871 47.587441 -0.707281 1.475060 0.104000 -0.006906 782298.000000 0 0 1
-36.808175 30.747972 3.336971 48.077176 -0.695931 1.501332 0.095231 0.010201 575759.000000 0 0 1
-36.498185 29.393872 2.628371 46.936399 -0.677996 1.514768 0.095322 -0.003575 222743.000000 0 0 1
-36.976485 28.358072 3.456571 46.726744 -0.654243 1.496755 0.126993 -0.018294 285450.000000 0 0 1
-36.366105 27.180572 2.995671 45.500012 -0.641845 1.504910 0.113458 -0.015261 47340.000000 0 0 1
-36.847555 25.831772 3.774571 45.158279 -0.611427 1.487113 0.150551 -0.024370 905052.000000 0 0 1
37.789426 25.266572 3.448171 45.588707 0.589350 1.495088 0.143549 -0.027090 520475.000000 0 0 1
37.379916 24.303572 4.426271 44.805285 0.576500 1.471846 0.165585 -0.032014 470367.000000 0 0 1
35.985436 23.711372 4.063371 43.286161 0.582617 1.476786 0.166130 -0.032638 -125106.000000 0 0 1
35.809026 22.780372 2.966071 42.544438 0.566586 1.501023 0.131779 -0.033013 16564.100000 0 0 1
36.159676 21.447672 3.232871 42.166055 0.535359 1.494051 0.129968 -0.028397 -783781.000000 0 0 1
35.404236 20.397172 2.429071 40.931710 0.522677 1.511417 0.121072 -0.021053 1515460.000000 0 0 1
33.969156 20.312572 2.721971 39.672575 0.538926 1.502131 0.111427 -0.035736 1871480.000000 0 0 1
33.601316 19.566172 3.864771 39.074543 0.527306 1.471727 0.093871 -0.025944 -317494.000000 0 0 1
33.684756 18.033572 3.769871 38.393807 0.491536 1.472448 0.109548 -0.036080 -397160.000000 0 0 1
32.964266 17.476972 2.682371 37.406984 0.487499 1.499027 0.086708 -0.046814 258270.000000 0 0 1
32.974366 16.058172 2.528471 36.763662 0.453185 1.501966 0.098962 -0.043154 -188428.000000 0 0 1
32.135066 15.100472 3.441171 35.672515 0.439284 1.474180 0.120430 -0.042987 -553433.000000 0 0 1
30.755026 15.129972 3.273471 34.431138 0.457188 1.475580 0.087994 -0.031691 -522127.000000 0 0 1
30.156026 14.055572 4.006771 33.511180 0.436158 1.450944 0.099335 -0.037782 -53939.800000 0 0 1
28.629526 14.229272 4.081571 32.230128 0.461256 1.443817 0.111364 -0.036365 292977.000000 0 0 1
27.871726 13.848772 2.907771 31.258226 0.461145 1.477637 0.119652 -0.047301 207405.000000 0 0 1
26.575926 14.390472 2.900571 30.360810 0.496282 1.475114 0.095680 -0.028385 -176849.000000 0 0 1
25.732626 14.040272 1.671071 29.361364 0.499475 1.513852 0.115889 -0.028732 -284420.000000 0 0 1
26.145026 14.604972 0.440871 29.950992 0.509432 1.556076 0.123640 -0.027141 261435.000000 0 0 1
27.217926 13.878672 -0.143029 30.552471 0.471544 1.575478 0.118348 -0.030011 -1018780.000000 0 0 1
27.858626 14.667372 -1.308929 31.511079 0.484617 1.612347 0.138602 -0.033265 87845.000000 0 0 1
28.452226 15.935072 -0.996329 32.625884 0.510537 1.601339 0.079006 -0.019352 1149420.000000 0 0 1
29.505926 15.828272 -0.007429 33.483337 0.492376 1.571018 0.085952 -0.024270 -712433.000000 0 0 1
30.380626 17.035672 0.212471 34.831619 0.511052 1.564696 0.080834 -0.016509 -641973.000000 0 0 1
31.315966 17.268472 -0.795329 35.770412 0.503938 1.593032 0.057481 -0.020350 -467587.000000 0 0 1
31.872456 18.496872 -0.627229 36.856222 0.525838 1.587815 0.038486 -0.011899 -244359.000000 0 0 1
32.505446 18.937472 -1.965829 37.670895 0.527523 1.623004 0.041196 -0.006739 -81356.600000 0 0 1
32.998946 20.301272 -2.134529 38.802426 0.551528 1.625834 -0.000577 0.002457 682019.000000 0 0 1
32.032416 21.354372 -2.310629 38.567134 0.587990 1.630744 0.026929 0.000358 -490281.000000 0 0 1
32.675056 22.731172 -2.663229 39.893085 0.607816 1.637605 0.036056 0.004596 158999.000000 0 0 1
33.212076 23.529172 -1.610429 40.733983 0.616376 1.610342 0.033042 0.010613 314833.000000 0 0 1
34.415916 23.027572 -1.074829 41.423177 0.589683 1.596747 0.046003 0.013744 -998014.000000 0 0 1
34.852366 23.875772 0.111971 42.246330 0.600625 1.568146 0.068069 -0.003444 -57900.100000 0 0 1
35.403056 25.160372 -0.148429 43.433198 0.617860 1.574214 0.084411 -0.000250 -291587.000000 0 0 1
36.597676 25.360172 0.544771 44.528922 0.605975 1.558562 0.107191 -0.011215 -333332.000000 0 0 1
37.153056 26.798372 0.334371 45.810633 0.624876 1.563497 0.080353 0.002005 -46153.800000 0 0 1
37.689686 27.005572 -1.004829 46.376966 0.621730 1.592465 0.080223 -0.004441 259648.000000 0 0 1
36.777926 27.623872 -1.886929 46.035362 0.644204 1.611797 0.058052 -0.006132 -200742.000000 0 0 1
36.942176 27.251272 -3.364229 46.029058 0.635565 1.643951 0.076555 -0.005060 374601.000000 0 0 1
-37.892305 27.894572 -4.070129 47.228168 -0.634581 1.657083 0.074476 -0.008829 613222.000000 0 0 1
-37.691825 27.432672 -5.410229 46.930755 -0.629151 1.686334 0.083331 -0.007119 -487135.000000 0 0 1
37.185226 27.685472 -6.485429 46.811186 0.639990 1.709788 0.054873 -0.000231 -968393.000000 0 0 1
35.945256 27.126672 -6.226029 45.460765 0.646481 1.708182 0.053779 0.005110 -1508430.000000 0 0 1
35.053716 27.291072 -7.279429 45.017282 0.661524 1.733212 0.038789 -0.002778 -429015.000000 0 0 1
33.772676 26.549072 -6.854929 43.502148 0.666214 1.729033 0.035953 0.010915 -818495.000000 0 0 1
33.841796 25.097272 -6.855729 42.686546 0.638107 1.732101 0.017403 0.005676 -118014.000000 0 0 1
34.685056 24.449372 -5.897729 42.843997 0.614005 1.708891 0.026786 -0.001964 83670.300000 0 0 1
35.049796 23.012972 -6.353829 42.408209 0.580987 1.721188 0.023652 0.001931 45762.400000 0 0 1
34.134496 22.018672 -5.938629 41.051833 0.572892 1.715967 -0.011882 0.012890 77081.500000 0 0 1
34.615676 20.697372 -6.152929 40.798097 0.538888 1.722188 0.003276 0.008406 -490677.000000 0 0 1
33.731716 19.595772 -5.608229 39.411612 0.526280 1.713580 0.013579 -0.002887 -215178.000000 0 0 1
32.537896 19.485472 -6.371829 38.457749 0.539577 1.737248 -0.009816 -0.005691 -182605.000000 0 0 1
31.672426 18.606372 -5.711629 37.174754 0.531150 1.725050 0.058011 -0.015585 -389399.000000 0 0 1
30.322826 18.307672 -6.349229 35.985515 0.543179 1.748163 0.039737 -0.016099 -248699.000000 0 0 1
30.455526 17.388472 -7.409229 35.844032 0.518783 1.779005 0.020570 -0.018902 107926.000000 0 0 1
29.208526 17.292272 -8.065729 34.888632 0.534537 1.804092 0.058393 -0.026419 52988.900000 0 0 1
29.271526 16.317072 -9.236929 34.761903 0.508536 1.839747 0.059160 -0.023247 -99373.800000 0 0 1
28.170826 16.340972 -10.129729 34.106219 0.525634 1.872351 0.082089 -0.024086 174372.000000 0 0 1
28.306726 15.496772 -11.289529 34.188801 0.500890 1.907324 0.087406 -0.021685 -291182.000000 0 0 1
27.519626 15.872972 -12.540029 34.154551 0.523176 1.946745 0.101112 -0.010360 204512.000000 0 0 1
26.101226 15.794872 -12.361729 32.917538 0.544190 1.955772 0.092652 -0.016838 834492.000000 0 0 1
25.414326 15.765172 -13.619329 32.862056 0.555231 1.998123 0.088530 -0.023700 -173262.000000 0 0 1
25.165026 14.336172 -14.208029 32.259455 0.517832 2.026874 0.093769 -0.039595 302792.000000 0 0 1
26.329426 13.624872 -14.709229 33.094368 0.477531 2.031371 0.109447 -0.047055 1043700.000000 0 0 1
26.874826 14.143472 -15.954429 34.305070 0.484444 2.054516 0.120351 -0.040648 481939.000000 0 0 1
28.365926 13.786572 -16.241929 35.475281 0.452406 2.046358 0.143091 -0.046561 569316.000000 0 0 1
28.520626 12.443672 -16.664429 35.298360 0.411406 2.062470 0.137724 -0.054494 -300935.000000 0 0 1
29.874126 12.207572 -16.957629 36.456129 0.387927 2.054602 0.132148 -0.037190 21365.900000 0 0 1
30.000226 10.782272 -17.515629 36.374004 0.345030 2.073210 0.103286 -0.029513 -268124.000000 0 0 1
29.585726 10.639772 -18.842629 36.654666 0.345224 2.110706 0.109376 -0.028367 -87836.400000 0 0 1
29.726626 9.357872 -19.459229 36.741035 0.304977 2.128963 0.087975 -0.011459 -83128.700000 0 0 1
30.995516 9.027572 -20.302129 38.136537 0.283414 2.132175 0.100861 -0.015781 -276499.000000 0 0 1
31.291616 9.966372 -21.341629 39.165787 0.308341 2.147072 0.101752 -0.011161 168922.000000 0 0 1
31.821726 9.346472 -22.500629 40.078137 0.285679 2.166896 0.082432 -0.013239 1301670.000000 0 0 1
33.341956 8.870172 -22.494229 41.186846 0.260014 2.148559 0.072991 -0.003748 977608.000000 0 0 1
34.372066 9.783672 -22.320929 42.135294 0.277306 2.129095 0.076038 0.000584 -9615.460000 0 0 1
35.671986 9.222272 -22.244529 43.039051 0.252990 2.113958 0.038740 0.001343 638017.000000 0 0 1
36.711506 10.330972 -21.889629 43.972940 0.274315 2.091854 0.060825 -0.004864 -155633.000000 0 0 1
36.548986 10.867672 -20.565329 43.322828 0.289020 2.065419 0.043217 -0.011951 528421.000000 0 0 1
37.540766 11.809372 -20.145229 44.210865 0.304774 2.043913 0.024271 -0.004981 320567.000000 0 0 1
37.161146 12.311672 -18.714729 43.390887 0.319924 2.016736 0.012668 -0.009646 95997.700000 0 0 1
37.773606 11.423172 -17.771129 43.279870 0.293668 1.993919 0.030531 -0.014252 385145.000000 0 0 1
37.833606 11.992272 -16.492129 42.978909 0.306956 1.964624 0.042268 -0.026049 -319598.000000 0 0 1
-37.478005 10.926672 -15.604629 42.041616 -0.283686 1.951066 0.057609 -0.027915 -632503.000000 0 0 1
37.509466 9.934172 -15.314729 41.715569 0.258900 1.946710 0.043861 -0.021890 119946.000000 0 0 1
-37.859225 8.931372 -14.466329 41.501386 -0.231674 1.926846 0.067495 -0.025211 280902.000000 0 0 1
37.099786 7.699572 -14.373229 40.524896 0.204632 1.933364 0.106888 -0.023657 38611.400000 0 0 1
35.898916 7.887572 -13.678429 39.217921 0.216280 1.927065 0.114554 -0.031834 220262.000000 0 0 1
36.002196 7.597872 -12.255429 38.782487 0.207987 1.892311 0.117165 -0.033187 -771940.000000 0 0 1
34.926596 8.341172 -11.494729 37.703727 0.234429 1.880598 0.130176 -0.032681 -380884.000000 0 0 1
35.148626 9.765672 -11.532629 38.259584 0.271004 1.876990 0.123344 -0.047422 563087.000000 0 0 1
34.281836 10.434972 -10.596529 37.368694 0.295477 1.858308 0.101749 -0.034454 -54334.000000 0 0 1
34.715796 10.285272 -9.143029 37.343919 0.288032 1.818144 0.114310 -0.024174 720902.000000 0 0 1
35.883976 11.038872 -8.738929 38.547182 0.298439 1.799492 0.108930 -0.024982 885149.000000 0 0 1
35.637786 12.381872 -8.354729 38.641480 0.334389 1.788729 0.102146 -0.032245 -360640.000000 0 0 1
35.194586 12.568172 -6.866929 37.997007 0.342991 1.752518 0.076886 -0.026364 -609910.000000 0 0 1
36.256256 12.357872 -5.994529 38.770703 0.328498 1.726034 0.112131 -0.028702 -203503.000000 0 0 1
36.062646 12.921972 -4.731029 38.598891 0.344068 1.693674 0.097183 -0.027089 78629.700000 0 0 1
37.321666 12.970772 -3.829829 39.696539 0.334482 1.667424 0.133204 -0.035166 525135.000000 0 0 1
-37.723045 14.089172 -3.957729 40.462285 -0.357446 1.668766 0.141312 -0.032104 36535.800000 0 0 1
-36.555595 13.938772 -3.207429 39.254153 -0.364285 1.652597 0.160748 -0.037797 186900.000000 0 0 1
-35.698759 15.221372 -2.990729 38.923464 -0.403042 1.647708 0.156890 -0.032442 262004.000000 0 0 1
-36.268935 15.958872 -1.977729 39.674080 -0.414519 1.620666 0.176153 -0.030887 -134765.000000 0 0 1
-35.563495 17.133072 -1.815829 39.517105 -0.448949 1.616763 0.181165 -0.030005 -104678.000000 0 0 1
-36.297315 18.163072 -0.896229 40.597974 -0.463965 1.592874 0.172457 -0.031403 64505.700000 0 0 1
-37.479075 18.673672 -1.462429 41.898995 -0.462241 1.605707 0.161517 -0.023891 130851.000000 0 0 1
37.800336 19.676272 -0.735529 42.621145 0.479938 1.588055 0.143983 -0.028993 -19616.500000 0 0 1
37.166736 20.770972 -1.597129 42.606928 0.509619 1.608290 0.097573 -0.021317 -65609.800000 0 0 1
-37.820915 21.710672 -2.087929 43.659298 -0.521112 1.618638 0.117152 -0.014933 296167.000000 0 0 1
37.450176 22.501572 -3.030829 43.795231 0.541037 1.640056 0.071835 -0.004450 -250270.000000 0 0 1
-37.532625 23.616972 -3.503229 44.482940 -0.561641 1.649632 0.100679 -0.009320 35525.000000 0 0 1
-36.354025 23.141572 -4.117329 43.290875 -0.566870 1.666049 0.148041 -0.020997 -494294.000000 0 0 1
-35.505025 24.175072 -4.465229 43.185405 -0.597786 1.674378 0.164256 -0.019886 -478464.000000 0 0 1
-34.114115 23.650172 -4.841629 41.791684 -0.606192 1.686909 0.185932 -0.027861 -290545.000000 0 0 1
-34.063275 22.997672 -6.091829 41.548887 -0.593850 1.717945 0.164553 -0.017069 -1229610.000000 0 0 1
-32.762135 22.836872 -6.487529 40.459464 -0.608744 1.731838 0.192802 -0.019933 -1308810.000000 0 0 1
-32.610895 21.891172 -7.695729 40.023969 -0.591192 1.764279 0.176296 -0.028045 39000.200000 0 0 1
-33.369315 22.201272 -8.869229 41.049615 -0.587070 1.788575 0.167805 -0.029190 425033.000000 0 0 1
-32.967565 21.431472 -9.964029 40.564149 -0.576430 1.818972 0.112414 -0.032263 120667.000000 0 0 1
-33.950845 21.686872 -11.138329 41.797640 -0.568442 1.840538 0.105590 -0.021319 110824.000000 0 0 1
-33.851275 23.048872 -11.503129 42.537998 -0.597783 1.844626 0.113386 -0.017144 206871.000000 0 0 1
-34.431310 23.215472 -12.793129 43.452703 -0.593237 1.869640 0.078351 -0.010613 -469243.000000 0 0 1
-34.609602 24.709472 -13.120529 44.503155 -0.620026 1.870066 0.085821 -0.013169 959618.000000 0 0 1
-33.421465 25.535372 -13.157529 44.070059 -0.652427 1.873979 0.081558 -0.007915 342157.000000 0 0 1
-32.559465 25.561672 -14.258829 43.781640 -0.665575 1.902528 0.075337 -0.005149 -65764.700000 0 0 1
-31.254105 26.232072 -13.780829 43.067992 -0.698259 1.896503 0.095665 -0.013627 -66032.700000 0 0 1
-30.317995 25.507172 -12.980529 41.692814 -0.699434 1.887396 0.106084 -0.019435 319075.000000 0 0 1
-30.625465 25.239272 -11.619029 41.351442 -0.689280 1.855614 0.134326 -0.020947 -169988.000000 0 0 1
-31.023085 26.362372 -10.590329 42.066157 -0.704358 1.825289 0.166098 -0.013270 675199.000000 0 0 1
-29.923405 27.229772 -10.269929 41.741371 -0.738303 1.819386 0.199602 -0.007566 379786.000000 0 0 1
-30.270185 28.213372 -9.298929 42.411656 -0.750244 1.791846 0.175258 -0.011701 428993.000000 0 0 1
-29.038135 29.064272 -8.885229 42.034420 -0.785848 1.783783 0.187088 -0.012482 781181.000000 0 0 1
-29.485075 30.328672 -8.355729 43.116310 -0.799501 1.765825 0.158149 -0.022845 -777186.000000 0 0 1
-28.379125 31.107772 -8.192429 42.897367 -0.831236 1.762954 0.202905 -0.026725 -591125.000000 0 0 1
36.602096 -24.298928 33.364336 55.166387 -0.586062 0.921288 0.086512 -0.021046 -139979.000000 0 0 1
35.981286 -23.046328 33.576516 54.343064 -0.569674 0.904776 0.087123 -0.022169 -282463.000000 0 0 1
34.803186 -23.209728 -33.066329 53.322935 -0.588154 2.239685 0.070781 -0.017260 40854.200000 0 0 1
33.989726 -21.857228 -32.842929 52.073966 -0.571477 2.253248 0.064165 -0.015985 451767.000000 0 0 1
33.449486 -21.329228 33.333366 51.816188 -0.567648 0.871995 0.049511 -0.017038 80673.200000 0 0 1
32.766686 -20.111328 33.622016 51.074075 -0.550486 0.852239 0.054679 -0.015027 146110.000000 0 0 1
32.854626 -19.166928 32.402425 49.967136 -0.528114 0.865217 0.050143 -0.019568 -405950.000000 0 0 1
34.142336 -18.859028 31.954422 50.422685 -0.504657 0.884429 0.073286 -0.030004 -467516.000000 0 0 1
34.137796 -18.399028 30.609706 49.405136 -0.494330 0.902608 0.083579 -0.028731 122699.000000 0 0 1
35.518286 -18.349628 29.895556 49.919953 -0.476859 0.928707 0.075606 -0.026665 -7884.570000 0 0 1
36.300516 -17.265328 30.302526 50.339468 -0.443956 0.924838 0.078872 -0.037795 501025.000000 0 0 1
37.453756 -17.216628 29.439106 50.654290 -0.430872 0.950622 0.071648 -0.033355 231031.000000 0 0 1
-37.684545 -15.910228 29.523716 50.447102 0.399492 0.945619 0.057618 -0.031875 -704915.000000 0 0 1
-36.406895 -16.083128 28.971446 49.228790 0.415981 0.941586 0.056631 -0.031877 14068.300000 0 0 1
-35.507115 -15.066728 29.425706 48.514263 0.401303 0.919098 0.051353 -0.032738 -522724.000000 0 0 1
-34.076626 -15.382128 29.012706 47.324026 0.424016 0.910862 0.077322 -0.037683 -780018.000000 0 0 1
-33.121345 -14.636528 29.691046 46.827446 0.416103 0.884014 0.069753 -0.029248 -426535.000000 0 0 1
-32.342845 -15.382028 30.602916 47.108438 0.443932 0.863703 0.074294 -0.038569 124575.000000 0 0 1
-31.101855 -14.577728 31.093496 46.331858 0.438303 0.835099 0.081345 -0.038260 59555.500000 0 0 1
-31.430865 -13.465328 31.897598 46.761855 0.404756 0.820127 0.079377 -0.027843 705824.000000 0 0 1
-30.303045 -12.700828 32.397949 46.143393 0.396886 0.792434 0.071519 -0.030560 740467.000000 0 0 1
-30.620065 -12.129128 -33.574389 47.031306 0.377154 2.365810 0.055263 -0.008120 -65355.300000 0 0 1
-30.424275 -13.008528 -32.514949 46.390519 0.404046 2.347450 0.068098 -0.013641 289523.000000 0 0 1
-30.822365 -12.411528 -31.262249 45.622280 0.382814 2.325731 0.076242 -0.002699 -232459.000000 0 0 1
-31.059385 -13.431128 -30.135839 45.312795 0.408150 2.298374 0.077638 -0.015175 -259294.000000 0 0 1
-32.265055 -14.148928 -30.110189 46.344897 0.413268 2.277983 0.073407 -0.011706 -145335.000000 0 0 1
-32.420535 -14.683728 -28.784109 45.773660 0.425275 2.250851 0.096772 -0.012151 500651.000000 0 0 1
-33.597245 -15.698328 -28.722979 46.906523 0.437106 2.229820 0.084112 -0.022594 407125.000000 0 0 1
-33.231605 -17.018728 -29.134039 47.357882 0.473300 2.233422 0.086284 -0.017969 471341.000000 0 0 1
-34.439672 -17.753828 -29.189109 48.510757 0.475975 2.216429 0.092938 -0.025122 296313.000000 0 0 1
-34.175414 -19.196228 -29.663979 49.156951 0.511779 2.218622 0.068931 -0.026327 1696790.000000 0 0 1
-35.465521 -19.858428 -29.922779 50.473093 0.510440 2.205385 0.073085 -0.029995 1730550.000000 0 0 1
-35.209119 -21.176928 -30.421989 51.123789 0.541493 2.208143 0.062168 -0.033938 -298255.000000 0 0 1
-36.443975 -21.935828 -30.903579 52.577325 0.541819 2.199101 0.080613 -0.034775 -305448.000000 0 0 1
-37.284325 -22.305528 -29.832249 52.703137 0.539135 2.172494 0.065549 -0.028321 293125.000000 0 0 1
37.625186 -23.298928 -30.137429 53.542126 -0.554445 2.168654 0.090633 -0.026149 579317.000000 0 0 1
-37.815795 -24.796628 -30.381479 54.478816 0.580387 2.162379 0.071711 -0.020834 19324.100000 0 0 1
-37.113495 -24.902828 -31.606859 54.740807 0.590991 2.186326 0.088175 -0.021612 -287140.000000 0 0 1
-36.486885 -26.188898 -31.621769 54.928021 0.622548 2.184250 0.080875 -0.017427 61184.000000 0 0 1
-36.806075 -27.125418 -32.828029 56.286366 0.635117 2.193499 0.092463 -0.025037 956518.000000 0 0 1
37.751116 -27.589288 -32.711739 57.064643 -0.631113 2.181251 0.095678 -0.021780 609280.000000 0 0 1
37.474496 -28.764938 -33.452049 57.886087 -0.654662 2.186943 0.097157 -0.024789 200846.000000 0 0 1
-37.852715 -30.100268 -32.854139 58.465791 0.671804 2.167523 0.097096 -0.024734 393024.000000 0 0 1
37.503236 -30.526748 -31.608109 57.770647 -0.683205 2.149729 0.101445 -0.027132 336216.000000 0 0 1
-37.577775 -31.557318 -31.103059 58.097795 0.698535 2.135727 0.088394 -0.031193 327089.000000 0 0 1
37.788956 -32.132768 -29.756119 57.844158 -0.704681 2.111126 0.074763 -0.029077 -101202.000000 0 0 1
36.742396 -33.047018 -29.906999 57.762771 -0.732497 2.115022 0.100809 -0.026850 -99051.200000 0 0 1
36.220416 -33.317698 -28.585119 56.913062 -0.743680 2.097006 0.109926 -0.021577 348912.000000 0 0 1
34.943496 33.436632 -28.594969 56.184771 0.763365 2.104755 0.102941 -0.025269 564555.000000 0 0 1
33.759126 -33.608628 -29.138449 55.841451 -0.783164 2.119764 0.118391 -0.026073 -367713.000000 0 0 1
32.776636 33.082096 -28.950399 54.834829 0.790036 2.126989 0.109856 -0.025852 463723.000000 0 0 1
31.319876 33.490130 -29.411479 54.475302 0.818872 2.141120 0.071544 -0.011245 1110910.000000 0 0 1
31.096436 33.455917 -30.818569 55.100552 0.821933 2.164356 0.074334 -0.009199 21769.100000 0 0 1
29.715026 33.443331 -31.130619 54.502794 0.844361 2.178733 0.071229 -0.003657 235045.000000 0 0 1
29.484626 32.971458 -32.603339 54.949412 0.841169 2.205990 0.058786 -0.013103 69584.800000 0 0 1
29.458826 31.602340 -32.658259 54.158030 0.820488 2.218075 0.044089 -0.005485 -65318.400000 0 0 1
29.227826 31.143670 33.395736 54.216871 0.817122 0.907185 0.054025 -0.007726 4940.750000 0 0 1
29.238026 29.559730 33.280046 53.255997 0.790869 0.895784 0.061253 -0.015226 -52206.200000 0 0 1
30.500726 29.006050 33.579246 53.844321 0.760286 0.897411 0.063224 -0.016382 -322926.000000 0 0 1
30.371226 27.603550 -33.533469 52.998687 0.737695 2.255860 0.053235 -0.020605 306486.000000 0 0 1
31.715786 26.862820 -33.384079 53.310401 0.702742 2.247493 0.073008 -0.027879 318210.000000 0 0 1
32.392616 27.085140 -32.158839 53.076146 0.696399 2.221693 0.080019 -0.026645 337597.000000 0 0 1
33.758546 26.669700 -32.245619 53.765158 0.668622 2.213984 0.091953 -0.025934 1096060.000000 0 0 1
34.675646 26.834110 -30.984199 53.688830 0.658598 2.185978 0.105907 -0.028401 -212140.000000 0 0 1
35.095426 28.171860 -30.720209 54.489208 0.676398 2.169758 0.085866 -0.020801 37429.900000 0 0 1
34.149226 29.185610 -30.441939 54.264916 0.707187 2.166375 0.101242 -0.021127 -138033.000000 0 0 1
33.530286 29.085150 -29.043889 53.045014 0.714526 2.150209 0.097848 -0.020952 -902865.000000 0 0 1
34.300856 29.679670 -28.103639 53.359592 0.713295 2.125491 0.087641 -0.016758 -721746.000000 0 0 1
33.577996 29.870800 -26.904579 52.379412 0.727036 2.110227 0.098531 -0.013958 -88243.700000 0 0 1
34.375996 30.314290 -25.665969 52.530060 0.722694 2.081276 0.109575 -0.017597 111865.000000 0 0 1
34.992126 31.621640 -25.686149 53.704331 0.734844 2.069501 0.096843 -0.015576 426462.000000 0 0 1
35.383826 32.152887 -24.419329 53.685444 0.737595 2.043011 0.098959 -0.024923 -187779.000000 0 0 1
35.703176 33.650679 -24.417529 54.802378 0.755812 2.032592 0.106415 -0.018667 -947566.000000 0 0 1
34.662016 -33.094708 -24.409329 53.782250 -0.762271 2.041883 0.119821 -0.008298 -680603.000000 0 0 1
34.988296 -31.721238 -24.434829 53.174041 -0.736463 2.048257 0.112818 -0.014738 -946465.000000 0 0 1
35.499496 -30.979048 -25.716049 53.677098 -0.717504 2.070412 0.101898 -0.014322 2225540.000000 0 0 1
36.849996 -31.339688 -26.203809 55.015797 -0.704765 2.067234 0.108200 -0.020405 1354590.000000 0 0 1
37.885646 -30.870608 -25.395049 55.074723 -0.683722 2.050033 0.104169 -0.017667 -1633290.000000 0 0 1
-36.667525 -31.407298 -25.791029 54.736670 0.708280 2.061429 0.066172 -0.015804 -892162.000000 0 0 1
-36.446605 -32.734188 -25.312609 55.141729 0.731787 2.047718 0.055448 -0.019053 -104482.000000 0 0 1
-36.285615 -32.876038 -23.875529 54.474955 0.736139 2.024486 0.066098 -0.021810 -173947.000000 0 0 1
-34.938204 -32.382088 -23.271929 53.017549 0.747447 2.025223 0.044930 -0.018895 206447.000000 0 0 1
-34.812739 -30.970328 -23.298729 52.095286 0.727054 2.034466 0.029121 -0.016009 -251708.000000 0 0 1
-34.373760 -30.387168 -22.099429 50.924652 0.723917 2.019684 0.055331 -0.017528 -421487.000000 0 0 1
-34.413790 -28.835858 -22.096929 50.040883 0.697437 2.028152 0.056562 0.000752 -319318.000000 0 0 1
-35.613240 -28.208208 -22.448829 50.675002 0.669887 2.029734 0.030741 0.009813 -489044.000000 0 0 1
-35.758563 -28.026288 -23.828829 51.302639 0.664762 2.053839 0.026730 -0.001728 -594309.000000 0 0 1
-36.912165 -27.083298 -24.104629 51.740179 0.633002 2.055423 0.026968 -0.000793 -322270.000000 0 0 1
-36.656165 -25.725228 -23.663829 50.650159 0.611932 2.056919 0.027230 0.005438 -185744.000000 0 0 1
-37.560565 -24.748328 -24.162529 51.059805 0.582600 2.063739 0.043601 -0.003485 -68400.200000 0 0 1
-37.331805 -24.333428 -25.640499 51.412203 0.577650 2.092922 0.063460 -0.014487 186771.000000 0 0 1
-36.420355 -23.221228 -25.654379 50.237585 0.567601 2.106750 0.044503 -0.011225 -60717.700000 0 0 1
-36.020665 -22.821328 -26.896219 50.415354 0.564733 2.133521 0.046919 -0.029715 176917.000000 0 0 1
-34.891806 -21.736828 -26.667709 49.000965 0.557144 2.146265 0.056464 -0.038466 163759.000000 0 0 1
-35.160271 -20.480928 -25.990209 48.282544 0.527454 2.139208 0.070308 -0.031374 -205126.000000 0 0 1
-36.285815 -19.757028 -26.473829 49.069993 0.498598 2.140653 0.098483 -0.032537 324839.000000 0 0 1
-37.480965 -19.796828 -25.487329 49.460501 0.485939 2.112162 0.119186 -0.039668 -54727.500000 0 0 1
-37.246225 -19.116628 -24.255929 48.384676 0.474191 2.095913 0.107633 -0.044737 125796.000000 0 0 1
-36.454445 -19.787728 -23.270729 47.560568 0.497304 2.082067 0.066654 -0.040327 309667.000000 0 0 1
-37.228845 -20.985328 -22.651329 48.367899 0.513289 2.058177 0.068296 -0.025024 52869.400000 0 0 1
37.634936 -20.577428 -21.833829 48.130396 -0.500355 2.041641 0.075556 -0.022687 -549725.000000 0 0 1
36.972246 -21.693328 -21.336729 47.883227 -0.530617 2.032640 0.058607 -0.005175 -751039.000000 0 0 1
35.981436 -21.341528 -20.242129 46.474384 -0.535350 2.021451 0.068220 -0.011549 -104018.000000 0 0 1
34.842526 -20.703328 -20.805929 45.557832 -0.536142 2.045070 0.091678 0.003718 155120.000000 0 0 1
33.689606 -20.830628 -19.972229 44.359830 -0.553774 2.037822 0.077038 0.005047 435821.000000 0 0 1
32.449856 -20.266628 -20.703329 43.501232 -0.558277 2.066812 0.086127 -0.006434 -375850.000000 0 0 1
31.931196 -21.153828 -21.677729 44.011472 -0.585100 2.085811 0.082288 -0.002443 571371.000000 0 0 1
30.611826 -20.928428 -22.160629 43.199265 -0.599683 2.109456 0.111714 -0.011640 414194.000000 0 0 1
30.351126 -19.692228 -23.067929 42.908088 -0.575541 2.138399 0.113374 -0.020822 -489539.000000 0 0 1
30.233826 -18.437228 -22.421729 41.913596 -0.547610 2.135246 0.117339 -0.015795 45957.200000 0 0 1
30.432026 -17.278928 -23.245429 42.012136 -0.516397 2.157120 0.095839 -0.015626 -124229.000000 0 0 1
31.296196 -16.226728 -22.472729 41.806484 -0.478329 2.138315 0.087938 -0.014157 -275869.000000 0 0 1
30.630426 -15.680128 -21.369529 40.506125 -0.473133 2.126526 0.070777 -0.022225 52070.800000 0 0 1
31.426696 -14.972428 -20.432529 40.364577 -0.444609 2.101569 0.054940 -0.022723 67167.300000 0 0 1
32.534086 -15.752128 -19.654329 41.144732 -0.450906 2.068817 0.076223 -0.026982 404457.000000 0 0 1
33.694796 -15.950728 -20.450929 42.520648 -0.442133 2.072551 0.074210 -0.028024 -54428.500000 0 0 1
34.643406 -16.697628 -19.715629 43.216691 -0.449133 2.044521 0.056857 -0.018630 -155367.000000 0 0 1
35.771166 -17.239328 -20.636429 44.750787 -0.449090 2.050077 0.064882 -0.035231 120598.000000 0 0 1
36.516176 -16.157328 -21.189829 45.205079 -0.416575 2.058670 0.080317 -0.040522 819177.000000 0 0 1
37.577406 -16.731828 -22.016729 46.655673 -0.418908 2.062239 0.105858 -0.041923 603679.000000 0 0 1
-37.323225 -15.678328 -22.495829 46.313016 0.397687 2.078000 0.125594 -0.045249 422020.000000 0 0 1
-36.359775 -15.333928 -21.433229 44.905968 0.399096 2.068366 0.144187 -0.048060 750297.000000 0 0 1
-35.800935 -14.046828 -21.600729 44.109090 0.373902 2.082555 0.151675 -0.052090 -862590.000000 0 0 1
-34.620554 -13.786728 -20.637829 42.597848 0.378974 2.076566 0.154009 -0.050965 386449.000000 0 0 1
-33.479885 -14.571028 -20.989829 42.116393 0.410493 2.092522 0.157989 -0.055758 276644.000000 0 0 1
-33.411685 -15.831628 -20.407229 42.230749 0.442497 2.075138 0.138287 -0.055124 -624096.000000 0 0 1
-32.190595 -16.642128 -20.871129 41.818643 0.477145 2.093341 0.107773 -0.050888 -111851.000000 0 0 1
-32.092935 -17.907328 -20.221329 41.946765 0.508952 2.073814 0.117470 -0.056608 -263935.000000 0 0 1
-31.140545 -18.696428 -20.838729 41.875322 0.540705 2.091669 0.119800 -0.052256 -866652.000000 0 0 1
-31.157055 -20.066028 -20.106529 42.162544 0.572166 2.067899 0.114590 -0.016203 -114454.000000 0 0 1
-32.232925 -20.922028 -20.459229 43.534731 0.575734 2.060033 0.095440 -0.027117 303121.000000 0 0 1
-32.148725 -22.232028 -19.890529 43.857004 0.605023 2.041520 0.075189 -0.006470 -296340.000000 0 0 1
-33.252895 -23.124028 -20.433829 45.365373 0.607631 2.038041 0.048707 -0.016205 -256633.000000 0 0 1
-33.020365 -23.454028 -21.814329 46.003271 0.617599 2.064841 0.062707 -0.022942 138826.000000 0 0 1
-33.993960 -24.314028 -22.332829 47.386882 0.620885 2.061546 0.044688 -0.008443 -253947.000000 0 0 1
-33.641875 -24.482928 -23.815129 47.941109 0.629109 2.090656 0.043447 -0.004635 -51544.500000 0 0 1
-32.483125 -25.278298 -23.955829 47.623813 0.661305 2.097888 0.059779 -0.019884 -142729.000000 0 0 1
-32.249735 -25.501888 -25.348959 48.300740 0.669083 2.123294 0.049449 -0.009617 251488.000000 0 0 1
-30.846485 -26.061628 -25.691189 47.861794 0.701515 2.137411 0.059100 -0.022497 887267.000000 0 0 1
-29.795235 -25.076128 -25.782779 46.704603 0.699606 2.155604 0.080043 -0.036790 1409980.000000 0 0 1
-28.478355 -25.660498 -25.937329 46.284154 0.733396 2.165657 0.085474 -0.034326 1399460.000000 0 0 1
-27.358475 -24.600128 -26.069279 45.091682 0.732361 2.187243 0.102871 -0.045024 99433.100000 0 0 1
-27.538845 -23.790228 -27.238609 45.456625 0.712497 2.213325 0.105004 -0.047342 -132159.000000 0 0 1
-26.548505 -22.792128 -27.304799 44.383063 0.709413 2.233446 0.112106 -0.043886 41343.900000 0 0 1
-26.389935 -22.110728 -28.655549 44.793454 0.697396 2.264938 0.086467 -0.039442 -135226.000000 0 0 1
-25.793175 -22.814628 -29.700309 45.474207 0.724198 2.282499 0.076756 -0.027751 -122.762000 0 0 1
-25.612435 -22.026728 -30.866129 45.759060 0.710272 2.311132 0.066851 -0.013941 45530.100000 0 0 1
-24.971525 -22.887728 -31.974699 46.581183 0.741886 2.327364 0.060077 -0.028893 -529169.000000 0 0 1
-25.760525 -23.977428 -32.110089 47.640105 0.749564 2.310425 0.055092 -0.031044 -296198.000000 0 0 1
-25.201425 -24.974348 -32.997859 48.452953 0.780873 2.319963 0.062964 -0.013635 292308.000000 0 0 1
-20.243555 -15.198228 -11.615029 27.851330 0.643993 2.000979 0.069684 -0.014143 180920.000000 0 0 1
-20.750355 -14.694428 -10.366229 27.458372 0.616177 1.957919 0.083754 -0.024187 8429.910000 0 0 1
-19.918855 -15.161628 -9.356629 26.724189 0.650611 1.928494 0.088900 -0.025490 -357119.000000 0 0 1
-20.063855 -14.514128 -7.929129 26.001717 0.626257 1.880678 0.117376 -0.041729 -316889.000000 0 0 1
-21.331955 -14.868328 -7.417729 27.039642 0.608708 1.848687 0.141976 -0.040619 260021.000000 0 0 1
-21.458555 -14.168628 -6.211129 26.453691 0.583567 1.807801 0.125629 -0.043131 -387114.000000 0 0 1
-22.754455 -14.554728 -5.506129 27.566698 0.569060 1.771887 0.144334 -0.040134 -493113.000000 0 0 1
-22.895555 -15.865628 -5.012429 28.302810 0.605983 1.748835 0.122851 -0.039803 383398.000000 0 0 1
-22.223955 -16.001628 -3.764529 27.642865 0.624034 1.707405 0.136171 -0.039067 -149938.000000 0 0 1
-22.166455 -17.437028 -3.172229 28.380711 0.666542 1.682805 0.109122 -0.024820 312494.000000 0 0 1
-23.421255 -18.023228 -2.826029 29.688018 0.655880 1.666132 0.121171 -0.025108 582473.000000 0 0 1
-23.282355 -19.088128 -1.909229 30.167364 0.686730 1.634127 0.112263 -0.024476 -23668.300000 0 0 1
-24.511355 -20.034128 -2.005729 31.720589 0.685225 1.634070 0.142196 -0.042541 140277.000000 0 0 1
-24.469055 -20.988928 -3.065029 32.383085 0.708990 1.665587 0.131400 -0.045064 542287.000000 0 0 1
-25.569625 -21.921528 -3.074829 33.820315 0.708732 1.661839 0.145255 -0.041015 663035.000000 0 0 1
-25.255485 -23.107728 -4.050729 34.470495 0.741018 1.688581 0.142927 -0.049135 237694.000000 0 0 1
-24.170855 -23.924628 -3.566329 34.195567 0.780279 1.675278 0.151812 -0.045121 285459.000000 0 0 1
-23.591155 -24.661828 -4.614429 34.438951 0.807583 1.705189 0.141930 -0.040726 -1063070.000000 0 0 1
-22.179055 -24.340128 -4.993629 33.305986 0.831820 1.721296 0.112486 -0.031901 -1590490.000000 0 0 1
-22.043955 -23.203728 -5.840329 32.533958 0.811024 1.751290 0.080573 -0.022560 145625.000000 0 0 1
-22.113555 -21.969828 -5.140729 31.592876 0.782138 1.734241 0.085635 -0.027075 -818444.000000 0 0 1
-22.244755 -20.775528 -6.115329 31.045917 0.751259 1.769070 0.092271 -0.019884 382473.000000 0 0 1
-21.048255 -20.493228 -6.837329 30.162071 0.772038 1.799470 0.071907 -0.013162 555914.000000 0 0 1
-21.207755 -19.210028 -7.418929 29.560693 0.736011 1.824481 0.068621 -0.010524 -882022.000000 0 0 1
-20.017055 -18.783828 -8.202029 28.649398 0.753625 1.861149 0.082003 -0.011244 -982784.000000 0 0 1
-19.866255 -19.499628 -9.435929 29.392863 0.776085 1.897611 0.068852 -0.016104 349331.000000 0 0 1
-18.525355 -19.515928 -9.896829 28.670673 0.811432 1.923238 0.119481 -0.014562 462508.000000 0 0 1
-17.831755 -18.343028 -10.663829 27.715617 0.799531 1.965743 0.100788 -0.013824 40315.600000 0 0 1
-17.620455 -17.206128 -9.851729 26.525231 0.773502 1.951323 0.116191 -0.020546 306507.000000 0 0 1
-16.253255 -17.133928 -9.454529 25.438709 0.811770 1.951592 0.144789 -0.015848 230290.000000 0 0 1
-15.941855 -15.892828 -8.533729 24.073830 0.783858 1.933156 0.119791 -0.017997 170573.000000 0 1 0
-16.544255 -16.064328 -7.227529 24.166345 0.770681 1.874519 0.106672 -0.018093 494681.000000 0 1 0
-16.687055 -14.814028 -6.470229 23.233104 0.726009 1.853020 0.120959 -0.024137 -252879.000000 0 1 0
-17.406955 -15.090528 -5.138829 23.603680 0.714238 1.790267 0.129711 -0.032106 -259213.000000 0 1 0
-17.987155 -13.967928 -4.578229 23.229313 0.660278 1.769184 0.113059 -0.025284 96100.400000 0 1 0
-18.304255 -14.247728 -3.245229 23.421679 0.661420 1.709800 0.085162 -0.017656 -134147.000000 0 1 0
-19.188055 -13.233828 -2.506929 23.443557 0.603774 1.677936 0.102646 -0.020752 743159.000000 0 1 0
-20.532455 -13.094928 -3.001929 24.537124 0.567728 1.693446 0.137793 -0.039066 908650.000000 0 1 0
-21.199455 -11.958228 -2.515529 24.469246 0.513590 1.673782 0.137509 -0.025111 494382.000000 0 1 0
-22.670455 -11.773128 -3.017829 25.722818 0.478981 1.688388 0.129615 -0.023008 495931.000000 0 0 1
-22.840555 -11.450828 -4.339229 25.916044 0.464717 1.739023 0.141659 -0.047138 -21541.800000 0 0 1
-24.121455 -10.925928 -4.589229 26.875296 0.425308 1.742397 0.140442 -0.036387 -239716.000000 0 0 1
-24.564455 -10.888428 -6.071229 27.546872 0.417234 1.793017 0.143280 -0.048048 -42335.400000 0 0 1
-25.009625 -12.153628 -6.650229 28.590516 0.452351 1.805549 0.147322 -0.053499 585250.000000 0 0 1
-25.540345 -12.043228 -7.997329 29.348013 0.440619 1.846787 0.158654 -0.052049 62454.100000 0 0 1
-24.469455 -12.182128 -9.117229 28.814621 0.461926 1.892739 0.148460 -0.062361 417256.000000 0 0 1
-23.553355 -11.065428 -9.184329 27.596307 0.439199 1.910078 0.147919 -0.053169 -440635.000000 0 0 1
-22.283755 -11.535328 -9.437529 26.808516 0.477673 1.930540 0.118591 -0.059615 -1279480.000000 0 0 1
-21.226755 -10.450728 -9.200429 25.385838 0.457499 1.941663 0.128629 -0.060017 -357846.000000 0 0 1
-21.366955 -9.371928 -10.043929 25.401975 0.413348 1.977299 0.120918 -0.054516 353884.000000 0 0 1
-20.399055 -8.440228 -9.613329 24.078518 0.392308 1.981494 0.131134 -0.042436 -262901.000000 0 1 0
-20.322255 -7.094928 -10.343929 23.881561 0.335892 2.018764 0.143063 -0.046294 -20212.500000 0 1 0
-19.795055 -7.175528 -11.668229 24.072391 0.347759 2.076833 0.137052 -0.043207 514759.000000 0 1 0
-19.941355 -5.897428 -12.309229 24.165149 0.287543 2.105260 0.149959 -0.046947 -222227.000000 0 1 0
-19.330655 -5.824728 -13.705929 24.401930 0.292668 2.167204 0.186475 -0.047088 121666.000000 0 1 0
-20.000555 -6.627328 -14.690529 25.685703 0.319971 2.179658 0.155751 -0.052273 761768.000000 0 0 1
-19.280655 -6.431028 -15.912229 25.812804 0.321944 2.235019 0.168147 -0.053497 194809.000000 0 0 1
-19.771355 -7.332728 -17.063729 27.126486 0.355151 2.251118 0.126272 -0.041112 -233571.000000 0 0 1
-21.080055 -7.009528 -17.470629 28.261725 0.321018 2.237212 0.120496 -0.047122 30490.800000 0 0 1
-21.509355 -7.855428 -18.520829 29.451337 0.350160 2.250885 0.123836 -0.042147 -1691230.000000 0 0 1
-22.960155 -7.614928 -18.763329 30.614023 0.320242 2.230522 0.113307 -0.041984 -1980100.000000 0 0 1
-23.097255 -6.297828 -19.234629 30.710207 0.266195 2.247629 0.126878 -0.049554 440795.000000 0 0 1
-24.088655 -6.085328 -20.239829 32.045986 0.247445 2.254395 0.112437 -0.045379 -663283.000000 0 0 1
-25.515805 -5.978628 -19.790029 32.839695 0.230159 2.217583 0.132675 -0.046400 -1212050.000000 0 0 1
-25.673825 -4.716428 -19.222029 32.417224 0.181680 2.205523 0.133949 -0.045378 -696572.000000 0 0 1
-26.959385 -4.581228 -18.730029 33.145288 0.168323 2.171337 0.142758 -0.036159 -1025380.000000 0 0 1
-27.058665 -3.114028 -18.124029 32.716188 0.114580 2.157931 0.139069 -0.038904 149549.000000 0 0 1
-27.513335 -2.001128 -18.927429 33.454980 0.072605 2.172149 0.146357 -0.036985 751139.000000 0 0 1
-28.901305 -2.110828 -19.253329 34.791259 0.072906 2.157232 0.155762 -0.031179 332339.000000 0 0 1
-29.466895 -0.863728 -19.937729 35.588720 0.029303 2.165455 0.160416 -0.032601 2033.560000 0 0 1
-28.981255 -0.626628 -21.278829 35.959622 0.021618 2.204015 0.154514 -0.028075 103077.000000 0 0 1
-29.539865 -1.480628 -22.275329 37.026831 0.050081 2.216299 0.165628 -0.022664 -190608.000000 0 0 1
-28.658245 -1.430828 -23.533029 37.109915 0.049886 2.257697 0.160566 -0.024838 -468833.000000 0 0 1
-28.509275 -0.222128 -24.303829 37.463372 0.007791 2.276718 0.174971 -0.019924 116017.000000 0 0 1
-27.914895 0.910472 -23.692129 36.624955 -0.032604 2.274289 0.152142 -0.019218 -10965.800000 0 0 1
-26.443935 0.777672 -23.208729 35.192778 -0.029400 2.290915 0.151305 -0.017330 -391051.000000 0 0 1
-25.562355 0.924972 -24.268029 35.259422 -0.036169 2.329899 0.129646 -0.010386 -327060.000000 0 0 1
-24.216055 0.638572 -23.965329 34.075829 -0.026364 2.350817 0.107273 -0.007282 156673.000000 0 0 1
-23.299855 0.198372 -25.100929 34.248785 -0.008514 2.393371 0.087865 -0.002281 -113862.000000 0 0 1
-23.259255 1.177672 -26.131329 35.003232 -0.050589 2.413643 0.062280 0.000232 108223.000000 0 0 1
-22.627055 0.615472 -27.240969 35.417973 -0.027194 2.448273 0.037441 0.000992 -165439.000000 0 0 1
-22.317055 1.691772 -28.367979 36.133852 -0.075662 2.473622 0.042582 -0.000954 130275.000000 0 0 1
-21.142355 2.499472 -28.244959 35.369821 -0.117675 2.495697 0.049382 0.005575 672887.000000 0 0 1
-20.929055 3.334472 -29.372799 36.220235 -0.157995 2.516570 0.043243 -0.000694 32613.400000 0 0 1
-20.361055 2.755172 -30.696849 36.938599 -0.134499 2.551742 0.037450 -0.000160 228873.000000 0 0 1
-19.032755 2.234472 -30.642419 36.141340 -0.116866 2.582713 0.033744 0.005547 412740.000000 0 0 1
-18.681255 1.902872 -31.958919 37.067273 -0.101510 2.610367 0.030253 0.000061 238487.000000 0 0 1
-17.138755 1.746672 -32.077199 36.410637 -0.101563 2.648735 0.041203 -0.015962 51763.400000 0 0 1
-16.520755 3.002272 -32.133579 36.256253 -0.179765 2.660070 0.045808 -0.013284 103642.000000 0 0 1
-15.137355 2.774772 -32.394419 35.864150 -0.181294 2.698088 0.057788 -0.019147 489517.000000 0 0 1
-14.335055 4.042572 -32.800919 36.024110 -0.274868 2.715353 0.082184 -0.018906 -144916.000000 0 0 1
-14.117755 4.932572 -31.729519 35.077110 -0.336129 2.701154 0.086575 -0.026939 219524.000000 0 0 1
-13.464055 6.076472 -32.292429 35.510636 -0.423943 2.712572 0.116711 -0.019766 -68351.300000 0 0 1
-12.919055 7.063372 -31.223689 34.521182 -0.500337 2.700953 0.117815 -0.028961 205933.000000 0 0 1
-11.699655 6.724272 -30.570829 33.416663 -0.521640 2.725903 0.146587 -0.047376 629539.000000 0 0 1
-11.926855 5.781872 -29.487559 32.329492 -0.451396 2.719161 0.149050 -0.052838 489745.000000 0 0 1
-10.609055 4.961972 -29.259499 31.516528 -0.437484 2.760842 0.173852 -0.066754 515117.000000 0 0 1
-10.141855 4.074572 -30.241839 32.156309 -0.382021 2.794788 0.157933 -0.058535 -26944.100000 0 0 1
-10.998255 3.001172 -30.515609 32.575621 -0.266391 2.784057 0.156040 -0.045770 -521129.000000 0 0 1
-10.623655 2.254372 -31.797699 33.601159 -0.209101 2.812474 0.139816 -0.052740 -217763.000000 0 0 1
-11.363655 1.089272 -32.087829 34.058009 -0.095564 2.799791 0.136377 -0.047835 212579.000000 0 0 1
-10.967955 0.513772 -33.374029 35.133827 -0.046809 2.823749 0.120095 -0.036646 -92365.100000 0 0 1
-11.540555 1.272872 32.747025 34.744385 -0.109852 0.340725 0.127039 -0.028140 1348660.000000 0 0 1
-12.972155 1.169272 32.574915 35.082319 -0.089894 0.380368 0.068701 -0.023824 855021.000000 0 0 1
-13.374555 1.452872 31.282637 34.052796 -0.108205 0.406144 0.068723 -0.017860 979460.000000 0 0 1
-14.898355 1.131472 30.961586 34.378206 -0.075801 0.449610 0.070448 -0.012575 742433.000000 0 0 1
-15.711355 2.134172 31.438292 35.210333 -0.135010 0.467115 0.077731 -0.006113 -1051390.000000 0 0 1
-17.007555 1.763672 31.079126 35.472236 -0.103330 0.502973 0.079157 -0.004835 231626.000000 0 0 1
-18.075755 2.935772 30.877916 35.899824 -0.161009 0.535305 0.071155 -0.003844 374364.000000 0 0 1
-18.354255 3.815772 32.019776 37.103973 -0.204976 0.529669 0.062748 -0.012042 800650.000000 0 0 1
-17.338455 4.806972 32.292810 36.966939 -0.270451 0.508329 0.057324 -0.006553 184610.000000 0 0 1
-17.768055 5.748172 33.506566 38.359291 -0.312885 0.508465 0.045599 -0.007303 -598085.000000 0 0 1
-19.018755 6.345372 33.465576 39.011813 -0.322024 0.539760 0.042054 -0.006845 -682284.000000 0 0 1
-19.934755 5.624772 -33.099639 39.046365 -0.275010 2.582432 0.039379 -0.003327 804644.000000 0 0 1
-21.418355 6.160472 -33.191419 39.979591 -0.280066 2.550279 0.033871 -0.001982 900737.000000 0 0 1
-21.695355 7.420472 -32.626019 39.877424 -0.329557 2.528996 0.042669 -0.010788 105303.000000 0 0 1
-21.442755 8.517572 -33.491979 40.670056 -0.378111 2.538358 0.039735 -0.010931 -251966.000000 0 0 1
-21.288355 9.863672 -32.836779 40.357653 -0.433889 2.521190 0.036532 -0.004952 -112199.000000 0 0 1
-20.066555 9.931672 -32.096279 39.134076 -0.459589 2.532490 0.044477 -0.018470 562059.000000 0 0 1
-19.620755 11.259472 -31.855449 39.070697 -0.520973 2.524092 0.052530 -0.015160 114076.000000 0 0 1
-18.815155 11.946072 -33.005939 39.826006 -0.565699 2.547673 0.039344 -0.027562 -324486.000000 0 0 1
-19.551855 12.157972 33.181998 40.387328 -0.556318 0.606594 0.047973 -0.022532 51464.000000 0 0 1
-18.717855 12.444472 32.089533 39.178580 -0.586740 0.611029 0.058097 -0.020066 -30870.400000 0 0 1
-19.280955 11.882872 30.764276 38.202075 -0.552319 0.634609 0.078685 -0.023175 -166590.000000 0 0 1
-19.511555 10.510972 30.766986 37.918185 -0.494130 0.624245 0.068877 -0.016338 -871904.000000 0 0 1
-18.477555 9.621572 30.581956 37.003388 -0.480083 0.597999 0.073435 -0.016866 -859397.000000 0 0 1
-18.807855 8.126672 30.652726 36.869606 -0.407860 0.589206 0.065600 -0.016589 -329203.000000 0 0 1
-19.526655 7.596072 29.605236 36.269278 -0.370997 0.615886 0.065350 -0.007312 -128990.000000 0 0 1
-19.938755 6.279672 29.861886 36.451618 -0.305114 0.610747 0.057861 -0.010827 -143513.000000 0 0 1
-20.404555 5.500472 28.576786 35.542000 -0.263312 0.636756 0.064248 -0.011473 -226265.000000 0 0 1
-21.757755 5.801372 28.353646 36.207528 -0.260573 0.671182 0.089726 -0.017646 -473943.000000 0 0 1
-22.328455 4.832372 27.486146 35.740732 -0.213135 0.693454 0.089958 -0.019831 1569320.000000 0 0 1
-23.829855 5.191272 27.055516 36.425434 -0.214496 0.733607 0.088577 -0.016829 1437500.000000 0 0 1
-23.971855 6.202972 26.075746 35.959300 -0.253207 0.759550 0.099463 -0.020284 192959.000000 0 0 1
-25.347895 6.500072 25.969716 36.867233 -0.251025 0.789202 0.086822 -0.019820 -293414.000000 0 0 1
-25.772335 7.077472 24.608056 36.329881 -0.268008 0.826641 0.083276 -0.017404 -166840.000000 0 0 1
-25.978635 6.122672 23.570306 35.608088 -0.231457 0.847397 0.085084 -0.017024 996578.000000 0 0 1
-27.258175 5.468672 23.672126 36.514162 -0.197996 0.865447 0.082171 -0.012600 320785.000000 0 0 1
-27.594585 4.730372 22.371096 35.837180 -0.169774 0.896635 0.091262 -0.021856 -167857.000000 0 0 1
-28.152955 5.538172 21.380256 35.782336 -0.194237 0.930406 0.077473 -0.023757 -40298.900000 0 0 1
-28.062515 4.827272 20.172556 34.896122 -0.170351 0.954429 0.111816 -0.022789 -204237.000000 0 0 1
-28.581865 5.481972 18.885356 34.693396 -0.189498 0.995182 0.116791 -0.031720 -600061.000000 0 0 1
-29.972265 5.413972 18.945956 35.869165 -0.178706 1.014322 0.119420 -0.031684 -576963.000000 0 0 1
-30.616265 6.016272 17.831256 35.937514 -0.194033 1.051610 0.121493 -0.029009 79924.800000 0 0 1
-32.139705 6.195972 18.010256 37.359337 -0.190446 1.067767 0.126185 -0.024069 65951.400000 0 0 1
-32.350485 7.218072 18.993956 38.202419 -0.219525 1.050436 0.138136 -0.026833 186374.000000 0 0 1
-33.727035 7.148772 19.324356 39.522760 -0.208868 1.059919 0.140697 -0.025429 210043.000000 0 0 1
-34.201515 8.221972 20.309256 40.617857 -0.235921 1.047188 0.162152 -0.023033 -31202.900000 0 0 1
-33.816105 7.948672 21.628356 40.920608 -0.230865 1.013911 0.122129 -0.020231 -49231.400000 0 0 1
-34.312225 8.896572 22.506636 41.988408 -0.253696 1.005081 0.145642 -0.022065 9781.540000 0 0 1
-0.585555 32.781172 11.754271 34.829743 -1.552936 1.226560 0.201664 -0.041783 258232.000000 0 0 1
-1.103655 32.774872 13.119671 35.320476 -1.537135 1.190230 0.209237 -0.044363 106606.000000 0 0 1
-0.704255 -33.666807 13.773871 36.382267 1.549881 1.182527 0.200617 -0.051179 -71342.100000 0 0 1
-0.742255 -33.778907 15.304471 37.091674 1.548826 1.145477 0.203486 -0.052353 687189.000000 0 0 1
-2.051955 -33.814707 15.890271 37.418520 1.510188 1.132206 0.174650 -0.046435 472212.000000 0 0 1
-1.985055 33.704472 17.283271 37.929452 -1.511968 1.097673 0.171623 -0.052332 -178039.000000 0 0 1
-3.316955 -33.629107 17.973771 38.274997 1.472481 1.081964 0.155497 -0.043787 -423908.000000 0 0 1
-4.241255 32.984372 18.037571 37.832671 -1.442914 1.073817 0.164858 -0.043367 -645865.000000 0 0 1
-5.160355 33.244172 19.048071 38.660486 -1.416799 1.055605 0.111799 -0.030377 -6931.100000 0 0 1
-6.432855 32.340972 19.088871 38.101247 -1.374452 1.046038 0.111550 -0.028621 425431.000000 0 0 1
-7.341755 32.545372 18.028871 37.922853 -1.348925 1.075367 0.101357 -0.031248 -147694.000000 0 0 1
-8.455855 31.696972 18.199271 37.515503 -1.310096 1.064304 0.087593 -0.034625 197003.000000 0 0 1
-9.543255 31.765372 17.098871 37.316001 -1.278946 1.094807 0.074460 -0.046173 -249667.000000 0 0 1
-10.416155 32.833172 17.132671 38.471312 -1.263595 1.109247 0.085360 -0.033359 -156635.000000 0 0 1
-11.184355 32.862872 15.897771 38.181111 -1.242758 1.141339 0.078383 -0.038339 327329.000000 0 0 1
-12.232355 -33.659707 15.783071 39.137088 1.222223 1.155702 0.079275 -0.040252 -176757.000000 0 0 1
-13.325055 33.811372 16.669871 39.983128 -1.195387 1.140739 0.067939 -0.037350 -275689.000000 0 0 1
-14.197455 -32.747607 16.446371 39.299575 1.161713 1.139017 0.059690 -0.034403 -71113.200000 0 0 1
-15.538255 -32.929607 17.187971 40.264410 1.129911 1.129759 0.075409 -0.036657 24331.800000 0 0 1
-15.560055 -32.553207 18.578571 40.583123 1.124913 1.095288 0.072066 -0.030191 -559970.000000 0 0 1
-16.738955 -32.986007 19.168471 41.661727 1.101202 1.092691 0.078468 -0.034722 -419267.000000 0 0 1
-16.540155 -32.806707 20.696771 42.168864 1.103818 1.057781 0.077577 -0.044337 -226711.000000 0 0 1
-16.436455 -31.430707 21.034471 41.237063 1.088964 1.035511 0.075417 -0.039474 76785.100000 0 0 1
-16.051355 -31.108207 22.362971 41.538765 1.094443 1.002302 0.085069 -0.035858 231706.000000 0 0 1
-15.985455 -29.574107 22.571171 40.492225 1.075259 0.979522 0.098309 -0.044262 -15160.800000 0 0 1
-15.799855 -29.196107 23.933871 40.925276 1.074763 0.946140 0.124120 -0.052903 -16454.000000 0 0 1
-15.667655 -27.780107 24.198171 40.034500 1.057277 0.921742 0.103780 -0.027412 -208957.000000 0 0 1
-16.821355 -26.889907 23.719371 39.605980 1.011792 0.928690 0.106378 -0.027065 224207.000000 0 0 1
-18.018855 -27.027207 24.486271 40.678330 0.982775 0.924857 0.106657 -0.023813 94246.600000 0 0 1
-19.034855 -26.232707 23.957071 40.304117 0.943085 0.934268 0.092455 -0.024623 -15528.700000 0 0 1
-20.175355 -25.847607 24.999671 41.232600 0.908028 0.919386 0.098444 -0.017899 485030.000000 0 0 1
-21.034555 -26.894807 25.412471 42.562622 0.907063 0.930964 0.110063 -0.020928 326355.000000 0 0 1
-22.019255 -27.363707 24.520871 42.835653 0.893203 0.961317 0.100982 -0.026905 71872.500000 0 0 1
-23.345755 -26.525607 24.570871 43.039049 0.849073 0.963198 0.071433 -0.017974 55030.400000 0 0 1
-23.266455 -25.377607 23.806671 41.858194 0.828771 0.965816 0.069024 -0.017876 940910.000000 0 0 1
-24.569455 -25.238207 23.212671 42.183567 0.798824 0.988100 0.059972 -0.013641 683644.000000 0 0 1
-24.978565 -23.765907 22.880571 41.379555 0.760525 0.984903 0.058957 0.003690 61944.100000 0 0 1
-25.587675 -23.123707 24.013971 42.025061 0.734858 0.962561 0.048290 0.005065 149789.000000 0 0 1
-26.072575 -21.870807 23.647371 41.440433 0.697981 0.963517 0.042265 0.007351 -122961.000000 0 0 1
-26.653615 -21.073807 24.801671 42.067130 0.669017 0.940265 0.042189 0.014793 109776.000000 0 0 1
-27.924915 -21.530507 25.222271 43.353507 0.656815 0.949879 0.037744 0.019975 330907.000000 0 0 1
-28.456815 -20.679307 26.212771 43.869504 0.628416 0.930395 0.043262 0.006955 -60035.500000 0 0 1
-29.516295 -21.361407 27.206971 45.472416 0.626466 0.929396 0.044415 0.002599 -145991.000000 0 0 1
-30.842565 -21.502607 26.880471 46.218888 0.608826 0.950114 0.053675 -0.004413 -653805.000000 0 0 1
-31.178415 -22.005807 25.601971 45.954434 0.614610 0.979887 0.041575 0.006912 -1142190.000000 0 0 1
-32.692065 -22.286407 25.490771 47.066277 0.598343 0.998465 0.049226 -0.003181 51955.200000 0 0 1
-33.217795 -22.662507 24.222671 46.944104 0.598707 1.028634 0.035816 -0.008256 -114565.000000 0 0 1
-32.866045 -23.950907 23.780871 47.110006 0.629757 1.041652 0.024188 -0.001417 -456937.000000 0 0 1
-33.522005 -24.615607 22.551271 47.309753 0.633385 1.073930 0.025047 0.000884 -177104.000000 0 0 1
-34.845793 -25.081907 22.705971 48.568431 0.623890 1.084330 0.046872 -0.011941 63603.700000 0 0 1
-35.222170 -25.759207 21.514771 48.652064 0.631448 1.112727 0.049765 -0.011942 444522.000000 0 0 1
-36.499005 -26.666707 21.627571 50.110303 0.630979 1.124531 0.078551 -0.020764 170938.000000 0 0 1
-36.480545 -27.795307 22.535571 51.100501 0.651087 1.114078 0.069425 -0.019495 543588.000000 0 0 1
-35.503794 -28.843907 22.376871 50.923616 0.682267 1.115843 0.037509 -0.003637 -227379.000000 0 0 1
-35.861253 -29.821407 21.227471 51.244037 0.693701 1.143686 0.050327 -0.006384 -126286.000000 0 0 1
-35.958265 -29.154807 20.020871 50.436444 0.681289 1.162602 0.046888 -0.008659 392250.000000 0 0 1
-36.360635 -30.073807 19.035771 50.881138 0.691047 1.187346 0.048753 -0.003660 -175958.000000 0 0 1
-36.811445 -29.548207 17.643971 50.393340 0.676379 1.213092 0.054694 -0.006324 -813353.000000 0 0 1
-35.675861 -29.180407 16.943971 49.105614 0.685579 1.218503 0.067670 -0.007615 -320867.000000 0 0 1
-35.955295 -28.566207 15.651571 48.515802 0.671374 1.242313 0.062988 -0.020568 68020.700000 0 0 1
-36.591215 -29.430907 14.506971 49.148220 0.677367 1.271165 0.061432 -0.015363 244204.000000 0 0 1
-35.709332 -30.394207 13.962071 48.927534 0.705165 1.281412 0.066639 -0.022425 -364159.000000 0 0 1
-36.287455 -31.207407 12.966971 49.586530 0.710274 1.306218 0.074698 -0.027644 -13837.800000 0 0 1
-36.699995 -30.580307 11.639771 49.168375 0.694690 1.331795 0.088059 -0.029457 834774.000000 0 0 1
-37.950525 -29.871407 11.632971 49.677654 0.666834 1.334433 0.084912 -0.033852 503025.000000 0 0 1
37.791126 -29.191507 10.458171 48.884420 -0.657711 1.355193 0.072444 -0.016120 1215510.000000 0 0 1
36.343346 -28.546007 10.298971 47.347461 -0.665808 1.351524 0.110450 -0.014235 1189190.000000 0 0 1
36.462996 -27.442107 9.439771 46.601808 -0.645164 1.366823 0.131339 -0.051811 273491.000000 0 0 1
35.258376 -26.706407 9.317071 45.201693 -0.648251 1.363186 0.107504 -0.047891 -32114.600000 0 0 1
35.255796 -25.682907 8.170871 44.377313 -0.629581 1.385617 0.100747 -0.050111 -222316.000000 0 0 1
36.066616 -24.583207 8.370171 44.443161 -0.598274 1.381331 0.116957 -0.055645 -331965.000000 0 0 1
36.140506 -23.835807 7.199271 43.887485 -0.583047 1.406012 0.093605 -0.040434 -266617.000000 0 0 1
36.939096 -22.553607 7.248471 43.882824 -0.548149 1.404858 0.102921 -0.037430 -372669.000000 0 0 1
36.343026 -21.517607 8.032771 42.992422 -0.534568 1.382850 0.098338 -0.037489 -154181.000000 0 0 1
36.948476 -20.240607 7.897171 42.863006 -0.501157 1.385496 0.106253 -0.023210 70895.000000 0 0 1
36.277276 -19.093507 8.719171 41.912130 -0.484482 1.361231 0.083259 -0.012084 220269.000000 0 0 1
36.526606 -19.189907 10.091371 42.476831 -0.483735 1.330929 0.067735 -0.032698 236314.000000 0 0 1
35.724726 -18.279207 10.888971 41.580706 -0.472939 1.305831 0.083179 -0.033480 504035.000000 0 0 1
36.132396 -18.331407 12.404871 42.373002 -0.469502 1.273690 0.076774 -0.043213 -532611.000000 0 0 1
37.303416 -17.641107 12.701771 43.175090 -0.441741 1.272186 0.031089 -0.032903 -379820.000000 0 0 1
37.658576 -17.851007 14.051971 43.980503 -0.442650 1.245590 0.041599 -0.022260 -252680.000000 0 0 1
-36.975875 -17.086207 14.384371 43.197962 0.432863 1.231326 0.064294 -0.024634 -393773.000000 0 0 1
-35.743338 -17.658107 14.020171 42.260622 0.458856 1.232633 0.062575 -0.019098 -537484.000000 0 0 1
-34.704801 -16.969207 14.604971 41.299908 0.454775 1.209345 0.085058 -0.022764 -706010.000000 0 0 1
-33.419765 -16.947107 13.760171 39.917758 0.469310 1.218863 0.094339 -0.017774 -154266.000000 0 0 1
-32.767485 -18.205007 13.558171 39.861690 0.507118 1.223741 0.091154 -0.023526 25772.600000 0 0 1
-31.712025 -18.039007 12.649571 38.614375 0.517191 1.237048 0.102094 -0.023255 -754399.000000 0 0 1
-31.066885 -19.323407 12.229171 38.575874 0.556435 1.248215 0.080703 -0.016800 -483320.000000 0 0 1
-31.804995 -20.364507 11.595771 39.506110 0.569521 1.272891 0.081039 -0.022794 -898791.000000 0 0 1
-31.022545 -21.233807 10.842971 39.125987 0.600223 1.289991 0.074183 -0.027529 -516232.000000 0 0 1
-31.748945 -22.224707 9.891371 39.997154 0.610735 1.320902 0.064399 -0.023128 30833.500000 0 0 1
-32.382575 -23.324007 10.460671 41.256104 0.624197 1.314443 0.067159 -0.016555 -825812.000000 0 0 1
-33.762715 -23.122207 10.498171 42.246526 0.600482 1.319667 0.089188 -0.025628 -603260.000000 0 0 1
-34.626865 -24.370907 10.756871 43.688341 0.613282 1.322020 0.122845 -0.030007 -262909.000000 0 0 1
-34.742345 -25.135007 9.560871 43.934148 0.626304 1.351423 0.104654 -0.025434 -190214.000000 0 0 1
-35.470577 -26.329707 9.757471 45.239623 0.638553 1.353404 0.115237 -0.020350 68034.300000 0 0 1
-35.769193 -26.944807 8.392071 45.561877 0.645608 1.385548 0.110028 -0.022065 52873.300000 0 0 1
-34.569172 -27.329807 7.793571 44.751377 0.668973 1.395751 0.095177 -0.026892 -185170.000000 0 0 1
-34.916698 -27.831507 6.539771 45.128009 0.672960 1.425368 0.090988 -0.022835 1273710.000000 0 0 1
-33.580295 -28.176507 5.764371 44.212891 0.698119 1.440047 0.080699 -0.019590 1394510.000000 0 0 1
-32.833715 -27.062407 5.235071 42.869951 0.689339 1.448376 0.091274 -0.005259 114968.000000 0 0 1
-31.725695 -27.541907 4.498971 42.253013 0.714924 1.464117 0.105491 -0.024062 684195.000000 0 0 1
-30.846825 -26.477507 3.743671 40.824013 0.709324 1.478965 0.087307 -0.019525 447447.000000 0 0 1
-31.527285 -25.994907 2.626171 40.946326 0.689515 1.506615 0.095864 -0.021791 21947.300000 0 0 1
-30.709945 -25.001607 1.996471 39.650561 0.683292 1.520423 0.114373 -0.032444 191060.000000 0 0 1
-31.276545 -24.351107 0.696971 39.644476 0.661539 1.553215 0.136915 -0.039774 -248752.000000 0 0 1
-30.666175 -24.911707 -0.423229 39.511853 0.682227 1.581508 0.144640 -0.047684 -309122.000000 0 0 1
-30.840675 -24.229107 -1.688529 39.256184 0.665912 1.613823 0.155471 -0.040944 104059.000000 0 0 1
-32.266165 -23.995607 -2.246829 40.273351 0.639442 1.626615 0.154407 -0.037510 207405.000000 0 0 1
-32.976515 -22.899507 -1.720529 40.184551 0.606970 1.613625 0.142411 -0.031973 -1027270.000000 0 0 1
-34.285247 -22.957307 -2.159829 41.318046 0.590029 1.623093 0.137262 -0.029177 -888692.000000 0 0 1
-35.147365 -21.683907 -1.909629 41.342179 0.552784 1.617004 0.133968 -0.023526 -80418.200000 0 0 1
-35.408671 -21.500207 -0.524829 41.428352 0.545698 1.583465 0.126799 -0.031299 572057.000000 0 0 1
-36.074755 -20.184507 -0.410629 41.339701 0.510122 1.580730 0.116259 -0.020456 134586.000000 0 0 1
-36.347565 -19.792907 1.044871 41.400440 0.498646 1.545555 0.131541 -0.026209 189782.000000 0 0 1
-37.332285 -20.616607 1.658471 42.678970 0.504566 1.531927 0.091802 -0.026402 424155.000000 0 0 1
-37.157085 -20.489707 3.019171 42.539305 0.503944 1.499763 0.092807 -0.026162 -205431.000000 0 0 1
37.737066 -21.485807 3.642771 43.577469 -0.517582 1.487106 0.110700 -0.012905 1247060.000000 0 0 1
36.371126 -21.291907 3.269871 42.271694 -0.529620 1.493365 0.086276 -0.012748 217860.000000 0 0 1
35.663946 -20.297507 3.928971 41.223083 -0.517413 1.475341 0.084722 -0.019660 -792239.000000 0 0 1
34.410136 -19.895207 3.152571 39.872489 -0.524220 1.491647 0.078521 -0.004765 -92348.800000 0 0 1
33.386736 -20.867407 3.121671 39.495159 -0.558614 1.491674 0.073159 -0.009391 367316.000000 0 0 1
32.237756 -20.393607 2.399971 38.222139 -0.564046 1.507965 0.095413 -0.008531 887215.000000 0 0 1
30.909226 -21.169007 2.546771 37.549875 -0.600504 1.502921 0.090563 0.001475 55531.700000 0 0 1
30.810826 -22.456907 1.929771 38.175170 -0.629836 1.520224 0.065556 -0.004174 -354530.000000 0 0 1
29.582226 -23.026207 2.291371 37.557484 -0.661418 1.509749 0.067357 -0.003096 -160406.000000 0 0 1
29.028326 -24.141207 1.345071 37.778972 -0.693740 1.535185 0.063503 -0.001102 -329887.000000 0 0 1
28.476226 -23.605707 0.186171 36.988640 -0.692153 1.565763 0.074175 -0.010941 -105869.000000 0 0 1
28.196026 -24.650407 -0.688829 37.458415 -0.718406 1.589187 0.050954 -0.011214 -177021.000000 0 0 1
27.366326 -24.199607 -1.899829 36.580679 -0.724064 1.622755 0.063356 -0.021253 201909.000000 0 0 1
28.163026 -23.563807 -2.926529 36.837122 -0.696718 1.650325 0.058973 -0.037655 435950.000000 0 0 1
28.390926 -24.303807 -4.113529 37.598415 -0.707991 1.680423 0.056127 -0.036545 -943113.000000 0 0 1
27.219526 -24.679707 -5.001029 37.081003 -0.736500 1.706076 0.062652 -0.035488 -489898.000000 0 0 1
26.624526 -23.755207 -5.898229 36.165789 -0.728506 1.734617 0.064980 -0.050549 510273.000000 0 0 1
25.504126 -23.115507 -5.299229 34.826267 -0.736309 1.723552 0.095308 -0.054409 -167251.000000 0 0 1
24.728226 -22.202907 -6.281429 33.821747 -0.731641 1.757603 0.110230 -0.058010 -88748.900000 0 0 1
24.243626 -22.925207 -7.400529 34.177278 -0.757454 1.789059 0.117235 -0.065869 -14017.700000 0 0 1
23.295126 -22.218407 -8.175729 33.213898 -0.761745 1.819506 0.118095 -0.069202 -143508.000000 0 0 1
23.645526 -20.920107 -9.000629 32.829454 -0.724319 1.848516 0.129041 -0.055276 -345730.000000 0 0 1
24.486526 -21.098507 -10.136629 33.874595 -0.711212 1.874692 0.126041 -0.052143 170121.000000 0 0 1
24.268326 -20.084307 -11.131429 33.410174 -0.691341 1.910465 0.123871 -0.055470 -369187.000000 0 0 1
25.186126 -20.145807 -12.331129 34.528991 -0.674666 1.935983 0.105940 -0.049823 -897503.000000 0 0 1
26.521826 -19.890207 -12.060829 35.277346 -0.643473 1.919719 0.142083 -0.049105 -679096.000000 0 0 1
27.242026 -19.533307 -13.223829 36.035367 -0.622063 1.946544 0.138653 -0.048551 -1294120.000000 0 0 1
28.719626 -19.647107 -13.011829 37.150147 -0.599975 1.928634 0.117541 -0.042493 -1434850.000000 0 0 1
29.145226 -20.979707 -13.305729 38.296667 -0.623913 1.925634 0.094595 -0.034764 300169.000000 0 0 1
29.822426 -21.542407 -12.180929 38.753418 -0.625573 1.890535 0.125535 -0.044374 -94440.500000 0 0 1
29.970726 -23.131607 -12.350429 39.822716 -0.657312 1.886132 0.106038 -0.038326 -438031.000000 0 0 1
31.041986 -23.563007 -13.146529 41.129690 -0.649280 1.896142 0.080024 -0.035411 13324.900000 0 0 1
31.052816 -24.951207 -13.486029 42.056070 -0.676877 1.897231 0.066241 -0.029695 -163215.000000 0 0 1
-3.547255 -9.175828 -27.513799 29.219651 1.201906 2.798206 0.067736 -0.018850 -36047.100000 0 0 1
-3.647155 -7.882728 -27.064889 28.424415 1.137451 2.831059 0.066153 -0.019599 -51429.400000 0 0 1
-4.829655 -7.206428 -27.440889 28.779517 0.980360 2.835396 0.071996 -0.022209 32552.400000 0 0 1
-4.808955 -5.790928 -26.782959 27.820636 0.877775 2.867611 0.056748 -0.023875 -239381.000000 0 0 1
-5.187955 -5.762528 -25.404329 26.561279 0.837820 2.845357 0.042957 -0.024380 231551.000000 0 0 1
-4.825555 -4.542728 -24.808829 25.678792 0.755218 2.880550 0.043870 -0.020383 -45940.600000 0 0 1
-5.448655 -4.378128 -23.383329 24.405654 0.676886 2.851129 0.032791 -0.024206 1440.640000 0 1 0
-4.804155 -5.228828 -22.508529 23.602001 0.827701 2.836005 0.034554 -0.028167 548038.000000 0 1 0
-5.507155 -5.137028 -21.287929 22.580827 0.750639 2.801559 0.035383 -0.020554 257221.000000 0 1 0
-4.859955 -6.177528 -20.378229 21.841549 0.904209 2.773465 0.037312 -0.022347 -241751.000000 0 1 0
-5.263655 -7.495028 -20.705629 22.640773 0.958538 2.725137 0.033926 -0.013012 47897.700000 0 1 0
-4.461655 -8.491228 -20.124829 22.293857 1.087002 2.696817 0.037329 -0.017177 -1100850.000000 0 1 0
-5.091855 -9.929528 -20.119529 23.006912 1.096962 2.635199 0.054561 -0.014936 247666.000000 0 1 0
-6.214555 -10.187028 -19.313829 22.702869 1.023023 2.588154 0.055855 -0.009602 1197610.000000 0 1 0
-7.424955 -9.424628 -19.607929 22.987485 0.903524 2.592470 0.061684 -0.013001 684834.000000 0 1 0
-8.587855 -9.529728 -18.575729 22.574869 0.837338 2.537204 0.070953 -0.001677 199269.000000 0 1 0
-9.415755 -10.642328 -18.838429 23.596653 0.846473 2.495349 0.109440 -0.002527 516940.000000 0 1 0
-10.361155 -10.830228 -17.767929 23.245359 0.807530 2.440852 0.117203 0.003104 247432.000000 0 1 0
-11.226155 -12.102028 -17.791329 24.269673 0.822926 2.393619 0.111714 0.006072 267879.000000 0 1 0
-12.415555 -11.959628 -18.567629 25.336448 0.766696 2.393287 0.128262 -0.006555 83383.200000 0 0 1
-12.303355 -12.199628 -19.960829 26.431765 0.781165 2.426730 0.132237 -0.018281 -435122.000000 0 0 1
-13.636755 -11.936528 -20.767129 27.562936 0.719011 2.424081 0.121648 -0.023563 1264690.000000 0 0 1
-14.674855 -12.906828 -20.560929 28.367048 0.721384 2.381566 0.112332 -0.020630 381467.000000 0 0 1
-15.213555 -12.964428 -19.223829 27.732369 0.705748 2.336703 0.112405 -0.015454 -1184510.000000 0 0 1
-16.474855 -13.849428 -19.132829 28.797442 0.699035 2.297478 0.115175 -0.008103 82141.300000 0 0 1
-16.186755 -15.223228 -19.392429 29.492779 0.754732 2.288334 0.122372 -0.013848 -305792.000000 0 0 1
-16.910955 -15.680628 -20.474829 30.839604 0.747666 2.296836 0.128168 -0.016957 -207830.000000 0 0 1
-16.514555 -17.120028 -20.841029 31.625534 0.803398 2.290276 0.100951 -0.011160 28894.600000 0 0 1
-16.898755 -18.127028 -19.935329 31.805258 0.820451 2.248228 0.119945 -0.008627 62108.000000 0 0 1
-16.563155 -19.421128 -20.436429 32.698104 0.864655 2.245932 0.105692 -0.011015 52753.600000 0 0 1
-17.240355 -20.620128 -19.680429 33.312743 0.874431 2.202819 0.107770 -0.019240 -1138.530000 0 0 1
-16.902955 -21.856128 -20.253329 34.257811 0.912503 2.203346 0.097883 -0.015128 67026.900000 0 0 1
-17.358555 -22.986228 -19.592129 34.835868 0.923993 2.168097 0.096744 -0.011836 -413556.000000 0 0 1
-16.694455 -24.202128 -20.202629 35.673437 0.966954 2.172832 0.095504 -0.015923 -96639.700000 0 0 1
-17.153755 -24.602828 -21.518329 36.913263 0.961934 2.193142 0.058026 -0.013528 206215.000000 0 0 1
-16.643755 -25.852478 -21.861229 37.726364 0.998794 2.188872 0.059933 -0.013024 -408060.000000 0 0 1
-16.881255 -26.261618 -23.328729 38.972798 0.999492 2.212536 0.058362 -0.015929 -788840.000000 0 0 1
-18.122355 -26.716988 -23.789129 40.101620 0.974777 2.205851 0.078383 -0.014269 -557955.000000 0 0 1
-18.381955 -28.116638 -23.596129 41.051418 0.991772 2.183149 0.079276 -0.014685 699328.000000 0 0 1
-19.716355 -28.608448 -24.327229 42.414527 0.967369 2.181640 0.088000 -0.018627 397536.000000 0 0 1
-19.719855 -28.690158 -25.771589 43.314809 0.968619 2.208041 0.092850 -0.019993 49798.900000 0 0 1
-19.376255 -27.541678 -26.511249 42.858251 0.957709 2.237730 0.092657 -0.028423 13578.500000 0 0 1
-18.031255 -27.553578 -27.276729 42.759161 0.991329 2.262585 0.095989 -0.032950 -23174.600000 0 0 1
-18.079255 -27.779388 -28.627899 43.796239 0.993848 2.283208 0.100406 -0.034529 -62261.000000 0 0 1
-16.795955 -27.555278 -29.168929 43.499700 1.023394 2.305753 0.074699 -0.020490 -26537.200000 0 0 1
-16.673355 -27.795478 -30.696049 44.641201 1.030481 2.328998 0.100831 -0.025940 3168.660000 0 0 1
-16.964855 -29.133168 -31.097659 45.865153 1.043478 2.315867 0.087657 -0.024018 187206.000000 0 0 1
-17.265655 -29.064718 -32.491089 46.888502 1.034769 2.336360 0.082910 -0.019712 55957.500000 0 0 1
-17.387955 -30.416198 -33.196279 48.264677 1.051470 2.329246 0.085434 -0.022146 204200.000000 0 0 1
-16.128655 -30.800898 33.673826 48.402019 1.088414 0.801387 0.094810 -0.021673 -98448.700000 0 0 1
-16.256555 -31.967768 32.918073 48.680729 1.100348 0.828199 0.086178 -0.017649 288671.000000 0 0 1
-14.919755 -32.451148 32.298398 48.154571 1.139855 0.835613 0.069635 -0.016013 289870.000000 0 0 1
-14.090355 -33.186788 33.173623 48.993778 1.169284 0.826983 0.094037 -0.016817 -74699.700000 0 0 1
-12.997255 -33.758558 32.490021 48.622735 1.203282 0.839001 0.097809 -0.020024 11130.800000 0 0 1
-12.045855 33.037383 33.354196 48.467243 -1.221163 0.811819 0.101297 -0.020360 91800.500000 0 0 1
-11.353455 33.815330 -33.050529 48.628335 -1.246873 2.318090 0.112432 -0.026985 -133452.000000 0 0 1
-10.539755 32.984341 -32.241759 47.313679 -1.261512 2.320534 0.106637 -0.029187 190583.000000 0 0 1
-9.554455 33.800410 -31.372879 47.095784 -1.295311 2.299832 0.102920 -0.035229 -12475.600000 0 0 1
-10.233155 -33.103688 -30.364499 46.071406 1.270990 2.290384 0.138003 -0.034640 -493108.000000 0 0 1
-9.498055 -32.099238 -29.812239 44.825704 1.283108 2.298384 0.143672 -0.039346 -861740.000000 0 0 1
-10.314655 -31.151058 -28.873409 43.708744 1.251042 2.292396 0.151120 -0.040071 212907.000000 0 0 1
-10.623055 -31.646648 -27.575839 43.298806 1.246938 2.261232 0.180992 -0.045730 319112.000000 0 0 1
-11.429055 -32.833118 -27.453479 44.298200 1.235819 2.239211 0.160111 -0.040923 -132177.000000 0 0 1
-11.777955 -33.114528 -25.915039 43.667854 1.229076 2.206145 0.149279 -0.035213 152333.000000 0 0 1
-10.676555 -33.211958 -25.048229 42.946907 1.259763 2.193504 0.172092 -0.055496 63724.500000 0 0 1
-11.206855 -33.410878 -23.734729 42.487854 1.247164 2.163522 0.165164 -0.057916 366636.000000 0 0 1
-10.173455 -33.036138 -22.639729 41.321217 1.272063 2.150643 0.196763 -0.071436 -5889.250000 0 0 1
-9.195855 33.615425 -22.527629 41.497646 -1.303769 2.144641 0.162834 -0.053534 -457645.000000 0 0 1
-8.113755 -33.605008 -21.717829 40.826385 1.333886 2.131705 0.172501 -0.057946 326202.000000 0 0 1
-7.175455 32.828981 -21.350929 39.813205 -1.355610 2.136817 0.163742 -0.046025 160884.000000 0 0 1
-6.349955 32.389267 -22.434129 39.908353 -1.377201 2.167769 0.137663 -0.060292 58969.600000 0 0 1
-5.521755 31.321740 -22.033629 38.691368 -1.396298 2.176659 0.118136 -0.043591 -115718.000000 0 0 1
-4.033155 31.756611 -22.014729 38.850958 -1.444471 2.173226 0.111278 -0.048394 -154343.000000 0 0 1
-3.440755 31.886209 -23.268429 39.623085 -1.463305 2.198446 0.119032 -0.042507 -352628.000000 0 0 1
-2.746755 30.744330 -23.676229 38.901443 -1.481691 2.225118 0.112111 -0.058009 -329668.000000 0 0 1
-2.270955 30.864710 -25.189099 39.903361 -1.497351 2.253963 0.105927 -0.015832 221246.000000 0 0 1
-1.307355 31.838712 -25.579309 40.862132 -1.529758 2.247197 0.105173 -0.046146 392746.000000 0 0 1
-1.802555 33.173349 -25.490069 41.874382 -1.516512 2.225251 0.112328 -0.037843 -133140.000000 0 0 1
-1.002555 -33.426728 -26.305849 42.548196 1.540813 2.237323 0.032825 -0.012475 237276.000000 0 0 1
0.180945 -32.953468 -25.666169 41.769799 -1.565305 2.232507 0.072148 -0.028949 224370.000000 0 0 1
0.812845 -31.890038 -26.346369 41.373499 -1.545313 2.261129 0.043850 -0.018795 608929.000000 0 0 1
2.204045 -31.447208 -25.773009 40.718948 -1.500824 2.256152 0.066450 -0.015973 68537.600000 0 0 1
2.190145 -30.638748 -24.576529 39.338727 -1.499435 2.245597 0.068584 -0.016148 40016.700000 0 0 1
3.455445 -30.116208 -24.244229 38.816347 -1.456559 2.245400 0.057938 -0.017313 -377518.000000 0 0 1
3.538745 -29.370768 -22.901329 37.411705 -1.450889 2.229565 0.059699 -0.014506 -140138.000000 0 0 1
3.641545 -30.212368 -21.749629 37.404471 -1.450843 2.191332 0.067069 -0.012895 433297.000000 0 0 1
3.842945 -29.456868 -20.568329 36.132139 -1.441069 2.176393 0.070041 -0.011828 -153430.000000 0 0 1
3.949045 -30.270838 -19.214029 36.070730 -1.441072 2.132556 0.076368 -0.001205 -147477.000000 0 0 1
2.729945 -30.796428 -18.731329 36.148794 -1.482383 2.115510 0.087830 -0.016818 164655.000000 0 0 1
2.506845 -32.167218 -19.165529 37.527746 -1.493022 2.106798 0.094928 -0.009596 -375870.000000 0 0 1
3.196345 -33.317658 -18.396529 38.193131 -1.475154 2.073357 0.067844 -0.015326 -50669.500000 0 0 1
4.509345 -33.572648 -18.854629 38.767950 -1.437279 2.078699 0.061894 -0.008268 -204621.000000 0 0 1
5.050945 33.169164 -17.912729 38.033818 1.419679 2.061185 0.059784 -0.024309 -803498.000000 0 0 1
6.143545 32.346753 -18.486629 37.759913 1.383104 2.082408 0.080450 -0.021459 -266065.000000 0 0 1
7.370445 33.029952 -18.817929 38.722288 1.351249 2.078271 0.119700 -0.021187 64722.200000 0 0 1
8.241645 32.141759 -19.419329 38.446426 1.319789 2.100295 0.102919 -0.032492 225602.000000 0 0 1
9.692445 32.718486 -19.504029 39.304580 1.282795 2.090045 0.093733 -0.041060 334104.000000 0 0 1
10.483245 32.814652 -18.380229 39.045264 1.261576 2.060927 0.078886 -0.033167 32498.500000 0 0 1
11.697145 33.527755 -18.552129 40.063887 1.235120 2.052245 0.079448 -0.019728 280607.000000 0 0 1
12.587645 33.559869 -17.296729 39.798121 1.211955 2.020403 0.049517 -0.023103 -323960.000000 0 0 1
13.354645 32.401154 -17.004829 38.953119 1.179846 2.022552 0.054667 -0.033976 -100985.000000 0 0 1
13.893845 32.563122 -15.742629 38.745660 1.167508 1.989205 0.052793 -0.043966 268352.000000 0 0 1
15.218045 31.770109 -15.475829 38.476356 1.124085 1.984733 0.060100 -0.039306 688686.000000 0 0 1
14.946345 30.392690 -15.234529 37.137578 1.113751 1.993490 0.084438 -0.038915 -282778.000000 0 0 1
16.174745 29.768230 -14.971729 37.039473 1.073068 1.986911 0.084566 -0.032490 -187509.000000 0 0 1
16.061245 28.467180 -14.107229 35.599969 1.057115 1.978248 0.101089 -0.025246 -147230.000000 0 0 1
15.844245 28.682580 -12.746129 35.159554 1.066113 1.941769 0.089525 -0.029859 -906332.000000 0 0 1
14.540745 28.880880 -12.345929 34.611565 1.104374 1.935529 0.100996 -0.030828 -1193960.000000 0 0 1
13.763345 27.720550 -11.769029 33.111457 1.109950 1.934178 0.109527 -0.026239 -622239.000000 0 0 1
13.085745 27.012410 -12.808029 32.633611 1.119678 1.974122 0.102986 -0.034973 70136.200000 0 0 1
12.716045 25.662090 -12.547829 31.268013 1.110740 1.983731 0.136440 -0.038992 2040.390000 0 0 1
11.735245 25.401820 -11.394529 30.212641 1.138021 1.957507 0.125115 -0.036122 -1733530.000000 0 0 1
10.482145 25.913350 -11.541829 30.242203 1.186410 1.962373 0.100955 -0.034057 -1155240.000000 0 0 1
9.981745 26.152190 -10.196229 29.791531 1.206183 1.920110 0.075844 -0.019952 -334594.000000 0 0 1
8.844545 27.154180 -10.270329 30.348890 1.255917 1.916022 0.072288 -0.021809 -464305.000000 0 0 1
9.282245 28.441260 -10.610229 31.743382 1.255330 1.911606 0.071815 -0.024953 766173.000000 0 0 1
8.202745 29.386490 -10.469329 32.256126 1.298592 1.901352 0.060604 -0.028427 861350.000000 0 0 1
8.779345 30.745210 -10.943729 33.795118 1.292647 1.900567 0.085682 -0.032638 976654.000000 0 0 1
9.717745 31.302070 -9.968429 34.258192 1.269780 1.866047 0.069395 -0.027379 502749.000000 0 0 1
10.282245 32.554598 -10.302129 35.660346 1.264866 1.863870 0.079401 -0.032694 282076.000000 0 0 1
11.481645 32.669494 -11.273129 36.417131 1.232832 1.885522 0.067680 -0.032286 -671161.000000 0 0 1
12.739945 32.313740 -10.785629 36.370507 1.195250 1.871873 0.056854 -0.027597 -637585.000000 0 0 1
13.599745 32.935982 -11.720229 37.511274 1.179207 1.888563 0.068082 -0.031277 225180.000000 0 0 1
15.139445 32.730114 -11.607629 37.884037 1.137552 1.882204 0.074137 -0.027338 779235.000000 0 0 1
15.685345 33.253431 -10.392729 38.207715 1.130051 1.846273 0.079363 -0.026617 -689215.000000 0 0 1
17.071045 33.343672 -10.421229 38.882168 1.097617 1.842134 0.064813 -0.024545 -682190.000000 0 0 1
17.561345 -33.250388 -9.362029 38.750958 -1.084880 1.814805 0.075913 -0.024321 46356.800000 0 0 1
17.398645 -33.721918 -8.017629 38.783540 -1.094474 1.779025 0.066942 -0.020385 456124.000000 0 0 1
18.020645 -32.835898 -7.045529 38.112719 -1.068868 1.756726 0.061423 -0.020239 -398063.000000 0 0 1
18.490245 -33.471058 -5.679129 38.658161 -1.066093 1.718236 0.056313 -0.007363 168354.000000 0 0 1
19.464045 33.171626 -5.734829 38.885653 1.040163 1.718816 0.041268 -0.013386 -244200.000000 0 0 1
20.756045 33.662229 -6.047929 40.006705 1.018262 1.722551 0.053566 -0.013815 -820383.000000 0 0 1
21.564845 32.648041 -6.878329 39.727176 0.987058 1.744812 0.052233 -0.008350 42744.700000 0 0 1
21.901245 31.413200 -6.299029 38.808909 0.961953 1.733826 0.060979 -0.003314 139593.000000 0 0 1
22.832245 31.476240 -5.226529 39.234955 0.943239 1.704405 0.055211 -0.003280 -402935.000000 0 0 1
23.355345 30.116620 -4.706929 38.401017 0.911176 1.693678 0.053826 -0.009128 -178998.000000 0 0 1
24.054245 29.370000 -5.682029 38.386052 0.884573 1.719366 0.049315 -0.006670 180573.000000 0 0 1
24.484945 28.067550 -5.166929 37.603152 0.853465 1.708639 0.071052 -0.009662 355124.000000 0 0 1
25.568645 27.396120 -6.085329 37.964907 0.819888 1.731779 0.057231 -0.001238 209981.000000 0 0 1
26.810045 28.077150 -5.985429 39.280150 0.808480 1.723770 0.046502 0.006890 -414483.000000 0 0 1
27.858645 27.396860 -6.605329 39.627293 0.777041 1.738264 0.028558 0.002027 29002.200000 0 0 1
28.638845 26.468130 -5.601929 39.397042 0.746028 1.713472 0.025389 0.013615 -800405.000000 0 0 1
29.459945 27.148810 -4.720229 40.338899 0.744594 1.688079 0.033695 0.013177 -361390.000000 0 0 1
30.242345 26.203400 -4.014729 40.216111 0.713965 1.670792 0.036674 0.010225 -372309.000000 0 0 1
31.585645 26.767270 -3.556929 41.554680 0.703012 1.656498 0.028686 0.007326 -427464.000000 0 0 1
31.491545 27.747420 -2.508429 42.046747 0.722278 1.630490 0.047772 0.001533 644542.000000 0 0 1
32.787345 27.929990 -1.930929 43.114067 0.705569 1.615598 0.054922 -0.006490 569161.000000 0 0 1
32.812245 29.134660 -1.021829 43.892094 0.726101 1.594079 0.053711 -0.000494 71096.500000 0 0 1
32.505645 30.363430 -1.668929 44.512247 0.751337 1.608299 0.043512 0.003679 29410.700000 0 0 1
31.296845 30.942470 -1.228729 44.027704 0.779704 1.598708 0.068836 -0.003562 -395892.000000 0 0 1
34.812026 22.284672 18.763356 45.393251 0.569415 1.144665 0.151315 -0.044192 519.956000 0 0 1
35.245016 22.023372 20.093556 46.162658 0.558502 1.120450 0.146867 -0.041828 141017.000000 0 0 1
35.755876 23.254672 20.586356 47.360959 0.576638 1.121125 0.157229 -0.038008 -15213.000000 0 0 1
35.677386 23.399172 22.097456 48.048878 0.580480 1.092919 0.123614 -0.018794 -402180.000000 0 0 1
34.382756 23.601172 22.581396 47.424768 0.601557 1.074523 0.094147 -0.015211 -187166.000000 0 0 1
34.359486 23.822572 23.986466 48.202072 0.606238 1.049940 0.095180 -0.013886 -470056.000000 0 0 1
33.005126 24.354172 24.417046 47.735271 0.635706 1.033856 0.067686 -0.012658 -333755.000000 0 0 1
33.047756 25.763072 24.548886 48.564779 0.662160 1.040850 0.044252 -0.010474 -706794.000000 0 0 1
31.778546 26.252272 24.762096 48.085540 0.690454 1.029836 0.043982 -0.012094 -879403.000000 0 0 1
31.749956 27.778972 24.931516 49.003178 0.718790 1.037037 0.023288 0.003272 -179533.000000 0 0 1
31.697256 28.532172 23.759346 48.819129 0.732896 1.062510 0.024535 -0.005948 97023.500000 0 0 1
31.443616 29.897272 24.015106 49.591059 0.760194 1.065276 0.030551 0.002480 -174340.000000 0 0 1
31.792026 30.812872 22.793406 49.796639 0.769759 1.095356 0.034513 -0.007514 -639106.000000 0 0 1
33.158946 30.965872 22.621046 50.696278 0.751211 1.108274 0.016167 -0.005386 -1000420.000000 0 0 1
33.436106 31.493972 21.344556 50.650108 0.755496 1.135795 0.027889 -0.004361 -266666.000000 0 0 1
34.900006 31.919072 21.280956 51.862478 0.740816 1.147976 0.008643 -0.019929 -429814.000000 0 0 1
35.190416 32.959072 22.208556 53.083761 0.752668 1.139148 0.032858 0.000263 -251059.000000 0 0 1
36.545526 33.329972 22.156256 54.197436 0.739412 1.149651 0.027328 0.003889 -93262.500000 0 0 1
36.950566 -33.118507 23.003396 54.693107 -0.730763 1.136700 0.041548 0.006170 -529432.000000 0 0 1
36.437546 -31.917807 22.577926 53.443464 -0.719373 1.134634 0.032535 0.006815 -253829.000000 0 0 1
36.859866 -30.714907 23.212206 53.299734 -0.694712 1.120199 0.055762 0.003341 -697969.000000 0 0 1
35.954276 -29.524507 22.881006 51.845413 -0.687516 1.113715 0.053193 -0.003761 616464.000000 0 0 1
34.581466 -29.609307 23.242526 51.115593 -0.708093 1.098755 0.050947 0.000976 1362920.000000 0 0 1
33.625506 -30.216107 22.327736 50.420388 -0.732045 1.112042 0.060266 0.002391 260649.000000 0 0 1
33.195986 -31.678307 22.425396 51.072370 -0.762008 1.116210 0.055731 0.003778 -729880.000000 0 0 1
32.365506 -31.832907 23.517426 51.126600 -0.777102 1.092819 0.079058 -0.003480 -473956.000000 0 0 1
31.659036 -33.025807 23.508336 51.435788 -0.806525 1.096129 0.071801 -0.002206 -102391.000000 0 0 1
30.663526 -33.149807 24.697226 51.469549 -0.824340 1.070322 0.060447 -0.003838 62596.500000 0 0 1
30.283126 33.166472 24.942916 51.373452 0.830810 1.063837 0.060198 -0.010805 75180.600000 0 0 1
29.275426 33.026972 25.928616 51.187152 0.845541 1.039623 0.066858 -0.004743 -429469.000000 0 0 1
28.962426 31.497772 26.118526 50.130920 0.827308 1.022767 0.060614 -0.005705 321362.000000 0 0 1
28.290026 30.867972 25.021166 48.777207 0.828948 1.032157 0.063153 -0.001416 450155.000000 0 0 1
26.923126 31.244372 24.869446 48.161756 0.859552 1.028186 0.071997 -0.002772 30795.400000 0 0 1
26.418326 31.110372 23.377566 47.035027 0.866778 1.050630 0.115288 -0.026763 -61577.000000 0 0 1
26.744526 32.025272 22.369066 47.341977 0.875012 1.078672 0.136257 -0.032216 -205877.000000 0 0 1
28.110626 32.128272 22.043156 48.045123 0.851995 1.094151 0.093074 -0.021710 -275948.000000 0 0 1
28.316226 32.996772 20.806656 48.202827 0.861589 1.124477 0.120811 -0.041185 888875.000000 0 0 1
29.687726 33.050072 20.360956 48.869590 0.838941 1.141052 0.111680 -0.039517 842408.000000 0 0 1
29.871626 -33.733907 19.253556 48.999897 -0.846046 1.166980 0.111058 -0.040162 838985.000000 0 0 1
31.372806 -33.501307 18.824556 49.608007 -0.818196 1.181577 0.114453 -0.042121 924496.000000 0 0 1
31.978426 33.077772 18.177856 49.469113 0.802295 1.194521 0.108460 -0.042103 -658084.000000 0 0 1
33.199826 33.468972 17.638756 50.334145 0.789435 1.212763 0.100484 -0.032862 -265395.000000 0 0 1
34.160296 32.379572 17.088056 50.073587 0.758643 1.222540 0.072737 -0.027797 157201.000000 0 0 1
34.766256 31.580972 18.088956 50.331507 0.737426 1.203175 0.032873 -0.022593 -45851.500000 0 0 1
35.530286 30.578172 17.465856 50.024813 0.710629 1.214139 0.058634 -0.024102 124478.000000 0 0 1
36.520196 29.802372 18.395856 50.599541 0.684452 1.198712 0.064209 -0.028357 440260.000000 0 0 1
37.473196 30.706972 18.952156 52.022521 0.686482 1.197908 0.077720 -0.022599 -249959.000000 0 0 1
-37.574865 30.065972 19.832956 52.049777 -0.674840 1.179877 0.104966 -0.020978 -184708.000000 0 0 1
-36.581655 31.061572 20.446756 52.164246 -0.703973 1.168026 0.129362 -0.016861 -73202.500000 0 0 1
-35.632324 31.593072 19.554356 51.479681 -0.725385 1.181166 0.134048 -0.020813 255705.000000 0 0 1
-34.426123 32.109672 20.091156 51.184407 -0.750597 1.167421 0.119446 -0.008354 359744.000000 0 0 1
-34.352863 33.525072 20.795356 52.311533 -0.773203 1.161974 0.090082 -0.008533 -308325.000000 0 0 1
-34.898121 33.418272 22.088356 53.127725 -0.763740 1.142019 0.090500 -0.009397 238099.000000 0 0 1
-34.789923 -32.965107 22.722656 53.041079 0.758472 1.128078 0.071923 -0.007919 -17628.400000 0 0 1
-34.877777 -33.180607 24.252296 53.903486 0.760466 1.104120 0.078120 -0.018888 -597740.000000 0 0 1
-36.117955 -33.506607 24.767826 55.142040 0.747910 1.104967 0.071087 -0.009632 -818533.000000 0 0 1
-35.952491 -33.793507 26.110786 55.824330 0.754453 1.084074 0.074206 -0.012142 393607.000000 0 0 1
-37.324245 33.550572 26.749676 56.870777 -0.732204 1.081099 0.058167 -0.019037 43057.600000 0 0 1
-37.264295 32.740472 27.969166 56.945943 -0.720866 1.057384 0.075345 -0.019767 318552.000000 0 0 1
37.363536 32.584572 28.581786 57.225052 0.717183 1.047818 0.088664 -0.023674 569872.000000 0 0 1
37.326196 31.511572 29.698396 57.168337 0.701130 1.024542 0.091276 -0.018553 -36495.300000 0 0 1
37.284456 30.134972 29.409246 56.241896 0.679748 1.020539 0.075385 -0.015641 71319.400000 0 0 1
-37.430335 29.590272 28.926136 55.797271 -0.668948 1.025800 0.081712 -0.015590 -186558.000000 0 0 1
-37.737005 28.161372 28.491286 55.035423 -0.641099 1.026648 0.084823 -0.010464 -739563.000000 0 0 1
37.220506 28.080372 27.495056 54.128102 0.646332 1.037978 0.069474 -0.003180 -201900.000000 0 0 1
37.026216 26.788172 26.932996 53.046518 0.626319 1.038255 0.072525 -0.009956 -148011.000000 0 0 1
36.511476 25.653272 27.819266 52.584121 0.612474 1.013324 0.066840 -0.017933 -280218.000000 0 0 1
37.457216 24.998072 28.678786 53.389319 0.588494 1.003726 0.062099 -0.014101 -122709.000000 0 0 1
37.244156 23.597872 28.928036 52.733461 0.564759 0.990142 0.065449 -0.009510 -5298.900000 0 0 1
37.749566 22.559072 27.927096 52.094761 0.538652 1.005007 0.076450 -0.006629 -152083.000000 0 0 1
37.089906 22.776072 26.703936 51.063791 0.550706 1.020485 0.087034 -0.008580 -94264.100000 0 0 1
37.607636 22.063672 25.588826 50.556185 0.530568 1.040086 0.092138 -0.029720 -67019.600000 0 0 1
37.292316 20.522472 25.524446 49.632509 0.503084 1.030642 0.102443 -0.025001 -86846.900000 0 0 1
35.908476 20.293572 25.325806 48.400869 0.514398 1.020135 0.130473 -0.008727 283195.000000 0 0 1
35.454916 19.010172 25.651706 47.712133 0.492170 1.003167 0.137315 -0.008138 -446924.000000 0 0 1
35.439536 18.558872 27.164136 48.355793 0.482409 0.974290 0.111526 0.006011 -457233.000000 0 0 1
34.426896 19.034372 28.006506 48.289573 0.505061 0.952104 0.096826 -0.009943 -27963.500000 0 0 1
34.460936 20.437672 28.135226 48.957588 0.535307 0.958576 0.106124 -0.029677 -1569130.000000 0 0 1
33.658416 21.060372 29.311306 49.351604 0.559109 0.934864 0.103619 -0.023098 246387.000000 0 0 1
32.251726 20.863472 29.206736 48.254447 0.574189 0.920697 0.113584 -0.024123 646899.000000 0 0 1
31.530906 21.349672 28.075466 47.310023 0.595193 0.935475 0.093598 -0.009133 -738766.000000 0 0 1
31.214166 22.880172 28.263446 47.923363 0.632536 0.940030 0.088560 -0.015019 -718424.000000 0 0 1
32.425656 23.576972 28.249786 49.044338 0.628689 0.956963 0.083597 -0.028916 -450483.000000 0 0 1
32.339616 24.971072 28.552896 49.846495 0.657528 0.960858 0.056813 -0.015467 57299.200000 0 0 1
32.711746 25.107772 30.080466 51.042070 0.654636 0.940571 0.066578 -0.023360 -548104.000000 0 0 1
33.999546 24.696972 30.396946 51.864090 0.628219 0.944574 0.050035 -0.009143 -865002.000000 0 0 1
34.406046 24.597472 31.763356 52.893500 0.620667 0.926651 0.066320 -0.015945 40691.800000 0 0 1
33.771896 23.571272 32.713357 52.595717 0.609352 0.899531 0.072944 -0.019100 -529119.000000 0 0 1
34.432776 23.571972 -33.491519 53.506408 0.600301 2.247126 0.084868 -0.036973 -432329.000000 0 0 1
33.834706 22.638772 -32.648109 52.184292 0.589685 2.246736 0.074040 -0.040380 -426538.000000 0 0 1
34.223596 22.532872 -31.222369 51.515251 0.582259 2.221919 0.077972 -0.050912 -653252.000000 0 0 1
33.622986 23.384872 -30.324159 50.959906 0.607701 2.208136 0.057720 -0.052348 -111048.000000 0 0 1
33.983456 23.173572 -28.963339 50.306706 0.598480 2.184299 0.098648 -0.064507 -437285.000000 0 0 1
35.282966 23.760472 -28.372179 51.131480 0.592668 2.159023 0.086481 -0.030101 76594.000000 0 0 1
35.784946 23.031672 -27.274109 50.545992 0.571872 2.140746 0.095003 -0.032344 -1082520.000000 0 0 1
36.842656 23.628972 -26.648939 51.243297 0.570269 2.117703 0.093985 -0.015999 -959566.000000 0 0 1
37.439206 22.670472 -25.640319 50.725441 0.544474 2.100726 0.084979 -0.010598 -525360.000000 0 0 1
-37.600805 21.759172 -26.226209 50.745405 -0.524602 2.113928 0.064684 -0.007535 -248442.000000 0 0 1
-37.462615 20.541772 -25.491339 49.751586 -0.501558 2.108741 0.039683 -0.000257 -278517.000000 0 0 1
-36.257755 19.674472 -25.875239 48.695356 -0.497166 2.131013 0.042022 0.005436 -220077.000000 0 0 1
-35.037569 19.992972 -25.249609 47.590891 -0.518533 2.130052 0.048081 0.008400 -357457.000000 0 0 1
-34.038138 19.105772 -25.693979 46.731209 -0.511481 2.152951 0.035163 0.003575 6006.070000 0 0 1
-32.681975 19.308172 -24.987129 45.445282 -0.533620 2.152956 0.051183 0.005342 -267682.000000 0 0 1
-32.784955 19.156772 -23.565829 44.689859 -0.528807 2.126239 0.050697 0.006210 -365731.000000 0 0 1
-31.758725 19.766972 -22.839429 43.829092 -0.556735 2.118938 0.082407 0.007018 -410559.000000 0 0 1
-32.164305 20.272272 -21.461029 43.658714 -0.562382 2.084681 0.075093 -0.002276 82428.500000 0 0 1
-32.562705 19.297872 -20.497929 43.045357 -0.534988 2.067117 0.038366 0.000270 -125939.000000 0 0 1
-33.015365 19.784972 -19.298929 43.057033 -0.539879 2.035567 0.033378 0.003188 -415603.000000 0 0 1
-33.734985 18.660672 -18.457629 42.742882 -0.505262 2.017316 0.024148 -0.004742 405620.000000 0 0 1
-34.366810 19.097372 -17.240729 42.930525 -0.507203 1.984055 0.029090 -0.004813 443989.000000 0 0 1
-35.463535 19.991172 -17.344729 44.250976 -0.513309 1.973560 0.014512 -0.003829 -814604.000000 0 0 1
-36.526295 19.715872 -16.305129 44.595326 -0.494957 1.945100 0.028543 -0.007980 -487557.000000 0 0 1
-36.158345 20.055772 -14.984129 43.979359 -0.506418 1.918466 0.035762 -0.004057 727021.000000 0 0 1
-37.371705 20.005772 -14.216529 44.710010 -0.491502 1.894386 0.047313 -0.008392 -84885.900000 0 0 1
-37.443815 20.961972 -13.016629 44.842794 -0.510355 1.865308 0.046925 -0.009033 -350483.000000 0 0 1
-37.479035 22.336772 -13.423129 45.648547 -0.537459 1.869262 0.062062 -0.015541 887484.000000 0 0 1
37.143876 22.989772 -13.438929 45.703412 0.554229 1.869254 0.067109 -0.015675 852081.000000 0 0 1
37.154386 24.517272 -13.912429 46.637974 0.583286 1.873715 0.063678 -0.017835 -13327.000000 0 0 1
37.677236 25.447572 -12.952229 47.274869 0.594031 1.848322 0.068266 -0.014107 197009.000000 0 0 1
37.352026 26.789572 -13.346029 47.864094 0.622189 1.853374 0.080131 -0.008730 -33575.400000 0 0 1
-37.461005 27.462472 -14.183129 48.566196 -0.632594 1.867152 0.084081 -0.001367 -168774.000000 0 0 1
-37.308085 26.959472 -15.482729 48.563579 -0.625745 1.895274 0.082768 0.000132 -385804.000000 0 0 1
-36.309835 27.686772 -16.108329 48.419415 -0.651462 1.909944 0.098577 -0.005946 -992195.000000 0 0 1
-36.156035 27.285172 -17.595329 48.593570 -0.646471 1.941307 0.103730 -0.008198 -83323.500000 0 0 1
-35.537437 26.066572 -17.996629 47.605192 -0.632855 1.958474 0.097402 -0.012163 -156319.000000 0 0 1
-34.147018 26.102372 -17.855029 46.541967 -0.652661 1.964523 0.099969 -0.004402 -575298.000000 0 0 1
-33.442515 24.911372 -18.520929 45.628972 -0.640230 1.988763 0.079421 0.003407 -157124.000000 0 0 1
-33.632935 24.986972 -19.934429 46.399402 -0.638962 2.014876 0.081267 0.002152 445576.000000 0 0 1
-32.620895 24.230572 -20.576429 45.548138 -0.638873 2.039524 0.070641 0.010390 193948.000000 0 0 1
-32.888235 24.146472 -22.081729 46.392789 -0.633311 2.066867 0.071517 0.006127 -656359.000000 0 0 1
-33.896745 23.235372 -22.388029 46.798458 -0.600911 2.069620 0.074799 0.006962 -141690.000000 0 0 1
-34.121913 22.909172 -23.763429 47.474579 -0.591267 2.095031 0.063876 0.004605 28549.200000 0 0 1
-34.835504 24.060472 -24.578229 48.954142 -0.604449 2.096783 0.068402 0.005246 -335981.000000 0 0 1
-34.111749 25.250072 -24.770529 49.140174 -0.637210 2.099112 0.070234 0.006964 -281107.000000 0 0 1
-34.788083 26.152872 -25.664259 50.525614 -0.644637 2.103594 0.085928 -0.000729 -14843.100000 0 0 1
-34.201798 27.529272 -25.880019 50.964686 -0.677726 2.103429 0.078533 -0.006426 432762.000000 0 0 1
-32.876825 27.513272 -26.401239 50.347703 -0.696815 2.122781 0.078682 -0.015122 -29604.800000 0 0 1
-32.523515 28.810172 -26.838389 51.069601 -0.724929 2.124129 0.079490 -0.017860 1212070.000000 0 0 1
-31.122675 28.928872 -27.575469 50.654783 -0.748882 2.146447 0.080522 -0.013667 814920.000000 0 0 1
-29.995025 28.771972 -26.742119 49.423363 -0.764589 2.142520 0.076955 -0.012471 -487209.000000 0 0 1
-28.842375 28.787172 -27.555489 49.192366 -0.784440 2.165373 0.103840 -0.018261 -262075.000000 0 0 1
-27.942635 29.961972 -27.208589 49.181480 -0.820258 2.157031 0.091091 -0.019238 -948226.000000 0 0 1
-27.480015 29.996672 -25.858589 48.203923 -0.829156 2.137011 0.070204 -0.018587 -409923.000000 0 0 1
-28.315915 30.629072 -24.969029 48.614643 -0.824621 2.110185 0.066503 -0.013359 -770812.000000 0 0 1
-27.610955 30.811072 -23.595429 47.628051 -0.840119 2.089103 0.044921 -0.017058 -113551.000000 0 0 1
-26.754345 31.932172 -23.597329 47.877892 -0.873399 2.086176 0.039349 -0.011590 130091.000000 0 0 1
-26.030875 32.084072 -22.390629 46.992918 -0.889183 2.067429 0.047571 0.008945 263034.000000 0 0 1
-25.428985 33.516572 -22.370029 47.648841 -0.921751 2.059495 0.043701 0.024307 -38143.800000 0 0 1
-26.478845 -33.226307 -22.149129 47.913470 0.897934 2.051354 0.027477 0.009952 249376.000000 0 0 1
-26.055075 -31.868207 -22.352729 46.841158 0.885422 2.068265 0.044967 0.006901 153279.000000 0 0 1
17.372045 8.003972 -24.739229 31.271088 0.431748 2.483437 0.041814 0.002892 -175969.000000 0 0 1
16.049645 7.571472 -24.530329 30.276316 0.440796 2.515315 0.034906 0.003313 -124998.000000 0 0 1
15.835745 6.314272 -25.080829 30.326372 0.379416 2.544601 0.031392 0.003259 -245717.000000 0 0 1
14.370245 5.848172 -25.187689 29.582507 0.386495 2.589519 0.036211 -0.010693 -16569.600000 0 0 1
13.799545 5.857572 -23.866629 28.184297 0.401426 2.580748 0.074952 -0.034245 335668.000000 0 0 1
12.531945 5.245172 -23.775429 27.383070 0.396390 2.622466 0.092364 -0.034513 -156363.000000 0 0 1
11.718145 5.516872 -22.517229 25.976459 0.440014 2.619610 0.122563 -0.041178 -364702.000000 0 0 1
12.041845 4.617072 -21.477129 25.051756 0.366131 2.600818 0.098109 -0.033156 153606.000000 0 0 1
11.467845 4.818272 -20.220629 23.740283 0.397760 2.590100 0.118705 -0.033755 -686749.000000 0 1 0
11.808045 6.145572 -19.528629 23.633987 0.479878 2.543293 0.125319 -0.042017 -47793.600000 0 1 0
11.141745 6.180672 -18.269429 22.273554 0.506468 2.532609 0.108097 -0.034773 59196.500000 0 1 0
11.039745 7.510272 -17.764629 22.223010 0.597378 2.497059 0.102118 -0.037027 829674.000000 0 1 0
12.391145 8.238672 -17.375729 22.876454 0.586767 2.433412 0.090058 -0.033652 1313460.000000 0 1 0
13.140945 7.661672 -16.280029 22.280597 0.527854 2.390117 0.122903 -0.039484 52737.000000 0 1 0
14.450045 8.138572 -16.183429 23.172042 0.512937 2.343960 0.128212 -0.034703 -469267.000000 0 1 0
15.014145 7.898172 -14.766129 22.490981 0.484269 2.287013 0.129249 -0.047814 -125166.000000 0 1 0
16.376845 8.275372 -14.718729 23.522836 0.467886 2.246852 0.115644 -0.050940 177901.000000 0 1 0
16.953145 7.944472 -13.494929 23.078927 0.438225 2.195343 0.103510 -0.049289 -358475.000000 0 1 0
17.858345 9.067672 -13.006129 23.881008 0.469833 2.146735 0.156769 -0.054973 -374128.000000 0 1 0
17.182845 10.294472 -12.702129 23.718566 0.539767 2.135938 0.191809 -0.046716 589337.000000 0 1 0
18.029145 11.323672 -12.189329 24.532740 0.560808 2.090773 0.254902 -0.070367 11518.100000 0 1 0
17.267245 12.649072 -11.887329 24.483981 0.632237 2.077748 0.264275 -0.064580 -601866.000000 0 1 0
16.468245 12.622772 -10.728929 23.359096 0.653972 2.048008 0.281697 -0.050513 194218.000000 0 1 0
15.842545 13.836272 -10.426529 23.476395 0.717901 2.030997 0.184689 -0.041906 -345988.000000 0 1 0
14.502245 13.996972 -11.163529 23.040284 0.767671 2.076613 0.153891 -0.061380 -635466.000000 0 1 0
13.557545 14.967472 -10.724029 22.865630 0.834786 2.058957 0.183111 -0.062023 288073.000000 0 1 0
13.816445 16.318672 -10.976329 24.034829 0.868242 2.045061 0.212624 -0.059726 -342169.000000 0 1 0
13.046945 17.186872 -9.993829 23.779990 0.921482 2.004530 0.200733 -0.051788 -174846.000000 0 1 0
13.490245 16.925572 -8.679029 23.319246 0.897867 1.952156 0.212514 -0.052643 388971.000000 0 1 0
12.669645 17.426472 -7.621529 22.853654 0.942156 1.910802 0.192464 -0.037450 48271.000000 0 1 0
13.238245 17.201372 -6.172429 22.566284 0.914866 1.847852 0.178508 -0.035916 117272.000000 0 1 0
14.418145 17.907972 -5.853529 23.724294 0.892939 1.820102 0.232127 -0.041772 213226.000000 0 1 0
14.738945 17.679172 -4.532529 23.459186 0.875848 1.765228 0.220764 -0.039101 -1187630.000000 0 1 0
15.939845 18.458972 -4.063429 24.724962 0.858501 1.735890 0.203423 -0.043423 -273618.000000 0 1 0
17.130345 18.073772 -4.756929 25.352284 0.812191 1.759548 0.221482 -0.063980 424735.000000 0 0 1
17.968845 19.144772 -5.022029 26.732423 0.817072 1.759782 0.148308 -0.048544 -591957.000000 0 0 1
19.264245 18.926872 -5.808329 27.623799 0.776565 1.782643 0.148808 -0.028245 482888.000000 0 0 1
20.326145 18.364672 -4.990729 27.844581 0.734745 1.751005 0.137247 -0.038732 718655.000000 0 0 1
20.770045 17.132772 -5.477129 27.475909 0.689728 1.771484 0.187883 -0.055787 253893.000000 0 0 1
21.922645 16.540172 -4.605029 27.845752 0.646361 1.736936 0.165074 -0.050965 116720.000000 0 0 1
23.228045 16.974872 -4.856529 29.176604 0.631094 1.738028 0.118174 -0.043583 393089.000000 0 0 1
24.156645 16.345072 -3.936329 29.431268 0.594868 1.704945 0.123031 -0.048440 1025710.000000 0 0 1
25.676945 16.548372 -4.209129 30.836194 0.572488 1.707723 0.132119 -0.040105 449629.000000 0 0 1
26.169645 17.858972 -4.000529 31.934267 0.598837 1.696400 0.123947 -0.040708 -214133.000000 0 0 1
27.562045 17.786472 -3.858229 33.028939 0.573082 1.687877 0.095303 -0.029953 -622384.000000 0 0 1
28.099145 18.962172 -3.086129 34.038949 0.593633 1.661586 0.113960 -0.024038 -349850.000000 0 0 1
28.098245 20.144672 -3.872529 34.789591 0.622003 1.682340 0.093817 -0.027009 269035.000000 0 0 1
28.316845 21.313372 -3.076429 35.574821 0.645211 1.657382 0.119387 -0.017430 -531068.000000 0 0 1
28.221345 22.667272 -3.880729 36.404801 0.676687 1.677599 0.078794 -0.015336 -117696.000000 0 0 1
29.370645 23.068372 -4.587829 37.627553 0.665789 1.693028 0.052762 0.001246 220974.000000 0 0 1
29.836845 22.227172 -5.657129 37.633596 0.640266 1.721690 0.049031 0.004238 -107908.000000 0 0 1
30.807845 22.864272 -6.671829 38.941129 0.638463 1.742977 0.027367 0.006501 -113711.000000 0 0 1
30.188345 23.756872 -7.597529 39.159259 0.666736 1.766051 0.020314 0.006395 -56819.900000 0 0 1
31.057445 24.618072 -8.283329 40.487379 0.670251 1.776842 0.029097 0.003054 -313479.000000 0 0 1
32.064645 24.103572 -9.361829 41.191837 0.644600 1.800074 0.020622 -0.002181 192421.000000 0 0 1
31.503745 23.571572 -10.552529 40.736480 0.642358 1.832828 0.027279 0.006162 -157878.000000 0 0 1
32.501045 23.141772 -11.423629 41.501311 0.618755 1.849656 0.022671 0.002469 -296907.000000 0 0 1
31.916345 22.628972 -12.731829 41.143929 0.616747 1.885407 0.038079 0.003445 12201.400000 0 0 1
31.798645 23.606672 -13.794229 41.936971 0.638606 1.905964 0.073985 -0.010326 209474.000000 0 0 1
31.364745 22.946972 -14.990629 41.653687 0.631632 1.938943 0.090195 -0.015201 -33683.600000 0 0 1
31.606045 23.783572 -16.247229 42.761815 0.645100 1.960535 0.098142 -0.009089 -6430.140000 0 0 1
32.991745 24.034572 -16.378529 43.981497 0.629600 1.952386 0.099261 -0.005352 22384.600000 0 0 1
33.274745 24.630072 -17.593729 44.982089 0.637202 1.972653 0.118847 -0.006325 1119860.000000 0 0 1
34.804045 25.013072 -17.731729 46.383073 0.623155 1.963068 0.108850 -0.011455 1370200.000000 0 0 1
35.714245 23.920372 -17.860729 46.547794 0.590149 1.964604 0.102984 -0.003453 -176069.000000 0 0 1
37.042145 24.374572 -17.829329 47.792522 0.581994 1.953098 0.090831 -0.005451 -106753.000000 0 0 1
-37.811536 23.266072 -17.791029 47.828266 -0.551606 1.951935 0.069170 -0.015285 -119924.000000 0 0 1
-37.779036 22.453772 -18.974029 47.869001 -0.536251 1.978360 0.053503 -0.006555 830489.000000 0 0 1
-36.596936 22.669972 -19.780429 47.376457 -0.554598 2.001506 0.080334 0.014065 807697.000000 0 0 1
-36.721536 21.697772 -20.983129 47.534790 -0.533682 2.027984 0.067351 0.012931 117776.000000 0 0 1
-36.454836 20.353172 -20.708529 46.605256 -0.509202 2.031233 0.046354 0.009887 141275.000000 0 0 1
-36.237236 19.632172 -21.928429 46.684210 -0.496501 2.059768 0.032517 0.013385 30962.400000 0 0 1
-35.875536 18.170172 -21.772329 45.730116 -0.468817 2.067016 0.023429 0.003045 -430819.000000 0 0 1
-36.977936 17.369072 -21.451729 46.143570 -0.439127 2.054308 0.022427 -0.004315 -173274.000000 0 0 1
-36.850436 15.974172 -21.631529 45.618547 -0.409037 2.064832 0.013919 -0.013971 -642147.000000 0 0 1
37.682745 15.342772 -21.569629 46.050394 0.386660 2.058266 0.015318 -0.013951 -793480.000000 0 0 1
36.896745 15.523572 -22.711029 46.023276 0.398248 2.086869 0.079521 -0.009799 -415064.000000 0 0 1
35.766145 14.701272 -22.591429 44.785234 0.389986 2.099529 0.113614 -0.011170 -586212.000000 0 0 1
35.893645 13.334272 -23.325729 44.835769 0.355693 2.117938 0.069768 -0.018060 -377584.000000 0 0 1
36.023545 13.426372 -24.705929 45.698426 0.356762 2.141982 0.093137 -0.015814 165315.000000 0 0 1
36.371345 12.226172 -25.287189 45.954281 0.324282 2.153482 0.069629 -0.010167 -243026.000000 0 0 1
36.275145 12.277372 -26.838589 46.764622 0.326350 2.182066 0.078504 -0.010258 1045480.000000 0 0 1
34.895845 12.364872 -27.267969 45.979911 0.340533 2.205627 0.079804 -0.013136 1004620.000000 0 0 1
34.511245 13.517372 -27.970529 46.433779 0.373314 2.217269 0.100709 -0.014655 -157757.000000 0 0 1
35.069645 13.797272 -29.364519 47.775723 0.374825 2.232717 0.095747 -0.024499 302443.000000 0 0 1
36.484645 13.978072 -29.432139 48.915914 0.365872 2.216410 0.083571 -0.014830 597264.000000 0 0 1
36.968845 13.767572 -30.760649 50.024584 0.356498 2.233069 0.088138 -0.022751 132553.000000 0 0 1
-37.439936 14.062472 -30.993139 50.597200 -0.359297 2.230075 0.076792 -0.020651 701071.000000 0 0 1
-36.511736 13.071072 -30.541299 49.363253 -0.343781 2.237890 0.081711 -0.018753 353075.000000 0 0 1
-36.289136 12.975472 -29.118519 48.302717 -0.343392 2.217845 0.056045 -0.015387 -80631.300000 0 0 1
-35.197036 11.870172 -28.909069 47.068743 -0.325271 2.232153 0.069846 -0.021602 411360.000000 0 0 1
-35.695336 10.602672 -29.133469 47.279305 -0.288732 2.234704 0.077968 -0.024051 443818.000000 0 0 1
-34.594836 9.701672 -29.056549 46.208313 -0.273414 2.250827 0.083472 -0.023559 465739.000000 0 0 1
-34.936836 8.252972 -29.505709 46.468064 -0.231973 2.258763 0.094405 -0.024283 -483335.000000 0 0 1
-34.867936 8.258272 -30.901099 47.316487 -0.232559 2.282431 0.104062 -0.029155 16406.100000 0 0 1
-35.274436 7.053772 -31.537029 47.839583 -0.197365 2.290583 0.109607 -0.031358 629179.000000 0 0 1
-36.766236 6.580772 -31.403239 48.797808 -0.177114 2.269908 0.124994 -0.026825 277363.000000 0 0 1
-37.008636 6.041472 -30.154779 48.119115 -0.161818 2.248068 0.127290 -0.029736 662348.000000 0 0 1
37.552945 5.599472 -30.031109 48.409144 0.148018 2.239998 0.116941 -0.014275 249097.000000 0 0 1
37.363345 4.965172 -28.671489 47.357436 0.132115 2.221099 0.119129 -0.022399 -34285.100000 0 0 1
-37.924236 3.668472 -28.522409 47.594466 -0.096432 2.213398 0.123968 -0.012375 430065.000000 0 0 1
37.869745 3.131572 -27.238299 46.753067 0.082506 2.192719 0.113350 -0.016611 -338371.000000 0 0 1
-37.433736 1.760072 -27.037239 46.210332 -0.046984 2.195788 0.157123 -0.020301 -99217.500000 0 0 1
-36.066436 1.720172 -26.690729 44.901468 -0.047658 2.207352 0.148197 -0.011111 410209.000000 0 0 1
-35.517836 0.356672 -26.698839 44.435030 -0.010042 2.215362 0.171780 -0.013040 1256330.000000 0 0 1
-34.140036 0.126072 -25.950009 42.883108 -0.003693 2.220730 0.168749 -0.016493 936787.000000 0 0 1
-34.278136 0.214872 -24.547829 42.161982 -0.006268 2.192261 0.160588 -0.018270 -228816.000000 0 0 1
-33.042336 0.381572 -23.938629 40.804406 -0.011547 2.197734 0.190219 -0.015171 -488348.000000 0 0 1
-33.185036 0.300772 -22.448629 40.065921 -0.009063 2.165535 0.164161 -0.008336 -390325.000000 0 0 1
-33.359336 -1.082028 -21.999329 39.974824 0.032424 2.153555 0.184406 -0.029194 248213.000000 0 0 1
-33.823436 -1.196928 -20.690929 39.668275 0.035373 2.119520 0.164967 -0.026087 590651.000000 0 0 1
-35.304736 -0.836728 -20.330629 40.748730 0.023696 2.093156 0.158931 -0.019026 860587.000000 0 0 1
-36.278636 -1.869828 -20.533929 41.728623 0.051495 2.085277 0.162762 -0.019015 -452500.000000 0 0 1
-37.555236 -1.505228 -20.149629 42.645856 0.040059 2.062907 0.152945 -0.016829 -64884.000000 0 0 1
37.439945 -2.768128 -19.863329 42.473096 -0.073801 2.057448 0.151109 -0.026266 299932.000000 0 0 1
36.904645 -3.465428 -20.959129 42.582239 -0.093628 2.085416 0.139998 -0.019682 405079.000000 0 0 1
37.897445 -4.215428 -21.643129 43.845310 -0.110777 2.087049 0.145850 -0.023473 128299.000000 0 0 1
37.292845 -5.064728 -22.802729 44.004229 -0.134984 2.115534 0.144308 -0.020361 -583089.000000 0 0 1
36.628545 -6.165928 -22.234829 43.290375 -0.166773 2.110196 0.155630 -0.018949 164859.000000 0 0 1
36.189445 -7.074928 -23.219829 43.576266 -0.193062 2.132767 0.153283 -0.013611 95559.000000 0 0 1
34.784645 -6.744628 -23.791829 42.679183 -0.191520 2.162116 0.107164 -0.012470 -424834.000000 0 0 1
34.756045 -5.701528 -24.723729 43.031998 -0.162596 2.182842 0.109310 -0.015847 422093.000000 0 0 1
33.416745 -5.498328 -25.159439 42.188954 -0.163077 2.209744 0.056620 -0.010800 408954.000000 0 0 1
33.118645 -4.243828 -26.023879 42.333167 -0.127446 2.232852 0.080345 -0.030438 -71188.100000 0 0 1
33.527345 -4.392828 -27.407379 43.526362 -0.130280 2.251929 0.094587 -0.032432 397477.000000 0 0 1
32.948545 -3.425428 -28.276739 43.553578 -0.103591 2.277382 0.090724 -0.033003 -103721.000000 0 0 1
33.024945 -3.579928 -29.799529 44.625943 -0.107979 2.301995 0.101076 -0.029606 504988.000000 0 0 1
32.224845 -2.525228 -30.397269 44.371290 -0.078203 2.325491 0.089940 -0.040805 513648.000000 0 0 1
31.840045 -2.903628 -31.717709 45.035903 -0.090943 2.352199 0.094836 -0.047960 -750447.000000 0 0 1
31.167145 -1.811328 -32.501859 45.067091 -0.058051 2.376313 0.098801 -0.046466 107847.000000 0 0 1
30.027545 -1.123728 -31.936849 43.850639 -0.037406 2.386648 0.084182 -0.038291 1985610.000000 0 0 1
28.797345 -1.888128 -31.744219 42.901603 -0.065472 2.403764 0.080427 -0.035732 866693.000000 0 0 1
28.050345 -2.303628 -33.049679 43.409790 -0.081941 2.436176 0.086266 -0.040388 -940246.000000 0 0 1
28.470845 -3.455028 33.600956 44.176356 -0.120763 0.706545 0.095641 -0.046618 -119663.000000 0 0 1
27.831845 -3.636028 32.356040 42.833931 -0.129907 0.714557 0.089031 -0.045723 -387033.000000 0 0 1
28.379045 -4.844628 31.506066 42.678716 -0.169082 0.740376 0.077173 -0.052082 5306.130000 0 0 1
29.751645 -4.724728 31.172216 43.349631 -0.157490 0.768307 0.077233 -0.044072 185710.000000 0 0 1
30.101345 -4.096328 29.956006 42.664191 -0.135254 0.792405 0.092975 -0.043322 -373744.000000 0 0 1
30.510245 -2.634728 30.169276 42.988394 -0.086142 0.792875 0.079719 -0.042343 -715625.000000 0 0 1
31.789245 -2.545928 30.746126 44.298556 -0.079917 0.803674 0.093064 -0.042814 -145026.000000 0 0 1
32.142745 -1.199928 30.821246 44.548233 -0.037314 0.806731 0.090807 -0.038417 202857.000000 0 0 1
33.565145 -1.072328 31.446875 46.007334 -0.031937 0.818224 0.095440 -0.047768 385338.000000 0 0 1
34.619245 -1.563528 30.644876 46.260622 -0.045133 0.846725 0.105647 -0.041483 -232177.000000 0 0 1
35.858545 -1.062728 31.075176 47.461892 -0.029628 0.856958 0.102671 -0.031926 -675197.000000 0 0 1
37.043445 -1.671728 30.351026 47.918642 -0.045098 0.884875 0.112804 -0.026807 -529825.000000 0 0 1
37.348945 -1.111128 29.079806 47.347792 -0.029741 0.909457 0.119377 -0.026236 328476.000000 0 0 1
-37.239036 -1.430128 28.706136 47.040762 0.038385 0.914433 0.110176 -0.026181 271380.000000 0 0 1
-36.908636 -1.058528 27.280446 45.908503 0.028672 0.934482 0.123128 -0.027760 252699.000000 0 0 1
-37.726836 -1.840628 26.425726 46.097951 0.048750 0.960328 0.129405 -0.042223 -87149.700000 0 0 1
-37.437736 -1.424628 25.083476 45.086521 0.038035 0.980821 0.133252 -0.031773 205028.000000 0 0 1
-28.299995 15.213072 11.437871 34.105017 -0.493246 1.228796 0.150580 -0.030504 84002.200000 0 0 1
-29.362515 14.425772 11.935671 34.824136 -0.456663 1.220963 0.092463 -0.001864 219421.000000 0 0 1
-30.290475 15.237672 12.643071 36.187660 -0.466086 1.213892 0.105801 -0.012653 41731.400000 0 0 1
-31.427165 14.373872 13.254871 37.013058 -0.428967 1.204550 0.100581 -0.012180 17893.400000 0 0 1
-32.383895 15.213072 13.878171 38.376527 -0.439175 1.200779 0.081409 -0.021362 -632605.000000 0 0 1
-33.361865 14.396072 14.441971 39.100274 -0.407374 1.192479 0.100061 -0.025419 -704096.000000 0 0 1
-34.375391 15.067472 15.339271 40.546140 -0.413100 1.182819 0.090428 -0.030341 -425007.000000 0 0 1
-33.765935 15.631372 16.450071 40.682711 -0.433557 1.154528 0.072140 -0.020844 141586.000000 0 0 1
-34.774542 15.974372 17.393471 42.035487 -0.430618 1.144193 0.073564 -0.041711 78858.600000 0 0 1
-34.195179 16.456472 18.719071 42.314647 -0.448536 1.112548 0.099266 -0.032450 -80170.900000 0 0 1
-33.595935 15.339572 19.378971 41.707719 -0.428321 1.087571 0.083635 -0.036074 294497.000000 0 0 1
-32.240665 15.567072 19.749071 40.887896 -0.449825 1.066713 0.089416 -0.032428 448041.000000 0 0 1
-32.015905 16.128372 21.204171 41.650443 -0.466652 1.036659 0.103524 -0.044597 -74776.600000 0 0 1
-32.746545 17.360072 21.301771 42.748962 -0.487464 1.049160 0.083264 -0.040376 327609.000000 0 0 1
-32.930785 17.889472 22.672671 43.800911 -0.497642 1.026718 0.076000 -0.047363 -783279.000000 0 0 1
-33.685535 16.959772 23.690771 44.537644 -0.466422 1.009922 0.071102 -0.048363 1720870.000000 0 0 1
-35.069957 16.626772 23.345871 45.292175 -0.442716 1.029263 0.146946 -0.042924 1817810.000000 0 0 1
-36.010565 17.692672 23.233271 46.363523 -0.456679 1.045914 0.150195 -0.046052 -45274.000000 0 0 1
-37.436525 17.130372 22.934271 47.126679 -0.429143 1.062544 0.100057 -0.054799 512494.000000 0 0 1
37.734086 16.656072 24.039671 47.740881 0.415685 1.043100 0.123779 -0.044056 322887.000000 0 0 1
36.708926 15.746572 23.614771 46.402124 0.405218 1.036872 0.155970 -0.048304 547941.000000 0 0 1
36.018176 14.979372 24.744371 46.194961 0.394124 1.005518 0.162628 -0.033344 43398.200000 0 0 1
35.180536 15.696572 25.649671 46.281293 0.419666 0.983380 0.138959 -0.030275 289967.000000 0 0 1
34.980136 15.047472 26.903371 46.624325 0.406243 0.955716 0.139895 -0.023993 510168.000000 0 0 1
33.902526 13.895372 26.984971 45.504409 0.388979 0.935993 0.146482 -0.026506 467718.000000 0 0 1
34.406156 12.595072 26.586871 45.268986 0.350919 0.943067 0.137789 -0.031602 -103925.000000 0 0 1
33.520066 11.594672 26.986871 44.568177 0.333020 0.920379 0.126458 -0.025569 -285256.000000 0 0 1
33.983386 10.174072 26.680971 44.387571 0.290891 0.925931 0.147006 -0.036457 102273.000000 0 0 1
34.988946 9.705472 27.556471 45.582689 0.270584 0.921610 0.142887 -0.026785 -92803.200000 0 0 1
35.637036 8.561372 27.119471 45.593432 0.235770 0.933766 0.147900 -0.019279 -294078.000000 0 0 1
36.751806 8.111972 28.077971 46.956062 0.217240 0.929839 0.136267 -0.028495 200478.000000 0 0 1
37.897586 8.963772 28.009771 47.970027 0.232258 0.947270 0.137733 -0.033146 147074.000000 0 0 1
-36.890105 8.268872 28.489271 47.338068 -0.220504 0.925011 0.143102 -0.040182 -645441.000000 0 0 1
-35.617955 9.055672 28.592071 46.563402 -0.248970 0.909620 0.135486 -0.042098 -652941.000000 0 0 1
-34.921651 9.235772 27.377571 45.324966 -0.258552 0.922250 0.121921 -0.034245 1367550.000000 0 0 1
-33.647405 9.928172 27.613171 44.645310 -0.286923 0.903963 0.111450 -0.028231 1598980.000000 0 0 1
-32.823835 10.248672 26.355571 43.324999 -0.302641 0.916851 0.101044 -0.025173 -86009.500000 0 0 1
-32.141975 9.245472 25.674871 42.163780 -0.280084 0.916083 0.092130 -0.024886 45915.700000 0 0 1
-31.199505 9.830972 24.798871 41.049252 -0.305252 0.922129 0.091384 -0.021888 155382.000000 0 0 1
-30.447765 8.781572 23.906371 39.695050 -0.280794 0.924479 0.091025 -0.018964 395173.000000 0 0 1
-29.525135 9.432872 23.036171 38.618361 -0.309237 0.931653 0.083497 -0.024592 581168.000000 0 0 1
-28.654675 8.615272 22.265971 37.297276 -0.292061 0.931057 0.060349 -0.014703 480396.000000 0 0 1
-27.653135 9.260972 21.262871 36.091151 -0.323158 0.940798 0.069936 -0.011791 300405.000000 0 0 1
-26.463605 9.708472 21.938571 35.719430 -0.351616 0.909435 0.071130 -0.014149 199679.000000 0 0 1
-25.551645 10.394872 21.180971 34.778923 -0.386370 0.915975 0.077650 -0.009813 92288.600000 0 0 1
-24.668455 9.638072 20.130571 33.266575 -0.372467 0.920868 0.079969 -0.014510 -589419.000000 0 0 1
-25.380105 9.501772 18.948471 33.067778 -0.358226 0.960611 0.074411 -0.015707 79586.300000 0 0 1
-24.814955 8.642772 17.980271 31.839749 -0.335150 0.970713 0.095490 -0.028617 -274277.000000 0 0 1
-24.920855 7.125772 18.358371 31.762485 -0.278505 0.954534 0.097921 -0.025371 -154655.000000 0 0 1
-23.971655 6.669572 19.312471 31.497539 -0.271364 0.910764 0.099323 -0.019544 328867.000000 0 0 1
-24.110555 5.304372 19.691471 31.578620 -0.216552 0.897496 0.121709 -0.022431 -233248.000000 0 0 1
-23.874455 4.198272 18.633571 30.574909 -0.174068 0.915442 0.114520 -0.035772 -435043.000000 0 0 1
-24.905955 4.133972 17.679471 30.821421 -0.164484 0.959890 0.143957 -0.038512 65484.300000 0 0 1
-24.704655 3.332172 16.523071 29.907110 -0.134071 0.985460 0.142302 -0.033299 -248306.000000 0 0 1
-24.765155 1.790272 16.760071 29.956935 -0.072164 0.977048 0.144794 -0.033149 -493264.000000 0 0 1
-23.629255 1.243472 17.365271 29.350308 -0.052576 0.937686 0.124814 -0.027324 -93429.200000 0 0 1
-23.871355 0.029272 17.979571 29.884903 -0.001226 0.925260 0.147661 -0.034703 -938879.000000 0 0 1
-22.664655 -0.836328 18.255671 29.114525 0.036883 0.893062 0.141516 -0.028467 -529977.000000 0 0 1
-21.704355 -0.292228 19.164771 28.956051 0.013463 0.847503 0.121574 -0.022739 864144.000000 0 0 1
-20.784155 -1.348128 19.519971 28.545189 0.064773 0.817801 0.124811 -0.023517 362753.000000 0 0 1
-19.556355 -1.021628 20.371371 28.257521 0.052193 0.765670 0.112428 -0.017758 232840.000000 0 0 1
-19.871355 -1.004428 21.760671 29.485699 0.050504 0.740683 0.108004 -0.022238 -54421.800000 0 0 1
-18.689755 -0.747528 22.481771 29.245440 0.039975 0.693947 0.100315 -0.029776 -394838.000000 0 0 1
-18.919955 -0.835228 24.015571 30.584472 0.044117 0.667743 0.103827 -0.033367 122077.000000 0 0 1
-19.673155 0.209772 24.614771 31.511331 -0.010662 0.674306 0.079543 -0.033489 665022.000000 0 0 1
-21.080255 0.121372 24.367671 32.220727 -0.005758 0.713198 0.160176 -0.038252 500406.000000 0 0 1
-21.989755 1.089272 25.209671 33.470335 -0.049495 0.717891 0.118536 -0.037411 52175.300000 0 0 1
-21.949855 2.431572 24.690871 33.126240 -0.110329 0.729726 0.111058 -0.031822 372841.000000 0 0 1
-23.120455 2.843672 24.003271 33.448452 -0.122379 0.770418 0.102365 -0.024523 -314092.000000 0 0 1
-22.763755 3.949972 22.991871 32.594738 -0.171809 0.787829 0.107239 -0.022543 417655.000000 0 0 1
-22.025755 3.587872 21.808971 31.203172 -0.161476 0.796890 0.124957 -0.020192 354869.000000 0 0 1
-20.639755 3.463472 21.974071 30.345591 -0.166257 0.761028 0.100130 -0.020241 -560469.000000 0 0 1
-19.879255 2.714872 20.842471 28.930328 -0.135728 0.766365 0.084501 -0.018789 -181476.000000 0 0 1
-19.689555 3.551972 19.704171 28.081122 -0.178479 0.793033 0.085102 -0.016521 93629.300000 0 0 1
-19.366455 2.701372 18.600771 26.987880 -0.138593 0.810375 0.099278 -0.023758 2040.920000 0 0 1
-18.755655 3.594272 17.509571 25.909042 -0.189341 0.828734 0.065634 -0.019551 -308587.000000 0 0 1
-17.483155 4.155072 17.746071 25.255660 -0.233333 0.791671 0.079575 -0.034118 -181368.000000 0 0 1
-17.092555 4.914872 16.685871 24.387080 -0.279991 0.817277 0.078252 -0.022700 -353799.000000 0 1 0
-15.587555 5.227472 16.567771 23.340723 -0.323575 0.781550 0.063779 -0.021800 143513.000000 0 1 0
-15.036155 6.115272 17.579671 23.927543 -0.386273 0.745566 0.052878 -0.023583 295612.000000 0 1 0
-15.519455 7.483672 17.573171 24.610469 -0.449316 0.775526 0.052223 -0.030095 -465565.000000 0 1 0
-14.978655 8.484572 16.427271 23.795027 -0.515381 0.808802 0.021600 -0.020402 112608.000000 0 1 0
-15.494355 8.391872 15.120771 23.219308 -0.496378 0.861611 0.033869 -0.022040 1217640.000000 0 1 0
-16.922555 8.613472 14.988671 24.191425 -0.470817 0.902581 0.050321 -0.012164 1310170.000000 0 1 0
-17.558855 8.048572 13.691571 23.675980 -0.429798 0.954166 0.061445 -0.017550 -141620.000000 0 1 0
-17.460355 6.648772 13.653471 23.140601 -0.363839 0.939710 0.054765 -0.014152 317005.000000 0 1 0
-18.083755 6.049572 12.531071 22.817696 -0.322828 0.989411 0.057250 -0.010556 -185738.000000 0 1 0
-17.643955 4.596072 12.353771 22.023821 -0.254827 0.975290 0.062574 -0.020757 16682.800000 0 1 0
-18.101455 3.675772 13.382971 22.809601 -0.200341 0.943787 0.083615 -0.020655 265526.000000 0 1 0
-17.773355 2.372772 13.077871 22.193533 -0.132717 0.940648 0.074765 -0.026401 -537808.000000 0 1 0
-18.470955 1.308372 13.945671 23.181237 -0.070716 0.925302 0.085265 -0.029910 754865.000000 0 1 0
-19.904755 1.328572 13.923971 24.327790 -0.066648 0.961429 0.111709 -0.022206 736456.000000 0 1 0
-20.444255 0.354672 14.774671 25.226658 -0.017346 0.945081 0.121196 -0.032146 -123326.000000 0 0 1
-21.980255 0.330772 14.628071 26.404952 -0.015047 0.983647 0.129294 -0.034562 -226724.000000 0 0 1
-22.482055 -0.145228 13.371571 26.158417 0.006460 1.034243 0.159175 -0.029679 1964040.000000 0 0 1
-23.921955 -0.386128 13.428171 27.435831 0.016140 1.059350 0.185199 -0.040864 1480090.000000 0 0 1
-24.395455 -1.436528 12.420771 27.413088 0.058817 1.100561 0.203783 -0.046800 -152806.000000 0 0 1
-24.070055 -2.752128 12.739571 27.372220 0.113844 1.086688 0.178527 -0.034404 494755.000000 0 0 1
-24.495655 -3.534028 11.585171 27.326593 0.143283 1.132992 0.204332 -0.030802 18974.500000 0 0 1
-24.237755 -5.063628 11.699971 27.386099 0.205953 1.129377 0.163103 -0.033649 273627.000000 0 0 1
-25.173275 -5.633928 12.624371 28.719500 0.220178 1.115671 0.136808 -0.024952 700092.000000 0 0 1
-25.216175 -7.036428 12.657371 29.078787 0.272122 1.120449 0.134495 -0.025710 -341955.000000 0 0 1
-26.153635 -7.563728 13.731571 30.492272 0.281523 1.103662 0.123999 -0.018197 181213.000000 0 0 1
-27.523525 -7.186228 13.637571 31.546310 0.255393 1.123751 0.149399 -0.028870 557866.000000 0 0 1
-28.251975 -7.719228 14.709871 32.774089 0.266718 1.105345 0.151578 -0.016410 -1436670.000000 0 0 1
-29.667525 -7.240628 14.910271 33.983892 0.239379 1.116594 0.172326 -0.028617 -887436.000000 0 0 1
-30.668925 -7.716028 14.034671 34.599018 0.246476 1.153120 0.168236 -0.024113 578009.000000 0 0 1
-31.035115 -9.091428 13.948571 35.219243 0.284967 1.163586 0.177805 -0.034788 -611000.000000 0 0 1
-31.437255 -9.877928 15.266671 36.317292 0.304443 1.136944 0.169630 -0.038124 702315.000000 0 0 1
-30.260775 -10.060628 16.109371 35.727337 0.320968 1.103026 0.172631 -0.029263 1233840.000000 0 0 1
-30.583725 -10.754328 17.291671 36.742642 0.338131 1.080808 0.159339 -0.019845 -49898.600000 0 0 1
-29.408955 -10.845528 18.277771 36.284832 0.353309 1.042885 0.182185 -0.019374 -301004.000000 0 0 1
-28.431875 -11.784128 17.974271 35.641431 0.392917 1.042216 0.149193 -0.023248 -66860.700000 0 0 1
-27.273155 -11.534528 18.773971 35.061836 0.400113 1.005752 0.136215 -0.023237 -394972.000000 0 0 1
-26.102615 -12.391028 18.347171 34.227223 0.443207 1.005057 0.080638 -0.011555 -848977.000000 0 0 1
-25.455265 -11.934028 17.167571 32.941115 0.438397 1.022587 0.080636 -0.007743 -49330.500000 0 0 1
-24.636255 -12.973328 16.724971 32.480409 0.484697 1.029876 0.080250 -0.015239 -486339.000000 0 0 1
-24.295855 -12.776128 15.246371 31.400157 0.484118 1.063803 0.088078 -0.007988 -401626.000000 0 0 1
-23.224155 -11.920528 14.966671 30.090889 0.474216 1.050218 0.088537 -0.017400 -276012.000000 0 0 1
-23.061055 -11.828528 13.572571 29.256470 0.473932 1.088385 0.080549 -0.008719 -821495.000000 0 0 1
-21.830355 -11.126728 13.103171 27.785996 0.471370 1.079721 0.107013 -0.023699 -1384640.000000 0 0 1
-21.864255 -9.705128 13.272071 27.356590 0.417754 1.064261 0.128146 -0.033177 415677.000000 0 0 1
-20.618955 -9.016128 13.235471 26.107654 0.412221 1.039145 0.148341 -0.042041 417525.000000 0 0 1
-19.854455 -8.993428 11.862471 24.815305 0.425319 1.072385 0.165341 -0.037961 -88801.100000 0 1 0
-19.094455 -10.128528 11.466071 24.467450 0.487705 1.083062 0.140873 -0.041473 442682.000000 0 1 0
-18.738355 -10.094428 10.115971 23.565999 0.494129 1.127122 0.142999 -0.037830 -525821.000000 0 1 0
-18.166255 -11.385328 9.553071 23.471253 0.559842 1.151616 0.112097 -0.027790 1329950.000000 0 1 0
-16.751555 -11.638528 9.749171 22.607881 0.607209 1.124942 0.127029 -0.033931 1553290.000000 0 1 0
-16.232455 -11.865528 11.048071 22.942172 0.631214 1.068361 0.128437 -0.029416 573791.000000 0 1 0
-14.672055 -12.061728 11.132271 22.015493 0.688065 1.040654 0.127501 -0.024681 921525.000000 0 1 0
-14.328755 -13.352128 10.653371 22.295445 0.750131 1.072617 0.126523 -0.033899 33486.600000 0 1 0
-12.936655 -13.506528 10.813371 21.603526 0.806946 1.046577 0.117828 -0.030766 -59624.100000 0 1 0
-12.634155 -15.057628 10.778871 22.417362 0.872692 1.069199 0.123364 -0.026959 -71032.600000 0 1 0
-12.754855 -15.671128 9.506471 22.330329 0.887632 1.131039 0.114292 -0.030708 183238.000000 0 1 0
-12.632255 -17.070628 9.517971 23.271699 0.933726 1.149446 0.112608 -0.035044 22925.800000 0 1 0
-12.947455 -17.843328 8.189471 23.517832 0.943083 1.215121 0.114025 -0.033444 -483901.000000 0 1 0
-12.119755 -17.675128 7.104971 22.578291 0.969735 1.250675 0.096563 -0.038967 -769275.000000 0 1 0
-12.438955 -18.560028 6.044271 23.145960 0.980351 1.306596 0.070283 -0.031852 -57104.500000 0 1 0
-11.557155 -18.315028 4.822371 22.187009 1.007879 1.351696 0.069096 -0.027130 -63426.500000 0 1 0
-12.085355 -18.971128 3.712871 22.797915 1.003586 1.407208 0.087770 -0.036181 -218196.000000 0 1 0
-11.185355 -18.809128 2.681371 22.047341 1.034300 1.448876 0.097730 -0.041570 -200004.000000 0 1 0
-11.521155 -19.581128 1.371671 22.760472 1.038964 1.510494 0.104048 -0.042195 -261015.000000 0 1 0
-11.118455 -20.898928 1.465271 23.717763 1.081869 1.508977 0.079812 -0.049727 -301852.000000 0 1 0
-11.691855 -21.749028 0.493971 24.697444 1.077538 1.550794 0.092500 -0.046464 372784.000000 0 1 0
-10.831755 -21.997828 -0.869529 24.535433 1.113246 1.606243 0.107022 -0.044261 637263.000000 0 1 0
-10.893755 -20.994428 -1.841729 23.724078 1.092153 1.648506 0.109558 -0.056493 420718.000000 0 1 0
-12.108155 -21.096928 -2.610029 24.464261 1.049767 1.677687 0.125180 -0.043562 744964.000000 0 1 0
-13.200955 -20.080828 -2.204729 24.132255 0.989243 1.662284 0.139827 -0.040417 20068.500000 0 1 0
-13.953355 -20.596928 -1.105529 24.902847 0.975367 1.615205 0.133076 -0.038887 -423725.000000 0 1 0
-15.096455 -19.869128 -0.796029 24.966355 0.921056 1.602686 0.145879 -0.020442 -206906.000000 0 1 0
27.373345 -19.138328 -4.255829 33.670279 -0.610162 1.697533 0.148257 -0.041443 191464.000000 0 0 1
26.143245 -19.530028 -3.629829 32.833929 -0.641603 1.681574 0.134887 -0.033628 576653.000000 0 0 1
26.268345 -20.654728 -2.799329 33.533267 -0.666330 1.654373 0.124470 -0.036013 295135.000000 0 0 1
24.962645 -21.129528 -2.078129 32.770554 -0.702427 1.634253 0.096816 -0.024913 622222.000000 0 0 1
23.973145 -21.715028 -2.917429 32.477154 -0.736014 1.660748 0.088875 -0.028411 -133673.000000 0 0 1
22.873845 -22.078428 -2.116129 31.861384 -0.767705 1.637262 0.060356 -0.017028 -404602.000000 0 0 1
21.786645 -22.818928 -2.865729 31.679233 -0.808537 1.661381 0.069189 -0.027470 -497874.000000 0 0 1
20.969145 -22.016928 -3.653029 30.623435 -0.809768 1.690370 0.090131 -0.040722 -327347.000000 0 0 1
20.003745 -22.810128 -4.306129 30.643017 -0.850853 1.711789 0.097550 -0.036897 -287861.000000 0 0 1
19.021945 -22.155128 -5.255729 29.669964 -0.861342 1.748876 0.093613 -0.015125 583221.000000 0 0 1
17.843645 -21.520728 -4.687729 28.346291 -0.878539 1.736933 0.089306 -0.014460 899930.000000 0 0 1
18.065045 -20.297628 -3.997929 27.464941 -0.843529 1.716880 0.085555 -0.027280 -560926.000000 0 0 1
16.834645 -19.669328 -3.317129 26.101553 -0.862897 1.698226 0.086898 -0.012133 -306268.000000 0 0 1
16.408245 -20.559828 -2.328729 26.407575 -0.897231 1.659095 0.091802 -0.018079 -11357.100000 0 0 1
15.801945 -19.770528 -1.310629 25.343500 -0.896502 1.622534 0.110560 -0.015138 -230995.000000 0 0 1
15.493945 -20.472528 0.048871 25.674679 -0.922947 1.568893 0.102594 -0.018317 536648.000000 0 0 1
14.424045 -21.420428 -0.025929 25.824184 -0.978162 1.571800 0.108563 -0.033985 413466.000000 0 0 1
13.894245 -21.767628 1.256171 25.854548 -1.002691 1.522191 0.101707 -0.026996 4941.330000 0 0 1
13.126045 -23.099328 1.231571 26.596782 -1.054055 1.524475 0.115147 -0.034234 168889.000000 0 0 1
13.891645 -24.283428 1.566171 28.019914 -1.051172 1.514872 0.099965 -0.023684 342523.000000 0 0 1
13.400945 -25.465698 0.993671 28.793654 -1.086382 1.536279 0.082617 -0.020655 -174629.000000 0 0 1
13.991345 -26.665378 1.733571 30.162981 -1.087584 1.513291 0.084613 -0.020903 -122677.000000 0 0 1
13.406245 -26.883358 2.988071 30.188921 -1.108204 1.471655 0.104543 -0.030526 70910.300000 0 0 1
13.975945 -27.959548 3.715771 31.478093 -1.107258 1.452477 0.098385 -0.027971 -274509.000000 0 0 1
13.286945 -28.206168 5.063071 31.587427 -1.130563 1.409814 0.102293 -0.026673 -167322.000000 0 0 1
13.887845 -29.149118 5.918771 32.826440 -1.126173 1.389500 0.090396 -0.020714 -199925.000000 0 0 1
13.233645 -29.280788 7.178471 32.924525 -1.146317 1.351003 0.089298 -0.020714 134688.000000 0 0 1
13.630045 -30.573348 7.860971 34.384628 -1.151428 1.340138 0.077750 -0.004557 123539.000000 0 0 1
12.966145 -30.869198 9.104171 34.697467 -1.173139 1.305301 0.070003 -0.002225 888.614000 0 0 1
12.412545 -32.176408 8.979371 35.637363 -1.202621 1.316086 0.059436 -0.000882 152953.000000 0 0 1
11.836845 -32.664888 10.317671 36.243071 -1.223142 1.282124 0.048304 0.006886 -438994.000000 0 0 1
12.864045 -33.149188 11.135771 37.260673 -1.200621 1.267297 0.028638 -0.003004 -228923.000000 0 0 1
12.617545 -33.412308 12.519371 37.845996 -1.209720 1.233648 0.039793 0.009813 -283089.000000 0 0 1
11.440245 33.261936 12.734471 37.408586 1.239527 1.223437 0.039969 0.005945 -175923.000000 0 0 1
11.753845 31.952948 12.261271 36.186772 1.218310 1.225120 0.039585 -0.013019 356598.000000 0 0 1
10.733045 31.009870 12.566471 35.138675 1.237585 1.205073 0.021176 -0.003610 -69015.600000 0 0 1
10.824645 29.757450 11.672571 33.748002 1.221914 1.217626 0.049272 -0.014781 -140565.000000 0 0 1
10.592645 29.982860 10.258871 33.412878 1.231194 1.258722 0.044283 -0.016503 96612.500000 0 0 1
11.642345 30.646710 9.586171 34.156400 1.207746 1.286320 0.013533 -0.003148 -211864.000000 0 0 1
11.088045 31.232180 8.272071 34.158761 1.229656 1.326199 0.020988 -0.003661 -97850.300000 0 0 1
10.139045 32.245230 8.476671 34.848372 1.266149 1.325087 0.036023 -0.000410 -280116.000000 0 0 1
9.366245 32.441868 7.291371 34.545121 1.289731 1.358129 0.045229 -0.012598 -18125.600000 0 0 1
9.792545 33.557522 6.284971 35.517630 1.286867 1.392906 0.051316 -0.007199 -381463.000000 0 0 1
9.204345 -32.859738 6.563571 34.750005 -1.297686 1.380775 0.062944 -0.001305 -63741.100000 0 0 1
9.791345 -31.746488 5.955371 33.751687 -1.271630 1.393421 0.081073 -0.016210 -13199.800000 0 0 1
8.968345 -30.509398 6.373871 32.432712 -1.284896 1.372983 0.092408 -0.017882 209942.000000 0 0 1
9.177645 -30.214378 7.735071 32.511062 -1.275902 1.330571 0.094583 -0.013568 -118463.000000 0 0 1
8.705645 -28.927008 8.140571 31.286242 -1.278466 1.307571 0.117150 -0.017703 -337418.000000 0 0 1
9.487545 -27.658938 7.761671 30.253494 -1.240354 1.311341 0.118643 -0.030582 -182595.000000 0 0 1
10.252545 -27.019598 8.774171 30.201978 -1.208131 1.276030 0.114934 -0.023454 234482.000000 0 0 1
11.010245 -25.853598 8.355571 29.316371 -1.168190 1.281775 0.117316 -0.036532 288344.000000 0 0 1
10.425845 -24.704428 7.482371 27.838694 -1.171450 1.298674 0.118038 -0.045935 -273823.000000 0 0 1
10.189145 -25.061548 6.169871 27.748283 -1.184643 1.346571 0.127576 -0.048260 -222811.000000 0 0 1
9.441145 -24.145828 5.370171 26.476310 -1.198068 1.366550 0.117537 -0.042262 255714.000000 0 0 1
9.085745 -24.735328 3.938971 26.644000 -1.218777 1.422415 0.099519 -0.033258 818457.000000 0 0 1
8.119345 -25.811148 3.903071 27.338126 -1.266029 1.427537 0.094652 -0.033424 230826.000000 0 0 1
8.674045 -27.030228 4.252371 28.704616 -1.260276 1.422107 0.106357 -0.031642 365848.000000 0 0 1
7.744145 -28.227628 3.792271 29.515286 -1.303038 1.441955 0.105506 -0.033047 551660.000000 0 0 1
6.523245 -28.342988 4.502571 29.430441 -1.344582 1.417203 0.097662 -0.031238 564532.000000 0 0 1
5.434245 -28.984938 3.827071 29.737252 -1.385463 1.441742 0.084943 -0.022932 621953.000000 0 0 1
5.437945 -30.512918 3.953271 31.244804 -1.394430 1.443931 0.078670 -0.015101 63935.300000 0 0 1
6.578345 -31.060908 3.304971 31.921427 -1.362092 1.467076 0.078219 -0.021872 148610.000000 0 0 1
6.752545 -32.436428 3.534871 33.319875 -1.365550 1.464507 0.067748 -0.017180 24724.600000 0 0 1
7.854245 -33.300178 2.870771 34.334128 -1.339168 1.487086 0.066480 -0.016241 239495.000000 0 0 1
7.582945 -33.623918 1.515971 34.501697 -1.348985 1.526843 0.067965 -0.018439 366495.000000 0 0 1
8.619645 33.087767 1.223171 34.213955 1.315952 1.535038 0.051482 -0.015620 283063.000000 0 0 1
8.201845 32.386252 -0.104229 33.408837 1.322760 1.573916 0.062254 -0.012548 166687.000000 0 0 1
7.008145 31.676115 -0.097029 32.442252 1.353060 1.573787 0.047420 -0.013278 -480446.000000 0 0 1
5.794545 32.388078 -0.291529 32.903637 1.393760 1.579657 0.050977 -0.022125 350334.000000 0 0 1
4.541845 31.503520 -0.030229 31.829248 1.427613 1.571746 0.059544 -0.028144 216620.000000 0 0 1
4.411245 30.465540 -0.964129 30.798340 1.427001 1.602106 0.065945 -0.023155 -248768.000000 0 0 1
3.242345 29.713550 -0.744529 29.899200 1.462106 1.595700 0.083878 -0.038238 -60217.000000 0 0 1
3.065745 28.576550 -1.794129 28.796473 1.463923 1.633140 0.084552 -0.028860 -101769.000000 0 0 1
2.777945 29.148410 -3.004329 29.434211 1.475780 1.673044 0.101064 -0.041142 -171249.000000 0 0 1
2.525345 28.105500 -3.904329 28.487546 1.481185 1.708283 0.099804 -0.043539 -213000.000000 0 0 1
2.308545 28.710390 -5.297629 29.286187 1.490561 1.752689 0.111960 -0.047284 1009120.000000 0 0 1
1.073945 29.486050 -5.317029 29.980848 1.534390 1.749087 0.123025 -0.049299 1082180.000000 0 0 1
0.925245 30.308110 -6.450329 31.000715 1.540278 1.780398 0.114237 -0.043531 -140209.000000 0 0 1
0.813845 29.606420 -7.863129 30.643616 1.543314 1.830298 0.113458 -0.042962 -275155.000000 0 0 1
-0.431755 29.025860 -8.240929 30.176147 -1.555923 1.847404 0.121610 -0.037719 379463.000000 0 0 1
-0.594555 28.757650 -9.624529 30.331295 -1.550125 1.893692 0.123409 -0.033877 109560.000000 0 0 1
-0.957555 29.915280 -10.545229 31.733936 -1.538798 1.909539 0.103128 -0.034423 -55286.000000 0 0 1
0.240645 30.586480 -10.897029 32.470539 1.562929 1.913036 0.100433 -0.034951 83624.200000 0 0 1
0.138945 31.874005 -11.454329 33.869944 1.566437 1.915785 0.089185 -0.029499 -492512.000000 0 0 1
-0.093255 32.975190 -10.385129 34.571993 -1.567968 1.875899 0.089354 -0.038179 322252.000000 0 0 1
0.966245 33.389873 -9.498829 34.728158 1.541866 1.847847 0.091225 -0.044679 114690.000000 0 0 1
0.501945 -33.604428 -8.404929 34.643216 -1.555861 1.815856 0.104222 -0.046759 -818609.000000 0 0 1
1.518345 -33.376948 -7.278929 34.195159 -1.525337 1.785302 0.093071 -0.044149 -166035.000000 0 0 1
2.594545 -32.591148 -7.727229 33.595010 -1.491355 1.802886 0.087658 -0.044540 -299675.000000 0 0 1
3.608845 -32.425468 -6.760529 33.318756 -1.459956 1.775120 0.080625 -0.049460 -689994.000000 0 0 1
4.789945 -31.582918 -7.295829 32.766651 -1.420281 1.795339 0.058936 -0.043528 426875.000000 0 0 1
5.632645 -32.315918 -8.253529 33.825523 -1.398231 1.817288 0.064957 -0.038638 697560.000000 0 0 1
6.544545 -33.169128 -7.575229 34.646879 -1.375990 1.791218 0.075313 -0.021371 -1182940.000000 0 0 1
7.099945 33.376552 -8.541529 35.176144 1.361198 1.816070 0.080076 -0.016533 106370.000000 0 0 1
6.301045 32.209511 -8.779129 33.973944 1.377609 1.832170 0.069725 -0.023983 443427.000000 0 0 1
4.982345 32.459732 -9.279929 34.125870 1.418492 1.846197 0.086679 -0.035523 461015.000000 0 0 1
4.135845 31.184040 -9.368429 32.822508 1.438939 1.860248 0.081675 -0.043207 -254692.000000 0 0 1
4.611545 30.299430 -10.305629 32.334622 1.419756 1.895173 0.070126 -0.037333 207151.000000 0 0 1
3.881845 29.049950 -10.230829 31.042522 1.437957 1.906649 0.068527 -0.038385 329267.000000 0 0 1
4.508945 27.974890 -11.127529 30.442519 1.410992 1.944994 0.072623 -0.042114 -107876.000000 0 0 1
4.423845 28.345640 -12.510629 31.297948 1.415977 1.982015 0.074335 -0.038457 557307.000000 0 0 1
5.626545 28.126370 -13.263729 31.601854 1.373357 2.003926 0.060610 -0.042346 387254.000000 0 0 1
5.556045 28.725670 -14.683629 32.735954 1.379738 2.035936 0.069578 -0.037279 -285412.000000 0 0 1
4.588345 28.199750 -15.546129 32.526311 1.409501 2.069122 0.072322 -0.028725 -168730.000000 0 0 1
4.507545 28.945010 -16.750129 33.744605 1.416309 2.090219 0.104591 -0.028524 251727.000000 0 0 1
3.351745 28.397230 -17.641729 33.598623 1.453309 2.123597 0.092922 -0.028006 161627.000000 0 0 1
3.661345 27.216860 -18.371329 33.040409 1.437074 2.160393 0.110570 -0.022596 482828.000000 0 0 1
2.640745 26.775290 -19.296229 33.109427 1.472488 2.192969 0.100874 -0.033622 603141.000000 0 0 1
3.155845 25.530260 -20.064229 32.624022 1.447808 2.233200 0.113192 -0.035890 253432.000000 0 0 1
3.361145 24.411400 -19.256029 31.273126 1.433969 2.234118 0.103713 -0.043209 -167025.000000 0 0 1
4.519345 23.733360 -19.673029 31.156459 1.382627 2.254188 0.106757 -0.039708 -32382.400000 0 0 1
4.908645 22.483250 -18.886529 29.770662 1.355845 2.258029 0.106690 -0.033810 51666.600000 0 0 1
4.156145 21.298150 -19.078029 28.893873 1.378077 2.291987 0.121536 -0.029155 -322829.000000 0 0 1
4.643145 20.292550 -18.229829 27.670798 1.345858 2.290034 0.098817 -0.018156 250266.000000 0 0 1
3.669445 19.085750 -18.007329 26.495180 1.380853 2.318076 0.088422 -0.025415 617954.000000 0 0 1
2.652745 19.312250 -17.020629 25.878598 1.434290 2.288572 0.088896 -0.021295 180080.000000 0 0 1
1.841145 18.241150 -16.521229 24.679554 1.470203 2.304237 0.063708 -0.010016 48002.700000 0 1 0
2.396545 17.223450 -15.540729 23.321769 1.432540 2.300115 0.039691 -0.005386 365852.000000 0 1 0
3.560345 16.440850 -15.849729 23.112583 1.357535 2.326446 0.043930 -0.017059 531412.000000 0 1 0
3.264345 15.273150 -16.698029 22.863710 1.360233 2.389600 0.065650 -0.025852 74248.400000 0 1 0
3.113145 15.504350 -18.231629 24.134391 1.372640 2.427093 0.083959 -0.025575 448970.000000 0 1 0
4.384745 15.731050 -18.833229 24.927544 1.298964 2.427242 0.108448 -0.023121 306481.000000 0 1 0
4.162445 16.129350 -20.187529 26.172852 1.318240 2.451702 0.118417 -0.025290 -302859.000000 0 0 1
4.389945 15.114050 -21.360429 26.532509 1.288120 2.506584 0.133763 -0.036806 93228.500000 0 0 1
3.494345 14.034550 -21.565629 25.966428 1.326776 2.550836 0.120004 -0.034544 -1092880.000000 0 0 1
2.263445 14.439250 -22.022429 26.431090 1.415305 2.555669 0.127944 -0.037505 -1280960.000000 0 0 1
1.475145 13.369450 -22.752029 26.430533 1.460904 2.607682 0.122813 -0.029966 -48833.000000 0 0 1
0.796545 12.475250 -21.894629 25.211924 1.507033 2.622810 0.113640 -0.018863 -176850.000000 0 0 1
0.002645 11.510050 -22.502429 25.275296 1.570567 2.668785 0.063591 -0.014010 -118367.000000 0 0 1
-0.614655 10.490550 -21.476029 23.909188 -1.512272 2.686530 0.033540 -0.010663 -905344.000000 0 1 0
-1.705755 11.073450 -20.839529 23.660449 -1.417958 2.648292 0.036917 -0.005643 -334045.000000 0 1 0
-2.254855 10.384050 -19.665329 22.352584 -1.356970 2.646193 0.024991 -0.001745 559537.000000 0 1 0
-3.139255 9.130750 -20.012829 22.220235 -1.239645 2.692077 0.036945 -0.009541 -226179.000000 0 1 0
-2.524655 8.083550 -20.722629 22.386269 -1.268075 2.753638 0.035807 -0.011267 137000.000000 0 1 0
-3.512855 7.058750 -20.964329 22.397973 -1.109023 2.781864 0.046554 -0.010536 288106.000000 0 1 0
-2.935255 5.870750 -21.744229 22.713276 -1.107165 2.848433 0.052670 -0.024866 345699.000000 0 1 0
-2.000855 5.033450 -21.020329 21.706987 -1.192437 2.889397 0.048765 -0.014558 626929.000000 0 1 0
-1.662655 3.890450 -21.742229 22.150046 -1.166921 2.949403 0.069547 -0.021703 -166748.000000 0 1 0
-0.822255 2.846550 -20.958029 21.166434 -1.289590 3.001149 0.064142 -0.018413 -518750.000000 0 1 0
0.505945 3.240150 -20.862329 21.118507 1.415899 2.985675 0.057073 -0.021269 -815933.000000 0 1 0
1.332045 2.215250 -20.353029 20.516517 1.029416 3.015266 0.047560 -0.004880 -549160.000000 0 1 0
2.805245 2.472950 -20.585729 20.922646 0.722525 2.961891 0.027801 -0.001780 -835747.000000 0 1 0
3.493245 2.152750 -21.744229 22.128005 0.552290 2.955078 0.050198 0.004029 -1429990.000000 0 1 0
4.829945 2.362350 -21.520029 22.181540 0.454894 2.896758 0.069361 -0.007244 -1725750.000000 0 1 0
5.601745 1.548850 -22.509629 23.247836 0.269755 2.888914 0.071591 -0.011170 -307910.000000 0 1 0
7.004345 1.447250 -22.289729 23.409131 0.203754 2.831093 0.095966 -0.028095 346940.000000 0 1 0
7.545245 0.502750 -23.199929 24.401233 0.066533 2.826503 0.108337 -0.038148 -733302.000000 0 1 0
9.058945 0.462250 -23.066529 24.785942 0.050983 2.766926 0.113036 -0.040688 -546777.000000 0 1 0
9.706045 1.606050 -23.619729 25.586682 0.163983 2.746929 0.097939 -0.038220 -225014.000000 0 0 1
11.094545 1.543450 -23.446329 25.984640 0.138231 2.695906 0.109024 -0.037638 -247812.000000 0 0 1
13.121245 -19.808428 22.621416 32.806544 -0.985748 0.809943 0.106892 -0.011960 -368911.000000 0 0 1
12.717045 -21.122128 22.220556 33.190671 -1.028855 0.837285 0.106746 -0.008154 -368167.000000 0 0 1
11.512845 -21.270128 21.530756 32.381127 -1.074682 0.843414 0.096936 -0.003410 -478381.000000 0 0 1
11.471545 -20.884528 20.011656 31.116334 -1.068503 0.872226 0.132201 -0.032821 -152879.000000 0 0 1
11.897945 -19.633028 19.614256 30.194965 -1.025964 0.863755 0.154120 -0.029303 -37519.600000 0 0 1
11.811445 -19.384728 18.224956 29.110598 -1.023554 0.894307 0.140129 -0.040608 -12733.900000 0 0 1
11.852745 -17.914528 17.865656 27.939212 -0.986290 0.877017 0.161289 -0.044831 641128.000000 0 0 1
10.740545 -17.110928 18.309756 27.265185 -1.010257 0.834507 0.181938 -0.050639 338306.000000 0 0 1
10.758045 -15.792928 17.814956 26.125175 -0.972804 0.820429 0.191116 -0.048917 -221841.000000 0 0 1
9.705545 -14.905128 18.458956 25.633835 -0.993610 0.766848 0.163929 -0.048608 259243.000000 0 0 1
8.369045 -15.225928 18.103156 25.091713 -1.068216 0.764860 0.137709 -0.041394 3298.960000 0 0 1
7.419145 -14.371628 18.710756 24.732161 -1.094245 0.712797 0.106836 -0.035993 954547.000000 0 1 0
5.943545 -14.867128 18.482056 24.452886 -1.190482 0.713886 0.041784 -0.012460 563751.000000 0 1 0
5.681845 -14.759128 17.078656 23.276506 -1.203312 0.747002 0.021172 -0.016845 438949.000000 0 1 0
4.343445 -14.995828 16.625156 22.806495 -1.288868 0.753986 0.001118 -0.013032 401642.000000 0 1 0
3.736245 -16.379228 16.681956 23.675437 -1.346525 0.788923 -0.006949 -0.005921 -921156.000000 0 1 0
2.517645 -16.403528 16.025156 23.069892 -1.418503 0.802884 0.009590 -0.011672 -919219.000000 0 1 0
1.779245 -17.558928 16.300756 24.024911 -1.469811 0.825086 0.023229 -0.019326 270096.000000 0 1 0
0.371245 -17.590928 15.667856 23.559718 -1.549695 0.843266 0.047478 -0.018732 -470580.000000 0 1 0
0.319345 -17.612928 14.273456 22.672644 -1.552667 0.889829 0.040227 -0.014148 15506.400000 0 1 0
-1.000855 -17.524028 13.746756 22.294990 1.513745 0.906399 0.053211 -0.021803 416243.000000 0 1 0
-1.523855 -18.792028 12.982556 22.891248 1.489883 0.967766 0.047924 -0.004146 -673937.000000 0 1 0
-2.896055 -18.942128 12.845356 23.069342 1.419082 0.980250 0.053511 -0.021208 -863567.000000 0 1 0
-3.178155 -20.116928 12.139156 23.709715 1.414107 1.033296 0.071205 -0.026368 -1241380.000000 0 1 0
-4.630055 -20.440828 12.063456 24.182470 1.348045 1.048523 0.071602 -0.028499 -1104930.000000 0 1 0
-5.184455 -20.742928 13.357256 25.210394 1.325876 1.012395 0.084253 -0.037281 -188402.000000 0 0 1
-6.561155 -20.958328 13.142856 25.593651 1.267404 1.031514 0.094630 -0.041515 72168.700000 0 0 1
-7.357755 -21.606528 14.299756 26.934395 1.242579 1.011122 0.100695 -0.044222 1414870.000000 0 0 1
-8.770255 -21.291428 14.350556 27.132651 1.180061 1.013488 0.109104 -0.043074 967666.000000 0 0 1
-9.421055 -22.097528 15.302256 28.481855 1.167791 1.003607 0.106462 -0.043692 1503600.000000 0 0 1
-10.998755 -21.926128 15.404556 28.965981 1.105847 1.010053 0.125569 -0.045941 1590290.000000 0 0 1
-11.343155 -20.648028 15.971456 28.462179 1.068446 0.975026 0.124407 -0.037014 -497680.000000 0 0 1
-12.696255 -20.322528 15.787556 28.695766 1.012385 0.988228 0.107039 -0.032300 -94192.000000 0 0 1
-13.131455 -19.153328 16.720756 28.615883 0.969803 0.946758 0.121370 -0.030016 31011.600000 0 0 1
-13.142155 -19.417928 18.157056 29.655537 0.975808 0.911874 0.125536 -0.038813 -174993.000000 0 0 1
-13.382755 -18.277328 18.903656 29.504357 0.938781 0.875377 0.131025 -0.039573 -191233.000000 0 0 1
-13.936355 -18.703028 20.268156 30.900217 0.930414 0.855392 0.125375 -0.045443 769439.000000 0 0 1
-15.272155 -19.205928 20.058356 31.692965 0.899002 0.885508 0.103822 -0.032489 659954.000000 0 0 1
-15.644855 -20.048428 21.154256 33.078747 0.908150 0.876933 0.100457 -0.025545 169427.000000 0 0 1
-17.066755 -20.604828 20.908256 33.955681 0.879042 0.907457 0.103195 -0.030279 -615731.000000 0 0 1
-17.106955 -21.666128 19.926256 34.045921 0.902447 0.945576 0.109292 -0.033284 605030.000000 0 0 1
-18.390455 -21.862928 19.327556 34.492766 0.871451 0.976004 0.085312 -0.025449 670043.000000 0 0 1
-19.411655 -22.645328 20.223456 36.036252 0.862135 0.974964 0.087394 -0.034385 -529426.000000 0 0 1
-19.894655 -21.835228 21.258956 36.393924 0.831868 0.946983 0.084828 -0.029478 34290.300000 0 0 1
-20.879255 -22.506928 22.035456 37.789766 0.822897 0.948249 0.064760 -0.014954 49423.400000 0 0 1
-21.366455 -21.566528 23.192216 38.203657 0.790058 0.918431 0.059240 -0.013079 -621585.000000 0 0 1
-22.308755 -20.676828 22.720356 37.966121 0.747452 0.929247 0.057542 -0.005427 -347964.000000 0 0 1
-22.409955 -19.613328 23.650536 38.029418 0.718947 0.899628 0.062277 -0.003191 53770.700000 0 0 1
-23.510655 -18.596928 23.268706 37.947718 0.669229 0.910719 0.057795 -0.005875 10706.600000 0 0 1
-23.187155 -17.847128 22.118656 36.679682 0.655990 0.923512 0.062175 -0.004298 133754.000000 0 0 1
-24.073755 -16.767628 21.799456 36.550176 0.608380 0.931756 0.058261 -0.005454 56198.300000 0 0 1
-23.692155 -16.064428 20.471556 35.191884 0.595841 0.949964 0.055693 -0.003230 627163.000000 0 0 1
-22.704455 -15.005028 20.570056 34.114079 0.583989 0.923567 0.071929 -0.013321 -17085.600000 0 0 1
-22.347955 -14.643528 19.225056 32.916057 0.580058 0.947071 0.059655 -0.004016 108495.000000 0 0 1
-21.317455 -13.527628 18.957056 31.572149 0.565459 0.926750 0.065048 -0.016558 66624.800000 0 0 1
-20.934355 -13.591928 17.577656 30.528048 0.575858 0.957230 0.065679 -0.022953 315861.000000 0 0 1
-20.085055 -12.497228 17.221656 29.260478 0.556594 0.941515 0.083538 -0.032187 -542882.000000 0 0 1
-19.630355 -12.628628 15.728156 28.146190 0.571666 0.977855 0.101131 -0.035809 9633.860000 0 0 1
-18.862955 -11.587728 15.198256 26.852812 0.550876 0.969170 0.098597 -0.036545 -248054.000000 0 0 1
-17.589655 -11.391728 15.757256 26.219431 0.574713 0.926074 0.143671 -0.055051 -1176120.000000 0 0 1
-17.018855 -10.150428 15.083356 24.903419 0.537785 0.920184 0.134943 -0.045283 -505089.000000 0 1 0
-17.357555 -8.914728 15.535356 24.942021 0.474463 0.898405 0.147770 -0.043006 52199.500000 0 1 0
-16.903455 -7.867328 14.663656 23.720128 0.435609 0.904353 0.140154 -0.035939 -769883.000000 0 1 0
-17.058255 -6.478728 15.347256 23.843160 0.362972 0.871505 0.154294 -0.032841 27800.200000 0 1 0
-16.276655 -6.271328 16.482756 23.998756 0.367767 0.813696 0.136064 -0.031531 181645.000000 0 1 0
-14.882255 -6.280828 16.234656 22.901842 0.399356 0.782887 0.130925 -0.031827 -787660.000000 0 1 0
-13.950255 -6.413628 17.418356 23.219461 0.430932 0.722489 0.110481 -0.025648 -275100.000000 0 1 0
-14.124755 -7.537628 18.270156 24.292451 0.490201 0.719566 0.106703 -0.041289 -240280.000000 0 1 0
-13.556955 -8.669228 17.727556 23.941863 0.568935 0.737069 0.115129 -0.039646 -730227.000000 0 1 0
-13.979255 -9.898428 18.554256 25.251908 0.616128 0.745474 0.126349 -0.044151 -96287.400000 0 0 1
-15.341155 -10.196928 18.635856 26.203502 0.586625 0.779597 0.144672 -0.055883 -615629.000000 0 0 1
-16.078355 -9.424528 19.504156 26.976793 0.530183 0.762665 0.115524 -0.055831 -2668060.000000 0 0 1
-17.393055 -9.971728 19.972756 28.299553 0.520568 0.787298 0.101905 -0.048246 -355729.000000 0 0 1
-18.540855 -9.949928 19.143156 28.446877 0.492535 0.832615 0.098209 -0.041322 402888.000000 0 0 1
-18.873555 -8.750828 18.480856 27.826788 0.434152 0.844455 0.101378 -0.039950 -1074970.000000 0 0 1
-19.975355 -8.828328 17.413156 27.931563 0.416149 0.897684 0.126653 -0.037626 95051.000000 0 0 1
-21.316855 -8.875128 17.875256 29.201044 0.394516 0.912027 0.113636 -0.030445 376959.000000 0 0 1
-22.162055 -8.927628 16.713756 29.158342 0.382947 0.960382 0.120340 -0.020898 973425.000000 0 0 1
-23.680655 -9.021028 17.107456 30.574784 0.363973 0.976980 0.107223 -0.017517 934315.000000 0 0 1
-24.323755 -7.940228 17.814256 31.177556 0.315533 0.962609 0.117498 -0.014877 -210328.000000 0 0 1
-25.691445 -8.114428 17.920856 32.358173 0.305926 0.983842 0.128696 -0.007131 -856235.000000 0 0 1
-26.384605 -7.004728 18.742656 33.113453 0.259499 0.969134 0.136962 -0.009286 -207446.000000 0 0 1
-26.307695 -7.154428 20.135956 33.893029 0.265530 0.934646 0.141874 -0.018816 402317.000000 0 0 1
-27.151515 -6.211428 20.766356 34.742311 0.224899 0.930136 0.128075 -0.022999 -628275.000000 0 0 1
-27.176115 -6.424128 22.320826 35.749545 0.232128 0.896476 0.131383 -0.023103 57949.100000 0 0 1
-26.146255 -5.887528 23.126426 35.399452 0.221483 0.858863 0.148881 -0.024600 742017.000000 0 0 1
-24.889755 -6.576528 22.955026 34.491794 0.258323 0.842604 0.152371 -0.026419 78291.700000 0 0 1
-23.838655 -6.272928 24.020746 34.418416 0.257308 0.798330 0.147674 -0.029259 -560253.000000 0 0 1
-23.293255 -5.022528 23.960706 33.792262 0.212370 0.782634 0.127064 -0.030175 289253.000000 0 0 1
-22.285855 -4.933528 24.979596 33.837542 0.217861 0.740367 0.131256 -0.034895 633703.000000 0 0 1
-21.560755 -3.549428 25.087506 33.269319 0.163161 0.716554 0.128207 -0.036161 -33991.000000 0 0 1
-20.539255 -3.390928 26.035716 33.334935 0.163619 0.674477 0.117490 -0.036852 -256944.000000 0 0 1
-20.922055 -3.278228 27.447636 34.667736 0.155424 0.657153 0.120653 -0.039618 223178.000000 0 0 1
-21.928455 -2.167728 27.899156 35.551640 0.098534 0.668503 0.120780 -0.045293 528897.000000 0 0 1
-23.249855 -2.300428 27.443266 36.041373 0.098623 0.705268 0.128309 -0.046251 -350407.000000 0 0 1
-24.160555 -1.436828 28.092926 37.081119 0.059400 0.711157 0.120298 -0.036288 77462.800000 0 0 1
-25.373035 -1.073228 27.242996 37.244108 0.042273 0.750319 0.137901 -0.044936 -762883.000000 0 0 1
-25.034795 -0.301928 26.062136 36.139550 0.012060 0.765331 0.119920 -0.046040 498120.000000 0 0 1
-26.134305 0.115472 25.232506 36.327601 -0.004418 0.802957 0.135962 -0.038961 393984.000000 0 0 1
-27.039085 -0.967928 24.612276 36.576128 0.035782 0.832667 0.129106 -0.036934 -125069.000000 0 0 1
-28.021485 -1.412128 25.550196 37.947467 0.050352 0.832127 0.100803 -0.029600 353375.000000 0 0 1
-28.807195 -2.549128 25.225056 38.375200 0.088259 0.853530 0.083522 -0.029045 119074.000000 0 0 1
-28.057365 -3.891028 25.093586 37.842356 0.137802 0.845832 0.116210 -0.031442 -21713.700000 0 0 1
-27.412425 -4.286628 26.304366 38.232655 0.155119 0.812056 0.110346 -0.032360 47089.300000 0 0 1
-27.068805 -5.651928 26.279386 38.148010 0.205841 0.810854 0.116582 -0.037139 -85544.200000 0 0 1
-26.436775 -6.227428 27.596676 38.720285 0.231342 0.777430 0.098191 -0.029637 582853.000000 0 0 1
-27.455965 -6.275228 28.601196 40.140216 0.224697 0.777696 0.114695 -0.023446 860843.000000 0 0 1
-26.979415 -6.980028 29.787896 40.791278 0.253166 0.752106 0.118088 -0.022893 179878.000000 0 0 1
-28.165085 -7.429428 30.689036 42.311764 0.257907 0.759315 0.087772 -0.020218 3725.740000 0 0 1
-28.912275 -8.376728 30.020766 42.512770 0.282008 0.786738 0.068082 -0.018898 -99344.300000 0 0 1
-30.209655 -8.582928 30.543296 43.808479 0.276818 0.799311 0.069393 -0.015610 483661.000000 0 0 1
-31.164435 -9.414828 29.625406 44.017334 0.293384 0.832486 0.044389 -0.022104 64468.900000 0 0 1
-30.624225 -10.639328 29.230466 43.651559 0.334370 0.837084 0.048409 -0.025401 52604.400000 0 0 1
-31.606635 -11.465828 28.652696 44.174898 0.348003 0.865027 0.031627 -0.017363 -156550.000000 0 0 1
-30.978135 -12.749028 28.083296 43.713317 0.390423 0.873115 0.052293 -0.030118 -257911.000000 0 0 1
-30.379075 -12.416228 26.852986 42.404408 0.387992 0.885039 0.072035 -0.032746 -376217.000000 0 0 1
-29.458295 -13.417028 26.545576 41.862578 0.427384 0.883936 0.077955 -0.038356 126640.000000 0 0 1
-28.050465 -12.836028 26.192366 40.467669 0.429160 0.866836 0.103037 -0.036546 283438.000000 0 0 1
-27.267595 -12.166128 27.199256 40.389800 0.419669 0.831972 0.097788 -0.040534 122425.000000 0 0 1
-27.697755 -10.937128 27.744836 40.700889 0.376080 0.820745 0.102378 -0.040266 -1028130.000000 0 0 1
-27.908085 -9.736528 26.819246 39.911567 0.335675 0.833935 0.104797 -0.032371 653128.000000 0 0 1
-26.732225 -9.201028 26.168676 38.523634 0.331492 0.824003 0.117924 -0.032516 556080.000000 0 0 1
-26.136725 -9.906528 25.153516 37.602754 0.362297 0.838031 0.102819 -0.033348 -416273.000000 0 0 1
-26.810355 -9.731728 23.753966 37.118090 0.348195 0.876355 0.116871 -0.027183 -356813.000000 0 0 1
-28.000205 -10.455328 23.635506 38.104626 0.357369 0.901698 0.106320 -0.031019 -540744.000000 0 0 1
-28.581625 -10.326928 22.369506 37.735256 0.346718 0.936264 0.127019 -0.025177 249755.000000 0 0 1
-29.907695 -11.151428 22.241456 38.903817 0.356895 0.962215 0.122583 -0.031911 1075110.000000 0 0 1
-31.114925 -10.621028 22.796096 40.007584 0.328947 0.964541 0.116136 -0.028513 465476.000000 0 0 1
-31.150495 -10.628028 24.249866 40.882323 0.328799 0.935815 0.112392 -0.031588 221968.000000 0 0 1
-32.633725 -10.405728 24.719166 42.240696 0.308672 0.945672 0.055680 -0.025741 464544.000000 0 0 1
-33.101385 -9.096728 24.347986 42.086537 0.268193 0.953881 0.066282 -0.024036 707251.000000 0 0 1
-34.478349 -8.798228 24.669536 43.298399 0.249849 0.964587 0.052813 -0.020267 1061950.000000 0 0 1
-34.856811 -8.779028 26.210276 44.486483 0.246728 0.940760 0.030898 -0.016570 -460902.000000 0 0 1
-35.108962 -10.060928 26.744716 45.267442 0.279084 0.938727 0.029581 -0.028819 58971.400000 0 0 1
-35.341488 -9.963928 28.173276 46.282115 0.274800 0.916338 0.039070 -0.027247 -1375600.000000 0 0 1
-35.672492 -11.326228 28.780786 47.213809 0.307439 0.915261 0.044818 -0.018105 -166332.000000 0 0 1
-36.863785 -11.929828 28.346856 48.008371 0.312983 0.939172 0.026129 -0.023789 1070930.000000 0 0 1
37.860776 -11.181228 28.721506 48.819905 -0.287162 0.941822 0.048183 -0.024153 238394.000000 0 0 1
36.502246 -11.668028 28.149646 47.549547 -0.309388 0.937250 0.066083 -0.027033 462249.000000 0 0 1
36.275156 -11.360028 26.780576 46.498779 -0.303489 0.957041 0.057486 -0.019419 510411.000000 0 0 1
35.129176 -12.098828 26.287846 45.513641 -0.331686 0.955033 0.075360 -0.014829 406982.000000 0 0 1
34.850776 -11.843328 24.792866 44.379355 -0.327586 0.978030 0.062228 -0.017013 -9335.020000 0 0 1
34.382826 -10.483928 24.639866 43.579978 -0.295962 0.969885 0.075130 -0.029413 -155139.000000 0 0 1
34.263846 -10.172928 23.267426 42.648244 -0.288610 0.993732 0.061915 -0.021935 -178774.000000 0 0 1
33.879646 -8.676928 22.962656 41.837818 -0.250721 0.989809 0.090882 -0.008228 -403106.000000 0 0 1
32.564686 -8.242628 23.111136 40.774064 -0.247909 0.968168 0.115889 -0.017238 -679572.000000 0 0 1
32.337366 -6.946428 22.492606 39.998443 -0.211596 0.973587 0.130368 -0.010884 -393314.000000 0 0 1
30.848026 -6.601928 22.536216 38.769410 -0.210834 0.950485 0.136186 -0.000066 -234011.000000 0 0 1
30.153226 -7.397928 21.541156 37.788461 -0.240592 0.964235 0.144334 0.003549 -1211900.000000 0 0 1
28.824026 -7.137328 21.733756 36.798397 -0.242735 0.938973 0.146300 -0.011876 -1481400.000000 0 0 1
15.612145 -17.187828 24.877686 34.030277 -0.833400 0.750943 0.129279 -0.002522 27323.300000 0 0 1
15.071845 -18.553028 24.996876 34.586402 -0.888561 0.763042 0.129563 -0.006458 -144965.000000 0 0 1
16.000045 -19.567828 25.195066 35.688831 -0.885373 0.787012 0.110544 -0.010153 -1159420.000000 0 0 1
15.450745 -20.980228 25.557146 36.497441 -0.936028 0.795056 0.096201 -0.016703 219157.000000 0 0 1
14.705745 -21.152428 26.742146 37.132553 -0.963281 0.766734 0.092468 -0.013217 1043560.000000 0 0 1
13.493745 -20.393328 26.941566 36.384296 -0.986258 0.737023 0.096253 -0.013256 459521.000000 0 0 1
12.700245 -20.665028 28.254136 37.237559 -1.019728 0.709399 0.084253 -0.018038 54831.200000 0 0 1
13.123045 -19.991628 29.429796 37.920870 -0.989916 0.682363 0.085091 -0.009229 -197959.000000 0 0 1
12.325545 -18.931428 29.937056 37.503938 -0.993674 0.646433 0.073452 -0.006841 -180225.000000 0 0 1
12.271245 -17.613528 29.231746 36.267269 -0.962292 0.633418 0.093336 -0.010755 414579.000000 0 0 1
13.432145 -16.778828 29.308016 36.344345 -0.895725 0.632760 0.091162 -0.000212 35802.300000 0 0 1
13.230345 -15.562228 28.719886 35.242827 -0.866211 0.618215 0.108098 -0.007248 144579.000000 0 0 1
14.312345 -14.527428 29.084666 35.521925 -0.792856 0.611512 0.094393 0.002152 143135.000000 0 0 1
14.005745 -13.229828 28.585806 34.472272 -0.756917 0.593049 0.133551 -0.004633 523999.000000 0 0 1
14.861345 -12.252328 29.212226 34.990474 -0.689468 0.582914 0.124692 -0.000482 311260.000000 0 0 1
14.418345 -10.795628 28.838726 34.001564 -0.642696 0.558296 0.116611 -0.003559 -103024.000000 0 0 1
14.679245 -10.350328 27.554856 32.891938 -0.614140 0.577667 0.165580 -0.016371 174122.000000 0 0 1
16.032045 -10.060828 27.243286 33.172931 -0.560427 0.607197 0.148486 -0.024652 -181705.000000 0 0 1
16.196345 -8.769428 26.481616 32.256789 -0.496251 0.607702 0.139096 -0.019638 -42113.100000 0 0 1
16.371545 -7.569628 27.145566 32.591540 -0.433089 0.586465 0.137671 -0.034273 -824596.000000 0 0 1
17.663645 -7.425028 27.590376 33.591133 -0.397931 0.607007 0.131682 -0.039303 -1221120.000000 0 0 1
18.195445 -5.920628 27.772616 33.726047 -0.314585 0.603284 0.120322 -0.043749 -195017.000000 0 0 1
19.569445 -5.833828 27.541416 34.285949 -0.289721 0.638005 0.090911 -0.050863 -750241.000000 0 0 1
20.082345 -4.599628 27.236116 34.150595 -0.225155 0.647607 0.086512 -0.043724 -382519.000000 0 0 1
21.566145 -4.661728 26.853176 34.755192 -0.212884 0.687811 0.088708 -0.039964 -1123900.000000 0 0 1
21.839145 -5.393028 25.644076 34.112338 -0.242100 0.720079 0.096725 -0.035368 -407814.000000 0 0 1
23.154645 -5.395828 25.213126 34.654787 -0.228948 0.756051 0.094583 -0.027570 -230774.000000 0 0 1
24.367345 -5.866128 26.065396 36.160528 -0.236242 0.765805 0.084120 -0.030924 -466171.000000 0 0 1
24.613745 -4.970928 27.073646 36.925992 -0.199277 0.747800 0.080972 -0.030402 74858.400000 0 0 1
25.669745 -5.256128 27.996616 38.345445 -0.201968 0.752305 0.096725 -0.040111 124967.000000 0 0 1
26.124345 -4.020228 28.771366 39.069619 -0.152690 0.743044 0.089090 -0.032388 -225021.000000 0 0 1
26.913245 -3.250028 27.868626 38.878603 -0.120178 0.771578 0.079105 -0.032209 237448.000000 0 0 1
27.176845 -1.945228 28.379406 39.341524 -0.071455 0.765032 0.070905 -0.037752 -285231.000000 0 0 1
28.094745 -1.032828 27.551536 39.363289 -0.036746 0.795497 0.084207 -0.041418 1554660.000000 0 0 1
29.513745 -1.374528 27.543366 40.392914 -0.046539 0.820458 0.106918 -0.040058 1418490.000000 0 0 1
30.168945 -0.760628 26.425386 40.112901 -0.025207 0.851607 0.118117 -0.031235 499010.000000 0 0 1
31.714845 -0.854828 26.570206 41.382822 -0.026947 0.873616 0.113006 -0.031498 312230.000000 0 0 1
32.194445 0.025172 27.573686 42.388572 0.000782 0.862556 0.109988 -0.029880 878793.000000 0 0 1
33.632745 0.052372 27.584256 43.497764 0.001557 0.883883 0.124518 -0.036531 728143.000000 0 0 1
34.225745 1.120872 28.487136 44.544078 0.032738 0.876914 0.130242 -0.032162 -287142.000000 0 0 1
34.165145 2.435372 27.948796 44.207729 0.071162 0.886387 0.137427 -0.028707 334112.000000 0 0 1
34.552845 3.430572 28.920746 45.189351 0.098960 0.876311 0.131587 -0.025931 -175234.000000 0 0 1
34.241045 4.847272 28.358006 44.722720 0.140629 0.883972 0.134723 -0.026602 -77159.400000 0 0 1
34.455645 5.965272 29.130956 45.512509 0.171430 0.876214 0.140175 -0.024612 645483.000000 0 0 1
33.284345 6.329172 29.872456 45.169344 0.187911 0.848188 0.132910 -0.020298 381388.000000 0 0 1
33.629245 7.273572 31.016276 46.323216 0.213006 0.837177 0.113852 -0.020789 15251.400000 0 0 1
34.130545 6.553172 32.134774 47.333728 0.189695 0.824536 0.113893 -0.023064 184200.000000 0 0 1
34.307645 7.474372 33.233876 48.346367 0.214511 0.812877 0.107891 -0.031864 -98509.500000 0 0 1
34.411645 6.834172 -32.730719 47.980904 0.196050 2.321511 0.123968 -0.028111 514303.000000 0 0 1
33.211945 6.232072 -32.220489 46.690812 0.185488 2.332399 0.100647 -0.026265 509946.000000 0 0 1
33.128645 4.856772 -32.598769 46.730879 0.145566 2.342818 0.111420 -0.022779 -129222.000000 0 0 1
33.860845 3.895072 -31.654099 46.515700 0.114528 2.319246 0.113271 -0.028054 -158815.000000 0 0 1
33.904545 2.624772 -32.228299 46.851583 0.077262 2.329361 0.105029 -0.032247 184825.000000 0 0 1
34.104845 1.649072 -31.248369 46.285208 0.048315 2.311932 0.083412 -0.027774 -39845.900000 0 0 1
34.406245 0.239972 -31.861179 46.893304 0.006975 2.317795 0.075321 -0.036602 505185.000000 0 0 1
35.705245 0.247572 -32.523129 48.297823 0.006934 2.309577 0.096195 -0.027809 1130450.000000 0 0 1
36.310745 -1.027328 -32.523369 48.757514 -0.028285 2.301029 0.092990 -0.024032 124905.000000 0 0 1
36.967045 -1.413328 -31.137689 48.354065 -0.038214 2.270449 0.097871 -0.028585 -669119.000000 0 0 1
36.122745 -1.677628 -30.026149 47.002519 -0.046409 2.263760 0.087980 -0.026647 -378475.000000 0 0 1
36.744245 -1.476628 -28.787849 46.701822 -0.040165 2.234982 0.111578 -0.030374 -246455.000000 0 0 1
35.812645 -1.072928 -27.614209 45.235398 -0.029951 2.227432 0.110088 -0.028494 -417168.000000 0 0 1
35.440845 0.272772 -27.714899 44.991594 0.007696 2.234453 0.088243 -0.025138 29270.600000 0 0 1
34.637745 0.636372 -26.633199 43.697890 0.018370 2.226207 0.079778 -0.017383 -121672.000000 0 0 1
34.128245 2.152372 -26.632839 43.343718 0.062984 2.232494 0.054653 -0.023549 253896.000000 0 0 1
33.173145 2.458072 -27.639149 43.248378 0.073963 2.264097 0.074564 -0.036747 428801.000000 0 0 1
32.557845 3.697672 -27.410309 42.720148 0.113088 2.267411 0.069796 -0.026446 11951.800000 0 0 1
31.521545 4.099672 -28.489279 42.685526 0.129333 2.301538 0.088173 -0.032721 180449.000000 0 0 1
30.487945 4.889772 -27.947529 41.647197 0.159029 2.306426 0.081689 -0.029339 -94053.000000 0 0 1
29.514145 5.394372 -28.760829 41.561632 0.180777 2.335058 0.070885 -0.033200 -59053.600000 0 0 1
28.341145 6.259572 -28.167519 40.445171 0.217375 2.341217 0.064026 -0.024362 -133701.000000 0 0 1
27.344945 5.437872 -27.640889 39.259842 0.196301 2.351881 0.093956 -0.034198 -52555.300000 0 0 1
26.236845 6.261572 -27.333169 38.401581 0.234273 2.362814 0.103766 -0.033168 -62849.200000 0 0 1
24.914445 5.542772 -26.970059 37.132681 0.218907 2.383743 0.130545 -0.030344 168699.000000 0 0 1
24.149845 5.323072 -28.145999 37.466617 0.216949 2.420718 0.141421 -0.026342 287478.000000 0 0 1
22.874545 4.765272 -27.896189 36.388872 0.205385 2.444346 0.131037 -0.015964 58382.000000 0 0 1
22.009045 4.366872 -29.074739 36.726123 0.195869 2.484324 0.124755 -0.008322 -271373.000000 0 0 1
22.516445 3.211472 -29.724129 37.427633 0.141672 2.488447 0.111591 -0.015791 118252.000000 0 0 1
21.755145 2.648472 -30.766869 37.774343 0.121144 2.522648 0.077643 -0.014714 -265001.000000 0 0 1
21.753245 3.319072 -32.084689 38.905619 0.151410 2.540433 0.089342 -0.013266 194613.000000 0 0 1
22.972845 3.165872 -32.787689 40.159767 0.136947 2.526000 0.097910 -0.017545 155464.000000 0 0 1
23.019645 3.892172 33.340036 40.701487 0.167496 0.610894 0.087527 -0.023433 363100.000000 0 0 1
24.437545 3.556372 32.779259 41.040482 0.144514 0.645656 0.077681 -0.018623 511325.000000 0 0 1
24.603745 2.210372 32.371237 40.720105 0.089598 0.651839 0.101823 -0.028960 -327849.000000 0 0 1
25.941945 1.900272 32.087988 41.306591 0.073120 0.681188 0.090333 -0.028098 -400503.000000 0 0 1
26.218745 0.368472 31.968508 41.346630 0.014053 0.686952 0.079765 -0.026516 -434235.000000 0 0 1
25.769145 -0.358228 30.829056 40.182183 -0.013901 0.696282 0.077203 -0.028018 309095.000000 0 0 1
24.381745 -0.631928 30.734146 39.235909 -0.025912 0.670813 0.094678 -0.036574 81614.600000 0 0 1
23.815545 -1.777928 31.652172 39.650992 -0.074516 0.646380 0.089899 -0.046212 -265711.000000 0 0 1
24.029245 -3.079428 31.134236 39.449057 -0.127459 0.661248 0.082006 -0.051516 -26246.200000 0 0 1
23.661445 -4.106628 31.994344 40.004580 -0.171846 0.643889 0.094790 -0.053074 -197259.000000 0 0 1
23.909745 -5.538728 31.534772 39.959921 -0.227636 0.661356 0.094462 -0.053677 -114561.000000 0 0 1
25.232345 -5.974528 31.301122 40.646358 -0.232499 0.691823 0.089794 -0.053775 -153891.000000 0 0 1
25.198245 -7.372528 31.178406 40.760259 -0.284637 0.699877 0.118915 -0.062903 -222303.000000 0 0 1
26.545945 -8.055928 30.898326 41.524592 -0.294638 0.731614 0.096239 -0.053877 -134169.000000 0 0 1
26.970445 -7.700128 29.589696 40.770663 -0.278104 0.758659 0.114692 -0.051044 270808.000000 0 0 1
28.171845 -8.411528 29.239596 41.465174 -0.290153 0.788147 0.100031 -0.046967 776850.000000 0 0 1
28.633945 -8.083728 27.802086 40.721069 -0.275152 0.819284 0.098631 -0.043166 236377.000000 0 0 1
27.816445 -8.799228 26.898996 39.682956 -0.306372 0.825965 0.101506 -0.039611 -118557.000000 0 0 1
27.932645 -8.219128 25.619296 38.783180 -0.286172 0.849209 0.110620 -0.035060 698986.000000 0 0 1
26.978745 -8.895828 24.545006 37.542586 -0.318508 0.858213 0.103704 -0.026255 633026.000000 0 0 1
25.590345 -8.656428 24.625036 36.553959 -0.326186 0.831643 0.100310 -0.025043 35683.700000 0 0 1
24.837145 -9.467028 23.720656 35.625523 -0.364164 0.842186 0.111276 -0.024412 149116.000000 0 0 1
23.472945 -8.851528 23.395066 34.302446 -0.360606 0.820271 0.073598 -0.018167 332833.000000 0 0 1
22.441945 -9.044328 24.376246 34.345919 -0.383099 0.781685 0.059173 -0.018910 234355.000000 0 0 1
21.189945 -8.550728 23.954596 33.105156 -0.383544 0.761805 0.077834 -0.008802 144635.000000 0 0 1
20.151145 -8.732328 25.089046 33.343401 -0.408915 0.719031 0.071322 -0.018404 -122612.000000 0 0 1
19.668845 -10.042628 25.426886 33.678545 -0.472080 0.715161 0.100486 -0.020237 108754.000000 0 0 1
20.415545 -10.662828 26.436166 35.062248 -0.481320 0.716699 0.080044 -0.029714 216393.000000 0 0 1
19.533745 -11.712528 27.183456 35.463936 -0.540129 0.697407 0.087648 -0.024825 341980.000000 0 0 1
19.000045 -12.794028 26.477766 35.010869 -0.592628 0.713199 0.109135 -0.019242 63373.200000 0 0 1
18.128745 -13.594828 27.234686 35.428786 -0.643440 0.693965 0.112897 -0.016821 -160535.000000 0 0 1
18.610545 -15.014428 27.346186 36.326290 -0.678855 0.718501 0.117549 -0.010138 -201016.000000 0 0 1
17.678345 -15.909628 27.896396 36.658547 -0.732788 0.705975 0.100895 -0.001836 260468.000000 0 0 1
18.331645 -17.098028 28.408046 37.886790 -0.750593 0.723015 0.096543 0.002392 508149.000000 0 0 1
18.983745 -18.142828 27.447816 37.985884 -0.762752 0.763270 0.106470 -0.010444 378134.000000 0 0 1
20.246345 -17.727528 26.963866 38.095010 -0.719165 0.784409 0.099765 -0.012140 491987.000000 0 0 1
20.841045 -18.609328 25.952506 38.133828 -0.728888 0.822264 0.087346 -0.003003 267878.000000 0 0 1
22.012145 -17.884328 25.245806 37.970178 -0.682302 0.843456 0.090547 -0.019482 228151.000000 0 0 1
23.186345 -17.836528 26.075216 39.187565 -0.655719 0.842773 0.083521 -0.012735 539098.000000 0 0 1
24.176445 -17.067528 25.351726 38.968077 -0.614713 0.862453 0.069919 -0.015691 -630131.000000 0 0 1
25.433545 -17.029128 26.181126 40.277882 -0.589999 0.863195 0.076561 -0.020069 -576268.000000 0 0 1
26.062245 -18.258428 26.578776 41.461333 -0.611108 0.874931 0.076726 -0.016844 154416.000000 0 0 1
26.971545 -18.833628 25.667736 41.725322 -0.609569 0.908208 0.080714 -0.027080 -122695.000000 0 0 1
27.697645 -20.097328 26.216806 43.108967 -0.627699 0.917066 0.078164 -0.023001 23223.800000 0 0 1
28.599045 -19.789928 27.252666 44.184323 -0.605322 0.906132 0.073613 -0.025900 97195.500000 0 0 1
29.392745 -20.876928 27.738256 45.488355 -0.617589 0.915003 0.068603 -0.016424 -265745.000000 0 0 1
28.678645 -22.039328 28.439276 46.010750 -0.655232 0.904472 0.058921 -0.012531 -107358.000000 0 0 1
28.002445 -21.655028 29.640306 46.169524 -0.658264 0.873707 0.070401 -0.012507 298952.000000 0 0 1
27.425945 -22.784228 30.321586 46.804937 -0.693214 0.866065 0.078576 -0.014787 63796.600000 0 0 1
26.904445 -22.588528 31.750674 47.351833 -0.698416 0.835878 0.059032 -0.012705 -88836.600000 0 0 1
26.402345 -23.807028 32.241073 47.993179 -0.733754 0.834181 0.057831 -0.013101 196649.000000 0 0 1
26.050645 -23.816328 33.641146 48.760438 -0.740623 0.809408 0.052197 -0.005172 -139035.000000 0 0 1
25.962145 -25.265068 -33.075009 49.054183 -0.771791 2.310751 0.064762 -0.014597 550914.000000 0 0 1
24.774545 -26.042328 -33.242329 48.959508 -0.810341 2.317163 0.082081 -0.026138 192112.000000 0 0 1
24.382245 -26.375298 32.770513 48.621567 -0.824644 0.831198 0.076012 -0.026192 -127092.000000 0 0 1
23.142545 -27.286938 32.772994 48.520341 -0.867396 0.829224 0.086469 -0.025877 47581.200000 0 0 1
23.305545 -28.646858 33.251836 49.693818 -0.887850 0.837753 0.086639 -0.030939 -37917.900000 0 0 1
21.983345 -29.125548 33.287986 49.392864 -0.924244 0.831263 0.106910 -0.039495 -171663.000000 0 0 1
21.785545 -30.638588 33.459076 50.327357 -0.952693 0.843532 0.078885 -0.041765 -284230.000000 0 0 1
22.176345 -31.133438 -32.665889 50.280628 -0.951863 2.277949 0.052315 -0.037945 491713.000000 0 0 1
23.487745 -31.688938 -32.763459 51.276771 -0.932953 2.263933 0.027801 -0.025673 -148285.000000 0 0 1
24.044745 -32.193018 -31.457679 51.030636 -0.929287 2.235019 0.028565 -0.023882 -1245890.000000 0 0 1
25.153045 -33.030138 -31.754809 52.268859 -0.919964 2.223741 0.019932 -0.012563 394121.000000 0 0 1
25.780345 -33.508638 -30.567149 52.170927 -0.915017 2.196791 0.018178 -0.003477 -47288.600000 0 0 1
26.586245 -32.491728 -29.743579 51.451155 -0.885028 2.187187 0.014808 -0.001021 -822073.000000 0 0 1
27.020245 -33.041418 -28.506879 51.327099 -0.885314 2.159636 0.052426 0.002616 327545.000000 0 0 1
27.874345 -32.159048 -27.755089 50.808744 -0.856649 2.148696 0.065959 0.003914 158860.000000 0 0 1
27.904145 -32.430198 -26.224139 50.180320 -0.860274 2.120692 0.089954 -0.000403 174029.000000 0 0 1
28.700745 -33.548698 -25.892729 51.182823 -0.863121 2.101206 0.087613 0.015224 -181651.000000 0 0 1
30.031645 -33.289868 -25.532559 51.594831 -0.836808 2.088478 0.093492 0.003872 -42822.200000 0 0 1
-28.115085 -30.543307 8.668571 42.408675 0.826771 1.364940 0.105114 -0.013555 75551.900000 0 0 1
-27.985155 -31.328107 9.820871 43.140105 0.841700 1.341132 0.102405 -0.009727 544505.000000 0 0 1
-26.651515 -31.788907 10.081171 42.690372 0.873081 1.332398 0.090642 -0.001135 724267.000000 0 0 1
-26.663745 -32.692907 11.342571 43.685642 0.886626 1.308146 0.082200 -0.000685 81752.400000 0 0 1
-26.938425 33.573872 11.117871 44.457740 -0.894616 1.318036 0.092199 0.008874 696858.000000 0 0 1
-28.286915 33.087972 10.978071 44.894114 -0.863464 1.323759 0.067900 -0.010693 564388.000000 0 0 1
-28.279285 31.589072 10.713671 43.730655 -0.840626 1.323285 0.082986 -0.009433 200332.000000 0 0 1
-27.695465 31.271472 9.459971 42.830302 -0.845968 1.348089 0.124087 -0.024124 156535.000000 0 0 1
-27.659105 29.838472 9.321371 41.740250 -0.823284 1.345579 0.141850 -0.024016 -87826.800000 0 0 1
-26.953045 29.444672 8.020571 40.715905 -0.829549 1.372511 0.121471 -0.020473 -468856.000000 0 0 1
-25.556995 29.564572 8.006471 39.891446 -0.857975 1.368717 0.105935 -0.013312 -329105.000000 0 0 1
-25.146005 29.505572 6.693471 39.340855 -0.865000 1.399824 0.094999 -0.010381 -930916.000000 0 0 1
-23.692955 29.083772 6.549971 38.080494 -0.887189 1.397933 0.103742 -0.015191 -709508.000000 0 0 1
-23.409555 27.726072 6.790471 36.916836 -0.869612 1.385803 0.093836 -0.018966 243675.000000 0 0 1
-23.932555 26.874272 5.775371 36.446517 -0.843234 1.411664 0.078556 -0.026338 -650276.000000 0 0 1
-24.059355 25.344372 6.164871 35.485143 -0.811403 1.396179 0.094371 -0.028507 -637180.000000 0 0 1
-25.150145 25.180672 7.030171 36.276981 -0.786005 1.375771 0.123190 -0.030893 223094.000000 0 0 1
-25.381095 23.813072 7.414971 35.584325 -0.753535 1.360881 0.146241 -0.041554 -174982.000000 0 0 1
-25.884195 22.778872 6.358471 35.061356 -0.721672 1.388435 0.140150 -0.047689 -877208.000000 0 0 1
-27.264705 22.826072 6.062071 36.071351 -0.697017 1.401937 0.132958 -0.048930 72139.800000 0 0 1
-27.503555 22.121772 4.856371 35.628678 -0.677372 1.434066 0.115426 -0.038503 -45165.400000 0 0 1
-27.581985 23.101572 3.653471 36.163467 -0.697228 1.469597 0.104720 -0.042998 -462659.000000 0 0 1
-26.314985 23.582472 3.297471 35.489220 -0.730690 1.477747 0.098441 -0.042219 78452.900000 0 0 1
-26.331865 24.234072 2.036171 35.844154 -0.743936 1.513960 0.084573 -0.036179 38798.000000 0 0 1
-24.858155 24.663172 1.866871 35.066866 -0.781461 1.517534 0.072798 -0.025022 48195.900000 0 0 1
-24.630355 25.507272 0.786771 35.466806 -0.802887 1.548611 0.063142 -0.023096 -503691.000000 0 0 1
-23.316455 25.972272 0.880471 34.914055 -0.839229 1.545575 0.082401 -0.027944 -691130.000000 0 0 1
-22.731455 26.414872 -0.474929 34.852404 -0.860206 1.584424 0.109019 -0.024115 57532.000000 0 0 1
-22.489355 25.399072 -1.484829 33.957159 -0.846084 1.614537 0.098846 -0.027273 -526340.000000 0 0 1
-21.328255 24.677772 -1.273729 32.642139 -0.858076 1.609827 0.099793 -0.046189 -841003.000000 0 0 1
-21.082355 23.512372 -2.214729 31.657580 -0.839835 1.640812 0.112699 -0.057622 495523.000000 0 0 1
-22.021655 22.398072 -2.151329 31.484204 -0.793872 1.639180 0.100824 -0.037082 493647.000000 0 0 1
-21.750855 21.375672 -3.119929 30.655391 -0.776699 1.672747 0.106054 -0.033230 463680.000000 0 0 1
-22.929055 21.272372 -4.163529 31.552977 -0.747935 1.703136 0.100072 -0.026532 446183.000000 0 0 1
-23.018855 22.417572 -5.013829 32.520051 -0.772165 1.725590 0.109761 -0.025601 -102064.000000 0 0 1
-23.997655 22.311772 -6.008529 33.313736 -0.749009 1.752151 0.125257 -0.025156 105421.000000 0 0 1
-23.441255 22.899172 -7.364229 33.587146 -0.773701 1.791850 0.144913 -0.032788 42413.400000 0 0 1
-22.678555 21.981472 -8.093729 32.603840 -0.769791 1.821664 0.108159 -0.032539 136941.000000 0 0 1
-22.171955 22.629172 -9.262329 33.007056 -0.795603 1.855233 0.114835 -0.036895 -174107.000000 0 0 1
-21.848355 21.685272 -10.401529 32.492975 -0.781652 1.896649 0.099323 -0.033380 98630.600000 0 0 1
-23.052655 21.127972 -10.887429 33.111210 -0.741862 1.905844 0.083920 -0.032313 162839.000000 0 0 1
-22.912455 20.736972 -12.253229 33.243709 -0.735599 1.948286 0.056362 -0.019920 95003.700000 0 0 1
-24.266455 20.586072 -12.994129 34.372876 -0.703526 1.958469 0.048446 -0.035937 -198646.000000 0 0 1
-25.008055 19.478472 -12.639829 34.125928 -0.661734 1.950223 0.068240 -0.029836 -876780.000000 0 0 1
-26.173365 19.563472 -13.387029 35.312703 -0.641872 1.959619 0.076306 -0.036090 -631730.000000 0 0 1
-27.038495 18.302272 -13.542529 35.347609 -0.595052 1.963973 0.127368 -0.039947 75179.200000 0 0 1
-26.437325 17.401072 -14.484629 34.807096 -0.582119 1.999993 0.113143 -0.033145 239588.000000 0 0 1
-27.270545 16.303872 -14.731329 35.021578 -0.538842 2.004942 0.134019 -0.032450 -456154.000000 0 0 1
-26.790795 15.499872 -15.925029 34.808035 -0.524500 2.045989 0.141964 -0.026013 574672.000000 0 0 1
-25.622245 14.696272 -15.675729 33.439622 -0.520762 2.058702 0.151150 -0.024998 625121.000000 0 0 1
-25.164525 14.229372 -16.934829 33.503982 -0.514630 2.100708 0.150130 -0.036758 -153562.000000 0 0 1
-24.277655 12.967472 -16.900629 32.298469 -0.490579 2.121473 0.143316 -0.029761 -267937.000000 0 0 1
-23.006755 13.298072 -16.411529 31.232800 -0.524091 2.124050 0.143160 -0.038780 -263277.000000 0 0 1
-22.154755 12.165572 -16.447129 30.155304 -0.502166 2.147679 0.136778 -0.028621 -267144.000000 0 0 1
-20.858255 12.308372 -15.675029 28.849079 -0.533105 2.145214 0.133140 -0.034544 -712038.000000 0 0 1
-19.870355 13.177972 -16.118729 28.780260 -0.585597 2.165257 0.112368 -0.024757 -105297.000000 0 0 1
-18.763255 13.133372 -15.235729 27.507683 -0.610694 2.157804 0.097370 -0.012568 -250550.000000 0 0 1
-17.848055 14.336372 -15.422029 27.602964 -0.676717 2.163625 0.093907 -0.005703 -505824.000000 0 0 1
-17.017555 14.181072 -16.551529 27.652361 -0.694730 2.212496 0.124163 -0.019090 211345.000000 0 0 1
-16.265655 15.364872 -16.794529 27.976902 -0.756928 2.214672 0.112805 -0.009450 -267125.000000 0 0 1
-15.634855 15.327372 -18.170229 28.452315 -0.775468 2.263500 0.142287 -0.018929 -419648.000000 0 0 1
-14.564355 14.437372 -18.277329 27.470328 -0.781020 2.298756 0.134397 -0.015792 -45791.300000 0 0 1
-13.648255 14.772572 -19.320029 27.888479 -0.824937 2.336106 0.169585 -0.021028 654945.000000 0 0 1
-12.464255 13.776072 -19.394729 26.856905 -0.835349 2.377703 0.153974 -0.020767 436555.000000 0 0 1
-12.940355 12.555172 -19.921829 26.869395 -0.770291 2.405998 0.168521 -0.022844 -605424.000000 0 0 1
-11.861255 11.716372 -19.969629 26.014397 -0.779253 2.445943 0.147906 -0.007651 -695491.000000 0 0 1
-12.122055 10.421072 -20.751429 26.194747 -0.710086 2.485199 0.162923 -0.029803 -159110.000000 0 0 1
-12.097155 10.598172 -22.151929 27.374630 -0.719446 2.513609 0.171585 -0.047536 -99884.600000 0 0 1
-12.204155 9.310772 -22.806229 27.491016 -0.651718 2.549167 0.167520 -0.017512 -254765.000000 0 0 1
-12.031855 9.192972 -24.374329 28.694672 -0.652434 2.585715 0.146276 -0.035075 -177345.000000 0 0 1
-10.675455 9.278072 -24.771229 28.524757 -0.715480 2.622786 0.145529 -0.033884 -55181.800000 0 0 1
-10.347855 8.429272 -25.894859 29.132018 -0.683575 2.665690 0.123943 -0.039460 -101701.000000 0 0 1
-9.979655 9.289272 -27.164669 30.394133 -0.749585 2.676427 0.162480 -0.048020 -298883.000000 0 0 1
-8.673955 9.796672 -27.165419 30.152484 -0.846107 2.692715 0.132676 -0.047910 -321339.000000 0 0 1
-8.404455 10.887972 -26.336119 29.711512 -0.913424 2.660294 0.107360 -0.032122 64793.100000 0 0 1
-6.928455 11.386572 -26.309759 29.493405 -1.024168 2.672670 0.101858 -0.035842 401430.000000 0 0 1
-6.512855 11.954872 -27.536689 30.718162 -1.071964 2.682444 0.098406 -0.052571 -684983.000000 0 0 1
-5.186455 12.350172 -27.512089 30.599691 -1.173211 2.688499 0.119830 -0.048184 -879223.000000 0 0 1
-4.567555 12.613172 -28.881409 31.844787 -1.223360 2.706766 0.118808 -0.042600 -862652.000000 0 0 1
-3.224655 12.979672 -28.843229 31.793115 -1.327287 2.707415 0.139813 -0.051436 -576619.000000 0 0 1
-2.806355 13.190072 -30.161079 33.038528 -1.361160 2.721145 0.135613 -0.050093 -375844.000000 0 0 1
-1.294155 12.977672 -30.269269 32.959421 -1.471403 2.734763 0.168148 -0.064271 -547642.000000 0 0 1
-0.937055 11.691072 -30.037909 32.246476 -1.490816 2.769338 0.140522 -0.046622 481443.000000 0 0 1
0.471645 11.431672 -30.047979 32.152552 1.529562 2.777772 0.153989 -0.054554 1023160.000000 0 0 1
1.072845 10.836372 -31.397819 33.232529 1.472114 2.807755 0.164994 -0.042703 69030.100000 0 0 1
1.661545 11.759372 -32.255209 34.372112 1.430430 2.788802 0.162694 -0.056343 -59636.400000 0 0 1
1.666045 11.168772 -33.547019 35.396605 1.422718 2.816894 0.175779 -0.048136 -56405.300000 0 0 1
2.099945 12.105472 32.716465 34.947379 1.399035 0.359242 0.169241 -0.061592 191408.000000 0 0 1
3.508545 12.286072 32.629591 35.042084 1.292629 0.373230 0.170483 -0.067354 -12575.900000 0 0 1
3.835945 12.979772 31.466467 34.253868 1.283443 0.406209 0.160455 -0.062091 -993880.000000 0 0 1
5.308145 13.287672 31.379789 34.488111 1.190739 0.427819 0.153870 -0.060401 -963384.000000 0 0 1
6.008545 12.069472 31.219526 34.006375 1.108886 0.407665 0.163665 -0.060135 -889791.000000 0 0 1
7.389245 12.188172 31.105786 34.215821 1.025784 0.429665 0.152483 -0.045119 -415992.000000 0 0 1
8.049545 10.839372 30.752196 33.585483 0.932035 0.413700 0.119324 -0.034245 24305.000000 0 0 1
7.619845 10.437472 29.476776 32.185139 0.940188 0.413175 0.110272 -0.036975 -286157.000000 0 0 1
8.460445 9.489272 28.900216 31.572898 0.842653 0.414423 0.114697 -0.026870 -281343.000000 0 0 1
7.825145 8.752772 27.747686 30.129354 0.841295 0.400280 0.109578 -0.025078 -456680.000000 0 0 1
6.907645 7.804272 28.174316 30.040211 0.846268 0.354308 0.113003 -0.029383 -320405.000000 0 0 1
6.463945 6.946672 27.138636 28.749685 0.821378 0.336358 0.145640 -0.034032 -419405.000000 0 0 1
5.544345 5.811472 27.548476 28.695496 0.808917 0.283695 0.153297 -0.042009 -170562.000000 0 0 1
6.217345 4.657872 28.097006 29.151207 0.642972 0.269753 0.116876 -0.033622 552858.000000 0 0 1
5.404445 3.886872 29.003296 29.757469 0.623495 0.225618 0.118624 -0.036189 -43227.700000 0 0 1
6.119145 2.629172 29.495546 30.238117 0.405814 0.222075 0.115374 -0.028925 -14536.500000 0 0 1
6.266145 1.552672 28.580996 29.301001 0.242895 0.222144 0.112095 -0.024875 546619.000000 0 0 1
7.626445 1.419872 28.168316 29.216994 0.184070 0.268736 0.123772 -0.022476 359630.000000 0 0 1
7.921945 0.029572 27.583486 28.698550 0.003733 0.279673 0.130059 -0.027535 -257022.000000 0 0 1
7.891945 -1.015828 28.514076 29.603500 -0.128013 0.272134 0.106201 -0.038340 152507.000000 0 0 1
8.180845 -2.238828 27.872156 29.134098 -0.267127 0.295402 0.122844 -0.037515 -573499.000000 0 0 1
8.908745 -3.272928 28.749486 30.275580 -0.352077 0.318861 0.106739 -0.032615 -399330.000000 0 0 1
10.210545 -2.880928 29.086236 30.960686 -0.275003 0.349754 0.080905 -0.033414 -387296.000000 0 0 1
11.117545 -3.733028 28.383056 30.710473 -0.323949 0.391824 0.122772 -0.039735 -1188330.000000 0 0 1
12.549945 -3.224628 28.445966 31.258156 -0.251503 0.427432 0.099877 -0.035271 128685.000000 0 0 1
13.589545 -4.165328 28.094576 31.485407 -0.297418 0.468371 0.119700 -0.043643 786396.000000 0 0 1
13.937545 -5.094728 29.118716 32.681968 -0.350451 0.471315 0.139659 -0.047682 -753048.000000 0 0 1
13.485845 -6.542528 28.807596 32.473840 -0.451689 0.479769 0.150115 -0.038971 -296907.000000 0 0 1
12.096245 -6.699928 28.681106 31.840446 -0.505821 0.449244 0.158606 -0.041594 -294456.000000 0 0 1
11.609645 -7.983928 28.294526 31.608656 -0.602422 0.462026 0.185982 -0.035503 444365.000000 0 0 1
10.103345 -7.897328 27.939196 30.741569 -0.663454 0.430299 0.194769 -0.038110 332911.000000 0 0 1
9.274545 -7.511128 29.016876 31.375362 -0.680727 0.390208 0.221421 -0.046564 -146247.000000 0 0 1
7.934245 -7.375028 28.562556 30.547715 -0.748886 0.362496 0.214985 -0.041755 -21907.200000 0 0 1
7.022745 -7.028328 29.710276 31.327573 -0.785796 0.322725 0.178250 -0.050023 -362388.000000 0 0 1
6.637345 -8.051428 30.676316 32.402410 -0.881372 0.327873 0.202960 -0.064163 421349.000000 0 0 1
5.675845 -7.663028 31.638607 33.044495 -0.933287 0.292747 0.197304 -0.054906 118681.000000 0 0 1
6.362645 -6.909428 32.774447 34.093809 -0.826573 0.279106 0.175756 -0.029589 -226770.000000 0 0 1
6.705945 -5.638028 32.401003 33.564595 -0.699100 0.264081 0.172547 -0.033485 -229237.000000 0 0 1
6.848845 -4.632228 33.396946 34.405235 -0.594678 0.242695 0.142140 -0.020700 -93656.800000 0 0 1
7.028045 -3.255228 32.743759 33.647343 -0.433758 0.232274 0.131650 -0.043942 155601.000000 0 0 1
5.877045 -2.837528 32.064367 32.721779 -0.449806 0.200792 0.134951 -0.050182 93861.200000 0 0 1
6.300445 -1.620328 31.399330 32.066166 -0.251722 0.204294 0.109551 -0.026617 -260048.000000 0 0 1
5.126245 -1.028128 30.678956 31.121275 -0.197936 0.168799 0.152806 -0.042256 -454057.000000 0 0 1
4.152645 -0.444728 31.526690 31.802113 -0.106689 0.131705 0.143891 -0.028741 -702717.000000 0 0 1
3.146945 0.226772 30.853296 31.014199 0.071937 0.101907 0.151496 -0.039925 -765853.000000 0 0 1
2.021745 0.546872 31.857836 31.926607 0.264173 0.065648 0.141051 -0.039765 -7676.580000 0 0 1
2.478245 1.526972 32.821120 32.949951 0.552210 0.088458 0.138852 -0.033624 1174690.000000 0 0 1
1.424945 1.910972 -33.614319 33.698735 0.930075 3.070796 0.118483 -0.040391 1143160.000000 0 0 1
1.995545 3.010372 -32.675099 32.874103 0.985413 3.031505 0.112076 -0.035814 435318.000000 0 0 1
2.946145 2.657972 -31.685889 31.933371 0.734022 3.017014 0.094391 -0.016777 -115601.000000 0 0 1
3.558945 3.699672 -31.030809 31.452580 0.804783 2.977643 0.088271 -0.021360 -88149.600000 0 0 1
4.598845 3.248772 -29.956829 30.481396 0.615030 2.955802 0.094523 -0.015509 67879.700000 0 0 1
3.981645 2.719172 -28.803279 29.204046 0.599175 2.975734 0.098458 -0.022653 396711.000000 0 0 1
4.758645 2.913672 -27.641159 28.198721 0.549407 2.942404 0.106858 -0.026190 92210.300000 0 0 1
4.047345 2.144472 -26.496779 26.889758 0.487239 2.970419 0.089848 -0.029284 198567.000000 0 0 1
4.303845 0.720872 -26.541769 26.898109 0.165954 2.978638 0.120064 -0.031236 195701.000000 0 0 1
3.658745 0.020672 -25.475129 25.736531 0.005650 2.998946 0.113388 -0.027630 -3954.300000 0 0 1
4.250745 -1.417528 -25.233349 25.628112 -0.321880 2.965847 0.130942 -0.040215 -692.361000 0 0 1
5.602045 -1.425228 -24.851429 25.514853 -0.249127 2.913054 0.125704 -0.045133 -311382.000000 0 0 1
6.096045 -2.751728 -24.876329 25.759766 -0.424014 2.878941 0.128521 -0.043210 -557429.000000 0 0 1
7.508945 -2.871928 -24.327529 25.621493 -0.365302 2.822425 0.137501 -0.055538 63065.900000 0 0 1
8.534745 -2.545928 -25.255119 26.779557 -0.289898 2.802553 0.136267 -0.049810 -542342.000000 0 0 1
9.836445 -2.807728 -24.842629 26.866247 -0.278047 2.750986 0.130624 -0.047710 -148567.000000 0 0 1
-31.029975 -3.057428 17.129856 35.575823 0.098214 1.068428 0.162688 -0.030611 991950.000000 0 0 1
-32.360105 -3.384728 17.599256 36.991440 0.104217 1.074962 0.146713 -0.006861 829845.000000 0 0 1
-32.546985 -4.736128 17.933256 37.461164 0.144502 1.071605 0.140946 -0.024103 74039.000000 0 0 1
-33.974571 -4.842028 18.522456 38.997412 0.141566 1.075871 0.109032 -0.019420 473041.000000 0 0 1
-34.985994 -4.772028 17.515156 39.415387 0.135562 1.110321 0.103376 -0.014328 435908.000000 0 0 1
-36.277365 -4.599828 18.056056 40.782678 0.126123 1.112146 0.103626 -0.009438 -96079.700000 0 0 1
-37.375045 -4.337728 17.020156 41.296436 0.115543 1.145988 0.081612 -0.012130 -635899.000000 0 0 1
37.234096 -4.388228 17.484456 41.368353 -0.117314 1.134426 0.079837 -0.006731 -487252.000000 0 0 1
36.318506 -4.307928 16.404356 40.083600 -0.118064 1.149161 0.070567 -0.015288 1112560.000000 0 0 1
34.846196 -4.741928 16.807556 38.977393 -0.135251 1.124960 0.066160 -0.006735 1350610.000000 0 0 1
34.207186 -3.780428 17.706056 38.703070 -0.110069 1.095632 0.080736 -0.011194 139832.000000 0 0 1
33.066156 -4.308328 18.308756 38.041331 -0.129564 1.068675 0.130683 -0.007788 -342090.000000 0 0 1
32.366386 -3.414128 19.323156 37.850014 -0.105095 1.035008 0.137351 -0.019567 393817.000000 0 0 1
31.447916 -2.327928 18.984956 36.807869 -0.073890 1.028872 0.155001 -0.011775 812998.000000 0 0 1
31.952156 -1.144128 18.386356 36.882345 -0.035792 1.048913 0.142881 -0.011652 88007.600000 0 0 1
31.019096 0.057472 18.717956 36.229125 0.001853 1.027857 0.164113 -0.017574 375127.000000 0 0 1
31.533496 1.308172 18.263856 36.464244 0.041461 1.046192 0.148924 -0.025071 -265802.000000 0 0 1
30.592826 2.303272 18.477756 35.814152 0.075146 1.028698 0.138022 -0.034877 -445058.000000 0 0 1
30.910026 3.739372 18.009056 35.968579 0.120391 1.046402 0.138245 -0.029817 -60899.600000 0 0 1
30.599526 4.085472 16.657656 35.078477 0.132729 1.075982 0.158757 -0.008666 152540.000000 0 0 1
29.240226 4.289872 16.311456 33.755850 0.145672 1.066469 0.178643 -0.025333 72153.200000 0 0 1
28.993426 4.581772 14.838256 32.890503 0.156732 1.102753 0.172205 -0.015197 -836692.000000 0 0 1
28.786926 5.942072 14.504256 32.777565 0.203557 1.112406 0.204393 -0.036156 108820.000000 0 0 1
28.393826 6.065972 13.165356 31.879961 0.210473 1.145087 0.163932 -0.018900 -233432.000000 0 0 1
27.659226 7.368372 12.813656 31.361050 0.260352 1.149893 0.185733 -0.008758 71130.700000 0 0 1
26.433726 7.581372 13.492056 30.630942 0.279309 1.114673 0.148801 -0.008873 457085.000000 0 0 1
25.681326 8.651172 12.919456 30.021419 0.324927 1.125926 0.190773 -0.034631 -745749.000000 0 0 1
24.321626 8.891472 13.552956 29.228109 0.350486 1.088634 0.176878 -0.036614 -397207.000000 0 0 1
23.185626 8.092172 13.265056 27.910897 0.335799 1.075532 0.176196 -0.024039 440749.000000 0 0 1
23.257726 6.700772 13.628456 27.776914 0.280513 1.057973 0.170856 -0.022885 -673833.000000 0 0 1
21.994726 5.868772 13.282156 26.355760 0.260751 1.042623 0.178645 -0.020551 -57512.600000 0 0 1
21.797426 5.766172 11.900056 25.494859 0.258611 1.085169 0.199125 -0.035592 119401.000000 0 0 1
20.639526 5.033072 11.679356 24.243126 0.239188 1.068135 0.189933 -0.032111 -757490.000000 0 1 0
20.464026 4.779172 10.150956 23.337925 0.229428 1.120808 0.208797 -0.042314 -431097.000000 0 1 0
21.450426 4.011172 9.508856 23.803962 0.184862 1.159863 0.214648 -0.043528 233935.000000 0 1 0
21.168926 3.746672 8.167856 22.997279 0.175175 1.207704 0.239740 -0.039461 -235932.000000 0 1 0
22.359426 3.044772 7.491156 23.776711 0.135341 1.250274 0.241961 -0.031036 -649517.000000 0 1 0
22.601426 1.722572 8.050656 24.054204 0.076068 1.229522 0.249655 -0.038858 969844.000000 0 1 0
23.446726 0.879772 7.237856 24.554215 0.037505 1.271581 0.233987 -0.030583 1031190.000000 0 1 0
24.992526 1.167172 7.104056 26.008772 0.046667 1.294140 0.204941 -0.024838 777489.000000 0 0 1
25.882626 0.812272 8.131856 27.142166 0.031373 1.266521 0.182893 -0.011021 419276.000000 0 0 1
25.731126 1.557972 9.347556 27.420702 0.060474 1.222929 0.190288 -0.017843 -525673.000000 0 0 1
26.507726 0.855372 10.503656 28.525742 0.032258 1.193706 0.144545 -0.012207 217829.000000 0 0 1
27.897526 1.081672 10.421556 29.800181 0.038754 1.213530 0.142881 -0.030102 -307429.000000 0 0 1
28.680126 0.327672 11.281156 30.820796 0.011425 1.196063 0.133277 -0.023418 385198.000000 0 0 1
30.205426 0.597172 11.075856 32.177615 0.019768 1.219399 0.175860 -0.026329 648243.000000 0 0 1
30.653026 1.896772 11.454056 32.778058 0.061800 1.213820 0.172044 -0.026918 901080.000000 0 0 1
32.083926 1.966072 11.501356 34.139785 0.061202 1.227184 0.156970 -0.035060 653678.000000 0 0 1
32.691876 3.336872 11.890756 34.946867 0.101718 1.223611 0.160690 -0.037613 1172780.000000 0 0 1
34.141606 3.352872 11.934456 36.322475 0.097891 1.236008 0.153222 -0.042873 1348300.000000 0 0 1
34.593276 4.666172 12.209656 36.980313 0.134077 1.234316 0.144357 -0.041866 -1036190.000000 0 0 1
35.944236 4.853572 11.565856 38.069860 0.134219 1.262111 0.168177 -0.034041 -714404.000000 0 0 1
36.887706 3.962772 12.199256 39.054170 0.107018 1.253112 0.170290 -0.041127 78045.600000 0 0 1
-37.724605 4.253872 11.755556 39.742098 -0.112287 1.270508 0.174303 -0.026463 -298854.000000 0 0 1
-36.728495 3.227972 12.322156 38.874641 -0.087662 1.248262 0.164468 -0.021302 -728882.000000 0 0 1
-36.875655 1.890672 11.801656 38.764258 -0.051227 1.261439 0.151022 -0.015421 1207570.000000 0 0 1
37.935476 1.105772 12.367756 39.915967 0.029140 1.255767 0.145136 -0.022143 694530.000000 0 0 1
37.712846 0.964372 13.937056 40.217288 0.025566 1.216912 0.143129 -0.020045 -221259.000000 0 0 1
-37.307465 0.099572 14.607756 40.065489 -0.002669 1.197596 0.118243 -0.023008 506622.000000 0 0 1
-37.733625 -0.078728 15.958256 40.969484 0.002086 1.170691 0.115741 -0.027656 179053.000000 0 0 1
-36.616965 -0.857528 16.700656 40.254806 0.023415 1.142992 0.106210 -0.018118 347575.000000 0 0 1
-35.442167 -0.071928 16.876556 39.255198 0.002029 1.126393 0.118654 -0.024283 607744.000000 0 0 1
-34.388118 -0.693628 17.622856 38.646977 0.020168 1.097306 0.113418 -0.016590 396794.000000 0 0 1
-34.519205 -0.701228 19.174856 39.493574 0.020311 1.063840 0.085254 -0.023209 91394.400000 0 0 1
-35.570944 -1.537128 19.678856 40.680612 0.043186 1.065873 0.081030 -0.025380 529487.000000 0 0 1
-35.571014 -1.406228 21.130656 41.397816 0.039512 1.035112 0.074074 -0.028992 89612.200000 0 0 1
-36.195625 -2.696928 21.657356 42.266272 0.074372 1.032816 0.065678 -0.024311 -506922.000000 0 0 1
-35.358865 -3.795828 21.436056 41.523032 0.106942 1.028336 0.082803 -0.023917 93958.500000 0 0 1
-35.720465 -5.031028 22.125156 42.317673 0.139924 1.020623 0.078757 -0.025405 -255537.000000 0 0 1
-36.026145 -4.954228 23.667876 43.388891 0.136660 0.993832 0.084550 -0.032553 -406517.000000 0 0 1
-34.972665 -4.555328 24.478746 42.930727 0.129525 0.964057 0.095872 -0.029908 -917525.000000 0 0 1
-35.258775 -4.630828 25.859876 43.969978 0.130591 0.942057 0.104687 -0.038352 342996.000000 0 0 1
-34.097590 -3.978328 26.696206 43.487471 0.116150 0.909827 0.110070 -0.036456 508919.000000 0 0 1
-33.888485 -2.563528 26.484206 43.086126 0.075502 0.908815 0.110127 -0.028356 13534.500000 0 0 1
-33.275135 -2.238228 25.219876 41.812515 0.067163 0.923332 0.095824 -0.022553 -338767.000000 0 0 1
-33.082265 -0.691928 25.124366 41.546947 0.020912 0.921379 0.102652 -0.031820 -9731.520000 0 0 1
-34.223664 0.127672 24.883686 42.313985 -0.003730 0.942123 0.106881 -0.040774 37029.200000 0 0 1
-34.028619 1.236072 24.019576 41.670311 -0.036309 0.956456 0.106942 -0.027931 -517178.000000 0 0 1
-35.294849 2.035872 23.735486 42.582208 -0.057618 0.979541 0.111313 -0.026025 -444276.000000 0 0 1
-36.168085 1.462372 22.811526 42.785916 -0.040411 1.008471 0.112817 -0.022568 -907382.000000 0 0 1
-37.089705 2.310472 22.218856 43.297368 -0.062214 1.031924 0.138925 -0.021859 -359247.000000 0 0 1
-36.662475 3.623372 21.470056 42.640699 -0.098511 1.043139 0.128213 -0.014048 -405492.000000 0 0 1
-36.053835 3.323572 20.229356 41.474715 -0.091924 1.061284 0.102774 -0.020377 -61274.000000 0 0 1
-36.987925 3.254472 19.164256 41.784769 -0.087761 1.094330 0.141199 -0.027504 268716.000000 0 0 1
-36.278955 2.794172 17.842556 40.525631 -0.076867 1.114888 0.138707 -0.022195 -191247.000000 0 0 1
-35.349803 3.686072 17.328156 39.540621 -0.103899 1.117160 0.129219 -0.028089 -306194.000000 0 0 1
-34.962342 3.212272 16.055756 38.606623 -0.091621 1.141885 0.152719 -0.021713 -475859.000000 0 0 1
-33.912515 4.091072 15.383156 37.462475 -0.120056 1.147653 0.156418 -0.023972 -231971.000000 0 0 1
-34.441235 5.320972 14.882156 37.894459 -0.153282 1.167202 0.169181 -0.028586 334217.000000 0 0 1
-33.642095 5.876072 13.817456 36.840750 -0.172920 1.186336 0.187037 -0.021884 7253.230000 0 0 1
-34.009399 7.288472 13.357056 37.258180 -0.211114 1.204136 0.197337 -0.030456 -536399.000000 0 0 1
-33.091275 7.884972 12.521256 36.248960 -0.233918 1.218106 0.220606 -0.020646 -502754.000000 0 0 1
-33.467725 9.161372 12.088356 36.744356 -0.267192 1.235567 0.209242 -0.029988 65455.400000 0 0 1
-32.542335 9.814472 11.036456 35.736967 -0.292916 1.256839 0.224933 -0.028221 85844.500000 0 0 1
-32.928005 11.161672 10.903956 36.438067 -0.326817 1.266894 0.187005 -0.015535 62543.800000 0 0 1
-32.118035 11.887772 9.992956 35.675572 -0.354492 1.286891 0.193899 -0.035081 -55960.800000 0 0 1
-32.430685 13.315272 9.765156 36.392363 -0.389591 1.299137 0.160435 -0.021720 104715.000000 0 0 1
-31.596595 13.773072 8.700656 35.549174 -0.411070 1.323535 0.169718 -0.021782 275759.000000 0 0 1
-31.763495 15.164472 8.369056 36.179026 -0.445420 1.337359 0.135337 -0.024459 -288474.000000 0 0 1
-30.743525 15.649772 7.337856 35.269304 -0.470856 1.361213 0.159254 -0.025831 -210223.000000 0 0 1
-29.440615 15.734572 7.850956 34.292333 -0.490827 1.339806 0.204432 -0.020903 -380442.000000 0 0 1
-28.575355 16.561972 7.130656 33.788994 -0.525276 1.358163 0.186540 -0.050224 -30326.800000 0 0 1
-27.218765 16.812872 7.839656 32.939248 -0.553328 1.330487 0.192322 -0.036128 -211141.000000 0 0 1
-27.234965 17.203272 9.184956 33.497154 -0.563375 1.293037 0.174836 -0.032114 38224.300000 0 0 1
-27.511815 18.555672 9.417956 34.495084 -0.593380 1.294262 0.166112 -0.043856 -62103.300000 0 0 1
-27.749145 18.835672 10.893456 35.262799 -0.596345 1.256737 0.175488 -0.022527 701203.000000 0 0 1
-26.509135 18.971672 11.616256 34.606300 -0.621162 1.228481 0.170858 -0.018941 871868.000000 0 0 1
-26.619305 19.075972 13.009656 35.238207 -0.621795 1.192657 0.164611 -0.029538 32622.800000 0 0 1
-27.073435 17.951172 13.944556 35.350617 -0.585498 1.165312 0.140938 -0.022551 1185670.000000 0 0 1
-26.010125 16.957672 14.084456 34.094884 -0.577755 1.144945 0.150272 -0.024298 1428020.000000 0 0 1
-26.532895 15.955672 14.903156 34.361054 -0.541415 1.122177 0.145145 -0.025418 703290.000000 0 0 1
-25.330965 15.046672 15.357756 33.225303 -0.535998 1.090287 0.148557 -0.014449 569481.000000 0 0 1
-24.358155 15.831772 16.058556 33.194005 -0.576346 1.065829 0.133049 -0.012255 90133.800000 0 0 1
-23.218855 15.049472 16.373656 32.151181 -0.575079 1.036459 0.105078 -0.033143 15040.200000 0 0 1
-23.321755 13.995672 17.501156 32.343060 -0.540502 0.999040 0.131403 -0.023282 -588824.000000 0 0 1
-23.170155 14.487472 18.831156 33.186674 -0.558789 0.967413 0.119787 -0.020304 107488.000000 0 0 1
-23.345755 13.496472 19.823156 33.468441 -0.524170 0.936893 0.105842 -0.022384 -664272.000000 0 0 1
-23.183255 13.898672 21.302456 34.415564 -0.540062 0.903356 0.102152 -0.015354 580629.000000 0 0 1
-21.809055 13.993072 21.692356 33.793479 -0.570460 0.873810 0.108155 -0.021071 527032.000000 0 0 1
-21.106155 15.156072 21.204656 33.538243 -0.622763 0.886339 0.109993 -0.005334 -385117.000000 0 0 1
-19.658155 14.993772 21.764456 32.938546 -0.651596 0.848966 0.118666 -0.015532 712887.000000 0 0 1
-18.673555 14.457272 20.868156 31.514985 -0.658817 0.847091 0.096442 -0.017920 345561.000000 0 0 1
-18.080355 15.535572 20.126656 31.198325 -0.709841 0.869616 0.098129 -0.019621 -852988.000000 0 0 1
-16.921355 15.033472 19.197956 29.679943 -0.726387 0.867372 0.099508 -0.018095 177061.000000 0 0 1
-15.798855 14.643872 19.918756 29.339455 -0.747477 0.824524 0.094651 -0.018427 23275.300000 0 0 1
-14.891155 15.691872 20.310156 29.672947 -0.811574 0.816924 0.087108 -0.016048 -151512.000000 0 0 1
-13.821755 15.345972 21.371256 29.719864 -0.837608 0.768304 0.060259 -0.016069 68441.500000 0 0 1
-12.659555 14.741672 20.828756 28.485405 -0.861239 0.750705 0.038149 -0.017084 -99310.000000 0 0 1
-11.771255 14.421072 21.874456 28.723189 -0.886223 0.705078 0.044792 -0.009880 -160864.000000 0 0 1
-10.554955 13.591572 21.480256 27.523432 -0.910499 0.675435 0.049334 -0.011152 -571364.000000 0 0 1
-9.907055 13.007172 22.615306 27.906779 -0.919874 0.625983 0.049505 -0.021334 32911.300000 0 0 1
-8.797855 12.183872 22.357926 26.939299 -0.945398 0.591801 0.062761 -0.010293 198256.000000 0 0 1
-7.411755 12.846172 22.250866 26.740592 -1.047489 0.587912 0.059361 -0.008659 -313094.000000 0 0 1
-7.228055 13.676572 21.166856 26.216964 -1.084610 0.631111 0.053693 -0.007370 -330641.000000 0 0 1
-6.516455 14.864872 21.392656 26.852827 -1.157648 0.649042 0.051248 0.002647 176487.000000 0 0 1
-7.377755 15.996272 22.107456 28.267500 -1.138653 0.672799 0.058404 -0.003860 1367840.000000 0 0 1
-8.449555 16.471572 21.244156 28.178393 -1.096820 0.716793 0.019259 -0.007260 210566.000000 0 0 1
-8.038555 17.396272 20.229056 27.865092 -1.137938 0.758361 0.033804 -0.000691 -976180.000000 0 0 1
-9.037755 17.459872 19.024456 27.357961 -1.093144 0.801834 0.040444 -0.003184 1934950.000000 0 0 1
-10.208555 18.330672 19.189156 28.433287 -1.062663 0.829990 0.031723 -0.004044 976982.000000 0 0 1
-11.094555 17.963672 20.242856 29.249887 -1.017528 0.806449 0.031313 -0.003403 -1308520.000000 0 0 1
-12.317455 18.858772 20.279856 30.309166 -0.992216 0.837800 0.037624 -0.005938 -511352.000000 0 0 1
-13.183255 18.620472 19.212756 29.827004 -0.954723 0.870898 0.048254 -0.007111 347677.000000 0 0 1
-14.307255 19.511572 19.120056 30.837891 -0.938089 0.902030 0.045161 -0.011822 841798.000000 0 0 1
-15.237555 19.445972 17.897156 30.506345 -0.906146 0.943856 0.059809 -0.004202 74941.800000 0 0 1
-16.039255 18.275272 17.789456 30.128193 -0.850469 0.939169 0.086210 -0.009157 620710.000000 0 0 1
-16.906555 18.501472 16.629956 30.078090 -0.830412 0.984965 0.104328 -0.020105 -79977.700000 0 0 1
-17.815055 17.270272 16.404056 29.744437 -0.769872 0.986635 0.099699 -0.028380 694095.000000 0 0 1
-18.844055 17.096772 17.392856 30.820601 -0.736821 0.971180 0.102268 -0.024910 446929.000000 0 0 1
-20.011755 17.879572 17.272556 31.913800 -0.729186 0.998903 0.110704 -0.020678 -234317.000000 0 0 1
35.986946 -9.528528 11.782671 39.047208 -0.258838 1.264264 0.074993 -0.031105 -315260.000000 0 0 1
34.707726 -10.019728 11.459771 37.899176 -0.281047 1.263613 0.068044 -0.020159 -57706.700000 0 0 1
34.417096 -11.182828 12.117371 38.163108 -0.314160 1.247688 0.063071 -0.023930 581454.000000 0 0 1
32.915506 -11.643128 12.187171 36.979996 -0.339992 1.234958 0.097466 -0.016567 742376.000000 0 0 1
32.094156 -10.725928 12.936671 36.227584 -0.322532 1.205641 0.115405 -0.005591 120230.000000 0 0 1
30.720626 -11.000828 12.936271 35.101598 -0.343866 1.193361 0.128333 -0.020594 -129216.000000 0 0 1
30.228726 -11.940228 14.060571 35.412492 -0.376185 1.162495 0.128561 -0.016592 -886745.000000 0 0 1
30.112926 -11.259628 15.315571 35.610872 -0.357818 1.126213 0.139216 -0.011978 443590.000000 0 0 1
28.947626 -11.669228 16.004871 35.075516 -0.383189 1.096966 0.147348 -0.021207 662631.000000 0 0 1
27.511426 -11.250628 15.600571 33.568333 -0.388193 1.087455 0.151636 -0.044492 -20644.500000 0 0 1
27.272026 -9.895928 15.876671 33.072065 -0.348085 1.070070 0.153076 -0.029068 20019.200000 0 0 1
26.241526 -9.279228 15.096071 31.664066 -0.339886 1.073834 0.169115 -0.031126 455197.000000 0 0 1
26.104026 -7.844628 15.612071 31.411703 -0.291928 1.050642 0.181083 -0.032769 -694034.000000 0 0 1
27.208326 -7.091028 15.278071 31.999924 -0.254949 1.073056 0.167097 -0.022682 -667963.000000 0 0 1
27.054626 -5.758728 15.654971 31.783547 -0.209726 1.055779 0.160636 -0.014761 275319.000000 0 0 1
28.402126 -4.982628 15.722171 32.843477 -0.173664 1.071623 0.162314 -0.014351 323238.000000 0 0 1
28.995526 -4.581328 14.488471 32.735987 -0.156706 1.112317 0.169877 -0.019662 13331.600000 0 0 1
30.128326 -3.786128 14.695471 33.734369 -0.125011 1.120066 0.158428 -0.013052 -308664.000000 0 0 1
30.536126 -3.037628 13.372971 33.474147 -0.099150 1.159823 0.161582 -0.029792 -351708.000000 0 0 1
31.000266 -3.940128 12.417871 33.626546 -0.126422 1.192554 0.140657 -0.028440 289902.000000 0 0 1
31.396106 -3.293728 11.218071 33.502376 -0.104526 1.229357 0.145431 -0.041015 -36564.300000 0 0 1
31.855156 -4.208428 10.044271 33.665252 -0.131351 1.267825 0.154301 -0.036143 863139.000000 0 0 1
33.229666 -4.630828 10.121571 35.044278 -0.138466 1.277800 0.135629 -0.038267 978423.000000 0 0 1
33.451956 -5.495628 9.018071 35.079351 -0.162830 1.310801 0.135913 -0.036605 402566.000000 0 0 1
34.833286 -6.247328 9.040771 36.525641 -0.177463 1.320678 0.123770 -0.034081 449304.000000 0 0 1
35.900806 -5.343928 8.839471 37.357217 -0.147768 1.331911 0.120394 -0.038729 730719.000000 0 0 1
37.076676 -6.104128 8.441371 38.512297 -0.163172 1.349816 0.142817 -0.053502 1066560.000000 0 0 1
-37.528355 -5.287028 8.310271 38.799365 0.139960 1.354938 0.160035 -0.050348 296076.000000 0 0 1
-37.600875 -4.442128 7.194171 38.539777 0.117594 1.383026 0.176626 -0.052026 67682.700000 0 0 1
-36.311905 -3.979828 6.862371 37.168342 0.109165 1.385102 0.183116 -0.043917 -21867.600000 0 0 1
-36.245625 -3.328828 5.503471 36.811882 0.091584 1.420731 0.190539 -0.052691 -95737.400000 0 0 1
-36.267025 -4.278528 4.434771 36.786820 0.117430 1.449949 0.228243 -0.078928 85791.200000 0 0 1
-36.373315 -3.596928 3.179071 36.688724 0.098569 1.484038 0.240057 -0.071799 769909.000000 0 0 1
-35.349424 -4.271328 2.151871 35.671509 0.120249 1.510435 0.348164 -0.074835 436391.000000 0 0 1
-35.606816 -5.629028 1.764071 36.092150 0.156791 1.521900 0.306682 -0.069986 460847.000000 0 0 1
-36.748885 -5.836228 0.911071 37.220588 0.157498 1.546316 0.264299 -0.064067 547701.000000 0 0 1
-36.391905 -6.076628 -0.610229 36.900794 0.165451 1.587334 0.327165 -0.066137 -944697.000000 0 0 1
-35.533372 -7.213928 -0.673329 36.264510 0.200296 1.589365 0.328601 -0.091163 289583.000000 0 0 1
-34.602268 -7.131928 -1.736529 35.372262 0.203265 1.619909 0.293022 -0.080178 -179861.000000 0 0 1
-33.414445 -6.215128 -1.374829 34.015337 0.183900 1.611225 0.282211 -0.075998 -1451270.000000 0 0 1
-32.495505 -6.917728 -0.564729 33.228478 0.209751 1.587792 0.296168 -0.077260 32223.200000 0 0 1
-31.281265 -6.167228 -0.481429 31.887051 0.194658 1.585895 0.287774 -0.067275 -152247.000000 0 0 1
-30.221215 -6.985328 0.218171 31.018773 0.227151 1.563763 0.251958 -0.064996 -957998.000000 0 0 1
-29.758365 -8.059128 -0.511429 30.834581 0.264475 1.587383 0.228271 -0.043360 301842.000000 0 0 1
-29.106155 -9.009328 0.335871 30.470462 0.300180 1.559773 0.270405 -0.057044 -15621.100000 0 0 1
-28.811175 -10.386428 -0.305729 30.627687 0.345998 1.580779 0.216573 -0.037899 -488035.000000 0 0 1
-27.840315 -10.392328 -1.300729 29.745177 0.357265 1.614539 0.186766 -0.037983 -217823.000000 0 0 1
-27.378875 -11.678428 -1.659829 29.811802 0.403182 1.626502 0.166701 -0.024701 -305082.000000 0 0 1
-28.276175 -12.688728 -2.420929 31.087084 0.421808 1.648751 0.165251 -0.024738 -496966.000000 0 0 1
-29.143295 -13.392828 -1.561129 32.111316 0.430768 1.619432 0.210918 -0.038826 308352.000000 0 0 1
-29.886165 -14.300128 -2.363929 33.215429 0.446289 1.642026 0.175823 -0.027591 -740868.000000 0 0 1
-30.857365 -15.173228 -1.611629 34.423846 0.457003 1.617631 0.221555 -0.029218 -678076.000000 0 0 1
-30.244005 -16.109828 -0.752829 34.275256 0.489434 1.592762 0.196014 -0.025481 375801.000000 0 0 1
-31.152725 -16.610028 0.213671 35.304830 0.489838 1.564744 0.193298 -0.024094 650637.000000 0 0 1
-31.956675 -17.917028 -0.125429 36.636931 0.510995 1.574220 0.182116 -0.028062 29425.500000 0 0 1
-31.109225 -19.004228 -0.009529 36.454694 0.548386 1.571058 0.220265 -0.037091 -9776.250000 0 0 1
-31.760575 -20.251528 -0.147529 37.668028 0.567631 1.574713 0.168798 -0.035143 -12243.600000 0 0 1
-32.511475 -20.824728 1.091771 38.624569 0.569692 1.542526 0.143065 -0.027630 -284299.000000 0 0 1
-31.777715 -21.344628 2.160371 38.341669 0.591469 1.514421 0.133998 -0.020161 -351935.000000 0 0 1
-32.619155 -21.773728 3.215571 39.350279 0.588589 1.488989 0.098682 -0.012507 -112384.000000 0 0 1
-31.831715 -22.131328 4.473471 39.026475 0.607538 1.455917 0.097022 -0.015026 -365025.000000 0 0 1
-31.247175 -20.973028 4.999271 37.963754 0.591133 1.438727 0.090251 -0.016939 -340201.000000 0 0 1
-30.503135 -21.203128 6.161071 37.655978 0.607439 1.406443 0.092768 -0.014788 80391.800000 0 0 1
-30.169115 -19.872728 6.811971 36.762805 0.582475 1.384424 0.097987 -0.016975 169770.000000 0 0 1
-29.290845 -19.996028 7.906771 36.336095 0.599001 1.351440 0.081820 -0.018624 -178111.000000 0 0 1
-28.718945 -18.824828 8.437871 35.360283 0.580221 1.329846 0.108023 -0.025986 556646.000000 0 0 1
-27.517675 -19.104128 9.404171 34.794089 0.606856 1.297112 0.128532 -0.029370 299246.000000 0 0 1
-27.851685 -19.712328 10.607171 35.732399 0.615916 1.269404 0.108693 -0.032525 683818.000000 0 0 1
-26.672225 -19.742628 11.444071 35.101933 0.637196 1.238702 0.101615 -0.026915 749475.000000 0 0 1
-26.292765 -18.436128 12.184071 34.346061 0.611522 1.208156 0.088375 -0.019207 -790767.000000 0 0 1
-25.406485 -17.605628 11.459971 32.966325 0.605984 1.215758 0.101568 -0.015688 182126.000000 0 0 1
-24.961475 -16.424028 12.162571 32.260689 0.581961 1.184231 0.101075 -0.010044 281294.000000 0 0 1
-24.118755 -16.652628 13.449371 32.247635 0.604283 1.140582 0.070433 -0.003132 -703992.000000 0 0 1
-24.895355 -16.909228 14.594371 33.446919 0.596638 1.119265 0.074791 -0.011070 -380179.000000 0 0 1
-24.145055 -17.224928 15.702271 33.559547 0.619659 1.083891 0.068890 -0.006785 -226455.000000 0 0 1
-25.025645 -17.756328 16.890871 35.026727 0.617090 1.067600 0.057446 0.009598 400591.000000 0 0 1
-25.827545 -16.821528 17.587771 35.487401 0.577290 1.052264 0.073748 0.005081 121835.000000 0 0 1
-26.756095 -17.507128 18.393871 36.887975 0.579408 1.048766 0.071006 0.015165 14550.700000 0 0 1
-27.815095 -16.611128 19.126871 37.622418 0.538357 1.037482 0.090936 0.003733 -5624.940000 0 0 1
-27.266585 -15.777028 20.121771 37.380034 0.524552 1.002375 0.078625 -0.004242 332677.000000 0 0 1
-28.204165 -14.860928 20.629971 37.972593 0.484940 0.996450 0.091437 -0.013365 -144305.000000 0 0 1
-27.531125 -14.258728 21.863871 37.938148 0.477875 0.956599 0.081839 -0.018213 662425.000000 0 0 1
-26.297255 -13.632528 21.496671 36.599157 0.478260 0.943010 0.079361 -0.017720 405301.000000 0 0 1
-25.492755 -13.419628 22.637871 36.639326 0.484551 0.904782 0.077390 -0.022662 637750.000000 0 0 1
-24.258155 -12.489828 22.266771 35.217368 0.475474 0.886321 0.077904 -0.017551 541518.000000 0 0 1
-24.623355 -11.242928 21.720771 34.705979 0.428326 0.894574 0.100994 -0.019538 -200705.000000 0 0 1
-23.699255 -10.780728 20.789671 33.318001 0.426919 0.896974 0.111665 -0.026932 -1327500.000000 0 0 1
-23.386455 -9.307228 21.038871 32.805257 0.378760 0.874571 0.131151 -0.023490 64961.400000 0 0 1
-22.626755 -9.020828 22.215371 32.967683 0.379368 0.831385 0.122683 -0.027971 788606.000000 0 0 1
-21.263655 -9.409228 22.064971 32.055258 0.416602 0.811596 0.081605 -0.030257 -633612.000000 0 0 1
-20.454655 -9.583328 23.310771 32.459592 0.438145 0.769660 0.093624 -0.026005 -274981.000000 0 0 1
-20.686555 -10.830028 24.092071 33.550722 0.482294 0.769758 0.097351 -0.025759 -46819.600000 0 0 1
-19.976855 -10.708928 25.291971 33.962327 0.492083 0.730701 0.105348 -0.027291 -934670.000000 0 0 1
-20.339855 -11.852128 26.269771 35.274403 0.527605 0.730672 0.094493 -0.032107 821070.000000 0 0 1
-21.579955 -11.697428 26.970671 36.468361 0.496720 0.738375 0.098430 -0.026810 229504.000000 0 0 1
-22.730055 -12.039128 26.214471 36.725938 0.487091 0.775907 0.089997 -0.025855 151178.000000 0 0 1
-23.929955 -12.255828 27.209171 38.251628 0.473324 0.779421 0.077193 -0.023706 221370.000000 0 0 1
-24.002655 -13.457828 28.051771 39.295578 0.511006 0.775793 0.068917 -0.021596 -189978.000000 0 0 1
-23.120255 -13.366928 29.160371 39.541727 0.524197 0.741497 0.075127 -0.007704 69705.700000 0 0 1
-23.310955 -14.486228 30.193271 40.803003 0.556031 0.737761 0.061285 -0.013887 -421761.000000 0 0 1
-23.040755 -15.857928 29.871071 40.922258 0.602800 0.752552 0.056287 -0.015034 -228283.000000 0 0 1
-23.165855 -16.799528 30.918371 42.128692 0.627429 0.746746 0.054813 -0.016920 532735.000000 0 0 1
-24.594255 -17.215228 31.450271 43.478282 0.610705 0.762146 0.069795 -0.013449 932842.000000 0 0 1
-25.266545 -16.396828 32.387371 44.228905 0.575640 0.749151 0.071404 -0.017534 -979585.000000 0 0 1
-26.452885 -16.966828 32.789371 45.417742 0.570304 0.764179 0.075302 -0.021435 -1420970.000000 0 0 1
-27.360535 -16.116828 33.644171 46.263174 0.532332 0.756512 0.073264 -0.026390 -363712.000000 0 0 1
-26.923815 -15.896028 -32.380914 45.012211 0.533336 2.373707 0.085995 -0.021849 -126247.000000 0 0 1
-27.633855 -14.875228 -31.718714 44.620390 0.493814 2.361512 0.086719 -0.015114 -336693.000000 0 0 1
-27.096135 -14.568628 -30.331414 43.202317 0.493323 2.349108 0.084756 -0.011352 -318830.000000 0 0 1
-27.450915 -15.541128 -29.389214 43.113865 0.515152 2.320832 0.085503 -0.002986 189315.000000 0 0 1
-26.909935 -15.197928 -28.121914 41.784731 0.514112 2.309079 0.088153 -0.000601 26230.300000 0 0 1
-27.618255 -16.051628 -26.999514 41.825788 0.526479 2.272504 0.085167 -0.001878 234450.000000 0 0 1
-28.800165 -15.502828 -26.453714 42.066450 0.493808 2.250877 0.103445 -0.009770 -176311.000000 0 0 1
-28.821255 -14.248028 -25.765314 41.201001 0.459124 2.246385 0.097035 -0.009769 -461936.000000 0 0 1
-27.801175 -14.097528 -24.566614 39.688338 0.469299 2.238250 0.107430 -0.022991 -35668.200000 0 0 1
-26.497385 -13.760828 -24.995514 38.939024 0.478990 2.267788 0.092411 -0.021049 24565.700000 0 0 1
-25.569595 -13.887528 -23.941014 37.680762 0.497551 2.259277 0.082091 -0.019456 8230.940000 0 0 1
-24.853555 -15.283428 -23.958814 37.753241 0.551332 2.258308 0.067913 -0.012363 -785648.000000 0 0 1
-23.956955 -15.489128 -25.016514 37.943047 0.573939 2.290707 0.079595 -0.008370 -121250.000000 0 0 1
-23.536755 -16.808128 -24.939214 38.189743 0.620141 2.282381 0.085045 -0.010795 -379969.000000 0 0 1
-22.501455 -17.140328 -26.007914 38.425486 0.650974 2.314258 0.074613 -0.006852 -232096.000000 0 0 1
-23.019955 -17.217528 -27.367214 39.690377 0.642181 2.331619 0.083011 -0.007478 220529.000000 0 0 1
-23.812855 -18.382528 -27.567014 40.803305 0.657407 2.312585 0.084897 -0.017436 -27170.400000 0 0 1
-24.693755 -18.158728 -28.820914 42.073342 0.634064 2.325422 0.081944 -0.014919 -289394.000000 0 0 1
-23.978555 -18.412928 -30.001514 42.592228 0.654854 2.352359 0.081535 -0.014493 22308.200000 0 0 1
-24.672355 -18.023928 -31.190914 43.663031 0.630924 2.366499 0.072903 -0.011543 -846914.000000 0 0 1
-24.059755 -18.325928 -32.568314 44.445546 0.650937 2.393178 0.070576 -0.012702 -989363.000000 0 0 1
-22.885855 -17.605828 -32.864214 43.746819 0.655732 2.420730 0.071033 -0.009852 586084.000000 0 0 1
-21.660855 -18.195628 -32.389914 43.004420 0.698674 2.423674 0.068396 -0.012572 612232.000000 0 0 1
-21.094355 -19.440728 -33.222114 43.893310 0.744626 2.429327 0.061515 -0.010333 -430976.000000 0 0 1
-20.791055 -19.043728 32.809071 43.259296 0.741562 0.709898 0.051300 -0.012949 -82215.000000 0 0 1
-20.539655 -20.071828 31.880771 42.908499 0.773879 0.733263 0.044933 -0.011312 106071.000000 0 0 1
-21.778555 -20.809828 31.310771 43.447886 0.762656 0.766055 0.049636 -0.008146 109830.000000 0 0 1
-22.572755 -21.413528 32.321571 44.863709 0.759050 0.766361 0.046240 -0.008273 671000.000000 0 0 1
-23.842055 -21.955828 31.906771 45.481249 0.744236 0.793245 0.046717 0.000619 732225.000000 0 0 1
-23.827655 -23.202428 30.961471 45.439218 0.772105 0.821147 0.057945 0.002105 -560374.000000 0 0 1
-23.291755 -24.323028 31.650971 46.215793 0.807053 0.816396 0.054053 0.004737 89491.500000 0 0 1
-23.294455 -25.491228 30.829871 46.291633 0.830397 0.841973 0.077147 0.007605 48824.400000 0 0 1
-22.659955 -26.755438 31.460271 47.107066 0.868088 0.839485 0.101460 -0.005602 -133332.000000 0 0 1
-23.436255 -27.235708 32.489671 48.441930 0.860239 0.835653 0.086243 -0.006875 -331511.000000 0 0 1
-22.774455 -28.276758 33.149871 49.164670 0.892764 0.830831 0.093720 -0.018574 -1125.310000 0 0 1
-23.797255 -29.056378 -33.306314 50.198536 0.884575 2.296272 0.099679 -0.023244 1342460.000000 0 0 1
-24.902255 -29.714258 33.340971 51.133940 0.873277 0.860535 0.089424 -0.018380 2057260.000000 0 0 1
-26.018145 -28.917838 32.879571 50.933795 0.838132 0.869072 0.079480 -0.013263 520589.000000 0 0 1
-26.995425 -28.346408 -33.425114 51.473392 0.809805 2.277548 0.066015 -0.011653 -121513.000000 0 0 1
-28.092915 -27.717238 33.313871 51.645631 0.778667 0.869711 0.049106 -0.012117 72967.800000 0 0 1
-29.101595 -27.324528 -33.151814 51.890033 0.753915 2.263846 0.046397 -0.011061 -378333.000000 0 0 1
-30.255525 -26.537658 33.665571 52.469179 0.720028 0.874181 0.045469 -0.014480 -690791.000000 0 0 1
-31.197985 -27.281938 32.941871 52.941338 0.718534 0.899204 0.048193 -0.012430 604859.000000 0 0 1
-32.340835 -26.422848 32.660271 53.016883 0.685028 0.907097 0.053460 -0.021227 781220.000000 0 0 1
