# x y z rho theta phi s1 s2 stress_xx np intf bulk
-0.768968 -10.699869 -14.304417 17.880012 1.499053 2.498129 0.001715 0.002761 -708425.000000 1 0 0
2.187232 -13.489569 -12.975517 18.844535 -1.410053 2.330292 0.010343 0.005005 446112.000000 1 0 0
2.089632 -11.272269 -14.674917 18.622132 -1.387499 2.478409 0.002705 0.012475 2169450.000000 1 0 0
-5.633468 -6.206669 -16.340217 18.364677 0.833772 2.667623 0.009713 -0.010609 2028600.000000 1 0 0
4.540532 -14.072769 -11.437617 18.694340 -1.258694 2.229159 0.012711 0.001638 2114940.000000 1 0 0
14.060732 -10.575869 -7.881717 19.278865 -0.644880 1.991964 0.054038 -0.012416 -862812.000000 1 0 0
7.050132 10.741631 -10.893517 16.845050 0.989979 2.274033 0.046210 -0.023051 -349781.000000 1 0 0
5.787532 -4.229569 -12.524017 14.430377 -0.631104 2.621740 0.003026 -0.001413 3312370.000000 1 0 0
13.714532 0.503631 -10.026917 16.996502 0.036706 2.201781 0.025330 -0.004957 1112500.000000 1 0 0
14.288032 5.102531 -10.463717 18.430221 0.343003 2.174564 0.026321 -0.006548 -340323.000000 1 0 0
4.091932 4.332531 -13.358617 14.627624 0.813950 2.721978 0.010968 -0.002006 1853810.000000 1 0 0
10.394932 -5.015469 -13.694017 17.909094 -0.449543 2.441279 0.038038 -0.002985 -1395880.000000 1 0 0
2.587432 -7.601369 -11.903517 14.358598 -1.242708 2.548143 -0.002848 0.002989 2581820.000000 1 0 0
-5.625468 -2.008569 -15.060717 16.202019 0.342941 2.764008 0.017816 -0.010990 959665.000000 1 0 0
10.688732 0.086531 -9.611117 14.374632 0.008095 2.303143 0.011352 -0.002782 2503790.000000 1 0 0
-1.676068 -9.417869 -16.852717 19.378326 1.394673 2.625326 0.004116 -0.002796 2000870.000000 1 0 0
8.752732 1.574631 -17.930817 20.015094 0.177998 2.681170 0.049546 -0.007044 -804475.000000 1 0 0
16.393332 -6.002469 -8.680117 19.496548 -0.350992 2.032208 0.091130 -0.016943 -1369100.000000 1 0 0
10.211132 7.567531 -10.008117 16.177056 0.637785 2.237834 0.039728 -0.012160 631240.000000 1 0 0
13.848132 -2.223569 -10.631717 17.599671 -0.159209 2.219415 0.046135 -0.012703 -302932.000000 1 0 0
7.298132 -1.853169 -13.649917 15.589009 -0.248668 2.637497 0.015315 -0.006942 368391.000000 1 0 0
-2.824068 6.582931 -13.737017 15.492449 -1.165544 2.660935 0.003727 -0.009402 -537804.000000 1 0 0
11.328932 1.845431 -14.009917 18.111546 0.161477 2.455197 0.026662 -0.003859 220661.000000 1 0 0
-2.371168 10.767731 -12.905217 16.973835 -1.354045 2.434572 0.010429 -0.008560 -959873.000000 1 0 0
2.855232 -1.050169 -15.194217 15.495787 -0.352448 2.943982 0.013927 -0.002999 174141.000000 1 0 0
-9.129768 0.428231 -15.314217 17.834272 -0.046871 2.603516 0.019383 -0.001558 -51817.100000 1 0 0
2.285532 -1.745069 -18.006917 18.235075 -0.652103 2.983237 0.027425 -0.014741 1144950.000000 1 0 0
0.984032 7.819931 -13.080617 15.271613 1.445618 2.599307 0.006826 -0.010196 -2439620.000000 1 0 0
9.351332 -9.092669 -9.931117 16.393630 -0.771375 2.221556 0.021492 -0.000355 277475.000000 1 0 0
3.836232 7.271831 -13.445417 15.759931 1.085355 2.592770 0.005673 -0.005981 -8358.980000 1 0 0
-2.662668 9.004231 -15.398317 18.035358 -1.283277 2.594009 0.004671 -0.012721 -1466550.000000 1 0 0
5.445632 -7.658169 -15.220917 17.887950 -0.952667 2.588499 0.009550 -0.000689 2550470.000000 1 0 0
4.171132 7.201931 -16.394117 18.385680 1.045835 2.671836 0.016759 -0.004378 504151.000000 1 0 0
-0.249568 5.045531 -13.327617 14.252896 -1.521373 2.779285 0.011319 -0.010666 1760530.000000 1 0 0
8.868732 4.143031 -16.577017 19.251405 0.437024 2.608188 0.040857 -0.008689 -397462.000000 1 0 0
5.339532 0.304131 -14.338517 15.303469 0.056897 2.784581 0.011715 -0.000980 268084.000000 1 0 0
6.270832 7.887231 -11.667317 15.416161 0.899074 2.429236 0.014751 -0.009729 8705.150000 1 0 0
2.673332 -8.410669 -14.960117 17.369259 -1.263045 2.608616 0.003704 0.000908 861303.000000 1 0 0
4.034032 11.376631 -13.773417 18.314152 1.230039 2.421985 0.029038 -0.025336 -1596520.000000 1 0 0
0.565932 -4.534469 -13.668717 14.412339 -1.446632 2.818959 0.004210 -0.001808 433007.000000 1 0 0
8.543932 -0.081569 -11.669917 14.463485 -0.009547 2.509603 0.002185 -0.001971 -414067.000000 1 0 0
-0.906168 -4.930469 -16.272717 17.027389 1.389035 2.842754 0.000512 -0.007730 532051.000000 1 0 0
4.414232 0.837731 -11.701017 12.533995 0.187549 2.774968 0.007943 -0.002694 110853.000000 1 0 0
-2.876368 -7.024469 -15.488317 17.248322 1.182146 2.685910 -0.002975 -0.004737 1710190.000000 1 0 0
11.386332 -3.733469 -11.377717 16.523916 -0.316844 2.330299 0.028168 -0.006695 135544.000000 1 0 0
6.511332 -7.067269 -12.557717 15.812653 -0.826317 2.488414 0.010057 0.001612 -1738250.000000 1 0 0
3.353932 -3.969169 -14.532717 15.433827 -0.869214 2.798190 0.012571 -0.005541 3147440.000000 1 0 0
-0.679868 -1.360969 -18.382117 18.444963 1.107511 3.059019 0.024307 -0.016365 1799610.000000 1 0 0
14.977532 2.923431 -8.635117 17.533915 0.192764 2.085734 0.021119 -0.003482 -1752570.000000 1 0 0
6.936632 4.277231 -14.344417 16.497693 0.552547 2.624945 0.015183 -0.000584 3859220.000000 1 0 0
10.003432 -9.699569 -14.149417 19.858406 -0.769977 2.363873 0.052702 -0.001681 72463.700000 1 0 0
9.100532 -3.255169 -15.521517 18.284783 -0.343509 2.584652 0.043161 -0.014322 -226103.000000 1 0 0
-5.275768 -1.977469 -17.966017 18.828751 0.358614 2.837704 0.010308 -0.003306 -287335.000000 1 0 0
5.081532 -9.096469 -11.099717 15.224041 -1.061354 2.387790 -0.002945 0.003952 876998.000000 1 0 0
-2.507968 4.015031 -16.986417 17.633738 -1.012453 2.869798 0.011820 -0.006170 2572690.000000 1 0 0
9.267032 9.542931 -14.611817 19.759823 0.800065 2.403081 0.085585 -0.018525 558249.000000 1 0 0
9.725232 9.917031 -11.692717 18.156191 0.795162 2.270521 0.055586 -0.028604 172460.000000 1 0 0
12.019032 -5.867969 -9.667317 16.502945 -0.454182 2.196655 0.034393 -0.004800 -304034.000000 1 0 0
8.148832 6.987631 -13.858017 17.529264 0.708833 2.482527 0.030833 -0.006076 1910240.000000 1 0 0
3.819032 -4.175969 -17.531117 18.421829 -0.830014 2.829357 0.029370 -0.013574 719037.000000 1 0 0
9.360532 -7.493469 -12.445217 17.281639 -0.675069 2.374802 0.029646 -0.000308 1511500.000000 1 0 0
11.977632 -8.612769 -8.801117 17.178566 -0.623411 2.108694 0.037774 -0.009918 1736850.000000 1 0 0
-2.990168 -2.478869 -13.797417 14.333688 0.692179 2.867188 0.010653 -0.010100 -1918840.000000 1 0 0
-0.445268 6.115331 -17.574517 18.613414 -1.498113 2.805910 0.021267 -0.007925 971759.000000 1 0 0
0.970932 -8.477969 -17.391317 19.372056 -1.456769 2.685437 0.008596 -0.006817 966109.000000 1 0 0
0.049932 8.487431 -15.905417 18.028346 1.564913 2.651406 0.010573 -0.007617 -1461700.000000 1 0 0
1.782432 3.368631 -14.822917 15.305019 1.084120 2.889933 0.020487 -0.008090 2711940.000000 1 0 0
-1.951268 -0.445169 -15.755717 15.882324 0.224304 3.015242 0.019076 -0.012157 1341090.000000 1 0 0
14.102332 -4.242969 -8.443317 16.975516 -0.292255 2.091375 0.051674 -0.009884 172731.000000 1 0 0
0.569132 0.639331 -14.423317 14.448693 0.843422 3.082317 0.013400 -0.006751 2164050.000000 1 0 0
8.913732 2.744931 -12.638317 15.707206 0.298729 2.505830 0.013158 -0.001115 1497680.000000 1 0 0
6.087732 0.886231 -17.110217 18.182558 0.144561 2.796439 0.034216 -0.003468 -1292410.000000 1 0 0
15.261132 1.532231 -12.405517 19.726802 0.100066 2.250890 0.047172 -0.015681 -451102.000000 1 0 0
8.838532 -11.301069 -11.912217 18.647646 -0.907068 2.263741 0.037125 -0.000508 890230.000000 1 0 0
-4.599068 0.775631 -15.001517 15.709823 -0.167077 2.840164 0.018199 -0.011282 1306200.000000 1 0 0
2.294132 5.078731 -17.196417 18.076872 1.146518 2.828202 0.024914 -0.007260 1675460.000000 1 0 0
6.030032 -11.713669 -12.310517 18.031088 -1.095390 2.322300 0.010307 -0.001202 -325097.000000 1 0 0
12.948932 7.267831 -8.779417 17.250344 0.511454 2.104751 0.028187 -0.009823 1643360.000000 1 0 0
-5.128468 3.603831 -15.653517 16.861832 -0.612543 2.760719 0.009445 -0.007468 734027.000000 1 0 0
-0.575168 -4.256769 -19.081017 19.558530 1.436491 2.920167 0.014381 -0.016531 -1606820.000000 1 0 0
9.888932 4.470231 -10.257917 14.933144 0.424552 2.328042 0.009757 -0.003346 -1249900.000000 1 0 0
13.422232 3.745831 -12.917017 19.000971 0.272152 2.318297 0.044294 -0.009680 -641671.000000 1 0 0
-6.343768 5.812131 -17.065217 19.111407 -0.741691 2.674616 0.007747 -0.006244 -1450090.000000 1 0 0
-10.283468 3.143431 -15.431917 18.808905 -0.296658 2.533008 0.024944 -0.007776 -1166840.000000 1 0 0
10.725532 13.323131 -8.371517 19.042719 0.892995 2.025969 0.085842 -0.024570 1488730.000000 1 0 0
7.312932 13.395431 -12.383717 19.653829 1.071085 2.252468 0.089737 -0.033208 -1557970.000000 1 0 0
5.239432 15.173231 -11.238817 19.595652 1.238308 2.181612 0.049760 -0.024994 -85398.100000 1 0 0
14.509432 9.603031 -9.781617 19.960507 0.584659 2.082942 0.098159 -0.025047 367183.000000 1 0 0
8.395132 -17.187369 -2.090217 19.241957 -1.116433 1.679639 0.024056 -0.003883 -1418970.000000 1 0 0
0.591732 -16.045869 0.046783 16.056844 -1.533935 1.567883 0.019830 -0.015425 1857590.000000 1 0 0
-9.221768 -11.666669 7.700383 16.746584 0.901914 1.093006 0.035993 -0.007226 1248440.000000 1 0 0
1.994132 -15.902869 -2.469717 16.216575 -1.446053 1.723687 0.017371 -0.014458 1333290.000000 1 0 0
-1.347868 -11.129669 -9.484617 14.684830 1.450277 2.272970 0.003499 -0.000366 588256.000000 1 0 0
-4.847568 -12.679769 -12.940217 18.754324 1.205635 2.332266 0.023059 0.000085 155746.000000 1 0 0
-8.207668 -17.813169 -1.617917 19.679747 1.139027 1.653101 0.038211 -0.025072 76672.100000 1 0 0
-11.401168 -7.103169 -8.901917 16.114768 0.557175 2.156046 0.025839 -0.009739 3004950.000000 1 0 0
-13.611768 -11.671969 -4.711317 18.539460 0.708827 1.827738 0.036025 -0.004563 1086120.000000 1 0 0
-5.801968 -13.508069 9.763083 17.647905 1.165105 0.984578 0.031668 -0.009129 666298.000000 1 0 0
0.118832 -14.101569 -3.615517 14.558170 -1.562370 1.821772 0.009252 -0.006323 296353.000000 1 0 0
-14.893568 -11.668869 1.975183 19.023202 0.664589 1.466779 0.023864 -0.000898 330061.000000 1 0 0
-3.982868 -16.467569 -7.508017 18.531443 1.333492 1.987939 0.025151 -0.010716 93484.600000 1 0 0
0.540432 -15.296069 -9.213417 17.864737 -1.535480 2.112658 0.012930 0.004206 158287.000000 1 0 0
4.519032 -14.231969 -2.479817 15.136713 -1.263338 1.735366 0.012204 -0.003622 2133500.000000 1 0 0
-3.554868 -18.106469 -2.327717 18.598375 1.376931 1.696282 0.033355 -0.026047 1187950.000000 1 0 0
-0.976468 -13.532769 0.692883 13.585633 1.498765 1.519773 0.011127 -0.005447 2851610.000000 1 0 0
-8.572568 -11.363269 -10.517417 17.698273 0.924479 2.207144 0.029700 -0.009020 2209870.000000 1 0 0
-3.699468 -14.221369 -0.388717 14.699813 1.316302 1.597243 0.005196 -0.001541 4981970.000000 1 0 0
-1.466068 -14.965369 -7.210617 16.676469 1.473144 2.017930 0.012530 0.000523 983050.000000 1 0 0
-14.231868 -7.990969 -1.829317 16.424008 0.511617 1.682409 0.022954 -0.001263 3159420.000000 1 0 0
-10.754668 -7.333569 -11.714717 17.512244 0.598472 2.303584 0.032320 -0.010053 -598128.000000 1 0 0
-9.579268 -14.663069 6.923683 18.833623 0.992110 1.194344 0.032281 -0.009645 645072.000000 1 0 0
-2.499068 -14.333069 -12.277817 19.037515 1.398175 2.271725 0.025755 0.002706 354754.000000 1 0 0
2.417732 -17.745269 -4.667817 18.507526 -1.435384 1.825762 0.034432 -0.018036 -200559.000000 1 0 0
-6.668568 -9.704269 -9.213317 14.950847 0.968727 2.234756 0.016195 -0.004824 1055190.000000 1 0 0
-11.038668 -15.444869 0.309383 18.986624 0.950263 1.554501 0.043721 -0.012714 1669020.000000 1 0 0
-12.743768 -11.123169 4.110683 17.407648 0.717601 1.332402 0.030491 -0.002277 1488340.000000 1 0 0
-17.065468 -9.014269 -1.588117 19.365158 0.485966 1.652897 0.027297 -0.004941 863033.000000 1 0 0
-1.409968 -19.124169 -3.819217 19.552705 1.497202 1.767390 0.048579 -0.026254 41401.000000 1 0 0
3.215032 -14.227969 -8.699217 16.983754 -1.348563 2.108550 0.012713 -0.002860 1144400.000000 1 0 0
-4.289868 -7.982869 -13.041417 15.881049 1.077691 2.534296 0.006981 -0.001582 1914100.000000 1 0 0
5.418732 -16.552869 1.343283 17.468959 -1.254432 1.493825 0.021788 -0.013755 2415680.000000 1 0 0
-2.833168 -13.866569 -3.203717 14.511112 1.369254 1.793407 0.008191 -0.005926 -530139.000000 1 0 0
-0.436668 -14.042869 3.694083 14.527185 1.539711 1.313685 0.012642 0.000396 -3523740.000000 1 0 0
1.146232 -16.188669 7.019983 17.682393 -1.500110 1.162546 0.019975 -0.005988 1391910.000000 1 0 0
-5.493368 -10.316069 -14.536817 18.652544 1.081483 2.464420 0.023123 -0.004463 449306.000000 1 0 0
-0.252468 -17.293769 -5.791917 18.239640 1.556199 1.893936 0.032811 -0.013118 -90357.300000 1 0 0
-6.534168 -13.442769 -1.253717 14.999173 1.118352 1.654480 0.007826 -0.000052 1064760.000000 1 0 0
-1.739768 -17.837169 0.078183 17.921984 1.473568 1.566434 0.024892 -0.017714 1743680.000000 1 0 0
-9.501968 -9.892169 -4.829317 14.541826 0.805515 1.909324 0.018037 -0.001675 1803050.000000 1 0 0
-0.886268 -16.753969 4.903283 17.479220 1.517947 1.286460 0.034516 -0.011295 1285640.000000 1 0 0
-6.817168 -9.897569 -6.307217 13.572643 0.967646 2.054093 0.014073 -0.002096 4288910.000000 1 0 0
-6.154968 -14.650569 -8.561017 18.050313 1.173068 2.064950 0.024839 -0.005214 714962.000000 1 0 0
-5.842168 -12.248469 -10.292317 17.031961 1.125741 2.219676 0.022815 -0.003863 681962.000000 1 0 0
-10.732168 -12.194069 -8.801717 18.475523 0.849077 2.067351 0.037214 -0.013250 -1804260.000000 1 0 0
3.877132 -17.218269 6.657083 18.863131 -1.349315 1.210111 0.034109 -0.003140 1466750.000000 1 0 0
-6.740268 -14.398869 -4.110917 16.421275 1.132984 1.823829 0.019892 -0.010519 -1308580.000000 1 0 0
-2.824468 -12.247169 -7.152117 14.461104 1.344137 2.088143 0.009531 -0.003898 3897600.000000 1 0 0
-7.192968 -12.803569 4.582183 15.383971 1.058943 1.268352 0.015240 0.000297 186415.000000 1 0 0
2.488132 -16.426669 2.374283 16.782833 -1.420470 1.428849 0.019025 -0.015288 2238240.000000 1 0 0
-6.334768 -12.008369 7.302583 15.416158 1.085369 1.077313 0.019224 -0.003907 1801210.000000 1 0 0
-11.269968 -12.844369 -0.906517 17.111743 0.850595 1.623797 0.038224 -0.003215 85932.400000 1 0 0
-14.355768 -8.724669 4.583183 17.413026 0.546096 1.304454 0.018793 -0.002285 13943.900000 1 0 0
-8.092068 -15.628769 4.594683 18.189313 1.093036 1.315426 0.024419 0.005363 -343467.000000 1 0 0
-16.501768 -9.258669 1.201683 18.959835 0.511304 1.507373 0.011376 -0.003697 -914513.000000 1 0 0
-6.626168 -16.977369 2.493683 18.394445 1.198685 1.434810 0.018873 -0.007500 462271.000000 1 0 0
-11.572368 -15.094569 -4.493717 19.543776 0.916719 1.802803 0.055674 -0.006766 -4137.350000 1 0 0
-10.098068 -9.976869 -12.669617 19.027035 0.779361 2.299462 0.026927 -0.004861 -913590.000000 1 0 0
-4.410868 -16.030869 -4.480517 17.219743 1.302292 1.834022 0.015858 -0.014729 30862.100000 1 0 0
-11.853768 -8.319069 0.049183 14.481752 0.611938 1.567400 0.006049 0.000353 1724950.000000 1 0 0
-9.697668 -11.211369 3.507683 15.232971 0.857667 1.338442 0.015865 0.003901 3475890.000000 1 0 0
-14.244168 -12.958269 -0.547417 19.264286 0.738162 1.599216 0.033551 -0.002107 882302.000000 1 0 0
5.547132 -14.902369 -7.056317 17.396634 -1.214455 1.988447 0.009777 -0.011018 1225740.000000 1 0 0
-7.379268 -10.618569 -1.190517 12.985566 0.963474 1.662605 0.014252 0.000679 880310.000000 1 0 0
-11.683068 -8.236869 -6.041017 15.518826 0.614091 1.970635 0.021502 -0.005671 -163404.000000 1 0 0
-14.455868 -6.615269 -9.157917 18.346698 0.429171 2.093424 0.043522 -0.016255 1859430.000000 1 0 0
-3.869168 -16.505469 1.554583 17.024033 1.340537 1.479352 0.017726 -0.009626 1409890.000000 1 0 0
-7.979968 -15.494769 0.232883 17.430490 1.095213 1.557435 0.032303 -0.008905 631361.000000 1 0 0
0.915632 -18.579169 3.649783 18.956393 -1.521553 1.377051 0.027199 -0.018401 1074070.000000 1 0 0
-14.144568 -8.792869 -4.569917 17.270422 0.556182 1.838595 0.029870 -0.008111 912413.000000 1 0 0
-3.398868 -14.538669 11.167383 18.644990 1.341140 0.928609 0.019719 -0.011042 554227.000000 1 0 0
-10.834268 -12.222869 -3.757717 16.760081 0.845550 1.796925 0.033724 -0.011427 812569.000000 1 0 0
-9.937868 -10.751369 0.533883 14.650535 0.824698 1.534347 0.014862 0.002721 2301130.000000 1 0 0
-0.067268 -13.241969 -11.133817 17.300755 1.565716 2.269917 0.014609 0.000067 2290480.000000 1 0 0
-5.922668 -12.700069 -6.329917 15.376527 1.134430 1.995072 0.007770 -0.008050 3632600.000000 1 0 0
1.730432 -15.776269 9.866383 18.687712 -1.461547 1.014598 0.017761 -0.009714 1122580.000000 1 0 0
-9.025268 -15.810269 -5.433217 18.998418 1.052088 1.860828 0.049923 -0.012818 330822.000000 1 0 0
-3.323068 -15.524669 6.038683 16.985989 1.359928 1.207337 0.016200 -0.002937 -544283.000000 1 0 0
-17.540268 -5.374269 -6.553517 19.480563 0.297314 1.913902 0.042794 -0.011180 -1409310.000000 1 0 0
18.973732 5.545731 -2.921317 19.982286 0.284364 1.717517 0.034308 -0.010391 222872.000000 1 0 0
12.866732 -12.375469 -5.805917 18.772685 -0.765939 1.885227 0.039465 -0.005702 -561764.000000 1 0 0
11.007332 -13.526769 -1.524217 17.505944 -0.887731 1.657975 0.031949 -0.008541 2941960.000000 1 0 0
18.713132 -2.758269 4.659683 19.480811 -0.146344 1.329261 0.067878 -0.007121 -1058950.000000 1 0 0
8.500732 -16.864769 5.097683 19.561934 -1.103912 1.307161 0.039942 -0.019048 792759.000000 1 0 0
18.031232 -0.912869 6.737383 19.270470 -0.050584 1.213629 0.090108 -0.017817 -726068.000000 1 0 0
18.087132 -4.132169 -5.031817 19.223380 -0.224604 1.835637 0.108221 -0.022822 -406224.000000 1 0 0
5.170032 -11.673869 14.955983 19.664432 -1.153886 0.706621 0.000642 0.001306 -1054470.000000 1 0 0
16.112532 -8.883269 -0.822117 18.417438 -0.503861 1.615449 0.058986 -0.011510 694985.000000 1 0 0
13.891032 -12.611869 -1.394617 18.813957 -0.737171 1.644991 0.046452 -0.005014 605671.000000 1 0 0
11.323132 -2.085269 13.947783 18.085971 -0.182120 0.690082 0.029502 -0.008189 -1055460.000000 1 0 0
17.086732 -6.080669 -1.399117 18.190340 -0.341895 1.647788 0.074815 -0.011809 -293003.000000 1 0 0
17.836332 3.693931 -1.079917 18.246811 0.204215 1.630015 0.028113 -0.000945 1085380.000000 1 0 0
9.812932 -11.098269 9.645083 17.677467 -0.846787 0.993674 0.032957 -0.006894 942082.000000 1 0 0
9.059132 -11.068569 4.309183 14.938211 -0.884903 1.278171 0.016440 -0.005912 -369868.000000 1 0 0
14.204632 -10.103769 6.907083 18.750081 -0.618270 1.193535 0.051797 -0.012411 572483.000000 1 0 0
16.334232 -0.503269 -4.789017 17.029243 -0.030801 1.855865 0.049410 -0.008693 -6148.590000 1 0 0
15.888832 -0.444169 -1.838917 16.001059 -0.027948 1.685976 0.042677 -0.000238 -28223.600000 1 0 0
13.001732 -5.164469 -0.259817 13.992294 -0.378102 1.589366 0.016973 -0.003253 2099230.000000 1 0 0
14.374732 -7.532969 1.015983 16.260712 -0.482696 1.508275 0.043917 -0.005984 1982380.000000 1 0 0
15.518632 2.481131 3.578383 16.117965 0.158539 1.346919 0.024325 -0.002624 1377900.000000 1 0 0
15.953632 -7.000669 5.074083 18.145911 -0.413512 1.287391 0.062796 -0.015349 -985600.000000 1 0 0
13.719032 -11.944569 3.290783 18.485503 -0.716365 1.391823 0.038833 -0.013575 721202.000000 1 0 0
13.981732 -0.967869 9.304783 16.822741 -0.069114 0.984707 0.055760 -0.011885 -658690.000000 1 0 0
14.284732 -2.805369 -1.606717 14.645996 -0.193921 1.680721 0.018037 -0.001878 -382552.000000 1 0 0
15.065032 1.814831 9.233183 17.762333 0.119889 1.024158 0.070590 -0.013166 -1023670.000000 1 0 0
14.460832 -10.141869 -3.012417 17.917808 -0.611621 1.739723 0.050224 -0.012916 1933450.000000 1 0 0
7.429932 -12.562269 6.222183 15.866003 -1.036689 1.167806 0.009467 -0.005129 98321.800000 1 0 0
12.464332 -4.591169 6.980783 15.005657 -0.352923 1.086924 0.025485 -0.005897 2648630.000000 1 0 0
14.904532 -8.873969 -5.648617 18.242787 -0.537021 1.885606 0.067936 -0.015911 -286508.000000 1 0 0
14.371032 -4.454169 4.696583 15.761475 -0.300552 1.268222 0.035020 -0.007942 132831.000000 1 0 0
17.226232 -4.176469 0.981383 17.752439 -0.237859 1.515487 0.053502 -0.007694 -654851.000000 1 0 0
10.260732 -14.512769 1.288083 17.820276 -0.955378 1.498451 0.033360 -0.010199 2266150.000000 1 0 0
16.410532 -2.508469 8.600383 18.696646 -0.151683 1.092806 0.092785 -0.020729 416028.000000 1 0 0
16.122132 -2.535769 3.265583 16.643837 -0.156007 1.373311 0.036488 -0.000006 910576.000000 1 0 0
7.744732 -15.280269 2.724983 17.346268 -1.101687 1.413050 0.018395 -0.009388 2583670.000000 1 0 0
16.716332 -6.996669 7.916383 19.775193 -0.396397 1.158932 0.083008 -0.016282 -1082480.000000 1 0 0
10.302132 -8.550969 5.175583 14.354082 -0.692779 1.201922 0.017453 -0.005688 2908590.000000 1 0 0
10.944632 -11.852369 2.255083 16.289537 -0.825195 1.431913 0.024999 -0.010109 1308610.000000 1 0 0
12.249532 -7.277869 12.022883 18.643179 -0.536095 0.869911 0.054765 -0.022756 76237.000000 1 0 0
15.274432 -9.715269 4.253683 18.595391 -0.566504 1.340004 0.047771 -0.015213 -345963.000000 1 0 0
7.404032 -10.258769 7.966183 14.950656 -0.945637 1.008853 0.006602 -0.000877 351532.000000 1 0 0
15.303532 -3.308669 -4.376117 16.257176 -0.212926 1.843338 0.054956 -0.006353 368988.000000 1 0 0
11.786932 -8.994069 9.778783 17.760902 -0.651804 0.987738 0.046519 -0.014921 -2283840.000000 1 0 0
16.979832 -6.605469 2.453183 18.383825 -0.371004 1.436955 0.054286 -0.007193 1466200.000000 1 0 0
17.606532 3.957231 1.938883 18.149626 0.221085 1.463764 0.037463 -0.001226 1304940.000000 1 0 0
14.837132 -4.947969 8.900883 17.995794 -0.321888 1.053411 0.071035 -0.017575 2440330.000000 1 0 0
13.046232 -12.586469 6.104083 19.128074 -0.767463 1.245999 0.056110 -0.014131 -769701.000000 1 0 0
18.374132 0.776131 -1.133817 18.425435 0.042215 1.632371 0.062880 0.000666 -1089860.000000 1 0 0
11.680732 -2.137069 11.064483 16.230507 -0.180955 0.820700 0.022955 -0.007501 1348390.000000 1 0 0
5.766232 -12.348069 10.784583 17.379053 -1.133916 0.901352 0.004413 -0.002788 -1694160.000000 1 0 0
10.730132 -4.980069 11.070483 16.201618 -0.434534 0.818530 0.028254 -0.008042 565235.000000 1 0 0
17.766832 1.372731 5.079683 18.529649 0.077110 1.293103 0.052993 -0.004295 112580.000000 1 0 0
12.348232 -7.753969 7.192283 16.258284 -0.560712 1.112549 0.037895 -0.013435 -672537.000000 1 0 0
10.570932 -7.806069 14.317883 19.434019 -0.636066 0.742555 0.058580 -0.021321 247037.000000 1 0 0
14.193732 -0.280969 3.778383 14.690717 -0.019793 1.310678 0.013023 0.003024 1513940.000000 1 0 0
11.716132 -7.740069 2.541983 14.270182 -0.583814 1.391708 0.021148 -0.001878 1694450.000000 1 0 0
9.268532 6.045531 3.463983 11.595401 0.577965 1.267427 0.005444 -0.001903 1667370.000000 1 0 0
-3.973868 14.818831 -9.893717 18.255821 -1.308797 2.143550 0.008075 -0.006628 961642.000000 1 0 0
8.758832 -6.449369 9.296983 14.308927 -0.634693 0.863563 0.013271 -0.005117 -761730.000000 1 0 0
5.783232 -10.601769 -8.501417 14.768797 -1.071417 2.184175 -0.001786 -0.001012 301896.000000 1 0 0
5.393532 1.044131 0.518783 5.518110 0.191224 1.476643 0.005679 -0.000696 4112680.000000 1 0 0
-0.478868 9.978931 10.908283 14.791857 -1.522845 0.741506 0.011340 -0.003877 853977.000000 1 0 0
-6.388068 -5.205569 1.000483 8.300983 0.683754 1.449977 0.011978 -0.004798 2564300.000000 1 0 0
-1.026968 3.941631 -10.676417 11.427029 -1.315919 2.777122 0.011739 -0.010262 2225070.000000 1 0 0
10.988832 5.695531 1.154883 12.430900 0.478182 1.477758 0.002727 0.000169 1111730.000000 1 0 0
-10.169768 -1.867269 -13.669917 17.139938 0.181587 2.494015 0.022807 -0.007444 1711190.000000 1 0 0
7.459532 10.779331 -6.051417 14.438083 0.965445 2.003282 0.005000 -0.004810 664716.000000 1 0 0
-12.515268 -2.949069 -9.561417 16.023409 0.231416 2.210198 0.020450 -0.008043 755807.000000 1 0 0
-3.940468 -8.689069 2.574883 9.882167 1.145038 1.307196 0.011108 -0.000971 -769471.000000 1 0 0
8.054232 -6.541169 -5.870617 11.921480 -0.682100 2.085688 -0.001117 -0.003640 979563.000000 1 0 0
14.318532 3.080331 -4.320117 15.269977 0.211899 1.857629 0.020566 -0.002868 987429.000000 1 0 0
-2.571168 -4.922769 9.724883 11.199014 1.089467 0.518891 0.003690 -0.001332 1074520.000000 1 0 0
3.583432 -1.907269 -4.533317 6.085197 -0.489111 2.411293 0.002222 -0.003510 -2296180.000000 1 0 0
-3.993868 8.419731 -3.454717 9.938708 -1.127882 1.925809 0.004825 -0.002324 1476400.000000 1 0 0
5.838432 0.202031 11.682583 13.061809 0.034590 0.463691 0.000065 -0.003806 491652.000000 1 0 0
7.152732 4.801931 12.363983 15.069446 0.591233 0.608569 0.005125 -0.002224 1348230.000000 1 0 0
1.062832 -14.455169 12.414283 19.083919 -1.497402 0.862540 -0.005157 0.000156 621026.000000 1 0 0
3.096632 8.647231 -9.069917 12.908413 1.226918 2.349892 0.005385 -0.005625 1126220.000000 1 0 0
-4.382768 -8.938269 -4.526717 10.935834 1.114909 1.997568 0.013977 -0.002572 1291320.000000 1 0 0
5.706232 -6.543669 -4.080017 9.593082 -0.853655 2.010099 -0.001089 -0.001832 1222980.000000 1 0 0
-3.096168 3.465131 8.666683 9.833859 -0.841572 0.492168 0.002542 -0.000349 2436000.000000 1 0 0
-3.742168 3.082231 -11.066317 12.081694 -0.688995 2.728684 0.008758 -0.012014 1777540.000000 1 0 0
3.013732 -6.199869 8.560683 10.991190 -1.118334 0.677938 0.002808 0.000092 -225099.000000 1 0 0
-5.218668 -8.714969 10.502783 14.611421 1.031247 0.768712 0.010123 -0.004745 2223560.000000 1 0 0
-13.326068 -2.453469 6.538983 15.045328 0.182072 1.121181 0.018237 -0.002079 -619286.000000 1 0 0
4.034632 -5.964969 -8.303017 10.990869 -0.976094 2.427132 -0.000464 -0.001998 2060310.000000 1 0 0
2.947032 -0.446669 12.335783 12.690787 -0.150421 0.237085 0.002752 -0.002763 1782920.000000 1 0 0
1.528332 -1.427169 -7.441417 7.729637 -0.751183 2.867652 0.005813 -0.006252 253067.000000 1 0 0
3.542732 -3.529169 3.385183 6.038663 -0.783480 0.975704 0.003125 0.000661 2769860.000000 1 0 0
1.523432 0.400131 -11.689317 11.794960 0.256850 3.007652 0.012721 -0.007771 687877.000000 1 0 0
3.979032 3.545931 -10.505017 11.779716 0.727906 2.672079 0.004193 -0.003683 1044170.000000 1 0 0
2.848532 3.323731 3.334883 5.502978 0.862236 0.919756 -0.002220 0.002742 334775.000000 1 0 0
-5.280968 0.874531 2.474783 5.897286 -0.164111 1.137739 0.004155 -0.003234 903226.000000 1 0 0
-9.574668 -9.281569 5.732683 14.515008 0.769856 1.164784 0.016963 0.001412 -1386230.000000 1 0 0
-3.117768 3.892131 -0.631017 5.026663 -0.895419 1.696662 0.006053 -0.005400 716394.000000 1 0 0
-15.945468 -6.496869 4.938583 17.912478 0.386906 1.291472 0.034414 -0.008904 844456.000000 1 0 0
1.042132 6.678131 -8.019417 10.487827 1.415993 2.441280 0.007112 -0.006571 567896.000000 1 0 0
-1.530968 6.530031 -9.432917 11.574329 -1.340505 2.523501 0.006394 -0.006486 1159270.000000 1 0 0
2.027132 -0.326969 5.238183 5.626254 -0.159919 0.373585 0.000710 0.002650 3627230.000000 1 0 0
-3.443968 -0.625269 -6.325917 7.229737 0.179599 2.636203 0.017552 -0.010142 545199.000000 1 0 0
1.884932 -1.095769 -2.427517 3.262900 -0.526579 2.409796 0.009481 -0.004061 1077600.000000 1 0 0
2.440632 -8.604469 -7.705817 11.805642 -1.294409 2.281970 -0.003944 0.000593 2642370.000000 1 0 0
-2.461068 14.020131 -5.562717 15.282825 -1.397029 1.943339 0.003398 0.000242 3549510.000000 1 0 0
6.881432 -5.092769 -8.234317 11.878315 -0.637118 2.336747 -0.002321 -0.004817 1373870.000000 1 0 0
-14.289168 -4.982369 -2.214117 15.294006 0.335500 1.716077 0.008356 0.001069 -91534.800000 1 0 0
-2.746468 6.892831 -6.776417 10.048583 -1.191624 2.310901 0.007707 -0.005685 -1916820.000000 1 0 0
-5.735868 -1.163269 -8.118817 10.008424 0.200092 2.516995 0.018425 -0.012916 381521.000000 1 0 0
-5.754068 -10.609369 3.511483 12.569746 1.073840 1.287669 0.011507 0.000369 -945822.000000 1 0 0
8.055732 -7.603269 6.742783 12.968024 -0.756511 1.023999 0.009507 -0.005499 -255869.000000 1 0 0
8.731432 -5.898069 13.150883 16.851435 -0.594092 0.675489 0.026464 -0.008814 1163460.000000 1 0 0
-4.732768 9.526831 -0.765317 10.665145 -1.109726 1.642617 0.001818 -0.000698 898428.000000 1 0 0
2.859132 6.687831 12.074583 14.096002 1.166799 0.542160 0.010760 -0.007856 939522.000000 1 0 0
6.059432 -2.711569 10.877083 12.742852 -0.420769 0.547971 0.008806 -0.000703 -618061.000000 1 0 0
-9.762168 -6.563969 -1.085817 11.813746 0.591953 1.662838 0.011493 -0.002893 -1387820.000000 1 0 0
0.892932 -13.408569 6.231883 14.812948 -1.504300 1.136574 0.011377 -0.000697 -657371.000000 1 0 0
-0.551068 -3.176169 8.695683 9.273976 1.399006 0.355009 0.002217 0.000129 1011870.000000 1 0 0
4.154132 0.747531 3.319783 5.369970 0.178043 0.904330 0.000674 0.003333 1737970.000000 1 0 0
-10.258068 5.610931 8.316083 14.348092 -0.500520 0.952565 0.004217 -0.007697 -409888.000000 1 0 0
9.427532 7.906831 -0.006017 12.304324 0.697895 1.571285 -0.000296 0.000865 418892.000000 1 0 0
4.309232 2.910831 8.127583 9.648836 0.594084 0.569189 -0.002670 -0.001344 4536360.000000 1 0 0
1.342032 2.622231 -9.600617 10.042360 1.097761 2.843887 0.012384 -0.009367 561815.000000 1 0 0
-1.427468 -10.226469 3.091983 10.778622 1.432107 1.279846 0.011857 -0.001961 -1503430.000000 1 0 0
-9.937568 9.536331 9.056583 16.483888 -0.764797 0.989126 0.006089 -0.007929 1682080.000000 1 0 0
9.870032 -2.070369 -7.661017 12.664720 -0.206765 2.220449 0.009869 -0.002982 933776.000000 1 0 0
-5.262568 -1.956469 6.593783 8.660275 0.355937 0.705353 0.002885 -0.000633 1706610.000000 1 0 0
3.199132 -7.850269 -4.945717 9.814341 -1.183825 2.098936 -0.004936 -0.001209 2052130.000000 1 0 0
-5.058368 4.847531 -13.010717 14.777158 -0.764117 2.647631 0.004357 -0.014332 1494500.000000 1 0 0
-5.619368 9.648731 5.378183 12.393553 -1.043423 1.121924 -0.000706 -0.002585 3223040.000000 1 0 0
-0.404068 -1.817769 -9.294617 9.479317 1.352065 2.943865 0.011227 -0.008457 596688.000000 1 0 0
-16.890868 0.178031 6.443183 18.078930 -0.010540 1.206393 0.045361 -0.016531 -174996.000000 1 0 0
-6.061968 -2.888269 3.990883 7.811319 0.444637 1.034553 0.000961 -0.002859 1732090.000000 1 0 0
1.006432 -5.720369 -5.132317 7.750884 -1.396640 2.294492 0.004490 -0.002779 2670410.000000 1 0 0
-7.067568 1.378931 -8.508017 11.146224 -0.192686 2.439217 0.009753 -0.009089 396918.000000 1 0 0
8.014132 1.958531 4.817683 9.553650 0.239687 1.042252 0.003780 0.002577 1033570.000000 1 0 0
0.597732 -8.094869 -0.555617 8.135902 -1.497089 1.639141 0.004397 0.001849 2070950.000000 1 0 0
5.511332 5.511231 -3.438217 8.518790 0.785389 1.986249 0.001593 -0.004339 1330560.000000 1 0 0
-0.739868 -0.325769 -1.221417 1.464714 0.414764 2.556922 0.009158 -0.005684 1010620.000000 1 0 0
9.119532 6.354531 -6.351717 12.801962 0.608578 2.089957 0.004756 -0.005391 76371.800000 1 0 0
-15.057568 -7.083069 2.449883 16.819695 0.439688 1.424621 0.005117 -0.004816 935849.000000 1 0 0
-6.490468 6.870231 8.895883 12.979329 -0.813814 0.815659 0.004802 -0.002349 708631.000000 1 0 0
-9.551568 -3.171269 -9.653617 13.945670 0.320564 2.335371 0.014842 -0.007586 632750.000000 1 0 0
14.942632 3.463931 -1.324617 15.395963 0.227792 1.656939 0.011676 0.000820 1981950.000000 1 0 0
12.074632 1.644931 -5.847217 13.516378 0.135397 2.018173 0.009752 -0.002096 -816526.000000 1 0 0
1.648332 -9.352469 12.740383 15.890344 -1.396342 0.640547 -0.003262 -0.004790 116092.000000 1 0 0
-3.667768 6.402431 7.920383 10.824792 -1.050563 0.749999 0.003313 -0.002086 1312900.000000 1 0 0
-4.116268 13.115731 -12.374417 18.495736 -1.266689 2.303715 0.005851 -0.009729 882614.000000 1 0 0
-10.213768 7.859431 6.461283 14.416653 -0.655861 1.106066 0.002264 -0.008619 -1060230.000000 1 0 0
8.014432 -9.262369 -7.106817 14.160842 -0.857505 2.096549 0.003422 -0.002894 567395.000000 1 0 0
5.840332 -3.778469 -0.282317 6.961753 -0.574236 1.611360 0.007363 -0.003453 115626.000000 1 0 0
-1.670668 -4.475169 4.162583 6.336037 1.213500 0.854004 0.004239 -0.001484 536229.000000 1 0 0
9.988332 -2.049569 -2.614917 10.526410 -0.202387 1.821840 0.008465 -0.004612 -1779930.000000 1 0 0
13.535232 7.064531 1.405783 15.332525 0.481042 1.478981 0.006402 -0.001444 -230741.000000 1 0 0
5.508332 -3.737169 -3.251217 7.408007 -0.596121 2.025147 0.002670 -0.004869 -1748680.000000 1 0 0
-12.327268 -5.995769 1.882583 13.836723 0.452694 1.434316 0.005057 0.000997 2026040.000000 1 0 0
3.738832 -5.706169 -0.264517 6.827093 -0.990756 1.609551 0.006297 -0.001213 -930790.000000 1 0 0
-5.236268 3.640031 -8.702717 10.789143 -0.607469 2.509204 0.006809 -0.009616 1272020.000000 1 0 0
-1.739768 -9.296869 7.200183 11.887018 1.385801 0.920128 0.009869 -0.004842 2205560.000000 1 0 0
-7.417968 -7.333769 2.649983 10.762566 0.779691 1.322016 0.016228 -0.004066 -3669470.000000 1 0 0
-5.755668 13.052931 -8.513817 16.613001 -1.155495 2.108866 0.002198 -0.007244 2248950.000000 1 0 0
9.195732 -13.824269 -4.057617 17.091991 -0.983818 1.810483 0.021236 -0.005255 987647.000000 1 0 0
-6.478968 -5.213869 -6.715717 10.689355 0.677623 2.250114 0.019408 -0.006330 2054020.000000 1 0 0
3.454732 0.424331 -6.120817 7.041280 0.122214 2.624532 0.003185 -0.008853 2079060.000000 1 0 0
-3.583668 5.770531 5.056583 8.468219 -1.015058 0.930884 0.001087 0.000838 170999.000000 1 0 0
-2.593668 -10.851469 -2.810317 11.505623 1.336183 1.817549 0.009942 -0.000557 1067840.000000 1 0 0
-12.573768 -0.461769 1.801183 12.710512 0.036708 1.428610 0.007113 -0.004604 359145.000000 1 0 0
8.322332 -11.939569 -5.977717 15.733646 -0.962061 1.960519 0.013576 -0.007662 -507613.000000 1 0 0
6.136232 3.940431 1.004183 7.361299 0.570843 1.433956 0.002159 -0.001074 632075.000000 1 0 0
3.504132 -4.859669 -10.897917 12.436234 -0.946073 2.638931 -0.000661 -0.000599 123334.000000 1 0 0
-7.633868 4.334331 8.554583 12.257376 -0.516389 0.798317 0.002214 -0.000632 1839300.000000 1 0 0
8.204632 8.679631 4.054383 12.613089 0.813523 1.243544 0.007441 -0.002440 1607550.000000 1 0 0
0.322432 10.607031 -6.393417 12.389062 1.540408 2.113033 0.007012 -0.002086 2324870.000000 1 0 0
5.407832 8.139831 3.250683 10.298953 0.984388 1.249673 0.003583 -0.001731 2043370.000000 1 0 0
8.137632 6.721731 -3.816817 11.223672 0.690398 1.917786 -0.001131 -0.004026 575754.000000 1 0 0
10.541632 2.523131 -8.283517 13.642172 0.234930 2.223327 0.003789 -0.001847 761830.000000 1 0 0
3.278532 -12.598569 -0.187817 13.019523 -1.316212 1.585223 0.005132 -0.006588 -1327530.000000 1 0 0
0.615732 2.207831 5.154383 5.641038 1.298821 0.418426 0.000627 0.002316 563957.000000 1 0 0
-4.823568 13.427031 1.438883 14.339538 -1.225911 1.470283 0.003473 -0.001875 1833410.000000 1 0 0
8.232832 4.081831 -8.082817 12.238170 0.460281 2.292227 0.000805 -0.001315 757849.000000 1 0 0
-14.067568 -0.563369 -3.611717 14.534729 0.040026 1.821916 0.006159 -0.001622 359834.000000 1 0 0
-8.633768 0.029631 -0.579817 8.653266 -0.003432 1.637852 0.005624 -0.004497 -9542.550000 1 0 0
1.764532 -3.802369 -1.096017 4.332763 -1.136311 1.826535 0.007839 -0.001769 -1361960.000000 1 0 0
8.093532 -5.626069 -0.223017 9.859394 -0.607451 1.593418 0.010090 -0.003965 2419240.000000 1 0 0
-2.381068 -1.214869 7.329083 7.801337 0.471790 0.349731 0.003395 0.001187 1920970.000000 1 0 0
-5.860768 8.771231 -11.715317 15.764889 -0.981746 2.408528 -0.003910 -0.009970 -1379600.000000 1 0 0
-6.142068 9.189731 -8.858417 14.165017 -0.981621 2.246406 -0.002640 -0.000777 -672534.000000 1 0 0
-1.528268 14.007631 -8.393817 16.401387 -1.462124 2.108046 0.012054 -0.006168 250117.000000 1 0 0
-1.530368 7.279431 9.719283 12.239143 -1.363582 0.653247 0.000949 -0.004463 -245236.000000 1 0 0
10.036732 2.295431 -4.093117 11.079648 0.224836 1.949188 0.004129 -0.003938 -1659860.000000 1 0 0
-2.977968 -7.587269 -6.933417 10.700804 1.196776 2.275665 0.014796 -0.003209 1223120.000000 1 0 0
-5.617368 -5.003769 -1.650617 7.701757 0.727691 1.786789 0.012576 -0.003081 -419221.000000 1 0 0
5.773532 7.252231 -8.850617 12.816472 0.898435 2.333067 0.001607 -0.003526 1396930.000000 1 0 0
-9.555768 5.214331 -7.466917 13.200636 -0.499516 2.172015 -0.002242 -0.001295 -570875.000000 1 0 0
-0.421068 6.164931 -5.311117 8.148106 -1.502602 2.280781 0.010551 -0.006823 -248791.000000 1 0 0
-8.276268 2.759931 -6.370217 10.802476 -0.321878 2.201483 0.003248 -0.004731 1807200.000000 1 0 0
3.712832 1.395431 -2.024117 4.453021 0.359507 2.042662 0.003252 -0.005371 2065590.000000 1 0 0
-6.707168 12.440331 -3.453117 14.548950 -1.076324 1.810428 0.008505 0.000427 1606010.000000 1 0 0
-6.573968 3.075031 -2.370617 7.634965 -0.437524 1.886510 0.005996 -0.002647 -1666390.000000 1 0 0
12.110032 3.985531 -0.893417 12.780279 0.317945 1.640759 0.005941 -0.001367 167787.000000 1 0 0
2.299632 12.445931 -5.451617 13.780770 1.388087 1.977513 0.008845 -0.005542 163761.000000 1 0 0
-9.285268 -1.503069 -4.316617 10.349328 0.160485 2.001039 0.009609 -0.003091 -654818.000000 1 0 0
-1.154568 5.769531 3.472183 6.832026 -1.373291 1.037678 0.001511 -0.000817 1224810.000000 1 0 0
11.448832 2.727831 12.045583 16.840811 0.233902 0.773798 0.032699 -0.002545 954305.000000 1 0 0
-7.125768 -2.373069 -5.780517 9.477468 0.321474 2.226759 0.019037 -0.007065 123422.000000 1 0 0
7.436432 -7.338469 10.914083 15.108635 -0.778768 0.763567 0.009771 -0.004404 -903694.000000 1 0 0
-5.485968 -1.960669 -10.942317 12.396546 0.343249 2.652354 0.017897 -0.010691 148088.000000 1 0 0
0.741132 -6.219969 4.446383 7.681641 -1.452202 0.953500 0.003422 -0.000440 1840840.000000 1 0 0
-4.880768 -9.348569 7.420783 12.895180 1.089636 0.957618 0.007937 -0.004856 3412060.000000 1 0 0
-8.755268 9.366431 1.613783 12.922424 -0.819111 1.445587 0.001756 -0.003265 426787.000000 1 0 0
-8.041968 7.153731 -9.076417 14.079434 -0.727011 2.271372 -0.004585 -0.002922 -4709.710000 1 0 0
-1.192368 -10.646369 -0.028617 10.712970 1.459264 1.573468 0.008654 0.000165 -533091.000000 1 0 0
-3.998168 10.332931 7.714783 13.500840 -1.201604 0.962549 0.005515 -0.000717 2258480.000000 1 0 0
-7.460068 12.049631 1.996783 14.312001 -1.016442 1.430822 0.003775 -0.005826 2083730.000000 1 0 0
-8.141968 -8.296869 -2.841117 11.966688 0.794821 1.810504 0.018570 -0.003121 -1613.330000 1 0 0
5.467632 4.518331 -8.003117 10.693933 0.690619 2.416411 0.002256 -0.002355 748356.000000 1 0 0
-9.014068 -0.155669 -10.223917 13.631072 0.017268 2.418926 0.014888 -0.009092 -966044.000000 1 0 0
-15.325768 -2.256869 -1.460917 15.559784 0.146209 1.664825 0.009903 -0.002320 -1020450.000000 1 0 0
-7.194168 -5.799169 8.710283 12.698640 0.678445 0.814926 0.005701 -0.000506 -977149.000000 1 0 0
8.166832 3.430131 -0.987117 8.912763 0.397634 1.681777 0.000872 -0.000566 1487440.000000 1 0 0
11.952532 7.179131 -5.908017 15.142906 0.540888 1.971592 0.010628 -0.006664 1370970.000000 1 0 0
3.748132 13.283831 -9.564317 16.792404 1.295788 2.176769 0.010208 -0.014561 1263690.000000 1 0 0
-9.790768 5.427831 -0.467717 11.204430 -0.506202 1.612552 0.002493 -0.002106 1791240.000000 1 0 0
11.297932 -1.250069 -5.200917 12.500219 -0.110198 1.999911 0.014271 -0.005585 -726442.000000 1 0 0
10.662832 1.659131 -1.286517 10.867559 0.154362 1.689456 0.006828 -0.001117 1895180.000000 1 0 0
14.638532 5.033531 4.760183 16.195135 0.331190 1.272464 0.017218 -0.005283 2904960.000000 1 0 0
0.849632 -0.816269 10.278783 10.346089 -0.765374 0.114127 0.002575 -0.000520 1850400.000000 1 0 0
-8.010368 1.338431 -12.592317 14.984119 -0.165558 2.568776 0.008044 -0.009357 -1176000.000000 1 0 0
3.138532 -11.565469 -7.791517 14.293991 -1.305807 2.147293 -0.003833 0.000125 121245.000000 1 0 0
2.932932 5.075431 -6.645717 8.861582 1.046809 2.418778 0.004976 -0.005673 -712683.000000 1 0 0
6.481232 7.986831 0.544983 10.300138 0.889089 1.517861 0.003889 -0.002780 873287.000000 1 0 0
-9.131368 -5.400969 6.698483 12.546793 0.534127 1.007614 0.005585 0.000088 -2003360.000000 1 0 0
-0.250268 -6.899969 -11.782017 13.656065 1.534541 2.611515 -0.000381 0.001049 1018830.000000 1 0 0
6.430232 -13.456069 -4.588917 15.603584 -1.125010 1.869304 0.009552 -0.003577 1887740.000000 1 0 0
-3.294968 -0.322869 9.957583 10.493547 0.097677 0.320987 0.000908 0.002483 280687.000000 1 0 0
8.612732 8.465131 6.957583 13.937201 0.776756 1.048110 0.002557 -0.003388 -1125280.000000 1 0 0
-7.923768 5.659931 -2.671017 10.097289 -0.620258 1.838511 0.002295 -0.003648 1238990.000000 1 0 0
-5.409068 5.732831 -6.457117 10.189098 -0.814448 2.257159 0.003936 -0.003815 -533366.000000 1 0 0
3.362832 -13.674869 2.664083 14.332063 -1.329668 1.383826 0.011749 -0.004579 -852080.000000 1 0 0
-11.427368 -7.047369 6.461083 14.899522 0.552616 1.122264 0.018918 -0.000250 92432.300000 1 0 0
-12.969668 -3.700269 -6.750317 15.082143 0.277918 2.034843 0.015394 -0.004907 548242.000000 1 0 0
6.037832 0.358731 -7.214917 9.414836 0.059344 2.443913 0.001319 -0.003854 -298428.000000 1 0 0
-1.469268 2.247231 -2.507717 3.673886 -0.991746 2.322082 0.010382 -0.007912 4137210.000000 1 0 0
7.565332 0.947531 -4.978917 9.106134 0.124598 2.149292 0.002720 -0.003534 -458681.000000 1 0 0
3.777332 -4.500469 10.868383 12.354927 -0.872535 0.495607 0.002543 0.000375 1488480.000000 1 0 0
6.043932 -2.488269 2.036283 6.845951 -0.390549 1.268783 0.009701 -0.002017 568024.000000 1 0 0
-6.321068 7.688531 1.095183 10.013433 -0.882699 1.461206 -0.001077 -0.001082 1936050.000000 1 0 0
6.001532 -3.454769 7.970083 10.558222 -0.522321 0.715341 0.007001 -0.000224 1068080.000000 1 0 0
6.813632 -2.294369 -7.770817 10.586562 -0.324806 2.395028 -0.000888 -0.003725 1552570.000000 1 0 0
11.965732 -8.099269 -5.799917 15.569712 -0.595035 1.952512 0.032424 -0.012093 575346.000000 1 0 0
5.569732 -9.568869 10.040983 14.946790 -1.043666 0.834185 -0.003050 0.002499 1827610.000000 1 0 0
-6.637468 7.512331 -4.492417 10.985122 -0.847148 1.992105 0.000758 -0.001915 -20167.400000 1 0 0
-1.408268 -7.564869 9.659183 12.349505 1.386744 0.672685 0.008393 -0.004390 -738122.000000 1 0 0
10.081032 -9.276769 0.806183 13.723541 -0.743875 1.512018 0.013662 -0.003077 1599370.000000 1 0 0
11.186432 6.157431 9.745583 16.063207 0.503179 0.918891 0.007935 -0.004799 1757440.000000 1 0 0
-15.350068 -4.206069 -4.991317 16.680193 0.267445 1.874688 0.027532 -0.006543 2343980.000000 1 0 0
-4.772468 -4.647769 7.809383 10.264730 0.772162 0.706255 0.005144 -0.002929 -502613.000000 1 0 0
2.907332 10.872631 -11.041817 15.766686 1.309510 2.346650 0.000659 -0.008039 -851252.000000 1 0 0
9.952432 -1.402069 1.529183 10.166371 -0.139956 1.419807 0.009515 -0.000331 785759.000000 1 0 0
-1.638768 -2.686169 0.573983 3.198518 1.023001 1.390366 0.007046 -0.001946 17948.400000 1 0 0
1.549532 2.988031 0.860683 3.474213 1.092396 1.320455 0.001289 -0.001447 193744.000000 1 0 0
-8.996868 -2.406669 4.246683 10.235722 0.261381 1.142976 0.002044 -0.003360 3265240.000000 1 0 0
9.965632 4.891031 -2.762517 11.439734 0.456252 1.814692 0.000639 -0.001809 -331312.000000 1 0 0
2.649932 8.441331 2.501883 9.194435 1.266615 1.295213 0.001847 -0.003325 -701211.000000 1 0 0
-8.112768 -0.069869 2.377183 8.454164 0.008612 1.285768 0.001587 -0.004007 1138740.000000 1 0 0
6.888132 2.160731 13.727383 15.509874 0.303968 0.484144 0.005615 -0.008273 -1225110.000000 1 0 0
6.829432 4.397731 3.795783 8.966000 0.572102 1.133653 -0.000297 0.000245 -708937.000000 1 0 0
-0.291468 3.441931 7.690083 8.430257 -1.486316 0.422174 -0.000430 -0.000304 -2851.880000 1 0 0
2.714432 -10.261669 9.241383 14.073847 -1.312198 0.854448 0.004701 -0.003528 2187310.000000 1 0 0
1.322932 -4.661569 6.873883 8.410151 -1.294272 0.614032 0.002107 0.000686 1157830.000000 1 0 0
-0.080968 10.794731 -2.032817 10.984768 -1.563296 1.756927 0.008519 -0.003664 2059910.000000 1 0 0
8.826632 5.552631 7.960983 13.119390 0.561526 0.918755 0.000375 -0.001137 -569137.000000 1 0 0
2.666932 11.369031 -2.877017 12.026829 1.340384 1.812355 0.009562 -0.005192 660738.000000 1 0 0
1.531032 2.469531 -6.567117 7.181202 1.015823 2.725035 0.007935 -0.009234 576110.000000 1 0 0
-13.699568 -2.218969 3.643783 14.348489 0.160579 1.314035 0.009244 -0.002365 1456810.000000 1 0 0
-0.944068 -10.781869 -5.322617 12.061103 1.483458 2.027848 0.005452 -0.002149 -605679.000000 1 0 0
-5.676368 2.800631 0.402583 6.342457 -0.458341 1.507279 0.006317 -0.003428 -224220.000000 1 0 0
3.851032 7.327431 -4.984917 9.662872 1.086907 2.112835 0.003435 -0.006930 -2768600.000000 1 0 0
3.088932 9.842831 -6.504817 12.195715 1.266704 2.133375 0.007576 -0.004516 1184700.000000 1 0 0
-12.306468 1.689231 -2.608317 12.692753 -0.136411 1.777767 0.004884 -0.002587 1341450.000000 1 0 0
-2.505968 9.670231 -5.707817 11.505321 -1.317232 2.089900 0.003959 -0.001527 1826750.000000 1 0 0
-1.372768 3.342331 1.711883 3.998276 -1.181081 1.128346 -0.000080 -0.001065 581915.000000 1 0 0
12.918632 3.765731 9.674783 16.573268 0.283637 0.947446 0.034070 -0.006413 -41558.600000 1 0 0
-2.677968 -9.537569 11.605783 15.258799 1.297064 0.706565 0.005581 -0.008799 -279307.000000 1 0 0
-0.466768 -9.034869 -7.493117 11.747065 1.519179 2.262528 0.006973 -0.001587 1192360.000000 1 0 0
2.430732 7.633531 -0.512117 8.027548 1.262520 1.634635 0.003671 -0.004450 542128.000000 1 0 0
-12.018268 -1.316969 -5.529817 13.294812 0.109145 1.999770 0.006017 -0.000763 -410178.000000 1 0 0
-6.178768 -7.214369 -10.916417 14.470399 0.862568 2.425530 0.013395 -0.005973 2124670.000000 1 0 0
-4.736768 -2.263569 -1.457617 5.448427 0.445789 1.841625 0.009573 -0.004746 -824134.000000 1 0 0
-10.459968 3.679831 4.476483 11.957884 -0.338279 1.187096 0.006459 -0.008931 3589540.000000 1 0 0
6.886532 9.361131 -3.550817 12.151683 0.936542 1.867331 0.001322 -0.002672 -187223.000000 1 0 0
1.288832 -2.733569 -11.453617 11.845625 -1.130221 2.883611 0.007438 -0.005087 20397.500000 1 0 0
1.322932 8.870631 7.547583 11.721956 1.422751 0.871232 0.004356 -0.000691 604553.000000 1 0 0
10.360932 0.474931 10.489683 14.751540 0.045807 0.779748 0.004466 -0.000862 446548.000000 1 0 0
-5.383968 -0.950169 -3.987017 6.766552 0.174682 2.200895 0.013306 -0.007767 766339.000000 1 0 0
11.675832 5.688131 5.344183 14.044223 0.453332 1.180432 -0.000622 -0.000954 2454950.000000 1 0 0
9.946332 -3.547869 3.682383 11.183776 -0.342632 1.235275 0.018243 -0.003889 -768489.000000 1 0 0
7.378132 -1.654069 -3.400817 8.290858 -0.220539 1.993457 0.004710 -0.004264 -3765180.000000 1 0 0
2.438832 9.291431 10.433583 14.182322 1.314105 0.744133 0.011301 -0.002615 966109.000000 1 0 0
2.438232 -10.931669 6.327183 12.863888 -1.351345 1.056576 0.001154 0.000472 1834740.000000 1 0 0
5.902232 -7.514669 -1.304517 9.644084 -0.905004 1.706478 0.001849 -0.002592 410380.000000 1 0 0
-0.298168 -5.655169 -2.356017 6.133568 1.518120 1.965049 0.006581 0.000939 2318250.000000 1 0 0
7.668532 -5.113369 2.669083 9.595673 -0.588094 1.288924 0.010205 -0.003904 1431140.000000 1 0 0
-2.753068 -12.556669 4.729883 13.697486 1.354960 1.218227 0.012510 0.001536 363701.000000 1 0 0
4.836532 -10.360569 -1.080217 11.484786 -1.134042 1.664992 0.001852 -0.002990 2303820.000000 1 0 0
0.946332 0.213231 1.068283 1.442997 0.221623 0.737246 0.001144 -0.000012 -2072540.000000 1 0 0
-1.602568 8.513531 2.437883 8.999539 -1.384736 1.296479 0.000881 -0.001164 763364.000000 1 0 0
-7.665068 0.569631 -3.191617 8.322509 -0.074179 1.964371 0.008544 -0.003124 -1577170.000000 1 0 0
4.397632 -6.311869 12.939183 15.053283 -0.962272 0.536390 0.006405 -0.003090 -11861.700000 1 0 0
-5.105068 13.033831 8.362183 16.305477 -1.197484 1.032301 0.008115 -0.004502 2333020.000000 1 0 0
0.623832 6.201031 8.245983 10.336256 1.470532 0.647204 0.001725 -0.000090 1521710.000000 1 0 0
7.962032 -0.478269 -0.765317 8.013015 -0.059997 1.666451 0.008619 -0.002912 2879730.000000 1 0 0
2.475832 -9.335769 -2.409917 9.954598 -1.311565 1.815317 -0.002219 0.000883 1013330.000000 1 0 0
-7.157268 12.138531 4.825783 14.894919 -1.038035 1.240854 0.000140 -0.004480 -703985.000000 1 0 0
-14.990768 0.198331 0.264183 14.994407 -0.013229 1.553177 0.013638 -0.006264 372321.000000 1 0 0
6.792232 -0.473469 3.880283 7.836784 -0.069595 1.052804 0.006030 0.002641 -102727.000000 1 0 0
-4.224568 -5.058969 5.068983 8.314730 0.875037 0.915191 0.007146 -0.002113 1259090.000000 1 0 0
2.892932 5.234031 6.880483 9.116205 1.065870 0.715519 -0.001273 -0.000405 -860802.000000 1 0 0
2.086732 -7.173369 1.747583 7.672400 -1.287709 1.341004 0.002582 0.001615 1675330.000000 1 0 0
-2.404868 6.447131 -1.784517 7.108684 -1.213768 1.824544 0.006252 -0.002833 1535550.000000 1 0 0
2.810432 -3.832869 -6.488617 8.043106 -0.938105 2.509394 -0.000165 -0.003660 826720.000000 1 0 0
-5.220668 0.943531 -12.165117 13.271612 -0.178800 2.730355 0.012857 -0.010007 352836.000000 1 0 0
-7.462068 6.295931 -11.896117 15.389568 -0.700840 2.454351 -0.005140 -0.012527 1770250.000000 1 0 0
-0.977768 11.193231 -9.055117 14.430509 -1.483664 2.249132 0.007001 -0.003131 1473380.000000 1 0 0
4.646032 5.902931 -0.666817 7.541542 0.903988 1.659331 0.002333 -0.003274 -884388.000000 1 0 0
-2.650868 13.357331 3.552983 14.073702 -1.374884 1.315579 0.006654 0.001655 668181.000000 1 0 0
1.377832 -7.914469 10.197283 12.981596 -1.398433 0.667263 0.001220 -0.003173 289435.000000 1 0 0
13.102732 -0.257369 -1.200017 13.160086 -0.019640 1.662109 0.012996 -0.002251 511282.000000 1 0 0
-1.066768 3.130631 -5.400617 6.332891 -1.242384 2.592098 0.013439 -0.010305 2090060.000000 1 0 0
6.520532 1.035431 7.294283 9.838497 0.157481 0.735639 0.000995 0.004081 1521710.000000 1 0 0
5.456132 -6.184969 6.913283 10.761817 -0.847925 0.873184 0.001881 0.000027 2003210.000000 1 0 0
12.288732 -4.908069 2.621783 13.489842 -0.379985 1.375199 0.017472 -0.004368 767653.000000 1 0 0
4.360332 -9.102169 13.910483 17.186143 -1.124054 0.627665 -0.000152 -0.003911 1164380.000000 1 0 0
-2.780268 -4.368569 -1.429817 5.372026 1.004023 1.840203 0.013496 -0.004669 2578370.000000 1 0 0
-9.309768 -5.180669 -7.541217 13.053009 0.507802 2.186751 0.019283 -0.005463 2717090.000000 1 0 0
-10.628868 -3.078369 7.817183 13.548341 0.281910 0.955764 0.007802 0.001159 1066790.000000 1 0 0
12.124432 -0.600369 1.582383 12.241987 -0.049477 1.441175 0.011707 -0.000874 -57704.000000 1 0 0
-7.596868 4.652531 4.362383 9.919115 -0.549507 1.115425 0.003952 -0.004340 1614090.000000 1 0 0
-1.082368 10.595831 6.978483 12.733514 -1.468999 0.990776 0.006126 0.001644 1892750.000000 1 0 0
7.423832 -10.001469 1.957483 12.608505 -0.932258 1.414915 0.009055 -0.004176 2622270.000000 1 0 0
-4.327968 -1.741769 1.612783 4.936206 0.382612 1.237960 0.003884 -0.001852 1929960.000000 1 0 0
6.703032 -15.030169 -0.850017 16.479052 -1.151297 1.622401 0.023395 -0.009575 -885054.000000 1 0 0
-10.445868 1.654831 2.323983 10.828459 -0.157114 1.354496 0.004386 -0.002563 506469.000000 1 0 0
-3.018668 8.285831 -11.340317 14.365589 -1.221424 2.480641 0.003915 -0.008115 -371793.000000 1 0 0
-1.253268 -5.154769 -6.947917 8.741617 1.332296 2.489489 0.009079 -0.004744 -278183.000000 1 0 0
12.761832 -0.520969 6.487883 14.325795 -0.040800 1.100802 0.018293 -0.005200 1983920.000000 1 0 0
5.964232 -13.298169 3.854883 15.075592 -1.149190 1.312221 0.010618 -0.002022 -435559.000000 1 0 0
-5.582868 3.451831 -4.945217 8.218194 -0.553760 2.216474 0.009835 -0.006959 3050700.000000 1 0 0
-4.358868 8.010831 3.325183 9.707213 -1.072477 1.221169 0.001564 -0.000909 332404.000000 1 0 0
13.980332 6.066331 -4.019717 15.760970 0.409401 1.828688 0.021477 -0.002697 -5925.960000 1 0 0
-6.809168 -8.473169 5.358283 12.119016 0.893855 1.112815 0.011105 -0.000683 659691.000000 1 0 0
1.721532 11.330431 2.674083 11.768308 1.420011 1.341567 0.003769 -0.001264 1902810.000000 1 0 0
-7.403868 7.269731 5.911883 11.942220 -0.776257 1.052915 0.001622 -0.005102 -343440.000000 1 0 0
-17.404968 -3.969569 5.276683 18.615417 0.224236 1.283399 0.037786 -0.014177 463681.000000 1 0 0
7.462732 -13.021869 -8.459317 17.228508 -1.050397 2.084042 0.016033 -0.004854 -1816850.000000 1 0 0
-2.225368 12.752431 -2.833517 13.251625 -1.398031 1.786284 0.003188 -0.000374 2513380.000000 1 0 0
-5.541568 13.937731 -5.811217 16.085383 -1.192365 1.940429 0.009257 0.002474 2561800.000000 1 0 0
-5.638568 2.447531 7.403083 9.622344 -0.409528 0.692952 0.003091 -0.001054 1884830.000000 1 0 0
-7.424468 4.977031 1.359783 9.041160 -0.590552 1.419824 0.004136 -0.002467 1531810.000000 1 0 0
10.745932 -5.627269 -4.996517 13.118933 -0.482400 1.961526 0.013268 -0.007230 1762530.000000 1 0 0
-9.619568 -0.718969 6.740283 11.767940 0.074602 0.960919 0.002789 -0.001573 1525420.000000 1 0 0
-11.393768 -4.638669 -2.542317 12.561790 0.386632 1.774589 0.008778 0.000531 959429.000000 1 0 0
6.446432 -4.158069 13.500883 15.528035 -0.572865 0.516704 0.010594 -0.005561 -466745.000000 1 0 0
0.225232 10.204731 -11.689817 15.518991 1.548729 2.423799 0.002075 -0.004637 -1597550.000000 1 0 0
-11.909668 -3.259069 1.469583 12.434685 0.267110 1.452335 0.004126 -0.002637 4241030.000000 1 0 0
5.248332 6.046531 5.437383 9.678361 0.855950 0.974226 0.000664 -0.001603 -4725350.000000 1 0 0
-7.175868 0.007031 8.070583 10.799419 -0.000980 0.726782 0.000740 0.000448 877768.000000 1 0 0
1.740432 2.134731 9.522983 9.913294 0.886799 0.281544 -0.000761 -0.002223 3456940.000000 1 0 0
10.578132 -4.921369 -2.005217 11.837975 -0.435455 1.741005 0.008288 -0.003824 2947160.000000 1 0 0
-9.753568 -2.446869 -1.685917 10.196154 0.245796 1.736907 0.008944 -0.002981 -1228920.000000 1 0 0
-2.007668 -5.214269 -9.924117 11.388917 1.203258 2.628812 0.015138 -0.007064 1567300.000000 1 0 0
7.578532 -1.615769 6.430783 10.069748 -0.210058 0.878087 0.005328 0.001122 2144490.000000 1 0 0
1.527932 -11.946569 -2.574017 12.315870 -1.443590 1.781349 0.001672 -0.001165 -2924980.000000 1 0 0
-0.798968 -1.495169 4.692983 4.989787 1.080035 0.346645 0.003418 -0.000106 1285220.000000 1 0 0
7.602532 1.586931 9.906583 12.587980 0.205782 0.664885 -0.003095 0.001947 1109000.000000 1 0 0
-3.817468 10.695231 -8.011917 13.897908 -1.227960 2.185215 0.004657 -0.000091 3070300.000000 1 0 0
-9.588468 12.699831 6.355683 17.135318 -0.924098 1.190806 0.009056 -0.009302 999809.000000 1 0 0
-2.504468 -2.401069 -11.003717 11.537732 0.764323 2.836156 0.018782 -0.010336 -379728.000000 1 0 0
1.108832 -11.843069 11.152283 16.305251 -1.477441 0.817607 -0.006199 0.000775 2151000.000000 1 0 0
1.404732 3.485731 -1.943917 4.231123 1.187711 2.048153 0.005374 -0.004933 4644150.000000 1 0 0
-1.941668 -9.361869 -11.966717 15.317212 1.366294 2.467477 0.003901 0.000137 41164.100000 1 0 0
1.284432 -2.732169 1.596183 3.415013 -1.131342 1.084447 0.007991 -0.000773 3044350.000000 1 0 0
-1.007668 -2.224969 -6.520417 6.962881 1.145541 2.783177 0.011541 -0.009691 1143190.000000 1 0 0
1.825132 5.913331 4.076483 7.410554 1.271425 0.988322 -0.003914 0.000922 -478225.000000 1 0 0
-10.984668 8.620831 3.671083 14.438092 -0.665407 1.313710 0.001509 -0.008744 1596140.000000 1 0 0
-16.458268 -1.466969 3.977883 16.995592 0.088898 1.334551 0.033334 -0.011602 -569017.000000 1 0 0
-12.320568 0.311131 6.744483 14.049244 -0.025248 1.070073 0.008065 -0.003504 -91014.500000 1 0 0
-5.036868 2.994031 4.608283 7.454565 -0.536309 0.904368 0.001028 -0.000003 2318190.000000 1 0 0
5.156132 -6.060069 3.993183 8.902564 -0.865816 1.105662 0.003250 -0.001909 994444.000000 1 0 0
9.963932 3.395631 6.313583 12.274836 0.328449 1.030545 -0.001090 0.004289 -135004.000000 1 0 0
-12.133168 5.797631 3.291083 13.844043 -0.445757 1.330773 0.009507 -0.007021 2018240.000000 1 0 0
-4.825268 12.329431 -1.346817 13.308343 -1.197759 1.672171 -0.004274 0.000809 1232940.000000 1 0 0
-1.848968 -12.142469 10.345283 16.058740 1.419684 0.870800 0.012654 -0.003483 2441180.000000 1 0 0
5.285632 6.485531 13.808583 16.145495 0.886983 0.544745 0.011670 -0.008509 678644.000000 1 0 0
12.984232 -3.618569 -5.933017 14.727016 -0.271793 1.985443 0.015436 -0.007039 2655090.000000 1 0 0
3.446532 -2.598969 6.414483 7.731676 -0.646109 0.592339 -0.001599 0.003210 2131320.000000 1 0 0
7.249232 -11.868669 -0.580017 13.919522 -1.022483 1.612478 0.008093 -0.003809 -146258.000000 1 0 0
-6.039868 -6.597169 -4.074217 9.828626 0.829470 1.998218 0.020780 -0.004074 147079.000000 1 0 0
0.321332 -8.960169 5.073183 10.301702 -1.534949 1.055882 0.009753 -0.002257 1773240.000000 1 0 0
-10.379068 2.476431 -0.514517 10.682813 -0.234219 1.618978 0.005164 -0.002799 -1736640.000000 1 0 0
-1.820268 8.980531 -0.383117 9.171155 -1.370815 1.612583 0.006985 -0.002435 950144.000000 1 0 0
-3.473168 2.280831 -6.653617 7.844469 -0.581071 2.583359 0.015994 -0.011532 669931.000000 1 0 0
-12.751668 3.072031 6.398883 14.594112 -0.236407 1.116916 0.010610 -0.009718 1064130.000000 1 0 0
11.424332 1.666931 7.985183 14.037706 0.144888 0.965704 0.005583 -0.002498 -1807560.000000 1 0 0
6.021732 2.710431 -3.191317 7.334316 0.422944 2.020969 -0.000241 -0.003324 623380.000000 1 0 0
10.482132 -2.444569 6.410983 12.528037 -0.229118 1.033598 0.016283 -0.003224 4136740.000000 1 0 0
-0.966068 10.961031 4.070583 11.732312 -1.482887 1.216474 0.005792 0.001140 1436160.000000 1 0 0
-1.602968 -12.255769 7.445483 14.429435 1.440742 1.028630 0.007657 -0.000182 106209.000000 1 0 0
8.175332 8.609931 -7.813517 14.213304 0.811284 2.152840 0.010326 -0.006981 1104150.000000 1 0 0
-4.670468 -5.988869 -8.657817 11.516840 0.908458 2.421512 0.016746 -0.006172 1137660.000000 1 0 0
-8.571268 -5.350069 -11.596317 15.380651 0.558014 2.424858 0.019055 -0.007859 2559480.000000 1 0 0
6.148132 -0.657369 -9.916617 11.686357 -0.106517 2.584061 0.001831 -0.002279 222763.000000 1 0 0
-11.276768 -5.477969 -5.365317 13.636725 0.452203 1.975173 0.011133 -0.005464 -123949.000000 1 0 0
4.018432 8.933431 -2.703517 10.161840 1.148092 1.840085 0.006374 -0.006401 1124260.000000 1 0 0
11.728332 -10.379469 -3.967017 16.156249 -0.724461 1.818874 0.024583 -0.007711 -187754.000000 1 0 0
4.061132 -11.253769 3.927483 12.592269 -1.224472 1.253608 0.003865 -0.000361 1192180.000000 1 0 0
-1.031668 0.885731 3.176783 3.455548 -0.709433 0.404426 0.002020 0.000419 -239785.000000 1 0 0
-10.695968 -5.082469 4.472983 12.658704 0.443592 1.209644 0.009734 -0.000592 2719060.000000 1 0 0
4.627932 -8.665669 2.730583 10.196453 -1.080278 1.299690 0.001515 0.000802 5649890.000000 1 0 0
-3.752968 -5.722969 2.585283 7.315793 0.990374 1.209610 0.006735 -0.002701 1377220.000000 1 0 0
9.986832 5.172431 12.154683 16.559806 0.477885 0.746622 0.006289 -0.001748 -782783.000000 1 0 0
1.673932 -12.461569 -5.263617 13.630789 -1.437268 1.967257 -0.000834 -0.002508 2720770.000000 1 0 0
9.939932 -10.755869 -1.623917 14.735266 -0.824803 1.681227 0.014081 -0.004808 1322100.000000 1 0 0
9.560032 -4.465769 -9.349517 14.097899 -0.437007 2.295863 0.011530 -0.007243 2950730.000000 1 0 0
-7.497368 -3.108469 -13.052817 15.370398 0.393036 2.585299 0.016828 -0.007390 2296100.000000 1 0 0
0.495432 6.238831 -2.547717 6.757169 1.491552 1.957394 0.005651 -0.006249 2168910.000000 1 0 0
-5.925868 -9.435969 1.064183 11.193119 1.010037 1.475578 0.014430 -0.000158 -933788.000000 1 0 0
-9.053168 -4.169269 0.594983 9.984821 0.431577 1.511172 0.006076 -0.004563 2499020.000000 1 0 0
1.959732 3.821331 11.985983 12.732122 1.096929 0.344047 0.001710 -0.009120 221609.000000 1 0 0
6.697332 4.353931 9.599483 12.488437 0.576445 0.694037 -0.004726 -0.000691 2087300.000000 1 0 0
-8.307668 9.809531 -3.548817 13.335604 -0.868106 1.840158 0.000954 0.002792 2860420.000000 1 0 0
16.453932 2.193631 -6.152217 17.702928 0.132538 1.925727 0.046422 -0.004660 -64867.300000 1 0 0
-10.989268 2.648831 -5.105117 12.403327 -0.236526 1.994997 0.000375 0.000237 1672230.000000 1 0 0
-13.773368 4.005031 1.510183 14.423127 -0.282978 1.465898 0.013428 -0.002421 448219.000000 1 0 0
-17.427268 10.447531 3.408983 20.602955 -0.540047 1.404571 0.059828 -0.019278 -818024.000000 1 0 0
-14.436868 2.862231 -1.152517 14.762920 -0.195720 1.648944 0.013755 -0.003600 345960.000000 1 0 0
-14.450268 5.126031 5.148683 16.173910 -0.340888 1.246826 0.014708 -0.009216 -336547.000000 1 0 0
-17.546768 7.438631 3.109083 19.310326 -0.400965 1.409086 0.048210 -0.012715 -2138270.000000 1 0 0
-14.933768 12.473831 -3.430817 19.758147 -0.695884 1.745322 0.060286 -0.010918 -130006.000000 1 0 0
-8.553768 12.339631 -9.585017 17.813085 -0.964652 2.138964 0.013356 -0.015972 1971070.000000 1 0 0
-12.302768 8.626131 -9.955917 18.024664 -0.611500 2.155977 0.018463 -0.008055 -558938.000000 1 0 0
-13.960968 -3.495369 -12.131717 18.822985 0.245324 2.271187 0.032967 -0.008537 -447951.000000 1 0 0
-14.588968 5.698931 -7.561817 17.392437 -0.372405 2.020586 0.036824 -0.001970 -92542.000000 1 0 0
-10.925268 13.383031 -8.325517 19.177623 -0.886164 2.019865 0.026401 -0.017744 916149.000000 1 0 0
-10.902168 13.663631 3.884583 17.906481 -0.897339 1.352120 0.020950 -0.008575 -770286.000000 1 0 0
-15.248168 3.347131 3.060883 15.908454 -0.216083 1.377183 0.017989 -0.003119 1012390.000000 1 0 0
-11.114468 9.358931 -12.594517 19.228698 -0.699860 2.284960 0.022358 -0.018902 100864.000000 1 0 0
-13.091968 11.344831 -9.051417 19.545663 -0.714023 2.052276 0.038553 -0.022862 -720315.000000 1 0 0
-8.812768 14.572831 -3.445117 17.375302 -1.026899 1.770396 0.020331 -0.007969 2149540.000000 1 0 0
-16.648068 8.111031 -4.020317 18.950196 -0.453360 1.784573 0.052944 -0.008810 -836909.000000 1 0 0
-17.018868 6.626631 0.316483 18.266205 -0.371309 1.553469 0.046492 0.000596 -239278.000000 1 0 0
-10.524968 2.764231 -12.540417 16.603553 -0.256835 2.426885 0.006886 -0.010364 -363252.000000 1 0 0
-16.911768 0.929131 2.345583 17.098916 -0.054885 1.433185 0.039776 -0.007455 106976.000000 1 0 0
-12.710868 1.238031 -6.968917 14.548700 -0.097093 2.070318 0.007738 -0.004491 1829230.000000 1 0 0
-12.304068 9.021531 -5.440417 16.198032 -0.632672 1.913324 0.017830 0.000010 -714429.000000 1 0 0
-9.556568 13.978631 1.250883 16.979247 -0.971124 1.497058 0.025484 -0.008461 84213.900000 1 0 0
-12.130768 11.176031 2.741083 16.720429 -0.744457 1.406117 0.014183 -0.011311 -341383.000000 1 0 0
-12.478668 6.847631 -3.644417 14.693161 -0.501881 1.821448 0.004891 0.002060 -1109060.000000 1 0 0
-15.837468 3.852531 -9.433117 18.832182 -0.238620 2.095439 0.044649 -0.009388 -2083190.000000 1 0 0
-14.984168 5.714531 -4.601617 16.684005 -0.364345 1.850229 0.029034 0.000537 1402150.000000 1 0 0
-17.894668 5.258231 7.613783 20.145417 -0.285799 1.183225 0.028374 -0.015200 301202.000000 1 0 0
-15.850268 10.088331 -1.965817 18.890999 -0.566810 1.675046 0.052284 -0.000284 -1042480.000000 1 0 0
-8.739568 9.855931 -8.273617 15.555454 -0.845360 2.131614 -0.003905 -0.003686 375060.000000 1 0 0
-17.112468 4.125731 -1.319617 17.652184 -0.236580 1.645623 0.039576 -0.002057 -135349.000000 1 0 0
-10.192068 5.429731 -4.544217 12.410082 -0.489496 1.945688 0.001826 0.001273 1248910.000000 1 0 0
-18.354768 2.736131 6.118483 19.540209 -0.147980 1.252317 0.054007 -0.017171 -503726.000000 1 0 0
-10.323068 10.023131 -5.690917 15.473055 -0.770658 1.947433 0.000538 -0.000957 292863.000000 1 0 0
-15.475368 0.458731 -5.983217 16.598082 -0.029634 1.939575 0.022669 -0.006770 344866.000000 1 0 0
-16.465768 -4.181269 -8.908117 19.182259 0.248681 2.053746 0.042030 -0.016276 -1730160.000000 1 0 0
-10.015168 9.584131 -1.062917 13.902839 -0.763409 1.647324 0.003761 0.002500 1076650.000000 1 0 0
-17.465868 -2.916069 -3.242017 18.001963 0.165432 1.751877 0.046125 -0.008819 -433084.000000 1 0 0
-11.970168 5.036631 -11.592117 17.407749 -0.398278 2.299519 0.020370 -0.010637 565992.000000 1 0 0
-16.405568 7.038831 5.912683 18.805521 -0.405297 1.250959 0.034983 -0.013349 106313.000000 1 0 0
-12.007868 5.856631 -8.826817 16.012548 -0.453786 2.154650 0.013553 -0.006026 208058.000000 1 0 0
-14.625168 8.228231 0.006283 16.780922 -0.512471 1.570422 0.035433 -0.000637 704027.000000 1 0 0
-14.846968 11.803731 3.805183 19.345282 -0.671701 1.372807 0.027365 -0.019376 1854020.000000 1 0 0
-17.221968 4.023131 -4.174617 18.171659 -0.229489 1.802599 0.032321 -0.005164 -393532.000000 1 0 0
-13.790668 13.362731 -0.894217 19.223546 -0.769640 1.617330 0.048035 -0.005521 1252920.000000 1 0 0
-9.975568 6.740131 -13.076017 17.774238 -0.594206 2.397455 -0.003030 -0.018348 -248257.000000 1 0 0
-15.935968 -1.128769 -8.475917 18.085086 0.070713 2.058580 0.026564 -0.010396 -1164720.000000 1 0 0
-11.331168 11.973031 -0.115517 16.485211 -0.812934 1.577804 0.025069 -0.004196 1606180.000000 1 0 0
-12.010768 7.392631 -0.828417 14.127838 -0.551739 1.629467 0.003190 0.005033 958922.000000 1 0 0
-11.510468 0.107831 -11.740617 16.442158 -0.009368 2.366071 0.016323 -0.008687 -1135150.000000 1 0 0
-19.153868 -1.311069 -4.871317 19.807051 0.068343 1.819284 0.058607 -0.014801 -1247190.000000 1 0 0
-18.049468 1.404031 -5.186317 18.832219 -0.077632 1.849798 0.040176 -0.009435 -387213.000000 1 0 0
-13.355668 -0.067169 -9.484417 16.380859 0.005029 2.188290 0.016647 -0.007573 -1040690.000000 1 0 0
-6.172668 11.209131 -13.199617 18.384132 -1.067430 2.371706 -0.003691 -0.013997 -1580840.000000 1 0 0
16.424932 5.737031 6.942883 18.732206 0.336040 1.191100 0.051894 -0.019320 99907.600000 1 0 0
14.924732 10.011231 -5.469717 18.785371 0.590846 1.866245 0.062958 -0.022402 248047.000000 1 0 0
2.507332 16.896931 4.302783 17.615531 1.423482 1.324039 0.021803 -0.005203 4049260.000000 1 0 0
-3.903268 18.264531 -5.903417 19.587724 -1.360256 1.876940 0.010114 -0.006501 2327750.000000 1 0 0
5.567132 14.520831 5.603783 16.530272 1.204691 1.224941 0.019232 -0.005741 -51638.000000 1 0 0
9.955532 6.056331 15.037083 19.023818 0.546528 0.659278 0.021986 -0.003736 -1126520.000000 1 0 0
4.705432 12.685131 -1.199917 13.582836 1.215589 1.659252 0.009516 -0.003860 2123570.000000 1 0 0
3.649932 13.767131 12.925683 19.233543 1.311639 0.833838 0.040106 -0.015927 -2138270.000000 1 0 0
-0.735668 12.501831 9.106483 15.484348 -1.512019 0.942078 0.015511 -0.004581 1558240.000000 1 0 0
-7.747768 13.912731 8.275083 17.946281 -1.062684 1.091559 0.012078 -0.013337 2272590.000000 1 0 0
11.471532 12.779431 -4.241117 17.688894 0.839278 1.812917 0.053358 -0.014127 1468920.000000 1 0 0
-5.694768 16.158131 0.793983 17.150685 -1.231950 1.524485 0.014483 -0.002917 -703527.000000 1 0 0
3.293932 10.626831 6.679383 12.976659 1.270224 1.030112 0.008444 0.002652 2759210.000000 1 0 0
-1.123868 15.530831 2.408183 15.756559 -1.498559 1.417358 0.003518 -0.003370 -1623470.000000 1 0 0
10.060332 8.859631 9.393683 16.369014 0.722021 0.959573 0.014190 -0.007408 107269.000000 1 0 0
7.336332 12.233531 6.216683 15.560469 1.030604 1.159806 0.011481 -0.005284 54029.700000 1 0 0
11.990032 14.056131 -1.628817 18.546933 0.864557 1.658731 0.038659 -0.005506 -374815.000000 1 0 0
9.893032 16.023431 -1.195017 18.869300 1.017673 1.634170 0.037081 -0.003551 1067090.000000 1 0 0
10.320232 13.694631 2.980883 17.405050 0.924997 1.398682 0.022857 -0.004146 2266500.000000 1 0 0
-6.008468 14.513031 6.154383 16.870275 -1.178275 1.197372 0.002676 -0.008100 2057340.000000 1 0 0
-0.916868 18.235731 -6.181317 19.276701 -1.520560 1.897225 0.018555 -0.006747 2005280.000000 1 0 0
-3.461568 15.760331 5.386483 17.011311 -1.354591 1.248610 0.004430 -0.003183 2008200.000000 1 0 0
7.170932 12.394531 10.536483 17.778193 1.046294 0.936435 0.023028 -0.004120 4507920.000000 1 0 0
1.537232 14.647531 6.196083 15.978257 1.466231 1.172572 0.013540 -0.000439 -414828.000000 1 0 0
17.454132 7.667231 -1.491117 19.122149 0.413903 1.648854 0.037099 -0.008772 846985.000000 1 0 0
2.114832 16.167931 -3.405217 16.657431 1.440731 1.776674 0.007699 -0.008124 779730.000000 1 0 0
6.811832 11.110231 0.503583 13.041928 1.020790 1.532174 0.011430 -0.002476 1976600.000000 1 0 0
12.690332 9.365931 3.191983 16.092046 0.635801 1.371114 0.011266 -0.001866 -747122.000000 1 0 0
6.137232 14.171331 -3.510617 15.837193 1.162107 1.794322 0.011207 -0.004810 1143350.000000 1 0 0
3.239332 16.528531 1.423883 16.903049 1.377265 1.486458 0.018942 -0.006752 42028.300000 1 0 0
2.644532 18.961231 -2.747817 19.340950 1.432220 1.713351 0.015790 -0.014306 -811185.000000 1 0 0
4.078032 11.904631 10.591883 16.448057 1.240766 0.871134 0.024854 -0.008427 3255990.000000 1 0 0
8.177932 11.483931 3.338683 14.488135 0.951983 1.338264 0.007304 0.000221 2426450.000000 1 0 0
0.807832 12.518031 0.140083 12.544852 1.506352 1.559629 0.007684 -0.003187 -2049580.000000 1 0 0
12.089432 9.881531 -4.639117 16.288660 0.685243 1.859601 0.037573 -0.006461 1450450.000000 1 0 0
-1.360368 16.659431 9.798183 19.375026 -1.489320 1.040589 0.022451 -0.000265 -973444.000000 1 0 0
8.132732 14.621731 -8.031517 18.559138 1.063199 2.018340 0.051550 -0.017644 1884800.000000 1 0 0
14.527732 7.544031 -1.406117 16.429990 0.478956 1.656483 0.019388 -0.000763 -355907.000000 1 0 0
12.467532 8.369231 5.983083 16.164179 0.591191 1.191632 0.007189 -0.005753 -150655.000000 1 0 0
-3.054768 14.299631 10.136683 17.792229 -1.360334 0.964625 0.022350 -0.008963 2378080.000000 1 0 0
-4.571868 17.180531 -3.129517 18.051773 -1.310716 1.745040 0.016119 -0.001915 -249507.000000 1 0 0
-7.022868 16.360031 -1.818017 17.896270 -1.165315 1.672558 0.016573 -0.006761 -529303.000000 1 0 0
8.477732 11.286031 -1.935617 14.247563 0.926547 1.707074 0.010002 -0.000378 -1788020.000000 1 0 0
8.596432 12.875531 -4.224017 16.047438 0.982109 1.837155 0.026644 -0.002285 2021070.000000 1 0 0
2.611332 14.926931 -7.330117 16.833388 1.397608 2.021336 0.004884 -0.010555 -939802.000000 1 0 0
11.543232 11.436331 9.596883 18.871567 0.780746 1.037312 0.025099 -0.009686 -578926.000000 1 0 0
8.844232 15.836431 1.504983 18.201043 1.061471 1.488015 0.025077 -0.002643 1123170.000000 1 0 0
6.124332 9.963531 7.662183 13.981718 1.019656 0.990808 0.007569 0.001201 3240710.000000 1 0 0
14.494832 11.379431 2.518083 18.599257 0.665570 1.434993 0.023851 -0.002382 893359.000000 1 0 0
12.249932 12.585231 0.963583 17.589127 0.798898 1.515986 0.025938 -0.002150 1987970.000000 1 0 0
5.362032 15.874431 8.160683 18.637213 1.245051 1.117568 0.029961 -0.005618 -782701.000000 1 0 0
11.839732 14.947331 5.054283 19.726828 0.900893 1.311693 0.028852 -0.009844 -241817.000000 1 0 0
6.107032 16.967931 1.732083 18.116474 1.225315 1.475042 0.022887 -0.010905 -270847.000000 1 0 0
-0.611068 16.067731 -4.245017 16.630260 -1.532784 1.828911 0.006034 -0.007748 256641.000000 1 0 0
16.062232 6.374931 2.509883 17.462376 0.377822 1.426566 0.010505 -0.004665 -376256.000000 1 0 0
7.808732 16.604931 -3.149417 18.617703 1.131218 1.740776 0.034724 -0.012837 1456360.000000 1 0 0
14.910532 8.110131 7.337883 18.491694 0.498163 1.162746 0.037971 -0.019017 -217447.000000 1 0 0
2.190132 12.967631 8.519583 15.669698 1.403483 0.995959 0.017802 -0.003793 2511970.000000 1 0 0
16.057732 7.332931 -5.779017 18.574705 0.428379 1.887171 0.030851 -0.005161 -299311.000000 1 0 0
-2.870668 17.015031 0.662783 17.268216 -1.403657 1.532405 0.004156 -0.002418 918328.000000 1 0 0
-2.813468 18.607731 4.583183 19.369275 -1.420734 1.331909 0.011021 -0.005173 2619950.000000 1 0 0
-0.845568 19.085331 0.803183 19.120930 -1.526521 1.528779 0.007646 -0.008554 -1083710.000000 1 0 0
7.035932 16.669231 -6.051017 19.078323 1.171392 1.893537 0.036395 -0.012809 -396223.000000 1 0 0
11.053032 10.038531 0.745283 14.949819 0.737335 1.520923 0.011567 0.000649 -1804030.000000 1 0 0
9.312032 8.717131 14.330983 19.185396 0.752414 0.727298 0.028172 -0.007890 514617.000000 1 0 0
6.360732 12.250231 -8.393117 16.154612 1.091880 2.117120 0.026773 -0.016734 1260570.000000 1 0 0
6.574832 9.091431 13.288083 17.391253 0.944676 0.701202 0.025878 -0.013932 -65339.800000 1 0 0
16.703732 9.362431 2.949283 19.374418 0.510868 1.417977 0.023389 -0.006045 -414679.000000 1 0 0
2.627432 14.740931 -0.807117 14.994995 1.394408 1.624648 0.010071 -0.004033 1038640.000000 1 0 0
9.269332 12.931331 8.303183 17.946663 0.948876 1.089804 0.016674 -0.006594 2251350.000000 1 0 0
7.367832 9.427331 10.427483 15.871104 0.907414 0.853950 0.012962 -0.007124 1631020.000000 1 0 0
4.422132 15.882431 -5.340817 17.330066 1.299245 1.884078 0.021039 -0.005302 1230260.000000 1 0 0
0.221332 16.351231 -8.168917 18.279577 1.557261 2.034080 0.007112 -0.008878 125160.000000 1 0 0
-2.401168 15.626531 -2.006817 15.936794 -1.418329 1.697055 -0.002306 0.000335 -229159.000000 1 0 0
13.431132 10.433631 7.648883 18.648362 0.660449 1.148163 0.032025 -0.014003 2411870.000000 1 0 0
-0.896468 15.918831 6.986783 17.407699 -1.514541 1.157793 0.014038 -0.004305 2154510.000000 1 0 0
13.564032 13.191131 6.719183 20.078255 0.771462 1.229563 0.036999 -0.012848 -765539.000000 1 0 0
5.458132 17.289831 4.475883 18.675197 1.265013 1.328770 0.022549 -0.012508 -154760.000000 1 0 0
10.824832 9.389431 -1.899317 14.454958 0.714508 1.702573 0.011531 -0.002744 1062770.000000 1 0 0
3.214232 12.740531 4.669283 13.944699 1.323669 1.229358 0.009042 0.002021 3892170.000000 1 0 0
-0.091768 18.048431 3.479783 18.381055 -1.565712 1.380333 0.010987 -0.006881 1554390.000000 1 0 0
-7.762668 15.938631 -5.799317 18.652910 -1.117575 1.886943 0.034682 -0.012673 -267711.000000 1 0 0
-12.576168 -9.134269 8.305183 17.623023 0.628170 1.080067 0.033110 -0.002276 560092.000000 1 0 0
-13.314568 -11.717169 6.911083 19.035042 0.721670 1.199234 0.037687 -0.002146 -545028.000000 1 0 0
-6.643568 -12.364069 12.266283 18.640518 1.077734 0.852578 0.040053 -0.008990 -688951.000000 1 0 0
-1.837368 -10.595369 14.314683 17.903852 1.399092 0.644283 0.001541 -0.005638 947087.000000 1 0 0
-8.840568 2.921731 10.949283 14.372855 -0.319191 0.704705 0.007500 -0.002860 2151850.000000 1 0 0
0.601432 10.059631 15.007783 18.077374 1.511081 0.591335 0.024104 -0.015353 554232.000000 1 0 0
1.007832 -6.684169 16.593783 17.917798 -1.421145 0.386839 0.006318 -0.011009 1120320.000000 1 0 0
5.975232 2.492531 17.671383 18.820040 0.395198 0.351183 0.021263 -0.017447 704437.000000 1 0 0
-5.155168 -2.993769 17.628983 18.609660 0.526131 0.326088 0.020963 -0.010211 -1723590.000000 1 0 0
-4.302268 8.165031 12.969483 15.918063 -1.085850 0.618472 -0.000233 0.000141 -161543.000000 1 0 0
0.084432 -4.764069 18.581383 19.182578 -1.553075 0.251021 0.018922 -0.018953 -189310.000000 1 0 0
-11.648668 2.200531 11.039983 16.199229 -0.186708 0.820968 0.022770 -0.007178 1038500.000000 1 0 0
-3.481768 -6.111569 14.343883 15.975637 1.052953 0.455912 0.008461 -0.008462 373353.000000 1 0 0
-7.432868 -2.207669 14.626583 16.554705 0.288715 0.487450 0.010819 -0.000570 1149090.000000 1 0 0
-6.172468 -1.095669 10.574483 12.293069 0.175679 0.535137 0.004595 -0.000341 2130870.000000 1 0 0
-3.954568 2.414731 11.099883 12.028173 -0.548190 0.395449 0.002135 0.001894 1249840.000000 1 0 0
-6.425868 6.277031 13.492083 16.208924 -0.773682 0.587397 -0.003301 -0.001232 1377280.000000 1 0 0
-9.015468 5.489431 12.506183 16.365119 -0.546931 0.701000 0.009209 -0.006557 -85263.100000 1 0 0
-12.271068 -2.145169 15.769883 20.096519 0.173066 0.668573 0.039794 -0.004165 203619.000000 1 0 0
-3.624268 -7.649269 16.974083 18.967502 1.128323 0.462581 0.015922 -0.008412 482415.000000 1 0 0
-0.618768 -5.374469 14.342583 15.328975 1.456170 0.360695 0.010259 -0.003508 1704310.000000 1 0 0
-14.359768 -2.129769 13.673983 19.942835 0.147242 0.815288 0.059706 -0.009094 -634171.000000 1 0 0
-6.480868 1.425331 12.217583 13.903329 -0.216483 0.497555 0.005453 -0.002253 3181660.000000 1 0 0
2.098732 -2.174269 14.526983 14.837970 -0.803074 0.205098 0.004484 -0.003612 -184049.000000 1 0 0
-12.627768 4.103431 9.026683 16.055519 -0.314189 0.973732 0.015711 -0.012317 -1118610.000000 1 0 0
-9.103668 -2.965969 12.564583 15.796914 0.314955 0.651159 0.005947 0.004107 1608480.000000 1 0 0
-7.206768 -7.158669 15.207783 18.288267 0.782050 0.588887 0.023697 -0.010967 -423901.000000 1 0 0
-3.355468 5.906731 19.399283 20.554339 -1.054182 0.336837 0.044081 -0.009910 -189033.000000 1 0 0
0.646632 5.462431 16.104183 17.017668 1.452967 0.329138 0.007911 -0.005590 -32895.100000 1 0 0
3.470832 1.564231 16.599283 17.030258 0.423418 0.225450 0.011201 -0.013728 1130740.000000 1 0 0
-11.724568 11.331931 7.731283 18.045800 -0.768370 1.128047 0.010861 -0.020991 -1429410.000000 1 0 0
0.573732 -9.357169 15.483483 18.100388 -1.509558 0.544430 -0.008357 0.000196 1361640.000000 1 0 0
-2.547468 -3.574669 18.872583 19.376332 0.951635 0.228524 0.022234 -0.015631 2756170.000000 1 0 0
-12.921368 2.424931 13.720083 19.002177 -0.185511 0.764069 0.032769 -0.015662 949984.000000 1 0 0
-5.396868 -0.524369 15.825683 16.728819 0.096858 0.330090 0.015989 -0.000777 2302340.000000 1 0 0
-4.554768 -6.018169 11.661683 13.890973 0.922934 0.574406 0.006357 -0.002355 -182905.000000 1 0 0
2.403232 1.869531 13.883783 14.213730 0.661134 0.215887 0.002350 -0.009090 -1454660.000000 1 0 0
0.110832 3.366531 14.140883 14.536519 1.537886 0.233842 0.006213 -0.009346 -1301360.000000 1 0 0
-13.128768 7.178031 12.155583 19.278145 -0.500337 0.888551 0.030147 -0.010948 1909440.000000 1 0 0
0.916332 1.512431 18.085783 18.172030 1.026074 0.097467 0.014285 -0.011273 980320.000000 1 0 0
-1.980568 6.423031 12.409583 14.112963 -1.271693 0.496398 0.001653 -0.001935 1501970.000000 1 0 0
-13.505668 -2.607269 10.913583 17.558679 0.190704 0.900078 0.038252 -0.006583 -440352.000000 1 0 0
-2.508768 3.611331 13.392483 14.095894 -0.963641 0.317246 0.004122 -0.003130 -669315.000000 1 0 0
3.510432 6.174031 16.184983 17.674713 1.053800 0.413515 0.011267 -0.011610 463534.000000 1 0 0
-3.723168 12.389931 12.187883 17.774051 -1.278881 0.815215 0.015237 -0.008713 685185.000000 1 0 0
3.643332 -1.330769 16.993083 17.430138 -0.350206 0.224411 0.015315 -0.009917 -1275930.000000 1 0 0
-15.841568 0.565531 9.161383 18.308633 -0.035684 1.046752 0.049159 -0.015596 -5295.760000 1 0 0
-4.641768 4.596331 15.170083 16.516770 -0.780480 0.406613 0.009868 -0.003382 1370090.000000 1 0 0
-8.118068 -8.115769 10.543183 15.586130 0.785257 0.827869 0.019990 -0.008015 4007290.000000 1 0 0
-2.656868 -0.402369 14.626283 14.871080 0.150303 0.181695 0.012221 -0.001706 760246.000000 1 0 0
-1.839868 0.935631 17.151783 17.275537 -0.470450 0.119767 0.015474 -0.009585 549361.000000 1 0 0
-0.826168 -2.486069 14.358783 14.595813 1.249959 0.180464 0.010313 -0.002458 809182.000000 1 0 0
4.954832 -8.129569 16.576983 19.116397 -1.023433 0.521324 0.007251 -0.007937 -1031060.000000 1 0 0
-4.518368 9.979031 10.616683 15.254857 -1.145628 0.801048 0.003619 -0.003240 -485532.000000 1 0 0
-6.216768 2.098631 15.233883 16.586852 -0.325564 0.406700 0.010107 -0.000389 -828730.000000 1 0 0
-4.915268 6.849831 17.218183 19.171486 -0.948372 0.455334 0.020308 0.000517 -742761.000000 1 0 0
-4.036068 9.163331 15.608383 18.543951 -1.155905 0.570378 0.007456 -0.005644 -776322.000000 1 0 0
-4.609668 -9.999969 18.310083 21.366038 1.138859 0.541432 0.030406 -0.011927 -2038860.000000 1 0 0
-6.876468 -4.093369 11.120083 13.700282 0.536936 0.623794 0.006342 0.002575 1028540.000000 1 0 0
-2.263868 -0.765369 19.470383 19.616491 0.326017 0.122127 0.022468 -0.015405 64071.000000 1 0 0
-5.705268 -4.493669 15.212883 16.857490 0.667156 0.445395 0.011030 -0.005522 1767460.000000 1 0 0
-12.965868 0.052031 9.675983 16.178414 -0.004013 0.929693 0.025941 -0.006712 1243820.000000 1 0 0
-14.509268 8.937131 10.349383 19.937425 -0.552072 1.025007 0.024199 -0.016111 740907.000000 1 0 0
-8.394268 10.498031 12.892283 18.624805 -0.896297 0.806249 0.011319 -0.008458 -565982.000000 1 0 0
-10.581068 7.168131 10.751983 16.701684 -0.595430 0.871386 0.018967 -0.008105 -1209670.000000 1 0 0
-9.915968 -6.420269 14.885783 19.003495 0.574593 0.670810 0.032398 -0.010610 -884440.000000 1 0 0
-0.823568 -13.337469 14.407883 19.650787 1.509126 0.747786 0.001501 -0.011408 1952680.000000 1 0 0
3.789032 -5.495769 16.896883 18.167689 -0.967189 0.376244 0.019459 -0.012177 2480880.000000 1 0 0
-7.350268 9.408431 10.354383 15.803742 -0.907598 0.856368 0.007003 -0.002807 234716.000000 1 0 0
-10.390568 -6.641469 11.893983 17.133005 0.568733 0.803468 0.033443 -0.011021 1378340.000000 1 0 0
-10.940768 -3.887569 10.698983 15.788662 0.341414 0.826252 0.019784 0.004344 -712450.000000 1 0 0
-10.218268 -10.218569 9.908483 17.521706 0.785413 0.969760 0.039959 -0.011898 1217140.000000 1 0 0
-9.820968 -3.532369 15.241983 18.472875 0.345269 0.600416 0.021930 -0.010404 512686.000000 1 0 0
5.588332 -3.131669 16.008283 17.242446 -0.510788 0.380651 0.018833 -0.011389 890429.000000 1 0 0
-11.333468 0.560231 15.148083 18.926853 -0.049391 0.642920 0.025933 -0.012099 177115.000000 1 0 0
-3.163568 3.064031 18.733983 19.244703 -0.769416 0.230896 0.029730 -0.013240 -491277.000000 1 0 0
0.513132 7.335531 13.853183 15.683877 1.500958 0.487993 0.010791 -0.010106 640105.000000 1 0 0
-13.193868 -7.432669 12.255883 19.481514 0.513029 0.890397 0.043063 -0.012022 -1354210.000000 1 0 0
-1.556768 -1.130869 12.075683 12.228022 0.628239 0.158013 0.004849 -0.000245 1213240.000000 1 0 0
1.974332 -4.805869 13.157583 14.146249 -1.181000 0.376081 0.007235 -0.001673 2390000.000000 1 0 0
-14.673068 -4.037569 8.725883 17.542575 0.268523 1.050184 0.032874 -0.006295 882582.000000 1 0 0
8.103832 1.082431 16.151483 18.102877 0.132784 0.468591 0.019973 -0.015354 884981.000000 1 0 0
-1.282368 11.352031 13.386083 17.598304 -1.458309 0.706488 0.019630 -0.005631 916291.000000 1 0 0
2.912232 -12.331269 -13.771217 18.713303 -1.338879 2.397799 0.008591 0.009585 234792.000000 1 0 0
0.749032 -10.826669 -13.905717 17.639353 -1.501722 2.478894 0.000875 0.009860 -1900420.000000 1 0 0
3.250932 -14.468969 -12.333517 19.288215 -1.349784 2.264557 0.015811 0.005291 -316010.000000 1 0 0
-5.011168 -10.215369 -16.103417 19.717647 1.114736 2.526467 0.017840 -0.010604 -338823.000000 1 0 0
-1.214668 -12.076769 -15.035617 19.323393 1.470555 2.462439 0.015082 0.006773 107428.000000 1 0 0
5.757632 -15.041569 -11.951117 20.055630 -1.205221 2.209180 0.019521 0.001729 613084.000000 1 0 0
1.802332 -11.978969 -16.116417 20.161423 -1.421458 2.497041 0.006716 0.015493 -668863.000000 1 0 0
1.339032 -14.420469 -13.977217 20.127233 -1.478205 2.338442 0.027411 0.012532 -525229.000000 1 0 0
-1.096968 -10.559569 -15.860417 19.085614 1.467284 2.551725 0.003757 -0.001137 -697298.000000 1 0 0
-6.059468 -5.492869 -14.978617 17.065981 0.736391 2.641814 0.015343 -0.007835 -11448.100000 1 0 0
-6.433068 -7.607969 -16.439217 19.222731 0.868880 2.596727 0.015612 -0.009237 589544.000000 1 0 0
4.951932 -12.533969 -11.477017 17.701523 -1.194538 2.276229 0.002984 0.004020 -474245.000000 1 0 0
-2.027668 -15.596469 -13.104917 20.471935 1.441513 2.265478 0.031317 0.002876 86059.300000 1 0 0
15.537732 -7.354469 -8.764317 19.295662 -0.442085 2.042284 0.060270 -0.010747 402949.000000 1 0 0
19.306332 -3.519369 -4.171117 20.062867 -0.180311 1.780226 0.105795 -0.030474 881937.000000 1 0 0
14.850732 -11.593969 -8.813817 20.800186 -0.662861 2.008364 0.059255 -0.017779 135585.000000 1 0 0
18.037432 -3.518469 -6.512517 19.497217 -0.192646 1.911365 0.115567 -0.018585 563094.000000 1 0 0
9.182332 -9.139369 -15.442517 20.157247 -0.783053 2.443551 0.069307 -0.013645 -234566.000000 1 0 0
1.292232 1.889531 -15.095217 15.267801 0.970964 2.991092 0.017380 -0.007433 -266553.000000 1 0 0
4.793432 -4.236469 -13.842517 15.249260 -0.723796 2.708686 0.005279 -0.001067 1313960.000000 1 0 0
13.041632 -5.374669 -8.606117 16.523816 -0.390908 2.118621 0.037844 -0.007739 -1666710.000000 1 0 0
2.938932 0.877231 -12.207317 12.586717 0.290068 2.895440 0.012560 -0.005696 -3730220.000000 1 0 0
0.573432 6.315631 -12.790517 14.276321 1.480249 2.681306 0.012637 -0.011884 -38029.800000 1 0 0
3.101332 -1.211069 -16.742217 17.070055 -0.372290 2.945291 0.026037 -0.007707 111268.000000 1 0 0
13.330232 4.380531 -11.522217 18.156146 0.317499 2.258310 0.025344 -0.007728 553599.000000 1 0 0
-3.771968 9.290831 -16.458717 19.272691 -1.185138 2.594406 0.002830 -0.012337 -1149440.000000 1 0 0
-0.138768 -4.909069 -17.670117 18.339881 1.542536 2.870506 0.005117 -0.008838 386897.000000 1 0 0
-0.602468 -8.453069 -17.585117 19.520596 1.499645 2.692518 0.004478 -0.003555 -1599710.000000 1 0 0
5.694732 -10.126669 -12.162517 16.819816 -1.058521 2.379085 0.004050 0.002683 369144.000000 1 0 0
1.589132 -9.874169 -17.984417 20.578236 -1.411226 2.634074 0.019332 -0.002721 -149713.000000 1 0 0
10.802332 9.088631 -14.912017 20.534406 0.699456 2.383570 0.084486 -0.028198 523568.000000 1 0 0
11.057732 -3.817269 -12.906317 17.418898 -0.332404 2.405262 0.030130 -0.004047 28034.000000 1 0 0
4.879132 7.417531 -12.259417 15.136677 0.988969 2.514803 -0.000648 -0.005021 -683857.000000 1 0 0
9.671232 -5.948569 -12.661917 17.007126 -0.551433 2.410592 0.025127 -0.001476 -1375310.000000 1 0 0
-3.294468 0.373631 -15.826417 16.169990 -0.112929 2.935082 0.018316 -0.011171 -2159660.000000 1 0 0
-0.783668 10.692631 -12.864617 16.746488 -1.497637 2.446818 0.003124 -0.007352 -808178.000000 1 0 0
6.743332 -5.504469 -12.514317 15.244010 -0.684591 2.533840 0.005345 -0.001324 149395.000000 1 0 0
17.792732 -6.301269 -8.007017 20.503649 -0.340366 1.971989 0.096438 -0.021976 -152340.000000 1 0 0
13.192432 4.890731 -14.019317 19.862043 0.355015 2.354397 0.052057 -0.014185 301702.000000 1 0 0
14.061532 0.867631 -11.550217 18.217765 0.061624 2.257522 0.021252 -0.007203 546170.000000 1 0 0
15.197332 6.115631 -11.281417 19.890455 0.382586 2.173871 0.051582 -0.012173 -269452.000000 1 0 0
8.319232 1.514431 -11.821217 14.534245 0.180068 2.520659 0.002321 0.000911 609726.000000 1 0 0
9.892432 1.263631 -8.964917 13.409948 0.127049 2.303023 0.002180 -0.003517 98460.600000 1 0 0
-0.207268 -5.733569 -12.942817 14.157446 1.534662 2.724340 0.000000 -0.002355 200698.000000 1 0 0
10.518232 -5.710269 -9.175017 15.080494 -0.497370 2.224843 0.013113 -0.006226 -1352350.000000 1 0 0
10.108132 8.386931 -11.363417 17.367849 0.692603 2.284025 0.052796 -0.027636 621526.000000 1 0 0
8.276132 8.292531 -14.791417 18.869193 0.786388 2.471707 0.053940 -0.013865 612323.000000 1 0 0
8.608132 10.544831 -10.692717 17.309754 0.886173 2.236646 0.070862 -0.028871 -917642.000000 1 0 0
7.179632 1.692031 -17.919417 19.378224 0.231448 2.751094 0.043326 -0.005435 -2404720.000000 1 0 0
12.207032 2.755531 -12.991317 18.038262 0.222012 2.374900 0.030899 -0.007325 -1557230.000000 1 0 0
2.693332 -0.818269 -19.283517 19.487884 -0.294951 2.996643 0.035419 -0.019133 -46547.300000 1 0 0
10.351632 -2.288169 -15.505517 18.783318 -0.217546 2.541873 0.051904 -0.013720 -641571.000000 1 0 0
8.413032 -0.940169 -13.029117 15.537725 -0.111290 2.565408 0.011158 -0.004291 -180872.000000 1 0 0
0.530132 4.347831 -14.530117 15.175934 1.449465 2.848811 0.015105 -0.008918 343430.000000 1 0 0
3.861632 -7.567169 -15.621017 17.781744 -1.098932 2.643481 0.013074 -0.006098 492301.000000 1 0 0
11.438332 -5.967769 -14.447417 19.369501 -0.480883 2.412659 0.073254 -0.004744 -1200030.000000 1 0 0
-6.011668 4.311531 -16.735417 18.297640 -0.622172 2.725367 0.014108 -0.007976 -286905.000000 1 0 0
11.521132 7.881631 -9.189617 16.712440 0.599976 2.153001 0.044577 -0.015889 -799162.000000 1 0 0
9.640032 6.342131 -13.597117 17.833520 0.581905 2.437883 0.037981 -0.003854 1297650.000000 1 0 0
12.123832 0.656431 -10.115617 15.803288 0.054091 2.265419 0.017616 -0.000440 -452927.000000 1 0 0
5.480532 -7.296869 -13.728917 16.485256 -0.926604 2.554942 0.006732 0.000899 -797469.000000 1 0 0
8.691032 -10.265769 -10.762217 17.226298 -0.868278 2.245614 0.018841 0.001094 -77486.200000 1 0 0
10.136532 4.641931 -15.770317 19.313200 0.429438 2.526217 0.057321 -0.017387 -729659.000000 1 0 0
9.940932 -0.276969 -10.977617 14.812390 -0.027854 2.405519 0.006031 -0.004464 -1166120.000000 1 0 0
-1.754468 5.416331 -13.725517 14.859495 -1.257540 2.748390 0.009387 -0.012361 -626410.000000 1 0 0
1.384732 -0.678369 -14.802317 14.882414 -0.455528 3.037796 0.014459 -0.007256 -1691840.000000 1 0 0
11.328032 -10.482569 -14.625317 21.262842 -0.746654 2.329298 0.095153 -0.008422 396564.000000 1 0 0
9.372732 -7.791869 -10.845617 16.315291 -0.693557 2.297958 0.020689 -0.000785 -111355.000000 1 0 0
14.119132 -0.975569 -9.701317 17.158589 -0.068986 2.171704 0.027369 -0.004447 847434.000000 1 0 0
3.961532 11.143731 -12.178717 16.976384 1.229235 2.370847 0.016714 -0.017058 -1205410.000000 1 0 0
-1.264168 3.023531 -16.613617 16.933757 -1.174776 2.946835 0.015450 -0.013767 597581.000000 1 0 0
6.065732 -0.660369 -17.590917 18.619064 -0.108442 2.807719 0.025398 -0.003723 200344.000000 1 0 0
6.291132 -6.585969 -16.083817 18.483573 -0.808290 2.626340 0.021498 -0.002009 275247.000000 1 0 0
-1.760068 -5.214469 -19.613717 20.371215 1.245269 2.868033 0.009347 -0.024983 -776258.000000 1 0 0
0.001632 -4.198669 -15.148017 15.719136 -1.570408 2.871204 0.002671 -0.006667 102894.000000 1 0 0
0.459032 0.768231 -12.832817 12.863984 1.032204 3.071968 0.014776 -0.010078 538619.000000 1 0 0
15.369932 0.546631 -13.666317 20.574300 0.035550 2.297276 0.064571 -0.024152 602118.000000 1 0 0
-0.218068 6.954531 -16.216817 17.646478 -1.539450 2.736290 0.014183 -0.007150 -598439.000000 1 0 0
-5.091768 -0.396169 -18.186817 18.890298 0.077649 2.867827 0.017493 -0.008867 -213786.000000 1 0 0
10.396932 -8.417469 -13.252317 18.830132 -0.680574 2.351504 0.036957 -0.003756 443623.000000 1 0 0
4.052832 8.537531 -17.265817 19.683072 1.127586 2.640777 0.034323 -0.019115 -378810.000000 1 0 0
9.279332 0.418531 -16.931117 19.311755 0.045073 2.639809 0.043608 -0.009001 -411533.000000 1 0 0
3.280532 4.717031 -18.411017 19.286726 0.963120 2.839094 0.035397 -0.010688 -209430.000000 1 0 0
1.355832 -8.228069 -15.866817 17.924711 -1.407483 2.657704 -0.001877 -0.003461 170880.000000 1 0 0
4.410932 7.681931 -14.871617 17.309921 1.049567 2.604380 0.013662 -0.008975 641068.000000 1 0 0
-5.663768 -0.430769 -15.094417 16.127779 0.075911 2.781677 0.015667 -0.010803 -18246.800000 1 0 0
2.930632 3.309931 -13.678117 14.374809 0.846103 2.828982 0.015267 -0.005483 -107480.000000 1 0 0
-2.567168 -10.089669 -18.046517 20.834311 1.321648 2.618327 0.024581 -0.006503 239107.000000 1 0 0
6.052832 -9.134269 -15.430217 18.925201 -0.985579 2.524089 0.008649 -0.000162 -189310.000000 1 0 0
-1.878668 5.425131 -17.492717 18.410773 -1.237431 2.824464 0.014618 -0.003075 322829.000000 1 0 0
10.090332 -12.243269 -11.574417 19.638726 -0.881500 2.201071 0.058266 -0.007622 -93325.900000 1 0 0
10.922432 3.570531 -9.476517 14.894717 0.315948 2.260403 0.007923 -0.003054 -1441980.000000 1 0 0
4.899432 -0.508969 -10.923517 11.982767 -0.103512 2.717961 0.003866 -0.001937 761113.000000 1 0 0
6.234932 9.444931 -11.399617 16.063386 0.987329 2.359818 0.027139 -0.017042 455084.000000 1 0 0
10.816632 -9.528169 -9.455717 17.239377 -0.722151 2.151360 0.040750 -0.003616 -316390.000000 1 0 0
3.218232 -2.392269 -14.417117 14.964398 -0.639231 2.870309 0.012428 -0.004529 -8765.910000 1 0 0
9.282032 -4.564269 -14.688517 17.964999 -0.457011 2.528059 0.038395 -0.009877 -522019.000000 1 0 0
-4.016968 -6.457669 -16.447817 18.120932 1.014324 2.708494 -0.004546 -0.008343 944970.000000 1 0 0
5.923932 -7.722569 -11.238817 14.867483 -0.916445 2.427874 0.001127 0.001626 299231.000000 1 0 0
5.421132 6.347931 -16.960417 18.903456 0.863985 2.684212 0.027807 -0.004951 -523402.000000 1 0 0
9.287232 1.283931 -19.440817 21.583478 0.137376 2.692236 0.077353 -0.018563 642842.000000 1 0 0
13.313032 5.828331 -9.415517 17.316415 0.412655 2.145676 0.017686 -0.008100 850183.000000 1 0 0
-1.714768 -0.855169 -17.261817 17.367845 0.462614 3.031038 0.020485 -0.012602 485459.000000 1 0 0
-0.595568 -0.235069 -19.536017 19.546506 0.375927 3.108830 0.025235 -0.017716 -54225.400000 1 0 0
2.771232 6.430631 -16.513817 17.937081 1.163903 2.740545 0.019475 -0.002350 -522040.000000 1 0 0
7.617732 3.671231 -15.654917 17.792813 0.449089 2.646332 0.027418 -0.001747 695891.000000 1 0 0
3.070132 -9.966169 -14.793717 18.099842 -1.271966 2.527575 0.005455 0.005004 1032720.000000 1 0 0
9.043132 -10.701369 -13.358717 19.358534 -0.869186 2.332380 0.049167 -0.001275 -74036.200000 1 0 0
3.844032 0.134531 -14.785417 15.277540 0.034983 2.887087 0.012962 -0.003452 -2284060.000000 1 0 0
-1.151768 -2.783969 -18.860417 19.099538 1.178523 2.983188 0.015510 -0.012029 124629.000000 1 0 0
9.226132 10.111031 -13.184817 19.005101 0.831128 2.337481 0.086442 -0.031702 144562.000000 1 0 0
4.538832 2.087831 -10.717717 11.824952 0.431133 2.705395 0.005017 -0.002027 173896.000000 1 0 0
-0.424068 7.046131 -18.907817 20.182501 -1.510684 2.784286 0.018466 -0.005921 38549.000000 1 0 0
0.753132 -1.537969 -17.663917 17.746732 -1.115428 3.044947 0.023150 -0.012336 -1555670.000000 1 0 0
-4.533668 -2.220269 -13.969117 14.853281 0.455397 2.794817 0.018609 -0.013396 -3455110.000000 1 0 0
10.174832 6.028731 -10.434817 15.772070 0.534897 2.293748 0.020823 -0.004663 35270.300000 1 0 0
8.298832 5.318631 -17.463617 20.053338 0.569944 2.627742 0.061893 -0.017781 -160233.000000 1 0 0
11.522632 0.290631 -13.655117 17.869464 0.025217 2.440533 0.028375 -0.000148 370570.000000 1 0 0
6.746732 11.963231 -11.917117 18.183920 1.057302 2.285463 0.062701 -0.031476 -502795.000000 1 0 0
-0.887268 0.572231 -15.096817 15.133690 -0.572807 3.071772 0.016308 -0.011444 82972.800000 1 0 0
-4.162268 -2.783069 -18.864717 19.517876 0.589369 2.882159 0.005378 -0.011368 414395.000000 1 0 0
5.977632 -12.107669 -13.852017 19.344407 -1.112196 2.368957 0.021607 0.000879 68917.500000 1 0 0
2.105432 -4.807369 -13.944717 14.899623 -1.158000 2.781632 0.005514 -0.002417 -894186.000000 1 0 0
11.840732 2.022031 -15.502117 19.611404 0.169138 2.482363 0.052204 -0.008508 307244.000000 1 0 0
9.800532 2.243331 -13.874617 17.134408 0.225022 2.514525 0.018137 -0.004496 -877777.000000 1 0 0
-2.189868 -4.013169 -16.384117 17.010007 1.071283 2.869478 -0.004010 -0.007596 -1635530.000000 1 0 0
-2.862568 10.053431 -14.229217 17.656058 -1.293402 2.508009 0.008453 -0.011977 154950.000000 1 0 0
3.442932 5.739931 -13.545317 15.108812 1.030508 2.682642 0.010320 -0.003511 -282000.000000 1 0 0
-5.010868 -2.517969 -16.467717 17.396398 0.465647 2.813369 0.013920 -0.010603 418960.000000 1 0 0
-4.319668 6.138631 -13.586817 15.522368 -0.957601 2.636864 0.002166 -0.007490 -1521540.000000 1 0 0
5.952832 -1.083169 -13.973517 15.227233 -0.179989 2.732963 0.013172 -0.003648 -1136190.000000 1 0 0
6.862732 -3.010769 -12.613517 14.671831 -0.413428 2.605498 0.008205 -0.003248 1656810.000000 1 0 0
2.617732 -3.301169 -18.089217 18.573368 -0.900356 2.912765 0.031035 -0.020928 -210675.000000 1 0 0
7.484432 -12.165969 -11.912917 18.599600 -1.019280 2.265937 0.025904 0.001970 -1250950.000000 1 0 0
-6.155168 -5.320969 -17.574817 19.366801 0.712836 2.708022 0.025795 -0.010696 380809.000000 1 0 0
0.550332 8.651531 -11.813317 14.652860 1.507271 2.508518 0.003823 -0.007699 -56497.800000 1 0 0
0.367832 8.515231 -14.333117 16.675812 1.527626 2.605117 0.006792 -0.008412 -646324.000000 1 0 0
7.781032 -2.477969 -15.045517 17.118772 -0.308308 2.644326 0.018782 -0.010410 428081.000000 1 0 0
14.473832 1.486431 -9.034817 17.126856 0.102339 2.126479 0.027030 -0.002634 81528.600000 1 0 0
2.876332 10.655831 -14.610917 18.311169 1.307149 2.494639 0.010295 -0.011652 -266054.000000 1 0 0
6.179232 1.018531 -15.533517 16.748446 0.163362 2.758358 0.021360 -0.000798 536731.000000 1 0 0
16.727032 -5.549769 -10.185917 20.355501 -0.320356 2.094858 0.119880 -0.021232 497091.000000 1 0 0
4.971832 -4.298569 -11.148317 12.941475 -0.712900 2.608897 -0.000151 0.000035 -1027060.000000 1 0 0
8.862832 -3.650069 -17.081617 19.587098 -0.390671 2.630244 0.044260 -0.012503 351436.000000 1 0 0
13.350332 -9.438469 -8.744817 18.541518 -0.615398 2.061940 0.067058 -0.013640 -89288.600000 1 0 0
2.305732 -7.870569 -13.494617 15.791356 -1.285814 2.595494 -0.001492 0.002148 270671.000000 1 0 0
-6.725268 -2.415769 -18.450017 19.785557 0.344854 2.772068 0.013985 -0.003557 -1057660.000000 1 0 0
-1.457768 -6.363369 -15.769917 17.067742 1.345595 2.749105 -0.006523 -0.003473 1353.080000 1 0 0
1.542832 -7.288469 -18.306317 19.764193 -1.362194 2.755099 0.018606 -0.012165 -680448.000000 1 0 0
5.474332 10.910831 -14.348917 18.838948 1.105763 2.436671 0.046693 -0.035875 177762.000000 1 0 0
5.316032 -3.561869 -17.711917 18.832395 -0.590323 2.794903 0.023023 -0.005229 857600.000000 1 0 0
3.849632 12.916031 -14.066517 19.481027 1.281129 2.377575 0.039708 -0.026739 -124058.000000 1 0 0
8.931632 10.722531 -15.636917 20.958528 0.876268 2.412964 0.098226 -0.028725 -35107.400000 1 0 0
2.498732 3.878131 -16.183317 16.828051 0.998429 2.863887 0.021687 -0.006178 714889.000000 1 0 0
16.614632 1.550731 -11.565117 20.302776 0.093066 2.176855 0.066550 -0.015336 -390300.000000 1 0 0
10.002132 -3.620269 -10.629817 15.038018 -0.347281 2.355850 0.017061 -0.004776 -711230.000000 1 0 0
14.770532 -2.101069 -11.966317 19.125267 -0.141299 2.246801 0.082729 -0.019257 653914.000000 1 0 0
-2.720868 -8.565169 -15.942217 18.300806 1.263212 2.628277 0.003477 0.001480 343011.000000 1 0 0
14.172032 8.268431 -9.043117 18.734765 0.528149 2.074522 0.063829 -0.012347 428897.000000 1 0 0
-8.346968 0.033731 -16.650817 18.625861 -0.004041 2.676906 0.019590 -0.003970 -340672.000000 1 0 0
-3.615568 4.101131 -15.814417 16.732823 -0.848239 2.808738 0.014001 -0.008253 -448601.000000 1 0 0
15.224432 3.975831 -9.814017 18.544689 0.255443 2.128464 0.024455 -0.005372 288491.000000 1 0 0
5.396032 1.047531 -12.947317 14.065827 0.191745 2.740104 0.007938 -0.000273 377140.000000 1 0 0
7.844532 -7.794069 -12.906717 16.996103 -0.782171 2.433176 0.022035 0.001471 -2354290.000000 1 0 0
3.329532 -6.190569 -11.794917 13.730586 -1.077337 2.604158 0.000831 0.000309 -983910.000000 1 0 0
-3.263868 3.466731 -18.255817 18.866529 -0.815529 2.886460 0.015975 -0.012249 -556561.000000 1 0 0
0.751832 5.076431 -17.633717 18.365276 1.423763 2.858393 0.026217 -0.016479 -608035.000000 1 0 0
6.359032 7.062731 -10.282717 14.001919 0.837780 2.395548 0.004192 -0.004167 433478.000000 1 0 0
9.802532 3.723231 -11.679817 15.696184 0.362993 2.410010 0.017167 -0.001566 234832.000000 1 0 0
4.704832 1.556831 -17.471617 18.160852 0.319559 2.865208 0.032426 -0.005765 -839300.000000 1 0 0
2.518732 8.008031 -13.149917 15.601054 1.266067 2.573421 0.004402 -0.008087 -4249590.000000 1 0 0
14.403132 -3.486669 -9.814117 17.774250 -0.237508 2.155741 0.060682 -0.009863 472508.000000 1 0 0
-1.277468 9.293231 -16.110617 18.642640 -1.434190 2.614317 0.007862 -0.006777 -2548440.000000 1 0 0
-5.248768 2.014731 -15.763917 16.736480 -0.366506 2.799008 0.013923 -0.012055 331361.000000 1 0 0
4.443632 4.235431 -11.842717 13.339216 0.761414 2.663365 0.006768 -0.003665 600583.000000 1 0 0
9.329232 2.992231 -17.511717 20.066097 0.310371 2.631505 0.048412 -0.011683 607921.000000 1 0 0
-4.475668 14.316731 -13.399417 20.113298 -1.267804 2.299894 0.028639 -0.014579 -204043.000000 1 0 0
15.477432 -4.925569 -7.971117 18.092839 -0.308107 2.027027 0.064899 -0.009313 473861.000000 1 0 0
1.159532 9.043231 -16.923917 19.223514 1.443271 2.647450 0.013743 -0.006494 -926195.000000 1 0 0
0.433232 -3.233069 -12.729817 13.141106 -1.437590 2.890744 0.005290 -0.003982 87818.000000 1 0 0
7.674532 3.635131 -13.063317 15.580849 0.442356 2.565177 0.011147 0.000677 -189741.000000 1 0 0
-2.842768 7.492331 -15.022217 17.025961 -1.208153 2.651549 0.001944 -0.009750 -351735.000000 1 0 0
12.188632 -5.060469 -11.068217 17.224300 -0.393523 2.268674 0.046243 -0.005958 -1038930.000000 1 0 0
0.603532 -4.374369 -20.141617 20.619992 -1.433692 2.925769 0.031051 -0.017077 -916688.000000 1 0 0
3.469432 -4.424269 -16.039517 16.996388 -0.905775 2.804443 0.019916 -0.011888 600802.000000 1 0 0
-5.702568 4.084331 -14.234917 15.869275 -0.621534 2.683757 0.003225 -0.008215 517857.000000 1 0 0
12.278332 -7.406569 -9.792117 17.363763 -0.542786 2.169945 0.035031 -0.005471 237705.000000 1 0 0
-2.086568 -1.767169 -14.868417 15.117753 0.702707 2.959722 0.011721 -0.009002 245122.000000 1 0 0
7.100732 5.890531 -14.400617 17.102529 0.692511 2.571807 0.019595 -0.000839 490866.000000 1 0 0
3.796032 -5.556569 -18.393617 19.585976 -0.971461 2.790862 0.036083 -0.016035 -169410.000000 1 0 0
7.589832 7.412431 -12.424917 16.337939 0.773574 2.434871 0.022604 -0.012831 -357139.000000 1 0 0
12.342132 -2.466369 -11.116217 16.792304 -0.197235 2.294257 0.024760 -0.004781 -214068.000000 1 0 0
7.508432 -0.729169 -10.705417 13.096343 -0.096810 2.527741 0.001300 -0.000057 -2004050.000000 1 0 0
5.353232 3.956031 -14.299617 15.772961 0.636423 2.705930 0.007622 -0.000130 698763.000000 1 0 0
14.774832 2.929231 -13.000017 19.896645 0.195720 2.282833 0.048566 -0.017141 -320588.000000 1 0 0
-6.473368 6.776131 -15.767517 18.342165 -0.808245 2.605346 -0.000772 -0.005683 578052.000000 1 0 0
-11.262768 3.960731 -16.400317 20.285653 -0.338158 2.512342 0.048645 -0.022000 -595622.000000 1 0 0
-5.188568 6.443031 -17.962017 19.775437 -0.892833 2.709997 0.007259 0.003361 -477937.000000 1 0 0
-10.194968 1.590831 -15.635917 18.733660 -0.154793 2.558281 0.040133 -0.013998 27884.700000 1 0 0
-7.764868 6.028631 -17.768217 20.306331 -0.660183 2.636250 0.011313 -0.011910 -469049.000000 1 0 0
-8.830668 3.782131 -15.526817 18.258347 -0.404658 2.587533 0.009037 -0.006658 -1339530.000000 1 0 0
8.871432 13.428031 -12.165117 20.174350 0.986960 2.218052 0.127686 -0.043924 -1815690.000000 1 0 0
14.435832 9.397031 -11.399717 20.655532 0.577044 2.155433 0.099820 -0.015821 155091.000000 1 0 0
8.526932 15.680331 -9.154217 20.059438 1.072727 2.044690 0.081988 -0.028280 3645.430000 1 0 0
7.036032 13.560531 -13.949217 20.687542 1.092174 2.310787 0.102310 -0.034477 -66435.700000 1 0 0
4.653232 15.958031 -12.482717 20.787726 1.287071 2.214904 0.067808 -0.035629 -22285.900000 1 0 0
11.076032 10.745931 -11.489817 19.239787 0.770272 2.210790 0.108820 -0.038665 -147728.000000 1 0 0
16.002732 10.007931 -9.316717 21.048690 0.558879 2.029322 0.091526 -0.018937 278618.000000 1 0 0
13.472532 10.773531 -9.390817 19.640915 0.674537 2.069315 0.115353 -0.029604 -338402.000000 1 0 0
10.449532 11.732531 -8.418917 17.824791 0.843173 2.062712 0.060144 -0.014849 277006.000000 1 0 0
5.345332 16.123331 -9.967917 19.695018 1.250672 2.101469 0.050262 -0.025739 -231652.000000 1 0 0
6.687132 14.601831 -11.595217 19.808590 1.141338 2.196124 0.062493 -0.018729 -592024.000000 1 0 0
10.820732 13.832531 -9.943217 20.181544 0.906962 2.085973 0.110071 -0.028836 -371167.000000 1 0 0
8.204732 -18.603969 -1.281917 20.373232 -1.155435 1.633760 0.039284 -0.003757 -488770.000000 1 0 0
7.516432 -17.166469 -3.404317 19.046621 -1.158088 1.750498 0.038243 -0.013972 -611871.000000 1 0 0
4.361432 -18.601469 5.933683 20.006132 -1.340489 1.269673 0.033654 0.011841 382578.000000 1 0 0
9.916932 -17.073669 -2.540817 19.907573 -1.044590 1.698776 0.042608 -0.007869 -1076390.000000 1 0 0
-9.810168 -12.259869 -10.019817 18.626339 0.895942 2.138786 0.036632 -0.009654 -826829.000000 1 0 0
-5.051368 -6.958669 -12.035217 14.791411 0.942892 2.521221 0.007356 -0.006052 503914.000000 1 0 0
-10.783268 -9.500669 -5.670017 15.449617 0.722250 1.946579 0.018873 -0.005243 -788007.000000 1 0 0
-4.550968 -11.495869 -13.975817 18.659844 1.193848 2.417315 0.016163 -0.003774 562345.000000 1 0 0
-2.856468 -15.584569 7.569283 17.559392 1.389520 1.125121 0.014415 -0.001193 129565.000000 1 0 0
-4.872968 -12.059869 -11.508217 17.367363 1.186791 2.295127 0.018436 -0.000257 115100.000000 1 0 0
-14.459368 -12.873969 -4.029917 19.775050 0.727461 1.776022 0.060127 -0.012316 378388.000000 1 0 0
-3.198868 -12.337169 -3.071417 13.110000 1.317096 1.807275 0.012150 -0.002583 624155.000000 1 0 0
-2.495468 -17.465469 -1.301417 17.690779 1.428877 1.644428 0.020780 -0.017498 -485807.000000 1 0 0
-5.971168 -12.173269 3.786283 14.077616 1.114766 1.298486 0.008405 0.000471 336487.000000 1 0 0
-8.930068 -10.701169 -11.903917 18.329331 0.875373 2.277652 0.027775 -0.005931 -310715.000000 1 0 0
-9.819868 -12.135569 -7.500617 17.319385 0.890482 2.018699 0.033395 -0.005712 -76070.600000 1 0 0
-10.960468 -15.115169 6.187083 19.669270 0.943403 1.250808 0.054275 -0.013874 -71395.700000 1 0 0
-9.481568 -15.621269 0.710483 18.287399 1.025271 1.531936 0.034259 -0.006215 -768644.000000 1 0 0
-14.976368 -7.684169 -8.064617 18.664836 0.474062 2.017589 0.039153 -0.012633 166320.000000 1 0 0
-2.430368 -16.547869 5.193283 17.513105 1.424970 1.269732 0.024969 -0.010882 -962926.000000 1 0 0
4.324732 -16.011669 5.715183 17.542525 -1.306992 1.238949 0.028069 0.000043 -205957.000000 1 0 0
4.184032 -14.485169 -9.940117 18.059130 -1.289601 2.153664 0.012799 -0.005025 -426098.000000 1 0 0
-7.639868 -14.021269 -0.278617 15.970009 1.071895 1.588243 0.011879 -0.000856 536938.000000 1 0 0
3.064132 -14.850669 9.673283 17.986208 -1.367322 1.002951 0.022502 -0.007562 711806.000000 1 0 0
2.287232 -17.203569 10.378283 20.221350 -1.438620 1.031848 0.038345 -0.010908 55073.600000 1 0 0
-8.252368 -17.230769 -5.568017 19.899844 1.124145 1.854384 0.054043 -0.012662 32294.300000 1 0 0
-6.571768 -9.150869 -7.748417 13.673496 0.947988 2.173260 0.014921 -0.004842 402850.000000 1 0 0
-6.058768 -13.109069 -4.785817 15.213823 1.137859 1.890800 0.007282 -0.006955 116539.000000 1 0 0
2.269432 -19.361469 -4.772417 20.069698 -1.454115 1.810888 0.037646 -0.020626 3949.300000 1 0 0
-5.475568 -12.882569 8.366283 16.307579 1.168894 1.032085 0.021898 -0.005363 1299100.000000 1 0 0
2.130532 -17.534269 3.434383 17.994020 -1.449882 1.378756 0.021072 -0.014841 547978.000000 1 0 0
-17.573168 -10.192769 -2.548017 20.474402 0.525598 1.695569 0.047378 -0.011781 319934.000000 1 0 0
-3.567968 -15.441569 2.644183 16.067487 1.343719 1.405477 0.011352 -0.004280 -300558.000000 1 0 0
-10.081268 -10.405969 -14.180317 20.273074 0.801246 2.345446 0.025204 -0.013479 -112916.000000 1 0 0
6.072832 -14.666569 -5.552317 16.817127 -1.178229 1.907268 0.005496 -0.008317 488775.000000 1 0 0
-7.364968 -12.395469 -10.751817 17.985882 1.034677 2.211540 0.026047 -0.007321 -1195720.000000 1 0 0
-7.499868 -14.258669 4.059983 16.614485 1.086576 1.323932 0.018814 0.001678 908682.000000 1 0 0
3.202432 -15.048069 -3.010517 15.676835 -1.361111 1.764033 0.012281 -0.008124 -148002.000000 1 0 0
-7.637568 -11.386369 7.946283 15.846932 0.979962 1.045534 0.025526 -0.010173 -728300.000000 1 0 0
-12.771668 -12.365269 -0.871017 17.798147 0.769232 1.619754 0.033091 0.000986 -1153890.000000 1 0 0
-1.932268 -13.717369 4.041183 14.430212 1.430854 1.286950 0.008383 0.001226 -2474780.000000 1 0 0
-3.225568 -14.027869 5.326983 15.348034 1.344785 1.216341 0.012439 0.000042 452239.000000 1 0 0
-14.441568 -10.330769 -4.442217 18.303468 0.620954 1.815942 0.032774 -0.007463 778869.000000 1 0 0
-6.414168 -8.731469 -10.441917 15.047050 0.937222 2.337758 0.017702 -0.004936 443063.000000 1 0 0
0.765832 -19.443169 2.317683 19.595790 -1.531428 1.452244 0.037240 -0.024717 53968.100000 1 0 0
6.346032 -14.063569 -8.127817 17.438965 -1.146912 2.055642 0.012759 -0.004975 -2416700.000000 1 0 0
-4.065668 -16.709269 -5.895517 18.179286 1.332116 1.901066 0.020728 -0.015092 151040.000000 1 0 0
-3.650968 -13.682169 -13.126217 19.308777 1.310031 2.318294 0.029546 -0.000581 -1451710.000000 1 0 0
-8.223068 -14.696569 -4.534117 17.440361 1.060671 1.833796 0.026827 -0.010475 -1635140.000000 1 0 0
-4.635268 -14.512969 10.180983 18.323875 1.261649 0.981696 0.032818 -0.001756 -1086920.000000 1 0 0
-0.255468 -12.155669 -10.002817 15.744265 1.549783 2.259233 0.008399 0.001466 279718.000000 1 0 0
2.293332 -17.280469 6.927983 18.758223 -1.438855 1.192508 0.024633 -0.007822 -845530.000000 1 0 0
-2.865868 -19.216569 -3.212717 19.692924 1.422752 1.734669 0.038646 -0.026041 -1284330.000000 1 0 0
0.557732 -15.483569 -2.970417 15.775784 -1.534791 1.760217 0.011258 -0.009623 -676399.000000 1 0 0
5.862032 -18.001269 0.770483 18.947368 -1.255981 1.530121 0.023040 -0.014379 -372230.000000 1 0 0
-7.020368 -16.685669 4.037083 18.547106 1.172537 1.351373 0.019375 -0.002860 267493.000000 1 0 0
-5.411968 -13.638469 -9.557017 17.510962 1.193037 2.148108 0.022307 -0.002548 129909.000000 1 0 0
5.660832 -15.286769 -2.035917 16.427881 -1.216144 1.695046 0.020844 -0.006023 70909.000000 1 0 0
-8.800568 -10.369869 -0.534817 13.611400 0.867077 1.610098 0.013753 0.001623 -657221.000000 1 0 0
-7.307068 -18.162269 -2.857517 19.784505 1.188290 1.715735 0.038079 -0.032859 -994520.000000 1 0 0
7.876132 -16.098869 -1.027517 17.951680 -1.115798 1.628066 0.020000 -0.004660 -176245.000000 1 0 0
-8.174468 -10.208169 -9.489917 16.158192 0.895582 2.198531 0.027427 -0.007263 -352447.000000 1 0 0
-9.289268 -15.258469 -6.930217 19.160879 1.023936 1.940872 0.050465 -0.009389 -178593.000000 1 0 0
-11.500168 -10.513669 -12.085617 19.719362 0.740615 2.230497 0.034783 0.001136 -221798.000000 1 0 0
6.451232 -16.223569 2.528883 17.641367 -1.192321 1.426951 0.019743 -0.014248 226437.000000 1 0 0
-2.213868 -11.250369 -6.090517 12.983313 1.376497 2.059072 0.011213 -0.002854 -1533660.000000 1 0 0
-12.543268 -15.517869 -3.322517 20.228122 0.891008 1.735796 0.054489 -0.006990 -511733.000000 1 0 0
-0.310668 -19.361669 -2.640717 19.543391 1.554752 1.706332 0.057397 -0.038669 243730.000000 1 0 0
-5.936768 -15.649969 -4.635417 17.368184 1.208220 1.840962 0.016254 -0.011397 -2662020.000000 1 0 0
1.903932 -15.937969 -0.869217 16.074805 -1.451901 1.624896 0.016895 -0.017994 790174.000000 1 0 0
-13.334468 -11.962969 5.345383 18.694753 0.731236 1.280820 0.037968 -0.000622 418327.000000 1 0 0
2.067632 -15.314469 -8.922317 17.844209 -1.436596 2.094409 0.018078 0.003060 -2873470.000000 1 0 0
-11.753968 -16.805969 -0.109317 20.508737 0.960478 1.576127 0.071301 -0.021675 263784.000000 1 0 0
-7.595368 -16.516569 -0.944817 18.203828 1.139770 1.622722 0.034800 -0.013671 563640.000000 1 0 0
-2.903968 -14.549669 -1.762417 14.940951 1.373795 1.689030 0.005585 -0.004417 477494.000000 1 0 0
-1.807168 -10.471869 -13.125317 16.887860 1.399906 2.461007 0.007961 0.001047 -85536.600000 1 0 0
1.401032 -19.490369 4.913983 20.149060 -1.499036 1.324430 0.038253 -0.023383 58811.000000 1 0 0
-17.464768 -9.423369 2.509983 20.002950 0.494796 1.444984 0.029337 -0.010200 370427.000000 1 0 0
-2.721468 -15.592069 -7.940917 17.708110 1.397995 2.035809 0.013495 -0.006691 -278185.000000 1 0 0
-10.466668 -12.231669 0.318483 16.101748 0.863001 1.551016 0.019568 0.004774 353601.000000 1 0 0
-6.931868 -11.482769 -6.591417 14.944951 1.027679 2.027561 0.015412 -0.003245 553644.000000 1 0 0
-2.220568 -13.646069 -6.674317 15.352284 1.409484 2.020551 0.008674 -0.001041 1008230.000000 1 0 0
-14.442468 -14.454269 -1.130417 20.464325 0.785807 1.626063 0.065149 -0.011946 279229.000000 1 0 0
-9.624068 -11.446369 -4.482917 15.612129 0.871670 1.862039 0.021235 -0.004448 993535.000000 1 0 0
9.446532 -15.061169 -5.051117 18.482142 -1.010609 1.847615 0.028586 -0.008692 -71389.400000 1 0 0
-5.653668 -10.940169 -9.396717 15.490305 1.093814 2.222597 0.016403 -0.004216 -268915.000000 1 0 0
-10.405068 -16.168269 -4.690417 19.790866 0.998970 1.810072 0.054465 -0.008874 -602289.000000 1 0 0
2.261632 -17.345269 -3.124317 17.768925 -1.441139 1.747546 0.024401 -0.015437 647083.000000 1 0 0
-0.277668 -14.464369 -8.108717 16.584521 1.551602 2.081662 0.010073 0.000434 -681164.000000 1 0 0
-0.497668 -18.367269 -6.954917 19.646249 1.543708 1.932649 0.035751 -0.006478 -8522.970000 1 0 0
-1.834368 -10.014069 -10.486917 14.615810 1.389626 2.371010 0.007073 -0.000005 140657.000000 1 0 0
-5.091268 -17.291669 2.230083 18.163042 1.284453 1.447704 0.022687 -0.008892 -1057710.000000 1 0 0
0.211332 -12.879869 -2.621117 13.145567 -1.554390 1.771533 0.002541 -0.005173 -998690.000000 1 0 0
2.489932 -14.928269 3.021883 15.433235 -1.405525 1.373719 0.016676 -0.006471 -1704290.000000 1 0 0
-9.596568 -13.056069 6.909283 17.615142 0.936947 1.167736 0.033206 -0.007056 -297814.000000 1 0 0
-1.047068 -17.695869 -4.471717 18.282133 1.511695 1.817898 0.034190 -0.022000 208336.000000 1 0 0
-9.687668 -17.394069 -2.215417 20.032788 1.062631 1.681613 0.056492 -0.032482 961845.000000 1 0 0
1.239632 -16.174169 1.443083 16.285666 -1.494303 1.482069 0.018318 -0.019526 -541384.000000 1 0 0
-0.540468 -18.088569 4.097883 18.554813 1.540926 1.348107 0.038810 -0.017741 295372.000000 1 0 0
-17.486068 -9.295569 -0.043017 19.803334 0.488606 1.572969 0.024027 -0.003275 825664.000000 1 0 0
-14.812368 -7.240769 -10.558917 19.578705 0.454674 2.140409 0.051987 -0.020560 379359.000000 1 0 0
2.747232 -12.695169 -8.828817 15.705496 -1.357683 2.167777 0.004118 -0.000239 390639.000000 1 0 0
-11.782368 -14.807069 1.622983 18.992303 0.898667 1.485237 0.049239 -0.009189 349399.000000 1 0 0
-2.285668 -15.564369 10.672883 19.010110 1.424986 0.974681 0.023510 -0.003049 -277217.000000 1 0 0
-7.091168 -15.827169 1.486783 17.406736 1.149575 1.485278 0.024310 -0.006208 -926916.000000 1 0 0
-12.485268 -15.018169 -5.846717 20.386550 0.877233 1.861674 0.053516 -0.009111 805985.000000 1 0 0
1.005132 -13.888569 -4.978717 14.788180 -1.498551 1.914173 0.008746 -0.002636 822253.000000 1 0 0
5.969032 -16.409969 -7.412717 18.970103 -1.221930 1.972251 0.036721 -0.015028 212084.000000 1 0 0
-6.661368 -12.909769 6.071483 15.744804 1.094435 1.174919 0.020653 -0.002006 -182892.000000 1 0 0
-2.618668 -13.563769 0.627683 13.828494 1.380079 1.525390 0.009463 -0.001702 2132620.000000 1 0 0
-4.236668 -15.571769 0.255483 16.139845 1.305153 1.554966 0.010522 -0.005332 309105.000000 1 0 0
-17.725568 -7.639769 -2.103817 19.416175 0.406944 1.679363 0.025943 -0.005780 479511.000000 1 0 0
1.286532 -12.770469 -11.860617 17.476106 -1.470392 2.316755 0.011034 0.003808 29017.500000 1 0 0
1.277232 -17.037469 -5.523017 17.955790 -1.495970 1.883455 0.031221 -0.016397 -1988150.000000 1 0 0
-12.859868 -6.454569 -9.168117 17.061419 0.465179 2.138099 0.029487 -0.007479 740084.000000 1 0 0
-11.564568 -13.541269 -8.788417 19.858033 0.863971 2.029250 0.046987 -0.011190 -384958.000000 1 0 0
-4.325968 -9.806769 3.658683 11.325753 1.155351 1.241855 0.013287 -0.000828 -2147280.000000 1 0 0
-7.096268 -14.484569 9.588983 18.764550 1.115246 1.034430 0.034369 -0.007203 -423922.000000 1 0 0
-5.318968 -15.907969 -8.095517 18.625044 1.248123 2.020454 0.021327 -0.009268 -1775120.000000 1 0 0
-0.306368 -13.482569 2.182183 13.661459 1.548077 1.410376 0.011016 -0.004970 949187.000000 1 0 0
-10.914868 -13.666769 -4.271817 18.004536 0.896883 1.810344 0.047798 -0.004632 -816633.000000 1 0 0
-9.801568 -10.511769 6.722983 15.867152 0.820346 1.133265 0.034144 -0.001653 -294954.000000 1 0 0
-15.617168 -8.170369 -4.861717 18.283521 0.482008 1.839941 0.047703 -0.006487 728363.000000 1 0 0
-14.613468 -7.331669 5.381983 17.212570 0.465012 1.252786 0.025390 -0.003143 8100.550000 1 0 0
-1.828368 -19.437269 0.312183 19.525568 1.477007 1.554807 0.039411 -0.024687 -270727.000000 1 0 0
-15.247968 -11.984169 -1.314317 19.438319 0.666116 1.638463 0.034330 -0.003753 -102098.000000 1 0 0
-4.435268 -12.250069 -6.853617 14.721000 1.223418 2.055072 0.009601 -0.003193 2146620.000000 1 0 0
-7.396668 -18.321969 2.235283 19.884711 1.187100 1.458146 0.039104 -0.009340 -246785.000000 1 0 0
-2.508168 -11.870669 -8.662117 14.907580 1.362568 2.190820 0.009099 -0.001722 20002.800000 1 0 0
-1.160768 -20.365669 -4.788617 20.953250 1.513862 1.801372 0.057212 -0.016223 -441123.000000 1 0 0
-5.350268 -8.861369 -13.865317 17.303070 1.027606 2.500297 0.015142 -0.001793 410885.000000 1 0 0
-8.321268 -19.092569 -0.598017 20.835722 1.159782 1.599502 0.046039 -0.020143 -56326.300000 1 0 0
-17.154368 -7.305869 5.636583 19.478684 0.402624 1.277226 0.039206 -0.008581 -271956.000000 1 0 0
-3.637868 -14.632569 -4.320317 15.684747 1.327122 1.849851 0.007601 -0.007001 -2775440.000000 1 0 0
-3.105468 -14.894169 -10.892217 18.711509 1.365239 2.192122 0.022823 -0.000317 9949.290000 1 0 0
-0.172368 -16.725669 6.333483 17.885489 1.560491 1.208831 0.037361 -0.012148 -1346340.000000 1 0 0
-11.251268 -11.581769 3.783783 16.584493 0.799872 1.340617 0.028838 -0.001726 268886.000000 1 0 0
-0.311068 -14.760069 -0.107117 14.763735 1.549724 1.578052 0.010267 -0.008062 28037.800000 1 0 0
-7.256568 -9.564469 -2.384117 12.240133 0.921750 1.766828 0.014844 0.000590 227332.000000 1 0 0
-11.165968 -14.435569 -0.959317 18.275250 0.912422 1.623313 0.046348 -0.011207 341723.000000 1 0 0
0.315232 -14.696769 -10.613217 18.131044 -1.549351 2.196122 0.014520 0.003756 -56460.500000 1 0 0
-1.415468 -14.153269 -3.851917 14.736208 1.471118 1.835260 0.005755 -0.004634 -3275860.000000 1 0 0
-11.476468 -8.038869 -7.601517 15.941009 0.611038 2.067867 0.025420 -0.008729 744164.000000 1 0 0
-0.229368 -17.391269 -0.146317 17.393397 1.557608 1.579209 0.023239 -0.021013 -654518.000000 1 0 0
-12.976068 -9.548469 4.530283 16.735443 0.634385 1.296676 0.023320 -0.000761 -284934.000000 1 0 0
3.889832 -16.803469 1.669383 17.328422 -1.343313 1.474309 0.021005 -0.020603 -316578.000000 1 0 0
-3.755068 -17.916469 -8.176917 20.048999 1.364199 1.990891 0.047863 -0.009864 175169.000000 1 0 0
-13.508768 -11.349669 2.702083 17.849455 0.698760 1.418830 0.020737 -0.001420 153929.000000 1 0 0
-8.611368 -12.112469 4.359783 15.487907 0.952759 1.285444 0.024289 -0.003631 262895.000000 1 0 0
-8.280968 -9.479569 -5.784417 13.852658 0.852783 2.001563 0.016438 -0.004113 169002.000000 1 0 0
3.828532 -17.277769 -5.211717 18.448332 -1.352733 1.857199 0.013635 -0.011257 -1401620.000000 1 0 0
-2.661368 -13.089769 11.313783 17.505046 1.370214 0.868050 0.011070 -0.004515 603175.000000 1 0 0
0.067532 -16.812869 -9.343117 19.234629 -1.566780 2.078011 0.025131 0.002870 -483535.000000 1 0 0
-7.027668 -10.833769 -14.609917 19.498931 0.995348 2.417752 0.021680 0.002056 -337091.000000 1 0 0
-4.694468 -18.850069 -1.449617 19.479849 1.326719 1.645281 0.045515 -0.030154 -216413.000000 1 0 0
-2.490868 -17.306369 1.363483 17.537785 1.427850 1.492972 0.028131 -0.018202 256163.000000 1 0 0
3.982632 -14.666469 -7.353217 16.883023 -1.305643 2.021433 0.013985 -0.007047 175842.000000 1 0 0
-0.962568 -15.939669 -6.089217 17.090294 1.510481 1.935098 0.015858 -0.003490 -398242.000000 1 0 0
-9.710668 -15.128569 8.473383 19.873824 1.000153 1.130333 0.048450 -0.015649 -475919.000000 1 0 0
-7.137068 -12.067369 -1.789117 14.133650 1.036698 1.697722 0.009864 0.000277 849201.000000 1 0 0
-7.485168 -15.284469 -9.253417 19.371847 1.115403 2.068801 0.041555 -0.006551 434334.000000 1 0 0
-5.062168 -13.312769 -0.636517 14.256946 1.207432 1.615457 0.006099 -0.000755 2012520.000000 1 0 0
-6.621468 -13.763869 -7.304417 16.930518 1.122402 2.016879 0.019800 -0.008666 763358.000000 1 0 0
5.676932 -15.404569 0.309883 16.420241 -1.217717 1.551923 0.016270 -0.006956 13576.600000 1 0 0
-14.589568 -12.943569 1.001883 19.529343 0.725687 1.519472 0.027790 -0.000971 956534.000000 1 0 0
0.782532 -15.235669 11.044183 18.833798 -1.519480 0.944186 0.008818 -0.005822 257654.000000 1 0 0
-9.314168 -10.737169 2.015583 14.356291 0.856247 1.429934 0.014264 0.003555 95674.200000 1 0 0
-9.371968 -8.924769 -3.587017 13.429519 0.760962 1.841178 0.018985 -0.002267 -859405.000000 1 0 0
-12.262868 -7.350369 -12.250217 18.827471 0.539979 2.279245 0.040098 -0.012981 -704204.000000 1 0 0
-13.320868 -8.480569 -0.570217 15.801605 0.566924 1.606890 0.011204 -0.002677 52268.800000 1 0 0
-11.165168 -9.684869 0.546383 14.790409 0.714520 1.533846 0.007166 0.003413 1146110.000000 1 0 0
-16.037168 -12.180369 2.952383 20.353592 0.649559 1.425228 0.048891 -0.002626 -287156.000000 1 0 0
-10.586568 -12.280669 -2.216517 16.364693 0.859347 1.706659 0.040259 -0.008991 540731.000000 1 0 0
-3.440568 -8.903369 -12.071617 15.389328 1.202039 2.472548 0.006868 0.001098 -1534840.000000 1 0 0
-0.351668 -15.621869 3.931783 16.112895 1.548289 1.324293 0.023984 -0.008697 -889947.000000 1 0 0
-15.717168 -7.799569 1.188183 17.586200 0.460639 1.503181 0.007148 -0.004279 514000.000000 1 0 0
-6.218668 -13.417269 -13.331117 19.910138 1.136787 2.304418 0.029949 -0.004481 -448972.000000 1 0 0
-15.463468 -10.428869 1.120583 18.685177 0.593351 1.510789 0.022724 -0.002602 -403490.000000 1 0 0
-9.974168 -8.413169 -12.556117 18.108603 0.700706 2.336964 0.029443 -0.004166 131528.000000 1 0 0
-13.363468 -11.860469 -6.286917 18.941444 0.725882 1.909127 0.046348 -0.002807 209202.000000 1 0 0
-12.226568 -11.492669 -3.913917 17.230471 0.754467 1.799947 0.030290 -0.003185 -1542570.000000 1 0 0
-11.689168 -10.919869 -8.875317 18.293480 0.751385 2.077346 0.032850 -0.019431 222820.000000 1 0 0
-13.191668 -8.557069 -5.809917 16.763015 0.575441 1.924731 0.020952 -0.007144 -2400820.000000 1 0 0
-13.494268 -8.209569 -3.233517 16.122900 0.546555 1.772720 0.020376 -0.004226 124249.000000 1 0 0
-4.242968 -16.946569 -3.194817 17.759387 1.325466 1.751676 0.017825 -0.022556 -3340.110000 1 0 0
-15.471768 -9.062269 -1.805917 18.021145 0.529860 1.671176 0.027119 -0.003137 -166028.000000 1 0 0
-9.438168 -15.962269 3.840783 18.937388 1.036813 1.366565 0.032803 0.001603 -1864410.000000 1 0 0
4.719532 -17.154469 8.049383 19.527989 -1.302319 1.145932 0.046004 -0.018905 650492.000000 1 0 0
-8.371368 -15.458469 6.185083 18.635968 1.074472 1.232490 0.025758 0.002023 117340.000000 1 0 0
0.828032 -15.893769 8.559183 18.070892 -1.518745 1.077372 0.015561 -0.009056 516533.000000 1 0 0
-10.830968 -7.835469 -10.152817 16.786427 0.626280 2.220340 0.028817 -0.010136 774911.000000 1 0 0
-4.834568 -16.065369 5.976383 17.809724 1.278486 1.228588 0.019506 -0.004224 -511512.000000 1 0 0
-1.251868 -13.337469 -12.212217 18.127148 1.477210 2.309997 0.015823 0.005461 -380874.000000 1 0 0
-6.509068 -14.386669 -2.528717 15.991830 1.145917 1.729588 0.015895 -0.005076 519330.000000 1 0 0
-17.706568 -6.794069 -7.331217 20.332945 0.366379 1.939663 0.054374 -0.017310 -226517.000000 1 0 0
-17.479968 -4.421269 -10.123017 20.677823 0.247738 2.082380 0.055964 -0.017029 973956.000000 1 0 0
-15.349868 -5.294169 -8.914117 18.523178 0.332124 2.072866 0.038144 -0.022271 -624491.000000 1 0 0
-16.278768 -5.352469 -5.626017 18.036055 0.317666 1.888022 0.039523 -0.007404 -771781.000000 1 0 0
-15.309868 -4.368369 -12.367717 20.160236 0.277945 2.231244 0.057429 -0.016896 119859.000000 1 0 0
-18.802168 -5.158669 -5.614117 20.289201 0.267776 1.851160 0.060486 -0.014242 -912696.000000 1 0 0
-17.448668 -4.248169 -7.664017 19.525371 0.238820 1.974162 0.043857 -0.016998 706340.000000 1 0 0
12.078332 -7.858569 8.737083 16.851701 -0.576821 1.025737 0.047170 -0.014563 199435.000000 1 0 0
16.101232 -3.304169 1.825283 16.537801 -0.202402 1.460201 0.038116 -0.004751 1017030.000000 1 0 0
12.029232 -2.293569 12.580783 17.556737 -0.188405 0.771911 0.045262 -0.010248 179536.000000 1 0 0
9.685132 -9.973669 5.277983 14.870540 -0.800074 1.207958 0.014886 -0.005112 428780.000000 1 0 0
16.878932 -1.864169 7.292583 18.481213 -0.109998 1.165170 0.077496 -0.018695 112815.000000 1 0 0
5.136632 -12.845669 9.382483 16.716076 -1.190400 0.974859 0.007838 0.003217 8435.340000 1 0 0
15.257632 -9.046469 -2.145217 17.867174 -0.535193 1.691151 0.048120 -0.014278 366124.000000 1 0 0
11.192232 -8.545169 6.490883 15.505404 -0.652080 1.138870 0.026785 -0.010314 -1804910.000000 1 0 0
20.000032 -3.032169 3.778383 20.578424 -0.150462 1.386140 0.106950 -0.013031 -166978.000000 1 0 0
13.695132 -8.570669 6.956583 17.589971 -0.559188 1.164200 0.044878 -0.012681 -1185100.000000 1 0 0
8.313732 -10.993869 9.061583 16.495320 -0.923329 0.989219 0.014327 -0.001232 -608240.000000 1 0 0
16.960832 0.136831 -0.820817 16.981234 0.008067 1.619152 0.043242 0.002067 -1166980.000000 1 0 0
12.457032 -12.352069 2.427883 17.710050 -0.781167 1.433273 0.029755 -0.011755 -1156110.000000 1 0 0
10.427032 -11.520969 3.650483 15.961884 -0.835199 1.340054 0.021228 -0.008272 -414115.000000 1 0 0
16.341532 3.017731 2.308683 16.777437 0.182609 1.432752 0.020203 -0.001953 313307.000000 1 0 0
18.355432 -3.188969 0.438683 18.635554 -0.172017 1.547254 0.071372 -0.008549 -204344.000000 1 0 0
13.594432 -11.654369 -0.165017 17.906986 -0.708711 1.580012 0.045109 -0.006196 -313087.000000 1 0 0
17.025532 -7.576369 -0.858017 18.654927 -0.418688 1.616807 0.065860 -0.012091 -194982.000000 1 0 0
10.050432 -5.660969 9.791783 15.130657 -0.512964 0.866958 0.025738 -0.009155 -204398.000000 1 0 0
11.549932 -13.136869 6.008583 18.495441 -0.849593 1.239924 0.047603 -0.016724 -654295.000000 1 0 0
13.092632 -1.743869 10.391183 16.805796 -0.132415 0.904206 0.044787 -0.010935 614833.000000 1 0 0
15.659832 -1.992769 -1.545217 15.861563 -0.126573 1.668370 0.036883 -0.000283 -653035.000000 1 0 0
10.564132 -12.354369 9.019883 18.590041 -0.863353 1.064205 0.055544 -0.021062 -617.196000 1 0 0
14.507732 1.231531 3.308583 14.931098 0.084685 1.347352 0.015285 0.001397 1603130.000000 1 0 0
15.070332 -5.698769 5.323683 16.968573 -0.361525 1.251669 0.054698 -0.012106 -973720.000000 1 0 0
14.407232 -3.361469 -3.087817 15.112989 -0.229218 1.776561 0.025402 -0.005491 652789.000000 1 0 0
14.069432 0.613631 9.622483 17.056308 0.043587 0.971381 0.056835 -0.008946 422845.000000 1 0 0
15.429732 -3.305769 4.486283 16.405227 -0.211056 1.293801 0.045144 -0.004341 -937213.000000 1 0 0
18.696232 4.812931 -4.281317 19.774809 0.251957 1.789028 0.036516 -0.010903 538066.000000 1 0 0
18.393032 -5.705169 -5.187117 19.943890 -0.300771 1.833907 0.121980 -0.018697 741839.000000 1 0 0
17.239332 0.104731 5.842483 18.202751 0.006075 1.244046 0.062608 -0.006302 500994.000000 1 0 0
17.078932 -6.547169 4.062883 18.736658 -0.366069 1.352219 0.065405 -0.017909 -91119.300000 1 0 0
9.606532 -6.546769 14.338883 18.459394 -0.598196 0.681260 0.038772 -0.011827 -314373.000000 1 0 0
8.623632 -12.290469 5.217983 15.894968 -0.958962 1.236315 0.017058 -0.007989 -1676440.000000 1 0 0
17.020632 -10.229569 -0.730617 19.871583 -0.541162 1.607572 0.066878 -0.010858 116696.000000 1 0 0
15.056332 -8.831369 0.398483 17.459811 -0.530475 1.547971 0.053944 -0.008790 414467.000000 1 0 0
9.996232 -13.004769 1.657783 16.486265 -0.915460 1.470071 0.022971 -0.010503 514230.000000 1 0 0
17.034332 -8.247469 8.829583 20.884223 -0.450902 1.134278 0.085801 -0.022395 196982.000000 1 0 0
19.196832 0.132431 -2.309617 19.335724 0.006898 1.690530 0.086937 -0.000197 -469281.000000 1 0 0
13.352132 -1.215769 7.830383 15.526507 -0.090804 1.042198 0.030205 -0.009960 319241.000000 1 0 0
12.871632 -9.783069 -3.023117 16.447692 -0.649901 1.755649 0.029727 -0.007424 -21343.100000 1 0 0
8.785332 -15.213069 1.491983 17.630812 -1.047096 1.486071 0.026568 -0.010286 1505470.000000 1 0 0
11.366432 -8.290769 11.126083 17.936621 -0.630192 0.901671 0.057903 -0.019844 92187.900000 1 0 0
14.085532 -3.954969 -0.491617 14.638500 -0.273734 1.604386 0.020748 -0.004447 77313.200000 1 0 0
7.083932 -13.144369 11.186483 18.657276 -1.076490 0.927823 0.023844 0.005449 -518726.000000 1 0 0
15.446232 -6.746169 1.916383 16.963768 -0.411782 1.457585 0.041163 -0.011232 633283.000000 1 0 0
15.862132 -5.991869 -2.449217 17.132087 -0.361177 1.714249 0.073292 -0.012778 166869.000000 1 0 0
11.256632 -8.555569 3.853883 14.654758 -0.649900 1.304688 0.022208 -0.007103 972559.000000 1 0 0
10.643632 -14.518669 -0.279917 18.004361 -0.938199 1.586344 0.036571 -0.012847 473113.000000 1 0 0
13.737632 -12.741469 4.653483 19.306022 -0.747795 1.327361 0.048762 -0.012676 441708.000000 1 0 0
12.974132 -11.060169 6.504583 18.247330 -0.705931 1.206312 0.045583 -0.012491 463279.000000 1 0 0
10.867032 -10.524169 1.397783 15.192245 -0.769371 1.478660 0.018361 -0.006732 107013.000000 1 0 0
13.840332 -7.490869 11.885883 19.721616 -0.496089 0.923937 0.074720 -0.029024 50369.900000 1 0 0
15.484832 -1.870669 -5.033117 16.389377 -0.120224 1.882937 0.047222 -0.006968 -266894.000000 1 0 0
12.962832 -11.379569 -7.055517 18.636253 -0.720448 1.959070 0.050345 -0.006709 102020.000000 1 0 0
17.775332 -5.290969 2.008683 18.654533 -0.289307 1.462909 0.081574 -0.009380 934628.000000 1 0 0
10.573832 -9.800469 9.146583 17.073813 -0.747459 1.005450 0.033505 -0.010200 -1239890.000000 1 0 0
16.471432 1.767531 10.014883 19.357948 0.106900 1.027042 0.099797 -0.014771 478326.000000 1 0 0
18.180032 3.637931 0.469083 18.546378 0.197497 1.545501 0.025119 -0.000030 734123.000000 1 0 0
13.364032 -3.931769 5.780983 15.082305 -0.286132 1.177434 0.027959 -0.009049 -1120200.000000 1 0 0
12.257332 -6.201969 6.668483 15.270078 -0.468420 1.118866 0.026899 -0.010799 -212271.000000 1 0 0
16.647932 -10.021069 3.509083 19.745611 -0.541845 1.392133 0.047518 -0.015058 -537431.000000 1 0 0
16.156332 -7.863969 -5.586117 18.816848 -0.452985 1.872207 0.078118 -0.017867 454409.000000 1 0 0
13.898932 -0.595769 5.357583 14.907681 -0.042838 1.203189 0.024494 -0.001111 524345.000000 1 0 0
18.323232 -4.151769 5.356383 19.536347 -0.222823 1.293064 0.090269 -0.010939 177440.000000 1 0 0
13.843032 -13.526869 7.133783 20.627569 -0.773847 1.217665 0.081443 -0.017333 -81115.100000 1 0 0
14.992532 -13.720369 -0.960017 20.345667 -0.741121 1.617999 0.052155 -0.002063 698656.000000 1 0 0
17.880932 -5.918769 8.059583 20.486982 -0.319658 1.166469 0.103977 -0.020424 -790578.000000 1 0 0
14.403932 3.277331 9.398983 17.508714 0.223722 1.004136 0.046808 -0.011875 -418303.000000 1 0 0
18.877332 3.842831 2.948883 19.488893 0.200824 1.418902 0.063858 -0.007721 862989.000000 1 0 0
15.042432 -10.571169 8.187783 20.126206 -0.612574 1.151824 0.060303 -0.019179 118426.000000 1 0 0
14.879132 -4.710069 10.453983 18.784544 -0.306575 0.980604 0.083082 -0.023785 214124.000000 1 0 0
17.858332 -7.833669 1.958183 19.599002 -0.413381 1.470717 0.086710 -0.012537 -154938.000000 1 0 0
18.534432 -5.660069 -2.010217 19.483391 -0.296386 1.674156 0.089157 -0.015583 606990.000000 1 0 0
14.372632 -12.789369 -5.496117 20.008693 -0.727174 1.849060 0.059110 -0.014073 -1024410.000000 1 0 0
15.427632 -1.512069 9.376183 18.116595 -0.097698 1.026815 0.098256 -0.021340 -2063040.000000 1 0 0
12.979132 -9.963269 10.119783 19.238883 -0.654694 1.016898 0.052609 -0.030708 -2095000.000000 1 0 0
16.477632 2.312831 4.805283 17.319131 0.139451 1.289652 0.039829 -0.005975 -519285.000000 1 0 0
15.112532 2.453831 -0.109117 15.310840 0.160966 1.577923 0.010132 0.004356 -1319970.000000 1 0 0
15.060632 -9.758269 -6.988817 19.258505 -0.574920 1.942169 0.068770 -0.015449 379362.000000 1 0 0
16.038132 0.030431 -3.347917 16.383869 0.001897 1.776588 0.034184 -0.001413 40365.400000 1 0 0
11.681732 2.652331 13.640783 18.154027 0.223264 0.720628 0.047288 -0.009939 -148979.000000 1 0 0
17.640832 -2.831669 9.588183 20.276848 -0.159160 1.078258 0.093351 -0.023455 24823.700000 1 0 0
7.665432 -18.186869 4.713683 20.291374 -1.171909 1.336355 0.046431 -0.017709 -227850.000000 1 0 0
6.834432 -11.205769 6.820283 14.791720 -1.023127 1.091576 0.009324 -0.003880 637508.000000 1 0 0
18.038032 2.227231 -1.666617 18.251268 0.122852 1.662239 0.043906 -0.000499 367157.000000 1 0 0
17.607332 -2.215369 3.660283 18.119704 -0.125163 1.367391 0.042797 -0.001857 -2242750.000000 1 0 0
12.592532 -13.397269 -1.887917 18.483044 -0.816352 1.673118 0.035517 -0.004673 338500.000000 1 0 0
15.029132 -8.129169 4.393383 17.642563 -0.495825 1.319126 0.048291 -0.011202 -58561.300000 1 0 0
12.071232 -3.070669 14.951383 19.459895 -0.249096 0.694588 0.054963 -0.018882 -133076.000000 1 0 0
12.045132 -13.708369 -6.301617 19.305827 -0.849892 1.903299 0.029850 -0.018123 426793.000000 1 0 0
10.705732 -12.048769 -1.060617 16.152722 -0.844353 1.636505 0.024831 -0.008390 -961076.000000 1 0 0
13.193432 -8.023669 1.977883 15.567850 -0.546395 1.443403 0.036294 -0.004065 -305495.000000 1 0 0
8.726832 -7.860469 10.092383 15.485502 -0.733215 0.860932 0.018753 -0.004362 -924745.000000 1 0 0
15.704132 -3.838269 8.152383 18.105619 -0.239712 1.103731 0.082118 -0.023947 -496024.000000 1 0 0
10.019332 -17.282269 5.551983 20.733749 -1.045402 1.299713 0.051759 -0.016568 1107980.000000 1 0 0
15.342732 -6.392969 8.455283 18.648359 -0.394800 1.100213 0.069936 -0.009623 -176833.000000 1 0 0
16.701032 -5.003869 -0.318317 17.437446 -0.291103 1.589052 0.058716 -0.006506 -899703.000000 1 0 0
14.082632 -10.403769 3.410683 17.837929 -0.636272 1.378408 0.041041 -0.014070 436828.000000 1 0 0
15.041932 -9.970669 -4.512617 18.602088 -0.585361 1.815827 0.063073 -0.017852 555693.000000 1 0 0
13.785632 -6.531169 -0.086717 15.254748 -0.442441 1.576481 0.032383 -0.004683 14097.300000 1 0 0
17.919632 -0.742769 -4.963717 18.609229 -0.041426 1.840799 0.087076 -0.014856 214829.000000 1 0 0
14.530832 0.245231 -1.596317 14.620310 0.016875 1.680199 0.015979 0.000970 -3742870.000000 1 0 0
4.747432 -12.660069 11.972683 18.059917 -1.212032 0.846054 0.001291 0.000504 -865599.000000 1 0 0
11.911132 -7.485869 13.535383 19.522293 -0.561095 0.804697 0.064381 -0.021530 1281.280000 1 0 0
11.972632 -5.761069 11.624483 17.653964 -0.448484 0.852022 0.042832 -0.014414 -332106.000000 1 0 0
13.316532 -4.644669 8.362283 16.396059 -0.335596 1.035591 0.040897 -0.015526 973816.000000 1 0 0
15.421932 -1.095669 3.162083 15.780851 -0.070927 1.369056 0.032689 0.002092 169210.000000 1 0 0
15.307232 -10.252869 5.778383 19.308609 -0.590173 1.266874 0.055169 -0.017502 -54905.800000 1 0 0
13.559732 -8.030769 -5.693717 16.756431 -0.534702 1.917493 0.050271 -0.012646 -1352900.000000 1 0 0
9.768832 -2.474669 13.985083 17.237651 -0.248104 0.624406 0.023567 0.003331 -399248.000000 1 0 0
9.751632 -9.084069 13.742183 19.143204 -0.749972 0.770070 0.068208 -0.014786 -38106.100000 1 0 0
20.413232 6.289831 -2.963717 21.564917 0.298894 1.708665 0.111161 -0.017717 370499.000000 1 0 0
11.167232 -3.543069 10.526783 15.750352 -0.307228 0.838805 0.019307 -0.007961 668861.000000 1 0 0
10.179232 -13.974769 -2.798717 17.514101 -0.941263 1.731282 0.027244 -0.004927 144898.000000 1 0 0
14.981832 -12.583969 2.517483 19.726867 -0.698630 1.442830 0.048727 -0.010339 352425.000000 1 0 0
11.427032 -0.514869 14.420683 18.406473 -0.045027 0.670587 0.046729 -0.013625 230047.000000 1 0 0
19.040032 -1.756469 5.850683 19.995962 -0.091991 1.273859 0.109942 -0.009524 519753.000000 1 0 0
18.838132 -0.253869 7.945183 20.446653 -0.013476 1.171705 0.102020 -0.018464 134213.000000 1 0 0
19.247332 0.772931 0.174283 19.263634 0.040136 1.561749 0.089330 -0.006059 -455577.000000 1 0 0
18.346332 0.875731 3.679083 18.732071 0.047697 1.373106 0.046957 -0.004833 -207291.000000 1 0 0
16.735732 -3.995769 -4.213917 17.714627 -0.234369 1.810977 0.079217 -0.015293 -927584.000000 1 0 0
11.002132 -8.160769 15.832883 20.936219 -0.638196 0.713243 0.099707 -0.023110 371690.000000 1 0 0
16.539932 -7.509669 6.454083 19.277440 -0.426202 1.229404 0.062629 -0.014012 128119.000000 1 0 0
18.862032 2.221031 5.908183 19.890095 0.117212 1.269204 0.075512 -0.013018 545211.000000 1 0 0
15.431632 1.621731 7.685683 17.315745 0.104707 1.110900 0.064849 -0.014117 306058.000000 1 0 0
8.666532 -15.848969 3.890583 18.477966 -1.070398 1.358656 0.028614 -0.011335 558740.000000 1 0 0
11.427132 -15.134069 2.230883 19.094403 -0.924065 1.453694 0.038434 -0.005826 578836.000000 1 0 0
7.824832 -16.088269 6.259283 18.953602 -1.118113 1.234236 0.034612 -0.014005 -486123.000000 1 0 0
14.604332 -11.690669 -2.526917 18.877065 -0.675042 1.705061 0.049427 -0.006339 761450.000000 1 0 0
13.759232 -4.801769 3.248383 14.930688 -0.335771 1.351478 0.026756 -0.003437 -934461.000000 1 0 0
-1.043268 10.282531 -5.640717 11.774402 -1.469682 2.070387 0.004369 -0.002112 -812857.000000 1 0 0
8.336532 -1.775369 -7.937317 11.646918 -0.209828 2.320600 -0.000250 -0.003306 -1764210.000000 1 0 0
2.990132 -10.308769 7.689283 13.203662 -1.288486 0.949168 0.005766 -0.001138 912223.000000 1 0 0
-6.321768 1.343831 8.278483 10.502567 -0.209454 0.662862 0.001416 0.000598 -187235.000000 1 0 0
7.346532 -6.168569 -7.238917 12.017682 -0.698459 2.217245 -0.001744 -0.003339 -339276.000000 1 0 0
-11.483768 -4.555069 -4.069017 13.007016 0.377618 1.888970 0.008143 -0.000644 -67223.500000 1 0 0
2.012732 -3.239769 2.934283 4.812194 -1.014892 0.915039 0.004311 0.001411 954110.000000 1 0 0
-3.646168 -4.239969 8.848183 10.467198 0.860553 0.563623 0.002269 -0.002098 -2492750.000000 1 0 0
-5.012668 -1.088769 -2.441317 5.680870 0.213881 2.015005 0.008491 -0.004340 -694324.000000 1 0 0
4.972232 -5.182269 -3.713717 8.085215 -0.806079 2.048028 0.003231 -0.002109 369897.000000 1 0 0
2.808632 14.358531 -8.809417 17.078104 1.377628 2.112774 0.014605 -0.012769 249342.000000 1 0 0
5.362932 -5.306269 13.722083 15.659282 -0.780087 0.502688 0.012191 -0.006394 -859964.000000 1 0 0
-4.792268 -0.851369 9.791483 10.934524 0.175820 0.461322 0.003676 0.002005 -2228670.000000 1 0 0
-0.843468 11.948431 -2.824617 12.306702 -1.500321 1.802379 0.004688 -0.002394 3170.750000 1 0 0
3.136932 9.354731 -10.493517 14.403653 1.247249 2.386972 0.002909 -0.006407 -397303.000000 1 0 0
-10.722968 2.603431 1.027483 11.082221 -0.238182 1.477948 0.004497 -0.002777 153841.000000 1 0 0
5.646932 -8.991369 -0.741717 10.643435 -1.010014 1.640541 0.001196 -0.001072 1086140.000000 1 0 0
-6.949768 5.478931 9.391883 12.904473 -0.667604 0.755687 0.004438 -0.002250 -147961.000000 1 0 0
-5.577468 -1.845469 5.056383 7.751188 0.319540 0.860133 0.004110 -0.002433 566453.000000 1 0 0
6.564932 -3.816469 -7.316517 10.544913 -0.526587 2.337609 -0.000487 -0.004347 380510.000000 1 0 0
6.227732 4.819331 11.035283 13.556846 0.658591 0.619789 0.000666 -0.005723 541066.000000 1 0 0
3.762732 -9.936269 3.151583 11.082422 -1.208797 1.282440 -0.000347 0.000016 1452410.000000 1 0 0
-6.619668 6.644931 -5.876217 11.068199 -0.787303 2.130470 0.000705 -0.003347 82438.600000 1 0 0
-11.051468 8.516531 5.278383 14.917358 -0.656571 1.209121 0.003088 -0.008006 -27681.100000 1 0 0
-9.254468 -5.480669 5.084083 11.896672 0.534678 1.129233 0.006031 -0.000849 -554039.000000 1 0 0
3.496032 9.789631 -8.011917 13.124402 1.227796 2.227437 0.004489 -0.006953 791685.000000 1 0 0
-8.232668 -8.522669 6.047083 13.303380 0.802704 1.098927 0.008884 -0.000178 -2341180.000000 1 0 0
-7.745868 -5.658569 -7.590117 12.232242 0.630922 2.240178 0.019139 -0.008044 786036.000000 1 0 0
9.130632 -1.692969 6.934883 11.589961 -0.183334 0.929353 0.009896 -0.001404 2471350.000000 1 0 0
-4.176768 -0.446769 -4.935517 6.481074 0.106560 2.436463 0.018540 -0.010406 -101873.000000 1 0 0
9.030232 1.104131 -4.471217 10.136862 0.121667 2.027603 0.003312 -0.002736 -3332290.000000 1 0 0
-2.179168 -10.641769 10.631683 15.199629 1.368814 0.796141 0.008696 -0.005912 206472.000000 1 0 0
-13.082168 0.296031 -2.740417 13.369392 -0.022625 1.777236 0.004917 -0.003925 -721312.000000 1 0 0
-9.849668 -5.215469 -6.049617 12.681283 0.486974 2.068092 0.015580 -0.004365 -73034.100000 1 0 0
-5.590068 8.293931 -0.214217 10.004201 -0.977737 1.592211 0.000087 0.000074 777236.000000 1 0 0
6.266732 9.567331 0.340883 11.442113 0.990905 1.541000 0.008939 -0.003950 739817.000000 1 0 0
-0.612968 -12.149969 -0.035817 12.165474 1.520389 1.573740 0.010239 -0.001746 -256002.000000 1 0 0
6.230832 4.722831 2.384783 8.174081 0.648587 1.274741 0.001961 -0.000940 192982.000000 1 0 0
3.487532 -7.517669 -8.324917 11.746594 -1.136434 2.358463 -0.002963 -0.003560 882581.000000 1 0 0
-6.659268 -9.832269 4.563283 12.721750 0.975477 1.203922 0.012520 0.001034 -2036740.000000 1 0 0
0.049132 6.572231 -9.239917 11.338990 1.563321 2.523319 0.007494 -0.007113 -1374030.000000 1 0 0
-17.347068 -2.704369 4.317783 18.079757 0.154653 1.329647 0.050495 -0.013227 65535.800000 1 0 0
-8.410368 0.882531 -9.196517 12.493561 -0.104551 2.398087 0.007684 -0.007887 321291.000000 1 0 0
-10.072568 -5.912869 -11.865417 16.649527 0.530826 2.364076 0.023575 -0.005264 561584.000000 1 0 0
2.113732 9.576431 6.339283 11.677432 1.353557 0.996950 0.004166 0.002384 -80977.800000 1 0 0
-11.459768 1.598531 -1.259317 11.639049 -0.138596 1.679206 0.004438 -0.003559 -1884840.000000 1 0 0
-5.948168 -5.327169 -3.124217 8.574390 0.730378 1.943748 0.020899 -0.004142 339321.000000 1 0 0
-6.919268 -8.270769 1.412683 10.875549 0.874137 1.440533 0.015209 -0.000970 -411357.000000 1 0 0
0.098132 11.117031 -7.866317 13.618992 1.561969 2.186581 0.007429 -0.003331 616218.000000 1 0 0
-2.931068 9.318931 -4.228517 10.644904 -1.266065 1.979297 0.007483 -0.003403 -91445.100000 1 0 0
3.406432 -4.893969 9.357083 11.095482 -0.962728 0.567358 0.003698 -0.001270 -598030.000000 1 0 0
-9.085468 1.563731 -0.567917 9.236531 -0.170444 1.632321 0.002125 -0.002587 -1994780.000000 1 0 0
2.412132 3.600231 -10.238817 11.118157 0.980494 2.741204 0.009808 -0.006220 -1090790.000000 1 0 0
-13.723468 0.446031 1.216783 13.784523 -0.032490 1.482410 0.010636 -0.004763 -675499.000000 1 0 0
9.361732 -12.484069 -4.893117 16.353489 -0.927363 1.874660 0.027283 -0.007070 -1723430.000000 1 0 0
-4.656568 9.418531 -8.415017 13.461235 -1.111635 2.246094 0.001389 -0.001903 -1707040.000000 1 0 0
-2.351068 7.235731 8.346483 11.293676 -1.256633 0.739151 0.004474 -0.001923 -467464.000000 1 0 0
-10.831868 -1.430169 -4.491017 11.812873 0.131274 1.960787 0.008692 -0.004363 -2960090.000000 1 0 0
2.696432 -7.164369 9.755283 12.400181 -1.210828 0.665343 0.000594 -0.001601 -974722.000000 1 0 0
-16.251868 -6.475169 3.335183 17.809393 0.379149 1.382413 0.027697 -0.009266 233128.000000 1 0 0
-10.907068 0.001031 6.098183 12.496078 -0.000095 1.060990 0.005238 -0.003949 -967098.000000 1 0 0
-8.430068 10.011731 9.377583 16.100928 -0.870954 0.949088 0.007666 -0.006217 -26640.000000 1 0 0
0.172132 -6.172469 -3.811217 7.256333 -1.542916 2.123777 0.003706 0.000757 947525.000000 1 0 0
4.949532 1.541531 -3.011317 5.995183 0.301928 2.097041 0.000598 -0.003283 -451415.000000 1 0 0
0.383332 5.424231 3.633483 6.539987 1.500243 0.981736 -0.000495 0.000838 -1914960.000000 1 0 0
6.060632 -11.310269 -1.477717 12.916543 -1.078880 1.685452 0.001032 -0.004092 -1338150.000000 1 0 0
6.283032 -13.365569 5.433783 15.736611 -1.131361 1.218243 0.015491 -0.006124 194881.000000 1 0 0
8.155132 -8.172269 -5.929217 12.978743 -0.786448 2.045237 0.000761 -0.003353 573385.000000 1 0 0
-13.285668 -1.416669 -4.636617 14.142635 0.106230 1.904820 0.005894 -0.000832 -3113890.000000 1 0 0
-6.888168 -1.531369 -7.110917 10.017838 0.218761 2.360047 0.016606 -0.008881 -653033.000000 1 0 0
-5.706868 12.815731 -4.662217 14.783354 -1.151856 1.891642 0.004749 0.000228 791651.000000 1 0 0
-4.300568 6.796331 -6.807217 10.536755 -1.006623 2.273188 0.007328 -0.003982 -3227590.000000 1 0 0
-9.499668 -3.685569 -8.125717 13.032819 0.370091 2.243984 0.014683 -0.005005 668714.000000 1 0 0
-2.166468 -6.315469 9.030383 11.230608 1.240334 0.636659 0.008199 -0.002464 -112907.000000 1 0 0
7.420232 -5.975269 10.049083 13.847302 -0.677944 0.758735 0.011369 -0.003527 -272574.000000 1 0 0
9.603032 -4.920369 12.226883 16.307205 -0.473500 0.723061 0.023647 -0.004613 -59316.500000 1 0 0
-6.532368 2.782531 -9.103717 11.545214 -0.402684 2.479207 0.006859 -0.009527 -219067.000000 1 0 0
7.543532 5.471531 8.889183 12.878669 0.627523 0.808996 -0.001517 -0.001014 -664811.000000 1 0 0
12.656632 3.428231 11.193983 17.240892 0.264517 0.864173 0.037125 -0.004669 318696.000000 1 0 0
-7.417868 -7.338169 -3.885317 11.134144 0.779997 1.927252 0.018380 -0.005131 -1348800.000000 1 0 0
2.295332 1.424131 -5.637317 6.251083 0.555318 2.694746 0.006115 -0.007497 364162.000000 1 0 0
12.878632 6.922031 -7.234117 16.312760 0.493182 2.030256 0.015849 -0.004817 674597.000000 1 0 0
0.841132 -7.768069 0.964983 7.872839 -1.462936 1.447916 0.002121 0.001601 315525.000000 1 0 0
-10.268968 -6.025669 -8.529117 14.646031 0.530645 2.192413 0.019694 -0.006210 538371.000000 1 0 0
-6.666168 0.185031 2.970783 7.300519 -0.027750 1.151708 0.003382 -0.004433 -551335.000000 1 0 0
10.704132 -7.892169 1.340283 13.366418 -0.635324 1.470355 0.014007 -0.004828 -386771.000000 1 0 0
6.175832 1.205031 10.475883 12.220357 0.192699 0.540894 0.001021 -0.000326 -605882.000000 1 0 0
-12.900168 5.295231 1.956183 14.081209 -0.389506 1.431424 0.011075 -0.003924 136102.000000 1 0 0
2.127632 7.439431 3.649683 8.555241 1.292238 1.130064 -0.002088 -0.000634 -50348.400000 1 0 0
10.211732 -9.457569 -0.761217 13.939316 -0.747075 1.625433 0.010209 -0.004292 715713.000000 1 0 0
6.820032 -11.697169 -9.036217 16.278508 -1.042933 2.159281 -0.000741 -0.002678 -256621.000000 1 0 0
10.171732 3.655331 11.782383 15.989063 0.344990 0.742319 0.000034 -0.003338 -1265540.000000 1 0 0
-11.125768 -3.166969 -1.947917 11.730592 0.277317 1.737624 0.006164 -0.001574 -1095590.000000 1 0 0
12.394632 1.021531 6.852283 14.199444 0.082231 1.067205 0.010215 -0.004330 283056.000000 1 0 0
-9.530068 9.091531 3.064183 13.522845 -0.761853 1.342218 0.000369 -0.006005 1901690.000000 1 0 0
-6.520768 7.603431 -8.853717 13.368653 -0.861902 2.294647 -0.004580 -0.004758 -540206.000000 1 0 0
8.487432 5.621731 11.951683 15.699780 0.585015 0.705536 0.006197 -0.002499 -1916850.000000 1 0 0
1.333932 4.914931 -2.761917 5.793454 1.305776 2.067728 0.005686 -0.006767 157825.000000 1 0 0
1.272432 0.558531 9.486183 9.587425 0.413625 0.145454 0.001547 -0.001388 1044050.000000 1 0 0
2.533632 12.575631 -3.882717 13.403032 1.371986 1.864699 0.009720 -0.005440 455147.000000 1 0 0
2.041532 0.633531 12.967083 13.142088 0.300899 0.163377 0.004755 -0.007743 -542491.000000 1 0 0
-12.251968 -1.797869 0.836983 12.411430 0.145701 1.503309 0.002500 -0.003516 25945.400000 1 0 0
3.365932 8.726531 -1.269417 9.438923 1.202667 1.705693 0.007498 -0.006039 -131605.000000 1 0 0
3.782232 -2.852969 -5.728817 7.433980 -0.646253 2.450619 0.002202 -0.004154 -1434570.000000 1 0 0
-7.868768 -7.187369 9.262083 14.119560 0.740172 0.855322 0.009633 -0.001374 304915.000000 1 0 0
-7.091468 10.891531 -3.344417 13.420115 -0.993649 1.822660 0.006490 0.002105 1195580.000000 1 0 0
0.354832 0.493331 2.449383 2.523640 0.947262 0.243187 0.000781 0.001885 -1183290.000000 1 0 0
-7.035668 4.530031 -2.019717 8.608197 -0.572051 1.807631 0.004960 -0.002778 -361523.000000 1 0 0
-6.938968 -3.933569 -5.889017 9.914775 0.515711 2.206773 0.016726 -0.006702 61992.100000 1 0 0
2.916532 -6.071469 13.480483 15.069583 -1.122978 0.463375 0.003975 -0.004678 -716253.000000 1 0 0
-5.580868 -0.563469 -11.726017 12.998579 0.100623 2.695408 0.018111 -0.012447 -1054540.000000 1 0 0
11.962532 2.429431 -0.766217 12.230756 0.200362 1.633484 0.003934 -0.000498 -1038620.000000 1 0 0
6.055032 -10.818669 10.912783 16.516533 -1.060549 0.849020 0.002557 -0.001536 294474.000000 1 0 0
-8.138768 6.382131 -10.463217 14.712241 -0.665010 2.361988 -0.005944 -0.010466 -19961.100000 1 0 0
2.892432 7.905831 11.076883 13.912788 1.220062 0.649865 0.010550 -0.005571 758312.000000 1 0 0
-6.134068 -10.134269 -0.328317 11.850653 1.026504 1.598504 0.016308 0.001135 286650.000000 1 0 0
11.267832 4.285331 6.007683 13.469238 0.363423 1.108472 0.003182 -0.001184 129287.000000 1 0 0
-7.918168 10.669231 1.342383 13.354095 -0.932338 1.470104 -0.001618 -0.001480 407457.000000 1 0 0
4.452432 -2.655769 -3.474817 6.241123 -0.537824 2.161278 0.005466 -0.004698 -4920340.000000 1 0 0
6.414732 6.448031 6.323583 11.077617 0.787987 0.963264 0.001046 -0.001665 -6265840.000000 1 0 0
-0.411368 10.309231 -10.262317 14.552134 -1.530915 2.353516 0.004239 -0.004319 -675521.000000 1 0 0
14.017732 6.459831 -2.455917 15.628748 0.431826 1.728591 0.014714 -0.001603 639578.000000 1 0 0
1.512932 9.575731 -6.338517 11.582762 1.414095 2.149856 0.006582 -0.005185 -715892.000000 1 0 0
0.693332 7.442031 7.230483 10.399251 1.477900 0.801975 0.000419 0.000139 -74838.200000 1 0 0
12.230532 6.287731 1.874683 13.879334 0.474865 1.435312 0.005527 -0.000476 -2136240.000000 1 0 0
-6.759168 6.632531 -3.161217 9.983492 -0.775942 1.892986 -0.000280 -0.003070 677762.000000 1 0 0
1.117332 9.917031 11.036183 14.879290 1.458601 0.735174 0.014909 -0.005866 -752668.000000 1 0 0
-3.606768 13.676131 -10.949417 17.886729 -1.312940 2.229577 0.008698 -0.005903 -129179.000000 1 0 0
-10.173368 -5.593169 -2.264617 11.828332 0.502678 1.763443 0.009174 -0.000739 -500575.000000 1 0 0
-3.997668 3.826831 -12.453117 13.627402 -0.763568 2.723411 0.007748 -0.014649 -935817.000000 1 0 0
-3.190168 8.374731 2.345983 9.263743 -1.206839 1.314765 0.003015 -0.000561 -2598030.000000 1 0 0
7.099532 8.898731 7.054283 13.392300 0.897390 1.016033 0.007645 0.000281 -1837060.000000 1 0 0
-1.363268 -2.220969 -8.091217 8.500529 1.020279 2.830007 0.014043 -0.009545 -660077.000000 1 0 0
0.774332 -1.277069 4.776383 5.004431 -1.025731 0.303050 0.002943 0.000173 -567659.000000 1 0 0
2.799232 -8.809669 -6.148817 11.101978 -1.263140 2.157776 -0.005269 -0.000693 610982.000000 1 0 0
5.413232 4.008031 8.684783 10.990580 0.637338 0.659657 -0.001642 -0.001447 1398740.000000 1 0 0
5.927732 -7.576769 -2.893417 10.045760 -0.906907 1.862959 -0.001187 -0.003160 623432.000000 1 0 0
1.880932 2.340631 -8.136917 8.673285 0.893864 2.788069 0.008415 -0.008417 -7128.770000 1 0 0
-5.473668 10.976231 -0.722817 12.286625 -1.108202 1.629660 0.000591 -0.000800 1182010.000000 1 0 0
-5.366368 3.245231 -3.383417 7.125794 -0.543894 2.065547 0.007785 -0.003621 -8710.960000 1 0 0
2.092132 13.799031 -6.283417 15.305934 1.420328 1.993822 0.003415 -0.006412 498048.000000 1 0 0
-5.356268 -2.566269 2.542283 6.460538 0.446801 1.166350 0.000114 -0.002743 574920.000000 1 0 0
10.539932 -3.358069 -1.864017 11.217903 -0.308436 1.737735 0.008316 -0.002848 225949.000000 1 0 0
2.241432 -3.389369 7.087483 8.169716 -0.986510 0.520579 0.001014 0.000816 -1603220.000000 1 0 0
-2.899068 9.879931 -11.685817 15.574850 -1.285378 2.419313 0.005771 -0.006553 -2495910.000000 1 0 0
0.534632 -2.041369 9.250783 9.488415 -1.314650 0.224275 0.002400 -0.000272 1223230.000000 1 0 0
9.420732 2.732531 4.959983 10.991740 0.282308 1.102635 0.004594 -0.000142 -375265.000000 1 0 0
13.448632 1.959931 -5.150917 14.534063 0.144716 1.933072 0.013017 -0.002868 -1972290.000000 1 0 0
-6.458968 3.816431 7.606683 10.683868 -0.533682 0.778485 0.002098 -0.001897 374779.000000 1 0 0
10.691832 0.042831 1.841983 10.849425 0.004006 1.400193 0.006613 0.001776 1044550.000000 1 0 0
15.393532 6.463031 -4.644717 17.329310 0.397504 1.842140 0.028119 -0.008191 -12114.000000 1 0 0
7.995632 -4.927569 -9.369317 13.266317 -0.552306 2.354981 0.001394 -0.003933 1234320.000000 1 0 0
4.524232 5.607531 -2.196317 7.532389 0.891915 1.866678 0.002335 -0.005893 -13527.000000 1 0 0
-1.646968 -10.501469 1.506483 10.736053 1.415231 1.430012 0.010593 -0.000312 -891540.000000 1 0 0
-2.933568 12.245131 -12.994017 18.094019 -1.335658 2.371920 0.012292 -0.009668 -438661.000000 1 0 0
8.451732 4.247931 -9.673517 13.529731 0.465734 2.367395 0.005059 -0.000883 -2270060.000000 1 0 0
4.194832 7.532831 -8.968017 12.440478 1.062691 2.375859 0.003471 -0.006162 -1079190.000000 1 0 0
-1.786168 -5.057669 -2.449217 5.896531 1.231309 1.999141 0.011567 -0.001875 -271104.000000 1 0 0
-3.326068 -9.189769 7.004083 12.023800 1.223532 0.948973 0.009976 -0.003883 309454.000000 1 0 0
1.204632 7.267131 -1.480317 7.513566 1.406526 1.769113 0.005490 -0.006205 96033.500000 1 0 0
0.370432 -0.712869 -2.308217 2.444027 -1.091564 2.806658 0.010110 -0.002731 -1981170.000000 1 0 0
4.200332 -6.801169 7.701183 11.099861 -1.017543 0.804032 0.001995 -0.000575 -395653.000000 1 0 0
-14.045468 3.891731 6.015683 15.767345 -0.270300 1.179348 0.013753 -0.008089 -360586.000000 1 0 0
4.358932 6.495031 12.518583 14.761458 0.979718 0.558485 0.011706 -0.006829 -1709260.000000 1 0 0
8.336332 10.027131 -7.156717 14.874689 0.877213 2.072744 0.023247 -0.009051 -32217.400000 1 0 0
12.561832 5.314931 9.478183 16.609759 0.400262 0.963512 0.019166 -0.004659 1047440.000000 1 0 0
7.567032 3.994831 0.307083 8.562298 0.485738 1.534924 0.002428 0.001611 -874099.000000 1 0 0
-10.918368 -7.586869 -0.963917 13.330434 0.607276 1.643169 0.012592 -0.001286 -2142230.000000 1 0 0
10.538232 6.784831 0.164183 12.534561 0.572026 1.557697 0.001580 -0.000317 -996214.000000 1 0 0
14.531532 3.629631 4.028983 15.510395 0.244768 1.308022 0.017532 -0.002571 506453.000000 1 0 0
2.151132 5.619031 8.267883 10.225399 1.205179 0.629090 -0.001527 -0.001013 928086.000000 1 0 0
4.279632 0.289931 11.815383 12.569908 0.067643 0.348243 0.003342 -0.000716 -2009010.000000 1 0 0
-1.418068 -1.636169 -0.679217 2.269207 0.856687 1.874775 0.010365 -0.006143 -943785.000000 1 0 0
3.207332 -5.189369 -9.422817 11.225240 -1.017204 2.567032 -0.003332 -0.001608 555427.000000 1 0 0
-4.084968 -5.337769 -1.388017 6.863332 0.917578 1.774437 0.011174 -0.004109 -565626.000000 1 0 0
-1.323168 -8.746169 8.611483 12.345197 1.420649 0.798813 0.009762 -0.004670 -89652.400000 1 0 0
3.989932 8.600631 -5.965917 11.201901 1.136434 2.132443 0.006408 -0.005664 368025.000000 1 0 0
-14.362568 -1.758469 -2.604217 14.702296 0.121828 1.748866 0.005282 -0.002385 -901013.000000 1 0 0
8.800132 -10.521569 -6.540717 15.196273 -0.874257 2.015750 -0.000869 -0.003401 353588.000000 1 0 0
14.801932 6.127431 1.632283 16.103011 0.392484 1.469257 0.004774 -0.000889 -1995510.000000 1 0 0
-5.872468 0.326731 -8.599117 10.418130 -0.055580 2.541705 0.015771 -0.012464 -234211.000000 1 0 0
-8.046568 -4.617169 -12.930517 15.914263 0.520936 2.519243 0.019461 -0.007986 782681.000000 1 0 0
0.872632 -10.634169 12.162383 16.179326 -1.488920 0.720124 -0.005210 -0.001850 -243181.000000 1 0 0
0.239532 11.622531 3.248383 12.070319 1.550190 1.298315 0.004242 0.000306 152172.000000 1 0 0
5.138732 -13.273069 -3.629617 14.688603 -1.201412 1.820487 0.008815 -0.005292 898665.000000 1 0 0
-7.586968 1.499431 -7.036117 10.455492 -0.195118 2.308998 0.007059 -0.005866 823288.000000 1 0 0
1.492832 2.772531 4.001183 5.091654 1.076874 0.666757 -0.002515 0.003114 -1437550.000000 1 0 0
17.223732 5.474631 1.897783 18.172235 0.307755 1.466172 0.020653 -0.010146 -19206.100000 1 0 0
2.527632 -8.397269 -3.645917 9.497145 -1.278416 1.964808 -0.002180 0.000738 354259.000000 1 0 0
-0.099168 -9.527169 -0.463417 9.538948 1.560388 1.619397 0.009630 0.002114 -690004.000000 1 0 0
0.839532 11.845831 -5.538717 13.103660 1.500043 2.007202 0.007350 -0.003979 -1264890.000000 1 0 0
6.083132 -5.048769 7.814583 11.115857 -0.692745 0.791172 0.004674 0.000070 -904664.000000 1 0 0
-6.010668 -1.951469 -9.453117 11.370918 0.313931 2.552314 0.020108 -0.011115 -198759.000000 1 0 0
2.148632 -1.194269 11.143083 11.411012 -0.507306 0.217128 -0.000955 -0.001320 332394.000000 1 0 0
18.037332 2.253331 -5.928117 19.119765 0.124282 1.886044 0.060179 -0.009771 -242413.000000 1 0 0
-8.944968 4.897831 7.807983 12.843901 -0.500961 0.917366 0.004834 -0.007356 -1015620.000000 1 0 0
11.346432 -7.043869 -4.806817 14.193770 -0.555574 1.916285 0.017086 -0.010820 -189782.000000 1 0 0
10.851332 0.536631 8.974383 14.091804 0.049413 0.880389 0.002225 0.001550 141409.000000 1 0 0
-8.521468 -7.406769 -1.562617 11.398132 0.715530 1.708324 0.015026 -0.003477 -1133770.000000 1 0 0
10.371332 -10.476469 -3.155617 15.075770 -0.790441 1.781673 0.017591 -0.005863 -197225.000000 1 0 0
7.650432 -13.876469 -3.678317 16.267007 -1.066937 1.798890 0.015662 -0.008792 -2191800.000000 1 0 0
1.718332 -1.207869 -11.572517 11.761580 -0.612690 2.962049 0.011237 -0.006421 -64531.100000 1 0 0
-11.898268 -2.589269 -6.441317 13.775473 0.214276 2.057362 0.010980 -0.002689 -132263.000000 1 0 0
2.759832 -12.181269 -6.378517 14.024459 -1.347994 2.042959 -0.001244 0.000212 218160.000000 1 0 0
-5.401168 1.376231 0.980183 5.659274 -0.249494 1.396719 0.002333 -0.003694 426877.000000 1 0 0
0.170032 6.871331 -3.996317 7.950764 1.546056 2.097438 0.010922 -0.007379 818841.000000 1 0 0
5.556132 -11.786969 3.665483 13.536580 -1.130306 1.296589 0.003406 -0.003654 -2035020.000000 1 0 0
-4.368968 -9.282069 1.148683 10.322992 1.130871 1.459291 0.014534 -0.000050 -1825240.000000 1 0 0
7.131932 -6.131269 -4.646917 10.490508 -0.710094 2.029698 0.001863 -0.003701 -711673.000000 1 0 0
-6.969268 -5.944369 2.221183 9.425490 0.706199 1.332902 0.011469 -0.003834 -768597.000000 1 0 0
-6.292968 -0.817969 7.023883 9.466016 0.129257 0.734732 0.001750 -0.000611 -36610.400000 1 0 0
4.195132 -5.020569 3.192383 7.279874 -0.874728 1.116843 0.000438 0.000944 105558.000000 1 0 0
-2.367968 10.507231 -8.692517 13.840846 -1.349134 2.249820 0.003286 -0.003294 -86729.700000 1 0 0
-2.369568 -4.912169 2.771183 6.117492 1.121338 1.100676 0.003742 -0.001602 -122067.000000 1 0 0
15.149032 4.991331 6.320383 17.156742 0.318280 1.193519 0.028531 -0.011560 285777.000000 1 0 0
6.865532 0.409631 0.056683 6.877975 0.059594 1.562555 0.008566 -0.001503 3546870.000000 1 0 0
-9.724968 9.165131 0.427883 13.370030 -0.755770 1.538788 0.002341 -0.002591 -2346370.000000 1 0 0
7.273332 10.585331 -2.681417 13.120236 0.968771 1.776619 0.002668 -0.000100 -937869.000000 1 0 0
1.678332 -4.264869 -5.359717 7.052125 -1.195884 2.434132 0.003932 -0.003162 871261.000000 1 0 0
0.871632 -8.252669 -7.877217 11.441889 -1.465568 2.330152 -0.000247 -0.000403 467491.000000 1 0 0
-10.526468 0.179631 -10.505117 14.872668 -0.017063 2.355107 0.013289 -0.007648 -4298420.000000 1 0 0
5.778032 -2.389869 0.462583 6.269858 -0.392186 1.496950 0.006881 -0.001928 116916.000000 1 0 0
-3.333268 5.371331 -1.123717 6.420639 -1.015392 1.746719 0.007767 -0.004559 661257.000000 1 0 0
-0.333468 4.595331 -5.208717 6.954063 -1.498357 2.417375 0.011006 -0.007824 -918307.000000 1 0 0
3.972732 -9.662169 10.036483 14.486929 -1.180703 0.805438 -0.000128 -0.000641 -1419220.000000 1 0 0
7.298532 -13.509469 -0.672617 15.369669 -1.075467 1.614573 0.014890 -0.007024 455479.000000 1 0 0
13.088532 -0.148669 0.396083 13.095368 -0.011358 1.540546 0.009024 0.000103 574060.000000 1 0 0
9.363632 2.429831 -0.660917 9.696314 0.253897 1.639011 0.003674 -0.000778 445006.000000 1 0 0
-0.821168 -5.794969 4.532683 7.402783 1.430030 0.911837 0.004561 -0.000147 369796.000000 1 0 0
11.458732 -3.706369 3.287683 12.483933 -0.312833 1.304300 0.017631 -0.002909 -1717870.000000 1 0 0
1.503932 -8.171669 11.701983 14.351808 -1.388791 0.617434 0.000882 -0.003446 600109.000000 1 0 0
9.453732 -5.825069 -5.895317 12.572161 -0.552222 2.058862 0.000594 -0.006522 -1886130.000000 1 0 0
3.229232 6.299231 -0.218817 7.082100 1.097089 1.601698 0.002320 -0.003522 -2753270.000000 1 0 0
6.369032 -1.238069 11.384183 13.103321 -0.191994 0.518020 0.003832 -0.001716 116010.000000 1 0 0
-4.863868 -7.630369 -3.767517 9.801731 1.003305 1.965324 0.017988 -0.003906 -279456.000000 1 0 0
-3.346068 -8.515769 -5.677217 10.767789 1.196403 2.126146 0.016208 -0.001103 -572796.000000 1 0 0
9.799732 5.327231 2.169983 11.363229 0.497924 1.378651 0.002682 -0.001408 343329.000000 1 0 0
8.887232 -1.356369 0.258783 8.993865 -0.151451 1.542019 0.009942 -0.001871 1611550.000000 1 0 0
-3.967268 9.613031 9.142783 13.847024 -1.179393 0.849617 0.003688 -0.002522 274988.000000 1 0 0
-14.477968 -3.551969 -6.195517 16.143496 0.240584 1.964680 0.024961 -0.006400 204288.000000 1 0 0
10.665332 6.231431 -6.094517 13.774004 0.528773 2.029142 0.003466 -0.004486 -1517520.000000 1 0 0
-1.809668 4.509531 2.731683 5.574304 -1.189171 1.058650 0.000900 -0.001789 420932.000000 1 0 0
6.996132 -3.662669 2.600383 8.314025 -0.482292 1.252688 0.010639 -0.003268 -1309620.000000 1 0 0
8.414832 -11.185969 -1.453417 14.072943 -0.925846 1.674258 0.010829 -0.005808 -1378070.000000 1 0 0
4.526332 0.431131 1.779383 4.882598 0.094963 1.197772 0.004620 0.001151 241997.000000 1 0 0
-10.757468 2.308131 3.746283 11.622617 -0.211356 1.242610 0.003400 -0.006301 314514.000000 1 0 0
-0.896568 -3.059569 4.275683 5.333504 1.285740 0.640721 0.003397 -0.000835 235458.000000 1 0 0
8.595532 -8.717269 -8.514217 14.911936 -0.792430 2.178479 0.004977 -0.002248 -62355.600000 1 0 0
12.139432 -4.774769 1.050083 13.086898 -0.374741 1.490471 0.014492 -0.003164 469739.000000 1 0 0
2.940032 4.910931 3.509183 6.713822 1.031355 1.020804 -0.002603 -0.000110 -591504.000000 1 0 0
5.946932 7.458631 1.945083 9.735529 0.897690 1.369650 0.001199 -0.002515 -265175.000000 1 0 0
-1.571068 -1.289969 -10.237517 10.437386 0.687462 2.945579 0.017493 -0.009958 1509620.000000 1 0 0
-0.922968 -8.614069 6.013783 10.546072 1.464057 0.963999 0.007036 -0.002211 -402104.000000 1 0 0
-4.253568 -0.298169 2.266483 4.828943 0.069984 1.082237 0.003116 -0.001987 -198756.000000 1 0 0
-8.385468 6.149231 -7.893117 13.054900 -0.632740 2.220072 -0.003776 -0.003121 -1443310.000000 1 0 0
6.395532 11.037331 -9.452517 15.876888 1.045628 2.208514 0.017304 -0.015652 407330.000000 1 0 0
-11.185268 -5.718169 3.036183 12.923857 0.472586 1.333651 0.005990 -0.000108 1133050.000000 1 0 0
1.577332 -6.348969 3.029683 7.209464 -1.327287 1.137090 0.000296 0.000026 997621.000000 1 0 0
10.157632 2.199031 7.252583 12.673326 0.213200 0.961523 0.000846 0.002473 -1745240.000000 1 0 0
-4.036068 -2.536069 -10.621317 11.641901 0.561006 2.719748 0.018120 -0.012362 -1735420.000000 1 0 0
-8.291768 11.871431 5.883483 15.630088 -0.961102 1.184867 0.003213 -0.003451 -116298.000000 1 0 0
6.969832 6.061831 -2.972917 9.703741 0.715834 1.882172 0.001917 -0.003283 -1686950.000000 1 0 0
3.949432 -10.001969 -2.383217 11.014405 -1.194724 1.788894 -0.003713 -0.002076 -646566.000000 1 0 0
8.433932 -12.843869 -7.288017 17.006216 -0.989760 2.013684 0.012949 -0.005409 -60403.900000 1 0 0
-1.284868 9.480931 3.678683 10.250446 -1.436096 1.203728 -0.001040 -0.000909 -112006.000000 1 0 0
0.511632 -13.236669 4.680883 14.049265 -1.532163 1.231126 0.013078 -0.001144 -1140690.000000 1 0 0
-11.347068 -7.025469 -5.042417 14.266714 0.554377 1.932041 0.014630 -0.005587 -25418.500000 1 0 0
3.728132 10.310931 -3.391317 11.476729 1.223851 1.870770 0.010267 -0.007454 -353678.000000 1 0 0
11.488432 -8.015469 -7.334017 15.812009 -0.609180 2.053105 0.036209 -0.009032 517983.000000 1 0 0
11.774532 -4.725869 -5.803417 13.951813 -0.381681 1.999796 0.015404 -0.009806 629335.000000 1 0 0
1.347732 -10.375469 -2.649417 10.792875 -1.441624 1.818809 -0.002880 0.001175 -1808670.000000 1 0 0
2.402832 -12.132669 -3.855317 12.955259 -1.375280 1.872960 -0.000690 -0.001549 -1860900.000000 1 0 0
-7.701168 -5.590169 7.215883 11.942652 0.627889 0.922021 0.006046 0.000626 -3513590.000000 1 0 0
-7.327268 -0.841169 9.445283 11.983730 0.114299 0.662957 0.003083 -0.000202 828238.000000 1 0 0
16.219232 2.704531 -7.684617 18.150243 0.165228 2.007979 0.045249 -0.004714 -939602.000000 1 0 0
-2.008268 6.297531 -5.512117 8.606711 -1.262094 2.265873 0.008866 -0.004669 -274544.000000 1 0 0
7.633632 1.107531 8.417583 11.417297 0.144080 0.741782 0.001739 0.001351 173633.000000 1 0 0
7.998032 8.282431 -3.808517 12.127324 0.802865 1.890246 0.001672 -0.002096 -764264.000000 1 0 0
7.953532 0.591931 3.980083 8.913480 0.074287 1.107919 0.003668 0.000924 -141798.000000 1 0 0
-7.001568 5.878331 5.194383 10.514673 -0.698410 1.054097 0.005072 -0.006412 -59785.300000 1 0 0
-6.155968 -2.209869 -4.530217 7.956276 0.344652 2.176559 0.015886 -0.006770 -1189740.000000 1 0 0
-15.211168 -2.050069 3.167483 15.672120 0.133967 1.367285 0.018240 -0.004816 -1331700.000000 1 0 0
1.189632 1.253131 -10.386317 10.529061 0.811387 2.976741 0.014265 -0.009481 296741.000000 1 0 0
1.456732 -9.281369 9.420583 13.304633 -1.415114 0.784038 0.002710 -0.003613 -75381.500000 1 0 0
-0.230568 -6.888569 -1.322017 7.018067 1.537338 1.760302 0.005499 0.001900 827326.000000 1 0 0
-0.465968 -10.345269 -8.401217 13.334997 1.525785 2.252366 0.006333 -0.002193 -63705.500000 1 0 0
-4.327068 6.499131 3.815583 8.690276 -0.983400 1.116240 0.001444 -0.000187 -218663.000000 1 0 0
10.796432 -1.144069 -8.601717 13.851403 -0.105573 2.240814 0.014688 -0.003526 548109.000000 1 0 0
2.946032 -1.090069 6.282083 7.023669 -0.354391 0.463672 0.002279 0.003655 535090.000000 1 0 0
2.031832 -12.431869 6.641483 14.240401 -1.408791 1.085599 0.004788 -0.002989 -635482.000000 1 0 0
2.876732 -4.881969 -1.311917 5.816385 -1.038314 1.798309 0.009190 -0.002325 -1659820.000000 1 0 0
-0.981368 9.544631 -1.662317 9.737883 -1.468338 1.742343 0.007737 -0.005180 178437.000000 1 0 0
4.571632 -2.554469 2.680683 5.883128 -0.509548 1.097687 0.005828 0.002074 -148894.000000 1 0 0
17.829932 6.667031 -2.689917 19.224761 0.357827 1.711176 0.029268 -0.007798 681034.000000 1 0 0
-7.151268 3.409531 -5.423517 9.601045 -0.444894 2.171094 0.005352 -0.004657 893691.000000 1 0 0
-13.895568 -6.014469 2.281383 15.312261 0.408487 1.421249 0.002535 -0.000384 564519.000000 1 0 0
6.698232 -5.992669 3.607883 9.684793 -0.729859 1.189062 0.006955 -0.002385 -421719.000000 1 0 0
-4.641368 1.973131 3.416183 6.091457 -0.401971 0.975426 0.004145 -0.002853 74327.500000 1 0 0
6.851732 -12.070469 -5.355217 14.876854 -1.054508 1.939032 0.010474 -0.007135 -436049.000000 1 0 0
2.983532 -12.337369 3.389483 13.137760 -1.333523 1.309849 0.004214 -0.003287 -292404.000000 1 0 0
3.364232 11.372031 -6.039717 13.308619 1.283166 2.041844 0.006387 -0.004180 -316440.000000 1 0 0
-5.673568 -8.315369 6.474283 11.968754 0.972049 0.999251 0.010288 -0.001837 -187058.000000 1 0 0
-4.053668 6.573531 6.370783 10.011514 -1.018213 0.881045 0.003030 -0.000907 308422.000000 1 0 0
4.363932 4.404331 -6.913617 9.286557 0.790006 2.410546 0.002614 -0.003889 -1467320.000000 1 0 0
-0.330068 -2.730169 1.513383 3.138964 1.450484 1.067714 0.006903 -0.000027 27547.000000 1 0 0
-13.314068 -0.891869 6.541083 14.860875 0.066887 1.115025 0.013731 -0.005027 -344026.000000 1 0 0
-0.506668 -9.429269 -5.944917 11.158399 1.517114 2.132673 0.003511 0.001027 102265.000000 1 0 0
2.151132 -1.746369 -3.867617 4.757692 -0.681917 2.519943 0.004128 -0.003095 -1092180.000000 1 0 0
11.418332 -1.934069 1.072883 11.630564 -0.167790 1.478418 0.011359 -0.004203 927769.000000 1 0 0
0.527032 -4.295369 -1.979617 4.758870 -1.448709 1.999822 0.007808 -0.001222 -660394.000000 1 0 0
1.145532 -7.329969 -11.214717 13.446582 -1.415770 2.557150 -0.004208 0.000471 -910134.000000 1 0 0
-4.426968 4.062531 -9.999017 11.665442 -0.742497 2.600504 0.006264 -0.010675 -91536.300000 1 0 0
-0.968768 5.819931 -2.046117 6.244734 -1.405852 1.904617 0.007262 -0.005197 -1110000.000000 1 0 0
-11.457668 1.682431 -3.928317 12.228671 -0.145797 1.897833 0.002640 -0.001527 -326905.000000 1 0 0
-1.824368 -11.324769 4.205083 12.217260 1.411073 1.219418 0.014650 -0.002281 66643.600000 1 0 0
-3.545168 -5.601569 -9.721817 11.766882 1.006545 2.543128 0.013048 -0.005472 -788915.000000 1 0 0
-12.850668 -3.822369 -8.307517 15.772286 0.289111 2.125529 0.023118 -0.006357 225450.000000 1 0 0
11.433032 4.351931 0.453583 12.241702 0.363711 1.533736 0.005520 0.002399 -175706.000000 1 0 0
-8.952468 -2.449269 -3.060517 9.773042 0.267051 1.889314 0.011624 -0.004291 -43185.300000 1 0 0
-2.408868 -6.139469 -6.421217 9.204768 1.196895 2.342834 0.010792 -0.004597 -202509.000000 1 0 0
-0.055968 2.756931 -1.861017 3.326738 -1.550498 2.164472 0.007436 -0.006366 1405810.000000 1 0 0
8.150232 5.913631 -5.197517 11.331880 0.627687 2.047287 0.003693 -0.005353 -841723.000000 1 0 0
-9.818668 -0.985369 -0.969617 9.915510 0.100022 1.668741 0.006213 -0.004216 -249004.000000 1 0 0
6.247932 0.550231 -8.780817 10.790836 0.087839 2.521335 0.000428 -0.002461 711991.000000 1 0 0
-4.123568 2.507731 7.889783 9.248849 -0.546388 0.548983 0.000419 0.001367 -702426.000000 1 0 0
-10.242368 -3.379369 1.414483 10.877821 0.318694 1.440393 0.004046 -0.004222 3680480.000000 1 0 0
-1.819768 -8.265069 -7.792217 11.503980 1.354078 2.314950 0.010533 -0.004084 -874388.000000 1 0 0
-9.606568 -9.803969 4.229283 14.362827 0.795568 1.271906 0.012623 0.000031 216592.000000 1 0 0
-1.198768 -10.752269 7.337483 13.072375 1.459765 0.974844 0.011146 -0.003819 191196.000000 1 0 0
9.545932 3.762531 -3.809617 10.945074 0.375453 1.926304 0.001936 -0.002669 -759574.000000 1 0 0
12.910832 -0.831769 2.992083 13.279081 -0.064335 1.343522 0.011176 0.001194 72046.400000 1 0 0
6.480732 11.764731 -6.877617 15.090076 1.067292 2.044034 0.009197 -0.008133 411365.000000 1 0 0
-11.951668 -0.034669 -6.443817 13.578157 0.002901 2.065274 0.005887 -0.002957 237872.000000 1 0 0
-7.596568 -6.592669 -11.399417 15.202560 0.714765 2.418610 0.020253 -0.007984 -123465.000000 1 0 0
4.122332 6.123731 6.552583 9.870666 0.978303 0.844849 -0.000458 -0.001005 -2704450.000000 1 0 0
-4.321568 -1.454169 -7.408317 8.699064 0.324590 2.589869 0.017547 -0.013425 95365.600000 1 0 0
9.649032 9.281031 0.817183 13.413022 0.765961 1.509834 0.007372 -0.000504 -1422890.000000 1 0 0
-8.905368 3.914831 4.899283 10.891945 -0.414175 1.104246 0.006223 -0.007219 712241.000000 1 0 0
-6.924068 7.717731 -12.172817 15.990108 -0.839550 2.436068 -0.007318 -0.013306 -1518220.000000 1 0 0
11.221832 -3.597769 7.255483 13.838912 -0.310251 1.018925 0.021723 -0.003837 -19777.100000 1 0 0
11.741632 6.964531 6.313683 15.041051 0.535366 1.137612 0.002125 -0.004010 37972.500000 1 0 0
-9.928668 -0.848669 -14.852517 17.885635 0.085269 2.550650 0.016230 -0.002962 -37453.500000 1 0 0
1.687132 -13.011869 12.081983 17.836184 -1.441855 0.826593 -0.005405 0.002554 222766.000000 1 0 0
3.000932 3.037831 12.932783 13.619504 0.791508 0.318909 -0.000875 -0.008879 -303605.000000 1 0 0
-2.569768 -1.404969 10.829383 11.218431 0.500329 0.264127 0.003814 0.001987 -240404.000000 1 0 0
2.548432 -10.119069 -8.249317 13.301928 -1.324082 2.239742 -0.006326 0.000392 -1002050.000000 1 0 0
13.955932 3.674331 -7.695517 16.355113 0.257439 2.060684 0.016103 -0.001990 -2707840.000000 1 0 0
7.261732 -1.618469 4.876083 8.895414 -0.219292 0.990637 0.005346 0.002013 475951.000000 1 0 0
-1.251168 8.823931 10.116883 13.482526 -1.429943 0.722175 0.005246 -0.004568 321350.000000 1 0 0
-12.341068 -4.697469 0.932783 13.237759 0.363704 1.500274 0.004478 -0.002056 164699.000000 1 0 0
-4.932768 4.841231 -5.267417 8.689959 -0.776033 2.222007 0.009611 -0.006667 -43528.400000 1 0 0
-11.234268 0.326031 2.043483 11.423261 -0.029013 1.390940 0.002121 -0.001291 -2492470.000000 1 0 0
-1.366468 2.322231 -4.057117 4.870337 -1.038928 2.555351 0.012173 -0.009506 627156.000000 1 0 0
3.155332 -9.778969 13.083783 16.636398 -1.258678 0.665748 -0.003837 -0.003980 -1060690.000000 1 0 0
8.956532 4.657731 -1.575617 10.217460 0.479549 1.725622 0.001790 -0.003276 -1039700.000000 1 0 0
4.072732 2.330431 3.667183 5.955358 0.519730 0.907422 -0.001709 0.002183 177455.000000 1 0 0
-5.591668 -3.310569 7.370583 9.826094 0.534556 0.722578 0.003466 -0.001512 72213.400000 1 0 0
1.731632 -5.919769 7.734083 9.892333 -1.286219 0.673207 0.001909 -0.001658 -1449930.000000 1 0 0
-5.889068 -6.357469 -9.634117 12.958192 0.823627 2.409051 0.015086 -0.006392 -303988.000000 1 0 0
-11.787668 -5.778969 5.499283 14.233331 0.455822 1.174107 0.010306 0.000294 -1378730.000000 1 0 0
10.500332 6.189131 4.432583 12.969584 0.532606 1.221999 0.001790 -0.001153 -1554550.000000 1 0 0
1.391732 -3.782769 0.459683 4.056793 -1.218253 1.457240 0.011518 -0.000599 -1211620.000000 1 0 0
8.835232 4.293931 6.974783 12.047688 0.452386 0.953379 0.001103 0.002554 -247576.000000 1 0 0
-7.949268 11.921331 3.502083 14.750376 -0.982694 1.331084 0.002523 -0.008219 -79828.800000 1 0 0
-6.257068 13.278431 -7.035417 16.277737 -1.130436 2.017739 0.013242 -0.004860 112759.000000 1 0 0
4.512532 -6.903669 -0.953317 8.302554 -0.991865 1.685872 0.004264 -0.001958 -1314380.000000 1 0 0
-2.052368 -8.144069 11.040583 13.872006 1.323929 0.650321 0.007144 -0.007642 -539385.000000 1 0 0
11.636632 8.761631 -5.790417 15.675022 0.645377 1.949164 0.026229 -0.009971 635510.000000 1 0 0
-3.391668 -2.988869 -1.997417 4.942309 0.722353 1.986842 0.014383 -0.005209 -1665850.000000 1 0 0
-2.029668 5.985031 4.801283 7.936780 -1.243843 0.921105 0.001016 0.000244 -477419.000000 1 0 0
0.327832 -11.659669 -5.644617 12.958281 -1.542687 2.021500 0.000835 -0.005166 118334.000000 1 0 0
-8.891868 6.184031 -1.530417 10.938452 -0.607680 1.711168 0.003013 -0.002582 -706418.000000 1 0 0
2.915732 -0.076469 3.899583 4.869712 -0.026220 0.642195 -0.000327 0.002915 -334293.000000 1 0 0
-10.194168 3.970531 -1.039917 10.989431 -0.371414 1.665567 0.005679 -0.003240 -6523.890000 1 0 0
6.557032 5.614731 13.593783 16.103131 0.708135 0.565781 0.014305 -0.003051 -1087630.000000 1 0 0
-8.867068 -1.571069 5.601783 10.605335 0.175360 1.014312 0.001518 -0.002115 104296.000000 1 0 0
13.072332 -1.798569 -1.543117 13.285403 -0.136727 1.687210 0.013990 -0.004259 -2008120.000000 1 0 0
4.978532 -5.629869 5.509183 9.318386 -0.846719 0.938230 0.005001 -0.003014 350503.000000 1 0 0
-9.044168 -1.187969 3.188483 9.663057 0.130604 1.234528 0.001908 -0.002056 1000050.000000 1 0 0
1.908432 5.494731 5.645083 8.105625 1.236511 0.800371 -0.000837 -0.000008 -1031230.000000 1 0 0
9.313832 3.077431 -7.421717 12.300404 0.319122 2.218519 0.002605 -0.002902 -590201.000000 1 0 0
2.261132 -2.402969 -1.568117 3.653213 -0.815799 2.014451 0.007869 -0.001381 105998.000000 1 0 0
-6.365768 0.292231 -4.052217 7.551745 -0.045874 2.137191 0.007608 -0.003061 -1889800.000000 1 0 0
-3.991968 4.182131 5.092483 7.704506 -0.808658 0.848679 0.000345 0.000140 1008210.000000 1 0 0
-6.539468 1.814031 -12.368917 14.108347 -0.270594 2.639774 0.007647 -0.009990 -2593760.000000 1 0 0
-0.075768 3.250831 6.151083 6.957691 -1.547493 0.486297 -0.000838 0.001130 1189000.000000 1 0 0
-8.867568 9.222431 -2.155817 12.974380 -0.805012 1.737730 0.000216 0.002215 688970.000000 1 0 0
-1.272568 -3.779069 -6.171217 7.347428 1.245982 2.567923 0.007817 -0.004262 225925.000000 1 0 0
-3.303068 7.084431 -2.963617 8.359572 -1.134517 1.933195 0.007963 -0.002051 837154.000000 1 0 0
7.086832 -0.414069 -4.345517 8.323350 -0.058362 2.120093 0.003053 -0.002896 -342264.000000 1 0 0
-5.294868 -10.838169 6.880783 13.886926 1.116360 1.052402 0.010569 -0.003517 1037800.000000 1 0 0
9.688632 8.374631 -1.506517 12.894713 0.712782 1.687896 0.004001 0.000544 -410391.000000 1 0 0
13.676132 4.536231 -4.404517 15.066976 0.320270 1.867458 0.007997 -0.007526 568932.000000 1 0 0
4.723832 1.168131 -6.810317 8.370157 0.242421 2.521187 -0.000522 -0.004363 -132763.000000 1 0 0
9.009632 -4.844769 3.455883 10.797610 -0.493376 1.245003 0.012699 -0.003350 -715953.000000 1 0 0
-8.888468 -3.376969 -0.770217 9.539497 0.363083 1.651624 0.007087 -0.003410 45163.500000 1 0 0
-8.671368 -4.271969 -10.399917 14.198613 0.457752 2.392725 0.015237 -0.009213 -298320.000000 1 0 0
10.508632 -1.069169 10.879583 15.163766 -0.101393 0.770629 0.012826 -0.004781 710323.000000 1 0 0
2.165932 -11.552969 9.976483 15.417282 -1.385469 0.867025 0.001439 -0.003545 493401.000000 1 0 0
-6.413568 -10.508169 2.106883 12.489773 1.022808 1.401297 0.015610 0.000892 -905843.000000 1 0 0
-3.726968 -1.545969 6.591883 7.728728 0.393205 0.549268 0.004654 -0.000929 -1926160.000000 1 0 0
4.698932 -7.606369 3.935583 9.768604 -1.017418 1.156134 -0.000204 0.000469 427326.000000 1 0 0
11.451432 -9.515469 -5.273717 15.795301 -0.693325 1.911212 0.023436 -0.008625 471377.000000 1 0 0
11.286632 1.242031 11.516983 16.173176 0.109603 0.778306 0.026810 -0.002444 -274614.000000 1 0 0
-10.297268 -3.460369 4.384683 11.714663 0.324191 1.187165 0.008398 -0.000881 1914020.000000 1 0 0
2.170532 8.863731 8.944083 12.777855 1.330644 0.795444 0.007102 -0.002701 17416.300000 1 0 0
6.593232 8.856631 4.016383 11.749126 0.930863 1.221917 0.007264 -0.001821 -230702.000000 1 0 0
-4.357068 3.652131 0.367083 5.697091 -0.697609 1.506318 0.006005 -0.004893 -1202320.000000 1 0 0
4.921132 7.029231 4.305083 9.600072 0.960006 1.105774 0.001548 -0.001099 -1171070.000000 1 0 0
-8.189868 13.170631 1.151083 15.551992 -1.014481 1.496713 0.006533 -0.002653 -653618.000000 1 0 0
8.988132 8.118131 -9.128717 15.166543 0.734583 2.216672 0.019031 -0.014257 -576268.000000 1 0 0
7.141032 1.975531 6.158883 9.634776 0.269895 0.877294 0.000900 0.002434 -819285.000000 1 0 0
11.640532 -6.265669 3.100083 13.578333 -0.493788 1.340454 0.019021 -0.004414 59923.700000 1 0 0
11.404032 4.712531 -2.154917 12.526115 0.391862 1.743690 0.005971 -0.002090 -1229250.000000 1 0 0
-3.998568 14.325731 -5.979417 16.030238 -1.298606 1.953046 0.004502 0.000094 303099.000000 1 0 0
6.973932 -3.027169 6.788383 10.192234 -0.409527 0.841916 0.007905 -0.000677 -538140.000000 1 0 0
-7.970568 -0.427369 0.798683 8.021876 0.053567 1.471068 0.007042 -0.003373 415687.000000 1 0 0
-3.200068 1.126031 10.616883 11.145698 -0.338346 0.309275 0.002414 0.002738 -77782.500000 1 0 0
7.129732 -1.230869 -1.903617 7.481435 -0.170954 1.828070 0.008657 -0.004071 -1294510.000000 1 0 0
-7.768268 5.240331 2.896883 9.808108 -0.593462 1.270968 0.004361 -0.002517 734116.000000 1 0 0
9.494732 -2.280169 2.774083 10.151091 -0.235688 1.293996 0.011639 -0.002480 -1264500.000000 1 0 0
0.202032 3.433531 1.576183 3.783425 1.512023 1.141092 0.000323 0.000604 -3029040.000000 1 0 0
-7.628868 -3.142669 3.913583 9.131929 0.390761 1.127897 0.003554 -0.003637 -1128110.000000 1 0 0
-2.326268 8.410831 -6.664217 10.980227 -1.300962 2.222987 0.003214 -0.004139 -445665.000000 1 0 0
4.573032 9.752931 7.216783 12.965888 1.132347 0.980511 0.007722 0.002843 1806500.000000 1 0 0
-11.919368 -3.070269 6.858683 14.090402 0.252106 1.062416 0.014606 -0.002134 -1709610.000000 1 0 0
-4.623968 2.316331 -5.551817 7.587433 -0.464399 2.391627 0.016062 -0.009380 242875.000000 1 0 0
-2.793568 3.027331 -1.972817 4.567358 -0.825536 2.017437 0.008398 -0.004608 1271840.000000 1 0 0
2.460932 5.266631 11.411383 12.806766 1.133675 0.471158 0.003575 -0.008808 572872.000000 1 0 0
-0.726268 1.728931 4.458083 4.836442 -1.173111 0.398178 0.002378 0.000515 56921.800000 1 0 0
5.074032 1.611231 7.649783 9.319928 0.307474 0.607989 -0.001161 0.002248 -169792.000000 1 0 0
3.410932 -8.095869 1.779083 8.963408 -1.172049 1.370987 0.002997 0.001028 2804940.000000 1 0 0
5.125232 6.468431 -4.709617 9.502057 0.900740 2.089370 0.004681 -0.006643 -3123500.000000 1 0 0
-4.129268 2.693731 -8.023017 9.416785 -0.578026 2.590573 0.013374 -0.010299 25709.000000 1 0 0
-8.834468 -2.272869 -12.877317 15.780971 0.251812 2.525258 0.022016 -0.009512 -560888.000000 1 0 0
-7.829968 8.156831 1.263683 11.377134 -0.805841 1.459494 0.002135 -0.000887 -1563450.000000 1 0 0
7.380832 0.870831 -6.545317 9.903343 0.117443 2.292840 0.000604 -0.003320 22283.800000 1 0 0
8.966932 8.766331 5.472083 13.682037 0.774087 1.159338 0.007177 -0.001268 555413.000000 1 0 0
9.396132 -1.087669 -1.399417 9.561835 -0.115244 1.717678 0.007843 -0.002873 975588.000000 1 0 0
5.374232 0.154231 4.231583 6.841963 0.028690 0.903996 0.000350 0.003340 -818865.000000 1 0 0
-4.168568 -7.345569 -7.953017 11.601069 1.054621 2.326144 0.017918 -0.005462 -662002.000000 1 0 0
-2.121468 7.460931 -0.641217 7.783141 -1.293764 1.653275 0.005612 -0.003561 232798.000000 1 0 0
13.328432 -3.314869 -7.421117 15.611164 -0.243761 2.066184 0.025232 -0.008082 918290.000000 1 0 0
-4.880168 -5.040069 1.613383 7.198704 0.801515 1.344755 0.008093 -0.003975 1581840.000000 1 0 0
-8.892768 1.303331 2.442883 9.313843 -0.145525 1.305407 0.002331 -0.002137 -750463.000000 1 0 0
-0.980468 11.304831 10.169783 15.237618 -1.484283 0.840067 0.009105 -0.006702 562338.000000 1 0 0
-8.560068 0.341831 7.341583 11.282307 -0.039912 0.862269 0.002344 -0.002689 156162.000000 1 0 0
-6.064868 12.929931 -2.114517 14.437345 -1.132209 1.717787 0.002602 0.000533 -246256.000000 1 0 0
-12.939868 -0.831669 3.348083 13.391845 0.064184 1.318107 0.009840 -0.004852 705010.000000 1 0 0
-6.691068 12.716931 8.523083 16.707294 -1.086445 1.035447 0.009075 -0.007813 766186.000000 1 0 0
-8.113168 0.900231 -14.127217 16.316009 -0.110507 2.617643 0.009298 -0.007252 242826.000000 1 0 0
7.249232 2.913831 3.807083 8.691126 0.382187 1.117376 0.001136 0.004229 -481944.000000 1 0 0
-1.700368 0.746431 -1.933217 2.680622 -0.413654 2.376303 0.011119 -0.006273 756699.000000 1 0 0
-6.196068 9.591131 -10.405517 15.448489 -0.997224 2.309814 -0.004806 -0.005428 -340006.000000 1 0 0
-10.083368 13.780331 5.283283 17.874141 -0.939096 1.270731 0.006221 -0.007806 671574.000000 1 0 0
-5.648368 8.255631 2.397383 10.286251 -0.970764 1.335566 0.000277 -0.000763 -695470.000000 1 0 0
-2.277568 -10.633769 -1.209317 10.941974 1.359802 1.681543 0.008829 0.001823 -193881.000000 1 0 0
-2.295468 -12.492569 8.853683 15.482931 1.389077 0.962055 0.009813 -0.000893 632069.000000 1 0 0
-14.761268 -6.435769 -1.734517 16.196379 0.411143 1.678095 0.014182 -0.001570 374047.000000 1 0 0
-2.669168 -9.220669 3.388583 10.179769 1.289022 1.231446 0.010889 -0.001605 532847.000000 1 0 0
4.614232 -2.726869 7.541883 9.252403 -0.533753 0.617848 0.000225 0.003533 -104831.000000 1 0 0
-15.088168 -1.334169 -0.195617 15.148303 0.088195 1.583710 0.008199 -0.005874 129404.000000 1 0 0
5.618132 8.815331 -2.773017 10.814948 1.003391 1.830098 0.001566 -0.003008 -965597.000000 1 0 0
-5.652768 -5.719169 8.557883 11.743085 0.791237 0.754288 0.007172 -0.000655 -3846860.000000 1 0 0
3.383832 3.686231 7.010683 8.613263 0.828144 0.619893 -0.001108 0.000770 420264.000000 1 0 0
3.343832 2.316631 9.290583 10.142137 0.605882 0.412708 0.002534 -0.003718 1348890.000000 1 0 0
9.948432 -3.304169 5.237183 11.718230 -0.320667 1.107470 0.016935 -0.003722 -339706.000000 1 0 0
6.582832 9.871831 -5.056617 12.897911 0.982681 1.973654 0.002996 -0.005391 254557.000000 1 0 0
-4.560468 11.992931 -8.529717 15.407282 -1.207420 2.157496 0.002595 -0.004487 -434095.000000 1 0 0
-3.422368 -7.251269 2.150583 8.301717 1.129825 1.308755 0.009317 -0.003501 1069820.000000 1 0 0
-7.514468 -4.057469 1.071783 8.606916 0.495098 1.445946 0.007955 -0.004443 1620170.000000 1 0 0
-1.999768 -3.935269 -10.899817 11.759737 1.100638 2.756799 0.016395 -0.007544 -690302.000000 1 0 0
-5.191268 8.112131 -4.525817 10.641379 -1.001527 2.010094 0.004019 -0.001677 -818525.000000 1 0 0
-11.055568 -3.237469 -10.181117 15.374066 0.284871 2.294583 0.023274 -0.006333 -365584.000000 1 0 0
4.698532 -11.377469 -7.646717 14.491214 -1.179161 2.126663 -0.000048 -0.003046 -2525040.000000 1 0 0
-9.446468 -3.916269 7.141483 12.472919 0.393008 0.961172 0.004795 0.001126 -60742.500000 1 0 0
-5.589568 -9.753069 -5.202317 12.386675 1.050385 2.004234 0.014704 -0.004149 1394200.000000 1 0 0
4.870332 4.311031 -9.416117 11.444142 0.724556 2.537098 0.002596 -0.001610 159500.000000 1 0 0
-3.311068 -7.026169 -13.950017 15.966627 1.130414 2.633550 0.000516 -0.001750 686482.000000 1 0 0
0.734832 -0.824369 -8.703617 8.773398 -0.842760 3.015384 0.011036 -0.010721 715734.000000 1 0 0
-7.723968 2.160131 -2.951917 8.546324 -0.272699 1.923463 0.007275 -0.003814 -988461.000000 1 0 0
-2.378268 7.494331 -12.568217 14.825020 -1.263506 2.582564 0.003488 -0.009901 -126533.000000 1 0 0
-9.772168 8.830631 7.619883 15.216370 -0.734829 1.046310 0.003106 -0.010330 -406942.000000 1 0 0
-10.776068 -3.208869 -14.324517 18.210224 0.289416 2.476111 0.029024 -0.002073 -179537.000000 1 0 0
-3.215068 4.908531 7.966983 9.894603 -0.990917 0.634809 0.002505 -0.000312 -350597.000000 1 0 0
8.794632 -2.301869 -3.566017 9.765277 -0.255993 1.944615 0.004265 -0.004226 -5042220.000000 1 0 0
2.070532 -8.357669 -1.194117 8.692735 -1.327945 1.708602 -0.001497 0.002321 27564.900000 1 0 0
-13.674668 -2.931669 5.062983 14.873635 0.211190 1.223454 0.020031 -0.006162 278927.000000 1 0 0
7.043732 2.752831 -1.943917 7.808396 0.372568 1.822394 0.001065 -0.003199 849710.000000 1 0 0
-11.109968 4.417831 8.827883 14.862037 -0.378475 0.934788 0.009323 -0.007450 -3261000.000000 1 0 0
-1.717268 -2.470269 7.961783 8.511241 0.963316 0.361285 0.002372 0.000487 -1657060.000000 1 0 0
2.922532 11.923831 -9.837117 15.731745 1.330435 2.246317 0.004993 -0.012738 822790.000000 1 0 0
3.649532 -5.089369 -7.034817 9.418567 -0.948693 2.414198 -0.002509 -0.003476 -257407.000000 1 0 0
8.357432 -13.754669 -9.570517 18.725180 -1.024802 2.107265 0.018208 -0.003612 556684.000000 1 0 0
-6.366368 -5.808469 -0.471217 8.630817 0.739606 1.625420 0.015474 -0.003986 -491467.000000 1 0 0
-1.241468 -4.055369 9.856483 10.730215 1.273726 0.406342 0.003158 -0.000311 418274.000000 1 0 0
2.783632 3.402431 1.755983 4.733775 0.885098 1.190767 -0.002290 0.001575 -450255.000000 1 0 0
-9.193868 13.378231 7.743183 17.985026 -0.968695 1.125711 0.012384 -0.015051 1047210.000000 1 0 0
3.958632 -11.106069 0.055183 11.790614 -1.228397 1.566116 0.002549 -0.002660 678568.000000 1 0 0
-12.681268 -1.434769 -9.015617 15.625443 0.112662 2.185826 0.018528 -0.006655 -174343.000000 1 0 0
-4.288668 0.983431 -13.467117 14.167676 -0.225412 2.825806 0.014440 -0.011154 417462.000000 1 0 0
3.875532 -3.156369 4.961883 7.042919 -0.683481 0.789048 0.000134 0.005601 224327.000000 1 0 0
1.737932 -1.230469 1.146183 2.418305 -0.616080 1.077012 0.003824 -0.000472 930893.000000 1 0 0
8.198332 -8.993369 7.491283 14.290300 -0.831611 1.018996 0.013464 -0.003937 -1096380.000000 1 0 0
-0.019268 2.315731 -6.340317 6.750007 -1.562476 2.791396 0.011494 -0.010385 -919354.000000 1 0 0
-3.679768 -9.761969 -3.344517 10.955479 1.210318 1.881031 0.015684 -0.000537 747587.000000 1 0 0
-9.493568 2.236131 -5.482917 11.188855 -0.231325 2.082925 0.002420 -0.002708 -874750.000000 1 0 0
8.925132 -7.676469 5.379083 12.942979 -0.710326 1.142196 0.013834 -0.005914 2367720.000000 1 0 0
-5.541768 -4.262469 4.585383 8.360955 0.655647 0.990313 0.005388 -0.002045 -149725.000000 1 0 0
-0.237468 -12.358369 10.431883 16.174358 1.551584 0.869820 0.005132 -0.000837 477189.000000 1 0 0
-14.333168 -8.340669 3.093783 16.869438 0.527015 1.386357 0.006846 -0.004192 -1477290.000000 1 0 0
10.916332 -1.271269 -3.645817 11.579051 -0.115933 1.891109 0.011747 -0.003499 -657971.000000 1 0 0
-13.672168 3.069531 2.801383 14.289785 -0.220847 1.373477 0.009811 -0.005298 -548891.000000 1 0 0
-6.341968 6.110731 1.019583 8.865728 -0.766831 1.455539 0.001167 -0.002035 548370.000000 1 0 0
7.245032 -6.839669 -0.764517 9.992800 -0.756626 1.647378 0.007784 -0.004703 -70031.800000 1 0 0
-7.031568 7.891831 9.998783 14.549901 -0.842980 0.813160 0.003772 -0.002399 137422.000000 1 0 0
-12.757968 -5.160769 -1.895817 13.892206 0.384391 1.707690 0.003730 -0.000530 -2378480.000000 1 0 0
-9.457268 -5.691369 0.224683 11.040022 0.541741 1.550443 0.010307 -0.002954 -1065900.000000 1 0 0
-1.850568 1.858731 2.184883 3.413678 -0.787599 0.876249 0.003177 -0.000563 64177.200000 1 0 0
-7.053868 7.304431 7.461483 12.601012 -0.802847 0.937092 0.002617 -0.006106 -288961.000000 1 0 0
5.652632 7.141231 -0.521217 9.122560 0.901230 1.627962 0.002259 -0.004206 -1548100.000000 1 0 0
-0.081668 -4.171069 7.510383 8.591295 1.551219 0.507041 0.003366 0.000499 -30229.900000 1 0 0
6.436432 0.803431 13.056983 14.579368 0.124183 0.461064 0.003388 -0.005014 559109.000000 1 0 0
5.971832 6.007931 -7.879117 11.568859 0.788411 2.320009 0.001656 -0.004487 -1976810.000000 1 0 0
10.079132 5.354831 8.968783 14.515585 0.488357 0.904762 0.000815 -0.001979 -1377920.000000 1 0 0
-1.208168 -5.013569 -8.536617 9.973433 1.334325 2.598154 0.015199 -0.005812 787400.000000 1 0 0
9.915032 -3.605169 -8.026317 13.256201 -0.348745 2.221161 0.009840 -0.008959 494614.000000 1 0 0
8.086232 -5.817769 1.338383 10.051112 -0.623671 1.437242 0.009053 -0.004654 963516.000000 1 0 0
15.675632 3.215031 -5.151017 16.810557 0.202292 1.882222 0.025887 -0.003115 -357292.000000 1 0 0
-6.877168 3.477731 1.186083 7.797233 -0.468191 1.418088 0.005953 -0.003909 -185650.000000 1 0 0
-1.816168 3.830331 0.267883 4.247548 -1.128038 1.507687 0.004672 -0.005180 -862683.000000 1 0 0
-2.598768 10.058031 6.948583 12.498016 -1.317949 0.981261 0.003308 0.000306 887761.000000 1 0 0
5.580232 -5.846169 -8.681717 11.861235 -0.808668 2.391962 -0.002283 -0.002493 -1930520.000000 1 0 0
-1.313968 -0.928969 6.135383 6.342903 0.615405 0.256503 0.002938 0.000868 950020.000000 1 0 0
-5.681368 4.894731 -7.822217 10.836208 -0.711156 2.377281 0.003160 -0.006739 -162672.000000 1 0 0
6.833532 -1.184869 2.456983 7.357842 -0.171683 1.230330 0.006789 0.000611 -1303940.000000 1 0 0
8.780532 7.521331 3.164083 11.986642 0.708308 1.303663 0.006474 -0.003248 -69771.800000 1 0 0
-5.138668 -4.938469 -7.583217 10.406707 0.765534 2.387197 0.021495 -0.009155 1054050.000000 1 0 0
-2.192668 7.824131 -10.033017 12.910703 -1.297561 2.460855 0.003910 -0.006129 393814.000000 1 0 0
-2.852068 -2.389369 1.597983 4.049312 0.697349 1.165130 0.002412 0.000670 338103.000000 1 0 0
6.092432 -2.085769 -9.174317 11.208758 -0.329847 2.529584 -0.001240 -0.003134 1075060.000000 1 0 0
1.147232 -7.607969 5.169383 9.269296 -1.421130 0.979197 0.004431 -0.000694 556665.000000 1 0 0
1.804432 11.828231 1.196483 12.024749 1.419410 1.471130 0.008324 -0.002098 654170.000000 1 0 0
-1.116368 7.026131 2.534783 7.552345 -1.413226 1.228524 0.001718 -0.001148 356628.000000 1 0 0
8.756232 7.828831 -6.663317 13.504147 0.729538 2.086822 0.010521 -0.006192 -522207.000000 1 0 0
3.793032 -10.961569 5.472883 12.825581 -1.237663 1.129938 0.008230 0.001082 856718.000000 1 0 0
7.885632 -7.040069 12.402383 16.296161 -0.728807 0.705848 0.021616 -0.007855 19948.200000 1 0 0
-8.852468 -0.028169 -3.980517 9.706260 0.003182 1.993358 0.008532 -0.004248 -1731460.000000 1 0 0
-3.346268 -5.061569 11.141683 12.686769 0.986649 0.498684 0.005676 -0.003172 1126630.000000 1 0 0
-8.296668 0.075031 -11.616317 14.275123 -0.009043 2.521364 0.010765 -0.009081 -2103830.000000 1 0 0
1.348032 -5.076069 5.319583 7.475402 -1.311222 0.779007 0.002139 0.000345 -786452.000000 1 0 0
6.754332 3.679231 -7.630817 10.834533 0.498782 2.352240 -0.001179 -0.002318 -734607.000000 1 0 0
16.333932 4.272531 -1.317517 16.934808 0.255842 1.648674 0.020606 0.002187 782830.000000 1 0 0
7.934532 7.422831 0.214283 10.867435 0.752091 1.551077 0.003304 -0.002606 -1446820.000000 1 0 0
5.419832 -10.332069 14.081283 18.286847 -1.087691 0.691920 0.001098 -0.005350 697382.000000 1 0 0
-5.268968 -9.245769 8.975383 13.921342 1.052819 0.870138 0.008348 -0.006816 402647.000000 1 0 0
-12.746968 -3.197469 2.820983 13.441240 0.245771 1.359349 0.003494 -0.002082 19709.000000 1 0 0
-2.171068 -1.387169 -5.807917 6.353713 0.568557 2.724074 0.015567 -0.009802 -502241.000000 1 0 0
-2.496868 12.998931 -4.357017 13.935213 -1.381025 1.888791 0.005644 0.003102 514864.000000 1 0 0
4.019832 -0.434169 -4.911617 6.361724 -0.107590 2.452868 0.002272 -0.003612 -617412.000000 1 0 0
-8.785668 3.838031 -7.446917 12.139811 -0.411866 2.231192 0.001198 -0.004208 173420.000000 1 0 0
-4.565768 7.949131 -11.330017 14.574093 -1.049433 2.461331 -0.002013 -0.008861 -2630720.000000 1 0 0
-10.210668 -6.441469 7.317083 14.117010 0.562800 1.025915 0.008364 0.001938 -275096.000000 1 0 0
8.096332 5.245531 4.176783 10.512455 0.574890 1.162204 0.000460 -0.000009 -2198810.000000 1 0 0
-6.760568 -7.505369 4.073183 10.891587 0.837559 1.187505 0.013672 -0.001989 -671881.000000 1 0 0
-4.128868 11.842231 8.051283 14.903327 -1.235319 1.000081 0.006732 -0.002027 -201949.000000 1 0 0
-7.190368 9.923031 -7.888017 14.573563 -0.943741 2.142725 -0.003539 -0.001540 -1229750.000000 1 0 0
13.112032 5.519231 4.633183 14.961741 0.398417 1.255952 0.003598 -0.000550 702703.000000 1 0 0
5.445232 4.005531 -3.875317 7.791849 0.634223 2.091344 0.000283 -0.003943 276527.000000 1 0 0
-2.887468 -4.152269 5.112483 7.191404 0.963168 0.779997 0.004982 -0.001027 -987558.000000 1 0 0
12.557232 -2.187569 -5.378217 13.834549 -0.172477 1.970074 0.012449 -0.009796 -1693270.000000 1 0 0
-5.296368 9.825531 6.939383 13.143349 -1.076406 1.014580 0.001057 -0.001259 -106768.000000 1 0 0
1.732032 3.888331 -0.430017 4.278314 1.151738 1.671477 0.002416 -0.003237 449408.000000 1 0 0
0.005332 9.725131 7.706983 12.408698 1.570248 0.900657 0.005791 -0.000612 -1144470.000000 1 0 0
-5.531768 2.160531 5.856083 8.340387 -0.372349 0.792404 0.002299 -0.000351 869557.000000 1 0 0
8.843032 0.920231 10.672683 13.890724 0.103690 0.694566 0.005174 0.000229 -794319.000000 1 0 0
0.478932 -2.892569 -10.087717 10.505159 -1.406712 2.858740 0.008318 -0.005975 -1423040.000000 1 0 0
1.313632 10.532431 -2.750817 10.964704 1.446714 1.824385 0.009052 -0.005113 -1348640.000000 1 0 0
2.366032 -4.303569 11.690683 12.680335 -1.068119 0.397701 0.004490 -0.000151 1101140.000000 1 0 0
6.625832 -2.998869 9.377183 11.867031 -0.425016 0.659681 0.007589 0.000200 511254.000000 1 0 0
-10.731968 -8.176369 5.595583 14.606118 0.651055 1.177648 0.013884 0.002228 -477501.000000 1 0 0
-2.945468 0.785431 -6.864417 7.510852 -0.260594 2.723668 0.017643 -0.010961 733205.000000 1 0 0
11.085132 2.629431 -5.159417 12.506544 0.232899 1.996034 0.005285 -0.003545 -3075710.000000 1 0 0
-1.987968 -4.083369 -0.085717 4.542385 1.117728 1.589668 0.007595 -0.002652 808777.000000 1 0 0
-1.221268 -6.469169 -10.579917 12.460990 1.384209 2.584968 0.009846 -0.002351 1011960.000000 1 0 0
0.314132 6.845331 -6.613517 9.523436 1.524939 2.338447 0.008499 -0.006146 -2717220.000000 1 0 0
2.139032 3.841931 -6.062817 7.489569 1.062778 2.514099 0.005535 -0.006864 -1259370.000000 1 0 0
1.555332 -14.838069 6.289383 16.190852 -1.466357 1.171844 0.010822 -0.001771 -388258.000000 1 0 0
-1.720068 5.351131 -10.432317 11.850167 -1.259788 2.647400 0.007834 -0.008353 -477447.000000 1 0 0
13.676432 4.319631 -0.832417 14.366521 0.305929 1.628770 0.008587 -0.002671 -77197.600000 1 0 0
-2.362568 3.371031 -6.281817 7.510446 -0.959504 2.561498 0.014434 -0.010948 -1001130.000000 1 0 0
5.902932 7.911331 14.148883 17.251802 0.929773 0.609142 0.025696 -0.012172 637936.000000 1 0 0
15.999532 0.638131 -5.883517 17.058957 0.039863 1.922921 0.040053 -0.005954 167933.000000 1 0 0
6.103132 -8.195969 10.707883 14.801382 -0.930728 0.762027 -0.000091 0.001629 224177.000000 1 0 0
0.041932 -5.902669 -6.406817 8.711519 -1.563693 2.397115 0.005101 -0.003055 -663320.000000 1 0 0
8.667032 5.523431 -7.568817 12.763727 0.567390 2.205569 0.003995 -0.001675 -1153850.000000 1 0 0
-16.123568 -0.716169 5.360383 17.006353 0.044388 1.250130 0.034511 -0.016831 -295704.000000 1 0 0
-0.267868 3.994531 -12.115017 12.759375 -1.503838 2.822432 0.011493 -0.010032 805370.000000 1 0 0
-11.386368 3.689531 5.776983 13.290431 -0.313355 1.121122 0.007787 -0.009793 243814.000000 1 0 0
5.154032 -9.655369 -9.633017 14.580302 -1.080476 2.292530 -0.009086 0.000759 -66228.000000 1 0 0
1.484332 11.083731 -11.706917 16.189634 1.437669 2.379093 0.000057 -0.006639 -3257200.000000 1 0 0
5.839732 2.415731 1.207283 6.433954 0.392236 1.382035 0.003334 0.000692 -143370.000000 1 0 0
5.683332 4.637831 4.854683 8.796459 0.684446 0.986167 -0.000465 -0.000157 -471733.000000 1 0 0
0.431032 -1.557669 -6.267517 6.472549 -1.300835 2.889221 0.008845 -0.006196 -159788.000000 1 0 0
12.717732 6.805231 -4.579417 15.133504 0.491330 1.878217 0.010082 -0.007632 -776083.000000 1 0 0
7.448832 3.326231 12.795783 15.175012 0.419976 0.567562 0.004258 -0.004083 -305561.000000 1 0 0
-2.572768 -0.163769 8.523783 8.905102 0.063569 0.293698 0.002275 0.001169 798146.000000 1 0 0
2.189232 -15.213669 13.296883 20.323769 -1.427878 0.857602 -0.004637 0.001991 572544.000000 1 0 0
18.988632 4.598231 -1.671817 19.608846 0.237584 1.656158 0.031755 -0.008555 534978.000000 1 0 0
-0.313868 -13.182369 7.199483 15.023512 1.546991 1.071037 0.007208 -0.000354 -1397140.000000 1 0 0
4.386132 1.665531 -0.592817 4.729015 0.362908 1.696484 0.004738 -0.003710 506329.000000 1 0 0
2.813532 -0.504569 -7.226017 7.770835 -0.177450 2.764908 0.002568 -0.005655 -231427.000000 1 0 0
7.268632 -11.271769 0.935283 13.444722 -0.998048 1.501175 0.007466 -0.002414 288717.000000 1 0 0
-11.899368 -7.421969 1.333383 14.087529 0.557684 1.476005 0.006959 0.001517 320210.000000 1 0 0
0.046932 -7.060769 9.976583 12.222474 -1.564150 0.615908 0.004168 -0.003222 -1956000.000000 1 0 0
-4.743768 -7.196169 10.623283 13.679997 0.987976 0.681615 0.006611 -0.001297 -1120770.000000 1 0 0
11.893032 0.677131 -1.817017 12.050074 0.056874 1.722163 0.006383 -0.000936 2042560.000000 1 0 0
6.491632 -9.654269 -7.416517 13.796772 -0.978828 2.138331 -0.005173 -0.002459 -376083.000000 1 0 0
-10.874768 4.843531 3.496083 12.407375 -0.419015 1.285153 0.004859 -0.008647 24551.400000 1 0 0
6.087832 -9.027269 2.094883 11.087913 -0.977471 1.380720 0.003811 -0.002408 2720830.000000 1 0 0
11.506632 -1.313869 5.861183 12.980073 -0.113691 1.102292 0.016395 -0.004698 162062.000000 1 0 0
-6.471768 3.540931 4.180083 8.479096 -0.500641 1.055277 0.001326 -0.002557 -605603.000000 1 0 0
9.563732 6.360231 -3.197117 11.922209 0.586873 1.842284 0.002805 -0.003153 6834.480000 1 0 0
-2.328268 6.537931 10.862783 12.890517 -1.228683 0.568526 -0.001146 -0.003725 92734.700000 1 0 0
1.846432 9.783631 2.865883 10.360600 1.384264 1.290528 0.001105 -0.001897 114431.000000 1 0 0
2.939632 6.217231 -5.531417 8.825643 1.129128 2.248164 0.002991 -0.006632 -2349780.000000 1 0 0
11.744932 0.119031 -5.852417 13.122819 0.010134 2.033057 0.009283 -0.004465 16297.400000 1 0 0
-2.655268 -12.631569 6.313983 14.369181 1.363604 1.115853 0.012002 0.000522 65880.800000 1 0 0
10.848032 1.793431 -2.863917 11.362140 0.163841 1.825603 0.004518 -0.003176 198383.000000 1 0 0
-8.908568 5.158431 0.814283 10.326425 -0.524866 1.491860 0.003499 -0.003209 -463670.000000 1 0 0
1.208732 -10.141969 5.654283 11.674395 -1.452175 1.065197 0.005745 -0.001537 -100873.000000 1 0 0
9.546632 -5.568769 -0.927817 11.090997 -0.528067 1.654549 0.011775 -0.004607 816980.000000 1 0 0
-7.742968 8.631931 -4.457417 12.423057 -0.839633 1.937780 0.000002 0.000046 -743537.000000 1 0 0
-7.541468 -0.079669 -1.743417 7.740774 0.010564 1.797970 0.005532 -0.003176 -1583830.000000 1 0 0
4.134232 8.928431 2.673183 10.195816 1.137150 1.305511 0.005154 -0.002841 -1710810.000000 1 0 0
-1.304068 -10.706669 -3.732817 11.413469 1.449594 1.903980 0.008329 0.000210 -1197090.000000 1 0 0
3.236632 7.882731 -3.605317 9.252651 1.181187 1.971050 0.007222 -0.008770 75436.000000 1 0 0
-4.402768 1.604831 -11.000417 11.956965 -0.349538 2.738879 0.011433 -0.012047 -349255.000000 1 0 0
1.283732 2.880231 10.892283 11.339556 1.151520 0.281800 0.001865 -0.004317 728945.000000 1 0 0
2.104732 5.494631 -7.923817 9.869536 1.204985 2.502867 0.005887 -0.005039 -187959.000000 1 0 0
15.634832 6.032331 3.977883 17.223837 0.368228 1.337740 0.017452 -0.007922 238317.000000 1 0 0
-4.368268 9.022331 4.561683 11.013318 -1.119899 1.143736 0.002654 0.000369 430406.000000 1 0 0
-0.928368 -8.232369 -12.399517 14.912471 1.458500 2.552574 0.002027 -0.000180 -278902.000000 1 0 0
14.370232 -4.138969 -5.272917 15.856806 -0.280434 1.909785 0.035540 -0.007042 358798.000000 1 0 0
-6.065968 -6.336869 -5.673917 10.447258 0.807237 2.144922 0.017030 -0.004643 585283.000000 1 0 0
-9.017068 2.509631 -12.204617 15.380456 -0.271450 2.487359 0.005533 -0.010586 -1913300.000000 1 0 0
10.439732 5.470131 13.641683 18.027919 0.482641 0.712549 0.008256 -0.003183 527911.000000 1 0 0
-0.466768 10.837931 5.542483 12.181861 -1.527755 1.098448 0.006461 0.003223 309538.000000 1 0 0
0.461532 11.253531 -0.660817 11.282360 1.529807 1.629401 0.007759 -0.004695 -642037.000000 1 0 0
-1.557768 -0.566169 3.639183 3.998855 0.348605 0.427376 0.003120 0.000846 203597.000000 1 0 0
-4.886168 6.736531 8.860983 12.156172 -0.943276 0.754040 0.004181 -0.003027 -846563.000000 1 0 0
3.538132 -8.823969 -11.388717 14.835217 -1.189455 2.446011 -0.006129 0.001961 139643.000000 1 0 0
6.719832 -3.661169 11.983983 14.218866 -0.498866 0.568290 0.014885 -0.000903 -440490.000000 1 0 0
-2.488068 -1.833369 -12.471417 12.848656 0.635041 2.898673 0.012526 -0.012057 920683.000000 1 0 0
-16.081968 -4.943169 5.334083 17.649846 0.298208 1.263779 0.025780 -0.009616 1563340.000000 1 0 0
-8.975768 7.236631 5.767083 12.891567 -0.678535 1.106993 -0.000503 -0.006824 -3812760.000000 1 0 0
-12.977068 1.526231 5.968183 14.364988 -0.117072 1.142340 0.008893 -0.008002 536535.000000 1 0 0
-3.445768 3.624731 10.175183 11.337828 -0.810704 0.456832 0.002744 0.000400 478492.000000 1 0 0
2.021532 -12.405569 -1.112517 12.618337 -1.409263 1.659078 0.005761 -0.004024 -2889530.000000 1 0 0
10.263232 -5.150769 -3.559717 12.022310 -0.465139 1.871396 0.012909 -0.005499 473651.000000 1 0 0
3.382332 -13.559269 1.069883 14.015655 -1.326337 1.494387 0.009889 -0.005934 279695.000000 1 0 0
10.083032 -1.734969 -6.113617 11.918639 -0.170400 2.109409 0.009844 -0.003323 -92119.600000 1 0 0
12.090632 -5.340369 -1.587217 13.312482 -0.415926 1.690308 0.016706 -0.003965 452529.000000 1 0 0
1.458532 1.063531 5.807383 6.081457 0.630042 0.301363 0.000515 0.002294 168034.000000 1 0 0
-10.749768 11.672831 6.553583 17.168633 -0.826542 1.179142 0.006614 -0.012719 -1397540.000000 1 0 0
4.782532 -14.174869 3.270483 15.313249 -1.245395 1.355566 0.011927 -0.002693 -2363750.000000 1 0 0
5.338432 -3.486169 -1.706617 6.600362 -0.578504 1.832332 0.005656 -0.003135 -1383400.000000 1 0 0
2.080732 -2.890669 -7.615117 8.406867 -0.946898 2.704110 0.002105 -0.003814 -22539.900000 1 0 0
-2.823268 14.863531 -8.767417 17.486080 -1.383087 2.096006 0.014336 -0.008051 -877290.000000 1 0 0
-2.282468 6.159731 -8.116717 10.441888 -1.215936 2.461195 0.009357 -0.008214 -528496.000000 1 0 0
2.652832 -3.593469 -11.384017 12.228915 -0.934866 2.767692 0.001513 -0.001259 -505958.000000 1 0 0
14.661432 2.775331 -2.779917 15.178537 0.187081 1.754984 0.020353 0.000467 561671.000000 1 0 0
-3.501668 13.059531 2.251683 13.707046 -1.308827 1.405776 0.002154 -0.001484 -825754.000000 1 0 0
7.786932 -4.881469 13.960383 16.713987 -0.559950 0.582206 0.017728 -0.007485 -921940.000000 1 0 0
-11.458868 7.206631 3.041283 13.874098 -0.561408 1.349796 0.005061 -0.006094 940633.000000 1 0 0
-2.255168 11.929531 4.134783 12.825597 -1.383960 1.242548 0.005923 0.000134 353886.000000 1 0 0
1.779132 1.411131 0.618883 2.353640 0.670554 1.304721 0.000812 -0.000939 -1663630.000000 1 0 0
-6.857868 8.584831 5.211483 12.160972 -0.896766 1.127918 -0.000847 -0.003900 152982.000000 1 0 0
-1.071968 9.141831 1.046383 9.263752 -1.454070 1.457600 0.002912 -0.001257 688665.000000 1 0 0
4.907332 12.887431 -8.562217 16.232047 1.206964 2.126438 0.019543 -0.020492 -1438500.000000 1 0 0
8.930432 6.899231 7.138883 13.353489 0.657779 1.006752 -0.000262 -0.002753 -1776980.000000 1 0 0
7.232432 -13.802469 3.076083 15.883278 -1.088137 1.375897 0.018722 -0.005900 -864097.000000 1 0 0
4.207032 -13.364369 -1.184617 14.060896 -1.265822 1.655145 0.001426 -0.000785 -3284890.000000 1 0 0
12.167932 -11.810269 -4.500317 17.544055 -0.770483 1.830211 0.029379 -0.004140 -956266.000000 1 0 0
2.968232 0.009431 -1.972617 3.563946 0.003177 2.157348 0.006600 -0.004558 913168.000000 1 0 0
-13.701868 -3.277869 -10.597317 17.629201 0.234815 2.215702 0.029293 -0.012171 -219104.000000 1 0 0
-6.585368 13.658931 4.928283 15.944323 -1.121547 1.256557 0.008295 -0.008273 662512.000000 1 0 0
7.353432 -4.257669 -0.492017 8.511333 -0.524838 1.628636 0.007480 -0.001673 -571990.000000 1 0 0
11.790032 2.137531 -7.329617 14.046251 0.179352 2.119780 0.009550 -0.001783 -479975.000000 1 0 0
-7.515468 -4.574269 9.710883 13.103719 0.546754 0.736121 0.007725 0.001177 496821.000000 1 0 0
1.003232 2.866031 8.331683 8.867782 1.234084 0.349496 -0.000577 -0.000730 -2589360.000000 1 0 0
1.702032 8.016031 -8.581317 11.865608 1.361575 2.379234 0.007217 -0.006554 -581608.000000 1 0 0
-8.696268 -2.228569 -5.585217 10.572901 0.250869 2.127344 0.015658 -0.005982 -618286.000000 1 0 0
6.594032 -0.507869 6.994383 9.626037 -0.076868 0.757420 0.002887 0.003366 68786.300000 1 0 0
-10.835868 6.605631 7.198283 14.589917 -0.547454 1.054832 0.003262 -0.007772 -229010.000000 1 0 0
-5.974668 11.124431 4.830283 13.519662 -1.077929 1.205444 -0.002398 -0.001410 -821653.000000 1 0 0
5.992832 -1.220169 -6.858617 9.189313 -0.200859 2.413386 0.000007 -0.003753 -657736.000000 1 0 0
4.577132 -5.793669 11.463183 13.635297 -0.902169 0.572223 0.004484 -0.003593 -1103060.000000 1 0 0
-8.997668 -7.377169 2.734583 11.952347 0.686757 1.339961 0.011671 -0.001166 -2056510.000000 1 0 0
-1.313068 12.711431 -9.353317 15.836324 -1.467863 2.202629 0.014928 -0.005440 435755.000000 1 0 0
-4.694068 9.208831 -2.311217 10.591438 -1.099391 1.790782 0.001623 -0.002756 261318.000000 1 0 0
-3.232568 9.677631 -0.296517 10.207544 -1.248424 1.599849 0.004351 -0.003063 -2180460.000000 1 0 0
-3.517568 10.676831 -6.481617 12.976107 -1.252538 2.093822 0.007901 -0.000203 886294.000000 1 0 0
4.864832 -4.862869 0.425583 6.891677 -0.785196 1.509004 0.005767 -0.002424 -947109.000000 1 0 0
-2.180868 2.844331 -10.768917 11.349712 -0.916666 2.820298 0.011599 -0.010425 -393851.000000 1 0 0
-3.536868 11.983331 -2.255917 12.696410 -1.283796 1.749426 0.000779 0.000742 703039.000000 1 0 0
-0.280768 0.292431 0.110683 0.420235 -0.805743 1.304267 0.003984 -0.001848 -2045400.000000 1 0 0
-4.758768 -1.771969 0.046583 5.078180 0.356453 1.561623 0.005766 -0.002781 13414.200000 1 0 0
2.629032 2.501431 -2.462617 4.385596 0.760532 2.167023 -0.001769 -0.005112 1983900.000000 1 0 0
6.092132 -9.671169 8.581383 14.292856 -1.008662 0.926799 0.002400 0.001485 -1311340.000000 1 0 0
-4.357468 -5.561269 6.582283 9.656174 0.906174 0.820759 0.003703 -0.002772 -86041.500000 1 0 0
-6.235468 5.252331 -12.008117 14.514231 -0.700025 2.545141 -0.006110 -0.011885 414948.000000 1 0 0
-12.943668 3.043231 7.969483 15.502015 -0.230920 1.030846 0.015077 -0.010197 536389.000000 1 0 0
4.720432 -7.311469 -5.010717 10.042278 -0.997506 2.093197 -0.004061 -0.002123 -36880.300000 1 0 0
-6.085468 2.364131 -1.059217 6.613923 -0.370543 1.731638 0.007623 -0.003187 -556585.000000 1 0 0
-6.954068 -2.727469 -14.513317 16.322822 0.373775 2.666265 0.017810 -0.009734 116386.000000 1 0 0
2.713932 -6.049769 0.847983 6.684625 -1.149106 1.443598 0.004181 0.000475 -763792.000000 1 0 0
4.964332 -7.802569 13.198283 16.115811 -1.004153 0.611191 0.003520 -0.005902 109958.000000 1 0 0
-10.053568 -1.607869 7.948883 12.916819 0.158587 0.907915 0.009209 0.000650 -360921.000000 1 0 0
-4.486868 13.243931 -0.097617 13.983677 -1.244146 1.577777 -0.000938 0.001440 372692.000000 1 0 0
6.811132 2.239731 -4.443617 8.435262 0.317696 2.125617 0.000611 -0.002660 -1574180.000000 1 0 0
5.014232 4.550731 0.036783 6.771487 0.736978 1.565364 0.000826 -0.002729 -325423.000000 1 0 0
-5.858768 12.263231 1.941383 13.728837 -1.125106 1.428912 0.000674 -0.002462 640465.000000 1 0 0
6.532232 -7.343569 6.580383 11.827912 -0.843803 0.980817 0.005525 -0.003285 -2109040.000000 1 0 0
-0.334268 4.998131 7.790483 9.262002 -1.504017 0.571440 -0.000309 -0.001406 -876710.000000 1 0 0
-5.827168 -3.423369 -1.651117 6.957120 0.531166 1.810410 0.011652 -0.003892 -616916.000000 1 0 0
2.313932 -6.615769 -5.286417 8.778888 -1.234335 2.217017 -0.002761 -0.000948 -956085.000000 1 0 0
-14.470368 -4.785169 -3.795417 15.706514 0.319367 1.814858 0.013362 -0.006575 -686080.000000 1 0 0
-12.473368 -5.156169 -6.315817 14.901695 0.391982 2.008468 0.017965 -0.009615 -1555020.000000 1 0 0
-14.944368 -3.813769 -1.265717 15.475174 0.249865 1.652678 0.007548 -0.001177 483530.000000 1 0 0
11.950632 2.970831 8.701583 15.078495 0.243653 0.955641 0.010796 -0.003335 -1297920.000000 1 0 0
8.739632 -6.580969 7.710383 13.384332 -0.645420 0.956877 0.012735 -0.007048 -99437.200000 1 0 0
-8.920568 -1.689869 -9.735217 13.311898 0.187217 2.391047 0.016079 -0.008457 211845.000000 1 0 0
-8.756668 5.029531 -3.891517 10.822168 -0.521358 1.938622 0.002225 -0.003885 -49907.800000 1 0 0
-4.140368 -6.223569 4.099183 8.525184 0.983760 1.069193 0.009623 -0.002792 -1424060.000000 1 0 0
-0.207668 -9.346669 3.560983 10.004197 1.548582 1.206867 0.007239 -0.002150 -392647.000000 1 0 0
7.955332 -10.364169 3.417983 13.505033 -0.916138 1.314924 0.010162 -0.003243 -717491.000000 1 0 0
-0.067168 6.670231 9.582183 11.675390 -1.560727 0.608133 0.002583 -0.006717 -516080.000000 1 0 0
-0.029268 3.383531 -9.530117 10.112975 -1.562146 2.800427 0.012489 -0.008557 -904475.000000 1 0 0
4.545032 -3.100469 10.969883 12.272268 -0.598657 0.464879 0.006727 -0.002152 -2797440.000000 1 0 0
8.527732 -9.116169 1.222683 12.542795 -0.818737 1.473160 0.010283 -0.003437 740.485000 1 0 0
-0.305668 -0.462469 11.319083 11.332650 0.986763 0.048936 0.005916 -0.000232 -1383810.000000 1 0 0
10.815432 6.138431 11.262483 16.777886 0.516227 0.834876 0.010082 -0.003198 -409131.000000 1 0 0
-6.364768 -2.916269 -11.866717 13.778021 0.429643 2.608577 0.015913 -0.009552 862267.000000 1 0 0
-1.626668 2.874731 8.411983 9.037234 -1.055865 0.374163 0.003678 -0.001112 368395.000000 1 0 0
-1.749768 13.467731 -6.908117 15.236914 -1.441597 2.041351 0.008818 -0.002330 680509.000000 1 0 0
7.759332 3.160931 9.776983 12.875874 0.386845 0.708520 0.001171 0.001020 676122.000000 1 0 0
6.622632 8.359831 -8.065217 13.371378 0.900832 2.218266 0.004392 -0.005361 -370288.000000 1 0 0
6.733132 -3.011669 -3.957217 8.370471 -0.420599 2.063216 0.003092 -0.003020 -1673200.000000 1 0 0
2.130732 8.177531 0.990683 8.508436 1.315904 1.454096 0.002407 -0.001932 648277.000000 1 0 0
-17.735268 6.340131 6.458483 19.911027 -0.343329 1.240454 0.043947 -0.012212 267791.000000 1 0 0
-14.742268 3.303031 -10.433817 18.360528 -0.220412 2.175203 0.045241 -0.006689 -1003930.000000 1 0 0
-18.428568 0.051231 -4.433417 18.954417 -0.002780 1.806882 0.063772 -0.014887 388783.000000 1 0 0
-13.140968 7.715431 0.178883 15.239584 -0.530901 1.559058 0.010580 -0.000909 -2373240.000000 1 0 0
-12.777568 -4.345969 -12.784517 18.590254 0.327850 2.329112 0.038395 -0.006774 -582600.000000 1 0 0
-17.435768 -0.660469 -8.722617 19.507082 0.037862 2.034374 0.040461 -0.017114 -592219.000000 1 0 0
-16.758568 -2.109969 -2.079617 17.018413 0.125245 1.693301 0.039160 -0.008127 -1251570.000000 1 0 0
-15.372568 4.131631 1.677683 16.006275 -0.262562 1.465789 0.021446 -0.000763 -673418.000000 1 0 0
-13.175868 5.794831 4.553383 15.096916 -0.414345 1.264415 0.011023 -0.007278 -437400.000000 1 0 0
-9.981768 14.263031 2.739383 17.623109 -0.960181 1.414721 0.025096 -0.007270 -146604.000000 1 0 0
-11.863768 2.458531 -6.454817 13.728001 -0.204338 2.060306 0.003735 0.000528 302079.000000 1 0 0
-15.940868 10.653431 3.920783 19.569860 -0.589139 1.369083 0.035422 -0.013083 -721838.000000 1 0 0
-12.863468 1.156231 -8.551917 15.490027 -0.089644 2.155667 0.014642 -0.007096 780319.000000 1 0 0
-12.282968 14.443231 4.027483 19.382952 -0.866052 1.361487 0.047659 -0.018177 -340798.000000 1 0 0
-10.268968 11.168931 -1.030817 15.207212 -0.827354 1.638633 0.010178 -0.000553 492187.000000 1 0 0
-17.009368 5.684631 8.888183 20.015829 -0.322536 1.110674 0.030212 -0.020021 -41909.900000 1 0 0
-11.784968 12.259331 -9.105917 19.289748 -0.805124 2.062422 0.026593 -0.020134 -349897.000000 1 0 0
-17.264268 -0.434369 3.088583 17.543744 0.025155 1.393824 0.045562 -0.009167 592691.000000 1 0 0
-13.116168 14.840431 -0.875317 19.825197 -0.846997 1.614962 0.056772 -0.011055 77228.900000 1 0 0
-16.681168 5.044231 -10.083517 20.134124 -0.293649 2.095339 0.084306 -0.021912 266838.000000 1 0 0
-11.711768 7.430731 -9.103617 16.590874 -0.565378 2.151619 0.005357 -0.005585 -549515.000000 1 0 0
-14.899068 13.349131 -2.098917 20.114347 -0.730585 1.675336 0.069092 -0.013867 1414900.000000 1 0 0
-11.822868 10.564331 -5.468317 16.771636 -0.729240 1.902914 0.022033 -0.001421 709456.000000 1 0 0
-17.741868 2.733231 -0.956417 17.976628 -0.152854 1.624025 0.051991 -0.003761 -553609.000000 1 0 0
-9.403668 15.483031 0.657183 18.126917 -1.024988 1.534534 0.031616 -0.011980 74924.900000 1 0 0
-8.109468 13.183731 -3.614017 15.894507 -1.019339 1.800178 0.010672 -0.001875 -523236.000000 1 0 0
-17.972768 11.546331 2.344783 21.490373 -0.571039 1.461470 0.112859 -0.009173 75098.200000 1 0 0
-8.134668 15.608831 -7.350017 19.074359 -1.090366 1.966367 0.050274 -0.023362 -74233.300000 1 0 0
-6.389268 15.252031 -5.371417 17.386757 -1.174093 1.884872 0.013298 -0.004422 -822653.000000 1 0 0
-17.533668 5.218531 -0.217317 18.295076 -0.289280 1.582675 0.060830 -0.000449 713722.000000 1 0 0
-5.430568 12.231231 -12.211617 18.116778 -1.152950 2.310474 -0.003367 -0.013572 -517345.000000 1 0 0
-11.240668 3.643231 -11.440017 16.446876 -0.313428 2.340015 0.012492 -0.012165 21628.300000 1 0 0
-11.712768 11.113231 1.195983 16.190220 -0.759139 1.496858 0.015027 -0.006208 249452.000000 1 0 0
-12.926068 0.206731 -11.006117 16.978238 -0.015992 2.276078 0.014251 -0.010655 88674.300000 1 0 0
-14.211568 -2.080069 -12.819617 19.251959 0.145333 2.299478 0.040606 -0.011595 117830.000000 1 0 0
-18.830168 -2.346269 -3.750217 19.342811 0.123963 1.765914 0.055365 -0.011952 -244502.000000 1 0 0
-18.180168 4.747231 -5.218217 19.500884 -0.255418 1.841686 0.059896 -0.013027 -58076.900000 1 0 0
-8.141468 15.384031 -2.281617 17.554421 -1.084050 1.701139 0.027569 -0.008565 -994967.000000 1 0 0
-16.115068 9.057531 -5.251817 19.217592 -0.512050 1.847599 0.054381 -0.006508 9129.840000 1 0 0
-18.320868 1.705331 2.191783 18.530145 -0.092814 1.452237 0.064234 -0.009740 381622.000000 1 0 0
-15.770268 -2.712469 -8.937417 18.328564 0.170332 2.080161 0.028914 -0.005363 -401929.000000 1 0 0
-9.567668 10.430431 -7.028817 15.803114 -0.828514 2.031718 0.005868 -0.005960 145303.000000 1 0 0
-14.006868 11.766731 -7.823017 19.895927 -0.698700 1.974902 0.054915 -0.017334 -105059.000000 1 0 0
-10.957368 6.523831 -3.759617 13.295074 -0.537018 1.857490 0.003651 0.000019 -2652280.000000 1 0 0
-13.096568 5.067431 -12.758217 18.972903 -0.369187 2.308302 0.049166 -0.020075 576965.000000 1 0 0
-17.556568 8.997131 2.698683 19.911412 -0.473570 1.434843 0.044322 -0.016864 811962.000000 1 0 0
-13.401068 8.672231 -6.502817 17.236091 -0.574355 1.957653 0.022177 -0.002441 -1048520.000000 1 0 0
-15.745268 6.826331 -3.774617 17.571567 -0.409089 1.787298 0.027008 0.000777 -1049440.000000 1 0 0
-14.934568 -0.238069 -9.370617 17.632539 0.015939 2.131095 0.029000 -0.010228 -348007.000000 1 0 0
-10.091168 5.750331 -6.104417 13.121047 -0.517946 2.054700 0.000997 -0.002431 -61224.800000 1 0 0
-12.693368 12.190331 -0.923517 17.623241 -0.765185 1.623224 0.030237 -0.004955 38323.200000 1 0 0
-10.708868 3.457531 -13.952317 17.924885 -0.312301 2.462873 0.012502 -0.011055 -5622.180000 1 0 0
-10.870768 6.175531 -11.916917 17.272049 -0.516623 2.332222 0.001672 -0.015161 -917176.000000 1 0 0
-5.885068 11.422031 -14.812917 19.609164 -1.095033 2.427073 0.007459 -0.024543 -44836.800000 1 0 0
-15.525068 13.228631 3.448683 20.686175 -0.705702 1.403300 0.041597 -0.023638 251654.000000 1 0 0
-15.124368 10.898231 -3.068817 18.892739 -0.624401 1.733953 0.055576 -0.002653 86660.300000 1 0 0
-18.110668 7.615531 -4.461617 20.146926 -0.398053 1.794102 0.057089 -0.009454 -107947.000000 1 0 0
-4.093968 16.235631 -10.647917 19.842742 -1.323786 2.137217 0.029968 -0.008291 -344590.000000 1 0 0
-15.663168 4.279431 -4.438017 16.832835 -0.266707 1.837603 0.029984 -0.000065 -17509.100000 1 0 0
-18.618168 -1.788569 -6.333117 19.746988 0.095772 1.897279 0.042769 -0.013717 280693.000000 1 0 0
-10.799668 8.510631 -5.824217 14.932688 -0.667409 1.971462 0.000669 0.000757 1100370.000000 1 0 0
-11.260468 13.445331 -6.743917 18.789770 -0.873604 1.937901 0.032849 -0.010712 512925.000000 1 0 0
-9.462168 10.483931 -4.417717 14.797353 -0.836580 1.873967 -0.006004 0.002399 -555964.000000 1 0 0
-11.022768 6.374531 -0.065417 12.733434 -0.524315 1.575934 0.004331 0.000577 -436000.000000 1 0 0
-14.743668 9.277831 -1.180517 17.459883 -0.561668 1.638461 0.042203 -0.001849 -188252.000000 1 0 0
-18.814968 3.470931 4.765883 19.717100 -0.182426 1.326665 0.058593 -0.015111 367119.000000 1 0 0
-14.627568 13.216131 0.483483 19.719676 -0.734750 1.546276 0.037418 -0.004354 466017.000000 1 0 0
-16.767168 2.595631 -9.112317 19.259012 -0.153585 2.063654 0.049472 -0.014202 81684.300000 1 0 0
-9.056268 8.364931 -8.827217 15.162711 -0.745735 2.192187 -0.002705 -0.003294 -2436900.000000 1 0 0
-17.685268 4.597931 -2.753717 18.479519 -0.254355 1.720368 0.045655 0.000294 1084860.000000 1 0 0
-13.425068 5.705531 -4.251817 15.194192 -0.401863 1.854415 0.015172 0.002364 -1026400.000000 1 0 0
-12.077468 9.707531 3.389083 15.861503 -0.677037 1.355469 0.009228 -0.005484 -65446.400000 1 0 0
-17.522268 2.465231 -4.111217 18.166159 -0.139774 1.799086 0.041263 -0.005688 984160.000000 1 0 0
-11.292768 1.356231 -12.620817 16.989732 -0.119525 2.408113 0.015682 -0.007405 -60246.400000 1 0 0
-11.118068 12.124331 3.539683 16.826770 -0.828665 1.358853 0.017837 -0.011270 146806.000000 1 0 0
-16.171268 13.084731 -4.285417 21.238759 -0.680286 1.773965 0.072704 -0.012546 689145.000000 1 0 0
-11.071068 4.077331 -4.517917 12.633477 -0.352872 1.936509 -0.001085 -0.001043 -125302.000000 1 0 0
-11.216868 14.826931 -8.941517 20.630238 -0.923136 2.019078 0.046843 -0.018905 238951.000000 1 0 0
-15.516868 6.926131 -0.141217 16.993070 -0.419824 1.579107 0.035959 0.002210 -806330.000000 1 0 0
-12.721168 8.374331 -4.054017 15.760475 -0.582187 1.830948 0.012914 0.001750 637468.000000 1 0 0
-19.343368 2.008831 -5.945317 20.335881 -0.103480 1.867486 0.091856 -0.016934 517277.000000 1 0 0
-12.625368 9.818831 -8.961417 18.333476 -0.660999 2.081511 0.025103 -0.014598 729768.000000 1 0 0
-16.797068 10.921031 -0.947617 20.057627 -0.576498 1.618059 0.064191 -0.006971 797419.000000 1 0 0
-10.648368 6.368631 -14.498617 19.082900 -0.539010 2.433756 0.017950 -0.023187 -111299.000000 1 0 0
-13.564668 12.742031 -4.216417 19.082393 -0.754137 1.793593 0.045440 -0.012450 -115032.000000 1 0 0
-18.022268 7.769031 -0.206217 19.626576 -0.407009 1.581304 0.077746 -0.006009 60466.100000 1 0 0
-12.673168 6.656231 -2.058617 14.462106 -0.483621 1.713627 0.002922 0.005327 533844.000000 1 0 0
-13.637568 8.087131 -10.709917 19.133407 -0.535259 2.164880 0.034503 -0.011970 -120751.000000 1 0 0
-14.981268 1.329031 -0.896417 15.066794 -0.088481 1.630328 0.012281 -0.002636 -769953.000000 1 0 0
-13.452568 2.824231 -2.425717 13.958222 -0.206935 1.745467 0.007091 -0.000086 778256.000000 1 0 0
-11.234668 9.209131 -11.010617 18.227988 -0.686642 2.219370 0.015595 -0.013958 222627.000000 1 0 0
-15.162368 4.294731 -8.063217 17.701909 -0.276019 2.043730 0.026309 -0.008557 423697.000000 1 0 0
-18.383168 10.326831 4.682483 21.598841 -0.511823 1.352268 0.097718 -0.037229 126792.000000 1 0 0
-15.109568 6.077831 -6.135817 17.403658 -0.382445 1.931101 0.033767 -0.002681 589651.000000 1 0 0
-7.741968 11.216231 -12.980017 18.820806 -0.966646 2.331820 -0.007831 -0.014862 -1998440.000000 1 0 0
-16.787668 9.011631 -2.709217 19.245133 -0.492653 1.712040 0.055601 -0.006445 898400.000000 1 0 0
-20.735968 -1.206469 -4.812517 21.321263 0.058117 1.798473 0.089526 -0.022764 -330386.000000 1 0 0
-15.520168 4.483431 4.159883 16.681768 -0.281222 1.318770 0.022248 -0.007402 95225.400000 1 0 0
-6.959768 12.525031 -9.439517 17.158649 -1.063611 2.153318 0.006284 -0.009958 214112.000000 1 0 0
-17.417468 1.500331 5.709283 18.390625 -0.085927 1.255135 0.048764 -0.018987 220850.000000 1 0 0
-10.376468 14.331331 -2.947417 17.937263 -0.944117 1.735863 0.043642 -0.013813 2066800.000000 1 0 0
-9.958168 8.336631 -12.969417 18.354027 -0.696995 2.355514 -0.003466 -0.018748 -406708.000000 1 0 0
-13.637368 11.635031 2.759483 18.137434 -0.706333 1.418060 0.031867 -0.015144 -625358.000000 1 0 0
-17.008268 6.560931 1.896383 18.328209 -0.368161 1.467143 0.041909 -0.003144 690862.000000 1 0 0
-9.349168 13.100631 -8.431117 18.169128 -0.950973 2.053342 0.026915 -0.017288 -193545.000000 1 0 0
-5.620968 9.742231 -12.932717 17.139472 -1.047483 2.425776 -0.003153 -0.012687 -402294.000000 1 0 0
-15.974168 1.891731 3.168883 16.394954 -0.117875 1.376288 0.020284 -0.007312 -692239.000000 1 0 0
-18.700968 -4.698469 4.647883 19.834430 0.246147 1.334263 0.059919 -0.016997 609896.000000 1 0 0
-5.335068 14.395031 -9.215517 17.905463 -1.215872 2.111426 0.010346 -0.006530 -942522.000000 1 0 0
-15.582068 -0.855369 -6.937417 17.078063 0.054839 1.989108 0.027299 -0.008157 892135.000000 1 0 0
-8.958868 10.819131 -9.515517 16.966436 -0.879179 2.166201 0.000043 -0.012880 102571.000000 1 0 0
-16.841768 1.262931 -6.200517 17.991291 -0.074848 1.922651 0.033390 -0.008082 -224176.000000 1 0 0
-11.316968 8.762331 -1.366217 14.377717 -0.658851 1.665963 0.000820 0.004024 -1326220.000000 1 0 0
-10.654768 10.858831 -12.974017 19.994084 -0.794883 2.276925 0.020361 -0.013634 -556551.000000 1 0 0
-13.975668 11.520831 -10.338717 20.855165 -0.689413 2.089482 0.066361 -0.029472 -287294.000000 1 0 0
-12.987468 5.676131 -7.588717 16.077357 -0.412030 2.062369 0.016463 0.000540 -785402.000000 1 0 0
-8.899568 15.455931 -4.795317 18.468437 -1.048359 1.833455 0.032901 -0.012257 256126.000000 1 0 0
-8.573068 6.031131 -12.988917 16.690835 -0.613069 2.462601 -0.005299 -0.014241 -1715030.000000 1 0 0
-16.529468 7.408231 4.323183 18.622436 -0.421342 1.336510 0.043527 -0.009638 -227790.000000 1 0 0
-12.627668 5.350431 -10.165917 17.071349 -0.400775 2.208679 0.022600 -0.008603 -240573.000000 1 0 0
-12.431368 8.868531 -13.408117 20.321598 -0.619662 2.291344 0.045848 -0.028893 -210407.000000 1 0 0
-10.672468 5.025431 -8.566517 14.578811 -0.440080 2.198887 0.000178 -0.001806 -1376820.000000 1 0 0
-17.773368 -4.420569 -2.700017 18.512810 0.243772 1.717164 0.039032 -0.009798 365307.000000 1 0 0
-9.100968 13.021831 -10.943617 19.291409 -0.960808 2.173995 0.032997 -0.017048 -34000.300000 1 0 0
-15.122368 6.132531 6.148483 17.438400 -0.385262 1.210466 0.024281 -0.014266 -823052.000000 1 0 0
-16.370468 -3.060969 -4.452417 17.239077 0.184847 1.832032 0.024321 -0.005944 747221.000000 1 0 0
-11.278368 -1.213669 -12.643717 16.986411 0.107198 2.410347 0.020381 -0.004776 997060.000000 1 0 0
-15.042568 6.914631 -8.478517 18.600436 -0.430867 2.044094 0.028965 -0.004085 -809034.000000 1 0 0
-14.915568 9.032631 1.351383 17.489678 -0.544515 1.493452 0.039158 -0.008525 -283782.000000 1 0 0
-19.411868 5.357331 8.205183 21.745037 -0.269279 1.183878 0.061634 -0.023967 695351.000000 1 0 0
-16.348968 0.483731 0.963283 16.384464 -0.029579 1.511970 0.034081 -0.006191 -1433860.000000 1 0 0
-17.546568 3.769831 7.057283 19.284681 -0.211630 1.196140 0.034002 -0.013881 715473.000000 1 0 0
-15.534568 3.958331 -1.456817 16.097003 -0.249499 1.661423 0.023429 -0.003192 -1825810.000000 1 0 0
-10.686868 13.398231 0.286783 17.140711 -0.897501 1.554064 0.026632 -0.010528 -430482.000000 1 0 0
-13.563168 3.324131 0.093483 13.964888 -0.240348 1.564102 0.012148 -0.001501 -491236.000000 1 0 0
-15.323868 0.059531 -4.404217 15.944328 -0.003885 1.850660 0.019858 -0.002367 -191968.000000 1 0 0
-18.980868 6.964231 3.657583 20.546332 -0.351657 1.391826 0.055497 -0.011147 67399.400000 1 0 0
-14.226568 1.333031 -6.401717 15.657400 -0.093427 1.992003 0.016045 -0.004576 36277.200000 1 0 0
-14.219668 12.015631 5.267083 19.347261 -0.701585 1.295077 0.027514 -0.022027 168426.000000 1 0 0
17.741632 5.486531 6.040983 19.528467 0.299918 1.256295 0.053372 -0.019323 128642.000000 1 0 0
18.504032 7.562331 -0.286617 19.991754 0.387971 1.585134 0.043930 -0.013658 -149084.000000 1 0 0
16.706532 5.324031 8.472183 19.473865 0.308505 1.120698 0.072545 -0.013736 276397.000000 1 0 0
11.769432 12.389031 10.853183 20.243498 0.811040 1.004948 0.029314 -0.013791 590820.000000 1 0 0
-2.256068 16.282931 -0.583717 16.448842 -1.433119 1.606291 -0.003922 -0.001175 -80109.600000 1 0 0
15.044732 12.760931 3.144683 19.976846 0.703448 1.412722 0.033629 -0.004769 358288.000000 1 0 0
13.808732 11.633231 6.699383 19.258632 0.700097 1.215505 0.037243 -0.011751 771355.000000 1 0 0
-0.664668 16.022731 8.555283 18.175879 -1.529337 1.080719 0.016337 0.000902 -284643.000000 1 0 0
0.782132 12.932631 9.297083 15.946800 1.510392 0.948372 0.016255 -0.005386 -679002.000000 1 0 0
0.826732 15.463731 -4.010817 15.996785 1.517385 1.824227 0.006633 -0.004068 -1312920.000000 1 0 0
5.579032 10.351831 13.416583 17.840704 1.076483 0.719674 0.032010 -0.017013 285361.000000 1 0 0
-1.276368 16.354931 -2.846517 16.649791 -1.492912 1.742604 0.001240 -0.005072 -727640.000000 1 0 0
8.684632 10.023931 3.422883 13.697378 0.856864 1.318226 0.007223 -0.002102 -33463.200000 1 0 0
12.707032 13.508431 -4.937417 19.191781 0.815958 1.830990 0.073250 -0.023810 190125.000000 1 0 0
2.571832 11.603731 7.758683 14.193592 1.352684 0.992459 0.016734 -0.001478 580886.000000 1 0 0
-0.317768 14.995731 -8.661217 17.320208 -1.549609 2.094469 0.010868 -0.007967 -1450110.000000 1 0 0
2.449232 15.979331 0.171683 16.166856 1.418705 1.560177 0.013304 -0.004674 -597255.000000 1 0 0
1.831532 13.465531 5.170583 14.539944 1.435610 1.207227 0.010331 0.002810 1592510.000000 1 0 0
17.611332 9.142631 -2.119617 19.955939 0.478837 1.677212 0.038589 -0.007692 271879.000000 1 0 0
-7.280868 14.927531 7.116483 18.068939 -1.116999 1.165978 0.018269 -0.014674 592208.000000 1 0 0
8.736432 15.959031 -0.082617 18.194031 1.069929 1.575337 0.026766 -0.008641 200765.000000 1 0 0
15.730532 10.433131 2.174683 19.000766 0.585627 1.456093 0.029974 -0.003069 469114.000000 1 0 0
14.307432 7.434631 8.704483 18.323329 0.479231 1.075776 0.035851 -0.012790 -649734.000000 1 0 0
4.067332 18.734331 -2.043217 19.279344 1.357008 1.676975 0.027089 -0.015985 -281233.000000 1 0 0
-0.539768 17.512731 -4.831917 18.175107 -1.539985 1.839886 0.011622 -0.007423 267329.000000 1 0 0
1.417332 13.648131 -0.790817 13.744297 1.467319 1.628366 0.008738 -0.003790 37267.700000 1 0 0
10.492932 14.657931 4.249483 18.520655 0.949509 1.339288 0.026202 -0.012027 18749.400000 1 0 0
-1.613768 15.304331 -5.197417 16.243150 -1.465739 1.896500 0.004044 -0.003903 -239881.000000 1 0 0
15.157632 8.592031 -6.140817 18.473940 0.515684 1.909648 0.045460 -0.014409 -28856.200000 1 0 0
-2.295968 18.495031 0.824083 18.655207 -1.447288 1.526608 0.003860 -0.005230 -1688240.000000 1 0 0
-3.740568 19.400931 3.488983 20.063922 -1.380330 1.396014 0.021190 -0.011946 323949.000000 1 0 0
1.817132 17.616031 -2.806717 17.930538 1.468008 1.727975 0.008175 -0.010056 -513961.000000 1 0 0
2.925832 12.168831 3.263283 12.934062 1.334839 1.315738 0.008079 0.001232 94644.900000 1 0 0
-2.518168 16.098831 1.931283 16.408638 -1.415634 1.452824 0.002724 -0.004769 -1271390.000000 1 0 0
11.824432 12.892631 -2.684117 17.698633 0.828588 1.723040 0.028828 -0.000641 370659.000000 1 0 0
7.364132 11.677731 4.723783 14.591572 1.008171 1.241123 0.005554 0.000456 -28602.700000 1 0 0
7.329432 15.989231 1.950383 17.696895 1.140981 1.460362 0.025380 -0.004549 -1062970.000000 1 0 0
5.593232 12.255431 10.074283 16.821743 1.142643 0.928689 0.022335 -0.002973 2815140.000000 1 0 0
-1.363168 14.166231 3.153883 14.576944 -1.474865 1.352711 0.005178 -0.001307 -981775.000000 1 0 0
4.810232 16.238731 1.329283 16.988282 1.282811 1.492469 0.021909 -0.008298 -2280950.000000 1 0 0
7.381432 13.186931 11.888483 19.228019 1.060496 0.904232 0.033638 -0.007714 358898.000000 1 0 0
0.551532 17.245931 -9.443717 19.670031 1.538827 2.071573 0.018619 -0.010730 288441.000000 1 0 0
9.965232 9.596131 15.489583 20.768216 0.766532 0.729015 0.033262 -0.009462 -658927.000000 1 0 0
13.565632 7.550031 -0.132917 15.525689 0.507863 1.579358 0.005788 0.000544 -205753.000000 1 0 0
12.662132 13.506831 -0.310817 18.516498 0.817666 1.587583 0.036498 -0.005636 478373.000000 1 0 0
9.560532 12.366431 3.372883 15.990895 0.912672 1.358275 0.013164 0.000862 1560190.000000 1 0 0
-0.649868 12.856931 0.631183 12.888809 -1.520293 1.521805 0.005275 -0.003070 -933136.000000 1 0 0
15.997632 7.247431 -0.932717 17.587480 0.425372 1.623854 0.024926 -0.003663 -1256570.000000 1 0 0
-4.178368 18.488331 -2.314917 19.095444 -1.348530 1.692324 0.016971 -0.002968 73607.800000 1 0 0
11.561632 9.155931 -3.319317 15.116887 0.669797 1.792177 0.015894 -0.004177 429098.000000 1 0 0
14.875332 9.658731 7.716083 19.341782 0.575891 1.160443 0.039655 -0.015020 1436810.000000 1 0 0
4.501332 13.732331 4.692983 15.194177 1.254042 1.256795 0.015064 0.001639 925952.000000 1 0 0
2.237732 15.975531 5.589383 17.072383 1.431629 1.237253 0.018006 0.000723 313850.000000 1 0 0
6.310632 18.154031 5.540983 20.002385 1.236247 1.290109 0.032845 -0.023609 7896.460000 1 0 0
10.989432 17.107931 -0.842917 20.350907 0.999811 1.612227 0.050453 -0.019314 -1488590.000000 1 0 0
10.043832 13.570131 -4.501617 17.472595 0.933634 1.831374 0.048947 -0.008507 2589620.000000 1 0 0
16.454632 7.917031 2.313383 18.406142 0.448449 1.444778 0.005615 -0.005991 -389959.000000 1 0 0
4.044832 14.044231 -0.610517 14.627844 1.290379 1.612545 0.012054 -0.003565 152338.000000 1 0 0
5.598932 12.999931 -2.503117 14.373999 1.164117 1.745831 0.009851 -0.005611 -177124.000000 1 0 0
-6.103868 16.823231 -3.011117 18.147868 -1.222743 1.737488 0.015879 -0.005823 -1977400.000000 1 0 0
18.254132 9.758531 2.791683 20.886258 0.490938 1.436734 0.045211 -0.014376 414941.000000 1 0 0
8.132632 13.100931 9.437683 18.078827 1.015246 1.021567 0.023904 -0.002936 1150990.000000 1 0 0
-2.453368 15.752931 6.641083 17.270722 -1.416297 1.176099 0.008743 -0.003573 -17806.200000 1 0 0
11.543732 16.028531 6.233283 20.712928 0.946642 1.265121 0.035335 -0.012308 49168.200000 1 0 0
13.609332 11.807731 1.251683 18.061095 0.714635 1.501438 0.027497 -0.004691 -630475.000000 1 0 0
17.588632 7.744831 -5.450617 19.976276 0.414785 1.847155 0.045358 0.003351 506066.000000 1 0 0
9.637432 9.297331 7.938383 15.567222 0.767438 1.035679 0.009031 -0.002358 467461.000000 1 0 0
-2.032268 14.077931 -2.013017 14.365601 -1.427428 1.711387 -0.000821 0.001077 464106.000000 1 0 0
11.010532 11.632731 0.631683 16.029700 0.812870 1.531379 0.011536 0.005522 131118.000000 1 0 0
11.785732 9.597031 -0.596217 15.210587 0.683395 1.610004 0.010103 0.001484 -1966140.000000 1 0 0
-0.388868 16.468431 11.047683 19.834610 -1.547188 0.980039 0.029529 -0.002621 -647259.000000 1 0 0
1.861132 20.058431 -1.898017 20.233807 1.478276 1.664739 0.021237 -0.022285 -678467.000000 1 0 0
9.370432 14.393131 1.906783 17.280134 0.993694 1.460226 0.022642 -0.005128 193568.000000 1 0 0
8.537732 11.583031 -5.215917 15.305727 0.935609 1.918545 0.021224 -0.006768 -892106.000000 1 0 0
10.695532 10.162131 10.048483 17.850360 0.759830 0.972871 0.013058 -0.008612 160998.000000 1 0 0
-5.003968 15.737231 5.844083 17.517233 -1.262936 1.230656 0.000218 -0.007527 894401.000000 1 0 0
14.573032 9.017331 -1.993017 17.252758 0.554106 1.686574 0.034699 -0.003867 -608289.000000 1 0 0
12.252932 9.570131 6.953583 17.031561 0.663078 1.150231 0.010407 -0.008482 -1486410.000000 1 0 0
3.270932 12.982931 9.703583 16.535266 1.323992 0.943644 0.022331 -0.006637 -186553.000000 1 0 0
8.655632 12.643331 -2.632717 15.546864 0.970480 1.740957 0.020055 -0.001537 -1072190.000000 1 0 0
9.789832 16.934531 2.168583 19.680496 1.046636 1.460383 0.031483 -0.012579 125127.000000 1 0 0
9.517132 14.013831 -7.506717 18.528736 0.974219 1.987927 0.074431 -0.029865 742925.000000 1 0 0
6.420532 11.480131 7.266783 15.027401 1.060861 1.066069 0.009850 -0.002126 -971623.000000 1 0 0
5.582532 16.960331 -5.513217 18.687243 1.252813 1.870279 0.039829 -0.007002 -1966250.000000 1 0 0
-4.117468 17.295331 -4.650317 18.376819 -1.337079 1.826631 0.008125 -0.001984 340274.000000 1 0 0
-0.121368 18.591631 -0.539517 18.599854 -1.564268 1.599807 0.005322 -0.006734 -590738.000000 1 0 0
6.721032 15.436531 -2.716717 17.054012 1.160152 1.730779 0.023151 -0.009141 1257170.000000 1 0 0
-0.798068 20.680931 0.846483 20.713627 -1.532226 1.529919 0.015940 -0.012892 -116319.000000 1 0 0
-1.221468 18.831031 4.253983 19.344149 -1.506022 1.349073 0.009930 -0.009065 447037.000000 1 0 0
7.271332 13.665731 -4.519317 16.126026 1.081811 1.854851 0.022504 -0.002294 -1020470.000000 1 0 0
-0.956768 12.018031 7.645283 14.275813 -1.491353 1.005648 0.007693 0.001503 639914.000000 1 0 0
7.849932 10.946731 10.742383 17.229369 0.948684 0.897594 0.019074 -0.008504 489345.000000 1 0 0
1.618032 16.162231 -7.408117 17.852617 1.471017 1.998695 0.010863 -0.006496 -242521.000000 1 0 0
8.930532 7.294531 14.852183 18.802977 0.684906 0.660175 0.021287 -0.001221 522586.000000 1 0 0
11.376132 11.314631 -4.865917 16.766467 0.782688 1.865250 0.050750 -0.013126 -349367.000000 1 0 0
-3.194068 17.025431 4.491183 17.895198 -1.385346 1.317113 0.003673 -0.004248 -280484.000000 1 0 0
4.000032 15.449431 -6.840517 17.363117 1.317448 1.975741 0.021771 -0.009458 -1293130.000000 1 0 0
-4.407468 14.169031 9.260683 17.491354 -1.269221 1.012852 0.018363 -0.010184 314735.000000 1 0 0
6.443632 18.050731 0.627783 19.176637 1.227923 1.538054 0.026444 -0.008742 56586.000000 1 0 0
9.894132 10.685331 -2.128017 14.717289 0.823825 1.715898 0.018295 -0.002230 -1433790.000000 1 0 0
7.286432 18.002131 -2.511417 19.582544 1.186199 1.699398 0.040488 -0.014605 291409.000000 1 0 0
3.585732 10.384131 10.378583 15.112996 1.238307 0.813812 0.016437 -0.004217 -49282.100000 1 0 0
0.044032 18.549131 1.994483 18.656103 1.568423 1.463684 0.012186 -0.012091 31097.000000 1 0 0
-0.856868 17.173331 -7.354817 18.701627 -1.520942 1.974983 0.015469 -0.006986 -249736.000000 1 0 0
10.249532 8.623231 13.012283 18.674382 0.699439 0.799872 0.023199 -0.011622 184024.000000 1 0 0
3.747232 11.474931 5.473283 13.254155 1.255156 1.145107 0.008212 0.001018 733482.000000 1 0 0
13.242332 13.862131 8.141183 20.827792 0.808261 1.169208 0.035532 -0.022418 -205652.000000 1 0 0
-0.405568 17.400331 6.618583 18.621000 -1.547492 1.207415 0.016511 -0.004519 -778679.000000 1 0 0
12.430232 13.579231 5.653283 19.257876 0.829546 1.272851 0.028029 -0.010378 -145489.000000 1 0 0
4.922132 14.623431 -4.472217 16.064646 1.246116 1.852912 0.016773 -0.004471 4166.710000 1 0 0
3.921532 17.594331 4.721783 18.634220 1.351495 1.314610 0.023671 -0.008197 -441622.000000 1 0 0
7.229632 11.565131 1.976883 13.781433 1.012108 1.426854 0.012333 -0.002687 1208880.000000 1 0 0
6.711132 8.741031 11.731183 16.095514 0.916017 0.754158 0.018936 -0.008790 530090.000000 1 0 0
-5.381968 14.906731 1.737283 15.943474 -1.224318 1.461614 0.010616 -0.000117 279615.000000 1 0 0
6.923332 13.745531 5.885983 16.477772 1.104210 1.205520 0.012952 -0.002758 -309574.000000 1 0 0
5.900732 15.838031 4.777183 17.563694 1.214160 1.295334 0.015438 -0.009015 444404.000000 1 0 0
1.340932 18.072431 4.183083 18.598630 1.496734 1.343942 0.021364 -0.006061 839672.000000 1 0 0
7.458632 17.927831 -6.952617 20.624675 1.176542 1.914633 0.050979 -0.016738 406919.000000 1 0 0
-2.386168 18.840931 -6.035217 19.927326 -1.444819 1.878490 0.016846 0.000923 18034.100000 1 0 0
13.674132 10.013531 -4.492617 17.533862 0.632075 1.829911 0.041229 -0.009234 -1432590.000000 1 0 0
-1.667968 18.212731 9.555383 20.634705 -1.479469 1.089337 0.030973 -0.011362 -526676.000000 1 0 0
3.445132 11.764631 -1.536817 12.354646 1.285923 1.695511 0.011538 -0.003902 -454026.000000 1 0 0
4.297932 13.920931 -10.937417 18.217893 1.271342 2.214756 0.026306 -0.026671 -142844.000000 1 0 0
11.719132 13.379131 2.257283 17.928596 0.851442 1.444557 0.025975 -0.004752 65523.200000 1 0 0
16.063932 6.487531 -7.169317 18.749322 0.383827 1.963164 0.030031 -0.003274 265967.000000 1 0 0
2.709532 16.127931 2.893983 16.608036 1.404348 1.395650 0.016048 -0.002318 57196.200000 1 0 0
13.565332 10.639731 3.553883 17.602619 0.665114 1.367504 0.018863 0.001847 -865712.000000 1 0 0
-5.007468 19.457631 -5.862317 20.929427 -1.318910 1.854694 0.017824 -0.008123 601666.000000 1 0 0
5.566832 12.044831 0.023583 13.269067 1.137863 1.569019 0.011367 -0.002343 1133460.000000 1 0 0
5.128632 15.356231 9.674383 18.860286 1.248466 1.032179 0.034538 -0.007621 157129.000000 1 0 0
7.944332 9.400531 13.965183 18.614745 0.869157 0.722399 0.029294 -0.014643 -2656600.000000 1 0 0
-5.009568 13.510631 6.905983 15.978909 -1.215724 1.123872 0.002983 -0.003106 -675365.000000 1 0 0
-4.451068 17.067831 0.552783 17.647335 -1.315691 1.539467 0.014072 -0.006358 -2539890.000000 1 0 0
-0.535368 16.531131 3.448783 16.895533 -1.538422 1.365228 0.009450 -0.005406 -1350160.000000 1 0 0
7.979832 16.688631 -4.747717 19.097878 1.124773 1.822030 0.042940 -0.016216 609508.000000 1 0 0
3.149232 16.439131 -4.604717 17.359899 1.381520 1.839260 0.011817 -0.008647 -530383.000000 1 0 0
9.582032 14.453731 7.940183 19.072813 0.985375 1.141414 0.017365 -0.008695 74770.000000 1 0 0
12.957432 10.953431 9.086383 19.246690 0.701782 1.079124 0.027593 -0.015145 -375994.000000 1 0 0
3.918132 12.412631 12.085683 17.762008 1.265038 0.822456 0.035448 -0.011254 624368.000000 1 0 0
-3.134568 19.148231 6.032483 20.319230 -1.408535 1.269367 0.027601 -0.014079 87697.000000 1 0 0
-2.665168 15.857331 10.229483 19.057817 -1.404281 1.004203 0.026200 -0.008281 -334076.000000 1 0 0
2.218232 14.270731 7.561883 16.302037 1.416591 1.088448 0.019366 -0.002004 -468604.000000 1 0 0
4.370732 17.130731 7.977483 19.396017 1.320986 1.146922 0.028738 -0.010808 376035.000000 1 0 0
-1.834568 13.639931 9.350583 16.638713 -1.437099 0.974022 0.015353 -0.002569 -268007.000000 1 0 0
5.896732 17.800731 3.058983 18.999865 1.250910 1.409092 0.017580 -0.013438 431447.000000 1 0 0
7.211932 15.334031 -6.879317 18.288507 1.131172 1.956440 0.030751 -0.008444 42559.600000 1 0 0
11.146432 7.691531 9.344283 16.453517 0.604013 0.966820 0.005704 -0.005539 303708.000000 1 0 0
9.297032 16.385231 -2.602117 19.017929 1.054690 1.708051 0.044771 -0.008369 -35467.400000 1 0 0
14.700932 11.108531 -6.642417 19.586694 0.647097 1.916787 0.090938 -0.024658 308396.000000 1 0 0
11.258132 6.459431 15.850383 20.486689 0.520900 0.686149 0.055761 -0.019070 -832302.000000 1 0 0
8.673132 8.525431 10.068083 15.788366 0.776810 0.879301 0.010107 -0.006463 -283660.000000 1 0 0
16.261932 9.233431 4.468883 19.227002 0.516402 1.336224 0.023655 -0.004735 44086.900000 1 0 0
-3.344068 14.373231 4.592283 15.455149 -1.342204 1.269104 0.002705 0.002662 -1237680.000000 1 0 0
4.715632 14.891731 12.597383 20.067260 1.264125 0.892127 0.035164 -0.004374 -688744.000000 1 0 0
16.181332 10.494631 -4.612917 19.830577 0.575365 1.805563 0.068649 -0.024254 -172305.000000 1 0 0
14.851132 13.941531 6.157483 21.279968 0.753817 1.277242 0.047563 -0.008991 -1010300.000000 1 0 0
6.319032 9.561931 9.205983 14.700708 0.986829 0.894092 0.009715 -0.002541 613472.000000 1 0 0
10.693732 12.210131 8.539283 18.340190 0.851509 1.086478 0.017628 -0.007991 291193.000000 1 0 0
8.050132 11.430931 -0.439917 13.988007 0.957230 1.602251 0.008552 -0.002322 -400723.000000 1 0 0
7.375332 13.405731 -8.744517 17.623159 1.067828 2.090007 0.049035 -0.020769 -1046280.000000 1 0 0
2.749532 15.266031 -2.291217 15.679965 1.392599 1.717445 0.010690 -0.006463 426991.000000 1 0 0
12.199532 13.531931 -7.760217 19.803098 0.837133 1.973458 0.089393 -0.031573 160984.000000 1 0 0
-8.009268 14.652131 9.668383 19.295361 -1.070546 1.045958 0.024224 -0.017850 374907.000000 1 0 0
11.449332 9.630931 2.229483 15.126554 0.699350 1.422869 0.014982 -0.000670 -1093030.000000 1 0 0
12.059132 8.771431 4.499583 15.575844 0.628859 1.277737 0.007936 -0.002610 403652.000000 1 0 0
14.007732 7.921831 6.034583 17.186860 0.514690 1.212033 0.011124 -0.009874 -2034740.000000 1 0 0
16.259832 7.334531 6.987683 19.157380 0.423754 1.197430 0.051973 -0.019817 -144955.000000 1 0 0
13.559232 8.314231 2.414683 16.087570 0.550053 1.420131 0.011147 -0.001726 -1919960.000000 1 0 0
-4.193768 17.376231 -7.225717 19.280355 -1.333974 1.954946 0.016078 -0.011494 130715.000000 1 0 0
2.990532 19.472431 -4.246517 20.153207 1.418409 1.783099 0.026412 -0.019253 587876.000000 1 0 0
-0.021968 14.765631 6.294783 16.051437 -1.569309 1.167814 0.012262 0.001050 -1637430.000000 1 0 0
6.905132 16.296031 8.090783 19.460274 1.170001 1.142019 0.030051 -0.002762 -429436.000000 1 0 0
12.960132 15.238231 -2.173217 20.121918 0.866011 1.679010 0.063607 -0.015718 -165040.000000 1 0 0
12.922332 15.589931 4.095083 20.659195 0.878686 1.371254 0.033234 -0.011314 -520583.000000 1 0 0
3.057932 18.125131 1.297383 18.427005 1.403658 1.500331 0.022113 -0.012350 -320518.000000 1 0 0
10.562232 14.587931 -1.246517 18.053318 0.944118 1.639898 0.033793 0.002346 -1634840.000000 1 0 0
-6.193068 15.745931 -0.592217 16.930421 -1.196069 1.605783 0.011373 -0.004968 -316684.000000 1 0 0
-3.842768 15.879731 -2.618517 16.546581 -1.333369 1.729716 0.006370 -0.000832 -1496750.000000 1 0 0
-6.751868 17.119531 1.505883 18.464391 -1.195131 1.489150 0.020711 -0.006227 -764560.000000 1 0 0
0.191232 19.390831 -6.534917 20.463285 1.560935 1.895838 0.026057 -0.009559 662098.000000 1 0 0
4.946432 14.856131 7.019183 17.159276 1.249386 1.149372 0.026427 -0.002796 -501470.000000 1 0 0
8.756632 12.314231 6.906983 16.614010 0.952660 1.142048 0.014429 -0.004628 -1016320.000000 1 0 0
-7.577568 17.551431 -5.651817 19.935278 -1.163235 1.858247 0.040702 -0.013074 98798.100000 1 0 0
-7.705368 17.726931 -1.280017 19.371505 -1.160764 1.636922 0.052634 -0.016071 365159.000000 1 0 0
-13.872868 -9.201769 9.262083 19.050333 0.585663 1.063072 0.045956 -0.007918 -145614.000000 1 0 0
-12.698368 -13.019569 7.646383 19.728783 0.797887 1.172797 0.046475 -0.007831 17701.900000 1 0 0
-3.858968 -14.972669 12.669883 19.989957 1.318552 0.884324 0.026031 -0.013410 168951.000000 1 0 0
-2.239368 -13.918669 15.004983 20.588677 1.411274 0.754232 0.033874 -0.009620 377105.000000 1 0 0
-7.132768 -13.863869 12.691683 20.103782 1.095627 0.887557 0.044904 -0.009036 182225.000000 1 0 0
-9.983868 -11.508769 9.082183 17.737402 0.856229 1.033243 0.037994 -0.009344 336679.000000 1 0 0
-10.750568 -10.620369 11.408783 18.934817 0.779306 0.924130 0.063095 -0.015859 302223.000000 1 0 0
-6.085768 -12.336569 10.781883 17.477886 1.112514 0.906015 0.034778 -0.004801 547060.000000 1 0 0
-12.540368 -10.386169 7.331983 17.857528 0.691712 1.147704 0.026542 -0.001504 -727730.000000 1 0 0
-7.911368 -11.377469 12.422083 18.610338 0.963195 0.839973 0.043524 -0.014663 -100958.000000 1 0 0
-14.834968 -11.534169 7.429683 20.206769 0.660869 1.194280 0.043857 -0.000351 -6987.370000 1 0 0
-11.273968 -9.218269 9.251283 17.252973 0.685417 1.004851 0.035199 -0.004240 -85208.400000 1 0 0
-5.508368 -11.832369 13.249583 18.598347 1.135100 0.777875 0.037668 -0.016521 -495852.000000 1 0 0
3.729532 -12.309569 14.789283 19.599944 -1.276609 0.715817 -0.010427 -0.001924 -1162190.000000 1 0 0
6.303232 -12.702069 14.510183 20.288389 -1.110164 0.773891 0.020894 -0.000867 -155656.000000 1 0 0
6.455932 -8.471369 16.230083 19.412850 -0.919603 0.580755 0.011936 -0.007876 -1760310.000000 1 0 0
0.588732 -1.726469 14.451883 14.566545 -1.242158 0.125554 0.004699 -0.003081 -1613690.000000 1 0 0
-0.054068 -6.337369 15.451383 16.700611 1.562265 0.389238 0.007804 -0.009299 -333809.000000 1 0 0
-1.468368 -4.609769 18.343983 18.971236 1.262424 0.257865 0.015630 -0.016033 -1966840.000000 1 0 0
-5.218668 12.756331 12.638683 18.700128 -1.182466 0.828664 0.013686 -0.012168 -144585.000000 1 0 0
-3.954568 8.936831 11.636783 15.196061 -1.154195 0.698549 0.002505 0.002569 -244719.000000 1 0 0
-0.831668 -3.941369 14.998983 15.530472 1.362837 0.262371 0.008481 -0.006576 191459.000000 1 0 0
-4.373168 9.249831 14.109483 17.428755 -1.129158 0.627408 0.000804 -0.002665 296891.000000 1 0 0
-13.350368 -2.332969 16.885983 21.652055 0.173003 0.676324 0.054930 -0.003504 -1095390.000000 1 0 0
-0.255568 0.836631 17.197883 17.220118 -1.274327 0.050823 0.010805 -0.008738 -794175.000000 1 0 0
-3.536668 -7.349669 15.395483 17.422588 1.122301 0.487192 0.005528 -0.008589 259934.000000 1 0 0
-7.448368 5.635531 12.497483 15.602067 -0.647720 0.641808 0.002723 0.000079 -2039420.000000 1 0 0
-9.839868 10.217231 13.539183 19.609291 -0.804210 0.808689 0.018567 -0.004601 330446.000000 1 0 0
-5.549168 2.229931 11.159483 12.660961 -0.382100 0.491960 0.005075 0.000133 -419577.000000 1 0 0
-7.150368 -7.271369 16.797783 19.651109 0.793788 0.545630 0.024535 -0.017252 -567703.000000 1 0 0
-4.733568 2.749831 18.668583 19.454671 -0.526273 0.285241 0.020547 -0.005848 -547280.000000 1 0 0
0.934132 -8.264969 16.598183 18.565614 -1.458251 0.464539 0.003977 -0.004240 446134.000000 1 0 0
-15.053068 -3.543569 13.996083 20.857662 0.231196 0.835201 0.069880 -0.013563 65987.100000 1 0 0
-14.374268 2.316031 13.021983 19.533449 -0.159750 0.841090 0.044602 -0.014459 220510.000000 1 0 0
-5.478468 1.027431 16.134583 17.070267 -0.185386 0.332631 0.015398 -0.005241 288823.000000 1 0 0
4.512732 5.793431 15.026983 16.725395 0.909030 0.454563 0.011503 -0.009663 -180165.000000 1 0 0
-1.121168 -11.911369 13.823583 18.281936 1.476947 0.713412 -0.001409 -0.009114 -451846.000000 1 0 0
-5.888168 -4.093169 16.760583 18.230242 0.607465 0.404286 0.014288 -0.007877 46808.500000 1 0 0
-13.031968 -1.527169 9.840583 16.401265 0.116654 0.927309 0.025839 -0.003269 -720541.000000 1 0 0
-14.537868 10.519531 10.134683 20.608783 -0.626387 1.056680 0.020340 -0.010652 393561.000000 1 0 0
-3.645768 -3.297569 17.727583 18.396543 0.735292 0.270503 0.019384 -0.010297 -2706130.000000 1 0 0
-8.021368 9.352931 11.840983 17.088843 -0.861888 0.805283 0.007547 -0.001968 190791.000000 1 0 0
-4.025468 10.639031 16.256583 19.841116 -1.209076 0.610541 -0.005461 -0.005187 297920.000000 1 0 0
-12.484568 12.672131 8.205283 19.590151 -0.792854 1.138621 0.021433 -0.021816 80786.600000 1 0 0
-12.693568 3.237331 10.380383 16.714046 -0.249714 0.900705 0.023178 -0.010440 833386.000000 1 0 0
-10.116068 -3.457969 13.700483 17.378021 0.329377 0.662625 0.019575 -0.002014 -1039800.000000 1 0 0
-4.311068 -6.477669 17.822083 19.446649 0.983583 0.411654 0.017736 -0.008754 -570646.000000 1 0 0
0.755032 -3.577469 17.762983 18.135378 -1.362797 0.203002 0.019465 -0.019665 -837658.000000 1 0 0
-5.995368 1.859331 13.651283 15.025282 -0.300722 0.430986 0.007654 0.000181 -661095.000000 1 0 0
-10.496168 8.653831 10.269383 17.044605 -0.689488 0.924166 0.014467 -0.011518 -238484.000000 1 0 0
4.505332 2.646931 17.096083 17.876810 0.531186 0.296628 0.015546 -0.013670 -1585800.000000 1 0 0
0.431932 -5.276769 13.143483 14.169757 -1.489123 0.382932 0.007116 -0.002220 115752.000000 1 0 0
-4.372768 5.489931 20.568883 21.733371 -0.898189 0.328834 0.067346 -0.017914 -205558.000000 1 0 0
-10.883168 10.813431 8.994883 17.784307 -0.782184 1.040515 0.013891 -0.015048 104158.000000 1 0 0
0.766632 4.211231 12.933983 13.623880 1.390724 0.319600 0.007163 -0.007491 -2483380.000000 1 0 0
-3.142068 7.104131 13.327483 15.426052 -1.154375 0.527716 -0.001954 0.002869 481188.000000 1 0 0
0.778932 8.887731 13.956483 16.564478 1.483378 0.568787 0.015948 -0.009650 133895.000000 1 0 0
-4.248568 -6.652469 13.067883 15.266802 1.002445 0.543377 0.009344 -0.005824 -417468.000000 1 0 0
-5.080568 8.260631 16.431383 19.079847 -1.019396 0.533189 0.014348 -0.001066 443251.000000 1 0 0
1.489732 -10.656869 15.767483 19.089308 -1.431906 0.598849 -0.012552 -0.004576 -336570.000000 1 0 0
-15.193868 -0.944169 14.311383 20.894037 0.062062 0.816260 0.069433 -0.008969 197565.000000 1 0 0
-13.684068 -5.300069 8.512683 16.964970 0.369525 1.045141 0.039259 -0.005842 -68398.900000 1 0 0
-14.254368 -1.848069 12.130383 18.808205 0.128930 0.869836 0.051547 -0.007448 856645.000000 1 0 0
9.378732 1.602831 16.958783 19.445566 0.169265 0.511287 0.036430 -0.016221 -253117.000000 1 0 0
4.984732 -6.529969 16.789083 18.691211 -0.918798 0.455061 0.018859 -0.013476 63038.100000 1 0 0
-6.150768 -2.651169 11.024383 12.899522 0.406967 0.545949 0.002899 0.001001 346125.000000 1 0 0
0.584632 -6.232669 18.026283 19.082318 -1.477269 0.334243 0.016765 -0.016822 -94012.100000 1 0 0
-8.426468 11.951131 12.096683 18.978004 -0.956671 0.879670 0.008920 -0.007484 612.359000 1 0 0
-6.680868 -5.704569 14.754383 17.171719 0.706734 0.537042 0.016011 -0.008615 -533258.000000 1 0 0
-4.531568 -8.949669 17.103883 19.828628 1.102090 0.530439 0.023748 -0.014850 -87585.300000 1 0 0
2.403032 -6.011369 16.221583 17.465706 -1.190507 0.379722 0.012310 -0.011418 -423497.000000 1 0 0
2.199232 5.266631 16.094183 17.076205 1.175228 0.340787 0.009648 -0.007722 -2418170.000000 1 0 0
0.959832 -8.831569 14.002583 16.582829 -1.462539 0.565347 -0.001427 -0.004571 -710069.000000 1 0 0
-9.952568 -2.742269 11.218283 15.245443 0.268862 0.743883 0.005434 0.003222 -94356.300000 1 0 0
-1.205968 10.110331 12.332983 15.992987 -1.452077 0.690152 0.008445 -0.008440 -326221.000000 1 0 0
-12.360668 -3.614869 11.370283 17.179544 0.284515 0.847512 0.029113 0.001836 -1418200.000000 1 0 0
-1.997968 6.374331 20.145583 21.224243 -1.267056 0.320183 0.047828 -0.008070 339016.000000 1 0 0
0.138132 -13.251069 15.710783 20.553312 -1.560372 0.700699 -0.006689 -0.010568 -552918.000000 1 0 0
4.034932 -8.613569 15.377683 18.081687 -1.132715 0.553944 0.003124 -0.005377 -757878.000000 1 0 0
4.337032 -4.174769 16.144683 17.230477 -0.766337 0.356901 0.015803 -0.009173 165900.000000 1 0 0
8.080232 1.879831 14.757583 16.929565 0.228580 0.512126 0.004289 -0.007237 547336.000000 1 0 0
-6.274668 -0.156669 11.865683 13.423503 0.024963 0.486556 0.006639 -0.000605 128950.000000 1 0 0
-3.344868 -10.936869 18.328583 21.604171 1.273996 0.557876 0.039733 -0.016945 -1109030.000000 1 0 0
3.132832 -1.512769 13.526783 13.966996 -0.449855 0.251734 0.003922 -0.003495 306575.000000 1 0 0
-2.545568 8.609231 15.801883 18.174111 -1.283309 0.516664 0.014077 -0.008227 -1122070.000000 1 0 0
-3.233468 3.947231 14.733283 15.591844 -0.884473 0.333399 0.009114 -0.006304 73368.300000 1 0 0
-4.763868 -9.156469 19.705583 22.245120 1.091062 0.482498 0.041342 -0.012786 -1306.590000 1 0 0
-5.800968 -3.005569 19.065783 20.154125 0.478034 0.330134 0.019036 -0.016559 -1456890.000000 1 0 0
-6.708468 -8.653769 11.137483 15.618412 0.911357 0.776887 0.018037 -0.008360 421110.000000 1 0 0
-11.744668 2.583031 12.592783 17.412279 -0.216486 0.762353 0.030540 -0.015856 808247.000000 1 0 0
-11.737168 -7.476469 11.663183 18.157327 0.567176 0.873248 0.042709 -0.010489 -1103640.000000 1 0 0
-11.029968 -7.071569 15.767283 20.500598 0.570110 0.693344 0.041927 -0.023391 -850081.000000 1 0 0
0.095132 5.662531 17.596683 18.485577 1.553998 0.311372 0.014634 -0.001976 -31317.900000 1 0 0
-2.202168 -0.099669 13.117283 13.301225 0.045229 0.166499 0.008709 0.000270 -75761.000000 1 0 0
-5.943368 -10.831469 18.134783 21.943443 1.068942 0.598054 0.043855 -0.010374 -788412.000000 1 0 0
0.363632 2.695731 19.025083 19.218559 1.436714 0.142014 0.020698 -0.015067 -571644.000000 1 0 0
-0.797668 10.864431 14.809983 18.384987 -1.497508 0.634197 0.025845 -0.008929 763917.000000 1 0 0
-12.877768 -2.239769 14.283383 19.361521 0.172203 0.741109 0.044603 -0.009168 -158717.000000 1 0 0
-13.675868 8.624731 11.724983 19.972245 -0.562654 0.943369 0.023351 -0.010686 596891.000000 1 0 0
-18.176568 -0.614469 6.992083 19.484723 0.033793 1.203761 0.071823 -0.025161 1039.840000 1 0 0
-2.139168 -7.921769 17.619983 19.436931 1.307050 0.435828 0.015860 -0.013721 132858.000000 1 0 0
5.690332 2.715731 14.543283 15.851251 0.445285 0.409086 0.008230 -0.010041 -3937300.000000 1 0 0
-14.164268 -6.713069 11.227683 19.280888 0.442586 0.949214 0.045668 -0.007803 92408.000000 1 0 0
3.199132 7.736131 16.145583 18.186864 1.178680 0.478339 0.022642 -0.018821 -700892.000000 1 0 0
1.016932 2.145031 14.538983 14.731509 1.128093 0.161849 0.007480 -0.010387 -2681100.000000 1 0 0
-14.393268 0.729731 9.753583 17.402042 -0.050656 0.975825 0.037192 -0.011057 -2456430.000000 1 0 0
-9.596268 -5.059169 15.638783 19.033000 0.485171 0.606467 0.025693 -0.006136 -331210.000000 1 0 0
-2.467768 -0.205569 17.992183 18.161795 0.083110 0.136774 0.016305 -0.015346 -146765.000000 1 0 0
6.765532 3.851531 17.344583 19.011609 0.517530 0.421893 0.025962 -0.017479 -366164.000000 1 0 0
-4.207668 -0.681869 14.715383 15.320311 0.160657 0.281950 0.014887 0.001679 -787249.000000 1 0 0
4.592332 -8.884669 17.965183 20.561485 -1.093734 0.507978 0.014806 -0.002681 -127279.000000 1 0 0
1.945032 6.859531 13.379983 15.161143 1.294497 0.489606 0.012893 -0.006545 -1276710.000000 1 0 0
-3.686968 -0.640469 20.216683 20.560112 0.171995 0.183032 0.027630 -0.018708 -450960.000000 1 0 0
-10.754268 1.721731 16.043383 19.390946 -0.158750 0.596397 0.026321 -0.015393 -451672.000000 1 0 0
-3.994168 7.048931 18.518583 20.213331 -1.055272 0.412411 0.031973 -0.001958 -109777.000000 1 0 0
-12.719368 1.036631 14.477383 19.299004 -0.081320 0.722489 0.044150 -0.016719 693870.000000 1 0 0
-16.210668 -4.608069 8.678983 18.956392 0.276956 1.095233 0.054331 -0.008564 355664.000000 1 0 0
-2.231168 0.740331 15.630583 15.806370 -0.320382 0.149278 0.013908 -0.005528 153344.000000 1 0 0
-13.774768 -8.864269 12.666083 20.706259 0.571803 0.912585 0.052253 -0.023457 245598.000000 1 0 0
6.122232 -3.019469 14.497283 16.024049 -0.458191 0.440073 0.012654 -0.007032 531526.000000 1 0 0
-15.809868 0.559931 7.541783 17.525522 -0.035402 1.125936 0.043372 -0.017989 296901.000000 1 0 0
-14.267168 5.974231 12.224983 19.715317 -0.396556 0.901958 0.051150 -0.021454 685489.000000 1 0 0
0.572632 9.554831 16.532583 19.103639 1.510937 0.524817 0.026219 -0.013617 -350550.000000 1 0 0
-10.444068 -5.391969 10.941383 16.058199 0.476579 0.821180 0.022060 -0.002920 15834.300000 1 0 0
-3.211668 -11.003269 15.070283 18.934101 1.286803 0.650248 0.018196 -0.010226 -534474.000000 1 0 0
-3.482568 2.652531 12.613883 13.351938 -0.650922 0.334048 0.003659 -0.000862 -1305450.000000 1 0 0
-12.532368 -7.768569 7.435983 16.513775 0.554909 1.103707 0.031677 -0.002082 726954.000000 1 0 0
-8.139968 -1.868969 13.228183 15.644071 0.225692 0.563161 0.007581 0.000655 -475450.000000 1 0 0
-9.863468 6.386731 9.601183 15.174355 -0.574625 0.885730 0.006184 -0.004381 -645212.000000 1 0 0
-17.913768 -3.459169 6.721483 19.443438 0.190753 1.217818 0.056589 -0.018764 397621.000000 1 0 0
-1.148968 0.014831 20.317083 20.349551 -0.012907 0.056496 0.026428 -0.021016 -1101210.000000 1 0 0
-2.614168 2.746531 20.180983 20.534103 -0.810085 0.185722 0.032992 -0.013921 -868415.000000 1 0 0
-3.778268 11.315931 11.049483 16.260894 -1.248546 0.823698 0.007297 -0.009871 -402816.000000 1 0 0
-4.156468 -4.775269 14.898983 16.188240 0.854569 0.401800 0.008023 -0.006102 37366.700000 1 0 0
-0.292068 -14.317469 13.268983 19.522836 1.550400 0.823491 0.000343 -0.005900 -50636.800000 1 0 0
-12.186768 0.466231 8.337083 14.773004 -0.038239 0.971156 0.011210 -0.003613 -325474.000000 1 0 0
-7.755368 2.092931 15.625583 17.569432 -0.263589 0.474849 0.005017 0.006054 -1231850.000000 1 0 0
3.449732 -2.021569 18.407383 18.836644 -0.530067 0.213896 0.022343 -0.009483 -217360.000000 1 0 0
-2.106868 4.854931 12.517283 13.590130 -1.161357 0.400010 0.001422 -0.002694 -256682.000000 1 0 0
-10.451968 -6.133069 13.391683 18.060879 0.530647 0.735531 0.026129 -0.010046 -758826.000000 1 0 0
2.272032 -3.706969 14.266283 14.914107 -1.020939 0.295821 0.008051 -0.003329 -407365.000000 1 0 0
6.718532 1.274831 16.959183 18.285999 0.187519 0.383286 0.012610 -0.013759 -420016.000000 1 0 0
-1.999668 -5.911469 13.852183 15.192996 1.244610 0.423277 0.006751 -0.004288 -2818730.000000 1 0 0
-12.774368 3.676531 14.700683 19.819471 -0.280232 0.735151 0.022853 -0.011776 48909.500000 1 0 0
-13.261068 -6.474469 13.554283 20.037297 0.454188 0.827861 0.042892 -0.020801 -665780.000000 1 0 0
-9.631468 6.881631 11.973983 16.837408 -0.620388 0.779659 0.017665 -0.002747 -279108.000000 1 0 0
-1.128068 -2.462769 12.784583 13.068410 1.141269 0.208795 0.005783 0.000228 332787.000000 1 0 0
0.170832 6.743031 15.286683 16.708691 1.545467 0.415551 0.012201 -0.006358 400609.000000 1 0 0
-16.496968 -0.806369 9.718983 19.163998 0.048841 1.038924 0.065862 -0.014640 301025.000000 1 0 0
-1.182568 2.788631 13.574183 13.908033 -1.169716 0.219548 0.004828 -0.004739 -3593070.000000 1 0 0
-11.108168 -3.194969 16.119683 19.835408 0.280064 0.622073 0.030649 -0.011161 -203829.000000 1 0 0
-5.254568 -1.485769 17.085283 17.936691 0.275564 0.309347 0.027861 -0.005459 263972.000000 1 0 0
-12.076168 6.766231 11.028483 17.698677 -0.510714 0.898065 0.026749 -0.009389 -1655410.000000 1 0 0
-2.992068 4.641131 18.530083 19.335371 -0.998167 0.289623 0.036445 -0.008298 204445.000000 1 0 0
5.006532 -1.691569 16.345283 17.178331 -0.325830 0.312702 0.017004 -0.010347 -1694480.000000 1 0 0
-8.074968 -4.156669 12.168083 15.183717 0.475386 0.641180 0.010886 0.000621 -1225100.000000 1 0 0
-11.628368 -0.727669 16.029383 19.816396 0.062496 0.628526 0.036929 -0.008350 462693.000000 1 0 0
2.064032 2.089831 17.175183 17.424539 0.791609 0.169380 0.008871 -0.014312 -1307190.000000 1 0 0
-9.021868 -7.400669 11.634783 16.478234 0.686999 0.786864 0.022910 -0.010516 -274505.000000 1 0 0
-7.209168 6.823031 14.787683 17.810150 -0.757887 0.591159 -0.001120 -0.003243 -536811.000000 1 0 0
-5.626268 3.500731 15.756783 17.093456 -0.556592 0.398093 0.005866 -0.001612 208911.000000 1 0 0
-9.396968 4.283531 11.608483 15.537327 -0.427701 0.727055 0.009294 -0.006527 -203485.000000 1 0 0
-10.221668 0.201531 14.034083 17.363139 -0.019714 0.629590 0.012474 -0.001498 173749.000000 1 0 0
8.264932 -0.478769 15.859183 17.889998 -0.057863 0.481107 0.015658 -0.013425 238088.000000 1 0 0
-8.688268 -7.420969 14.691783 18.611966 0.706891 0.661009 0.030616 -0.009581 -1885040.000000 1 0 0
-0.165868 4.304031 15.412883 16.003411 -1.532278 0.272504 0.002869 -0.008779 -188627.000000 1 0 0
-8.026268 3.240031 9.632283 12.949890 -0.383673 0.732041 0.000738 -0.001004 -480072.000000 1 0 0
-2.208568 -9.631169 13.095883 16.405467 1.345379 0.646390 0.001762 -0.005954 411149.000000 1 0 0
-6.071168 10.278531 10.496383 15.895954 -1.037269 0.849554 0.010037 -0.004778 -2802470.000000 1 0 0
-8.585768 -2.645669 15.662683 18.056429 0.298913 0.520783 0.013825 -0.006114 -545950.000000 1 0 0
4.140932 5.874831 17.620083 19.029669 0.956816 0.387314 0.018216 -0.009799 -162268.000000 1 0 0
-6.803868 -0.915869 15.182383 16.662419 0.133806 0.424669 0.006723 0.001665 -486556.000000 1 0 0
-0.969868 -9.845369 15.445283 18.341993 1.472603 0.569683 -0.006572 -0.004610 137456.000000 1 0 0
-4.288368 5.818231 16.185883 17.726385 -0.935630 0.419984 0.014693 -0.002936 89164.700000 1 0 0
3.750532 0.196131 17.338683 17.740769 0.052247 0.213310 0.019268 -0.011615 -1062710.000000 1 0 0
1.445932 0.341431 19.094983 19.152694 0.231885 0.077649 0.018496 -0.011424 -1008680.000000 1 0 0
-6.386368 6.379931 17.644883 19.819968 -0.784894 0.472885 0.012771 -0.010007 -744192.000000 1 0 0
-12.102168 0.673531 10.885483 16.291404 -0.055596 0.839045 0.026500 -0.005923 242770.000000 1 0 0
-5.387668 5.107831 13.900483 15.758818 -0.758742 0.490544 0.002053 -0.001164 -490280.000000 1 0 0
-8.835768 -9.462169 10.054483 16.391951 0.819618 0.910464 0.032238 -0.009081 -828379.000000 1 0 0
6.740532 -3.515969 17.040383 18.659354 -0.480790 0.419641 0.018054 -0.010074 -647246.000000 1 0 0
-16.799268 1.734131 9.689383 19.470664 -0.102862 1.049920 0.061724 -0.019719 301624.000000 1 0 0
-4.251168 -9.569769 11.466783 15.528684 1.152752 0.740063 0.009583 -0.008509 -1072690.000000 1 0 0
-11.099768 -3.826369 9.122783 14.868461 0.331968 0.910228 0.013634 0.001350 -137884.000000 1 0 0
3.597032 -5.082069 18.463083 19.484648 -0.954862 0.325250 0.017427 -0.015389 -278556.000000 1 0 0
2.451532 -1.753369 16.018083 16.299181 -0.620864 0.185989 0.010179 -0.008372 -493134.000000 1 0 0
-3.292668 -4.247269 20.207683 20.910079 0.911334 0.259927 0.026290 -0.015585 -183968.000000 1 0 0
-6.252668 -3.260269 14.352183 15.990947 0.480637 0.456685 0.006392 -0.000458 405467.000000 1 0 0
-9.709568 5.129631 13.930183 17.738062 -0.486036 0.667572 0.023639 -0.006976 634006.000000 1 0 0
-5.875168 -5.193069 11.744583 14.121643 0.723849 0.588683 0.006938 -0.000061 -1410640.000000 1 0 0
5.944332 2.200631 19.244583 20.261586 0.354562 0.318180 0.035625 -0.024944 285764.000000 1 0 0
-2.820968 11.844031 13.400883 18.105872 -1.336976 0.737518 0.016182 -0.015211 112931.000000 1 0 0
3.406832 1.428531 15.016083 15.463828 0.397044 0.241227 0.004192 -0.009126 -1522690.000000 1 0 0
-5.713068 7.527131 12.814183 15.921688 -0.921562 0.635415 -0.003249 -0.001674 -1696420.000000 1 0 0
-1.967068 -1.718169 15.154683 15.378098 0.717961 0.170666 0.010896 -0.002100 -261312.000000 1 0 0
-7.270268 10.597331 14.043483 19.036272 -0.969496 0.741106 0.015953 -0.009870 333665.000000 1 0 0
-10.167968 2.139531 10.436183 14.726815 -0.207393 0.783211 0.008941 -0.003109 83582.200000 1 0 0
-13.696468 5.264831 8.836983 17.129038 -0.366980 1.028731 0.021777 -0.019287 -229350.000000 1 0 0
0.459932 -4.688069 20.128383 20.672236 -1.473002 0.229889 0.030924 -0.023620 -192070.000000 1 0 0
-14.415368 -2.937769 7.595083 16.556528 0.201041 1.094224 0.025008 -0.005259 238572.000000 1 0 0
-2.270668 2.413531 17.597083 17.906379 -0.815888 0.186134 0.016351 -0.009713 -457098.000000 1 0 0
-6.391768 -8.378669 14.531583 17.950591 0.919114 0.627441 0.019558 -0.010284 -298093.000000 1 0 0
-7.992868 1.991231 11.914683 14.484841 -0.244156 0.604894 0.004483 -0.001524 1243390.000000 1 0 0
-14.560368 -3.494969 10.180483 18.106942 0.235576 0.973702 0.033938 -0.007112 -240988.000000 1 0 0
-0.532568 6.996431 12.718783 14.525878 -1.494823 0.504130 0.006477 -0.006228 -1235430.000000 1 0 0
-1.804568 -2.272569 19.349683 19.566075 0.899685 0.148862 0.022823 -0.012661 -35655.700000 1 0 0
-12.798168 10.292231 7.288783 17.968013 -0.677294 1.153103 0.012189 -0.021546 -794968.000000 1 0 0
-19.635768 2.261331 6.975683 20.960371 -0.114659 1.231521 0.075630 -0.025381 406983.000000 1 0 0
-16.092968 8.481231 6.632983 19.362628 -0.485025 1.221149 0.031607 -0.014999 389888.000000 1 0 0
-12.324468 7.136131 13.552383 19.659195 -0.524851 0.810183 0.025762 -0.010744 500666.000000 1 0 0
-16.067468 8.472131 10.535183 20.998348 -0.485236 1.045216 0.040357 -0.008049 824982.000000 1 0 0
1.885032 10.951131 14.767983 18.481719 1.400335 0.645068 0.034276 -0.026137 -640445.000000 1 0 0
2.159332 14.216331 12.737283 19.209507 1.420058 0.845881 0.030915 -0.016006 -1937420.000000 1 0 0
-3.096468 13.713331 11.592283 18.221542 -1.348721 0.881252 0.011869 -0.014034 -130341.000000 1 0 0
9.224032 4.937331 15.901183 19.034381 0.491462 0.581949 0.025174 0.004600 -73075.400000 1 0 0
-0.368768 12.575331 12.942183 18.049240 -1.541480 0.771237 0.025576 -0.010361 -615911.000000 1 0 0
3.869032 13.419731 14.429783 20.081764 1.290099 0.769079 0.046812 -0.016840 177509.000000 1 0 0
-2.978568 -4.068069 -13.670817 14.570940 0.938796 2.788260 0.005740 -0.008655 -39238.300000 1 0 0
5.467832 -11.490269 16.542983 20.870883 -1.126641 0.655678 0.005496 -0.000339 198090.000000 1 0 0
7.909232 -13.507869 7.421483 17.323305 -1.041086 1.128064 0.010988 -0.004736 -221613.000000 1 0 0
-0.039968 15.503731 1.255883 15.554566 -1.568218 1.489968 0.003988 -0.003040 -2143340.000000 1 0 0
-13.851268 8.269631 9.029383 18.487136 -0.538233 1.060525 0.019540 -0.011058 661736.000000 1 0 0
-15.493768 -9.806269 4.991383 19.003517 0.564272 1.305023 0.022477 -0.001188 -1032500.000000 1 0 0
9.615432 -11.059269 11.221383 18.457611 -0.855121 0.917315 0.047152 -0.010166 111270.000000 1 0 0
-5.594768 -10.540569 -16.778817 20.589650 1.082826 2.523379 0.029767 -0.008765 66465.700000 1 0 0
-2.127868 -12.329569 -14.967517 19.508271 1.399897 2.445322 0.024061 0.005164 96461.300000 1 0 0
5.593032 -15.751369 -12.560617 20.908293 -1.229601 2.215233 0.041251 -0.004070 57130.200000 1 0 0
0.956232 -11.914269 -16.543517 20.409609 -1.490709 2.515929 0.018270 0.006145 245842.000000 1 0 0
0.390132 -14.415769 -13.931717 20.051417 -1.543740 2.338938 0.028480 0.012454 419340.000000 1 0 0
-6.672468 -5.992269 -14.452117 17.008609 0.731742 2.586201 0.019397 -0.007701 -4170.590000 1 0 0
-6.189968 -8.080069 -17.226817 20.009159 0.917084 2.607924 0.008818 -0.009918 69140.200000 1 0 0
-2.614068 -16.343769 -13.099417 21.107981 1.412197 2.240292 0.039075 -0.001749 247943.000000 1 0 0
16.101932 -8.071269 -9.029517 20.148195 -0.464656 2.035497 0.086852 -0.017449 114612.000000 1 0 0
19.163732 -2.719569 -3.678617 19.702206 -0.140971 1.758609 0.106159 -0.027049 -8169.740000 1 0 0
15.154932 -12.380869 -8.377017 21.286904 -0.684993 1.975264 0.041765 0.001961 -5053.040000 1 0 0
18.535732 -4.011869 -7.153517 20.269220 -0.213152 1.931492 0.203890 -0.019057 -275834.000000 1 0 0
8.799732 -9.908969 -15.847317 20.658180 -0.844619 2.445137 0.069021 -0.001494 326427.000000 1 0 0
-4.599868 9.371731 -15.999717 19.104425 -1.114517 2.563465 0.000359 -0.020759 343173.000000 1 0 0
2.313232 -9.919469 -18.597717 21.204291 -1.341690 2.640531 0.024162 0.011465 438709.000000 1 0 0
10.997532 8.201831 -14.632717 20.058219 0.640800 2.388405 0.100796 -0.057851 359149.000000 1 0 0
17.751232 -6.949369 -7.313517 20.417823 -0.373146 1.937128 0.059757 -0.024195 -29019.400000 1 0 0
12.332832 5.293731 -14.054217 19.433048 0.405456 2.379238 0.054510 -0.012979 173351.000000 1 0 0
15.868932 6.559331 -10.776817 20.272829 0.391957 2.131272 0.035370 -0.017808 288880.000000 1 0 0
3.234232 -0.055669 -19.115117 19.386878 -0.017211 2.973958 0.040785 -0.016976 172522.000000 1 0 0
10.344032 -1.668169 -14.785817 18.121870 -0.159892 2.525098 0.035550 -0.010029 119270.000000 1 0 0
12.187832 -6.146469 -13.891717 19.475680 -0.467091 2.364971 0.075809 -0.001658 264592.000000 1 0 0
9.830932 6.275631 -12.668917 17.220111 0.568146 2.397503 0.045892 -0.018703 402715.000000 1 0 0
10.963532 4.503731 -16.216917 20.086588 0.389775 2.510444 0.082530 -0.032700 418712.000000 1 0 0
11.058932 -11.191069 -15.198217 21.875232 -0.791337 2.338894 0.079891 0.004301 469125.000000 1 0 0
-1.179668 2.246831 -17.154117 17.340807 -1.087321 2.994723 0.021663 -0.015378 390514.000000 1 0 0
6.573332 -1.206569 -17.002217 18.268549 -0.181534 2.767070 0.029629 0.000639 62922.100000 1 0 0
6.475532 -5.808369 -15.570217 17.835395 -0.731139 2.632107 0.005359 -0.008421 313881.000000 1 0 0
-2.403268 -4.634569 -20.004017 20.674032 1.092417 2.886308 0.020119 -0.034116 95062.000000 1 0 0
15.997632 -0.151369 -13.520217 20.946203 -0.009462 2.272439 0.076449 -0.014529 109336.000000 1 0 0
-4.164668 -0.210569 -18.279117 18.748731 0.050518 2.917302 0.014430 -0.017203 198051.000000 1 0 0
3.336232 8.424231 -17.879217 20.044064 1.193719 2.672537 0.035869 -0.024744 -76612.400000 1 0 0
9.383732 -0.403869 -17.395117 19.768855 -0.043013 2.646501 0.053377 -0.009884 -43709.600000 1 0 0
4.208732 4.619531 -18.233817 19.274998 0.831897 2.811409 0.035250 -0.009106 450333.000000 1 0 0
-3.072268 -10.859469 -17.812417 21.086704 1.295090 2.576843 0.035626 -0.019582 263350.000000 1 0 0
5.582432 -9.590869 -16.117817 19.568657 -1.043675 2.538622 0.011746 -0.002041 207731.000000 1 0 0
10.311032 -12.211769 -10.650917 19.206424 -0.869590 2.158618 0.041814 -0.007872 284078.000000 1 0 0
6.209332 6.865231 -17.076917 19.424425 0.835522 2.644865 0.052369 -0.015350 537989.000000 1 0 0
8.604732 1.423631 -20.086717 21.898501 0.163962 2.731953 0.075928 -0.023655 148607.000000 1 0 0
-1.178668 -0.476769 -20.246017 20.285900 0.384378 3.078875 0.028368 -0.016678 193555.000000 1 0 0
-1.146768 6.861431 -19.496017 20.699975 -1.405194 2.798854 0.011524 -0.011982 50355.200000 1 0 0
8.854932 5.926831 -17.936117 20.862441 0.589841 2.605542 0.081808 -0.027142 86458.800000 1 0 0
12.059232 0.198131 -12.876717 17.642964 0.016428 2.388899 0.016078 -0.009577 -114797.000000 1 0 0
-3.981268 -2.456369 -19.738217 20.285005 0.552812 2.908881 -0.009337 -0.016151 450474.000000 1 0 0
5.359232 -11.512469 -14.259217 19.094072 -1.135115 2.414015 0.006381 -0.003525 45486.000000 1 0 0
11.430632 1.435831 -16.127217 19.819386 0.124958 2.521301 0.050185 -0.007552 -138263.000000 1 0 0
-2.903968 -4.271269 -16.955117 17.724355 0.973699 2.845898 -0.005692 -0.010761 391631.000000 1 0 0
-6.764968 -4.629269 -17.346417 19.185752 0.600111 2.700136 0.018432 -0.017314 57594.700000 1 0 0
3.107932 10.055831 -15.310117 18.578984 1.271041 2.539330 0.008159 -0.023744 156020.000000 1 0 0
17.572132 -5.825369 -10.521017 21.293345 -0.320110 2.087594 0.151766 -0.025830 95675.500000 1 0 0
9.674932 -3.478969 -17.543917 20.334615 -0.345189 2.611502 0.055127 -0.018856 191483.000000 1 0 0
-7.161268 -1.651769 -18.808517 20.193375 0.226689 2.769092 0.016646 -0.000301 411923.000000 1 0 0
1.096932 -7.152569 -19.134117 20.456708 -1.418620 2.780035 0.022084 -0.022123 286930.000000 1 0 0
5.739632 10.157131 -13.835017 18.097469 1.056446 2.441019 0.044040 -0.031749 357103.000000 1 0 0
5.684632 -3.796469 -18.555417 19.774522 -0.588820 2.788621 0.032246 -0.010790 365461.000000 1 0 0
4.615632 13.462731 -14.196617 20.102067 1.240510 2.354951 0.048546 -0.038018 -318804.000000 1 0 0
9.710432 11.238731 -15.808817 21.691479 0.858222 2.387369 0.137339 -0.032140 211433.000000 1 0 0
16.861732 0.641931 -11.439817 20.386257 0.038052 2.166575 0.080412 -0.017475 127628.000000 1 0 0
14.920532 -2.896269 -12.464017 19.656103 -0.191729 2.257646 0.096425 -0.017286 181460.000000 1 0 0
-8.694368 0.416931 -17.447617 19.498338 -0.047917 2.678837 0.031686 -0.011326 452872.000000 1 0 0
-3.637668 4.172431 -18.770317 19.569532 -0.853762 2.854815 0.028439 -0.016072 115411.000000 1 0 0
4.834432 2.492331 -17.369217 18.200910 0.476000 2.838121 0.034931 0.001674 518672.000000 1 0 0
-5.084168 14.155731 -14.110917 20.624050 -1.225985 2.324299 0.026669 -0.015192 343877.000000 1 0 0
0.849832 9.495531 -17.699817 20.104000 1.481536 2.647528 0.014562 -0.006177 326654.000000 1 0 0
1.424532 -4.699269 -19.791117 20.391192 -1.276462 2.898390 0.029628 -0.012589 395576.000000 1 0 0
3.691932 -6.311169 -17.825917 19.267188 -1.041491 2.752347 0.030037 -0.026815 28587.200000 1 0 0
-6.749768 7.662531 -15.968717 18.954516 -0.848646 2.572658 -0.002719 -0.007080 -53242.800000 1 0 0
-11.999668 3.367831 -16.490217 20.670306 -0.273621 2.494389 0.077474 -0.032339 -38.112600 1 0 0
-4.575568 6.909831 -17.406317 19.278523 -0.985905 2.697234 0.000482 0.008094 301828.000000 1 0 0
-8.424668 5.803531 -17.122817 19.946099 -0.603219 2.603045 0.021832 -0.021993 274598.000000 1 0 0
-8.678668 4.544731 -14.981217 17.900020 -0.482401 2.562462 -0.001529 -0.024788 519261.000000 1 0 0
9.393132 13.787831 -12.872917 21.072428 0.972757 2.227979 0.131388 -0.053773 354957.000000 1 0 0
15.229332 9.512031 -11.909117 21.546191 0.558302 2.156427 0.172270 -0.031336 61486.500000 1 0 0
8.951932 15.241431 -9.881617 20.250547 1.039736 2.080556 0.101159 -0.036892 -272555.000000 1 0 0
7.246032 12.782031 -14.451717 20.609159 1.055077 2.347915 0.139175 -0.061228 79614.500000 1 0 0
3.843332 15.504431 -12.684917 20.397688 1.327808 2.241938 0.057710 -0.038394 88735.400000 1 0 0
11.032332 11.682031 -11.645617 19.844460 0.813993 2.197953 0.115740 -0.033630 267004.000000 1 0 0
16.014632 10.903931 -9.001117 21.363152 0.597773 2.005717 0.085685 -0.046003 459132.000000 1 0 0
12.554532 10.541431 -9.467517 18.930714 0.698455 2.094527 0.087812 -0.046366 310672.000000 1 0 0
10.554632 11.293231 -7.583217 17.217506 0.819192 2.026881 0.062301 -0.023894 113149.000000 1 0 0
6.049632 16.747631 -10.097217 20.470344 1.224158 2.086631 0.074019 -0.022535 103719.000000 1 0 0
11.631932 13.662931 -10.407617 20.743578 0.865519 2.096391 0.152603 -0.052532 147224.000000 1 0 0
8.163632 -19.355769 -1.861117 21.089202 -1.171667 1.659161 0.029844 -0.005907 -82407.700000 1 0 0
7.984932 -17.214369 -4.229417 19.441749 -1.136482 1.790093 0.044608 -0.004493 87044.000000 1 0 0
3.904632 -18.678669 5.104383 19.753318 -1.364722 1.309424 0.043700 -0.023927 236514.000000 1 0 0
10.433532 -17.780069 -2.171017 20.729273 -1.040131 1.675721 0.043989 -0.013623 544377.000000 1 0 0
-3.381468 -14.983469 8.084683 17.358017 1.348835 1.086302 0.037230 -0.026289 146899.000000 1 0 0
-15.401768 -12.764369 -4.079017 20.415238 0.692033 1.771953 0.063785 -0.012330 251247.000000 1 0 0
-9.703668 -12.857669 -6.894317 17.521770 0.924295 1.975201 0.041307 -0.008107 237595.000000 1 0 0
-11.557568 -15.509869 6.811683 20.506888 0.930390 1.232198 0.050219 -0.008236 227912.000000 1 0 0
-14.514468 -8.507369 -8.171317 18.703356 0.530159 2.022935 0.039523 -0.012351 40221.200000 1 0 0
4.971232 -15.490269 6.176483 17.401452 -1.260253 1.207946 0.033401 -0.012015 207763.000000 1 0 0
2.946232 -14.183069 9.007783 17.058133 -1.365980 1.014477 0.015497 -0.002541 426923.000000 1 0 0
2.872132 -17.635669 9.766883 20.363152 -1.409354 1.070557 0.024687 -0.001301 223790.000000 1 0 0
-8.438768 -17.815469 -4.842917 20.299201 1.128428 1.811696 0.046853 -0.017946 -98971.100000 1 0 0
2.255732 -19.825869 -3.943817 20.339791 -1.457506 1.765929 0.052801 -0.021219 193958.000000 1 0 0
-17.231968 -10.997269 -2.175317 20.557545 0.568028 1.676811 -0.035110 -0.005244 -182209.000000 1 0 0
-4.049868 -14.627969 2.735283 15.422733 1.300704 1.392499 0.008527 -0.001023 -36304.200000 1 0 0
-10.534168 -9.733269 -14.675217 20.519922 0.745902 2.367663 0.029768 -0.012331 108307.000000 1 0 0
1.055132 -20.325769 2.517083 20.508191 -1.518932 1.447751 0.051419 -0.023053 257660.000000 1 0 0
6.669632 -18.043069 0.271883 19.238250 -1.216724 1.556663 0.033151 -0.023002 -261336.000000 1 0 0
-6.467068 -17.727169 -2.771317 19.072380 1.220988 1.716618 -0.019134 -0.061197 -784951.000000 1 0 0
-9.279868 -15.912169 -7.619517 19.934144 1.042826 1.963009 0.057579 -0.007136 8164.430000 1 0 0
-12.114468 -10.967669 -12.650417 20.665990 0.735756 2.229557 0.051725 0.000723 430153.000000 1 0 0
-13.339668 -15.000769 -3.292017 20.342251 0.843944 1.733343 0.063032 -0.016813 161643.000000 1 0 0
-0.235568 -20.272069 -2.379917 20.412650 1.559177 1.687652 0.071203 -0.038043 420281.000000 1 0 0
-11.881868 -16.933069 -1.042117 20.712161 0.958933 1.621132 0.062363 -0.013111 98940.500000 1 0 0
0.776532 -20.154569 5.181083 20.824343 -1.532287 1.319356 0.056347 -0.026425 123728.000000 1 0 0
-18.170668 -8.787669 2.494883 20.337668 0.450457 1.447814 0.047359 -0.006793 -39062.400000 1 0 0
-15.155168 -14.983869 -0.792617 21.326596 0.779715 1.607971 0.074279 -0.013483 25267.000000 1 0 0
10.327132 -15.417469 -5.045017 19.230190 -0.980605 1.836252 0.029533 -0.006499 67922.200000 1 0 0
0.103332 -19.102969 -6.950917 20.328535 -1.565387 1.919765 0.050307 -0.010913 283429.000000 1 0 0
-10.230668 -17.994469 -2.712617 20.876440 1.053827 1.701102 0.058542 0.014926 584077.000000 1 0 0
-15.488768 -6.765169 -11.026717 20.180632 0.411805 2.148857 0.091468 -0.031097 51875.400000 1 0 0
-12.622568 -15.193469 1.840183 19.838271 0.877561 1.477904 0.067632 -0.020634 248266.000000 1 0 0
-2.626568 -16.389769 10.348883 19.560746 1.411891 1.013299 0.029882 -0.012084 385801.000000 1 0 0
-12.021968 -14.585769 -6.554417 20.005818 0.881457 1.904586 0.032057 -0.005452 180866.000000 1 0 0
5.305432 -17.076269 -7.547617 19.409098 -1.269561 1.970201 0.030998 -0.006688 87474.200000 1 0 0
-17.891568 -7.590169 -3.037917 19.670989 0.401220 1.725853 0.039454 -0.007414 92081.600000 1 0 0
-12.487568 -13.334069 -8.875317 20.310293 0.818169 2.023042 0.065192 -0.029570 57517.600000 1 0 0
-7.868768 -14.244469 10.087083 19.146061 1.066106 1.015907 0.049902 -0.006338 517035.000000 1 0 0
-16.019068 -8.468369 -5.669317 18.985915 0.486299 1.874028 0.063062 0.000430 136624.000000 1 0 0
-0.962368 -19.819469 0.232283 19.844179 1.522278 1.559091 0.043363 -0.023051 332506.000000 1 0 0
-14.810768 -11.336869 -1.855017 18.743653 0.653315 1.669926 0.021616 -0.004560 -202103.000000 1 0 0
-7.090068 -19.098469 2.688683 20.548713 1.215328 1.439576 0.043234 -0.016039 41844.300000 1 0 0
-1.620768 -21.122469 -4.444717 21.645810 1.494214 1.777606 0.054626 -0.020406 -354214.000000 1 0 0
-8.938468 -19.810669 -0.675517 21.744313 1.146949 1.601868 0.041780 -0.016253 192734.000000 1 0 0
-17.947668 -7.400169 5.122383 20.077851 0.391081 1.312818 0.052183 -0.005724 281781.000000 1 0 0
-2.926168 -15.815069 -10.743317 19.341606 1.387841 2.159702 0.025606 0.004527 83959.700000 1 0 0
-2.907668 -18.278869 -7.946617 20.142500 1.413045 1.976342 0.031431 -0.002899 229958.000000 1 0 0
4.452932 -17.093869 -4.519717 18.233398 -1.315961 1.821289 0.025787 -0.031155 646535.000000 1 0 0
0.748032 -17.475169 -9.314717 19.816786 -1.528017 2.060134 0.033081 0.006395 110247.000000 1 0 0
-7.673168 -10.164169 -14.416217 19.235777 0.924152 2.418024 0.016656 -0.019196 87913.700000 1 0 0
-4.646568 -19.785869 -1.606117 20.387516 1.340133 1.649657 0.041728 -0.024867 345683.000000 1 0 0
-10.537068 -15.569369 8.632483 20.687069 0.975823 1.140336 0.056830 -0.026805 190697.000000 1 0 0
-7.375268 -15.335269 -10.195617 19.837229 1.122517 2.110596 0.036041 -0.002522 380725.000000 1 0 0
-12.678268 -8.181269 -12.051417 19.310833 0.573063 2.244744 0.043428 -0.021643 324017.000000 1 0 0
-15.868768 -13.040469 3.318883 20.805927 0.687875 1.410596 0.054766 -0.004238 90144.200000 1 0 0
-6.448768 -14.282969 -13.014717 20.370878 1.146695 2.263849 0.024573 0.000360 553635.000000 1 0 0
-14.155668 -11.557569 -6.714917 19.469218 0.684699 1.922928 0.055339 -0.015156 343440.000000 1 0 0
-11.221468 -10.148369 -9.172717 17.693204 0.735225 2.115812 0.015226 -0.008548 95627.900000 1 0 0
-10.033768 -15.254769 3.623483 18.614889 0.988995 1.374891 0.031463 0.013442 551992.000000 1 0 0
5.354732 -17.845769 8.194983 20.354419 -1.279288 1.156425 0.063819 -0.026792 241034.000000 1 0 0
-4.900468 -16.813969 5.395183 18.325723 1.287200 1.271964 0.016943 0.007353 349982.000000 1 0 0
-18.421868 -7.348269 -7.042017 21.046431 0.379548 1.911971 0.067677 -0.018861 167268.000000 1 0 0
-17.068068 -4.888869 -10.840117 20.802118 0.278965 2.118943 0.063987 -0.003372 -212451.000000 1 0 0
-15.856268 -4.061369 -13.081717 20.953454 0.250746 2.245060 0.056188 -0.018442 420162.000000 1 0 0
-19.492768 -4.783569 -6.147717 20.991545 0.240647 1.868020 0.069008 -0.014461 279565.000000 1 0 0
5.585732 -13.651469 9.155783 17.360627 -1.182412 1.015273 0.026456 0.003798 340443.000000 1 0 0
19.840232 -3.642269 3.067883 20.403746 -0.181558 1.419865 0.078365 -0.004405 -27833.100000 1 0 0
18.282732 -2.252269 0.579783 18.430061 -0.122573 1.539333 0.071844 -0.016787 209562.000000 1 0 0
14.377132 -11.310669 0.249483 18.294682 -0.666586 1.557159 0.046951 -0.004196 119305.000000 1 0 0
11.356332 -13.503469 5.153783 18.381280 -0.871554 1.286604 0.041681 -0.011555 457311.000000 1 0 0
10.788832 -12.164169 8.116583 18.172640 -0.845246 1.107793 0.073828 -0.038874 26783.700000 1 0 0
17.762232 4.756631 -4.445517 18.917850 0.261655 1.808005 0.017724 -0.006274 -20430.400000 1 0 0
19.155232 -5.936169 -4.669317 20.590375 -0.300513 1.799558 0.123149 -0.022835 26331.400000 1 0 0
17.940432 -10.005469 -0.810017 20.557837 -0.508740 1.610208 0.080298 -0.015992 324526.000000 1 0 0
17.832332 -8.690869 8.566683 21.608131 -0.453489 1.163143 0.126691 -0.030585 39808.200000 1 0 0
19.788632 0.790831 -2.654417 19.981524 0.039943 1.704034 0.096209 -0.006047 -74527.900000 1 0 0
7.128632 -13.306869 12.121383 19.360219 -1.078990 0.894258 0.022221 0.003428 208121.000000 1 0 0
15.941332 -6.315069 -3.339017 17.468692 -0.377178 1.763123 0.062364 -0.013188 358751.000000 1 0 0
14.307232 -6.682769 12.063783 19.871869 -0.436975 0.918417 0.090615 -0.039160 323072.000000 1 0 0
16.840932 0.911031 10.194883 19.707426 0.054044 1.027090 0.138352 -0.038448 389810.000000 1 0 0
16.499232 -10.095369 2.573783 19.513213 -0.549101 1.438511 0.026876 -0.011891 301220.000000 1 0 0
15.906032 -6.957569 -5.721217 18.279550 -0.412341 1.889130 0.074487 -0.017559 261660.000000 1 0 0
18.579832 -4.266869 6.263783 20.066173 -0.225736 1.253334 0.147047 -0.014272 -4643.800000 1 0 0
13.652232 -13.552069 8.064083 20.858367 -0.781716 1.173842 0.087756 -0.019234 100895.000000 1 0 0
15.085032 -14.418269 -1.597917 20.928402 -0.762802 1.647222 0.050936 -0.002947 160234.000000 1 0 0
18.738732 -6.289569 8.230483 21.411203 -0.323830 1.176238 0.134936 -0.031515 231274.000000 1 0 0
19.674632 3.732431 2.444183 20.174148 0.187480 1.449344 0.082020 -0.011018 144005.000000 1 0 0
15.991132 -10.526669 8.167083 20.814137 -0.582175 1.167577 0.088500 -0.037281 400274.000000 1 0 0
14.119132 -4.315369 10.865183 18.330971 -0.296623 0.936361 0.068491 -0.021376 -170803.000000 1 0 0
18.777532 -7.602869 1.892083 20.346482 -0.384716 1.477669 0.088081 -0.013489 123437.000000 1 0 0
19.012232 -5.084969 -1.424117 19.731954 -0.261341 1.643032 0.083720 -0.017282 227536.000000 1 0 0
14.840632 -13.020969 -6.289717 20.720775 -0.720180 1.879209 0.080192 -0.024561 545813.000000 1 0 0
13.763632 -9.447569 10.265183 19.597656 -0.601550 1.019495 0.058108 -0.027464 378124.000000 1 0 0
14.397732 2.324631 0.503083 14.592865 0.160077 1.536315 0.004008 0.001281 -104657.000000 1 0 0
11.996432 1.796831 13.908583 18.455126 0.148675 0.717209 -0.005585 -0.001905 92478.500000 1 0 0
18.500232 -2.796269 9.184683 20.843131 -0.150012 1.114465 0.130130 -0.030970 251640.000000 1 0 0
7.486632 -18.664769 5.514983 20.852777 -1.189333 1.303140 0.059666 -0.026375 367487.000000 1 0 0
12.864932 -2.710069 15.329083 20.194845 -0.207620 0.708929 0.071385 -0.003611 317919.000000 1 0 0
11.400832 -13.530669 -6.976717 19.019268 -0.870619 1.946389 0.033716 -0.014981 243800.000000 1 0 0
10.668032 -17.550769 4.911983 21.117859 -1.024633 1.336048 0.045856 -0.017875 660817.000000 1 0 0
18.375832 -0.170569 -5.569417 19.202050 -0.009282 1.865068 0.099738 -0.017103 208322.000000 1 0 0
4.127232 -13.348169 11.762383 18.263661 -1.270922 0.871039 0.002534 -0.006190 59999.200000 1 0 0
9.457232 -3.114169 14.614583 17.683985 -0.318107 0.598058 0.030417 -0.002568 494928.000000 1 0 0
8.827632 -9.047669 13.959983 18.832646 -0.797707 0.735843 0.047696 -0.022348 466617.000000 1 0 0
21.079332 5.619931 -3.063417 22.029671 0.260548 1.710307 0.132718 -0.017079 317981.000000 1 0 0
14.772932 -13.403369 2.084483 20.055795 -0.736829 1.466674 0.048996 -0.008013 282708.000000 1 0 0
11.051932 -0.393469 15.284983 18.866127 -0.035587 0.626335 0.037269 -0.015725 -9551.020000 1 0 0
19.534932 0.312731 7.635383 20.976426 0.016007 1.198239 0.128635 -0.025515 108380.000000 1 0 0
20.099732 1.150931 -0.007517 20.132658 0.057199 1.571170 0.109254 -0.008502 11387.500000 1 0 0
17.859332 0.220231 3.193683 18.143976 0.012331 1.393856 0.045706 0.000066 -28785.800000 1 0 0
10.250032 -8.282769 16.400383 21.039011 -0.679644 0.676893 0.078510 -0.012317 281133.000000 1 0 0
18.964432 3.102431 5.568783 20.007152 0.162156 1.288731 0.063113 -0.011430 120162.000000 1 0 0
15.574032 2.416231 7.184783 17.320790 0.153918 1.143066 0.062079 -0.013022 30557.000000 1 0 0
11.453732 -16.081969 2.172783 19.862998 -0.951923 1.461188 0.022903 0.000737 303931.000000 1 0 0
7.908632 -16.514269 7.104183 19.640187 -1.124173 1.200688 0.025757 -0.000364 455470.000000 1 0 0
6.217932 6.656031 7.229383 11.628818 0.819415 0.899913 0.003200 -0.001054 -933006.000000 1 0 0
18.520832 2.559331 -6.686517 19.856508 0.137317 1.914251 0.077543 -0.012640 166062.000000 1 0 0
14.262232 4.523431 -7.399317 16.691992 0.307126 2.030057 0.019803 -0.003796 355497.000000 1 0 0
-10.516468 -3.995069 -13.858517 17.849794 0.363048 2.459724 0.022271 -0.009108 -84517.500000 1 0 0
7.825632 -14.119469 -10.268117 19.132019 -1.064701 2.137315 0.018193 -0.001863 57502.000000 1 0 0
1.826832 -16.020869 13.642683 21.121751 -1.457258 0.868586 -0.005325 -0.005473 386452.000000 1 0 0
-9.341068 -8.225869 2.480683 12.691503 0.722000 1.374070 0.015065 0.000594 474350.000000 1 0 0
-14.035468 3.029931 -9.860717 17.418627 -0.212614 2.172566 0.036784 -0.008555 117458.000000 1 0 0
-13.015268 -5.243769 -12.984617 19.117912 0.382998 2.317449 0.045907 -0.014183 95454.000000 1 0 0
-17.995368 -1.392869 -8.952717 20.147568 0.077248 2.031253 0.070970 -0.028302 308842.000000 1 0 0
-12.196568 15.324831 4.370783 20.067647 -0.898579 1.351234 0.051836 -0.019822 438704.000000 1 0 0
-17.424168 6.344731 9.431083 20.803908 -0.349210 1.100296 0.041624 -0.023386 240087.000000 1 0 0
-13.662968 15.542531 -0.542917 20.701249 -0.849666 1.597026 0.079956 -0.019761 147149.000000 1 0 0
-16.065468 5.549531 -10.601217 20.032033 -0.332600 2.128469 0.061622 -0.015536 200632.000000 1 0 0
-18.526668 2.831231 -0.430217 18.746690 -0.151646 1.593747 0.092421 -0.005792 26496.500000 1 0 0
-9.818368 15.627831 -0.185217 18.457079 -1.009855 1.580831 0.034224 -0.013427 -35060.900000 1 0 0
-18.919968 11.536131 2.273083 22.275871 -0.547545 1.468576 0.168661 -0.040331 179239.000000 1 0 0
-8.725768 16.236431 -7.749117 19.995238 -1.077663 1.968767 0.065794 -0.030247 105188.000000 1 0 0
-15.077668 -1.715069 -12.681717 19.776336 0.113262 2.266932 0.047242 -0.025262 89865.500000 1 0 0
-19.025068 5.115231 -4.987817 20.322330 -0.262656 1.818765 0.096483 -0.013812 145800.000000 1 0 0
-16.776468 9.459331 -5.802817 20.114708 -0.513411 1.863442 0.069243 0.000273 -104906.000000 1 0 0
-19.075768 1.245531 2.539883 19.284379 -0.065201 1.438706 0.082238 -0.018796 510577.000000 1 0 0
-14.289368 12.661331 -7.972517 20.689523 -0.725064 1.966373 0.054897 0.019687 57267.000000 1 0 0
-12.684868 5.277131 -13.588217 19.323396 -0.394238 2.350685 0.052706 -0.026967 -123738.000000 1 0 0
-14.136768 9.271231 -6.551617 18.130847 -0.580459 1.940514 0.038324 -0.007702 100731.000000 1 0 0
-6.633668 11.354931 -15.393917 20.246300 -1.042068 2.434621 0.015349 -0.037602 103279.000000 1 0 0
-15.050868 13.679731 2.760083 20.525149 -0.737710 1.435914 0.064466 -0.034569 -20579.600000 1 0 0
-18.573068 8.288431 -4.947317 20.931624 -0.419740 1.809410 0.085253 -0.017156 247111.000000 1 0 0
-4.845868 16.112331 -11.215217 20.220552 -1.278647 2.158732 0.024648 -0.008563 120099.000000 1 0 0
-19.210768 -1.436269 -6.986717 20.492210 0.074625 1.918718 0.040810 -0.017812 -110421.000000 1 0 0
-10.625768 13.946031 -6.245017 18.611796 -0.919710 1.912976 0.033558 -0.012669 53795.600000 1 0 0
-19.493768 2.909331 4.410483 20.197117 -0.148151 1.350651 0.087944 -0.018551 115786.000000 1 0 0
-15.083668 12.403331 0.667583 19.539839 -0.688193 1.536624 0.037084 -0.008258 192389.000000 1 0 0
-17.331468 2.714631 -8.357317 19.431771 -0.155368 2.015383 0.043745 -0.018307 177439.000000 1 0 0
-16.166068 14.029931 -4.380717 21.848830 -0.714773 1.772666 0.048208 0.029776 206548.000000 1 0 0
-10.602768 15.494031 -8.658217 20.674825 -0.970676 2.002898 0.044364 -0.020079 38886.100000 1 0 0
-19.626668 1.542531 -6.723017 20.803472 -0.078432 1.899872 0.109593 -0.029082 178198.000000 1 0 0
-17.594068 10.525831 -0.614217 20.511499 -0.539139 1.600746 0.089612 -0.003141 152454.000000 1 0 0
-11.417568 6.843631 -14.790417 19.898557 -0.539974 2.408773 0.028730 -0.022116 334945.000000 1 0 0
-13.569168 12.508931 -5.137417 19.156950 -0.744764 1.842295 0.052218 -0.011148 452057.000000 1 0 0
-18.888268 7.418931 -0.379417 20.296580 -0.374267 1.589491 0.087002 -0.006872 73183.300000 1 0 0
-14.459068 8.374331 -10.329017 19.643896 -0.524966 2.124467 0.048800 -0.008193 471745.000000 1 0 0
-18.893268 11.092631 4.918883 22.454341 -0.530896 1.349944 0.115320 -0.040380 241068.000000 1 0 0
-8.105068 12.060831 -13.219417 19.644560 -0.979100 2.308959 -0.006232 -0.015284 429918.000000 1 0 0
-21.287568 -1.902569 -5.149517 21.984036 0.089138 1.807232 0.098173 -0.033159 403150.000000 1 0 0
-10.664468 13.438531 -3.097417 17.433272 -0.899986 1.749417 0.033648 -0.003842 524810.000000 1 0 0
-18.692068 -4.693169 3.697883 19.623801 0.245993 1.381224 0.052844 -0.021997 24723.200000 1 0 0
-10.003368 10.862331 -13.665517 20.119740 -0.826541 2.317481 0.006988 -0.027466 -141589.000000 1 0 0
-14.808768 11.065131 -10.311117 21.167330 -0.641708 2.079590 0.079745 -0.031709 296325.000000 1 0 0
-12.813668 9.628731 -13.830517 21.170398 -0.644423 2.282725 0.070533 -0.035286 196916.000000 1 0 0
-18.234768 -4.957669 -3.333417 19.188458 0.265463 1.745402 0.027177 -0.013444 -121832.000000 1 0 0
-9.498868 12.363031 -11.500517 19.373562 -0.915668 2.206345 0.030348 -0.018480 76168.900000 1 0 0
-15.683968 7.517931 -8.121817 19.195573 -0.446982 2.007670 0.047178 -0.005044 43723.700000 1 0 0
-14.714868 8.458031 2.080783 17.099570 -0.521680 1.448808 0.038604 -0.008316 -111581.000000 1 0 0
-20.039968 5.998831 7.894383 22.358613 -0.290854 1.209935 0.082070 -0.026694 398760.000000 1 0 0
-18.978768 6.021631 3.775683 20.265968 -0.307236 1.383395 0.051851 -0.009316 235766.000000 1 0 0
-14.618968 12.680131 5.816083 20.207097 -0.714495 1.278843 0.048549 -0.027668 -125556.000000 1 0 0
18.181032 6.265731 5.721283 20.063459 0.331883 1.281624 0.050168 -0.017181 209793.000000 1 0 0
18.436832 8.320731 0.281483 20.229448 0.423943 1.556881 0.051611 -0.002754 92089.400000 1 0 0
15.959432 5.224431 9.050383 19.076362 0.316362 1.076481 0.047432 0.000602 -99441.800000 1 0 0
12.243832 13.175431 10.610383 20.882616 0.822031 1.037823 0.043069 -0.019614 81642.800000 1 0 0
15.078032 12.807531 4.092983 20.202288 0.704155 1.366784 0.029232 0.000330 138270.000000 1 0 0
5.133932 10.385031 14.255183 18.368897 1.111672 0.682418 0.035776 -0.017753 378007.000000 1 0 0
12.514532 14.335931 -5.362517 19.770914 0.853129 1.845470 0.054810 0.014670 315106.000000 1 0 0
18.328132 9.111831 -2.742317 20.651058 0.461365 1.703983 0.076238 -0.017339 7390.500000 1 0 0
14.534032 7.831831 9.537183 19.066555 0.494251 1.046961 0.039322 -0.012613 22517.800000 1 0 0
4.582532 19.532231 -2.025517 20.164582 1.340350 1.671415 0.023994 -0.013539 592961.000000 1 0 0
-4.667068 19.270631 3.653983 20.161606 -1.333186 1.388554 0.030839 -0.013720 183398.000000 1 0 0
8.288432 13.396631 12.077883 19.850519 1.016744 0.916701 0.079601 -0.000734 24957.700000 1 0 0
0.223432 17.072331 -10.318217 19.949436 1.557710 2.114394 0.018900 -0.002428 -41696.700000 1 0 0
10.913432 9.591831 15.547083 21.279521 0.721035 0.751578 0.043672 -0.011751 317926.000000 1 0 0
-1.123268 12.072831 0.883383 12.157111 -1.478022 1.498068 0.003238 -0.000401 391223.000000 1 0 0
-4.942568 18.922231 -1.953917 19.654455 -1.315301 1.670374 0.026477 -0.007309 22690.100000 1 0 0
5.837632 18.553231 6.261683 20.433037 1.265961 1.259336 0.035786 -0.016547 246029.000000 1 0 0
11.635232 17.279031 -1.518317 20.886571 0.978165 1.643554 0.061199 -0.019085 470913.000000 1 0 0
18.550232 10.301831 3.512583 21.507605 0.506940 1.406743 0.040867 -0.011793 358382.000000 1 0 0
11.737432 16.922731 5.977283 21.444674 0.964386 1.288324 0.037259 -0.004075 -80643.900000 1 0 0
18.184132 7.088331 -5.792517 20.358299 0.371690 1.859311 0.039110 0.002744 362749.000000 1 0 0
0.203032 15.740131 10.900383 19.147097 1.557898 0.965146 0.019467 -0.001637 401734.000000 1 0 0
0.920832 20.154631 -1.993317 20.273885 1.525140 1.669275 0.014422 -0.016165 314725.000000 1 0 0
14.465632 9.593931 -1.245617 17.402574 0.585614 1.642434 0.034244 -0.013080 773.056000 1 0 0
9.700232 17.766831 1.719383 20.315292 1.071049 1.486060 0.032668 -0.015856 288473.000000 1 0 0
0.251032 17.718831 -0.584717 17.730253 1.556630 1.603781 0.003278 -0.003923 54141.200000 1 0 0
0.018432 21.068331 1.139383 21.099126 1.569921 1.516769 0.022871 -0.013788 236191.000000 1 0 0
5.866632 18.069631 -0.126717 18.998553 1.256865 1.577466 0.024546 -0.009216 -30718.500000 1 0 0
6.739132 18.509531 -3.099217 19.940506 1.221625 1.726852 0.026509 -0.023149 186849.000000 1 0 0
10.476332 9.429931 12.564583 18.882423 0.732880 0.842751 0.027005 -0.010817 158289.000000 1 0 0
13.098132 14.794131 8.025983 21.327067 0.846129 1.184966 0.045198 -0.021631 185152.000000 1 0 0
0.435632 17.698331 6.944483 19.017007 1.546187 1.196978 0.019472 -0.002814 341249.000000 1 0 0
7.312432 17.855831 -7.888517 20.845409 1.182105 1.958895 0.056021 -0.019402 129972.000000 1 0 0
-0.920568 18.610731 9.124783 20.747733 -1.521372 1.115424 0.044815 -0.016701 204453.000000 1 0 0
16.196532 7.060331 -7.915417 19.360520 0.411080 1.991982 0.056302 0.000990 -189628.000000 1 0 0
-4.976468 19.935431 -6.682817 21.606635 -1.326167 1.885248 0.007699 -0.003000 333668.000000 1 0 0
4.444032 15.841931 10.119283 19.316213 1.297302 1.019402 0.034217 -0.002341 143711.000000 1 0 0
9.081732 14.911231 7.274683 18.914114 1.023747 1.176004 0.017324 -0.008032 36460.600000 1 0 0
-2.350768 19.289831 6.550183 20.506794 -1.449529 1.245684 0.027444 -0.012893 67191.100000 1 0 0
4.624032 17.826131 8.572983 20.313756 1.316994 1.135115 0.027539 -0.011361 3503.020000 1 0 0
14.645032 12.024031 -6.395117 19.998795 0.687434 1.896288 0.057220 -0.020042 133554.000000 1 0 0
12.017932 6.480931 15.280483 20.492104 0.494569 0.729247 0.068800 -0.023990 249001.000000 1 0 0
17.011732 8.987931 4.998083 19.878702 0.486060 1.316640 0.034779 -0.015158 181939.000000 1 0 0
5.310432 14.710631 11.879083 19.639653 1.224362 0.921216 0.031330 -0.033484 208349.000000 1 0 0
15.968832 10.529431 -3.687617 19.480016 0.582937 1.761248 0.066533 -0.026126 190063.000000 1 0 0
15.665132 14.024531 6.640183 22.049396 0.730196 1.264898 0.057947 0.001495 483235.000000 1 0 0
12.894732 13.717931 -8.380317 20.607898 0.816321 1.989587 0.148684 -0.048969 402294.000000 1 0 0
-8.131268 15.573031 9.469483 19.957653 -1.089596 1.076424 0.031024 -0.019090 230917.000000 1 0 0
-3.492668 17.292931 -7.861317 19.314360 -1.371506 1.989985 0.000692 0.022867 42189.500000 1 0 0
2.263932 19.701431 -4.813917 20.406998 1.456386 1.808936 0.021536 -0.017966 -104273.000000 1 0 0
7.131432 16.870331 8.812883 20.325656 1.170858 1.122330 0.031121 -0.000686 435458.000000 1 0 0
13.693432 15.348531 -1.579417 20.629640 0.842326 1.647432 0.080268 -0.025676 284351.000000 1 0 0
12.621432 16.418531 3.740883 21.044309 0.915415 1.392084 0.044933 -0.027011 361700.000000 1 0 0
2.443432 18.422231 0.636683 18.594470 1.438931 1.536549 0.014048 -0.016055 5048.270000 1 0 0
-7.591668 16.998931 1.078483 18.648330 -1.150776 1.512931 0.034379 -0.015956 -40125.400000 1 0 0
0.288732 20.015531 -5.825917 20.848169 1.556372 1.854012 0.026853 -0.000697 150514.000000 1 0 0
-6.947168 17.852731 -6.295417 20.164707 -1.199689 1.888304 0.038113 -0.022662 -95952.000000 1 0 0
-7.266668 18.513531 -1.582317 19.951416 -1.196767 1.650188 0.055392 -0.019130 -99535.100000 1 0 0
-14.692168 -9.306469 8.792783 19.488027 0.564639 1.102699 0.053331 -0.005580 481529.000000 1 0 0
-13.349268 -13.660369 7.907183 20.672014 0.796916 1.178289 0.050942 -0.005451 100203.000000 1 0 0
-3.145768 -15.405169 13.124583 20.480961 1.369364 0.875232 0.023336 -0.003951 110840.000000 1 0 0
-2.093868 -14.789969 15.354583 21.421734 1.430157 0.771629 0.030529 -0.007146 514942.000000 1 0 0
-7.694168 -13.779069 13.453383 20.737803 1.061530 0.864872 0.041844 -0.009748 269452.000000 1 0 0
-10.302268 -11.403269 11.706583 19.318782 0.836079 0.919813 0.063518 -0.008459 14549.600000 1 0 0
-7.744168 -10.618069 12.967883 18.462977 0.940650 0.792072 0.042576 -0.011255 450576.000000 1 0 0
-15.465068 -12.161269 7.094683 20.914094 0.666375 1.224698 0.047574 -0.008782 374603.000000 1 0 0
-4.618668 -11.786569 12.919783 18.088010 1.197328 0.775211 0.030413 -0.030840 257307.000000 1 0 0
3.540932 -12.872169 14.047283 19.379296 -1.302352 0.759965 -0.006637 0.013186 424801.000000 1 0 0
6.370332 -13.469269 15.066383 21.189579 -1.129019 0.779837 0.027357 0.005537 296139.000000 1 0 0
6.878632 -9.195369 16.676783 20.248099 -0.928542 0.603028 0.043637 -0.014577 583571.000000 1 0 0
-5.173468 13.604831 13.063483 19.557883 -1.207416 0.839360 0.006480 -0.010067 494973.000000 1 0 0
-13.086268 -2.125169 17.774583 22.174367 0.160991 0.640859 0.060799 -0.006442 264232.000000 1 0 0
-9.952168 9.313031 13.808383 19.402310 -0.752235 0.778899 0.011648 -0.000239 378992.000000 1 0 0
-7.162968 -8.206469 16.965183 20.161143 0.853189 0.570781 0.039238 -0.018526 92909.900000 1 0 0
-5.247068 3.307231 18.095783 19.129215 -0.562402 0.330204 0.028985 -0.005797 584364.000000 1 0 0
-15.990168 -3.488069 13.850183 21.440142 0.214774 0.868473 0.099258 -0.028790 102.331000 1 0 0
-14.570668 3.118331 12.552583 19.483216 -0.210834 0.870719 0.044868 -0.009779 330249.000000 1 0 0
-14.300168 10.728431 9.238883 20.123394 -0.643649 1.093801 -0.015149 -0.009257 -229821.000000 1 0 0
-3.940568 11.345331 15.626983 19.709064 -1.236503 0.655271 -0.012134 -0.004765 155168.000000 1 0 0
-12.971168 12.984931 7.451683 19.808766 -0.785928 1.185125 0.019928 -0.040075 16884.200000 1 0 0
-4.145768 -6.492069 18.757483 20.277513 1.002484 0.389659 0.026183 -0.008401 296174.000000 1 0 0
0.631832 -2.735169 18.184683 18.400083 -1.343776 0.153163 0.012513 -0.011017 197889.000000 1 0 0
-4.512068 6.175131 21.211983 22.548597 -0.939773 0.346041 0.051570 -0.009750 275812.000000 1 0 0
2.091332 -10.595569 16.500083 19.720358 -1.375923 0.579561 -0.004241 -0.006761 358983.000000 1 0 0
-15.093568 -0.093169 13.901283 20.519994 0.006173 0.826505 0.051747 -0.008832 -54037.700000 1 0 0
-13.740968 -5.651269 7.631883 16.703194 0.390185 1.096276 0.029978 -0.005685 34842.900000 1 0 0
9.764332 2.409231 16.636883 19.440485 0.241906 0.543729 0.027580 -0.011144 301600.000000 1 0 0
-7.722168 12.173931 11.499283 18.440987 -1.005523 0.897493 0.014371 -0.016451 150602.000000 1 0 0
-2.059368 7.300731 20.346883 21.714910 -1.295863 0.356854 0.060811 -0.011891 494081.000000 1 0 0
1.027832 -12.940669 15.590183 20.287217 -1.491536 0.694345 -0.013433 -0.015236 446862.000000 1 0 0
-3.411368 -11.629569 17.681883 21.436728 1.285465 0.600876 0.043230 -0.016837 564814.000000 1 0 0
-2.141668 8.869331 16.621483 18.961157 -1.333863 0.502031 0.022782 -0.013274 599175.000000 1 0 0
-4.751068 -9.774569 20.426883 23.138116 1.118359 0.488955 0.063759 -0.014080 313291.000000 1 0 0
-6.718568 -2.762369 19.029883 20.369249 0.390085 0.364658 0.019155 -0.016550 -188597.000000 1 0 0
-10.756368 -7.914569 16.109383 20.924915 0.634353 0.692165 0.055755 -0.023314 207994.000000 1 0 0
-0.850168 5.568431 17.588683 18.468676 -1.419290 0.309939 0.032709 -0.022129 -133757.000000 1 0 0
-6.060468 -11.457669 18.839483 22.867741 1.084262 0.602634 0.063385 -0.016560 380786.000000 1 0 0
0.807432 3.535031 18.991483 19.334550 1.346240 0.188661 0.020117 -0.001796 82024.700000 1 0 0
-18.549368 -0.259469 7.790583 20.120625 0.013987 1.173210 0.067409 -0.028588 166692.000000 1 0 0
-1.858168 -8.828969 17.643283 19.816380 1.363361 0.472709 0.015199 -0.007017 298091.000000 1 0 0
5.041732 3.281031 14.140683 15.366950 0.576920 0.402203 0.013806 -0.015446 -279324.000000 1 0 0
-14.254968 -7.183569 10.407383 19.055744 0.466790 0.993029 0.063331 0.003124 225914.000000 1 0 0
3.301832 8.168231 16.985283 19.134313 1.186650 0.478499 0.040624 -0.008851 -10252.200000 1 0 0
6.625332 4.185331 16.466383 18.236058 0.563415 0.444194 0.045518 -0.057697 300973.000000 1 0 0
5.431132 -9.103669 18.353583 21.195000 -1.032890 0.523771 0.022084 -0.000813 464022.000000 1 0 0
-4.475568 -0.830869 19.722383 20.240886 0.183556 0.226833 0.024865 -0.015187 791515.000000 1 0 0
-11.260668 1.948331 16.814583 20.330491 -0.171325 0.596935 0.043748 -0.017177 171327.000000 1 0 0
-16.930468 -3.997769 8.788183 19.489871 0.231881 1.103011 0.060002 -0.016351 586148.000000 1 0 0
-13.849768 -8.930169 13.610783 21.373287 0.572703 0.880439 0.089283 -0.028501 31593.400000 1 0 0
-14.961368 6.249131 12.812383 20.665220 -0.395658 0.902057 0.061624 -0.024530 254673.000000 1 0 0
1.390432 9.186631 16.845983 19.238364 1.420583 0.504026 0.031859 -0.026098 -17739.400000 1 0 0
-3.891268 -10.347269 14.969083 18.608638 1.211090 0.636105 0.025235 -0.016963 689567.000000 1 0 0
-18.821368 -3.180369 6.752083 20.247204 0.167395 1.230801 0.131002 -0.019968 -208297.000000 1 0 0
-0.400368 -0.515869 20.562983 20.573349 0.910797 0.031746 0.034524 -0.028119 319479.000000 1 0 0
-1.689468 2.927231 20.302483 20.581881 -1.047344 0.164959 0.035435 -0.016844 1743.010000 1 0 0
-7.935168 2.030231 16.556283 18.471579 -0.250479 0.459417 0.002870 0.011496 588710.000000 1 0 0
2.840532 -1.569369 18.979083 19.254536 -0.504754 0.169352 0.020168 -0.003982 -79166.100000 1 0 0
-11.853668 3.699031 14.933983 19.422053 -0.302482 0.693648 -0.004779 -0.002315 192035.000000 1 0 0
-13.555268 -5.593669 13.354083 19.833456 0.391369 0.832118 0.058066 -0.012794 19578.500000 1 0 0
-17.433468 -0.715169 9.849783 20.036354 0.041000 1.056875 0.073210 -0.024329 178480.000000 1 0 0
-7.569768 7.688531 14.634183 18.181700 -0.793182 0.635314 0.007106 -0.006085 36459.400000 1 0 0
-9.498968 0.799231 13.882483 16.840205 -0.083941 0.601716 0.012550 -0.003867 298420.000000 1 0 0
8.132532 -0.650369 14.934283 17.017458 -0.079801 0.499993 0.021596 -0.013007 28898.300000 1 0 0
4.322732 6.681431 18.087683 19.760866 0.996549 0.414473 0.028950 0.000063 -101070.000000 1 0 0
1.859932 0.580431 19.915983 20.011063 0.302494 0.097520 0.032825 -0.009522 288593.000000 1 0 0
-7.066868 7.012431 17.446683 20.087349 -0.781532 0.518546 0.007517 -0.010704 518174.000000 1 0 0
7.414232 -2.846169 17.041983 18.801615 -0.366532 0.436089 0.013901 0.004490 349992.000000 1 0 0
-16.476768 2.625931 9.632383 19.265570 -0.158043 1.047222 0.050939 -0.014357 187995.000000 1 0 0
4.310732 -5.318769 19.043683 20.236936 -0.889700 0.345117 0.040749 -0.024193 8087.240000 1 0 0
-4.021568 -3.770569 20.587083 21.312395 0.753197 0.261638 0.028980 -0.017288 337803.000000 1 0 0
-9.553368 5.826031 14.557083 18.360777 -0.547624 0.655348 0.016485 -0.003422 -149702.000000 1 0 0
6.371332 2.856831 19.782783 20.978891 0.421513 0.339308 0.053867 -0.022705 74690.200000 1 0 0
-7.456968 11.307031 14.646783 19.949526 -0.987773 0.746320 0.020324 -0.010400 323826.000000 1 0 0
-14.548068 4.923431 8.590683 17.597906 -0.326326 1.060810 0.029696 -0.026515 107464.000000 1 0 0
0.541132 -5.538869 20.543283 21.283759 -1.473408 0.264553 0.028015 -0.016990 174314.000000 1 0 0
-6.262268 -8.366869 13.590483 17.144146 0.928281 0.655540 0.017069 -0.004990 337450.000000 1 0 0
-12.666068 9.840731 6.463383 17.292906 -0.660519 1.187738 -0.003511 -0.029763 -57261.700000 1 0 0
-19.594568 2.400731 7.914583 21.268550 -0.121913 1.189498 0.054250 -0.026571 -63645.800000 1 0 0
-15.679068 9.147931 6.097483 19.149337 -0.528160 1.246737 0.022684 -0.020953 155518.000000 1 0 0
-12.935668 6.920031 14.246783 20.449674 -0.491221 0.800044 0.038851 -0.017444 105082.000000 1 0 0
-16.617668 9.194031 10.815683 21.855345 -0.505349 1.053104 0.043099 -0.015631 319745.000000 1 0 0
1.815632 11.312831 13.892283 18.007560 1.411660 0.689649 0.020242 -0.057405 246393.000000 1 0 0
1.637632 13.992531 13.499083 19.511484 1.454290 0.806744 0.036977 -0.034508 433771.000000 1 0 0
8.703032 5.364131 16.571283 19.471109 0.552356 0.552776 0.028579 -0.008483 87480.600000 1 0 0
-0.496668 13.388131 13.417183 18.960737 -1.533716 0.784658 0.023331 0.002585 49142.200000 1 0 0
4.518932 12.744231 14.584283 19.888124 1.230041 0.747610 0.063554 -0.015777 138707.000000 1 0 0
-3.810168 -4.469669 -13.448017 14.674620 0.864882 2.729821 0.007413 -0.010308 133034.000000 1 0 0
4.812932 -11.924969 17.076483 21.376985 -1.187189 0.645456 -0.022172 0.015790 209788.000000 1 0 0
8.816632 -13.776469 7.338383 17.926962 -1.001499 1.149056 0.022692 -0.006175 303966.000000 1 0 0
-0.333368 15.276431 0.381383 15.284827 -1.548977 1.545842 0.002736 -0.001159 -437018.000000 1 0 0
-14.549268 7.784131 8.605583 18.609942 -0.491269 1.090075 0.033561 -0.008898 202709.000000 1 0 0
-16.230368 -10.023669 4.432183 19.584255 0.553251 1.342505 0.034864 -0.005294 229481.000000 1 0 0
9.080732 -10.394969 11.640083 18.055653 -0.852777 0.870194 0.028817 -0.002950 151876.000000 1 0 0
-26.380408 5.843531 31.165698 41.247709 -0.217990 0.714266 0.076234 -0.025890 145246.000000 0 0 1
-25.203678 5.172731 30.751208 40.095128 -0.202426 0.696712 0.059639 -0.023143 494425.000000 0 0 1
-24.042968 5.572931 31.480888 40.002102 -0.227768 0.664896 0.053098 -0.016407 563301.000000 0 0 1
-22.761568 4.804831 31.080368 38.822219 -0.208040 0.642531 0.040419 -0.018058 -100842.000000 0 0 1
-22.705068 3.467831 31.451088 38.945050 -0.151563 0.630766 0.019500 -0.019477 315141.000000 0 0 1
-21.511268 2.824731 31.001008 37.838819 -0.130567 0.610623 0.024942 -0.013904 377380.000000 0 0 1
-21.043768 1.657431 31.887479 38.241320 -0.078599 0.584752 0.021921 -0.013574 -256126.000000 0 0 1
-21.578168 0.415231 31.581216 38.251313 -0.019241 0.599488 0.022934 -0.001150 44567.800000 0 0 1
-21.796168 -0.353969 32.764720 39.353845 0.016239 0.587070 0.023831 -0.001030 -191369.000000 0 0 1
-22.371968 -1.786269 32.461958 39.464851 0.079675 0.604909 0.034311 -0.026832 -468098.000000 0 0 1
-21.527968 -2.660369 31.720228 38.427904 0.122954 0.599801 0.034775 -0.028347 72590.600000 0 0 1
-21.838668 -4.052369 31.757214 38.753964 0.183473 0.610333 0.041261 -0.034764 -401142.000000 0 0 1
-23.278468 -4.569769 31.484128 39.421063 0.193844 0.645727 0.028444 -0.021765 278949.000000 0 0 1
-24.333368 -4.230769 32.356991 40.706106 0.172146 0.651965 0.016437 -0.016518 138582.000000 0 0 1
-24.262468 -4.653069 33.710008 41.793337 0.189480 0.632439 0.020642 -0.022037 -1040910.000000 0 0 1
-25.414428 -4.095269 -33.130827 41.956120 0.159766 2.481042 0.016452 -0.015957 -294862.000000 0 0 1
-25.424898 -4.513669 -31.771167 40.941491 0.175699 2.459117 0.028178 -0.026174 315700.000000 0 0 1
-26.599558 -4.049669 -31.100747 41.124114 0.151086 2.428382 0.034208 -0.023626 155801.000000 0 0 1
-26.784148 -4.685869 -29.741817 40.297935 0.173197 2.400969 0.018337 -0.021992 -1271650.000000 0 0 1
-27.067868 -6.080169 -29.806217 40.719141 0.220959 2.392042 0.012262 -0.015678 523315.000000 0 0 1
-27.171928 -6.590669 -28.439557 39.881812 0.237959 2.364701 -0.006276 -0.012901 -159131.000000 0 0 1
-27.532448 -8.090569 -28.307337 40.308787 0.285810 2.349366 -0.007332 -0.008864 -930761.000000 0 0 1
-28.852248 -8.472969 -28.423467 41.377976 0.285637 2.328042 0.011169 -0.008771 -1093630.000000 0 0 1
-28.862058 -9.792369 -27.927647 41.338388 0.327095 2.312556 0.011371 -0.008018 305054.000000 0 0 1
-30.287758 -10.380669 -27.870237 42.448282 0.330188 2.287058 0.078393 -0.009771 403883.000000 0 0 1
-30.200668 -11.402869 -26.890447 42.014306 0.361022 2.265335 0.109995 -0.020320 72979.000000 0 0 1
-31.434948 -11.520569 -26.196507 42.510427 0.351288 2.234752 0.109674 -0.019331 241357.000000 0 0 1
-31.295628 -12.337769 -24.821617 41.806094 0.375525 2.206485 0.121711 -0.028161 -31932.300000 0 0 1
-30.809598 -11.474169 -23.790517 40.581727 0.356509 2.197203 0.139977 -0.026680 247671.000000 0 0 1
-30.650438 -12.093769 -22.491717 39.894685 0.375817 2.169748 0.160759 -0.032576 -144866.000000 0 0 1
-30.039558 -11.110469 -21.409517 38.525121 0.354258 2.160036 0.172364 -0.034269 309440.000000 0 0 1
-29.647938 -11.659469 -20.161517 37.701859 0.374686 2.135022 0.189887 -0.037900 -67894.500000 0 0 1
-28.981438 -12.866069 -20.057417 37.520120 0.417804 2.134804 0.185857 -0.043327 -536647.000000 0 0 1
-28.602058 -13.200869 -18.558717 36.561819 0.432405 2.103191 0.155417 -0.043165 234986.000000 0 0 1
-27.794038 -12.154069 -18.017417 35.282534 0.412235 2.106750 0.120523 -0.037720 137647.000000 0 0 1
-27.514098 -12.480969 -16.663717 34.503328 0.425861 2.074828 0.149148 -0.042910 50155.300000 0 0 1
-27.287568 -11.209069 -15.742317 33.437630 0.389761 2.060990 0.122158 -0.037483 -372212.000000 0 0 1
-26.117398 -10.535769 -16.115917 32.447552 0.383434 2.090561 0.099421 -0.041540 -166217.000000 0 0 1
-25.923688 -9.406369 -15.295017 31.534979 0.348075 2.077180 0.092072 -0.048088 57487.100000 0 0 1
-24.560668 -8.653369 -15.473117 30.290667 0.338746 2.106936 0.101276 -0.043338 152162.000000 0 0 1
-23.558968 -9.321869 -14.789017 29.336619 0.376779 2.099153 0.114299 -0.045091 -906826.000000 0 0 1
-22.344368 -8.623869 -14.790217 28.149465 0.368338 2.124002 0.102406 -0.063914 -499492.000000 0 0 1
-21.349668 -9.305969 -13.849517 27.096466 0.411053 2.107282 0.086529 -0.039603 -159494.000000 0 0 1
-20.452868 -10.282969 -14.402017 27.045838 0.465856 2.132352 0.091428 -0.031250 -151091.000000 0 0 1
-19.451668 -10.446969 -13.476117 25.867204 0.492864 2.118787 0.103404 -0.028082 -247888.000000 0 0 1
-18.246668 -11.351769 -13.898217 25.592264 0.556532 2.144877 0.096797 -0.022062 298643.000000 0 0 1
-17.624268 -10.975369 -15.148217 25.701012 0.556974 2.201114 0.109113 -0.034090 -8276.790000 0 0 1
-18.287668 -11.252569 -16.353517 26.990676 0.551600 2.221687 0.103669 -0.034547 -364525.000000 0 0 1
-17.466268 -10.631469 -17.480617 26.901126 0.546782 2.278131 0.103422 -0.036523 -295931.000000 0 0 1
-18.134268 -10.914369 -18.637317 28.201502 0.541789 2.292764 0.078002 -0.024049 -145294.000000 0 0 1
-17.740668 -10.178969 -19.785417 28.457080 0.520905 2.339595 0.081438 -0.028500 -203593.000000 0 0 1
-18.525268 -10.536569 -21.064717 29.965432 0.517138 2.350357 0.088030 -0.024386 1301340.000000 0 0 1
-19.839968 -9.897569 -21.110117 30.614102 0.462743 2.331671 0.091295 -0.038848 1392310.000000 0 0 1
-20.753668 -10.648669 -21.907817 32.000958 0.474071 2.324849 0.076805 -0.023169 754702.000000 0 0 1
-22.136868 -9.925769 -21.991517 32.744291 0.421507 2.307181 0.055527 -0.026746 308226.000000 0 0 1
-22.035668 -8.703669 -22.760717 32.853839 0.376172 2.336143 0.070752 -0.030641 619773.000000 0 0 1
-23.209668 -8.419769 -23.505517 34.089448 0.348006 2.331629 0.044645 -0.033526 342678.000000 0 0 1
-22.631368 -7.670369 -24.759017 34.409625 0.326776 2.373932 0.060283 -0.039907 36071.600000 0 0 1
-21.866468 -8.414969 -25.636747 34.730345 0.367365 2.401143 0.066335 -0.033890 -161329.000000 0 0 1
-21.530068 -7.609369 -26.767977 35.184810 0.339727 2.435314 0.055138 -0.037560 -59595.800000 0 0 1
-20.212268 -8.014269 -27.469867 35.033667 0.377490 2.472040 0.090566 -0.036589 30908.200000 0 0 1
-20.231168 -9.191769 -28.218797 35.917812 0.426455 2.474541 0.081009 -0.026614 314798.000000 0 0 1
-18.994268 -9.357669 -28.901567 35.828044 0.457756 2.509300 0.060401 -0.015940 226628.000000 0 0 1
-18.854768 -10.591269 -29.772317 36.797664 0.511804 2.513384 0.049937 -0.017176 -224539.000000 0 0 1
-19.606468 -10.454469 -30.944937 38.095913 0.489865 2.518864 0.052489 -0.011908 172698.000000 0 0 1
-19.446368 -11.569569 -31.755157 38.992385 0.536696 2.522480 0.047878 -0.013817 -57442.500000 0 0 1
-20.285268 -11.554369 -33.097347 40.502221 0.517762 2.527287 0.043545 -0.015077 372074.000000 0 0 1
-19.800768 -10.669969 33.557204 40.398077 0.494255 0.590498 0.036556 -0.010035 656358.000000 0 0 1
-20.525668 -10.743069 32.259125 39.716089 0.482189 0.622809 0.039492 -0.017290 27570.400000 0 0 1
-20.055468 -11.907169 31.361588 39.083906 0.535783 0.639462 0.057679 -0.016533 -406307.000000 0 0 1
-18.743768 -11.658769 30.904768 37.978420 0.556445 0.620229 0.067616 -0.017856 8496.090000 0 0 1
-18.261468 -12.533869 29.931198 37.235141 0.601510 0.637069 0.070134 -0.019680 -68973.200000 0 0 1
-18.203868 -14.056469 30.198108 37.959068 0.657539 0.650891 0.073275 -0.019331 -641103.000000 0 0 1
-19.427368 -14.758169 30.052248 38.708704 0.649654 0.681912 0.059990 -0.019508 -25810.900000 0 0 1
-19.418968 -16.144669 30.439448 39.551317 0.693588 0.692552 0.073999 -0.025576 -100020.000000 0 0 1
-19.627568 -16.413369 31.929807 40.916411 0.696452 0.675544 0.040122 -0.026789 -182797.000000 0 0 1
-18.483368 -16.178169 32.710405 40.906462 0.718990 0.644102 0.064577 -0.023514 -36291.000000 0 0 1
-18.841668 -16.095469 -33.596427 41.746766 0.706955 2.506079 0.057669 -0.029321 -283024.000000 0 0 1
-17.600068 -15.564969 -32.896567 40.425422 0.724112 2.521388 0.057130 -0.028666 -260955.000000 0 0 1
-17.305968 -14.263269 -33.363867 40.200559 0.689313 2.549788 0.058249 -0.022145 -10372.100000 0 0 1
-16.215668 -13.687669 -32.637817 38.929773 0.701060 2.565095 0.067829 -0.023928 260819.000000 0 0 1
-16.367268 -13.206369 -31.161537 37.594375 0.678920 2.547914 0.071448 -0.021186 -395684.000000 0 0 1
-16.660368 -14.289569 -30.254847 37.378007 0.708946 2.513976 0.056555 -0.022766 -248873.000000 0 0 1
-16.922068 -13.803769 -28.966917 36.276475 0.684257 2.495603 0.042691 -0.020342 -306673.000000 0 0 1
-16.917868 -14.980869 -27.872537 35.882015 0.724749 2.460338 0.047084 -0.009506 658010.000000 0 0 1
-15.647268 -15.568169 -27.585657 35.329497 0.782864 2.466759 0.076748 -0.027035 278092.000000 0 0 1
-15.068668 -16.297969 -28.654287 36.245782 0.824569 2.482511 0.100720 -0.035427 -146840.000000 0 0 1
-13.667368 -16.848069 -28.265977 35.631725 0.889256 2.486976 0.151006 -0.035275 814572.000000 0 0 1
-12.632768 -15.832069 -28.151877 34.680966 0.897323 2.517919 0.139726 -0.040981 -454543.000000 0 0 1
-11.443968 -16.483869 -27.868857 34.341746 0.963938 2.517537 0.161267 -0.050879 -373680.000000 0 0 1
-10.235568 -15.562169 -28.206587 33.801767 0.989012 2.557968 0.152736 -0.055139 170819.000000 0 0 1
-9.987168 -14.572269 -27.224887 32.454414 0.969967 2.565992 0.132170 -0.041221 243423.000000 0 0 1
-8.604968 -14.232569 -27.331577 31.994165 1.027004 2.594937 0.158658 -0.046365 577236.000000 0 0 1
-8.402868 -12.673769 -27.474487 31.401911 0.985328 2.636088 0.108186 -0.051893 -156993.000000 0 0 1
-8.926868 -12.209969 -28.684687 32.428129 0.939493 2.656350 0.139096 -0.046868 99731.700000 0 0 1
-8.678768 -10.849269 -28.937987 32.100385 0.896092 2.693983 0.114690 -0.046886 224742.000000 0 0 1
-7.492668 -10.596069 -29.916317 32.609857 0.955309 2.732296 0.107687 -0.037055 -67353.700000 0 0 1
-6.207468 -10.799869 -29.368937 31.901477 1.049133 2.740446 0.097109 -0.035546 407641.000000 0 0 1
-5.100768 -10.518069 -30.210687 32.393413 1.119259 2.772398 0.100388 -0.041116 154378.000000 0 0 1
-4.989568 -9.072869 -30.903357 32.591873 1.067996 2.818292 0.085532 -0.031116 -692937.000000 0 0 1
-3.707268 -8.691569 -31.412917 32.803331 1.167625 2.849397 0.095377 -0.046859 606181.000000 0 0 1
-3.834668 -7.359169 -31.926747 32.987561 1.090432 2.887302 0.096701 -0.042838 -238470.000000 0 0 1
-2.525168 -6.760369 -32.428667 33.221943 1.213319 2.922624 0.103289 -0.049452 -380290.000000 0 0 1
-1.933468 -7.353769 -33.560747 34.411334 1.313693 2.918789 0.117012 -0.054704 570969.000000 0 0 1
-0.687868 -6.673769 -33.809157 34.468412 1.468089 2.945697 0.130017 -0.048699 669355.000000 0 0 1
0.100932 -7.114069 32.612544 33.379608 -1.556610 0.214796 0.115660 -0.046137 6694.200000 0 0 1
-0.461768 -6.724369 31.341858 32.058422 1.502233 0.211828 0.112785 -0.043167 297114.000000 0 0 1
0.163832 -7.464669 30.306698 31.212883 -1.548852 0.241553 0.092864 -0.040911 60796.900000 0 0 1
-0.237468 -6.949369 28.920358 29.744533 1.536638 0.235955 0.091767 -0.031484 69320.300000 0 0 1
0.464532 -5.774469 28.526818 29.109099 -1.490523 0.200352 0.091093 -0.034276 128303.000000 0 0 1
0.284532 -5.378769 27.196538 27.724787 -1.517946 0.195520 0.089526 -0.031268 -134382.000000 0 0 1
-0.849068 -4.372469 26.874268 27.240883 1.378998 0.164247 0.082847 -0.025327 -386158.000000 0 0 1
-2.137068 -4.841269 27.020958 27.534290 1.155094 0.193399 0.058229 -0.013659 -1189720.000000 0 0 1
-3.123168 -3.868269 26.778418 27.236031 0.891571 0.183570 0.043182 -0.018576 265811.000000 0 0 1
-4.533268 -4.340169 27.217678 27.931874 0.763640 0.226623 0.040193 -0.015247 113866.000000 0 0 1
-5.076968 -5.343869 26.358398 27.369649 0.811005 0.272682 0.037753 -0.007826 -6142.180000 0 0 1
-6.325368 -5.749069 26.908928 28.233889 0.737706 0.307570 0.039264 -0.007299 579178.000000 0 0 1
-6.602468 -7.218369 26.724558 28.458732 0.829932 0.350901 0.057168 -0.006624 549195.000000 0 0 1
-5.741668 -7.932369 27.621318 29.305741 0.944257 0.340696 0.063543 -0.009931 222177.000000 0 0 1
-6.002868 -9.280569 27.577758 29.710202 0.996659 0.381183 0.063420 -0.017444 162835.000000 0 0 1
-5.410368 -9.980069 28.821938 30.977056 1.074025 0.375216 0.070317 -0.027321 102981.000000 0 0 1
-5.583968 -11.378069 28.612998 31.294485 1.114563 0.416985 0.096191 -0.032136 30462.100000 0 0 1
-5.193068 -12.164969 29.691478 32.504435 1.167328 0.419091 0.111000 -0.036396 -88231.200000 0 0 1
-5.051468 -13.713969 29.572218 32.986457 1.217873 0.459001 0.129409 -0.045327 -336446.000000 0 0 1
-6.282668 -14.326469 29.271028 33.189045 1.157517 0.490816 0.143784 -0.048354 -138049.000000 0 0 1
-6.275668 -15.753769 29.475558 34.005496 1.191705 0.522071 0.137381 -0.050166 -9395.500000 0 0 1
-6.522568 -16.173569 30.945498 35.521150 1.187461 0.513185 0.158677 -0.050185 -275602.000000 0 0 1
-7.856668 -16.153969 31.374528 36.152994 1.118119 0.519985 0.158818 -0.055019 -433626.000000 0 0 1
-7.927168 -16.508169 32.734043 37.508362 1.123117 0.510064 0.171636 -0.054831 -1011830.000000 0 0 1
-9.337268 -16.503369 33.290266 38.311716 1.055919 0.517757 0.189996 -0.055517 -34014.000000 0 0 1
-10.183268 -17.621269 32.952417 38.730735 1.046788 0.553275 0.183160 -0.055878 657264.000000 0 0 1
-10.769668 -17.491269 31.645661 37.727684 1.018900 0.575737 0.173862 -0.058921 -551900.000000 0 0 1
-11.451168 -18.771569 31.141968 38.122477 1.023036 0.614793 0.161312 -0.049785 286365.000000 0 0 1
-12.561468 -19.176469 31.955272 39.327686 0.990882 0.622302 0.159440 -0.055858 365179.000000 0 0 1
-12.843168 -20.563669 31.813388 39.998789 1.012516 0.651197 0.132965 -0.052121 -107915.000000 0 0 1
-12.165368 -21.465969 32.904398 41.127648 1.055201 0.643409 0.114676 -0.042398 142224.000000 0 0 1
-10.756268 -21.438469 32.716927 40.567260 1.105768 0.632612 0.122035 -0.048257 194168.000000 0 0 1
-10.003668 -22.196569 33.685288 41.562720 1.147373 0.625844 0.111715 -0.047769 397575.000000 0 0 1
-10.399168 -23.718369 -33.631277 42.447220 1.157594 2.485379 0.098438 -0.033473 -483026.000000 0 0 1
-10.206568 -24.602569 32.922850 42.348252 1.177547 0.680225 0.098332 -0.039724 -109463.000000 0 0 1
-10.668468 -25.915399 33.127558 43.391926 1.180274 0.702159 0.102929 -0.038458 -542120.000000 0 0 1
-10.001868 -26.832889 32.059955 42.986998 1.214003 0.729053 0.075100 -0.028830 1138670.000000 0 0 1
-8.572368 -26.718579 31.922555 42.501970 1.260332 0.721094 0.101499 -0.043838 769053.000000 0 0 1
-7.803468 -27.462059 32.841354 43.515668 1.293939 0.715597 0.086982 -0.041313 -431208.000000 0 0 1
-6.309968 -27.138269 32.648736 42.921338 1.342344 0.706460 0.096942 -0.043266 -36157.300000 0 0 1
-6.010068 -25.886889 33.260229 42.573405 1.342671 0.674140 0.104556 -0.044406 -516611.000000 0 0 1
-5.113368 -25.181509 32.471855 41.408650 1.370460 0.669422 0.155326 -0.037359 -364263.000000 0 0 1
-4.785968 -23.859969 33.126225 41.104141 1.372838 0.633586 0.158045 -0.044685 473991.000000 0 0 1
-3.702668 -24.036569 -33.586057 41.466729 1.417955 2.514866 0.164991 -0.053367 509018.000000 0 0 1
-3.358668 -22.797569 -33.102077 40.333079 1.424523 2.533463 0.132185 -0.041595 -84104.000000 0 0 1
35.056870 -15.605269 2.035983 38.427253 -0.418806 1.517789 0.213097 -0.051642 376574.000000 0 0 1
35.976960 -16.027369 3.060883 39.504268 -0.419097 1.493236 0.181863 -0.045755 752528.000000 0 0 1
35.304500 -16.074269 4.330183 39.032554 -0.427256 1.459630 0.155745 -0.038552 -193846.000000 0 0 1
36.214830 -16.224169 5.532383 40.066754 -0.421188 1.432275 0.111165 -0.018520 -199386.000000 0 0 1
36.971290 -17.466069 5.530183 41.261638 -0.441343 1.436365 0.111835 -0.025867 185703.000000 0 0 1
-37.605968 -17.472969 6.729083 42.009452 0.434956 1.409923 0.098821 -0.018455 -376983.000000 0 0 1
-36.268668 -18.221269 6.834383 41.159928 0.465563 1.403979 0.100165 -0.030571 -265073.000000 0 0 1
-36.323198 -19.590869 6.647483 41.801506 0.494629 1.411093 0.066693 -0.026419 -692553.000000 0 0 1
-35.112529 -20.185569 6.951083 41.093362 0.521746 1.400826 0.068437 -0.024844 -783588.000000 0 0 1
-35.191491 -21.741069 7.116083 41.973250 0.553400 1.400435 0.096145 -0.030009 -353851.000000 0 0 1
-35.228091 -22.562469 5.956183 42.255881 0.569645 1.429370 0.103094 -0.030678 174545.000000 0 0 1
-35.370420 -23.929169 6.288483 43.164994 0.594800 1.424591 0.089901 -0.027748 221399.000000 0 0 1
-34.509500 -24.827369 5.349983 42.847709 0.623651 1.445609 0.111935 -0.027295 399489.000000 0 0 1
-34.995413 -24.621869 4.005783 42.976292 0.613121 1.477452 0.110929 -0.023216 761197.000000 0 0 1
-34.109666 -25.182379 3.008583 42.504977 0.635956 1.499955 0.107744 -0.021563 400769.000000 0 0 1
-34.541730 -24.803969 1.558383 42.553455 0.622762 1.534166 0.093176 -0.024081 -668332.000000 0 0 1
-35.709397 -25.475269 1.153383 43.880299 0.619666 1.544509 0.073923 -0.020469 -125439.000000 0 0 1
-36.219508 -24.778669 0.050383 43.884368 0.599992 1.569648 0.071761 -0.016557 -343825.000000 0 0 1
-37.193608 -23.622469 0.326083 44.062363 0.565845 1.563396 0.077990 -0.021137 -394230.000000 0 0 1
36.725900 -24.004469 0.281883 43.875798 -0.578910 1.564372 0.064199 -0.016237 773705.000000 0 0 1
35.883720 -22.933269 0.784283 42.593324 -0.568674 1.552382 0.078475 -0.022932 1084050.000000 0 0 1
34.350410 -23.114569 0.562883 41.407134 -0.592309 1.557202 0.084200 -0.018527 678287.000000 0 0 1
33.959470 -22.886269 -0.786017 40.959061 -0.593013 1.589988 0.102234 -0.026114 618461.000000 0 0 1
32.529620 -22.917069 -0.901817 39.801777 -0.613739 1.593456 0.100431 -0.022290 844736.000000 0 0 1
32.014070 -22.825769 -2.301217 39.385428 -0.619392 1.629258 0.104013 -0.020436 -3655.210000 0 0 1
32.396450 -21.594469 -2.834017 39.036940 -0.587935 1.643459 0.134742 -0.033060 21450.900000 0 0 1
31.984960 -21.595769 -4.138517 38.814201 -0.593877 1.677623 0.137933 -0.047945 -157399.000000 0 0 1
31.785870 -20.265469 -4.821617 38.003667 -0.567582 1.698012 0.154208 -0.045024 440037.000000 0 0 1
30.712080 -19.550469 -4.207017 36.649033 -0.566878 1.685842 0.172911 -0.039967 251648.000000 0 0 1
30.528960 -18.198369 -4.689517 35.849541 -0.537548 1.701983 0.169236 -0.042668 -229657.000000 0 0 1
29.472190 -17.485669 -3.853417 34.484886 -0.535474 1.682772 0.171329 -0.027195 -435130.000000 0 0 1
29.771190 -17.170869 -2.457917 34.455824 -0.523157 1.642192 0.162774 -0.030663 79919.200000 0 0 1
30.371010 -18.175469 -1.606817 35.430605 -0.539278 1.616163 0.153739 -0.017849 419864.000000 0 0 1
29.450990 -19.391169 -1.167117 35.280878 -0.582273 1.603883 0.140767 -0.015815 322825.000000 0 0 1
28.579690 -19.012069 -0.115517 34.325949 -0.587007 1.574162 0.125572 0.003925 -361396.000000 0 0 1
27.870790 -20.085469 0.369683 34.356130 -0.624460 1.560036 0.114690 -0.005530 -712909.000000 0 0 1
26.736590 -19.636969 1.291883 33.198264 -0.633481 1.531872 0.110525 0.001666 -758860.000000 0 0 1
26.022190 -20.752869 1.761683 33.330758 -0.673219 1.517917 0.098852 0.005122 -92846.100000 0 0 1
25.175290 -20.552569 2.893083 32.627798 -0.684648 1.482010 0.081313 0.016114 1380350.000000 0 0 1
23.701390 -20.117169 2.477083 31.186412 -0.703783 1.491284 0.059773 0.006277 670198.000000 0 0 1
23.518890 -18.796969 1.934483 30.169628 -0.674270 1.506632 0.095924 -0.013765 222504.000000 0 0 1
23.528090 -17.752569 2.900783 29.616537 -0.646392 1.472694 0.106810 -0.005694 -287983.000000 0 0 1
23.293690 -16.398869 2.186383 28.570949 -0.613409 1.494197 0.091249 0.007135 -444423.000000 0 0 1
21.950790 -16.224069 1.830483 27.357051 -0.636496 1.503835 0.077315 -0.003676 -468224.000000 0 0 1
21.816590 -14.965669 1.262483 26.486387 -0.601252 1.523113 0.087344 -0.011721 391379.000000 0 0 1
20.400090 -14.545169 0.775583 25.066454 -0.619395 1.539850 0.060323 -0.011839 618982.000000 0 0 1
19.351990 -14.472669 1.754783 24.228845 -0.642133 1.498307 0.062894 -0.014668 991613.000000 0 1 0
18.435190 -13.397269 1.465883 22.836196 -0.628436 1.506561 0.076728 -0.021942 343797.000000 0 1 0
18.926090 -11.985069 1.978983 22.489000 -0.564515 1.482685 0.083148 -0.017476 -216239.000000 0 1 0
19.928290 -11.427269 1.155083 23.001161 -0.520646 1.520557 0.089870 -0.019908 255992.000000 0 1 0
20.383790 -10.185269 1.619983 22.844319 -0.463388 1.499823 0.107557 -0.019572 -183647.000000 0 1 0
21.324990 -9.450769 0.658083 23.334637 -0.417166 1.542591 0.126785 -0.021422 -170358.000000 0 1 0
20.666690 -9.000069 -0.527017 22.547529 -0.410719 1.594172 0.130901 -0.020332 719908.000000 0 1 0
21.541590 -8.427569 -1.481517 23.178846 -0.372917 1.634757 0.128385 -0.021548 -282068.000000 0 1 0
20.764890 -7.790569 -2.709117 22.343073 -0.358928 1.692346 0.149036 -0.025668 -410700.000000 0 1 0
21.485490 -7.135569 -3.715417 22.942252 -0.320650 1.733459 0.155368 -0.031070 25202.400000 0 1 0
22.620690 -7.723769 -4.287917 24.284531 -0.329035 1.748297 0.141455 -0.035620 -841947.000000 0 1 0
22.448390 -9.024169 -5.135517 24.733365 -0.382226 1.779953 0.134111 -0.037241 -583523.000000 0 1 0
21.778290 -8.804669 -6.349117 24.333667 -0.384196 1.834770 0.130264 -0.044119 688522.000000 0 1 0
20.365690 -8.966369 -6.229917 23.107768 -0.414732 1.843777 0.127551 -0.028607 32742.400000 0 1 0
19.608790 -9.006369 -7.572017 22.868204 -0.430563 1.908282 0.124261 -0.026380 -425222.000000 0 1 0
19.714890 -10.295769 -8.159017 23.690700 -0.481276 1.922393 0.125859 -0.022282 369113.000000 0 1 0
20.833390 -10.430269 -9.023217 24.984777 -0.464169 1.940296 0.114040 -0.026693 14571.000000 0 1 0
20.918490 -11.771069 -9.778917 25.918497 -0.512550 1.957670 0.105380 -0.025029 902225.000000 0 0 1
19.686290 -11.959869 -10.526217 25.325673 -0.545933 1.999436 0.124115 -0.030843 966873.000000 0 0 1
19.695690 -13.183269 -11.230417 26.226723 -0.589857 2.013302 0.124634 -0.024479 -228455.000000 0 0 1
18.368390 -13.607669 -11.886917 25.765581 -0.637600 2.050311 0.131583 -0.026588 -92961.300000 0 0 1
18.400190 -14.980369 -12.278917 26.716104 -0.683305 2.048349 0.116229 -0.024991 126113.000000 0 0 1
17.411590 -15.267869 -13.234517 26.672527 -0.719894 2.089996 0.128773 -0.027050 -303364.000000 0 0 1
17.458890 -16.807569 -13.568517 27.774302 -0.766393 2.081198 0.098076 -0.024083 -390674.000000 0 0 1
16.847090 -17.585269 -12.586917 27.413438 -0.806833 2.047836 0.087725 -0.020661 147610.000000 0 0 1
16.719490 -18.976369 -12.915617 28.398188 -0.848539 2.042949 0.079145 -0.013492 -488387.000000 0 0 1
15.686090 -19.750469 -12.101517 27.974652 -0.899594 2.018158 0.067024 -0.015013 904357.000000 0 0 1
14.309690 -19.450069 -12.437317 27.161724 -0.936501 2.046426 0.064088 -0.016056 439760.000000 0 0 1
13.483790 -20.456069 -11.945017 27.257050 -0.988010 2.024431 0.055454 -0.019123 382962.000000 0 0 1
11.989290 -20.012669 -12.097217 26.279129 -1.031050 2.049169 0.054512 -0.019754 414624.000000 0 0 1
11.093290 -20.804769 -11.407517 26.192192 -1.080936 2.021425 0.068875 -0.026133 -676836.000000 0 0 1
9.736990 -20.533269 -11.673317 25.547807 -1.127996 2.045326 0.066639 -0.022159 574585.000000 0 0 1
8.792190 -21.327369 -10.686317 25.423545 -1.179775 2.004607 0.067991 -0.015108 123341.000000 0 0 1
8.768890 -22.731469 -10.863617 26.676418 -1.202626 1.990223 0.090327 -0.026455 -83066.300000 0 0 1
7.951090 -23.432569 -9.933817 26.664317 -1.243669 1.952553 0.090989 -0.023926 131499.000000 0 0 1
8.255690 -24.911769 -9.772017 28.004374 -1.250789 1.927243 0.092463 -0.026191 -710837.000000 0 0 1
9.516890 -25.068739 -9.243117 28.362794 -1.207971 1.902748 0.084083 -0.016830 -1049450.000000 0 0 1
9.952890 -26.427569 -9.439317 29.775445 -1.210615 1.893379 0.089271 -0.018849 -57054.900000 0 0 1
11.408390 -26.712179 -9.058117 30.425998 -1.167160 1.873089 0.085687 -0.010659 -218486.000000 0 0 1
11.559090 -26.962659 -7.696717 30.328814 -1.165790 1.827378 0.086993 -0.016389 -365231.000000 0 0 1
12.889590 -27.182549 -7.310917 30.959360 -1.128012 1.809194 0.062969 -0.009716 -674865.000000 0 0 1
12.867990 -27.633379 -5.804017 31.030234 -1.134989 1.758948 0.071334 -0.018190 -33231.100000 0 0 1
12.323290 -28.880039 -5.475617 31.873225 -1.167481 1.743446 0.070914 -0.020467 -341371.000000 0 0 1
10.952190 -29.010829 -5.737517 31.535658 -1.209818 1.753753 0.074638 -0.020147 -448797.000000 0 0 1
10.211490 -30.037679 -4.806517 32.087993 -1.243097 1.721154 0.077520 -0.016501 255374.000000 0 0 1
10.514890 -31.420439 -5.061217 33.517500 -1.247860 1.722378 0.082139 -0.015694 134219.000000 0 0 1
9.701890 -31.990109 -6.088317 33.978836 -1.276335 1.750949 0.088046 -0.019077 257486.000000 0 0 1
9.960790 -33.502319 -6.212317 35.499515 -1.281803 1.746699 0.080296 -0.019504 14952.300000 0 0 1
9.687090 33.475002 -4.949217 35.198157 1.289108 1.711874 0.072802 -0.020408 10575.400000 0 0 1
9.927090 32.092465 -5.013517 33.964817 1.270804 1.718947 0.079684 -0.009735 -625708.000000 0 0 1
9.215490 31.216827 -3.943917 32.786736 1.283741 1.691378 0.065298 -0.005675 -818333.000000 0 0 1
7.891690 31.038907 -4.313217 32.315575 1.321820 1.704668 0.056522 -0.001773 -1421080.000000 0 0 1
7.380690 29.994867 -3.584517 31.096871 1.329525 1.686322 0.035795 -0.000909 -1054690.000000 0 0 1
6.098390 29.498967 -4.175017 30.410692 1.366936 1.708519 0.039343 -0.007669 -1071920.000000 0 0 1
6.145990 28.928207 -5.478217 30.076988 1.361452 1.753959 0.047900 -0.014556 -165189.000000 0 0 1
5.680990 29.750447 -6.514517 30.980666 1.382113 1.782654 0.042622 -0.014656 -233500.000000 0 0 1
5.894490 29.122147 -7.923117 30.750939 1.371089 1.831390 0.055606 -0.028284 -49139.000000 0 0 1
5.089590 27.989767 -8.216217 29.611437 1.390924 1.851954 0.064025 -0.033527 158093.000000 0 0 1
5.597890 26.815587 -7.611817 28.431529 1.364997 1.841827 0.057817 -0.024541 150827.000000 0 0 1
4.669490 25.559037 -7.943517 27.169247 1.390095 1.867502 0.062013 -0.039082 830596.000000 0 0 1
3.371690 25.502847 -7.352517 26.754869 1.439350 1.849189 0.058427 -0.033690 75957.500000 0 0 1
2.385490 26.261977 -8.013217 27.560727 1.480211 1.865804 0.073866 -0.035063 -204110.000000 0 0 1
1.645890 25.532017 -9.138617 27.168128 1.506422 1.913859 0.088937 -0.031697 -514155.000000 0 0 1
2.514590 25.278117 -10.259817 27.396536 1.471646 1.954646 0.076075 -0.033793 112325.000000 0 0 1
2.117790 24.518887 -11.408917 27.126081 1.484636 2.004890 0.088257 -0.032603 -659707.000000 0 0 1
1.978290 23.001537 -11.173917 25.648407 1.485001 2.021565 0.092183 -0.032046 -86176.700000 0 0 1
0.946990 22.670127 -10.279617 24.909877 1.529048 1.996182 0.114784 -0.027748 -229647.000000 0 1 0
0.898590 21.294727 -10.208017 23.632107 1.528624 2.017456 0.070786 -0.026440 -568169.000000 0 1 0
-0.247910 20.804927 -9.335017 22.804583 -1.558881 1.992536 0.074550 -0.016076 -383458.000000 0 1 0
-1.540810 20.995527 -9.843917 23.239814 -1.497540 2.008190 0.081798 -0.018002 -1005420.000000 0 1 0
-2.469510 20.241427 -9.140717 22.346511 -1.449394 1.992203 0.065483 -0.013710 -1120680.000000 0 1 0
-3.795710 20.254227 -9.841717 22.836386 -1.385542 2.016360 0.061508 -0.020827 -1015380.000000 0 1 0
-4.797510 19.521227 -9.201917 22.108136 -1.329813 2.000084 0.055381 -0.023920 -557612.000000 0 1 0
-5.798510 19.148727 -10.098217 22.411391 -1.276760 2.038216 0.060731 -0.021870 -1074930.000000 0 1 0
-6.692210 18.067527 -9.574317 21.514850 -1.216065 2.031981 0.051020 -0.022165 -1051070.000000 0 1 0
-7.729010 18.448427 -8.746117 21.830635 -1.174059 1.983006 0.066848 -0.020296 140254.000000 0 1 0
-8.983110 18.489827 -9.461017 22.629203 -1.118540 2.002137 0.071902 -0.026774 1407150.000000 0 1 0
-10.205810 18.877527 -8.514717 23.087226 -1.075173 1.948521 0.092640 -0.035525 921141.000000 0 1 0
-10.639610 17.744827 -7.762817 22.098451 -1.030679 1.929738 0.090044 -0.032968 -1006090.000000 0 1 0
-11.452610 18.145927 -6.754617 22.495818 -1.007794 1.875763 0.104376 -0.029792 -733286.000000 0 1 0
-11.902010 17.047827 -5.797117 21.584551 -0.961310 1.842712 0.085224 -0.029806 -161212.000000 0 1 0
-12.840610 17.551527 -4.882917 22.288568 -0.939179 1.791665 0.099703 -0.027406 -92961.600000 0 1 0
-13.324610 16.532827 -4.040717 21.614972 -0.892439 1.758843 0.088430 -0.020043 -303120.000000 0 1 0
-14.564210 16.870227 -3.196317 22.515267 -0.858627 1.713240 0.086085 -0.017616 423237.000000 0 1 0
-15.774410 16.702027 -3.980017 23.315880 -0.813953 1.742336 0.121443 -0.042993 389502.000000 0 1 0
-16.832110 17.022527 -3.099217 24.139004 -0.791023 1.699542 0.130900 -0.035700 -394062.000000 0 1 0
-18.169910 17.105727 -3.856917 25.251284 -0.755240 1.724138 0.146057 -0.048490 -367424.000000 0 0 1
-18.268610 18.097227 -4.881117 26.173977 -0.780685 1.758382 0.129071 -0.050924 1317020.000000 0 0 1
-19.637210 18.351127 -5.320117 27.398678 -0.751556 1.766212 0.119516 -0.048770 1581980.000000 0 0 1
-19.697610 19.284827 -6.498117 28.321828 -0.774810 1.802297 0.134067 -0.039874 102348.000000 0 0 1
-19.141310 20.545327 -6.191017 28.754633 -0.820761 1.787800 0.141321 -0.053317 166772.000000 0 0 1
-19.249010 21.411327 -7.278717 29.697627 -0.838528 1.818413 0.141693 -0.036545 18883.200000 0 0 1
-19.065310 22.939507 -6.871617 30.609250 -0.877370 1.797221 0.152676 -0.042187 162395.000000 0 0 1
-17.719410 23.295607 -6.624117 30.009028 -0.920525 1.793367 0.127087 -0.043647 93890.800000 0 0 1
-17.566910 23.770597 -5.258017 30.021399 -0.934361 1.746847 0.138633 -0.048570 -279752.000000 0 0 1
-16.096710 24.071127 -4.944917 29.376444 -0.981377 1.739931 0.103625 -0.039582 -449103.000000 0 0 1
-15.914810 24.753997 -3.722017 29.663024 -0.999415 1.696605 0.100357 -0.040528 55212.500000 0 0 1
-14.663710 25.415517 -3.657017 29.569354 -1.047491 1.694790 0.117250 -0.047272 -178339.000000 0 0 1
-14.553610 26.729607 -4.445817 30.757841 -1.072205 1.715847 0.113881 -0.038167 -431911.000000 0 0 1
-15.315010 27.769717 -3.922817 31.954581 -1.066802 1.693869 0.136023 -0.033918 -279938.000000 0 0 1
-15.152310 28.967147 -4.727517 33.030857 -1.088851 1.714414 0.094885 -0.027576 -328264.000000 0 0 1
-16.024010 30.191097 -4.386417 34.460295 -1.082850 1.698432 0.101595 -0.021911 -619504.000000 0 0 1
-17.325410 29.945747 -4.814817 34.929931 -1.046291 1.709079 0.132138 -0.024595 -621383.000000 0 0 1
-18.107110 31.131107 -4.800917 36.332659 -1.043986 1.703322 0.143205 -0.025208 57182.000000 0 0 1
13.232032 -8.945569 18.509188 24.447902 -0.594473 0.711954 0.164897 -0.026498 415623.000000 0 1 0
14.177332 -9.889869 19.016988 25.699263 -0.609102 0.737753 0.174815 -0.034282 191548.000000 0 0 1
14.229732 -11.124069 18.337888 25.739237 -0.663512 0.777815 0.185807 -0.030639 18157.200000 0 0 1
14.962032 -12.217769 19.149088 27.199703 -0.684772 0.789756 0.224532 -0.053975 -345367.000000 0 0 1
16.373132 -12.060669 19.123388 27.914927 -0.634879 0.816111 0.205132 -0.051951 31294.800000 0 0 1
16.961632 -13.058669 19.852888 29.195256 -0.656113 0.823028 0.189020 -0.052798 -424117.000000 0 0 1
17.302532 -14.369969 19.083088 29.496405 -0.693071 0.867201 0.186941 -0.050397 -1054250.000000 0 0 1
16.222032 -14.780969 18.302088 28.576175 -0.738950 0.875691 0.205879 -0.054610 -51924.400000 0 0 1
16.582432 -15.841069 17.402188 28.788065 -0.762537 0.921667 0.212336 -0.053233 15984.500000 0 0 1
15.645632 -15.854669 16.133788 27.503735 -0.792034 0.943938 0.204337 -0.054918 -28185.300000 0 0 1
14.272232 -15.931069 16.432988 26.972925 -0.840265 0.915694 0.240493 -0.054706 91366.500000 0 0 1
13.444232 -15.803869 15.270988 25.762623 -0.865900 0.936318 0.254650 -0.055008 -119182.000000 0 0 1
13.097532 -17.136269 14.595988 26.043040 -0.918195 0.975860 0.192899 -0.036990 -799731.000000 0 0 1
14.085032 -17.829569 13.862888 26.616937 -0.902194 1.022974 0.187121 -0.040913 -336766.000000 0 0 1
13.622732 -18.988669 13.194488 26.837342 -0.948479 1.056817 0.166236 -0.037005 -771542.000000 0 0 1
14.621332 -19.947669 12.554588 27.736448 -0.938274 1.101074 0.158750 -0.036777 -459786.000000 0 0 1
15.376132 -20.592269 13.581088 29.067386 -0.929414 1.084644 0.133028 -0.031912 33287.400000 0 0 1
15.780332 -21.869469 13.020188 29.946917 -0.945741 1.121007 0.094678 -0.029870 190209.000000 0 0 1
16.639332 -22.677669 14.045988 31.439367 -0.937788 1.107651 0.084255 -0.033899 508102.000000 0 0 1
17.997132 -22.291269 14.180588 31.966960 -0.891582 1.111183 0.076343 -0.025497 223086.000000 0 0 1
18.645332 -23.008569 15.211888 33.293306 -0.889767 1.096283 0.087437 -0.037642 -537760.000000 0 0 1
20.023632 -22.503169 15.569888 33.908109 -0.843637 1.093726 0.061327 -0.029072 -304833.000000 0 0 1
21.111132 -23.015969 14.798388 34.560194 -0.828538 1.128306 0.044772 -0.031616 661351.000000 0 0 1
22.300532 -22.266169 15.136688 34.960197 -0.784627 1.123012 0.043424 -0.022869 205801.000000 0 0 1
23.528332 -22.819969 14.449288 35.820599 -0.770116 1.155589 0.038262 -0.029291 -597557.000000 0 0 1
23.862432 -24.075369 14.976488 37.058525 -0.789840 1.154768 0.035870 -0.024486 112023.000000 0 0 1
25.108432 -24.480369 14.429288 37.919997 -0.772733 1.180439 0.044949 -0.024619 81371.800000 0 0 1
25.615532 -25.700849 15.183888 39.334966 -0.787061 1.174488 0.054450 -0.022680 -183184.000000 0 0 1
26.371332 -25.408649 16.352088 40.105329 -0.766808 1.150831 0.051727 -0.017782 390309.000000 0 0 1
26.879332 -26.605849 16.954688 41.446727 -0.780285 1.149360 0.072157 -0.010374 -136833.000000 0 0 1
27.344532 -26.422329 18.395488 42.240465 -0.768248 1.120209 0.057921 0.000782 566889.000000 0 0 1
26.270032 -26.111959 19.319188 41.775352 -0.782380 1.090035 0.065033 0.001684 733861.000000 0 0 1
26.704132 -25.642799 20.576888 42.356489 -0.765126 1.063515 0.059232 0.004456 -361169.000000 0 0 1
25.546332 -25.619319 21.565388 42.119242 -0.786825 1.033276 0.053744 0.000493 -168163.000000 0 0 1
25.083932 -26.902389 21.882588 42.799414 -0.820363 1.034120 0.060653 0.004816 678269.000000 0 0 1
23.705832 -26.915179 22.278988 42.222585 -0.848713 1.014958 0.072889 -0.007368 747162.000000 0 0 1
23.237432 -28.401639 22.406988 42.996563 -0.885073 1.022617 0.105259 -0.000955 -446715.000000 0 0 1
23.956632 -29.164189 23.321068 44.366005 -0.883118 1.017315 0.088562 -0.010306 -13667.200000 0 0 1
23.470832 -30.460229 23.272198 44.947755 -0.914279 1.026564 0.090644 -0.017783 406885.000000 0 0 1
24.486532 -31.559749 23.806918 46.501370 -0.910938 1.033329 0.081481 -0.010342 615898.000000 0 0 1
24.960932 -31.290029 25.124568 47.258417 -0.897442 1.010258 0.085329 -0.016393 341434.000000 0 0 1
26.061032 -32.118939 25.467138 48.573437 -0.889148 1.018901 0.101619 -0.016609 -520382.000000 0 0 1
26.027432 -32.550319 26.973318 49.643835 -0.896296 0.996390 0.115928 -0.029334 -430535.000000 0 0 1
25.133432 -33.507769 27.429358 50.068250 -0.927245 0.991017 0.099559 -0.018146 143131.000000 0 0 1
23.753932 -33.201049 27.265888 49.091625 -0.949772 0.981943 0.097721 -0.025562 -277173.000000 0 0 1
22.812632 33.338061 27.646768 48.950856 0.970697 0.970622 0.130803 -0.031477 -325055.000000 0 0 1
22.557232 33.355896 29.033938 49.642866 0.976182 0.946094 0.122863 -0.032828 87764.300000 0 0 1
21.978632 32.132153 29.474238 48.828949 0.970884 0.922760 0.122222 -0.035210 108352.000000 0 0 1
21.692232 32.214423 30.974358 49.676281 0.978167 0.897554 0.101363 -0.037004 -388245.000000 0 0 1
22.881232 32.292325 31.683853 50.697255 0.954345 0.895714 0.094260 -0.017640 -371233.000000 0 0 1
22.599132 32.405704 33.025056 51.492764 0.961830 0.874535 0.077895 -0.019089 -417503.000000 0 0 1
23.750732 31.981243 -33.742017 52.205564 0.932019 2.273561 0.039650 -0.010830 -592630.000000 0 0 1
23.922132 30.582597 -33.821007 51.491981 0.906995 2.287391 0.043760 -0.007928 410102.000000 0 0 1
25.200232 30.288107 -33.286027 51.578879 0.876835 2.272267 0.042926 0.005001 83567.700000 0 0 1
25.304432 28.737637 -33.078817 50.600140 0.848841 2.283299 0.062982 -0.016936 -175830.000000 0 0 1
25.456132 28.058967 33.374078 50.489102 0.833997 0.848625 0.074983 -0.016931 346488.000000 0 0 1
25.028732 26.686587 33.406360 49.543882 0.817445 0.830809 0.091301 -0.025365 26305.500000 0 0 1
25.531532 25.897957 32.116205 48.518182 0.792523 0.847390 0.139088 -0.037570 1340470.000000 0 0 1
26.935832 25.598027 32.343326 49.263463 0.759938 0.854577 0.112991 -0.037324 1272980.000000 0 0 1
27.469632 25.045007 31.118108 48.478549 0.739260 0.873830 0.163584 -0.054584 -40324.700000 0 0 1
28.924932 24.591547 31.348778 49.235575 0.704602 0.880572 0.131458 -0.044278 -511007.000000 0 0 1
28.982732 23.535127 32.282254 49.356306 0.682039 0.857850 0.152706 -0.047311 196113.000000 0 0 1
29.942932 23.671447 33.304234 50.656575 0.668953 0.853365 0.147747 -0.051237 -923978.000000 0 0 1
29.541932 22.899527 -33.030947 49.881435 0.659406 2.294533 0.149159 -0.055666 -190486.000000 0 0 1
28.505432 23.458907 -32.208447 48.992490 0.688587 2.288181 0.162421 -0.060849 1549260.000000 0 0 1
27.173632 23.462117 -32.760847 48.601958 0.712231 2.310494 0.149208 -0.046090 231705.000000 0 0 1
26.480832 22.133727 -32.953357 47.718551 0.696216 2.333084 0.139637 -0.043379 -977367.000000 0 0 1
26.123032 21.543027 -31.699347 46.382792 0.689607 2.323246 0.127138 -0.059224 391512.000000 0 0 1
25.345732 20.362627 -31.856857 45.518151 0.676807 2.346014 0.150516 -0.051437 62757.600000 0 0 1
25.410932 19.468027 -30.618427 44.296813 0.653743 2.333959 0.158954 -0.055614 -623919.000000 0 0 1
24.455132 19.902627 -29.726457 43.333939 0.683125 2.326754 0.132560 -0.040117 -260969.000000 0 0 1
24.441532 19.215527 -28.475457 42.160131 0.666259 2.312320 0.125738 -0.037164 -142355.000000 0 0 1
23.094832 19.395227 -27.740467 40.976574 0.698547 2.314453 0.100192 -0.024799 -87640.400000 0 0 1
22.962032 18.630827 -26.577667 39.758458 0.681639 2.302957 0.106299 -0.019345 126533.000000 0 0 1
23.469032 19.176127 -25.383137 39.532556 0.685070 2.268007 0.086152 -0.009583 -201255.000000 0 0 1
23.453432 18.223127 -24.149217 38.279636 0.660553 2.253462 0.105637 -0.012601 -56892.400000 0 0 1
24.316932 17.100527 -24.280117 38.383138 0.612894 2.255667 0.137708 -0.024747 366105.000000 0 0 1
24.354732 16.227427 -23.167917 37.326060 0.587745 2.240419 0.136194 -0.022211 -514333.000000 0 0 1
25.331832 15.050727 -23.264517 37.542827 0.536102 2.239130 0.158150 -0.028385 -1158780.000000 0 0 1
26.644832 15.446527 -23.028217 38.455702 0.525374 2.212829 0.156856 -0.032491 -522876.000000 0 0 1
27.618132 14.436927 -22.996217 38.729989 0.481669 2.206517 0.167075 -0.038345 131060.000000 0 0 1
27.681432 13.683427 -21.644517 37.709190 0.459092 2.182161 0.155969 -0.034604 -353710.000000 0 0 1
26.765432 12.588827 -21.724217 36.698890 0.439639 2.204283 0.170082 -0.029487 232630.000000 0 0 1
26.378832 12.179027 -20.426917 35.516622 0.432538 2.183568 0.120291 -0.032297 851513.000000 0 0 1
24.854032 11.778527 -20.436017 34.264959 0.442557 2.209819 0.142358 -0.038101 1280490.000000 0 0 1
23.943832 12.890227 -20.453217 34.026448 0.493857 2.215670 0.152907 -0.037705 701436.000000 0 0 1
22.646532 12.559927 -20.965017 33.318900 0.506373 2.251349 0.150209 -0.041991 1193050.000000 0 0 1
21.596532 13.684927 -20.644417 32.861518 0.564805 2.250066 0.135955 -0.042297 -327954.000000 0 0 1
21.845332 14.809527 -21.506517 34.045130 0.595757 2.254548 0.121389 -0.030277 285753.000000 0 0 1
20.978432 15.928027 -21.377317 33.923242 0.649399 2.252565 0.080756 -0.024767 173123.000000 0 0 1
19.623332 15.758527 -22.131817 33.514529 0.676598 2.292101 0.081745 -0.015716 71582.000000 0 0 1
18.735632 14.810427 -21.577517 32.186362 0.668918 2.305535 0.068275 -0.022124 -187350.000000 0 0 1
17.609132 14.682127 -22.403817 32.055848 0.695001 2.344654 0.068065 -0.025740 -506042.000000 0 0 1
16.549432 13.739727 -21.827117 30.644524 0.692900 2.363521 0.051841 -0.024077 -757213.000000 0 0 1
15.398732 13.869827 -22.603417 30.666064 0.733208 2.399539 0.054332 -0.025684 -1258640.000000 0 0 1
14.307832 13.330027 -21.915217 29.371422 0.750034 2.413043 0.072282 -0.031751 -50559.700000 0 0 1
13.036232 13.542027 -22.815717 29.561576 0.804426 2.452468 0.061550 -0.033122 47910.600000 0 0 1
12.645232 14.890527 -22.810517 30.032472 0.866759 2.433384 0.085965 -0.031786 -225958.000000 0 0 1
11.720532 15.092627 -23.843317 30.555884 0.910504 2.465971 0.075031 -0.028606 -671954.000000 0 0 1
11.426032 16.606727 -24.129417 31.441475 0.968145 2.445633 0.078446 -0.032223 1316260.000000 0 0 1
12.614032 17.434927 -24.368517 32.510231 0.944477 2.418200 0.061814 -0.016332 1635970.000000 0 0 1
13.703732 17.084127 -25.215487 33.398809 0.894756 2.426422 0.071575 -0.020744 259563.000000 0 0 1
13.326832 17.042827 -26.712587 34.374768 0.907152 2.460839 0.100934 -0.022376 -522056.000000 0 0 1
14.494232 16.851027 -27.465987 35.332992 0.860445 2.461233 0.078793 -0.023992 156309.000000 0 0 1
14.161732 16.575827 -28.805767 36.125959 0.863776 2.493721 0.086437 -0.035228 -82148.600000 0 0 1
15.277432 17.001127 -29.802367 37.558212 0.838748 2.487332 0.069628 -0.034473 754295.000000 0 0 1
16.365132 16.097727 -30.012587 37.785046 0.777161 2.488648 0.055698 -0.027359 392411.000000 0 0 1
17.496832 16.747927 -30.544087 38.981706 0.763532 2.471154 0.057099 -0.020320 -480649.000000 0 0 1
18.802132 15.998627 -30.325747 39.104056 0.705013 2.458325 0.074327 -0.024603 -741561.000000 0 0 1
19.888632 16.606827 -30.989857 40.394500 0.695716 2.445230 0.104635 -0.039959 -267411.000000 0 0 1
21.008532 15.749327 -30.846337 40.507977 0.643286 2.436402 0.129366 -0.040774 -91304.400000 0 0 1
22.304332 16.397827 -31.372087 41.839931 0.633952 2.418574 0.166685 -0.042801 -170448.000000 0 0 1
22.113132 16.833227 -32.705767 42.918706 0.650651 2.437254 0.141118 -0.039820 1078890.000000 0 0 1
23.357932 17.382127 -33.211487 44.167117 0.639755 2.421812 0.155076 -0.039347 952811.000000 0 0 1
23.248632 18.103927 33.071058 44.293859 0.661623 0.727817 0.136900 -0.029805 -103935.000000 0 0 1
24.398132 18.888427 32.877585 45.088548 0.658795 0.753676 0.150824 -0.027073 -76027.400000 0 0 1
24.458432 19.377627 31.563618 44.384337 0.670008 0.779673 0.148625 -0.031908 1552.610000 0 0 1
25.637332 20.335027 31.348878 45.315983 0.670569 0.806839 0.171819 -0.034278 -3581.010000 0 0 1
26.919332 19.767427 31.417438 45.852558 0.633391 0.815940 0.145089 -0.031568 -91711.500000 0 0 1
27.952432 20.711127 31.150598 46.697420 0.637679 0.840523 0.124048 -0.042774 628924.000000 0 0 1
29.331332 19.992927 31.328828 47.344901 0.598286 0.847693 0.141901 -0.037840 96268.100000 0 0 1
29.669432 19.897727 32.700817 48.430757 0.590753 0.829550 0.112481 -0.036629 136273.000000 0 0 1
31.025832 19.546427 32.881868 49.253247 0.562190 0.839805 0.085052 -0.029206 119469.000000 0 0 1
31.249432 19.173727 -33.251797 49.495867 0.550338 2.307445 0.079781 -0.013467 -413563.000000 0 0 1
31.230132 20.280527 -32.303087 49.296149 0.575946 2.285358 0.071295 -0.030474 767.453000 0 0 1
30.685132 19.745827 -31.100647 47.945023 0.571791 2.276636 0.099421 -0.044206 -114907.000000 0 0 1
31.396532 20.197027 -29.818227 47.778539 0.571643 2.244766 0.109778 -0.048660 -473106.000000 0 0 1
32.706532 19.728027 -29.772247 48.428287 0.542757 2.232890 0.100840 -0.047061 -623785.000000 0 0 1
33.427032 20.139927 -28.618187 48.394047 0.542259 2.203538 0.118550 -0.052796 405490.000000 0 0 1
34.883932 19.610927 -28.596857 49.185947 0.512144 2.191248 0.060403 -0.027780 497922.000000 0 0 1
35.788632 20.303427 -29.473077 50.613413 0.516040 2.192373 0.054028 -0.030337 1107680.000000 0 0 1
37.105732 20.232127 -28.852377 51.172590 0.499194 2.169806 0.023208 -0.004812 1212500.000000 0 0 1
-37.085625 20.929027 -29.697267 51.916235 -0.513789 2.179766 0.009750 -0.000646 81105.200000 0 0 1
-36.514825 20.142927 -30.730747 51.802015 -0.504099 2.205867 0.004714 0.000524 -319080.000000 0 0 1
-35.639725 20.986427 -31.415207 51.937803 -0.532180 2.220389 0.001135 0.000010 -449846.000000 0 0 1
-34.910025 20.245427 -32.523007 51.829848 -0.525533 2.249129 0.000889 -0.004579 -28283.200000 0 0 1
-33.938225 19.293827 -32.062707 50.518037 -0.516934 2.258389 0.018895 -0.001044 1054690.000000 0 0 1
-33.152725 18.639627 -33.099877 50.419646 -0.512188 2.286949 0.034403 -0.008348 532376.000000 0 0 1
-32.348225 17.466127 -32.559957 49.108289 -0.495087 2.295647 0.031667 -0.001000 610528.000000 0 0 1
-33.283125 16.367427 -32.420727 49.262182 -0.457037 2.289123 0.034703 0.003764 1046360.000000 0 0 1
-32.634325 15.153127 -32.671717 48.601003 -0.434707 2.308032 0.034125 0.003766 600382.000000 0 0 1
-33.722325 14.016927 -32.766107 49.064113 -0.393931 2.302075 0.037752 0.005910 792496.000000 0 0 1
-33.137925 12.765727 -33.114557 48.555738 -0.367709 2.321277 0.050981 -0.008555 176463.000000 0 0 1
-34.181625 11.839227 -33.112507 49.040686 -0.333430 2.312039 0.059079 -0.009464 -430554.000000 0 0 1
-33.819925 10.347127 -33.248347 48.541765 -0.296904 2.325322 0.065842 -0.014635 -116862.000000 0 0 1
-33.112725 10.043227 33.185595 47.943745 -0.294485 0.806294 0.060351 -0.017457 287832.000000 0 0 1
-33.181725 8.692427 32.870038 47.508153 -0.256207 0.806704 0.088569 -0.029883 309458.000000 0 0 1
-31.959025 8.097227 32.106232 46.019067 -0.248141 0.798653 0.109522 -0.027969 179293.000000 0 0 1
-30.875925 7.612127 32.858037 45.726555 -0.241719 0.769043 0.053497 -0.011280 -160063.000000 0 0 1
-29.942225 6.977727 32.004712 44.379355 -0.228953 0.765318 0.066661 -0.009627 -35005.500000 0 0 1
21.769932 -3.843869 -31.634357 38.593235 -0.174766 2.531660 0.070937 -0.030803 574072.000000 0 0 1
23.101232 -4.026569 -32.140527 39.785596 -0.172567 2.511280 0.068551 -0.033478 1686650.000000 0 0 1
24.164732 -3.161669 -31.636397 39.934847 -0.130099 2.485202 0.075929 -0.028995 909658.000000 0 0 1
24.050732 -1.631969 -31.922447 40.001795 -0.067751 2.494808 0.067652 -0.022942 -926792.000000 0 0 1
25.067132 -0.804969 -31.433407 40.212786 -0.032101 2.468146 0.082645 -0.022784 -128545.000000 0 0 1
24.906732 0.540431 -31.735177 40.345493 0.021695 2.476056 0.059524 -0.019290 -492511.000000 0 0 1
25.933632 1.571731 -31.236097 40.629021 0.060532 2.447778 0.072575 -0.018014 -1072620.000000 0 0 1
27.152132 1.450431 -31.855157 41.881894 0.053368 2.435025 0.082959 -0.031840 -530729.000000 0 0 1
28.134932 2.352831 -31.337187 42.179728 0.083433 2.408255 0.092942 -0.029709 297418.000000 0 0 1
29.622232 1.981131 -31.506137 43.290162 0.066780 2.385890 0.083210 -0.038443 -72684.000000 0 0 1
30.087332 2.448531 -32.754757 44.543428 0.081202 2.396971 0.083194 -0.038575 120577.000000 0 0 1
30.314832 1.356731 -33.643427 45.306842 0.044725 2.407693 0.067967 -0.032781 -280624.000000 0 0 1
30.997832 1.911331 32.753263 45.136405 0.061582 0.758817 0.073832 -0.045828 -91015.300000 0 0 1
30.172432 2.698331 31.904686 43.995064 0.089193 0.759489 0.078172 -0.029459 312401.000000 0 0 1
30.126332 4.054831 32.314827 44.365365 0.133790 0.754842 0.078789 -0.023351 -95908.600000 0 0 1
29.390932 4.973231 31.330228 43.245151 0.167622 0.760517 0.078222 -0.014532 -190777.000000 0 0 1
29.295232 6.278631 31.851710 43.728289 0.211129 0.754812 0.106742 -0.015935 264687.000000 0 0 1
28.749532 7.229931 30.977328 42.876595 0.246371 0.763419 0.102071 -0.009991 -407720.000000 0 0 1
29.033032 8.654931 31.234578 43.513488 0.289719 0.770139 0.095520 -0.005918 -76255.200000 0 0 1
30.357232 9.074131 31.014208 44.337146 0.290458 0.796087 0.095854 -0.005645 -124615.000000 0 0 1
30.505332 10.501431 31.295098 44.947064 0.331542 0.800615 0.094966 -0.008182 -821189.000000 0 0 1
31.721732 11.200731 30.772358 45.592354 0.339428 0.829905 0.110957 0.004630 -47107.400000 0 0 1
32.937532 10.632731 31.302588 46.666776 0.312254 0.835552 0.112360 -0.004645 1699180.000000 0 0 1
34.226532 10.817331 30.692578 47.228217 0.306117 0.863372 0.120648 -0.008110 1371770.000000 0 0 1
34.847132 12.253231 30.863318 48.135317 0.338125 0.874764 0.126187 -0.013173 -402854.000000 0 0 1
35.094032 12.596431 32.218516 49.277723 0.344611 0.858181 0.125641 -0.013256 383743.000000 0 0 1
35.547632 13.936131 32.495617 50.137960 0.373626 0.865678 0.140147 -0.008815 265331.000000 0 0 1
34.530532 15.089031 32.187121 49.558524 0.411971 0.863900 0.126152 -0.016311 -503128.000000 0 0 1
34.361832 15.494431 30.828268 48.694918 0.423619 0.885258 0.120488 -0.025778 760035.000000 0 0 1
33.331932 16.473531 30.620098 48.166226 0.459018 0.881859 0.099706 -0.016454 1661300.000000 0 0 1
31.819232 16.067031 30.883408 47.163523 0.467598 0.856858 0.096398 -0.008735 657720.000000 0 0 1
31.225932 15.198331 29.898958 45.825711 0.452968 0.859984 0.095569 -0.014894 69294.000000 0 0 1
30.007232 14.796731 30.474028 45.255316 0.458117 0.832025 0.083145 -0.012509 262713.000000 0 0 1
28.999532 13.965231 29.559568 43.700900 0.448793 0.827924 0.078761 -0.013749 470669.000000 0 0 1
29.256932 12.610531 29.241958 43.244487 0.406965 0.828203 0.090490 -0.016064 -406328.000000 0 0 1
28.451532 12.210731 28.172928 41.860549 0.405403 0.832514 0.071488 -0.025477 -308205.000000 0 0 1
28.398232 10.685231 27.950998 41.253994 0.359878 0.826391 0.071606 -0.012933 -205063.000000 0 0 1
29.469032 10.136731 27.225588 41.381274 0.331301 0.852742 0.078635 -0.012485 -335938.000000 0 0 1
29.327132 8.781731 26.821218 40.701072 0.290943 0.851334 0.078227 -0.003900 275603.000000 0 0 1
30.542932 8.132031 26.080828 40.978168 0.260213 0.880901 0.082217 -0.009080 326495.000000 0 0 1
30.951232 8.572031 24.778858 40.564151 0.270181 0.913655 0.073224 -0.006164 -163867.000000 0 0 1
31.830632 7.664331 24.215048 40.722226 0.236287 0.933979 0.076746 0.000233 -271379.000000 0 0 1
32.283132 7.947331 22.757718 40.289880 0.241376 0.970545 0.095746 0.000223 355230.000000 0 0 1
32.969332 9.247631 22.680138 41.071696 0.273465 0.985785 0.105690 -0.014695 952197.000000 0 0 1
32.090632 10.359731 22.382788 40.473719 0.312265 0.984811 0.105012 -0.023443 56250.800000 0 0 1
31.589632 10.369231 20.952288 39.299163 0.317167 1.008479 0.095845 -0.006580 87073.800000 0 0 1
32.582632 10.683731 19.961288 39.676480 0.316849 1.043613 0.123970 -0.023736 500268.000000 0 0 1
32.138532 10.469631 18.632588 38.596266 0.314924 1.066997 0.119365 -0.032196 -599730.000000 0 0 1
33.221332 11.026931 17.661488 39.206865 0.320481 1.103505 0.153026 -0.061275 428160.000000 0 0 1
34.415332 10.282231 17.541488 39.973031 0.290327 1.116497 0.164899 -0.044524 488304.000000 0 0 1
35.315432 10.388431 18.647688 41.265428 0.286092 1.101907 0.170603 -0.043706 -96232.500000 0 0 1
36.783432 9.920131 18.370088 42.295272 0.263423 1.121502 0.212230 -0.039102 431667.000000 0 0 1
36.951232 8.564931 18.148888 42.049183 0.227768 1.124518 0.180932 -0.025832 395277.000000 0 0 1
-37.208625 8.254531 17.351088 41.876955 -0.218309 1.143584 0.200817 -0.023522 74808.400000 0 0 1
-37.129325 6.766231 16.958888 41.375990 -0.180256 1.148482 0.196906 -0.023936 492601.000000 0 0 1
36.926532 6.409731 16.322088 40.878650 0.171868 1.160063 0.183543 -0.021224 834682.000000 0 0 1
37.026332 5.172131 15.632788 40.522639 0.138790 1.174744 0.197307 -0.026836 824366.000000 0 0 1
35.649832 4.370331 15.533988 39.132022 0.121982 1.162590 0.170294 -0.021788 942458.000000 0 0 1
35.322032 3.784831 16.791388 39.292768 0.106745 1.129247 0.157764 -0.016723 344353.000000 0 0 1
34.141232 3.001531 16.736088 38.140917 0.087690 1.116538 0.133629 -0.011781 185169.000000 0 0 1
34.018032 2.132331 18.049788 38.569006 0.062600 1.083785 0.112441 -0.012683 122954.000000 0 0 1
34.782832 0.932431 18.088188 39.216035 0.026801 1.091399 0.128751 -0.011943 131520.000000 0 0 1
34.503932 0.170931 19.257888 39.514767 0.004954 1.061733 0.106652 -0.000573 124894.000000 0 0 1
35.074132 -1.262269 19.307388 40.057001 -0.035973 1.067863 0.100839 -0.004260 81992.700000 0 0 1
34.961332 -1.906269 20.560788 40.603874 -0.054471 1.039821 0.108871 -0.001227 112064.000000 0 0 1
35.644632 -3.138769 20.514588 41.246091 -0.087831 1.050231 0.089127 0.001108 -177964.000000 0 0 1
35.249132 -4.050069 21.671588 41.575980 -0.114397 1.022478 0.089417 -0.006082 -202625.000000 0 0 1
35.705732 -3.665169 22.940088 42.597892 -0.102291 1.002109 0.102013 -0.016648 118131.000000 0 0 1
35.032132 -4.299469 23.973908 42.667130 -0.122119 0.974137 0.094714 -0.022984 -90541.200000 0 0 1
35.424332 -3.779969 25.331998 43.713632 -0.106303 0.952683 0.080687 -0.023791 570270.000000 0 0 1
34.394732 -4.135169 26.270508 43.476854 -0.119653 0.921983 0.079993 -0.022442 661866.000000 0 0 1
34.656132 -3.542569 27.538978 44.407123 -0.101867 0.901865 0.079121 -0.021608 -407554.000000 0 0 1
33.673632 -3.918969 28.625778 44.370114 -0.115860 0.869565 0.067946 -0.028363 -442234.000000 0 0 1
33.787532 -5.190969 29.155128 44.928443 -0.152444 0.864627 0.063801 -0.028796 -441201.000000 0 0 1
32.807832 -5.372469 30.110238 44.853581 -0.162315 0.834834 0.072311 -0.033350 -649314.000000 0 0 1
32.634032 -6.788069 30.654448 45.285242 -0.205081 0.827227 0.060291 -0.025233 -169474.000000 0 0 1
33.687532 -7.253469 31.458518 46.659415 -0.212078 0.830894 0.040789 -0.029869 -382866.000000 0 0 1
34.160132 -8.510869 31.055878 46.944830 -0.244175 0.847926 0.035257 -0.023017 -631477.000000 0 0 1
35.499332 -8.828069 31.696033 48.402230 -0.243738 0.856817 0.040015 -0.016522 -524835.000000 0 0 1
35.552932 -9.013369 33.073665 49.387439 -0.248289 0.837022 0.053406 -0.021226 273513.000000 0 0 1
36.918932 -9.171469 33.444252 50.652161 -0.243493 0.849614 0.083176 -0.023409 265080.000000 0 0 1
37.153732 -9.420769 -32.728907 50.401707 -0.248328 2.277540 0.085245 -0.029753 -224863.000000 0 0 1
36.846632 -8.420869 -31.766637 49.373116 -0.224680 2.269727 0.086875 -0.030260 58016.200000 0 0 1
-37.636025 -7.268369 -31.775707 49.789508 0.190774 2.262955 0.104441 -0.034532 -100133.000000 0 0 1
37.103932 -6.116669 -30.902377 48.673117 -0.163383 2.258670 0.104497 -0.041709 -111006.000000 0 0 1
37.207232 -6.397169 -29.521187 47.924966 -0.170269 2.234435 0.097785 -0.023866 79346.500000 0 0 1
36.766432 -5.399669 -28.632467 46.912100 -0.145822 2.227290 0.118948 -0.034003 -214475.000000 0 0 1
37.506432 -5.523569 -27.296217 46.715369 -0.146219 2.194825 0.118523 -0.022141 450213.000000 0 0 1
-36.412125 -5.156869 -27.314717 45.809714 0.140689 2.209636 0.104940 -0.014616 156251.000000 0 0 1
-36.025225 -4.848469 -25.980357 44.680011 0.133782 2.191338 0.110804 -0.006014 757948.000000 0 0 1
-34.536025 -4.402969 -25.771987 43.316492 0.126805 2.208024 0.107790 0.001067 84178.200000 0 0 1
-34.248225 -3.778569 -24.541717 42.302652 0.109884 2.189704 0.134825 -0.008890 587027.000000 0 0 1
-32.915025 -3.952369 -24.079017 40.973396 0.119506 2.198978 0.138072 -0.003031 1065400.000000 0 0 1
-31.734825 -3.170569 -24.774617 40.384815 0.099578 2.231235 0.117915 -0.005757 123121.000000 0 0 1
-31.487425 -3.463769 -26.130127 41.063842 0.109564 2.260527 0.114999 -0.006833 -323150.000000 0 0 1
-30.496025 -2.722269 -26.774567 40.673034 0.089030 2.289338 0.109539 -0.006153 -452517.000000 0 0 1
-30.087425 -3.419569 -28.038817 41.268897 0.113169 2.317765 0.088883 -0.011202 -228816.000000 0 0 1
-31.052025 -3.532169 -29.078567 42.688025 0.113263 2.320180 0.108039 -0.015016 154650.000000 0 0 1
-30.560625 -4.298469 -30.190887 43.173120 0.139737 2.345212 0.093560 -0.011262 -127171.000000 0 0 1
-31.686525 -4.406869 -31.295167 44.753143 0.138191 2.345192 0.092331 -0.022549 1003960.000000 0 0 1
-32.775825 -5.293169 -31.014367 45.433064 0.160114 2.322164 0.078699 -0.020354 837045.000000 0 0 1
-33.675125 -4.963169 -29.936737 45.330512 0.146330 2.292161 0.102890 -0.024368 580278.000000 0 0 1
-34.945725 -4.146169 -30.404237 46.506043 0.118094 2.283352 0.138765 -0.029325 452162.000000 0 0 1
-34.604425 -2.834069 -30.873007 46.461174 0.081717 2.297608 0.153454 -0.018876 -59379.200000 0 0 1
-34.463725 -1.811869 -29.894347 45.658550 0.052525 2.284631 0.151654 -0.012616 -185358.000000 0 0 1
-34.204625 -0.400969 -30.523657 45.845510 0.011722 2.299354 0.135952 -0.015512 -137414.000000 0 0 1
-35.271325 0.153831 -31.262607 47.132161 -0.004361 2.296012 0.165799 -0.016142 -293192.000000 0 0 1
-35.078925 1.504931 -31.586467 47.228177 -0.042875 2.303397 0.155822 -0.010309 -482987.000000 0 0 1
-36.339425 2.271131 -31.961277 48.448272 -0.062417 2.291215 0.131950 -0.013070 -189211.000000 0 0 1
-36.977925 1.783731 -33.163077 49.702498 -0.048200 2.301282 0.125613 -0.016039 1055190.000000 0 0 1
37.020232 2.394531 -33.356017 49.888428 0.064592 2.303137 0.095188 -0.014474 580912.000000 0 0 1
36.199732 1.896831 33.090947 49.081864 0.052351 0.830917 0.069205 -0.019473 -247233.000000 0 0 1
36.566332 2.252231 31.798011 48.510645 0.061515 0.855971 0.090724 -0.022173 571148.000000 0 0 1
-37.516325 1.632931 31.338468 48.910538 -0.043498 0.875347 0.081438 -0.017369 369169.000000 0 0 1
-37.347025 1.819831 29.819408 47.825821 -0.048689 0.897585 0.095563 -0.020544 -187684.000000 0 0 1
-36.754725 3.061331 29.501678 47.229552 -0.083099 0.896120 0.112779 -0.025770 32833.500000 0 0 1
-36.494925 3.112231 28.065838 46.143871 -0.085073 0.916974 0.120983 -0.020996 125261.000000 0 0 1
-35.461625 4.250531 27.843308 45.286242 -0.119294 0.908627 0.113176 -0.015653 -25640.900000 0 0 1
-35.063725 4.511631 26.506528 44.186148 -0.127966 0.927441 0.121248 -0.010637 352829.000000 0 0 1
-34.387925 5.769331 26.393708 43.731481 -0.166224 0.922863 0.119824 -0.009181 -71198.800000 0 0 1
-33.443425 6.027731 25.196868 42.304591 -0.178322 0.932776 0.109845 -0.002698 4315.160000 0 0 1
-32.291325 5.185431 25.170468 41.269490 -0.159223 0.914856 0.098934 -0.003940 974941.000000 0 0 1
-31.417625 5.447431 24.027608 39.925776 -0.171681 0.925035 0.100482 -0.006213 697751.000000 0 0 1
-32.007825 5.210831 22.592468 39.523072 -0.161383 0.962309 0.120590 -0.013992 -227873.000000 0 0 1
-32.309225 3.858731 22.267788 39.428799 -0.118868 0.970655 0.102995 -0.009256 -185110.000000 0 0 1
-32.828625 3.798831 20.984688 39.147246 -0.115205 1.005051 0.134289 -0.017497 -462040.000000 0 0 1
-32.918525 2.396331 20.387088 38.794395 -0.072668 1.017474 0.121130 -0.002165 711938.000000 0 0 1
-31.650225 1.887531 19.957888 37.464875 -0.059567 1.008998 0.125485 -0.006678 666604.000000 0 0 1
-31.197825 2.389931 18.689688 36.446132 -0.076456 1.032350 0.127700 -0.017952 130333.000000 0 0 1
-29.929025 1.695831 18.136888 35.036682 -0.056601 1.026689 0.130306 -0.021639 -107132.000000 0 0 1
-30.259225 0.385531 17.823788 35.120603 -0.012740 1.038513 0.138661 -0.018321 -146007.000000 0 0 1
-29.148725 -0.397369 17.495388 33.998451 0.013632 1.030263 0.147521 -0.020447 -96752.300000 0 0 1
-28.619825 -0.144069 16.028288 32.802762 0.005034 1.060282 0.156827 -0.017630 -184482.000000 0 0 1
-27.994825 1.071331 15.792088 32.159727 -0.038250 1.057500 0.161293 -0.027562 -96367.900000 0 0 1
-28.124025 1.353131 14.429588 31.638659 -0.048076 1.097217 0.173172 -0.030146 -137761.000000 0 0 1
-27.419325 2.588331 13.881888 30.841947 -0.094119 1.103922 0.159934 -0.034763 59424.100000 0 0 1
-26.061825 2.384231 13.518188 29.455809 -0.091230 1.094005 0.142791 -0.044378 49849.200000 0 0 1
-25.566725 3.585731 13.026688 28.917287 -0.139341 1.103492 0.135070 -0.047439 -56557.400000 0 0 1
-24.031425 3.565931 12.827388 27.473026 -0.147311 1.085005 0.110793 -0.049180 -293917.000000 0 0 1
-23.326525 3.527331 14.040688 27.453775 -0.150078 1.033948 0.092021 -0.038859 -319583.000000 0 0 1
-21.972625 3.759031 13.746788 26.189707 -0.169438 1.018207 0.088926 -0.040262 -598080.000000 0 0 1
-21.287025 4.422831 14.920788 26.369088 -0.204857 0.969340 0.087080 -0.043149 -522650.000000 0 0 1
-21.731825 5.735931 15.178088 27.120979 -0.258056 0.976840 0.074207 -0.032206 422449.000000 0 0 1
-21.146125 6.291231 16.359788 27.465995 -0.289173 0.932737 0.067745 -0.018322 -221042.000000 0 0 1
-21.335825 7.790631 16.397288 28.013968 -0.350101 0.945515 0.074822 -0.022416 -292377.000000 0 0 1
-20.637225 8.501231 15.355288 27.091528 -0.390754 0.968188 0.072325 -0.029851 750455.000000 0 0 1
-20.624625 9.894031 15.423588 27.589021 -0.447292 0.977559 0.060666 -0.021818 -272637.000000 0 0 1
-20.052225 10.621131 16.691488 28.169237 -0.487104 0.936584 0.078474 -0.022095 -187949.000000 0 0 1
-20.875325 10.517331 17.835688 29.402470 -0.466696 0.919013 0.090529 -0.027196 283058.000000 0 0 1
-20.205025 10.972931 18.969788 29.807736 -0.497514 0.880968 0.103134 -0.015892 -239774.000000 0 0 1
-12.939468 -33.071565 -19.881217 40.699153 1.197850 2.081157 0.152513 -0.058214 409201.000000 0 0 1
-14.042268 -33.763965 -19.290317 41.343765 1.176663 2.056220 0.190885 -0.056386 864705.000000 0 0 1
-15.237968 -32.955365 -19.374317 41.153565 1.137693 2.060972 0.176102 -0.065113 322925.000000 0 0 1
-16.391668 -33.631165 -18.632717 41.796174 1.117283 2.032864 0.167279 -0.056112 -1551110.000000 0 0 1
-16.819168 32.908731 -19.325617 41.705497 -1.098320 2.052605 0.164041 -0.059690 -3702.050000 0 0 1
-17.638968 32.006331 -18.618017 41.014253 -1.067102 2.041979 0.173810 -0.051526 527550.000000 0 0 1
-19.075868 32.450731 -18.200217 41.811321 -1.039365 2.021161 0.149922 -0.044256 -240910.000000 0 0 1
-19.033368 33.393931 -17.154217 42.091458 -1.052754 1.990562 0.164120 -0.043369 466781.000000 0 0 1
-20.346668 33.775631 -16.754117 42.842509 -1.028609 1.972583 0.117549 -0.042927 278037.000000 0 0 1
-20.785368 33.198331 -15.319417 42.057642 -1.011409 1.943622 0.123175 -0.041863 -46421.900000 0 0 1
-20.781768 31.780231 -15.178417 40.893145 -0.991669 1.951068 0.125820 -0.042735 -15955.900000 0 0 1
-21.340468 31.386931 -13.993117 40.451975 -0.973677 1.924015 0.129728 -0.039608 -220426.000000 0 0 1
-21.240368 29.868231 -13.735117 39.139723 -0.952636 1.929355 0.140043 -0.045907 142350.000000 0 0 1
-19.940968 29.342231 -13.536117 37.971505 -0.973894 1.935295 0.171130 -0.057212 112011.000000 0 0 1
-19.961868 27.904731 -13.422517 36.841744 -0.949837 1.943709 0.173495 -0.066623 11660.200000 0 0 1
-18.652468 27.321831 -12.853317 35.490911 -0.971779 1.941378 0.179861 -0.059876 -27214.500000 0 0 1
-17.539268 27.480931 -13.673417 35.352366 -1.002737 1.967928 0.193713 -0.062386 112928.000000 0 0 1
-16.313068 26.887231 -13.242717 34.123437 -1.025449 1.969347 0.188554 -0.071759 808134.000000 0 0 1
-15.079368 27.449931 -13.978317 34.296930 -1.068459 1.990585 0.163359 -0.069060 -40430.600000 0 0 1
-15.071068 27.254331 -15.342417 34.717797 -1.065669 2.028532 0.166799 -0.066509 52179.100000 0 0 1
-13.834668 27.641231 -15.916817 34.767524 -1.106742 2.046323 0.189681 -0.062437 29335.300000 0 0 1
-13.824068 27.705531 -17.469717 35.551263 -1.107978 2.084487 0.214245 -0.079824 72250.800000 0 0 1
-13.637468 26.429831 -18.118417 34.825185 -1.094441 2.117961 0.185331 -0.066261 -62142.900000 0 0 1
-13.914868 26.558931 -19.469917 35.750217 -1.088193 2.146720 0.165406 -0.066253 -84465.700000 0 0 1
-13.193168 25.624931 -20.458217 35.344524 -1.095334 2.188081 0.130239 -0.044971 6229.950000 0 0 1
-11.814068 25.902831 -20.541617 35.106792 -1.142888 2.195822 0.100122 -0.039667 109281.000000 0 0 1
-11.029268 24.800531 -21.037517 34.340766 -1.152343 2.230156 0.099507 -0.043694 345520.000000 0 0 1
-9.836868 25.145931 -21.928417 34.784153 -1.197907 2.252883 0.107045 -0.041514 -353005.000000 0 0 1
-10.225968 25.883831 -23.067517 36.147662 -1.194546 2.262885 0.087684 -0.035727 1079890.000000 0 0 1
-9.044668 26.124831 -23.880717 36.532197 -1.237502 2.283246 0.064388 -0.038146 483561.000000 0 0 1
-9.306468 26.862431 -25.178377 37.975666 -1.237288 2.295633 0.052482 -0.031284 -205727.000000 0 0 1
-10.066968 26.131031 -26.127957 38.299409 -1.203070 2.321567 0.059779 -0.029768 5543.940000 0 0 1
-10.294068 26.896631 -27.229697 39.633988 -1.205269 2.328189 0.074519 -0.022451 -215161.000000 0 0 1
-11.698968 26.568631 -27.751727 40.161130 -1.156013 2.333681 0.069885 -0.018955 -293403.000000 0 0 1
-12.128868 27.197331 -28.966867 41.543755 -1.151309 2.342367 0.084284 -0.014480 1192200.000000 0 0 1
-13.516568 26.874631 -29.248007 41.956993 -1.104792 2.342134 0.077656 -0.009667 1107180.000000 0 0 1
-13.789568 27.053931 -30.745227 43.212687 -1.099414 2.362407 0.062878 -0.015085 -150114.000000 0 0 1
-13.072768 26.381831 -31.787957 43.328656 -1.110738 2.394470 0.078408 -0.019840 192340.000000 0 0 1
-13.252568 24.989531 -31.777337 42.542994 -1.083184 2.414254 0.067777 -0.022742 210960.000000 0 0 1
-12.390368 24.259031 -32.865067 42.686466 -1.098584 2.449509 0.058078 -0.016605 361124.000000 0 0 1
-12.900368 24.386231 33.439457 43.350952 -1.084217 0.689811 0.052964 -0.010602 530212.000000 0 0 1
-12.127468 23.659331 32.470318 41.966189 -1.097130 0.686095 0.049213 -0.013705 -88884.800000 0 0 1
-12.765968 23.817731 31.073608 41.180376 -1.078776 0.715793 0.047941 -0.002571 237104.000000 0 0 1
-13.977168 23.079631 30.923738 41.040324 -1.026265 0.717432 0.061788 -0.012314 398738.000000 0 0 1
-14.493368 23.081131 29.556508 40.204272 -1.010092 0.744896 0.072862 -0.008984 1349300.000000 0 0 1
-15.744168 22.093631 29.419098 40.018629 -0.951657 0.744930 0.062079 -0.007833 1063250.000000 0 0 1
-15.401868 20.801431 29.448098 39.205963 -0.933452 0.721050 0.043779 -0.011869 -455942.000000 0 0 1
-16.547568 19.999031 29.591228 39.362724 -0.879559 0.720073 0.042951 -0.012078 28987.700000 0 0 1
-16.161168 18.490731 29.776958 38.597380 -0.852525 0.689638 0.030621 -0.018758 -249432.000000 0 0 1
-15.834168 17.938531 28.572648 37.268056 -0.847627 0.697143 0.041320 -0.020300 51328.500000 0 0 1
-15.474968 16.531231 28.705218 36.561534 -0.818388 0.667905 0.032160 -0.029546 -97769.700000 0 0 1
-14.998768 15.933631 27.400348 35.065977 -0.815612 0.673900 0.034494 -0.027454 1194000.000000 0 0 1
-13.691568 16.464431 27.030998 34.484944 -0.877091 0.669956 0.026845 -0.023863 1188500.000000 0 0 1
-13.300468 15.931931 25.750638 33.073014 -0.875175 0.678365 0.028407 -0.022591 615751.000000 0 0 1
-12.092168 16.670131 25.075188 32.448095 -0.943240 0.687589 0.039648 -0.020080 430350.000000 0 0 1
-12.457268 17.741431 24.235818 32.516408 -0.958624 0.729750 0.041597 -0.015450 17600.000000 0 0 1
-12.998568 18.933331 24.840588 33.830291 -0.969158 0.746205 0.038211 -0.013726 -69780.900000 0 0 1
-12.058168 19.795031 25.712688 34.617698 -1.023675 0.733611 0.045928 -0.020997 -161483.000000 0 0 1
-11.742068 19.348831 27.010588 35.239542 -1.025347 0.697446 0.049670 -0.022573 -56831.000000 0 0 1
-12.757868 19.536431 27.966378 36.421884 -0.992294 0.695325 0.050820 -0.019139 -41937.400000 0 0 1
-12.159568 19.231231 29.405028 37.179981 -1.006977 0.658545 0.053291 -0.019310 418638.000000 0 0 1
-11.161068 20.196931 29.732848 37.636787 -1.065950 0.659997 0.052379 -0.024654 18944.500000 0 0 1
-10.895368 20.105631 31.100548 38.602973 -1.074188 0.634022 0.042983 -0.025498 -463378.000000 0 0 1
-9.691368 20.890631 31.594125 39.096417 -1.136435 0.629863 0.027101 -0.028679 57827.500000 0 0 1
-8.424668 20.253231 31.430638 38.328233 -1.176602 0.609318 0.031620 -0.034605 271672.000000 0 0 1
-7.404068 21.097731 31.928148 38.978727 -1.233283 0.610926 0.035784 -0.031156 103311.000000 0 0 1
-6.199168 20.318331 32.484008 38.813336 -1.274665 0.579148 0.047244 -0.030840 -438848.000000 0 0 1
-6.549868 19.670331 33.725078 39.587922 -1.249362 0.551188 0.035868 -0.036239 494918.000000 0 0 1
-5.512268 19.034631 -33.145207 38.617444 -1.288916 2.602737 0.031682 -0.032641 407089.000000 0 0 1
-4.742868 17.897531 33.819378 38.556021 -1.311749 0.500903 0.024218 -0.032648 -211346.000000 0 0 1
-5.432868 16.691131 -33.736297 38.029562 -1.256117 2.661836 0.021642 -0.032430 3711.030000 0 0 1
-5.204468 15.926431 32.750739 36.787887 -1.254954 0.472883 0.036706 -0.024519 52898.500000 0 0 1
-5.910568 14.566031 32.823246 36.393263 -1.185319 0.446638 0.052359 -0.032149 -474049.000000 0 0 1
-5.212568 13.651131 33.578498 36.620210 -1.206041 0.410456 0.056503 -0.030225 -243945.000000 0 0 1
-5.811468 12.400631 33.475573 36.168533 -1.132548 0.388326 0.066900 -0.028171 -144803.000000 0 0 1
-4.755268 11.333231 33.757218 35.924984 -1.173520 0.349165 0.079605 -0.032729 160573.000000 0 0 1
-4.650668 11.000331 -32.541417 34.663811 -1.170812 2.789845 0.098280 -0.048383 182688.000000 0 0 1
-3.471468 10.228131 -32.341637 34.097613 -1.243592 2.819268 0.116730 -0.041768 10210.100000 0 0 1
-3.348968 9.567331 -30.982587 32.598621 -1.234084 2.825400 0.133373 -0.044161 -80867.400000 0 0 1
-4.291868 8.577331 -30.640427 32.106487 -1.106850 2.838231 0.137366 -0.041929 -115969.000000 0 0 1
-5.420368 9.117131 -29.979177 31.800212 -1.034412 2.801534 0.151340 -0.052087 -458266.000000 0 0 1
-6.415768 8.031731 -29.528237 31.266396 -0.896786 2.806586 0.163591 -0.052900 -503517.000000 0 0 1
-6.069068 7.043331 -28.592137 30.065801 -0.859563 2.827203 0.164548 -0.043000 79043.400000 0 0 1
-7.212468 6.274431 -28.244777 29.818712 -0.715958 2.815236 0.185089 -0.063626 -7013.210000 0 0 1
-6.996668 5.548631 -26.868377 28.313430 -0.670482 2.820725 0.163781 -0.059352 -71239.300000 0 0 1
-7.064268 6.234631 -25.672767 27.347129 -0.723095 2.789850 0.122712 -0.045002 404357.000000 0 0 1
-5.863468 6.952631 -25.368007 26.949120 -0.870178 2.797345 0.112177 -0.043709 197060.000000 0 0 1
-5.942568 8.023031 -24.288217 26.260248 -0.933281 2.751580 0.066885 -0.019542 3456.920000 0 0 1
-6.167568 7.574431 -22.966317 24.957215 -0.887420 2.739458 0.053541 -0.012685 548178.000000 0 1 0
-7.514568 7.865031 -22.556117 25.042081 -0.808182 2.692240 0.065135 -0.011556 750845.000000 0 0 1
-7.614968 7.896331 -21.014017 23.705035 -0.803535 2.660477 0.051449 -0.015260 334961.000000 0 1 0
-6.814768 9.006031 -20.541817 23.441755 -0.923028 2.638907 0.022218 -0.007380 285047.000000 0 1 0
-6.679068 9.131131 -19.124017 22.219710 -0.939266 2.607396 0.015544 -0.010158 -104247.000000 0 1 0
-7.940468 9.541131 -18.280417 22.096557 -0.876706 2.545075 0.007868 -0.005495 -411951.000000 0 1 0
-7.909068 9.403131 -16.869717 20.870064 -0.871486 2.512091 0.003411 -0.012742 323272.000000 0 1 0
-9.106368 9.621731 -16.100017 20.849800 -0.812909 2.453078 0.013264 -0.020589 707457.000000 0 1 0
-9.797368 11.004131 -16.389617 22.038576 -0.843346 2.409352 0.037414 -0.026839 -211512.000000 0 1 0
-9.022068 11.998331 -15.680417 21.707905 -0.926053 2.377972 0.021588 -0.029139 497129.000000 0 1 0
-9.290268 13.350531 -16.026417 22.834005 -0.962846 2.348810 0.037571 -0.025079 441692.000000 0 1 0
-8.021568 14.200631 -15.684117 22.627306 -1.056605 2.336646 0.045988 -0.026709 291567.000000 0 1 0
-7.634368 14.377831 -14.340817 21.694806 -1.082672 2.292981 0.045342 -0.023500 221326.000000 0 1 0
-8.492668 15.188731 -13.518517 22.035727 -1.060961 2.231258 0.041755 -0.027884 -496883.000000 0 1 0
-7.735368 15.892431 -12.356117 21.565688 -1.117819 2.180900 0.041767 -0.026371 301116.000000 0 1 0
-7.211668 17.201531 -12.638617 22.530767 -1.173810 2.166328 0.053080 -0.023924 337033.000000 0 1 0
-6.291868 17.305831 -13.724017 22.965801 -1.222085 2.211282 0.078333 -0.022156 -303327.000000 0 1 0
-6.247868 18.738531 -14.266917 24.366233 -1.248965 2.196318 0.119351 -0.016144 -27495.900000 0 1 0
-5.608268 19.561231 -13.381717 24.354974 -1.291583 2.152496 0.106164 -0.023719 -321528.000000 0 1 0
-5.668368 20.902431 -13.891017 25.729407 -1.305983 2.141101 0.115421 -0.018074 74633.600000 0 0 1
-5.285068 21.973131 -12.856517 26.000778 -1.334756 2.088017 0.116005 -0.018486 -517275.000000 0 0 1
-5.459568 23.342031 -13.177917 27.355343 -1.341032 2.073425 0.103025 -0.018651 572076.000000 0 0 1
-6.806668 23.848731 -13.181417 28.086339 -1.292778 2.059314 0.103976 -0.016749 726327.000000 0 0 1
-7.560368 23.894731 -11.830817 27.714357 -1.264360 2.011841 0.065808 -0.014770 -306781.000000 0 0 1
-7.967268 22.598331 -11.410917 26.539988 -1.231843 2.015236 0.070723 -0.014863 -266420.000000 0 0 1
-8.626668 22.485931 -10.165417 26.141388 -1.204466 1.970193 0.071193 -0.015981 -205345.000000 0 0 1
-7.887568 22.852631 -8.886317 25.757001 -1.238449 1.923041 0.073855 -0.014954 -340987.000000 0 0 1
-7.710768 24.235531 -8.679517 26.872866 -1.262764 1.899678 0.067994 -0.010259 -308482.000000 0 0 1
-6.970668 24.466631 -7.519917 26.528388 -1.293245 1.858204 0.075328 -0.019025 13748.300000 0 0 1
-6.980068 26.002031 -7.215917 27.872862 -1.308536 1.832666 0.078939 -0.018887 347056.000000 0 0 1
-6.249768 26.885131 -8.084817 28.761678 -1.342391 1.855733 0.074359 -0.021206 15759.600000 0 0 1
-6.721868 26.970131 -9.401217 29.342024 -1.326539 1.896949 0.074906 -0.013048 -48657.300000 0 0 1
-6.174268 28.236331 -10.156317 30.635971 -1.355521 1.908706 0.080116 -0.011866 51240.600000 0 0 1
-6.807568 29.489331 -9.975717 31.866574 -1.343922 1.889195 0.076033 -0.015784 -280488.000000 0 0 1
-7.827668 29.544031 -10.961417 32.469598 -1.311798 1.915152 0.079794 -0.017172 114523.000000 0 0 1
-8.778468 30.814131 -10.838517 33.823743 -1.293264 1.896991 0.077187 -0.023230 165177.000000 0 0 1
-9.686368 30.401031 -9.834117 33.387996 -1.262346 1.869771 0.083664 -0.020283 -770270.000000 0 0 1
-10.734768 31.336531 -9.815317 34.547849 -1.240761 1.858872 0.071860 -0.026004 -220730.000000 0 0 1
-11.857068 30.942431 -8.836617 34.294459 -1.204858 1.831405 0.089191 -0.024146 -208591.000000 0 0 1
-12.613668 29.858031 -9.278717 33.715000 -1.171083 1.849605 0.101496 -0.036386 -616886.000000 0 0 1
-13.557068 29.508131 -8.299017 33.517123 -1.140124 1.821004 0.108668 -0.029801 -99260.200000 0 0 1
-14.654868 28.537731 -8.766017 33.256733 -1.096387 1.837534 0.118582 -0.041746 -78135.500000 0 0 1
-14.259368 27.184031 -8.885817 31.957141 -1.087703 1.852564 0.105278 -0.038193 -484081.000000 0 0 1
-15.172268 26.387631 -9.577817 31.909863 -1.048980 1.875649 0.152200 -0.044312 -511790.000000 0 0 1
-15.428768 25.016931 -8.903417 30.710984 -1.018164 1.864929 0.143611 -0.044722 -202927.000000 0 0 1
-14.430268 24.056731 -9.064117 29.480793 -1.030492 1.883317 0.119386 -0.032874 -142521.000000 0 0 1
-14.944868 22.759431 -8.783317 28.609219 -0.989764 1.882846 0.131837 -0.033341 -90633.700000 0 0 1
-13.936468 21.674831 -9.174917 27.353291 -0.999372 1.912850 0.117290 -0.028436 -191062.000000 0 0 1
-13.902368 21.379231 -10.576417 27.608114 -0.994228 1.963936 0.104460 -0.023155 -135029.000000 0 0 1
-13.084168 20.310731 -10.910617 26.509674 -0.998509 1.994974 0.099114 -0.022735 -446646.000000 0 0 1
-13.109768 19.983031 -12.414517 26.931538 -0.990183 2.049879 0.099916 -0.011337 -290072.000000 0 0 1
-14.330568 19.491231 -12.902617 27.418074 -0.936814 2.060753 0.122810 -0.010639 -380119.000000 0 0 1
-14.518368 19.731331 -14.283917 28.357339 -0.936444 2.098686 0.111698 0.010051 101049.000000 0 0 1
-15.908168 19.315931 -14.810917 29.078140 -0.881843 2.105224 0.123372 -0.012041 421692.000000 0 0 1
-16.930768 20.260931 -14.539617 30.142274 -0.874701 2.074150 0.139195 -0.025500 -94111.800000 0 0 1
-18.141568 19.947831 -15.194717 30.950151 -0.832784 2.083967 0.141200 -0.025578 215506.000000 0 0 1
-18.939268 21.212131 -15.613517 32.441213 -0.841945 2.072918 0.148843 -0.032839 422070.000000 0 0 1
-19.643668 21.956831 -14.575617 32.869815 -0.840945 2.030223 0.141010 -0.058807 481177.000000 0 0 1
-20.555268 22.829931 -15.180717 34.266295 -0.837780 2.029763 0.145925 -0.046115 -229199.000000 0 0 1
-21.289068 23.852931 -14.287217 35.018728 -0.842133 1.991045 0.142248 -0.045368 -405483.000000 0 0 1
-22.546368 23.434631 -13.842117 35.342960 -0.804714 1.973222 0.190881 -0.053741 -344154.000000 0 0 1
-23.220168 24.538231 -13.291317 36.303720 -0.812990 1.945626 0.194432 -0.065059 -115321.000000 0 0 1
-26.107178 -0.511569 3.627083 26.362894 0.019592 1.432776 0.172417 -0.059419 -52521.400000 0 0 1
-26.680658 0.208131 4.720383 27.095808 -0.007801 1.395692 0.176455 -0.055899 -33572.400000 0 0 1
-28.003548 -0.234269 4.896883 28.429440 0.008365 1.397686 0.184324 -0.055355 -114876.000000 0 0 1
-28.665318 0.443031 6.129383 29.316652 -0.015454 1.360167 0.186110 -0.050132 -330453.000000 0 0 1
-29.227968 1.705231 5.925483 29.871278 -0.058276 1.371105 0.207256 -0.057588 164800.000000 0 0 1
-29.610148 2.378931 7.120583 30.547060 -0.080170 1.335530 0.223468 -0.049570 488980.000000 0 0 1
-28.411238 2.859731 8.030883 29.662629 -0.100317 1.296634 0.231312 -0.046777 360923.000000 0 0 1
-27.634198 1.846631 8.594783 28.998780 -0.066725 1.269892 0.195435 -0.052241 717198.000000 0 0 1
-26.568718 2.418031 9.372983 28.277137 -0.090760 1.232937 0.182566 -0.059653 412545.000000 0 0 1
-25.735648 1.407331 10.249383 27.737231 -0.054630 1.192307 0.161215 -0.052109 46100.100000 0 0 1
-24.772268 0.710931 9.451583 26.523633 -0.028691 1.206442 0.165250 -0.050946 486836.000000 0 0 1
-25.225378 -0.446969 8.752183 26.704310 0.017717 1.236881 0.150012 -0.047151 -447814.000000 0 0 1
-24.094568 -1.102269 7.934383 25.391290 0.045716 1.252989 0.146296 -0.051288 14636.600000 0 0 1
-23.021268 -1.497669 8.747983 24.672839 0.064964 1.208354 0.137272 -0.063445 -16779.200000 0 1 0
-21.904668 -2.001669 8.052783 23.423673 0.091128 1.219848 0.151455 -0.054651 287822.000000 0 1 0
-20.694268 -2.287269 8.995283 22.680376 0.110080 1.162974 0.116527 -0.039083 343757.000000 0 1 0
-20.008068 -1.072469 9.361683 22.115924 0.053551 1.133711 0.102608 -0.042579 646790.000000 0 1 0
-20.461068 -0.525869 10.617183 23.057676 0.025695 1.092281 0.113242 -0.042619 -412688.000000 0 1 0
-20.108068 0.980331 10.853183 22.871096 -0.048715 1.076358 0.086258 -0.037960 -310598.000000 0 1 0
-20.531568 1.972931 9.942883 22.897569 -0.095798 1.121610 0.091816 -0.033147 -351762.000000 0 1 0
-21.907968 2.141031 9.889983 24.132029 -0.097419 1.148531 0.117218 -0.038416 -1306490.000000 0 1 0
-22.372568 3.527631 9.448583 24.540817 -0.156389 1.175572 0.108473 -0.044238 -426567.000000 0 1 0
-22.214368 4.624531 10.382683 24.953247 -0.205246 1.141660 0.088376 -0.043901 536056.000000 0 1 0
-22.530168 5.922431 9.887683 25.307112 -0.257051 1.169396 0.071302 -0.033234 -455390.000000 0 0 1
-22.593068 6.920431 11.096783 26.105127 -0.297234 1.131745 0.074253 -0.042769 -161418.000000 0 0 1
-23.772368 6.942731 11.861083 27.459284 -0.284148 1.124141 0.086886 -0.041130 12381.800000 0 0 1
-23.682668 7.836231 12.954483 28.108609 -0.319545 1.091818 0.100805 -0.040564 297701.000000 0 0 1
-24.571568 7.255431 14.125783 29.256469 -0.287119 1.066917 0.116658 -0.040696 1026050.000000 0 0 1
-25.961728 7.300131 13.780883 30.285574 -0.274110 1.098389 0.135001 -0.047579 829913.000000 0 0 1
-26.796768 6.714831 14.795983 31.338105 -0.245528 1.079079 0.131597 -0.047764 554087.000000 0 0 1
-28.277918 6.646531 14.331883 32.391664 -0.230853 1.112461 0.150920 -0.044602 114198.000000 0 0 1
-28.477158 5.617231 13.368483 31.956504 -0.194754 1.139186 0.167220 -0.034291 -609537.000000 0 0 1
-29.659398 5.902631 12.714883 32.805323 -0.196447 1.172785 0.216514 -0.032750 -726573.000000 0 0 1
-30.146618 4.850531 11.665183 32.686736 -0.159531 1.205872 0.216999 -0.035926 -90964.500000 0 0 1
-30.711498 3.687031 12.200083 33.251050 -0.119482 1.195113 0.219277 -0.034768 206345.000000 0 0 1
-31.034488 2.691931 11.229683 33.113316 -0.086523 1.224806 0.202091 -0.027251 -498485.000000 0 0 1
-32.157028 1.788231 11.729983 34.276300 -0.055552 1.221519 0.181694 -0.016377 -408036.000000 0 0 1
-31.972888 0.936331 12.882483 34.483339 -0.029277 1.187925 0.157754 -0.012728 728846.000000 0 0 1
-33.273448 0.546831 13.371583 35.863918 -0.016433 1.188726 0.153901 -0.007605 1085850.000000 0 0 1
-33.250738 -0.622969 14.323883 36.210127 0.018733 1.164101 0.146084 -0.011359 9390.940000 0 0 1
-33.021578 -1.876769 13.660083 35.784700 0.056774 1.179129 0.142800 -0.005902 151607.000000 0 0 1
-33.245938 -2.937969 14.564783 36.415065 0.088142 1.159317 0.138187 -0.001203 -187702.000000 0 0 1
-33.327648 -4.311569 13.886683 36.361542 0.128655 1.178939 0.140884 -0.000779 704957.000000 0 0 1
-34.574947 -4.685669 13.274083 37.330734 0.134701 1.207261 0.117956 -0.005606 889087.000000 0 0 1
-34.374661 -5.957669 12.646583 37.108587 0.171611 1.223029 0.135667 -0.005693 -449057.000000 0 0 1
-35.567294 -6.486269 11.797783 38.030143 0.180384 1.255370 0.131079 0.007585 1580110.000000 0 0 1
-36.797488 -6.908869 12.464983 39.460910 0.185593 1.249410 0.104225 0.004874 1651120.000000 0 0 1
-37.512718 -5.879069 13.131983 40.177312 0.155457 1.237827 0.109833 -0.006878 113148.000000 0 0 1
36.312730 -5.496569 12.710983 38.863810 -0.150227 1.237600 0.120777 -0.005930 778978.000000 0 0 1
35.334320 -6.281069 13.344083 38.288778 -0.175923 1.214814 0.106145 -0.000021 -749396.000000 0 0 1
34.068440 -5.966969 12.841683 36.894066 -0.173388 1.215286 0.129059 -0.001331 -449228.000000 0 0 1
33.046440 -7.036369 13.256683 36.294866 -0.209791 1.196895 0.104503 -0.000835 -321053.000000 0 0 1
32.649090 -7.004469 14.605283 36.446398 -0.211334 1.158479 0.106778 0.002215 -19066.000000 0 0 1
31.694660 -7.995969 14.875783 35.913450 -0.247125 1.143719 0.100654 0.003203 -104517.000000 0 0 1
31.117210 -8.094969 16.308883 36.052586 -0.254503 1.101382 0.086954 -0.007762 -300684.000000 0 0 1
32.039100 -8.465569 17.279083 37.372938 -0.258323 1.090162 0.062277 -0.005153 -329301.000000 0 0 1
31.482200 -8.531469 18.582483 37.539626 -0.264638 1.052950 0.053107 -0.013514 -74669.500000 0 0 1
32.529810 -9.038169 19.650383 39.064237 -0.271007 1.043698 0.049228 -0.011554 594597.000000 0 0 1
33.564400 -8.112269 19.916083 39.862617 -0.237145 1.047639 0.054898 -0.012875 -1122730.000000 0 0 1
34.693270 -8.445469 19.222483 40.551853 -0.238788 1.076943 0.025729 0.002954 -1377830.000000 0 0 1
35.954070 -7.711969 19.753683 41.741797 -0.211293 1.077837 0.025451 -0.002459 21895.200000 0 0 1
36.355510 -8.259669 20.972783 42.776195 -0.223400 1.058373 0.031641 -0.014033 -733657.000000 0 0 1
37.566620 -7.750769 21.407983 43.927521 -0.203466 1.061746 0.039685 -0.014998 -891497.000000 0 0 1
-37.353948 -8.394169 22.744583 44.531961 0.221048 1.034742 0.039748 -0.016198 252990.000000 0 0 1
37.172410 -7.902769 23.887783 44.887281 -0.209479 1.009632 0.048067 -0.018148 617123.000000 0 0 1
37.249160 -8.880169 24.930583 45.693449 -0.234031 0.993685 0.044875 -0.023183 -277763.000000 0 0 1
36.754150 -8.296369 26.293683 45.946219 -0.222005 0.961524 0.067231 -0.021694 29835.500000 0 0 1
37.542260 -7.394569 27.018283 46.841099 -0.194477 0.955982 0.068015 -0.029133 -362368.000000 0 0 1
36.724830 -6.894569 28.039783 46.716995 -0.185576 0.927039 0.088535 -0.033258 -482759.000000 0 0 1
37.348420 -5.929169 29.082783 47.706056 -0.157439 0.915209 0.107939 -0.036851 17538.100000 0 0 1
-37.194548 -6.585469 30.072583 48.282119 0.175239 0.898414 0.103887 -0.038824 -1230480.000000 0 0 1
-35.860341 -6.763169 29.797983 47.112889 0.186408 0.886045 0.107081 -0.038276 -1441330.000000 0 0 1
-35.065520 -7.350969 30.954783 47.347926 0.206643 0.858237 0.109634 -0.035799 -286601.000000 0 0 1
-35.291963 -8.700969 31.255183 47.938669 0.241722 0.860600 0.106599 -0.033947 148983.000000 0 0 1
-34.544583 -9.113869 32.396483 48.227823 0.257951 0.834243 0.090525 -0.029455 131979.000000 0 0 1
-34.496912 -10.609669 32.477483 48.552950 0.298373 0.838057 0.101795 -0.026342 -319919.000000 0 0 1
-35.719476 -11.105069 32.935383 49.839171 0.301424 0.848868 0.090624 -0.029390 -243749.000000 0 0 1
-35.775018 -12.490069 32.751483 50.085061 0.335898 0.858046 0.079369 -0.021580 158212.000000 0 0 1
-37.237688 -12.910769 33.011983 51.411326 0.333743 0.873542 0.060098 -0.017992 70425.500000 0 0 1
-37.464498 -14.298169 33.039283 51.957872 0.364584 0.881640 0.057650 -0.029970 -624636.000000 0 0 1
36.455340 -14.527569 33.068283 51.318159 -0.379215 0.870587 0.047475 -0.023791 -623015.000000 0 0 1
36.116260 -16.030369 33.357083 51.711236 -0.417732 0.869689 0.041830 -0.019254 -149125.000000 0 0 1
36.330910 -16.492869 -32.958121 51.751208 -0.426144 2.261211 0.053322 -0.026865 82784.500000 0 0 1
36.607660 -17.864069 -32.961321 52.399374 -0.453991 2.251114 0.045814 -0.037053 -277922.000000 0 0 1
37.079930 -18.453269 -31.643921 52.122760 -0.461775 2.223207 0.044135 -0.024094 -478377.000000 0 0 1
36.031400 -18.569069 -30.749321 50.878216 -0.475858 2.219773 0.037811 -0.018223 -521942.000000 0 0 1
36.401750 -19.419869 -29.678621 50.823609 -0.490077 2.194387 0.028154 -0.014674 -233563.000000 0 0 1
35.290520 -19.614969 -28.625221 49.493142 -0.507296 2.187522 0.019517 -0.016229 1578780.000000 0 0 1
33.947630 -20.098969 -28.877721 48.891031 -0.534559 2.202666 0.026829 -0.010081 1123920.000000 0 0 1
33.154760 -19.242369 -29.645021 48.459613 -0.525868 2.229063 0.027721 -0.002217 -1218520.000000 0 0 1
31.762330 -19.858569 -29.765921 47.845777 -0.558760 2.242247 0.036309 -0.000807 -695647.000000 0 0 1
30.884420 -19.086569 -30.538521 47.442025 -0.553550 2.270122 0.043779 0.008209 -46049.500000 0 0 1
29.589290 -19.664969 -30.476021 46.808385 -0.586569 2.279803 0.056383 -0.002638 58715.900000 0 0 1
28.603190 -19.029569 -31.439521 46.569415 -0.587053 2.311911 0.067914 0.004082 -300245.000000 0 0 1
29.065990 -19.175669 -32.786321 47.827617 -0.583184 2.326101 0.055531 -0.001548 159353.000000 0 0 1
28.036790 -19.140969 -33.770021 47.883741 -0.599027 2.353572 0.097355 -0.009256 93642.400000 0 0 1
28.499590 -19.393369 32.427283 47.327139 -0.597504 0.815955 0.093882 -0.012329 120280.000000 0 0 1
29.337990 -18.360469 31.895483 47.065341 -0.559193 0.826186 0.059793 -0.019887 393577.000000 0 0 1
29.603390 -18.313869 30.498083 46.280574 -0.554013 0.851331 0.056471 -0.023479 144328.000000 0 0 1
28.517690 -17.632169 29.613083 44.733508 -0.553759 0.847327 0.054033 -0.022057 127443.000000 0 0 1
28.362390 -16.282069 29.895783 44.309015 -0.521137 0.830223 0.062017 -0.032988 -370903.000000 0 0 1
27.221390 -15.787669 29.298783 42.996200 -0.525564 0.821085 0.054261 -0.028182 -1006320.000000 0 0 1
27.018890 -14.391969 29.840383 42.750411 -0.489435 0.798176 0.064616 -0.033032 -301722.000000 0 0 1
28.033790 -13.443069 29.552083 42.894465 -0.447139 0.810759 0.067593 -0.028552 153036.000000 0 0 1
28.087790 -12.331169 30.426083 43.205650 -0.413688 0.789479 0.088542 -0.031488 293569.000000 0 0 1
29.522290 -11.738069 30.575283 44.093036 -0.378436 0.804562 0.076284 -0.019761 412988.000000 0 0 1
29.974790 -11.048169 29.441183 43.443450 -0.353132 0.826180 0.073116 -0.023965 389830.000000 0 0 1
31.366170 -10.733469 29.417783 44.322116 -0.329708 0.845006 0.058928 -0.017840 663271.000000 0 0 1
31.942370 -10.132769 28.113383 43.741860 -0.307179 0.872764 0.059258 -0.021385 -39577.000000 0 0 1
31.505160 -8.803169 27.892383 42.989021 -0.272471 0.864756 0.069881 -0.019374 242610.000000 0 0 1
32.221980 -8.226369 26.802783 42.712039 -0.249963 0.892429 0.072997 -0.016166 332935.000000 0 0 1
31.880100 -6.713869 26.722383 42.136713 -0.207564 0.883845 0.081897 -0.022614 777813.000000 0 0 1
30.568900 -6.478669 26.180183 40.765583 -0.208846 0.873415 0.088267 -0.023840 454788.000000 0 0 1
30.235890 -5.109469 26.273883 40.381093 -0.167405 0.862359 0.106662 -0.024383 -82913.900000 0 0 1
28.729390 -4.815869 26.287483 39.237765 -0.166085 0.836650 0.101628 -0.018285 -378848.000000 0 0 1
28.112590 -5.083969 25.042483 37.990662 -0.178909 0.851076 0.119343 -0.022875 341399.000000 0 0 1
26.778190 -4.581069 25.144783 37.017803 -0.169434 0.824040 0.120034 -0.027347 58542.500000 0 0 1
25.984190 -4.707069 23.837683 35.574847 -0.179208 0.836492 0.127138 -0.022781 -569131.000000 0 0 1
26.495390 -3.898669 22.839683 35.197392 -0.146097 0.864655 0.140046 -0.012967 -103044.000000 0 0 1
26.169390 -4.334269 21.546383 34.174105 -0.164134 0.888614 0.152852 -0.016422 -206467.000000 0 0 1
26.458290 -3.422569 20.364983 33.563188 -0.128643 0.918811 0.167011 -0.015365 -218691.000000 0 0 1
25.559490 -2.376169 20.072983 32.586168 -0.092700 0.907145 0.160410 -0.012832 -81095.000000 0 0 1
25.992790 -1.535169 19.027883 32.249685 -0.058993 0.939716 0.152038 -0.021978 221363.000000 0 0 1
24.790790 -0.673569 18.549183 30.969487 -0.027163 0.928607 0.123124 -0.019028 1141950.000000 0 0 1
23.735190 -1.455369 17.914583 29.772632 -0.061240 0.925152 0.145335 -0.025044 913829.000000 0 0 1
22.682390 -0.632469 17.415883 28.604262 -0.027876 0.916178 0.148952 -0.025619 289361.000000 0 0 1
21.525790 -1.421969 16.803983 27.345118 -0.065963 0.909025 0.166196 -0.028542 -151203.000000 0 0 1
21.921390 -2.073669 15.600983 26.985887 -0.094315 0.954378 0.184530 -0.038410 715437.000000 0 0 1
20.755190 -2.658269 15.012483 25.753038 -0.127384 0.948454 0.191099 -0.046491 383251.000000 0 0 1
20.985290 -3.189569 13.553383 25.184319 -0.150836 1.002535 0.200069 -0.062357 -378530.000000 0 0 1
19.902990 -3.920769 13.043983 24.117357 -0.194503 0.999344 0.207891 -0.064413 340587.000000 0 1 0
20.040290 -4.285569 11.679983 23.588161 -0.210674 1.052774 0.190037 -0.056549 -495052.000000 0 1 0
18.911390 -5.234769 11.308883 22.648053 -0.270044 1.047969 0.167822 -0.059861 -564245.000000 0 1 0
18.981190 -6.399969 12.068683 23.385856 -0.325203 1.028543 0.186561 -0.059585 1637100.000000 0 1 0
17.771390 -7.204969 12.044383 22.645111 -0.385174 1.009982 0.148663 -0.045759 736152.000000 0 1 0
18.136490 -8.699869 12.345383 23.601450 -0.447267 1.020339 0.184871 -0.063940 -233364.000000 0 1 0
18.928290 -9.243169 11.328583 23.917632 -0.454265 1.077366 0.163172 -0.072121 242812.000000 0 1 0
18.961990 -10.666469 11.483183 24.600693 -0.512403 1.085147 0.196090 -0.067562 -114510.000000 0 1 0
19.556090 -11.283269 10.219883 24.783035 -0.523313 1.145738 0.186460 -0.060911 320151.000000 0 1 0
18.783290 -10.903769 9.063683 23.534114 -0.525961 1.175448 0.150608 -0.048449 890290.000000 0 1 0
19.412390 -11.439469 7.861283 23.864243 -0.532505 1.235110 0.151243 -0.057513 118633.000000 0 1 0
18.971990 -10.834569 6.493483 22.792314 -0.518885 1.281896 0.125735 -0.039625 -206542.000000 0 1 0
19.391490 -9.467069 6.357783 22.496148 -0.454169 1.284276 0.128732 -0.036406 608867.000000 0 1 0
19.716190 -9.119369 5.022083 22.296016 -0.433227 1.343601 0.094368 -0.032923 -373512.000000 0 1 0
20.452190 -7.778869 4.952483 22.435016 -0.363448 1.348215 0.148380 -0.033392 -185053.000000 0 1 0
20.931590 -7.538069 3.617083 22.539681 -0.345670 1.409623 0.124119 -0.024951 673316.000000 0 1 0
21.409190 -6.191469 3.577083 22.571735 -0.281516 1.411649 0.155800 -0.023021 -111107.000000 0 1 0
22.231390 -5.874469 2.291083 23.108291 -0.258337 1.471488 0.175415 -0.024604 -33777.500000 0 1 0
21.488990 -5.792069 1.095683 22.282847 -0.263280 1.521605 0.155027 -0.029637 351906.000000 0 1 0
22.216190 -5.144169 0.089083 22.804155 -0.227540 1.566890 0.183372 -0.023635 124185.000000 0 1 0
-25.519018 -15.576769 -0.678417 29.905121 0.548030 1.593484 0.137456 -0.010715 211672.000000 0 0 1
-24.526768 -14.575969 -0.969917 28.547538 0.536209 1.604778 0.103792 -0.001492 1109700.000000 0 0 1
-23.232168 -14.894169 -0.444317 27.600132 0.570094 1.586895 0.112222 0.001080 598379.000000 0 0 1
-22.913968 -14.541769 1.029683 27.158299 0.565490 1.532873 0.127194 -0.019464 -467095.000000 0 0 1
-23.668368 -15.207769 2.029983 28.206182 0.571110 1.498765 0.128671 -0.001385 138801.000000 0 0 1
-23.162868 -14.925969 3.323983 27.755213 0.572423 1.450747 0.114382 0.001093 355788.000000 0 0 1
-23.872268 -15.775869 4.430183 28.954960 0.583961 1.417190 0.134146 -0.003569 164326.000000 0 0 1
-23.511568 -17.160069 4.356783 29.432012 0.630484 1.422222 0.161668 -0.026204 -36776.700000 0 0 1
-24.136568 -17.909569 5.332583 30.524793 0.638368 1.395199 0.180296 -0.034506 -143845.000000 0 0 1
-23.859268 -19.433069 5.286183 31.222629 0.683512 1.400671 0.155325 -0.032354 34965.900000 0 0 1
-24.570768 -20.096569 6.294283 32.360666 0.685564 1.375044 0.167006 -0.035657 88002.500000 0 0 1
-24.395568 -21.444769 6.074783 33.044286 0.721116 1.385907 0.166499 -0.038905 -60597.700000 0 0 1
-24.938068 -22.248469 7.249983 34.197425 0.728460 1.357171 0.169606 -0.039911 320386.000000 0 0 1
-24.080268 -22.276569 8.409983 33.864918 0.746509 1.319831 0.158187 -0.040003 -242730.000000 0 0 1
-24.787168 -22.662969 9.521183 34.909408 0.740661 1.294557 0.153187 -0.044860 -647124.000000 0 0 1
-24.007768 -22.844469 10.804683 34.856619 0.760574 1.255629 0.142737 -0.048124 -455257.000000 0 0 1
-23.550468 -21.693669 11.392283 33.985643 0.744382 1.228970 0.131925 -0.039350 -80445.700000 0 0 1
-23.051568 -21.877069 12.696383 34.222494 0.759263 1.190716 0.125194 -0.037594 -637957.000000 0 0 1
-23.702468 -21.063069 13.794583 34.579624 0.726506 1.160455 0.109947 -0.020435 -1099550.000000 0 0 1
-24.942168 -21.622769 14.048183 35.874884 0.714233 1.168439 0.114923 -0.022458 -983915.000000 0 0 1
-25.572918 -20.905669 15.086183 36.312726 0.685316 1.142357 0.107263 -0.009404 -216637.000000 0 0 1
-26.924388 -21.554969 15.455883 37.794493 0.675091 1.149498 0.081127 -0.015771 33514.400000 0 0 1
-27.926878 -21.324769 14.464183 37.998275 0.652144 1.180293 0.080544 -0.004902 285738.000000 0 0 1
-28.211378 -22.442269 13.602583 38.530086 0.671994 1.209980 0.079649 -0.013316 -219651.000000 0 0 1
-29.369378 -23.390369 13.972983 40.061378 0.672554 1.214517 0.070619 -0.013470 -224759.000000 0 0 1
-29.152208 -23.953169 15.244683 40.694052 0.687809 1.186813 0.059754 -0.012067 311260.000000 0 0 1
-30.013998 -25.066849 15.604183 42.103177 0.695822 1.191122 0.051701 -0.014988 266741.000000 0 0 1
-29.809318 -26.430169 14.845583 42.515181 0.725385 1.214097 0.066715 -0.018091 -81863.000000 0 0 1
-30.406178 -26.379099 13.596983 42.488474 0.714599 1.245050 0.087922 -0.033173 -453613.000000 0 0 1
-31.697588 -26.907329 13.571083 43.736892 0.703841 1.255299 0.096912 -0.040588 -631012.000000 0 0 1
-32.412448 -27.295429 12.269283 44.115105 0.699906 1.288960 0.115712 -0.048951 -322199.000000 0 0 1
-31.923988 -28.484539 11.686583 44.351845 0.728523 1.304151 0.119652 -0.057845 -39975.100000 0 0 1
-32.617268 -28.995049 10.577683 44.905305 0.726675 1.333006 0.111413 -0.043475 -95521.700000 0 0 1
-31.943938 -30.307479 10.064683 45.169196 0.759116 1.346088 0.111742 -0.052125 -117558.000000 0 0 1
-32.199878 -31.457799 10.840783 46.302784 0.773741 1.334475 0.106865 -0.043407 148908.000000 0 0 1
-31.462768 -32.597499 10.375283 46.477405 0.803110 1.345667 0.107511 -0.044529 -58353.200000 0 0 1
-31.684778 33.734637 11.124983 47.599539 -0.816722 1.334894 0.095618 -0.041683 1196350.000000 0 0 1
-33.050038 33.233976 11.071683 48.159987 -0.788173 1.338828 0.094654 -0.033404 1164360.000000 0 0 1
-33.158958 32.016558 11.789483 47.576973 -0.767872 1.320390 0.109794 -0.034920 180480.000000 0 0 1
-34.573414 31.671887 12.381383 48.494619 -0.741626 1.312623 0.126873 -0.028258 653211.000000 0 0 1
-35.641794 31.497127 11.487183 48.932217 -0.723744 1.333828 0.079232 -0.028184 149222.000000 0 0 1
-36.181318 32.720609 11.007583 50.008928 -0.735214 1.348867 0.091598 -0.028266 -95856.100000 0 0 1
-37.595678 32.450076 10.368183 50.734029 -0.712069 1.364983 0.071368 -0.014789 564398.000000 0 0 1
37.645910 31.844368 9.093183 50.139448 0.702104 1.388429 0.048921 -0.014662 148127.000000 0 0 1
36.270320 31.669577 8.828383 48.953433 0.717784 1.389462 0.032897 -0.009791 -45978.000000 0 0 1
35.925750 31.302137 7.370583 48.216271 0.716731 1.417330 0.040233 -0.015040 -72075.900000 0 0 1
36.259090 29.992567 7.049283 47.581173 0.691092 1.422096 0.049945 -0.016767 103789.000000 0 0 1
35.998710 29.727967 5.709283 47.034615 0.690280 1.449112 0.062651 -0.020043 -64266.100000 0 0 1
36.332300 28.311577 5.254883 46.359413 0.661954 1.457201 0.078845 -0.017627 22397.700000 0 0 1
35.509300 27.282927 5.839983 45.159427 0.655131 1.441114 0.066788 -0.013650 504306.000000 0 0 1
35.887960 26.914697 7.171583 45.428825 0.643478 1.412269 0.055792 -0.010454 -48975.900000 0 0 1
34.846850 25.908577 7.717583 44.103496 0.639327 1.394903 0.042556 -0.001007 -217878.000000 0 0 1
35.009140 24.603277 7.195683 43.390540 0.612581 1.404191 0.052057 -0.007752 335267.000000 0 0 1
33.871050 23.796727 7.491083 42.067191 0.612448 1.391767 0.051824 -0.009250 -170739.000000 0 0 1
33.791090 22.399027 6.841183 41.113939 0.585368 1.403623 0.072256 -0.009147 693382.000000 0 0 1
34.787610 21.439827 7.288183 41.508572 0.552323 1.394299 0.076755 -0.005321 1087430.000000 0 0 1
36.138190 21.662727 6.902483 42.695278 0.540009 1.408415 0.074803 -0.007685 174690.000000 0 0 1
37.066160 20.440827 6.809483 42.873030 0.503970 1.411292 0.058744 -0.001569 -27556.600000 0 0 1
36.954440 19.724027 5.608283 42.262521 0.490273 1.437703 0.088234 -0.014990 242204.000000 0 0 1
37.376070 18.405727 5.975683 42.088599 0.457587 1.428336 0.103803 -0.019863 -92882.000000 0 0 1
36.945700 17.371027 4.945983 41.124203 0.439506 1.450235 0.113588 -0.029847 -174728.000000 0 0 1
-37.502178 17.300827 3.819383 41.476736 -0.432235 1.478581 0.115298 -0.031423 22212.100000 0 0 1
37.368050 16.300927 2.937583 40.874451 0.411341 1.498866 0.123423 -0.036606 -659610.000000 0 0 1
-37.065528 16.012127 1.668783 40.410721 -0.407781 1.529489 0.134271 -0.027963 -949138.000000 0 0 1
-35.963376 15.238427 1.850183 39.102394 -0.400787 1.523462 0.147120 -0.042827 -840924.000000 0 0 1
-34.793391 15.940227 2.208783 38.334705 -0.429602 1.513146 0.154209 -0.035604 -1237470.000000 0 0 1
-33.556778 15.088627 2.266283 36.862719 -0.422558 1.509279 0.141177 -0.027946 -764469.000000 0 0 1
-33.366878 14.127827 3.304583 36.384946 -0.400522 1.479848 0.166239 -0.032118 -7994.760000 0 0 1
-31.992968 14.081927 3.614383 35.141349 -0.414638 1.467761 0.169399 -0.040464 -213644.000000 0 0 1
-31.801358 13.117227 4.835683 34.738622 -0.391213 1.431141 0.196613 -0.030042 85617.600000 0 0 1
-32.153808 11.739427 4.654383 34.544823 -0.350065 1.435651 0.221018 -0.037002 386104.000000 0 0 1
-31.692228 11.049627 5.831383 34.066062 -0.335475 1.398770 0.206234 -0.019673 115839.000000 0 0 1
-31.983468 9.532427 5.936683 33.897693 -0.289660 1.394753 0.230943 -0.040947 -1181470.000000 0 0 1
-33.289648 9.262027 6.237883 35.112633 -0.271362 1.392195 0.238340 -0.029965 -1129890.000000 0 0 1
-33.424508 7.853727 6.290683 34.906324 -0.230783 1.389590 0.257482 -0.043650 -593800.000000 0 0 1
-34.867427 7.363527 6.244083 36.179380 -0.208128 1.397341 0.239470 -0.037268 -591943.000000 0 0 1
-35.550325 7.521927 7.462683 37.095776 -0.208510 1.368241 0.225699 -0.029819 -453079.000000 0 0 1
-36.869468 7.087527 7.317283 38.250926 -0.189916 1.378313 0.183438 -0.033548 -370488.000000 0 0 1
-37.533748 6.408627 8.507083 39.015679 -0.169112 1.350988 0.176759 -0.031111 -281009.000000 0 0 1
37.082620 7.246027 9.430183 38.942958 0.192971 1.326211 0.184820 -0.026336 360947.000000 0 0 1
-37.429408 7.829427 10.477083 39.648831 -0.206205 1.303373 0.195438 -0.028763 -166305.000000 0 0 1
37.059390 8.754927 11.421783 39.755556 0.231987 1.279389 0.170979 -0.029379 -404868.000000 0 0 1
36.366420 8.102427 12.454083 39.284475 0.219219 1.248207 0.164356 -0.025770 497235.000000 0 0 1
35.714500 9.069127 13.269083 39.164309 0.248678 1.225149 0.178363 -0.031380 -270499.000000 0 0 1
35.090470 8.516927 14.547983 38.929718 0.238109 1.187803 0.177481 -0.034228 661230.000000 0 0 1
33.770480 7.954727 14.390283 37.560661 0.231336 1.177623 0.185171 -0.046541 864355.000000 0 0 1
33.329540 7.294627 15.541783 37.491557 0.215466 1.143358 0.171673 -0.036110 195269.000000 0 0 1
31.798390 7.011727 15.540183 36.080455 0.217033 1.125518 0.150335 -0.036678 -7309.880000 0 0 1
31.127400 8.256027 15.629783 35.796189 0.259264 1.118944 0.121049 -0.038396 146748.000000 0 0 1
29.714590 8.204627 15.590583 34.544740 0.269402 1.102557 0.114979 -0.029215 435027.000000 0 0 1
28.965490 7.786827 16.901683 34.428203 0.262622 1.057645 0.098932 -0.030681 -334940.000000 0 0 1
29.251290 8.647827 17.981883 35.408629 0.287451 1.038122 0.115306 -0.038192 94228.000000 0 0 1
28.586390 8.354127 19.183183 35.425522 0.284324 0.998567 0.102512 -0.027494 -264532.000000 0 0 1
28.930090 7.039227 19.898983 35.811595 0.238680 0.981643 0.104264 -0.027247 -295352.000000 0 0 1
28.155690 6.921727 21.019683 35.811733 0.241057 0.943510 0.060259 -0.007021 -110458.000000 0 0 1
28.716690 5.938427 21.883583 36.589676 0.203919 0.929692 0.076858 -0.006015 -335869.000000 0 0 1
27.817590 5.675427 23.098983 36.600434 0.201261 0.887810 0.079781 0.001076 -727420.000000 0 0 1
26.620790 5.060227 22.798183 35.412279 0.187845 0.871351 0.050741 -0.006851 -791516.000000 0 0 1
25.570190 6.009927 22.945783 34.877827 0.230847 0.852782 0.071512 -0.002652 -362735.000000 0 0 1
24.136790 5.475427 22.827083 33.669580 0.223074 0.825794 0.106969 -0.021422 -366065.000000 0 0 1
23.876890 4.978527 21.504283 32.516546 0.205563 0.848201 0.109263 -0.014640 263000.000000 0 0 1
22.478990 4.970627 21.320583 31.378008 0.217621 0.823749 0.114240 -0.012817 -258320.000000 0 0 1
21.580190 3.761527 21.685183 30.823706 0.172571 0.790454 0.132808 -0.011483 -557713.000000 0 0 1
20.426990 3.515627 20.958783 29.476976 0.170437 0.779846 0.128955 -0.019223 196507.000000 0 0 1
19.260890 4.152827 21.498583 29.161909 0.212358 0.741858 0.144609 -0.024257 453503.000000 0 0 1
18.012690 3.980527 20.580683 27.638128 0.217489 0.730789 0.167282 -0.027190 314225.000000 0 0 1
17.151290 2.902927 20.926583 27.212417 0.167665 0.693507 0.148408 -0.030172 -19544.000000 0 0 1
16.100190 2.796827 20.000383 25.827382 0.171998 0.685051 0.160491 -0.039733 -299788.000000 0 0 1
14.935990 1.878627 20.451183 25.394171 0.125122 0.634531 0.159372 -0.045725 -481204.000000 0 0 1
15.282190 0.565227 20.613183 25.666479 0.036969 0.638288 0.119738 -0.038466 155318.000000 0 0 1
14.339190 -0.086573 21.450183 25.801748 -0.006037 0.589271 0.127817 -0.043141 -306009.000000 0 0 1
14.525590 -1.621373 21.512883 26.008186 -0.111162 0.596765 0.080951 -0.024707 -84476.600000 0 0 1
14.114890 -2.220173 20.337283 24.854866 -0.156015 0.612451 0.078722 -0.022160 62945.000000 0 1 0
14.232390 -3.611473 20.477383 25.197755 -0.248505 0.622082 0.091687 -0.010709 -56637.500000 0 0 1
13.827490 -4.374173 19.162483 24.031929 -0.306378 0.647862 0.102750 -0.018110 121289.000000 0 1 0
12.438890 -4.533173 18.969983 23.133005 -0.349477 0.609316 0.090451 -0.018151 -48265.000000 0 1 0
12.114790 -5.042273 17.658083 22.000012 -0.394400 0.639089 0.091506 -0.020892 407248.000000 0 1 0
10.608390 -5.205173 17.316783 20.964321 -0.456152 0.598801 0.085206 -0.018797 476423.000000 0 1 0
9.992090 -6.133673 18.228383 21.673434 -0.550543 0.571580 0.092755 -0.018147 558998.000000 0 1 0
8.569990 -6.029773 17.954583 20.788698 -0.613132 0.528290 0.072663 -0.028412 1350880.000000 0 1 0
7.710090 -6.867573 18.970483 21.598340 -0.727667 0.498437 0.064487 -0.027828 -124019.000000 0 1 0
7.740390 -8.297973 18.900483 22.045368 -0.820150 0.540707 0.071183 -0.028446 -656959.000000 0 1 0
8.937490 -8.854473 19.331583 23.064920 -0.780732 0.576936 0.125337 -0.038445 -308732.000000 0 1 0
9.070090 -10.320773 18.853983 23.329328 -0.849808 0.629764 0.149533 -0.046527 193919.000000 0 1 0
9.114490 -10.352373 17.437883 22.233428 -0.848902 0.669214 0.124640 -0.036533 -132931.000000 0 1 0
9.851790 -11.453173 16.975983 22.724809 -0.860422 0.727222 0.159450 -0.048277 238315.000000 0 1 0
9.632390 -11.735173 15.470783 21.675847 -0.883492 0.775982 0.132878 -0.041116 224250.000000 0 1 0
10.150090 -13.011373 15.157983 22.407244 -0.908312 0.827828 0.117905 -0.033201 -86886.800000 0 1 0
9.666990 -13.451173 13.880683 21.611527 -0.947648 0.873325 0.082914 -0.017011 18546.300000 0 1 0
10.562390 -14.572273 13.281083 22.367440 -0.943601 0.935062 0.123179 -0.025452 1627700.000000 0 1 0
11.919890 -14.213373 12.887683 22.587521 -0.872935 0.963601 0.098129 -0.025888 1149830.000000 0 1 0
12.024890 -13.517373 11.651383 21.519109 -0.843764 0.998643 0.052498 -0.021825 850846.000000 0 1 0
13.473190 -12.990173 11.229283 21.825861 -0.767148 1.030378 0.101533 -0.037282 1363020.000000 0 1 0
14.261690 -13.888973 10.469383 22.492384 -0.772159 1.086638 0.115347 -0.038444 1096030.000000 0 1 0
15.594990 -13.325173 10.356983 22.978926 -0.707073 1.103228 0.103914 -0.044816 1495210.000000 0 1 0
16.698990 -14.237173 9.738283 24.008072 -0.705988 1.153133 0.108405 -0.048152 416174.000000 0 1 0
17.406590 -15.140873 10.563283 25.373576 -0.715898 1.141413 0.115483 -0.039464 248352.000000 0 0 1
16.653390 -16.311573 10.908183 25.736963 -0.775029 1.133123 0.169890 -0.039166 83386.200000 0 0 1
17.131090 -17.253073 12.047283 27.134476 -0.788946 1.110756 0.152639 -0.033794 424906.000000 0 0 1
18.335490 -18.008073 11.841283 28.296587 -0.776389 1.139036 0.171664 -0.039212 537656.000000 0 0 1
18.568190 -18.926273 12.867783 29.471364 -0.794948 1.118958 0.131879 -0.030959 -591779.000000 0 0 1
19.961290 -19.537073 12.915583 30.772757 -0.774658 1.137672 0.077594 -0.025785 -895218.000000 0 0 1
20.918090 -18.672973 13.429183 31.090020 -0.728751 1.124148 0.078452 -0.026667 447451.000000 0 0 1
22.282990 -19.045473 13.162083 32.132571 -0.707222 1.148761 0.068096 -0.025659 1295380.000000 0 0 1
23.032290 -18.142073 12.118783 31.725165 -0.667183 1.178845 0.100962 -0.027286 -295359.000000 0 0 1
22.742690 -18.432373 10.758583 31.188610 -0.681095 1.218608 0.088281 -0.007157 1169170.000000 0 0 1
21.511390 -17.840973 10.228583 29.760109 -0.692397 1.219941 0.100042 -0.012360 1130680.000000 0 0 1
21.382390 -16.241773 10.141983 28.702989 -0.649608 1.209655 0.133912 -0.033047 -601857.000000 0 0 1
22.242490 -15.586473 9.290983 28.705206 -0.611231 1.241192 0.127657 -0.009626 -416919.000000 0 0 1
22.013790 -14.160573 9.309483 27.781203 -0.571622 1.229085 0.148120 -0.028806 7711.640000 0 0 1
-36.486618 24.658431 7.848483 44.731535 -0.594314 1.394426 0.100771 -0.012010 496076.000000 0 0 1
-35.429218 24.035031 8.601383 43.668020 -0.596079 1.372528 0.117712 -0.017774 1181360.000000 0 0 1
-34.369522 24.977331 8.855183 43.399831 -0.628441 1.365316 0.129085 -0.021199 104292.000000 0 0 1
-33.192298 24.378431 9.626583 42.293116 -0.633481 1.341168 0.158988 -0.024143 -203065.000000 0 0 1
-32.467408 23.413231 8.899883 41.006340 -0.624767 1.352018 0.166536 -0.028656 52267.300000 0 0 1
-31.652198 22.558431 9.670183 40.053176 -0.619197 1.326953 0.167310 -0.033920 -73212.700000 0 0 1
-30.857948 21.558231 8.836283 38.665879 -0.609805 1.340230 0.130835 -0.034985 -581049.000000 0 0 1
-31.625128 20.578031 8.199183 38.611277 -0.576857 1.356815 0.135815 -0.036882 21183.000000 0 0 1
-30.923198 19.661131 7.376683 37.379402 -0.566332 1.372146 0.140909 -0.039572 -153237.000000 0 0 1
-31.930358 19.138531 6.339183 37.762632 -0.539966 1.402129 0.122330 -0.029607 -208959.000000 0 0 1
-32.630268 17.987831 6.735583 37.863763 -0.503812 1.391955 0.146699 -0.032163 78578.400000 0 0 1
-33.537038 17.690131 5.676583 38.339239 -0.485389 1.422188 0.111870 -0.021271 -154630.000000 0 0 1
-34.341108 16.437431 6.047683 38.549647 -0.446424 1.413265 0.105188 -0.010564 -459047.000000 0 0 1
-35.201003 16.565931 7.127583 39.551778 -0.439860 1.389597 0.085711 -0.009217 -150788.000000 0 0 1
-35.982218 15.436631 7.369783 39.841226 -0.405260 1.384746 0.098560 -0.011529 -193009.000000 0 0 1
-36.773178 15.603431 8.690983 40.881131 -0.401291 1.356570 0.107426 -0.014806 -376934.000000 0 0 1
37.420160 16.450731 8.578183 41.766974 0.414190 1.363942 0.121365 -0.020530 -313660.000000 0 0 1
37.051820 17.095331 9.787283 41.962824 0.432285 1.335391 0.118317 -0.016737 -3114.440000 0 0 1
36.001630 18.172031 9.543783 41.441813 0.467445 1.338417 0.083566 -0.015445 -613999.000000 0 0 1
34.732230 17.804231 9.126383 40.082531 0.473688 1.341092 0.109184 -0.021417 -429460.000000 0 0 1
33.895750 18.945931 8.980683 39.856277 0.509686 1.343518 0.081088 -0.013678 1118570.000000 0 0 1
32.366180 18.679231 8.685683 38.365666 0.523427 1.342424 0.070775 -0.014257 445412.000000 0 0 1
31.648930 19.826131 8.889283 38.389446 0.559634 1.337120 0.066680 -0.006912 -116581.000000 0 0 1
30.307420 19.803831 8.406683 37.167240 0.578784 1.342637 0.040900 -0.008273 412067.000000 0 0 1
30.106890 19.951531 6.853583 36.762209 0.585244 1.383269 0.039765 -0.008456 -716796.000000 0 0 1
30.225590 18.666331 6.235183 36.067932 0.553236 1.397050 0.061800 -0.013192 242913.000000 0 0 1
29.912290 18.577231 4.833083 35.541768 0.555759 1.434391 0.067378 -0.025513 -383606.000000 0 0 1
28.523490 19.006531 4.323983 34.547569 0.587781 1.445307 0.102101 -0.024156 -354481.000000 0 0 1
27.496590 18.207631 4.901283 33.340709 0.584888 1.423256 0.091335 -0.021174 1612970.000000 0 0 1
26.124390 18.580431 4.584383 32.384143 0.618223 1.428757 0.123649 -0.020099 1872750.000000 0 0 1
25.399290 19.842431 5.157383 32.641149 0.663184 1.412129 0.125447 -0.018237 -288577.000000 0 0 1
25.889890 20.909631 4.422483 33.571676 0.679380 1.438680 0.103739 -0.022131 70067.100000 0 0 1
25.508990 22.227231 4.815783 34.175285 0.716758 1.429412 0.126552 -0.016142 -639391.000000 0 0 1
26.451590 23.330131 4.359583 35.538536 0.722777 1.447815 0.100147 -0.014309 342247.000000 0 0 1
27.692690 23.200431 5.076583 36.481732 0.697358 1.431189 0.083384 -0.017933 398192.000000 0 0 1
28.544890 24.312431 4.945183 37.820099 0.705495 1.439665 0.082046 -0.019896 -768645.000000 0 0 1
29.902990 24.148131 5.632283 38.846411 0.679327 1.425295 0.059762 -0.018042 -164141.000000 0 0 1
30.745790 23.100931 5.124483 38.797125 0.644366 1.438325 0.049245 -0.017859 438876.000000 0 0 1
31.110930 22.877531 3.785983 38.802127 0.634061 1.473069 0.058893 -0.027245 -403947.000000 0 0 1
31.937400 23.981531 3.098383 40.058848 0.644072 1.493373 0.085124 -0.036980 -503288.000000 0 0 1
31.207150 25.172231 3.047883 40.209663 0.678763 1.494924 0.062646 -0.038875 -755571.000000 0 0 1
31.965740 26.172231 2.532183 41.390894 0.686075 1.509581 0.115967 -0.035227 -1634220.000000 0 0 1
31.358390 27.590531 2.651283 41.852303 0.721568 1.507405 0.107294 -0.032837 -151512.000000 0 0 1
30.167190 27.918331 1.988383 41.151503 0.746701 1.522459 0.139117 -0.032250 -776278.000000 0 0 1
29.099790 27.380731 2.697283 40.047191 0.754971 1.503393 0.107967 -0.024914 -1259530.000000 0 0 1
27.718390 28.007131 2.385483 39.476563 0.790580 1.510332 0.076149 -0.016004 84183.500000 0 0 1
27.563390 29.402131 2.690283 40.391378 0.817665 1.504142 0.077404 -0.017681 566161.000000 0 0 1
26.169590 29.699831 2.588483 39.668976 0.848502 1.505498 0.064744 -0.008445 509678.000000 0 0 1
25.872990 31.147131 3.067483 40.607448 0.877632 1.495184 0.076817 -0.013042 -587509.000000 0 0 1
25.964890 31.402231 4.455983 40.989406 0.879897 1.461870 0.072396 -0.024793 476772.000000 0 0 1
27.282390 31.475831 5.004783 41.953600 0.856645 1.451218 0.081504 -0.031237 309889.000000 0 0 1
27.321490 31.234531 6.537483 42.009504 0.852125 1.414542 0.097000 -0.040018 113997.000000 0 0 1
26.815490 29.991131 7.006483 40.836616 0.841243 1.398370 0.099457 -0.043974 -14660.300000 0 0 1
27.645890 28.940031 6.645583 40.570733 0.808265 1.406252 0.082224 -0.046528 -378068.000000 0 0 1
27.102590 27.596231 7.130683 39.331272 0.794423 1.388490 0.103074 -0.046470 -294330.000000 0 0 1
25.779490 27.412431 6.708283 38.223351 0.816088 1.394380 0.094462 -0.052501 -381175.000000 0 0 1
25.214890 26.172631 7.169983 37.043298 0.804034 1.376010 0.114278 -0.042941 160870.000000 0 0 1
23.767790 26.072131 6.602383 35.892274 0.831600 1.385793 0.124671 -0.029523 218855.000000 0 0 1
23.623590 25.858031 5.177983 35.405131 0.830525 1.424020 0.082553 -0.031016 277819.000000 0 0 1
24.068390 26.942531 4.349983 36.388318 0.841682 1.450966 0.072128 -0.019055 -254400.000000 0 0 1
23.822190 26.477531 2.952083 35.738931 0.838140 1.488101 0.069025 -0.014400 343378.000000 0 0 1
24.968990 25.847431 2.392383 36.017546 0.802683 1.504325 0.060370 -0.003505 532990.000000 0 0 1
24.696190 25.625631 1.053383 35.604555 0.803866 1.541206 0.078866 -0.005203 337520.000000 0 0 1
25.873690 24.994331 0.227683 35.975217 0.768113 1.564467 0.099814 -0.013254 -15480.800000 0 0 1
27.071390 25.759731 0.133183 37.368993 0.760576 1.567232 0.087073 -0.012067 1137940.000000 0 0 1
28.167990 25.083631 -0.524217 37.721333 0.727542 1.584694 0.102076 -0.012147 988300.000000 0 0 1
28.829390 23.883231 0.265583 37.438122 0.691840 1.563702 0.093788 -0.017326 -385270.000000 0 0 1
27.979190 22.728531 0.256283 36.048396 0.682218 1.563687 0.095271 -0.018409 698724.000000 0 0 1
28.481290 21.779431 1.119383 35.871723 0.652838 1.539586 0.095813 -0.023411 24972.200000 0 0 1
27.285090 20.870431 1.471283 34.383363 0.652971 1.527993 0.095290 -0.026160 66076.400000 0 0 1
26.955690 19.856331 0.572983 33.484495 0.634888 1.553684 0.128886 -0.040052 158314.000000 0 0 1
25.664190 19.369831 0.834483 32.164225 0.646529 1.544849 0.101821 -0.033881 -234011.000000 0 0 1
25.101590 18.394531 -0.249217 31.120904 0.632404 1.578804 0.126517 -0.033974 1653980.000000 0 0 1
23.689490 18.070631 0.020083 29.794966 0.651651 1.570122 0.102855 -0.028766 1767260.000000 0 0 1
23.248090 17.152131 -0.935917 28.905799 0.635639 1.603180 0.128357 -0.045873 -114412.000000 0 0 1
21.862390 16.569131 -0.628417 27.438934 0.648527 1.593701 0.098491 -0.028828 -901227.000000 0 0 1
21.350990 15.720531 -1.669617 26.566661 0.634669 1.633684 0.109379 -0.034100 972613.000000 0 0 1
19.979190 15.354731 -1.469517 25.240746 0.655259 1.629049 0.115515 -0.033736 739155.000000 0 0 1
18.852090 16.392631 -1.628317 25.035396 0.715729 1.635883 0.104746 -0.034136 -653041.000000 0 0 1
18.899390 17.439231 -0.685817 25.725164 0.745238 1.597459 0.093901 -0.033270 -154470.000000 0 0 1
18.007290 18.461131 -1.076117 25.811506 0.797842 1.612500 0.063724 -0.031088 -20463.400000 0 0 1
18.034290 19.815431 -0.436317 26.796964 0.832422 1.587079 0.064349 -0.025096 -306886.000000 0 0 1
17.728890 19.787231 0.931483 26.584125 0.840209 1.535750 0.072531 -0.022332 132265.000000 0 0 1
17.754490 21.092931 1.560783 27.614664 0.871125 1.514246 0.083737 -0.018270 -180406.000000 0 0 1
16.795990 22.212131 1.078783 27.868402 0.923363 1.532077 0.065234 -0.023425 -408770.000000 0 0 1
15.461290 21.876631 1.335683 26.822053 0.955555 1.520978 0.057182 -0.024542 -207532.000000 0 0 1
14.587390 22.933831 0.939483 27.196235 1.004280 1.536245 0.045530 -0.022189 -242683.000000 0 0 1
13.186690 22.829331 1.521383 26.407986 1.046995 1.513154 0.044846 -0.022415 -501341.000000 0 0 1
13.115390 23.054731 2.921583 26.684635 1.053573 1.461091 0.040517 -0.008006 717744.000000 0 0 1
11.779790 23.160731 3.446683 26.211878 1.100284 1.438921 0.033658 -0.008810 861871.000000 0 0 1
11.727690 23.556331 4.935483 26.773092 1.108864 1.385391 0.052543 -0.012257 123678.000000 0 0 1
12.280890 22.561831 5.787483 26.331567 1.072323 1.349194 0.067780 -0.036046 409971.000000 0 0 1
11.403290 22.347231 6.904883 26.021360 1.098961 1.302225 0.063760 -0.026357 -334742.000000 0 0 1
11.984990 21.299531 7.902683 25.685841 1.058264 1.258056 0.072858 -0.027370 846530.000000 0 0 1
13.220390 21.661831 8.557083 26.781286 1.022832 1.245576 0.089552 -0.029689 436736.000000 0 0 1
14.330390 21.526731 7.719383 26.987944 0.983462 1.280714 0.097808 -0.029055 -276349.000000 0 0 1
15.728290 21.602931 8.450883 28.026472 0.941484 1.264497 0.115463 -0.033497 310354.000000 0 0 1
16.008290 20.360931 9.081983 27.446589 0.904511 1.233543 0.126692 -0.040346 1288990.000000 0 0 1
17.410090 20.243931 9.440983 28.320666 0.860517 1.230931 0.122242 -0.041220 1231960.000000 0 0 1
17.975890 21.111431 10.525083 29.658093 0.865446 1.208010 0.090665 -0.030392 -844693.000000 0 0 1
17.358490 20.796231 11.726283 29.517895 0.875256 1.162267 0.102262 -0.043798 -32558.800000 0 0 1
17.775990 21.691431 12.697883 30.785390 0.884282 1.145638 0.103275 -0.043418 -266112.000000 0 0 1
18.620490 21.063931 13.807583 31.321896 0.846892 1.114275 0.093049 -0.027149 506908.000000 0 0 1
20.017490 21.231731 13.580683 32.185731 0.814826 1.135204 0.104851 -0.025896 -45135.400000 0 0 1
20.836190 20.570031 14.533383 32.687799 0.778970 1.110055 0.100934 -0.026865 772038.000000 0 0 1
22.294190 21.001431 14.144783 33.736714 0.755548 1.138156 0.113087 -0.025773 449755.000000 0 0 1
22.932490 20.455631 12.997983 33.365843 0.728374 1.170643 0.128704 -0.029028 1088550.000000 0 0 1
24.295890 20.947531 12.978183 34.605239 0.711525 1.186362 0.124660 -0.024256 1660990.000000 0 0 1
25.178890 20.407831 11.762283 34.479086 0.681119 1.222664 0.130886 -0.030332 489539.000000 0 0 1
24.801990 21.026131 10.563983 34.188223 0.703192 1.256660 0.143049 -0.029413 362576.000000 0 0 1
25.697990 20.759631 9.485383 34.370357 0.679498 1.291192 0.163035 -0.034061 -108567.000000 0 0 1
25.608690 21.758931 8.296583 34.613427 0.704302 1.328747 0.142429 -0.032164 73568.500000 0 0 1
25.916390 23.137231 8.620883 35.795396 0.728803 1.327567 0.127847 -0.038190 824569.000000 0 0 1
27.319390 23.401431 8.705683 37.010336 0.708306 1.333348 0.093614 -0.036310 163078.000000 0 0 1
27.838990 24.664631 9.383483 38.358873 0.725012 1.323665 0.099354 -0.039041 -276397.000000 0 0 1
29.145890 24.944831 8.942283 39.391521 0.707887 1.341790 0.074424 -0.026968 -271811.000000 0 0 1
29.710190 25.944031 9.680483 40.614035 0.717831 1.330127 0.070861 -0.022114 1465040.000000 0 0 1
31.094310 26.513231 9.090583 41.862229 0.706043 1.351898 0.056793 -0.020925 1538100.000000 0 0 1
30.804900 27.263131 7.900283 41.888359 0.724480 1.381057 0.074818 -0.031667 462999.000000 0 0 1
31.972400 27.729731 7.232983 42.935863 0.714453 1.401529 0.055387 -0.018457 -233513.000000 0 0 1
31.676560 28.640731 6.035183 43.129101 0.735110 1.430403 0.090675 -0.019206 113842.000000 0 0 1
31.371820 30.003031 6.425983 43.882413 0.763100 1.423831 0.101160 -0.022152 168243.000000 0 0 1
31.422260 30.827731 5.271083 44.333867 0.775848 1.451619 0.117574 -0.031896 16507.600000 0 0 1
31.522200 32.353331 5.590383 45.515266 0.798409 1.447661 0.089285 -0.025605 -509010.000000 0 0 1
30.376020 32.925931 6.116383 45.213158 0.825658 1.435101 0.087488 -0.032330 -677789.000000 0 0 1
30.296980 -33.356465 6.059783 45.467370 -0.833426 1.437121 0.092076 -0.034055 36644.000000 0 0 1
28.997090 -32.663665 6.561683 44.167883 -0.844792 1.421682 0.120882 -0.036350 858061.000000 0 0 1
27.907790 -32.956965 5.660283 43.555081 -0.868166 1.440471 0.111975 -0.037354 89733.100000 0 0 1
26.714190 -32.395665 6.166683 42.440017 -0.881221 1.424977 0.107260 -0.040036 430001.000000 0 0 1
25.507090 -32.461365 5.175283 41.606915 -0.904794 1.446088 0.096019 -0.027667 162403.000000 0 0 1
25.721490 -31.634865 4.059383 40.973629 -0.888134 1.471560 0.085671 -0.016348 -126425.000000 0 0 1
24.873990 -31.841765 2.956283 40.513615 -0.907640 1.497761 0.083282 -0.018883 -206000.000000 0 0 1
25.222590 -31.043265 1.640783 40.031931 -0.888481 1.529798 0.079448 -0.001625 5164.640000 0 0 1
25.269290 -29.688365 1.824783 39.029039 -0.865634 1.524025 0.089352 0.001663 108567.000000 0 0 1
25.836790 -29.094065 0.671083 38.915995 -0.844627 1.553551 0.076905 0.008729 -229105.000000 0 0 1
26.205490 -27.603765 0.889683 38.072130 -0.811378 1.547426 0.099684 -0.009571 114817.000000 0 0 1
25.152390 -26.646065 0.897183 36.653246 -0.814226 1.546316 0.096395 -0.008160 56762.300000 0 0 1
24.585390 -26.402965 -0.404617 36.079380 -0.821030 1.582011 0.091751 -0.011639 507596.000000 0 0 1
23.266490 -25.559465 -0.278017 34.564333 -0.832326 1.578840 0.060505 0.002240 532137.000000 0 0 1
23.545190 -24.189065 0.013883 33.756289 -0.798886 1.570385 0.079997 -0.012966 -139352.000000 0 0 1
23.615790 -23.788065 1.413883 33.549614 -0.789032 1.528641 0.073624 -0.001283 -506493.000000 0 0 1
22.312590 -23.625265 2.178883 32.569193 -0.813965 1.503846 0.065932 -0.001599 -445300.000000 0 0 1
22.399790 -22.870565 3.373583 32.189973 -0.795797 1.465801 0.061567 0.001532 -345390.000000 0 0 1
21.130490 -22.824065 3.975083 31.356607 -0.823909 1.443684 0.063338 -0.000639 -122803.000000 0 0 1
21.049090 -22.119665 5.339583 30.997660 -0.810193 1.397675 0.047249 0.001959 -257791.000000 0 0 1
21.226090 -20.706665 5.332983 30.128949 -0.773012 1.392853 0.073607 0.005068 301575.000000 0 0 1
20.123190 -19.930065 4.874083 28.738597 -0.780577 1.400372 0.055477 0.007409 -131308.000000 0 0 1
20.158890 -18.396565 5.248483 27.791384 -0.739721 1.380802 0.057307 0.006697 32758.400000 0 0 1
19.821990 -18.114765 6.601683 27.652092 -0.740427 1.329727 0.084509 -0.009546 1141030.000000 0 0 1
18.400790 -18.056765 6.878683 26.682431 -0.775962 1.310054 0.076372 -0.007106 1253920.000000 0 0 1
19.352932 -26.154089 -11.497817 34.507566 -0.933753 1.910489 0.124707 -0.020223 18260.700000 0 0 1
19.412732 -24.901069 -12.114617 33.818358 -0.908622 1.937163 0.142010 -0.019579 -7748.160000 0 0 1
18.161932 -24.379269 -12.545017 32.887414 -0.930519 1.962164 0.086274 -0.015811 -51463.500000 0 0 1
18.314932 -22.937369 -13.074217 32.132457 -0.896986 1.989838 0.080797 -0.017125 89148.000000 0 0 1
18.562832 -21.893269 -12.167217 31.175874 -0.867535 1.971728 0.092888 -0.022869 644515.000000 0 0 1
19.835032 -21.920569 -11.480417 31.713401 -0.835303 1.941214 0.092847 -0.026917 162463.000000 0 0 1
19.829932 -22.593069 -10.030817 31.690539 -0.850439 1.892859 0.104860 -0.021825 535463.000000 0 0 1
18.938932 -21.987469 -9.051417 30.398357 -0.859749 1.873142 0.093519 -0.022089 840026.000000 0 0 1
17.552232 -22.177669 -9.316717 29.778030 -0.901298 1.889012 0.083013 -0.009468 307641.000000 0 0 1
16.678732 -21.378069 -8.268517 28.347316 -0.908258 1.866785 0.069909 -0.011951 -440481.000000 0 0 1
16.619332 -19.970769 -8.380017 27.299423 -0.876737 1.882801 0.060079 -0.019586 103128.000000 0 0 1
15.800932 -19.334569 -7.406417 26.045154 -0.885633 1.859144 0.072804 -0.026379 513158.000000 0 0 1
14.297532 -19.199469 -7.820217 25.183225 -0.930706 1.886550 0.060740 -0.010170 350402.000000 0 0 1
13.796532 -20.540669 -7.872217 25.966039 -0.979339 1.878818 0.053066 -0.011551 -1309560.000000 0 0 1
12.423632 -20.475869 -8.073417 25.274254 -1.025432 1.895927 0.057818 -0.021264 -833134.000000 0 0 1
11.728332 -21.825469 -8.020017 26.042764 -1.077702 1.883840 0.066115 -0.016874 -205348.000000 0 0 1
11.653032 -22.318469 -6.685217 26.049939 -1.089606 1.830331 0.062163 -0.016356 -74348.100000 0 0 1
10.971132 -23.533869 -6.449917 26.754629 -1.134565 1.814271 0.058262 -0.014702 -145159.000000 0 0 1
11.315432 -24.142769 -5.104517 27.147162 -1.132510 1.759954 0.063961 -0.014332 5806.100000 0 0 1
10.416232 -25.010099 -4.433517 27.452851 -1.176163 1.733002 0.066360 -0.013288 -259442.000000 0 0 1
11.114532 -25.699419 -3.404917 28.206141 -1.162606 1.691807 0.072448 -0.017094 276892.000000 0 0 1
10.254732 -26.508409 -2.401017 28.524028 -1.201679 1.655071 0.079613 -0.016633 477100.000000 0 0 1
9.488532 -25.853819 -1.384017 27.574766 -1.219052 1.621009 0.060313 -0.009312 102275.000000 0 0 1
8.696032 -26.757969 -0.622217 28.142442 -1.256575 1.592908 0.059101 -0.014817 227145.000000 0 0 1
7.880332 -26.069409 0.495483 27.238928 -1.277247 1.552605 0.056343 -0.013132 877289.000000 0 0 1
6.605532 -25.560959 0.056283 26.400736 -1.317906 1.568664 0.052254 -0.018716 771197.000000 0 0 1
5.865232 -25.025139 1.170783 25.729929 -1.340578 1.525278 0.049417 -0.021218 -346591.000000 0 0 1
4.442632 -24.557069 0.925683 24.972855 -1.391822 1.533720 0.050899 -0.032867 -335525.000000 0 1 0
3.591432 -25.681699 0.793383 25.943737 -1.431853 1.540211 0.055927 -0.030072 -875367.000000 0 0 1
2.254332 -25.326459 0.827883 25.440065 -1.482019 1.538248 0.071574 -0.033552 -208741.000000 0 0 1
1.180432 -26.361349 0.351983 26.390112 -1.526047 1.557458 0.082857 -0.028334 407658.000000 0 0 1
0.851132 -27.399819 1.264983 27.442206 -1.539743 1.524684 0.074225 -0.023634 331046.000000 0 0 1
1.768232 -28.505269 1.206083 28.585514 -1.508844 1.528592 0.045897 -0.023126 474160.000000 0 0 1
0.999232 -29.652599 1.899283 29.730159 -1.537111 1.506869 0.075970 -0.026687 194758.000000 0 0 1
1.110732 -29.630379 3.317183 29.836166 -1.533328 1.459386 0.057410 -0.025048 -140087.000000 0 0 1
0.415932 -30.616039 4.026283 30.882451 -1.557212 1.440050 0.083275 -0.032323 -283156.000000 0 0 1
0.413932 -30.506809 5.513683 31.003829 -1.557229 1.392007 0.081560 -0.030781 -163505.000000 0 0 1
1.723132 -30.756519 5.990283 31.381780 -1.514830 1.378734 0.061417 -0.014106 108063.000000 0 0 1
1.814332 -30.606669 7.474183 31.558254 -1.511587 1.331687 0.058459 -0.012280 -618036.000000 0 0 1
3.245332 -30.763729 7.982483 31.947758 -1.465693 1.318260 0.067517 -0.016605 -101593.000000 0 0 1
3.698932 -32.105629 7.679383 33.217863 -1.456091 1.337504 0.060542 -0.016044 -300091.000000 0 0 1
5.078832 -32.265619 7.899383 33.604538 -1.414670 1.333507 0.053353 -0.015392 -98564.600000 0 0 1
5.441032 -33.762969 7.841383 35.086040 -1.411016 1.345403 0.039704 -0.004778 -83284.900000 0 0 1
5.274132 33.351179 6.550583 34.395171 1.413956 1.379175 0.040403 -0.002057 -69412.700000 0 0 1
5.338232 31.908006 6.491583 32.996337 1.405031 1.372768 0.033479 -0.013420 -420710.000000 0 0 1
5.535132 31.390577 5.052283 32.272769 1.396259 1.413600 0.042712 -0.018537 502692.000000 0 0 1
6.862432 31.630797 4.578883 32.688935 1.357153 1.430260 0.047583 -0.014373 151881.000000 0 0 1
7.676332 30.500677 4.742783 31.807411 1.324240 1.421129 0.038609 -0.012904 -396036.000000 0 0 1
8.968532 30.610287 3.913783 32.136303 1.285782 1.448706 0.030789 -0.008031 -968975.000000 0 0 1
10.007932 31.195397 4.571483 33.078845 1.260355 1.432153 0.036502 -0.014397 -639722.000000 0 0 1
11.211632 31.189047 3.782283 33.358103 1.225707 1.457168 0.040647 -0.020970 1110820.000000 0 0 1
12.383432 31.818645 4.630583 34.456028 1.199645 1.435997 0.056098 -0.031447 217253.000000 0 0 1
12.848732 30.842157 5.591083 33.876080 1.176065 1.404993 0.049791 -0.025285 -19772.900000 0 0 1
13.897732 31.395327 6.363883 34.918656 1.154056 1.387523 0.081495 -0.026556 241564.000000 0 0 1
14.733232 30.346817 7.100683 34.473427 1.118820 1.363336 0.058229 -0.024236 -26660.800000 0 0 1
14.213332 30.214777 8.435783 34.440006 1.131100 1.323337 0.059636 -0.018748 357350.000000 0 0 1
14.831832 29.140477 9.129583 33.948490 1.099993 1.298520 0.062220 -0.019970 -2927.740000 0 0 1
14.630032 28.919427 10.639183 34.111044 1.102448 1.253606 0.052003 -0.008587 -279186.000000 0 0 1
15.442632 29.760707 11.404183 35.415110 1.092149 1.242940 0.065550 -0.013350 -136506.000000 0 0 1
14.937032 29.959827 12.687783 35.800643 1.108294 1.208523 0.067855 -0.014490 -276371.000000 0 0 1
15.811532 30.904827 13.482283 37.240903 1.097896 1.200353 0.074068 -0.015295 257141.000000 0 0 1
17.089532 30.383377 13.794783 37.489969 1.058435 1.193983 0.084294 -0.018448 323873.000000 0 0 1
17.810632 31.124067 14.781083 38.786681 1.051034 1.179825 0.075643 -0.015973 267014.000000 0 0 1
19.000032 30.398487 15.425883 39.025980 1.012174 1.164432 0.089303 -0.023080 1240380.000000 0 0 1
20.211432 30.128447 14.658183 39.129115 0.979909 1.186820 0.080254 -0.022833 1263830.000000 0 0 1
20.719732 28.817717 14.830383 38.466978 0.947437 1.175008 0.071740 -0.014528 98740.200000 0 0 1
22.158132 28.540307 14.357183 38.880081 0.910624 1.192575 0.103436 -0.021194 246039.000000 0 0 1
23.217832 29.043857 15.144983 40.149519 0.896418 1.184010 0.111330 -0.019230 -784840.000000 0 0 1
24.433232 28.835987 14.518783 40.488172 0.867862 1.204036 0.113681 -0.019640 -203670.000000 0 0 1
25.618732 29.033227 15.540783 41.722460 0.847794 1.189116 0.115986 -0.021784 197470.000000 0 0 1
25.752332 28.001547 16.455483 41.449393 0.827217 1.162548 0.109685 -0.017414 -88086.200000 0 0 1
26.818632 28.056177 17.370483 42.522016 0.807946 1.149980 0.111233 -0.023161 -401518.000000 0 0 1
27.638432 26.734847 17.564383 42.274609 0.768782 1.142323 0.078242 -0.018726 30794.100000 0 0 1
27.001732 25.583127 18.120783 41.375751 0.758427 1.117472 0.083969 -0.021179 -8978.300000 0 0 1
26.712132 25.688447 19.523283 41.887861 0.765865 1.085936 0.119022 -0.022736 257445.000000 0 0 1
26.012832 24.403807 20.018483 40.901747 0.753494 1.059362 0.126235 -0.024604 -302197.000000 0 0 1
26.920832 23.380157 19.912283 40.839466 0.715124 1.061487 0.084526 -0.019621 -58258.900000 0 0 1
26.271232 22.111927 19.892983 39.684326 0.699643 1.045718 0.096160 -0.023805 671053.000000 0 0 1
27.350032 21.006127 20.039983 39.885869 0.654952 1.044386 0.065047 -0.019113 435381.000000 0 0 1
26.655632 19.775827 19.919383 38.709016 0.638297 1.030264 0.054415 -0.012686 58000.700000 0 0 1
27.444632 18.616027 19.946383 38.699128 0.596022 1.029296 0.051597 -0.020102 -90672.100000 0 0 1
28.005532 18.189327 21.351283 39.636331 0.576017 1.001927 0.058577 -0.016454 -233588.000000 0 0 1
26.990632 17.845127 22.232483 39.258453 0.584181 0.968774 0.049265 -0.008007 -200794.000000 0 0 1
27.515432 17.591227 23.551683 40.264526 0.568832 0.946010 0.075849 -0.007380 -278043.000000 0 0 1
26.549832 16.813427 24.400883 39.786782 0.564530 0.910576 0.075266 -0.012330 -455629.000000 0 0 1
26.328732 15.569627 23.856683 38.791195 0.534039 0.908407 0.060963 -0.025660 -602549.000000 0 0 1
25.243732 15.057327 24.523083 38.279900 0.537826 0.875484 0.056817 -0.024399 -952296.000000 0 0 1
24.754832 13.726227 23.872083 37.028197 0.506281 0.870165 0.050877 -0.019839 348300.000000 0 0 1
23.663332 13.052527 24.514583 36.486800 0.504065 0.834058 0.048496 -0.019950 377667.000000 0 0 1
23.211332 11.989227 23.761583 35.314591 0.476780 0.832736 0.059343 -0.022363 -689005.000000 0 0 1
21.905232 11.285527 24.106683 34.472228 0.475732 0.796368 0.070130 -0.025264 -335296.000000 0 0 1
20.741132 12.036727 23.890383 33.850078 0.525832 0.787286 0.097828 -0.036747 -559945.000000 0 0 1
19.575732 11.260327 23.955483 32.922173 0.521999 0.755921 0.109180 -0.032588 -125006.000000 0 0 1
18.329132 12.169827 23.965783 32.533376 0.586127 0.742690 0.093651 -0.043886 -194363.000000 0 0 1
18.018932 12.725627 25.245883 33.525783 0.614899 0.718143 0.109365 -0.018189 691019.000000 0 0 1
16.685132 13.232027 25.248383 33.029699 0.670484 0.700664 0.118885 -0.022055 278380.000000 0 0 1
16.411732 13.748727 26.691783 34.217302 0.697332 0.676024 0.098381 -0.001319 -190796.000000 0 0 1
15.970232 12.657927 27.515183 34.239696 0.670209 0.637469 0.107634 -0.003658 95990.800000 0 0 1
16.122932 12.863427 28.917183 35.519293 0.673419 0.619574 0.092301 -0.017189 396965.000000 0 0 1
17.577632 12.783527 29.494683 36.637796 0.628789 0.635063 0.086776 -0.007094 661619.000000 0 0 1
18.267332 14.064627 29.411783 37.370606 0.656137 0.664817 0.110024 -0.024523 -428831.000000 0 0 1
19.628732 13.865127 29.549883 38.088377 0.614988 0.682776 0.095346 -0.010696 -1184310.000000 0 0 1
20.435032 15.035527 28.985083 38.520030 0.634333 0.718995 0.122171 -0.012877 -559012.000000 0 0 1
20.379932 15.267127 27.591183 37.545975 0.642941 0.745330 0.124903 -0.023944 238559.000000 0 0 1
20.940732 14.348927 26.671783 36.821054 0.600735 0.760687 0.107194 -0.028524 -213878.000000 0 0 1
20.912632 14.996427 25.268783 36.065807 0.622110 0.794516 0.104556 -0.033432 13800.300000 0 0 1
21.722932 16.158027 25.132283 36.940483 0.639536 0.822563 0.108064 -0.032555 268835.000000 0 0 1
21.785532 16.510627 23.760383 36.218311 0.648520 0.855247 0.098116 -0.032800 170109.000000 0 0 1
22.888132 17.563727 23.394083 37.143428 0.654527 0.889461 0.088120 -0.025944 -49378.300000 0 0 1
22.836332 18.120727 22.066183 36.561938 0.670768 0.922877 0.090624 -0.023521 835846.000000 0 0 1
24.020332 18.853427 21.637683 37.424824 0.665462 0.954320 0.076231 -0.020562 625232.000000 0 0 1
24.130732 20.272727 22.353483 38.638762 0.698731 0.953877 0.103844 -0.031617 -1023680.000000 0 0 1
23.118832 21.133527 22.064883 38.314037 0.740565 0.957097 0.108532 -0.025034 -766476.000000 0 0 1
22.990532 22.105927 23.046583 39.349480 0.765785 0.945066 0.127331 -0.031307 115301.000000 0 0 1
22.160332 23.338437 22.533983 39.287955 0.811285 0.959952 0.131091 -0.037253 584513.000000 0 0 1
22.813932 24.255757 21.576883 39.678447 0.816020 0.995845 0.136843 -0.035090 220171.000000 0 0 1
21.933032 25.264167 21.147283 39.579586 0.855860 1.007120 0.125993 -0.031284 -67579.200000 0 0 1
22.417132 26.042137 19.905283 39.710717 0.860064 1.045745 0.122018 -0.031553 -101812.000000 0 0 1
22.372632 25.208197 18.715083 38.551812 0.844922 1.063915 0.105093 -0.034464 427592.000000 0 0 1
23.006532 25.998137 17.679883 38.958721 0.846370 1.099759 0.107131 -0.037620 217385.000000 0 0 1
22.828332 25.258587 16.329283 37.759429 0.835894 1.123582 0.093903 -0.016418 -43512.000000 0 0 1
21.543632 25.299937 15.725883 36.763002 0.865415 1.128779 0.083507 -0.020447 13077.900000 0 0 1
21.472632 24.856397 14.367583 35.851665 0.858306 1.158460 0.095597 -0.013518 784731.000000 0 0 1
19.971432 24.540537 13.992483 34.596035 0.887689 1.154415 0.091124 -0.019534 827653.000000 0 0 1
19.147332 25.634757 13.769883 34.833472 0.929264 1.164395 0.080473 -0.015914 -573562.000000 0 0 1
18.295732 25.959957 14.834883 35.053202 0.956878 1.133810 0.080075 -0.017399 -95105.800000 0 0 1
16.793232 25.874667 14.385283 34.035973 0.995109 1.134430 0.079886 -0.023958 -41110.300000 0 0 1
16.263932 24.582977 14.262083 32.745157 0.986314 1.120150 0.083207 -0.023866 -77627.700000 0 0 1
16.044032 23.899457 15.472683 32.680253 0.979583 1.077585 0.099420 -0.030477 -29358.900000 0 0 1
14.893332 24.455817 16.389083 32.992429 1.023793 1.050943 0.129797 -0.045109 -342918.000000 0 0 1
15.309932 25.620077 16.984483 34.340283 1.032161 1.053429 0.113474 -0.044909 147466.000000 0 0 1
14.312032 26.060497 17.876283 34.692150 1.068579 1.029458 0.117841 -0.049026 -84616.900000 0 0 1
14.762532 27.314397 18.630683 36.209267 1.075302 1.030339 0.118340 -0.053824 -327803.000000 0 0 1
14.799132 28.480617 17.830183 36.716145 1.091575 1.063721 0.110600 -0.044001 69762.900000 0 0 1
15.499032 29.616157 18.369783 38.141653 1.088659 1.068294 0.091634 -0.037612 106434.000000 0 0 1
15.254332 31.020577 17.649883 38.813519 1.113771 1.098721 0.086509 -0.029495 -914287.000000 0 0 1
13.962832 31.464467 17.862583 38.782023 1.153139 1.092137 0.100439 -0.034455 -686280.000000 0 0 1
13.810632 32.753241 17.219083 39.496901 1.171761 1.119691 0.083030 -0.031294 207869.000000 0 0 1
12.479032 33.497227 17.524383 39.810733 1.214185 1.114983 0.100179 -0.039711 -94264.800000 0 0 1
12.271932 -32.880539 16.998283 38.995792 -1.213580 1.119758 0.105114 -0.029521 -148240.000000 0 0 1
13.175932 -31.863239 17.394083 38.618976 -1.178694 1.103580 0.100257 -0.031550 31244.000000 0 0 1
13.431532 -31.564059 18.955083 39.191722 -1.168475 1.065976 0.108947 -0.044447 -61316.300000 0 0 1
14.264832 -32.574649 19.483183 40.548584 -1.158040 1.069583 0.103645 -0.043791 184894.000000 0 0 1
14.024232 -32.578129 20.834383 41.134962 -1.164293 1.039689 0.101392 -0.040540 225085.000000 0 0 1
15.295932 -32.984659 21.628083 42.305168 -1.136584 1.034170 0.085500 -0.038566 986567.000000 0 0 1
16.406532 -32.074509 21.475883 41.942365 -1.097981 1.033246 0.098012 -0.037429 439350.000000 0 0 1
17.612432 -32.629889 21.968183 43.098822 -1.075846 1.035941 0.117372 -0.032742 631895.000000 0 0 1
18.833332 -31.702659 21.648883 42.760112 -1.034755 1.039923 0.116259 -0.035858 290323.000000 0 0 1
18.914032 -30.501889 22.416683 42.315642 -1.015733 1.012491 0.126945 -0.041560 -267506.000000 0 0 1
19.649432 -29.609929 21.687283 41.631555 -0.984913 1.022852 0.121476 -0.037140 -606162.000000 0 0 1
-4.852868 12.727731 18.360688 22.861766 -1.206529 0.638287 0.018615 -0.006975 -454336.000000 0 1 0
-4.679668 14.025131 17.813388 23.149954 -1.248749 0.692772 0.023762 -0.014060 -853518.000000 0 1 0
-5.889568 14.657731 17.600188 23.649582 -1.188734 0.731449 0.018699 -0.010509 -809014.000000 0 1 0
-5.812568 16.157331 17.257588 24.344807 -1.225464 0.782885 0.040505 -0.022325 60399.600000 0 1 0
-5.196868 16.863931 18.340088 25.451099 -1.271866 0.766128 0.048673 -0.016473 315448.000000 0 0 1
-4.831068 18.193031 18.016288 26.055944 -1.311241 0.807307 0.059035 -0.009150 -153028.000000 0 0 1
-4.151868 18.874831 19.253988 27.280273 -1.354276 0.787267 0.052236 -0.011375 -171620.000000 0 0 1
-4.991768 19.060931 20.369788 28.340168 -1.314664 0.768779 0.040820 -0.011736 -370756.000000 0 0 1
-4.378168 19.850431 21.328188 29.463530 -1.353714 0.761380 0.047624 -0.006509 -112807.000000 0 0 1
-5.164668 20.122131 22.659968 30.741635 -1.319554 0.742013 0.033549 -0.007694 232159.000000 0 0 1
-5.558768 19.010931 23.491088 30.726969 -1.286328 0.700515 0.038496 -0.015143 237704.000000 0 0 1
-6.356968 19.368331 24.632518 31.973493 -1.253660 0.691321 0.032005 -0.018504 306449.000000 0 0 1
-5.542468 19.941231 25.820968 33.092205 -1.299699 0.675693 0.025231 -0.015600 -469090.000000 0 0 1
-5.246768 21.308231 25.617418 33.731608 -1.329367 0.708331 0.039032 -0.016062 -158746.000000 0 0 1
-4.045468 21.766431 26.169638 34.278175 -1.387035 0.702160 0.035278 -0.010769 310025.000000 0 0 1
-2.670368 21.314331 25.622108 33.435371 -1.446161 0.697707 0.044508 -0.006073 -333682.000000 0 0 1
-2.255168 20.063631 26.082438 32.983764 -1.458865 0.658737 0.055988 -0.005219 -646126.000000 0 0 1
-0.873968 20.023831 25.879658 32.733383 -1.527178 0.658976 0.054333 0.000501 -379192.000000 0 0 1
-0.166968 18.723931 26.325008 32.305101 -1.561879 0.618262 0.070664 0.008303 -159675.000000 0 0 1
-0.685968 17.558831 25.719088 31.148910 -1.531749 0.599387 0.077491 -0.008200 -241195.000000 0 0 1
-0.150768 16.348331 26.257978 30.931733 -1.561574 0.556894 0.082962 -0.011776 53581.200000 0 0 1
1.254932 15.973331 25.729918 30.310903 1.492393 0.556959 0.102852 -0.014782 -72511.700000 0 0 1
1.426832 15.916731 24.332308 29.110812 1.481392 0.581115 0.088919 -0.020011 -290096.000000 0 0 1
0.830832 14.809131 23.680098 27.941863 1.514752 0.559581 0.095945 -0.021890 -135364.000000 0 0 1
1.173032 14.832331 22.216588 26.738565 1.491874 0.590106 0.104880 -0.036682 -197671.000000 0 0 1
2.553532 14.819031 21.969288 26.622807 1.400158 0.600230 0.093502 -0.033030 -447116.000000 0 0 1
3.055632 13.742131 21.172988 25.425941 1.352001 0.586773 0.090053 -0.031556 -398014.000000 0 0 1
4.555932 13.902731 20.979988 25.577380 1.254124 0.608939 0.086158 -0.031857 -583985.000000 0 0 1
4.915632 14.702731 19.855888 25.191071 1.248145 0.662899 0.079663 -0.039785 273189.000000 0 0 1
6.316032 14.965831 19.843288 25.644189 1.171444 0.685989 0.072020 -0.032906 247502.000000 0 0 1
6.702832 15.952331 18.767888 25.527210 1.173016 0.744818 0.074221 -0.036542 -116622.000000 0 0 1
6.629432 15.402831 17.452988 24.203375 1.164358 0.765412 0.078623 -0.045097 54533.100000 0 1 0
6.933032 16.376731 16.487288 24.250669 1.170327 0.823212 0.070436 -0.032790 -180011.000000 0 1 0
6.869932 15.655631 15.070988 22.790995 1.157282 0.848287 0.068075 -0.030935 128940.000000 0 1 0
7.941432 14.809331 14.679188 22.312803 1.078575 0.852794 0.063458 -0.034055 153294.000000 0 1 0
8.227132 13.668131 15.495888 22.240190 1.028966 0.799937 0.068773 -0.031819 576157.000000 0 1 0
9.540232 12.890231 15.090088 22.020101 0.933653 0.815799 0.071717 -0.026558 612583.000000 0 1 0
10.707232 13.664031 15.100388 23.008092 0.906131 0.854882 0.060258 -0.026631 -432992.000000 0 1 0
11.695332 12.993031 14.344888 22.613613 0.837913 0.883632 0.065824 -0.017308 -637215.000000 0 1 0
13.011832 13.725531 14.236888 23.672494 0.812085 0.925531 0.064084 -0.013423 -1263230.000000 0 1 0
13.945632 13.459031 15.246188 24.659125 0.767644 0.904247 0.059173 -0.026348 195600.000000 0 1 0
15.092532 14.313131 15.245588 25.789110 0.758899 0.938295 0.063058 -0.022682 889650.000000 0 0 1
16.209632 13.636231 14.372788 25.598360 0.699388 0.974632 0.072101 -0.027795 410641.000000 0 0 1
17.601032 13.954631 14.560088 26.767970 0.670354 0.995675 0.080323 -0.042681 1159620.000000 0 0 1
18.361832 13.277931 13.606788 26.431137 0.626079 1.030020 0.078680 -0.040634 -250176.000000 0 0 1
19.872532 13.573631 13.615888 27.650559 0.599249 1.055920 0.078427 -0.046183 17837.700000 0 0 1
20.565532 13.268131 14.789488 28.595688 0.572968 1.027228 0.069244 -0.049352 861734.000000 0 0 1
21.987732 13.405131 14.612288 29.608730 0.547495 1.054672 0.090992 -0.051206 956804.000000 0 0 1
22.865532 13.301431 15.864888 30.845669 0.526873 1.030569 0.099513 -0.042089 -30997.800000 0 0 1
23.130932 11.965331 16.292888 30.719170 0.477381 1.011745 0.099401 -0.035789 668168.000000 0 0 1
24.163032 11.862531 17.281688 31.987943 0.456371 1.000055 0.092014 -0.041172 189076.000000 0 0 1
24.480332 10.356731 17.582788 31.870095 0.400229 0.986393 0.104285 -0.034498 217177.000000 0 0 1
23.335132 9.649231 18.074988 31.053844 0.392095 0.949545 0.082601 -0.031118 884395.000000 0 0 1
22.946632 8.552631 17.241788 29.949536 0.356769 0.957343 0.068241 -0.011719 -99036.100000 0 0 1
21.854732 7.686231 17.899688 29.276378 0.338185 0.912963 0.110341 -0.018009 -69875.400000 0 0 1
21.494732 6.574831 17.115888 28.252532 0.296843 0.920003 0.126192 -0.017585 -79365.300000 0 0 1
20.563632 5.774231 17.768488 27.783518 0.273749 0.876905 0.142096 -0.014098 -474954.000000 0 0 1
20.405232 4.429831 17.041088 26.951727 0.213776 0.886301 0.181570 -0.009619 -251237.000000 0 0 1
19.587232 4.362731 15.874988 25.587269 0.219156 0.901511 0.172808 -0.023338 488903.000000 0 0 1
19.784432 3.195931 15.110088 25.098855 0.160154 0.924764 0.178566 -0.031984 -431985.000000 0 0 1
18.979932 2.001831 15.613388 24.658123 0.105082 0.885123 0.192853 -0.032810 -488281.000000 0 1 0
19.389232 1.380231 16.803988 25.694773 0.071066 0.857957 0.197623 -0.045291 689002.000000 0 0 1
18.319932 0.614931 17.381088 25.260647 0.033554 0.811971 0.179110 -0.047312 364043.000000 0 0 1
18.636032 0.230831 18.816388 26.484173 0.012386 0.780621 0.184936 -0.046510 -252902.000000 0 0 1
18.780532 -1.195869 18.918088 26.683938 -0.063590 0.782761 0.192650 -0.039982 -23357.600000 0 0 1
17.582732 -1.892269 19.183888 26.091277 -0.107208 0.744745 0.135725 -0.025228 -240687.000000 0 0 1
17.580032 -3.348169 18.732188 25.906807 -0.188199 0.762574 0.094463 -0.020146 -260650.000000 0 0 1
17.427832 -3.317069 17.327788 24.798882 -0.188082 0.797172 0.118786 -0.038511 174987.000000 0 1 0
17.550432 -4.619669 16.821288 24.744994 -0.257384 0.823326 0.152839 -0.033868 -100777.000000 0 1 0
17.326032 -4.720569 15.276988 23.576716 -0.265999 0.865881 0.144581 -0.044463 165596.000000 0 1 0
15.955932 -4.545869 14.929888 22.319459 -0.277548 0.838044 0.131551 -0.049788 400631.000000 0 1 0
15.763532 -4.400069 13.540488 21.241336 -0.272201 0.879600 0.135132 -0.049475 166418.000000 0 1 0
16.165532 -2.951269 13.066588 20.994527 -0.180577 0.899016 0.132647 -0.044293 241271.000000 0 1 0
15.203032 -1.979669 13.473188 20.410244 -0.129487 0.849819 0.117862 -0.032557 605685.000000 0 1 0
15.631732 -0.716669 13.051688 20.376733 -0.045815 0.875622 0.110525 -0.027564 10964.700000 0 1 0
14.441832 0.256131 13.106588 19.504225 0.017734 0.833908 0.098668 -0.022077 -684747.000000 0 1 0
14.609832 1.603731 12.680888 19.411957 0.109333 0.858925 0.095241 -0.021710 493016.000000 0 1 0
15.664232 2.276731 13.398488 20.738157 0.144335 0.868360 0.123537 -0.028370 378298.000000 0 1 0
15.944932 3.639031 12.699288 20.706408 0.224382 0.910562 0.100721 -0.027588 -103923.000000 0 1 0
15.080232 4.668531 13.121088 20.527336 0.300222 0.877338 0.083638 -0.017288 375090.000000 0 1 0
15.281132 5.834131 12.308388 20.470625 0.364707 0.925706 0.099749 -0.026665 172472.000000 0 1 0
14.179232 6.870431 12.619388 20.186689 0.451205 0.895493 0.067465 -0.016230 6685.040000 0 1 0
14.376432 8.001131 11.783088 20.237121 0.507854 0.949301 0.036628 -0.026271 37763.700000 0 1 0
13.515832 9.082331 11.958488 20.203265 0.591670 0.937371 0.029332 -0.015862 -789882.000000 0 1 0
13.789032 9.972831 13.240988 21.561970 0.626156 0.909564 0.039950 -0.018194 -65012.800000 0 1 0
13.497932 9.274431 14.466788 21.851709 0.602016 0.847254 0.056737 -0.021769 532051.000000 0 1 0
13.983532 10.055131 15.532888 23.193004 0.623410 0.836961 0.083860 -0.030292 -113801.000000 0 1 0
13.768632 9.453231 16.980488 23.817552 0.601661 0.777114 0.082871 -0.027681 670024.000000 0 1 0
12.425732 9.725331 17.408088 23.495157 0.664088 0.736354 0.070977 -0.031147 521387.000000 0 1 0
11.927132 8.969231 18.507188 23.774348 0.644781 0.678600 0.088012 -0.028785 -185973.000000 0 1 0
12.408632 9.191231 19.946288 25.225132 0.637531 0.658795 0.107761 -0.027798 -498153.000000 0 0 1
13.790332 8.915331 20.010988 25.886213 0.573905 0.687182 0.142272 -0.036138 -172999.000000 0 0 1
14.144732 9.199531 21.341788 27.206189 0.576646 0.668994 0.145005 -0.017700 -292952.000000 0 0 1
15.642932 9.069731 21.692488 28.240492 0.525432 0.694874 0.146379 -0.024099 676461.000000 0 0 1
16.541332 9.975031 20.987988 28.523895 0.542649 0.743944 0.141015 -0.017790 425306.000000 0 0 1
17.217632 9.219331 20.020088 27.968676 0.491611 0.773022 0.121110 -0.023544 -707104.000000 0 0 1
18.171732 9.980931 19.125488 28.206651 0.502272 0.825691 0.110606 -0.024967 -377381.000000 0 0 1
19.191132 10.627831 19.848188 29.583795 0.505747 0.835355 0.109202 -0.033627 243554.000000 0 0 1
20.129632 11.250631 18.964088 29.856581 0.509657 0.882564 0.098586 -0.038865 206246.000000 0 0 1
21.216232 12.045331 19.691688 31.352529 0.516362 0.891722 0.087994 -0.036143 -708791.000000 0 0 1
20.728132 13.239831 20.318688 31.902942 0.568417 0.880338 0.085146 -0.036440 -27613.800000 0 0 1
21.519132 13.970731 21.238688 33.306700 0.575829 0.879326 0.065055 -0.032393 -245796.000000 0 0 1
22.680032 14.744031 20.556988 33.975875 0.576438 0.920972 0.044108 -0.025072 -308469.000000 0 0 1
23.867432 14.015231 20.472288 34.426670 0.530963 0.933949 0.022328 -0.013516 -443756.000000 0 0 1
25.003032 14.851531 20.364588 35.502620 0.535988 0.959893 0.031248 -0.018615 517441.000000 0 0 1
26.354932 14.089731 20.502588 36.241676 0.490954 0.969492 0.030571 -0.023500 225791.000000 0 0 1
26.600632 13.336031 19.345388 35.492075 0.464721 0.994333 0.045824 -0.036583 1064940.000000 0 0 1
27.847332 12.584531 19.424488 36.209875 0.424442 1.004581 0.074689 -0.045616 993214.000000 0 0 1
28.128932 11.776531 18.181788 35.503534 0.396491 1.033154 0.105142 -0.044460 -271483.000000 0 0 1
28.356632 12.616131 17.077788 35.424796 0.418612 1.067763 0.117836 -0.050187 189060.000000 0 0 1
28.680532 11.930031 15.865188 34.879833 0.394191 1.098589 0.163056 -0.057073 -509502.000000 0 0 1
27.538532 11.496331 14.951488 33.377888 0.395470 1.106330 0.145583 -0.063155 -457466.000000 0 0 1
26.914532 12.547331 14.286688 32.953559 0.436237 1.122379 0.170380 -0.063158 297809.000000 0 0 1
25.986432 12.095731 13.291988 31.595543 0.435639 1.136588 0.160540 -0.060732 330815.000000 0 0 1
25.501432 13.175231 12.300288 31.228302 0.476876 1.165944 0.146292 -0.056611 235986.000000 0 0 1
24.868032 14.298931 12.940488 31.469584 0.521829 1.147019 0.123369 -0.049642 262255.000000 0 0 1
24.553232 15.315431 12.039188 31.342714 0.557710 1.176548 0.104051 -0.038665 -260736.000000 0 0 1
23.696932 16.419931 12.656888 31.485799 0.605954 1.157110 0.098894 -0.029904 899444.000000 0 0 1
22.286732 16.072131 12.712088 30.275551 0.624782 1.137484 0.117351 -0.045955 1150480.000000 0 0 1
21.439932 17.156531 12.953088 30.361155 0.674871 1.130029 0.109692 -0.038706 -1146820.000000 0 0 1
20.981332 17.926631 11.694588 29.972384 0.707048 1.169971 0.136714 -0.030894 179265.000000 0 0 1
19.783432 17.412231 11.085688 28.591301 0.721735 1.172629 0.117797 -0.039827 1666100.000000 0 0 1
18.598032 17.716831 11.887288 28.303366 0.761137 1.137356 0.106680 -0.039307 290022.000000 0 0 1
17.260932 17.110931 11.406888 26.848479 0.781034 1.131987 0.094434 -0.026659 9515.060000 0 0 1
17.266232 15.703531 11.283588 25.923793 0.738036 1.120469 0.089051 -0.028703 -92029.700000 0 0 1
16.010532 15.375631 10.767288 24.671475 0.765172 1.119173 0.083675 -0.027845 -259594.000000 0 1 0
15.901132 13.997431 10.199688 23.511863 0.721812 1.122079 0.078700 -0.026885 -82643.800000 0 1 0
16.050832 12.899931 11.142488 23.413511 0.676988 1.074809 0.061864 -0.023823 474771.000000 0 1 0
16.414232 11.774331 10.345988 22.695845 0.622259 1.097465 0.064256 -0.012908 -178417.000000 0 1 0
16.776132 10.572431 11.132388 22.740822 0.562335 1.059242 0.061077 -0.025667 -1599260.000000 0 1 0
17.695332 9.817431 10.473688 22.786068 0.506524 1.093192 0.077196 -0.020191 -153592.000000 0 1 0
18.242632 8.675031 11.149788 23.073092 0.443886 1.066447 0.089130 -0.022963 659291.000000 0 1 0
19.450532 9.058631 12.076488 24.621608 0.435855 1.058152 0.085533 -0.036878 -428860.000000 0 1 0
19.102732 9.832331 13.169188 25.199536 0.475345 1.020903 0.079404 -0.041202 109372.000000 0 0 1
20.170032 9.911731 14.096588 26.528973 0.456751 1.010584 0.087519 -0.034459 -904652.000000 0 0 1
19.574332 10.031731 15.540788 26.931510 0.473593 0.955686 0.066843 -0.030349 504929.000000 0 0 1
18.873932 8.876831 16.051388 26.318634 0.439625 0.914879 0.075976 -0.020530 1081450.000000 0 0 1
17.736932 8.479531 15.262188 24.888463 0.445952 0.910661 0.092753 -0.025288 -406264.000000 0 1 0
17.112532 7.141531 15.749388 24.328655 0.395354 0.866681 0.115001 -0.023309 40341.100000 0 1 0
16.153332 7.084131 16.777388 24.343291 0.413296 0.810412 0.129284 -0.025636 154815.000000 0 1 0
15.603532 5.763531 16.834488 23.666189 0.353829 0.779407 0.119912 -0.015346 96705.200000 0 1 0
14.274832 5.598031 17.664388 23.391011 0.373730 0.714870 0.095166 -0.016557 612680.000000 0 1 0
13.848932 4.227131 17.711288 22.876872 0.296249 0.685345 0.098836 -0.016854 451006.000000 0 1 0
13.399032 3.643131 16.463788 21.537474 0.265477 0.700647 0.091627 -0.017742 -525523.000000 0 1 0
12.959832 2.132331 16.689388 21.237697 0.163073 0.666746 0.082290 -0.021574 -588824.000000 0 1 0
14.062032 1.292231 16.834088 21.972645 0.091638 0.697985 0.098623 -0.023097 -311370.000000 0 1 0
13.951232 -0.084069 16.654488 21.725927 -0.006026 0.697311 0.097447 -0.018632 -503909.000000 0 1 0
13.157432 -0.883469 17.693288 22.066966 -0.067045 0.640495 0.072198 -0.019972 -428234.000000 0 1 0
11.777332 -0.745369 17.574788 21.169183 -0.063204 0.591319 0.058745 -0.013623 -683607.000000 0 1 0
11.034432 -1.612469 18.411288 21.525201 -0.145104 0.544596 0.057773 -0.019585 -71002.000000 0 1 0
-26.828638 14.538431 28.349998 41.651701 -0.496603 0.822154 0.081441 -0.018957 -200163.000000 0 0 1
-25.842058 14.506431 29.343518 41.704803 -0.511515 0.790345 0.077957 -0.016710 243201.000000 0 0 1
-25.176248 13.230531 29.388548 40.897154 -0.483852 0.769014 0.069806 -0.005885 72402.800000 0 0 1
-24.053468 13.034231 30.420918 40.913234 -0.496592 0.732437 0.068070 -0.013004 -250736.000000 0 0 1
-24.447368 13.125831 31.775279 42.185656 -0.492731 0.717845 0.066018 -0.021694 655333.000000 0 0 1
-23.322068 13.060931 32.696964 42.232668 -0.510507 0.685330 0.060814 -0.020701 455739.000000 0 0 1
-23.725868 13.154931 -33.439497 43.060062 -0.506257 2.460012 0.062659 -0.012474 -3511.820000 0 0 1
-24.428168 11.998831 -32.995497 42.771604 -0.456573 2.451889 0.054225 -0.011314 31226.900000 0 0 1
-24.953768 12.324331 -31.740917 42.214517 -0.458745 2.421729 0.047270 -0.006526 -311926.000000 0 0 1
-25.684018 11.197131 -31.024997 41.804245 -0.411115 2.407068 0.046549 -0.012025 -341889.000000 0 0 1
-24.905868 10.304531 -30.271157 40.531821 -0.392294 2.414108 0.050802 -0.018706 101470.000000 0 0 1
-24.367368 9.213531 -31.030387 40.515956 -0.361494 2.443206 0.041524 -0.022983 -80876.700000 0 0 1
-23.494068 8.300931 -30.123807 39.093739 -0.339630 2.450505 0.042500 -0.011698 -267167.000000 0 0 1
-24.135868 7.361131 -29.296887 38.665669 -0.296026 2.430574 0.046685 -0.015756 326586.000000 0 0 1
-23.195668 6.597531 -28.537407 37.362414 -0.277111 2.439976 0.040452 -0.008773 -216243.000000 0 0 1
-23.815168 5.779031 -27.438777 36.789209 -0.238060 2.412588 0.040646 -0.014614 -194654.000000 0 0 1
-24.649768 4.732431 -27.958537 37.572420 -0.189679 2.410019 0.058489 -0.018674 399708.000000 0 0 1
-25.138508 3.954431 -26.867457 37.005977 -0.156027 2.383328 0.102064 -0.020771 -943314.000000 0 0 1
-25.951898 2.763531 -27.405757 37.844598 -0.106087 2.380620 0.107319 -0.016626 97209.300000 0 0 1
-27.342188 2.883531 -27.615057 38.967953 -0.105072 2.358394 0.114601 -0.019792 216317.000000 0 0 1
-27.632698 3.874631 -28.622217 39.972616 -0.139311 2.368917 0.113861 -0.022588 -995842.000000 0 0 1
-28.964308 3.729031 -29.398017 41.437666 -0.128041 2.359516 0.132538 -0.023971 20542.000000 0 0 1
-30.088638 4.045331 -28.585727 41.699336 -0.133646 2.326114 0.114601 -0.022823 673794.000000 0 0 1
-31.354138 3.920531 -29.233597 43.047133 -0.124395 2.317341 0.113052 -0.027094 728987.000000 0 0 1
-31.902758 5.228831 -29.920367 44.049460 -0.162455 2.317529 0.111697 -0.034168 -326945.000000 0 0 1
-31.153188 5.585631 -31.092367 44.367281 -0.177411 2.347308 0.120438 -0.038601 380217.000000 0 0 1
-31.370018 6.846931 -31.651277 45.086160 -0.214893 2.349023 0.112236 -0.034723 -1020480.000000 0 0 1
-30.946648 8.142631 -30.893987 44.479612 -0.257287 2.338612 0.073203 -0.030547 232644.000000 0 0 1
-29.519048 8.217831 -30.780317 43.431956 -0.271516 2.358453 0.061800 -0.033162 1165710.000000 0 0 1
-28.890348 7.740731 -29.552777 42.046851 -0.261786 2.350197 0.045907 -0.031187 -3080.180000 0 0 1
-29.191308 8.644631 -28.277597 41.550988 -0.287909 2.319312 0.034483 -0.020103 776201.000000 0 0 1
-30.546048 8.669331 -27.776197 42.186911 -0.276540 2.289498 0.048440 -0.019502 1064970.000000 0 0 1
-30.804568 7.544731 -26.950937 41.619675 -0.240194 2.275165 0.056607 -0.013778 -417498.000000 0 0 1
-32.142828 7.647931 -26.200317 42.167628 -0.233592 2.241245 0.044491 -0.015558 -56001.200000 0 0 1
-32.078608 8.497431 -25.062417 41.585672 -0.258947 2.217639 0.014998 -0.008499 -25842.100000 0 0 1
-31.733958 7.803031 -23.888317 40.479415 -0.241106 2.202022 0.034778 -0.009569 -217429.000000 0 0 1
-31.289308 8.777231 -22.828117 39.713769 -0.273489 2.183176 0.033761 -0.003573 -628086.000000 0 0 1
-32.212758 9.734431 -22.379717 40.413768 -0.293466 2.157675 0.037837 -0.004438 -61349.000000 0 0 1
-31.594478 10.644231 -21.458017 39.647915 -0.324959 2.142677 0.055573 -0.016960 -67509.300000 0 0 1
-32.474568 11.755731 -20.803117 40.318289 -0.347323 2.112939 0.057121 -0.016597 -92095.100000 0 0 1
-33.340158 11.260631 -19.795817 40.376259 -0.325720 2.083211 0.070248 -0.024341 31453.600000 0 0 1
-34.048833 12.165731 -19.016717 40.852950 -0.343165 2.054987 0.066640 -0.026572 -524057.000000 0 0 1
-33.259148 13.124031 -18.123317 40.085729 -0.375842 2.039930 0.077377 -0.037861 -331485.000000 0 0 1
-32.621438 12.447831 -16.980817 38.825956 -0.364531 2.023454 0.107681 -0.040092 691791.000000 0 0 1
-33.466608 11.927631 -15.930017 38.936457 -0.342368 1.992295 0.104853 -0.027781 41781.200000 0 0 1
-34.005939 13.006931 -14.909917 39.343230 -0.365321 1.959480 0.093575 -0.017104 -8286.190000 0 0 1
-34.814980 13.948431 -15.621517 40.628479 -0.381062 1.965459 0.070529 -0.021838 170203.000000 0 0 1
-35.353863 14.876331 -14.712217 41.081019 -0.398294 1.937057 0.049299 -0.011425 228021.000000 0 0 1
-36.274698 15.986431 -15.299317 42.491043 -0.415097 1.939128 0.034089 -0.014677 413694.000000 0 0 1
-37.615008 15.630031 -15.587817 43.613836 -0.393819 1.936285 0.036573 -0.006006 125314.000000 0 0 1
36.975770 16.595731 -16.286017 43.679059 0.421878 1.952882 0.029953 -0.015559 -740845.000000 0 0 1
36.803850 16.464331 -17.840817 44.089594 0.420651 1.987391 0.036751 -0.016724 -158898.000000 0 0 1
35.926090 15.470531 -18.303717 43.186193 0.406622 2.008469 0.055154 -0.015190 155039.000000 0 0 1
34.560990 15.831531 -18.202417 42.147685 0.429549 2.017364 0.083439 -0.016561 -356728.000000 0 0 1
33.608540 14.663831 -18.538917 41.088360 0.411413 2.038902 0.099235 -0.020847 -230868.000000 0 0 1
33.456330 14.189331 -19.879217 41.422776 0.401121 2.071349 0.103378 -0.022509 417846.000000 0 0 1
32.740810 12.963231 -20.077517 40.535326 0.376997 2.088987 0.055586 -0.014937 282256.000000 0 0 1
33.469130 11.711431 -19.483717 40.459306 0.336601 2.073234 0.070974 -0.014972 21763.300000 0 0 1
33.418580 11.701631 -18.076817 39.755514 0.336812 2.042831 0.096605 -0.016403 154216.000000 0 0 1
34.073390 10.565431 -17.526417 39.746692 0.300677 2.027456 0.077995 -0.022195 -139137.000000 0 0 1
33.829330 10.377531 -15.985117 38.828348 0.297648 1.995100 0.073285 -0.012602 -655156.000000 0 0 1
32.565930 9.901831 -15.618217 37.450163 0.295173 2.000982 0.085509 -0.015796 -258046.000000 0 0 1
32.524030 9.796431 -14.226917 36.826454 0.292563 1.967438 0.075567 -0.007317 41742.000000 0 0 1
31.870760 11.032531 -13.531717 36.339640 0.333254 1.952355 0.086174 -0.009967 -961449.000000 0 0 1
30.504590 11.094931 -13.765717 35.257941 0.348839 1.971894 0.094762 -0.015799 -909111.000000 0 0 1
29.953990 12.053031 -12.921617 34.777654 0.382561 1.951474 0.104227 -0.012927 -258243.000000 0 0 1
28.416490 12.052731 -13.012917 33.497779 0.401147 1.969768 0.109066 -0.001030 -1187260.000000 0 0 1
27.861690 11.071731 -12.195217 32.366345 0.378247 1.957121 0.101913 -0.014888 -450951.000000 0 0 1
26.524190 10.693731 -12.344217 31.149128 0.383235 1.978273 0.092512 -0.002648 -289894.000000 0 0 1
26.047190 10.370131 -13.819217 31.256463 0.378892 2.028761 0.095880 -0.025119 -1157470.000000 0 0 1
26.368490 9.090531 -14.376517 31.378643 0.331990 2.046723 0.116165 -0.023834 556542.000000 0 0 1
27.739490 8.939531 -14.729217 32.654928 0.311758 2.038745 0.119805 -0.025706 845280.000000 0 0 1
28.662290 8.097931 -13.750817 32.805309 0.275352 2.003321 0.129045 -0.026050 16757.000000 0 0 1
28.284690 6.734331 -13.751817 32.163447 0.233739 2.012589 0.131416 -0.039731 704593.000000 0 0 1
27.266990 6.420231 -12.800717 30.798806 0.231246 1.999425 0.151249 -0.041884 190195.000000 0 0 1
26.654790 4.999931 -12.879817 30.022771 0.185426 2.014184 0.170348 -0.047295 -165275.000000 0 0 1
25.882790 4.566131 -11.776217 28.800132 0.174619 1.992039 0.189563 -0.045929 531893.000000 0 0 1
25.522090 3.220331 -12.074017 28.417063 0.125515 2.009632 0.185656 -0.050571 -369961.000000 0 0 1
24.848690 2.427631 -10.945217 27.260751 0.097387 1.983951 0.188874 -0.044505 -382261.000000 0 0 1
25.699590 2.086531 -9.856317 27.603795 0.081012 1.935919 0.200128 -0.047599 378638.000000 0 0 1
25.132290 1.222031 -8.904517 26.691118 0.048586 1.910930 0.221688 -0.036683 -676196.000000 0 0 1
26.211590 0.658231 -7.978517 27.406886 0.025107 1.866187 0.252287 -0.029994 -347965.000000 0 0 1
26.013990 -0.644569 -7.420817 27.059409 -0.024773 1.848597 0.203943 -0.035410 139298.000000 0 0 1
26.329090 -1.750169 -8.226517 27.639820 -0.066375 1.873008 0.156848 -0.039264 -303663.000000 0 0 1
26.635190 -2.950369 -7.330217 27.782550 -0.110320 1.837800 0.153313 -0.033826 111408.000000 0 0 1
27.873990 -2.910169 -6.629917 28.799031 -0.104028 1.803093 0.144874 -0.041128 643189.000000 0 0 1
27.987490 -3.985869 -5.765617 28.851847 -0.141465 1.771986 0.156082 -0.057334 -439859.000000 0 0 1
29.355490 -4.088669 -5.066817 30.068831 -0.138391 1.740111 0.115401 -0.046557 -72043.800000 0 0 1
30.365220 -4.355069 -6.037817 31.264491 -0.142451 1.765138 0.087373 -0.031499 -250904.000000 0 0 1
31.599670 -4.612969 -5.431217 32.393158 -0.144958 1.739258 0.109275 -0.042363 -458364.000000 0 0 1
32.632530 -5.020169 -6.507917 33.651702 -0.152643 1.765413 0.128605 -0.042084 -232656.000000 0 0 1
32.428930 -6.323569 -7.096317 33.793205 -0.192581 1.782364 0.142594 -0.039556 -166229.000000 0 0 1
33.180200 -6.417169 -8.289317 34.796817 -0.191045 1.811330 0.140390 -0.040767 -674637.000000 0 0 1
32.392290 -6.894069 -9.558317 34.469552 -0.209702 1.851776 0.127710 -0.044711 744824.000000 0 0 1
31.182830 -6.186869 -9.767017 33.257192 -0.195863 1.868872 0.103836 -0.045690 736496.000000 0 0 1
30.049090 -6.480769 -8.951117 32.016724 -0.212419 1.854149 0.104296 -0.037108 -798494.000000 0 0 1
28.803090 -5.652369 -9.182717 30.755317 -0.193779 1.873994 0.096007 -0.039093 -1019870.000000 0 0 1
28.025190 -6.031369 -10.271717 30.451549 -0.211979 1.914858 0.074477 -0.036589 369688.000000 0 0 1
26.837990 -5.252169 -10.338717 29.236142 -0.193257 1.932243 0.113151 -0.034016 1222630.000000 0 0 1
25.492890 -5.912469 -9.837217 27.957388 -0.227897 1.930359 0.154932 -0.031640 -93944.000000 0 0 1
25.470290 -6.177969 -8.427117 27.530333 -0.237960 1.881893 0.145509 -0.045476 728254.000000 0 0 1
24.175190 -6.553369 -7.980117 26.288185 -0.264717 1.879226 0.147070 -0.049330 192319.000000 0 0 1
23.161190 -5.428669 -7.639617 24.985494 -0.230230 1.881535 0.173353 -0.037068 -359325.000000 0 1 0
22.945190 -4.722369 -8.786817 25.019805 -0.202977 1.929643 0.189745 -0.034174 196311.000000 0 0 1
22.179790 -3.546369 -8.526017 24.025252 -0.158550 1.933579 0.173897 -0.038534 -58510.700000 0 1 0
22.140690 -2.510369 -9.663217 24.287648 -0.112900 1.979985 0.180445 -0.032167 -809448.000000 0 1 0
23.367490 -1.981369 -10.028117 25.505460 -0.084589 1.974879 0.165945 -0.038568 -262042.000000 0 0 1
23.335590 -1.455969 -11.382317 26.004360 -0.062312 2.023844 0.174357 -0.040713 11672.300000 0 0 1
24.670190 -1.552369 -12.176117 27.555143 -0.062842 2.028492 0.149937 -0.031121 3123.670000 0 0 1
25.723390 -0.831969 -11.600417 28.230384 -0.032332 1.994259 0.141190 -0.047512 -342611.000000 0 0 1
26.930090 -1.097169 -12.251617 29.606344 -0.040719 1.997440 0.112012 -0.039949 -563467.000000 0 0 1
28.083490 -0.280469 -11.628317 30.397020 -0.009987 1.963349 0.107683 -0.026727 -1038720.000000 0 0 1
29.322090 -0.771869 -12.051417 31.711470 -0.026318 1.960629 0.087321 -0.029527 638086.000000 0 0 1
30.468700 0.018231 -11.643517 32.617686 0.000598 1.935818 0.100569 -0.027199 832018.000000 0 0 1
30.778600 1.354931 -12.367917 33.198244 0.043993 1.952549 0.114928 -0.026461 -468729.000000 0 0 1
30.988290 1.182031 -13.752417 33.923447 0.038126 1.988208 0.100875 -0.025429 336161.000000 0 0 1
30.893250 2.452431 -14.335517 34.145488 0.079218 2.004061 0.113994 -0.033958 -112139.000000 0 0 1
31.145060 2.405731 -15.874617 35.040059 0.077090 2.040971 0.097796 -0.021118 -400354.000000 0 0 1
30.204790 1.671931 -16.598817 34.505730 0.055297 2.072643 0.100860 -0.022451 -206776.000000 0 0 1
30.430000 1.741131 -17.999017 35.397472 0.057155 2.104219 0.083631 -0.016802 -94760.200000 0 0 1
29.283090 1.064431 -18.811817 34.821212 0.036334 2.141519 0.062571 -0.007170 40785.900000 0 0 1
29.231890 -0.312269 -18.785117 34.748834 -0.010682 2.141943 0.064620 -0.007454 192760.000000 0 0 1
28.705890 -0.860269 -19.961117 34.974481 -0.029959 2.178195 0.034001 -0.003816 -312869.000000 0 0 1
28.660590 -2.418769 -19.918217 34.985928 -0.084194 2.176476 0.039496 -0.012814 533410.000000 0 0 1
27.459690 -2.781869 -19.206617 33.625399 -0.100963 2.178756 0.039456 -0.008800 937797.000000 0 0 1
27.180990 -4.180569 -19.323317 33.610622 -0.152609 2.183299 0.045389 -0.010296 -265855.000000 0 0 1
27.964490 -5.135769 -18.401317 33.867348 -0.181629 2.145201 0.034957 -0.008898 -540131.000000 0 0 1
29.347790 -5.142169 -18.599517 35.123734 -0.173454 2.128858 0.044583 -0.009369 -386703.000000 0 0 1
30.078090 -5.365569 -17.404217 35.162303 -0.176531 2.088594 0.047668 -0.017491 -265820.000000 0 0 1
31.579530 -5.212869 -17.676917 36.563836 -0.163596 2.075392 0.085131 -0.016263 -602601.000000 0 0 1
32.096640 -6.257269 -18.478117 37.560464 -0.192536 2.085132 0.068705 -0.014509 -464628.000000 0 0 1
33.358850 -5.793169 -18.874417 38.763607 -0.171947 2.079346 0.101980 -0.011441 -838053.000000 0 0 1
34.301520 -6.804969 -19.463617 40.021672 -0.195844 2.078677 0.104836 -0.005528 -654600.000000 0 0 1
34.876900 -7.532969 -18.416717 40.153695 -0.212720 2.047278 0.117612 -0.015621 79231.300000 0 0 1
35.580040 -8.672969 -18.973017 41.244817 -0.239097 2.048802 0.106963 -0.007980 116467.000000 0 0 1
36.301540 -9.528869 -17.870017 41.568481 -0.256701 2.015171 0.119524 -0.014149 -174139.000000 0 0 1
35.504520 -9.948469 -16.721117 40.486278 -0.273197 1.996550 0.099539 -0.018115 353993.000000 0 0 1
36.155370 -10.773669 -15.766917 40.888609 -0.289605 1.966661 0.101553 -0.021867 657605.000000 0 0 1
37.597690 -10.364969 -15.240217 41.872223 -0.268999 1.943323 0.131665 -0.028125 1068450.000000 0 0 1
-37.003748 -11.301569 -14.408617 41.286935 0.296419 1.927287 0.142785 -0.033232 426699.000000 0 0 1
-36.562948 -12.517869 -14.970717 41.444765 0.329857 1.940373 0.122500 -0.032508 -450029.000000 0 0 1
-35.076199 -12.655869 -15.343817 40.322989 0.346273 1.961158 0.154915 -0.038691 -136153.000000 0 0 1
-34.732432 -11.836169 -16.470017 40.220619 0.328439 1.992693 0.178631 -0.031861 -1038730.000000 0 0 1
-33.401288 -11.836569 -16.814417 39.223399 0.340567 2.013831 0.197591 -0.037721 -1145860.000000 0 0 1
-33.104198 -10.939269 -18.041717 39.256325 0.319153 2.048327 0.225080 -0.034963 150640.000000 0 0 1
-33.414208 -9.549169 -17.960117 39.118559 0.278362 2.047801 0.227333 -0.025512 302269.000000 0 0 1
-34.789396 -9.204969 -17.975117 40.226090 0.258664 2.034040 0.210823 -0.028519 92.422500 0 0 1
-35.037727 -7.683269 -17.972217 40.120762 0.215869 2.035271 0.229238 -0.030231 -1606940.000000 0 0 1
-36.356268 -7.419269 -17.789717 41.149700 0.201307 2.017857 0.216465 -0.022453 -1581220.000000 0 0 1
-36.558038 -5.977869 -17.808117 41.101753 0.162083 2.018913 0.199401 -0.025468 130344.000000 0 0 1
25.521532 27.320831 -26.945627 46.085173 0.819435 2.195297 0.038884 0.002523 45212.500000 0 0 1
26.068332 26.492731 -25.950057 45.330213 0.793472 2.180308 0.049075 -0.015135 131524.000000 0 0 1
27.230132 25.798031 -26.349667 45.840195 0.758398 2.183175 0.059944 -0.021971 -67190.000000 0 0 1
27.818132 24.849531 -25.257137 45.047426 0.729093 2.166002 0.079606 -0.037045 -15856.900000 0 0 1
28.341432 25.567731 -24.120917 45.152677 0.733992 2.134367 0.077252 -0.024282 356306.000000 0 0 1
28.702432 24.759831 -23.045617 44.361913 0.711786 2.117052 0.078981 -0.027126 -156208.000000 0 0 1
29.247332 25.511431 -21.851617 44.539114 0.717279 2.083593 0.067531 -0.012956 356661.000000 0 0 1
28.306032 26.377931 -21.178817 44.108604 0.750154 2.071624 0.051883 -0.019403 596991.000000 0 0 1
28.979332 27.043031 -20.119717 44.451437 0.750849 2.040500 0.027010 -0.014993 -48176.300000 0 0 1
28.149932 28.047431 -19.307017 44.179610 0.783574 2.023070 0.033982 -0.013220 -74031.300000 0 0 1
27.254332 27.464831 -18.372717 42.833075 0.789245 2.014113 0.052346 -0.015581 69696.900000 0 0 1
26.483032 28.473131 -17.761017 42.749549 0.821595 1.999252 0.050106 -0.020637 -272639.000000 0 0 1
25.403132 27.865431 -16.840917 41.296705 0.831590 1.990843 0.057733 -0.025110 -458019.000000 0 0 1
24.389432 27.216231 -17.554617 40.542967 0.840120 2.018601 0.069747 -0.020075 -653687.000000 0 0 1
23.314432 27.011331 -16.687117 39.390794 0.858726 2.008245 0.064169 -0.016269 -576937.000000 0 0 1
22.380232 25.916131 -17.180417 38.310408 0.858480 2.035830 0.067086 -0.014134 -556887.000000 0 0 1
21.709132 26.324731 -18.354217 38.744744 0.881195 2.064308 0.059570 -0.014772 -295786.000000 0 0 1
20.745232 25.382031 -18.752117 37.765779 0.885583 2.090401 0.059071 -0.011007 -171391.000000 0 0 1
20.061232 25.895231 -20.020117 38.390378 0.911669 2.119390 0.052693 -0.005179 -23955.000000 0 0 1
18.973332 26.757631 -19.798617 38.313749 0.954002 2.113846 0.043596 -0.000758 -506218.000000 0 0 1
18.257932 26.950631 -20.985117 38.730656 0.975360 2.143400 0.047126 0.002363 205122.000000 0 0 1
16.996232 27.843231 -20.785217 38.680003 1.022746 2.138104 0.048454 0.000784 347677.000000 0 0 1
16.045432 27.315131 -19.865817 37.392820 1.039679 2.130899 0.063086 -0.002197 -242364.000000 0 0 1
15.063532 28.266931 -19.580917 37.541200 1.081174 2.119504 0.065622 -0.012523 -98341.500000 0 0 1
14.538832 28.087931 -18.149717 36.465350 1.093153 2.091770 0.074714 -0.017557 -76402.000000 0 0 1
13.712132 26.991231 -17.884417 35.162501 1.100752 2.104380 0.073700 -0.013948 -377276.000000 0 0 1
13.121032 27.049531 -16.624017 34.353989 1.119160 2.075906 0.089507 -0.020447 -177771.000000 0 0 1
12.192732 25.834531 -16.437117 32.958527 1.129835 2.092919 0.100767 -0.019191 230012.000000 0 0 1
12.922032 24.626531 -16.317417 32.244426 1.087569 2.101400 0.081432 -0.014198 -322501.000000 0 0 1
12.075032 23.571231 -16.022217 30.953526 1.097374 2.114865 0.105685 -0.019211 135274.000000 0 0 1
12.794732 22.169531 -16.145517 30.263361 1.047362 2.133530 0.095100 -0.018589 523588.000000 0 0 1
13.345332 21.913431 -17.431817 31.018778 1.023784 2.167569 0.091783 -0.012798 -32126.600000 0 0 1
14.454332 21.041531 -17.470317 30.933569 0.968887 2.170949 0.098317 -0.008351 71989.600000 0 0 1
14.084732 19.571431 -17.595717 29.850123 0.946999 2.201197 0.110201 -0.013244 -304.061000 0 0 1
13.352532 19.098431 -16.467417 28.534470 0.960646 2.185977 0.118433 -0.024200 -190685.000000 0 0 1
13.113932 17.664731 -16.443917 27.466713 0.932190 2.212655 0.099524 -0.024444 -603382.000000 0 0 1
14.209732 16.601631 -16.399217 27.321511 0.862873 2.214586 0.135659 -0.024185 -641413.000000 0 0 1
14.999532 16.585431 -15.257317 27.071169 0.835567 2.169534 0.151232 -0.036701 -203020.000000 0 0 1
16.045532 15.650331 -15.410417 27.200605 0.772930 2.173106 0.156673 -0.041090 -668926.000000 0 0 1
16.682232 15.273231 -14.030917 26.616444 0.741334 2.126042 0.219439 -0.048394 42069.400000 0 0 1
17.717032 16.092631 -13.420217 27.440266 0.737390 2.081820 0.146169 -0.032118 1836810.000000 0 0 1
18.917032 16.327931 -14.194117 28.738970 0.712070 2.087363 0.101067 -0.014518 600934.000000 0 0 1
19.715832 15.039731 -14.658917 28.806100 0.651659 2.104682 0.087080 -0.021285 -749921.000000 0 0 1
20.383832 14.178231 -13.780717 28.397729 0.607742 2.077474 0.128112 -0.030340 544162.000000 0 0 1
21.418332 14.609031 -12.914817 28.964828 0.598598 2.032953 0.108109 -0.015976 -163636.000000 0 0 1
22.172532 13.445431 -12.287317 28.694581 0.545112 2.013308 0.112348 -0.031754 -380016.000000 0 0 1
21.367332 12.714331 -11.371217 27.340843 0.536761 1.999735 0.205274 -0.042651 322196.000000 0 0 1
21.943932 11.550931 -10.789317 27.043844 0.484531 1.981175 0.208176 -0.011071 -300461.000000 0 0 1
21.863832 10.245731 -11.615817 26.794204 0.438226 2.019191 0.156945 -0.007778 -248779.000000 0 0 1
22.703232 10.226731 -12.775817 27.986502 0.423230 2.044853 0.125484 0.001350 482129.000000 0 0 1
22.454132 9.118131 -13.641217 27.810271 0.385735 2.083471 0.102007 -0.008504 -28911.700000 0 0 1
22.777732 7.717231 -13.018117 27.346885 0.326668 2.066939 0.122422 0.010464 853507.000000 0 0 1
21.599732 7.250531 -12.289217 25.887130 0.323858 2.065446 0.113566 -0.010644 1411240.000000 0 0 1
21.861732 6.301231 -11.263517 25.387155 0.280625 2.030486 0.127866 -0.004206 -461173.000000 0 0 1
21.978332 4.817731 -11.797517 25.405492 0.215791 2.053718 0.143046 -0.023375 -397754.000000 0 0 1
20.763332 4.204531 -12.133517 24.413445 0.199796 2.090936 0.102293 -0.036448 182516.000000 0 1 0
20.180332 4.637031 -13.350817 24.637211 0.225859 2.143488 0.064320 -0.037277 -335494.000000 0 1 0
19.114232 3.709731 -13.930617 23.941137 0.191699 2.191822 0.059130 -0.040866 -367511.000000 0 1 0
19.677532 2.528031 -14.418117 24.525055 0.127773 2.199248 0.087751 -0.066677 282945.000000 0 1 0
19.523632 1.480631 -13.442417 23.750012 0.075693 2.172437 0.120831 -0.075805 -649912.000000 0 1 0
20.601232 0.351231 -13.449117 24.605139 0.017047 2.149092 0.155230 -0.066162 467725.000000 0 1 0
21.927132 0.895531 -13.213417 25.616313 0.040819 2.112761 0.182804 -0.047317 1506950.000000 0 0 1
22.683332 1.309431 -14.361417 26.879331 0.057663 2.134466 0.131275 -0.034624 -293325.000000 0 0 1
23.236732 0.185831 -15.212517 27.774105 0.007997 2.150437 0.120768 -0.034407 -76486.300000 0 0 1
22.270032 -0.607369 -15.981617 27.417792 -0.027266 2.193080 0.126811 -0.035547 771435.000000 0 0 1
22.944532 -1.645169 -16.643617 28.393100 -0.071580 2.197139 0.097629 -0.026302 -97239.400000 0 0 1
22.028532 -2.491769 -17.539117 28.268105 -0.112637 2.240120 0.117110 -0.030382 -260903.000000 0 0 1
21.274932 -3.466269 -16.884217 27.380915 -0.161508 2.235266 0.145570 -0.027847 -26645.000000 0 0 1
20.390932 -4.057269 -17.800417 27.369808 -0.196409 2.278864 0.132252 -0.018165 323139.000000 0 0 1
19.459232 -5.131669 -17.127617 26.426331 -0.257844 2.275919 0.141201 -0.021919 618270.000000 0 0 1
20.334532 -6.177969 -16.717117 27.039277 -0.294955 2.237315 0.143779 -0.017512 795045.000000 0 0 1
19.595732 -7.250269 -16.130817 26.396257 -0.354373 2.228249 0.162640 -0.010289 187908.000000 0 0 1
20.476532 -8.358069 -15.465317 26.987436 -0.387536 2.181027 0.193684 -0.011287 -53799.300000 0 0 1
21.209832 -9.121669 -16.355117 28.294022 -0.406155 2.187123 0.172410 -0.023298 118094.000000 0 0 1
22.055432 -10.018869 -15.670317 28.850973 -0.426390 2.144977 0.138107 -0.024527 -344010.000000 0 0 1
22.708332 -11.109069 -16.514917 30.196394 -0.454976 2.149473 0.115791 -0.026375 24201.700000 0 0 1
23.699632 -10.626069 -17.419117 31.273176 -0.421493 2.161564 0.097626 -0.021682 202862.000000 0 0 1
24.082832 -11.563769 -18.410217 32.444408 -0.447655 2.174188 0.089753 -0.014327 -384491.000000 0 0 1
23.308232 -11.522069 -19.743417 32.647117 -0.459105 2.220251 0.116144 -0.014373 858532.000000 0 0 1
21.930632 -11.914769 -19.725417 31.812048 -0.497680 2.239617 0.134310 -0.024040 611096.000000 0 0 1
21.668032 -13.324569 -19.516017 32.061233 -0.551333 2.225231 0.114540 -0.011498 746672.000000 0 0 1
20.112332 -13.614569 -19.511017 31.153526 -0.595072 2.247576 0.113411 -0.014902 1175970.000000 0 0 1
19.489832 -13.342769 -20.761517 31.447156 -0.600316 2.291886 0.108911 -0.005911 -562412.000000 0 0 1
18.127432 -13.615769 -20.637817 30.657991 -0.644214 2.309274 0.109537 -0.007077 -439480.000000 0 0 1
17.227032 -13.015169 -21.727417 30.630800 -0.647017 2.359347 0.107017 -0.012725 -30329.700000 0 0 1
17.360432 -13.611169 -22.996217 31.866511 -0.664929 2.376968 0.083281 -0.005005 601584.000000 0 0 1
16.414532 -13.054569 -23.914917 31.808519 -0.671872 2.421645 0.095041 -0.018604 239492.000000 0 0 1
16.554732 -13.743969 -25.270917 33.189984 -0.692894 2.436269 0.088258 -0.025614 -408364.000000 0 0 1
15.919132 -14.987769 -25.296477 33.435964 -0.755273 2.428840 0.090815 -0.021079 31763.900000 0 0 1
15.827832 -15.525069 -26.592437 34.622330 -0.775742 2.446621 0.094321 -0.023688 79718.700000 0 0 1
16.894332 -16.631769 -26.855597 35.822580 -0.777567 2.418380 0.078357 -0.023419 521402.000000 0 0 1
18.259132 -16.276169 -26.721017 36.225989 -0.728043 2.400335 0.070682 -0.018975 8372.000000 0 0 1
19.094332 -17.343469 -27.018947 37.355226 -0.737384 2.379362 0.084689 -0.021569 588720.000000 0 0 1
20.607332 -16.953069 -27.148097 38.066886 -0.688413 2.364804 0.098143 -0.015324 839105.000000 0 0 1
21.246932 -16.603069 -25.910347 37.395723 -0.663317 2.336257 0.109583 -0.010970 766470.000000 0 0 1
22.648032 -16.392869 -26.163847 38.291074 -0.626528 2.323053 0.119149 -0.011598 638235.000000 0 0 1
23.335132 -15.724469 -24.932317 37.595315 -0.592962 2.295851 0.122543 -0.007730 77467.100000 0 0 1
22.991332 -14.376469 -24.612217 36.620287 -0.558815 2.307827 0.128803 -0.011313 473424.000000 0 0 1
21.651232 -14.113769 -24.166917 35.383813 -0.577688 2.322650 0.134830 -0.009173 852700.000000 0 0 1
21.697432 -12.907669 -23.282217 34.343094 -0.536657 2.315740 0.135308 -0.012005 140338.000000 0 0 1
21.817132 -11.723169 -24.018217 34.500648 -0.493070 2.340841 0.138761 -0.020882 67050.300000 0 0 1
21.834332 -10.582369 -23.158417 33.541569 -0.451306 2.332892 0.144863 -0.024557 18864.500000 0 0 1
21.885432 -9.311569 -24.026517 33.807558 -0.402268 2.361267 0.136908 -0.022524 -138401.000000 0 0 1
21.559532 -8.077269 -23.418617 32.840331 -0.358463 2.364714 0.143987 -0.028928 -69823.000000 0 0 1
21.379232 -7.143169 -24.395517 33.215022 -0.322456 2.395685 0.108737 -0.021173 -157345.000000 0 0 1
20.629332 -5.885869 -23.863917 32.088928 -0.277931 2.409356 0.119585 -0.028804 134499.000000 0 0 1
19.272732 -6.192769 -23.590017 31.085004 -0.310902 2.432399 0.145221 -0.032013 106702.000000 0 0 1
18.580632 -5.248169 -22.777317 29.859493 -0.275283 2.438454 0.141559 -0.031554 166706.000000 0 0 1
19.042032 -5.282669 -21.298817 29.054177 -0.270616 2.393625 0.139670 -0.027199 -278664.000000 0 0 1
18.607932 -6.392669 -20.447217 28.376223 -0.330913 2.375429 0.158394 -0.034041 103713.000000 0 0 1
19.405032 -7.523769 -20.567517 29.260641 -0.369878 2.350273 0.149578 -0.028141 -292818.000000 0 0 1
18.963732 -8.592669 -19.533817 28.548679 -0.425438 2.324341 0.156145 -0.030274 -333809.000000 0 0 1
17.695332 -9.104269 -19.785517 28.062059 -0.475181 2.353308 0.179016 -0.030868 -802694.000000 0 0 1
17.413032 -10.205869 -19.013617 27.728885 -0.530140 2.326357 0.178830 -0.026024 963012.000000 0 0 1
15.894432 -10.462369 -18.695317 26.676001 -0.582147 2.347355 0.162111 -0.026013 911754.000000 0 0 1
15.243932 -9.560169 -17.821417 25.325426 -0.560141 2.351383 0.163935 -0.018191 -58075.600000 0 0 1
13.843332 -9.621469 -17.895617 24.585842 -0.607380 2.386026 0.142967 -0.031426 -269709.000000 0 1 0
13.177032 -8.291369 -17.545117 23.456600 -0.561635 2.415813 0.155474 -0.013224 852573.000000 0 1 0
11.752132 -8.272969 -17.757717 22.844937 -0.613375 2.461183 0.132408 -0.025256 681394.000000 0 1 0
11.201032 -6.990769 -17.525117 21.942281 -0.557965 2.495914 0.124003 -0.025871 538259.000000 0 1 0
9.674732 -6.825969 -17.753917 21.340006 -0.614438 2.553418 0.100174 -0.023979 513953.000000 0 1 0
9.350332 -6.527569 -19.102217 22.247080 -0.609457 2.603405 0.093137 -0.034129 -777058.000000 0 1 0
7.987832 -6.320269 -19.264017 21.791136 -0.669375 2.655211 0.078441 -0.039807 -686647.000000 0 1 0
7.612432 -5.877969 -20.690017 22.816144 -0.657529 2.706462 0.090957 -0.049187 48323.200000 0 1 0
7.566032 -6.955469 -21.637117 23.953877 -0.743377 2.698156 0.089456 -0.043238 215684.000000 0 1 0
6.711532 -6.505169 -22.683417 24.533636 -0.769786 2.750740 0.101907 -0.045790 97470.900000 0 1 0
6.519532 -7.537569 -23.827317 25.827510 -0.857693 2.745449 0.092471 -0.042347 27422.100000 0 0 1
5.946332 -8.793569 -23.413817 25.707830 -0.976213 2.715932 0.101121 -0.034927 131902.000000 0 0 1
6.079832 -9.733369 -24.435917 26.996608 -1.012457 2.702523 0.091318 -0.025951 -106687.000000 0 0 1
5.457232 -11.112669 -24.132117 27.122534 -1.114308 2.667581 0.097594 -0.026446 60152.400000 0 0 1
6.270732 -11.993669 -23.417117 27.046840 -1.089047 2.617541 0.075062 -0.014948 -338962.000000 0 0 1
5.656932 -13.261569 -23.376817 27.465354 -1.167600 2.588946 0.077575 -0.013998 -566274.000000 0 0 1
6.378332 -14.287169 -22.503317 27.408130 -1.150909 2.534036 0.082789 -0.009234 -64491.600000 0 0 1
7.542432 -14.926269 -23.002917 28.439690 -1.102908 2.512959 0.054813 -0.003043 88592.100000 0 0 1
8.717532 -14.140769 -23.079317 28.436096 -1.018346 2.517717 0.082852 -0.013522 345280.000000 0 0 1
9.486332 -13.741969 -21.747317 27.418570 -0.966598 2.486777 0.072015 -0.007703 -53759.600000 0 0 1
9.993532 -14.778169 -20.914317 27.489518 -0.976198 2.435358 0.067977 -0.007588 738077.000000 0 0 1
8.932532 -15.458169 -20.225817 26.978302 -1.046821 2.418415 0.073985 -0.005118 441515.000000 0 0 1
9.435532 -15.964069 -18.843417 26.437759 -1.036985 2.364202 0.072666 -0.000421 600757.000000 0 0 1
10.392132 -17.029669 -18.988217 27.541939 -1.022884 2.331497 0.073211 -0.001769 52521.000000 0 0 1
10.971332 -17.367569 -17.710917 27.123406 -1.007384 2.282303 0.055539 0.003919 -10116.100000 0 0 1
10.062032 -18.159069 -16.704417 26.646460 -1.064807 2.248352 0.059137 -0.012909 209900.000000 0 0 1
9.609332 -19.495269 -17.037417 27.616632 -1.112840 2.235627 0.059093 -0.018598 417087.000000 0 0 1
8.815932 -19.727569 -18.206017 28.255206 -1.150537 2.270959 0.083965 -0.006680 304830.000000 0 0 1
7.284832 -19.541769 -18.012917 27.557480 -1.213971 2.283192 0.096083 -0.008866 188341.000000 0 0 1
6.797832 -18.217869 -17.879117 26.415224 -1.213657 2.314270 0.104292 -0.011918 -497629.000000 0 0 1
5.419632 -18.231869 -17.628317 25.933203 -1.281854 2.318230 0.094240 -0.013780 -136742.000000 0 0 1
5.026532 -16.696769 -17.342117 24.592623 -1.278378 2.353467 0.079318 -0.000767 236515.000000 0 1 0
5.500232 -16.222469 -16.059417 23.480330 -1.243909 2.323962 0.062723 -0.001993 268603.000000 0 1 0
4.930432 -14.962169 -15.692817 22.236010 -1.252476 2.354262 0.036665 0.009062 68476.800000 0 1 0
10.780832 29.389231 -18.062117 36.141296 1.219208 2.094123 0.099028 -0.040961 -79726.400000 0 0 1
9.740132 29.269131 -19.021817 36.240609 1.249545 2.123365 0.130220 -0.037664 -244518.000000 0 0 1
8.960132 28.182431 -18.598517 34.934771 1.262969 2.132204 0.109970 -0.039467 -10324.400000 0 0 1
7.914632 27.608231 -19.599217 34.770463 1.291607 2.169624 0.118003 -0.033797 258243.000000 0 0 1
7.015732 28.622331 -19.985417 35.607235 1.330422 2.166721 0.135682 -0.048669 -591000.000000 0 0 1
6.214232 28.201031 -21.036817 35.727615 1.353908 2.200383 0.114967 -0.041581 -402612.000000 0 0 1
5.112232 29.158831 -21.427717 36.544759 1.397237 2.197332 0.107173 -0.048594 -472747.000000 0 0 1
3.884832 29.120731 -20.735717 35.959406 1.438175 2.185409 0.104737 -0.043837 -225735.000000 0 0 1
3.043932 30.092031 -21.342417 37.017491 1.469985 2.185296 0.100269 -0.047894 -519015.000000 0 0 1
1.619232 30.025531 -20.732817 36.524021 1.516920 2.174443 0.111457 -0.040863 34647.900000 0 0 1
0.908532 28.855631 -21.026617 35.715424 1.539321 2.200279 0.121577 -0.058218 -66512.100000 0 0 1
0.339732 28.756831 -22.338017 36.415076 1.558983 2.231190 0.148333 -0.072971 -760346.000000 0 0 1
-0.308568 27.424031 -22.611617 35.545153 -1.559545 2.260279 0.152672 -0.070580 -727822.000000 0 0 1
-1.213668 27.199431 -21.595717 34.751360 -1.526205 2.241370 0.154402 -0.071307 -1074500.000000 0 0 1
-1.799968 25.997831 -21.888817 34.033034 -1.501671 2.269419 0.160953 -0.081310 -609201.000000 0 0 1
-2.979468 25.724531 -20.955617 33.313160 -1.455488 2.251126 0.120267 -0.073933 -930649.000000 0 0 1
-4.185968 26.357231 -21.212617 34.091070 -1.413295 2.242389 0.108188 -0.067841 -587839.000000 0 0 1
-5.165568 25.907331 -20.298417 33.315141 -1.373991 2.225955 0.101702 -0.065311 311995.000000 0 0 1
-6.550968 26.586131 -20.570417 34.247330 -1.329204 2.215101 0.092892 -0.072042 497403.000000 0 0 1
-7.606568 26.013531 -19.819317 33.576316 -1.286319 2.202198 0.111178 -0.064841 -168326.000000 0 0 1
-8.027668 26.859731 -18.765517 33.734748 -1.280373 2.160683 0.097972 -0.073112 626920.000000 0 0 1
-9.432868 26.557831 -18.131417 33.511873 -1.229512 2.142475 0.136361 -0.057310 598755.000000 0 0 1
-9.430868 25.520531 -17.201617 32.189041 -1.216821 2.134586 0.129188 -0.065831 277955.000000 0 0 1
-10.718768 25.232331 -16.645217 32.072196 -1.169093 2.116468 0.108827 -0.057234 371070.000000 0 0 1
-10.633168 24.472631 -15.260017 30.738283 -1.160913 2.090301 0.087762 -0.039437 -97681.300000 0 0 1
-10.209168 23.161831 -15.291617 29.572471 -1.155640 2.114243 0.101987 -0.038793 -274873.000000 0 0 1
-10.373268 22.488831 -14.084317 28.490703 -1.138616 2.087881 0.105507 -0.028599 -193596.000000 0 0 1
-9.839268 21.029031 -14.055517 27.140171 -1.133165 2.115174 0.126121 -0.008800 96737.600000 0 0 1
-10.612668 19.968331 -14.636517 26.936789 -1.082287 2.145237 0.093968 -0.006407 -249704.000000 0 0 1
-10.868668 19.935831 -16.085117 27.826180 -1.071659 2.187142 0.116754 -0.008366 -190222.000000 0 0 1
-9.677168 19.842331 -17.065217 27.903177 -1.117034 2.228861 0.112344 -0.023487 -21231.600000 0 0 1
-9.105668 18.536831 -17.001517 26.750306 -1.114197 2.259534 0.104280 -0.016988 -244096.000000 0 0 1
-8.142568 18.370231 -18.005317 26.980701 -1.153572 2.301428 0.121348 -0.027628 -70224.500000 0 0 1
-7.472868 16.975631 -18.009417 25.852561 -1.156112 2.341472 0.109210 -0.023901 73198.700000 0 0 1
-8.354168 15.936031 -18.447717 25.769506 -1.087952 2.368671 0.104840 -0.031217 239930.000000 0 0 1
-7.858368 15.100931 -19.488417 25.876446 -1.090970 2.423609 0.102188 -0.037895 -804153.000000 0 0 1
-6.533868 14.384531 -19.393717 25.014444 -1.144431 2.457987 0.069850 -0.030879 -1052390.000000 0 0 1
-6.605868 13.179031 -18.666917 23.786091 -1.106157 2.473142 0.038483 -0.030259 188899.000000 0 1 0
-5.309068 12.637931 -18.490517 23.017444 -1.173092 2.503656 0.032372 -0.018964 446402.000000 0 1 0
-4.580968 13.229131 -17.222317 22.194670 -1.237440 2.459042 0.032807 -0.012130 -121838.000000 0 1 0
-4.107768 14.553531 -17.405917 23.057427 -1.295700 2.426289 0.053329 -0.021206 -188195.000000 0 1 0
-3.471068 15.135931 -16.295517 22.509744 -1.345368 2.380281 0.056129 -0.010804 180322.000000 0 1 0
-2.635768 16.409631 -16.587917 23.481530 -1.411533 2.355229 0.084807 -0.017811 37714.500000 0 1 0
-3.383668 17.540331 -16.845217 24.553487 -1.380229 2.326859 0.092058 -0.023604 -137301.000000 0 1 0
-2.471068 18.638031 -16.851317 25.247757 -1.438983 2.301560 0.103937 -0.025595 550521.000000 0 0 1
-3.076668 19.991331 -17.325517 26.632550 -1.418094 2.279090 0.113727 -0.028658 172944.000000 0 0 1
-3.354968 19.970831 -18.712217 27.572395 -1.404357 2.316730 0.128032 -0.033386 -269837.000000 0 0 1
-3.777068 21.240031 -19.241617 28.907524 -1.394808 2.299129 0.151277 -0.043451 46807.500000 0 0 1
-2.718368 22.378131 -19.247417 29.641750 -1.449914 2.277506 0.125383 -0.062591 -533823.000000 0 0 1
-1.784968 22.140431 -20.293017 30.086398 -1.490350 2.311072 0.150345 -0.054379 310565.000000 0 0 1
-0.582868 22.916731 -20.228517 30.573014 -1.545368 2.293808 0.137052 -0.062784 818994.000000 0 0 1
0.500832 22.315231 -19.308217 29.513177 1.548357 2.283952 0.130438 -0.057822 -471627.000000 0 0 1
0.057032 22.350431 -17.986517 28.689019 1.568245 2.248426 0.126517 -0.045375 -677918.000000 0 0 1
1.031832 21.800731 -17.145917 27.754621 1.523501 2.236697 0.115762 -0.041524 -109186.000000 0 0 1
0.612132 21.739931 -15.637117 26.786540 1.542647 2.194158 0.120926 -0.039427 22379.400000 0 0 1
-0.337068 20.750431 -15.224917 25.738922 -1.554554 2.203731 0.112114 -0.030419 46675.400000 0 0 1
-0.489868 20.712531 -13.859117 24.926372 -1.547150 2.160365 0.112533 -0.026070 518324.000000 0 1 0
-1.456968 19.603131 -13.297417 23.732400 -1.496610 2.165552 0.083202 -0.019560 633425.000000 0 1 0
-0.922168 18.313731 -13.400717 22.711723 -1.520485 2.201899 0.065591 -0.022720 404991.000000 0 1 0
-1.863768 17.408831 -12.799817 21.688161 -1.464144 2.202072 0.055011 -0.019863 599769.000000 0 1 0
-1.398168 15.929831 -12.884017 20.535634 -1.483250 2.249004 0.033991 -0.018394 -381664.000000 0 1 0
-0.322868 15.545931 -12.025717 19.657011 -1.550031 2.229102 0.026432 -0.020967 411084.000000 0 1 0
0.050032 14.242131 -12.164517 18.730090 1.567283 2.277675 0.021774 -0.014681 260154.000000 0 1 0
0.762232 13.806631 -13.487117 19.315962 1.515645 2.343728 0.012879 -0.012767 -560416.000000 0 1 0
-0.184268 13.470131 -14.471517 19.771272 -1.557117 2.391971 0.022787 -0.021259 250774.000000 0 1 0
0.428332 12.578131 -15.388717 19.879775 1.536756 2.456071 0.018595 -0.022182 -90010.200000 0 1 0
-0.197268 12.643031 -16.785717 21.015362 -1.555195 2.495987 0.023583 -0.011706 127708.000000 0 1 0
0.176132 13.875231 -17.376917 22.237587 1.558103 2.467736 0.035697 -0.018920 -29704.900000 0 1 0
-0.216668 13.871131 -18.710117 23.292138 -1.555178 2.503579 0.038880 -0.013381 -531593.000000 0 1 0
-0.824268 15.162731 -19.281617 24.543198 -1.516488 2.474493 0.055806 -0.020001 -522234.000000 0 1 0
0.021432 16.254231 -19.379917 25.293906 1.569478 2.443686 0.060402 -0.024055 -457193.000000 0 0 1
-0.701368 17.362031 -19.771317 26.321797 -1.530422 2.420581 0.107544 -0.038642 317984.000000 0 0 1
0.299132 18.553831 -20.040917 27.312497 1.554675 2.394641 0.125387 -0.046176 818253.000000 0 0 1
1.080532 18.315131 -21.205417 28.040707 1.511868 2.428339 0.131932 -0.057695 -268364.000000 0 0 1
1.946032 19.334731 -21.536117 29.007295 1.470485 2.407499 0.127449 -0.056619 -107238.000000 0 0 1
2.499532 19.192731 -23.013017 30.070044 1.441292 2.442325 0.136198 -0.063415 411423.000000 0 0 1
3.341332 18.051631 -23.219017 29.599808 1.387769 2.472575 0.119783 -0.053087 162407.000000 0 0 1
3.706032 17.904931 -24.590317 30.643187 1.366695 2.502224 0.111358 -0.059282 130390.000000 0 0 1
4.737032 16.798731 -24.858117 30.373719 1.295946 2.529433 0.101853 -0.047485 158777.000000 0 0 1
6.060432 17.004631 -24.365317 30.324165 1.228432 2.503939 0.089637 -0.037721 580578.000000 0 0 1
6.970832 15.960731 -24.638417 30.172653 1.159016 2.526259 0.104068 -0.039554 123400.000000 0 0 1
7.572832 15.915331 -26.082167 31.478961 1.126679 2.547325 0.099129 -0.041197 -605093.000000 0 0 1
8.769332 16.693731 -26.154497 32.243442 1.087109 2.516924 0.075661 -0.035411 618556.000000 0 0 1
9.392932 16.690131 -27.451667 33.472103 1.058191 2.532444 0.087694 -0.040344 244133.000000 0 0 1
9.977932 15.375731 -28.038097 33.497867 0.995166 2.562595 0.082525 -0.044010 -1064390.000000 0 0 1
11.008232 14.928231 -27.235927 32.951919 0.935401 2.543721 0.086382 -0.036898 -618228.000000 0 0 1
11.314232 13.578431 -27.219227 32.454151 0.876107 2.565684 0.077228 -0.027705 53342.300000 0 0 1
10.368632 12.755431 -26.269987 30.989059 0.888251 2.582465 0.087830 -0.024791 -636318.000000 0 0 1
9.060232 12.819331 -26.698547 30.971526 0.955546 2.610068 0.118296 -0.034560 -1173790.000000 0 0 1
8.335232 11.674431 -26.257287 29.920119 0.950754 2.641586 0.126203 -0.039884 -162344.000000 0 0 1
6.817732 11.780431 -26.417597 29.717830 1.046161 2.665839 0.114731 -0.043305 -651379.000000 0 0 1
6.252432 12.644631 -25.422837 29.074047 1.111580 2.635029 0.129124 -0.032868 15759.700000 0 0 1
4.841432 12.704331 -25.341397 28.758058 1.206701 2.649176 0.130377 -0.047991 460452.000000 0 0 1
4.236432 13.670931 -26.461607 30.084188 1.270295 2.645786 0.134321 -0.040994 -742483.000000 0 0 1
4.300832 13.212031 -27.797007 31.076173 1.256091 2.678063 0.133666 -0.058231 242938.000000 0 0 1
4.047032 14.185131 -28.737717 32.302520 1.292879 2.667360 0.133814 -0.068080 -119659.000000 0 0 1
4.063732 13.567531 -30.208597 33.363920 1.279781 2.703181 0.160233 -0.063310 631074.000000 0 0 1
5.413532 13.369231 -30.641847 33.866878 1.186052 2.701643 0.151452 -0.055324 787649.000000 0 0 1
5.363532 13.084731 -32.002507 34.987685 1.181778 2.725510 0.145196 -0.050821 -625017.000000 0 0 1
6.433132 12.064831 -32.448237 35.211268 1.080932 2.742799 0.144654 -0.041495 1049940.000000 0 0 1
7.840232 12.381231 -32.406577 35.566140 1.006297 2.716896 0.149690 -0.036144 1158030.000000 0 0 1
8.387332 12.662931 -31.137887 34.644843 0.985786 2.687761 0.142743 -0.037630 -840403.000000 0 0 1
8.624232 11.361831 -30.219637 33.416987 0.921526 2.700579 0.160690 -0.042295 -260173.000000 0 0 1
9.624232 10.406831 -30.512707 33.644513 0.824448 2.706699 0.124879 -0.040544 -44119.300000 0 0 1
9.557132 9.463031 -29.456957 32.382094 0.780451 2.713280 0.128257 -0.038154 160835.000000 0 0 1
10.536232 8.279431 -29.535497 32.433112 0.666026 2.715672 0.109330 -0.035159 -780304.000000 0 0 1
11.824532 8.406431 -29.086257 32.503815 0.618025 2.678906 0.102940 -0.037623 -774163.000000 0 0 1
12.608032 7.233531 -29.125097 32.550848 0.520875 2.678683 0.078753 -0.025036 -340309.000000 0 0 1
14.045732 7.398531 -28.628387 32.735384 0.484815 2.635282 0.077230 -0.020359 -156195.000000 0 0 1
14.772532 6.196831 -28.514527 32.706370 0.397189 2.629731 0.077486 -0.026256 -168546.000000 0 0 1
15.666332 5.968431 -29.559067 33.982268 0.363996 2.625670 0.074031 -0.022629 -781678.000000 0 0 1
16.457632 4.667231 -29.319497 33.945097 0.276335 2.613427 0.094083 -0.032472 -127592.000000 0 0 1
17.390832 4.811731 -28.287747 33.552800 0.269929 2.573784 0.076396 -0.027637 46411.100000 0 0 1
18.300732 3.765231 -28.082317 33.729961 0.202911 2.554515 0.067825 -0.032166 15686.300000 0 0 1
18.950932 3.903231 -26.688377 32.964261 0.203125 2.514293 0.088532 -0.019394 -90212.100000 0 0 1
19.888732 4.940131 -26.553447 33.541796 0.243461 2.484305 0.125118 -0.021540 85090.600000 0 0 1
20.362832 5.134031 -25.219077 32.817755 0.246980 2.447225 0.139417 -0.026972 261091.000000 0 0 1
21.361632 6.311831 -25.187417 33.623868 0.287300 2.417489 0.141815 -0.021329 126419.000000 0 0 1
20.609432 7.500331 -25.486727 33.624052 0.349028 2.431024 0.143366 -0.021717 519450.000000 0 0 1
21.431232 8.541431 -25.976087 34.742061 0.379256 2.415364 0.140382 -0.038103 -536482.000000 0 0 1
21.954432 8.460231 -27.435177 36.142240 0.367817 2.432709 0.185533 -0.038936 465239.000000 0 0 1
20.945732 8.701531 -28.430757 36.369606 0.393739 2.468211 0.151434 -0.028801 -83656.700000 0 0 1
19.939932 7.762731 -28.457517 35.604651 0.371253 2.496866 0.132931 -0.020791 -2042640.000000 0 0 1
18.632532 8.270631 -28.976257 35.428774 0.417754 2.528502 0.123128 -0.015003 -1362820.000000 0 0 1
18.540832 8.408231 -30.409377 36.594959 0.425759 2.551648 0.088284 -0.014366 521448.000000 0 0 1
17.368732 9.149131 -30.737797 36.471792 0.484825 2.573229 0.071427 -0.011982 -5911.130000 0 0 1
16.880332 9.255231 -32.212817 37.526930 0.501525 2.602923 0.047848 -0.007300 -92794.700000 0 0 1
16.333632 7.991731 -32.524987 37.262985 0.455035 2.631808 0.077624 -0.007580 517299.000000 0 0 1
14.966532 8.144131 -32.900707 37.051052 0.498346 2.663737 0.071729 -0.015277 436199.000000 0 0 1
14.242432 6.822931 -33.298517 36.853636 0.446753 2.698743 0.086776 -0.024245 127045.000000 0 0 1
13.979732 5.979631 -32.201927 35.611136 0.404186 2.700453 0.096334 -0.025611 3412.130000 0 0 1
13.255432 4.867931 -32.711357 35.629147 0.351950 2.734073 0.107547 -0.034425 171607.000000 0 0 1
12.934032 3.820931 -31.603827 34.361178 0.287247 2.738249 0.120515 -0.033701 239828.000000 0 0 1
13.976832 2.861731 -31.453227 34.537614 0.201957 2.715759 0.123938 -0.039689 363682.000000 0 0 1
13.801232 1.946131 -30.342097 33.390182 0.140088 2.710987 0.147386 -0.036561 -189811.000000 0 0 1
13.011932 0.640931 -30.613767 33.270466 0.049217 2.739256 0.145663 -0.033992 407415.000000 0 0 1
13.749132 -0.475969 -31.150697 34.053356 -0.034604 2.725713 0.137032 -0.033472 -175427.000000 0 0 1
14.863132 -0.909169 -30.430967 33.878947 -0.061093 2.686514 0.126744 -0.034065 -151418.000000 0 0 1
15.438532 -2.210669 -31.032967 34.731547 -0.142225 2.675897 0.133455 -0.031213 200000.000000 0 0 1
14.533432 -3.292169 -30.832727 34.244942 -0.222764 2.691389 0.144315 -0.028018 186097.000000 0 0 1
14.856632 -4.383969 -31.613957 35.204843 -0.286942 2.686000 0.117936 -0.016515 -82749.700000 0 0 1
14.057532 -5.713969 -31.396477 34.871226 -0.386072 2.691381 0.148946 -0.030507 73765.000000 0 0 1
14.396732 -6.398469 -30.255837 34.111903 -0.418220 2.661513 0.129547 -0.015112 39452.200000 0 0 1
13.833032 -7.698469 -30.303707 34.189674 -0.507841 2.660178 0.135301 -0.028188 24527.200000 0 0 1
14.087532 -8.416069 -29.005277 33.325589 -0.538515 2.626730 0.107906 -0.020634 916914.000000 0 0 1
15.481732 -8.654369 -28.703117 33.740940 -0.509731 2.588095 0.143772 -0.019020 935902.000000 0 0 1
15.708332 -9.498869 -27.659017 33.196407 -0.543870 2.555653 0.141100 -0.027758 9417.050000 0 0 1
15.420132 -11.060069 -27.839697 33.692051 -0.622209 2.543300 0.105043 -0.015155 225747.000000 0 0 1
14.056032 -11.374469 -28.069677 33.389479 -0.680340 2.569323 0.092246 -0.019479 30351.300000 0 0 1
13.919232 -12.643469 -28.622207 34.246650 -0.737407 2.560324 0.090694 -0.021457 256305.000000 0 0 1
-10.131168 -2.952569 -17.832417 20.720842 0.283580 2.607249 0.034815 -0.001688 58805.300000 0 1 0
-11.099568 -2.411169 -18.675517 21.858387 0.213907 2.595166 0.057353 -0.012840 515404.000000 0 1 0
-12.155068 -3.300369 -19.069817 22.853796 0.265130 2.557888 0.069246 -0.015367 884898.000000 0 1 0
-13.283168 -2.791869 -20.029617 24.195508 0.207166 2.546014 0.082742 -0.034527 483267.000000 0 1 0
-14.048468 -1.725969 -19.510317 24.103752 0.122246 2.513978 0.069947 -0.029851 -82463.200000 0 1 0
-15.152768 -1.495269 -20.358417 25.422575 0.098361 2.499427 0.075910 -0.024601 265573.000000 0 0 1
-15.943168 -0.190169 -20.230817 25.758624 0.011927 2.474138 0.072593 -0.022290 156735.000000 0 0 1
-15.137568 0.895931 -20.608317 25.586156 -0.059117 2.507227 0.067887 -0.027116 264777.000000 0 0 1
-15.924468 2.074231 -20.573717 26.099213 -0.129525 2.478819 0.068625 -0.016834 255819.000000 0 0 1
-15.220568 3.257831 -21.273817 26.360091 -0.210860 2.509929 0.085148 -0.034841 227210.000000 0 0 1
-14.099868 3.851731 -20.637917 25.289636 -0.266669 2.525361 0.092814 -0.034894 291052.000000 0 0 1
-13.759168 5.033731 -21.328917 25.876163 -0.350721 2.539706 0.109954 -0.043538 664709.000000 0 0 1
-12.341668 5.598531 -20.918217 24.924528 -0.425867 2.566721 0.090313 -0.035246 691993.000000 0 1 0
-12.345968 6.324131 -19.697817 24.091939 -0.473394 2.528045 0.094443 -0.042118 -967125.000000 0 1 0
-11.089168 6.503631 -19.192817 23.100456 -0.530423 2.551414 0.069163 -0.028764 -1299060.000000 0 1 0
-11.050968 7.042031 -17.747317 22.060855 -0.567347 2.505581 0.062710 -0.030233 -389639.000000 0 1 0
-11.646368 8.311831 -17.641517 22.714478 -0.619851 2.460149 0.068057 -0.040350 -690695.000000 0 1 0
-12.868268 8.310131 -16.999117 22.882757 -0.573406 2.408157 0.101901 -0.032118 -793791.000000 0 1 0
-13.622468 9.668031 -17.053517 23.871843 -0.617214 2.366531 0.125972 -0.040767 -75715.000000 0 1 0
-13.032368 10.507031 -16.105017 23.229547 -0.678526 2.336853 0.084948 -0.037377 580388.000000 0 1 0
-13.771968 11.745931 -16.077217 24.209727 -0.706168 2.297060 0.105418 -0.035504 -12391.100000 0 1 0
-13.158868 12.917331 -15.303217 23.962506 -0.776136 2.263515 0.102357 -0.025827 -428526.000000 0 1 0
-13.091768 12.853931 -13.906217 23.021746 -0.776232 2.219366 0.114882 -0.026091 106013.000000 0 1 0
-12.672268 14.101731 -13.382617 23.206456 -0.838738 2.185451 0.096830 -0.023085 -835362.000000 0 1 0
-13.154068 14.462131 -11.969017 22.922480 -0.832729 2.120169 0.085024 -0.025991 441393.000000 0 1 0
-14.502768 14.830031 -11.766817 23.847811 -0.796555 2.086805 0.088905 -0.024698 274067.000000 0 1 0
-15.560968 13.943431 -12.084017 24.136828 -0.730629 2.095142 0.095903 -0.018895 -781818.000000 0 1 0
-16.922768 14.565131 -11.857017 25.280664 -0.710663 2.058972 0.083406 -0.013047 399556.000000 0 0 1
-18.078568 13.743231 -12.196917 25.777428 -0.649994 2.063674 0.084103 -0.015990 781421.000000 0 0 1
-19.229568 14.353131 -11.667517 26.681821 -0.641199 2.023372 0.145209 -0.029741 485253.000000 0 0 1
-20.590968 13.741131 -12.178117 27.588279 -0.588467 2.027981 0.130321 -0.041427 493842.000000 0 0 1
-20.902968 12.494931 -11.738317 27.034153 -0.538770 2.019950 0.134166 -0.048541 213678.000000 0 0 1
-21.959168 11.996131 -12.547517 27.992006 -0.499992 2.035607 0.165120 -0.051867 -127747.000000 0 0 1
-22.578168 10.622231 -12.108617 27.734889 -0.439741 2.022595 0.154050 -0.045521 -448988.000000 0 0 1
-21.769568 9.493131 -11.998317 26.608142 -0.411212 2.038599 0.153735 -0.040810 56474.900000 0 0 1
-22.479268 8.434931 -11.374117 26.567576 -0.358974 2.013208 0.157299 -0.038497 -156248.000000 0 0 1
-21.644068 7.173431 -11.266517 25.433407 -0.320034 2.029717 0.195746 -0.039928 -201820.000000 0 0 1
-21.305268 6.582231 -12.565917 25.595751 -0.299646 2.083962 0.187136 -0.038095 510339.000000 0 0 1
-20.169368 5.740831 -12.479117 24.402641 -0.277298 2.107591 0.190711 -0.041666 -3219.930000 0 1 0
-20.104068 4.582531 -13.462417 24.625389 -0.224111 2.149201 0.191611 -0.047667 83528.000000 0 1 0
-21.002468 3.513731 -13.174217 25.040167 -0.165766 2.124832 0.166330 -0.043062 535553.000000 0 0 1
-20.597268 2.375631 -13.955317 24.992837 -0.114830 2.163219 0.151328 -0.041834 -257639.000000 0 1 0
-21.402468 1.115331 -13.695417 25.433718 -0.052065 2.139422 0.131078 -0.038174 -497578.000000 0 0 1
-22.647868 1.025031 -14.318617 26.814164 -0.045229 2.134114 0.115830 -0.038214 -887.921000 0 0 1
-23.146068 -0.340169 -14.288817 27.203427 0.014696 2.123815 0.097298 -0.041418 520429.000000 0 0 1
-24.580768 -0.568269 -14.864517 28.731358 0.023114 2.114562 0.102898 -0.036980 229709.000000 0 0 1
-25.640598 -0.048069 -14.133317 29.277862 0.001875 2.074566 0.138120 -0.047253 -213676.000000 0 0 1
-26.890228 -0.365969 -14.717717 30.656638 0.013609 2.071545 0.157456 -0.035055 162128.000000 0 0 1
-28.070618 0.165831 -13.883017 31.316533 -0.005908 2.030087 0.163232 -0.035928 -226213.000000 0 0 1
-28.338368 -0.630169 -12.820517 31.109900 0.022234 1.995558 0.186062 -0.042243 -278691.000000 0 0 1
-29.661748 -0.483069 -12.383617 32.146642 0.016284 1.966245 0.221391 -0.051551 -184615.000000 0 0 1
-29.998278 -1.111669 -11.034617 31.982733 0.037041 1.923054 0.229243 -0.055731 -198441.000000 0 0 1
-30.239888 -2.551569 -10.950717 32.262664 0.084178 1.917101 0.243475 -0.056318 828707.000000 0 0 1
-29.151308 -3.432169 -11.269517 31.441701 0.117197 1.937377 0.232246 -0.053716 197628.000000 0 0 1
-29.529758 -4.814769 -10.755317 31.794110 0.161626 1.915885 0.229071 -0.060164 -5225.230000 0 0 1
-30.502078 -5.488269 -11.557617 33.076825 0.178026 1.927746 0.234324 -0.047964 360173.000000 0 0 1
-30.955858 -6.674369 -10.963217 33.511259 0.212358 1.904083 0.235056 -0.053422 298602.000000 0 0 1
-30.124768 -7.927769 -11.452617 33.189058 0.257330 1.923112 0.226460 -0.055469 513193.000000 0 0 1
-28.740868 -7.850069 -11.166717 31.817552 0.266629 1.929393 0.156045 -0.050759 18193.200000 0 0 1
-28.113768 -9.050169 -11.522617 31.702684 0.311437 1.942774 0.149471 -0.051959 -1067160.000000 0 0 1
-26.636348 -9.124169 -11.226217 30.311275 0.330019 1.950198 0.148432 -0.061676 -1152380.000000 0 0 1
-25.888448 -8.079469 -11.843017 29.593016 0.302509 1.982527 0.118063 -0.056563 241751.000000 0 0 1
-24.538268 -7.887169 -11.491717 28.220446 0.310993 1.990196 0.118124 -0.056478 -177151.000000 0 0 1
-24.307868 -7.535669 -9.977217 27.335025 0.300614 1.944426 0.129045 -0.056596 -853384.000000 0 0 1
-24.648068 -6.248369 -9.441617 27.124039 0.248273 1.926330 0.134808 -0.043338 712560.000000 0 0 1
-26.033468 -5.940469 -9.530517 28.352449 0.224345 1.913616 0.140212 -0.046449 -104724.000000 0 0 1
-26.483158 -4.674869 -8.756017 28.282148 0.174722 1.885564 0.155224 -0.047658 -496172.000000 0 0 1
-26.398948 -4.702269 -7.353117 27.804390 0.176275 1.838439 0.159117 -0.047280 234573.000000 0 0 1
-26.556198 -3.353869 -6.900217 27.642233 0.125628 1.823090 0.186369 -0.052673 22985.900000 0 0 1
-26.272628 -3.129969 -5.361417 26.996156 0.118575 1.770725 0.188337 -0.048114 431071.000000 0 0 1
-24.925868 -3.387369 -4.975017 25.642230 0.135070 1.766051 0.152795 -0.037543 175301.000000 0 0 1
-24.733968 -2.895469 -3.658317 25.170145 0.116534 1.716656 0.142745 -0.033167 -349180.000000 0 0 1
-23.302568 -3.016569 -3.123117 23.703654 0.128736 1.702937 0.126586 -0.025622 -373533.000000 0 1 0
-22.922268 -4.358469 -3.046017 23.530933 0.187898 1.700608 0.134196 -0.024009 592791.000000 0 1 0
-21.722168 -4.485469 -2.274717 22.296779 0.203631 1.672994 0.112905 -0.016589 252872.000000 0 1 0
-21.405768 -6.016669 -1.963717 22.321814 0.274007 1.658883 0.110387 -0.018997 -183283.000000 0 1 0
-22.235668 -6.669569 -1.033017 23.237366 0.291410 1.615266 0.125343 -0.016608 671727.000000 0 1 0
-22.935468 -7.844169 -1.539017 24.288582 0.329539 1.634203 0.130916 -0.022102 457858.000000 0 1 0
-23.226668 -8.849469 -0.384317 24.858377 0.364025 1.586257 0.127132 -0.023189 319174.000000 0 1 0
-22.025468 -9.540369 -0.062117 24.002994 0.408755 1.573384 0.089372 -0.010264 505844.000000 0 1 0
-22.156468 -10.301769 1.162783 24.461962 0.435221 1.523244 0.052887 -0.009168 478001.000000 0 1 0
-20.799568 -10.872669 1.689883 23.530675 0.481670 1.498918 0.060070 -0.012250 473030.000000 0 1 0
-20.220568 -11.899369 0.893383 23.479022 0.531905 1.532737 0.058836 -0.002262 -85784.800000 0 1 0
-19.171368 -12.503469 1.564983 22.941823 0.577917 1.502528 0.036065 -0.010903 -661254.000000 0 1 0
-18.688968 -13.760769 0.880883 23.225250 0.634678 1.532859 0.052368 -0.005813 -6877.960000 0 1 0
-19.634268 -14.797269 1.141483 24.612327 0.645830 1.524401 0.077635 -0.008514 514553.000000 0 1 0
-19.289868 -16.078569 0.603983 25.119398 0.694851 1.546750 0.076724 -0.013045 -594944.000000 0 0 1
-18.152368 -16.839669 1.279183 24.793532 0.747902 1.519180 0.074488 -0.014550 299612.000000 0 1 0
-16.876668 -16.203169 1.067483 23.420165 0.765041 1.525201 0.097186 -0.011242 627670.000000 0 1 0
-15.794368 -16.747869 1.774683 23.089016 0.814690 1.493858 0.104965 -0.018895 159593.000000 0 1 0
-15.590068 -16.521869 3.303283 22.955044 0.814407 1.426393 0.106299 -0.026192 -312364.000000 0 1 0
-15.410668 -15.172769 3.709283 21.942205 0.777620 1.400933 0.083813 -0.017457 751428.000000 0 1 0
-14.508068 -15.006369 4.844983 21.427762 0.802280 1.342716 0.059948 -0.013466 794481.000000 0 1 0
-15.148168 -15.360169 6.240683 22.457691 0.792347 1.289203 0.080095 -0.016727 -408389.000000 0 1 0
-16.091968 -14.482469 6.809583 22.695016 0.732805 1.266054 0.069629 -0.013042 146117.000000 0 1 0
-16.438268 -14.794369 8.120783 23.559226 0.732813 1.218881 0.078735 -0.010308 145861.000000 0 1 0
-17.340768 -16.021469 8.459483 25.078926 0.745874 1.226734 0.062173 -0.008175 -403626.000000 0 0 1
-16.667168 -17.224569 8.208683 25.335010 0.801843 1.240836 0.062227 -0.006442 71149.300000 0 0 1
-17.268968 -18.446869 8.683383 26.719008 0.818366 1.239796 0.058152 -0.011110 -166526.000000 0 0 1
-16.935068 -18.834669 10.132683 27.280259 0.838455 1.190249 0.078472 -0.014214 54553.900000 0 0 1
-15.596868 -19.235069 10.356783 26.842375 0.889471 1.174681 0.048554 -0.013053 66026.900000 0 0 1
-15.393268 -19.461969 11.719983 27.442284 0.901604 1.129538 0.055473 -0.018079 365925.000000 0 0 1
-14.112568 -20.324369 11.962183 27.483420 0.963861 1.120479 0.042459 -0.008188 1125560.000000 0 0 1
-12.903968 -19.568869 11.812083 26.248397 0.987832 1.104018 0.046331 -0.014654 1088770.000000 0 0 1
-11.716168 -20.367269 12.036983 26.400439 1.048778 1.097370 0.047981 -0.012979 1939460.000000 0 0 1
-10.388468 -19.574669 12.367283 25.377896 1.082884 1.061773 0.076065 -0.015827 899274.000000 0 0 1
-9.770768 -18.932369 11.277383 24.105640 1.094361 1.083960 0.071805 -0.016323 -594691.000000 0 1 0
-8.660468 -18.198469 11.637283 23.272609 1.126622 1.047149 0.069886 -0.017678 -359056.000000 0 1 0
-7.754168 -17.517469 10.600283 21.894174 1.154069 1.065393 0.056169 -0.019475 318304.000000 0 1 0
-6.873168 -18.379869 9.898483 21.978171 1.212946 1.103608 0.053647 -0.019062 120375.000000 0 1 0
-6.053268 -17.700769 8.955983 20.740514 1.241286 1.124297 0.047602 -0.011269 484187.000000 0 1 0
-4.841568 -18.479569 8.380883 20.860835 1.314560 1.157367 0.038223 -0.011340 -218190.000000 0 1 0
-3.775168 -18.675069 9.231583 21.171496 1.371334 1.119605 0.046855 -0.004630 -987142.000000 0 1 0
-2.787968 -19.431569 8.608083 21.434965 1.428293 1.157543 0.052795 -0.004794 76616.400000 0 1 0
-1.332268 -19.136969 9.058883 21.214662 1.501291 1.129612 0.052908 -0.022901 274255.000000 0 1 0
-0.366268 -19.799769 8.275283 21.462649 1.552300 1.174974 0.053646 -0.012146 198270.000000 0 1 0
0.854932 -19.922969 9.034683 21.892490 -1.527911 1.145397 0.060090 -0.021914 834562.000000 0 1 0
2.010932 -20.430469 8.118483 22.076179 -1.472684 1.194210 0.062606 -0.034565 67899.200000 0 1 0
1.982532 -21.807869 7.655883 23.197546 -1.480136 1.234461 0.074345 -0.034804 -151481.000000 0 1 0
2.266632 -22.779669 8.662783 24.476412 -1.471620 1.209033 0.084131 -0.038001 -202861.000000 0 1 0
1.947232 -24.225869 8.295183 25.680625 -1.490591 1.241885 0.074126 -0.035376 -120262.000000 0 0 1
2.138132 -25.169699 9.302583 26.918830 -1.486051 1.217941 0.094225 -0.038626 -10932.200000 0 0 1
1.701932 -26.408049 8.765283 27.876725 -1.506438 1.250940 0.101326 -0.034932 -649893.000000 0 0 1
1.602532 -27.542169 9.834483 29.289183 -1.512677 1.228372 0.126442 -0.038770 218503.000000 0 0 1
0.745432 -27.218639 10.893083 29.326937 -1.543416 1.190241 0.108970 -0.045745 -760400.000000 0 0 1
-0.633068 -27.266859 10.675183 29.288938 1.547583 1.197724 0.078962 -0.030623 -674467.000000 0 0 1
-1.345768 -27.249939 12.042083 29.822509 1.521450 1.155139 0.085036 -0.036777 -99956.300000 0 0 1
-1.169168 -28.439999 12.787283 31.204408 1.529709 1.148571 0.096018 -0.043138 -194317.000000 0 0 1
-1.759468 -28.418619 14.065983 31.757921 1.508963 1.111952 0.088365 -0.046867 -365470.000000 0 0 1
-1.313568 -29.549029 15.011983 33.169718 1.526372 1.101139 0.081321 -0.043527 61815.300000 0 0 1
-1.253168 -29.114419 16.350683 33.415037 1.527780 1.059485 0.087927 -0.043483 -48073.900000 0 0 1
-0.828368 -30.104899 17.243483 34.703441 1.543287 1.050795 0.093236 -0.042370 -125108.000000 0 0 1
-1.315368 -29.755899 18.663583 35.149297 1.526620 1.011039 0.091227 -0.043748 -766354.000000 0 0 1
-2.696268 -29.779219 18.799883 35.320070 1.480501 1.009514 0.086083 -0.038990 -812015.000000 0 0 1
-3.095968 -29.696979 20.157283 36.025153 1.466920 0.976973 0.107648 -0.045433 458389.000000 0 0 1
-4.650168 -29.791389 20.345583 36.374355 1.415955 0.977209 0.143148 -0.049483 198473.000000 0 0 1
-5.205368 -28.590289 19.897683 35.219572 1.390701 0.970410 0.114287 -0.046953 1018.160000 0 0 1
-6.473868 -28.369369 20.507283 35.598887 1.346439 0.956890 0.107260 -0.048138 309132.000000 0 0 1
-6.401468 -27.516599 21.805683 35.687951 1.342222 0.913461 0.143999 -0.054015 -383495.000000 0 0 1
-5.735968 -28.075849 22.919183 36.693918 1.369267 0.896171 0.168215 -0.054739 55731.400000 0 0 1
-5.272868 -27.055659 23.799683 36.417533 1.378319 0.858567 0.175142 -0.045961 216982.000000 0 0 1
-4.124468 -27.577779 24.735483 37.274512 1.422339 0.845171 0.204801 -0.042421 197007.000000 0 0 1
-4.422668 -28.629529 25.626083 38.676945 1.417529 0.846555 0.203350 -0.045702 -19954.500000 0 0 1
-3.885368 -29.874959 25.230883 39.296396 1.441468 0.873606 0.197719 -0.045856 -57268.400000 0 0 1
-4.179168 -30.983169 26.220983 40.803948 1.436720 0.872898 0.200866 -0.027426 -106486.000000 0 0 1
-3.373868 -30.900929 27.362983 41.412356 1.462044 0.848986 0.193478 -0.036091 237076.000000 0 0 1
-3.802568 -31.816559 28.395983 42.814540 1.451845 0.845667 0.167143 -0.039268 -333066.000000 0 0 1
-3.100268 -31.534039 29.732183 43.451237 1.472796 0.817200 0.189410 -0.035017 1136620.000000 0 0 1
-1.664968 -31.719849 29.774783 43.536865 1.518355 0.817704 0.204539 -0.030844 1277990.000000 0 0 1
-1.164368 -31.158449 30.981983 43.955523 1.533444 0.788587 0.187452 -0.047240 -349088.000000 0 0 1
-29.146068 2.800131 -9.504417 30.784216 -0.095778 1.884668 0.203277 -0.041626 117446.000000 0 0 1
-30.030508 2.462231 -10.603217 31.942482 -0.081808 1.909163 0.192625 -0.050206 503321.000000 0 0 1
-30.659328 3.659931 -11.045717 32.793251 -0.118812 1.914343 0.167805 -0.048822 -422681.000000 0 0 1
-31.590578 3.439531 -12.210817 34.042606 -0.108451 1.937663 0.158634 -0.050852 -751205.000000 0 0 1
-32.803568 2.812931 -11.922017 35.016012 -0.085542 1.918217 0.175174 -0.051430 -236982.000000 0 0 1
-33.552048 2.672631 -13.114617 36.123068 -0.079488 1.942340 0.178744 -0.049409 292686.000000 0 0 1
-34.867770 1.849631 -12.995117 37.256618 -0.052997 1.927087 0.186945 -0.048865 622311.000000 0 0 1
-34.627564 0.526431 -12.529217 36.828339 -0.015201 1.917932 0.223942 -0.052046 6290.920000 0 0 1
-35.930768 0.000831 -12.408517 38.013042 -0.000023 1.903318 0.210027 -0.050657 435498.000000 0 0 1
-35.902864 -1.495969 -12.084517 37.911596 0.041643 1.895212 0.250839 -0.054461 -17899.100000 0 0 1
-35.346252 -2.348069 -13.035317 37.746396 0.066333 1.923397 0.248485 -0.047516 -48168.400000 0 0 1
-35.350886 -3.692169 -12.576917 37.702733 0.104066 1.910896 0.279742 -0.052733 45664.400000 0 0 1
-34.727493 -4.768669 -13.489917 37.559510 0.136463 1.938165 0.270737 -0.044684 85099.900000 0 0 1
-34.914511 -6.082369 -12.989117 37.745668 0.172477 1.922100 0.252086 -0.049276 103095.000000 0 0 1
-34.720954 -7.078269 -14.002417 38.101367 0.201106 1.947120 0.244177 -0.040740 -471799.000000 0 0 1
-34.591126 -8.525469 -13.517217 38.104393 0.241648 1.933434 0.185497 -0.038289 417224.000000 0 0 1
-33.256628 -8.836369 -13.119417 36.826672 0.259702 1.935045 0.190834 -0.038794 642513.000000 0 0 1
-32.459058 -9.322969 -14.170317 36.623845 0.279693 1.968080 0.203879 -0.033529 -420748.000000 0 0 1
-31.582408 -10.539069 -13.813817 36.046387 0.322081 1.964080 0.168637 -0.038382 -345943.000000 0 0 1
-32.236368 -11.769169 -13.747817 36.968895 0.350054 1.951825 0.150686 -0.033703 208663.000000 0 0 1
-31.315528 -12.844769 -13.509617 36.443931 0.389245 1.950555 0.161510 -0.030241 242734.000000 0 0 1
-31.718848 -14.140369 -14.208917 37.522375 0.419359 1.959164 0.174698 -0.025621 -447876.000000 0 0 1
-31.259158 -14.195269 -15.527117 37.679331 0.426271 1.995538 0.168526 -0.037382 33624.000000 0 0 1
-31.169288 -15.471769 -16.158217 38.366497 0.460746 2.005514 0.173569 -0.043125 350709.000000 0 0 1
-30.013008 -16.390269 -15.599017 37.586578 0.499848 1.998756 0.144274 -0.035116 1049390.000000 0 0 1
-28.744618 -15.891569 -16.054917 36.558930 0.505032 2.025451 0.144871 -0.043363 270826.000000 0 0 1
-27.722498 -16.859869 -16.089317 36.216822 0.546402 2.031133 0.156051 -0.045707 -329458.000000 0 0 1
-26.349928 -16.338369 -16.451817 35.098764 0.555034 2.058648 0.146260 -0.048441 -571399.000000 0 0 1
-26.404958 -15.755269 -17.740217 35.498811 0.537974 2.094096 0.124719 -0.045149 -885980.000000 0 0 1
-25.167618 -15.552769 -18.335717 34.806553 0.553526 2.125615 0.084378 -0.028082 -1140510.000000 0 0 1
-25.242728 -14.922069 -19.760517 35.360168 0.533882 2.163777 0.083759 -0.029237 -76004.900000 0 0 1
-25.650998 -15.896069 -20.729917 36.611312 0.554783 2.172704 0.098898 -0.033656 292197.000000 0 0 1
-27.056338 -16.005169 -20.800517 37.694460 0.534183 2.155340 0.131905 -0.050116 -648537.000000 0 0 1
-27.571338 -17.088769 -21.737217 39.047551 0.554853 2.161187 0.137667 -0.057817 -184958.000000 0 0 1
-27.358718 -16.872969 -23.101017 39.583500 0.552631 2.193954 0.124052 -0.038129 321492.000000 0 0 1
-27.929398 -18.003569 -23.801317 40.873982 0.572577 2.192363 0.126308 -0.031559 119014.000000 0 0 1
-27.194138 -18.233169 -25.153047 41.287351 0.590639 2.225872 0.114092 -0.019996 1269760.000000 0 0 1
-25.829048 -18.700869 -25.087927 40.574207 0.626669 2.237402 0.104897 -0.023845 968059.000000 0 0 1
-25.771378 -20.101669 -24.736417 40.989405 0.662426 2.218659 0.087652 -0.023230 296078.000000 0 0 1
-24.316768 -20.635769 -24.454517 40.189097 0.703694 2.224948 0.069762 -0.006140 892582.000000 0 0 1
-23.591768 -20.625069 -25.688737 40.520071 0.718404 2.257480 0.053916 -0.012101 -901366.000000 0 0 1
-22.274568 -20.977669 -25.437567 39.790561 0.755423 2.264366 0.051366 -0.006659 -620729.000000 0 0 1
-21.396468 -21.072269 -26.690707 40.177645 0.777764 2.297376 0.045949 -0.010584 -204241.000000 0 0 1
-21.802968 -22.193269 -27.501677 41.524123 0.794269 2.294689 0.085947 -0.013114 -129681.000000 0 0 1
-22.550368 -21.861369 -28.644257 42.508022 0.769886 2.310211 0.089029 -0.019011 -8954.020000 0 0 1
-21.680368 -21.748169 -29.958387 42.901353 0.786959 2.343828 0.094722 -0.030699 444266.000000 0 0 1
-21.326168 -23.049669 -30.470767 43.755689 0.824217 2.341143 0.096275 -0.030124 174967.000000 0 0 1
-20.466468 -22.943069 -31.600527 44.089160 0.842388 2.369914 0.101626 -0.037571 238659.000000 0 0 1
-20.094068 -24.362269 -32.105007 45.033578 0.881114 2.364439 0.118096 -0.033011 -188563.000000 0 0 1
-19.226468 -24.511969 -33.171687 45.506642 0.905658 2.387571 0.123573 -0.036620 -95097.500000 0 0 1
-19.927268 -24.411069 33.261031 45.818037 0.886182 0.758400 0.117353 -0.020692 -513909.000000 0 0 1
-18.954868 -24.420569 32.125197 44.583399 0.910747 0.766181 0.115342 -0.018652 -530281.000000 0 0 1
-18.255168 -23.256769 31.796466 43.418242 0.905306 0.749059 0.100660 -0.025236 -383721.000000 0 0 1
-17.718568 -23.364569 30.467108 42.285877 0.921971 0.766269 0.098881 -0.018990 -216191.000000 0 0 1
-16.933668 -22.090169 30.195618 41.067019 0.916774 0.744722 0.086046 -0.018358 -270256.000000 0 0 1
-17.691468 -20.882669 30.242808 40.788495 0.867939 0.735561 0.078101 -0.021231 45679.600000 0 0 1
-16.952568 -19.715969 29.900448 39.625065 0.860618 0.715776 0.084700 -0.029771 60259.200000 0 0 1
-16.184268 -19.052569 31.055608 39.867050 0.866620 0.677760 0.098018 -0.037326 3161.430000 0 0 1
-15.683168 -17.793569 30.783108 38.860939 0.848356 0.656497 0.101735 -0.042768 -481565.000000 0 0 1
-15.111868 -17.170269 31.875691 39.233230 0.849075 0.622426 0.107710 -0.049119 -42648.400000 0 0 1
-14.715068 -15.682069 31.553538 38.184896 0.817200 0.598227 0.117391 -0.039675 -51513.500000 0 0 1
-13.644668 -15.589169 30.657738 37.001298 0.851816 0.594268 0.148939 -0.047304 -338159.000000 0 0 1
-13.308768 -14.299469 30.309468 36.059145 0.821267 0.572501 0.118817 -0.042194 -384634.000000 0 0 1
-11.830568 -14.097269 29.985708 35.182922 0.872600 0.550467 0.137371 -0.044156 -259400.000000 0 0 1
-11.378668 -12.742169 30.078758 34.591453 0.841866 0.516520 0.125714 -0.044106 401870.000000 0 0 1
-9.975068 -12.677369 30.315678 34.340326 0.904131 0.489004 0.127618 -0.039748 628164.000000 0 0 1
-9.467068 -11.192169 30.364468 33.717813 0.868708 0.449771 0.114433 -0.031405 114075.000000 0 0 1
-10.080568 -10.490069 31.453988 34.655631 0.805303 0.433228 0.120332 -0.028016 127583.000000 0 0 1
-9.855368 -9.115669 31.458858 34.203559 0.746427 0.403343 0.093298 -0.024463 -352510.000000 0 0 1
-10.812668 -8.312069 32.348814 35.106268 0.655384 0.398989 0.083826 -0.026704 341444.000000 0 0 1
-11.999968 -7.880569 31.660470 34.763314 0.581082 0.425715 0.090643 -0.031066 652108.000000 0 0 1
-13.068868 -7.386869 32.450979 35.755100 0.514458 0.433288 0.072595 -0.031661 205008.000000 0 0 1
-12.939068 -6.015669 33.122537 36.065360 0.435194 0.406771 0.066661 -0.020862 -441757.000000 0 0 1
-12.940568 -4.902769 32.231957 35.076980 0.362158 0.405534 0.064630 -0.024455 176819.000000 0 0 1
-12.913768 -3.639569 32.953557 35.580174 0.274711 0.386650 0.060615 -0.029237 -350426.000000 0 0 1
-12.432468 -2.467169 32.103507 34.515045 0.195901 0.376027 0.065622 -0.020529 14232.400000 0 0 1
-11.025268 -2.329169 32.047666 33.971083 0.208196 0.338118 0.070552 -0.025543 205216.000000 0 0 1
-10.676968 -1.278569 31.153428 32.957070 0.119183 0.332366 0.061313 -0.022987 1344050.000000 0 0 1
-9.098168 -1.054269 31.074588 32.396268 0.115363 0.286628 0.062475 -0.025282 1562370.000000 0 0 1
-8.704268 -0.486169 32.295335 33.451298 0.055796 0.263657 0.070331 -0.033799 -225056.000000 0 0 1
-7.327768 -0.193069 32.334973 33.155451 0.026341 0.222931 0.103860 -0.036914 30545.600000 0 0 1
-6.883768 0.693731 33.559235 34.264994 -0.100439 0.203313 0.140762 -0.046385 -343278.000000 0 0 1
-7.318968 2.057731 33.555029 34.405545 -0.274075 0.222813 0.134103 -0.041241 107127.000000 0 0 1
-6.667668 2.964531 32.664170 33.469303 -0.418365 0.219786 0.143862 -0.036426 -285342.000000 0 0 1
-7.400368 4.297831 32.599660 33.704223 -0.526152 0.256721 0.147765 -0.035675 1241710.000000 0 0 1
-8.819468 4.266331 32.338232 33.789730 -0.450555 0.294170 0.106540 -0.024077 956641.000000 0 0 1
-9.464068 5.491031 32.438204 34.233859 -0.525732 0.325323 0.108700 -0.023322 848814.000000 0 0 1
-10.953668 5.455431 31.936681 34.200821 -0.462083 0.365910 0.086791 -0.016178 859515.000000 0 0 1
-11.750968 6.611331 31.913949 34.645275 -0.512481 0.399738 0.101271 -0.018419 44080.500000 0 0 1
-13.052968 6.390631 31.422558 34.620764 -0.455287 0.433213 0.058214 -0.018358 157779.000000 0 0 1
-14.025868 7.573531 31.593905 35.387260 -0.495109 0.467263 0.076181 -0.022630 66099.300000 0 0 1
-14.802168 7.641631 32.790032 36.778865 -0.476564 0.470050 0.074673 -0.023214 507841.000000 0 0 1
-15.390868 8.951931 32.858114 37.372069 -0.526809 0.496583 0.072448 -0.014494 58138.300000 0 0 1
-16.266868 9.291431 -33.563307 38.437446 -0.518964 2.632512 0.054138 -0.003444 -119960.000000 0 0 1
-15.577468 9.650331 -32.403887 37.226311 -0.554639 2.626925 0.051133 -0.004409 -420332.000000 0 0 1
-16.424668 10.220931 -31.439247 36.914271 -0.556649 2.589984 0.059224 -0.004866 -1440780.000000 0 0 1
-15.745868 10.707631 -30.227207 35.724918 -0.597196 2.579440 0.080180 -0.012439 -251597.000000 0 0 1
-14.778668 11.709731 -30.368397 35.745858 -0.670053 2.585955 0.082896 -0.014693 -272431.000000 0 0 1
-13.536368 11.314931 -30.895657 35.578119 -0.696246 2.622741 0.096671 -0.022428 -358178.000000 0 0 1
-12.471568 12.464131 -30.889307 35.567455 -0.785100 2.622906 0.097778 -0.023566 316199.000000 0 0 1
-12.879868 13.386631 -31.859797 36.880070 -0.804689 2.613710 0.085207 -0.021608 314305.000000 0 0 1
-12.077168 14.579431 -31.873137 37.071750 -0.878994 2.605613 0.086083 -0.031255 154413.000000 0 0 1
-12.224768 15.562431 -30.705367 36.530176 -0.904941 2.569090 0.082183 -0.027265 -551785.000000 0 0 1
-13.124468 16.561031 -30.970667 37.492687 -0.900651 2.542851 0.100701 -0.028516 -317809.000000 0 0 1
-13.504668 17.348431 -29.815567 37.044731 -0.909342 2.506224 0.090193 -0.026794 434440.000000 0 0 1
-14.949568 17.936131 -29.910157 37.944853 -0.875966 2.478762 0.086985 -0.031652 69426.700000 0 0 1
-15.132668 18.828631 -31.009187 39.307565 -0.893800 2.479790 0.085407 -0.030746 356779.000000 0 0 1
-16.510468 19.096931 -31.252677 40.174844 -0.857909 2.462140 0.078436 -0.026920 881150.000000 0 0 1
-17.259068 20.102731 -30.300887 40.250950 -0.861363 2.423101 0.067528 -0.027514 -682926.000000 0 0 1
-16.715668 21.376831 -30.449947 40.787029 -0.907157 2.413672 0.075107 -0.019824 108089.000000 0 0 1
-17.338568 22.468131 -29.742867 41.110594 -0.913554 2.379633 0.052184 -0.027240 -1036920.000000 0 0 1
-18.623568 22.986231 -30.320117 42.361699 -0.889864 2.368485 0.056117 -0.027173 -1780110.000000 0 0 1
-19.565568 22.011131 -30.278657 42.238589 -0.844151 2.370068 0.059942 -0.026265 -896093.000000 0 0 1
-20.623668 22.245531 -31.214017 43.526017 -0.823213 2.370479 0.086544 -0.029836 -130285.000000 0 0 1
-21.860668 21.336431 -31.034577 43.546263 -0.773263 2.364108 0.112479 -0.037011 -71860.500000 0 0 1
-22.761368 21.746331 -29.941517 43.445106 -0.762596 2.331154 0.145110 -0.034336 875221.000000 0 0 1
-23.777568 22.625531 -30.351757 44.704771 -0.760577 2.317111 0.130688 -0.033854 -812974.000000 0 0 1
-24.988168 21.943531 -30.975947 45.447072 -0.720615 2.320720 0.146279 -0.041038 -1080700.000000 0 0 1
-24.773168 21.443631 -32.292117 46.003478 -0.713481 2.348927 0.139187 -0.034383 544593.000000 0 0 1
-26.044628 21.175331 -32.881707 46.988551 -0.682642 2.345888 0.162166 -0.035147 419204.000000 0 0 1
-25.965338 20.248331 33.555724 47.012555 -0.662315 0.775943 0.150913 -0.032706 -102952.000000 0 0 1
-25.705398 18.888531 -33.716257 46.414761 -0.633707 2.383884 0.152986 -0.041627 329873.000000 0 0 1
-25.401738 18.008831 32.890697 45.291989 -0.616715 0.758029 0.131643 -0.044901 -448655.000000 0 0 1
-25.135478 16.560831 33.343855 44.920664 -0.582580 0.734325 0.096727 -0.029474 285004.000000 0 0 1
-26.189568 15.637731 33.705528 45.458715 -0.538283 0.735562 0.087367 -0.023517 550481.000000 0 0 1
-26.746898 14.954931 32.646371 44.775351 -0.509824 0.753769 0.092630 -0.023660 -874560.000000 0 0 1
-27.595128 13.724131 32.977455 45.137073 -0.461516 0.751586 0.056003 -0.009918 -825243.000000 0 0 1
-28.792588 14.127231 33.567996 46.426309 -0.456144 0.762606 0.067098 -0.010644 -326362.000000 0 0 1
-29.778898 13.076131 33.564032 46.736626 -0.413759 0.769652 0.045337 -0.007949 191440.000000 0 0 1
-29.688498 11.779331 -33.254727 46.108962 -0.377714 2.376359 0.032214 -0.008981 -815332.000000 0 0 1
-28.593148 11.009831 -33.654747 45.512926 -0.367554 2.403056 0.037536 -0.017432 -328288.000000 0 0 1
-28.784518 9.638631 -33.470657 45.185579 -0.323119 2.404964 0.049006 -0.008307 -733864.000000 0 0 1
-27.440288 8.921731 -33.569217 44.265777 -0.314352 2.431584 0.056037 -0.016017 -307390.000000 0 0 1
-26.829398 8.744231 32.833503 43.293384 -0.315064 0.709949 0.048004 -0.016390 487781.000000 0 0 1
-25.892278 9.803531 32.542930 42.726591 -0.361947 0.704933 0.032900 -0.020062 489731.000000 0 0 1
-24.547468 9.377631 31.872841 41.308548 -0.364911 0.689475 0.041315 -0.013814 382711.000000 0 0 1
-24.622068 9.136231 30.500318 40.249054 -0.355311 0.710877 0.037498 -0.009574 470553.000000 0 0 1
-23.337668 8.964331 29.895678 38.971240 -0.366737 0.696454 0.049509 -0.011582 650608.000000 0 0 1
-23.461568 8.997631 28.345428 37.879623 -0.366206 0.725296 0.062020 -0.022375 34553.200000 0 0 1
-23.834368 10.287131 27.898068 38.107799 -0.407455 0.749422 0.068330 -0.017600 8081.030000 0 0 1
-23.955068 10.360231 26.502198 37.196050 -0.408194 0.777741 0.068066 -0.027083 -617650.000000 0 0 1
-24.475268 11.729731 25.918568 37.528622 -0.446909 0.808430 0.075729 -0.029544 446400.000000 0 0 1
-25.822858 12.087831 26.156608 38.692426 -0.437808 0.828457 0.085282 -0.026129 4665.260000 0 0 1
-26.755668 11.463331 25.302678 38.568112 -0.404785 0.855221 0.093356 -0.015706 -216235.000000 0 0 1
-28.177738 12.042831 25.457508 39.838416 -0.403892 0.877574 0.088264 -0.016045 -229032.000000 0 0 1
-28.178798 13.444831 25.244368 40.150794 -0.445181 0.890866 0.112912 -0.019165 160848.000000 0 0 1
-29.454058 14.064831 25.192138 41.231115 -0.445500 0.913475 0.089518 -0.023814 246733.000000 0 0 1
-29.313338 15.530631 24.881558 41.467628 -0.487214 0.927266 0.112351 -0.027778 -207204.000000 0 0 1
-28.613508 16.276531 25.811438 41.831670 -0.517193 0.905832 0.120207 -0.029417 -104590.000000 0 0 1
-28.206588 17.569431 25.266518 41.745580 -0.557076 0.920716 0.104480 -0.026742 -199947.000000 0 0 1
-23.400468 -8.944769 31.567948 40.300448 0.365109 0.670815 0.044113 -0.015417 -102992.000000 0 0 1
-22.422668 -8.637269 30.574758 38.886942 0.367685 0.666084 0.043612 -0.019085 291876.000000 0 0 1
-23.000268 -8.726969 29.248058 38.218074 0.362648 0.699299 0.042679 -0.020863 242971.000000 0 0 1
-22.062768 -8.270469 28.098918 36.670364 0.358649 0.697801 0.068528 -0.029563 -496318.000000 0 0 1
-21.739968 -6.882769 28.086998 36.178421 0.306611 0.681947 0.070013 -0.025823 1675850.000000 0 0 1
-20.426068 -6.555169 28.673628 35.810214 0.310539 0.642315 0.062859 -0.023006 1752230.000000 0 0 1
-19.131568 -6.988669 27.927198 34.565688 0.350235 0.630139 0.071469 -0.022493 -443927.000000 0 0 1
-18.849468 -8.434469 28.008518 34.798273 0.420743 0.635319 0.070098 -0.025120 73509.500000 0 0 1
-18.447268 -8.927469 29.267888 35.729689 0.450722 0.610873 0.070890 -0.023745 884195.000000 0 0 1
-16.963868 -8.520569 29.684618 35.235628 0.465468 0.568963 0.064726 -0.021714 455245.000000 0 0 1
-15.928868 -8.821569 28.847528 34.113469 0.505764 0.563043 0.061429 -0.014463 -666985.000000 0 0 1
-14.669168 -8.719169 29.476578 34.059904 0.536282 0.524782 0.077972 -0.026917 773319.000000 0 0 1
-13.511668 -9.652169 29.027898 33.441717 0.620297 0.519607 0.100784 -0.024206 476541.000000 0 0 1
-12.888168 -9.375369 27.781708 32.028514 0.628906 0.520832 0.108647 -0.022527 338007.000000 0 0 1
-11.831468 -10.304169 27.522958 31.680795 0.716510 0.518107 0.121443 -0.027103 644975.000000 0 0 1
-11.106568 -10.132269 26.146798 30.160799 0.739557 0.521820 0.104753 -0.021841 395991.000000 0 0 1
-11.950068 -10.652469 25.116628 29.784631 0.728052 0.567449 0.093606 -0.019979 -5239.710000 0 0 1
-11.459468 -10.514169 23.831418 28.457049 0.742405 0.578192 0.087250 -0.017638 331741.000000 0 0 1
-12.536068 -10.800569 22.711218 28.099906 0.711167 0.629654 0.100746 -0.027037 83598.500000 0 0 1
-12.883968 -12.182769 22.623578 28.744439 0.757432 0.664769 0.092650 -0.022406 -117829.000000 0 0 1
-14.109068 -12.480869 22.024588 28.981380 0.724241 0.707550 0.078036 -0.019028 622971.000000 0 0 1
-15.440268 -12.132769 22.810488 30.098577 0.666014 0.710771 0.082841 -0.022416 376434.000000 0 0 1
-16.553668 -12.825669 22.260188 30.562030 0.659181 0.754870 0.047897 -0.008237 87331.800000 0 0 1
-17.616868 -12.796569 23.200728 31.817919 0.628213 0.753685 0.048491 -0.010584 416110.000000 0 0 1
-18.871568 -13.545969 22.619148 32.423066 0.622571 0.798719 0.091323 -0.022204 -232170.000000 0 0 1
-18.829868 -14.951569 22.710558 33.073899 0.671093 0.813910 0.085559 -0.025526 -132331.000000 0 0 1
-20.059068 -15.583969 22.495588 33.930484 0.660498 0.845990 0.090861 -0.022101 -704199.000000 0 0 1
-21.047368 -15.543569 23.621648 35.250198 0.636103 0.836434 0.081634 -0.021065 -836311.000000 0 0 1
-20.516468 -16.311869 24.723778 36.031482 0.671723 0.814583 0.069335 -0.010951 864041.000000 0 0 1
-21.491268 -16.412369 25.786588 37.365607 0.652197 0.809148 0.065077 -0.014914 -85192.800000 0 0 1
-21.017268 -17.013769 27.099418 38.282794 0.680515 0.784312 0.066439 -0.008823 -605539.000000 0 0 1
-20.765368 -18.397369 26.994908 38.709027 0.725006 0.799061 0.062502 -0.004427 130486.000000 0 0 1
-20.772168 -19.066569 28.236378 39.903760 0.742612 0.784683 0.054878 -0.011012 -254623.000000 0 0 1
-20.602768 -20.569569 28.091878 40.456580 0.784592 0.803251 0.065018 -0.005368 -129968.000000 0 0 1
-21.794568 -21.239669 27.744378 41.181030 0.772505 0.831569 0.055088 0.005824 -130660.000000 0 0 1
-21.618168 -22.590869 27.408608 41.580336 0.807397 0.851079 0.066173 0.009823 334002.000000 0 0 1
-22.905968 -23.194269 26.759088 42.174711 0.791652 0.883458 0.058257 0.013222 431355.000000 0 0 1
-23.842968 -23.532569 27.788228 43.525332 0.778846 0.878329 0.050355 0.015587 226869.000000 0 0 1
-25.048748 -23.926369 27.135458 44.002772 0.762485 0.906283 0.032595 0.015684 144499.000000 0 0 1
-25.950948 -24.802169 28.000948 45.526392 0.762767 0.908349 0.022798 0.021148 -119498.000000 0 0 1
-26.626998 -24.204869 29.096618 46.276191 0.737784 0.890839 0.022542 0.017011 -80789.100000 0 0 1
-27.268898 -25.150099 29.872678 47.628743 0.745000 0.892845 0.013269 0.019165 -171882.000000 0 0 1
-28.279088 -24.500969 30.855668 48.498212 0.713938 0.881204 0.030550 0.017482 306267.000000 0 0 1
-29.406458 -23.954969 30.174548 48.467346 0.683590 0.898768 0.036897 0.012049 393735.000000 0 0 1
-30.501338 -23.832969 31.077408 49.640178 0.663280 0.894314 0.047225 -0.005972 560159.000000 0 0 1
-31.819718 -23.446469 30.324508 49.817739 0.635034 0.916364 0.054185 -0.012819 -32739.000000 0 0 1
-32.182828 -24.372869 29.331508 49.900987 0.648173 0.942467 0.065010 -0.011406 931153.000000 0 0 1
-33.479548 -24.145269 28.734258 50.294450 0.624809 0.962682 0.070943 -0.017470 1791660.000000 0 0 1
-34.722073 -24.785769 29.483048 51.857563 0.619950 0.966067 0.071926 -0.016494 417959.000000 0 0 1
-34.676890 -26.202339 29.700348 52.641808 0.647084 0.971336 0.078853 -0.019921 406813.000000 0 0 1
-35.884781 -26.719409 30.263348 54.014022 0.640029 0.976064 0.083408 -0.019228 570600.000000 0 0 1
-35.746105 -28.209719 30.661538 54.897196 0.668102 0.978188 0.088200 -0.019917 264991.000000 0 0 1
-34.792974 -28.394829 31.713502 54.977846 0.684486 0.955940 0.076957 -0.012795 133712.000000 0 0 1
-34.462373 -29.734769 31.838016 55.547015 0.711889 0.960424 0.076767 -0.022416 48621.000000 0 0 1
-33.415958 -29.945789 32.951020 55.669976 0.730685 0.937383 0.049700 -0.015176 26311.800000 0 0 1
-33.966668 -29.769399 -33.403457 56.175996 0.719639 2.207591 0.050323 -0.006525 -485351.000000 0 0 1
-33.040918 -29.900619 -32.385097 55.086693 0.735547 2.199248 0.038291 -0.005663 -595949.000000 0 0 1
-33.559428 -29.438629 -30.992887 54.345442 0.720080 2.177660 0.048541 -0.012001 135034.000000 0 0 1
-33.684378 -28.061129 -30.821807 53.591492 0.694577 2.183553 0.059017 -0.017832 202185.000000 0 0 1
-32.376728 -27.543349 -30.599207 52.375567 0.704909 2.194723 0.052985 -0.012697 209442.000000 0 0 1
-32.289508 -25.998709 -30.508867 51.471702 0.677889 2.205242 0.040242 -0.009120 -176319.000000 0 0 1
-33.025108 -25.455669 -29.453507 51.050542 0.656679 2.185783 0.047136 -0.022178 -205202.000000 0 0 1
-33.076768 -24.048869 -29.507587 50.429340 0.628659 2.195833 0.059966 -0.020376 57795.900000 0 0 1
-32.011688 -23.436569 -28.573347 48.892301 0.631963 2.194954 0.060402 -0.019928 -146511.000000 0 0 1
-31.972878 -22.002869 -28.689937 48.264932 0.602744 2.207348 0.071467 -0.019245 -20559.900000 0 0 1
-30.976218 -21.473369 -27.851987 46.865390 0.606162 2.207188 0.095568 -0.019901 -27083.600000 0 0 1
-30.701458 -19.946669 -28.023667 46.106128 0.576163 2.224093 0.124820 -0.035616 153930.000000 0 0 1
-29.940798 -19.787769 -29.226907 46.284114 0.583997 2.254240 0.102553 -0.016453 373369.000000 0 0 1
-29.486638 -18.428869 -29.327757 45.488486 0.558592 2.271465 0.108399 -0.025988 -125183.000000 0 0 1
-29.071558 -18.158069 -30.780137 46.068294 0.558311 2.302504 0.096398 -0.019074 803452.000000 0 0 1
-30.086638 -18.055869 -31.823247 47.370235 0.540514 2.307430 0.090657 -0.027143 847850.000000 0 0 1
-30.871448 -16.865469 -31.818707 47.433326 0.500008 2.306096 0.100710 -0.028765 -309632.000000 0 0 1
-31.335118 -16.316569 -33.204677 48.483715 0.480080 2.325211 0.101520 -0.035161 389773.000000 0 0 1
-32.416248 -17.037969 -33.764537 49.811138 0.483917 2.315632 0.095568 -0.033554 514350.000000 0 0 1
-33.735168 -16.698969 -33.379937 50.310409 0.459641 2.296256 0.086253 -0.032456 -15493.500000 0 0 1
-34.826891 -17.143869 33.290477 51.137857 0.457436 0.861902 0.080310 -0.031178 -101891.000000 0 0 1
-35.293779 -18.478769 33.545440 52.080824 0.482325 0.870946 0.073025 -0.030940 -131760.000000 0 0 1
-36.060678 -18.837769 32.426270 52.025926 0.481399 0.897877 0.074874 -0.028832 -444332.000000 0 0 1
-36.487278 -20.283569 32.719625 53.040725 0.507368 0.906027 0.070200 -0.033036 -283893.000000 0 0 1
-35.451039 -21.234169 32.653744 52.668141 0.539663 0.902066 0.083906 -0.031004 -269084.000000 0 0 1
-35.865987 -22.590369 32.931422 53.676553 0.562083 0.910291 0.083676 -0.026789 -79145.100000 0 0 1
-34.643564 -23.577669 32.941965 53.303434 0.597572 0.904590 0.089058 -0.021777 833064.000000 0 0 1
-33.586688 -23.397369 -33.796427 53.082021 0.608458 2.260986 0.062542 -0.022049 252893.000000 0 0 1
-32.874388 -22.173769 -33.804297 52.106927 0.593406 2.276735 0.065966 -0.021928 -989104.000000 0 0 1
-31.668678 -22.149769 -32.846927 50.719207 0.610338 2.275257 0.054315 -0.014168 36523.100000 0 0 1
-30.508468 -22.856869 -33.299167 50.616574 0.642987 2.288784 0.047685 -0.007602 683356.000000 0 0 1
-29.393458 -22.608269 -32.434877 49.265915 0.655651 2.289439 0.052022 -0.005052 293942.000000 0 0 1
-29.275558 -23.118269 -30.976837 48.487906 0.668415 2.263808 0.055536 0.003816 -944031.000000 0 0 1
-28.936758 -24.493669 -30.919027 48.920977 0.702433 2.254953 0.061389 -0.003275 -77763.900000 0 0 1
-28.528418 -24.799669 -29.646267 48.039518 0.715591 2.235877 0.045292 -0.005748 -510665.000000 0 0 1
-28.148378 -26.248789 -29.442897 48.458376 0.750492 2.223821 0.049469 -0.003103 -14035.900000 0 0 1
-29.207448 -27.204999 -29.401197 49.574362 0.749916 2.205666 0.034660 -0.004626 194822.000000 0 0 1
-28.795998 -28.456379 -28.930597 49.758963 0.779466 2.191263 0.038359 -0.008358 -24476.900000 0 0 1
-29.620928 -29.644189 -29.524807 51.262964 0.785791 2.184560 0.033211 0.003898 -41748.300000 0 0 1
-29.339288 -29.964089 -30.915567 52.100026 0.795933 2.206059 0.044594 -0.009047 383764.000000 0 0 1
-29.807478 -31.250169 -31.261997 53.313893 0.809022 2.197374 0.062439 -0.006324 -312854.000000 0 0 1
-29.347268 -31.712959 -32.686907 54.179403 0.824122 2.218440 0.047578 -0.010915 -320607.000000 0 0 1
-27.998088 -32.074599 -32.760497 53.720787 0.853154 2.226641 0.048198 -0.013931 -436133.000000 0 0 1
-27.611148 -32.485399 33.547488 54.250443 0.866328 0.904114 0.054982 -0.019211 -262697.000000 0 0 1
-26.118618 -32.801109 33.399556 53.606206 0.898332 0.898155 0.069264 -0.023255 -396995.000000 0 0 1
-25.836838 -33.452139 32.198728 53.135166 0.913143 0.919802 0.062044 -0.021233 436378.000000 0 0 1
-24.695968 33.362557 32.396170 52.654182 -0.933577 0.908077 0.065601 -0.018207 234002.000000 0 0 1
-24.464668 32.396120 31.270748 51.243422 -0.923993 0.914434 0.077139 -0.026850 -637039.000000 0 0 1
-25.589448 31.615407 31.042188 51.166114 -0.890351 0.918901 0.046770 -0.038221 -462268.000000 0 0 1
-25.485238 30.971977 29.796088 49.965664 -0.882278 0.931873 0.041006 -0.033207 -384079.000000 0 0 1
-26.823448 30.395417 29.324778 50.033203 -0.847744 0.944551 0.046834 -0.030440 -587754.000000 0 0 1
-27.211318 29.337347 30.128258 50.088399 -0.822977 0.925417 0.053353 -0.029257 -76363.900000 0 0 1
-28.436758 28.864617 29.613458 50.187371 -0.792865 0.939666 0.058225 -0.032683 -170251.000000 0 0 1
-28.944528 27.643167 30.340928 50.224519 -0.762405 0.922153 0.061854 -0.041099 -131484.000000 0 0 1
-28.048158 26.545757 30.254398 49.058180 -0.757886 0.906247 0.059330 -0.026617 261127.000000 0 0 1
-28.554008 25.366017 30.871958 49.110528 -0.726342 0.891016 0.063574 -0.021957 238309.000000 0 0 1
-29.582658 24.563597 30.081048 48.819806 -0.692968 0.906932 0.083604 -0.024365 95434.000000 0 0 1
-28.915498 24.092607 28.920378 47.465230 -0.694664 0.915624 0.068078 -0.019528 -173254.000000 0 0 1
-29.697048 23.429197 27.976858 47.048342 -0.667961 0.933978 0.095960 -0.015169 -202042.000000 0 0 1
-28.938968 23.299017 26.640978 45.717062 -0.677848 0.948705 0.104611 -0.022699 208702.000000 0 0 1
-27.916278 22.305327 26.677438 44.592958 -0.674136 0.929489 0.112282 -0.026591 -32463.300000 0 0 1
-27.125478 22.375927 25.506158 43.440048 -0.689743 0.943253 0.087957 -0.017999 -1016710.000000 0 0 1
-25.862248 21.640427 25.879818 42.507987 -0.696756 0.916221 0.075250 -0.023180 -1257630.000000 0 0 1
-25.964538 20.274827 26.252108 42.123616 -0.662965 0.897948 0.131866 -0.036388 355537.000000 0 0 1
-24.697068 19.747627 26.614228 41.330752 -0.674493 0.871169 0.094536 -0.018607 308172.000000 0 0 1
-24.839068 18.739227 27.781918 41.712982 -0.646327 0.841928 0.120003 -0.028266 -320324.000000 0 0 1
-23.639468 18.048827 27.947428 40.812294 -0.652088 0.816495 0.106170 -0.017332 -239859.000000 0 0 1
-23.664268 17.278227 29.163698 41.340731 -0.630669 0.787743 0.098503 -0.017970 742744.000000 0 0 1
-22.403068 16.321427 29.239998 40.289750 -0.629622 0.758683 0.099268 -0.022968 1012290.000000 0 0 1
-21.250068 17.006527 29.751618 40.323022 -0.674927 0.740943 0.130041 -0.027329 298093.000000 0 0 1
-20.169668 16.064027 29.631868 39.279971 -0.672569 0.716093 0.112244 -0.019101 -193746.000000 0 0 1
-19.081168 16.580327 30.585518 39.679619 -0.715386 0.690682 0.097130 -0.025134 -945868.000000 0 0 1
-19.302868 16.293327 31.970949 40.745734 -0.701052 0.668673 0.079924 -0.025406 653749.000000 0 0 1
-18.335168 16.905827 32.838918 41.235663 -0.744861 0.649524 0.077886 -0.025326 -525776.000000 0 0 1
-18.595768 16.540727 -33.279827 41.556529 -0.726977 2.499481 0.066868 -0.031375 588628.000000 0 0 1
-19.677068 17.208727 -32.612817 41.796209 -0.718579 2.465912 0.092826 -0.030136 456671.000000 0 0 1
-20.965668 16.919527 -33.118187 42.692434 -0.679001 2.458682 0.095335 -0.026001 -1016250.000000 0 0 1
-21.962368 17.642427 -32.219197 42.798101 -0.676751 2.423130 0.091930 -0.033144 -590323.000000 0 0 1
-22.140868 17.163227 -30.898917 41.707762 -0.659424 2.405121 0.101015 -0.029449 862564.000000 0 0 1
-23.194868 17.943727 -30.281957 42.154195 -0.658440 2.372241 0.104477 -0.022705 302653.000000 0 0 1
-23.326768 17.596527 -28.727987 40.976494 -0.646279 2.347714 0.102268 -0.028527 104932.000000 0 0 1
-23.833568 16.333127 -28.243737 40.404439 -0.600791 2.344830 0.099420 -0.030699 770843.000000 0 0 1
-25.226998 16.230027 -28.592007 41.440536 -0.571693 2.332220 0.101772 -0.028217 898835.000000 0 0 1
-26.028958 15.214327 -27.678967 40.928078 -0.528956 2.313501 0.092720 -0.014209 243780.000000 0 0 1
-25.776388 13.829427 -27.920287 40.437824 -0.492431 2.332907 0.069847 -0.010125 137484.000000 0 0 1
-26.651068 12.958927 -27.206737 40.229588 -0.452583 2.313506 0.044054 0.000850 160723.000000 0 0 1
-26.254078 11.461627 -27.308737 39.577931 -0.411626 2.332284 0.045591 -0.004321 322809.000000 0 0 1
-25.172688 11.175527 -26.444837 38.182273 -0.417815 2.335876 0.045132 -0.005513 207659.000000 0 0 1
-24.262668 10.195127 -26.882087 37.619998 -0.397796 2.366804 0.045858 -0.003351 126861.000000 0 0 1
-23.332268 9.624227 -25.802397 36.094101 -0.391223 2.367227 0.071117 -0.009940 132334.000000 0 0 1
-23.921068 8.615227 -24.996817 35.655020 -0.345690 2.347699 0.062799 -0.013214 -77993.800000 0 0 1
-22.926968 8.007727 -24.229617 34.305158 -0.336025 2.355049 0.086480 -0.013617 -338529.000000 0 0 1
-23.396968 6.827127 -23.279517 33.704060 -0.283913 2.333258 0.083525 -0.012491 197945.000000 0 0 1
-23.902368 5.735727 -24.089317 34.416812 -0.235512 2.346094 0.079697 -0.018126 473410.000000 0 0 1
-23.808268 4.489927 -23.359417 33.654946 -0.186398 2.337945 0.087828 -0.010781 -287071.000000 0 0 1
35.906970 24.737931 -10.210517 44.783148 0.603268 1.800818 0.048659 -0.018101 -159067.000000 0 0 1
36.831100 24.212731 -9.316917 45.050984 0.581559 1.779108 0.059172 -0.023733 73487.600000 0 0 1
-37.426408 23.419631 -9.886917 45.243411 -0.559140 1.791101 0.077267 -0.024693 243790.000000 0 0 1
-36.523358 22.753431 -8.843017 43.930322 -0.557148 1.773478 0.097287 -0.035740 129032.000000 0 0 1
-37.199048 21.869631 -7.935317 43.875040 -0.531481 1.752659 0.094138 -0.035556 835135.000000 0 0 1
-36.200038 21.423631 -6.986317 42.640630 -0.534377 1.735380 0.136064 -0.035168 679554.000000 0 0 1
-36.749258 20.506331 -5.893917 42.494186 -0.508970 1.709944 0.105810 -0.009787 -238966.000000 0 0 1
-37.088418 19.247731 -6.267517 42.252901 -0.478707 1.719679 0.082799 -0.000750 181066.000000 0 0 1
-37.478828 18.460231 -5.172817 42.097514 -0.457671 1.693985 0.096670 -0.018637 -483645.000000 0 0 1
37.064130 17.160531 -5.492917 41.211718 0.433608 1.704479 0.085529 -0.001481 -505261.000000 0 0 1
35.851360 17.475531 -6.100517 40.347620 0.453552 1.722577 0.081913 -0.000993 -327902.000000 0 0 1
35.199920 16.298031 -6.670217 39.359268 0.433623 1.741088 0.089480 -0.001923 948522.000000 0 0 1
34.037810 16.705931 -7.654417 38.681400 0.456265 1.769995 0.063929 -0.003891 536457.000000 0 0 1
33.436170 15.618931 -8.307517 37.827811 0.437005 1.792215 0.074812 0.001993 88108.700000 0 0 1
32.698800 16.102931 -9.427017 37.648168 0.457599 1.823887 0.054561 -0.003736 -386067.000000 0 0 1
32.072660 15.085131 -10.342117 36.921214 0.439641 1.854708 0.059985 0.000449 636580.000000 0 0 1
30.905740 14.305531 -9.988217 35.490526 0.433510 1.856084 0.055933 0.006926 917351.000000 0 0 1
30.963180 13.608831 -8.772417 34.941008 0.414102 1.824575 0.074589 0.002003 -870432.000000 0 0 1
29.969990 12.475931 -8.628517 33.590184 0.394462 1.830585 0.077691 0.011496 -244454.000000 0 0 1
30.372710 11.345731 -9.369517 33.749295 0.357499 1.852113 0.101615 0.001211 363730.000000 0 0 1
29.404190 10.342531 -9.259917 32.516463 0.338221 1.859569 0.135052 -0.009823 -303132.000000 0 0 1
29.977290 9.037231 -9.853517 32.823791 0.292804 1.875693 0.155040 -0.016307 -502292.000000 0 0 1
31.054370 8.574731 -9.114417 33.480927 0.269407 1.846503 0.147114 -0.022292 -368779.000000 0 0 1
31.154510 7.197631 -9.092117 33.242683 0.227047 1.847834 0.153913 -0.027986 30330.200000 0 0 1
32.359520 6.677731 -8.258517 34.057799 0.203504 1.815723 0.169979 -0.031536 -44519.100000 0 0 1
33.627090 7.072631 -8.710717 35.449680 0.207304 1.819059 0.148611 -0.028054 349820.000000 0 0 1
34.632410 6.406531 -7.885017 36.091840 0.182919 1.791044 0.140951 -0.025382 812079.000000 0 0 1
36.079850 6.717031 -8.343117 37.636175 0.184064 1.794331 0.142106 -0.021952 77391.100000 0 0 1
36.382000 5.975131 -9.484217 38.069705 0.162780 1.822576 0.149088 -0.032098 -395763.000000 0 0 1
-37.535048 6.038331 -9.723117 39.241308 -0.159505 1.821182 0.152075 -0.032928 -1218590.000000 0 0 1
-37.028018 5.051731 -10.768017 38.891442 -0.135593 1.851335 0.133146 -0.031370 491647.000000 0 0 1
-35.615683 4.910231 -10.950917 37.583371 -0.137003 1.866462 0.135898 -0.035047 839533.000000 0 0 1
-34.913218 5.920031 -11.620917 37.269630 -0.167967 1.887890 0.117694 -0.034695 -386221.000000 0 0 1
-34.050491 6.800631 -10.684517 36.329649 -0.197128 1.869309 0.121259 -0.028898 -556908.000000 0 0 1
-34.809590 7.754331 -9.948717 37.024507 -0.219185 1.842846 0.129323 -0.027700 288287.000000 0 0 1
-34.886076 8.998631 -10.596217 37.553874 -0.252441 1.856842 0.128579 -0.028274 -54875.400000 0 0 1
-35.933074 9.886731 -9.873517 38.554112 -0.268499 1.829777 0.152145 -0.023059 247240.000000 0 0 1
-35.508949 10.311731 -8.609217 37.964929 -0.282625 1.799554 0.141373 -0.020290 57681.000000 0 0 1
-36.513038 11.181931 -8.117017 39.040024 -0.297176 1.780239 0.142539 -0.026194 -71679.600000 0 0 1
-36.086598 12.160031 -7.039517 38.725491 -0.325018 1.753593 0.146244 -0.031529 419233.000000 0 0 1
-35.058164 13.046531 -7.530317 38.157470 -0.356261 1.769449 0.135985 -0.034590 314285.000000 0 0 1
-34.797486 14.070431 -6.602317 38.110794 -0.384252 1.744915 0.147704 -0.032506 211295.000000 0 0 1
-34.059004 15.301831 -7.153617 38.017575 -0.422250 1.760091 0.111969 -0.032700 380438.000000 0 0 1
-34.870049 16.054131 -8.064317 39.226122 -0.431468 1.777858 0.092469 -0.028905 125290.000000 0 0 1
-34.646549 17.410131 -7.946817 39.580903 -0.465651 1.772944 0.064562 -0.024010 54396.900000 0 0 1
-35.206224 18.206631 -9.140217 40.675584 -0.477267 1.797442 0.069776 -0.024821 122802.000000 0 0 1
-34.496860 17.899231 -10.318017 40.210413 -0.478626 1.830300 0.054532 -0.028259 -75465.000000 0 0 1
-35.204636 18.318831 -11.463317 41.308033 -0.479797 1.851996 0.056292 -0.025892 442277.000000 0 0 1
-34.307542 18.216531 -12.768517 40.888684 -0.488121 1.888383 0.033067 -0.017726 477672.000000 0 0 1
-33.412488 19.289331 -13.002317 40.712810 -0.523568 1.895857 0.028774 -0.025150 -2409.560000 0 0 1
-33.200558 19.540131 -14.378817 41.119875 -0.531957 1.928026 0.013598 -0.016493 -259873.000000 0 0 1
-32.408038 20.883431 -14.590617 41.222381 -0.572422 1.932586 0.007852 -0.004258 406130.000000 0 0 1
-31.013268 20.870631 -14.281017 40.016915 -0.592346 1.935716 0.007571 0.000602 614136.000000 0 0 1
-30.638068 22.243831 -14.121117 40.408974 -0.627976 1.927786 0.018675 -0.000735 -406834.000000 0 0 1
-29.918408 22.924731 -15.263117 40.664692 -0.653815 1.955561 0.028688 -0.009910 -1181910.000000 0 0 1
-30.694148 23.189531 -16.402117 41.820025 -0.647014 1.973826 0.046167 0.007659 510204.000000 0 0 1
-29.975548 23.859031 -17.490117 42.115211 -0.672266 1.999060 0.077025 0.000963 626796.000000 0 0 1
-29.434808 25.324731 -17.289417 42.504986 -0.710482 1.989703 0.085866 -0.010110 333150.000000 0 0 1
-30.544658 26.186631 -17.195517 43.753875 -0.708730 1.974694 0.114876 -0.020078 359252.000000 0 0 1
-30.192148 27.453431 -17.674617 44.470763 -0.737924 1.979526 0.116674 -0.025921 -107404.000000 0 0 1
-30.970648 28.632231 -17.034817 45.488138 -0.746185 1.954642 0.119782 -0.034453 -376987.000000 0 0 1
-30.738278 28.894531 -15.674417 45.004700 -0.754490 1.926536 0.100687 -0.038512 869570.000000 0 0 1
-29.565768 29.712131 -15.456817 44.675033 -0.787867 1.924083 0.092655 -0.039160 596272.000000 0 0 1
-29.392258 30.062831 -13.962417 44.301554 -0.796676 1.891430 0.087009 -0.030982 638678.000000 0 0 1
-30.440818 30.990431 -13.550817 45.504668 -0.794345 1.873173 0.067516 -0.023659 860120.000000 0 0 1
-30.168818 31.786031 -12.383517 45.539662 -0.811495 1.846192 0.065444 -0.025351 425301.000000 0 0 1
-29.112408 32.957631 -12.517617 45.721204 -0.847269 1.848119 0.070761 -0.035491 343259.000000 0 0 1
-29.478918 -33.761265 -13.450517 46.794722 0.853011 1.862346 0.050609 -0.039168 -443134.000000 0 0 1
-28.484118 -32.805965 -13.595517 45.523778 0.855796 1.874070 0.098276 -0.045399 -279652.000000 0 0 1
-28.584728 -32.130965 -15.032617 45.557273 0.843739 1.907070 0.078103 -0.044839 -27452.400000 0 0 1
-28.152618 -32.920265 -16.100517 46.211907 0.863305 1.926667 0.076782 -0.039576 -419783.000000 0 0 1
-28.061278 -32.137665 -17.307617 46.041486 0.853010 1.956179 0.072950 -0.023596 20471.300000 0 0 1
-27.127658 -32.691665 -18.434217 46.308478 0.878145 1.980213 0.084239 -0.019775 -369411.000000 0 0 1
-27.421078 33.700031 -18.987517 47.414485 -0.887769 1.982813 0.087194 -0.009258 -15632.300000 0 0 1
-27.175308 32.629631 -18.033717 46.134641 -0.876348 1.972398 0.072451 -0.031507 -602137.000000 0 0 1
-27.586758 31.277531 -18.611717 45.669565 -0.848016 1.990544 0.085645 -0.045417 562093.000000 0 0 1
-28.954918 30.935931 -18.857517 46.379144 -0.818463 1.989520 0.109989 -0.035780 590255.000000 0 0 1
-29.488288 31.589831 -19.995717 47.616229 -0.819792 2.004170 0.106938 -0.027626 -344455.000000 0 0 1
-31.009038 31.443731 -20.193617 48.559765 -0.792358 1.999674 0.117087 -0.039106 69910.800000 0 0 1
-31.494188 30.175831 -20.569517 48.224161 -0.764024 2.011460 0.121377 -0.046513 744742.000000 0 0 1
-32.886898 30.087931 -20.871917 49.218579 -0.740982 2.008726 0.128935 -0.040391 440846.000000 0 0 1
-33.391548 28.723031 -21.265817 48.910561 -0.710379 2.020601 0.131590 -0.035175 -780922.000000 0 0 1
-34.774602 28.557931 -21.237317 49.757934 -0.687552 2.011762 0.125967 -0.034631 -356314.000000 0 0 1
-35.141782 27.244331 -21.550517 49.412783 -0.659478 2.022093 0.121544 -0.014510 512498.000000 0 0 1
-36.681928 27.008631 -21.737117 50.473084 -0.634670 2.016029 0.098610 -0.015161 672204.000000 0 0 1
-37.190208 27.596831 -22.902517 51.664513 -0.638391 2.030065 0.104301 -0.016367 91746.800000 0 0 1
37.093350 26.757231 -23.461117 51.403210 0.624911 2.044756 0.092653 -0.010303 379146.000000 0 0 1
36.298160 27.343031 -24.633917 51.691659 0.645603 2.067528 0.102058 -0.017258 445727.000000 0 0 1
37.080010 27.289331 -25.836197 52.793406 0.634454 2.082178 0.107754 -0.027710 303004.000000 0 0 1
36.334700 27.924431 -26.856917 53.115706 0.655257 2.100909 0.131290 -0.028327 303078.000000 0 0 1
37.113670 28.218531 -28.198457 54.487273 0.650078 2.114751 0.122908 -0.034414 255410.000000 0 0 1
37.451610 27.057131 -28.897447 54.495631 0.625639 2.129716 0.084273 -0.010716 -411132.000000 0 0 1
-37.055968 27.245031 -30.023847 54.926021 -0.633988 2.149123 0.059188 -0.009208 -1138170.000000 0 0 1
-36.840168 25.967331 -30.898967 54.646559 -0.613983 2.171754 0.033780 -0.007522 188456.000000 0 0 1
-36.027978 24.921831 -30.410167 53.328145 -0.605158 2.177602 0.022049 -0.003977 381683.000000 0 0 1
-34.655978 25.226131 -30.194077 52.431639 -0.629207 2.184471 -0.009646 0.005604 1303.330000 0 0 1
-33.944518 24.495531 -29.082477 50.971088 -0.625099 2.177994 -0.010857 0.013091 -213859.000000 0 0 1
-33.710638 23.103031 -29.376727 50.330400 -0.600815 2.194047 -0.004256 0.009597 73566.200000 0 0 1
-33.516418 22.422031 -28.146117 49.176230 -0.589607 2.180168 -0.003751 0.018912 -129932.000000 0 0 1
-33.098638 20.975831 -28.356517 48.369384 -0.564857 2.197218 -0.002427 0.012475 738360.000000 0 0 1
-31.765918 20.841831 -28.889247 47.728859 -0.580656 2.220912 0.068302 0.008132 825820.000000 0 0 1
-31.639338 19.535431 -29.405947 47.406650 -0.553145 2.239911 0.048934 0.001150 282297.000000 0 0 1
-30.203238 18.922731 -29.439147 46.227359 -0.559687 2.261181 0.080411 -0.014497 167521.000000 0 0 1
-29.411418 19.529931 -30.482047 46.643380 -0.586172 2.283012 0.108477 -0.020003 534096.000000 0 0 1
-28.088808 19.015831 -30.548217 45.648401 -0.595115 2.303937 0.112916 -0.021921 234292.000000 0 0 1
-27.968668 17.637431 -31.236437 45.486705 -0.562626 2.327758 0.109664 -0.019468 -513389.000000 0 0 1
-28.487318 16.546931 -30.491087 44.889136 -0.526222 2.317541 0.075693 -0.010935 162846.000000 0 0 1
-28.289568 15.350031 -31.151887 44.792445 -0.497147 2.339873 0.052918 -0.005938 -89333.900000 0 0 1
-28.775528 14.137231 -30.357217 44.152609 -0.456658 2.328909 0.047359 0.000394 1101850.000000 0 0 1
-30.217488 14.052631 -30.215087 44.983602 -0.435298 2.307286 0.027464 0.002893 1333330.000000 0 0 1
-30.692318 12.703631 -29.876797 44.676880 -0.392434 2.303296 0.021549 0.008274 134012.000000 0 0 1
-30.379278 12.154131 -28.418787 43.338792 -0.380575 2.285953 0.014948 -0.003894 -124075.000000 0 0 1
-31.166618 12.696731 -27.342567 43.361054 -0.386854 2.253095 0.011441 0.001504 412899.000000 0 0 1
-31.251818 11.835231 -26.193517 42.459971 -0.362015 2.235593 0.013148 0.012099 -29542.000000 0 0 1
-30.982548 12.569831 -24.879317 41.676124 -0.385416 2.210513 0.017429 -0.004642 -386562.000000 0 0 1
-29.642358 12.973531 -24.861217 40.805171 -0.412552 2.225931 0.031775 -0.009337 -648741.000000 0 0 1
-29.272408 13.326031 -23.575317 39.877970 -0.427205 2.203325 0.031426 -0.006197 -84966.200000 0 0 1
-27.766498 13.512531 -23.299017 38.683473 -0.452910 2.217174 0.047343 -0.006075 -373366.000000 0 0 1
-27.240468 14.470231 -24.178617 39.192297 -0.488298 2.235623 0.057629 -0.004239 778273.000000 0 0 1
-25.900628 14.942331 -23.895817 38.276962 -0.523269 2.245015 0.060194 -0.008205 1207190.000000 0 0 1
-25.540478 15.713831 -22.592717 37.545590 -0.551559 2.216475 0.068809 -0.012439 -557466.000000 0 0 1
-26.211488 16.970831 -22.471617 38.471090 -0.574586 2.194588 0.092060 -0.009078 197949.000000 0 0 1
-26.174948 17.426331 -21.145317 37.893658 -0.587377 2.162791 0.088291 -0.012212 -409153.000000 0 0 1
-27.537688 17.296331 -20.466917 38.423717 -0.560823 2.132541 0.073956 -0.008815 -314142.000000 0 0 1
-27.939438 15.966431 -20.117817 37.950832 -0.519174 2.129517 0.072403 -0.013311 1131030.000000 0 0 1
-29.192468 15.967631 -19.396317 38.514705 -0.500520 2.098566 0.059172 -0.016198 508733.000000 0 0 1
-30.182778 14.772131 -19.499017 38.851352 -0.455150 2.096576 0.050976 -0.022343 -29811.000000 0 0 1
-30.909618 14.585731 -20.657517 39.935961 -0.440902 2.114450 0.040926 -0.014230 741001.000000 0 0 1
-31.950418 15.572831 -20.907517 41.236713 -0.453522 2.102511 0.035606 -0.016245 201420.000000 0 0 1
-32.365448 15.733531 -22.383017 42.380015 -0.452483 2.127217 0.014280 0.008288 -465211.000000 0 0 1
-33.202978 14.708031 -22.783817 42.870342 -0.416995 2.131118 0.021012 -0.001958 -300875.000000 0 0 1
-33.653738 15.014131 -24.073017 44.017137 -0.419636 2.149454 0.018658 0.009290 156465.000000 0 0 1
-35.006703 14.347431 -24.481617 45.062929 -0.388967 2.145131 0.013820 -0.007728 327945.000000 0 0 1
-34.989941 12.933631 -24.790117 44.789783 -0.354062 2.157330 0.023357 -0.003551 78408.000000 0 0 1
-34.852441 12.084931 -23.683017 43.836326 -0.333773 2.141542 0.025811 -0.008829 -378938.000000 0 0 1
-34.853073 10.609831 -24.104817 43.684636 -0.295503 2.155307 0.031565 -0.013310 -86146.000000 0 0 1
-36.082438 10.249131 -24.695817 44.909580 -0.276758 2.153042 0.039625 -0.012116 -215516.000000 0 0 1
-35.948503 9.178931 -25.657787 45.109529 -0.249994 2.175829 0.032770 -0.010411 -386047.000000 0 0 1
-37.210028 8.618731 -26.340747 46.397237 -0.227610 2.174533 0.056755 -0.005784 -644554.000000 0 0 1
37.367230 7.972631 -25.376137 45.867429 0.210207 2.157057 0.055455 -0.007767 -543959.000000 0 0 1
36.174230 7.409631 -25.886027 45.095054 0.202037 2.182218 0.060712 -0.004396 -39222.700000 0 0 1
35.340400 6.605031 -24.874817 43.718723 0.184766 2.176054 0.074421 -0.018304 147067.000000 0 0 1
35.970060 5.454831 -24.322317 43.762718 0.150502 2.160094 0.071043 -0.022149 649519.000000 0 0 1
34.975070 4.723431 -23.573717 42.441565 0.134239 2.159688 0.090915 -0.022745 576745.000000 0 0 1
35.533400 3.647031 -22.660817 42.301725 0.102279 2.136127 0.066682 -0.019114 -332669.000000 0 0 1
36.213440 2.631831 -23.340317 43.163759 0.072548 2.142111 0.080123 -0.025068 8892.690000 0 0 1
37.099060 2.097831 -22.371017 43.372843 0.056487 2.112719 0.124052 -0.023970 83925.100000 0 0 1
-37.208358 1.068831 -22.979817 43.745586 -0.028718 2.123871 0.138005 -0.023665 258225.000000 0 0 1
37.492200 -0.178669 -23.150517 44.064083 -0.004765 2.123961 0.125110 -0.023511 228912.000000 0 0 1
-36.698238 -0.996769 -23.442517 43.558074 0.027155 2.139084 0.144422 -0.033118 115110.000000 0 0 1
-23.796068 29.528131 26.882448 46.484722 -0.892482 0.954144 0.039182 -0.023737 217336.000000 0 0 1
-25.134658 29.642731 26.363398 46.962446 -0.867511 0.974754 0.026918 -0.023304 1146260.000000 0 0 1
-25.306668 29.013431 25.073148 45.944199 -0.853532 0.993536 0.022661 -0.014668 -285688.000000 0 0 1
-25.447708 27.472731 24.960508 45.004042 -0.823645 0.982880 0.032716 -0.015531 -214174.000000 0 0 1
-26.643528 26.930131 25.474318 45.651401 -0.790748 0.978801 0.039332 -0.008668 -11116.800000 0 0 1
-26.684758 26.749831 26.922268 46.394378 -0.786616 0.951710 0.040903 -0.011289 -792145.000000 0 0 1
-25.954698 25.499931 27.515468 45.617911 -0.776560 0.923324 0.040874 -0.012190 914706.000000 0 0 1
-24.539568 25.660131 27.710658 45.039020 -0.807717 0.908082 0.039908 -0.013982 627594.000000 0 0 1
-24.302968 26.265831 28.941818 46.023439 -0.824194 0.890724 0.036000 -0.011224 121598.000000 0 0 1
-22.911768 25.917931 29.546458 45.493752 -0.846885 0.863920 0.048474 -0.004503 188389.000000 0 0 1
-21.796268 26.586931 29.007698 44.982094 -0.884091 0.869940 0.069669 -0.018750 759011.000000 0 0 1
-20.547768 26.320831 29.679908 44.675428 -0.907956 0.844179 0.094210 -0.024329 1020380.000000 0 0 1
-19.754968 25.046431 29.301268 43.314510 -0.902963 0.827828 0.083832 -0.009457 -169265.000000 0 0 1
-19.252668 25.082531 27.961928 42.209809 -0.916143 0.846710 0.093527 -0.009152 267295.000000 0 0 1
-20.057868 24.278031 27.097458 41.545314 -0.880298 0.860262 0.086449 -0.013583 347818.000000 0 0 1
-19.718968 22.722031 27.223128 40.573724 -0.856039 0.835301 0.060617 -0.000389 158636.000000 0 0 1
-20.177068 22.071131 28.387698 41.232394 -0.830200 0.811405 0.055239 0.001583 -93987.500000 0 0 1
-20.144468 20.650831 28.281178 40.399028 -0.797810 0.795334 0.072577 0.004306 124812.000000 0 0 1
-20.843968 20.034931 29.488248 41.296807 -0.765610 0.775521 0.090362 -0.008091 312898.000000 0 0 1
-19.997468 20.284231 30.608518 41.811842 -0.792517 0.749464 0.076673 -0.011792 476115.000000 0 0 1
-20.655068 19.894531 31.802315 42.823025 -0.766645 0.733785 0.083084 -0.018138 -167874.000000 0 0 1
-19.941568 20.340831 33.085581 43.658576 -0.795309 0.710823 0.082301 -0.019471 -429734.000000 0 0 1
-19.966768 21.759931 33.409907 44.591348 -0.828346 0.723873 0.055514 -0.017316 469483.000000 0 0 1
-19.026068 22.619231 32.733824 44.103561 -0.871465 0.734444 0.077520 -0.003438 741414.000000 0 0 1
-17.575268 22.607331 33.293821 43.914234 -0.909980 0.710316 0.067871 -0.001374 458209.000000 0 0 1
-16.841668 21.390931 33.092675 42.852525 -0.903830 0.688428 0.072025 -0.016055 236697.000000 0 0 1
-15.453568 21.623231 33.292600 42.600166 -0.950290 0.673708 0.063483 -0.022306 40152.300000 0 0 1
-14.600168 20.327831 33.285073 41.644708 -0.947936 0.644728 0.056937 -0.024537 335343.000000 0 0 1
-13.243968 20.423131 33.692838 41.565783 -0.995491 0.625636 0.055223 -0.031638 445853.000000 0 0 1
-13.028468 20.548431 -32.523477 40.617183 -1.005725 2.499312 0.076920 -0.033078 -852843.000000 0 0 1
-11.592268 20.170731 -32.204077 39.728348 -1.049182 2.515984 0.050434 -0.032930 -535842.000000 0 0 1
-10.630568 21.095931 -32.578367 40.241735 -1.104021 2.514210 0.045037 -0.030749 -885908.000000 0 0 1
-9.344468 20.773031 -32.169227 39.416964 -1.148078 2.525472 0.038081 -0.028571 -17585.100000 0 0 1
-8.216068 21.866931 -32.236957 39.810650 -1.211386 2.514534 0.033929 -0.037406 490419.000000 0 0 1
-8.324168 22.977031 -31.350437 39.750291 -1.223222 2.479463 0.043379 -0.032765 175497.000000 0 0 1
-7.791568 22.616331 -30.045937 38.405277 -1.239020 2.469208 0.034147 -0.027092 -4717.800000 0 0 1
-7.608368 23.861231 -29.156697 38.436422 -1.262129 2.431911 0.047046 -0.026239 -814996.000000 0 0 1
-6.603568 24.648231 -29.629737 39.103244 -1.309031 2.430625 0.046881 -0.026989 -778731.000000 0 0 1
-6.259768 25.635231 -28.680897 38.973627 -1.331297 2.397799 0.068387 -0.023621 -396433.000000 0 0 1
-4.960968 26.383831 -28.949697 39.481675 -1.384936 2.393877 0.071050 -0.025672 -28342.700000 0 0 1
-3.761968 25.719731 -28.532337 38.597295 -1.425558 2.402725 0.086314 -0.025759 333111.000000 0 0 1
-2.638168 25.885331 -29.340967 39.216102 -1.469230 2.416121 0.105251 -0.027900 10697.300000 0 0 1
-1.752568 27.106231 -29.033137 39.758550 -1.506231 2.389464 0.126896 -0.043945 -107701.000000 0 0 1
-1.007668 27.124131 -27.791577 38.847209 -1.533663 2.368003 0.140679 -0.056671 223979.000000 0 0 1
-0.130668 28.190831 -27.786977 39.583533 -1.566161 2.348975 0.146061 -0.057860 -503681.000000 0 0 1
0.667632 28.425931 -26.435657 38.824261 1.547314 2.319795 0.148280 -0.065439 850195.000000 0 0 1
1.696932 27.459431 -26.120457 37.936502 1.509077 2.330258 0.186477 -0.071527 301722.000000 0 0 1
2.915932 27.763931 -26.726117 38.647430 1.466154 2.334411 0.190411 -0.072304 -234938.000000 0 0 1
4.120832 28.003631 -25.738827 38.257964 1.424691 2.308743 0.186708 -0.076649 478366.000000 0 0 1
4.782932 26.805331 -25.364507 37.212369 1.394222 2.320764 0.178803 -0.059674 -653525.000000 0 0 1
5.893932 27.047231 -24.602517 37.034781 1.356238 2.297365 0.129571 -0.048553 -865482.000000 0 0 1
6.595532 25.767231 -24.150117 35.926026 1.320211 2.307997 0.128262 -0.043247 733385.000000 0 0 1
7.856432 26.048831 -23.511617 35.959161 1.277869 2.283448 0.113238 -0.042038 678358.000000 0 0 1
8.520832 24.849431 -23.039617 34.941705 1.240462 2.290781 0.100664 -0.027396 -134667.000000 0 0 1
9.945132 25.044931 -22.567817 35.149119 1.192800 2.267978 0.087079 -0.002583 -1021870.000000 0 0 1
9.998132 25.762131 -21.336217 34.912522 1.200596 2.228288 0.102124 -0.014849 494996.000000 0 0 1
11.288932 25.926031 -20.730617 35.062195 1.160126 2.203408 0.116310 -0.020573 1040780.000000 0 0 1
12.023132 24.647531 -20.110417 34.007137 1.116954 2.203539 0.073773 -0.005969 305988.000000 0 0 1
12.457832 23.736031 -21.137617 34.137891 1.087468 2.238499 0.072204 -0.007117 -103872.000000 0 0 1
12.668332 22.464631 -20.633917 33.028848 1.057326 2.245574 0.060183 0.003427 -153194.000000 0 0 1
12.732532 21.431931 -21.789117 33.109072 1.034732 2.289090 0.068510 0.001935 377535.000000 0 0 1
11.535832 21.415631 -22.569517 33.182642 1.076698 2.318778 0.069785 -0.014868 383688.000000 0 0 1
11.645332 20.434931 -23.541717 33.277809 1.052823 2.356652 0.074465 -0.017770 -462336.000000 0 0 1
10.759732 20.555431 -24.763017 33.933826 1.088566 2.388744 0.086240 -0.014332 -684373.000000 0 0 1
9.411132 20.415031 -24.386417 33.166854 1.138841 2.396853 0.084885 -0.018210 -467361.000000 0 0 1
8.671732 20.217731 -25.591447 33.747263 1.165612 2.431539 0.099989 -0.022811 -474692.000000 0 0 1
7.210532 19.792631 -25.377887 32.981467 1.221436 2.448790 0.103392 -0.041441 -138253.000000 0 0 1
6.250232 20.750731 -24.944717 33.043867 1.278234 2.426293 0.135645 -0.046469 137189.000000 0 0 1
6.504132 21.384331 -23.712817 32.586669 1.275533 2.385737 0.129206 -0.049006 -1274220.000000 0 0 1
5.269632 21.921731 -22.987217 32.198501 1.334888 2.365880 0.148305 -0.056455 -320803.000000 0 0 1
4.630332 22.934531 -23.706917 33.308416 1.371581 2.362768 0.150107 -0.059833 -669513.000000 0 0 1
3.249932 22.912531 -23.526617 33.000725 1.429895 2.364439 0.170065 -0.062531 -784241.000000 0 0 1
2.537232 23.933631 -24.385117 34.262080 1.465180 2.362745 0.160176 -0.057268 -1494150.000000 0 0 1
1.177732 23.793731 -24.358717 34.071627 1.521339 2.367316 0.178146 -0.074125 -1221880.000000 0 0 1
0.529232 24.674531 -25.285857 35.333937 1.549351 2.368315 0.166996 -0.061973 1099970.000000 0 0 1
-1.043768 24.626931 -25.280417 35.308280 -1.528438 2.368839 0.165394 -0.058225 1004820.000000 0 0 1
-1.483068 23.405331 -25.908137 34.946252 -1.507516 2.405907 0.170749 -0.060574 -537497.000000 0 0 1
-2.801468 23.588931 -26.338987 35.468692 -1.452588 2.407738 0.163941 -0.047972 -261350.000000 0 0 1
-3.385268 22.297531 -26.953547 35.144468 -1.420124 2.444849 0.118327 -0.048402 523097.000000 0 0 1
-2.447768 21.718331 -27.908847 35.448289 -1.458565 2.477233 0.153124 -0.061577 843349.000000 0 0 1
-2.974668 20.478631 -28.368727 35.114208 -1.426548 2.511374 0.093170 -0.050514 624238.000000 0 0 1
-4.281368 20.361331 -29.255827 35.900102 -1.363546 2.523393 0.065611 -0.042213 503214.000000 0 0 1
-4.144368 20.750131 -30.634457 37.231890 -1.373663 2.537119 0.068116 -0.044223 -20109.700000 0 0 1
-3.810868 22.126031 -30.923927 38.214830 -1.400235 2.513607 0.090287 -0.046631 -26706.100000 0 0 1
-3.690468 22.303531 -32.401777 39.508761 -1.406816 2.532410 0.094209 -0.045535 -55223.400000 0 0 1
-2.537968 21.681731 -32.933407 39.511366 -1.454271 2.556240 0.094251 -0.040866 187632.000000 0 0 1
-2.374768 21.839331 33.350388 39.935502 -1.462484 0.582470 0.100662 -0.019296 -116632.000000 0 0 1
-1.111368 21.089131 32.878277 39.076434 -1.518146 0.570958 0.111889 -0.013622 -58492.500000 0 0 1
-1.237868 19.720931 32.698792 38.205477 -1.508109 0.543572 0.088856 -0.003738 209956.000000 0 0 1
-0.040268 19.120631 32.232785 37.477361 -1.568690 0.535409 0.090579 -0.008665 185019.000000 0 0 1
-0.252768 17.703831 31.641533 36.258463 -1.556520 0.510161 0.076639 -0.009445 132140.000000 0 0 1
-1.296468 17.871331 30.685378 35.533896 -1.498379 0.528524 0.061964 -0.004763 324263.000000 0 0 1
-1.614268 16.591831 30.169898 34.469080 -1.473809 0.504794 0.055573 -0.009116 -62307.700000 0 0 1
-2.676268 16.607031 29.045948 33.565205 -1.411017 0.524930 0.058427 -0.008161 1336790.000000 0 0 1
-4.071868 16.787531 29.389948 34.090620 -1.332839 0.531372 0.036112 -0.010243 1262300.000000 0 0 1
-4.427868 18.173131 29.393088 34.839953 -1.331804 0.566731 0.045395 -0.007323 42289.700000 0 0 1
-5.952068 18.412831 29.540618 35.314410 -1.258142 0.579926 0.035501 -0.022882 238044.000000 0 0 1
-6.712668 18.013531 28.441968 34.329182 -1.214091 0.594360 0.031846 -0.014122 -246145.000000 0 0 1
-8.085168 18.180931 28.729388 34.947016 -1.152354 0.605734 0.039075 -0.017898 -28968.700000 0 0 1
-9.103668 17.509331 27.758798 34.058836 -1.091330 0.618024 0.038319 -0.020692 198138.000000 0 0 1
-9.546968 16.194831 27.965768 33.697201 -1.038128 0.591843 0.045273 -0.030345 -331690.000000 0 0 1
-10.328768 16.000231 29.075738 34.757580 -0.997564 0.579878 0.047285 -0.027549 -959231.000000 0 0 1
-10.783068 14.493131 29.270228 34.395809 -0.931138 0.552943 0.050232 -0.033432 190916.000000 0 0 1
-9.755468 13.521631 29.451958 33.844076 -0.945805 0.515138 0.058863 -0.029123 244967.000000 0 0 1
-9.093468 13.424731 30.722318 34.738673 -0.975422 0.485624 0.063308 -0.028439 -161327.000000 0 0 1
-9.902968 12.985531 31.945849 35.877989 -0.919270 0.472568 0.101381 -0.038767 -377730.000000 0 0 1
-9.990668 11.573231 32.034128 35.495612 -0.858656 0.445300 0.112277 -0.039005 201877.000000 0 0 1
-10.691068 11.350131 33.229255 36.705692 -0.815291 0.438737 0.120127 -0.040114 -157061.000000 0 0 1
-11.074668 9.840631 33.357177 36.499145 -0.726465 0.417965 0.117322 -0.037387 -349498.000000 0 0 1
-9.965668 9.045631 33.692718 36.281362 -0.737042 0.380037 0.130842 -0.039469 -22432.900000 0 0 1
-10.158568 8.236831 -32.833587 35.342415 -0.681307 2.762535 0.159221 -0.052760 -506247.000000 0 0 1
-9.499168 8.791931 -31.579447 34.129074 -0.746752 2.752608 0.126132 -0.050268 -236130.000000 0 0 1
-10.084268 10.051831 -31.146067 34.246302 -0.783787 2.712810 0.118571 -0.047463 888206.000000 0 0 1
-9.185068 10.727631 -30.260247 33.393563 -0.862710 2.704935 0.111277 -0.054120 324587.000000 0 0 1
-8.091468 11.627131 -30.884207 33.977879 -0.962819 2.711556 0.081081 -0.044645 11247.500000 0 0 1
-8.561268 12.930031 -31.306397 34.936678 -0.985946 2.681676 0.071118 -0.036452 501741.000000 0 0 1
-7.524068 13.867831 -31.644067 35.359232 -1.073687 2.679072 0.041470 -0.031221 42657.200000 0 0 1
-7.998268 15.280931 -32.043937 36.390837 -1.088593 2.647817 0.040650 -0.024682 -4459.890000 0 0 1
-8.744168 15.380031 -33.271047 37.682468 -1.053830 2.652867 0.054858 -0.030841 364742.000000 0 0 1
-9.217068 16.734231 -33.352677 38.436830 -1.067346 2.621407 0.054685 -0.035771 -643460.000000 0 0 1
-9.592368 17.126731 32.829434 38.250623 -1.060246 0.538904 0.052636 -0.037148 1150500.000000 0 0 1
-10.776468 16.540631 32.249212 37.811856 -0.993357 0.549308 0.041588 -0.035745 1538450.000000 0 0 1
-12.048268 16.779031 32.875281 38.826289 -0.948055 0.560993 0.063849 -0.038265 981181.000000 0 0 1
-13.229168 16.146631 31.990770 38.198612 -0.884389 0.578132 0.074383 -0.040629 688624.000000 0 0 1
-13.246268 14.727931 31.925636 37.571556 -0.838314 0.555325 0.072475 -0.036532 271614.000000 0 0 1
-14.379768 14.272631 32.638033 38.415191 -0.781659 0.555546 0.057031 -0.025301 644.647000 0 0 1
-14.514268 12.742831 32.831718 38.091540 -0.720500 0.531759 0.064180 -0.033775 -338568.000000 0 0 1
-14.736268 11.977131 31.634962 36.896885 -0.682477 0.540623 0.051526 -0.035650 514841.000000 0 0 1
-13.651968 11.700231 30.725148 35.599247 -0.708565 0.529452 0.081812 -0.037030 177266.000000 0 0 1
-14.089568 11.057231 29.395908 34.422343 -0.665392 0.547214 0.074113 -0.036408 -353161.000000 0 0 1
-14.841668 9.888931 29.397018 34.383873 -0.587745 0.545312 0.074605 -0.032054 -71243.900000 0 0 1
-15.047268 9.422031 28.049998 33.196345 -0.559435 0.564283 0.069348 -0.029848 58871.900000 0 0 1
-15.903568 8.168031 27.885788 33.124876 -0.474466 0.570116 0.067923 -0.024700 15824.200000 0 0 1
-15.249168 6.992431 28.364198 32.953891 -0.429937 0.534107 0.066637 -0.019694 285470.000000 0 0 1
-15.998968 5.814431 28.111418 32.863755 -0.348585 0.544488 0.066919 -0.013929 347735.000000 0 0 1
-15.038968 4.581131 28.122828 32.218795 -0.295688 0.509742 0.082279 -0.013202 1385860.000000 0 0 1
-13.931868 4.358631 27.198468 30.868289 -0.303207 0.492585 0.083697 -0.019257 1040720.000000 0 0 1
-14.282068 4.400231 25.817428 29.830841 -0.298867 0.524727 0.077041 -0.016092 -567792.000000 0 0 1
-13.115268 4.207031 24.841478 28.404373 -0.310404 0.506258 0.074835 -0.013647 -172756.000000 0 0 1
-12.543368 2.897331 24.954818 28.079771 -0.227004 0.476269 0.068420 -0.016321 71488.300000 0 0 1
-11.458768 2.795631 24.065838 26.800811 -0.239298 0.455703 0.048667 -0.014328 -391226.000000 0 0 1
-10.474168 1.696031 24.462768 26.664803 -0.160532 0.409254 0.046240 -0.003848 -368641.000000 0 0 1
-9.157368 1.845131 23.998168 25.752164 -0.198829 0.371209 0.033608 -0.023013 -42504.000000 0 0 1
-8.307768 0.828531 24.509458 25.892451 -0.099401 0.328315 0.037610 -0.017546 -192216.000000 0 0 1
-6.834068 1.192031 24.310668 25.281100 -0.172688 0.277970 0.050900 -0.026108 -761766.000000 0 0 1
-6.373668 1.055731 22.970768 23.861987 -0.164149 0.274167 0.039819 -0.023849 -299742.000000 0 1 0
-5.069568 1.472431 22.654108 23.261066 -0.282668 0.228944 0.048852 -0.027099 -243139.000000 0 1 0
-4.725468 2.967031 22.902028 23.571937 -0.560668 0.238979 0.079549 -0.035604 -839610.000000 0 1 0
-4.156268 3.158331 24.154808 24.712434 -0.649804 0.212838 0.074354 -0.039597 -26684.300000 0 1 0
-4.308968 4.443231 24.675728 25.440147 -0.800737 0.245762 0.074261 -0.038459 -25487.100000 0 0 1
4.067332 -23.643669 12.398483 27.005345 -1.400437 1.093801 0.130103 -0.034518 240663.000000 0 0 1
3.750632 -24.759669 13.211783 28.313595 -1.420458 1.085327 0.142123 -0.042110 -533502.000000 0 0 1
2.435732 -25.175309 12.968783 28.423904 -1.474346 1.097005 0.120851 -0.042923 -460750.000000 0 0 1
2.105532 -26.424629 13.860083 29.913144 -1.491284 1.089031 0.113692 -0.037227 -110047.000000 0 0 1
1.965432 -26.119139 15.225783 30.296812 -1.495689 1.044246 0.140986 -0.041802 43660.500000 0 0 1
1.964032 -27.347269 15.977083 31.733228 -1.499101 1.043173 0.137364 -0.047697 -211364.000000 0 0 1
1.677832 -27.156089 17.463083 32.329979 -1.509090 1.000179 0.132109 -0.046239 -134592.000000 0 0 1
2.644332 -26.385159 18.129983 32.122662 -1.470909 0.971092 0.150228 -0.050174 -29174.000000 0 0 1
2.973732 -26.955319 19.357183 33.318656 -1.460920 0.950875 0.135969 -0.048303 -193287.000000 0 0 1
3.829932 -26.099549 20.284783 33.276527 -1.425093 0.915263 0.107939 -0.039520 27819.300000 0 0 1
3.149732 -25.038919 20.926083 32.783673 -1.445660 0.878498 0.103215 -0.036192 399636.000000 0 0 1
4.132832 -24.150669 21.425283 32.548086 -1.401311 0.852284 0.076915 -0.030864 387755.000000 0 0 1
3.486432 -22.968669 22.197183 32.131447 -1.420155 0.808168 0.088863 -0.034667 -367055.000000 0 0 1
2.825432 -21.952169 21.517983 30.869150 -1.442792 0.799492 0.102806 -0.034006 109047.000000 0 0 1
3.674132 -21.028169 20.780283 29.790994 -1.397818 0.798844 0.084716 -0.020017 246970.000000 0 0 1
2.863432 -20.029269 19.915183 28.389882 -1.428796 0.793312 0.051476 -0.013949 -281612.000000 0 0 1
2.428832 -18.933569 20.724083 28.175644 -1.443211 0.744345 0.035281 -0.018720 179520.000000 0 0 1
1.753632 -18.031169 19.829183 26.858794 -1.473846 0.740287 0.026998 -0.022942 -358488.000000 0 0 1
1.451032 -16.725469 20.475583 26.478223 -1.484257 0.686768 0.052707 -0.019785 295932.000000 0 0 1
2.582032 -15.923569 20.829683 26.345828 -1.410044 0.658966 0.007180 0.003564 254762.000000 0 0 1
2.173432 -14.674369 21.275083 25.936270 -1.423755 0.608891 0.035111 -0.000139 51473.700000 0 0 1
3.065532 -13.483169 20.846683 25.015546 -1.347237 0.585657 -0.013400 0.003987 -874655.000000 0 0 1
3.152232 -13.092769 19.462383 23.667309 -1.334532 0.605299 -0.027480 -0.006536 -273005.000000 0 1 0
2.006932 -12.788269 18.684483 22.730542 -1.415131 0.605884 -0.018491 -0.001474 154461.000000 0 1 0
1.053632 -11.695569 19.180583 22.489803 -1.480951 0.549364 -0.011730 -0.000589 -322761.000000 0 1 0
1.727032 -10.439969 19.040483 21.783379 -1.406856 0.507251 -0.006955 -0.000489 -167394.000000 0 1 0
1.460532 -9.382269 19.913083 22.061075 -1.416366 0.444945 0.011387 -0.017116 1095560.000000 0 1 0
-0.064268 -8.958969 20.053383 21.963730 1.563623 0.420163 0.028115 -0.019061 1169340.000000 0 1 0
-0.361668 -8.115469 21.097383 22.607327 1.526261 0.367551 0.040656 -0.027615 261774.000000 0 1 0
-1.717668 -7.657469 21.111183 22.522639 1.350136 0.355905 0.035926 -0.021714 682369.000000 0 1 0
-2.129068 -6.894569 22.386083 23.520305 1.271283 0.311820 0.033250 -0.016828 -255764.000000 0 1 0
-2.328368 -7.739169 23.481383 24.833272 1.278555 0.331481 0.040784 -0.014501 40022.200000 0 1 0
-2.446268 -7.116269 24.748183 25.866930 1.239694 0.295180 0.047439 -0.014219 -124247.000000 0 0 1
-2.496568 -8.067869 25.962083 27.301156 1.270696 0.314498 0.062853 -0.017296 -671951.000000 0 0 1
-1.381068 -8.871869 26.104683 27.605650 1.416368 0.331275 0.059391 -0.020750 -491656.000000 0 0 1
-1.591268 -9.822969 27.103483 28.872507 1.410197 0.351870 0.083232 -0.027988 281220.000000 0 0 1
-0.346368 -10.763969 27.132883 29.192060 1.538629 0.377847 0.096477 -0.028519 840232.000000 0 0 1
0.782432 -10.087569 27.695983 29.486247 -1.493387 0.350256 0.087168 -0.031051 816868.000000 0 0 1
1.889532 -10.980269 27.942383 30.081779 -1.400381 0.379417 0.107297 -0.035624 790668.000000 0 0 1
3.005832 -10.396169 28.807783 30.773426 -1.289343 0.359351 0.125785 -0.038330 17948.100000 0 0 1
2.521932 -10.283369 30.096883 31.905019 -1.330299 0.338278 0.124774 -0.050602 -728304.000000 0 0 1
3.526632 -9.952869 30.949783 32.701465 -1.230266 0.328789 0.147364 -0.050656 -991767.000000 0 0 1
3.053232 -9.450969 32.333183 33.824219 -1.258320 0.298026 0.147541 -0.062934 -521447.000000 0 0 1
2.213232 -10.403169 32.952883 34.626823 -1.361176 0.312208 0.144708 -0.062509 -5512.090000 0 0 1
2.095832 -10.302569 -33.293821 34.914381 -1.370107 2.835721 0.127766 -0.061899 -211136.000000 0 0 1
3.355732 -10.684869 -32.452221 34.330366 -1.266487 2.809285 0.113877 -0.047649 78197.400000 0 0 1
4.324932 -9.660569 -32.621521 34.295704 -1.149866 2.827846 0.098801 -0.059545 -123413.000000 0 0 1
4.542132 -8.786369 -31.514021 33.029756 -1.093679 2.837470 0.123691 -0.057340 -366603.000000 0 0 1
3.441932 -7.773869 -31.145621 32.285131 -1.153982 2.875116 0.109728 -0.050259 -309481.000000 0 0 1
3.331032 -6.712769 -32.071621 32.935482 -1.110175 2.912053 0.155763 -0.058828 -386191.000000 0 0 1
2.554432 -5.690869 -31.617321 32.226792 -1.148887 2.946801 0.122832 -0.037057 -513507.000000 0 0 1
2.826032 -4.321369 -32.332921 32.742610 -0.991637 2.983235 0.130722 -0.042513 70259.800000 0 0 1
2.142532 -4.186969 -33.579821 33.907603 -1.097821 3.002434 0.122069 -0.045831 -14486.100000 0 0 1
2.401232 -2.976369 33.373483 33.591875 -0.891944 0.114091 0.142855 -0.035805 -32777.900000 0 0 1
1.848532 -3.051169 31.954983 32.153502 -1.026091 0.111180 0.144515 -0.040507 -577714.000000 0 0 1
0.464532 -3.005969 31.920883 32.065471 -1.417473 0.095000 0.136870 -0.037814 -1109690.000000 0 0 1
-0.034468 -3.431669 30.669983 30.861390 1.560753 0.111432 0.129345 -0.032070 4956.060000 0 0 1
-1.574068 -3.491869 30.646783 30.885210 1.147293 0.124336 0.113228 -0.035096 -4073.330000 0 0 1
-2.194368 -2.226169 30.346483 30.507051 0.792592 0.102644 0.113731 -0.031401 -363576.000000 0 0 1
-3.569768 -2.516869 30.390683 30.702956 0.614108 0.142745 0.080101 -0.034148 -193982.000000 0 0 1
-4.488868 -1.425369 29.824283 30.193865 0.307465 0.156623 0.067631 -0.025492 -447828.000000 0 0 1
-4.389768 -1.341769 28.455683 28.823538 0.296640 0.159935 0.066390 -0.026242 374405.000000 0 0 1
-5.510268 -0.771469 27.746683 28.299057 0.139102 0.197904 0.048945 -0.029112 692772.000000 0 0 1
-5.879268 0.697831 27.987683 28.607048 -0.118141 0.208467 0.063596 -0.031077 111434.000000 0 0 1
-6.978268 0.863731 28.870683 29.714619 -0.123148 0.238901 0.050049 -0.023523 -85874.500000 0 0 1
-7.294068 2.226331 29.037483 30.022249 -0.296243 0.256835 0.057844 -0.023242 179634.000000 0 0 1
-8.739268 2.455331 29.560983 30.923376 -0.273893 0.297941 0.062255 -0.019571 89898.000000 0 0 1
-9.702568 2.063831 28.597283 30.268859 -0.209586 0.333887 0.058974 -0.015179 194630.000000 0 0 1
-10.987768 2.563831 28.964783 31.084770 -0.229234 0.371456 0.060305 -0.020468 512538.000000 0 0 1
-12.140568 1.772531 28.278683 30.825625 -0.144976 0.409360 0.065345 -0.017322 1257.370000 0 0 1
-12.270368 0.422931 28.737683 31.250524 -0.034454 0.403760 0.063422 -0.010244 61259.600000 0 0 1
-12.519068 -0.340469 27.559283 30.271390 0.027189 0.426530 0.060896 -0.003082 -1124440.000000 0 0 1
-12.302968 -1.876769 27.711083 30.377449 0.151379 0.422113 0.065523 -0.002946 -516507.000000 0 0 1
-11.031168 -2.267869 28.117183 30.288709 0.202762 0.380966 0.065442 -0.013341 145271.000000 0 0 1
-9.885668 -1.926869 27.340283 29.136409 0.192502 0.352957 0.064798 -0.012591 -329006.000000 0 0 1
-9.653868 -2.612869 25.926983 27.789075 0.264322 0.368158 0.052712 -0.006001 -937764.000000 0 0 1
-10.549068 -2.195769 24.946483 27.174092 0.205218 0.407727 0.042521 -0.006049 -43918.000000 0 0 1
-10.528668 -2.893469 23.727183 26.119040 0.268197 0.431296 0.045992 -0.005848 -321918.000000 0 0 1
-9.514168 -2.299469 22.743683 24.760494 0.237141 0.406407 0.033153 -0.011119 -376767.000000 0 1 0
-8.209568 -2.453069 23.237583 24.766910 0.290361 0.353256 0.025029 -0.012332 -346054.000000 0 1 0
-7.289168 -1.946269 22.234883 23.479991 0.260921 0.327120 0.021340 -0.015656 1434790.000000 0 1 0
-5.748968 -2.184569 22.488183 23.313974 0.363141 0.266951 0.016878 -0.016767 903229.000000 0 1 0
-5.208468 -3.469169 22.528783 23.381817 0.587585 0.270949 0.020814 -0.015901 -159746.000000 0 1 0
-5.774268 -4.375069 23.533683 24.623518 0.648401 0.298631 0.030727 -0.014610 -27785.000000 0 1 0
-5.781568 -5.956069 23.287783 24.722907 0.800264 0.342400 0.040372 -0.007694 -417290.000000 0 1 0
-6.559568 -6.477969 22.262983 24.096316 0.779139 0.392603 0.039422 -0.010082 -294654.000000 0 1 0
-6.114068 -6.047969 20.957383 22.653293 0.779963 0.389402 0.030258 -0.012933 -731103.000000 0 1 0
-7.137968 -6.039869 19.861283 21.952248 0.702261 0.440005 0.024717 -0.014376 -627351.000000 0 1 0
-8.183068 -5.111369 20.060683 22.260272 0.558331 0.448294 0.027645 -0.015843 -97610.200000 0 1 0
-8.927268 -4.852369 18.871683 21.433199 0.497874 0.493905 0.027789 -0.016908 386522.000000 0 1 0
-9.747968 -3.571069 19.134983 21.769773 0.351157 0.497098 0.031771 -0.013678 156923.000000 0 1 0
-8.880668 -2.462169 19.015383 21.130862 0.270457 0.451287 0.023773 -0.006148 -161935.000000 0 1 0
-9.573168 -1.247869 18.752183 21.091399 0.129620 0.475440 0.027937 -0.012198 193101.000000 0 1 0
-8.646068 -0.090969 18.227583 20.174428 0.010521 0.442931 0.014890 -0.008938 694776.000000 0 1 0
-7.601168 0.380131 19.089183 20.550406 -0.049968 0.379377 0.018487 -0.004952 340066.000000 0 1 0
-8.061668 1.039431 20.240583 21.811743 -0.128228 0.381876 0.037205 -0.004163 -181171.000000 0 1 0
-7.914468 2.571031 20.152483 21.803018 -0.314098 0.391604 0.033226 -0.009335 528106.000000 0 1 0
-8.861568 3.036531 19.176783 21.342374 -0.330124 0.454385 0.020726 -0.017097 571116.000000 0 1 0
-8.534368 4.316531 18.756683 21.054241 -0.468263 0.471530 0.014178 -0.019064 148603.000000 0 1 0
-9.455268 4.759231 17.557283 20.501477 -0.466317 0.542557 0.017842 -0.011444 1071000.000000 0 1 0
-10.819768 5.006631 17.966183 21.561945 -0.433390 0.585862 0.025353 -0.007141 887461.000000 0 1 0
-11.527268 5.728231 16.964283 21.295010 -0.461188 0.649094 0.027379 0.011043 -54983.000000 0 1 0
-11.482068 7.238131 17.094583 21.827808 -0.562463 0.671071 0.031710 0.011224 398966.000000 0 1 0
-10.133068 7.700731 16.903083 21.158794 -0.649845 0.645385 0.016782 0.011886 993126.000000 0 1 0
-10.000568 9.099831 16.716583 21.500289 -0.738275 0.680108 0.006829 0.002633 229870.000000 0 1 0
-8.598168 9.648931 17.081783 21.420030 -0.842920 0.647710 0.001421 0.009233 250032.000000 0 1 0
-8.538468 9.961931 18.465283 22.651980 -0.862189 0.617768 0.015298 0.025768 -36127.800000 0 1 0
-8.282768 11.323031 18.809983 23.465523 -0.939242 0.640828 0.037175 0.023668 -165745.000000 0 1 0
-9.103368 12.472631 18.173683 23.847864 -0.940305 0.704296 0.046170 0.014215 -105328.000000 0 1 0
-8.727768 12.860331 16.867383 22.936230 -0.974538 0.744534 0.026965 0.005599 -159422.000000 0 1 0
-9.687868 13.699231 16.272083 23.373156 -0.955266 0.800724 0.042327 -0.010920 -589866.000000 0 1 0
-9.155168 14.215031 14.925383 22.553299 -0.998616 0.847602 0.030720 -0.012233 1482500.000000 0 1 0
-7.912368 14.976831 14.908083 22.564618 -1.084760 0.849067 0.027144 -0.004958 889300.000000 0 1 0
-7.684868 15.382331 13.607183 21.927807 -1.107476 0.901359 0.020617 -0.012206 -322752.000000 0 1 0
-6.653868 16.494731 13.475483 22.314541 -1.187368 0.922426 0.012465 -0.010283 -820754.000000 0 1 0
-5.356868 16.008331 13.558583 21.651741 -1.247879 0.894111 0.018317 -0.020429 -958092.000000 0 1 0
-4.452568 17.123431 13.651883 22.347509 -1.316402 0.913611 0.020385 -0.020329 223767.000000 0 1 0
-2.977868 16.699831 13.571583 21.724178 -1.394334 0.896020 0.029950 -0.027564 -5626.630000 0 1 0
-2.344068 16.120231 14.723883 21.957897 -1.426397 0.835845 0.035691 -0.029477 55522.200000 0 1 0
-2.815068 14.841131 15.088183 21.350341 -1.383343 0.785980 0.021566 -0.025369 -342801.000000 0 1 0
-1.824068 14.249431 16.113783 21.587671 -1.443479 0.728108 0.036396 -0.021421 761333.000000 0 1 0
-0.501768 14.102631 15.571683 21.014597 -1.535232 0.736247 0.052009 -0.035990 281339.000000 0 1 0
0.369132 13.501131 16.520183 21.338539 1.543462 0.685355 0.052088 -0.017684 509581.000000 0 1 0
1.407732 14.469431 17.146583 22.480024 1.473811 0.703245 0.049618 -0.028075 -145874.000000 0 1 0
0.805632 15.404131 17.984583 23.693491 1.518544 0.708941 0.045634 -0.033502 -553636.000000 0 1 0
1.705032 16.369131 18.443683 24.718921 1.467009 0.728556 0.076139 -0.038208 -517699.000000 0 1 0
0.982632 17.642231 18.976683 25.929296 1.515156 0.749745 0.082438 -0.032395 286207.000000 0 0 1
0.369532 18.557431 18.101483 25.926406 1.550886 0.797934 0.060759 -0.023970 428948.000000 0 0 1
-0.779668 17.996631 17.437183 25.070739 -1.527500 0.801654 0.060278 -0.021284 -288288.000000 0 0 1
-1.330568 19.082231 16.520883 25.275315 -1.501181 0.858416 0.053826 -0.015941 -316881.000000 0 0 1
-1.996768 20.139231 17.174983 26.543469 -1.471971 0.867086 0.043659 -0.009341 -167719.000000 0 0 1
-2.693868 20.964731 16.279583 26.679612 -1.443001 0.914498 0.049202 -0.011615 -381711.000000 0 0 1
-3.407468 22.024331 17.132483 28.110567 -1.417300 0.915407 0.040372 -0.007656 -469637.000000 0 0 1
-4.649368 21.695831 17.686383 28.374881 -1.359691 0.897826 0.053178 -0.008262 -344410.000000 0 0 1
-4.920568 22.722931 18.610583 29.780823 -1.357543 0.895769 0.052990 -0.005188 653414.000000 0 0 1
-6.099568 22.411931 19.611583 30.399237 -1.305075 0.869598 0.045076 -0.006344 187709.000000 0 0 1
-7.382368 22.442531 19.068983 30.361039 -1.253000 0.891721 0.040777 -0.006457 -143154.000000 0 0 1
-8.371968 21.909731 19.976583 30.808928 -1.205805 0.865312 0.026007 -0.006859 505839.000000 0 0 1
-9.796968 22.219231 19.489583 31.137095 -1.155517 0.894475 0.038366 -0.013424 -47044.200000 0 0 1
-10.320568 23.554031 19.790283 32.449373 -1.157827 0.914885 0.057495 -0.014694 -186483.000000 0 0 1
-11.312568 23.844731 18.858683 32.437560 -1.127816 0.950367 0.041001 -0.017433 -473548.000000 0 0 1
-11.863568 25.247731 19.020283 33.763343 -1.131528 0.972372 0.049974 -0.018358 -5233.780000 0 0 1
-12.597468 25.420131 20.220683 34.838991 -1.110699 0.951572 0.048436 -0.014812 218062.000000 0 0 1
-13.281668 26.656431 20.252783 36.015875 -1.108547 0.973596 0.059581 -0.020364 171320.000000 0 0 1
-14.125668 26.955231 21.563583 37.297548 -1.088101 0.954337 0.090427 -0.028820 -622742.000000 0 0 1
-15.390068 26.425031 21.616683 37.448865 -1.043415 0.955461 0.093913 -0.028789 -907718.000000 0 0 1
-16.070268 26.601031 22.840083 38.568611 -1.027351 0.937018 0.085374 -0.021097 1151210.000000 0 0 1
-17.599368 26.236931 22.693383 38.898637 -0.979947 0.947890 0.096041 -0.020821 1030420.000000 0 0 1
-17.802468 24.849731 22.915883 38.204381 -0.949145 0.927516 0.100366 -0.021088 47979.400000 0 0 1
-19.183668 24.552831 22.838783 38.632430 -0.907549 0.938273 0.103200 -0.018736 176151.000000 0 0 1
28.131132 24.039731 23.386798 43.774554 0.707135 1.007170 0.120456 -0.034700 -7446.140000 0 0 1
28.480032 23.280031 24.527028 44.211392 0.685271 0.982713 0.134774 -0.039592 265744.000000 0 0 1
28.325232 21.914631 24.164538 43.202948 0.658484 0.977224 0.130923 -0.035693 -397464.000000 0 0 1
28.071632 21.072031 25.420878 43.338990 0.643918 0.943993 0.157142 -0.036929 -345299.000000 0 0 1
26.787532 21.302031 25.934278 42.941067 0.671821 0.922348 0.153408 -0.032955 -317247.000000 0 0 1
26.524332 20.471831 27.041718 43.056830 0.657316 0.891755 0.158642 -0.037065 -594182.000000 0 0 1
25.078032 20.582131 27.478478 42.515863 0.687250 0.868056 0.173588 -0.045475 -654864.000000 0 0 1
24.634132 21.842431 27.937328 43.179006 0.725403 0.867137 0.175860 -0.052273 70294.400000 0 0 1
23.274732 21.776331 28.335238 42.647479 0.752150 0.844098 0.222040 -0.053498 177911.000000 0 0 1
22.745732 23.039331 29.051868 43.499312 0.791811 0.839454 0.219721 -0.063951 -432101.000000 0 0 1
22.561732 24.105631 28.134178 43.377934 0.818469 0.865075 0.189783 -0.055421 30346.100000 0 0 1
22.126332 25.349431 28.681438 44.213043 0.853184 0.864908 0.168550 -0.044013 -65754.500000 0 0 1
20.754232 25.431331 29.378748 44.052260 0.886322 0.840747 0.157235 -0.041919 123374.000000 0 0 1
19.646532 25.626131 28.455178 43.039307 0.916718 0.848454 0.146753 -0.047579 1935140.000000 0 0 1
18.396632 26.094731 29.021138 43.146234 0.956726 0.833049 0.121893 -0.036168 1577360.000000 0 0 1
17.532232 25.081031 29.878298 42.768563 0.960726 0.797351 0.075508 -0.033312 -106232.000000 0 0 1
18.098432 24.788231 31.156438 43.734806 0.940139 0.777892 0.093707 -0.029000 274832.000000 0 0 1
17.146432 24.028431 31.871429 43.441382 0.951008 0.747096 0.045800 -0.018888 149072.000000 0 0 1
17.500432 23.648931 33.354273 44.475213 0.933720 0.722807 0.066022 -0.011383 -210166.000000 0 0 1
17.836132 24.846131 -33.571327 45.414665 0.948182 2.402704 0.072568 -0.022150 99855.300000 0 0 1
18.094932 24.579931 -32.235767 44.393065 0.936207 2.383493 0.044021 0.001075 -210624.000000 0 0 1
18.648132 25.821031 -31.454867 44.764798 0.945321 2.349939 0.045672 0.014415 -199004.000000 0 0 1
17.789332 26.899331 -31.136717 44.827776 0.986498 2.338640 0.045107 0.000758 -55953.400000 0 0 1
18.454632 28.011131 -30.557517 45.375751 0.988237 2.309639 0.074488 -0.005798 -67788.000000 0 0 1
17.894432 28.457731 -29.190517 44.521224 1.009464 2.285845 0.087259 -0.003630 -123919.000000 0 0 1
18.170932 27.584831 -28.153457 43.401876 0.988309 2.276631 0.046424 0.003780 -50898.500000 0 0 1
17.561432 27.981431 -26.990087 42.659456 1.010322 2.255814 0.038159 0.008875 -206017.000000 0 0 1
18.198632 27.231831 -25.775057 41.678728 0.981674 2.237530 0.031827 0.012138 2102780.000000 0 0 1
19.647332 27.377231 -25.579887 42.306749 0.948321 2.220096 0.034093 0.007763 1521490.000000 0 0 1
20.165732 27.121431 -24.293917 41.622388 0.931446 2.194043 0.036420 0.006267 1098810.000000 0 0 1
21.679932 26.691031 -24.388917 42.157441 0.888627 2.187709 0.030198 0.004930 849451.000000 0 0 1
22.324132 26.561531 -23.140917 41.705921 0.871862 2.158990 0.038118 -0.000981 152547.000000 0 0 1
23.702532 26.387631 -23.479517 42.537099 0.838952 2.155530 0.044478 -0.002129 740845.000000 0 0 1
24.651232 26.253431 -22.239217 42.326217 0.816862 2.124010 0.066069 -0.006500 264700.000000 0 0 1
24.536232 25.038631 -21.596017 41.174600 0.795532 2.122922 0.083338 -0.014927 91160.700000 0 0 1
25.102332 25.145831 -20.299817 40.920929 0.786264 2.089868 0.080739 -0.015614 -141870.000000 0 0 1
24.435832 24.144931 -19.338117 39.421445 0.779410 2.083515 0.079978 -0.018200 -703704.000000 0 0 1
24.789432 22.799231 -19.466917 38.900922 0.743602 2.094884 0.071131 -0.006697 10396.500000 0 0 1
24.398332 22.000231 -18.406517 37.657518 0.733759 2.081495 0.081088 -0.013605 -564822.000000 0 0 1
24.661832 20.543731 -18.626817 37.110769 0.694552 2.096619 0.094639 -0.016494 457332.000000 0 0 1
23.943532 19.839831 -19.668417 36.793454 0.691944 2.134787 0.090022 -0.016106 439517.000000 0 0 1
22.544732 19.664531 -19.569817 35.748237 0.717268 2.150092 0.085350 -0.021347 56440.600000 0 0 1
21.815132 19.468031 -20.915917 35.949684 0.728606 2.191750 0.079934 -0.007236 -10792.900000 0 0 1
21.716232 20.484631 -21.899617 37.024425 0.756222 2.203703 0.075887 -0.006861 18259.800000 0 0 1
21.589832 21.870731 -21.536817 37.527113 0.791861 2.182057 0.072272 -0.007516 -231768.000000 0 0 1
21.128432 22.750431 -22.670117 38.443816 0.822347 2.201477 0.066611 -0.005916 432180.000000 0 0 1
19.706332 22.718231 -22.737917 37.702393 0.856273 2.218165 0.074461 -0.004423 41181.300000 0 0 1
19.213232 23.185631 -23.955717 38.478541 0.878817 2.242823 0.065165 -0.002195 522768.000000 0 0 1
17.669832 23.242531 -24.201717 37.923097 0.920776 2.262927 0.056405 0.003196 680582.000000 0 0 1
17.140932 24.333231 -23.447017 37.890372 0.957107 2.238026 0.056473 -0.010893 -59287.200000 0 0 1
15.778432 24.543331 -23.754417 37.624544 0.999442 2.254095 0.053681 -0.008846 175201.000000 0 0 1
15.078232 25.693231 -22.997417 37.634776 1.040097 2.228206 0.049899 -0.002713 170994.000000 0 0 1
15.375332 26.925731 -23.594317 38.962644 1.051953 2.221269 0.042511 0.004712 491209.000000 0 0 1
14.251432 27.769531 -23.348817 38.979705 1.096641 2.213047 0.084195 -0.009275 536951.000000 0 0 1
14.266232 29.027931 -24.232417 40.414802 1.113999 2.213788 0.087320 -0.013899 -79158.700000 0 0 1
14.209532 28.887231 -25.647497 41.160382 1.113652 2.243511 0.082887 -0.023956 -67877.300000 0 0 1
13.763732 29.985231 -26.384477 42.245651 1.140469 2.245350 0.127489 -0.044336 -265418.000000 0 0 1
14.596132 31.304931 -26.332417 43.433190 1.134506 2.222163 0.129669 -0.045934 853280.000000 0 0 1
15.893832 31.108431 -26.932007 44.109878 1.098453 2.227572 0.089222 -0.022466 739865.000000 0 0 1
16.707132 32.264231 -26.868647 45.188860 1.092993 2.207547 0.082929 -0.028576 -307042.000000 0 0 1
18.101132 32.120231 -27.471987 45.979020 1.057615 2.211163 0.073737 0.000824 -412196.000000 0 0 1
18.965432 31.336431 -26.682327 45.316731 1.026547 2.200365 0.036253 0.001502 -611131.000000 0 0 1
20.226732 31.269031 -27.281037 46.164142 0.996631 2.203041 0.033931 0.005430 -272172.000000 0 0 1
21.253932 30.486131 -26.372417 45.570146 0.961974 2.187956 0.017808 0.014205 -425504.000000 0 0 1
21.686832 31.141631 -25.123877 45.511856 0.962495 2.155592 0.028452 0.010235 362550.000000 0 0 1
22.500332 32.306331 -25.181157 46.733870 0.962445 2.139832 0.020094 0.004067 149295.000000 0 0 1
23.920232 32.024131 -25.759567 47.552894 0.929254 2.143259 0.000037 0.010613 -482369.000000 0 0 1
23.895532 31.667631 -27.149417 48.072093 0.924375 2.170944 0.002663 0.013283 -795318.000000 0 0 1
25.134932 31.693731 -27.772767 49.067137 0.900303 2.172461 0.010231 0.013515 -996209.000000 0 0 1
25.120832 30.907031 -29.110017 49.332483 0.888307 2.201952 0.015404 0.009845 113649.000000 0 0 1
24.223832 31.484731 -30.056967 49.814692 0.915005 2.218524 0.036267 -0.000828 264684.000000 0 0 1
22.969632 30.838931 -30.009177 48.776986 0.930615 2.233477 0.023610 0.005288 -115303.000000 0 0 1
21.792232 31.551431 -30.730937 49.140458 0.966347 2.246401 0.022103 0.005620 -702586.000000 0 0 1
21.271532 32.764931 -30.151907 49.347303 0.994972 2.228138 0.041699 0.002510 -43154.100000 0 0 1
20.372032 33.395831 -30.992367 49.908196 1.023044 2.240798 0.059108 -0.009044 -306341.000000 0 0 1
18.891232 32.959831 -31.006207 49.036863 1.050347 2.255320 0.077856 -0.017085 -501393.000000 0 0 1
18.592732 31.641131 -31.421917 48.313432 1.039535 2.278876 0.102663 -0.027783 -26442.800000 0 0 1
18.889232 31.165631 -32.754427 48.999511 1.025910 2.302938 0.105890 -0.029482 -645195.000000 0 0 1
18.175532 31.822231 33.697478 49.784781 1.051854 0.827304 0.130812 -0.034448 -478023.000000 0 0 1
18.605632 33.117131 33.248748 50.481612 1.058929 0.851799 0.111534 -0.024721 -84494.100000 0 0 1
18.064432 33.621031 32.051318 49.839587 1.077759 0.872270 0.106025 -0.037249 -432810.000000 0 0 1
16.623332 -33.559965 32.147737 49.356696 -1.110890 0.861454 0.119209 -0.040729 -874754.000000 0 0 1
15.604232 33.132331 32.116549 48.710534 1.130644 0.850863 0.126454 -0.038435 1075400.000000 0 0 1
14.273632 33.653431 32.339838 48.807327 1.169658 0.846509 0.103067 -0.039771 1438420.000000 0 0 1
13.576932 -33.197665 31.158458 47.510710 -1.182579 0.855528 0.092419 -0.037263 -239271.000000 0 0 1
14.240432 -31.947865 30.852978 46.640779 -1.151491 0.847976 0.108649 -0.036430 731151.000000 0 0 1
13.687632 -31.517565 29.647238 45.383553 -1.161087 0.858915 0.097786 -0.040449 3689.160000 0 0 1
14.269932 -30.093365 29.390498 44.418948 -1.128010 0.847758 0.106165 -0.044495 311425.000000 0 0 1
13.647432 -29.175165 30.290068 44.214600 -1.133259 0.816097 0.108134 -0.038794 751840.000000 0 0 1
14.163032 -27.879365 30.011868 43.342389 -1.100760 0.805935 0.136276 -0.049938 -226142.000000 0 0 1
13.650832 -26.888965 31.090948 43.312916 -1.101028 0.770128 0.129375 -0.046408 1468850.000000 0 0 1
12.254132 -26.521765 30.893088 42.520003 -1.137975 0.757503 0.096297 -0.045869 1475310.000000 0 0 1
11.860132 -25.579165 29.866878 41.072945 -1.136638 0.756611 0.098280 -0.041112 -397242.000000 0 0 1
12.206432 -24.151465 29.979888 40.386680 -1.102829 0.734268 0.096984 -0.034618 199356.000000 0 0 1
11.376432 -23.471465 30.977218 40.495937 -1.119470 0.699838 0.108046 -0.037885 456899.000000 0 0 1
12.014832 -22.445465 31.704147 40.660891 -1.079317 0.676576 0.106484 -0.033022 -184056.000000 0 0 1
11.216332 -21.920165 32.911765 41.103334 -1.097840 0.642320 0.109473 -0.033882 -332928.000000 0 0 1
11.375332 -22.710265 -33.562287 42.090158 -1.106437 2.493755 0.106115 -0.029504 531103.000000 0 0 1
12.651432 -22.950565 -32.964737 42.112481 -1.066996 2.469914 0.083722 -0.030315 650585.000000 0 0 1
13.393832 -21.766265 -32.270077 41.164583 -1.019168 2.471764 0.066713 -0.026409 -60569.100000 0 0 1
13.880232 -20.849165 -33.188227 41.578924 -0.983432 2.495095 0.064783 -0.026167 -967203.000000 0 0 1
14.925332 -20.115365 -32.730207 41.214802 -0.932444 2.488383 0.042064 -0.025177 -1004040.000000 0 0 1
15.191532 -18.934865 -33.645967 41.489310 -0.894652 2.516579 0.026786 -0.020557 -769816.000000 0 0 1
15.815732 -19.188565 32.782209 41.146223 -0.881456 0.648940 0.034696 -0.016109 66078.600000 0 0 1
15.623332 -18.130865 31.857330 39.846032 -0.859550 0.644316 0.031795 -0.011499 -342763.000000 0 0 1
16.583832 -16.950765 31.972470 39.806919 -0.796340 0.638167 0.031557 -0.007369 -1024330.000000 0 0 1
16.447332 -16.164965 33.143679 40.377275 -0.776740 0.607899 0.031930 -0.012250 20254.200000 0 0 1
17.186032 -14.981265 33.125205 40.212899 -0.716965 0.602810 0.042155 -0.013327 758786.000000 0 0 1
18.736532 -15.113365 33.352542 41.132269 -0.678768 0.625175 0.049999 -0.008324 479660.000000 0 0 1
19.501232 -15.577665 32.259733 40.787892 -0.674011 0.658494 0.057454 -0.015766 -833686.000000 0 0 1
20.834932 -15.647165 32.644046 41.767953 -0.644145 0.673638 0.079092 -0.012790 -793826.000000 0 0 1
21.624632 -16.429165 31.581196 41.652301 -0.649708 0.710233 0.097531 -0.023016 -498322.000000 0 0 1
21.693532 -15.679665 30.418848 40.518731 -0.625852 0.721622 0.093728 -0.014439 574771.000000 0 0 1
22.406732 -16.328865 29.336278 40.364721 -0.629761 0.757174 0.088167 -0.021641 100138.000000 0 0 1
22.578632 -15.278565 28.177298 39.207006 -0.594905 0.768894 0.078066 -0.020322 363508.000000 0 0 1
23.699432 -14.399565 28.362588 39.666699 -0.545983 0.774140 0.048101 -0.024711 791518.000000 0 0 1
23.608132 -13.422765 27.334678 38.531794 -0.516985 0.782142 0.046708 -0.026353 -89338.700000 0 0 1
24.363532 -12.132565 27.661998 38.806790 -0.462031 0.777295 0.042122 -0.019105 -161187.000000 0 0 1
23.823332 -11.415365 28.732848 39.031248 -0.446843 0.743432 0.065970 -0.029999 -1659.510000 0 0 1
24.343632 -10.116465 28.764738 39.017502 -0.393856 0.741840 0.052103 -0.027518 120435.000000 0 0 1
23.266432 -9.013465 28.471758 37.857766 -0.369599 0.719596 0.075379 -0.020633 557645.000000 0 0 1
22.274232 -9.049765 29.493128 38.051075 -0.385916 0.683934 0.083586 -0.024436 -841577.000000 0 0 1
21.238032 -8.202465 29.158688 36.994101 -0.368567 0.662920 0.093770 -0.017570 -469475.000000 0 0 1
20.116532 -8.136865 30.205338 37.192014 -0.384368 0.622976 0.074616 -0.007634 -57371.400000 0 0 1
20.614432 -7.629565 31.440518 38.362368 -0.354475 0.610142 0.071222 -0.007242 187606.000000 0 0 1
20.994532 -8.639865 32.380895 39.546682 -0.390406 0.611476 0.075365 -0.009777 -239398.000000 0 0 1
21.073832 -8.150565 33.804118 40.660257 -0.369043 0.589210 0.076911 -0.017752 152544.000000 0 0 1
19.817532 -7.762865 -33.317877 39.535776 -0.373346 2.573126 0.060110 -0.016191 39433.000000 0 0 1
19.956532 -7.032265 -32.147417 38.486002 -0.338793 2.559477 0.071677 -0.022111 -541070.000000 0 0 1
18.682332 -6.738565 -31.364757 37.123924 -0.346168 2.577112 0.077067 -0.021715 -700559.000000 0 0 1
18.798632 -6.013365 -30.162147 36.045863 -0.309597 2.562156 0.075676 -0.021874 723741.000000 0 0 1
17.567232 -5.781365 -29.422607 34.752289 -0.317935 2.580432 0.093692 -0.019941 660395.000000 0 0 1
17.587332 -4.824065 -28.218487 33.598644 -0.267708 2.567840 0.082703 -0.025700 -534475.000000 0 0 1
17.953332 -5.291465 -26.902207 32.772709 -0.286619 2.533733 0.084563 -0.030031 202739.000000 0 0 1
17.037832 -6.095165 -26.172277 31.818655 -0.343556 2.536668 0.108885 -0.034627 548324.000000 0 0 1
15.597332 -5.586565 -25.860437 30.712354 -0.343938 2.571815 0.128059 -0.032684 300262.000000 0 0 1
15.579532 -4.513765 -24.949617 29.758684 -0.282003 2.565133 0.117103 -0.032268 511787.000000 0 0 1
14.237632 -4.299665 -24.484617 28.647753 -0.293284 2.595727 0.107520 -0.038802 683662.000000 0 0 1
14.109432 -3.020065 -23.594017 27.656364 -0.210864 2.592720 0.127033 -0.040780 65142.200000 0 0 1
14.329632 -1.812765 -24.329817 28.294248 -0.125836 2.605842 0.100766 -0.046600 217192.000000 0 0 1
14.026132 -0.667765 -23.530117 27.401545 -0.047573 2.603553 0.109128 -0.041922 23686.600000 0 0 1
14.557232 0.626235 -24.165217 28.218130 0.042992 2.598998 0.093438 -0.043398 70975.600000 0 0 1
13.704532 1.092235 -25.219487 28.723330 0.079531 2.642493 0.111871 -0.041876 424275.000000 0 0 1
14.173932 2.315235 -25.752307 29.486301 0.161915 2.632865 0.103865 -0.022566 311408.000000 0 0 1
13.148432 2.954235 -26.737897 29.942009 0.221013 2.674740 0.109172 -0.028271 543814.000000 0 0 1
12.058132 3.721235 -26.249267 29.125078 0.299335 2.693465 0.115934 -0.042287 327542.000000 0 0 1
11.245932 4.177235 -27.306197 29.825302 0.355650 2.727640 0.125258 -0.033377 -467066.000000 0 0 1
9.918132 4.799235 -26.909007 29.077425 0.450673 2.752955 0.116000 -0.029028 -545321.000000 0 0 1
10.026432 6.083235 -26.357637 28.848919 0.545346 2.722956 0.120288 -0.044956 1366470.000000 0 0 1
8.687732 6.584235 -26.097077 28.282260 0.648524 2.745918 0.148416 -0.042768 1099040.000000 0 0 1
8.365932 5.380831 -30.881747 32.444174 0.571568 2.829987 0.109546 -0.030752 -174301.000000 0 0 1
8.412132 4.407431 -29.878917 31.351859 0.482614 2.833847 0.101589 -0.013894 440949.000000 0 0 1
8.377332 3.129531 -30.442387 31.728734 0.357518 2.855869 0.095068 -0.016840 -119140.000000 0 0 1
8.170132 2.042231 -29.389377 30.572164 0.244944 2.862521 0.104900 -0.018927 772209.000000 0 0 1
9.395132 1.673231 -28.701687 30.246571 0.176248 2.820603 0.134587 -0.033936 1293950.000000 0 0 1
9.123932 0.778431 -27.600307 29.079701 0.085111 2.821246 0.122030 -0.030084 -354369.000000 0 0 1
10.381032 0.235231 -26.928467 28.861107 0.022656 2.773559 0.127377 -0.043501 -387697.000000 0 0 1
11.113432 -0.640669 -27.753217 29.902506 -0.057584 2.760136 0.132450 -0.036458 994572.000000 0 0 1
12.186532 -1.247369 -26.944917 29.598919 -0.102001 2.714888 0.114879 -0.032928 905517.000000 0 0 1
12.641432 -2.592269 -27.499217 30.376514 -0.202257 2.702832 0.111629 -0.031333 738225.000000 0 0 1
11.704632 -3.685669 -27.223057 29.860968 -0.305061 2.718102 0.126855 -0.023600 834087.000000 0 0 1
12.269332 -4.899569 -27.602717 30.601507 -0.379933 2.695188 0.119961 -0.024407 188820.000000 0 0 1
11.459932 -5.976269 -26.803107 29.756552 -0.480693 2.692281 0.112280 -0.041008 441276.000000 0 0 1
11.532232 -5.752169 -25.379337 28.463846 -0.462680 2.671738 0.133863 -0.033792 -110265.000000 0 0 1
10.977832 -6.833969 -24.636217 27.823715 -0.556817 2.658235 0.131311 -0.035328 112096.000000 0 0 1
11.072632 -6.530669 -23.082717 26.420913 -0.532888 2.633457 0.138846 -0.041737 -94148.400000 0 0 1
12.386732 -6.410669 -22.605317 26.561780 -0.477583 2.588772 0.125382 -0.039820 -523864.000000 0 0 1
12.411432 -6.365469 -21.209317 25.384995 -0.473892 2.559849 0.150866 -0.049695 -171126.000000 0 0 1
13.783232 -6.107269 -20.576417 25.508139 -0.417096 2.509277 0.162419 -0.047335 -64127.300000 0 0 1
14.226732 -4.758069 -20.782317 25.630915 -0.322751 2.516365 0.152021 -0.045474 3385.540000 0 0 1
15.300832 -4.550269 -19.879517 25.495403 -0.289058 2.465030 0.156178 -0.033155 -6202.580000 0 0 1
15.808532 -3.110469 -19.839717 25.557759 -0.194277 2.459523 0.159069 -0.033314 -643672.000000 0 0 1
16.896332 -2.782169 -20.640817 26.819206 -0.163197 2.449055 0.146265 -0.027853 -194840.000000 0 0 1
17.381632 -1.506869 -20.257417 26.734897 -0.086477 2.430600 0.148074 -0.013271 -13308.400000 0 0 1
18.595032 -1.127969 -21.121217 28.162978 -0.060585 2.418804 0.092636 -0.021071 -253514.000000 0 0 1
19.812432 -1.751569 -20.803717 28.781853 -0.088178 2.378652 0.140112 -0.029626 -261180.000000 0 0 1
20.775832 -1.286569 -21.715617 30.080866 -0.061847 2.377352 0.137455 -0.023601 351723.000000 0 0 1
22.170732 -1.980569 -21.648317 31.050179 -0.089096 2.342286 0.099906 -0.018503 -887317.000000 0 0 1
22.944432 -1.733169 -20.518417 30.829471 -0.075394 2.299021 0.080433 -0.016260 967592.000000 0 0 1
24.283932 -2.249169 -20.705917 31.992235 -0.092356 2.274724 0.052374 -0.014815 2014730.000000 0 0 1
25.256732 -1.453869 -21.764217 33.372105 -0.057500 2.281237 0.052291 -0.014017 -411492.000000 0 0 1
24.831232 -1.473069 -23.104717 33.949786 -0.059254 2.319317 0.060365 -0.017616 216062.000000 0 0 1
25.710732 -0.773769 -23.966517 35.157281 -0.030086 2.320872 0.064024 -0.013658 519666.000000 0 0 1
27.000632 -1.487269 -24.469817 36.469412 -0.055027 2.306310 0.077896 -0.024945 -734156.000000 0 0 1
27.999232 -1.735269 -23.501517 36.596304 -0.061896 2.268139 0.082580 -0.020250 657837.000000 0 0 1
29.178832 -2.439069 -23.903817 37.798753 -0.083396 2.255440 0.077763 -0.014637 1162950.000000 0 0 1
30.092932 -1.633369 -24.914817 39.102437 -0.054224 2.261614 0.092810 -0.022104 -633401.000000 0 0 1
29.417032 -1.379069 -26.156597 39.388211 -0.046846 2.297048 0.095113 -0.030513 170529.000000 0 0 1
30.177632 -0.556269 -27.007897 40.502165 -0.018431 2.300738 0.104822 -0.035153 -384456.000000 0 0 1
29.378932 -0.187869 -28.310447 40.799980 -0.006395 2.337665 0.081250 -0.044538 435291.000000 0 0 1
28.093232 0.391431 -28.120277 39.750885 0.013932 2.356627 0.074256 -0.033899 479688.000000 0 0 1
27.927732 1.620931 -27.417047 39.169888 0.057975 2.346127 0.069378 -0.021591 -1592330.000000 0 0 1
26.481032 2.046731 -27.481357 38.218571 0.077137 2.373242 0.078360 -0.024349 -633238.000000 0 0 1
25.609732 1.346731 -26.584077 36.937585 0.052538 2.374170 0.084634 -0.023964 926351.000000 0 0 1
24.263432 1.505031 -27.039157 36.360628 0.061949 2.409292 0.079920 -0.020588 300189.000000 0 0 1
23.147532 1.262131 -26.017167 34.846724 0.054472 2.413759 0.087362 -0.017684 -163113.000000 0 0 1
23.070032 2.241031 -25.008117 34.097720 0.096837 2.394143 0.102010 -0.024687 709555.000000 0 0 1
22.108232 1.803231 -24.038417 32.708883 0.081384 2.396345 0.097251 -0.016342 169565.000000 0 0 1
22.232032 2.575231 -22.718617 31.890917 0.115320 2.363687 0.108773 -0.023235 -157666.000000 0 0 1
21.936532 3.970931 -22.827417 31.907220 0.179080 2.368037 0.123059 -0.030869 290011.000000 0 0 1
21.882332 4.586931 -21.515017 31.028573 0.206626 2.336985 0.111804 -0.026567 -214243.000000 0 0 1
21.709132 6.071231 -21.328617 31.033146 0.272696 2.328541 0.129489 -0.024767 -241436.000000 0 0 1
22.764732 6.855631 -21.831217 32.277465 0.292513 2.313607 0.133282 -0.024993 50867.500000 0 0 1
22.607532 8.230331 -21.454217 32.235420 0.349139 2.299024 0.129885 -0.023988 -219250.000000 0 0 1
22.907632 8.537731 -19.967917 31.565332 0.356755 2.255689 0.135932 -0.037167 1283890.000000 0 0 1
24.339632 8.555331 -19.636117 32.422037 0.338009 2.221368 0.127360 -0.031484 2122570.000000 0 0 1
24.619232 8.536231 -18.217617 31.793952 0.333759 2.180946 0.132584 -0.044948 -176892.000000 0 0 1
24.398232 9.848831 -17.361717 31.523046 0.383666 2.154074 0.128350 -0.052018 424906.000000 0 0 1
23.038332 10.296131 -17.311417 30.601637 0.420284 2.172081 0.116857 -0.056088 571941.000000 0 0 1
23.040232 11.671131 -16.968017 30.902770 0.468877 2.152056 0.083620 -0.047610 131373.000000 0 0 1
21.560132 12.095531 -16.703017 29.835079 0.511260 2.164995 0.069232 -0.045678 382258.000000 0 0 1
20.715732 11.998031 -17.800917 29.832314 0.524966 2.210178 0.088842 -0.052127 -235814.000000 0 0 1
20.051632 10.775031 -17.936217 28.980633 0.493090 2.238142 0.091813 -0.060256 -797172.000000 0 0 1
19.094832 10.790631 -19.143817 29.112472 0.514368 2.288400 0.092449 -0.032221 -9888.700000 0 0 1
19.722532 10.744931 -20.443817 30.370734 0.498846 2.309246 0.110821 -0.037185 490666.000000 0 0 1
18.728232 10.708531 -21.454517 30.425575 0.519415 2.353427 0.099996 -0.030065 -81300.600000 0 0 1
19.253032 10.762131 -22.858817 31.765204 0.509714 2.374049 0.122796 -0.028724 -354252.000000 0 0 1
20.014232 11.901131 -23.138817 32.826990 0.536464 2.353039 0.112250 -0.032025 129560.000000 0 0 1
20.482032 11.973531 -24.490217 34.097651 0.529009 2.372062 0.139525 -0.028836 -223803.000000 0 0 1
21.253432 13.244131 -24.728417 35.193891 0.557270 2.349889 0.157256 -0.039547 -420441.000000 0 0 1
21.545432 13.381431 -26.106117 36.397770 0.555775 2.370637 0.188114 -0.042544 106563.000000 0 0 1
21.654032 14.769731 -26.488387 37.264953 0.598596 2.361449 0.182712 -0.028916 289302.000000 0 0 1
20.290232 15.372431 -26.921577 37.050998 0.648365 2.384169 0.151145 -0.037581 815157.000000 0 0 1
19.209132 15.264331 -25.992067 35.743224 0.671464 2.385014 0.106100 -0.029427 200242.000000 0 0 1
17.974432 15.600131 -26.573397 35.673375 0.714798 2.411194 0.107068 -0.036727 -844506.000000 0 0 1
16.757032 15.025931 -25.943837 34.346170 0.730986 2.427005 0.085252 -0.037310 -1038680.000000 0 0 1
16.622632 13.660231 -26.260177 33.948648 0.687884 2.455183 0.104184 -0.035397 -7052.230000 0 0 1
15.330932 13.274831 -25.858907 32.862466 0.713644 2.476537 0.055773 -0.034969 -157659.000000 0 0 1
15.236632 11.766631 -25.863887 32.242041 0.657596 2.501732 0.042019 -0.030296 1561800.000000 0 0 1
13.846832 11.347731 -25.676597 31.301651 0.686529 2.532723 0.055314 -0.034948 1657440.000000 0 0 1
13.803732 9.954831 -25.633357 30.768664 0.624793 2.555484 0.074778 -0.039143 -1372410.000000 0 0 1
12.423332 9.433331 -25.479397 29.875183 0.649442 2.592238 0.118030 -0.051019 -1263110.000000 0 0 1
11.864732 9.857131 -24.233317 28.726095 0.693237 2.574748 0.137699 -0.057468 616149.000000 0 0 1
10.522932 9.392731 -24.049317 27.880551 0.728710 2.611152 0.143056 -0.053739 764191.000000 0 0 1
9.729832 10.077031 -22.895317 26.840486 0.802926 2.592530 0.139053 -0.053413 101870.000000 0 0 1
9.535932 11.427131 -23.082417 27.464728 0.875370 2.568888 0.136947 -0.045911 310193.000000 0 0 1
8.674232 12.087631 -22.141917 26.676162 0.948348 2.549951 0.123547 -0.041529 470189.000000 0 0 1
9.459732 12.888431 -21.073217 26.451439 0.937633 2.492571 0.120578 -0.041707 314472.000000 0 0 1
10.103732 11.993631 -20.132817 25.519853 0.870717 2.479826 0.140624 -0.047886 397015.000000 0 0 1
10.955132 12.716031 -19.212017 25.511055 0.859651 2.423536 0.160538 -0.048119 -144132.000000 0 0 1
11.964432 11.777331 -18.579817 25.041221 0.777518 2.406799 0.158993 -0.053062 -276560.000000 0 0 1
13.008632 11.160031 -19.327617 25.832684 0.709059 2.416118 0.130212 -0.049700 235219.000000 0 0 1
12.676432 10.325331 -20.429917 26.166503 0.683538 2.466687 0.132278 -0.048786 -1441150.000000 0 0 1
13.843232 9.708831 -21.161017 27.086622 0.611626 2.467438 0.122414 -0.049693 -567845.000000 0 0 1
14.333832 8.640631 -20.352017 26.350025 0.542486 2.453363 0.126369 -0.054090 149461.000000 0 0 1
15.338532 7.929931 -21.062717 27.235866 0.477150 2.454897 0.112622 -0.048825 63708.900000 0 0 1
15.989132 6.807931 -20.215717 26.658497 0.402535 2.431531 0.157006 -0.053469 -23928.100000 0 0 1
16.802332 7.312131 -19.180217 26.526710 0.410466 2.379008 0.124336 -0.039175 -125625.000000 0 0 1
17.218432 6.343331 -18.304917 25.918762 0.352975 2.354972 0.127700 -0.046649 -917311.000000 0 0 1
18.498932 6.676331 -17.562417 26.367070 0.346355 2.299729 0.165168 -0.034874 -340816.000000 0 0 1
19.667032 6.494231 -18.354317 27.673961 0.318936 2.295928 0.138867 -0.051880 1009150.000000 0 0 1
20.901432 6.779331 -17.670717 28.197224 0.313642 2.248086 0.133451 -0.056030 977125.000000 0 0 1
21.658532 5.479331 -17.117717 28.144827 0.247788 2.224589 0.131733 -0.049663 26947.400000 0 0 1
22.896932 5.758231 -16.495617 28.801599 0.246376 2.180632 0.119541 -0.058861 279965.000000 0 0 1
23.411932 4.645931 -15.878417 28.667531 0.195898 2.157815 0.169081 -0.062808 979352.000000 0 0 1
24.889032 4.226231 -16.296717 30.048426 0.168199 2.144026 0.074108 -0.013358 944398.000000 0 0 1
25.450732 3.236331 -15.486217 29.967257 0.126482 2.113872 0.083827 -0.020851 1133920.000000 0 0 1
26.616032 2.667231 -16.160617 31.252085 0.099878 2.114262 0.085041 -0.028756 955932.000000 0 0 1
27.165732 1.344631 -15.456217 31.283856 0.049457 2.087554 0.113748 -0.046474 -257070.000000 0 0 1
26.489732 0.149531 -15.661917 30.773754 0.005645 2.104746 0.102461 -0.045709 266705.000000 0 0 1
27.403632 -0.851469 -16.129617 31.809568 -0.031061 2.102576 0.089397 -0.024378 427408.000000 0 0 1
26.717332 -2.238469 -16.142617 31.295537 -0.083588 2.112752 0.062083 -0.022693 -41999.000000 0 0 1
26.386332 -2.829469 -14.943317 30.455659 -0.106824 2.083641 0.075591 -0.028637 217036.000000 0 0 1
26.210932 -4.215969 -15.022317 30.503399 -0.159482 2.085733 0.067903 -0.025715 -1046940.000000 0 0 1
25.552732 -4.886669 -13.750717 29.426245 -0.188957 2.057024 0.081213 -0.028615 632800.000000 0 0 1
24.160632 -4.683169 -13.523417 28.081151 -0.191460 2.073257 0.121165 -0.024368 705981.000000 0 0 1
23.316032 -5.208269 -14.558917 27.977231 -0.219769 2.118097 0.135024 -0.022380 -1147680.000000 0 0 1
21.860532 -5.220469 -14.092817 26.528167 -0.234418 2.130860 0.162622 -0.026249 -828334.000000 0 0 1
21.602932 -6.209169 -13.118817 26.025830 -0.279878 2.099100 0.181016 -0.027571 223708.000000 0 0 1
21.549032 -5.563569 -11.862517 25.219702 -0.252664 2.060503 0.203636 -0.034099 -644266.000000 0 0 1
21.102532 -6.615569 -10.808317 24.615083 -0.303792 2.025385 0.190242 -0.034759 1072970.000000 0 1 0
19.734632 -7.088369 -10.841017 23.605684 -0.344833 2.047952 0.177637 -0.029781 1392520.000000 0 1 0
19.500832 -8.005669 -11.911717 24.212852 -0.389551 2.085134 0.175262 -0.036274 662150.000000 0 1 0
18.078632 -8.716969 -11.806317 23.285438 -0.449282 2.102527 0.187167 -0.030846 1420740.000000 0 1 0
16.994732 -7.878569 -12.206117 22.358042 -0.434097 2.148305 0.168130 -0.024339 781109.000000 0 1 0
15.744832 -8.605369 -12.101417 21.642468 -0.500192 2.164158 0.160853 -0.022252 1431170.000000 0 1 0
14.504732 -7.646469 -12.187217 20.429978 -0.485147 2.209974 0.115647 -0.017102 143399.000000 0 1 0
14.428032 -7.014669 -13.469617 20.947655 -0.452533 2.269222 0.117059 -0.014773 67187.200000 0 1 0
15.243332 -5.883069 -13.535617 21.217507 -0.368331 2.262624 0.105284 -0.014731 -424025.000000 0 1 0
14.952932 -5.092769 -14.806117 21.650579 -0.328264 2.323846 0.096663 -0.012502 347021.000000 0 1 0
13.898232 -4.188569 -14.437917 20.473358 -0.292717 2.353509 0.106410 -0.019746 312544.000000 0 1 0
13.781832 -3.049769 -15.292917 20.811374 -0.217780 2.396219 0.095869 -0.024561 -256154.000000 0 1 0
15.014532 -2.147169 -15.493317 21.681545 -0.142043 2.366828 0.121738 -0.025931 -205213.000000 0 1 0
16.032732 -2.680069 -16.367917 23.068159 -0.165631 2.359650 0.127866 -0.023685 -246158.000000 0 1 0
17.169732 -1.919869 -16.408517 23.826981 -0.111355 2.330426 0.133390 -0.025680 -913477.000000 0 1 0
18.215132 -2.272969 -15.318017 23.908138 -0.124143 2.266210 0.144294 -0.034449 -963679.000000 0 1 0
17.943532 -2.073069 -13.959917 22.828649 -0.115023 2.228762 0.133171 -0.024680 535496.000000 0 1 0
18.992732 -2.606869 -13.126717 23.234249 -0.136404 2.171197 0.133936 -0.022314 405243.000000 0 1 0
18.548632 -2.794669 -11.634017 22.072886 -0.149542 2.125949 0.138134 -0.023091 -5299.980000 0 1 0
18.381532 -1.561369 -10.896917 21.425718 -0.084739 2.104343 0.133249 -0.024751 725804.000000 0 1 0
17.845932 -1.779669 -9.592717 20.338749 -0.099395 2.061954 0.123890 -0.022782 -487956.000000 0 1 0
17.667932 -0.484469 -8.699017 19.699326 -0.027414 2.028166 0.105040 -0.020334 1192220.000000 0 1 0
18.947532 -0.016669 -8.155517 20.628178 -0.000880 1.977254 0.121475 -0.020498 2288040.000000 0 1 0
19.866432 0.680231 -9.007117 21.823519 0.034227 1.996240 0.131865 -0.018716 104851.000000 0 1 0
19.336632 1.982231 -9.697117 21.722538 0.102155 2.033544 0.112863 -0.025379 -554445.000000 0 1 0
19.154532 3.025831 -8.774917 21.284993 0.156675 1.995728 0.092575 -0.020753 313681.000000 0 1 0
18.695032 4.119831 -9.518817 21.379549 0.216904 2.032227 0.088102 -0.023148 -516503.000000 0 1 0
18.736132 5.515631 -8.802717 21.423180 0.286297 1.994234 0.081709 -0.013103 -341741.000000 0 1 0
18.345432 6.568931 -9.672217 21.754483 0.343845 2.031533 0.083596 -0.009355 456278.000000 0 1 0
18.702732 7.873031 -9.294517 22.319607 0.398441 2.000310 0.091690 0.001788 -127411.000000 0 1 0
-26.925428 -29.099859 5.993583 40.096178 0.824190 1.420754 0.099481 -0.002929 248249.000000 0 0 1
-27.224588 -28.043669 6.925683 39.693710 0.800217 1.395421 0.132337 -0.017952 293116.000000 0 0 1
-26.041658 -27.253829 7.088583 38.356057 0.808139 1.384918 0.125345 -0.018805 -150055.000000 0 0 1
-26.206278 -26.087009 8.102383 37.854321 0.783117 1.355086 0.142585 -0.033318 -273002.000000 0 0 1
-27.153078 -25.060479 7.678083 37.739504 0.745342 1.365917 0.162914 -0.038288 299755.000000 0 0 1
-28.504428 -25.399589 7.596783 38.927531 0.727862 1.374384 0.145541 -0.036898 -131878.000000 0 0 1
-29.242328 -25.806169 8.980083 40.021419 0.723058 1.344488 0.152174 -0.038519 -268407.000000 0 0 1
-28.636888 -26.968769 9.457983 40.457871 0.755408 1.334839 0.138487 -0.033859 -522938.000000 0 0 1
-28.889318 -27.218809 10.888183 41.158338 0.755634 1.303065 0.116315 -0.033260 -995332.000000 0 0 1
-27.695388 -27.894509 11.523783 40.962614 0.788980 1.285622 0.079827 -0.024488 176003.000000 0 0 1
-26.536818 -27.109989 11.817283 39.734146 0.796082 1.268819 0.088264 -0.021040 285348.000000 0 0 1
-26.690358 -26.110609 12.806083 39.473217 0.774419 1.240393 0.089247 -0.017861 -865178.000000 0 0 1
-25.360238 -25.451859 13.246383 38.293674 0.787201 1.217582 0.092518 -0.020214 84058.000000 0 0 1
-24.634668 -26.466479 13.938083 38.750633 0.821230 1.202864 0.082117 -0.013586 -1255250.000000 0 0 1
-23.573668 -25.950199 14.610283 37.981456 0.833349 1.175947 0.099574 -0.021514 -461436.000000 0 0 1
-22.713768 -27.034269 15.377583 38.512816 0.872028 1.160060 0.096244 -0.027595 939618.000000 0 0 1
-23.578568 -27.762649 16.298883 39.904475 0.866714 1.150044 0.089710 -0.016247 926225.000000 0 0 1
-22.901368 -28.923369 16.734383 40.510165 0.901079 1.144951 0.086378 -0.021455 148483.000000 0 0 1
-23.704268 -29.752049 17.800083 41.999044 0.898054 1.133136 0.101567 -0.030890 1268470.000000 0 0 1
-24.896768 -30.389019 17.245983 42.904143 0.884416 1.157134 0.062340 -0.027839 1253050.000000 0 0 1
-25.325408 -31.393549 18.114483 44.216125 0.891979 1.148693 0.071855 -0.028679 -398114.000000 0 0 1
-26.288088 -32.426559 17.516083 45.269840 0.889567 1.173501 0.058327 -0.029963 -119822.000000 0 0 1
-25.627078 -33.155379 16.510083 45.040083 0.912775 1.195483 0.064728 -0.040557 262409.000000 0 0 1
-26.486748 33.550944 15.957983 45.627524 -0.902522 1.213498 0.061701 -0.042326 -907357.000000 0 0 1
-25.980588 33.027052 14.602583 44.486094 -0.904251 1.236345 0.069570 -0.044984 348962.000000 0 0 1
-24.733368 32.351542 14.670583 43.284960 -0.918068 1.225017 0.055329 -0.040352 952185.000000 0 0 1
-23.586168 33.212968 14.728783 43.316805 -0.953291 1.223853 0.058640 -0.043862 -723875.000000 0 0 1
-22.261568 32.460657 14.778183 42.043625 -0.969663 1.211627 0.075241 -0.044166 -234847.000000 0 0 1
-21.888868 31.860675 13.538083 40.957354 -0.968836 1.233920 0.060345 -0.038980 342270.000000 0 0 1
-20.709668 31.067937 13.736383 39.784360 -0.982845 1.218269 0.064757 -0.031683 626155.000000 0 0 1
-20.593768 30.053747 12.573283 38.541127 -0.970051 1.238483 0.062389 -0.032974 108845.000000 0 0 1
-20.328368 30.622567 11.329383 38.462177 -0.984756 1.271802 0.047172 -0.023668 -111976.000000 0 0 1
-20.450268 29.744087 10.253783 37.524182 -0.968481 1.294018 0.056277 -0.025724 91991.900000 0 0 1
-20.097868 30.342497 8.866983 37.459509 -0.985776 1.331820 0.047932 -0.018984 137844.000000 0 0 1
-18.705168 30.377597 8.622083 36.701799 -1.018872 1.333657 0.045294 -0.025200 -232376.000000 0 0 1
-18.330668 30.941747 7.350183 36.707360 -1.035965 1.369196 0.058098 -0.032235 149421.000000 0 0 1
-17.742768 29.880437 6.371683 35.330507 -1.034954 1.389459 0.062743 -0.032800 185117.000000 0 0 1
-18.672868 28.871367 5.909583 34.887749 -0.996702 1.400587 0.050658 -0.021921 312827.000000 0 0 1
-18.558468 27.674467 6.673083 33.982685 -0.980076 1.373145 0.032468 -0.015259 -155223.000000 0 0 1
-19.584668 26.588697 6.316983 33.621754 -0.935940 1.381789 0.039042 -0.008410 1298.900000 0 0 1
-19.256168 26.062577 5.048083 32.795443 -0.934474 1.416256 0.042999 -0.015849 -292310.000000 0 0 1
-20.301068 25.365457 4.463383 32.794231 -0.895846 1.434270 0.059633 -0.016641 -1148980.000000 0 0 1
-20.025868 24.626867 3.131783 31.895549 -0.888075 1.472449 0.078418 -0.023887 -1579910.000000 0 0 1
-19.834168 25.453287 1.978083 32.329195 -0.908844 1.509572 0.080885 -0.025922 1350350.000000 0 0 1
-18.522168 26.073717 1.857083 32.036826 -0.953140 1.512797 0.076853 -0.027657 1347050.000000 0 0 1
-17.264768 25.133077 1.907783 30.551324 -0.968893 1.508310 0.063011 -0.031932 -677129.000000 0 0 1
-17.172668 24.108487 0.931683 29.613978 -0.951858 1.539330 0.099948 -0.038856 126598.000000 0 0 1
-16.909068 24.519747 -0.409217 29.787616 -0.967077 1.584535 0.102359 -0.043742 -405077.000000 0 0 1
-16.508368 23.253787 -1.187217 28.542500 -0.953443 1.612403 0.112912 -0.051763 -349970.000000 0 0 1
-17.538468 22.308427 -1.355217 28.409512 -0.904538 1.618517 0.118167 -0.059449 -34285.500000 0 0 1
-17.256068 21.221127 -2.206817 27.440447 -0.888085 1.651305 0.125791 -0.056857 -518540.000000 0 0 1
-16.231768 20.247627 -1.642917 26.002613 -0.895042 1.634021 0.134048 -0.055041 -291522.000000 0 0 1
-16.717568 19.453227 -0.547517 25.655504 -0.860886 1.592139 0.148577 -0.054694 -72941.300000 0 0 1
-15.725068 18.755427 0.157083 24.475876 -0.873059 1.564378 0.164586 -0.048313 -301871.000000 0 1 0
-16.207268 17.524727 0.931783 23.888487 -0.824435 1.531781 0.150426 -0.044535 116439.000000 0 1 0
-16.847968 16.536527 0.145883 23.607881 -0.776070 1.564617 0.139386 -0.039193 328462.000000 0 1 0
-17.489968 15.603227 0.965883 23.458316 -0.728447 1.529610 0.157290 -0.053336 -106771.000000 0 1 0
-17.993868 14.334927 0.253883 23.007257 -0.672699 1.559761 0.143828 -0.047631 145470.000000 0 1 0
-19.067468 14.631527 -0.636517 24.042776 -0.654516 1.597274 0.173095 -0.050910 536159.000000 0 1 0
-19.845868 13.459227 -0.879517 23.995475 -0.595936 1.607458 0.188453 -0.047282 -282689.000000 0 1 0
-21.123568 13.677327 -1.726017 25.224066 -0.574610 1.639277 0.185283 -0.041673 329179.000000 0 0 1
-21.993568 12.519827 -1.785517 25.370281 -0.517502 1.641233 0.172430 -0.047567 774245.000000 0 0 1
-22.748368 12.180327 -0.666717 25.812654 -0.491594 1.596628 0.171456 -0.048972 -1285860.000000 0 0 1
-24.153168 12.752127 -0.585717 27.319138 -0.485772 1.592238 0.171413 -0.049043 -812255.000000 0 0 1
-24.090668 14.109027 -0.318517 27.920000 -0.529811 1.582205 0.184828 -0.054334 -116836.000000 0 0 1
-25.373758 14.654627 -0.227417 29.302515 -0.523749 1.578557 0.170821 -0.042646 -473389.000000 0 0 1
-25.494258 16.060027 0.439783 30.134284 -0.562149 1.556202 0.172988 -0.047370 -158819.000000 0 0 1
-25.174628 16.105727 1.836583 29.942100 -0.569143 1.509420 0.173105 -0.040609 -13583.800000 0 0 1
-25.240168 17.386727 2.492083 30.750201 -0.603204 1.489665 0.150007 -0.035601 893846.000000 0 0 1
-26.638718 18.119527 2.625383 32.323849 -0.597310 1.489486 0.159208 -0.033529 592270.000000 0 0 1
-27.554638 17.456427 3.466583 32.802471 -0.564703 1.464918 0.162226 -0.033675 992588.000000 0 0 1
-28.832318 18.076127 3.734183 34.234384 -0.559993 1.461502 0.149739 -0.035326 1795210.000000 0 0 1
-29.903828 18.085827 2.558483 35.041146 -0.543941 1.497718 0.108261 -0.036219 207099.000000 0 0 1
-31.048368 18.883427 2.844783 36.451032 -0.546423 1.492673 0.095077 -0.032604 384882.000000 0 0 1
-31.819998 18.964327 1.642383 37.079042 -0.537464 1.526488 0.073488 -0.038376 -452043.000000 0 0 1
-33.078788 19.817927 1.687483 38.597980 -0.539767 1.527063 0.091551 -0.042059 -444581.000000 0 0 1
-34.195471 19.047227 2.123883 39.199974 -0.508209 1.516589 0.097068 -0.030290 556569.000000 0 0 1
-35.289806 19.857227 2.579383 40.575030 -0.512534 1.507183 0.120325 -0.030534 286374.000000 0 0 1
-35.272644 20.430227 4.007583 40.958690 -0.524992 1.472795 0.099938 -0.032996 -499254.000000 0 0 1
-34.377936 21.530427 4.105083 40.770743 -0.559524 1.469938 0.100956 -0.038459 361603.000000 0 0 1
-34.399375 21.993827 5.441283 41.190448 -0.568864 1.438308 0.101517 -0.029864 -173961.000000 0 0 1
-33.159308 22.840447 5.807683 40.681137 -0.603176 1.427546 0.124327 -0.033198 -185508.000000 0 0 1
-33.099168 24.036887 5.079983 41.220542 -0.628100 1.447243 0.112674 -0.027230 532405.000000 0 0 1
-32.294478 25.097017 5.629983 41.285473 -0.660640 1.434003 0.111716 -0.036016 198541.000000 0 0 1
-33.001778 26.449417 5.342483 42.628994 -0.675627 1.445141 0.101187 -0.031211 428669.000000 0 0 1
-34.182663 26.641907 6.118983 43.768569 -0.662052 1.430534 0.119668 -0.024650 447106.000000 0 0 1
-34.622972 27.957357 6.021683 44.906844 -0.679285 1.436298 0.108229 -0.028786 -193522.000000 0 0 1
-35.636567 28.297897 7.136283 46.061507 -0.671114 1.415240 0.095656 -0.020865 -530048.000000 0 0 1
-35.004462 28.511507 8.401283 45.921672 -0.683526 1.386812 0.113070 -0.023493 651496.000000 0 0 1
-35.849992 29.050537 9.415483 47.093598 -0.681012 1.369509 0.108596 -0.022374 -32397.300000 0 0 1
-37.047438 28.205327 9.892383 47.601601 -0.650713 1.361454 0.086756 -0.010089 -446942.000000 0 0 1
-36.643658 27.096827 10.582783 46.786654 -0.636727 1.342629 0.102808 -0.015215 -405565.000000 0 0 1
-37.622058 26.523167 11.375083 47.416138 -0.614067 1.328535 0.088716 -0.009512 -603330.000000 0 0 1
-37.073048 25.345927 12.198683 46.536381 -0.599686 1.305565 0.131148 -0.012295 -272471.000000 0 0 1
-36.057658 25.712137 13.087583 46.179579 -0.619453 1.283452 0.167302 -0.028643 -481990.000000 0 0 1
-35.567600 24.654117 13.777883 45.417064 -0.606122 1.262576 0.181665 -0.031315 241383.000000 0 0 1
-34.240445 24.965317 14.540483 44.800678 -0.630002 1.240250 0.196132 -0.035287 487146.000000 0 0 1
-34.490485 25.869597 15.578483 45.842325 -0.643533 1.224063 0.186763 -0.033574 -706369.000000 0 0 1
-33.348448 26.032247 16.330983 45.348626 -0.662808 1.202399 0.194910 -0.027821 -703141.000000 0 0 1
-33.371188 27.287017 17.276783 46.440335 -0.685430 1.189611 0.189394 -0.037846 -24857.200000 0 0 1
-33.233388 28.482267 16.580183 46.803847 -0.708566 1.208686 0.202255 -0.036101 -28823.100000 0 0 1
-33.618098 29.647247 17.251883 48.028775 -0.722715 1.203387 0.165243 -0.029212 39090.300000 0 0 1
-33.478318 30.975667 16.476283 48.494924 -0.746589 1.224142 0.155006 -0.037544 1646720.000000 0 0 1
-32.061328 31.196107 16.201683 47.577520 -0.771721 1.223313 0.138880 -0.031531 1500900.000000 0 0 1
-31.751218 32.490345 15.623583 48.040178 -0.796903 1.239553 0.125654 -0.028397 578111.000000 0 0 1
-30.292558 32.510024 15.032883 46.909789 -0.820692 1.244577 0.138340 -0.035483 754823.000000 0 0 1
-30.114418 31.643727 13.879483 45.834961 -0.810156 1.263152 0.126055 -0.034608 315761.000000 0 0 1
-29.447658 30.423157 14.216083 44.663521 -0.801690 1.246868 0.134212 -0.037923 334122.000000 0 0 1
-30.363748 29.275407 13.716983 44.352703 -0.767151 1.256370 0.170031 -0.042331 458423.000000 0 0 1
-30.399298 29.149127 12.334583 43.885429 -0.764407 1.285894 0.189609 -0.045934 -363381.000000 0 0 1
-31.439978 28.294877 11.979783 43.961204 -0.732796 1.294798 0.168240 -0.044470 -180545.000000 0 0 1
-31.543458 28.116367 10.475883 43.534630 -0.728017 1.327778 0.157652 -0.029292 227200.000000 0 0 1
-30.578198 27.212347 9.955083 42.126497 -0.727222 1.332226 0.139946 -0.018362 40219.400000 0 0 1
-30.543408 27.189577 8.542583 41.774976 -0.727371 1.364853 0.130601 -0.021843 318827.000000 0 0 1
-29.324578 26.407237 7.970683 40.259221 -0.733100 1.371495 0.151327 -0.025359 352421.000000 0 0 1
-29.239598 26.780657 6.601783 40.196284 -0.741533 1.405810 0.139217 -0.036726 321940.000000 0 0 1
-28.248128 26.049947 5.842883 38.867670 -0.744937 1.419897 0.125663 -0.030833 295087.000000 0 0 1
-28.045738 26.564337 4.371883 38.875967 -0.758278 1.458101 0.126412 -0.026339 -400422.000000 0 0 1
-27.078968 27.556777 4.242883 38.867062 -0.794143 1.461414 0.100628 -0.022651 -165742.000000 0 0 1
-26.980948 28.048377 2.897283 39.026622 -0.804793 1.496489 0.088176 -0.021194 438016.000000 0 0 1
-25.875538 29.172907 2.817983 39.096586 -0.845226 1.498656 0.073718 -0.016232 1429210.000000 0 0 1
-24.571468 28.676057 3.189683 37.897854 -0.862331 1.486531 0.073404 -0.017116 462986.000000 0 0 1
-23.582268 29.594217 2.822883 37.946142 -0.897977 1.496336 0.068950 -0.015142 644041.000000 0 0 1
-22.095668 29.110177 2.904283 36.661367 -0.921537 1.491494 0.057777 -0.021693 709571.000000 0 0 1
-21.161768 30.146597 2.804983 36.939216 -0.958755 1.494788 0.060449 -0.022170 -835292.000000 0 0 1
-19.859968 29.635807 2.920483 35.794254 -0.980397 1.489115 0.079339 -0.031695 -49665.400000 0 0 1
-18.771668 30.604767 2.417383 35.984317 -1.020613 1.503567 0.078167 -0.035370 -62367.300000 0 0 1
-18.631668 31.751883 3.247283 36.957624 -1.040147 1.482818 0.092153 -0.036036 -42481.200000 0 0 1
-17.594468 32.616595 2.834183 37.167730 -1.076102 1.494468 0.100541 -0.034805 5790.160000 0 0 1
-17.300668 33.811697 3.787783 38.169245 -1.097851 1.471396 0.106889 -0.038340 40709.700000 0 0 1
-18.244368 -32.812619 3.647983 37.720455 1.063345 1.473934 0.104113 -0.039096 90308.800000 0 0 1
-17.955768 -31.782809 4.578683 36.790228 1.056546 1.446019 0.082385 -0.038689 -169315.000000 0 0 1
-19.066868 -30.748139 4.753883 36.490998 1.015730 1.440149 0.084500 -0.029729 -209053.000000 0 0 1
-19.226268 -29.809859 3.730683 35.667843 0.997970 1.466010 0.090864 -0.025023 298195.000000 0 0 1
-20.467268 -29.124119 3.816683 35.800704 0.958220 1.463984 0.084245 -0.029409 -198067.000000 0 0 1
-20.709568 -28.083219 2.706683 34.998279 0.935385 1.493381 0.084116 -0.028184 -146575.000000 0 0 1
-19.789068 -27.024779 2.685983 33.602982 0.938748 1.490778 0.085940 -0.029262 -209719.000000 0 0 1
-20.116568 -26.123479 1.671383 33.013724 0.914582 1.520148 0.085600 -0.028883 146600.000000 0 0 1
-19.067368 -25.002189 1.434483 31.475891 0.919262 1.525207 0.077317 -0.034545 614814.000000 0 0 1
-17.798968 -25.493049 1.033383 31.108949 0.961287 1.537572 0.092179 -0.036362 491784.000000 0 0 1
-16.717068 -24.571869 1.309383 29.748136 0.973392 1.526766 0.091635 -0.033926 1330780.000000 0 0 1
-15.363868 -24.942969 0.623883 29.301696 1.018724 1.549503 0.096262 -0.032708 -155713.000000 0 0 1
-15.349868 -24.968269 -0.818917 29.320701 1.019584 1.598730 0.079670 -0.030570 -83121.500000 0 0 1
-15.432168 -23.716569 -1.521117 28.336218 0.993935 1.624503 0.080948 -0.031186 -136388.000000 0 0 1
-15.557168 -23.843269 -2.992717 28.626619 0.992682 1.675531 0.041181 -0.016130 391169.000000 0 0 1
-14.313968 -24.142169 -3.621917 28.299333 1.035611 1.699134 0.065650 -0.021066 218279.000000 0 0 1
-14.460168 -24.158769 -5.018417 28.599424 1.031446 1.747182 0.053774 -0.016581 371734.000000 0 0 1
-13.168268 -24.580869 -5.770417 28.476659 1.078989 1.774846 0.066583 -0.020910 250771.000000 0 0 1
-12.809468 -25.931049 -5.630817 29.465367 1.111975 1.763078 0.046532 -0.016666 138208.000000 0 0 1
-11.880368 -26.283299 -6.674717 29.605857 1.146270 1.798204 0.058302 -0.018415 392372.000000 0 0 1
24.504632 13.292231 27.640168 39.257347 0.497019 0.789675 0.081238 -0.018309 -91351.100000 0 0 1
25.293732 12.342531 28.300128 39.912507 0.453976 0.782640 0.056549 -0.022045 26620.200000 0 0 1
24.468632 11.541831 29.105488 39.737354 0.440752 0.748888 0.047705 -0.014429 -250987.000000 0 0 1
24.304932 12.065731 30.576918 40.881041 0.460789 0.725830 0.077324 -0.026663 225063.000000 0 0 1
23.364732 13.122831 30.727698 40.771446 0.511744 0.717187 0.080964 -0.027505 297121.000000 0 0 1
23.596832 13.716631 32.008207 42.065209 0.526549 0.706068 0.115547 -0.023076 608683.000000 0 0 1
22.333832 14.480331 32.580406 42.070927 0.575220 0.685005 0.098218 -0.026141 830326.000000 0 0 1
21.241732 13.612031 32.832587 41.406248 0.569892 0.655180 0.085952 -0.011192 301604.000000 0 0 1
20.356232 14.182031 33.792778 41.922047 0.608503 0.633288 0.099036 -0.011224 -499063.000000 0 0 1
19.288332 13.291231 -33.269117 40.688213 0.603360 2.528131 0.087325 -0.009274 -687324.000000 0 0 1
18.193632 13.203331 33.524859 40.363999 0.627775 0.590678 0.069197 0.001457 -400408.000000 0 0 1
17.127332 12.506131 -33.550247 39.690904 0.630699 2.577900 0.058999 -0.004277 -162721.000000 0 0 1
15.857832 12.203231 33.313040 38.860627 0.655890 0.540903 0.059196 -0.002617 156610.000000 0 0 1
15.997732 11.076831 32.465570 37.850190 0.605607 0.539942 0.046735 0.008094 400801.000000 0 0 1
14.686332 10.736831 32.019369 36.826728 0.631280 0.516688 0.077820 -0.005003 397773.000000 0 0 1
14.724732 9.650831 31.029188 35.675857 0.580173 0.516095 0.097512 -0.006931 -166671.000000 0 0 1
15.292832 8.460031 31.426728 35.959451 0.505299 0.507527 0.072533 -0.011936 -244646.000000 0 0 1
15.690932 7.702431 30.356678 35.029426 0.456328 0.522438 0.080131 -0.027779 49986.900000 0 0 1
16.090932 6.265131 30.662758 35.190549 0.371299 0.512880 0.116590 -0.038035 622640.000000 0 0 1
14.959532 5.493731 31.081328 34.928751 0.351950 0.473781 0.123729 -0.032396 335891.000000 0 0 1
15.409632 4.223831 31.521498 35.339813 0.267532 0.469147 0.130487 -0.036436 -359932.000000 0 0 1
14.362232 3.277031 32.063539 35.285736 0.224330 0.430678 0.097135 -0.026838 -127744.000000 0 0 1
14.984432 2.043431 32.422070 35.775682 0.135534 0.436445 0.099177 -0.033683 -243136.000000 0 0 1
14.033632 1.277131 33.047501 35.926470 0.090755 0.403060 0.085483 -0.029800 -523926.000000 0 0 1
14.594732 -0.093569 33.392291 36.442559 -0.006411 0.412056 0.088000 -0.030702 -73929.000000 0 0 1
14.840732 -0.978169 32.314306 35.572722 -0.065816 0.431352 0.074055 -0.019704 153483.000000 0 0 1
15.380632 -2.222069 32.785763 36.282333 -0.143479 0.442629 0.102530 -0.016800 -358623.000000 0 0 1
15.304332 -3.305469 31.758245 35.408118 -0.212715 0.458042 0.094183 -0.014413 -955971.000000 0 0 1
15.792332 -4.605269 32.232054 36.187174 -0.283746 0.471905 0.093105 -0.011959 972203.000000 0 0 1
17.154632 -4.836969 32.630916 37.181371 -0.274828 0.499933 0.074146 -0.006437 960233.000000 0 0 1
18.256232 -4.276669 31.689447 36.821203 -0.230109 0.534290 0.074855 -0.013488 -1020860.000000 0 0 1
18.390632 -2.847969 31.668747 36.731946 -0.153639 0.531282 0.084417 -0.015553 -159093.000000 0 0 1
19.389932 -2.384969 30.792648 36.467036 -0.122386 0.565358 0.128057 -0.024529 -142384.000000 0 0 1
19.372232 -0.836169 30.732288 36.338081 -0.043136 0.562860 0.147112 -0.037160 -265924.000000 0 0 1
19.983432 -0.231069 31.869260 37.617027 -0.011563 0.560098 0.113854 -0.026496 237643.000000 0 0 1
20.116932 1.160031 31.860977 37.698256 0.057601 0.563936 0.102853 -0.024603 -293912.000000 0 0 1
21.275032 1.721031 31.032038 37.663993 0.080719 0.602506 0.126314 -0.028116 -602141.000000 0 0 1
21.143132 1.560631 29.618908 36.424543 0.073679 0.621239 0.131372 -0.027756 109986.000000 0 0 1
22.151832 2.234331 28.900588 36.482049 0.100524 0.656413 0.114161 -0.022536 -12352.100000 0 0 1
21.787932 3.728331 28.689018 36.217043 0.169478 0.656487 0.099953 -0.014825 -6745.810000 0 0 1
21.660332 4.314731 29.944298 37.208170 0.196626 0.635496 0.096560 -0.016296 283488.000000 0 0 1
21.266332 5.684731 29.843528 37.083814 0.261204 0.635527 0.088828 -0.014103 -132672.000000 0 0 1
20.945032 6.292131 31.221678 38.119266 0.291834 0.611039 0.095213 -0.012004 -499673.000000 0 0 1
19.840332 5.735931 31.859499 37.967978 0.281431 0.575142 0.087554 -0.010676 -228961.000000 0 0 1
19.761432 6.151731 33.154558 39.084303 0.301791 0.558062 0.077629 -0.012519 -266252.000000 0 0 1
18.527532 5.597831 -33.779137 38.931160 0.293415 2.621279 0.084784 -0.018066 -260813.000000 0 0 1
18.576232 4.196231 -33.625957 38.644401 0.222164 2.626278 0.089388 -0.023176 72659.100000 0 0 1
17.506132 3.687631 -32.873407 37.426250 0.207613 2.643199 0.096903 -0.035715 -185875.000000 0 0 1
17.356032 2.128231 -33.128067 37.459712 0.122013 2.655929 0.107347 -0.042925 -234110.000000 0 0 1
18.394732 1.424031 -32.461427 37.338161 0.077261 2.624763 0.080489 -0.024708 413703.000000 0 0 1
18.353232 0.046731 -32.679757 37.480793 0.002546 2.629879 0.086394 -0.024439 -847548.000000 0 0 1
19.502132 -0.634569 -31.982797 37.465119 -0.032527 2.593785 0.088745 -0.025876 -733776.000000 0 0 1
19.413232 -0.799669 -30.558527 36.212382 -0.041169 2.575251 0.090383 -0.027201 296802.000000 0 0 1
19.437032 0.349831 -29.716757 35.510650 0.017996 2.562283 0.087610 -0.023324 -476925.000000 0 0 1
18.923932 0.054231 -28.306137 34.049310 0.002866 2.552289 0.083991 -0.016952 75945.600000 0 0 1
17.534732 -0.265469 -28.281537 33.277359 -0.015138 2.586541 0.099816 -0.027567 673827.000000 0 0 1
17.004132 -0.354069 -26.923957 31.845962 -0.020820 2.578191 0.096371 -0.028499 23475.200000 0 0 1
17.519032 -1.482769 -26.019267 31.402505 -0.084436 2.547350 0.114435 -0.023242 295702.000000 0 0 1
18.831832 -1.168169 -25.476227 31.702376 -0.061952 2.504126 0.120292 -0.022476 986335.000000 0 0 1
19.542632 -2.312169 -25.042717 31.849619 -0.117767 2.475561 0.101244 -0.019429 1675.240000 0 0 1
20.356132 -2.924169 -26.180287 33.291595 -0.142674 2.475745 0.109284 -0.032864 -435577.000000 0 0 1
21.475832 -2.130569 -26.570237 34.230515 -0.098884 2.459436 0.109168 -0.021551 27660.900000 0 0 1
21.807932 -2.443269 -27.879507 35.479887 -0.111571 2.474758 0.112704 -0.026295 116612.000000 0 0 1
23.192132 -1.900169 -28.303027 36.640783 -0.081749 2.453480 0.077985 -0.024736 369042.000000 0 0 1
24.325732 -2.680069 -27.973707 37.167893 -0.109732 2.422845 0.071146 -0.032102 302321.000000 0 0 1
25.517132 -1.935369 -28.197647 38.078563 -0.075701 2.404629 0.053020 -0.036877 222026.000000 0 0 1
26.838432 -2.685969 -27.975817 38.860805 -0.099747 2.374452 0.087001 -0.031788 -506932.000000 0 0 1
27.049332 -3.757969 -28.865577 39.736762 -0.138047 2.383895 0.111312 -0.037059 17036.300000 0 0 1
28.366132 -4.232969 -28.730937 40.595840 -0.148133 2.357078 0.109345 -0.034702 -116744.000000 0 0 1
28.605632 -5.395369 -27.783847 40.240953 -0.186422 2.332889 0.109030 -0.025168 -274799.000000 0 0 1
28.371232 -5.149269 -26.403637 39.097235 -0.179542 2.312212 0.085269 -0.007913 309164.000000 0 0 1
28.474032 -6.401969 -25.754787 38.923833 -0.221158 2.293842 0.057844 -0.007504 -244438.000000 0 0 1
28.590032 -6.372169 -24.221017 38.008580 -0.219296 2.261723 0.039707 -0.002028 -546470.000000 0 0 1
29.855432 -6.079169 -23.711117 38.607256 -0.200874 2.232120 0.039302 0.001919 -93639.500000 0 0 1
29.739332 -5.679769 -22.383317 37.652364 -0.188713 2.207407 0.041790 -0.004214 -1007600.000000 0 0 1
31.080732 -5.299869 -21.838417 38.353839 -0.168895 2.176564 0.046087 -0.001509 -1038560.000000 0 0 1
31.685232 -4.183469 -22.481517 39.075234 -0.131273 2.183815 0.074142 -0.016203 391728.000000 0 0 1
32.930832 -3.857169 -21.872517 39.720580 -0.116598 2.153950 0.096379 -0.013069 510087.000000 0 0 1
33.609332 -2.616669 -22.514217 40.537934 -0.077699 2.159624 0.110255 -0.022725 -195473.000000 0 0 1
32.728632 -1.504369 -22.536417 39.765771 -0.045933 2.173327 0.078146 -0.016507 150471.000000 0 0 1
33.288732 -0.189969 -22.645417 40.261528 -0.005707 2.168152 0.089369 -0.018002 -385941.000000 0 0 1
32.262032 0.871631 -22.315217 39.237321 0.027011 2.175750 0.074339 -0.015950 154559.000000 0 0 1
31.178432 0.962031 -23.236217 38.896554 0.030846 2.211033 0.065114 -0.009989 646895.000000 0 0 1
30.049832 1.617731 -22.706917 37.698986 0.053783 2.217203 0.060628 -0.006632 344835.000000 0 0 1
28.938132 2.064531 -23.708417 37.466876 0.071222 2.255939 0.058753 -0.004491 -179570.000000 0 0 1
27.927232 2.786531 -23.082617 36.338716 0.099449 2.259073 0.064139 -0.006524 178186.000000 0 0 1
27.104232 3.403231 -24.091317 36.422698 0.124907 2.293529 0.092200 -0.016036 368538.000000 0 0 1
26.034932 4.364031 -23.545417 35.373000 0.166078 2.299137 0.093247 -0.010883 124874.000000 0 0 1
26.680332 5.551931 -23.155017 35.760577 0.205163 2.275097 0.077823 -0.003282 588529.000000 0 0 1
25.738932 6.575931 -22.851217 35.041598 0.250135 2.281170 0.128990 -0.029939 -117060.000000 0 0 1
26.437932 7.879131 -22.415017 35.545435 0.289643 2.253125 0.151207 -0.019835 -316169.000000 0 0 1
27.145832 8.438431 -23.462417 36.859033 0.301386 2.260806 0.146436 -0.014656 -232467.000000 0 0 1
27.516632 9.770031 -23.110617 37.238678 0.341175 2.240314 0.171707 -0.018322 -136150.000000 0 0 1
28.547032 10.249131 -24.173217 38.785592 0.344693 2.243691 0.203280 -0.024965 -205730.000000 0 0 1
28.116432 10.410131 -25.523557 39.374567 0.354600 2.276047 0.222111 -0.039643 170567.000000 0 0 1
27.309732 11.572131 -25.648067 39.211720 0.400800 2.283778 0.234092 -0.041862 -28842.200000 0 0 1
27.275932 12.209731 -27.039127 40.300972 0.420888 2.306258 0.232180 -0.039661 -443519.000000 0 0 1
26.535532 11.572031 -28.078787 40.329451 0.411231 2.340936 0.193466 -0.039404 346277.000000 0 0 1
27.127232 10.420931 -28.659607 40.814894 0.366769 2.349258 0.180504 -0.039709 413510.000000 0 0 1
28.341632 10.632331 -29.634397 42.361445 0.358901 2.345579 0.177371 -0.038690 -409429.000000 0 0 1
29.507732 11.154831 -29.021237 42.864539 0.361425 2.314537 0.166174 -0.044332 318535.000000 0 0 1
30.611832 11.294331 -29.883787 44.245756 0.353459 2.312310 0.184939 -0.041680 356036.000000 0 0 1
31.273032 9.987831 -30.446107 44.774152 0.309136 2.318549 0.131146 -0.026663 -1283540.000000 0 0 1
30.441332 9.352531 -31.379247 44.707960 0.298078 2.348818 0.125515 -0.023103 93072.500000 0 0 1
30.867132 8.051331 -31.757797 45.012903 0.255153 2.353962 0.104291 -0.012343 -385186.000000 0 0 1
29.770032 7.426731 -32.622527 44.784377 0.244480 2.386832 0.115155 -0.019644 -178015.000000 0 0 1
28.685932 7.049531 -31.820307 43.417859 0.240973 2.393349 0.115273 -0.029078 354147.000000 0 0 1
27.550432 6.583531 -32.574337 43.167773 0.234564 2.425838 0.078146 -0.026971 998195.000000 0 0 1
26.234732 6.477131 -31.740267 41.685236 0.242051 2.436308 0.101386 -0.019514 -78398.700000 0 0 1
25.676132 7.784431 -31.460107 41.347303 0.294370 2.435456 0.103929 -0.008634 282253.000000 0 0 1
24.487232 7.731831 -30.712037 40.032923 0.305843 2.445213 0.112935 -0.018872 -729313.000000 0 0 1
23.193232 7.549631 -31.453857 39.802865 0.314693 2.481999 0.126890 -0.023223 -1228850.000000 0 0 1
22.768332 8.720531 -32.088837 40.300596 0.365776 2.491846 0.131300 -0.017207 189975.000000 0 0 1
21.422432 8.553631 -32.516827 39.867646 0.379889 2.524595 0.113998 -0.018311 200342.000000 0 0 1
20.930832 9.682231 -33.394267 40.583524 0.433268 2.537210 0.106647 -0.010746 95788.300000 0 0 1
21.536732 9.606931 32.931758 40.504625 0.419583 0.621447 0.084039 -0.008187 164867.000000 0 0 1
21.044432 10.649131 32.096085 39.830024 0.468461 0.633727 0.067270 -0.011971 199396.000000 0 0 1
19.964332 10.123831 31.103048 38.320571 0.469308 0.623818 0.076311 -0.010893 366018.000000 0 0 1
20.477032 9.099631 30.234028 37.632547 0.418172 0.637811 0.072562 -0.009656 486931.000000 0 0 1
21.339632 9.561431 29.149488 37.369687 0.421239 0.676082 0.080083 -0.008878 217490.000000 0 0 1
20.637732 10.323031 27.956728 36.249960 0.463809 0.690039 0.074064 -0.005033 611995.000000 0 0 1
19.726232 9.542331 27.157568 34.895757 0.450554 0.678925 0.088137 -0.010389 1226970.000000 0 0 1
18.366132 9.544831 27.605428 34.503308 0.479281 0.643367 0.106881 -0.025979 778387.000000 0 0 1
17.373232 8.608531 26.845878 33.115513 0.460046 0.625494 0.120134 -0.025514 -193843.000000 0 0 1
16.980232 9.025031 25.618328 32.032456 0.488531 0.643898 0.124774 -0.026229 1011400.000000 0 0 1
15.697932 8.527631 25.166688 30.862724 0.497633 0.617308 0.144641 -0.025664 1019850.000000 0 0 1
15.508632 7.012531 24.914918 30.173605 0.424657 0.599321 0.145528 -0.025667 -355442.000000 0 0 1
15.555432 6.187631 26.076948 30.988151 0.378591 0.570718 0.119399 -0.029106 31903.300000 0 0 1
15.720532 4.815231 25.851688 30.637091 0.297228 0.566464 0.125697 -0.033651 -90146.400000 0 0 1
15.989332 3.997331 27.097678 31.716267 0.244979 0.546444 0.114153 -0.038407 -286699.000000 0 0 1
17.185932 4.376631 27.756658 32.938477 0.249363 0.568551 0.130283 -0.025847 172308.000000 0 0 1
17.553032 3.537831 28.853608 33.958149 0.198886 0.555416 0.123074 -0.026349 -341399.000000 0 0 1
17.867832 2.017031 28.629458 33.807894 0.112410 0.560804 0.136639 -0.026866 -529722.000000 0 0 1
16.787332 1.321931 28.055748 32.721354 0.078584 0.540573 0.119168 -0.045786 -38325.000000 0 0 1
15.854332 0.852931 29.013818 33.073993 0.053746 0.500715 0.096880 -0.039227 -135149.000000 0 0 1
15.774632 -0.676069 29.012268 33.030407 -0.042832 0.498396 0.091671 -0.030260 -448812.000000 0 0 1
15.086532 -1.241769 27.919608 31.759250 -0.082125 0.496822 0.079139 -0.029913 371427.000000 0 0 1
15.854032 -1.483569 26.730148 31.113536 -0.093305 0.537256 0.102118 -0.031021 -742648.000000 0 0 1
17.001932 -2.548769 26.709558 31.764169 -0.148802 0.571906 0.099058 -0.018186 1165330.000000 0 0 1
18.278632 -2.131569 27.233748 32.868359 -0.116091 0.594247 0.119204 -0.032752 694279.000000 0 0 1
18.916432 -1.075269 26.534258 32.604516 -0.056782 0.620098 0.118982 -0.035884 -2187690.000000 0 0 1
20.335032 -0.962169 27.000088 33.814850 -0.047281 0.646049 0.159893 -0.031954 -746852.000000 0 0 1
21.264032 -1.831569 26.336458 33.898713 -0.085923 0.681043 0.139440 -0.037731 662075.000000 0 0 1
22.600632 -1.504169 26.699498 35.013059 -0.066456 0.703538 0.139862 -0.035752 1204460.000000 0 0 1
23.800632 -2.029069 25.819658 35.174450 -0.085047 0.746536 0.131931 -0.027489 553822.000000 0 0 1
23.784232 -1.621669 24.457288 34.153747 -0.068077 0.772606 0.145923 -0.017295 -654071.000000 0 0 1
22.968632 -2.286969 23.618918 33.024863 -0.099242 0.773906 0.149516 -0.016220 -733108.000000 0 0 1
23.004432 -1.533969 22.253988 32.043673 -0.066583 0.803086 0.139659 -0.030219 38760.400000 0 0 1
22.305332 -0.324069 22.304588 31.545642 -0.014528 0.785468 0.126596 -0.026920 -99746.000000 0 0 1
22.118432 0.191931 21.040688 30.528224 0.008677 0.810383 0.119636 -0.015475 46613.800000 0 0 1
-31.610028 -27.269165 -10.215017 42.978457 0.711806 1.810771 0.045072 0.003115 -172538.000000 0 0 1
-31.633068 -26.033565 -9.432517 42.040098 0.688600 1.797092 0.057833 0.008836 -327464.000000 0 0 1
-32.265138 -26.146565 -8.206817 42.332420 0.681030 1.765898 0.061341 -0.007023 -877027.000000 0 0 1
-32.493358 -24.801865 -7.377017 41.537588 0.651953 1.749342 0.085507 -0.010072 10946.500000 0 0 1
-31.431038 -24.098865 -6.759017 40.178971 0.654118 1.739823 0.117083 -0.018653 -539697.000000 0 0 1
-30.782008 -24.823265 -5.731217 39.957144 0.678644 1.714727 0.123728 -0.014515 -96572.500000 0 0 1
-29.512598 -24.151365 -5.170817 38.484012 0.685825 1.705567 0.138032 -0.007760 -209025.000000 0 0 1
-29.621698 -23.020765 -4.266617 37.757180 0.660657 1.684040 0.138195 -0.016505 -160098.000000 0 0 1
-30.257958 -21.880965 -4.821617 37.650613 0.626093 1.699211 0.145036 -0.020468 -33031.600000 0 0 1
-30.057598 -20.620965 -3.969317 36.666591 0.601301 1.679263 0.142131 -0.026645 -623367.000000 0 0 1
-28.834228 -20.043765 -4.271117 35.375241 0.607455 1.691829 0.157147 -0.030042 -367473.000000 0 0 1
-28.564018 -19.071765 -3.288117 34.502856 0.588707 1.666241 0.175887 -0.026043 393172.000000 0 0 1
-27.481238 -17.980265 -3.587517 33.036020 0.579374 1.679605 0.159973 -0.019232 366504.000000 0 0 1
-27.920008 -17.048665 -4.532817 33.026205 0.548196 1.708480 0.153496 -0.030549 2915.790000 0 0 1
-26.895308 -16.151965 -4.865517 31.747706 0.540823 1.724658 0.136676 -0.028791 -294635.000000 0 0 1
-27.355308 -15.052465 -5.824917 31.761915 0.503041 1.755233 0.153115 -0.046509 352415.000000 0 0 1
-28.295608 -14.169865 -5.195617 32.069003 0.464271 1.733527 0.145044 -0.030360 140863.000000 0 0 1
-28.749488 -13.183465 -6.073917 32.206044 0.429952 1.760528 0.172847 -0.050131 -744683.000000 0 0 1
-30.117258 -12.707665 -5.608017 33.166004 0.399276 1.740702 0.158702 -0.041232 -762478.000000 0 0 1
-31.169708 -13.501765 -6.123317 34.515842 0.408770 1.749146 0.161646 -0.035400 132128.000000 0 0 1
-32.388548 -12.811165 -5.835117 35.315614 0.376661 1.736785 0.139879 -0.032685 -836679.000000 0 0 1
-33.491378 -13.391765 -6.643817 36.676315 0.380383 1.752949 0.102578 -0.026740 -1361250.000000 0 0 1
-34.074558 -14.533765 -6.046917 37.534931 0.403164 1.732602 0.095168 -0.026112 157687.000000 0 0 1
-34.453600 -15.365465 -7.135017 38.393444 0.419502 1.757722 0.098961 -0.034391 267444.000000 0 0 1
-35.632828 -16.359565 -6.817117 39.797071 0.430408 1.742942 0.103916 -0.028581 859975.000000 0 0 1
-36.979908 -15.921765 -6.788517 40.830138 0.406564 1.737834 0.089692 -0.032636 512249.000000 0 0 1
-37.383768 -15.321665 -5.540617 40.779872 0.388967 1.707084 0.109906 -0.031613 19762.500000 0 0 1
36.373100 -15.102165 -5.544917 39.772149 -0.393542 1.710669 0.142993 -0.037432 -397745.000000 0 0 1
35.881190 -14.042465 -6.316617 39.045489 -0.373036 1.733286 0.152296 -0.049542 1411620.000000 0 0 1
34.438900 -13.972265 -6.436717 37.718607 -0.385421 1.742287 0.157240 -0.035350 1560460.000000 0 0 1
33.543050 -13.646665 -5.209917 36.585665 -0.386389 1.713685 0.196365 -0.044125 -423441.000000 0 0 1
33.435530 -14.687365 -4.293317 36.770721 -0.413899 1.687822 0.196166 -0.049031 532254.000000 0 0 1
32.401120 -14.269065 -3.405617 35.567359 -0.414832 1.666694 0.227034 -0.040574 -445519.000000 0 0 1
32.402010 -15.051965 -2.069317 35.787343 -0.434878 1.628651 0.241513 -0.037457 -611666.000000 0 0 1
33.533840 -14.822265 -1.230317 36.684215 -0.416189 1.604341 0.261671 -0.036836 511118.000000 0 0 1
34.707460 -15.536565 -1.603617 38.060008 -0.420892 1.612943 0.220659 -0.039130 -313602.000000 0 0 1
34.662000 -17.024165 -1.971017 38.667316 -0.456541 1.621792 0.202766 -0.044247 -1573770.000000 0 0 1
34.677100 -17.955965 -0.850017 39.059448 -0.477790 1.592560 0.182018 -0.038736 45136.800000 0 0 1
34.692290 -19.287265 -1.265217 39.713402 -0.507402 1.602660 0.147539 -0.035496 -314585.000000 0 0 1
35.932630 -19.937365 -1.897417 41.136998 -0.506562 1.616937 0.131413 -0.048173 -311092.000000 0 0 1
36.233330 -19.314765 -3.122517 41.178446 -0.489749 1.646698 0.100209 -0.045241 -334409.000000 0 0 1
37.074970 -20.044865 -3.959717 42.332368 -0.495642 1.664472 0.095417 -0.036814 -365003.000000 0 0 1
37.174070 -19.387865 -5.380017 42.269911 -0.480733 1.698420 0.113238 -0.041930 22375.600000 0 0 1
35.995280 -19.502965 -6.148017 41.398356 -0.496541 1.719856 0.099184 -0.047212 145058.000000 0 0 1
35.857890 -18.449765 -7.071117 40.941211 -0.475200 1.744381 0.094793 -0.039808 -24548.000000 0 0 1
34.678060 -18.613765 -8.061717 40.175009 -0.492621 1.772833 0.102035 -0.043310 92971.200000 0 0 1
34.853980 -19.775265 -8.822217 41.032822 -0.516085 1.787492 0.102291 -0.041409 477788.000000 0 0 1
33.806690 -19.833865 -9.786117 40.398546 -0.530571 1.815470 0.087370 -0.049664 -54302.900000 0 0 1
33.856480 -21.092165 -10.622617 41.279300 -0.557151 1.831060 0.085276 -0.041923 -18014.600000 0 0 1
33.378980 -22.194265 -9.847817 41.276157 -0.586791 1.811703 0.077901 -0.043120 232220.000000 0 0 1
33.137710 -23.345565 -10.566017 41.889902 -0.613741 1.825784 0.062092 -0.034931 -63881.800000 0 0 1
32.405480 -24.474765 -9.790717 41.773046 -0.646863 1.807376 0.074639 -0.028940 981981.000000 0 0 1
31.008850 -24.294365 -9.496717 40.521014 -0.664577 1.807362 0.096644 -0.040793 654818.000000 0 0 1
30.450020 -25.494165 -9.079517 40.738112 -0.697043 1.795559 0.070823 -0.032338 -529492.000000 0 0 1
29.001890 -25.357865 -8.619817 39.476983 -0.718463 1.790920 0.068231 -0.040326 -233635.000000 0 0 1
28.131890 -24.850665 -9.623617 38.750132 -0.723547 1.821773 0.080519 -0.039080 -224298.000000 0 0 1
27.022690 -24.211365 -9.032117 37.389772 -0.730581 1.814776 0.095780 -0.041795 -292488.000000 0 0 1
26.088390 -23.657565 -10.099917 36.637314 -0.736572 1.850086 0.155185 -0.043676 -728806.000000 0 0 1
25.462990 -24.620865 -10.829217 37.038126 -0.768585 1.867511 0.128595 -0.038355 -346668.000000 0 0 1
24.517390 -24.165465 -11.743617 36.372856 -0.778169 1.899554 0.137711 -0.028601 -367844.000000 0 0 1
23.778690 -25.386465 -12.306117 36.896330 -0.818088 1.910844 0.134798 -0.033585 -488431.000000 0 0 1
24.454090 -26.080265 -13.283817 38.139776 -0.817567 1.926546 0.136352 -0.032428 -81795.700000 0 0 1
24.000490 -27.429565 -13.257717 38.783651 -0.851974 1.919668 0.138960 -0.018186 -201782.000000 0 0 1
24.835690 -28.515965 -13.970417 40.313078 -0.854271 1.924685 0.113947 -0.022908 -445339.000000 0 0 1
24.738990 -28.441265 -15.353117 40.701859 -0.854904 1.957577 0.102738 -0.018922 466183.000000 0 0 1
25.185290 -29.665765 -15.924517 42.046958 -0.866902 1.959222 0.085202 -0.009819 -432543.000000 0 0 1
25.134890 -29.643865 -17.456217 42.605644 -0.867526 1.992939 0.070180 -0.014319 -470701.000000 0 0 1
23.835790 -29.618165 -17.978817 42.054945 -0.893154 2.012530 0.074886 -0.014830 -219818.000000 0 0 1
23.831490 -29.625065 -19.401817 42.685066 -0.893356 2.042645 0.046256 -0.005458 -1411630.000000 0 0 1
22.494890 -29.251865 -19.915617 41.932368 -0.915241 2.065699 0.050013 -0.006212 -1276390.000000 0 0 1
22.519490 -29.330865 -21.352417 42.700735 -0.916016 2.094451 0.042887 0.008175 281775.000000 0 0 1
21.168490 -29.469065 -21.757117 42.307244 -0.947875 2.110946 0.065638 -0.010915 -270630.000000 0 0 1
20.909090 -29.692465 -23.265817 43.129233 -0.957265 2.140573 0.057526 -0.009831 -536106.000000 0 0 1
21.025690 -28.554065 -24.083717 42.865367 -0.936091 2.167411 0.057186 -0.006483 376136.000000 0 0 1
21.177590 -28.923565 -25.439307 43.957039 -0.938790 2.187968 0.054750 -0.007141 -592445.000000 0 0 1
21.542390 -27.743465 -26.382757 43.929765 -0.910559 2.215006 0.051349 -0.011192 18526.000000 0 0 1
20.586690 -26.708165 -26.495907 42.885556 -0.914115 2.236774 0.073326 -0.028208 -18451.100000 0 0 1
19.547190 -27.074165 -27.384717 43.185944 -0.945466 2.257656 0.097688 -0.030897 -195237.000000 0 0 1
18.744090 -25.824665 -27.903467 42.389358 -0.942950 2.289309 0.099239 -0.039012 269615.000000 0 0 1
17.831590 -25.343965 -26.893867 41.031235 -0.957670 2.285573 0.083566 -0.022311 201973.000000 0 0 1
17.405190 -24.014865 -27.165327 40.219514 -0.943641 2.312339 0.072426 -0.007690 -496691.000000 0 0 1
16.326490 -23.609565 -26.176177 38.847883 -0.965784 2.310152 0.074187 -0.009145 -391304.000000 0 0 1
15.073890 -24.226365 -26.502037 38.942225 -1.014206 2.319306 0.099959 -0.022003 412911.000000 0 0 1
14.013390 -23.841265 -25.611157 37.692338 -1.039411 2.317849 0.079257 -0.013743 512845.000000 0 0 1
14.064490 -24.187565 -24.065517 36.905247 -1.044109 2.281133 0.077384 -0.010957 -667344.000000 0 0 1
14.951890 -23.416565 -23.301917 36.261189 -1.002535 2.268700 0.043459 -0.004342 -366598.000000 0 0 1
15.145090 -23.990365 -21.987817 35.893947 -1.007680 2.230114 0.046970 -0.012219 116499.000000 0 0 1
16.327090 -23.364865 -21.225617 35.538959 -0.960884 2.210863 0.044591 -0.007971 4980.550000 0 0 1
16.103090 -22.027965 -20.894617 34.367510 -0.939547 2.224305 0.024576 -0.004028 365451.000000 0 0 1
17.305190 -21.336565 -20.580517 34.326029 -0.889349 2.213748 0.047841 -0.001025 -64219.500000 0 0 1
16.959990 -19.940665 -20.056017 32.977495 -0.865999 2.224553 0.053091 0.003056 322323.000000 0 0 1
16.285690 -19.865565 -18.799417 31.832097 -0.884101 2.202574 0.040586 0.003427 627671.000000 0 0 1
14.863990 -19.765165 -18.906617 31.129730 -0.925998 2.223516 0.021591 0.001514 560635.000000 0 0 1
14.198290 -19.695165 -17.489217 29.922628 -0.946179 2.195037 0.030601 0.001138 9319.700000 0 0 1
14.393790 -18.465965 -16.785017 28.808156 -0.908695 2.192780 0.062970 -0.007456 277698.000000 0 0 1
13.836590 -18.473365 -15.446917 27.772714 -0.927934 2.160591 0.066730 -0.014719 -150253.000000 0 0 1
13.737890 -17.046265 -14.900217 26.482470 -0.892457 2.168378 0.087565 -0.015915 121318.000000 0 0 1
12.476890 -16.393865 -15.081817 25.532191 -0.920248 2.202720 0.079512 -0.028250 467770.000000 0 0 1
12.451390 -15.056365 -14.596717 24.388427 -0.879816 2.212436 0.072507 -0.039882 -364567.000000 0 1 0
11.027990 -14.596765 -14.259117 23.194924 -0.923779 2.232867 0.074274 -0.028254 -254603.000000 0 1 0
10.298390 -14.310465 -15.445917 23.439765 -0.947010 2.290234 0.099481 -0.018872 -1389020.000000 0 1 0
9.030490 -13.907665 -15.115717 22.437865 -0.994901 2.309960 0.095320 -0.020173 -1187250.000000 0 1 0
8.238090 -13.454265 -16.331417 22.706795 -1.021379 2.373490 0.073334 -0.004971 -295406.000000 0 1 0
8.663590 -12.193665 -16.905617 22.573062 -0.953059 2.417240 0.069389 -0.001704 523090.000000 0 1 0
9.795190 -12.270865 -17.790117 23.727792 -0.897125 2.418494 0.097161 -0.005367 657249.000000 0 1 0
9.969890 -11.070465 -18.704417 23.912530 -0.837658 2.468988 0.101864 -0.010049 521548.000000 0 1 0
9.077890 -11.171865 -19.831217 24.505016 -0.888439 2.513708 0.104220 -0.014752 510081.000000 0 1 0
9.308790 -9.921165 -20.469417 24.578041 -0.817232 2.555004 0.100453 -0.024959 320644.000000 0 1 0
9.005990 -10.003465 -21.970517 25.765884 -0.837823 2.591925 0.110888 -0.022544 316460.000000 0 0 1
10.136690 -10.550865 -22.638217 26.954816 -0.805416 2.567818 0.123754 -0.029461 -62505.400000 0 0 1
9.952390 -10.526865 -24.014817 28.045969 -0.813442 2.598794 0.114957 -0.021128 -44611.400000 0 0 1
11.249590 -10.948065 -24.710017 29.274534 -0.771815 2.575641 0.119990 -0.015913 -71228.700000 0 0 1
11.498490 -12.332865 -24.584517 29.811295 -0.820396 2.540417 0.107217 -0.018648 -108921.000000 0 0 1
12.666990 -12.873365 -25.174847 30.983045 -0.793478 2.519286 0.090110 -0.023780 -86546.000000 0 0 1
12.752790 -14.388765 -24.928717 31.481917 -0.845601 2.484616 0.068243 -0.014446 -669837.000000 0 0 1
11.627890 -15.073965 -25.390157 31.734717 -0.913746 2.498217 0.054980 -0.011417 -383528.000000 0 0 1
11.787590 -16.470265 -25.172407 32.308930 -0.949618 2.464051 0.037398 -0.009020 1161990.000000 0 0 1
10.489590 -17.298665 -25.577107 32.610791 -1.025698 2.472386 0.033840 -0.006560 1091960.000000 0 0 1
10.402290 -17.716465 -26.941567 33.881098 -1.039876 2.490100 0.042235 -0.016380 334651.000000 0 0 1
9.142890 -18.298565 -27.271347 34.090413 -1.107428 2.498043 0.055287 -0.012717 153622.000000 0 0 1
9.229490 -19.308365 -28.468887 35.615642 -1.124899 2.496987 0.070150 -0.018210 -554042.000000 0 0 1
9.955390 -20.446165 -28.119057 36.164026 -1.117678 2.461544 0.055982 -0.019925 -64352.800000 0 0 1
10.199990 -21.265565 -29.214347 37.546532 -1.123562 2.462406 0.070858 -0.019561 33214.500000 0 0 1
10.892790 -22.559665 -28.700647 38.096174 -1.120968 2.423973 0.064180 -0.014774 116014.000000 0 0 1
10.946790 -23.483165 -29.834117 39.514121 -1.134590 2.426487 0.077669 -0.017492 241418.000000 0 0 1
11.611590 -24.728065 -29.586427 40.269875 -1.131787 2.396026 0.096661 -0.025977 524071.000000 0 0 1
10.849690 -25.693865 -28.581407 39.934788 -1.171242 2.368425 0.105799 -0.032246 455516.000000 0 0 1
10.631490 -25.186365 -27.235177 38.589330 -1.171374 2.354305 0.105724 -0.027146 -286562.000000 0 0 1
10.090590 -26.143065 -26.316137 38.442410 -1.202438 2.324796 0.103262 -0.018097 -81663.900000 0 0 1
9.503690 -25.417265 -25.098757 36.963564 -1.212984 2.317214 0.081670 -0.010545 74631.800000 0 0 1
10.377190 -24.400165 -24.612517 36.177757 -1.168679 2.318998 0.066265 -0.006791 -23648.800000 0 0 1
9.769990 -23.165665 -24.763017 35.288918 -1.171686 2.348608 0.053949 -0.001197 256147.000000 0 0 1
10.831790 -22.012065 -24.778417 34.868734 -1.113501 2.361175 0.055222 0.006822 332499.000000 0 0 1
11.294490 -21.801665 -23.443217 33.947938 -1.092808 2.333065 0.054546 0.001264 -413301.000000 0 0 1
12.371190 -20.923765 -23.387417 33.731610 -1.036835 2.336908 0.049861 -0.006370 -647953.000000 0 0 1
12.641290 -20.600965 -21.892317 32.610972 -1.020418 2.306781 0.029035 0.004713 -104449.000000 0 0 1
11.652990 -19.880565 -21.191017 31.306361 -1.040623 2.314328 0.030369 0.008891 -171534.000000 0 0 1
11.295390 -18.513765 -21.599317 30.608427 -1.022978 2.354159 0.038080 0.004932 -84431.500000 0 0 1
12.356290 -17.399665 -21.391117 30.215991 -0.953294 2.357374 0.042361 -0.005111 -81680.600000 0 0 1
13.505690 -17.621065 -22.180017 31.382459 -0.916849 2.355711 0.033367 0.003552 -1105670.000000 0 0 1
14.341590 -16.572465 -21.941717 31.012364 -0.857437 2.356772 0.049257 -0.000596 -1076010.000000 0 0 1
15.617990 -16.550565 -22.747717 32.176100 -0.814380 2.356009 0.039525 0.004130 -735193.000000 0 0 1
16.783890 -17.078265 -22.164217 32.628493 -0.794091 2.317591 0.043216 0.005646 -314097.000000 0 0 1
17.808790 -16.978765 -23.104017 33.752437 -0.761543 2.324733 0.076497 -0.000883 860311.000000 0 0 1
19.250090 -17.316565 -22.496717 34.300607 -0.732571 2.286130 0.091084 -0.002702 1284240.000000 0 0 1
19.468090 -18.679265 -22.191817 34.934198 -0.764723 2.259124 0.083187 -0.006983 -744007.000000 0 0 1
20.750690 -18.861965 -21.712617 35.465512 -0.737754 2.229659 0.056316 -0.008229 -712789.000000 0 0 1
21.148490 -20.339365 -21.337017 36.279700 -0.765898 2.199535 0.086130 -0.010713 -165718.000000 0 0 1
20.617990 -20.908465 -20.141217 35.608061 -0.792393 2.172001 0.077714 -0.001771 295093.000000 0 0 1
21.026190 -22.271265 -20.092717 36.630959 -0.814147 2.151386 0.095940 -0.008842 -117021.000000 0 0 1
-17.030968 13.116231 29.117658 36.192919 -0.656267 0.635942 0.068793 -0.026453 -634248.000000 0 0 1
-18.313068 13.382531 28.621608 36.519270 -0.631076 0.670132 0.073839 -0.031870 -286366.000000 0 0 1
-18.222368 13.405131 27.197128 35.375641 -0.634248 0.693819 0.074998 -0.035577 88833.500000 0 0 1
-19.387968 14.118031 26.470118 35.719452 -0.629393 0.736154 0.084803 -0.028279 64302.200000 0 0 1
-19.479768 15.498631 26.745848 36.537779 -0.672069 0.749536 0.100546 -0.030979 342132.000000 0 0 1
-20.353468 16.103531 25.771848 36.575614 -0.669348 0.788911 0.110576 -0.034018 -291812.000000 0 0 1
-20.474268 17.633331 25.816888 37.371670 -0.710985 0.808181 0.109379 -0.018023 946417.000000 0 0 1
-19.305668 18.319531 25.324538 36.737532 -0.759195 0.810223 0.057233 -0.007076 518373.000000 0 0 1
-18.128468 18.246131 26.072378 36.624193 -0.788633 0.778611 0.056338 0.002788 334981.000000 0 0 1
-16.973568 19.189831 25.466758 36.123502 -0.846606 0.788385 0.057513 -0.003152 874206.000000 0 0 1
-17.157568 20.617331 25.767288 37.194215 -0.876732 0.805464 0.070571 -0.004185 239310.000000 0 0 1
-16.095668 21.379731 25.203118 36.760857 -0.925476 0.815373 0.082186 -0.008986 257085.000000 0 0 1
-16.273068 22.938231 25.139018 37.721949 -0.953770 0.841387 0.091899 -0.016067 -93917.600000 0 0 1
-16.041268 23.606031 26.386508 38.869201 -0.973934 0.824596 0.091702 -0.008862 5243.940000 0 0 1
-16.212568 25.018231 26.233108 39.710643 -0.995807 0.849170 0.094449 -0.010152 -257002.000000 0 0 1
-15.517068 25.856931 27.279668 40.663750 -1.030294 0.835429 0.069696 -0.006558 338585.000000 0 0 1
-14.114368 26.031831 27.109118 40.146929 -1.073964 0.829496 0.067059 -0.009350 255913.000000 0 0 1
-13.604168 26.927331 28.106078 41.232344 -1.102983 0.820779 0.081187 -0.007081 1440690.000000 0 0 1
-12.029268 27.054631 28.016088 40.762207 -1.152418 0.813023 0.080356 -0.013982 1414630.000000 0 0 1
-11.423168 27.756531 26.924868 40.321983 -1.180374 0.839619 0.055516 -0.013424 -459746.000000 0 0 1
-10.040268 27.585731 27.003798 39.887149 -1.221734 0.827111 0.051303 -0.000818 -440488.000000 0 0 1
-9.227668 28.292531 25.838838 39.411454 -1.255523 0.855796 0.057980 -0.010842 937165.000000 0 0 1
-7.833368 27.936531 25.973208 38.941224 -1.297418 0.840642 0.051069 -0.004364 722591.000000 0 0 1
-7.179168 28.485231 24.861318 38.484204 -1.323907 0.868446 0.070868 -0.010328 -368172.000000 0 0 1
-5.651968 28.327231 24.826318 38.088356 -1.373858 0.860830 0.073633 -0.017730 -44979.100000 0 0 1
-4.983768 29.284331 25.669118 39.259567 -1.402226 0.858160 0.089126 -0.017708 1020300.000000 0 0 1
-3.553568 29.294131 25.578518 39.051691 -1.450080 0.856625 0.077662 -0.018798 817048.000000 0 0 1
-2.842168 30.172231 24.570358 39.014663 -1.476875 0.889536 0.083516 -0.022509 -598152.000000 0 0 1
-2.793268 29.447631 23.331658 37.674018 -1.476224 0.902941 0.084576 -0.019430 -72983.200000 0 0 1
-2.198568 30.223931 22.319888 37.636380 -1.498182 0.935967 0.090815 -0.021716 -265028.000000 0 0 1
-2.627268 29.678531 20.933088 36.413074 -1.482502 0.958341 0.077864 -0.019955 392122.000000 0 0 1
-3.995268 29.698331 20.546588 36.333391 -1.437071 0.969755 0.075692 -0.018230 317594.000000 0 0 1
-4.759268 28.614831 21.115088 35.879049 -1.405983 0.941585 0.067479 -0.017919 -225629.000000 0 0 1
-6.270168 28.680131 20.838788 36.001667 -1.355559 0.953505 0.066360 -0.021839 2694.250000 0 0 1
-6.708768 28.702931 19.473288 35.328102 -1.341187 0.986980 0.054851 -0.021399 -137283.000000 0 0 1
-7.513768 27.603731 19.106488 34.401752 -1.305034 0.981961 0.047055 -0.023305 -1040050.000000 0 0 1
-6.893168 26.192031 18.841388 32.992971 -1.313454 0.962984 0.042549 -0.019117 337504.000000 0 0 1
-5.983568 26.049031 17.731088 32.074080 -1.345009 0.985056 0.040956 -0.023169 730671.000000 0 0 1
-4.727168 26.692431 17.962988 32.519239 -1.395516 0.985579 0.049516 -0.015916 -170822.000000 0 0 1
-3.934468 26.791031 16.621188 31.772681 -1.424981 1.020279 0.033726 -0.017883 62494.900000 0 0 1
-3.407868 25.551331 16.139588 30.413326 -1.438205 1.011400 0.042312 -0.019657 -145057.000000 0 0 1
-2.785368 25.871631 14.921888 29.996038 -1.463548 1.050126 0.052890 -0.032375 -284969.000000 0 0 1
-2.096268 24.666831 14.235188 28.556741 -1.486017 1.048943 0.052173 -0.029207 -776919.000000 0 0 1
-0.986768 24.246331 14.947988 28.500888 -1.530121 1.018699 0.049452 -0.025571 -1064430.000000 0 0 1
-0.329868 23.282331 14.219888 27.283346 -1.556629 1.022548 0.046669 -0.034249 -343195.000000 0 0 1
0.858432 22.683931 15.034988 27.227716 1.532971 0.985802 0.041078 -0.026591 777405.000000 0 0 1
1.983532 23.565131 14.936988 27.970760 1.486822 1.007446 0.050667 -0.037207 714509.000000 0 0 1
3.211132 22.994831 15.402088 27.862124 1.432048 0.985080 0.051761 -0.034370 1273550.000000 0 0 1
4.383832 24.044931 15.528688 28.957155 1.390459 1.004791 0.078868 -0.043822 981975.000000 0 0 1
5.661132 23.435231 15.589088 28.710245 1.333772 0.996815 0.094336 -0.043183 472115.000000 0 0 1
6.761032 24.331631 15.577588 29.671553 1.299764 1.018080 0.113810 -0.049729 -32064.800000 0 0 1
8.171932 23.738531 15.635088 29.576246 1.239255 1.013803 0.125775 -0.046636 88728.800000 0 0 1
8.730632 23.210131 14.417488 28.684457 1.211012 1.044165 0.111392 -0.037547 -199744.000000 0 0 1
9.394232 24.154431 13.683888 29.307626 1.199875 1.085008 0.124325 -0.040464 -1116080.000000 0 0 1
9.995332 23.515931 12.475188 28.434767 1.168887 1.116611 0.102718 -0.031415 -27849.400000 0 0 1
11.125232 22.709831 12.788788 28.338319 1.115272 1.102586 0.105046 -0.031156 226192.000000 0 0 1
11.635832 22.040631 11.608488 27.494345 1.085058 1.134910 0.096914 -0.030899 1264860.000000 0 0 1
13.019432 21.262031 11.818688 27.590958 1.021358 1.128126 0.113162 -0.035002 1411650.000000 0 0 1
12.935032 20.137631 12.641888 27.067630 0.999831 1.084847 0.106068 -0.029178 -773701.000000 0 0 1
14.193132 19.568131 12.682688 27.298486 0.943279 1.087621 0.092517 -0.031020 -651006.000000 0 0 1
14.327032 18.603031 13.896288 27.284491 0.914527 1.036412 0.096052 -0.034153 223379.000000 0 0 1
15.694832 18.236531 14.065588 27.870048 0.860166 1.041780 0.095643 -0.036270 617034.000000 0 0 1
15.897732 17.712331 15.387788 28.341641 0.839336 0.996863 0.086473 -0.036218 -568267.000000 0 0 1
17.339032 17.233131 15.415588 28.900920 0.782335 1.008188 0.070737 -0.034520 -716784.000000 0 0 1
17.760132 16.744831 16.675788 29.561691 0.755982 0.971452 0.074718 -0.039058 612826.000000 0 0 1
18.956932 15.968531 16.524288 29.789451 0.700041 0.982791 0.074851 -0.043005 542265.000000 0 0 1
19.594732 15.412431 17.829988 30.649715 0.666492 0.949937 0.083772 -0.043996 -7649.190000 0 0 1
20.115632 16.384431 18.752788 32.011800 0.683528 0.944919 0.095202 -0.041474 381552.000000 0 0 1
19.165132 17.245131 19.347088 32.233626 0.732715 0.927027 0.087252 -0.032603 -270932.000000 0 0 1
19.786532 18.381931 20.183288 33.715981 0.748615 0.929011 0.079628 -0.032281 -815891.000000 0 0 1
18.843832 19.165831 20.804688 33.989030 0.793869 0.912083 0.094991 -0.036388 -486888.000000 0 0 1
19.412932 20.221431 21.578888 35.375368 0.805794 0.914739 0.104603 -0.029639 -85355.300000 0 0 1
18.440332 21.248631 22.180588 35.826368 0.856038 0.903183 0.111512 -0.029759 501820.000000 0 0 1
17.606732 20.803631 23.299278 35.855884 0.868437 0.863470 0.103270 -0.025311 575932.000000 0 0 1
16.873432 21.845531 23.878598 36.498320 0.913114 0.857621 0.095859 -0.033500 6852.670000 0 0 1
16.121732 21.377231 25.181848 36.756248 0.924642 0.816050 0.103311 -0.032095 733643.000000 0 0 1
14.921532 20.658031 24.927518 35.648107 0.945253 0.796426 0.098455 -0.026669 150450.000000 0 0 1
14.100032 20.465631 26.077258 36.023275 0.967517 0.761357 0.079356 -0.020415 362610.000000 0 0 1
12.907832 19.543731 25.754848 34.812092 0.987104 0.737986 0.076140 -0.016325 -80351.000000 0 0 1
13.295932 18.157531 25.630048 34.108315 0.938749 0.720568 0.092618 -0.021165 69858.100000 0 0 1
14.046732 17.662731 24.536108 33.336217 0.898943 0.743625 0.106853 -0.025392 -462615.000000 0 0 1
13.343332 17.529031 23.254458 32.032503 0.920157 0.758361 0.111082 -0.024249 -1266720.000000 0 0 1
13.135532 18.694131 22.502188 32.068072 0.958290 0.793015 0.096375 -0.026237 556591.000000 0 0 1
14.282032 19.261831 21.818788 32.419965 0.932778 0.832533 0.109078 -0.028568 900564.000000 0 0 1
14.993532 18.312131 20.840588 31.535223 0.884711 0.848823 0.117919 -0.034868 -406364.000000 0 0 1
14.080832 18.002931 19.807988 30.244533 0.907040 0.856709 0.104201 -0.027643 194943.000000 0 0 1
14.525932 16.968531 18.950288 29.292442 0.862800 0.867239 0.085567 -0.025308 215379.000000 0 0 1
13.353132 16.321331 18.152288 27.824406 0.885092 0.860066 0.078814 -0.021937 309647.000000 0 0 1
12.849332 17.220131 17.135488 27.482052 0.929744 0.897565 0.100980 -0.027303 575022.000000 0 0 1
11.746832 16.568631 16.475688 26.152551 0.954069 0.889264 0.076315 -0.028417 720643.000000 0 0 1
11.188532 17.314731 15.197388 25.611399 0.997107 0.935540 0.082200 -0.022005 -111055.000000 0 0 1
10.540232 18.521731 15.473588 26.335963 1.053427 0.942774 0.085311 -0.027072 -83921.900000 0 0 1
10.072332 19.047931 14.246588 25.831005 1.084384 0.986598 0.076642 -0.013410 -121263.000000 0 0 1
8.837032 19.974031 14.374588 26.147349 1.154259 0.988728 0.082406 -0.016302 291644.000000 0 0 1
7.711032 19.235631 14.843088 25.490916 1.189538 0.949255 0.062466 -0.012735 -148382.000000 0 0 1
6.675932 20.146431 15.140788 26.070869 1.250813 0.951140 0.070582 -0.023790 36592.600000 0 0 1
5.422832 19.548531 15.819988 25.725944 1.300197 0.908483 0.060921 -0.030038 -808802.000000 0 0 1
4.493232 19.050231 14.962588 24.636954 1.339167 0.918110 0.057827 -0.026115 -1120630.000000 0 1 0
3.324932 18.847931 15.730788 24.774127 1.396184 0.882829 0.055567 -0.024847 -721004.000000 0 1 0
2.150232 18.366831 14.943688 23.775571 1.454255 0.891133 0.049636 -0.022165 -696509.000000 0 1 0
1.594032 19.305031 14.000488 23.900603 1.488412 0.944955 0.044372 -0.023494 -515136.000000 0 1 0
0.571432 18.704931 13.280188 22.946991 1.540256 0.953622 0.037534 -0.027274 -788983.000000 0 1 0
-0.218968 19.719631 12.539388 23.369811 -1.559693 1.004437 0.040847 -0.032321 -719910.000000 0 1 0
-1.360468 20.279631 13.107288 24.185023 -1.503811 0.998030 0.054004 -0.028605 -404583.000000 0 1 0
-2.314168 20.575131 12.093488 23.977987 -1.458793 1.042158 0.058631 -0.037855 216319.000000 0 1 0
-3.560168 21.267731 12.679888 25.015410 -1.404937 1.039231 0.050954 -0.035551 -211781.000000 0 0 1
-4.388368 20.421331 13.425788 24.830230 -1.359124 0.999523 0.053137 -0.033427 -73289.100000 0 1 0
-5.537068 21.182031 13.795388 25.877602 -1.315114 1.008534 0.051683 -0.024418 343688.000000 0 0 1
-6.330368 20.569631 14.985988 26.225238 -1.272242 0.962544 0.042637 -0.026750 -777792.000000 0 0 1
-7.301568 19.565831 14.729788 25.555847 -1.213623 0.956509 0.040266 -0.023959 332650.000000 0 0 1
-8.081868 19.177531 15.843688 26.155625 -1.171959 0.920092 0.030098 -0.009800 3255.750000 0 0 1
-9.009768 20.298931 16.451688 27.638389 -1.153065 0.933222 0.025146 0.002489 -639427.000000 0 0 1
-10.261968 20.553031 15.870688 27.921565 -1.107715 0.966233 0.015362 -0.009766 -419432.000000 0 0 1
-11.223168 19.691731 16.428288 27.993078 -1.052771 0.943609 0.003931 0.001419 133696.000000 0 0 1
-12.469368 19.516331 15.464788 27.848375 -1.002250 0.982047 0.016780 -0.012123 422290.000000 0 0 1
-13.337468 20.587431 15.277488 28.898651 -0.995937 1.013778 0.012537 -0.007822 -412248.000000 0 0 1
-14.230368 20.302831 14.247788 28.595590 -0.959463 1.049216 0.013151 -0.013561 -206691.000000 0 0 1
-15.215468 21.494331 13.995988 29.822884 -0.954799 1.082294 0.017811 -0.021492 49824.200000 0 0 1
-16.394468 21.363831 14.767788 30.712854 -0.916256 1.069191 0.020441 -0.024146 -78371.800000 0 0 1
-17.264268 22.454531 14.488388 31.814687 -0.915337 1.097976 0.050442 -0.025889 -816201.000000 0 0 1
-18.555768 22.372531 15.251688 32.824696 -0.878384 1.087568 0.098189 -0.027867 -1689860.000000 0 0 1
-19.345768 21.339831 14.741088 32.356557 -0.834371 1.097770 0.096334 -0.032665 321438.000000 0 0 1
-20.488868 21.012431 15.554188 33.215188 -0.798013 1.083447 0.107130 -0.033078 1432770.000000 0 0 1
-21.687768 22.046931 15.593188 34.634866 -0.793610 1.103789 0.103619 -0.034879 -296536.000000 0 0 1
-22.378468 22.130031 14.365588 34.596304 -0.779816 1.142595 0.111699 -0.028332 436166.000000 0 0 1
-23.365768 23.160331 14.291988 35.869499 -0.780983 1.160977 0.124818 -0.035661 366200.000000 0 0 1
-22.841168 24.477231 13.680688 36.166490 -0.819960 1.182870 0.112927 -0.029613 386467.000000 0 0 1
-21.759668 25.089831 14.407688 36.201716 -0.856361 1.161479 0.084705 -0.027834 414600.000000 0 0 1
-21.339468 26.229231 13.754288 36.503779 -0.887832 1.184467 0.076109 -0.027520 -407149.000000 0 0 1
-19.861568 26.565131 13.985788 35.997088 -0.928797 1.171765 0.064744 -0.025784 29773.400000 0 0 1
-18.956268 26.034331 13.023588 34.738168 -0.941442 1.186500 0.061323 -0.020679 -474717.000000 0 0 1
-17.638868 26.337831 13.350888 34.395599 -0.980686 1.172166 0.012595 -0.023057 -650610.000000 0 0 1
-16.619568 25.784731 12.314488 33.056149 -0.998261 1.189060 0.019877 -0.023282 498066.000000 0 0 1
-15.331268 26.339631 12.619088 32.985835 -1.043672 1.178230 0.019212 -0.030925 433123.000000 0 0 1
-14.388968 25.950031 11.646288 31.876050 -1.064514 1.196775 0.017952 -0.028828 380849.000000 0 0 1
-12.950068 26.523131 11.816488 31.793240 -1.116588 1.189993 0.025720 -0.023918 468227.000000 0 0 1
-11.898668 25.715731 11.238588 30.482503 -1.137431 1.193197 0.022344 -0.023227 1368460.000000 0 0 1
-10.564768 25.971131 11.698688 30.380475 -1.184451 1.175510 0.056119 -0.028065 852930.000000 0 0 1
-9.978668 27.305731 11.137788 31.132412 -1.220431 1.204933 0.063515 -0.036744 -1032220.000000 0 0 1
-8.852268 27.784631 11.819688 31.465114 -1.262361 1.185705 0.095956 -0.045973 -82476.700000 0 0 1
-8.408068 29.008631 11.209488 32.215662 -1.288680 1.215411 0.106817 -0.048145 204663.000000 0 0 1
-7.083668 29.546631 11.824688 32.603758 -1.335492 1.199656 0.105666 -0.048623 953318.000000 0 0 1
-5.910868 28.817131 11.413788 31.553763 -1.368486 1.200679 0.116465 -0.045900 622881.000000 0 0 1
-4.816068 29.136931 12.282788 31.984717 -1.406987 1.176650 0.115391 -0.046235 572993.000000 0 0 1
-3.469168 28.728831 11.623088 31.184564 -1.450623 1.188859 0.104727 -0.050889 44141.000000 0 0 1
-3.090268 29.385231 10.445088 31.339136 -1.466017 1.231003 0.140353 -0.057018 -194281.000000 0 0 1
-1.780668 29.219531 9.973588 30.926109 -1.509931 1.242430 0.130522 -0.049136 52037.200000 0 0 1
-1.449968 30.119631 8.749888 31.398330 -1.522693 1.288384 0.130768 -0.049056 283176.000000 0 0 1
-2.051868 29.621931 7.549688 30.637669 -1.501638 1.321813 0.160803 -0.043742 46050.900000 0 0 1
-2.016768 30.507431 6.437088 31.244308 -1.504785 1.363286 0.159247 -0.040310 59807.600000 0 0 1
11.721032 33.791231 -25.752707 44.073028 1.236916 2.194837 0.185772 -0.067618 -468326.000000 0 0 1
12.463332 -33.509765 -24.627417 43.413692 -1.214719 2.173987 0.173259 -0.062558 86418.400000 0 0 1
13.607032 -32.771365 -25.007917 43.410939 -1.177246 2.184714 0.164286 -0.058795 35955.800000 0 0 1
14.615932 -32.705665 -23.834217 43.027385 -1.150529 2.157875 0.147666 -0.047854 -584506.000000 0 0 1
13.966732 -32.073165 -22.730817 41.718672 -1.160095 2.147018 0.162826 -0.052445 630420.000000 0 0 1
14.695132 -31.879165 -21.509917 41.169219 -1.138863 2.120548 0.131418 -0.041745 104804.000000 0 0 1
16.150532 -31.352565 -21.517017 41.313497 -1.095121 2.118611 0.101140 -0.026314 359076.000000 0 0 1
17.140932 -32.356565 -21.712817 42.570004 -1.083632 2.106039 0.107959 -0.028602 619317.000000 0 0 1
18.466932 -31.901465 -21.416217 42.630803 -1.046055 2.097128 0.089484 -0.024854 362333.000000 0 0 1
19.430032 -33.093265 -21.674117 44.073322 -1.039894 2.084922 0.058601 -0.015056 290615.000000 0 0 1
20.793532 -32.850965 -21.300517 44.331353 -1.006489 2.072003 0.037282 0.004289 868130.000000 0 0 1
21.469732 33.573031 -21.361217 45.215035 1.001843 2.062849 0.026246 0.008811 796910.000000 0 0 1
23.032832 33.634931 -21.196117 45.946657 0.970352 2.050279 0.021423 0.019522 1139980.000000 0 0 1
23.775132 -33.576965 -22.330217 46.811410 -0.954669 2.068063 0.006714 0.023374 315175.000000 0 0 1
25.169232 -33.767365 -22.249117 47.631380 -0.930264 2.056816 -0.003070 0.026563 321179.000000 0 0 1
26.000032 -33.089765 -23.392617 48.147157 -0.904810 2.078139 0.016153 0.017245 111582.000000 0 0 1
26.083832 -31.665165 -23.576417 47.316978 -0.881747 2.092393 0.017787 0.020280 112818.000000 0 0 1
24.844432 -31.079965 -23.935817 46.434183 -0.896439 2.112362 0.000452 0.017794 187336.000000 0 0 1
24.673832 -29.533865 -23.584117 45.135992 -0.874815 2.120591 0.014754 0.004766 -236588.000000 0 0 1
25.516732 -28.758465 -24.421517 45.547375 -0.845055 2.136699 0.031878 -0.001890 35279.300000 0 0 1
25.397332 -27.432065 -24.104417 44.481070 -0.823894 2.143496 0.053059 0.001026 137151.000000 0 0 1
25.909532 -26.408765 -25.128987 44.723514 -0.794940 2.167446 0.057401 -0.004135 228425.000000 0 0 1
25.042332 -26.290965 -26.251967 44.805122 -0.809717 2.196804 0.052343 -0.009581 -155389.000000 0 0 1
25.668832 -25.531165 -27.283077 45.333162 -0.782709 2.216593 0.057421 -0.014548 -573442.000000 0 0 1
24.824032 -25.219365 -28.505957 45.440494 -0.793298 2.248910 0.061793 -0.016415 204965.000000 0 0 1
23.987832 -24.070165 -28.477827 44.337067 -0.787111 2.268295 0.092918 -0.024342 107955.000000 0 0 1
22.816532 -24.139465 -27.688637 43.243133 -0.813565 2.265687 0.059822 -0.020126 -337259.000000 0 0 1
22.067332 -22.821465 -27.619477 42.078758 -0.802197 2.286801 0.067435 -0.017163 -334231.000000 0 0 1
21.698232 -22.162665 -28.834857 42.349096 -0.795987 2.319766 0.099781 -0.027771 479216.000000 0 0 1
21.113232 -20.866965 -28.509707 41.158258 -0.779532 2.336001 0.086042 -0.009001 -913360.000000 0 0 1
20.118332 -20.364765 -29.486877 41.096798 -0.791485 2.371000 0.087264 -0.027393 -233090.000000 0 0 1
18.958732 -21.202265 -29.457807 40.947917 -0.841204 2.373730 0.072847 -0.031622 205528.000000 0 0 1
17.799832 -20.614465 -30.001647 40.520230 -0.858538 2.404479 0.058321 -0.035383 -418739.000000 0 0 1
16.678032 -21.640765 -29.978927 40.561256 -0.914193 2.402533 0.050922 -0.034227 -710584.000000 0 0 1
16.876432 -22.728365 -30.815797 41.845022 -0.932095 2.398570 0.053188 -0.024617 44446.300000 0 0 1
15.956032 -23.734165 -30.400317 41.738289 -0.978917 2.386715 0.064887 -0.029614 50217.100000 0 0 1
16.294732 -25.189165 -30.865117 43.042627 -0.996607 2.370404 0.093055 -0.033563 31506.300000 0 0 1
15.335832 -26.152965 -30.447767 42.967800 -1.040444 2.358334 0.098434 -0.027339 30860.800000 0 0 1
15.618932 -27.439865 -30.939077 44.205471 -1.053327 2.346043 0.132493 -0.031932 222962.000000 0 0 1
14.820132 -28.545265 -30.166367 44.096237 -1.091923 2.324169 0.135230 -0.033314 82277.000000 0 0 1
15.253832 -28.731265 -28.807907 43.451818 -1.082724 2.295595 0.151333 -0.046711 -17823.400000 0 0 1
14.992632 -27.653665 -27.896387 42.044174 -1.073994 2.296286 0.124737 -0.038272 -375305.000000 0 0 1
15.868832 -27.777265 -26.646587 41.634563 -1.051756 2.265309 0.101724 -0.022019 -430644.000000 0 0 1
15.595332 -28.876665 -25.784957 41.736557 -1.075611 2.236742 0.120106 -0.032125 373495.000000 0 0 1
16.478632 -28.890665 -24.651217 41.399255 -1.052442 2.208623 0.120967 -0.039777 -659532.000000 0 0 1
16.068732 -27.950465 -23.518917 39.907043 -1.049037 2.201041 0.104451 -0.030914 869898.000000 0 0 1
14.908932 -28.195765 -22.696917 39.146232 -1.084402 2.189277 0.106480 -0.033885 735283.000000 0 0 1
13.702332 -28.232365 -23.431817 39.164657 -1.118944 2.212161 0.115350 -0.030089 -2082120.000000 0 0 1
12.474132 -28.000365 -22.647717 38.112249 -1.151692 2.207113 0.087212 -0.020220 -1377430.000000 0 0 1
12.277332 -26.724165 -22.083417 36.777591 -1.140145 2.214871 0.070708 -0.015444 472890.000000 0 0 1
11.027432 -26.579865 -21.410717 35.867984 -1.177529 2.210467 0.061462 -0.012874 3799.530000 0 0 1
10.683232 -25.105665 -21.047817 34.459200 -1.168476 2.227872 0.053959 -0.006925 7849.490000 0 0 1
11.431532 -24.484565 -20.001517 33.618961 -1.133988 2.207997 0.051549 -0.010487 127592.000000 0 0 1
10.983732 -23.168365 -19.893817 32.452726 -1.128096 2.230660 0.052159 -0.012136 -110371.000000 0 0 1
11.376232 -22.434665 -18.564217 31.262805 -1.101499 2.206584 0.048721 -0.018490 -159256.000000 0 0 1
10.692832 -22.992065 -17.477817 30.796847 -1.135484 2.174287 0.071243 -0.023824 -12500.400000 0 0 1
10.856232 -22.343465 -16.248417 29.683316 -1.118509 2.150041 0.062977 -0.019568 -71357.300000 0 0 1
9.951832 -22.947765 -15.139417 29.237661 -1.161602 2.115080 0.066652 -0.019741 143927.000000 0 0 1
10.410232 -24.210165 -14.672417 30.162640 -1.164703 2.078811 0.070466 -0.020986 42016.000000 0 0 1
9.793332 -24.610665 -13.466217 29.714192 -1.192075 2.041139 0.082920 -0.025522 -52591.200000 0 0 1
9.994632 -26.145265 -13.319617 30.998060 -1.205665 2.014948 0.088589 -0.027783 271322.000000 0 0 1
11.339832 -26.360065 -12.931217 31.474771 -1.164538 1.994176 0.065950 -0.022709 -131324.000000 0 0 1
11.652732 -27.711265 -12.941717 32.729015 -1.172739 1.977322 0.076977 -0.020685 -284046.000000 0 0 1
13.110332 -27.893265 -12.397117 33.220529 -1.131421 1.953227 0.051079 -0.020021 583625.000000 0 0 1
14.160032 -27.216765 -13.108217 33.362916 -1.091066 1.974577 0.056662 -0.016139 308924.000000 0 0 1
14.365732 -27.652165 -14.440817 34.344631 -1.091658 2.004757 0.060215 -0.017268 -497163.000000 0 0 1
15.736032 -27.065165 -14.920817 34.681070 -1.044156 2.015543 0.065029 -0.012553 -289810.000000 0 0 1
16.830532 -27.769965 -14.469817 35.550153 -1.025926 1.989991 0.096908 -0.011113 -826824.000000 0 0 1
17.945132 -27.294365 -15.222617 36.038010 -0.989190 2.006893 0.128522 -0.011080 221797.000000 0 0 1
19.220132 -28.121765 -14.978817 37.210376 -0.971257 1.985091 0.134327 -0.018242 89084.400000 0 0 1
19.258032 -29.318265 -15.790917 38.467980 -0.989613 1.993793 0.113993 -0.012634 760548.000000 0 0 1
20.581432 -29.874165 -15.661717 39.513927 -0.967534 1.978344 0.116733 -0.012844 1261780.000000 0 0 1
21.038832 -30.858165 -16.827817 40.963816 -0.972396 1.994124 0.093190 -0.018247 118222.000000 0 0 1
20.618632 -32.207665 -16.597817 41.688718 -1.001357 1.980281 0.091275 -0.012469 215086.000000 0 0 1
21.242932 -33.136665 -17.477217 43.066853 -1.000724 1.988668 0.084132 -0.010198 213180.000000 0 0 1
21.019432 33.089631 -17.045917 42.746971 1.004876 1.980964 0.064375 -0.008733 -342152.000000 0 0 1
21.893732 32.776931 -16.026717 42.550186 0.981898 1.956978 0.083118 -0.015639 -127581.000000 0 0 1
21.482232 31.582031 -15.462917 41.206951 0.973480 1.955463 0.082544 -0.023231 -701297.000000 0 0 1
22.394332 31.286131 -14.272317 41.036900 0.949551 1.926012 0.082707 -0.036769 -800452.000000 0 0 1
23.647732 30.877131 -14.750717 41.595626 0.917218 1.933306 0.073543 -0.025965 -155677.000000 0 0 1
24.465532 30.397731 -13.656317 41.341012 0.893107 1.907453 0.077852 -0.029409 275745.000000 0 0 1
24.100632 29.047631 -12.954617 39.905231 0.878210 1.901422 0.082126 -0.024488 -868022.000000 0 0 1
24.119432 27.883631 -13.732317 39.342349 0.857656 1.927350 0.085023 -0.015466 88643.000000 0 0 1
23.739132 26.696131 -13.003117 38.017244 0.843961 1.919875 0.038265 -0.016571 -155294.000000 0 0 1
22.218432 26.573631 -12.909617 36.965860 0.874423 1.927546 0.055433 -0.024168 -1362200.000000 0 0 1
21.529232 26.104931 -14.065517 36.644427 0.881164 1.964745 0.071142 -0.035619 1393760.000000 0 0 1
20.090632 26.124231 -13.862017 35.752824 0.915219 1.968951 0.086706 -0.035531 1178300.000000 0 0 1
19.371332 27.489231 -13.782817 36.343808 0.956931 1.959765 0.092530 -0.038573 -899067.000000 0 0 1
19.466832 28.305831 -14.900517 37.446001 0.968351 1.980045 0.086116 -0.036737 76735.100000 0 0 1
19.066332 27.794231 -16.172217 37.384287 0.969541 2.018164 0.075514 -0.027384 -215408.000000 0 0 1
19.227032 28.738631 -17.360517 38.690764 0.981159 2.036106 0.066497 -0.025048 232898.000000 0 0 1
18.250332 29.752431 -17.419017 39.009024 1.020577 2.033689 0.066300 -0.023021 257729.000000 0 0 1
18.700832 30.613531 -18.488117 40.357402 1.022424 2.046664 0.054080 -0.012308 666748.000000 0 0 1
17.596232 31.622531 -18.977317 40.862580 1.063018 2.053774 0.061471 -0.015853 444710.000000 0 0 1
17.342932 32.701831 -18.079217 41.195208 1.083176 2.025134 0.090681 -0.033439 121019.000000 0 0 1
16.412132 33.633831 -18.584617 41.784933 1.116823 2.031712 0.099299 -0.034867 9746.810000 0 0 1
16.024132 -32.905365 -17.624517 40.622155 -1.117622 2.019574 0.114017 -0.028179 596673.000000 0 0 1
14.896232 -32.102965 -18.019617 39.714036 -1.136349 2.041748 0.099139 -0.023432 512448.000000 0 0 1
14.673232 -31.049065 -17.077017 38.353262 -1.129323 2.032256 0.090674 -0.023483 199838.000000 0 0 1
13.375632 -30.242965 -17.325317 37.332440 -1.154387 2.053394 0.067865 -0.023956 192050.000000 0 0 1
12.214832 -31.032365 -17.462217 37.644904 -1.195806 2.053151 0.084891 -0.021773 1479270.000000 0 0 1
11.044032 -30.152165 -17.721417 36.676591 -1.219695 2.075080 0.073535 -0.014286 828181.000000 0 0 1
9.713932 -30.806765 -17.976917 36.967375 -1.265346 2.078637 0.073769 -0.019581 -3479920.000000 0 0 1
9.127332 -31.284865 -16.784817 36.657619 -1.286926 2.046406 0.076477 -0.022104 563817.000000 0 0 1
7.992132 -32.151765 -17.045917 37.258200 -1.327159 2.045987 0.086419 -0.016031 801163.000000 0 0 1
6.844932 -31.350765 -17.737017 36.665042 -1.355836 2.075740 0.087838 -0.010502 -2391310.000000 0 0 1
6.923832 -31.008265 -19.125717 37.084296 -1.351110 2.112663 0.080399 -0.000929 -333104.000000 0 0 1
6.906332 -32.140965 -19.981217 38.470613 -1.359138 2.116932 0.094185 -0.015195 -908179.000000 0 0 1
7.141532 -31.609065 -21.450217 38.861887 -1.348594 2.155510 0.092197 -0.002740 537793.000000 0 0 1
8.456232 -31.168965 -21.825917 38.979262 -1.305870 2.165106 0.097849 -0.016647 540170.000000 0 0 1
9.520432 -32.068465 -21.930317 39.999548 -1.282206 2.151083 0.107708 -0.028890 -166520.000000 0 0 1
9.426532 -33.153165 -23.057017 41.468276 -1.293774 2.160381 0.132720 -0.046817 -628501.000000 0 0 1
8.420632 33.569031 -22.806317 41.447738 1.325022 2.153451 0.153480 -0.054779 -195782.000000 0 0 1
8.230532 32.651331 -23.836817 41.255847 1.323867 2.186803 0.167688 -0.067042 199916.000000 0 0 1
7.067132 31.683031 -23.368017 39.997788 1.351332 2.194731 0.162217 -0.072628 704595.000000 0 0 1
5.758732 32.185031 -23.505217 40.268281 1.393744 2.194093 0.147417 -0.066324 -40397.900000 0 0 1
5.300232 32.874031 -22.386017 40.123910 1.410943 2.162676 0.110215 -0.053764 -424326.000000 0 0 1
4.095832 33.777631 -22.759517 40.935312 1.450127 2.160347 0.109645 -0.036483 1044470.000000 0 0 1
2.825732 33.095231 -22.759617 40.265112 1.485621 2.171525 0.095485 -0.047052 908572.000000 0 0 1
1.727432 -33.740765 -23.077517 40.914484 -1.519644 2.170070 0.093874 -0.037643 447976.000000 0 0 1
0.384032 33.286131 -22.628417 40.251202 1.559260 2.167816 0.080103 -0.041282 111250.000000 0 0 1
0.130732 33.376331 -21.244617 39.564255 1.566879 2.137632 0.062123 -0.036976 -437642.000000 0 0 1
-1.146968 32.900331 -20.899317 38.993958 -1.535949 2.136444 0.056600 -0.039679 137855.000000 0 0 1
-1.518268 33.289731 -19.419717 38.569894 -1.525220 2.098435 0.069025 -0.039613 251033.000000 0 0 1
-0.714068 32.579331 -18.492217 37.468451 -1.548882 2.086953 0.074610 -0.040447 19104.900000 0 0 1
-1.315468 32.642131 -17.232917 36.935249 -1.530518 2.056206 0.045657 -0.028730 -35579.200000 0 0 1
-0.642368 31.735231 -16.227717 35.649352 -1.550558 2.043397 0.042704 -0.019452 -49115.000000 0 0 1
0.711332 31.935731 -15.932917 35.696705 1.548526 2.033469 0.035393 -0.021845 -505018.000000 0 0 1
1.343132 30.755431 -15.480317 34.457811 1.527153 2.036727 0.049390 -0.021285 475612.000000 0 0 1
2.380832 31.061431 -14.348817 34.298242 1.494297 2.002429 0.064721 -0.027020 37795.900000 0 0 1
3.547132 31.675431 -14.823817 35.151965 1.459277 2.006123 0.066152 -0.031709 -368587.000000 0 0 1
4.368032 32.095731 -13.731817 35.182076 1.435533 1.971762 0.077006 -0.037904 -285101.000000 0 0 1
5.693832 32.638131 -14.269617 36.073387 1.398081 1.977487 0.077096 -0.047742 -93470.900000 0 0 1
6.515832 31.532831 -14.725017 35.406237 1.367028 1.999715 0.082859 -0.043172 -214539.000000 0 0 1
7.796832 32.064531 -14.975817 36.238099 1.332265 1.996829 0.077628 -0.037055 -333197.000000 0 0 1
8.872432 31.062031 -15.404717 35.789316 1.292569 2.015763 0.076830 -0.042334 -423947.000000 0 0 1
9.473232 30.699231 -14.220617 35.134184 1.271485 1.987503 0.074658 -0.045469 -547449.000000 0 0 1
10.396432 29.639331 -14.328717 34.523729 1.233440 1.998783 0.086787 -0.047994 231762.000000 0 0 1
9.733632 28.212231 -14.163117 33.034337 1.238570 2.013893 0.087739 -0.047074 -11415.100000 0 0 1
9.031932 27.692431 -15.255317 32.881168 1.255523 2.053249 0.091841 -0.052001 -174777.000000 0 0 1
8.544032 26.446331 -14.795717 31.485269 1.258310 2.060002 0.084082 -0.039183 -115260.000000 0 0 1
7.786932 25.645531 -15.878117 31.151953 1.276006 2.105631 0.088532 -0.034527 -161767.000000 0 0 1
8.643832 25.214931 -16.865017 31.542628 1.240545 2.134918 0.093879 -0.022722 -525441.000000 0 0 1
7.984032 24.265031 -17.662417 31.056360 1.252920 2.175747 0.081489 -0.016388 -202860.000000 0 0 1
8.906232 23.341931 -18.466817 31.067508 1.206291 2.207327 0.088740 -0.013492 -558910.000000 0 0 1
8.272132 22.320231 -19.192117 30.577087 1.215879 2.249344 0.098108 -0.021707 -266962.000000 0 0 1
9.191132 21.378031 -19.721017 30.502715 1.164754 2.273828 0.091624 -0.014798 -240263.000000 0 0 1
8.715232 20.481931 -20.870817 30.513206 1.168495 2.324019 0.075787 -0.025443 119944.000000 0 0 1
7.642032 19.590631 -20.555017 29.405819 1.198866 2.344811 0.087608 -0.022546 345901.000000 0 0 1
7.323432 18.708931 -21.571317 29.478441 1.197691 2.391706 0.086462 -0.020941 119932.000000 0 0 1
25.691232 -12.524869 -9.640817 30.163838 -0.453610 1.896120 0.112380 -0.021222 -42734.300000 0 0 1
26.065232 -11.536969 -8.661917 29.791388 -0.416699 1.865809 0.125212 -0.032695 998051.000000 0 0 1
25.026532 -11.438069 -7.673817 28.566487 -0.428691 1.842767 0.109783 -0.024502 20759.900000 0 0 1
25.488832 -10.858769 -6.352617 28.424447 -0.402735 1.796191 0.089184 -0.026697 -285184.000000 0 0 1
25.798732 -9.472069 -6.186717 28.170377 -0.351873 1.792219 0.111863 -0.041261 942189.000000 0 0 1
26.941232 -8.926669 -6.861317 29.199197 -0.319954 1.807997 0.092268 -0.044141 -654110.000000 0 0 1
27.313732 -7.556969 -6.300117 29.031693 -0.269921 1.789545 0.138163 -0.044650 -397241.000000 0 0 1
27.940232 -7.425969 -5.061017 29.349880 -0.259775 1.744100 0.127742 -0.053548 777141.000000 0 0 1
29.157232 -8.151769 -4.829817 30.658158 -0.272619 1.728993 0.127822 -0.057355 196182.000000 0 0 1
29.576632 -8.004569 -3.320517 30.820060 -0.264307 1.678745 0.146781 -0.064717 -140206.000000 0 0 1
29.927432 -6.736769 -2.834317 30.806957 -0.221413 1.662929 0.158412 -0.061881 130209.000000 0 0 1
30.528432 -6.836369 -1.591717 31.324985 -0.220300 1.621631 0.180837 -0.051564 -585765.000000 0 0 1
31.090932 -5.502769 -1.228817 31.598046 -0.175175 1.609695 0.171772 -0.060840 -960535.000000 0 0 1
30.183232 -4.483869 -0.937217 30.528855 -0.147476 1.601501 0.187760 -0.052566 -797832.000000 0 0 1
30.773032 -3.359969 -0.371617 30.958149 -0.108755 1.582800 0.177279 -0.048603 -379703.000000 0 0 1
31.431532 -3.366669 1.041083 31.628461 -0.106704 1.537874 0.170660 -0.047371 98683.200000 0 0 1
30.579632 -3.438469 2.192883 30.850376 -0.111973 1.499655 0.210132 -0.061365 226270.000000 0 0 1
31.162032 -2.984569 3.406283 31.489406 -0.095485 1.462412 0.178076 -0.048080 -27921.400000 0 0 1
30.636132 -3.881769 4.552083 31.214775 -0.126034 1.424443 0.197588 -0.047226 14666.300000 0 0 1
31.114132 -5.219469 4.433883 31.858930 -0.166205 1.431171 0.179570 -0.048418 115959.000000 0 0 1
31.129132 -5.840569 5.682683 32.178067 -0.185468 1.393264 0.176186 -0.041725 -345816.000000 0 0 1
31.929132 -7.127169 5.618283 33.193842 -0.219618 1.400721 0.157527 -0.040583 -635217.000000 0 0 1
33.284832 -6.935469 5.347483 34.417675 -0.205428 1.414794 0.162771 -0.053410 -697550.000000 0 0 1
33.894332 -8.192469 5.210183 35.257458 -0.237158 1.422478 0.162761 -0.044986 502950.000000 0 0 1
35.439932 -8.198469 5.435583 36.779740 -0.227335 1.422466 0.189920 -0.048625 855797.000000 0 0 1
36.241432 -7.918069 4.270983 37.341378 -0.215101 1.456169 0.203516 -0.055550 132253.000000 0 0 1
37.609332 -7.880569 4.602883 38.700798 -0.206549 1.451579 0.194506 -0.046619 7929.310000 0 0 1
-36.733025 -7.807569 3.392083 37.706491 0.209432 1.480714 0.203575 -0.045498 -159538.000000 0 0 1
-36.462725 -9.048469 2.795683 37.672549 0.243243 1.496518 0.239402 -0.059099 176060.000000 0 0 1
-35.483025 -8.897269 1.792583 36.625399 0.245682 1.521833 0.250127 -0.065710 -206901.000000 0 0 1
-35.141025 -10.234969 1.168883 36.619838 0.283414 1.538872 0.260176 -0.050577 78489.300000 0 0 1
-34.394625 -11.120969 2.018283 36.204139 0.312725 1.515020 0.251659 -0.046809 318800.000000 0 0 1
-34.209125 -12.380869 1.402983 36.407671 0.347252 1.532251 0.259983 -0.049417 -386974.000000 0 0 1
-33.362325 -13.402369 2.189083 36.020276 0.381990 1.509985 0.168116 -0.052391 1015630.000000 0 0 1
-32.007825 -13.097569 2.566283 34.678999 0.388411 1.496728 0.175640 -0.043046 898944.000000 0 0 1
-31.056125 -13.256269 1.547083 33.802441 0.403436 1.525012 0.201034 -0.029062 -781984.000000 0 0 1
-29.671425 -13.556269 2.129683 32.690999 0.428560 1.505604 0.196992 -0.026210 -364609.000000 0 0 1
-28.901825 -12.478169 2.629383 31.590091 0.407568 1.487465 0.175770 -0.037758 28361.100000 0 0 1
-27.613125 -12.953669 2.956783 30.643511 0.438634 1.474156 0.177494 -0.016208 -277156.000000 0 0 1
-26.935225 -11.983669 3.887883 29.736010 0.418610 1.439674 0.166436 -0.014254 -677176.000000 0 0 1
-25.695125 -12.439569 4.348083 28.877122 0.450865 1.419650 0.136576 -0.007563 -349582.000000 0 0 1
-25.009425 -11.376669 4.987583 27.924468 0.426917 1.391223 0.128138 0.001990 432869.000000 0 0 1
-23.540425 -11.730369 5.351383 26.840091 0.462293 1.370071 0.106702 0.011932 315642.000000 0 0 1
-23.404825 -12.784069 6.357883 27.416071 0.499933 1.336762 0.098569 0.002202 -529332.000000 0 0 1
-22.082125 -13.091769 6.704283 26.532284 0.535158 1.315343 0.068262 0.013118 -410423.000000 0 0 1
-21.711225 -12.602769 8.109683 26.381320 0.525937 1.258334 0.085336 -0.000070 -427838.000000 0 0 1
-21.598925 -11.225669 8.294083 25.716163 0.479309 1.242401 0.079907 0.000018 651488.000000 0 0 1
-22.817525 -10.590269 8.691383 26.614533 0.434541 1.238129 0.107859 0.000773 6407.390000 0 0 1
-23.219425 -10.616869 10.221683 27.501680 0.428859 1.189984 0.091576 0.012102 -1024390.000000 0 0 1
-23.523125 -11.886169 10.741283 28.460386 0.467876 1.183797 0.096561 -0.003235 253922.000000 0 0 1
-24.832525 -12.288969 10.410383 29.598127 0.459538 1.211384 0.094948 -0.006590 264180.000000 0 0 1
-26.062525 -11.577769 11.074483 30.593204 0.418046 1.200393 0.106718 0.002079 -415381.000000 0 0 1
-26.284325 -11.985069 12.399683 31.436599 0.427814 1.165344 0.107494 -0.008210 38116.000000 0 0 1
-27.484425 -11.497269 12.949383 32.484879 0.396199 1.160776 0.100517 -0.007313 -3289.260000 0 0 1
-27.833025 -12.242069 14.262683 33.585260 0.414373 1.132198 0.097216 -0.009304 -333805.000000 0 0 1
-27.961225 -13.625369 14.050083 34.130421 0.453432 1.146523 0.092233 -0.009897 339735.000000 0 0 1
-28.555125 -14.336769 15.103583 35.341991 0.465305 1.129231 0.114158 -0.010013 -180107.000000 0 0 1
-28.513725 -15.881469 14.827583 35.848442 0.508184 1.144371 0.101918 -0.012035 -222059.000000 0 0 1
-29.450325 -16.630469 15.527283 37.215463 0.514056 1.140405 0.096219 -0.001096 -269238.000000 0 0 1
-29.185425 -18.029869 15.345983 37.581437 0.553383 1.150162 0.080870 -0.006246 -44827.100000 0 0 1
-30.172325 -18.980869 16.059583 39.096711 0.561529 1.147503 0.061952 0.003421 -38261.500000 0 0 1
-30.133825 -18.845969 17.460383 39.599027 0.558893 1.114162 0.060598 0.007772 66646.600000 0 0 1
-30.556525 -20.020769 18.174283 40.802414 0.580025 1.109151 0.071416 0.003261 -173392.000000 0 0 1
-29.534025 -21.190969 18.261083 40.679024 0.622381 1.105255 0.048083 0.002491 -602882.000000 0 0 1
-28.391825 -20.731069 18.917883 39.921915 0.630693 1.077114 0.063086 0.002943 -81810.000000 0 0 1
-27.550825 -21.848169 19.271983 40.097379 0.670466 1.069424 0.058721 0.001386 -723492.000000 0 0 1
-26.161125 -21.464269 19.700083 39.156259 0.687095 1.043597 0.073372 0.001687 -1069280.000000 0 0 1
-25.344425 -21.061269 18.625883 37.852879 0.693361 1.056342 0.080421 -0.007702 290814.000000 0 0 1
-24.056825 -20.749169 19.150683 37.094575 0.711710 1.028311 0.087576 -0.008105 760040.000000 0 0 1
-22.820325 -20.663769 18.219483 35.773009 0.735845 1.036416 0.101006 -0.026171 317590.000000 0 0 1
-22.454725 -21.885269 17.594983 35.955015 0.772556 1.059439 0.096263 -0.024862 961160.000000 0 0 1
-21.076925 -21.905769 17.172183 34.913942 0.804679 1.056591 0.101858 -0.027311 935806.000000 0 0 1
-20.829625 -22.928269 16.008183 34.868908 0.833322 1.093819 0.102695 -0.017201 -512386.000000 0 0 1
-20.828825 -24.309569 16.299383 35.923043 0.862359 1.099849 0.105007 -0.021489 895381.000000 0 0 1
-19.748125 -24.882269 17.097183 36.075330 0.899932 1.077048 0.112495 -0.025480 1697890.000000 0 0 1
-18.278125 -24.856869 16.524183 35.000035 0.936747 1.079103 0.095866 -0.017956 564132.000000 0 0 1
-17.662025 -23.614469 16.666183 33.872584 0.928620 1.056381 0.097803 -0.027467 -43164.700000 0 0 1
-16.371925 -23.727369 16.068983 33.003639 0.966812 1.062276 0.097562 -0.030195 94612.700000 0 0 1
-15.618225 -22.389969 16.046883 31.666104 0.961713 1.039383 0.077754 -0.030082 -610296.000000 0 0 1
-15.933825 -21.321069 15.132083 30.617882 0.929008 1.053855 0.077097 -0.020338 -196795.000000 0 0 1
-17.068725 -20.595769 15.531883 30.931642 0.878770 1.044730 0.079231 -0.014320 -194438.000000 0 0 1
-16.732725 -19.271669 16.256083 30.259570 0.855799 1.003657 0.082325 -0.026963 116911.000000 0 0 1
-16.053125 -18.228369 15.467383 28.796114 0.848766 1.003760 0.066434 -0.022203 564302.000000 0 0 1
-15.865525 -17.014169 16.228783 28.364947 0.820319 0.961681 0.062442 -0.019647 -387238.000000 0 0 1
-15.154725 -15.872669 15.516883 26.877146 0.808533 0.955346 0.052677 -0.011878 -84746.200000 0 0 1
-15.912425 -15.212469 14.515983 26.369267 0.762913 0.987847 0.055919 -0.022674 132402.000000 0 0 1
-16.020425 -15.876169 13.259283 26.163244 0.780876 1.039339 0.074415 -0.023468 -376105.000000 0 0 1
-16.922725 -15.095569 12.307683 25.801820 0.728394 1.073549 0.062244 -0.014948 -513205.000000 0 0 1
-18.283225 -15.448369 12.405283 26.959590 0.701554 1.092639 0.054530 -0.014569 -48735.400000 0 0 1
-19.080625 -14.541469 11.637483 26.663751 0.651204 1.119143 0.080250 -0.021434 17305.500000 0 0 1
-20.599325 -14.750069 11.793383 27.946030 0.621414 1.135140 0.084655 -0.027278 76174.700000 0 0 1
-21.261825 -15.847869 11.201083 28.786879 0.640530 1.171138 0.096374 -0.034735 188979.000000 0 0 1
-21.443125 -15.898369 9.810583 28.439643 0.637987 1.218599 0.098899 -0.026347 -176302.000000 0 0 1
-22.129325 -17.224069 9.368583 29.565959 0.661391 1.248368 0.099210 -0.016610 351380.000000 0 0 1
-21.294125 -18.379869 9.474583 29.682100 0.712075 1.245909 0.097387 -0.004381 2268.600000 0 0 1
-21.948325 -19.531969 8.983183 30.723352 0.727211 1.274072 0.121525 -0.029729 -57994.900000 0 0 1
-21.143825 -20.842869 8.965483 31.013971 0.778230 1.277532 0.114093 -0.020214 -348419.000000 0 0 1
-20.050225 -20.837169 8.085983 30.026359 0.804642 1.298134 0.134098 -0.022534 -415612.000000 0 0 1
-19.611025 -22.185869 8.062283 30.688850 0.846924 1.304966 0.111532 -0.025396 -162902.000000 0 0 1
-18.244825 -22.363369 7.336583 29.779513 0.886474 1.321870 0.093887 -0.027955 -236206.000000 0 0 1
-17.251025 -21.841169 8.183683 29.010467 0.902281 1.284820 0.066123 -0.026652 -853200.000000 0 0 1
-16.019825 -22.136469 7.588183 28.359100 0.944351 1.299921 0.084234 -0.022124 -59876.600000 0 0 1
-14.763425 -21.834869 8.502983 27.695143 0.976264 1.258735 0.024581 -0.006553 206422.000000 0 0 1
-13.670125 -22.446269 7.886383 27.439066 1.023774 1.279270 0.044890 -0.000796 629490.000000 0 0 1
-12.403325 -22.037569 8.504283 26.679950 1.058159 1.246384 0.041464 -0.003811 2116310.000000 0 0 1
-11.172125 -22.512669 7.636883 26.267064 1.110146 1.275796 0.047630 -0.006380 588910.000000 0 0 1
-10.967425 -23.931869 7.695083 27.426868 1.141081 1.286411 0.049576 -0.005813 173410.000000 0 0 1
-9.788725 -24.350369 6.998583 27.161365 1.188571 1.310190 0.082579 -0.014085 562955.000000 0 0 1
-9.494725 -25.843639 7.027083 28.415196 1.218713 1.320903 0.100028 -0.016501 38109.000000 0 0 1
-10.441025 -26.718969 6.410483 29.394091 1.198270 1.350942 0.096376 -0.014060 -13939.800000 0 0 1
-10.070725 -28.089049 6.536083 30.547251 1.226544 1.355163 0.112182 -0.019140 -167108.000000 0 0 1
-9.159725 -28.629599 5.447583 30.548824 1.261149 1.391514 0.133961 -0.024496 -205765.000000 0 0 1
-7.817725 -28.145289 5.545883 29.732658 1.299863 1.383172 0.140786 -0.026414 1199610.000000 0 0 1
-6.776725 -29.061029 5.072683 30.268788 1.341701 1.402414 0.139517 -0.022497 1190770.000000 0 0 1
-6.701725 -30.450109 5.783083 31.710665 1.354161 1.387400 0.154676 -0.042022 -822071.000000 0 0 1
-6.748725 -30.262429 7.173583 31.824836 1.351380 1.343434 0.154892 -0.033780 179982.000000 0 0 1
-6.811725 -31.494379 7.868983 33.169510 1.357793 1.331277 0.190696 -0.045820 -216732.000000 0 0 1
-7.259725 -31.460659 9.279483 33.594426 1.344010 1.290937 0.168739 -0.048486 -618112.000000 0 0 1
-6.314725 -30.853139 10.102783 33.073527 1.368914 1.260370 0.143279 -0.043003 31146.600000 0 0 1
-6.553725 -31.108129 11.521083 33.814233 1.363157 1.223117 0.123846 -0.033366 -329947.000000 0 0 1
-5.657725 -30.261019 12.443583 33.205148 1.385966 1.186671 0.109870 -0.026865 118878.000000 0 0 1
-6.201725 -28.990289 12.821783 32.300099 1.360049 1.162596 0.092088 -0.018031 -79483.400000 0 0 1
-5.322725 -28.328259 13.689383 31.909573 1.385067 1.127405 0.080769 -0.023592 -164777.000000 0 0 1
-5.988725 -27.705349 14.999283 32.069139 1.357914 1.084090 0.089480 -0.019991 242862.000000 0 0 1
-6.646725 -28.566499 15.904983 33.364537 1.342188 1.073896 0.085656 -0.025591 213971.000000 0 0 1
-5.795725 -29.560089 16.443183 34.318618 1.377186 1.071130 0.072938 -0.039674 22876.400000 0 0 1
-6.603725 -30.791689 16.833683 35.708685 1.359532 1.079899 0.076623 -0.038874 26508.800000 0 0 1
-7.304725 -31.340629 15.744083 35.825552 1.341809 1.115793 0.084724 -0.039117 -84073.600000 0 0 1
-7.673725 -32.712229 15.810583 37.134223 1.340380 1.130985 0.087973 -0.043152 -24753.500000 0 0 1
-6.558725 -33.780279 15.574583 37.771574 1.379024 1.145780 0.083310 -0.042785 17419.500000 0 0 1
-6.264725 33.820447 14.208083 37.214769 -1.387638 1.179068 0.093086 -0.044456 -126077.000000 0 0 1
-5.208725 32.900786 14.052683 36.153430 -1.413783 1.171581 0.109871 -0.050729 -144500.000000 0 0 1
-4.128725 33.371281 13.048683 36.068780 -1.447701 1.200628 0.121984 -0.052166 -220347.000000 0 0 1
-4.465725 33.286381 11.703883 35.565528 -1.437432 1.235468 0.142871 -0.051707 -60938.400000 0 0 1
-3.557725 -33.726879 10.836383 35.603188 1.465699 1.261524 0.140524 -0.051462 -355011.000000 0 0 1
-4.151725 -33.488689 9.435783 35.039451 1.447452 1.298140 0.144181 -0.050151 -1061130.000000 0 0 1
-4.365725 33.039607 8.623383 34.424380 -1.439421 1.317597 0.158157 -0.059358 614932.000000 0 0 1
-5.268725 31.965050 9.023283 33.629504 -1.407437 1.299153 0.177925 -0.059438 1191680.000000 0 0 1
-6.722725 32.466138 9.344683 34.446600 -1.366613 1.296073 0.196375 -0.058358 44866.700000 0 0 1
-7.555725 32.793359 8.245183 34.647892 -1.344344 1.330520 0.192479 -0.044473 -635166.000000 0 0 1
-8.896725 32.743180 8.675583 35.021897 -1.305489 1.320471 0.157427 -0.047214 -470183.000000 0 0 1
-9.855725 32.977815 7.543583 35.236022 -1.280386 1.355039 0.161641 -0.054906 -566551.000000 0 0 1
-9.958725 -33.341519 7.208183 35.535771 1.280543 1.366536 0.170136 -0.047181 263855.000000 0 0 1
-10.720225 -33.192549 5.990983 35.391530 1.258401 1.400700 0.155157 -0.035173 303895.000000 0 0 1
-11.085525 -31.796899 5.488983 34.118332 1.235338 1.409213 0.141730 -0.039208 -254325.000000 0 0 1
-12.209525 -31.340829 6.165183 34.195461 1.199311 1.389513 0.143432 -0.041691 -539214.000000 0 0 1
-12.882325 -30.301079 5.502083 33.382370 1.168804 1.405221 0.139217 -0.039803 96265.700000 0 0 1
-13.995425 -29.644569 6.355283 33.392544 1.129711 1.379308 0.121904 -0.036175 1031760.000000 0 0 1
-15.176925 -30.469409 6.568283 34.667943 1.108667 1.380181 0.131022 -0.032904 1609790.000000 0 0 1
-16.181625 -29.734519 7.313483 34.633418 1.072414 1.358026 0.119823 -0.036196 297291.000000 0 0 1
34.837900 -12.532869 -12.622717 39.116301 -0.345333 1.899374 0.092865 -0.034431 905644.000000 0 0 1
33.530660 -12.567269 -11.991817 37.763012 -0.358595 1.893946 0.112102 -0.040619 1163860.000000 0 0 1
33.249830 -13.832169 -11.310517 37.746627 -0.394229 1.875115 0.113207 -0.040180 -211918.000000 0 0 1
34.062280 -14.234669 -10.025517 38.254094 -0.395843 1.835970 0.107491 -0.038048 -325849.000000 0 0 1
35.257640 -14.756969 -10.530417 39.645415 -0.396392 1.839638 0.094679 -0.034514 -786066.000000 0 0 1
36.174940 -14.991269 -9.485017 40.290569 -0.392867 1.808442 0.084552 -0.029449 -643605.000000 0 0 1
37.554590 -15.413669 -9.947517 41.795711 -0.389468 1.811106 0.074104 -0.026887 -231721.000000 0 0 1
-37.011408 -14.383369 -10.658417 41.113592 0.370658 1.833035 0.084861 -0.034626 330194.000000 0 0 1
-35.620519 -14.580969 -10.780317 39.970505 0.388534 1.843885 0.079479 -0.032373 223278.000000 0 0 1
-34.882985 -13.320269 -11.299117 39.011822 0.364768 1.864640 0.110423 -0.035276 -129701.000000 0 0 1
-34.694455 -12.313969 -10.297417 38.227945 0.341057 1.843534 0.118177 -0.030881 -201676.000000 0 0 1
-33.940338 -11.230469 -10.704617 37.318344 0.319549 1.861729 0.140862 -0.030777 -535925.000000 0 0 1
-34.084557 -9.929769 -9.889517 36.853220 0.283482 1.842475 0.147956 -0.038278 -87612.600000 0 0 1
-33.494398 -9.957569 -8.582317 35.981718 0.288969 1.811637 0.146053 -0.037131 411422.000000 0 0 1
-34.060186 -8.957269 -7.743817 36.059612 0.257161 1.787233 0.185711 -0.053434 108144.000000 0 0 1
-33.377698 -8.917169 -6.355017 35.127950 0.261062 1.752709 0.170115 -0.049793 -301217.000000 0 0 1
-32.344018 -7.956169 -6.150517 33.871300 0.241197 1.753394 0.182685 -0.061700 610215.000000 0 0 1
-31.753308 -7.922469 -4.844717 33.083370 0.244509 1.717764 0.191867 -0.049554 44696.200000 0 0 1
-30.980598 -9.157169 -4.321217 32.593314 0.287395 1.703768 0.164899 -0.041786 -502736.000000 0 0 1
-31.776938 -10.286869 -3.933517 33.631325 0.313075 1.688025 0.172703 -0.040786 350555.000000 0 0 1
-32.324708 -10.087769 -2.614717 33.963017 0.302499 1.647860 0.165742 -0.044959 46732.000000 0 0 1
-33.019078 -11.356869 -2.041817 34.977235 0.331274 1.629205 0.176944 -0.038214 16026.700000 0 0 1
-34.160030 -11.716469 -2.776017 36.220016 0.330414 1.647515 0.192916 -0.057960 -90815.300000 0 0 1
-34.709573 -12.964769 -2.388017 37.128726 0.357474 1.635158 0.202180 -0.060429 1058020.000000 0 0 1
-36.286878 -12.998369 -2.301817 38.613384 0.343971 1.630444 0.192969 -0.050451 891335.000000 0 0 1
-36.771028 -12.176969 -1.288117 38.756242 0.319790 1.604039 0.221681 -0.060350 340311.000000 0 0 1
37.103010 -12.213469 -1.243217 39.081296 -0.318005 1.602613 0.279064 -0.055960 292917.000000 0 0 1
36.439330 -11.512269 -0.065817 38.214675 -0.306006 1.572519 0.255544 -0.069774 -152313.000000 0 0 1
36.734620 -12.226269 1.113883 38.731830 -0.321295 1.542033 0.271437 -0.058119 95842.800000 0 0 1
35.984470 -11.829869 2.239083 37.945241 -0.317619 1.511754 0.267243 -0.048269 151132.000000 0 0 1
36.739900 -11.851669 3.601783 38.771834 -0.312044 1.477765 0.238494 -0.056461 385043.000000 0 0 1
35.796180 -11.690569 4.650383 37.942877 -0.315667 1.447925 0.218347 -0.055524 224709.000000 0 0 1
36.458280 -11.636069 5.879083 38.719089 -0.308942 1.418367 0.177278 -0.049305 233005.000000 0 0 1
35.504460 -11.637669 7.147083 38.040541 -0.316745 1.381792 0.152655 -0.055535 522422.000000 0 0 1
34.654390 -10.520969 7.309283 36.946490 -0.294754 1.371648 0.168793 -0.042516 446049.000000 0 0 1
33.963320 -10.603669 8.570383 36.597764 -0.302620 1.334424 0.136074 -0.020500 268251.000000 0 0 1
33.019530 -9.441369 8.981083 35.497727 -0.278502 1.315012 0.142667 -0.042280 -462711.000000 0 0 1
31.792840 -9.333169 8.339183 34.167743 -0.285540 1.324240 0.172426 -0.037628 -149656.000000 0 0 1
30.865030 -8.560569 9.151283 33.311850 -0.270554 1.292502 0.183604 -0.020972 258831.000000 0 0 1
29.447290 -8.940569 8.662883 31.970646 -0.294768 1.296402 0.166054 -0.009590 -243013.000000 0 0 1
29.091290 -8.298269 7.393083 31.141966 -0.277870 1.331109 0.188749 -0.020143 344713.000000 0 0 1
28.049090 -9.065469 6.799383 30.251707 -0.312603 1.344099 0.193195 -0.030676 295343.000000 0 0 1
27.070190 -8.358369 5.809683 28.920752 -0.299480 1.368537 0.185108 -0.032834 111970.000000 0 0 1
26.188490 -7.516169 6.518183 28.014576 -0.279490 1.335973 0.187076 -0.030710 93765.500000 0 0 1
25.149890 -6.966069 5.737883 26.720149 -0.270208 1.354371 0.202003 -0.039247 -166773.000000 0 0 1
25.417690 -5.670169 4.858883 26.491857 -0.219486 1.386342 0.196055 -0.042691 -741074.000000 0 0 1
26.098190 -5.904569 3.669483 27.008231 -0.222499 1.434509 0.170398 -0.047693 281720.000000 0 0 1
26.604890 -4.705069 3.064783 27.191004 -0.175040 1.457843 0.178147 -0.053654 157414.000000 0 0 1
27.440090 -4.948269 1.793883 27.940327 -0.178412 1.506548 0.185913 -0.063289 -266642.000000 0 0 1
26.653890 -5.276969 0.673483 27.179584 -0.195454 1.546015 0.189640 -0.054756 -162006.000000 0 0 1
27.280690 -5.009369 -0.556817 27.742384 -0.181600 1.590869 0.184099 -0.060885 -1360640.000000 0 0 1
26.498990 -5.338569 -1.791717 27.090718 -0.198802 1.636982 0.177988 -0.047477 -843786.000000 0 0 1
25.346990 -4.560269 -1.855217 25.820685 -0.178009 1.642708 0.214531 -0.049675 -315783.000000 0 0 1
24.752490 -4.658769 -3.168417 25.385601 -0.186038 1.695934 0.223496 -0.050266 -336353.000000 0 0 1
23.728490 -3.569969 -3.388317 24.233584 -0.149331 1.711075 0.206854 -0.042076 -439149.000000 0 1 0
24.226090 -2.220169 -3.304017 24.550949 -0.091388 1.705784 0.200915 -0.044248 122228.000000 0 1 0
24.548190 -1.502169 -4.476317 24.998151 -0.061116 1.750833 0.203744 -0.039894 -30532.200000 0 1 0
23.397490 -1.191169 -5.496717 24.063983 -0.050866 1.801252 0.221527 -0.031228 437001.000000 0 1 0
22.418390 -0.333069 -4.896517 22.949314 -0.014856 1.785811 0.175187 -0.017560 290888.000000 0 1 0
21.779590 0.436831 -5.875017 22.562295 0.020054 1.834223 0.176590 -0.011471 -553693.000000 0 1 0
21.602590 1.998131 -5.570017 22.398426 0.092233 1.822112 0.176749 -0.001906 324200.000000 0 1 0
22.770090 2.835331 -5.538517 23.604899 0.123882 1.807639 0.209685 -0.014548 432704.000000 0 1 0
23.506690 2.627031 -4.370917 24.053496 0.111295 1.753528 0.226928 -0.011866 -318495.000000 0 1 0
24.652590 3.662331 -4.197617 25.274153 0.147479 1.737653 0.231048 -0.032828 86087.600000 0 0 1
24.224390 5.032531 -4.137917 25.085250 0.204833 1.736508 0.197594 -0.015289 370433.000000 0 0 1
25.014590 5.812631 -3.252817 25.886235 0.228318 1.696788 0.176420 -0.023965 129375.000000 0 0 1
24.603490 7.366031 -3.240517 25.886117 0.290897 1.696309 0.156600 -0.021703 182630.000000 0 0 1
23.486490 7.615631 -2.405817 24.807277 0.313559 1.667929 0.174503 -0.031752 409801.000000 0 1 0
22.954290 8.913531 -2.612717 24.762406 0.370394 1.676505 0.160683 -0.026217 683133.000000 0 1 0
21.800790 9.162831 -1.546817 23.698619 0.397881 1.636113 0.126851 -0.027829 883500.000000 0 1 0
22.361090 9.449531 -0.259217 24.277132 0.399826 1.581474 0.099435 -0.029608 968780.000000 0 1 0
21.293290 9.840431 0.577883 23.464275 0.432902 1.546166 0.067620 -0.030312 108392.000000 0 1 0
21.818790 10.245731 1.990383 24.186695 0.439019 1.488411 0.087064 -0.031262 -746805.000000 0 1 0
22.598190 11.398631 2.053083 25.393348 0.467165 1.489857 0.093108 -0.038492 45979.100000 0 0 1
22.117090 12.659431 1.582083 25.532917 0.519865 1.508794 0.099601 -0.028708 267120.000000 0 0 1
20.913590 13.311231 2.364883 24.903007 0.566817 1.475689 0.081209 -0.018111 1546060.000000 0 1 0
19.598390 12.681231 2.314183 23.457748 0.574302 1.471982 0.095744 -0.024629 1459040.000000 0 1 0
18.632190 13.389031 3.054083 23.146319 0.623098 1.438464 0.086898 -0.022596 -240897.000000 0 1 0
18.701990 13.399431 4.576483 23.457480 0.621695 1.374440 0.076828 -0.009490 -785395.000000 0 1 0
18.200390 12.218731 5.060683 22.498046 0.591234 1.343916 0.054808 -0.005276 297275.000000 0 1 0
18.400290 12.253331 6.447983 23.028054 0.587493 1.286996 0.061152 -0.019364 -34347.000000 0 1 0
18.281190 10.871031 7.161283 22.442486 0.536481 1.246022 0.020485 -0.026073 -276468.000000 0 1 0
19.344390 10.075431 6.736083 22.827495 0.480184 1.271250 0.013005 -0.033948 77042.300000 0 1 0
19.524090 8.945331 7.481483 22.741627 0.429626 1.235576 0.030256 -0.022251 326546.000000 0 1 0
20.556990 7.992331 6.798583 23.080033 0.370805 1.271795 0.049443 -0.023715 106707.000000 0 1 0
20.103390 7.636831 5.489783 22.194711 0.363040 1.320856 0.034634 -0.032373 1214290.000000 0 1 0
21.156790 7.198931 4.618983 22.820372 0.327977 1.366982 0.064431 -0.030315 285521.000000 0 1 0
20.530290 6.886631 3.281483 21.901749 0.323643 1.420403 0.062717 -0.023226 -331678.000000 0 1 0
21.490290 6.449131 2.382583 22.563256 0.291544 1.465003 0.066271 -0.025217 266238.000000 0 1 0
20.866090 6.135531 1.126783 21.778615 0.285983 1.519035 0.053857 -0.013183 -324685.000000 0 1 0
21.827990 5.511331 0.088583 22.513190 0.247320 1.566862 0.128218 -0.019133 -99827.400000 0 1 0
22.026890 4.208431 0.396383 22.428818 0.188784 1.553122 0.123747 -0.024393 863018.000000 0 1 0
23.140990 3.678531 -0.343017 23.434049 0.157643 1.585434 0.160789 -0.034521 520183.000000 0 1 0
23.104890 2.153931 -0.339817 23.207559 0.092955 1.585439 0.193098 -0.036170 147735.000000 0 1 0
22.096490 1.527831 -1.134117 22.178263 0.069034 1.621955 0.134185 -0.021405 902347.000000 0 1 0
22.512990 0.215631 -1.632217 22.573111 0.009578 1.643167 0.178821 -0.027833 -1109210.000000 0 1 0
22.433790 -1.016169 -0.676317 22.466974 -0.045265 1.600904 0.196197 -0.019981 -94874.500000 0 1 0
23.362290 -1.116969 0.382783 23.392108 -0.047774 1.554432 0.199199 -0.029718 24123.500000 0 1 0
24.665190 -1.379969 -0.075617 24.703878 -0.055890 1.573857 0.212331 -0.048515 -468720.000000 0 1 0
25.783490 -1.225769 1.005883 25.832202 -0.047505 1.531847 0.222012 -0.047977 125783.000000 0 0 1
26.024290 0.094831 1.441583 26.064359 0.003644 1.515459 0.226348 -0.039116 396062.000000 0 0 1
26.689590 0.195831 2.704483 26.826978 0.007337 1.469813 0.231641 -0.042540 -385055.000000 0 0 1
26.587790 1.596731 3.277883 26.836628 0.059983 1.448348 0.222230 -0.034180 104687.000000 0 0 1
27.211990 2.573231 2.513683 27.448725 0.094282 1.479090 0.251540 -0.035487 -15656.400000 0 0 1
28.617290 2.617431 2.380483 28.835168 0.091210 1.488147 0.249757 -0.037687 -40481.100000 0 0 1
29.046190 3.631531 1.290683 29.300768 0.124381 1.526733 0.278080 -0.047489 -107866.000000 0 0 1
28.841590 3.009531 0.044283 28.998216 0.103971 1.569269 0.309713 -0.042620 132322.000000 0 0 1
29.268090 3.911831 -0.967317 29.544190 0.132868 1.603544 0.297325 -0.043430 -483708.000000 0 0 1
30.619280 3.616631 -1.601017 30.873671 0.117571 1.622677 0.249073 -0.043265 -1081620.000000 0 0 1
31.700880 3.932131 -0.801417 31.953868 0.123408 1.595879 0.215511 -0.037106 -585884.000000 0 0 1
32.942170 3.636131 -1.397517 33.171690 0.109934 1.612939 0.168798 -0.038737 -285298.000000 0 0 1
34.149710 4.000531 -0.542617 34.387517 0.116615 1.586576 0.126008 -0.033317 -745301.000000 0 0 1
34.380500 3.442631 0.714883 34.559825 0.099801 1.550109 0.158188 -0.040583 -38782.800000 0 0 1
33.656330 4.076731 1.727683 33.946327 0.120541 1.519880 0.174559 -0.029804 -186136.000000 0 0 1
33.639230 3.259731 3.007883 33.930384 0.096601 1.482031 0.183881 -0.029851 -109821.000000 0 0 1
32.728580 2.182531 2.824283 32.922636 0.066587 1.484905 0.210230 -0.041028 335011.000000 0 0 1
32.770630 1.226431 3.882483 33.022598 0.037407 1.452953 0.196324 -0.041406 -453142.000000 0 0 1
33.902460 0.208431 3.831483 34.118917 0.006148 1.458261 0.180601 -0.037826 -1313520.000000 0 0 1
35.125440 0.786931 3.981283 35.359106 0.022400 1.457961 0.175876 -0.038407 -1373330.000000 0 0 1
36.212050 -0.033569 3.689383 36.399522 -0.000927 1.469264 0.161387 -0.039854 -334864.000000 0 0 1
37.551750 0.388531 4.373983 37.807626 0.010346 1.454846 0.175327 -0.055468 1052820.000000 0 0 1
-36.800278 1.190931 3.637983 36.998834 -0.032351 1.472310 0.167714 -0.056718 755697.000000 0 0 1
-36.209528 0.552331 2.494883 36.299579 -0.015253 1.502012 0.154071 -0.048670 -403183.000000 0 0 1
-35.566123 1.536631 1.492183 35.630562 -0.043178 1.528905 0.174029 -0.049323 381961.000000 0 0 1
-34.368459 2.146731 1.947483 34.490464 -0.062381 1.514302 0.165358 -0.071282 317791.000000 0 0 1
-33.666208 2.849631 0.970383 33.800526 -0.084442 1.542083 0.171516 -0.043017 -226801.000000 0 0 1
-32.607978 3.821831 1.544483 32.867492 -0.116673 1.523788 0.199870 -0.044811 -1134260.000000 0 0 1
-31.529208 3.179031 2.072983 31.756801 -0.100489 1.505473 0.202402 -0.060954 -953666.000000 0 0 1
-30.877238 3.983431 3.062783 31.283417 -0.128300 1.472735 0.216046 -0.046827 -261130.000000 0 0 1
-31.513918 4.136531 4.551983 32.108542 -0.130514 1.428548 0.231108 -0.055628 414932.000000 0 0 1
-32.762708 4.835031 4.517883 33.424300 -0.146520 1.435214 0.236571 -0.037043 1810700.000000 0 0 1
-33.997978 4.073631 4.660483 34.556867 -0.119251 1.435520 0.222703 -0.036119 1118870.000000 0 0 1
-34.255794 3.298431 6.020183 34.936824 -0.095992 1.397616 0.195629 -0.029895 -821522.000000 0 0 1
-34.341478 4.158331 7.157383 35.325019 -0.120501 1.366769 0.203275 -0.033993 364060.000000 0 0 1
-34.247574 3.430131 8.360083 35.419671 -0.099824 1.332519 0.174601 -0.031441 371970.000000 0 0 1
-35.291197 2.278031 8.739183 36.428441 -0.064460 1.328533 0.174980 -0.032289 308004.000000 0 0 1
-35.097714 1.161731 7.925883 36.000260 -0.033088 1.348816 0.179381 -0.043769 331873.000000 0 0 1
-36.112598 0.181831 8.069283 37.003596 -0.005035 1.350962 0.165180 -0.040281 91474.300000 0 0 1
-36.026768 -0.716569 9.375183 37.233527 0.019887 1.316263 0.176620 -0.036276 -942887.000000 0 0 1
-34.879078 -1.455769 9.300883 36.127216 0.041713 1.310416 0.161811 -0.039343 -838350.000000 0 0 1
-34.634392 -2.161069 10.525983 36.263034 0.062316 1.276290 0.146938 -0.024636 325142.000000 0 0 1
-33.385048 -3.093969 10.416483 35.108933 0.092411 1.269571 0.162221 -0.016418 121856.000000 0 0 1
-33.525208 -4.134769 9.525383 35.096564 0.122713 1.295944 0.162113 -0.021685 -321986.000000 0 0 1
-32.346568 -4.825169 9.241783 33.985192 0.148079 1.295392 0.159734 -0.022833 -217943.000000 0 0 1
-32.596968 -5.716269 7.993983 34.046172 0.173597 1.333785 0.169247 -0.026796 326399.000000 0 0 1
-33.591518 -6.688069 8.228183 35.225322 0.196530 1.335031 0.181467 -0.030835 -126571.000000 0 0 1
-33.987948 -7.371169 7.056583 35.486759 0.213569 1.370611 0.175815 -0.045404 296708.000000 0 0 1
-34.840542 -8.616969 7.437183 36.652793 0.242460 1.366468 0.178340 -0.048363 316196.000000 0 0 1
-36.082138 -8.329869 8.042383 37.894423 0.226884 1.356939 0.169074 -0.047362 -97454.900000 0 0 1
-36.860138 -9.470869 8.227683 38.936639 0.251500 1.357882 0.178459 -0.046950 -183644.000000 0 0 1
7.994632 -23.913469 10.534483 27.326608 -1.248162 1.175044 0.158217 -0.042296 284239.000000 0 0 1
7.326732 -24.504769 9.418883 27.255826 -1.280264 1.217947 0.145954 -0.046298 348359.000000 0 0 1
6.036732 -25.049439 9.708683 27.534979 -1.334313 1.210454 0.142087 -0.043249 803418.000000 0 0 1
5.570832 -25.961619 8.549983 27.895198 -1.359422 1.259278 0.116496 -0.028722 -124752.000000 0 0 1
4.935632 -25.282919 7.478083 26.823650 -1.378005 1.288266 0.118356 -0.031582 -366299.000000 0 0 1
4.933032 -26.117839 6.356583 27.329151 -1.384119 1.336053 0.095241 -0.024226 -626571.000000 0 0 1
4.173532 -25.496819 5.186783 26.351639 -1.408547 1.372673 0.074234 -0.021942 63182.400000 0 0 1
2.774732 -25.621729 5.182383 26.287435 -1.462921 1.372353 0.055586 -0.026126 -120854.000000 0 0 1
2.149532 -26.925389 5.049283 27.478943 -1.491132 1.385995 0.048997 -0.021493 -865549.000000 0 0 1
0.638632 -26.806179 4.938283 27.264734 -1.546977 1.388668 0.074343 -0.033950 -946682.000000 0 0 1
0.056332 -26.328489 6.125483 27.031723 -1.568657 1.342207 0.064341 -0.030304 -442799.000000 0 0 1
-1.335368 -26.478329 6.254783 27.239813 1.520407 1.339110 0.060959 -0.032441 521252.000000 0 0 1
-2.008968 -27.891909 6.488383 28.707031 1.498894 1.342806 0.082664 -0.032699 37835.300000 0 0 1
-1.554868 -28.520299 7.708083 29.584449 1.516332 1.307210 0.073377 -0.032934 339037.000000 0 0 1
-2.186768 -29.792969 7.875483 30.893789 1.497529 1.313030 0.109637 -0.034208 6172.860000 0 0 1
-1.878568 -30.423849 9.233083 31.849481 1.509128 1.276677 0.108750 -0.033820 411004.000000 0 0 1
-0.522868 -30.761329 9.510683 32.202265 1.553800 1.270983 0.098959 -0.032720 252002.000000 0 0 1
-0.362068 -31.209909 10.837683 33.040050 1.559196 1.236593 0.107322 -0.027780 -427688.000000 0 0 1
1.068732 -31.277629 11.366083 33.295947 -1.536640 1.222427 0.082837 -0.027506 -279732.000000 0 0 1
1.815932 -32.415739 10.837983 34.227761 -1.514835 1.248608 0.091863 -0.028923 577403.000000 0 0 1
3.159732 -32.445429 11.299683 34.501777 -1.473716 1.237129 0.086479 -0.027022 309008.000000 0 0 1
3.478732 -32.995559 12.676883 35.517768 -1.465754 1.205831 0.099917 -0.028937 -696110.000000 0 0 1
2.960832 -32.276169 13.722783 35.197051 -1.479318 1.170290 0.098627 -0.035038 153730.000000 0 0 1
3.674432 -32.572739 14.925983 36.017631 -1.458464 1.143504 0.114478 -0.037672 38228.400000 0 0 1
3.199132 -31.637379 16.137783 35.659308 -1.470020 1.101168 0.124800 -0.046084 103039.000000 0 0 1
3.582432 -30.292059 16.074083 34.479252 -1.453080 1.085810 0.132794 -0.044127 43340.300000 0 0 1
4.951432 -30.036249 16.294383 34.528247 -1.407417 1.079335 0.129418 -0.032662 264190.000000 0 0 1
5.577132 -28.712249 15.626483 33.161493 -1.378943 1.080119 0.147173 -0.026884 265318.000000 0 0 1
5.918032 -28.902989 14.240283 32.759602 -1.368833 1.121102 0.133050 -0.028573 -474070.000000 0 0 1
4.831632 -29.067389 13.399183 32.369675 -1.406081 1.144016 0.111189 -0.025027 -707562.000000 0 0 1
5.318232 -29.021399 11.905583 31.816161 -1.389555 1.187263 0.097758 -0.021890 258301.000000 0 0 1
5.755032 -30.152499 11.243083 32.690985 -1.382200 1.219708 0.095796 -0.023688 434165.000000 0 0 1
7.072932 -30.592939 11.577683 33.466357 -1.343593 1.217545 0.104661 -0.021942 278598.000000 0 0 1
7.513132 -31.870299 10.756283 34.465356 -1.339282 1.253404 0.086135 -0.019516 40921.500000 0 0 1
7.229232 -32.989419 11.563283 35.696962 -1.355068 1.240917 0.072032 -0.027281 223692.000000 0 0 1
7.591832 33.455588 10.935083 36.006782 1.347653 1.262228 0.081095 -0.021572 -42245.000000 0 0 1
7.250232 32.243619 11.901583 35.126408 1.349617 1.225132 0.077470 -0.022461 1031050.000000 0 0 1
5.858732 32.161734 12.251483 34.911327 1.390607 1.212231 0.080323 -0.023980 639982.000000 0 0 1
5.565932 30.870197 12.786983 33.874114 1.392412 1.183717 0.094891 -0.021778 465027.000000 0 0 1
4.276632 30.904147 13.658983 34.057653 1.433286 1.158128 0.097683 -0.034307 348738.000000 0 0 1
4.429632 31.461017 14.941183 35.109204 1.430918 1.131212 0.116314 -0.035994 1032.280000 0 0 1
3.310732 31.170767 15.752083 35.081417 1.464980 1.105134 0.119642 -0.038634 178582.000000 0 0 1
3.681832 31.329797 17.219883 35.939344 1.453814 1.071125 0.128970 -0.039600 -5483.440000 0 0 1
4.080332 32.630931 17.577083 37.287808 1.446397 1.079931 0.141511 -0.043165 12274.100000 0 0 1
4.513332 32.733582 18.908183 38.070684 1.433779 1.051050 0.130760 -0.033615 -135696.000000 0 0 1
4.696632 -33.452199 19.373283 38.941393 -1.431310 1.050084 0.135340 -0.041257 351472.000000 0 0 1
3.527232 -32.645239 19.312383 38.093584 -1.463166 1.039128 0.138733 -0.042114 -75872.800000 0 0 1
3.620732 -31.477089 20.125683 37.536115 -1.456272 1.004905 0.128441 -0.042369 -1065490.000000 0 0 1
2.325032 -30.777529 20.371683 36.981989 -1.495396 0.987409 0.138861 -0.035145 -381262.000000 0 0 1
1.285632 -31.644429 20.860483 37.923377 -1.530191 0.988349 0.152784 -0.037997 943742.000000 0 0 1
0.187632 -31.009029 21.547183 37.760776 -1.564746 0.963532 0.132542 -0.041236 33422.200000 0 0 1
-0.718868 -32.073639 22.110583 38.962969 1.548387 0.967358 0.161526 -0.032693 -610779.000000 0 0 1
-1.674168 -32.601759 21.162383 38.904036 1.519489 0.995643 0.149588 -0.035445 628524.000000 0 0 1
-2.537368 -33.593739 21.718283 40.083181 1.495408 0.998183 0.141271 -0.027637 43365.500000 0 0 1
-3.646268 -33.197189 22.691183 40.376211 1.461398 0.974002 0.156232 -0.029038 -520175.000000 0 0 1
-4.783068 -32.729669 21.987783 39.718655 1.425685 0.984129 0.141690 -0.036869 607280.000000 0 0 1
-5.916368 -32.547249 22.903383 40.235454 1.390982 0.965223 0.131446 -0.035977 787980.000000 0 0 1
-7.073968 -31.869339 22.164183 39.458165 1.352370 0.974341 0.096156 -0.023231 -345176.000000 0 0 1
-7.656168 -32.682959 21.149283 39.674739 1.340690 1.008575 0.075101 -0.025196 30593.300000 0 0 1
-8.836468 -32.062719 20.695483 39.171471 1.301873 1.014163 0.069353 -0.027953 -512807.000000 0 0 1
-9.849768 -32.961819 20.050683 39.818706 1.280419 1.043094 0.048540 -0.028604 -459270.000000 0 0 1
-10.488768 -33.815949 20.965583 41.147155 1.270034 1.036161 0.056250 -0.030048 -1041430.000000 0 0 1
-11.832468 33.680005 20.674383 41.252638 -1.232946 1.045852 0.047443 -0.026227 -562869.000000 0 0 1
-12.628468 33.352452 21.955783 41.879836 -1.208841 1.018954 0.050747 -0.019453 -740881.000000 0 0 1
-12.918168 -33.326729 22.888483 42.443287 1.201006 1.001224 0.057452 -0.020486 711190.000000 0 0 1
-11.822768 -32.638659 23.553883 41.950510 1.223266 0.974637 0.064445 -0.017183 438394.000000 0 0 1
-12.208368 -31.281259 24.226483 41.406327 1.198700 0.945804 0.068010 -0.023450 -94613.200000 0 0 1
-12.875368 -31.320289 25.469383 42.372457 1.180769 0.925940 0.058181 -0.016230 213328.000000 0 0 1
-13.447368 -30.046549 25.706483 41.766615 1.149981 0.907802 0.090761 -0.025282 178994.000000 0 0 1
-14.213868 -29.868319 27.031283 42.718155 1.126627 0.885655 0.086975 -0.017624 459676.000000 0 0 1
-13.299868 -29.749899 28.126483 43.046975 1.150393 0.858742 0.067809 -0.017039 632357.000000 0 0 1
-14.052168 -29.488519 29.292383 43.875732 1.126100 0.839787 0.083368 -0.013090 165392.000000 0 0 1
-13.312868 -28.878639 30.525383 44.079556 1.138838 0.805838 0.065065 -0.015439 -313229.000000 0 0 1
-14.214668 -28.738779 31.576383 45.000469 1.111465 0.793029 0.078308 -0.016146 162761.000000 0 0 1
-13.594968 -28.474329 32.795683 45.510080 1.125354 0.766094 0.065007 -0.010703 -250721.000000 0 0 1
-12.899568 -29.627959 33.559883 46.588417 1.160163 0.766492 0.064027 -0.006702 -1206650.000000 0 0 1
-11.551068 -29.708879 33.362483 46.142171 1.199975 0.762608 0.047222 -0.005862 -1268930.000000 0 0 1
-11.046468 -30.884199 -33.622121 46.971324 1.227302 2.368567 0.053077 -0.000321 1458800.000000 0 0 1
-9.464468 -31.039669 -33.595321 46.708488 1.274836 2.373526 0.070935 -0.008320 1593310.000000 0 0 1
-8.839268 -30.048509 -32.759721 45.323778 1.284700 2.378632 0.091151 -0.018644 778120.000000 0 0 1
-7.426768 -30.249699 -32.661121 45.132583 1.330043 2.379902 0.104844 -0.034542 626791.000000 0 0 1
-6.595068 -29.378539 -31.751821 43.758104 1.349971 2.382734 0.130862 -0.043494 -145196.000000 0 0 1
-6.981268 -29.541109 -30.411021 42.967958 1.338730 2.357119 0.132780 -0.044185 167988.000000 0 0 1
-6.197668 -28.738329 -29.535521 41.673129 1.358391 2.358511 0.137525 -0.046932 -105711.000000 0 0 1
-6.546568 -28.970329 -28.062821 40.861467 1.348554 2.327846 0.135286 -0.044070 -87861.200000 0 0 1
-6.265668 -30.213409 -27.511021 41.339630 1.366314 2.298944 0.117927 -0.048959 -1098.780000 0 0 1
-7.321868 -30.650079 -26.677921 41.288601 1.336305 2.273303 0.123061 -0.044591 32064.100000 0 0 1
-7.082868 -31.974599 -25.877321 41.739403 1.352801 2.239505 0.107871 -0.049669 1870.720000 0 0 1
-6.245168 -31.792949 -24.769821 40.784038 1.376833 2.223506 0.085007 -0.047494 -70813.700000 0 0 1
-5.701068 -33.057639 -24.298521 41.421345 1.400018 2.197673 0.073890 -0.050625 448324.000000 0 0 1
-4.669268 -32.942969 -23.111921 40.511754 1.429996 2.177910 0.091530 -0.055280 310302.000000 0 0 1
-5.179868 -32.423019 -21.854521 39.442405 1.412376 2.158062 0.100491 -0.047094 202280.000000 0 0 1
-5.064568 -31.020759 -21.791621 38.246727 1.408960 2.177015 0.079611 -0.035459 -613054.000000 0 0 1
-5.469468 -30.408249 -20.428921 37.039405 1.392831 2.155012 0.114791 -0.037662 -800638.000000 0 0 1
-6.827968 -30.433499 -20.109721 37.110913 1.350094 2.143471 0.125495 -0.050317 -153979.000000 0 0 1
-7.547568 -29.224789 -20.370221 36.414283 1.318060 2.164460 0.125609 -0.038122 113756.000000 0 0 1
-7.853468 -28.836339 -21.816121 37.002088 1.304899 2.201349 0.175622 -0.055181 -368074.000000 0 0 1
-6.698968 -28.350369 -22.504821 36.811501 1.338760 2.228566 0.177843 -0.035981 281028.000000 0 0 1
-7.081468 -27.807049 -23.719821 37.229143 1.321432 2.261566 0.235502 -0.053720 -652501.000000 0 0 1
-5.843368 -27.366479 -24.548321 37.224847 1.360433 2.290897 0.210982 -0.055165 262849.000000 0 0 1
-5.081368 -26.254019 -24.103121 36.000754 1.379614 2.304355 0.205192 -0.057148 179498.000000 0 0 1
-4.397068 -26.456579 -22.909421 35.272175 1.406102 2.277728 0.155499 -0.041468 -338237.000000 0 0 1
-2.878168 -26.937579 -22.925221 35.489193 1.464354 2.273100 0.136578 -0.035793 1029050.000000 0 0 1
-1.969168 -25.981989 -23.371721 35.002553 1.495151 2.301931 0.136459 -0.038279 -128732.000000 0 0 1
-1.589968 -24.987399 -22.449221 33.628346 1.507251 2.301734 0.133560 -0.042531 -715188.000000 0 0 1
-0.921168 -23.692669 -23.053521 33.070470 1.531936 2.342145 0.149162 -0.041219 -283709.000000 0 0 1
-1.659168 -22.981969 -23.983821 33.258795 1.498727 2.376224 0.259677 -0.052136 156944.000000 0 0 1
-2.885968 -22.451769 -23.440221 32.586112 1.442957 2.373636 0.249463 -0.054152 682184.000000 0 0 1
-3.901968 -21.911669 -24.485621 33.089156 1.394567 2.403851 0.248832 -0.066412 223390.000000 0 0 1
-3.434768 -20.739869 -25.192221 32.811398 1.406674 2.446179 0.249532 -0.056040 144521.000000 0 0 1
-4.271368 -20.366469 -26.268021 33.511887 1.364067 2.471625 0.314686 -0.058967 56379.600000 0 0 1
-4.223468 -21.281569 -27.508721 35.035305 1.374885 2.473769 0.250124 -0.050433 19466.700000 0 0 1
-5.252468 -20.978569 -28.412021 35.706186 1.325467 2.490987 0.256564 -0.051956 -43190.800000 0 0 1
-4.997568 -21.730669 -29.605821 37.063490 1.344749 2.496072 0.265550 -0.047234 121941.000000 0 0 1
-6.109868 -21.610069 -30.655021 38.000736 1.295256 2.509335 0.249186 -0.051066 -180899.000000 0 0 1
-6.017268 -20.401069 -31.455121 37.971513 1.283980 2.547019 0.231071 -0.052036 -299664.000000 0 0 1
-7.046768 -20.431469 -32.404221 38.950423 1.238674 2.553382 0.212143 -0.050673 -124450.000000 0 0 1
-6.703268 -19.591569 -33.657621 39.517070 1.241131 2.590062 0.190787 -0.057166 452790.000000 0 0 1
-5.564568 -20.139169 33.342083 39.347745 1.301217 0.559784 0.171572 -0.041805 -155406.000000 0 0 1
-5.289868 -19.557069 32.123283 37.978507 1.306634 0.562681 0.179100 -0.042092 -71721.300000 0 0 1
-4.036468 -20.061769 31.392783 37.473651 1.372245 0.577684 0.117219 -0.042324 -1085140.000000 0 0 1
-4.036668 -21.410169 31.070183 37.947942 1.384444 0.611552 0.141825 -0.045241 508609.000000 0 0 1
-2.919868 -22.018969 30.387883 37.640192 1.438959 0.631191 0.125541 -0.033484 -129536.000000 0 0 1
-1.505068 -21.832269 30.875683 37.844696 1.501967 0.616595 0.098941 -0.039503 -1396400.000000 0 0 1
-0.929568 -20.641069 30.448883 36.797450 1.525792 0.596205 0.103008 -0.034750 93718.700000 0 0 1
0.119232 -20.029469 31.197183 37.073685 -1.564844 0.570759 0.097073 -0.036631 -35747.400000 0 0 1
-0.157568 -19.660669 32.687183 38.144707 1.562782 0.541521 0.083809 -0.034450 -281934.000000 0 0 1
-1.274368 -18.795669 32.762583 37.792698 1.503099 0.521842 0.080418 -0.024590 -50667.200000 0 0 1
-1.500768 -18.503269 -33.520421 38.317645 1.489865 2.635827 0.084203 -0.028561 360916.000000 0 0 1
-2.661568 -17.479969 -33.391921 37.784305 1.419693 2.654615 0.106687 -0.041199 320559.000000 0 0 1
-2.285168 -16.206269 33.744383 37.503980 1.430715 0.451589 0.115664 -0.035678 -173116.000000 0 0 1
-3.311668 -15.265269 -33.728021 37.169544 1.357165 2.707876 0.144203 -0.045971 -330825.000000 0 0 1
-2.945768 -13.768669 33.809683 36.624425 1.360027 0.394612 0.123542 -0.045428 -22306.200000 0 0 1
-2.255468 -13.132569 -32.763521 35.369476 1.400710 2.755326 0.116393 -0.042975 141550.000000 0 0 1
-2.443368 -11.716969 -32.713421 34.834255 1.365210 2.790846 0.106990 -0.044672 -153663.000000 0 0 1
-1.919468 -10.887369 33.719283 35.485338 1.396287 0.316818 0.101094 -0.041187 -362942.000000 0 0 1
-2.711768 -10.860869 32.527983 34.400318 1.326117 0.331448 0.112730 -0.044435 42617.200000 0 0 1
-2.007568 -10.423369 31.358783 33.106650 1.380524 0.326393 0.117480 -0.043255 -370257.000000 0 0 1
-0.909668 -11.380069 30.920083 32.960355 1.491031 0.353695 0.100260 -0.045376 -436629.000000 0 0 1
-1.355068 -12.668869 30.478383 33.034350 1.464241 0.395959 0.122791 -0.042191 -162337.000000 0 0 1
-0.327268 -13.514369 30.035883 32.937814 1.546585 0.422914 0.095775 -0.042593 -377867.000000 0 0 1
-0.636268 -15.006669 30.206583 33.734887 1.528423 0.461443 0.105812 -0.038650 -1102700.000000 0 0 1
-1.629168 -15.443669 29.409483 33.257763 1.465694 0.485827 0.117627 -0.046296 -575283.000000 0 0 1
-2.158468 -16.657369 30.035983 34.413474 1.441934 0.509892 0.122331 -0.043515 6630.120000 0 0 1
-2.178468 -17.863069 29.048983 34.171309 1.449442 0.554624 0.132232 -0.030358 -173461.000000 0 0 1
-3.392968 -17.817569 28.320283 33.630588 1.382621 0.569633 0.139893 -0.033961 182172.000000 0 0 1
-3.721368 -19.121469 27.807283 33.951792 1.378582 0.611091 0.151443 -0.038888 388142.000000 0 0 1
-5.088368 -19.048269 27.075883 33.493753 1.309761 0.629391 0.121921 -0.042558 162470.000000 0 0 1
-5.613268 -20.266669 26.542283 33.863542 1.300599 0.670033 0.139418 -0.034796 -247213.000000 0 0 1
-5.033368 -20.799469 25.345883 33.171773 1.333366 0.701183 0.149329 -0.033721 -467056.000000 0 0 1
-30.768308 -32.876365 -0.146717 45.028498 0.818508 1.574055 0.070852 -0.015215 -656390.000000 0 0 1
-29.697518 -32.065965 0.128583 43.705666 0.823726 1.567854 0.082408 -0.014833 -636018.000000 0 0 1
-29.991518 -31.458165 1.353083 43.484918 0.809261 1.539675 0.072118 -0.009284 252844.000000 0 0 1
-29.191028 -30.154565 1.612883 42.000182 0.801633 1.532385 0.085083 -0.008155 687307.000000 0 0 1
-27.807088 -30.441365 1.731683 41.266325 0.830592 1.528820 0.096951 -0.007268 133454.000000 0 0 1
-26.903308 -29.354065 1.686883 39.853415 0.828934 1.528456 0.106785 0.002424 -450012.000000 0 0 1
-25.441268 -29.622965 1.882683 39.093768 0.861195 1.522620 0.078092 -0.003378 -930389.000000 0 0 1
-25.143318 -30.204365 3.156483 39.426558 0.876586 1.490651 0.075987 -0.003918 -853339.000000 0 0 1
-23.799868 -30.374065 3.450983 38.741797 0.906161 1.481602 0.070972 -0.002470 -954694.000000 0 0 1
-23.550368 -31.125865 4.768783 39.321503 0.923074 1.449220 0.076693 -0.005994 -14488.400000 0 0 1
-23.887968 -30.369465 5.929383 39.090881 0.904293 1.418527 0.077896 -0.003287 -56186.200000 0 0 1
-23.595268 -31.094565 7.129983 39.679281 0.921672 1.390125 0.066728 -0.016993 -201183.000000 0 0 1
-23.974968 -30.419565 8.434683 39.639537 0.903327 1.356372 0.077696 -0.019971 -616491.000000 0 0 1
-23.168468 -29.300265 8.734683 38.361154 0.901736 1.341085 0.080552 -0.019817 176011.000000 0 0 1
-23.669368 -28.568865 9.893383 38.396589 0.878916 1.310193 0.077912 -0.025687 66001.500000 0 0 1
-22.919668 -27.298465 10.306583 37.104488 0.872374 1.289322 0.083867 -0.029827 -490524.000000 0 0 1
-21.597768 -27.509665 10.684983 36.570673 0.905209 1.274298 0.065314 -0.031252 -604402.000000 0 0 1
-21.127268 -26.337965 11.417583 35.642826 0.894740 1.244715 0.089917 -0.031518 617270.000000 0 0 1
-19.804268 -26.645965 12.183783 35.364687 0.931638 1.219071 0.083799 -0.029450 134548.000000 0 0 1
-20.092368 -27.587365 13.204383 36.594012 0.941317 1.201634 0.095343 -0.020162 398207.000000 0 0 1
-18.898068 -27.972365 13.885483 36.502011 0.976636 1.180564 0.092901 -0.024715 430611.000000 0 0 1
-19.078568 -29.153865 14.829883 37.866410 0.991327 1.168386 0.103401 -0.040379 45792.500000 0 0 1
-19.139568 -30.391765 14.181083 38.614577 1.008780 1.194749 0.095767 -0.036958 26384.700000 0 0 1
-19.009368 -31.424265 15.187883 39.743079 1.026762 1.178673 0.099879 -0.039182 -46361.300000 0 0 1
-18.704768 -32.795865 14.661483 40.501805 1.052472 1.200388 0.102063 -0.039029 93175.200000 0 0 1
-18.554268 -33.640165 15.794283 41.537705 1.066763 1.180741 0.106527 -0.033526 338851.000000 0 0 1
-17.610768 32.989631 15.556683 40.502658 -1.080454 1.176574 0.095644 -0.036365 134066.000000 0 0 1
-17.691868 31.886131 16.627483 40.077434 -1.064241 1.142981 0.099862 -0.038422 -41451.400000 0 0 1
-18.943168 31.215931 16.561383 40.094356 -1.025360 1.144985 0.102667 -0.042113 336382.000000 0 0 1
-19.227368 30.193131 17.509383 39.848405 -1.003748 1.115866 0.079689 -0.028618 -16812.700000 0 0 1
-19.956068 30.641031 18.789583 41.111627 -0.993518 1.096134 0.091828 -0.035446 6408.470000 0 0 1
-19.129768 31.435531 19.600783 41.693301 -1.024121 1.081372 0.100672 -0.033397 185397.000000 0 0 1
-19.931268 31.916731 20.657683 42.926368 -1.012573 1.068733 0.100148 -0.034362 196427.000000 0 0 1
-19.247568 32.972731 21.548483 43.840700 -1.042417 1.056965 0.086430 -0.019601 358442.000000 0 0 1
-18.131968 32.568431 22.350083 43.462595 -1.062797 1.030678 0.077395 -0.023556 243911.000000 0 0 1
-18.030668 32.966331 23.689883 44.419529 -1.070304 1.008274 0.074446 -0.026051 -410227.000000 0 0 1
-18.948968 32.247531 24.695683 44.820123 -1.039537 0.987240 0.067439 -0.022470 165179.000000 0 0 1
-20.297268 32.647131 24.489083 45.579924 -1.014561 1.003590 0.061003 -0.025410 -217897.000000 0 0 1
-21.178968 32.172031 25.456183 46.169314 -0.988606 0.986796 0.052726 -0.026564 1423020.000000 0 0 1
-22.719468 32.335031 25.063683 46.796546 -0.958309 1.005592 0.062408 -0.034228 1185350.000000 0 0 1
-23.105068 31.693731 23.912083 45.936091 -0.940864 1.023300 0.049798 -0.022483 -7004.420000 0 0 1
-24.386268 32.168331 23.554783 46.736703 -0.922142 1.042585 0.036817 -0.027595 46026.500000 0 0 1
-24.896268 31.732331 22.151783 46.015937 -0.905534 1.068552 0.033189 -0.027551 -12541.600000 0 0 1
-24.338468 32.586331 21.167383 45.850715 -0.929287 1.090932 0.029935 -0.031729 205270.000000 0 0 1
-24.134168 31.925731 19.984383 44.733499 -0.923500 1.107675 0.022802 -0.021243 -125851.000000 0 0 1
-23.749468 32.795631 18.823283 44.653182 -0.944035 1.135649 0.046248 -0.025314 -218339.000000 0 0 1
-22.458468 33.349631 18.949383 44.448395 -0.978130 1.130372 0.071744 -0.024183 -84724.000000 0 0 1
-22.112768 -33.504465 17.858983 43.937080 0.987427 1.152212 0.084136 -0.020332 -242973.000000 0 0 1
-20.789668 -32.764965 18.093483 42.815037 1.005388 1.134488 0.095516 -0.024467 -245155.000000 0 0 1
-20.857868 -31.704465 19.054783 42.465380 0.988899 1.105471 0.087407 -0.036399 1154690.000000 0 0 1
-19.530568 -31.208165 19.357283 41.594436 1.011610 1.086731 0.087366 -0.034993 1094460.000000 0 0 1
-19.540968 -30.211865 20.516083 41.418787 0.996676 1.052578 0.080763 -0.026945 -317212.000000 0 0 1
-20.261968 -29.083065 20.172583 40.783638 0.962293 1.053394 0.097237 -0.026068 45841.500000 0 0 1
-20.798068 -28.556865 21.391783 41.299668 0.941326 1.026326 0.092988 -0.019191 -148541.000000 0 0 1
-21.725668 -27.329665 21.211983 40.851725 0.899143 1.024831 0.080002 -0.022475 -405717.000000 0 0 1
-21.146368 -26.123465 20.750883 39.499411 0.890303 1.017674 0.083633 -0.024071 723954.000000 0 0 1
-22.127268 -25.102965 20.467583 39.226226 0.848319 1.021856 0.070410 -0.013564 491405.000000 0 0 1
-23.067168 -25.204065 19.175083 39.179369 0.829638 1.059374 0.073765 -0.010046 51597.200000 0 0 1
-24.397868 -25.419165 19.574183 40.305565 0.805896 1.063696 0.072685 -0.006902 -363870.000000 0 0 1
-25.187068 -25.317165 18.404283 40.175426 0.787974 1.094942 0.064772 0.001217 -887174.000000 0 0 1
-26.687748 -25.334365 18.660983 41.258917 0.759389 1.101465 0.045910 -0.006344 -501921.000000 0 0 1
-27.333668 -26.521065 19.047383 42.582850 0.770311 1.107050 0.037361 -0.009340 -25528.600000 0 0 1
-27.349788 -27.604965 18.099083 42.867491 0.790042 1.134914 0.049951 -0.016254 -858509.000000 0 0 1
-28.152058 -28.801365 18.627383 44.373826 0.796798 1.137590 0.061248 -0.025945 283359.000000 0 0 1
-29.568908 -28.771865 18.691583 45.293662 0.771737 1.145407 0.048594 -0.022623 -36580.100000 0 0 1
-30.077438 -29.118565 17.424583 45.344892 0.769201 1.176382 0.055496 -0.021866 -1160050.000000 0 0 1
-31.582118 -28.888365 17.516683 46.247184 0.740881 1.182338 0.063885 -0.021503 -851669.000000 0 0 1
-31.972288 -27.574165 17.476483 45.694521 0.711672 1.178335 0.064495 -0.021743 -677411.000000 0 0 1
-33.343328 -27.483765 17.739683 46.710076 0.689363 1.181235 0.092468 -0.020221 -515751.000000 0 0 1
-33.970478 -26.287665 17.067883 46.220638 0.658584 1.192573 0.106566 -0.025384 -387954.000000 0 0 1
-34.132840 -26.382665 15.641283 45.888403 0.658022 1.222970 0.110811 -0.042291 224936.000000 0 0 1
-34.845139 -25.316865 15.016383 45.613804 0.628326 1.235333 0.111341 -0.033292 -169351.000000 0 0 1
-34.084226 -23.991265 14.799283 44.230465 0.613326 1.229621 0.107593 -0.033582 -50145.300000 0 0 1
-33.946658 -23.262965 16.017683 44.160019 0.600778 1.199612 0.085397 -0.020532 -163926.000000 0 0 1
-33.373068 -22.034565 15.834583 43.011833 0.583547 1.193783 0.089497 -0.010654 -301036.000000 0 0 1
-34.305286 -20.796665 15.955083 43.173124 0.544983 1.192260 0.093975 -0.025032 69442.900000 0 0 1
-34.731264 -20.566865 17.313283 43.920455 0.534643 1.165603 0.097827 -0.015592 125777.000000 0 0 1
-35.434358 -19.414065 17.511883 44.035959 0.501220 1.161818 0.099299 -0.014625 -547227.000000 0 0 1
-36.051368 -19.138765 18.857483 44.962186 0.488041 1.138004 0.075155 -0.009483 -833325.000000 0 0 1
-37.190878 -19.773565 19.315983 46.338564 0.488668 1.140825 0.086190 -0.007368 -367765.000000 0 0 1
-37.370928 -19.593065 20.710083 47.004064 0.482887 1.114527 0.095486 -0.001220 -100602.000000 0 0 1
36.495180 -19.719265 21.370183 46.662965 -0.495385 1.095087 0.096307 -0.002253 377603.000000 0 0 1
35.911700 -20.937565 21.586283 46.840148 -0.527847 1.091844 0.099954 -0.009530 -336331.000000 0 0 1
36.707090 -21.885565 22.298883 48.204031 -0.537637 1.089878 0.077610 0.001690 -443217.000000 0 0 1
35.950160 -23.111465 22.833883 48.455547 -0.571350 1.080107 0.091006 0.010504 -22397.400000 0 0 1
35.127680 -22.873165 23.975183 48.290216 -0.577179 1.051256 0.094968 -0.008342 286408.000000 0 0 1
34.970730 -24.025565 24.736183 49.112712 -0.601961 1.042964 0.098956 -0.017610 -344654.000000 0 0 1
33.836800 -23.997765 25.775583 48.838534 -0.616888 1.014822 0.113029 -0.019835 -75884.600000 0 0 1
32.569920 -24.271765 25.235183 47.819794 -0.640435 1.014889 0.106161 -0.014033 -198280.000000 0 0 1
31.548560 -24.119065 26.187383 47.569107 -0.652721 0.987818 0.065704 -0.018345 -99169.900000 0 0 1
30.178690 -24.697265 25.780083 46.747416 -0.685841 0.986664 0.056143 -0.012670 -227136.000000 0 0 1
29.378090 -23.775665 25.093483 45.365596 -0.680386 0.984669 0.053413 -0.013852 248416.000000 0 0 1
28.143690 -24.396965 24.716183 44.700882 -0.714208 0.984927 0.049908 -0.005323 873702.000000 0 0 1
27.010290 -23.380165 24.307383 43.209221 -0.713482 0.973328 0.043707 -0.008111 -184985.000000 0 0 1
27.123890 -22.629665 23.080983 42.196433 -0.695313 0.992033 0.049276 -0.010302 -423842.000000 0 0 1
28.315290 -21.913265 22.899383 42.500924 -0.658624 1.001788 0.047140 -0.005458 -392593.000000 0 0 1
28.410390 -21.154965 21.565083 41.469695 -0.640049 1.023922 0.052533 -0.007832 -436811.000000 0 0 1
27.499090 -20.101165 21.588083 40.327436 -0.631214 1.005910 0.045334 -0.018190 -418719.000000 0 0 1
27.318790 -19.533665 20.296383 39.240585 -0.620740 1.027186 0.027963 -0.012846 361783.000000 0 0 1
26.241490 -18.384865 20.315383 37.938553 -0.611131 1.005719 0.040571 -0.014405 334793.000000 0 0 1
26.679990 -17.160965 20.871083 37.972657 -0.571591 0.988870 0.044252 -0.020133 133431.000000 0 0 1
26.784690 -17.265865 22.298083 38.893884 -0.572582 0.960262 0.045644 -0.023897 -225414.000000 0 0 1
27.004890 -15.914765 22.992083 38.873895 -0.532536 0.937937 0.055253 -0.022530 -315680.000000 0 0 1
25.832190 -15.136465 22.975583 37.739794 -0.530027 0.916263 0.027041 -0.020043 -61229.600000 0 0 1
25.911090 -13.890965 23.619983 37.712691 -0.492110 0.893980 0.022640 -0.019465 1057320.000000 0 0 1
24.517590 -13.206665 23.280083 36.297252 -0.494096 0.874510 0.018321 -0.017710 1347150.000000 0 0 1
23.393790 -13.869865 23.834183 36.162285 -0.535173 0.851189 0.045748 -0.018424 -857616.000000 0 0 1
22.243190 -13.217565 23.451583 34.920485 -0.536166 0.834469 0.071631 -0.020743 -275252.000000 0 0 1
20.941890 -13.844365 24.044083 34.761288 -0.584128 0.806968 0.092787 -0.025263 226977.000000 0 0 1
20.430290 -15.024765 23.463083 34.549335 -0.634102 0.824236 0.112471 -0.027675 728418.000000 0 0 1
19.182990 -15.410165 24.078183 34.427013 -0.676765 0.796241 0.115028 -0.026739 672109.000000 0 0 1
18.552390 -16.537765 23.162883 33.973637 -0.728048 0.820590 0.128562 -0.036440 -88835.000000 0 0 1
19.228590 -17.776365 23.121283 34.933244 -0.746174 0.847485 0.112063 -0.030262 109739.000000 0 0 1
18.650090 -18.698665 22.198983 34.500156 -0.786699 0.871805 0.133300 -0.032539 203642.000000 0 0 1
19.167990 -20.142765 22.443883 35.733328 -0.810190 0.891695 0.111840 -0.024378 -178341.000000 0 0 1
18.540890 -20.684265 23.589983 36.442979 -0.839987 0.866744 0.117728 -0.026383 271629.000000 0 0 1
18.918090 -21.955465 24.058683 37.666388 -0.859573 0.877949 0.122280 -0.025094 -393484.000000 0 0 1
18.403190 -23.110165 23.142383 37.527683 -0.898301 0.906284 0.112494 -0.021803 -140463.000000 0 0 1
19.062790 -23.277865 21.921283 37.226222 -0.884623 0.941140 0.112493 -0.018106 -537262.000000 0 0 1
20.307090 -23.903365 22.021183 38.323378 -0.866564 0.958663 0.098394 -0.017186 -777250.000000 0 0 1
21.112090 -23.729765 20.749283 37.938830 -0.843708 0.992123 0.088791 -0.006166 -656962.000000 0 0 1
20.614290 -24.501565 19.722083 37.606332 -0.871348 1.018745 0.085972 -0.017558 675093.000000 0 0 1
21.650190 -24.819065 18.775483 37.910889 -0.853486 1.052670 0.080974 -0.014845 365492.000000 0 0 1
21.126890 -25.632665 17.625883 37.603866 -0.881462 1.082949 0.081887 -0.017734 79251.800000 0 0 1
20.546190 -26.851665 18.018383 38.312139 -0.917655 1.081160 0.082299 -0.027157 451578.000000 0 0 1
19.668190 -27.486065 17.077883 37.867870 -0.949697 1.102926 0.090909 -0.032221 379221.000000 0 0 1
18.824290 -28.606765 17.760283 38.576269 -0.988792 1.092357 0.076432 -0.025279 -202071.000000 0 0 1
17.696390 -28.102665 18.409683 37.971548 -1.008821 1.064629 0.102206 -0.037149 -103428.000000 0 0 1
16.958690 -29.107065 19.138983 38.744278 -1.043246 1.054132 0.114407 -0.042968 660271.000000 0 0 1
15.621690 -28.606065 19.744583 38.107646 -1.070955 1.026137 0.112560 -0.034693 975858.000000 0 0 1
14.530990 -28.335365 18.861983 37.011039 -1.096944 1.036040 0.118230 -0.031829 595332.000000 0 0 1
13.308490 -27.949565 19.458383 36.563954 -1.126401 1.009630 0.112942 -0.030241 379110.000000 0 0 1
12.250390 -27.439865 18.456583 35.265617 -1.150903 1.020008 0.123745 -0.038617 -73785.200000 0 0 1
11.834390 -28.512565 17.638883 35.554878 -1.177376 1.051692 0.130898 -0.041530 213004.000000 0 0 1
11.057290 -28.021165 16.534383 34.363282 -1.194950 1.068814 0.140762 -0.039070 218560.000000 0 0 1
10.902290 -28.991565 15.350383 34.568845 -1.211105 1.110680 0.128755 -0.036767 243853.000000 0 0 1
9.851390 -29.928165 15.581283 35.149983 -1.252799 1.111542 0.137628 -0.036023 190695.000000 0 0 1
9.572190 -30.854865 14.552383 35.431926 -1.269978 1.147559 0.111402 -0.031133 549095.000000 0 0 1
8.249890 -31.670665 14.793883 35.915884 -1.315969 1.146254 0.113749 -0.031326 493255.000000 0 0 1
8.260790 -32.773965 15.735883 37.282589 -1.323886 1.135068 0.138707 -0.040416 -187362.000000 0 0 1
7.399890 -33.791665 15.288683 37.820349 -1.355214 1.154643 0.103935 -0.033044 11393.100000 0 0 1
7.461490 32.721031 16.271683 37.297552 1.346596 1.119351 0.119705 -0.041955 -83695.600000 0 0 1
8.693090 32.051031 16.183183 36.942304 1.305942 1.117350 0.125255 -0.041329 -306837.000000 0 0 1
8.871590 31.190431 17.247583 36.729106 1.293682 1.081971 0.131612 -0.050248 423887.000000 0 0 1
10.303090 30.570631 17.246583 36.580894 1.245726 1.079846 0.115285 -0.054373 160703.000000 0 0 1
10.697490 29.604031 16.278483 35.437607 1.224044 1.093526 0.139054 -0.048908 -801505.000000 0 0 1
11.894090 29.017631 16.651783 35.507382 1.181792 1.082676 0.120898 -0.054878 -761791.000000 0 0 1
12.579990 28.171131 15.541883 34.545896 1.150810 1.104153 0.113830 -0.048586 -264854.000000 0 0 1
11.781890 27.117431 15.053383 33.177889 1.160926 1.099864 0.130052 -0.051026 39402.700000 0 0 1
12.487890 26.161431 14.238683 32.297182 1.125441 1.114235 0.125975 -0.037716 -2520.560000 0 0 1
-9.252968 -8.844769 18.923788 22.846381 0.762847 0.594719 0.059896 -0.032266 -28280.100000 0 1 0
-9.306768 -9.097769 17.540588 21.841647 0.774043 0.638350 0.052387 -0.034426 -54930.400000 0 1 0
-9.377768 -10.469069 17.309588 22.297215 0.840329 0.682003 0.064733 -0.037566 -78360.200000 0 1 0
-9.779968 -10.855569 15.889488 21.586268 0.837475 0.743517 0.068952 -0.031074 -136454.000000 0 1 0
-11.144668 -10.546469 15.711588 21.961002 0.757827 0.773555 0.069848 -0.034907 132306.000000 0 1 0
-11.730568 -11.089969 14.524788 21.715504 0.757334 0.838112 0.081544 -0.033447 91648.100000 0 1 0
-11.854768 -12.624169 14.196888 22.393231 0.816819 0.884106 0.057120 -0.032414 -94909.600000 0 1 0
-10.648668 -13.271969 13.790888 21.902691 0.894629 0.889702 0.085654 -0.030833 474017.000000 0 1 0
-10.769268 -14.689969 13.871988 22.895510 0.938197 0.919922 0.101971 -0.032323 -84666.900000 0 1 0
-10.642268 -15.301969 15.328988 24.132675 0.963108 0.882534 0.124816 -0.036291 -181555.000000 0 1 0
-11.687468 -15.117669 16.242388 25.078995 0.912674 0.866301 0.090594 -0.025839 -378085.000000 0 0 1
-11.182068 -15.279569 17.517788 25.794898 0.939025 0.824235 0.130658 -0.028585 -319109.000000 0 0 1
-12.201668 -14.819269 18.567788 26.706819 0.881970 0.802035 0.072124 -0.021823 -220946.000000 0 0 1
-12.576868 -13.470469 18.518588 26.126026 0.819692 0.782976 0.070403 -0.024872 264527.000000 0 0 1
-13.605768 -13.073969 17.617088 25.814867 0.765468 0.819701 0.088304 -0.032534 526706.000000 0 0 1
-15.057068 -13.136869 18.193188 27.023780 0.717396 0.832230 0.051413 -0.021130 240946.000000 0 0 1
-15.462468 -14.447569 18.502788 28.110022 0.751479 0.852335 0.058123 -0.015565 80341.200000 0 0 1
-16.652068 -14.441169 19.278988 29.283410 0.714412 0.852160 0.067204 -0.016669 59890.600000 0 0 1
-17.188568 -15.790369 19.745388 30.572258 0.743027 0.868648 0.079018 -0.023887 -77044.200000 0 0 1
-18.128268 -16.401069 18.873288 30.884141 0.735419 0.913347 0.079455 -0.018419 225257.000000 0 0 1
-18.563268 -17.658369 19.442888 32.162693 0.760421 0.921637 0.085577 -0.024972 253914.000000 0 0 1
-19.853468 -18.313569 18.854488 32.939926 0.745074 0.961379 0.093255 -0.019945 99397.300000 0 0 1
-19.926168 -18.495369 17.419788 32.289005 0.748176 1.000958 0.097067 -0.027169 43072.900000 0 0 1
-20.176668 -17.348269 16.662188 31.395682 0.710167 1.011351 0.095730 -0.034943 -556420.000000 0 0 1
-19.836268 -17.413469 15.160088 30.439032 0.720448 1.049450 0.094967 -0.039825 -360065.000000 0 0 1
-20.542768 -18.335469 14.420888 31.083062 0.728684 1.088351 0.106856 -0.031177 -118252.000000 0 0 1
-20.038568 -18.342369 13.103188 30.160906 0.741233 1.121377 0.105528 -0.034485 108670.000000 0 0 1
-20.018068 -19.753269 12.415588 30.741853 0.778740 1.155057 0.115074 -0.030740 -237765.000000 0 0 1
-19.098068 -20.684369 12.948088 30.987615 0.825251 1.139722 0.115996 -0.028510 112163.000000 0 0 1
-19.115468 -21.840469 12.107888 31.448500 0.851835 1.175581 0.095945 -0.028221 124789.000000 0 0 1
-18.028768 -22.840969 12.629388 31.721409 0.902603 1.161314 0.081106 -0.025108 279157.000000 0 0 1
-18.008368 -24.106169 11.951488 32.376639 0.929190 1.192714 0.090385 -0.036730 270611.000000 0 0 1
-17.232568 -24.129769 10.745688 31.538500 0.950629 1.223117 0.064065 -0.030819 -219917.000000 0 0 1
-17.523468 -25.402369 9.922588 32.416200 0.966924 1.259703 0.071168 -0.033090 -1177310.000000 0 0 1
-18.701068 -25.362509 9.218888 32.832525 0.935440 1.286184 0.062907 -0.030651 -1156270.000000 0 0 1
-18.824068 -26.338009 8.167388 33.387759 0.950265 1.323666 0.078236 -0.033783 -147294.000000 0 0 1
-20.010568 -26.149199 7.202088 33.705689 0.917609 1.355460 0.066671 -0.032644 -54967.500000 0 0 1
-20.013268 -24.954369 6.458688 32.633818 0.894840 1.371567 0.076360 -0.034986 88769.600000 0 0 1
-21.075268 -24.857969 5.520488 33.053915 0.867565 1.402995 0.098048 -0.028266 33524.900000 0 0 1
-21.218368 -23.492569 4.790588 32.016709 0.836219 1.420605 0.104895 -0.023362 -335569.000000 0 0 1
-22.016368 -23.711869 3.670088 32.564440 0.822459 1.457854 0.107603 -0.031988 -138154.000000 0 0 1
-22.102768 -22.579469 2.827388 31.723160 0.796066 1.481551 0.111726 -0.028998 76126.900000 0 0 1
-22.834768 -22.859169 1.486188 32.344659 0.785932 1.524832 0.107857 -0.024382 66709.100000 0 0 1
-22.118568 -23.733569 0.642588 32.448825 0.820606 1.550992 0.085838 -0.038197 4208.130000 0 0 1
-22.486268 -23.435669 -0.649712 32.485150 0.806069 1.590798 0.099968 -0.030376 -61689.300000 0 0 1
-21.736768 -24.242569 -1.790612 32.609746 0.839843 1.625734 0.104462 -0.032413 891761.000000 0 0 1
-20.349268 -23.850169 -1.890612 31.408560 0.864440 1.631027 0.095405 -0.028637 971186.000000 0 0 1
-19.548868 -24.509269 -2.840012 31.479011 0.897514 1.661138 0.083377 -0.017063 179509.000000 0 0 1
-19.205268 -25.995859 -2.654112 32.429482 0.934514 1.652731 0.099202 -0.026091 -2677.680000 0 0 1
-20.327668 -26.882789 -2.928712 33.830102 0.923365 1.657476 0.153615 -0.038327 469492.000000 0 0 1
-19.945068 -27.958069 -3.731412 34.545373 0.951139 1.679022 0.155911 -0.033021 -369376.000000 0 0 1
-21.017968 -28.939209 -4.274412 36.020874 0.942650 1.689741 0.169079 -0.039411 -191131.000000 0 0 1
-21.694368 -28.514749 -5.421312 36.237096 0.920411 1.720967 0.169438 -0.036536 -220802.000000 0 0 1
-22.458268 -29.524419 -6.011612 37.579311 0.920503 1.731458 0.185081 -0.064065 -404744.000000 0 0 1
-23.206868 -29.053229 -7.240012 37.882273 0.896805 1.763098 0.178743 -0.020499 42218.100000 0 0 1
-22.357268 -28.800549 -8.375412 37.409445 0.910688 1.796595 0.194955 -0.021043 306827.000000 0 0 1
-23.046668 -28.463939 -9.546312 37.848075 0.890181 1.825777 0.201423 -0.019419 -139789.000000 0 0 1
-23.577068 -27.038359 -9.745912 37.174370 0.853676 1.836064 0.159406 -0.015813 42793.200000 0 0 1
-22.624368 -26.084269 -10.157212 35.991944 0.856312 1.856891 0.142991 -0.016163 -12491.000000 0 0 1
-22.107968 -25.282549 -9.094012 34.794692 0.852286 1.835229 0.141119 -0.019636 -4936.280000 0 0 1
-21.882468 -23.810369 -9.415812 33.681354 0.827566 1.854128 0.092443 -0.019799 327105.000000 0 0 1
-23.098668 -23.166069 -9.780512 34.144891 0.786855 1.861307 0.124030 -0.019904 294613.000000 0 0 1
-22.884168 -21.874069 -10.332612 33.300494 0.762834 1.886288 0.103243 -0.018303 -574162.000000 0 0 1
-24.135068 -21.043769 -10.272612 33.628385 0.717081 1.881233 0.125214 -0.015918 -573546.000000 0 0 1
-25.048628 -21.202669 -11.356312 34.726830 0.702435 1.903943 0.119796 -0.012740 450451.000000 0 0 1
-26.233038 -20.421069 -11.318112 35.118257 0.661461 1.898939 0.129841 -0.010228 181549.000000 0 0 1
-26.169558 -18.881969 -11.429012 34.234439 0.625026 1.911176 0.146233 -0.030446 -1202290.000000 0 0 1
-25.777838 -18.421669 -12.688012 34.129759 0.620479 1.951698 0.147081 -0.029403 204968.000000 0 0 1
-25.520068 -17.020169 -12.740812 33.215784 0.588187 1.964463 0.144155 -0.039300 545950.000000 0 0 1
-24.245568 -16.500769 -11.970512 31.676744 0.597565 1.958319 0.130670 -0.036279 -17652.200000 0 0 1
-24.451768 -16.456469 -10.587112 31.317587 0.592386 1.915647 0.170219 -0.039930 492116.000000 0 0 1
-23.226968 -16.526269 -9.861512 30.163869 0.618411 1.903851 0.157060 -0.039699 306765.000000 0 0 1
-23.405668 -16.792369 -8.373112 29.998632 0.622341 1.853670 0.136246 -0.047969 -99665.700000 0 0 1
-24.079168 -18.009569 -8.159812 31.156595 0.642176 1.835783 0.164761 -0.038496 205467.000000 0 0 1
-24.612968 -18.089669 -6.839412 31.301947 0.633809 1.791071 0.165250 -0.020817 -265347.000000 0 0 1
-25.380868 -19.395669 -6.559812 32.609992 0.652518 1.773338 0.180631 -0.018907 757465.000000 0 0 1
-26.370358 -19.658869 -7.599012 33.758138 0.640609 1.797844 0.149054 -0.028551 836138.000000 0 0 1
-27.207938 -20.812969 -7.418112 35.049678 0.653007 1.784055 0.145073 -0.011138 324417.000000 0 0 1
-26.583208 -22.196369 -7.694312 35.476022 0.695708 1.789421 0.130620 -0.007224 507832.000000 0 0 1
-27.560218 -23.248069 -7.718412 36.872919 0.700730 1.781681 0.134656 -0.004038 365245.000000 0 0 1
-26.880178 -24.367969 -8.265312 37.210983 0.736417 1.794785 0.131429 0.006588 519946.000000 0 0 1
-27.699278 -25.684409 -8.412712 38.700292 0.747673 1.789927 0.133341 -0.012042 172288.000000 0 0 1
-27.867928 -26.258719 -7.121312 38.946820 0.755676 1.754678 0.168226 -0.037782 -149625.000000 0 0 1
-28.490548 -27.505489 -7.186612 40.248113 0.767808 1.750317 0.148624 -0.040607 -131925.000000 0 0 1
-28.333098 -28.457599 -5.998012 40.602654 0.787590 1.719064 0.150344 -0.044350 32988.200000 0 0 1
-28.709028 -27.807479 -4.807212 40.256347 0.769448 1.690497 0.122410 -0.040975 -165469.000000 0 0 1
-27.767628 -27.947459 -3.776112 39.577274 0.788626 1.666353 0.145288 -0.052643 -187289.000000 0 0 1
-27.786168 -29.244609 -2.916612 40.445332 0.810965 1.642971 0.129415 -0.033249 -180011.000000 0 0 1
-27.434848 -30.419239 -3.607212 41.121928 0.836937 1.658629 0.130509 -0.039866 -167317.000000 0 0 1
-27.410728 -31.592059 -2.839012 41.922144 0.856147 1.638569 0.117486 -0.042149 392568.000000 0 0 1
-26.369408 -31.832649 -1.666912 41.369576 0.878991 1.611100 0.121805 -0.035983 1037420.000000 0 0 1
-25.026378 -31.917669 -2.170012 40.617313 0.905831 1.624248 0.140235 -0.049592 683972.000000 0 0 1
-24.079668 -31.958799 -1.093612 40.029879 0.925085 1.598120 0.138141 -0.029926 1212480.000000 0 0 1
-23.024168 -30.760119 -0.958212 38.434560 0.928251 1.595730 0.150276 -0.032983 579380.000000 0 0 1
-23.541968 -29.495469 -0.726012 37.745649 0.897181 1.590032 0.125497 -0.027085 -467975.000000 0 0 1
-23.899068 -28.845079 -1.927912 37.508944 0.878898 1.622218 0.155691 -0.035953 -156145.000000 0 0 1
-24.438068 -27.458979 -1.572712 36.792501 0.843542 1.613555 0.099057 -0.021983 -203417.000000 0 0 1
-25.761678 -27.402919 -1.110012 37.627332 0.816259 1.600301 0.122615 -0.026659 -469646.000000 0 0 1
-26.204338 -26.128709 -0.536112 37.008974 0.783953 1.585283 0.141451 -0.036430 234937.000000 0 0 1
-25.563398 -25.492129 0.746388 36.109459 0.784002 1.550125 0.140574 -0.026435 -155208.000000 0 0 1
-25.601578 -26.148379 1.997288 36.649252 0.795964 1.516272 0.128392 -0.025861 -407530.000000 0 0 1
-24.972568 -25.510079 3.077588 35.831059 0.796045 1.484799 0.144403 -0.022135 -92829.000000 0 0 1
-25.807738 -24.436269 3.792288 35.742860 0.758109 1.464497 0.163817 -0.032675 34284.200000 0 0 1
-26.309238 -23.406069 2.984488 35.340164 0.727069 1.486245 0.146529 -0.035123 347431.000000 0 0 1
-27.206768 -22.527369 3.670088 35.512816 0.691586 1.467266 0.164484 -0.028966 262541.000000 0 0 1
-27.440148 -21.338169 2.778588 34.871187 0.660949 1.491030 0.160530 -0.023516 643374.000000 0 0 1
-26.270178 -20.517769 2.799288 33.450517 0.663066 1.487014 0.146407 -0.023946 439570.000000 0 0 1
-26.390258 -19.463469 1.834188 32.842603 0.635469 1.514919 0.116039 -0.020850 716425.000000 0 0 1
-25.159138 -18.495269 1.631988 31.268524 0.633917 1.518580 0.121274 -0.018602 670406.000000 0 0 1
-23.953568 -19.117769 1.213188 30.671393 0.673592 1.531232 0.129841 -0.019244 -836821.000000 0 0 1
-22.948368 -18.227469 1.432388 29.341437 0.671244 1.521959 0.109816 -0.016123 -1279020.000000 0 0 1
-21.617868 -18.943969 1.682888 28.793025 0.719572 1.512315 0.079840 -0.024502 -447954.000000 0 0 1
-21.063368 -19.590169 0.559488 28.770700 0.749176 1.551349 0.044680 -0.006864 495464.000000 0 0 1
-19.840468 -20.246269 0.941788 28.362696 0.795521 1.537585 0.085386 -0.011843 517944.000000 0 0 1
-19.187068 -20.914969 -0.323412 28.384575 0.828459 1.582191 0.085826 -0.008075 26684.300000 0 0 1
-18.686668 -20.000769 -1.316612 27.403572 0.819352 1.618860 0.095466 -0.014568 128289.000000 0 0 1
-18.531968 -20.600069 -2.610612 27.831852 0.838198 1.664734 0.087396 -0.008473 -2464.380000 0 0 1
-17.973668 -19.559269 -3.614412 26.808240 0.827619 1.706033 0.109749 -0.001675 -388925.000000 0 0 1
-16.603568 -19.353969 -3.446712 25.731972 0.861740 1.705147 0.146120 -0.019551 -577281.000000 0 0 1
-16.128468 -18.678269 -4.582512 25.099893 0.858524 1.754397 0.153451 -0.009586 462985.000000 0 0 1
-14.603568 -18.375369 -4.584012 23.915090 0.899273 1.763669 0.159810 -0.025466 817187.000000 0 1 0
-13.618768 -19.398069 -4.721012 24.167000 0.958684 1.767410 0.122590 -0.026264 396929.000000 0 1 0
-12.473468 -18.941769 -5.405612 23.315202 0.988457 1.804775 0.113002 -0.038183 500150.000000 0 1 0
-11.271768 -19.933469 -5.482412 23.546821 1.056154 1.805783 0.108555 -0.051536 548371.000000 0 1 0
-11.478468 -21.114969 -6.290712 24.842910 1.072866 1.826803 0.092591 -0.041861 347793.000000 0 1 0
-10.209468 -21.710869 -6.625712 24.889659 1.131233 1.840248 0.104971 -0.041158 797770.000000 0 1 0
-10.333768 -22.964369 -7.581412 26.298798 1.147950 1.863226 0.087282 -0.018494 -311699.000000 0 0 1
-10.809068 -22.611069 -8.824912 26.570199 1.124868 1.909363 0.084561 -0.017529 -306362.000000 0 0 1
-10.555168 -23.631269 -9.688112 27.635266 1.150723 1.928977 0.099107 -0.018744 -7532.740000 0 0 1
-11.292968 -23.579969 -11.042512 28.381035 1.124153 1.970430 0.139143 -0.023519 71589.100000 0 0 1
-10.716368 -22.670269 -11.950612 27.777666 1.129222 2.015537 0.118134 -0.015114 204031.000000 0 0 1
-11.617868 -22.418669 -13.015812 28.407445 1.092677 2.046746 0.127773 -0.028211 -255882.000000 0 0 1
-11.197568 -21.195269 -13.898412 27.709038 1.084762 2.096225 0.094919 -0.005035 35877.300000 0 0 1
-11.034968 -19.942269 -13.243912 26.360307 1.065388 2.097190 0.092988 -0.011775 12441.300000 0 0 1
-11.006468 -18.842869 -14.163812 26.015565 1.042136 2.146513 0.084628 -0.000801 18538.900000 0 0 1
-10.586868 -17.477569 -13.528412 24.506430 1.026167 2.155599 0.090996 0.001180 -329104.000000 0 1 0
-11.469968 -17.005969 -12.525712 24.034488 0.977413 2.119001 0.098282 -0.011338 191340.000000 0 1 0
-10.873968 -15.987869 -11.690612 22.594812 0.973525 2.114609 0.090103 -0.013798 216223.000000 0 1 0
-10.816568 -14.584069 -12.355112 21.962286 0.932648 2.168276 0.094165 -0.007073 -726985.000000 0 1 0
-12.049168 -14.098969 -12.739612 22.500246 0.863630 2.172683 0.086956 -0.003105 -878825.000000 0 1 0
-12.074868 -13.890769 -14.162112 23.223292 0.855219 2.226634 0.099739 -0.012032 260710.000000 0 1 0
-13.358768 -13.216069 -14.737812 23.881462 0.780029 2.235878 0.099474 -0.012592 215606.000000 0 1 0
-13.404568 -11.922969 -14.263212 22.918962 0.726967 2.242515 0.082988 -0.008070 468536.000000 0 1 0
-14.531968 -11.206769 -14.816112 23.585736 0.656919 2.250010 0.088909 -0.025690 203737.000000 0 1 0
-14.701968 -9.763169 -14.250912 22.683823 0.586204 2.250087 0.083072 -0.029285 328035.000000 0 1 0
-13.542368 -8.925569 -14.307612 21.627974 0.582735 2.293657 0.066117 -0.023357 520600.000000 0 1 0
-13.288168 -8.293869 -15.531312 22.058679 0.557991 2.351938 0.059907 -0.026106 -485377.000000 0 1 0
-12.194168 -7.224569 -15.553812 21.043127 0.534858 2.402589 0.046954 -0.016863 -794221.000000 0 1 0
-10.951368 -7.814169 -15.743412 20.708663 0.619751 2.434468 0.044381 -0.012842 -537671.000000 0 1 0
-9.918368 -6.837469 -15.797112 19.866397 0.603559 2.490080 0.032124 0.000624 303460.000000 0 1 0
11.982032 22.288131 16.061488 29.971675 1.077525 1.005236 0.126378 -0.031925 -745200.000000 0 0 1
12.964532 22.221531 17.024988 30.850053 1.042656 0.986200 0.134777 -0.048118 -827994.000000 0 0 1
13.286632 20.895931 17.064088 30.072540 1.004434 0.967414 0.115284 -0.036480 -130690.000000 0 0 1
14.442032 20.651231 18.078288 31.014031 0.960520 0.948495 0.115234 -0.042425 -779370.000000 0 0 1
15.635732 21.116431 17.573888 31.610462 0.933433 0.981289 0.108764 -0.039605 -1100410.000000 0 0 1
16.704832 20.546131 18.321288 32.200381 0.888154 0.965535 0.117512 -0.041367 -481931.000000 0 0 1
18.030832 21.103931 17.848288 33.000730 0.863763 0.999355 0.094452 -0.031140 -1453840.000000 0 0 1
18.254032 22.459131 18.147988 34.160968 0.888319 1.010722 0.101537 -0.037410 54099.200000 0 0 1
19.468532 22.983331 17.663188 34.917696 0.868005 1.040427 0.101292 -0.029212 427174.000000 0 0 1
20.847232 22.558731 18.220788 35.714151 0.824808 1.035398 0.088783 -0.032830 -246545.000000 0 0 1
21.205932 21.218831 17.814488 34.889631 0.785702 1.034919 0.104275 -0.029132 -530750.000000 0 0 1
22.499732 21.017931 18.287188 35.810789 0.751361 1.034842 0.121830 -0.030594 -506296.000000 0 0 1
23.003432 19.541031 18.239288 35.265868 0.704194 1.027227 0.107051 -0.030314 -56423.300000 0 0 1
23.305932 19.138931 16.905288 34.572445 0.687537 1.059874 0.083247 -0.025938 -17574.900000 0 0 1
23.027132 17.764631 16.731288 33.552451 0.657098 1.048743 0.076636 -0.020399 -227776.000000 0 0 1
24.013732 16.677731 17.222288 33.932481 0.607031 1.038462 0.071053 -0.026259 729185.000000 0 0 1
25.219732 16.637131 16.434288 34.393529 0.583155 1.072613 0.084682 -0.031650 329265.000000 0 0 1
26.038032 15.567631 16.665988 34.613371 0.538860 1.068442 0.065805 -0.013669 -552931.000000 0 0 1
27.351132 15.562131 15.834288 35.227674 0.517295 1.104608 0.167482 -0.041870 34473.300000 0 0 1
28.382532 16.456831 16.244488 36.609819 0.525451 1.111052 0.141066 -0.035123 412418.000000 0 0 1
29.259932 16.060231 17.297088 37.593403 0.501984 1.092678 0.157209 -0.044210 219355.000000 0 0 1
30.436532 15.244931 16.662888 37.900426 0.464348 1.115588 0.155895 -0.052237 -310248.000000 0 0 1
31.108132 15.916531 15.591188 38.264043 0.472926 1.151122 0.207760 -0.043250 101937.000000 0 0 1
31.854632 14.988231 14.835088 38.202677 0.439786 1.171982 0.214652 -0.049949 124354.000000 0 0 1
31.094132 14.633331 13.534088 36.934415 0.439864 1.195621 0.186993 -0.039614 -261464.000000 0 0 1
31.411332 15.426331 12.409088 37.129893 0.456508 1.230032 0.188260 -0.030679 -250866.000000 0 0 1
30.558732 15.401231 11.283288 36.032577 0.466833 1.252297 0.175156 -0.028357 1207270.000000 0 0 1
29.270832 16.353531 11.498288 35.446160 0.509496 1.240432 0.149106 -0.033409 973139.000000 0 0 1
29.460132 17.761031 11.360188 36.227165 0.542537 1.251833 0.133771 -0.022009 -76310.900000 0 0 1
30.117032 18.475731 12.386088 37.440666 0.550261 1.233625 0.169530 -0.025494 -357209.000000 0 0 1
29.389732 18.524131 13.732688 37.356211 0.562396 1.194354 0.154300 -0.027918 -877919.000000 0 0 1
28.185032 19.186031 13.559888 36.692920 0.597667 1.192271 0.154007 -0.024047 -279814.000000 0 0 1
27.268932 19.090031 14.667888 36.375416 0.610770 1.155746 0.116636 -0.023208 246417.000000 0 0 1
27.529832 19.858031 16.002788 37.527620 0.624897 1.130257 0.116460 -0.031070 -339029.000000 0 0 1
27.419832 21.281531 15.973788 38.208804 0.660020 1.139481 0.095720 -0.021744 -80813.100000 0 0 1
26.110132 21.720231 16.239888 37.646267 0.693874 1.124773 0.090470 -0.020160 -175007.000000 0 0 1
25.952832 23.238231 16.151688 38.398462 0.730269 1.136653 0.097022 -0.012537 -178901.000000 0 0 1
25.767232 23.659531 14.778988 37.975547 0.742781 1.171065 0.111484 -0.025030 188906.000000 0 0 1
26.158832 24.977531 14.543788 38.983116 0.762301 1.188471 0.122160 -0.030173 -250369.000000 0 0 1
25.779132 25.396431 13.057588 38.471327 0.777920 1.224506 0.113611 -0.030464 7964.570000 0 0 1
24.387932 25.545731 12.884888 37.594893 0.808581 1.220975 0.122750 -0.030765 -79005.500000 0 0 1
23.986332 25.515231 11.514288 36.863939 0.816274 1.253135 0.113110 -0.045618 50898.600000 0 0 1
23.461132 24.200631 10.866088 35.414222 0.800912 1.258937 0.130598 -0.045112 317581.000000 0 0 1
22.054832 23.946331 10.951188 34.347794 0.826494 1.246299 0.128411 -0.038791 478872.000000 0 0 1
21.694332 22.648431 10.497288 33.072474 0.806911 1.247807 0.130239 -0.031409 -13035.200000 0 0 1
21.476632 22.495131 9.006888 32.379016 0.808557 1.288907 0.142477 -0.030024 1061590.000000 0 0 1
20.224432 22.973331 8.408788 31.741287 0.848948 1.302679 0.139458 -0.033598 1417660.000000 0 0 1
20.428432 23.427831 7.109688 31.886232 0.853683 1.345936 0.136198 -0.037470 574449.000000 0 0 1
19.072332 23.640531 6.357788 31.033048 0.891945 1.364464 0.120149 -0.032353 250573.000000 0 0 1
18.297232 22.480031 6.112988 29.622781 0.887617 1.362942 0.127650 -0.027336 521064.000000 0 0 1
17.517932 22.447931 4.921588 28.896532 0.908133 1.399644 0.136495 -0.032907 508518.000000 0 0 1
16.169232 23.218731 4.857788 28.708042 0.962499 1.400765 0.088823 -0.017478 -42730.800000 0 0 1
16.407932 24.607231 4.928488 29.983763 0.982706 1.405675 0.097546 -0.021291 498589.000000 0 0 1
15.279032 25.302231 5.465888 30.058737 1.027543 1.387939 0.086836 -0.025929 249254.000000 0 0 1
15.083432 26.787831 5.040788 31.152967 1.057974 1.408274 0.075364 -0.027736 -284927.000000 0 0 1
14.548532 26.908231 3.713388 30.813989 1.075143 1.449993 0.065313 -0.016014 531250.000000 0 0 1
14.395032 28.292231 3.395188 31.924827 1.100135 1.464245 0.061530 -0.019239 -165832.000000 0 0 1
13.780832 28.523031 1.992288 31.740256 1.120721 1.507987 0.072144 -0.018958 -109316.000000 0 0 1
14.606832 28.213531 0.869188 31.782359 1.093070 1.543445 0.103159 -0.024514 182410.000000 0 0 1
14.476232 26.861831 0.538588 30.519000 1.076504 1.553148 0.065888 -0.014586 326143.000000 0 0 1
15.594332 26.408631 -0.453212 30.672535 1.037390 1.585573 0.074328 -0.019342 369900.000000 0 0 1
15.330232 26.887131 -1.717312 30.998113 1.052600 1.626225 0.070523 -0.010002 293715.000000 0 0 1
16.480232 26.670431 -2.532812 31.453539 1.017303 1.651409 0.076425 -0.006668 415407.000000 0 0 1
16.323432 27.189531 -3.999112 31.964323 1.030114 1.696237 0.101362 -0.017870 -226182.000000 0 0 1
15.512732 26.421031 -4.859012 31.021376 1.039890 1.728078 0.128722 -0.023080 -303166.000000 0 0 1
15.423532 26.946031 -6.174012 31.655842 1.050929 1.767090 0.141039 -0.024251 36609.500000 0 0 1
14.148232 26.552531 -6.931612 30.874854 1.081224 1.797233 0.152493 -0.035766 32119.300000 0 0 1
13.894332 25.217131 -7.282312 29.698287 1.067195 1.818532 0.136491 -0.032786 21918.400000 0 0 1
12.594232 24.955531 -7.784112 29.016988 1.103422 1.842383 0.110203 -0.033862 381678.000000 0 0 1
12.274732 23.498131 -8.231712 27.759544 1.089413 1.871860 0.120890 -0.033594 80005.100000 0 0 1
12.996832 23.130431 -9.400412 28.147864 1.058868 1.911304 0.117302 -0.034771 143912.000000 0 0 1
12.714032 21.857631 -9.835912 27.132044 1.043960 1.941767 0.127452 -0.027532 -267964.000000 0 0 1
12.865832 21.524531 -11.306612 27.507718 1.032048 1.994385 0.132248 -0.031946 74951.600000 0 0 1
12.443832 20.148131 -11.508712 26.329576 1.017524 2.023170 0.152704 -0.035065 -15884.800000 0 0 1
12.660832 19.729231 -12.838512 26.727638 1.000257 2.071845 0.146851 -0.036629 1043420.000000 0 0 1
14.115832 19.181231 -13.109812 27.185355 0.936368 2.074004 0.145915 -0.029712 1309590.000000 0 0 1
15.168432 20.141431 -13.142812 28.433995 0.925317 2.051295 0.120948 -0.021267 -144390.000000 0 0 1
16.412032 19.613431 -13.549312 28.941758 0.874030 2.058001 0.109167 -0.013663 40080.300000 0 0 1
17.514732 20.664231 -13.269112 30.163647 0.867705 2.026288 0.107280 -0.005285 -401787.000000 0 0 1
17.623432 21.831231 -14.047812 31.377206 0.891646 2.034996 0.109627 -0.018825 539982.000000 0 0 1
16.555132 22.805131 -14.003112 31.467977 0.942873 2.031966 0.109220 -0.021555 538384.000000 0 0 1
17.003132 24.190931 -14.538812 32.949730 0.958145 2.027779 0.109776 -0.018075 -26645.100000 0 0 1
17.405232 24.217131 -15.888512 33.791365 0.947620 2.060307 0.093691 -0.017561 95190.400000 0 0 1
16.305132 24.341031 -16.792912 33.768995 0.980585 2.091266 0.090442 -0.016957 421362.000000 0 0 1
16.647432 24.340631 -18.301512 34.706608 0.970933 2.126240 0.073836 -0.007072 122825.000000 0 0 1
17.076332 23.117031 -18.838012 34.363774 0.934573 2.151000 0.067885 0.000171 -312112.000000 0 0 1
16.831832 23.154631 -20.231112 35.053465 0.942223 2.186031 0.071513 0.010176 104598.000000 0 0 1
17.098732 21.822631 -20.962912 34.756834 0.906178 2.218217 0.079224 0.010812 352211.000000 0 0 1
15.987532 20.935131 -20.941612 33.651627 0.918604 2.242482 0.078392 0.010555 225233.000000 0 0 1
16.372132 19.737331 -21.607112 33.533211 0.878324 2.270969 0.081855 0.009328 -163383.000000 0 0 1
15.296632 18.658631 -21.733812 32.472913 0.884089 2.304050 0.084718 0.000622 -693776.000000 0 0 1
15.033932 18.004231 -20.493412 31.147253 0.875062 2.288893 0.084541 -0.003981 239911.000000 0 0 1
14.144532 16.926131 -20.678612 30.235190 0.874685 2.323926 0.075669 -0.009488 1385240.000000 0 0 1
12.581032 17.200531 -20.632012 29.661769 0.939285 2.340018 0.088135 -0.019475 1064880.000000 0 0 1
12.004832 17.152631 -19.355012 28.512194 0.960149 2.316968 0.094092 -0.028569 356053.000000 0 0 1
10.607132 17.425631 -19.320012 28.096739 1.023998 2.329009 0.095176 -0.035623 608104.000000 0 0 1
9.867532 16.812431 -18.086412 26.592185 1.040051 2.318750 0.108579 -0.039204 -592242.000000 0 0 1
9.545832 15.440631 -18.166012 25.681511 1.017082 2.356549 0.131314 -0.057808 168735.000000 0 0 1
8.189932 15.068331 -18.368212 25.130078 1.072942 2.390473 0.134587 -0.042432 354964.000000 0 0 1
7.316432 15.175731 -17.089912 23.997877 1.121560 2.363342 0.138560 -0.052180 -299760.000000 0 1 0
7.143632 16.525531 -16.674412 24.538962 1.162777 2.317888 0.151578 -0.048810 -392040.000000 0 1 0
6.569032 16.770331 -15.413412 23.705895 1.197461 2.278635 0.124080 -0.055013 -290322.000000 0 1 0
6.317832 18.250931 -15.034012 24.475151 1.237542 2.232239 0.105820 -0.050572 5710.190000 0 1 0
7.456232 19.098931 -14.901612 25.346057 1.198593 2.199289 0.112781 -0.043694 127019.000000 0 0 1
7.846932 19.737831 -16.135512 26.674165 1.192397 2.220451 0.114213 -0.034930 601289.000000 0 0 1
9.145432 20.606331 -15.887312 27.580183 1.153096 2.184673 0.103984 -0.024659 552305.000000 0 0 1
8.976232 21.765231 -15.154612 27.999291 1.179636 2.142719 0.096012 -0.033940 -65281.100000 0 0 1
9.122032 21.614731 -13.738012 27.187148 1.171445 2.100541 0.113735 -0.031467 -243882.000000 0 0 1
8.629532 22.792231 -12.899012 27.574248 1.208858 2.057587 0.102646 -0.038717 -626039.000000 0 0 1
7.270032 23.081431 -13.100812 27.517941 1.265660 2.066991 0.076749 -0.033226 -143138.000000 0 0 1
6.649232 24.075131 -12.270112 27.827682 1.301327 2.027433 0.063372 -0.034545 243449.000000 0 0 1
6.134532 23.489831 -10.965612 26.639243 1.315345 1.995042 0.055263 -0.033955 -617891.000000 0 0 1
7.207532 23.133431 -10.136412 26.265015 1.268765 1.967010 0.058251 -0.026436 -167106.000000 0 0 1
6.831032 22.595931 -8.889512 25.224245 1.277219 1.930951 0.059440 -0.035353 -508556.000000 0 0 1
7.912432 22.764931 -7.848312 25.346492 1.236287 1.885612 0.063935 -0.035888 -391496.000000 0 0 1
7.842832 24.087731 -7.350912 26.377352 1.256027 1.853219 0.061688 -0.032261 -125279.000000 0 0 1
8.654332 24.202531 -6.239412 26.449768 1.227385 1.808937 0.066732 -0.026830 -335947.000000 0 0 1
8.727832 25.664531 -5.732712 27.707530 1.242992 1.779203 0.047899 -0.020393 52111.800000 0 0 1
9.324032 26.499831 -6.703512 28.881061 1.232472 1.805040 0.071683 -0.030129 58706.700000 0 0 1
9.472932 27.804731 -6.302812 30.042719 1.242435 1.782162 0.052699 -0.023351 83973.300000 0 0 1
9.922332 28.846031 -7.377012 31.384176 1.239498 1.808072 0.055342 -0.009404 1215350.000000 0 0 1
11.309732 28.652231 -7.735912 31.760112 1.194846 1.816845 0.077802 -0.019537 960187.000000 0 0 1
11.764232 29.736531 -8.592312 33.113234 1.194075 1.833283 0.073782 -0.017860 -106527.000000 0 0 1
13.253732 29.680831 -8.935412 33.711344 1.150822 1.839059 0.104237 -0.031002 -311393.000000 0 0 1
14.126032 29.861331 -7.855212 33.955091 1.128937 1.804252 0.108079 -0.022531 -1017020.000000 0 0 1
15.246432 30.524031 -8.321812 35.120118 1.107557 1.810024 0.109475 -0.023538 -880208.000000 0 0 1
16.329032 30.814231 -7.290112 35.627235 1.083501 1.776874 0.110580 -0.025773 -472184.000000 0 0 1
17.126732 29.700831 -6.967312 34.985822 1.047729 1.771283 0.107649 -0.026997 198768.000000 0 0 1
18.306632 30.192531 -6.320912 35.870261 1.025736 1.747937 0.094180 -0.017308 1220230.000000 0 0 1
19.472132 29.181431 -5.989612 35.589258 0.982370 1.739899 0.084439 -0.016155 525354.000000 0 0 1
19.137732 28.149131 -5.023012 34.407223 0.973709 1.717307 0.091997 -0.023923 66248.500000 0 0 1
20.235432 27.320431 -4.646912 34.314319 0.933293 1.706636 0.074391 -0.023169 143552.000000 0 0 1
20.588732 26.162131 -5.579812 33.756293 0.904053 1.736855 0.073610 -0.008406 -121174.000000 0 0 1
21.017932 26.704531 -6.840312 34.665189 0.903999 1.769425 0.072165 -0.011996 175552.000000 0 0 1
21.092832 25.640731 -7.791512 34.103699 0.882408 1.801297 0.067671 -0.016838 -703239.000000 0 0 1
21.545832 26.073731 -9.183712 35.048579 0.880198 1.835919 0.072122 -0.024439 828259.000000 0 0 1
22.957832 26.146131 -9.422512 36.048106 0.850237 1.835255 0.052237 -0.020642 734412.000000 0 0 1
23.600732 24.907831 -9.574212 35.623870 0.812337 1.842900 0.051784 -0.012276 541878.000000 0 0 1
25.174732 24.838231 -9.486712 36.615606 0.778670 1.832876 0.020307 -0.003924 935772.000000 0 0 1
25.781032 25.138831 -10.687412 37.561193 0.772787 1.859316 0.027280 -0.012335 1395830.000000 0 0 1
27.232732 25.135131 -10.565812 38.536125 0.745364 1.848533 0.030094 -0.002840 1722360.000000 0 0 1
28.142932 25.308831 -11.806612 39.647921 0.732426 1.873169 0.037616 -0.007515 60416.900000 0 0 1
27.822732 26.479831 -12.511412 40.395808 0.760673 1.885695 0.038991 -0.007449 776405.000000 0 0 1
28.852832 26.672131 -13.521812 41.553916 0.746144 1.902235 0.050765 -0.009685 765019.000000 0 0 1
28.608932 27.735931 -14.600412 42.437306 0.769906 1.922020 0.054741 -0.018598 -404141.000000 0 0 1
28.853232 28.997731 -14.064112 43.257100 0.787896 1.901944 0.052351 -0.021803 161149.000000 0 0 1
28.744032 29.988831 -15.101712 44.199673 0.806589 1.919490 0.057152 -0.018401 -388988.000000 0 0 1
29.183932 31.447631 -14.785312 45.379079 0.822716 1.902673 0.064689 -0.027208 437640.000000 0 0 1
30.605132 31.537331 -14.755912 46.357462 0.800398 1.894740 0.061047 -0.025743 200485.000000 0 0 1
31.025032 32.851331 -14.821812 47.554692 0.813982 1.887756 0.062309 -0.029102 -181260.000000 0 0 1
16.563432 -31.532465 -27.293947 44.873190 -1.087128 2.224646 0.116943 -0.055182 140798.000000 0 0 1
17.764232 -32.285965 -27.204257 45.804182 -1.067788 2.206725 0.087920 -0.036835 483793.000000 0 0 1
18.460332 -31.964265 -26.014287 45.157959 -1.047063 2.184713 0.074528 -0.039055 -8127.250000 0 0 1
19.822732 -32.661465 -25.750087 46.073626 -1.025308 2.163843 0.014660 -0.031017 475715.000000 0 0 1
20.979932 -32.016365 -26.269477 46.425107 -0.990713 2.172256 0.031805 -0.020408 496539.000000 0 0 1
21.340232 -32.428065 -27.547887 47.601166 -0.988763 2.187958 0.046729 -0.016264 21898.100000 0 0 1
22.835632 -32.095365 -27.842747 48.236885 -0.952398 2.186103 0.061268 -0.009585 387884.000000 0 0 1
22.983732 -30.703165 -27.965407 47.465780 -0.928206 2.200827 0.063202 -0.019973 -292761.000000 0 0 1
24.348032 -30.403465 -27.933077 47.931765 -0.895549 2.192926 0.032286 -0.004321 -477927.000000 0 0 1
24.754732 -29.210665 -28.800897 47.911913 -0.867781 2.215700 0.018813 0.000668 -38408.500000 0 0 1
24.894832 -29.609865 -30.189507 49.070389 -0.871690 2.233472 0.030695 -0.008496 40191.600000 0 0 1
25.297432 -28.528965 -31.018297 49.152789 -0.845362 2.253714 0.048754 -0.022903 40380.000000 0 0 1
25.727732 -28.901465 -32.449197 50.499121 -0.843429 2.268643 0.057456 0.004227 -80815.400000 0 0 1
26.899232 -29.675565 -32.361207 51.492286 -0.834432 2.250377 0.065218 -0.016655 -360946.000000 0 0 1
27.232132 -30.283665 -33.583127 52.787459 -0.838404 2.260353 0.060155 -0.018407 -497897.000000 0 0 1
28.539532 -31.046665 -33.444417 53.823130 -0.827449 2.241294 0.057897 -0.032152 -349604.000000 0 0 1
29.683532 -30.277765 -33.769417 54.205430 -0.795308 2.243355 0.068383 -0.033004 -867107.000000 0 0 1
30.799132 -31.103065 -33.800197 55.303169 -0.790308 2.228347 0.075738 -0.024097 -486344.000000 0 0 1
32.080132 -30.268065 33.639408 55.469816 -0.756343 0.919214 0.086090 -0.028729 -80196.800000 0 0 1
32.084932 -29.523065 32.379919 54.309423 -0.743839 0.932022 0.073303 -0.017104 -582594.000000 0 0 1
33.214732 -28.722165 32.294334 54.507846 -0.712990 0.936673 0.080072 -0.023649 -470576.000000 0 0 1
33.154932 -27.719565 31.171038 53.284683 -0.696346 0.945928 0.074239 -0.025509 -683039.000000 0 0 1
34.337932 -26.991865 31.036078 53.580710 -0.666186 0.953001 0.090041 -0.028449 -241431.000000 0 0 1
34.307732 -26.116965 29.905318 52.473273 -0.650666 0.964394 0.071760 -0.026935 -499898.000000 0 0 1
34.930032 -26.595965 28.564008 52.377047 -0.650762 0.993985 0.084918 -0.018906 -246008.000000 0 0 1
34.450532 -27.713365 27.796758 52.225756 -0.677442 1.009549 0.074413 -0.028735 -386123.000000 0 0 1
33.214132 -27.480065 27.206148 50.975554 -0.691203 1.007815 0.086545 -0.027354 -624722.000000 0 0 1
32.682732 -28.509165 26.165118 50.651228 -0.717299 1.027951 0.076227 -0.010195 459828.000000 0 0 1
31.396532 -28.086765 25.706968 49.350348 -0.729814 1.022883 0.064088 -0.001588 463965.000000 0 0 1
30.903932 -28.806365 24.579308 48.877419 -0.750284 1.043873 0.041425 0.001732 601283.000000 0 0 1
29.508132 -28.281765 24.098828 47.448305 -0.764180 1.038055 0.034421 0.008399 1558310.000000 0 0 1
28.456732 -28.438365 25.122038 47.430402 -0.785075 1.012595 0.034508 0.005260 1364390.000000 0 0 1
27.177332 -28.151965 24.519968 46.177585 -0.803011 1.011024 0.043566 0.015110 625866.000000 0 0 1
26.070132 -28.016965 25.562208 46.022045 -0.821377 0.981912 0.066671 0.010979 -283927.000000 0 0 1
26.303832 -26.982965 26.469508 46.050047 -0.798142 0.958438 0.054608 0.001800 44842.300000 0 0 1
25.115332 -26.680065 27.158658 45.609193 -0.815599 0.932953 0.076695 -0.013056 -153050.000000 0 0 1
25.275832 -25.689065 28.325878 45.838315 -0.793506 0.904661 0.088286 -0.012619 1241220.000000 0 0 1
23.927532 -25.428865 28.824948 45.277275 -0.815807 0.880674 0.109747 -0.018511 1707250.000000 0 0 1
23.904232 -24.274365 29.672558 45.178732 -0.793081 0.854254 0.110579 -0.019461 -155921.000000 0 0 1
23.173132 -23.014865 29.126058 43.760774 -0.781972 0.842533 0.098450 -0.018661 -82621.400000 0 0 1
23.900932 -22.411165 28.061518 43.138888 -0.753241 0.862564 0.090521 -0.014383 272472.000000 0 0 1
23.565032 -21.075865 27.804798 42.102371 -0.729696 0.849433 0.096831 -0.015900 -198215.000000 0 0 1
24.270832 -19.952665 28.604438 42.489952 -0.688063 0.832262 0.093314 -0.012783 -242549.000000 0 0 1
23.909032 -19.905365 29.997578 43.217127 -0.694273 0.803609 0.097397 -0.013523 496241.000000 0 0 1
24.798132 -19.122365 30.799328 43.922783 -0.656882 0.793696 0.099486 -0.015350 129889.000000 0 0 1
24.196532 -18.976565 32.201563 44.525531 -0.665074 0.762349 0.099554 -0.014337 -91084.400000 0 0 1
24.414932 -20.002365 33.187536 45.799521 -0.686380 0.760304 0.091005 -0.015695 -28328.300000 0 0 1
23.613332 -19.767565 -33.359757 45.400655 -0.696978 2.396147 0.098777 -0.022928 -167597.000000 0 0 1
23.599532 -20.850365 -32.301097 45.111379 -0.723628 2.368895 0.085487 -0.016435 -16812.900000 0 0 1
24.831032 -20.858565 -31.630307 45.300510 -0.698672 2.343722 0.107714 -0.018141 -33119.400000 0 0 1
24.653432 -21.768665 -30.559747 44.895040 -0.723336 2.319505 0.102007 -0.018495 950614.000000 0 0 1
25.994232 -21.962065 -29.756257 45.204726 -0.701515 2.289295 0.076987 -0.008301 1123960.000000 0 0 1
27.057732 -22.675065 -30.390737 46.581931 -0.697501 2.281563 0.072894 -0.007753 171521.000000 0 0 1
28.007432 -23.006565 -29.394507 46.666426 -0.687681 2.252202 0.062287 -0.009038 531048.000000 0 0 1
29.186932 -23.967565 -29.811737 48.115079 -0.687520 2.239020 0.044732 -0.001630 412042.000000 0 0 1
30.260532 -23.413965 -30.541137 48.955843 -0.658526 2.244456 0.048287 -0.003115 -247067.000000 0 0 1
30.031632 -23.060265 -31.908777 49.516106 -0.654838 2.271051 0.050453 -0.003272 -417948.000000 0 0 1
30.341832 -24.247865 -32.873287 50.884563 -0.674226 2.273177 0.039249 -0.014098 -458516.000000 0 0 1
29.469332 -25.339665 -32.768667 50.836263 -0.710194 2.271286 0.062908 -0.018727 -237896.000000 0 0 1
29.903432 -26.583965 -33.325897 52.072429 -0.726701 2.265283 0.062027 -0.024862 28109.800000 0 0 1
29.378232 -26.759465 32.875485 51.574674 -0.738783 0.879632 0.056727 -0.023638 -89193.200000 0 0 1
29.969932 -25.877665 31.963307 50.887163 -0.712253 0.891660 0.034174 -0.018980 -89802.200000 0 0 1
29.564332 -26.086965 30.627508 49.926183 -0.722994 0.910367 0.033295 -0.016885 -508772.000000 0 0 1
30.591532 -25.486165 29.650878 49.644345 -0.694607 0.930708 0.044335 -0.019054 -369171.000000 0 0 1
30.795432 -24.053565 29.593498 49.017423 -0.663095 0.922619 0.044566 -0.017299 337518.000000 0 0 1
31.296432 -23.497765 30.839758 49.826723 -0.644021 0.903404 0.042889 -0.004052 -1047870.000000 0 0 1
31.910932 -22.072665 30.685798 49.468458 -0.605131 0.901658 0.046440 -0.003135 226622.000000 0 0 1
33.138232 -21.926365 30.010968 49.795242 -0.584531 0.923932 0.067885 -0.013412 477811.000000 0 0 1
34.249232 -22.398665 30.784188 51.209143 -0.579175 0.925862 0.062745 -0.013222 41280.400000 0 0 1
35.640332 -21.846065 30.376978 51.674410 -0.549894 0.942394 0.065525 -0.025272 350773.000000 0 0 1
36.150732 -22.041665 29.050448 51.348213 -0.547533 0.969449 0.073457 -0.031059 710743.000000 0 0 1
37.547532 -21.753365 29.017498 52.201928 -0.525101 0.981387 0.067964 -0.031042 476974.000000 0 0 1
-37.082325 -21.972265 27.652538 51.210762 0.534906 1.000389 0.093451 -0.033484 -261572.000000 0 0 1
-36.862825 -23.305365 27.394988 51.502362 0.563773 1.009933 0.093006 -0.030033 149090.000000 0 0 1
-36.687425 -23.548265 26.031538 50.775279 0.570633 1.032491 0.086702 -0.014771 -73849.400000 0 0 1
-36.413425 -25.003165 25.660038 51.083592 0.601708 1.044523 0.077192 -0.016080 -377860.000000 0 0 1
-37.562625 -25.782965 25.835918 52.375631 0.601540 1.054938 0.093584 -0.011968 -229477.000000 0 0 1
-37.493725 -27.110265 25.402258 52.782768 0.626036 1.068704 0.099939 -0.013822 -23694.400000 0 0 1
-36.696925 -28.041665 26.326758 53.161052 0.652491 1.052701 0.099156 -0.024160 -474110.000000 0 0 1
-36.281125 -29.326565 25.771568 53.296728 0.679790 1.066092 0.095967 -0.022067 658740.000000 0 0 1
-35.151825 -29.927365 26.423228 53.192903 0.705291 1.050954 0.097536 -0.034323 449963.000000 0 0 1
-33.833425 -29.286065 25.972048 51.738975 0.713479 1.044907 0.087538 -0.032044 -1094690.000000 0 0 1
-33.539825 -29.418365 24.578708 50.935969 0.720028 1.067242 0.081485 -0.027181 1409990.000000 0 0 1
-32.285525 -28.709565 24.238738 49.538982 0.726838 1.059525 0.057249 -0.023975 1601980.000000 0 0 1
-31.796125 -29.015665 22.828648 48.724220 0.739708 1.083173 0.059766 -0.028985 -315847.000000 0 0 1
-31.415825 -30.360865 22.620318 49.197713 0.768323 1.093044 0.069884 -0.027958 387027.000000 0 0 1
-31.040425 -30.303065 21.255688 48.307225 0.773379 1.115186 0.061721 -0.027583 -683971.000000 0 0 1
-30.886125 -31.708265 20.570288 48.810896 0.798532 1.135777 0.073521 -0.025245 962066.000000 0 0 1
-29.831525 -32.562665 21.107088 48.946463 0.829143 1.124943 0.076362 -0.036582 624985.000000 0 0 1
-28.501325 -32.171265 20.863588 47.776617 0.845812 1.118880 0.087069 -0.035244 -236878.000000 0 0 1
-27.624525 -33.481765 20.833288 48.147366 0.880960 1.123313 0.077669 -0.023419 -155283.000000 0 0 1
-27.866025 33.227731 19.760888 47.655956 -0.872936 1.143230 0.062071 -0.020397 -662682.000000 0 0 1
-29.034625 32.486731 19.778688 47.849699 -0.841452 1.144666 0.070205 -0.018185 -584936.000000 0 0 1
-29.191925 31.295231 20.826088 47.595020 -0.820157 1.117903 0.074582 -0.010219 367545.000000 0 0 1
-28.280725 30.220531 20.524088 46.198681 -0.818544 1.110452 0.065902 -0.014146 214647.000000 0 0 1
-28.370625 29.213231 21.463188 46.032311 -0.800030 1.085734 0.067135 -0.016625 -336766.000000 0 0 1
-27.322625 28.108331 21.357388 44.640141 -0.799572 1.071925 0.047532 -0.012720 -494875.000000 0 0 1
-26.025525 28.650531 21.445988 44.250551 -0.833371 1.064834 0.040641 -0.007978 155673.000000 0 0 1
-25.100925 27.765631 20.764388 42.803581 -0.835760 1.064309 0.036655 -0.014391 -423568.000000 0 0 1
-23.638425 28.103731 20.840588 42.224696 -0.871484 1.054613 0.035867 -0.010433 -791991.000000 0 0 1
-23.193225 28.260231 22.195688 42.769322 -0.883559 1.025159 0.050435 -0.015555 132712.000000 0 0 1
-21.810925 28.483731 22.346988 42.266148 -0.917302 1.013704 0.092308 -0.018858 51639.400000 0 0 1
-21.244625 28.702331 23.773748 42.899289 -0.933616 0.983424 0.085331 -0.014489 -216239.000000 0 0 1
-21.198525 27.471431 24.447868 42.447088 -0.913578 0.957017 0.109158 -0.021650 234512.000000 0 0 1
-20.874325 27.529931 25.844998 43.146245 -0.922042 0.928533 0.103600 -0.021094 374413.000000 0 0 1
-19.370525 27.635131 26.249928 42.754841 -0.959441 0.909724 0.106366 -0.024090 351251.000000 0 0 1
-18.851325 28.974731 26.007118 43.258267 -0.993991 0.925787 0.076897 -0.026503 84352.500000 0 0 1
-17.504025 29.276931 26.273358 43.055998 -1.031939 0.914466 0.080972 -0.017388 125166.000000 0 0 1
-17.141525 29.511931 27.786698 44.010073 -1.044589 0.887476 0.069046 -0.014928 -183777.000000 0 0 1
-17.325925 28.383531 28.617808 43.872445 -1.022749 0.860187 0.074956 -0.018820 195698.000000 0 0 1
-17.254525 28.743731 29.979098 44.974071 -1.030165 0.841177 0.069549 -0.013390 -44118.100000 0 0 1
-17.269825 27.556231 30.956818 44.898968 -1.010967 0.810029 0.063903 -0.005161 -17244.800000 0 0 1
-15.949625 27.029031 30.991078 44.106757 -1.037694 0.791698 0.062675 -0.002729 504903.000000 0 0 1
-15.759225 25.910231 31.867278 43.991098 -1.024352 0.760628 0.073080 -0.002473 -179058.000000 0 0 1
-16.002425 26.150231 33.351526 45.301617 -1.021642 0.743343 0.071040 -0.002165 -149129.000000 0 0 1
-17.380725 26.007831 33.619658 45.921436 -0.981672 0.749378 0.062879 -0.006017 -226967.000000 0 0 1
-17.832425 26.592131 -32.835907 45.862115 -0.980082 2.368809 0.077344 -0.008539 406346.000000 0 0 1
-19.237125 26.046731 -32.440767 45.835603 -0.934656 2.357124 0.052780 -0.006122 1086530.000000 0 0 1
-20.264425 26.424231 -33.399297 47.163544 -0.916574 2.357684 0.040497 -0.004159 1445200.000000 0 0 1
-21.578125 26.092831 -32.900387 47.211087 -0.879822 2.341832 0.063404 -0.008217 988781.000000 0 0 1
-22.723325 26.231831 33.695168 48.371715 -0.856944 0.800165 0.081539 -0.021561 10992.300000 0 0 1
-22.964725 25.173731 32.777807 47.280863 -0.831255 0.804797 0.087774 -0.016962 96369.200000 0 0 1
-23.196725 23.881431 33.355543 47.127519 -0.799941 0.784457 0.088055 -0.018832 -314248.000000 0 0 1
-23.402125 22.785331 32.351407 45.972212 -0.772045 0.790181 0.071440 -0.010653 699205.000000 0 0 1
-24.760725 22.787131 31.893397 46.363085 -0.743914 0.812198 0.096208 -0.019476 347936.000000 0 0 1
-24.865025 22.336431 30.552338 45.283893 -0.731879 0.830259 0.104553 -0.014906 551282.000000 0 0 1
-26.239725 22.001831 29.868388 45.439238 -0.697776 0.853531 0.106246 -0.015854 542966.000000 0 0 1
-26.801525 20.824931 30.442098 45.592991 -0.660562 0.839692 0.115068 -0.028035 218953.000000 0 0 1
-27.949925 20.450431 29.693528 45.619339 -0.631674 0.862030 0.108744 -0.029539 45237.200000 0 0 1
-28.621925 19.164431 30.236408 45.833726 -0.590011 0.850380 0.124917 -0.035159 -149514.000000 0 0 1
-29.194525 19.295131 31.547618 47.115545 -0.584011 0.837153 0.116605 -0.034542 189159.000000 0 0 1
-29.378425 18.101331 32.317596 47.277659 -0.552205 0.818153 0.099737 -0.023653 78400.000000 0 0 1
-30.242525 16.892031 31.828753 47.042753 -0.509386 0.827672 0.077571 -0.025902 1323940.000000 0 0 1
-31.676925 17.118631 31.749239 48.005097 -0.495453 0.848150 0.067577 -0.026453 1392610.000000 0 0 1
-32.310925 15.902231 31.412578 47.787309 -0.457358 0.853511 0.078002 -0.023640 -691810.000000 0 0 1
-33.812525 15.987731 31.197808 48.705212 -0.441680 0.875590 0.080481 -0.018269 -992199.000000 0 0 1
-34.496025 16.309931 32.356268 50.029168 -0.441657 0.867483 0.067310 -0.010368 -402171.000000 0 0 1
-35.884725 16.408431 32.308858 50.998161 -0.428870 0.884689 0.092923 -0.013612 -541378.000000 0 0 1
-36.424925 16.827831 33.686298 52.390054 -0.432777 0.872400 0.073247 -0.001871 680069.000000 0 0 1
37.452132 17.071931 33.774598 53.243183 0.427694 0.883634 0.075120 -0.006511 806379.000000 0 0 1
37.270532 17.590731 -32.577487 52.533980 0.440977 2.239695 0.061224 -0.006788 315223.000000 0 0 1
35.802532 17.936031 -32.201567 51.385440 0.464424 2.248065 0.072980 -0.011718 325751.000000 0 0 1
35.025832 16.772831 -32.057967 50.357224 0.446601 2.260892 0.073333 -0.007496 737708.000000 0 0 1
33.724632 17.074831 -31.511907 49.212813 0.468676 2.265710 0.089575 -0.016394 729387.000000 0 0 1
32.723232 15.898631 -31.536887 48.147187 0.452265 2.284992 0.097825 -0.011079 186826.000000 0 0 1
32.088732 15.571631 -32.791547 48.450469 0.451793 2.314211 0.104010 -0.013902 425870.000000 0 0 1
31.380232 14.305631 -32.724767 47.542406 0.427733 2.329978 0.105642 -0.017762 428553.000000 0 0 1
32.160632 12.997531 -33.159127 47.987183 0.384074 2.333667 0.104679 -0.010134 355310.000000 0 0 1
33.067432 12.574131 -32.143287 47.799108 0.363372 2.308332 0.100321 -0.007963 179610.000000 0 0 1
33.749932 11.409431 -32.536587 48.247928 0.325997 2.310897 0.103491 -0.012473 -305436.000000 0 0 1
18.250832 -20.517469 9.865683 29.178607 -0.843798 1.225885 0.051919 -0.017684 -140487.000000 0 0 1
18.176232 -21.822869 10.358683 30.231033 -0.876315 1.221059 0.038733 -0.022714 409724.000000 0 0 1
19.402032 -22.527969 10.576083 31.556327 -0.859812 1.229033 0.033554 -0.025039 -41270.800000 0 0 1
19.241732 -23.936169 11.271183 32.714278 -0.893696 1.219054 0.035269 -0.021629 494580.000000 0 0 1
18.415432 -24.953869 10.606883 32.776969 -0.935033 1.241256 0.037760 -0.018125 346631.000000 0 0 1
17.104732 -24.938969 11.128383 32.223671 -0.969621 1.218187 0.051112 -0.015600 -231140.000000 0 0 1
16.179032 -25.921549 10.380283 32.271320 -1.012806 1.243318 0.079383 -0.012584 -41256.500000 0 0 1
16.012732 -25.412059 9.054883 31.371504 -1.008521 1.277996 0.083860 -0.020612 22111.400000 0 0 1
15.121132 -26.182769 8.268283 31.345662 -1.047069 1.303860 0.098592 -0.014326 111366.000000 0 0 1
14.747732 -25.571909 6.902883 30.316133 -1.047673 1.341085 0.101509 -0.018233 9575.240000 0 0 1
14.045332 -24.366169 6.941283 28.968310 -1.047890 1.328826 0.109610 -0.026607 131959.000000 0 0 1
13.361232 -24.014769 5.739683 28.074466 -1.063071 1.364900 0.111174 -0.019343 253036.000000 0 0 1
13.000632 -22.539869 5.716683 26.640995 -1.047622 1.354532 0.131612 -0.027205 -173282.000000 0 0 1
12.067832 -22.165869 4.726983 25.676890 -1.072237 1.385645 0.113836 -0.025570 231394.000000 0 0 1
11.337932 -21.001569 5.127283 24.411138 -1.075771 1.359182 0.111805 -0.025380 130341.000000 0 1 0
10.432732 -20.449769 4.024983 23.307412 -1.099051 1.397235 0.081444 -0.027840 -349041.000000 0 1 0
11.124632 -19.738169 3.037183 22.859948 -1.057564 1.437542 0.077868 -0.020825 -36779.200000 0 1 0
10.261932 -19.439169 1.960483 22.068802 -1.085079 1.481844 0.038305 -0.007517 -610505.000000 0 1 0
10.985932 -19.100569 0.722283 22.046409 -1.048840 1.538029 0.044817 0.000297 -212631.000000 0 1 0
11.747232 -17.914669 0.866383 21.440230 -0.990402 1.530376 0.038479 -0.004049 -480136.000000 0 1 0
12.619932 -17.732669 -0.181517 21.765642 -0.952276 1.579136 0.045254 -0.008171 -222134.000000 0 1 0
13.732432 -16.637369 0.031483 21.572731 -0.880760 1.569337 0.041088 -0.003224 745722.000000 0 1 0
14.888432 -17.261169 0.585883 22.802557 -0.859068 1.545100 0.063617 -0.011123 -66626.300000 0 1 0
16.007432 -16.416069 0.594783 22.936411 -0.798001 1.544862 0.070461 -0.021825 161672.000000 0 1 0
17.265132 -16.905569 1.344883 24.201069 -0.774876 1.515196 0.065735 -0.015476 -173055.000000 0 1 0
17.901632 -17.950369 0.723883 25.361549 -0.786758 1.542250 0.076548 -0.014000 -758824.000000 0 0 1
18.986332 -18.362569 1.490383 26.455358 -0.768699 1.514431 0.074771 -0.012872 -262624.000000 0 0 1
19.664632 -19.622169 1.003683 27.798105 -0.784317 1.534682 0.055843 -0.015887 130313.000000 0 0 1
18.906332 -20.789269 1.325283 28.131823 -0.832797 1.523669 0.065172 -0.004683 195093.000000 0 0 1
19.146932 -21.836469 0.418683 29.044994 -0.850929 1.556381 0.077336 -0.012608 -255763.000000 0 0 1
18.147432 -22.966269 0.623583 29.277426 -0.902073 1.549496 0.086505 -0.012575 -213093.000000 0 0 1
18.353432 -23.790169 1.724383 30.096414 -0.913695 1.513470 0.064703 -0.004105 -220723.000000 0 0 1
17.147632 -24.451469 1.982783 29.930704 -0.959203 1.504502 0.072748 -0.007208 -579721.000000 0 0 1
17.199932 -25.490369 3.105283 30.906947 -0.977210 1.470154 0.077159 -0.008191 356468.000000 0 0 1
18.173232 -26.529679 2.919383 32.289519 -0.970198 1.480260 0.061482 -0.009744 -198309.000000 0 0 1
19.379432 -26.096179 3.476383 32.690338 -0.932038 1.464252 0.055942 -0.002483 -634618.000000 0 0 1
20.444732 -27.243319 3.639383 34.255373 -0.927008 1.464353 0.059394 -0.002195 113439.000000 0 0 1
21.159832 -27.515089 2.453983 34.797136 -0.915229 1.500215 0.065824 -0.001547 -128376.000000 0 0 1
22.073732 -28.597809 2.534283 36.214733 -0.913446 1.500760 0.094370 -0.002883 70910.600000 0 0 1
21.544232 -30.009789 2.946983 37.059764 -0.948153 1.491193 0.091064 -0.005024 -294774.000000 0 0 1
21.290032 -30.201829 4.340283 37.205564 -0.956772 1.453873 0.099158 -0.005879 -91332.200000 0 0 1
20.694332 -31.462659 4.477283 37.923612 -0.988997 1.452460 0.086446 -0.018536 -459688.000000 0 0 1
20.482732 -31.888749 5.936383 38.362420 -0.999840 1.415427 0.105242 -0.026932 -1073760.000000 0 0 1
21.526332 -32.381709 6.677383 39.453080 -0.984109 1.400729 0.099904 -0.041041 -920581.000000 0 0 1
21.175932 -32.859529 7.931983 39.888408 -0.998341 1.370608 0.092313 -0.042684 188054.000000 0 0 1
22.213332 33.774057 8.496783 41.307559 0.989024 1.363622 0.105528 -0.047144 1129380.000000 0 0 1
23.437732 -33.271619 8.885983 41.656796 -0.957099 1.355830 0.109134 -0.042091 714894.000000 0 0 1
24.487432 33.496785 9.220783 42.505197 0.939542 1.352125 0.138444 -0.047215 241876.000000 0 0 1
25.477232 -33.609019 10.241683 43.399857 -0.922165 1.332565 0.126207 -0.041286 -525980.000000 0 0 1
26.094832 -32.472049 9.714783 42.775592 -0.893859 1.341687 0.120300 -0.037462 246606.000000 0 0 1
26.990932 -31.704069 10.502483 42.941362 -0.865525 1.323713 0.104204 -0.035016 502076.000000 0 0 1
27.900832 -30.695019 9.736083 42.607886 -0.833048 1.340255 0.116558 -0.040482 -38001.500000 0 0 1
27.216032 -29.538949 9.368683 41.243595 -0.826304 1.341641 0.106636 -0.038036 -107380.000000 0 0 1
27.809132 -28.778529 8.325483 40.876218 -0.802527 1.365686 0.124566 -0.031458 -80190.300000 0 0 1
27.066732 -27.425109 8.151783 39.385228 -0.791975 1.362314 0.109179 -0.024437 233527.000000 0 0 1
27.535632 -26.550689 9.142883 39.328647 -0.767190 1.336176 0.104016 -0.034405 254843.000000 0 0 1
26.927132 -25.280049 9.012183 38.018032 -0.753860 1.331468 0.089643 -0.024140 -8347.700000 0 0 1
27.622032 -24.347669 10.003483 38.155672 -0.722476 1.305520 0.090772 -0.041424 18402.000000 0 0 1
28.963932 -24.151469 9.630683 38.922396 -0.695041 1.320766 0.093058 -0.032863 -503017.000000 0 0 1
29.675632 -23.422969 10.628983 39.271541 -0.668182 1.296724 0.063631 -0.037382 256436.000000 0 0 1
31.100632 -23.059069 10.158283 40.027000 -0.637996 1.314204 0.077794 -0.031966 298626.000000 0 0 1
31.043932 -22.189169 9.072183 39.222308 -0.620568 1.337381 0.093204 -0.023696 281265.000000 0 0 1
32.358732 -22.080869 8.531883 40.092959 -0.598801 1.356354 0.082520 -0.022887 532162.000000 0 0 1
32.259932 -21.317969 7.103283 39.314319 -0.583943 1.389119 0.079296 0.001082 3225.900000 0 0 1
31.962632 -19.945469 7.235383 38.363816 -0.557898 1.381061 0.077154 0.002505 -17644.700000 0 0 1
32.369732 -19.243469 6.076883 38.144976 -0.536358 1.410804 0.076763 0.004224 53917.800000 0 0 1
32.089632 -17.743669 6.187483 37.186923 -0.505098 1.403630 0.100284 0.010974 -119976.000000 0 0 1
32.754932 -17.099569 7.223483 37.649164 -0.481128 1.377736 0.101601 0.003880 -187703.000000 0 0 1
32.823932 -15.689269 7.124183 37.071791 -0.445879 1.377421 0.113905 -0.000047 -261073.000000 0 0 1
33.450532 -14.974069 8.322083 37.582149 -0.420896 1.347508 0.112287 -0.034580 251609.000000 0 0 1
34.838432 -15.224569 8.476283 38.953193 -0.411995 1.351440 0.087036 -0.034578 151606.000000 0 0 1
35.367032 -14.889469 9.788983 39.602367 -0.398476 1.321026 0.077016 -0.047265 687829.000000 0 0 1
36.910232 -15.108169 9.779483 41.064100 -0.388517 1.330334 0.075106 -0.054949 558842.000000 0 0 1
37.630732 -14.075269 9.093983 41.193273 -0.357926 1.348199 0.108238 -0.038025 -351763.000000 0 0 1
-36.309225 -14.374769 8.878383 40.047715 0.376966 1.347244 0.110101 -0.043698 -59387.200000 0 0 1
-35.592125 -13.147969 8.276883 38.835232 0.353858 1.356021 0.129799 -0.043096 -592554.000000 0 0 1
-35.935125 -12.926369 6.889683 38.805824 0.345302 1.392308 0.162665 -0.059273 353665.000000 0 0 1
-34.946025 -12.162169 6.195983 37.517106 0.334916 1.404885 0.163461 -0.044222 -3864.560000 0 0 1
-33.791525 -12.994569 5.651083 36.642335 0.367118 1.415956 0.139863 -0.045461 -1283550.000000 0 0 1
-33.165725 -13.712069 6.615883 36.493233 0.392039 1.388498 0.155041 -0.041659 -863583.000000 0 0 1
-32.554425 -14.822769 6.062983 36.280364 0.427271 1.402894 0.166371 -0.023856 -201373.000000 0 0 1
-32.011325 -15.831669 7.102583 36.411720 0.459290 1.374475 0.152788 -0.037718 -590640.000000 0 0 1
-32.989725 -16.534869 7.744883 37.705531 0.464617 1.363919 0.110330 -0.043779 -847164.000000 0 0 1
-32.538525 -17.225069 8.853583 37.866140 0.486870 1.334799 0.129103 -0.037690 -321033.000000 0 0 1
-33.711725 -17.855769 9.601583 39.338268 0.487093 1.324228 0.060986 -0.031436 -1541890.000000 0 0 1
-34.706325 -16.920869 9.962583 39.876031 0.453633 1.318282 0.067703 -0.020661 -108361.000000 0 0 1
-35.585125 -17.347369 10.947083 41.073970 0.453589 1.301014 0.077100 -0.028082 195959.000000 0 0 1
-36.460725 -18.660069 10.690483 42.330475 0.473031 1.315483 0.074625 -0.030767 -736336.000000 0 0 1
-35.642325 -19.812469 10.682083 42.154670 0.507338 1.314601 0.096738 -0.024032 -186011.000000 0 0 1
-35.272025 -20.332169 11.935283 42.425981 0.522915 1.285627 0.112552 -0.042513 224112.000000 0 0 1
-36.437625 -21.032069 12.693983 43.945258 0.523492 1.277762 0.084138 -0.055955 179067.000000 0 0 1
-36.593625 -22.367969 12.256983 44.605527 0.548653 1.292429 0.113331 -0.060713 578413.000000 0 0 1
37.344032 -22.697569 11.952483 45.305830 -0.546132 1.303818 0.108255 -0.044987 457634.000000 0 0 1
37.034832 -24.176769 11.722583 45.754933 -0.578349 1.311704 0.102386 -0.042269 -271565.000000 0 0 1
37.446432 -24.924269 12.876983 46.789648 -0.587262 1.291988 0.122736 -0.043861 254493.000000 0 0 1
37.033632 -26.259699 13.045383 47.236043 -0.616792 1.290985 0.097733 -0.044446 207398.000000 0 0 1
35.561732 -26.438349 13.514383 46.327763 -0.639296 1.274780 0.092828 -0.048100 196390.000000 0 0 1
34.544032 -26.090309 12.563583 45.075914 -0.646870 1.288335 0.076699 -0.038070 -286740.000000 0 0 1
33.311232 -25.814789 13.133383 44.142126 -0.659284 1.268697 0.070155 -0.008826 -992340.000000 0 0 1
33.177432 -24.331669 13.579583 43.326403 -0.632779 1.251999 0.075892 -0.024161 -1128370.000000 0 0 1
34.158232 -23.902269 14.465383 44.128796 -0.610559 1.236823 0.093637 -0.034419 -570940.000000 0 0 1
34.132532 -22.550769 14.730883 43.480638 -0.583848 1.225164 0.093687 -0.041653 635301.000000 0 0 1
35.506332 -21.987769 15.257683 44.463002 -0.554463 1.220523 0.083579 -0.035811 539574.000000 0 0 1
35.624232 -20.614769 15.696183 44.050253 -0.524590 1.206465 0.104569 -0.014627 -51911.400000 0 0 1
34.953732 -20.347969 16.916883 43.840440 -0.527184 1.174641 0.086802 -0.022926 8301.140000 0 0 1
35.338232 -19.000969 17.589083 43.808713 -0.493342 1.157645 0.077146 -0.004512 -325780.000000 0 0 1
34.873232 -17.905469 16.821983 42.658261 -0.474345 1.165444 0.064606 -0.020764 101761.000000 0 0 1
34.994432 -16.658569 17.452183 42.505257 -0.444292 1.147697 0.056323 -0.015419 -402052.000000 0 0 1
36.378632 -16.078669 17.765983 43.560976 -0.416165 1.150707 0.048834 -0.023897 -417955.000000 0 0 1
37.024732 -16.539469 18.951883 44.761129 -0.420118 1.133601 0.056599 -0.002731 333415.000000 0 0 1
-37.421925 -15.489769 19.403783 44.909244 0.392450 1.124013 0.051432 -0.003535 -273452.000000 0 0 1
-36.971825 -15.670169 20.864483 45.252588 0.400888 1.091599 0.057419 -0.004320 -315571.000000 0 0 1
-35.998425 -16.650869 21.051683 44.903356 0.433237 1.082840 0.069556 -0.004447 41010.400000 0 0 1
-35.504325 -16.732269 22.384983 45.184216 0.440404 1.052483 0.062587 -0.005742 196368.000000 0 0 1
-34.551925 -17.928069 22.633683 45.028156 0.478632 1.044128 0.067786 -0.008105 -401350.000000 0 0 1
-35.191825 -19.198169 22.615883 46.027301 0.499404 1.057148 0.067531 -0.009755 93178.400000 0 0 1
-34.395925 -20.235769 23.135283 46.128162 0.531786 1.045414 0.057971 -0.002974 -217380.000000 0 0 1
-33.094525 -20.718069 22.485483 45.056442 0.559338 1.048292 0.049973 0.002732 -261841.000000 0 0 1
-32.021125 -19.816269 22.554583 43.894717 0.554165 1.031149 0.057312 0.005026 639891.000000 0 0 1
-30.793725 -20.454069 22.132183 43.086610 0.586313 1.031343 0.058452 0.008171 380634.000000 0 0 1
-29.635225 -19.488469 21.929283 41.700605 0.581708 1.017053 0.077944 0.004801 -656039.000000 0 0 1
-29.176925 -19.067969 23.172383 41.854985 0.578852 0.984073 0.057061 0.006638 -561180.000000 0 0 1
-28.274425 -18.064469 22.933283 40.641157 0.568531 0.971227 0.089087 -0.000259 -832164.000000 0 0 1
-27.583125 -17.616569 24.232483 40.723280 0.568370 0.933466 0.077470 -0.010471 -721029.000000 0 0 1
-26.718325 -16.519469 24.067383 39.572727 0.553754 0.917029 0.086508 -0.018390 194089.000000 0 0 1
-26.287025 -15.935569 25.293383 39.808357 0.544976 0.882297 0.068909 -0.022206 -53698.600000 0 0 1
-25.079325 -16.508369 26.055483 39.754082 0.582150 0.856062 0.049695 -0.007790 -739412.000000 0 0 1
-25.244725 -17.862469 26.413083 40.669582 0.615790 0.863928 0.048067 -0.007082 499680.000000 0 0 1
-24.304925 -18.252469 27.451183 40.956678 0.644127 0.836252 0.043768 -0.005732 35025.900000 0 0 1
-24.747625 -19.659669 27.996683 42.222764 0.671321 0.845883 0.034393 0.004666 253774.000000 0 0 1
-25.789325 -19.627169 28.972083 43.470641 0.650541 0.841326 0.036592 -0.005230 177599.000000 0 0 1
-26.082725 -20.853269 29.623583 44.639938 0.674439 0.845160 0.035299 -0.003355 253875.000000 0 0 1
-27.345325 -20.919369 30.524683 46.012423 0.653037 0.845442 0.046195 -0.004224 -44412.400000 0 0 1
-27.117625 -20.136069 31.732483 46.344119 0.638713 0.816585 0.056123 -0.018411 112625.000000 0 0 1
-28.175325 -20.101969 32.648483 47.580054 0.619703 0.814572 0.078090 -0.020491 146119.000000 0 0 1
-29.457625 -19.250269 32.399783 47.833780 0.578825 0.826654 0.054580 -0.024487 13727.900000 0 0 1
-30.258525 -19.828969 31.415583 47.913518 0.580105 0.855723 0.057553 -0.026985 723115.000000 0 0 1
-31.592625 -19.306669 31.577083 48.661624 0.548551 0.864643 0.082274 -0.034363 679809.000000 0 0 1
-32.683925 -19.819169 30.637483 48.986670 0.545104 0.895120 0.072952 -0.016714 -134556.000000 0 0 1
-32.907625 -19.090869 29.481183 48.130170 0.525685 0.911539 0.073313 -0.029917 -375450.000000 0 0 1
-33.998325 -19.569469 28.774983 48.650282 0.522286 0.937921 0.078814 -0.034714 -424377.000000 0 0 1
-34.345625 -18.876569 27.422583 47.832467 0.502541 0.960263 0.078081 -0.023363 -91668.600000 0 0 1
-35.681125 -19.072769 27.035983 48.660637 0.490892 0.981709 0.056181 -0.020762 -16591.000000 0 0 1
-36.209625 -18.114669 26.171283 48.210105 0.463865 0.996959 0.084872 -0.020040 726401.000000 0 0 1
-37.516925 -18.506269 25.376983 48.928447 0.458255 1.025519 0.069481 -0.025300 244709.000000 0 0 1
36.701932 -18.794669 26.185083 48.845982 -0.473272 1.005016 0.071633 -0.031049 -36546.800000 0 0 1
35.600032 -19.418869 25.500483 47.903334 -0.499361 1.009443 0.096718 -0.025683 850596.000000 0 0 1
34.542632 -20.094969 26.416883 47.904623 -0.526888 0.986698 0.092650 -0.032719 560860.000000 0 0 1
33.514832 -19.181769 26.828283 47.020645 -0.519830 0.963604 0.083349 -0.038162 365061.000000 0 0 1
32.527332 -19.852869 27.575683 47.038092 -0.547991 0.944385 0.079725 -0.031014 -125530.000000 0 0 1
-29.368398 -5.094169 33.507166 44.846221 0.171749 0.727022 0.095844 -0.032137 -297385.000000 0 0 1
-30.396938 -5.417469 32.615673 44.912191 0.176372 0.758004 0.122928 -0.029925 56316.500000 0 0 1
-30.714048 -4.360069 31.733780 44.377874 0.141015 0.774056 0.115444 -0.023872 -407046.000000 0 0 1
-31.622258 -4.775669 30.585168 44.251855 0.149890 0.807702 0.111888 -0.027815 -356951.000000 0 0 1
-31.158808 -5.683869 29.608078 43.356844 0.180432 0.819081 0.120591 -0.021690 745180.000000 0 0 1
-30.012218 -5.293769 28.800268 41.931046 0.174591 0.813653 0.112136 -0.022672 856719.000000 0 0 1
-29.809138 -6.300369 27.702148 41.178737 0.208291 0.832905 0.092246 -0.025678 -82439.300000 0 0 1
-30.692888 -6.088269 26.607708 41.074207 0.195819 0.866109 0.103619 -0.025803 123945.000000 0 0 1
-30.421088 -6.918369 25.507318 40.298011 0.223617 0.885416 0.122516 -0.028845 363684.000000 0 0 1
-31.256648 -6.577369 24.203508 40.075549 0.207405 0.922352 0.111456 -0.023712 101772.000000 0 0 1
-30.847288 -5.395869 23.632958 39.232477 0.173170 0.924314 0.111974 -0.012847 34276.300000 0 0 1
-31.599978 -5.013169 22.490088 39.108753 0.157334 0.958112 0.107390 -0.010374 147960.000000 0 0 1
-30.950148 -3.778069 21.859388 38.079106 0.121469 0.959350 0.106931 -0.007961 541009.000000 0 0 1
-29.631258 -3.967569 21.360488 36.742666 0.133106 0.950405 0.126140 -0.009276 -21557.700000 0 0 1
-29.130508 -2.724469 21.025688 36.028999 0.093255 0.947670 0.131126 -0.010595 204970.000000 0 0 1
-27.658978 -2.731169 20.534088 34.556144 0.098425 0.934496 0.127729 -0.010362 257495.000000 0 0 1
-27.563218 -3.281369 19.264288 33.787737 0.118491 0.964100 0.143252 -0.012838 -552195.000000 0 0 1
-26.357328 -2.927369 18.664888 32.429250 0.110611 0.957511 0.138135 -0.013690 -653651.000000 0 0 1
-26.081678 -3.608669 17.316188 31.513914 0.137487 0.989058 0.138816 -0.021091 177977.000000 0 0 1
-27.007918 -3.234269 16.300088 31.710897 0.119185 1.030930 0.132311 -0.015446 431227.000000 0 0 1
-26.511078 -3.594769 15.002688 30.673120 0.134773 1.059721 0.139528 -0.024067 -353022.000000 0 0 1
-27.606548 -3.845969 13.991888 31.187913 0.138423 1.105563 0.156998 -0.014891 -455744.000000 0 0 1
-28.338398 -2.691769 13.701388 31.591746 0.094702 1.122200 0.148016 -0.017876 -530194.000000 0 0 1
-29.528688 -2.979269 13.038088 32.416218 0.100554 1.156868 0.160549 -0.021808 -447870.000000 0 0 1
-29.841818 -1.923269 12.010788 32.225643 0.064360 1.188870 0.153737 -0.015138 310746.000000 0 0 1
-29.016068 -2.040669 10.814188 31.032937 0.070213 1.214853 0.162739 -0.024082 536837.000000 0 0 1
-29.055548 -0.875669 10.010888 30.744260 0.030129 1.239131 0.157620 -0.027750 -686250.000000 0 0 1
-30.342248 -0.551869 9.265788 31.730291 0.018186 1.274461 0.157647 -0.024037 -411486.000000 0 0 1
-30.635298 -1.473769 8.183688 31.743759 0.048070 1.310047 0.166232 -0.037534 -356635.000000 0 0 1
-31.947598 -1.240969 7.763588 32.900795 0.038824 1.332580 0.166944 -0.040264 -529598.000000 0 0 1
-32.424788 -2.123669 6.632588 33.164259 0.065402 1.369447 0.193384 -0.048046 -223589.000000 0 0 1
-31.949168 -1.700569 5.340288 32.437015 0.053177 1.405408 0.190875 -0.061871 395955.000000 0 0 1
-32.528238 -0.483869 4.844988 32.890641 0.014874 1.422952 0.200833 -0.055941 207600.000000 0 0 1
-31.959148 0.087231 3.481288 32.148314 -0.002729 1.462295 0.173448 -0.044236 92002.500000 0 0 1
-32.433668 -0.793769 2.509888 32.540320 0.024469 1.493588 0.161727 -0.054569 416708.000000 0 0 1
-31.944618 -0.459269 1.216588 31.971075 0.014376 1.532734 0.159463 -0.058219 -161161.000000 0 0 1
-32.604988 -1.333369 0.132088 32.632508 0.040872 1.566749 0.160942 -0.058604 863851.000000 0 0 1
-33.987228 -0.985469 -0.021612 34.001519 0.028987 1.571432 0.174758 -0.054887 638283.000000 0 0 1
-34.723145 -1.742569 -0.922112 34.779069 0.050143 1.597313 0.178740 -0.055542 -290627.000000 0 0 1
-36.234178 -1.503169 -1.000912 36.279154 0.041461 1.598389 0.170728 -0.047539 -279451.000000 0 0 1
-36.964218 -2.315869 -0.097412 37.036821 0.062570 1.573426 0.174841 -0.049424 1078450.000000 0 0 1
36.916650 -1.995969 -0.136112 36.970819 -0.054014 1.574478 0.153668 -0.045341 928186.000000 0 0 1
36.049100 -3.023569 0.587788 36.180451 -0.083678 1.554550 0.167018 -0.054030 -527597.000000 0 0 1
36.107450 -2.961769 1.977388 36.282641 -0.081843 1.516270 0.168982 -0.054361 506596.000000 0 0 1
35.232250 -3.998769 2.478388 35.544957 -0.113014 1.501014 0.168958 -0.043265 442286.000000 0 0 1
35.082780 -4.063769 4.039388 35.547606 -0.115320 1.456917 0.178920 -0.036427 -10084.200000 0 0 1
34.388400 -3.008969 4.597788 34.824640 -0.087277 1.438383 0.182973 -0.046526 -136745.000000 0 0 1
34.402050 -3.197169 5.985788 35.064976 -0.092669 1.399251 0.168883 -0.052064 -66957.300000 0 0 1
33.724900 -2.019869 6.694688 34.442235 -0.059821 1.375177 0.188581 -0.039858 -257226.000000 0 0 1
32.324530 -2.028469 6.579588 33.049673 -0.062671 1.370375 0.201266 -0.038148 -259077.000000 0 0 1
31.780360 -0.854569 7.201288 32.597241 -0.026883 1.348042 0.217850 -0.033948 429088.000000 0 0 1
30.248590 -0.895669 7.444188 31.164007 -0.029602 1.329593 0.185524 -0.030731 126657.000000 0 0 1
29.456390 -0.796369 6.269688 30.126767 -0.027029 1.361154 0.208028 -0.037645 599429.000000 0 0 1
28.062790 -0.998669 6.465088 28.815185 -0.035572 1.344506 0.197523 -0.021974 521873.000000 0 0 1
27.565590 -2.454769 6.402488 28.405624 -0.088818 1.343448 0.225163 -0.032859 -582184.000000 0 0 1
27.991090 -3.116569 7.607688 29.173464 -0.110885 1.306972 0.183589 -0.032468 529600.000000 0 0 1
27.734290 -4.487269 7.432188 29.061380 -0.160405 1.312182 0.210237 -0.041183 -176963.000000 0 0 1
28.047690 -5.107269 8.847588 29.850241 -0.180119 1.269876 0.182866 -0.028634 117553.000000 0 0 1
27.001590 -4.973969 9.793988 29.150444 -0.182168 1.228150 0.179477 -0.022707 506778.000000 0 0 1
27.168390 -5.951769 10.812388 29.840454 -0.215663 1.200019 0.170348 -0.021240 -184279.000000 0 0 1
26.114290 -5.869269 11.913988 29.297569 -0.221079 1.152007 0.153197 -0.015782 333388.000000 0 0 1
24.892890 -6.563369 11.668288 28.264513 -0.257797 1.145243 0.179920 -0.028040 1000610.000000 0 0 1
23.851090 -6.273469 12.633288 27.709761 -0.257201 1.097397 0.184495 -0.038428 906753.000000 0 0 1
22.779790 -7.382469 12.527388 27.025083 -0.313399 1.088803 0.178605 -0.042529 296351.000000 0 0 1
23.296790 -8.543669 13.161388 28.088375 -0.351502 1.083124 0.158850 -0.041706 807763.000000 0 0 1
22.203690 -9.424669 13.362188 27.574921 -0.401417 1.064916 0.206722 -0.068262 295788.000000 0 0 1
22.706690 -10.630569 14.148888 28.788779 -0.437860 1.057017 0.154530 -0.053224 -147978.000000 0 0 1
22.924790 -10.380369 15.515888 29.564181 -0.425181 1.018292 0.135180 -0.044668 298155.000000 0 0 1
23.231390 -11.552569 16.199588 30.587350 -0.461471 1.012647 0.114823 -0.047567 -97964.600000 0 0 1
23.209590 -11.406969 17.726188 31.353177 -0.456806 0.969913 0.129320 -0.049276 908738.000000 0 0 1
21.874590 -11.466569 18.265588 30.718261 -0.482816 0.934008 0.140124 -0.048304 790026.000000 0 0 1
21.864990 -11.919569 19.608088 31.695915 -0.499107 0.903797 0.170816 -0.042602 150436.000000 0 0 1
22.057590 -10.799269 20.729488 32.138344 -0.455288 0.869763 0.125733 -0.036027 277231.000000 0 0 1
20.928290 -9.931769 20.816488 31.144173 -0.443091 0.838753 0.130621 -0.039467 250292.000000 0 0 1
21.062790 -8.727069 20.076788 30.378944 -0.392803 0.848808 0.133619 -0.028435 -296668.000000 0 0 1
22.044690 -7.598669 20.581188 31.101341 -0.331940 0.847651 0.120438 -0.015478 1763670.000000 0 0 1
23.456490 -7.903269 20.615688 32.212966 -0.324987 0.876323 0.135536 -0.022555 1532260.000000 0 0 1
24.158190 -8.014169 19.351288 31.973698 -0.320313 0.920748 0.138130 -0.028922 4016.240000 0 0 1
25.649690 -8.411669 19.481588 33.289563 -0.316893 0.945650 0.100930 -0.023181 190897.000000 0 0 1
25.863890 -9.756969 19.856688 34.035677 -0.360736 0.947878 0.074730 -0.026881 936135.000000 0 0 1
27.129590 -10.264769 19.359288 34.873516 -0.361714 0.982279 0.067525 -0.028113 927494.000000 0 0 1
27.386090 -11.715469 19.619788 35.667719 -0.404231 0.988347 0.018685 -0.021871 10144.300000 0 0 1
26.460190 -12.614869 19.009788 34.937782 -0.444874 0.995475 0.082807 -0.042039 299168.000000 0 0 1
26.497590 -13.897969 19.477288 35.702108 -0.483054 0.993751 0.060463 -0.030458 -406552.000000 0 0 1
25.361590 -14.730869 18.858788 34.869222 -0.526207 0.999357 0.111141 -0.033509 -225533.000000 0 0 1
25.460790 -14.819969 17.423488 34.226616 -0.527132 1.036701 0.105527 -0.041423 796651.000000 0 0 1
24.376490 -15.508169 16.765788 33.403715 -0.566608 1.044986 0.094535 -0.040274 250339.000000 0 0 1
24.356890 -17.037069 16.940788 34.212718 -0.610374 1.052777 0.071659 -0.027004 -726349.000000 0 0 1
25.497790 -17.678269 16.459388 35.122214 -0.606232 1.083055 0.082409 -0.030441 -329482.000000 0 0 1
25.472890 -19.065869 16.682888 35.926233 -0.642526 1.087879 0.071697 -0.025716 -399534.000000 0 0 1
26.646790 -19.857669 16.122688 36.936696 -0.640434 1.119097 0.063503 -0.015145 -392826.000000 0 0 1
26.620590 -19.975669 14.680788 36.375935 -0.643747 1.155364 0.076911 -0.025866 66674.000000 0 0 1
27.654790 -20.856169 14.316188 37.479600 -0.646159 1.178866 0.074180 -0.031206 -58363.600000 0 0 1
27.920690 -20.962469 12.786688 37.181842 -0.644004 1.219733 0.061913 -0.041804 -73893.200000 0 0 1
26.803390 -21.627569 12.215388 36.542977 -0.678932 1.229961 0.065953 -0.024958 464207.000000 0 0 1
26.372590 -20.902769 11.056888 35.421660 -0.670209 1.253341 0.107601 -0.028436 -96881.200000 0 0 1
24.880890 -20.989369 10.692788 34.262924 -0.700763 1.253414 0.066300 -0.020032 -197058.000000 0 0 1
24.591790 -22.221869 10.130788 34.658339 -0.734817 1.274161 0.059363 -0.023330 -415672.000000 0 0 1
23.225190 -22.390769 9.883788 33.740854 -0.767108 1.273504 0.041360 -0.015754 -402940.000000 0 0 1
22.957090 -23.368069 8.695988 33.892696 -0.794270 1.311320 0.039375 -0.009068 -324929.000000 0 0 1
23.266190 -24.747269 8.857288 35.102627 -0.816236 1.315714 0.034299 -0.010782 136858.000000 0 0 1
22.934990 -25.480829 7.637588 35.122915 -0.837933 1.351592 0.035775 -0.005300 91759.500000 0 0 1
21.442790 -25.846929 7.478088 34.406086 -0.878261 1.351700 0.032398 -0.001664 328451.000000 0 0 1
20.545890 -24.768769 7.204288 32.977678 -0.878320 1.350561 0.041138 -0.001494 -300759.000000 0 0 1
19.212290 -25.209709 7.326188 32.531746 -0.919597 1.343647 0.056864 -0.016849 -15535.700000 0 0 1
18.272790 -23.981169 7.382388 31.040151 -0.919682 1.330662 0.064857 -0.019647 -405087.000000 0 0 1
17.977790 -23.457869 6.102188 30.177959 -0.916890 1.367186 0.077432 -0.017080 123206.000000 0 0 1
17.128890 -22.335769 6.272288 28.837944 -0.916578 1.351543 0.093056 -0.016703 -25569.700000 0 0 1
16.608790 -21.709269 4.954488 27.779330 -0.917729 1.391485 0.100435 -0.011703 -129372.000000 0 0 1
15.711190 -20.666769 5.274588 26.491095 -0.920790 1.370349 0.124384 -0.023225 -81372.600000 0 0 1
15.262590 -20.105569 4.052588 25.565680 -0.921482 1.411608 0.113649 -0.023378 372518.000000 0 0 1
14.464690 -18.770669 4.037588 24.038872 -0.914241 1.402036 0.111326 -0.019703 282814.000000 0 1 0
15.306590 -17.705369 4.435388 23.821092 -0.857935 1.383507 0.101209 -0.020637 110407.000000 0 1 0
14.720690 -16.402069 4.370388 22.468352 -0.839370 1.375035 0.071475 -0.016058 -70932.800000 0 1 0
15.748690 -15.264569 4.477288 22.384691 -0.769789 1.369422 0.073739 -0.015558 -1149910.000000 0 1 0
16.196990 -15.047569 5.774088 22.849768 -0.748627 1.315329 0.094852 -0.030229 128904.000000 0 1 0
17.314390 -14.181469 5.877088 23.139626 -0.686253 1.314000 0.081299 -0.025689 294702.000000 0 1 0
18.688490 -14.705069 5.419188 24.389881 -0.666672 1.346736 0.096115 -0.036261 -835144.000000 0 1 0
19.615290 -13.677269 5.307388 24.494808 -0.608895 1.352390 0.111816 -0.030278 -231082.000000 0 1 0
20.955190 -14.048569 5.055988 25.730240 -0.590590 1.373009 0.127848 -0.018432 390965.000000 0 0 1
21.889690 -12.814369 4.978388 25.848615 -0.529620 1.376987 0.119632 -0.016275 -188371.000000 0 0 1
21.998990 -12.063469 6.176488 25.838573 -0.501587 1.329418 0.143716 -0.029550 -247465.000000 0 0 1
23.074590 -11.191569 6.061688 26.352077 -0.451590 1.338691 0.153303 -0.027919 -466767.000000 0 0 1
23.219190 -10.362069 7.390688 26.478775 -0.419749 1.287921 0.174419 -0.035737 -223485.000000 0 0 1
23.641590 -11.139969 8.450388 27.466939 -0.440345 1.258067 0.177631 -0.026311 201319.000000 0 0 1
23.975890 -10.451569 9.634788 27.873064 -0.411083 1.217847 0.214120 -0.047232 -42349.700000 0 0 1
24.743690 -11.272369 10.673588 29.210306 -0.427472 1.196729 0.177498 -0.034954 99222.900000 0 0 1
23.880590 -12.239469 11.279188 29.108542 -0.473620 1.172892 0.186321 -0.039206 828261.000000 0 0 1
24.583690 -13.139769 12.153488 30.409186 -0.490858 1.159645 0.179199 -0.038546 -260865.000000 0 0 1
23.695790 -14.265069 12.669788 30.422133 -0.541895 1.141241 0.142375 -0.040320 -318581.000000 0 0 1
22.728390 -13.728369 13.516588 29.795066 -0.543369 1.099937 0.134985 -0.049268 26294.900000 0 0 1
21.494190 -14.400669 13.604188 29.231035 -0.590293 1.086707 0.119814 -0.048703 184987.000000 0 0 1
20.254890 -13.629669 14.070788 28.178281 -0.592311 1.047949 0.112456 -0.049043 -720788.000000 0 0 1
20.043090 -13.505369 15.454088 28.687092 -0.592936 1.001888 0.118855 -0.047612 -136519.000000 0 0 1
19.171590 -12.495269 15.824988 27.822865 -0.577611 0.965779 0.150056 -0.060120 36396.500000 0 0 1
17.645990 -12.609969 15.613188 26.723845 -0.620463 0.946851 0.183898 -0.064130 -399315.000000 0 0 1
17.308290 -12.376269 14.208288 25.585628 -0.620754 0.982045 0.200726 -0.078851 1116580.000000 0 0 1
15.879590 -12.230069 14.061688 24.484016 -0.656289 0.959022 0.243002 -0.077091 839787.000000 0 1 0
15.399590 -10.785469 14.030988 23.459376 -0.610977 0.929672 0.205348 -0.072280 -402255.000000 0 1 0
15.625090 -10.079469 15.234488 24.038069 -0.572910 0.884385 0.180029 -0.056812 160618.000000 0 1 0
15.316290 -8.726969 15.186688 23.267664 -0.517905 0.859660 0.162572 -0.045748 69153.300000 0 1 0
16.160890 -7.882469 16.230688 24.222777 -0.453799 0.836508 0.178176 -0.034039 262438.000000 0 1 0
17.544690 -7.840869 16.008788 25.011530 -0.420280 0.876225 0.174330 -0.049798 -161794.000000 0 0 1
18.368890 -8.668069 16.813088 26.367242 -0.440907 0.879352 0.176995 -0.043892 388682.000000 0 0 1
19.861490 -8.458669 16.427588 27.127357 -0.402618 0.920311 0.162863 -0.045946 225282.000000 0 0 1
20.373990 -7.179169 16.773688 27.349525 -0.338784 0.910554 0.147713 -0.039989 227935.000000 0 0 1
21.626390 -6.953469 16.147988 27.871293 -0.311088 0.952832 0.141631 -0.034035 246536.000000 0 0 1
22.327190 -5.638269 16.636888 28.409145 -0.247358 0.945155 0.152101 -0.030185 19008.800000 0 0 1
22.817990 -5.740269 17.948488 29.593235 -0.246454 0.919137 0.156648 -0.027272 92600.600000 0 0 1
23.240590 -4.528169 18.506688 30.052069 -0.192428 0.907369 0.157103 -0.023635 -100069.000000 0 0 1
-5.466068 -32.484065 -6.348417 33.546904 1.404089 1.761184 0.084146 -0.028033 -406029.000000 0 0 1
-6.318868 -31.405065 -6.367917 32.661240 1.372242 1.767022 0.073055 -0.029135 -436859.000000 0 0 1
-5.906068 -30.437165 -5.445217 31.479407 1.379137 1.744648 0.084419 -0.030284 -912905.000000 0 0 1
-6.671868 -29.112265 -5.566417 30.381290 1.345510 1.755056 0.078775 -0.028670 378941.000000 0 0 1
-8.009268 -29.070565 -5.102417 30.582361 1.301955 1.738422 0.067375 -0.031400 272291.000000 0 0 1
-8.927068 -29.761365 -5.943117 31.634665 1.279381 1.759787 0.060045 -0.025775 756251.000000 0 0 1
-10.448268 -29.650865 -5.470017 31.910205 1.232006 1.743066 0.060958 -0.020221 1445060.000000 0 0 1
-11.364268 -30.141265 -6.412117 32.844447 1.210244 1.767285 0.044992 -0.021926 664114.000000 0 0 1
-12.732768 -29.812965 -6.055217 32.978810 1.167158 1.755453 0.051442 -0.015432 1400350.000000 0 0 1
-13.708668 -30.456865 -7.083717 34.142748 1.147858 1.779788 0.057239 -0.014260 45946.300000 0 0 1
-13.737768 -29.730065 -8.284117 33.782090 1.137939 1.818545 0.078942 -0.027427 114710.000000 0 0 1
-14.743468 -30.154165 -9.190317 34.800940 1.116039 1.838049 0.093456 -0.029242 205416.000000 0 0 1
-14.816768 -29.297265 -10.490817 34.466267 1.102568 1.880083 0.129025 -0.029594 -299224.000000 0 0 1
-15.277368 -27.929665 -10.338417 33.471585 1.070264 1.884803 0.133285 -0.034089 60355.400000 0 0 1
-14.354468 -26.964265 -9.907217 32.113475 1.081604 1.884419 0.113490 -0.026876 -110353.000000 0 0 1
-15.053168 -25.578465 -9.646017 31.207393 1.038869 1.885037 0.099956 -0.021390 156037.000000 0 0 1
-15.450168 -24.892365 -10.801117 31.225016 1.015310 1.924007 0.123474 -0.043037 216710.000000 0 0 1
-16.100068 -23.655265 -10.481717 30.473761 0.973201 1.921926 0.089990 -0.015260 14417.900000 0 0 1
-16.904768 -23.017165 -11.639417 30.838889 0.937327 1.957812 0.116939 -0.013022 12456.300000 0 0 1
-18.075568 -23.752365 -11.939917 32.147513 0.920292 1.951324 0.142861 -0.039998 -84136.700000 0 0 1
-18.803268 -23.207265 -13.030317 32.587255 0.889847 1.982160 0.154128 -0.049702 544403.000000 0 0 1
-20.296568 -23.673465 -12.990317 33.780644 0.862048 1.965516 0.144377 -0.038251 379950.000000 0 0 1
-20.647968 -25.011965 -13.234117 35.029685 0.880685 1.958212 0.183792 -0.041545 -48571.600000 0 0 1
-20.341168 -25.888365 -12.198817 35.110991 0.904820 1.925632 0.198132 -0.039827 -1426210.000000 0 0 1
-20.149968 -27.388065 -12.438817 36.205683 0.936497 1.921501 0.196816 -0.047218 577146.000000 0 0 1
-19.104968 -27.918265 -13.263017 36.336441 0.970673 1.944436 0.192797 -0.046106 -734614.000000 0 0 1
-17.835768 -27.431465 -13.094317 35.242886 0.994285 1.951469 0.184482 -0.047045 -1528020.000000 0 0 1
-16.791668 -28.380265 -13.733217 35.721153 1.036527 1.965415 0.159686 -0.034927 -97033.800000 0 0 1
-16.876868 -28.370865 -15.127917 36.312374 1.034160 2.000504 0.176884 -0.049233 51031.200000 0 0 1
-16.126368 -29.446465 -15.709517 37.066737 1.069759 2.008452 0.176917 -0.042567 315559.000000 0 0 1
-16.818268 -30.858365 -15.723617 38.500973 1.071789 1.991492 0.170003 -0.042647 23643.900000 0 0 1
-16.984868 -31.335065 -14.418317 38.448146 1.074085 1.955200 0.168787 -0.039718 -4813.260000 0 0 1
-17.292368 -32.662765 -14.422817 39.672407 1.083890 1.942870 0.163899 -0.045719 -522929.000000 0 0 1
-17.657968 -33.173365 -12.979117 39.758439 1.081649 1.903341 0.182186 -0.030126 831174.000000 0 0 1
-18.948268 -32.820765 -12.427517 39.883363 1.047216 1.887669 0.203831 -0.038482 879783.000000 0 0 1
-19.333268 -31.481365 -12.199417 38.906007 1.020061 1.889737 0.208715 -0.046484 -537485.000000 0 0 1
-18.599668 -30.594665 -11.183117 37.510575 1.024560 1.873532 0.200143 -0.046314 -436932.000000 0 0 1
-18.853468 -30.912465 -9.814517 37.514777 1.023130 1.835494 0.196318 -0.055604 93046.800000 0 0 1
-18.697368 -29.759665 -9.000117 36.279903 1.009843 1.821488 0.189313 -0.043569 -52220.900000 0 0 1
-18.962068 -30.152765 -7.500917 36.400728 1.009421 1.778348 0.212691 -0.049015 381417.000000 0 0 1
-18.046468 -31.124965 -6.975917 36.648354 1.045357 1.762312 0.161628 -0.040615 424664.000000 0 0 1
-18.445968 -31.456265 -5.656817 36.901896 1.040437 1.724697 0.192641 -0.047503 -329639.000000 0 0 1
-17.525168 -32.480765 -4.992217 37.243172 1.076007 1.705245 0.167227 -0.038094 278790.000000 0 0 1
-16.244468 -31.941465 -4.680317 36.139249 1.100316 1.700669 0.141204 -0.031864 365304.000000 0 0 1
-16.153468 -31.753565 -3.277217 35.776578 1.100202 1.662527 0.119707 -0.032258 -806383.000000 0 0 1
-14.890568 -31.100165 -2.796917 34.594393 1.124257 1.651734 0.117702 -0.030147 451594.000000 0 0 1
-13.651668 -31.841765 -2.863117 34.762961 1.165767 1.653251 0.072449 -0.025009 921594.000000 0 0 1
-12.528368 -31.110165 -2.436017 33.626426 1.187956 1.643303 0.091163 -0.022281 1039060.000000 0 0 1
-11.170668 -31.899065 -2.294217 33.876210 1.233954 1.638572 0.095453 -0.027426 524420.000000 0 0 1
-11.210468 -32.861665 -1.235517 34.743203 1.242035 1.606365 0.107093 -0.017771 -187095.000000 0 0 1
-9.968668 -33.456565 -0.950317 34.923047 1.281214 1.598011 0.118606 -0.022671 -307770.000000 0 0 1
-8.943868 -32.674865 -0.162417 33.877219 1.303618 1.575591 0.135988 -0.031267 -697104.000000 0 0 1
-9.370768 -32.524265 1.160283 33.867172 1.290277 1.536530 0.149955 -0.029208 129862.000000 0 0 1
-8.381868 -32.045465 2.076383 33.188536 1.314966 1.508192 0.146600 -0.029946 567267.000000 0 0 1
-7.399168 -33.034965 2.735183 33.963772 1.350453 1.490177 0.154093 -0.040634 -225106.000000 0 0 1
-8.105168 33.732931 3.563383 34.875523 -1.334992 1.468443 0.171784 -0.048301 -136505.000000 0 0 1
-7.371668 32.628131 4.078883 33.698275 -1.348597 1.449457 0.178435 -0.042938 85960.400000 0 0 1
-6.405168 33.024631 5.240983 34.045856 -1.379224 1.416243 0.185101 -0.041089 680184.000000 0 0 1
-5.206668 33.607831 4.718283 34.334500 -1.417094 1.432939 0.181431 -0.045585 8162.760000 0 0 1
-4.390968 -33.505265 5.728683 34.273914 1.440486 1.402864 0.171218 -0.049276 523408.000000 0 0 1
-3.072668 -32.874265 5.168583 33.419648 1.477600 1.415516 0.163801 -0.047337 459282.000000 0 0 1
-3.202968 -31.565165 4.580383 32.056178 1.469671 1.427419 0.140436 -0.043091 65609.500000 0 0 1
-3.664168 -31.587765 3.248383 31.965059 1.455313 1.468998 0.140806 -0.044908 -225601.000000 0 0 1
-3.700168 -30.161165 2.620583 30.500075 1.448726 1.484770 0.129083 -0.043889 -801769.000000 0 0 1
-2.477668 -29.533665 2.571283 29.748743 1.487099 1.484255 0.102668 -0.038780 -946340.000000 0 0 1
-2.652168 -28.406965 1.733083 28.583094 1.477703 1.510126 0.104628 -0.037921 186589.000000 0 0 1
-2.093768 -27.127965 2.336383 27.308772 1.493768 1.485137 0.092150 -0.034621 -583824.000000 0 0 1
-2.287068 -25.972965 1.538583 26.118821 1.482967 1.511855 0.105664 -0.037480 -218028.000000 0 0 1
-2.460568 -24.754865 2.188183 24.972903 1.471724 1.483062 0.079254 -0.033966 -189392.000000 0 1 0
-3.831368 -24.526365 2.857783 24.987775 1.415834 1.456178 0.069313 -0.024239 -176409.000000 0 1 0
-4.052168 -25.231965 4.104183 25.882744 1.411559 1.411556 0.084013 -0.026506 233443.000000 0 0 1
-5.194268 -24.708065 4.781683 25.696953 1.363588 1.383626 0.076140 -0.024002 227059.000000 0 0 1
-5.808668 -25.600165 5.927783 26.911850 1.347675 1.348708 0.094435 -0.024056 -243264.000000 0 0 1
-5.081668 -25.857265 7.114583 27.295399 1.376742 1.307099 0.086266 -0.025402 210761.000000 0 0 1
-5.822368 -26.664765 8.027383 28.449052 1.355816 1.284744 0.094342 -0.025991 661474.000000 0 0 1
-4.842968 -26.998665 9.206883 28.933527 1.393306 1.246958 0.077719 -0.024319 491877.000000 0 0 1
-4.714368 -25.896065 10.045783 28.173555 1.390719 1.206205 0.070382 -0.028984 -266394.000000 0 0 1
-5.705068 -25.624665 11.030283 28.475225 1.351730 1.173025 0.072418 -0.027405 68456.900000 0 0 1
-5.238068 -24.664465 12.136583 27.983385 1.361532 1.122194 0.060956 -0.029317 56545.900000 0 0 1
-4.431268 -25.286265 13.106583 28.823842 1.397314 1.098746 0.059349 -0.032104 -416689.000000 0 0 1
-3.917968 -24.285965 13.976483 28.293120 1.410848 1.054125 0.060918 -0.030573 298333.000000 0 0 1
-2.889668 -24.985265 14.908183 29.238119 1.455653 1.035741 0.065929 -0.034872 64313.700000 0 0 1
-3.502868 -25.411265 16.118183 30.295186 1.433813 1.009791 0.065590 -0.032876 -104413.000000 0 0 1
-2.596668 -26.119665 16.925883 31.232437 1.471708 0.998061 0.079480 -0.026280 -23943.700000 0 0 1
-3.089268 -26.450365 18.355583 32.343358 1.454528 0.967303 0.105487 -0.037905 -41060.600000 0 0 1
-2.991068 -25.253065 19.103783 31.805948 1.452902 0.926501 0.107560 -0.025440 -1817.010000 0 0 1
-3.584168 -25.408265 20.367383 32.760594 1.430658 0.899880 0.150970 -0.035256 192333.000000 0 0 1
-2.880968 -24.342965 21.317083 32.485350 1.452995 0.855017 0.123802 -0.036321 458022.000000 0 0 1
-1.558968 -24.755065 21.645283 32.920540 1.507904 0.853299 0.073728 -0.052898 235311.000000 0 0 1
-0.831868 -23.843365 22.455383 32.763429 1.535922 0.815672 0.073891 -0.038824 280808.000000 0 0 1
-0.258768 -22.529565 21.827683 31.370305 1.559311 0.801253 0.075303 -0.042009 -768638.000000 0 0 1
-1.169968 -21.481465 21.673583 30.537950 1.516386 0.781687 0.110470 -0.030181 -759819.000000 0 0 1
-0.643268 -20.425865 20.962083 29.275223 1.539314 0.772691 0.133697 -0.024742 -636156.000000 0 0 1
-1.657868 -19.347865 20.486883 28.227660 1.485318 0.758638 0.122956 -0.005729 -294900.000000 0 0 1
-2.358868 -18.633665 21.522883 28.565928 1.444874 0.717509 0.129564 -0.030749 830266.000000 0 0 1
-3.585368 -19.186265 22.027083 29.430597 1.386056 0.725087 0.146838 -0.039375 7547.560000 0 0 1
-4.788968 -18.900065 21.135883 28.755386 1.322636 0.745095 0.133562 -0.040264 -897404.000000 0 0 1
-5.000068 -19.588965 19.972683 28.418943 1.320883 0.791478 0.129492 -0.038841 -273072.000000 0 0 1
-5.513968 -20.902465 20.091983 29.512788 1.312877 0.821957 0.140789 -0.035616 -11289.600000 0 0 1
-5.683168 -21.666465 18.786083 29.234415 1.314273 0.872907 0.103784 -0.035975 124329.000000 0 0 1
-6.120468 -23.004365 18.927283 30.412218 1.310763 0.899045 0.109075 -0.038811 -182025.000000 0 0 1
-6.058768 -23.706365 17.690683 30.193719 1.320577 0.944799 0.096075 -0.041722 143966.000000 0 0 1
-6.696268 -25.124165 17.699083 31.453477 1.310324 0.973140 0.096974 -0.041314 -625483.000000 0 0 1
-8.052968 -25.135765 17.942083 31.915127 1.260750 0.973775 0.097612 -0.038644 -1662210.000000 0 0 1
-8.643568 -26.374465 17.955683 33.056470 1.254102 0.996574 0.090742 -0.036671 883332.000000 0 0 1
-10.159168 -26.224465 18.371383 33.592246 1.201205 0.992147 0.065205 -0.037408 -63761.000000 0 0 1
-10.954468 -25.866165 17.287583 32.983623 1.170192 1.019107 0.078647 -0.035774 -387294.000000 0 0 1
-12.347068 -25.949165 17.507083 33.649773 1.126681 1.023625 0.094650 -0.034743 427772.000000 0 0 1
-13.009668 -25.042765 18.573583 33.784161 1.091672 0.988705 0.097315 -0.042346 -1304140.000000 0 0 1
-13.237568 -23.777465 17.989483 32.622424 1.062803 0.986701 0.087908 -0.037251 5235.040000 0 0 1
-13.239568 -22.608265 18.834583 32.267032 1.041027 0.947506 0.099440 -0.043039 -138598.000000 0 0 1
-11.863068 -22.080065 19.294883 31.631538 1.077775 0.914750 0.106060 -0.041546 63771.900000 0 0 1
-11.200968 -22.910965 20.247383 32.562717 1.116075 0.899762 0.126985 -0.047747 309274.000000 0 0 1
-9.806768 -22.621465 20.235183 31.896176 1.161735 0.883554 0.126703 -0.054096 630128.000000 0 0 1
-9.003668 -23.682265 21.034783 32.929893 1.207487 0.877892 0.133735 -0.051033 130824.000000 0 0 1
-9.219068 -23.529465 22.451083 33.803522 1.197371 0.844421 0.154555 -0.049238 -133730.000000 0 0 1
-8.303068 -24.250665 23.207483 34.577782 1.240921 0.835014 0.144685 -0.049696 -174988.000000 0 0 1
-8.068668 -23.851865 24.693383 35.267238 1.244598 0.795148 0.154271 -0.046250 -325867.000000 0 0 1
-7.010768 -24.504465 25.306283 35.916955 1.292139 0.788969 0.164186 -0.035254 -568527.000000 0 0 1
-6.749568 -23.926465 26.572583 36.388660 1.295845 0.752118 0.164104 -0.042504 -66066.600000 0 0 1
-5.388768 -24.381765 27.157183 36.892030 1.353277 0.743468 0.178312 -0.039650 4584.610000 0 0 1
-4.316768 -23.939565 26.355983 35.866072 1.392394 0.745359 0.168216 -0.032171 -163701.000000 0 0 1
-3.066568 -24.209465 26.983483 36.381457 1.444799 0.735221 0.150499 -0.028396 486838.000000 0 0 1
-1.856068 -23.632665 26.239083 35.361523 1.492419 0.734712 0.123631 -0.027983 -248746.000000 0 0 1
-2.053168 -22.234365 26.068483 34.324165 1.478715 0.708284 0.119947 -0.024158 -15587.100000 0 0 1
-0.880368 -21.512465 25.770583 33.581009 1.529896 0.695996 0.102807 -0.030784 847082.000000 0 0 1
0.208932 -21.186965 26.865783 34.215515 -1.560935 0.667789 0.093109 -0.020627 356436.000000 0 0 1
0.816732 -22.278365 27.413483 35.334002 -1.534152 0.682753 0.092053 -0.035972 -35636.600000 0 0 1
1.700432 -21.857365 28.459983 35.925013 -1.493156 0.656382 0.060457 -0.044664 -38986.600000 0 0 1
2.184232 -23.034165 29.321783 37.351180 -1.476253 0.668052 0.097160 -0.053432 -407205.000000 0 0 1
2.972232 -23.985465 28.627983 37.465960 -1.447507 0.701141 0.078464 -0.053667 247876.000000 0 0 1
3.374332 -25.108365 29.398283 38.808184 -1.437206 0.711278 0.084747 -0.042277 -265187.000000 0 0 1
4.522132 -24.838065 30.455783 39.559245 -1.390704 0.692147 0.055196 -0.044135 1701190.000000 0 0 1
5.861932 -24.532465 29.950283 39.156399 -1.336248 0.699928 0.074876 -0.042315 1771210.000000 0 0 1
6.462032 -25.618365 29.220683 39.394249 -1.323708 0.735120 0.056037 -0.038710 -1482340.000000 0 0 1
7.888532 -25.429765 28.753283 39.187411 -1.270000 0.746989 0.057451 -0.027175 -655815.000000 0 0 1
7.998732 -24.501365 27.721583 37.852117 -1.255244 0.749007 0.057274 -0.035370 303542.000000 0 0 1
9.231532 -24.590165 27.009183 37.674838 -1.211661 0.771447 0.070156 -0.015243 282075.000000 0 0 1
9.396132 -23.361565 26.059683 36.237510 -1.188391 0.768239 0.077893 -0.014239 39384.600000 0 0 1
8.571232 -23.443665 24.904083 35.260244 -1.220284 0.786548 0.068411 -0.016720 72328.800000 0 0 1
8.484132 -22.257565 24.172583 33.936610 -1.206619 0.778046 0.065698 -0.025803 175141.000000 0 0 1
7.649532 -22.401965 22.858283 32.906907 -1.241743 0.802884 0.056229 -0.016445 222584.000000 0 0 1
8.311332 -23.063665 21.818083 32.818282 -1.224918 0.843550 0.054533 -0.009133 82828.300000 0 0 1
7.699632 -22.605565 20.607883 31.543316 -1.242513 0.858835 0.063731 -0.001034 86348.200000 0 0 1
8.207432 -23.302765 19.310383 31.357164 -1.232155 0.907369 0.112720 -0.016685 366142.000000 0 0 1
9.534532 -23.026965 18.897383 31.277141 -1.178229 0.922045 0.116428 -0.016837 -140086.000000 0 0 1
10.073932 -23.983865 18.025583 31.648563 -1.173143 0.964833 0.123834 -0.026127 798685.000000 0 0 1
11.461932 -23.567265 17.421983 31.469309 -1.118128 0.984094 0.128515 -0.032341 803036.000000 0 0 1
11.273032 -22.595665 16.462883 30.144185 -1.108027 0.993049 0.145594 -0.024589 -107471.000000 0 0 1
12.505132 -22.161365 15.938983 30.025916 -1.057059 1.011204 0.133934 -0.037738 105192.000000 0 0 1
-12.710468 22.442031 11.265983 28.144682 -1.055473 1.158965 0.049715 -0.029523 -926119.000000 0 0 1
-13.640368 21.442531 11.003583 27.693332 -1.004229 1.162183 0.023743 -0.028970 -419355.000000 0 0 1
-13.196668 20.255031 10.319983 26.285364 -0.993349 1.167325 0.057660 -0.034138 -8731.320000 0 0 1
-14.285668 19.665031 9.368683 26.049299 -0.942538 1.202901 0.067139 -0.029192 -246180.000000 0 0 1
-14.521668 20.361931 8.149783 26.304107 -0.951281 1.255783 0.068030 -0.026072 -450612.000000 0 0 1
-15.227468 19.673331 7.182683 25.894144 -0.912101 1.289724 0.077621 -0.025645 642527.000000 0 0 1
-16.789068 19.576831 7.375383 26.823896 -0.861907 1.292253 0.072782 -0.021216 499353.000000 0 0 1
-17.151768 18.559131 8.293083 26.596987 -0.824788 1.253704 0.066824 -0.027748 -251814.000000 0 0 1
-18.531868 18.670031 8.525983 27.653075 -0.789112 1.257370 0.070730 -0.014569 -172274.000000 0 0 1
-19.060668 17.518131 9.457983 27.561702 -0.743253 1.220521 0.078159 -0.020949 -55502.100000 0 0 1
-18.968068 16.257231 8.853383 26.504104 -0.708592 1.230212 0.087311 -0.016919 28303.500000 0 0 1
-19.241368 15.182431 9.819283 26.403689 -0.668029 1.189751 0.089827 -0.030495 -880140.000000 0 0 1
-18.109168 14.783531 10.735583 25.724453 -0.684635 1.140291 0.077768 -0.028784 -1142630.000000 0 0 1
-17.212968 13.904231 10.182483 24.357686 -0.679465 1.139510 0.055890 -0.017693 -839375.000000 0 1 0
-16.480468 13.155031 11.097183 23.828725 -0.673654 1.086364 0.040920 -0.020932 -78886.800000 0 1 0
-17.232968 12.047731 11.945783 24.183150 -0.610128 1.054145 0.045582 -0.022984 -39264.700000 0 1 0
-18.014568 11.200431 11.120983 23.951004 -0.556254 1.087927 0.030356 -0.022365 -433021.000000 0 1 0
-19.001368 10.581431 11.880283 24.782248 -0.508108 1.070840 0.052356 -0.018605 56916.100000 0 1 0
-20.134868 9.891731 11.035183 25.000690 -0.456642 1.113643 0.057253 -0.023338 228032.000000 0 0 1
-19.673768 8.821631 10.220683 23.860861 -0.421519 1.128136 0.048810 -0.021596 344804.000000 0 1 0
-18.994668 9.282731 9.052283 22.998051 -0.454568 1.166240 0.055108 -0.019544 68013.300000 0 1 0
-19.921068 9.500031 7.788883 23.404406 -0.444984 1.231530 0.068177 -0.026777 326336.000000 0 1 0
-20.365368 8.245231 7.303683 23.153311 -0.384694 1.249867 0.048263 -0.031542 -92561.700000 0 1 0
-21.172368 8.506031 6.204983 23.645793 -0.382015 1.305273 0.066362 -0.028023 -225291.000000 0 1 0
-21.579468 7.145231 5.554683 23.400476 -0.319750 1.331134 0.087191 -0.025864 -123392.000000 0 1 0
-22.380468 6.243831 6.319983 24.079306 -0.272068 1.305220 0.104356 -0.025965 301232.000000 0 1 0
-22.234268 4.948431 5.776983 23.499429 -0.218990 1.322415 0.116971 -0.029789 -43239.800000 0 1 0
-23.362768 3.899831 6.040683 24.444170 -0.165400 1.321088 0.137050 -0.031767 863557.000000 0 1 0
-24.514568 4.105831 5.184083 25.390876 -0.165945 1.365179 0.163626 -0.040211 892724.000000 0 0 1
-25.358868 2.958531 5.177183 26.050495 -0.116141 1.370728 0.175843 -0.048653 258591.000000 0 0 1
-26.623958 3.201731 4.289683 27.156723 -0.119683 1.412172 0.191090 -0.048897 98621.700000 0 0 1
-26.378988 3.129231 2.922783 26.724254 -0.118074 1.461209 0.201735 -0.038575 22955.500000 0 0 1
-27.565808 2.958331 2.198083 27.811096 -0.106910 1.491678 0.200943 -0.032709 -497986.000000 0 0 1
-27.376708 3.016931 0.650083 27.550111 -0.109758 1.547198 0.219845 -0.039526 -165179.000000 0 0 1
-27.058868 4.293531 0.106983 27.397594 -0.157362 1.566891 0.230968 -0.044157 166941.000000 0 0 1
-27.141778 4.306031 -1.309917 27.512431 -0.157338 1.618426 0.275247 -0.035718 -497884.000000 0 0 1
-28.517068 4.642131 -1.881717 28.953642 -0.161369 1.635833 0.248832 -0.046705 -247573.000000 0 0 1
-29.420988 3.547031 -1.848317 29.691619 -0.119982 1.633087 0.205816 -0.048200 613269.000000 0 0 1
-30.767688 3.999631 -1.977917 31.089545 -0.129270 1.634459 0.179304 -0.019648 440356.000000 0 0 1
-31.817938 2.884031 -2.181617 32.022777 -0.090395 1.638976 0.166926 -0.016723 -182285.000000 0 0 1
-31.811708 2.356731 -3.498817 32.090196 -0.073949 1.680044 0.156027 -0.029007 257274.000000 0 0 1
-32.680998 1.264631 -3.558717 32.898501 -0.038677 1.679181 0.167275 -0.037717 -505906.000000 0 0 1
-32.704158 0.716931 -5.030417 33.096541 -0.021918 1.723380 0.174454 -0.035210 -269940.000000 0 0 1
-31.475868 0.388431 -5.660217 31.983108 -0.012340 1.748709 0.198716 -0.048034 103701.000000 0 0 1
-31.566608 -0.192369 -6.937517 32.320533 0.006094 1.787127 0.217709 -0.052876 -217393.000000 0 0 1
-32.004878 0.771331 -8.094617 33.021659 -0.024096 1.818451 0.220666 -0.052906 121620.000000 0 0 1
-33.418728 0.898531 -8.092317 34.396283 -0.026881 1.808290 0.228815 -0.048958 450776.000000 0 0 1
-33.937458 1.802731 -9.061217 35.172525 -0.053069 1.831357 0.221545 -0.042819 306118.000000 0 0 1
-35.490712 1.828231 -9.037117 36.668822 -0.051467 1.819814 0.204155 -0.039059 336500.000000 0 0 1
-36.014008 2.533331 -7.941317 36.966079 -0.070227 1.787311 0.159928 -0.032278 374254.000000 0 0 1
-37.394368 2.262731 -7.726517 38.251245 -0.060436 1.774190 0.160873 -0.033385 305282.000000 0 0 1
37.347540 3.196531 -6.570117 38.055525 0.085381 1.744311 0.158296 -0.031337 -1164560.000000 0 0 1
36.011450 2.952831 -6.377517 36.690822 0.081814 1.745501 0.150025 -0.027025 -1010900.000000 0 0 1
35.543800 3.815331 -5.320917 36.141812 0.106932 1.718557 0.143350 -0.033358 371994.000000 0 0 1
34.055620 3.561831 -4.964817 34.599440 0.104210 1.714788 0.153979 -0.037153 314859.000000 0 0 1
33.967080 2.367831 -4.158517 34.302513 0.069597 1.692326 0.131910 -0.038067 958636.000000 0 0 1
32.656150 1.758631 -4.318917 32.987421 0.053801 1.702099 0.141838 -0.040048 1060100.000000 0 0 1
32.412150 0.527331 -3.398917 32.594143 0.016268 1.675266 0.171437 -0.047494 -782742.000000 0 0 1
33.228650 -0.500469 -3.819417 33.451182 -0.015060 1.685225 0.116989 -0.039663 -223564.000000 0 0 1
33.176370 -1.670369 -2.971617 33.351044 -0.050306 1.660016 0.126499 -0.044542 517359.000000 0 0 1
34.217500 -2.796869 -3.385117 34.498098 -0.081557 1.669079 0.110826 -0.035739 524629.000000 0 0 1
34.249150 -3.796069 -2.375117 34.540636 -0.110386 1.639614 0.105465 -0.036343 -506631.000000 0 0 1
34.961770 -4.909869 -2.724517 35.409817 -0.139523 1.647815 0.152940 -0.041610 -341432.000000 0 0 1
34.718430 -6.191269 -1.882217 35.316340 -0.176473 1.624118 0.189149 -0.049813 -302519.000000 0 0 1
35.264910 -6.113669 -0.632617 35.796522 -0.171658 1.588470 0.184706 -0.061793 -247975.000000 0 0 1
35.045180 -7.308269 0.076383 35.799179 -0.205592 1.568663 0.213880 -0.059624 96990.200000 0 0 1
34.182070 -7.123269 1.362183 34.942959 -0.205452 1.531803 0.224606 -0.052106 621246.000000 0 0 1
32.806050 -6.922969 1.010583 33.543787 -0.207976 1.540664 0.204071 -0.055670 998040.000000 0 0 1
31.828990 -7.138769 2.050583 32.684117 -0.220634 1.508016 0.248084 -0.059349 103093.000000 0 0 1
31.511810 -8.693869 2.179383 32.761673 -0.269196 1.504225 0.216111 -0.046181 -485228.000000 0 0 1
30.432380 -9.177469 1.417483 31.817683 -0.292896 1.526231 0.212362 -0.046801 -70138.900000 0 0 1
29.172990 -8.881669 1.960583 30.557998 -0.295533 1.506593 0.211932 -0.048566 121782.000000 0 0 1
27.958890 -9.757369 1.386183 29.645021 -0.335775 1.524020 0.173383 -0.035492 888437.000000 0 0 1
26.642190 -9.590769 1.900583 28.379594 -0.345542 1.503776 0.140511 -0.046147 1097950.000000 0 0 1
25.984990 -8.416069 1.362583 27.347880 -0.313220 1.520952 0.144600 -0.045674 -258724.000000 0 0 1
25.289390 -8.528969 -0.003217 26.688884 -0.325276 1.570917 0.110460 -0.031116 -498899.000000 0 0 1
26.243390 -8.748769 -1.040617 27.682835 -0.321784 1.608396 0.112400 -0.043369 451293.000000 0 0 1
25.725790 -9.126869 -2.276517 27.391577 -0.340922 1.654002 0.097158 -0.047859 -368703.000000 0 0 1
25.148590 -10.552069 -2.410117 27.378940 -0.397278 1.658939 0.097626 -0.024518 -1218410.000000 0 0 1
23.948690 -10.793269 -1.818917 26.331404 -0.423422 1.639929 0.085315 -0.015559 -1140000.000000 0 0 1
23.587190 -12.172969 -2.092517 26.625464 -0.476432 1.649468 0.083501 -0.007389 -555648.000000 0 0 1
22.134490 -12.471669 -1.762917 25.467352 -0.513111 1.640074 0.091837 -0.011867 -713475.000000 0 0 1
21.206190 -11.886069 -2.635617 24.452558 -0.510869 1.678791 0.096669 -0.011792 -91898.000000 0 1 0
19.886890 -12.197469 -2.239417 23.436758 -0.550172 1.666494 0.109915 -0.018510 476264.000000 0 1 0
18.823290 -11.671569 -3.288417 22.390968 -0.555039 1.718193 0.101162 -0.017877 417822.000000 0 1 0
18.754490 -12.383569 -4.472017 22.914681 -0.583581 1.767216 0.101406 -0.023838 568707.000000 0 1 0
17.862190 -11.670569 -5.338617 21.994563 -0.578739 1.815970 0.097593 -0.023278 21066.000000 0 1 0
17.951490 -12.221069 -6.742517 22.739218 -0.597712 1.871838 0.105572 -0.034687 -205044.000000 0 1 0
17.210490 -13.419069 -6.977617 22.911995 -0.662242 1.880252 0.091486 -0.028405 602211.000000 0 1 0
17.642090 -14.022369 -8.181617 23.975175 -0.671577 1.919047 0.100556 -0.034334 -353837.000000 0 1 0
16.870990 -15.268569 -8.617817 24.331590 -0.735581 1.932836 0.096801 -0.033022 1121800.000000 0 1 0
15.504290 -15.039369 -9.065417 23.425358 -0.770178 1.968163 0.105330 -0.022154 1201460.000000 0 1 0
14.922890 -16.162069 -9.609217 24.005044 -0.825241 1.982640 0.097722 -0.022087 -292798.000000 0 1 0
14.368890 -15.958869 -11.067017 24.158422 -0.837777 2.046655 0.104493 -0.032053 515325.000000 0 1 0
13.167690 -15.186469 -11.263317 23.040816 -0.856477 2.081558 0.086126 -0.025413 673457.000000 0 1 0
13.327990 -13.822869 -10.930317 22.094769 -0.803623 2.088288 0.083197 -0.021184 -384338.000000 0 1 0
13.460990 -12.838069 -12.144317 22.214830 -0.761717 2.149186 0.101333 -0.012293 -166012.000000 0 1 0
14.697290 -12.773769 -12.831217 23.319940 -0.715492 2.153430 0.126127 -0.019295 143733.000000 0 1 0
14.708890 -11.835869 -13.908017 23.449353 -0.677585 2.205711 0.154545 -0.027891 255757.000000 0 1 0
16.132990 -11.489169 -14.425717 24.502564 -0.618836 2.200299 0.174600 -0.040196 589195.000000 0 1 0
16.911790 -12.575969 -14.964317 25.847522 -0.639406 2.188232 0.172746 -0.034280 -67359.700000 0 0 1
18.006790 -12.070169 -15.668817 26.747809 -0.590522 2.196661 0.164695 -0.028555 -495244.000000 0 0 1
19.104590 -13.120869 -15.879617 28.094568 -0.601806 2.171496 0.141481 -0.020794 -342556.000000 0 0 1
19.993690 -13.231469 -14.797217 28.174049 -0.584613 2.123755 0.128760 -0.038842 109401.000000 0 0 1
20.941290 -14.274069 -14.940117 29.419275 -0.598286 2.103465 0.092085 -0.024117 564745.000000 0 0 1
22.125290 -14.231369 -13.912217 29.759201 -0.571592 2.057249 0.083751 -0.022541 669983.000000 0 0 1
22.925790 -13.050869 -14.047817 29.887425 -0.517514 2.060115 0.091110 -0.024206 -8055.050000 0 0 1
23.993690 -12.928069 -13.154517 30.263401 -0.494212 2.020465 0.087129 -0.024833 -63990.900000 0 0 1
24.711190 -11.578069 -13.280617 30.349124 -0.438161 2.023718 0.097074 -0.033569 -576931.000000 0 0 1
23.959190 -10.483369 -12.843217 29.135751 -0.412453 2.027293 0.099517 -0.023679 -122965.000000 0 0 1
24.605690 -9.228469 -12.930617 29.288316 -0.358818 2.028059 0.115069 -0.031533 -21720.800000 0 0 1
25.698490 -8.962069 -11.874917 29.694186 -0.335551 1.982212 0.124456 -0.033945 -58777.900000 0 0 1
26.933190 -9.601069 -12.047017 31.027533 -0.342433 1.969548 0.103193 -0.037999 -60741.200000 0 0 1
27.803090 -9.432969 -10.953317 31.336366 -0.327091 1.927877 0.102784 -0.038305 -432788.000000 0 0 1
29.139290 -10.151069 -11.092517 32.790034 -0.335216 1.915895 0.114360 -0.039380 -139641.000000 0 0 1
29.873790 -9.704269 -12.238417 33.710458 -0.314089 1.942330 0.099668 -0.038141 215992.000000 0 0 1
31.125140 -10.360269 -12.358117 35.054708 -0.321323 1.931078 0.100767 -0.036508 447825.000000 0 0 1
31.959810 -9.786769 -13.578517 36.077505 -0.297154 1.956672 0.085614 -0.031030 130761.000000 0 0 1
31.438340 -10.216069 -14.843717 36.236352 -0.314192 1.992851 0.067299 -0.023680 183924.000000 0 0 1
32.077840 -9.646469 -15.954817 37.102538 -0.292118 2.015311 0.058044 -0.019293 -331512.000000 0 0 1
31.793120 -10.438669 -17.307617 37.673888 -0.317242 2.048123 0.034137 -0.007695 78923.400000 0 0 1
30.560960 -10.263269 -17.967717 36.907259 -0.323995 2.079258 0.028273 -0.002580 -125236.000000 0 0 1
30.397610 -8.955469 -18.486717 36.687515 -0.286505 2.098900 0.021483 0.002933 -1017310.000000 0 0 1
29.039990 -8.639269 -19.070417 35.799983 -0.289158 2.132576 -0.001763 0.000785 -633050.000000 0 0 1
28.633290 -9.261469 -20.318717 36.311022 -0.312830 2.164668 0.000767 0.004854 655751.000000 0 0 1
27.224190 -9.302269 -20.484717 35.317309 -0.329254 2.189549 0.041532 0.014384 370369.000000 0 0 1
26.520390 -9.639069 -21.800217 35.657989 -0.348614 2.228587 0.062267 -0.000859 -65516.200000 0 0 1
26.371890 -11.013469 -22.180517 36.176627 -0.395604 2.230797 0.059750 -0.008359 317875.000000 0 0 1
25.720890 -11.074269 -23.474417 36.541098 -0.406567 2.268437 0.089655 -0.017766 -472025.000000 0 0 1
25.919290 -12.517369 -24.090017 37.534291 -0.449904 2.267657 0.100244 -0.009095 1105730.000000 0 0 1
27.204090 -12.988769 -24.546117 38.875216 -0.445451 2.254164 0.091641 -0.006368 486057.000000 0 0 1
28.261790 -12.945869 -23.642317 39.054877 -0.429544 2.221016 0.057172 -0.000134 -425947.000000 0 0 1
29.571990 -13.618269 -24.114817 40.515234 -0.431562 2.208315 0.044016 0.007276 537696.000000 0 0 1
30.407930 -12.837069 -24.975417 41.390868 -0.399464 2.218559 0.073609 -0.016586 -152491.000000 0 0 1
31.699730 -13.360169 -25.014617 42.533493 -0.398868 2.199523 0.035472 -0.011651 -503306.000000 0 0 1
32.667710 -12.832769 -26.105237 43.741772 -0.374308 2.210308 0.069870 -0.011406 -201187.000000 0 0 1
32.701840 -13.559869 -27.295097 44.702379 -0.393073 2.227609 0.061841 -0.024757 -206429.000000 0 0 1
33.476070 -12.997269 -28.300907 45.722178 -0.370341 2.238234 0.039487 -0.020685 -157918.000000 0 0 1
33.193370 -13.734769 -29.668887 46.590627 -0.392329 2.261136 0.058434 -0.036980 17085.700000 0 0 1
33.757790 -15.007469 -29.601987 47.340153 -0.418323 2.246317 0.070882 -0.031371 -216400.000000 0 0 1
33.899780 -15.639169 -30.845977 48.427812 -0.432240 2.261329 0.037265 -0.024010 -219938.000000 0 0 1
32.708650 -16.357869 -31.510817 48.273877 -0.463734 2.282006 0.040224 -0.011827 394495.000000 0 0 1
31.821800 -15.517669 -32.251907 47.891653 -0.453713 2.309642 0.054681 -0.023212 306912.000000 0 0 1
30.670370 -16.231769 -32.679627 47.666549 -0.486760 2.326208 0.059895 -0.022186 362279.000000 0 0 1
29.797090 -15.470969 -33.723967 47.587008 -0.478898 2.358422 0.084953 -0.027710 54888.000000 0 0 1
29.130090 -14.318769 -33.185077 46.420239 -0.456861 2.367254 0.101613 -0.029500 157589.000000 0 0 1
29.826390 -13.111669 -33.373077 46.640022 -0.414171 2.368202 0.079342 -0.027254 -830945.000000 0 0 1
28.968590 -11.869669 -33.101097 45.560408 -0.388877 2.384058 0.098503 -0.024672 262103.000000 0 0 1
28.065090 -11.537069 33.510230 45.207176 -0.390024 0.735852 0.090401 -0.029970 79729.400000 0 0 1
27.326090 -10.352269 33.755298 44.646442 -0.362135 0.713527 0.078361 -0.026986 230981.000000 0 0 1
21.295132 -29.069265 9.008383 37.143718 -0.938547 1.325826 0.045660 -0.019711 -29687.400000 0 0 1
21.859932 -28.954465 7.692183 37.086215 -0.924118 1.361866 0.048032 -0.022405 899510.000000 0 0 1
23.092832 -29.697865 7.634583 38.386573 -0.909869 1.370574 0.081299 -0.023540 737236.000000 0 0 1
23.909532 -29.553465 6.308483 38.534011 -0.890576 1.406344 0.084904 -0.016790 28180.000000 0 0 1
24.341432 -28.213865 6.218583 37.778278 -0.858948 1.405436 0.087798 -0.017986 150204.000000 0 0 1
25.014932 -27.921065 4.995883 37.819196 -0.840242 1.438310 0.089441 -0.009660 63057.600000 0 0 1
24.942532 -26.451965 4.640083 36.651968 -0.814759 1.443857 0.098728 -0.016102 43842.600000 0 0 1
25.651932 -25.546065 5.479683 36.614888 -0.783330 1.420575 0.103369 -0.011109 138431.000000 0 0 1
25.563532 -24.193165 4.998383 35.549786 -0.757864 1.429727 0.094410 -0.002621 -213604.000000 0 0 1
26.366132 -23.239165 5.868383 35.632424 -0.722445 1.405350 0.089857 0.001418 754281.000000 0 0 1
27.739732 -23.142465 5.422683 36.530425 -0.695292 1.421803 0.101134 -0.003928 1367650.000000 0 0 1
28.614832 -22.378965 6.283283 36.866060 -0.663716 1.399525 0.095361 -0.002459 440057.000000 0 0 1
28.379332 -20.840265 6.325683 35.773138 -0.633407 1.393034 0.086363 0.002776 -414652.000000 0 0 1
28.617632 -20.132865 5.139283 35.365426 -0.613080 1.424961 0.090382 0.015882 20399.900000 0 0 1
28.003732 -18.879965 5.196783 34.171167 -0.593196 1.418123 0.109787 0.011422 -136994.000000 0 0 1
28.152332 -18.017365 3.910183 33.652174 -0.569310 1.454339 0.124932 0.010400 491460.000000 0 0 1
29.409632 -17.405365 3.587083 34.361903 -0.534387 1.466214 0.124947 0.009290 664732.000000 0 0 1
29.210732 -16.395865 2.654183 33.602618 -0.511474 1.491727 0.143276 0.027484 -223782.000000 0 0 1
30.340332 -15.396465 2.669783 34.127916 -0.469597 1.492488 0.154841 0.001552 -261780.000000 0 0 1
30.059832 -14.466565 3.707983 33.565222 -0.448543 1.460099 0.156928 -0.002104 153203.000000 0 0 1
31.098432 -13.539065 3.856983 34.136419 -0.410614 1.457567 0.177166 -0.015207 -74121.700000 0 0 1
30.774232 -12.497565 4.933083 33.579425 -0.385758 1.423355 0.191219 -0.016471 123676.000000 0 0 1
30.752532 -13.134365 6.199583 34.009772 -0.403647 1.387483 0.175943 -0.018151 3733.670000 0 0 1
30.438932 -12.192765 7.135383 33.557500 -0.380993 1.356529 0.179484 -0.015450 -168750.000000 0 0 1
30.404632 -12.676965 8.612883 34.048919 -0.395026 1.315062 0.186375 -0.013804 951573.000000 0 0 1
29.102732 -13.210665 8.990683 33.201251 -0.426119 1.296579 0.163472 -0.000381 964865.000000 0 0 1
28.955032 -13.764165 10.268083 33.664219 -0.443745 1.260842 0.164383 -0.009840 376701.000000 0 0 1
29.964632 -14.901365 10.743983 35.147732 -0.461484 1.260143 0.161781 -0.019077 1245170.000000 0 0 1
31.116432 -14.427965 11.480783 36.169143 -0.434169 1.247790 0.136474 -0.019778 563280.000000 0 0 1
31.525932 -15.406565 12.353083 37.200072 -0.454563 1.232297 0.134473 -0.021209 348810.000000 0 0 1
32.478932 -15.073765 13.574783 38.293265 -0.434525 1.208422 0.117341 -0.030617 388723.000000 0 0 1
33.792432 -14.843365 13.141683 39.178538 -0.413879 1.228734 0.084220 -0.036482 -118582.000000 0 0 1
34.699332 -14.563465 14.198083 40.220937 -0.397377 1.210018 0.055138 -0.036371 293910.000000 0 0 1
36.193432 -14.665265 13.818783 41.424550 -0.384974 1.230688 0.062746 -0.033700 -71065.900000 0 0 1
36.606232 -13.576165 13.042683 41.163577 -0.355145 1.248390 0.086912 -0.038122 -403224.000000 0 0 1
-37.302925 -13.453765 12.935183 41.711281 0.346142 1.255485 0.093688 -0.024485 -714904.000000 0 0 1
-36.959025 -12.238865 12.005683 40.741819 0.319781 1.271679 0.106584 -0.025647 -1308090.000000 0 0 1
-35.688725 -12.142865 11.500883 39.413254 0.327957 1.274686 0.110264 -0.022525 -932749.000000 0 0 1
-34.922525 -11.081965 12.067583 38.574853 0.307279 1.252619 0.109043 -0.019561 707562.000000 0 0 1
-33.568025 -10.845965 11.293983 37.040536 0.312516 1.260954 0.119746 -0.024133 566457.000000 0 0 1
-32.594825 -11.852465 11.430883 36.518059 0.348766 1.252425 0.106785 -0.017301 -102885.000000 0 0 1
-32.764625 -13.116465 10.798183 36.907494 0.380786 1.273879 0.099942 -0.015454 -919258.000000 0 0 1
-31.788425 -14.236865 11.185583 36.582914 0.421076 1.260060 0.084570 -0.015893 -550746.000000 0 0 1
-30.511725 -13.975465 10.691583 35.221995 0.429516 1.262382 0.106332 -0.016527 -911288.000000 0 0 1
-29.649925 -15.046565 10.956083 35.007898 0.469609 1.252488 0.105033 -0.012906 571864.000000 0 0 1
-28.199825 -14.775265 10.416083 33.496767 0.482623 1.254596 0.114646 -0.010579 521601.000000 0 0 1
-28.290125 -14.883365 9.031283 33.217613 0.484307 1.295448 0.132624 -0.024267 -26886.600000 0 0 1
-27.059725 -14.945665 8.349283 32.020496 0.504624 1.306999 0.124922 -0.019961 -197298.000000 0 0 1
-27.105825 -14.826765 6.810083 31.637572 0.500534 1.353845 0.146193 -0.017252 -18852.000000 0 0 1
-27.685525 -15.971365 6.208583 32.559473 0.523250 1.378937 0.156164 -0.009211 95029.400000 0 0 1
-27.867525 -15.765265 4.850483 32.383170 0.514833 1.420446 0.174122 -0.008768 110070.000000 0 0 1
-28.680325 -16.862765 4.100883 33.522099 0.531516 1.448155 0.163602 -0.015433 307867.000000 0 0 1
-30.031625 -16.994865 4.478083 34.796224 0.514968 1.441744 0.125891 -0.026628 51987.700000 0 0 1
-30.700325 -17.995865 3.764383 35.784518 0.530195 1.465405 0.135444 -0.020968 182660.000000 0 0 1
-32.206125 -18.233865 4.089583 37.234836 0.515166 1.460742 0.153629 -0.026880 240882.000000 0 0 1
-32.989225 -17.274365 3.413283 37.394427 0.482378 1.479391 0.189008 -0.031851 -197566.000000 0 0 1
-34.344025 -17.504965 3.781983 38.732922 0.471373 1.472998 0.180898 -0.027948 44156.500000 0 0 1
-35.285125 -16.496365 3.122183 39.075800 0.437324 1.490810 0.145265 -0.030286 -140743.000000 0 0 1
-35.490625 -16.801265 1.768083 39.306400 0.442142 1.525799 0.141081 -0.027083 -162568.000000 0 0 1
-36.279825 -15.813365 1.149483 39.593049 0.411043 1.541760 0.183748 -0.033988 -116420.000000 0 0 1
-36.607225 -16.188365 -0.347717 40.028402 0.416363 1.579483 0.157113 -0.035151 393696.000000 0 0 1
-35.473625 -16.244865 -1.229217 39.035685 0.429439 1.602291 0.163923 -0.035007 736679.000000 0 0 1
-35.796725 -16.910065 -2.447917 39.665453 0.441318 1.632550 0.130469 -0.024841 -101047.000000 0 0 1
-34.578625 -17.644165 -3.035517 38.938570 0.471824 1.648832 0.117256 -0.021916 -213071.000000 0 0 1
-34.863725 -18.533465 -4.046017 39.690539 0.488605 1.672913 0.109000 -0.025411 -924233.000000 0 0 1
-33.719625 -19.095665 -4.514117 39.013264 0.515277 1.686763 0.120547 -0.019558 -1289580.000000 0 0 1
-34.016925 -20.249565 -5.474717 39.964592 0.536941 1.708218 0.117514 -0.023816 -418253.000000 0 0 1
-34.554625 -21.355565 -4.826117 40.906890 0.553567 1.689050 0.097531 -0.025742 149954.000000 0 0 1
-35.051925 -22.222565 -5.871817 41.916084 0.565038 1.711344 0.101467 -0.017308 141074.000000 0 0 1
-35.735825 -23.514665 -5.332417 43.109434 0.581988 1.694809 0.090249 -0.023498 39113.200000 0 0 1
-34.920325 -24.486665 -4.700517 42.908283 0.611541 1.680565 0.093931 -0.022724 -369512.000000 0 0 1
-35.641825 -25.653265 -4.407617 44.134531 0.623860 1.670831 0.076322 -0.015290 117196.000000 0 0 1
-34.720525 -26.829665 -4.016717 44.062227 0.657892 1.662083 0.060351 -0.016148 -840274.000000 0 0 1
-33.837225 -27.193765 -5.047217 43.702781 0.676971 1.686544 0.049349 -0.017593 496406.000000 0 0 1
-32.994625 -28.325065 -4.695717 43.737905 0.709394 1.678364 0.062869 -0.017597 559105.000000 0 0 1
-31.924325 -28.122265 -3.601217 42.696523 0.722164 1.655241 0.084576 -0.028995 -769805.000000 0 0 1
-32.436925 -28.127065 -2.280817 42.994046 0.714356 1.623871 0.072649 -0.022465 -71192.200000 0 0 1
-31.362025 -27.996465 -1.393617 42.063296 0.728760 1.603934 0.095050 -0.022340 -32841.500000 0 0 1
-31.815725 -27.930765 0.098083 42.336481 0.720466 1.568480 0.085396 -0.017248 146719.000000 0 0 1
-32.506125 -29.109865 0.493983 43.638016 0.730334 1.559476 0.077095 -0.005722 105924.000000 0 0 1
-33.133725 -28.860065 1.749483 43.975081 0.716570 1.531002 0.088356 -0.007458 137747.000000 0 0 1
-33.922925 -30.058365 2.364183 45.385675 0.725070 1.518682 0.059566 -0.001768 -676276.000000 0 0 1
-34.678825 -29.836465 3.501583 45.881332 0.710481 1.494404 0.057770 -0.005501 126061.000000 0 0 1
-35.256425 -31.079565 3.963383 47.166336 0.722516 1.486667 0.045566 0.000452 467489.000000 0 0 1
-36.492425 -31.676465 3.205483 48.429027 0.714868 1.504559 0.034760 -0.003760 112240.000000 0 0 1
-37.077425 -32.838065 3.876683 49.680002 0.724837 1.492684 0.040717 -0.011252 34902.600000 0 0 1
37.369632 -33.443765 2.940983 50.235687 -0.730015 1.512219 0.057708 -0.009916 -456367.000000 0 0 1
36.271432 33.253531 3.558183 49.336344 0.742018 1.498613 0.059783 -0.014505 713442.000000 0 0 1
35.248732 33.707631 4.452983 48.974550 0.763053 1.479746 0.049064 -0.016613 713345.000000 0 0 1
34.547332 -32.829065 4.017883 47.826866 -0.759901 1.486688 0.055689 -0.019367 -196261.000000 0 0 1
33.380232 -32.996865 2.974883 47.030660 -0.779623 1.507500 0.082169 -0.018168 219159.000000 0 0 1
33.914132 -33.279765 1.698283 47.545718 -0.775958 1.535070 0.077774 -0.013112 250584.000000 0 0 1
33.055432 -32.812465 0.646983 46.580447 -0.781709 1.556906 0.088461 -0.005671 -678429.000000 0 0 1
33.412232 -33.369865 -0.746717 47.227987 -0.784764 1.586608 0.079928 -0.007540 28640.400000 0 0 1
34.550732 -33.004865 -1.450017 47.803523 -0.762519 1.601134 0.058041 0.004769 -758933.000000 0 0 1
35.776132 -32.923365 -0.773817 48.625903 -0.743897 1.586711 0.055735 0.002290 -1425930.000000 0 0 1
36.945832 -32.621265 -1.687717 49.315209 -0.723314 1.605026 0.053289 0.003059 -674090.000000 0 0 1
37.396632 -33.797665 -2.312917 50.459289 -0.734890 1.616650 0.050864 -0.007362 158751.000000 0 0 1
-37.155225 -33.495465 -3.484417 50.145768 0.733644 1.640338 0.058573 -0.003060 -218073.000000 0 0 1
-36.497325 33.009131 -4.250717 49.393583 -0.735255 1.656961 0.058116 -0.005917 237463.000000 0 0 1
-35.189825 32.706331 -3.787917 48.191039 -0.748837 1.649480 0.079387 -0.001547 245483.000000 0 0 1
-34.563525 31.747531 -4.655517 47.161603 -0.742957 1.669671 0.103714 -0.015714 -333189.000000 0 0 1
-33.304125 31.112131 -4.095017 45.759137 -0.751383 1.660407 0.113338 -0.020702 -813462.000000 0 0 1
-32.199825 31.991531 -4.054017 45.571064 -0.782153 1.659874 0.098697 -0.019278 88178.500000 0 0 1
-30.980525 31.354831 -3.699117 44.233492 -0.791403 1.654521 0.118857 -0.023323 510105.000000 0 0 1
-30.757825 31.220531 -2.156317 43.879552 -0.792864 1.619958 0.107102 -0.013125 146860.000000 0 0 1
-31.728825 30.383331 -1.495117 43.955665 -0.763739 1.604817 0.090329 -0.005889 470446.000000 0 0 1
-31.366025 30.291131 -0.086017 43.604903 -0.767967 1.572769 0.094102 -0.007145 289812.000000 0 0 1
-32.460225 29.597731 0.794683 43.935446 -0.739305 1.552708 0.089789 -0.018857 347678.000000 0 0 1
-32.761725 28.253331 0.411283 43.263732 -0.711642 1.561290 0.099666 -0.032019 48611.000000 0 0 1
-33.825425 28.186431 -0.510517 44.032884 -0.694713 1.582391 0.096277 -0.024899 -403004.000000 0 0 1
-34.062925 26.759431 -1.021417 43.328897 -0.665891 1.594372 0.096827 -0.017312 -19114.900000 0 0 1
-34.525725 25.861231 -0.088617 43.137418 -0.642888 1.572851 0.094403 -0.027804 -21774.300000 0 0 1
-34.873125 24.622031 -0.712717 42.695284 -0.614772 1.587490 0.103307 -0.026008 -210103.000000 0 0 1
-35.087425 23.478331 0.317183 42.219190 -0.589712 1.563283 0.114140 -0.031570 1300440.000000 0 0 1
-33.794125 23.030131 0.807983 40.903333 -0.598190 1.551042 0.118644 -0.037126 1396650.000000 0 0 1
-33.217325 23.819131 1.866283 40.917291 -0.622090 1.525169 0.114630 -0.036499 -1422880.000000 0 0 1
-31.781925 23.450431 2.174983 39.556846 -0.635682 1.515785 0.107817 -0.044706 -71670.500000 0 0 1
-30.775725 24.021231 1.316883 39.062757 -0.662753 1.537078 0.121631 -0.036833 517291.000000 0 0 1
-30.467825 25.409631 1.722983 39.710281 -0.695121 1.527394 0.100593 -0.034361 -486399.000000 0 0 1
-29.886225 26.299531 0.619983 39.815024 -0.721648 1.555224 0.095766 -0.028878 -331180.000000 0 0 1
-28.607425 25.933531 0.226683 38.613264 -0.736412 1.564926 0.104157 -0.030978 -1026200.000000 0 0 1
-27.953125 26.896031 -0.526017 38.794979 -0.766128 1.584356 0.096466 -0.022428 569016.000000 0 0 1
-26.680025 26.327331 -1.238117 37.503134 -0.778745 1.603816 0.092508 -0.021314 206177.000000 0 0 1
-27.020825 25.366231 -2.262517 37.130710 -0.753825 1.631768 0.114264 -0.032177 -465801.000000 0 0 1
-25.984125 24.805631 -2.986517 36.047377 -0.762199 1.653741 0.108667 -0.016954 -87890.700000 0 0 1
-24.950725 23.814931 -2.414117 34.576258 -0.762112 1.640673 0.096159 -0.022572 447823.000000 0 0 1
-25.570825 22.596131 -2.070917 34.186853 -0.723719 1.631410 0.104745 -0.026535 -47595.900000 0 0 1
-24.627325 21.727231 -1.492317 32.875595 -0.722916 1.616205 0.103278 -0.040719 -227997.000000 0 0 1
-25.241725 20.292331 -1.171917 32.408283 -0.677127 1.606965 0.122600 -0.043496 414916.000000 0 0 1
-26.099825 20.099131 -0.025017 32.942018 -0.656233 1.571556 0.118031 -0.040613 232765.000000 0 0 1
-27.292225 20.821631 0.058683 34.327967 -0.651715 1.569087 0.112746 -0.044086 -1094130.000000 0 0 1
-28.414125 20.522931 -0.890017 35.062021 -0.625522 1.596183 0.103606 -0.055482 -1177060.000000 0 0 1
-28.794825 19.149831 -0.727717 34.588836 -0.586879 1.591837 0.107857 -0.054669 -81252.900000 0 0 1
-29.783525 18.754231 -1.639117 35.234447 -0.561961 1.617333 0.112910 -0.050065 -159684.000000 0 0 1
-29.943925 17.217631 -1.591617 34.577720 -0.521831 1.616843 0.113989 -0.044246 22683.100000 0 0 1
-30.715525 16.714831 -0.515717 34.972775 -0.498365 1.585543 0.108228 -0.036860 192997.000000 0 0 1
-30.865925 15.316331 -0.565917 34.461799 -0.460620 1.587219 0.118812 -0.044672 510648.000000 0 0 1
-29.717425 14.469831 0.114983 33.053208 -0.453124 1.567318 0.164340 -0.037759 184966.000000 0 0 1
-29.742025 14.567031 1.522383 33.152739 -0.455438 1.524860 0.173350 -0.033556 354564.000000 0 0 1
-28.461025 14.282731 2.076083 31.911385 -0.465114 1.505693 0.204848 -0.039879 296695.000000 0 0 1
-28.045725 12.769331 2.187583 30.893430 -0.427256 1.499926 0.217871 -0.041067 -213152.000000 0 0 1
-27.996525 12.219031 0.877183 30.559444 -0.411527 1.542088 0.208950 -0.044972 49918.700000 0 0 1
-27.584725 10.874931 0.854783 29.663308 -0.375529 1.541976 0.250076 -0.042477 -6301.140000 0 0 1
-27.366025 10.295331 -0.609217 29.244902 -0.359830 1.591629 0.236209 -0.035616 -488903.000000 0 0 1
-28.567925 9.892131 -1.187817 30.255438 -0.333345 1.610066 0.221963 -0.041232 -28197.700000 0 0 1
-28.346225 9.235731 -2.421817 29.911075 -0.314972 1.651852 0.237320 -0.043276 475728.000000 0 0 1
-29.725025 8.694131 -2.907417 31.106560 -0.284548 1.664399 0.224173 -0.045524 452974.000000 0 0 1
-29.549425 7.969931 -4.037717 30.870560 -0.263446 1.701967 0.232070 -0.038700 -75575.400000 0 0 1
-30.775625 7.516031 -4.525517 32.001721 -0.239532 1.712687 0.217069 -0.042015 -347849.000000 0 0 1
-11.445268 18.379431 -20.354817 29.717271 -1.013837 2.325330 0.129573 -0.015823 272274.000000 0 0 1
-11.686468 17.398431 -21.340117 29.911194 -0.979320 2.365205 0.132077 -0.027611 -691.604000 0 0 1
-10.495368 16.655131 -21.512717 29.160643 -1.008496 2.400500 0.127634 -0.039587 45281.300000 0 0 1
-10.794568 15.307831 -22.277517 29.105672 -0.956611 2.442461 0.112291 -0.027859 -12857.900000 0 0 1
-9.769568 14.366231 -22.078317 28.094219 -0.973594 2.474893 0.128715 -0.045016 -178978.000000 0 0 1
-9.861168 13.263431 -22.994617 28.318080 -0.931478 2.518387 0.111912 -0.042287 -102744.000000 0 0 1
-8.855168 12.187931 -22.584617 27.148196 -0.942471 2.553321 0.105842 -0.035438 1069620.000000 0 0 1
-7.462368 12.510931 -22.834217 27.085269 -1.032978 2.573724 0.065446 -0.032836 826316.000000 0 0 1
-6.729068 11.491431 -22.213617 25.899384 -1.041053 2.601554 0.062741 -0.028703 -993215.000000 0 0 1
-5.225868 11.457931 -22.376517 25.676884 -1.142888 2.628979 0.041663 -0.020689 -575157.000000 0 0 1
-4.753068 11.100231 -23.678417 26.579582 -1.166222 2.670009 0.028965 -0.021397 575433.000000 0 0 1
-3.335668 11.292631 -23.744117 26.503458 -1.283579 2.681221 0.018235 -0.015287 645199.000000 0 0 1
-2.691068 11.167431 -25.189857 27.685416 -1.334330 2.713743 0.043665 -0.029214 -254344.000000 0 0 1
-2.688368 9.781231 -25.602847 27.539164 -1.302570 2.764363 0.044408 -0.036231 253772.000000 0 0 1
-2.147268 9.503331 -26.910307 28.619725 -1.348579 2.794223 0.051122 -0.039313 -154079.000000 0 0 1
-2.015268 7.991131 -27.185387 28.407125 -1.323759 2.847246 0.049612 -0.014852 261437.000000 0 0 1
-0.972668 7.314331 -26.460997 27.470527 -1.438591 2.869648 0.045367 -0.018221 385421.000000 0 0 1
-1.294368 6.993431 -25.107917 26.095803 -1.387784 2.865558 0.053442 -0.028333 309526.000000 0 0 1
-0.378068 5.882131 -24.454417 25.154739 -1.506611 2.905073 -0.011309 -0.008608 362538.000000 0 0 1
0.991232 6.174031 -24.271117 25.063685 1.411606 2.889441 0.026477 0.000229 -64014.100000 0 0 1
1.562132 5.473631 -23.215617 23.903258 1.292794 2.901149 0.021064 -0.002417 -107589.000000 0 1 0
1.415932 6.149131 -21.831017 22.724655 1.344476 2.860221 0.022852 -0.011321 -8849.640000 0 1 0
2.333232 7.237831 -21.780517 23.069917 1.258948 2.805677 0.032801 -0.013065 250047.000000 0 1 0
2.324332 7.872131 -20.530417 22.110427 1.283693 2.761257 0.048041 -0.016313 -23673.800000 0 1 0
2.892832 9.305431 -20.647717 22.831726 1.269392 2.700635 0.043711 -0.023577 -128420.000000 0 1 0
2.865532 9.950731 -19.418417 22.006890 1.290411 2.651691 0.051959 -0.032260 83903.600000 0 1 0
3.357132 11.298931 -19.511817 22.795771 1.281984 2.598163 0.058442 -0.027670 280128.000000 0 1 0
4.577832 11.619131 -18.593417 22.398123 1.195481 2.550142 0.076108 -0.034884 435825.000000 0 1 0
5.762132 11.030731 -19.100617 22.797209 1.089413 2.564127 0.086619 -0.028438 -334077.000000 0 1 0
6.690532 10.760531 -18.069617 22.069511 1.014526 2.530043 0.088513 -0.028236 578237.000000 0 1 0
7.858932 9.888631 -18.670317 22.541707 0.899268 2.546785 0.131940 -0.033352 465349.000000 0 1 0
7.499132 8.527831 -18.809917 21.972115 0.849496 2.598436 0.112974 -0.027825 169188.000000 0 1 0
6.691232 8.270731 -19.960017 22.618131 0.890576 2.651902 0.083996 -0.018598 206503.000000 0 1 0
6.489832 6.753731 -20.202317 22.268013 0.805322 2.707459 0.096592 -0.020565 447816.000000 0 1 0
7.769632 6.194831 -20.483917 22.766949 0.673101 2.689928 0.093202 -0.016452 657229.000000 0 1 0
7.641632 4.814831 -20.882717 22.752253 0.562243 2.733377 0.080878 -0.008798 -147658.000000 0 1 0
7.540832 4.503431 -22.380717 24.042494 0.538363 2.767615 0.100311 -0.017352 439375.000000 0 1 0
6.300632 4.895831 -22.978917 24.324838 0.660582 2.807380 0.095055 -0.019273 418466.000000 0 1 0
6.255132 4.576231 -24.349317 25.553039 0.631618 2.833432 0.097582 -0.024006 -606883.000000 0 0 1
5.151632 5.370531 -25.004517 26.088460 0.806199 2.852319 0.075215 -0.017588 -498083.000000 0 0 1
5.352332 6.800731 -25.039617 26.493014 0.904018 2.808820 0.091083 -0.029806 383224.000000 0 0 1
4.743932 7.445431 -23.880517 25.460134 1.003500 2.787488 0.093600 -0.037301 -695148.000000 0 0 1
4.696232 8.962931 -24.054317 26.095955 1.088164 2.743402 0.100305 -0.038057 122998.000000 0 0 1
3.829832 9.486731 -25.051717 27.060196 1.187101 2.753883 0.098476 -0.039949 1497380.000000 0 0 1
2.430032 9.364231 -24.667717 26.496983 1.316895 2.767838 0.075267 -0.032006 981007.000000 0 0 1
1.372032 10.019331 -25.588397 27.514278 1.434704 2.765221 0.065294 -0.019759 21745.600000 0 0 1
1.439632 11.404431 -25.476997 27.950151 1.445226 2.717750 0.094403 -0.046152 -78242.500000 0 0 1
0.580432 11.918731 -26.452447 29.019390 1.522136 2.717819 0.092465 -0.044966 -451661.000000 0 0 1
0.567132 13.452231 -26.494667 29.719548 1.528662 2.671419 0.082548 -0.050368 -20416.000000 0 0 1
-0.002468 14.084631 -25.329247 28.981849 -1.570621 2.634107 0.078748 -0.042996 100125.000000 0 0 1
-0.431368 15.375431 -25.651537 29.909719 -1.542748 2.601444 0.068744 -0.050225 -433860.000000 0 0 1
-0.966268 16.006031 -24.361017 29.164805 -1.510501 2.559453 0.082065 -0.041894 66093.800000 0 0 1
-1.994968 15.148731 -23.869117 28.340760 -1.439858 2.572182 0.075152 -0.039659 -118583.000000 0 0 1
-2.370368 15.546631 -22.521717 27.468966 -1.419493 2.532027 0.078522 -0.047011 317419.000000 0 0 1
-3.663368 14.817031 -22.026117 26.797658 -1.328417 2.535608 0.068201 -0.036805 1395280.000000 0 0 1
-4.953268 15.059331 -22.613117 27.616505 -1.253026 2.530159 0.073436 -0.038327 568022.000000 0 0 1
-5.175468 15.036631 -24.032917 28.817821 -1.239306 2.557042 0.060451 -0.037908 -270468.000000 0 0 1
-6.694268 15.038831 -24.356117 29.397280 -1.151998 2.547249 0.047179 -0.036418 339828.000000 0 0 1
-7.292868 16.331931 -24.316717 30.186431 -1.150823 2.507402 0.051615 -0.036704 -56037.100000 0 0 1
-8.542068 16.258831 -24.964917 30.992960 -1.087051 2.507320 0.059818 -0.033472 -4202.330000 0 0 1
-9.338268 17.538031 -25.298547 32.168342 -1.081521 2.475824 0.069962 -0.032779 213744.000000 0 0 1
-9.920868 18.264431 -24.252617 31.940609 -1.073205 2.433038 0.079796 -0.032474 -410997.000000 0 0 1
-10.944368 19.086031 -24.732117 33.101863 -1.050148 2.414563 0.088413 -0.025614 -164760.000000 0 0 1
-11.425068 19.979831 -23.615217 32.975814 -1.051348 2.369049 0.084201 -0.029374 158748.000000 0 0 1
-10.600868 21.148631 -23.411017 33.282408 -1.106145 2.350973 0.089202 -0.030357 606829.000000 0 0 1
-11.263668 22.391531 -23.674717 34.478154 -1.104726 2.327679 0.094704 -0.039071 -64101.500000 0 0 1
-10.922368 22.920331 -25.034417 35.656160 -1.126095 2.349148 0.080488 -0.022442 -378974.000000 0 0 1
-11.237768 22.075831 -26.125697 36.002524 -1.099933 2.382794 0.085007 -0.028479 262166.000000 0 0 1
-10.968768 22.700631 -27.395807 37.231207 -1.120685 2.397687 0.074086 -0.020034 -209492.000000 0 0 1
-11.581668 21.907731 -28.573497 37.822327 -1.084487 2.427162 0.064993 -0.022603 -86806.600000 0 0 1
-10.765568 20.941131 -29.205537 37.515221 -1.095943 2.463066 0.042546 -0.029361 -52197.500000 0 0 1
-10.704568 19.691431 -28.474927 36.237573 -1.072868 2.474760 0.058573 -0.026497 -128887.000000 0 0 1
-9.714668 18.703031 -29.154237 35.974264 -1.091736 2.515664 0.051976 -0.031092 -1079490.000000 0 0 1
-8.465968 19.330031 -29.230637 36.052085 -1.157992 2.516295 0.037111 -0.033930 -464821.000000 0 0 1
-7.418268 18.581131 -29.825507 35.914481 -1.190948 2.550728 0.037441 -0.029165 269218.000000 0 0 1
-6.930168 17.310831 -29.132957 34.589323 -1.189999 2.572245 0.044245 -0.040962 -369745.000000 0 0 1
-7.936268 16.262031 -29.224307 34.372927 -1.116775 2.587186 0.054802 -0.036748 733724.000000 0 0 1
-7.704468 15.173331 -28.331757 33.049618 -1.100957 2.600700 0.040495 -0.035610 -341645.000000 0 0 1
-8.984868 14.337231 -28.234717 32.916307 -1.010989 2.601718 0.059031 -0.018525 703345.000000 0 0 1
-10.112668 14.979431 -27.571187 32.966949 -0.976975 2.561347 0.069643 -0.019898 1100280.000000 0 0 1
-11.186768 14.042331 -27.468177 32.815112 -0.898104 2.562681 0.115140 -0.020450 425302.000000 0 0 1
-12.178668 14.416531 -26.339127 32.402252 -0.869346 2.519875 0.115120 -0.020808 290522.000000 0 0 1
-12.862968 15.652731 -26.530907 33.381925 -0.882920 2.489423 0.099424 -0.025151 536095.000000 0 0 1
-13.871168 15.921831 -25.534657 33.135067 -0.854120 2.450615 0.122971 -0.026743 840838.000000 0 0 1
-14.750268 17.202731 -25.746127 34.298213 -0.862000 2.419849 0.110547 -0.025418 414759.000000 0 0 1
-14.104268 18.465331 -25.705827 34.650950 -0.918506 2.406622 0.100733 -0.024307 -86060.800000 0 0 1
-14.973968 19.349531 -26.361967 35.966336 -0.912194 2.393463 0.105909 -0.022289 130017.000000 0 0 1
-14.586468 20.841231 -26.259937 36.560993 -0.960147 2.372080 0.089369 -0.022011 -78415.000000 0 0 1
-15.618668 21.698531 -26.677777 37.768675 -0.946903 2.355120 0.073889 -0.015311 211500.000000 0 0 1
-15.208468 23.075131 -26.684917 38.416714 -0.988061 2.338684 0.069857 -0.017200 62626.500000 0 0 1
-15.073468 23.927631 -25.453707 38.047761 -1.008638 2.303650 0.056404 -0.021743 42769.800000 0 0 1
-14.542168 25.210431 -25.760567 38.867046 -1.047587 2.295331 0.075411 -0.031034 32142.800000 0 0 1
-14.139968 25.826031 -24.621217 38.381335 -1.069868 2.267234 0.090249 -0.040746 -470764.000000 0 0 1
-13.634568 27.219931 -24.966217 39.371793 -1.106426 2.257659 0.111696 -0.040652 307764.000000 0 0 1
-14.687468 28.181431 -25.146797 40.525006 -1.090352 2.240209 0.126904 -0.039506 389431.000000 0 0 1
-15.395068 28.449331 -23.958117 40.253744 -1.074781 2.208283 0.127160 -0.037838 -482624.000000 0 0 1
-16.628468 29.344831 -24.138217 41.476241 -1.055254 2.191954 0.111239 -0.040560 557454.000000 0 0 1
-17.785268 28.633031 -24.579917 41.717365 -1.014974 2.200866 0.097189 -0.031294 -529746.000000 0 0 1
-18.891268 29.425331 -24.846817 42.896322 -1.000061 2.188580 0.086414 -0.034922 -652668.000000 0 0 1
-20.073068 28.541931 -25.257657 43.075737 -0.957870 2.197348 0.077597 -0.002753 -667728.000000 0 0 1
-20.525768 27.937731 -24.080017 42.209847 -0.937161 2.177891 0.076288 -0.005393 -17425.900000 0 0 1
-21.593668 27.067331 -24.452717 42.389412 -0.897413 2.185675 0.059852 -0.019012 47736.600000 0 0 1
-22.267968 26.284731 -23.324317 41.602563 -0.867940 2.165962 0.056848 -0.018506 108199.000000 0 0 1
-22.995668 27.199331 -22.469517 42.112748 -0.868950 2.133596 0.066572 -0.014483 266915.000000 0 0 1
-23.321968 26.698631 -21.132617 41.271280 -0.852801 2.108356 0.055410 -0.008996 -130221.000000 0 0 1
-24.381268 27.571231 -20.401617 42.081409 -0.846723 2.076946 0.039194 -0.008788 364637.000000 0 0 1
-25.708758 27.147331 -20.705717 42.739262 -0.812608 2.076549 0.085375 -0.022418 17468.000000 0 0 1
-26.603348 28.181331 -20.409117 43.800201 -0.814194 2.055515 0.083139 -0.027782 254255.000000 0 0 1
-28.097748 27.801131 -20.616017 44.580337 -0.780092 2.051549 0.091301 -0.023242 363005.000000 0 0 1
-28.510708 27.452631 -21.937017 45.251962 -0.766494 2.076902 0.095091 -0.023605 -402223.000000 0 0 1
-29.903438 27.408431 -22.073317 46.180829 -0.741892 2.069145 0.096633 -0.011377 -408598.000000 0 0 1
-30.272598 26.967531 -23.474817 46.848105 -0.727722 2.095647 0.093426 -0.011856 -98534.500000 0 0 1
-30.242828 25.569531 -23.694417 46.150351 -0.701861 2.109959 0.104036 -0.005501 32881.000000 0 0 1
-30.486018 25.359231 -25.091377 46.926166 -0.693851 2.134948 0.093542 0.001048 -83064.100000 0 0 1
-30.654708 23.893131 -25.525407 46.498809 -0.662070 2.151901 0.084415 0.001152 -434833.000000 0 0 1
-29.473538 23.161431 -25.673657 45.434326 -0.666046 2.171317 0.109714 -0.022145 -27121.800000 0 0 1
-29.811258 21.904131 -26.259217 45.365720 -0.633676 2.188094 0.091023 -0.007897 -89943.400000 0 0 1
-28.747858 20.824631 -26.005647 44.004525 -0.626908 2.203065 0.099489 -0.007897 -228297.000000 0 0 1
-28.475708 20.490931 -24.633817 42.866877 -0.623755 2.182983 0.090165 -0.001962 369339.000000 0 0 1
-27.634128 19.362531 -24.447017 41.667844 -0.611179 2.197789 0.090437 -0.005602 190169.000000 0 0 1
-28.356508 17.954231 -24.560917 41.589477 -0.564446 2.202544 0.083350 -0.005149 -96616.900000 0 0 1
-29.061438 17.792831 -25.749827 42.710720 -0.549377 2.217914 0.084247 -0.002391 148519.000000 0 0 1
-29.719368 16.538531 -25.714497 42.638001 -0.507812 2.218164 0.058670 0.006372 269529.000000 0 0 1
-30.467948 16.016931 -27.010297 43.753789 -0.483994 2.236134 0.038491 0.005697 491197.000000 0 0 1
-31.733838 16.624931 -27.184407 44.971288 -0.482574 2.219914 0.024638 0.008751 -17432.700000 0 0 1
-32.529398 15.858131 -28.051007 45.787564 -0.453599 2.230185 0.017388 0.011648 545554.000000 0 0 1
-33.887448 16.499331 -28.473997 47.237226 -0.453102 2.217786 0.008425 0.004734 241727.000000 0 0 1
-34.937767 16.445831 -27.551867 47.436466 -0.439949 2.190527 -0.003757 0.013409 -800431.000000 0 0 1
-36.114118 16.844031 -28.196557 48.815947 -0.436417 2.186594 0.011122 0.007786 -700927.000000 0 0 1
-37.327198 16.499531 -27.347587 49.126823 -0.416202 2.161172 0.019676 0.010681 -546120.000000 0 0 1
37.636170 17.403731 -26.322037 49.114364 0.433135 2.136409 0.041014 0.000616 245965.000000 0 0 1
36.400820 17.040831 -25.717677 47.715914 0.437840 2.140016 0.058035 -0.007376 387059.000000 0 0 1
35.815750 18.125431 -24.768217 47.167401 0.468495 2.123644 0.072457 -0.004771 78320.600000 0 0 1
35.290560 19.289331 -25.416187 47.576091 0.500218 2.134383 0.078435 -0.021702 382538.000000 0 0 1
34.653400 20.138131 -24.454317 46.951209 0.526429 2.118637 0.101016 -0.018849 206306.000000 0 0 1
33.766130 21.289031 -25.037817 47.119705 0.562534 2.131009 0.110818 -0.033680 270217.000000 0 0 1
32.576170 20.806231 -25.614747 46.370479 0.568387 2.156029 0.118866 -0.038929 -186522.000000 0 0 1
31.443000 21.552531 -25.215877 45.705735 0.600892 2.155198 0.125881 -0.031708 -21466.300000 0 0 1
30.264690 21.334831 -26.181167 45.349531 0.614035 2.186238 0.097266 -0.032621 -122074.000000 0 0 1
29.794790 20.008731 -26.039157 44.340912 0.591377 2.198452 0.117139 -0.042215 440119.000000 0 0 1
28.455390 19.852931 -26.524527 43.673775 0.609171 2.223496 0.125366 -0.051753 682421.000000 0 0 1
27.981590 18.348231 -26.565737 42.724294 0.580389 2.241828 0.142772 -0.035644 467417.000000 0 0 1
28.961290 17.519731 -27.224447 43.438091 0.544041 2.248161 0.141156 -0.044881 625411.000000 0 0 1
29.952890 17.029631 -26.351177 43.377050 0.516971 2.223695 0.135571 -0.036239 1137690.000000 0 0 1
31.378930 16.579631 -26.906377 44.536216 0.486084 2.219490 0.109205 -0.024100 1141270.000000 0 0 1
31.437660 15.421231 -27.811497 44.717113 0.456046 2.242018 0.121786 -0.041357 224668.000000 0 0 1
30.728230 14.233631 -27.360367 43.536307 0.433785 2.250355 0.118901 -0.037283 -52143.300000 0 0 1
31.190590 13.489031 -26.082177 42.837913 0.408182 2.225416 0.110197 -0.028740 -276519.000000 0 0 1
30.892870 14.030431 -24.816717 42.036791 0.426311 2.202297 0.115639 -0.029290 530595.000000 0 0 1
31.638430 13.272631 -23.841417 41.779973 0.397211 2.178084 0.079693 -0.023577 347763.000000 0 0 1
-15.051268 -30.750165 -22.982417 41.234752 1.115609 2.161994 0.123506 -0.012642 -152247.000000 0 0 1
-14.592768 -29.685665 -23.783817 40.741349 1.113910 2.194168 0.105912 -0.030163 10831.200000 0 0 1
-15.059468 -29.684365 -25.110227 41.694995 1.101310 2.217095 0.072872 -0.015254 -168532.000000 0 0 1
-14.463668 -28.519065 -25.971377 41.195232 1.101439 2.252924 0.091133 -0.022687 -1993.990000 0 0 1
-15.000368 -27.291865 -25.561817 40.289743 1.068239 2.258093 0.088903 -0.012658 -143664.000000 0 0 1
-14.434868 -26.183665 -26.194057 39.750199 1.066961 2.290240 0.091545 -0.014181 -439078.000000 0 0 1
-15.028768 -24.839365 -25.728137 38.791686 1.026680 2.295934 0.034367 -0.001795 -124067.000000 0 0 1
-14.635068 -24.438165 -24.426217 37.523981 1.031215 2.279631 0.087855 -0.022584 178579.000000 0 0 1
-14.938768 -23.058665 -24.259917 36.652590 0.995928 2.294131 0.046575 -0.019172 -213331.000000 0 0 1
-14.411768 -22.480365 -22.900617 35.178177 1.000716 2.279683 0.097036 -0.015988 1750160.000000 0 0 1
-12.964668 -22.311065 -22.924617 34.516725 1.044400 2.297166 0.149412 -0.032144 1117210.000000 0 0 1
-12.379168 -21.600565 -21.904017 33.160431 1.050395 2.292343 0.128858 -0.023666 422003.000000 0 0 1
-10.842268 -21.398265 -21.972917 32.530748 1.101812 2.312372 0.164993 -0.033754 115211.000000 0 0 1
-10.472468 -20.504465 -22.985017 32.533316 1.098593 2.355347 0.206296 -0.043743 -235894.000000 0 0 1
-9.075068 -20.296565 -22.971217 31.968488 1.150337 2.372523 0.243445 -0.048803 -14189.500000 0 0 1
-8.716868 -19.072965 -23.794317 31.716420 1.142114 2.419192 0.286158 -0.046099 -202572.000000 0 0 1
-9.102868 -17.845765 -23.146517 30.612004 1.099113 2.428169 0.209575 -0.043367 -133986.000000 0 0 1
-9.211368 -16.783565 -24.054317 30.743251 1.068850 2.469348 0.200864 -0.043465 624474.000000 0 0 1
-7.862268 -16.207665 -24.640517 30.523085 1.119143 2.510316 0.225979 -0.047622 593575.000000 0 0 1
-7.222468 -17.074065 -25.546587 31.564471 1.170614 2.513835 0.224938 -0.056774 -791809.000000 0 0 1
-6.012468 -16.426065 -25.831247 31.196453 1.219911 2.546361 0.209596 -0.053254 -519686.000000 0 0 1
-5.398868 -16.948065 -27.119847 32.432557 1.262406 2.561099 0.210661 -0.038495 -261681.000000 0 0 1
-6.121768 -16.547065 -28.249527 33.306413 1.216451 2.583319 0.229976 -0.047795 -157489.000000 0 0 1
-5.863868 -17.427565 -29.316017 34.605401 1.246225 2.581398 0.223180 -0.056959 100097.000000 0 0 1
-6.398568 -17.076865 -30.772927 35.770575 1.212296 2.606627 0.206957 -0.053701 431407.000000 0 0 1
-5.694068 -16.009365 -31.446327 35.743442 1.229078 2.646193 0.180197 -0.046303 341239.000000 0 0 1
-6.156868 -14.729665 -31.044737 34.909107 1.174877 2.666613 0.163979 -0.044324 382.450000 0 0 1
-7.300668 -14.105565 -31.866717 35.605538 1.093189 2.679212 0.153690 -0.047218 -63675.700000 0 0 1
-6.853868 -13.620465 -33.122947 36.463985 1.104589 2.710176 0.150860 -0.055723 -597366.000000 0 0 1
-7.739068 -12.919965 33.727298 36.937099 1.031112 0.419971 0.138060 -0.045318 -762414.000000 0 0 1
-8.080968 -11.470065 -33.464187 36.286585 0.957039 2.744578 0.107887 -0.041627 488833.000000 0 0 1
-6.979068 -10.548965 -33.501797 35.810033 0.986318 2.780587 0.090819 -0.042276 324979.000000 0 0 1
-6.435368 -10.215365 32.887167 35.033319 1.008631 0.351841 0.083915 -0.043430 -248425.000000 0 0 1
-5.365268 -9.135565 32.956902 34.617944 1.039771 0.311033 0.092286 -0.042117 -450424.000000 0 0 1
-5.060268 -8.623665 31.707443 33.246592 1.040148 0.305472 0.085917 -0.031772 356830.000000 0 0 1
-4.168668 -7.460465 31.755132 32.885023 1.061247 0.262897 0.082115 -0.040724 -324636.000000 0 0 1
-4.426668 -6.497365 30.523238 31.519505 0.972730 0.252095 0.076689 -0.033516 1170510.000000 0 0 1
-5.597168 -5.633665 30.536898 31.552633 0.788648 0.254425 0.049659 -0.025073 863914.000000 0 0 1
-6.807068 -6.367265 30.507878 31.899982 0.752027 0.296516 0.070761 -0.025979 838171.000000 0 0 1
-8.150868 -5.494665 30.422868 31.971533 0.593145 0.312522 0.063046 -0.024167 1754140.000000 0 0 1
-9.345468 -6.227765 30.142718 32.166851 0.587814 0.356643 0.069535 -0.013983 -197317.000000 0 0 1
-10.375168 -5.294665 29.968758 32.152823 0.471870 0.370704 0.069999 -0.015170 -468765.000000 0 0 1
-11.444568 -5.768565 28.998468 31.704347 0.466878 0.416148 0.077237 -0.009674 -211598.000000 0 0 1
-10.897568 -5.725065 27.663748 30.278975 0.483723 0.418674 0.073702 -0.010397 294514.000000 0 0 1
-11.812468 -6.237565 26.762498 29.911084 0.485834 0.462958 0.082441 -0.011484 -309128.000000 0 0 1
-11.346068 -6.050965 25.299518 28.379800 0.489939 0.470234 0.064849 -0.009728 -335305.000000 0 0 1
-10.372768 -6.948965 24.893738 27.849248 0.590254 0.464882 0.060380 -0.004789 -245947.000000 0 0 1
-9.700468 -6.691165 23.661828 26.433934 0.603832 0.462072 0.052141 -0.012512 156214.000000 0 0 1
-10.567668 -6.776865 22.367388 25.649592 0.570223 0.511448 0.060491 -0.013351 -259635.000000 0 0 1
-11.522768 -5.773065 22.285988 25.744276 0.464458 0.524314 0.053297 -0.012446 -750436.000000 0 0 1
-12.226868 -5.891865 21.082288 25.073357 0.449046 0.571992 0.060088 -0.015855 286899.000000 0 0 1
-13.423668 -4.876965 21.055288 25.442186 0.348484 0.596024 0.069326 -0.013124 462934.000000 0 0 1
-12.995168 -3.564265 20.823988 24.803565 0.267693 0.574330 0.057794 -0.010598 -425048.000000 0 1 0
-14.050568 -2.675865 21.042288 25.443203 0.188192 0.596993 0.072916 -0.010250 -107052.000000 0 0 1
-13.826968 -1.203765 20.651288 24.881917 0.086840 0.591739 0.056746 -0.006125 -47879.500000 0 1 0
-12.693868 -0.569765 21.210288 24.725194 0.044855 0.539742 0.055847 -0.006041 -64100.600000 0 1 0
-12.780868 0.859235 20.946288 24.552716 -0.067127 0.548869 0.062142 -0.016189 -163871.000000 0 1 0
-12.319468 1.405235 19.565588 23.163683 -0.113575 0.564854 0.045956 -0.018939 626012.000000 0 1 0
-13.118768 0.934235 18.416988 22.630959 -0.071094 0.620142 0.061940 -0.020282 257971.000000 0 1 0
-14.425068 1.434235 18.379588 23.408308 -0.099101 0.667820 0.079249 -0.021712 -485776.000000 0 1 0
-15.377568 0.634235 17.466788 23.280046 -0.041221 0.722296 0.084091 -0.019686 -16008.400000 0 1 0
-15.709968 -0.622765 18.040488 23.930109 0.039621 0.716845 0.084555 -0.019913 -90550.100000 0 1 0
-16.767768 -1.235765 17.361588 24.168366 0.073566 0.769354 0.097053 -0.018219 -142989.000000 0 1 0
-17.054268 -2.652865 17.808188 24.799543 0.154318 0.769749 0.097081 -0.012034 226500.000000 0 1 0
-17.701668 -2.852865 19.076788 26.180369 0.159790 0.754422 0.115332 -0.019890 84121.400000 0 0 1
-17.676768 -4.238065 19.394388 26.581415 0.235312 0.753027 0.128120 -0.021862 92998.100000 0 0 1
-18.471768 -4.584765 20.687088 28.110174 0.243288 0.743759 0.128308 -0.016473 374885.000000 0 0 1
-17.830568 -4.294565 21.930388 28.588710 0.236352 0.696489 0.118518 -0.012306 164086.000000 0 0 1
-18.771768 -4.494565 22.961128 29.996563 0.235008 0.699043 0.114101 -0.019492 -599644.000000 0 0 1
-18.901968 -5.944865 23.516518 30.751462 0.304715 0.700177 0.112831 -0.012601 -305493.000000 0 0 1
-17.787568 -6.554765 24.128358 30.684527 0.353062 0.665940 0.080263 -0.022896 -187653.000000 0 0 1
-16.803768 -6.883365 23.180718 29.446443 0.388782 0.664515 0.087318 -0.022021 -188162.000000 0 0 1
-15.432568 -7.381865 23.715118 29.241459 0.446162 0.624920 0.099754 -0.018111 230583.000000 0 0 1
-15.530568 -8.731865 24.050448 29.931055 0.512190 0.637597 0.094138 -0.023954 -15904.400000 0 0 1
-15.405268 -8.925765 25.453168 31.062120 0.525132 0.610384 0.094487 -0.017622 92759.600000 0 0 1
-16.371868 -9.956665 26.078138 32.361127 0.546396 0.633691 0.074190 -0.016712 -351824.000000 0 0 1
-16.249368 -11.359065 25.737698 32.488451 0.610086 0.656373 0.083383 -0.024085 -237.981000 0 0 1
-15.268768 -12.107865 26.441128 32.846140 0.670447 0.635122 0.085838 -0.016705 127489.000000 0 0 1
-15.573668 -13.594965 26.360418 33.499759 0.717665 0.665053 0.070324 -0.024511 -21918.800000 0 0 1
-16.557268 -14.007065 27.283858 34.853263 0.702154 0.671610 0.074889 -0.032739 -26149.400000 0 0 1
-16.867368 -15.397665 27.173758 35.496610 0.739879 0.698930 0.094151 -0.022565 262360.000000 0 0 1
-15.853468 -16.412865 27.831758 35.990573 0.802733 0.686756 0.090914 -0.027947 59812.100000 0 0 1
-14.614868 -16.389265 27.199378 34.957239 0.842567 0.679200 0.112462 -0.032964 -599511.000000 0 0 1
-13.616268 -17.129565 27.838828 35.409393 0.899174 0.666162 0.131260 -0.034024 583236.000000 0 0 1
-12.221868 -17.107665 27.110878 34.308104 0.950465 0.659632 0.130473 -0.046191 915178.000000 0 0 1
-11.214368 -17.681465 27.920028 34.898771 1.005577 0.643453 0.148167 -0.051099 416175.000000 0 0 1
-10.095568 -18.253265 27.236428 34.306343 1.065589 0.653570 0.139585 -0.047177 646074.000000 0 0 1
-8.961768 -18.789865 28.124468 34.990828 1.125761 0.637196 0.152081 -0.051613 -17240.600000 0 0 1
-9.287668 -20.048265 28.661958 36.189799 1.136966 0.656735 0.150117 -0.051277 470130.000000 0 0 1
-8.271368 -20.486965 29.567018 36.909888 1.187072 0.641733 0.165696 -0.052678 540599.000000 0 0 1
-8.702468 -21.815565 30.203358 38.260877 1.191229 0.660956 0.125741 -0.043634 234244.000000 0 0 1
-8.622568 -22.817765 29.241028 38.079349 1.209496 0.695244 0.139118 -0.042959 14840.300000 0 0 1
-9.021568 -24.043665 29.819448 39.353348 1.211836 0.710960 0.107898 -0.042452 -33074.300000 0 0 1
-8.944368 -25.283265 28.967778 39.476289 1.230770 0.746895 0.122771 -0.034923 -281846.000000 0 0 1
-10.148668 -25.447365 28.251688 39.353802 1.191316 0.770030 0.117001 -0.040934 143500.000000 0 0 1
-10.183268 -26.688865 27.530748 39.672869 1.206291 0.803844 0.116136 -0.040181 26849.500000 0 0 1
-11.663868 -26.959765 27.146458 39.997562 1.162473 0.824801 0.106070 -0.040479 295649.000000 0 0 1
-12.188668 -26.335865 25.984128 38.952745 1.137336 0.840530 0.124775 -0.048207 259489.000000 0 0 1
-12.425968 -24.934165 26.049668 38.140562 1.108469 0.818946 0.118797 -0.041900 -454642.000000 0 0 1
-12.517068 -24.332665 24.653318 36.831259 1.095684 0.837451 0.130784 -0.053839 446975.000000 0 0 1
-13.698068 -24.692665 23.931888 37.014862 1.064319 0.867746 0.122989 -0.051413 474421.000000 0 0 1
-13.665768 -24.059865 22.630928 35.746178 1.054246 0.885244 0.126985 -0.051931 -873018.000000 0 0 1
-14.954268 -23.979665 21.861088 35.729003 1.013188 0.912388 0.120390 -0.047222 -1107850.000000 0 0 1
-15.321068 -25.243665 21.385288 36.459680 1.025299 0.944008 0.120102 -0.054181 35889.700000 0 0 1
-16.281068 -25.055565 20.370188 36.163505 0.994563 0.972446 0.119074 -0.045659 -216357.000000 0 0 1
-16.857068 -26.347165 19.744488 36.988899 1.001621 1.007714 0.111886 -0.034921 741662.000000 0 0 1
-15.838068 -26.984965 18.964288 36.587935 1.040049 1.025910 0.106312 -0.036035 688486.000000 0 0 1
-16.342268 -28.236865 18.617788 37.563444 1.046144 1.052230 0.106137 -0.039386 740207.000000 0 0 1
-15.416268 -29.013665 17.605388 37.274707 1.082388 1.078881 0.102377 -0.041147 524068.000000 0 0 1
-15.797068 -28.613165 16.297388 36.522122 1.066349 1.108244 0.091836 -0.040560 521564.000000 0 0 1
-14.717068 -28.844065 15.388688 35.852251 1.098999 1.127162 0.085914 -0.038970 245008.000000 0 0 1
-14.910468 -28.263765 13.964288 34.873540 1.085355 1.158814 0.072026 -0.035895 -359529.000000 0 0 1
-14.805668 -26.833365 13.959788 33.676594 1.066600 1.143376 0.070034 -0.032392 -2793.350000 0 0 1
-14.890868 -26.236865 12.687988 32.727604 1.054575 1.172678 0.070685 -0.040453 230805.000000 0 0 1
-13.808768 -26.615165 11.642288 32.165074 1.092198 1.200433 0.066871 -0.028606 416360.000000 0 0 1
-14.290068 -26.074365 10.406988 31.502126 1.069451 1.234113 0.053345 -0.023890 -120848.000000 0 0 1
-13.504268 -26.582865 9.410688 31.266196 1.100764 1.265070 0.066025 -0.022500 -278321.000000 0 0 1
-13.745468 -25.901665 8.033888 30.403577 1.082908 1.303379 0.068162 -0.025266 783575.000000 0 0 1
-14.933868 -26.496065 7.469388 31.318583 1.057552 1.329978 0.065683 -0.033383 651364.000000 0 0 1
-15.416868 -25.649465 6.445088 30.612318 1.029598 1.358670 0.068895 -0.027071 267956.000000 0 0 1
-16.450568 -26.246565 5.451788 31.451953 1.010925 1.396579 0.079783 -0.032124 -37227.000000 0 0 1
-15.811768 -27.257165 4.776588 31.871317 1.045141 1.420358 0.103524 -0.032217 -220781.000000 0 0 1
-16.570268 -27.777665 3.709688 32.556631 1.032931 1.456603 0.111496 -0.026361 -194371.000000 0 0 1
-15.858068 -28.859165 2.870388 33.054029 1.068338 1.483848 0.111337 -0.028772 252668.000000 0 0 1
-14.721968 -28.406865 2.130288 32.065939 1.092652 1.504313 0.112032 -0.022603 338119.000000 0 0 1
-14.185468 -29.556665 1.468288 32.817371 1.123324 1.526040 0.109136 -0.024777 -16381.900000 0 0 1
-12.851268 -29.444465 0.701688 32.134467 1.159261 1.548959 0.090889 -0.023242 104904.000000 0 0 1
-12.919468 -28.673565 -0.531012 31.454220 1.147468 1.587679 0.082069 -0.012127 32817.500000 0 0 1
-12.858368 -27.257365 -0.278412 30.139328 1.130012 1.580034 0.069038 -0.016481 -477070.000000 0 0 1
-12.598268 -26.458765 -1.537312 29.345288 1.126412 1.623207 0.053367 -0.018112 -1228230.000000 0 0 1
-11.283468 -26.590665 -1.896912 28.947856 1.169485 1.636372 0.070673 -0.022869 -1447020.000000 0 0 1
-10.862768 -25.778465 -2.922912 28.126009 1.171988 1.674906 0.083945 -0.031361 242882.000000 0 0 1
-9.665668 -26.323265 -3.724512 28.288008 1.218889 1.702844 0.084882 -0.027301 155919.000000 0 0 1
-9.073568 -25.388565 -4.603912 27.351506 1.227555 1.739925 0.082693 -0.038261 251945.000000 0 0 1
-7.863768 -25.956965 -5.134712 27.603771 1.276632 1.757901 0.118258 -0.028066 376186.000000 0 0 1
-6.945268 -24.975665 -5.838612 26.572730 1.299568 1.792326 0.088413 -0.025476 -246853.000000 0 0 1
-7.341268 -24.555965 -7.119412 26.600294 1.280293 1.841743 0.090188 -0.026114 55265.200000 0 0 1
-6.528968 -23.461065 -7.578212 25.504476 1.299374 1.872485 0.093965 -0.022099 213531.000000 0 0 1
-6.603568 -23.439265 -9.110312 26.000078 1.296183 1.928790 0.085378 -0.015594 -118661.000000 0 0 1
-5.939068 -24.508865 -9.713012 27.024056 1.333056 1.938444 0.070083 -0.018483 -241590.000000 0 0 1
-6.048068 -24.517365 -11.146412 27.602949 1.328940 1.986477 0.048770 0.005848 -420878.000000 0 0 1
-7.343668 -24.960265 -11.822812 28.578369 1.284656 1.997308 0.052648 -0.002500 -268139.000000 0 0 1
-7.369168 -24.662865 -13.192512 28.924106 1.280444 2.044413 0.069362 -0.000901 494719.000000 0 0 1
-8.620768 -25.095665 -13.748612 29.885354 1.239909 2.048842 0.097900 -0.007917 117930.000000 0 0 1
-8.825068 -24.882565 -15.298612 30.513462 1.229968 2.095981 0.103775 -0.010796 453357.000000 0 0 1
-7.952468 -25.546165 -16.250212 31.303637 1.269007 2.116612 0.094202 -0.025088 -278018.000000 0 0 1
-6.628468 -25.158065 -16.229412 30.663637 1.313178 2.128539 0.082777 -0.017028 -1335740.000000 0 0 1
-5.688768 -26.086465 -16.979012 31.640995 1.356084 2.137216 0.079667 -0.010594 -416033.000000 0 0 1
-5.852568 -26.053165 -18.390912 32.422918 1.349825 2.173922 0.133800 -0.018075 185636.000000 0 0 1
-4.832968 -26.796865 -19.009212 33.208127 1.392359 2.180258 0.112992 -0.019991 -130750.000000 0 0 1
-26.028598 14.325831 -5.051817 30.136990 -0.503141 1.739220 0.153076 -0.055608 -179094.000000 0 0 1
-25.689618 13.152431 -4.421717 29.197508 -0.473181 1.722823 0.154460 -0.049909 47626.400000 0 0 1
-24.375968 12.813831 -4.817017 27.956855 -0.483976 1.743962 0.158676 -0.040735 -196825.000000 0 0 1
-23.958868 11.386631 -4.398517 26.889211 -0.443658 1.735114 0.157949 -0.047435 -151327.000000 0 0 1
-24.423568 10.296631 -5.175717 27.005913 -0.398975 1.763641 0.148786 -0.037452 -255519.000000 0 0 1
-25.806878 10.065231 -5.132717 28.171770 -0.371875 1.754013 0.184139 -0.049696 -436687.000000 0 0 1
-26.369008 9.182531 -6.291317 28.622091 -0.335099 1.792412 0.180717 -0.046128 -27350.600000 0 0 1
-26.552128 10.086531 -7.385817 29.347979 -0.363039 1.825195 0.209096 -0.046343 -7401.630000 0 0 1
-26.678858 9.369531 -8.577717 29.548719 -0.337741 1.865327 0.196929 -0.045151 -353105.000000 0 0 1
-27.191568 10.306631 -9.650717 30.638935 -0.362306 1.891234 0.190896 -0.041821 169678.000000 0 0 1
-26.274408 11.268031 -10.159917 30.340352 -0.405135 1.912258 0.181526 -0.046284 347598.000000 0 0 1
-26.892388 11.863531 -11.275317 31.481370 -0.415469 1.937091 0.177605 -0.056533 348560.000000 0 0 1
-25.962908 12.903931 -11.985517 31.372546 -0.461256 1.962797 0.150091 -0.048682 198022.000000 0 0 1
-25.771198 14.174931 -11.321917 31.516172 -0.502866 1.938251 0.145460 -0.054659 212877.000000 0 0 1
-24.962768 14.979431 -12.171417 31.554184 -0.540472 1.966796 0.122348 -0.050308 -87226.400000 0 0 1
-24.831968 16.403631 -11.610617 31.945456 -0.583781 1.942766 0.137704 -0.057301 -344885.000000 0 0 1
-23.914568 16.510331 -10.559117 30.919129 -0.604246 1.919317 0.137914 -0.045024 -253813.000000 0 0 1
-23.871268 17.828531 -10.093917 31.457608 -0.641489 1.897448 0.098069 -0.034739 -675995.000000 0 0 1
-22.897068 18.114831 -8.985417 30.547676 -0.669316 1.869356 0.121307 -0.039204 -821060.000000 0 0 1
-22.977268 17.538931 -7.697917 29.913657 -0.651969 1.831063 0.144044 -0.049687 164063.000000 0 0 1
-24.070668 18.047731 -6.951217 30.877776 -0.643361 1.797863 0.129300 -0.047711 -200301.000000 0 0 1
-24.367268 17.385331 -5.605617 30.453841 -0.619710 1.755921 0.128313 -0.035592 -190435.000000 0 0 1
-23.339868 17.532531 -4.636617 29.557356 -0.644258 1.728315 0.123810 -0.039396 325655.000000 0 0 1
-23.693368 17.028031 -3.370817 29.371618 -0.623155 1.685814 0.115122 -0.033506 163640.000000 0 0 1
-22.387268 16.853131 -2.550317 28.137553 -0.645291 1.661558 0.124576 -0.044872 189263.000000 0 0 1
-21.874968 18.073431 -2.061217 28.450162 -0.690523 1.643310 0.124389 -0.040095 241326.000000 0 0 1
-20.797768 17.881431 -1.150117 27.452058 -0.710142 1.612704 0.186947 -0.056694 52775.600000 0 0 1
-20.163068 19.174931 -0.739217 27.834758 -0.760284 1.597357 0.143410 -0.051363 -281538.000000 0 0 1
-21.062068 19.933131 0.051383 28.999018 -0.757867 1.569024 0.121273 -0.037134 13570.200000 0 0 1
-20.682268 21.237131 0.312583 29.645736 -0.798634 1.560252 0.125349 -0.039795 -258595.000000 0 0 1
-21.698468 21.941831 1.193283 30.881894 -0.790975 1.532146 0.098022 -0.028379 -294399.000000 0 0 1
-21.538268 21.621131 2.577983 30.627052 -0.787318 1.486523 0.109615 -0.021968 220265.000000 0 0 1
-22.706568 21.818731 3.349283 31.668011 -0.765461 1.464836 0.102368 -0.025099 -128881.000000 0 0 1
-22.502768 21.379531 4.769583 31.403946 -0.759807 1.418328 0.118053 -0.017762 309341.000000 0 0 1
-21.618668 22.190931 5.570383 31.477506 -0.798460 1.392895 0.096840 -0.011855 805726.000000 0 0 1
-21.019968 21.591831 6.757083 30.882105 -0.798818 1.350209 0.093130 -0.001268 20330.600000 0 0 1
-21.908568 21.570731 8.030583 31.776911 -0.777628 1.315308 0.097869 -0.012328 95910.800000 0 0 1
-23.131468 20.833231 7.960883 32.131978 -0.733171 1.320433 0.120972 -0.012817 729411.000000 0 0 1
-23.621068 20.462731 9.247783 32.591405 -0.713876 1.283095 0.135035 -0.019697 -141639.000000 0 0 1
-24.178668 21.535531 10.231183 33.956799 -0.727644 1.264741 0.140795 -0.014323 -664112.000000 0 0 1
-25.519798 21.887431 9.991083 35.073373 -0.708927 1.281934 0.157780 -0.015971 87179.900000 0 0 1
-26.024538 22.926831 10.838883 36.337275 -0.722201 1.267900 0.163476 -0.019106 -25313.500000 0 0 1
-27.489268 23.239431 10.455083 37.483860 -0.701818 1.288125 0.151590 -0.033245 108246.000000 0 0 1
-28.200998 23.826331 11.550383 38.683352 -0.701511 1.267584 0.148830 -0.028276 180860.000000 0 0 1
-28.127088 25.232931 11.724383 39.563810 -0.731213 1.269937 0.144661 -0.030038 -107491.000000 0 0 1
-28.496188 25.726431 13.166883 40.586313 -0.734361 1.240401 0.165162 -0.036524 886429.000000 0 0 1
-27.347648 25.580331 14.022083 39.985822 -0.752020 1.212503 0.122225 -0.029021 721157.000000 0 0 1
-27.737158 25.930031 15.338583 40.951051 -0.751738 1.186875 0.129048 -0.030130 395656.000000 0 0 1
-26.548818 25.972731 16.360783 40.584452 -0.774430 1.155863 0.099193 -0.030939 391208.000000 0 0 1
-26.163088 24.676631 16.823683 39.704907 -0.756168 1.133250 0.108264 -0.033407 -378040.000000 0 0 1
-25.076008 24.783331 17.684183 39.442997 -0.779528 1.105880 0.090984 -0.034852 -443520.000000 0 0 1
-24.377568 23.436631 18.010283 38.313337 -0.765722 1.081416 0.098073 -0.026260 -618426.000000 0 0 1
-23.292768 23.539531 18.884583 38.122041 -0.790667 1.052534 0.099153 -0.034280 -138319.000000 0 0 1
-22.912068 22.244431 19.350083 37.339032 -0.770614 1.026020 0.106698 -0.034788 -130719.000000 0 0 1
-21.438068 22.192631 19.796783 36.660827 -0.802691 1.000361 0.101340 -0.032263 -334795.000000 0 0 1
-20.488868 22.512731 18.732483 35.742450 -0.832428 1.019143 0.094120 -0.036989 668911.000000 0 0 1
-19.153168 22.252131 19.106983 35.029673 -0.860103 0.993869 0.090693 -0.033817 186562.000000 0 0 1
-18.692068 20.752931 19.225683 33.907292 -0.837597 0.967928 0.089365 -0.028478 -792736.000000 0 0 1
-19.209968 20.024331 20.321383 34.394118 -0.806152 0.938698 0.108771 -0.025825 39816.400000 0 0 1
-18.653468 20.444731 21.561483 35.083279 -0.831181 0.908943 0.092465 -0.017398 -501140.000000 0 0 1
-19.546468 20.147931 22.772183 36.146589 -0.800549 0.889249 0.082740 -0.014495 -262565.000000 0 0 1
-20.592068 21.110231 22.695983 37.212670 -0.797823 0.914863 0.084093 -0.019566 401003.000000 0 0 1
-21.543068 20.974531 23.773683 38.330441 -0.772027 0.901761 0.086685 -0.014123 191409.000000 0 0 1
-22.612668 22.041131 23.758883 39.517449 -0.772600 0.925763 0.087065 -0.010652 -869523.000000 0 0 1
-22.052668 23.344331 24.027483 40.107330 -0.813843 0.928445 0.087926 -0.017905 -6851.640000 0 0 1
-22.927968 24.428731 24.217683 41.339458 -0.817078 0.944899 0.077291 -0.018560 -25910.800000 0 0 1
-23.847968 24.792931 22.983883 41.372381 -0.804823 0.981788 0.066989 -0.031962 5102.580000 0 0 1
-24.929268 23.927931 22.882083 41.443987 -0.764906 0.985891 0.062392 -0.030784 -273866.000000 0 0 1
-25.635968 23.945831 21.624283 41.209408 -0.751324 1.018385 0.054681 -0.033582 848888.000000 0 0 1
-26.765308 22.859031 21.487983 41.238943 -0.706843 1.022703 0.060103 -0.029043 492766.000000 0 0 1
-28.009548 23.189831 22.075683 42.539850 -0.691539 1.025184 0.077050 -0.030528 95449.900000 0 0 1
-28.863138 22.075731 21.854283 42.403164 -0.652932 1.029330 0.101980 -0.031935 -361939.000000 0 0 1
-30.357798 22.314331 22.072483 43.666003 -0.633861 1.040853 0.125574 -0.025075 -985134.000000 0 0 1
-30.946058 23.261931 21.198983 44.138111 -0.644584 1.069814 0.144652 -0.033801 -654100.000000 0 0 1
-32.304828 23.426631 21.389183 45.275889 -0.627422 1.078763 0.153585 -0.026481 -762732.000000 0 0 1
-33.197828 22.423431 20.640383 45.065857 -0.594058 1.095047 0.168320 -0.040283 -1457330.000000 0 0 1
-33.107828 21.065331 21.093483 44.551223 -0.566659 1.077575 0.152688 -0.040181 561175.000000 0 0 1
-34.007895 20.217931 20.380983 44.504900 -0.536371 1.095109 0.165441 -0.036308 207095.000000 0 0 1
-35.531007 20.424131 20.456683 45.804732 -0.521703 1.107828 0.173718 -0.046480 -664731.000000 0 0 1
-36.176328 19.740831 19.409283 45.553786 -0.499523 1.130648 0.161378 -0.041616 591083.000000 0 0 1
-37.602798 19.785731 19.550583 46.772544 -0.484369 1.139562 0.170327 -0.046035 967103.000000 0 0 1
36.945160 19.085531 18.368583 45.459951 0.476832 1.154844 0.168406 -0.048729 90823.100000 0 0 1
36.942880 17.676731 18.587983 44.975063 0.446291 1.144726 0.192856 -0.054722 263500.000000 0 0 1
36.046840 17.030431 17.693983 43.617511 0.441368 1.153093 0.209987 -0.064273 -59626.200000 0 0 1
36.333000 15.539031 17.539683 43.234117 0.404142 1.153062 0.217295 -0.073703 -377202.000000 0 0 1
35.634250 14.837631 16.575583 42.008392 0.394553 1.165188 0.245619 -0.065532 -101369.000000 0 0 1
36.204320 13.537431 16.326883 41.959289 0.357821 1.171128 0.224419 -0.051871 139191.000000 0 0 1
35.332850 12.697231 15.380283 40.573181 0.344989 1.182000 0.214211 -0.056974 -223251.000000 0 0 1
35.229920 13.287131 14.094583 40.203885 0.360658 1.212609 0.209438 -0.050595 160855.000000 0 0 1
34.336320 12.528331 13.329983 38.905403 0.349861 1.221086 0.210200 -0.042532 -471692.000000 0 0 1
34.465960 12.779231 11.840883 38.618877 0.355064 1.259168 0.230375 -0.040499 90890.600000 0 0 1
35.704270 12.444531 11.231983 39.443867 0.335378 1.282042 0.211474 -0.033227 320620.000000 0 0 1
35.599700 12.375031 9.835183 38.951391 0.334550 1.315534 0.196251 -0.033130 269750.000000 0 0 1
36.949570 12.356131 9.054283 39.999059 0.322715 1.342455 0.146086 -0.012946 592502.000000 0 0 1
-37.422608 11.312831 9.436583 40.217917 -0.293565 1.333952 0.199433 -0.025828 1495000.000000 0 0 1
-36.170028 11.245431 8.700583 38.864261 -0.301431 1.345012 0.204174 -0.029597 1121220.000000 0 0 1
-36.198698 10.762231 7.231583 38.450841 -0.288987 1.381596 0.164452 -0.033293 -588919.000000 0 0 1
-36.759448 11.734231 6.442483 39.121027 -0.308992 1.405362 0.144782 -0.035971 -210410.000000 0 0 1
-36.363318 11.622831 5.112683 38.516498 -0.309368 1.437663 0.167763 -0.055019 -18787.400000 0 0 1
-37.232248 12.545231 4.256983 39.518920 -0.324998 1.462867 0.173398 -0.054650 -319452.000000 0 0 1
36.728530 12.121031 4.063683 38.889816 0.318763 1.466113 0.184855 -0.061608 10606.800000 0 0 1
35.775770 13.184431 4.078583 38.345401 0.353086 1.464230 0.151548 -0.058510 303914.000000 0 0 1
35.328030 13.571031 5.513983 38.244563 0.366763 1.426115 0.166945 -0.044264 -1489030.000000 0 0 1
34.532580 14.719331 5.443083 37.931318 0.402924 1.426801 0.142904 -0.035031 58294.500000 0 0 1
34.129380 15.117831 6.789383 37.940204 0.416981 1.390878 0.122340 -0.027803 -106026.000000 0 0 1
32.900390 14.385831 7.335283 36.649613 0.412204 1.369289 0.183842 -0.044090 -796206.000000 0 0 1
33.090380 12.991531 7.680283 36.369491 0.374117 1.358021 0.228199 -0.037218 -603765.000000 0 0 1
31.861190 12.365731 7.832683 35.062767 0.370217 1.345505 0.228839 -0.033785 -567458.000000 0 0 1
31.640800 11.209431 6.861983 34.261908 0.340475 1.369152 0.236324 -0.044712 -304810.000000 0 0 1
31.450080 11.586531 5.536583 33.970707 0.352981 1.407085 0.231318 -0.062460 220288.000000 0 0 1
31.455090 10.456631 4.702583 33.479517 0.320938 1.429869 0.235940 -0.068999 3536.030000 0 0 1
30.665860 10.813131 3.400283 32.693741 0.338999 1.466604 0.187101 -0.067671 372625.000000 0 0 1
29.253190 10.867531 3.484483 31.400541 0.355698 1.459598 0.147391 -0.061361 97180.800000 0 0 1
28.729190 11.425631 2.320383 31.004767 0.378523 1.495887 0.158646 -0.061641 109354.000000 0 0 1
27.210390 11.214531 2.132383 29.507932 0.390929 1.498469 0.187525 -0.044519 89256.900000 0 0 1
26.996890 9.868631 1.742383 28.796837 0.350457 1.510253 0.149587 -0.042991 915956.000000 0 0 1
25.614190 9.426431 1.718583 27.347721 0.352634 1.507913 0.151248 -0.042316 871864.000000 0 0 1
25.528890 7.901231 1.333783 26.756917 0.300151 1.520927 0.163920 -0.045072 140301.000000 0 0 1
25.967290 6.940031 2.283183 26.975490 0.261157 1.486056 0.175302 -0.036272 -73887.200000 0 0 1
27.368890 6.880631 2.363383 28.319336 0.246299 1.487244 0.221836 -0.049083 -576165.000000 0 0 1
27.879890 6.192031 3.620483 28.787799 0.218549 1.444698 0.212582 -0.060754 -290933.000000 0 0 1
29.268990 6.200531 3.861383 30.166714 0.208760 1.442443 0.257017 -0.063246 256427.000000 0 0 1
29.746990 5.460031 4.969583 30.649504 0.181528 1.407935 0.247935 -0.051610 -593766.000000 0 0 1
31.268320 5.463031 5.034283 32.138708 0.172969 1.413506 0.247100 -0.059125 -672097.000000 0 0 1
31.769010 6.725731 5.474783 32.931424 0.208627 1.403773 0.247686 -0.059189 -30199.500000 0 0 1
33.133970 6.532031 5.777483 34.262322 0.194644 1.401362 0.242976 -0.052869 362827.000000 0 0 1
33.856870 7.709331 6.532583 35.332648 0.223886 1.384838 0.219959 -0.054267 599406.000000 0 0 1
33.170310 7.992131 7.736883 34.985754 0.236436 1.347809 0.238618 -0.059339 799712.000000 0 0 1
34.057630 8.837531 8.462183 36.188847 0.253888 1.334777 0.237270 -0.058486 456184.000000 0 0 1
33.666460 8.829331 9.989183 36.210100 0.256483 1.291304 0.243261 -0.048775 959655.000000 0 0 1
32.339430 9.341831 10.281883 35.196955 0.281213 1.274349 0.244849 -0.057035 1258680.000000 0 0 1
31.894810 8.796831 11.513583 35.031782 0.269117 1.235911 0.229146 -0.060957 -567534.000000 0 0 1
30.437310 9.066731 11.898883 33.914877 0.289513 1.212322 0.177102 -0.056226 -449112.000000 0 0 1
30.009590 10.393331 12.255283 34.040987 0.333405 1.202512 0.220997 -0.062688 368132.000000 0 0 1
29.805490 11.303131 11.167483 33.776333 0.362474 1.233825 0.234783 -0.069085 -197734.000000 0 0 1
28.440990 11.239531 10.441883 32.314855 0.376351 1.241762 0.184621 -0.056988 -214848.000000 0 0 1
28.288090 12.355331 9.616883 32.331945 0.411796 1.268784 0.168281 -0.028264 1145280.000000 0 0 1
27.035590 12.334831 8.886083 31.016667 0.428034 1.280231 0.150463 -0.035121 534957.000000 0 0 1
26.978190 13.489831 7.856383 31.169232 0.463669 1.315992 0.124627 -0.028504 23349.300000 0 0 1
26.927890 14.786631 8.391183 31.845999 0.502167 1.304155 0.114288 -0.014012 237206.000000 0 0 1
27.171990 15.702031 7.388183 32.240596 0.523993 1.339584 0.096370 -0.006863 -1056920.000000 0 0 1
27.086690 17.175131 7.914683 33.035074 0.565102 1.328859 0.136727 -0.020615 1117300.000000 0 0 1
25.806990 17.839431 8.081083 32.396758 0.604838 1.318693 0.148199 -0.025213 1188210.000000 0 0 1
24.767890 17.095131 8.714683 31.331096 0.604128 1.288931 0.151468 -0.024155 -686665.000000 0 0 1
23.473390 17.892831 8.804883 30.800639 0.651302 1.280885 0.155584 -0.031581 -437184.000000 0 0 1
22.892990 18.206031 7.539883 30.205933 0.671848 1.318513 0.151630 -0.030797 303098.000000 0 0 1
21.732890 19.015731 7.611383 29.863852 0.718816 1.313084 0.179950 -0.042271 223655.000000 0 0 1
21.196290 19.349731 6.212683 29.364813 0.739887 1.357616 0.169349 -0.037306 -177540.000000 0 0 1
21.997290 20.266531 5.536583 30.418198 0.744470 1.387761 0.122562 -0.020711 79671.300000 0 0 1
21.413990 20.543531 4.266583 29.979983 0.764655 1.427997 0.132257 -0.026799 266694.000000 0 0 1
17.490532 16.665831 32.670140 40.632582 0.761258 0.636741 0.147149 -0.025865 -129033.000000 0 0 1
17.042932 17.490331 31.632560 39.962383 0.798353 0.657441 0.117556 -0.030886 178467.000000 0 0 1
16.611632 16.625931 30.576718 38.565575 0.785828 0.655325 0.114522 -0.032551 -11673.000000 0 0 1
16.210432 17.262331 29.224288 37.614162 0.816813 0.680991 0.116311 -0.026888 -312866.000000 0 0 1
17.333532 17.681231 28.500868 37.754162 0.795328 0.715285 0.137058 -0.028406 -280760.000000 0 0 1
17.110332 17.933931 27.143118 36.757832 0.808896 0.740056 0.121958 -0.027295 -780826.000000 0 0 1
18.386632 18.033031 26.338068 36.836833 0.775689 0.774183 0.126408 -0.031960 -600440.000000 0 0 1
18.957732 19.346531 26.425918 37.841948 0.795548 0.797744 0.137582 -0.038498 771128.000000 0 0 1
19.971232 19.551931 25.410818 37.773507 0.774790 0.832924 0.132737 -0.040474 515772.000000 0 0 1
20.702132 20.888631 25.607448 38.995571 0.789882 0.854394 0.152989 -0.041234 -228526.000000 0 0 1
19.829432 21.923531 25.258198 38.882183 0.835511 0.863727 0.131877 -0.038379 195771.000000 0 0 1
20.381932 23.130031 25.715428 40.146043 0.848472 0.875586 0.138381 -0.040791 187240.000000 0 0 1
19.393932 24.327731 25.500678 40.227450 0.897768 0.884195 0.145364 -0.046416 220888.000000 0 0 1
19.294232 24.727431 24.163488 39.592770 0.908198 0.914356 0.143419 -0.042239 10346.800000 0 0 1
18.681632 25.990831 24.246638 40.155026 0.947579 0.922504 0.143496 -0.036262 -279236.000000 0 0 1
18.973532 27.009231 23.122678 40.300766 0.958406 0.959716 0.115898 -0.038155 -684755.000000 0 0 1
20.308932 27.391331 23.032368 41.148848 0.932798 0.976733 0.131975 -0.037301 -680598.000000 0 0 1
20.377632 28.643431 22.351388 41.656675 0.952444 1.004439 0.118703 -0.026910 340663.000000 0 0 1
21.778032 29.312731 22.383388 42.831472 0.931819 1.020908 0.128871 -0.017406 722039.000000 0 0 1
22.699932 28.838331 21.391288 42.479683 0.903943 1.043076 0.134247 -0.030999 588533.000000 0 0 1
23.914432 29.588131 21.299588 43.600803 0.891049 1.060411 0.124382 -0.032592 618250.000000 0 0 1
24.218932 29.819431 19.828488 43.231055 0.888669 1.094306 0.110732 -0.032099 354124.000000 0 0 1
23.397132 30.852731 19.260488 43.246771 0.921973 1.109217 0.092965 -0.025281 484601.000000 0 0 1
23.743732 30.848431 17.884688 42.839848 0.914812 1.140128 0.106482 -0.011940 -113185.000000 0 0 1
23.310632 32.044931 16.973988 43.108926 0.941893 1.166093 0.105465 -0.020036 -152642.000000 0 0 1
24.080332 33.254831 16.985288 44.432490 0.944068 1.178543 0.106512 -0.018242 136937.000000 0 0 1
23.933432 -33.608565 15.818088 44.187744 -0.951980 1.204699 0.104651 -0.023433 -95253.400000 0 0 1
24.845732 33.630731 14.645488 44.303801 0.934514 1.233889 0.089722 -0.022537 -59905.400000 0 0 1
24.445332 32.433831 14.016388 42.964949 0.924932 1.238485 0.110850 -0.025441 343530.000000 0 0 1
23.473432 32.649331 12.980788 42.254961 0.947461 1.258545 0.096877 -0.026708 298302.000000 0 0 1
23.140332 31.354731 12.165888 40.824049 0.935008 1.268191 0.111327 -0.040539 -448791.000000 0 0 1
24.187032 30.893731 11.374888 40.851233 0.906563 1.288620 0.130664 -0.057422 -437809.000000 0 0 1
23.829432 29.679131 10.773188 39.556975 0.894288 1.294966 0.124716 -0.054667 -972052.000000 0 0 1
24.946832 29.099731 9.903888 39.588203 0.862087 1.317938 0.121102 -0.049318 739713.000000 0 0 1
26.098332 28.551031 10.571288 40.100330 0.830249 1.304022 0.113272 -0.045681 626056.000000 0 0 1
26.875332 29.356531 11.387888 41.397746 0.829494 1.292118 0.103687 -0.044908 -348969.000000 0 0 1
28.369432 28.899331 11.575488 42.118736 0.794651 1.292384 0.100312 -0.038055 901436.000000 0 0 1
28.482632 27.762231 12.426488 41.670366 0.772591 1.267980 0.104560 -0.031150 -95010.400000 0 0 1
29.762932 27.824831 13.018288 42.772996 0.751756 1.261532 0.087175 -0.014676 34365.400000 0 0 1
30.014532 26.668431 13.994188 42.519580 0.726435 1.235421 0.068576 -0.025298 587587.000000 0 0 1
31.188232 26.843131 14.807888 43.732517 0.710663 1.225366 0.044717 -0.024774 607448.000000 0 0 1
31.332632 25.774531 15.710088 43.507093 0.688376 1.201357 0.052026 -0.025697 844021.000000 0 0 1
32.619832 25.900831 16.642488 44.853973 0.671085 1.190671 0.064909 -0.031935 837146.000000 0 0 1
33.815932 25.897631 15.907388 45.467016 0.653563 1.213368 0.069380 -0.022910 -232374.000000 0 0 1
34.931932 25.942231 16.775188 46.633102 0.638781 1.202821 0.077796 -0.030014 -10463.800000 0 0 1
36.287032 26.223031 16.132988 47.588542 0.625770 1.224932 0.118915 -0.035477 -192748.000000 0 0 1
36.447332 27.583731 15.802188 48.362996 0.647846 1.237943 0.105371 -0.026306 -475001.000000 0 0 1
-37.522025 27.815331 15.400788 49.181087 -0.637914 1.252294 0.150664 -0.035388 -36025.800000 0 0 1
-37.401925 28.877831 14.342288 49.381518 -0.657492 1.276111 0.107279 -0.031434 -18915.600000 0 0 1
37.474332 30.104131 14.819488 50.301108 0.676766 1.271743 0.106125 -0.034327 -22557.900000 0 0 1
37.088632 30.987531 13.782288 50.256792 0.696015 1.293000 0.084414 -0.018084 -259242.000000 0 0 1
36.332532 32.234531 14.166988 50.594678 0.725703 1.286992 0.057482 -0.021120 -654949.000000 0 0 1
35.964332 33.052631 13.042088 50.556955 0.743235 1.309878 0.026883 -0.016760 605138.000000 0 0 1
34.946832 -33.646165 13.327788 50.308801 -0.766438 1.302676 0.021074 -0.014661 1267200.000000 0 0 1
33.472332 33.484031 13.234788 49.160319 0.785573 1.298217 0.043540 -0.010189 217508.000000 0 0 1
33.133932 32.614431 14.232988 48.622387 0.777497 1.273721 0.037591 -0.024493 26495.500000 0 0 1
32.244532 31.656531 13.649788 47.203417 0.776197 1.277437 0.052035 -0.015755 -138052.000000 0 0 1
31.735932 30.625231 14.679688 46.481904 0.767589 1.249481 0.071020 -0.022891 -22037.700000 0 0 1
30.833932 31.117431 15.661288 46.522058 0.789974 1.227448 0.068851 -0.025241 223320.000000 0 0 1
30.561732 30.128231 16.625588 46.023255 0.778255 1.201196 0.066861 -0.018751 -207974.000000 0 0 1
29.475432 30.466831 17.643188 45.916348 0.801936 1.176405 0.069091 -0.017886 -313122.000000 0 0 1
29.201732 29.495231 18.642088 45.499860 0.790398 1.148652 0.065698 -0.016916 730155.000000 0 0 1
30.213632 29.456731 19.699088 46.568408 0.772714 1.134027 0.072490 -0.028324 906368.000000 0 0 1
29.847432 28.288431 20.625888 46.005780 0.758588 1.105897 0.079593 -0.029798 -111432.000000 0 0 1
28.694432 28.503631 21.390588 45.753521 0.782062 1.084316 0.095550 -0.033867 -387653.000000 0 0 1
28.599132 27.598231 22.437788 45.640191 0.767590 1.056843 0.099490 -0.035954 -880038.000000 0 0 1
27.338432 27.741831 23.251778 45.361264 0.792722 1.032597 0.130217 -0.034727 -53581.900000 0 0 1
26.212632 27.124231 22.578688 43.961610 0.802488 1.031421 0.140569 -0.036625 1113670.000000 0 0 1
25.002932 26.986431 23.346108 43.571262 0.823532 1.005324 0.148885 -0.042068 722141.000000 0 0 1
24.899732 25.826531 24.403758 43.388360 0.803667 0.973451 0.155990 -0.040714 -801607.000000 0 0 1
25.547632 26.103831 25.579398 44.591447 0.796166 0.959855 0.150145 -0.037936 -331690.000000 0 0 1
25.377632 25.048531 26.533998 44.446667 0.778872 0.931059 0.159889 -0.039995 -228074.000000 0 0 1
26.687632 24.649831 27.290128 45.437814 0.745725 0.926540 0.155591 -0.041250 605822.000000 0 0 1
27.325332 25.630231 28.118558 46.842671 0.753399 0.926949 0.171135 -0.043859 236619.000000 0 0 1
27.943632 26.649631 27.438568 47.370080 0.761700 0.953002 0.131327 -0.031168 -980503.000000 0 0 1
28.393732 27.802931 28.379458 48.832373 0.774885 0.950642 0.083190 -0.025714 -167679.000000 0 0 1
29.565232 27.539331 29.113978 49.801018 0.749936 0.946402 0.090645 -0.023051 -66836.200000 0 0 1
29.928932 28.744131 29.778338 51.075586 0.765208 0.948349 0.087053 -0.027713 -98658.000000 0 0 1
31.451432 28.872731 29.943548 52.148282 0.742677 0.959170 0.074387 -0.024934 -507702.000000 0 0 1
32.130432 29.209731 28.786778 52.098480 0.737819 0.985381 0.066186 -0.020526 -768721.000000 0 0 1
33.512432 29.215231 29.014828 53.089294 0.716999 0.992583 0.088185 -0.025516 -362420.000000 0 0 1
34.223032 29.802231 27.784078 53.210374 0.716460 1.021420 0.078519 -0.022409 -244073.000000 0 0 1
33.750832 31.148131 27.487208 53.524493 0.745316 1.031486 0.070736 -0.022484 298343.000000 0 0 1
34.220032 31.561531 26.224308 53.430845 0.745006 1.057779 0.065754 -0.021001 90445.200000 0 0 1
33.795832 33.080031 25.939068 53.937760 0.774695 1.069107 0.068249 -0.022488 -189171.000000 0 0 1
34.460432 -33.685565 26.779098 55.130380 -0.774028 1.063585 0.087017 -0.026343 129128.000000 0 0 1
34.308832 -32.345065 26.355118 54.017511 -0.755945 1.061115 0.087412 -0.017639 -39202.000000 0 0 1
35.512132 -31.501965 26.862968 54.544518 -0.725629 1.055841 0.077828 -0.019082 150578.000000 0 0 1
35.521632 -31.335865 28.238808 55.146651 -0.722872 1.033206 0.083519 -0.028804 -138388.000000 0 0 1
36.456332 -30.374665 28.589628 55.399019 -0.694647 1.028543 0.084832 -0.029802 -454244.000000 0 0 1
36.148632 -29.784365 29.989008 55.616298 -0.689170 1.001294 0.091482 -0.025321 -248714.000000 0 0 1
36.416332 -30.698865 31.043288 56.852927 -0.700414 0.993181 0.098715 -0.024917 523267.000000 0 0 1
35.349132 -31.633565 31.241488 56.800301 -0.729984 0.988404 0.086503 -0.025890 77723.900000 0 0 1
35.521132 -32.622565 32.442546 58.124878 -0.742888 0.978639 0.105444 -0.027949 -569577.000000 0 0 1
35.169532 -32.122865 33.753448 58.378675 -0.740154 0.954299 0.084017 -0.030661 311871.000000 0 0 1
35.265032 -33.080365 -32.856707 58.459355 -0.753444 2.167651 0.103892 -0.034181 -131737.000000 0 0 1
34.216332 33.452231 -32.929787 58.087692 0.774107 2.173532 0.121008 -0.038595 -168803.000000 0 0 1
34.374432 32.416331 33.779908 58.081859 0.756090 0.950113 0.126512 -0.038381 30262.100000 0 0 1
33.343032 31.462031 -33.731207 56.915828 0.756381 2.205142 0.132255 -0.031403 113034.000000 0 0 1
33.482332 30.380631 32.869103 55.896576 0.736868 0.942170 0.110656 -0.030921 990270.000000 0 0 1
34.772832 29.747431 33.007759 56.423148 0.707666 0.945912 0.118474 -0.041846 918490.000000 0 0 1
34.783432 28.594131 32.145029 55.324627 0.688049 0.950808 0.097967 -0.036408 335074.000000 0 0 1
36.216732 28.020831 31.919426 55.818173 0.658496 0.962041 0.103166 -0.034135 532308.000000 0 0 1
36.813232 27.304331 33.019220 56.489021 0.638167 0.946502 0.093476 -0.037333 763385.000000 0 0 1
-37.235925 26.688831 32.691371 56.280846 -0.621879 0.951010 0.078640 -0.036359 490915.000000 0 0 1
-36.999025 25.304631 33.366687 55.880122 -0.599857 0.930900 0.070814 -0.033578 122007.000000 0 0 1
-37.635425 24.214131 32.711768 55.432925 -0.571712 0.939596 0.067893 -0.031301 230634.000000 0 0 1
37.521032 23.154731 33.629228 55.451731 0.552908 0.919196 0.047826 -0.033055 -108834.000000 0 0 1
37.065232 21.836131 32.927181 54.174231 0.532386 0.917507 0.037707 -0.038615 431920.000000 0 0 1
-37.166925 21.351931 32.068288 53.531863 -0.521449 0.928482 0.054786 -0.026633 909204.000000 0 0 1
-37.399325 20.053731 31.498748 52.849151 -0.492191 0.932270 0.061815 -0.020813 440877.000000 0 0 1
-36.147625 19.583931 30.678468 51.296682 -0.496508 0.929719 0.074104 -0.037618 538745.000000 0 0 1
-36.028525 20.236631 29.412438 50.721469 -0.511769 0.952213 0.086018 -0.028193 494954.000000 0 0 1
-34.855125 19.963031 28.635628 49.329520 -0.520136 0.951458 0.110388 -0.035240 643172.000000 0 0 1
-35.243125 18.847231 27.599398 48.569772 -0.491081 0.966428 0.121814 -0.028562 -107931.000000 0 0 1
-35.937625 17.731831 28.138108 48.966150 -0.458358 0.958627 0.112209 -0.030299 107136.000000 0 0 1
-36.348125 16.852031 27.151098 48.397926 -0.434130 0.975206 0.116147 -0.036828 -68773.900000 0 0 1
-37.071325 15.618931 27.696568 48.839882 -0.398750 0.967829 0.123813 -0.042610 -182877.000000 0 0 1
-36.123125 14.688331 28.172988 48.107635 -0.386199 0.945147 0.112502 -0.038700 96133.600000 0 0 1
-36.474725 14.141031 29.467078 48.976352 -0.369853 0.925219 0.105487 -0.044008 -247738.000000 0 0 1
-35.636425 12.941231 29.897288 48.283311 -0.348338 0.903066 0.109948 -0.029802 1236700.000000 0 0 1
-34.228325 13.215931 30.145098 47.486482 -0.368476 0.883028 0.113256 -0.023097 1500920.000000 0 0 1
-33.613725 12.033031 30.678558 47.072819 -0.343766 0.860939 0.089357 -0.014073 290006.000000 0 0 1
-32.062225 12.169831 30.716818 46.039266 -0.362770 0.840370 0.086069 -0.013132 -870947.000000 0 0 1
-31.590725 12.166431 29.400328 44.837208 -0.367619 0.855670 0.066493 -0.015368 1237100.000000 0 0 1
-30.183025 12.543431 29.395378 43.959537 -0.393864 0.838348 0.053781 -0.013891 1768500.000000 0 0 1
-29.175425 11.435731 29.850568 43.278607 -0.373560 0.809680 0.057195 -0.010109 -650319.000000 0 0 1
-29.050225 10.321331 28.979168 42.311200 -0.341382 0.816323 0.063375 -0.014569 -269367.000000 0 0 1
-28.005325 9.536731 29.485518 41.768927 -0.328216 0.787075 0.054162 -0.012424 -414772.000000 0 0 1
-27.600125 8.297831 28.590298 40.595887 -0.292048 0.789408 0.053036 -0.014354 448356.000000 0 0 1
-28.469625 7.143531 28.513618 40.921584 -0.245842 0.799888 0.059586 -0.016389 907914.000000 0 0 1
-29.760325 7.400931 27.946978 41.490774 -0.243740 0.831767 0.075404 -0.016959 1055070.000000 0 0 1
-30.788625 6.199031 27.916008 42.019887 -0.198685 0.844169 0.091449 -0.022056 548822.000000 0 0 1
-31.398925 5.869231 29.166758 43.255522 -0.184792 0.830794 0.100000 -0.017859 219210.000000 0 0 1
-31.813225 4.510031 29.272698 43.466223 -0.140827 0.831919 0.115441 -0.017772 -219434.000000 0 0 1
-32.549725 4.216131 30.576488 44.857352 -0.128812 0.820797 0.116723 -0.019594 -533014.000000 0 0 1
-33.754225 4.909731 30.677998 45.875841 -0.144442 0.838313 0.114319 -0.020402 -312203.000000 0 0 1
-34.551125 4.455131 31.786506 47.159415 -0.128236 0.831156 0.118344 -0.025051 27284.000000 0 0 1
-35.940625 5.077931 31.848280 48.288993 -0.140358 0.850596 0.106236 -0.021880 -400558.000000 0 0 1
-36.011625 6.385031 32.359563 48.833872 -0.175481 0.846450 0.112496 -0.017766 -401882.000000 0 0 1
-37.300225 6.907531 32.196315 49.755638 -0.183113 0.867037 0.105810 -0.014527 -160123.000000 0 0 1
-37.387625 8.416831 32.450804 50.216852 -0.221432 0.868184 0.096841 -0.009687 39440.800000 0 0 1
-37.233925 8.623131 -33.821147 51.035219 -0.227581 2.295218 0.090172 -0.012312 237087.000000 0 0 1
-37.628825 9.967531 -33.543007 51.384954 -0.258944 2.282043 0.086292 -0.017241 -91233.800000 0 0 1
37.585832 10.333931 -32.055257 50.468053 0.268312 2.259011 0.073596 -0.014423 -361559.000000 0 0 1
36.525432 9.673131 -31.404157 49.131433 0.258889 2.264237 0.077995 -0.006993 65018.300000 0 0 1
36.529332 10.000031 -30.011347 48.322600 0.267207 2.240894 0.048610 0.001050 652693.000000 0 0 1
35.309232 9.352931 -29.241437 46.789751 0.258939 2.245869 0.045213 0.001279 627296.000000 0 0 1
35.342032 7.970431 -29.220027 46.544570 0.221812 2.249502 0.043119 -0.008074 951932.000000 0 0 1
34.020132 7.418831 -29.086647 45.370050 0.214710 2.266724 0.078468 -0.018322 513617.000000 0 0 1
36.586360 5.433331 -19.185217 41.667197 0.147429 2.049286 0.083997 -0.024023 -432157.000000 0 0 1
35.980680 6.448831 -18.424017 40.934596 0.177347 2.037656 0.066784 -0.022777 113732.000000 0 0 1
36.412340 7.804531 -18.735017 41.686569 0.211143 2.036919 0.047275 -0.015625 -259521.000000 0 0 1
-37.461578 8.218431 -18.255617 42.475640 -0.215962 2.015057 0.065701 -0.020731 470941.000000 0 0 1
-36.385088 7.557931 -18.910617 41.696623 -0.204808 2.041517 0.069837 -0.032695 76805.800000 0 0 1
-35.947228 8.362031 -19.963517 41.960323 -0.228555 2.066637 0.071395 -0.025292 -565503.000000 0 0 1
-34.894232 7.689631 -20.896417 41.393213 -0.216903 2.099978 0.075318 -0.019593 -162.338000 0 0 1
-35.224254 6.477331 -21.572217 41.809860 -0.181857 2.112924 0.068988 -0.023378 -256839.000000 0 0 1
-35.988720 6.643231 -22.708817 43.069837 -0.182537 2.126164 0.057109 -0.020222 -272499.000000 0 0 1
-35.884530 5.398531 -23.580817 43.276998 -0.149322 2.147044 0.080039 -0.016180 724351.000000 0 0 1
-34.611358 5.370831 -24.247917 42.599922 -0.153948 2.176330 0.082260 -0.016667 782398.000000 0 0 1
-34.396864 4.127031 -24.935617 42.684442 -0.119412 2.194672 0.084508 -0.016034 -229726.000000 0 0 1
-33.060058 3.929131 -25.664827 42.036756 -0.118293 2.227530 0.099550 -0.014532 482007.000000 0 0 1
-31.868078 4.156731 -24.919417 40.667310 -0.129703 2.230348 0.093624 -0.016660 393970.000000 0 0 1
-30.696308 3.863031 -25.664697 40.197798 -0.125189 2.263292 0.105014 -0.015375 -191629.000000 0 0 1
-29.447018 4.193831 -24.865217 38.768468 -0.141468 2.267088 0.093301 -0.024340 -618717.000000 0 0 1
-29.163918 5.598731 -24.858517 38.727584 -0.189667 2.267746 0.071474 -0.012106 645175.000000 0 0 1
-27.859178 5.852231 -24.319717 37.441034 -0.207054 2.277785 0.075932 -0.015147 837523.000000 0 0 1
-27.381038 7.327131 -24.473817 37.448308 -0.261472 2.283043 0.057690 -0.014121 350524.000000 0 0 1
-28.172178 8.217031 -23.667517 37.700697 -0.283799 2.249486 0.053495 -0.008752 184494.000000 0 0 1
-27.880258 9.650431 -23.931717 37.989033 -0.333231 2.252303 0.033138 -0.004005 -656933.000000 0 0 1
-26.569778 10.152531 -23.374417 36.815626 -0.364988 2.258682 0.057043 -0.002632 -670977.000000 0 0 1
-26.586698 10.551531 -22.042217 36.111586 -0.377807 2.227351 0.041563 -0.003277 -188668.000000 0 0 1
-25.283648 10.387131 -21.551917 34.808626 -0.389803 2.238462 0.078592 -0.014778 -395774.000000 0 0 1
-25.136728 10.757931 -20.042517 33.901189 -0.404389 2.203347 0.102694 -0.030891 -858144.000000 0 0 1
-25.207338 12.149331 -19.782517 34.268996 -0.449125 2.186180 0.102801 -0.039163 1044560.000000 0 0 1
-26.526248 12.682331 -19.601617 35.337045 -0.445979 2.158804 0.073746 -0.020903 1059850.000000 0 0 1
-27.613028 12.098031 -18.628917 35.438372 -0.412937 2.124300 0.073476 -0.025143 -36400.400000 0 0 1
-27.152948 12.146131 -17.301517 34.411532 -0.420625 2.097611 0.074673 -0.043100 59463.000000 0 0 1
-28.081328 11.479731 -16.510517 34.538998 -0.388072 2.069202 0.092185 -0.041935 -1190490.000000 0 0 1
-27.577698 11.122231 -15.056317 33.330558 -0.383353 2.039497 0.120951 -0.051833 183944.000000 0 0 1
-26.645008 10.070931 -14.963117 32.175689 -0.361369 2.054481 0.137921 -0.053421 827673.000000 0 0 1
-25.378088 10.248731 -15.592217 31.499223 -0.383814 2.088635 0.130673 -0.044442 -304580.000000 0 0 1
-24.487968 8.956431 -15.460717 30.313561 -0.350635 2.106012 0.101472 -0.040417 439477.000000 0 0 1
-23.094568 9.230431 -15.492517 29.301501 -0.380230 2.127897 0.099464 -0.034362 755952.000000 0 0 1
-22.346868 7.987031 -15.371817 28.274864 -0.343262 2.145584 0.122694 -0.033691 1771080.000000 0 0 1
-20.768268 8.220531 -15.315417 27.082468 -0.376899 2.171848 0.166226 -0.042946 1310890.000000 0 0 1
-20.240468 8.638831 -16.558917 27.540945 -0.403403 2.215857 0.171054 -0.053739 -526764.000000 0 0 1
-18.878368 8.848331 -16.341917 26.490451 -0.438297 2.235592 0.184069 -0.054754 -983824.000000 0 0 1
-18.122068 9.489031 -17.527317 26.938038 -0.482363 2.279240 0.145664 -0.046770 -124929.000000 0 0 1
-17.922668 8.706431 -18.691517 27.320263 -0.452205 2.324252 0.180913 -0.060342 959907.000000 0 0 1
-16.834068 7.756531 -18.529417 26.208565 -0.431769 2.356041 0.168068 -0.055185 91486.500000 0 0 1
-16.468768 6.995331 -19.834817 26.712823 -0.401670 2.407622 0.131173 -0.049350 13539.900000 0 0 1
-17.361368 6.020231 -20.366617 27.430992 -0.333786 2.407542 0.114152 -0.042597 1053550.000000 0 0 1
-18.522568 6.645231 -21.006717 28.784141 -0.344461 2.388828 0.111433 -0.042505 805914.000000 0 0 1
-19.521468 5.706231 -21.689617 29.733621 -0.284383 2.388335 0.089047 -0.030338 -178807.000000 0 0 1
-20.024968 4.760031 -20.765017 29.237701 -0.233374 2.360598 0.130775 -0.036568 219532.000000 0 0 1
-20.813668 3.777731 -21.418517 30.103702 -0.179548 2.362414 0.084996 -0.021562 -157830.000000 0 0 1
-21.687268 3.029631 -20.355117 29.897274 -0.138798 2.319699 0.096147 -0.021600 -406890.000000 0 0 1
-22.558568 2.071831 -20.887817 30.813671 -0.091585 2.315665 0.103266 -0.017368 340976.000000 0 0 1
-23.367168 1.678531 -19.746917 30.639561 -0.071710 2.271154 0.106293 -0.020916 218055.000000 0 0 1
-24.112868 0.346731 -20.165417 31.435563 -0.014379 2.267228 0.118071 -0.016430 -709020.000000 0 0 1
-23.245068 -0.715669 -20.198217 30.802813 0.030778 2.285941 0.098790 -0.024937 -470130.000000 0 0 1
-23.715168 -2.050869 -20.427117 31.366899 0.086265 2.280003 0.089307 -0.024126 -271527.000000 0 0 1
-24.246768 -2.432369 -21.861217 32.737363 0.099983 2.302013 0.096567 -0.025306 201546.000000 0 0 1
-23.269968 -2.315269 -22.872317 32.710774 0.099170 2.345115 0.073895 -0.026494 -145901.000000 0 0 1
-22.466068 -3.447069 -23.003917 32.338625 0.152247 2.362206 0.075709 -0.037647 78169.300000 0 0 1
-21.430968 -3.409869 -24.147817 32.465838 0.157787 2.409521 0.073074 -0.031012 223236.000000 0 0 1
-22.113868 -3.541669 -25.377977 33.846835 0.158807 2.418539 0.068779 -0.033483 125864.000000 0 0 1
-21.246768 -3.547069 -26.484597 34.138551 0.165421 2.458774 0.070749 -0.038745 -397864.000000 0 0 1
-21.928068 -3.655869 -27.840827 35.627478 0.165202 2.467771 0.069998 -0.040606 118975.000000 0 0 1
-22.884668 -4.715969 -27.867507 36.366830 0.203230 2.443842 0.079198 -0.037741 286545.000000 0 0 1
-23.495268 -4.762769 -29.133677 37.729070 0.200002 2.453063 0.037621 -0.035049 -1209980.000000 0 0 1
-23.078668 -5.992469 -30.001097 38.322322 0.254044 2.470049 0.051504 -0.030633 65037.700000 0 0 1
-21.804368 -5.790869 -30.588127 38.007869 0.259590 2.506108 0.040675 -0.030660 -152137.000000 0 0 1
-21.186168 -6.990969 -30.930917 38.137238 0.318728 2.516728 0.040269 -0.025196 248134.000000 0 0 1
-19.749768 -6.764769 -31.509367 37.797561 0.329999 2.556453 0.046749 -0.028116 -18756.300000 0 0 1
-19.755168 -6.401569 -32.896707 38.902957 0.313368 2.578502 0.040485 -0.036896 318886.000000 0 0 1
-19.982768 -7.498069 -33.760147 39.940951 0.358969 2.577832 0.037690 -0.029504 -589092.000000 0 0 1
-20.009968 -7.066769 32.414062 38.742863 0.339489 0.579665 0.038777 -0.024713 -327623.000000 0 0 1
-18.769168 -6.776569 31.816238 37.556312 0.346483 0.560177 0.051131 -0.027923 -72893.500000 0 0 1
-18.260168 -5.481769 32.126831 37.357955 0.291644 0.535580 0.053650 -0.032186 -1179020.000000 0 0 1
-16.857268 -5.238969 31.653723 36.243240 0.301321 0.508719 0.064001 -0.032618 -896408.000000 0 0 1
-16.865468 -5.177969 30.255118 35.023243 0.297881 0.527917 0.065730 -0.030413 756811.000000 0 0 1
-15.673668 -4.528869 29.768248 33.945885 0.281286 0.501354 0.067758 -0.017997 743593.000000 0 0 1
-15.604768 -4.591169 28.203758 32.558249 0.286142 0.523139 0.069943 -0.011128 468149.000000 0 0 1
-16.567668 -3.686069 27.637168 32.432820 0.218920 0.550743 0.067224 -0.019544 418025.000000 0 0 1
-16.772768 -3.824369 26.237238 31.374260 0.224178 0.580358 0.080791 -0.020209 241.946000 0 0 1
-15.665068 -3.222969 25.351578 29.974729 0.202911 0.562799 0.104303 -0.020127 89160.900000 0 0 1
-15.685468 -1.800769 25.310198 29.830903 0.114304 0.557736 0.100781 -0.017661 -749852.000000 0 0 1
-14.627068 -1.269269 24.625018 28.669734 0.086559 0.537639 0.104565 -0.022951 -729824.000000 0 0 1
-14.742468 0.249831 24.470918 28.569715 -0.016945 0.542281 0.087993 -0.008768 101530.000000 0 0 1
-15.507568 0.766331 23.394368 28.077899 -0.049376 0.585936 0.096330 -0.019748 88764.100000 0 0 1
-16.184768 1.963331 23.644638 28.720555 -0.120718 0.603657 0.065833 -0.019194 -54751.100000 0 0 1
-16.814068 2.580731 22.368888 28.102317 -0.152298 0.650171 0.081994 -0.023914 195469.000000 0 0 1
-15.843268 2.963031 21.380288 26.775089 -0.184886 0.645973 0.081638 -0.012146 494729.000000 0 0 1
-16.280468 4.067231 20.638588 26.599762 -0.244812 0.682666 0.091895 -0.025454 -370116.000000 0 0 1
-15.130768 4.845531 19.981688 25.528164 -0.309924 0.671754 0.089993 -0.020189 -251213.000000 0 0 1
-14.296368 5.569431 20.857288 25.892686 -0.371482 0.634230 0.066598 -0.016779 767356.000000 0 0 1
-12.993268 5.588331 20.242888 24.694716 -0.406178 0.609865 0.048993 -0.014734 590096.000000 0 1 0
-12.064568 6.687431 20.812088 24.968351 -0.506141 0.585314 0.050817 -0.009513 39148.700000 0 1 0
-12.545468 8.011931 20.577588 25.397184 -0.568342 0.626250 0.058810 -0.012418 240220.000000 0 0 1
-11.495368 8.930431 20.642988 25.259237 -0.660479 0.614182 0.042080 -0.011596 -102367.000000 0 0 1
-12.114868 10.330231 20.717488 26.128490 -0.706054 0.655230 0.036123 -0.004758 47767.200000 0 0 1
-12.576168 10.771331 19.476488 25.563943 -0.708248 0.704596 0.041099 -0.006852 123711.000000 0 0 1
-13.272868 11.968631 19.604488 26.528345 -0.733774 0.739209 0.031680 -0.005988 -347841.000000 0 0 1
-13.516668 12.733431 18.202088 26.003011 -0.755570 0.795400 0.043516 -0.005312 351658.000000 0 0 1
-12.372268 13.445531 17.672388 25.419847 -0.826945 0.802070 0.027601 -0.007253 569500.000000 0 0 1
-12.239568 14.777931 18.211188 26.454520 -0.879076 0.811521 0.036515 -0.011950 -633391.000000 0 0 1
-13.220668 15.873431 17.685988 27.194596 -0.876325 0.862752 0.028988 -0.011467 -67977.600000 0 0 1
-13.081568 16.207831 16.326788 26.464792 -0.891733 0.905967 0.006205 -0.014424 259153.000000 0 0 1
-13.635268 15.245331 15.388988 25.596125 -0.841089 0.925765 0.036406 -0.014961 -208510.000000 0 0 1
-14.011968 15.863931 14.024488 25.390664 -0.847307 0.985618 0.022938 -0.017855 -681400.000000 0 0 1
-15.200468 16.554531 13.963188 26.458975 -0.828013 1.014871 0.023548 -0.021954 -729534.000000 0 0 1
-15.724268 16.826131 12.687388 26.293366 -0.819236 1.067253 0.020500 -0.021087 -128978.000000 0 0 1
-16.838468 17.878731 12.676688 27.638405 -0.815353 1.094307 0.048148 -0.029498 417419.000000 0 0 1
-18.108668 17.338631 13.078088 28.276994 -0.763678 1.089984 0.066598 -0.027980 949358.000000 0 0 1
-19.088568 18.387931 13.223388 29.620051 -0.766705 1.108021 0.089695 -0.025100 1260850.000000 0 0 1
-20.566668 17.911831 13.444488 30.406838 -0.716512 1.112798 0.099264 -0.023949 703183.000000 0 0 1
-21.187668 17.380831 12.302088 30.039173 -0.687014 1.148852 0.113744 -0.021460 259976.000000 0 0 1
-22.370968 16.638131 12.620988 30.603545 -0.639481 1.145706 0.126843 -0.030161 90606.400000 0 0 1
-23.090768 16.186831 11.373388 30.406431 -0.611403 1.187429 0.130646 -0.025502 -185334.000000 0 0 1
-22.392168 15.138431 10.756488 29.090949 -0.594477 1.192052 0.114063 -0.016604 247764.000000 0 0 1
-23.160168 14.712431 9.660388 29.089037 -0.565934 1.232270 0.131883 -0.011784 474886.000000 0 0 1
-22.537768 13.344431 9.113688 27.732366 -0.534584 1.235944 0.130654 -0.018714 -185419.000000 0 0 1
-22.588068 12.200631 9.962688 27.537817 -0.495239 1.200618 0.122158 -0.029986 -151938.000000 0 0 1
-23.841068 11.621431 10.211788 28.420675 -0.453561 1.203270 0.169840 -0.031612 136405.000000 0 0 1
-24.593468 10.960531 8.975788 28.381978 -0.419246 1.249023 0.177831 -0.025230 -9228.770000 0 0 1
-25.095728 11.925531 8.023388 28.920384 -0.443613 1.289678 0.179985 -0.023870 1514440.000000 0 0 1
-26.352258 11.344831 7.522788 29.660395 -0.406526 1.314364 0.230669 -0.031051 1046130.000000 0 0 1
-27.065518 12.115731 6.399688 30.336269 -0.420893 1.358241 0.220900 -0.021391 -356539.000000 0 0 1
-26.468338 12.159031 5.117988 29.573785 -0.430627 1.396862 0.209316 -0.038248 376566.000000 0 0 1
-25.246138 12.854031 4.905488 28.751650 -0.470940 1.399342 0.194173 -0.038951 23691.700000 0 0 1
-25.244798 14.370031 5.134388 29.498467 -0.517485 1.395849 0.185107 -0.023494 200585.000000 0 0 1
-23.910868 14.879231 5.288088 28.654581 -0.556640 1.385186 0.182843 -0.030827 832006.000000 0 0 1
-23.810568 16.165631 5.989488 29.396339 -0.596442 1.365610 0.160560 -0.023347 -238407.000000 0 0 1
-22.445668 16.846731 6.191788 28.739495 -0.643857 1.353649 0.146441 -0.013497 -51516.400000 0 0 1
-21.841368 17.325631 5.026988 28.328315 -0.670611 1.392397 0.157069 -0.030365 1385420.000000 0 0 1
-20.480968 17.804731 5.169588 27.626131 -0.715610 1.382560 0.163853 -0.019372 1189860.000000 0 0 1
-19.821968 18.380531 3.888188 27.310663 -0.747685 1.427942 0.136776 -0.017671 -225121.000000 0 0 1
-18.474468 18.720431 4.084988 26.616680 -0.792011 1.416713 0.121484 -0.018895 218514.000000 0 0 1
-17.956568 19.916331 3.391788 27.029665 -0.837098 1.444981 0.121574 -0.020246 414062.000000 0 0 1
-18.358968 21.302731 3.997788 28.404935 -0.859484 1.429585 0.093594 -0.030061 -82198.000000 0 0 1
-17.639268 21.639031 5.179888 28.394061 -0.886880 1.387340 0.092703 -0.030135 160441.000000 0 0 1
-17.962468 22.933931 5.582288 29.661042 -0.906367 1.381465 0.068385 -0.026553 -782577.000000 0 0 1
-17.113268 23.461831 6.730888 29.809836 -0.940604 1.343038 0.040994 -0.012986 -158616.000000 0 0 1
-17.509368 22.982431 8.018688 29.984487 -0.919749 1.300074 0.045148 -0.013321 76124.300000 0 0 1
-16.477668 23.179531 8.940788 29.811774 -0.952811 1.266200 0.035966 -0.017071 -320662.000000 0 0 1
-16.802068 22.554631 10.326188 29.960825 -0.930535 1.218924 0.025520 -0.011310 166256.000000 0 0 1
-17.861568 23.125131 11.085688 31.252196 -0.913120 1.208185 0.039762 -0.007804 -68399.600000 0 0 1
-18.975868 22.273931 11.019688 31.267317 -0.865182 1.210625 0.049454 -0.016091 622767.000000 0 0 1
-20.375168 22.824531 11.555188 32.705184 -0.842036 1.209685 0.064770 -0.020372 955905.000000 0 0 1
-21.119868 23.464831 10.531188 33.279919 -0.837945 1.248819 0.087799 -0.014057 35626.400000 0 0 1
-20.684268 24.759931 10.085588 33.802547 -0.874844 1.267814 0.054549 -0.016848 -129527.000000 0 0 1
-21.849868 25.637131 9.538888 35.009564 -0.864983 1.294842 0.073562 -0.014935 499235.000000 0 0 1
-22.694368 26.092331 10.579288 36.163039 -0.854935 1.273910 0.096041 -0.023726 350489.000000 0 0 1
-23.895468 26.737431 10.162688 37.271488 -0.841468 1.294633 0.100246 -0.015199 397680.000000 0 0 1
-24.614768 27.329131 11.398088 38.505644 -0.837606 1.270283 0.097812 -0.031238 116258.000000 0 0 1
-23.827168 28.346031 12.041288 38.938721 -0.871795 1.256406 0.101488 -0.027319 909167.000000 0 0 1
-24.670668 29.280931 12.735588 40.351084 -0.870643 1.249687 0.096244 -0.029174 376087.000000 0 0 1
9.920432 -32.261465 28.260838 44.021496 -1.272472 0.873721 0.050319 -0.036203 -989879.000000 0 0 1
11.226032 -32.046365 27.875178 43.931980 -1.233849 0.883425 0.042050 -0.044406 -615858.000000 0 0 1
11.238432 -32.138365 26.411808 43.090144 -1.234399 0.911016 0.057846 -0.037442 -1038410.000000 0 0 1
12.645732 -32.165965 25.871608 43.172954 -1.196218 0.928226 0.039088 -0.029506 -809088.000000 0 0 1
13.230732 -33.462465 25.801788 44.277772 -1.194270 0.948718 0.063801 -0.042251 -649910.000000 0 0 1
14.602232 -33.309765 25.647208 44.503314 -1.157650 0.956604 0.074480 -0.033359 -671156.000000 0 0 1
15.421532 33.080631 25.351418 44.439242 1.134569 0.963714 0.104897 -0.029478 -274657.000000 0 0 1
15.248432 32.470331 24.085758 43.208342 1.131754 0.979506 0.083155 -0.033531 -386241.000000 0 0 1
16.092532 31.411031 23.880708 42.613504 1.097341 0.975925 0.101996 -0.028547 -571047.000000 0 0 1
16.122532 30.939831 22.420688 41.471634 1.090417 0.999614 0.094392 -0.040688 16987.400000 0 0 1
15.104032 30.019931 22.059688 40.198979 1.104645 0.989913 0.096420 -0.033003 -32611.100000 0 0 1
15.491632 28.646931 22.138788 39.379732 1.075061 0.973768 0.097692 -0.029812 -77140.100000 0 0 1
15.213932 27.970931 23.510598 39.580108 1.072634 0.934774 0.104797 -0.030964 -257923.000000 0 0 1
16.075432 28.295831 24.580628 40.783340 1.054148 0.923900 0.102719 -0.021823 184740.000000 0 0 1
15.562132 27.824931 25.812888 41.020872 1.060851 0.890193 0.097587 -0.028743 -73218.100000 0 0 1
16.362532 28.386331 27.009088 42.461831 1.047893 0.881390 0.112490 -0.032070 -216128.000000 0 0 1
16.201132 29.723631 27.432378 43.571852 1.071755 0.889772 0.107394 -0.036509 -193917.000000 0 0 1
16.977032 30.106431 28.524368 44.813574 1.057344 0.880829 0.134140 -0.040411 -212717.000000 0 0 1
16.874832 31.599031 28.906168 46.030699 1.080297 0.891847 0.144011 -0.045183 20043.000000 0 0 1
17.434132 32.505531 27.973348 46.293269 1.078498 0.921955 0.134412 -0.042289 -25759.200000 0 0 1
17.404932 -33.812765 28.336098 47.425407 -1.095423 0.930432 0.131372 -0.034613 -111327.000000 0 0 1
18.277832 -32.884765 27.446178 46.570158 -1.063500 0.940541 0.116496 -0.039300 -439543.000000 0 0 1
17.997232 -32.817465 26.048098 45.600327 -1.069179 0.962797 0.121822 -0.028354 -309361.000000 0 0 1
18.378932 -31.566765 25.509168 44.552929 -1.043550 0.961173 0.115619 -0.035089 1435350.000000 0 0 1
19.920432 -31.102865 25.392168 44.821580 -1.001150 0.968524 0.121758 -0.031289 1508070.000000 0 0 1
20.519332 -30.839665 26.627048 45.619378 -0.983702 0.947545 0.124285 -0.033622 182704.000000 0 0 1
21.505832 -29.812565 26.383618 45.248040 -0.945873 0.948271 0.117862 -0.030951 339598.000000 0 0 1
21.806432 -28.940965 27.629718 45.568644 -0.925072 0.919357 0.131430 -0.035351 174851.000000 0 0 1
20.640632 -28.217965 28.000008 44.791625 -0.939259 0.895515 0.133547 -0.038997 255951.000000 0 0 1
20.905232 -27.355065 29.089338 45.072363 -0.918258 0.869260 0.146237 -0.031247 795406.000000 0 0 1
19.565532 -26.808865 29.713678 44.546919 -0.940339 0.840595 0.136868 -0.033654 767152.000000 0 0 1
18.773632 -26.112565 28.768518 43.150237 -0.947465 0.841016 0.137500 -0.037153 330966.000000 0 0 1
17.518432 -25.761665 29.352608 42.803440 -0.973606 0.815158 0.121402 -0.039584 408963.000000 0 0 1
16.608732 -25.058165 28.291318 41.281477 -0.985470 0.815743 0.124938 -0.031506 -660354.000000 0 0 1
16.077832 -25.898665 27.268088 40.899709 -1.015225 0.841016 0.129773 -0.034643 500106.000000 0 0 1
15.332032 -25.128165 26.273668 39.456324 -1.022945 0.842107 0.133155 -0.045418 1155050.000000 0 0 1
13.844532 -24.742265 26.751258 38.980515 -1.060651 0.814444 0.101646 -0.036922 1030780.000000 0 0 1
13.044232 -25.926565 26.900528 39.572430 -1.104654 0.823334 0.094519 -0.032514 313019.000000 0 0 1
12.642732 -26.556365 25.689668 39.051738 -1.126474 0.852853 0.079446 -0.030517 -799405.000000 0 0 1
11.698732 -27.767665 25.823938 39.683490 -1.172057 0.862228 0.075199 -0.029159 -208373.000000 0 0 1
10.373232 -27.494765 26.171228 39.350975 -1.210028 0.843206 0.054258 -0.034459 -417741.000000 0 0 1
9.616832 -28.616265 26.538338 40.195242 -1.246592 0.849664 0.036896 -0.034133 -228565.000000 0 0 1
8.114032 -28.360065 26.795328 39.851229 -1.292133 0.833372 0.035086 -0.034843 661517.000000 0 0 1
7.177532 -28.317765 25.702218 38.910369 -1.322560 0.849246 0.061118 -0.032543 584913.000000 0 0 1
7.478932 -27.274465 24.784658 37.604656 -1.303165 0.851195 0.080225 -0.026548 -803047.000000 0 0 1
6.255532 -26.928865 23.898728 36.543736 -1.342546 0.857968 0.073752 -0.028517 -210690.000000 0 0 1
5.875632 -27.753565 22.834458 36.416973 -1.362170 0.893064 0.078228 -0.026681 -46406.400000 0 0 1
5.248532 -28.960465 23.173768 37.460368 -1.391511 0.903810 0.089375 -0.029265 81141.200000 0 0 1
3.795532 -28.953465 23.745558 37.637225 -1.440449 0.888076 0.115182 -0.029665 -935999.000000 0 0 1
2.773532 -28.945765 22.799078 36.950613 -1.475270 0.905853 0.127549 -0.027306 -82891.600000 0 0 1
1.563132 -28.502865 23.397078 36.909077 -1.516010 0.884196 0.150412 -0.032971 11215.300000 0 0 1
1.342932 -26.990365 23.557948 35.850526 -1.521081 0.853810 0.137250 -0.036430 -680277.000000 0 0 1
2.202732 -26.565765 24.577858 36.258282 -1.488069 0.825955 0.101012 -0.035274 -41935.700000 0 0 1
2.034332 -25.194565 24.736888 35.366909 -1.490226 0.796188 0.086449 -0.025115 -92534.400000 0 0 1
3.065332 -24.419165 25.604958 35.514867 -1.445920 0.765603 0.084849 -0.023600 -59202.600000 0 0 1
4.368232 -24.307865 25.024588 35.159405 -1.392990 0.778815 0.071240 -0.028542 229589.000000 0 0 1
5.226332 -23.581965 25.860988 35.386641 -1.352697 0.751285 0.054173 -0.022253 -63843.900000 0 0 1
4.795632 -22.065365 26.111008 34.520475 -1.356787 0.713017 0.048329 -0.016473 -863589.000000 0 0 1
4.819232 -21.214965 24.983578 33.128219 -1.347425 0.716441 0.044006 -0.012128 281705.000000 0 0 1
4.052832 -20.024265 25.125398 32.383364 -1.371098 0.682698 0.068011 -0.029323 1824.360000 0 0 1
4.053332 -19.106865 23.919458 30.881099 -1.361755 0.684767 0.081095 -0.033483 497032.000000 0 0 1
5.286132 -18.434865 23.665578 30.460582 -1.291543 0.681030 0.058404 -0.018425 317947.000000 0 0 1
5.162132 -17.687365 22.415988 29.016668 -1.286829 0.687994 0.063097 -0.012393 -308621.000000 0 0 1
6.542832 -17.181765 22.036088 28.698622 -1.206950 0.695326 0.066099 -0.012780 -736054.000000 0 0 1
7.468432 -18.183665 21.826188 29.373554 -1.181081 0.733171 0.064294 -0.014578 -486820.000000 0 0 1
8.695532 -17.709265 21.291888 29.027140 -1.114362 0.747315 0.072601 -0.015460 905910.000000 0 0 1
9.899032 -17.813965 22.294188 30.205281 -1.063596 0.740563 0.102740 -0.015467 319732.000000 0 0 1
9.934732 -16.701965 23.223198 30.281537 -1.034191 0.696785 0.103186 -0.008955 1148470.000000 0 0 1
11.129132 -16.857865 24.049128 31.407097 -0.987302 0.698632 0.108581 -0.008417 1157140.000000 0 0 1
11.305632 -15.930765 25.257188 31.930114 -0.953608 0.658331 0.126627 -0.024156 -144407.000000 0 0 1
11.562732 -14.597765 24.966598 31.146790 -0.900898 0.640866 0.147553 -0.031168 236145.000000 0 0 1
11.623032 -13.917665 26.179158 31.845637 -0.875000 0.605769 0.133642 -0.038234 -89455.800000 0 0 1
11.756732 -12.428065 25.890918 31.032518 -0.813150 0.583906 0.150744 -0.043818 -116245.000000 0 0 1
10.559032 -11.803465 25.496168 30.014489 -0.840989 0.555831 0.161187 -0.037709 52773.100000 0 0 1
10.775732 -10.434865 25.297028 29.409904 -0.769329 0.535226 0.160828 -0.037348 45130.200000 0 0 1
9.665332 -9.707865 24.471668 28.045032 -0.787594 0.510327 0.143775 -0.030824 -273056.000000 0 0 1
8.564432 -9.456165 25.285318 28.321650 -0.834842 0.467293 0.126403 -0.032595 -1339580.000000 0 0 1
7.565232 -8.952065 24.486878 27.147365 -0.869164 0.446420 0.112110 -0.034360 -1262130.000000 0 0 1
6.148832 -9.024565 25.029108 27.307639 -0.972701 0.411403 0.097163 -0.035471 -1256840.000000 0 0 1
5.777732 -7.938765 25.837178 27.639934 -0.941664 0.363165 0.102909 -0.031601 1132350.000000 0 0 1
4.462632 -8.124165 26.417238 27.996207 -1.068488 0.337454 0.099362 -0.035181 2404470.000000 0 0 1
3.136432 -8.106565 25.537928 26.976645 -1.201634 0.328064 0.078703 -0.028185 725705.000000 0 0 1
2.854532 -6.834865 25.020518 26.093870 -1.175174 0.287817 0.079354 -0.028432 -172938.000000 0 0 1
1.653332 -6.847465 24.276488 25.277839 -1.333879 0.282412 0.072374 -0.026181 148274.000000 0 0 1
1.494032 -5.639465 23.366428 24.083722 -1.311821 0.244673 0.051249 -0.030388 -24314.300000 0 1 0
1.175432 -4.499865 24.133488 24.577544 -1.315291 0.190380 0.051994 -0.026971 152516.000000 0 1 0
1.842732 -3.305765 23.668428 23.969110 -1.062267 0.158561 0.052714 -0.019730 -430043.000000 0 1 0
1.217032 -2.645765 22.357788 22.546661 -1.139664 0.129528 0.048338 -0.029119 1537920.000000 0 1 0
0.079632 -1.759765 22.600458 22.669006 -1.525576 0.077787 0.042881 -0.032005 1460240.000000 0 1 0
-1.102568 -2.382765 23.118818 23.267423 1.137410 0.113081 0.046029 -0.033369 569296.000000 0 1 0
-2.230568 -1.389765 23.592178 23.738108 0.557199 0.110939 0.042329 -0.040291 527637.000000 0 1 0
-1.803868 -0.712765 24.771638 24.847455 0.376302 0.078139 0.058717 -0.035776 -61228.100000 0 1 0
-2.538868 0.432235 25.028768 25.160920 -0.168630 0.102537 0.062166 -0.039412 -669395.000000 0 0 1
-1.998268 1.296235 26.184298 26.292409 -0.575446 0.090716 0.102197 -0.038604 -419360.000000 0 0 1
-2.132768 0.678235 27.482098 27.573074 -0.307894 0.081256 0.123066 -0.034479 567650.000000 0 0 1
-1.269968 -0.457765 27.822578 27.855309 0.345958 0.048482 0.120298 -0.036830 830036.000000 0 0 1
0.152532 0.035235 28.293908 28.294341 0.227018 0.005533 0.133624 -0.030735 602605.000000 0 0 1
1.131232 0.479235 27.362978 27.390545 0.400718 0.044868 0.104540 -0.027915 446785.000000 0 0 1
1.861632 -0.499765 26.649828 26.719446 -0.262272 0.072203 0.096310 -0.028068 584450.000000 0 0 1
2.923232 -1.433765 27.376678 27.569611 -0.455997 0.118374 0.094552 -0.024971 29116.800000 0 0 1
2.406232 -2.569765 28.118198 28.337726 -0.818251 0.124554 0.106409 -0.030379 -321773.000000 0 0 1
3.327632 -3.510065 28.585658 28.991957 -0.812072 0.167613 0.124205 -0.026835 -283820.000000 0 0 1
4.084132 -4.319065 27.511948 28.146789 -0.813348 0.212791 0.113643 -0.027680 249539.000000 0 0 1
5.033632 -3.605065 26.726538 27.434318 -0.621513 0.227643 0.108037 -0.024905 -153048.000000 0 0 1
5.525332 -4.497665 25.741208 26.708951 -0.683224 0.270014 0.095018 -0.026145 569525.000000 0 0 1
6.797932 -3.832565 25.053568 26.240841 -0.513364 0.301962 0.092843 -0.022876 22879.400000 0 0 1
8.004132 -3.899565 25.725918 27.223071 -0.453350 0.333189 0.093877 -0.020811 -256174.000000 0 0 1
8.772232 -5.130765 25.754018 27.686572 -0.529233 0.375842 0.110479 -0.017948 524921.000000 0 0 1
9.507732 -5.425865 24.387268 26.731551 -0.518581 0.421924 0.085042 -0.024879 -1073580.000000 0 0 1
8.652332 -5.757365 23.382298 25.587926 -0.587133 0.418248 0.088906 -0.025823 -1036310.000000 0 0 1
9.141732 -5.835565 22.079188 24.599098 -0.568137 0.456591 0.084088 -0.025875 -195704.000000 0 1 0
9.440832 -4.488965 21.402588 23.819129 -0.443843 0.454351 0.094843 -0.027148 218126.000000 0 1 0
8.262732 -3.734865 21.232788 23.087946 -0.424527 0.403613 0.079061 -0.020111 -283337.000000 0 1 0
8.514332 -2.530765 20.526288 22.365758 -0.288919 0.408406 0.074283 -0.016938 530771.000000 0 1 0
7.165432 -1.822765 20.109788 21.425907 -0.249100 0.352323 0.057966 -0.017664 906215.000000 0 1 0
6.603632 -1.147765 21.215688 22.249286 -0.172089 0.306005 0.057010 -0.017531 -1251630.000000 0 1 0
5.322032 -0.772765 20.925388 21.605394 -0.144193 0.251557 0.037673 -0.013873 -1245050.000000 0 1 0
4.659832 -0.050765 22.125088 22.610532 -0.010894 0.207591 0.043130 -0.017140 225429.000000 0 1 0
3.298632 0.320235 21.978388 22.226855 0.096778 0.149663 0.045212 -0.017072 -51675.500000 0 1 0
2.861532 0.766235 23.208508 23.396802 0.261633 0.126954 0.065304 -0.018578 436719.000000 0 1 0
1.353732 1.138235 23.333488 23.400424 0.699136 0.075655 0.068582 -0.026086 486749.000000 0 1 0
1.198932 2.534235 23.041888 23.211816 1.128904 0.121076 0.067361 -0.017944 751027.000000 0 1 0
-0.181268 2.921235 22.949298 23.135184 -1.508824 0.126851 0.052029 -0.022753 701844.000000 0 1 0
-0.493468 4.390235 22.731968 23.157289 -1.458865 0.191954 0.061186 -0.017399 -100368.000000 0 1 0
-0.314268 5.312235 23.798688 24.386393 -1.511706 0.219987 0.086141 -0.018249 -41285.700000 0 1 0
-0.889868 6.564235 23.449248 24.366951 -1.436055 0.275320 0.066929 -0.009839 -165393.000000 0 1 0
-0.631168 7.730235 24.371208 25.575588 -1.489328 0.308108 0.073811 -0.010925 -279439.000000 0 0 1
0.357232 8.580235 23.870508 25.368272 1.529186 0.345344 0.082216 -0.012962 -133762.000000 0 0 1
0.139632 9.851235 24.482338 26.390362 1.556623 0.382592 0.111655 -0.024281 -1097720.000000 0 0 1
0.657632 11.039235 23.677568 26.132823 1.511294 0.436949 0.115890 -0.032023 1504710.000000 0 0 1
2.098732 11.244235 23.637328 26.259489 1.386270 0.450696 0.096875 -0.027147 687288.000000 0 0 1
2.678332 11.451235 24.840428 27.483652 1.341036 0.442169 0.125527 -0.037408 -1270360.000000 0 0 1
4.113832 12.015235 24.685398 27.760734 1.240922 0.475159 0.102664 -0.033714 762610.000000 0 0 1
5.164732 11.186235 24.167178 27.126718 1.138252 0.471475 0.079091 -0.024555 508533.000000 0 0 1
5.025532 10.862235 22.758048 25.713282 1.137464 0.484152 0.073953 -0.030191 -1112810.000000 0 0 1
6.299132 10.274235 22.174088 25.237455 1.020800 0.497836 0.073324 -0.026244 -1084530.000000 0 0 1
7.304532 11.195235 21.917888 25.672618 0.992688 0.547659 0.059137 -0.027242 -498880.000000 0 0 1
8.382732 10.456235 21.353588 25.210688 0.895021 0.560470 0.068990 -0.036298 266895.000000 0 0 1
9.407232 11.478235 20.747588 25.508985 0.884235 0.620919 0.061470 -0.033982 -447229.000000 0 0 1
8.930332 12.110235 19.616788 24.723006 0.935395 0.654318 0.061769 -0.035978 -40429.200000 0 1 0
9.663532 13.239235 19.143588 25.201948 0.940273 0.708087 0.069897 -0.032507 674559.000000 0 0 1
11.079532 12.990235 18.528088 25.195085 0.864614 0.744562 0.066787 -0.033831 915136.000000 0 0 1
12.199832 12.853235 19.398088 26.274082 0.811473 0.740254 0.078292 -0.038914 387178.000000 0 0 1
13.404532 12.793235 18.663288 26.299556 0.762068 0.781805 0.081619 -0.037843 88959.500000 0 0 1
14.666332 12.516235 19.490388 27.415920 0.706464 0.779998 0.104561 -0.032558 -106318.000000 0 0 1
15.161132 13.614235 20.183188 28.680453 0.731692 0.790168 0.114413 -0.039008 -156817.000000 0 0 1
16.460832 13.370235 20.669488 29.613340 0.682163 0.798225 0.122932 -0.038265 124853.000000 0 0 1
17.228032 14.584235 21.232488 30.989088 0.702482 0.815973 0.122539 -0.035482 -217606.000000 0 0 1
16.940932 15.046235 22.502588 31.933538 0.726234 0.788839 0.125834 -0.037956 -144939.000000 0 0 1
17.629832 16.180235 22.927548 33.140360 0.742550 0.806774 0.111461 -0.029332 -314933.000000 0 0 1
-21.167668 12.798431 -24.562817 34.859747 -0.543811 2.352681 0.058146 -0.004121 -214206.000000 0 0 1
-21.423068 12.509231 -25.917087 35.876511 -0.528508 2.378059 0.064564 -0.013125 474180.000000 0 0 1
-22.386568 13.451231 -26.426477 37.154444 -0.541053 2.362086 0.076701 -0.010839 420940.000000 0 0 1
-22.251768 13.548531 -27.987907 38.236459 -0.546919 2.392004 0.071959 -0.011983 -2891.510000 0 0 1
-20.941968 14.007831 -28.238447 37.844355 -0.589539 2.413092 0.099771 -0.010933 -149877.000000 0 0 1
-20.732268 14.437131 -29.567137 38.890529 -0.608279 2.434518 0.096622 -0.023096 1557.780000 0 0 1
-19.338268 15.025931 -29.881887 38.635144 -0.660561 2.455043 0.082928 -0.019797 -63151.200000 0 0 1
-18.338568 14.027031 -30.015387 37.867983 -0.652964 2.485911 0.083079 -0.013853 -351341.000000 0 0 1
-17.069168 14.632631 -29.912847 37.419898 -0.708691 2.497065 0.082790 -0.012712 27032.700000 0 0 1
-16.282368 14.143331 -28.674967 35.880399 -0.715210 2.496729 0.107875 -0.000593 -268179.000000 0 0 1
-16.721368 14.628431 -27.379447 35.259456 -0.718736 2.459910 0.125241 -0.015266 -19371.400000 0 0 1
-17.203868 13.510131 -26.645667 34.474458 -0.665711 2.454212 0.134994 -0.007284 143755.000000 0 0 1
-17.796868 13.869331 -25.255127 33.866034 -0.661999 2.412435 0.126754 -0.009041 -145961.000000 0 0 1
-16.833368 14.425031 -24.391517 32.960429 -0.708504 2.403903 0.166031 -0.034962 -64615.000000 0 0 1
-17.497468 15.067631 -23.354617 32.842549 -0.710921 2.361870 0.165988 -0.037799 -320810.000000 0 0 1
-16.579168 15.599831 -22.271117 31.846918 -0.754974 2.345239 0.164299 -0.032542 -202430.000000 0 0 1
-15.845868 16.723731 -22.706217 32.347287 -0.812345 2.348930 0.148593 -0.035549 -146380.000000 0 0 1
-15.344968 17.459031 -21.593417 31.726353 -0.849754 2.319397 0.139749 -0.032059 -461381.000000 0 0 1
-15.257568 18.993831 -21.914617 32.769031 -0.894052 2.303336 0.128713 -0.030669 213358.000000 0 0 1
-16.454068 19.765731 -21.971917 33.825813 -0.876577 2.277803 0.103525 -0.023352 393322.000000 0 0 1
-17.276868 19.433831 -23.088517 34.774179 -0.844086 2.296893 0.078718 -0.018143 329505.000000 0 0 1
-18.658968 20.157331 -23.113817 35.898797 -0.823980 2.270329 0.071275 -0.016775 662845.000000 0 0 1
-18.500868 21.532031 -23.400617 36.789935 -0.860971 2.260178 0.056525 -0.016556 -614732.000000 0 0 1
-19.776968 22.044931 -23.570117 37.850467 -0.839574 2.243006 0.085549 -0.026393 -566463.000000 0 0 1
-19.813568 23.514231 -23.970317 38.988109 -0.870602 2.232943 0.064938 -0.024975 -105073.000000 0 0 1
-19.294768 24.336931 -22.970617 38.629309 -0.900450 2.207617 0.062206 -0.016622 31034.200000 0 0 1
-18.284868 25.215531 -23.444317 38.984553 -0.943394 2.216017 0.069302 -0.020633 -133157.000000 0 0 1
-17.337468 25.697731 -22.305217 38.190102 -0.977274 2.194515 0.089204 -0.026619 -30534.500000 0 0 1
-16.299668 24.814331 -21.928217 36.909035 -0.989610 2.206961 0.105782 -0.042481 186154.000000 0 0 1
-16.711768 23.556831 -21.388317 35.939777 -0.953774 2.208206 0.096072 -0.023200 -626719.000000 0 0 1
-15.470468 22.678731 -21.135517 34.646360 -0.972146 2.226902 0.121365 -0.032237 -135026.000000 0 0 1
-14.780368 22.922731 -19.968617 33.803203 -0.998092 2.202761 0.142134 -0.049321 -112643.000000 0 0 1
-13.874968 21.835531 -19.717217 32.528046 -1.004731 2.222021 0.112935 -0.038763 52753.500000 0 0 1
-13.011468 22.045131 -18.457117 31.558695 -1.037599 2.195492 0.106105 -0.043102 -267841.000000 0 0 1
-13.637968 22.021031 -17.186517 31.085307 -1.016295 2.156616 0.120732 -0.040909 -206596.000000 0 0 1
-14.185168 23.289931 -16.884417 32.073718 -1.023735 2.125187 0.140716 -0.050624 -1380.760000 0 0 1
-14.824968 23.290231 -15.469417 31.646759 -1.003948 2.081527 0.153473 -0.059465 100590.000000 0 0 1
-13.819168 23.342631 -14.479617 30.749100 -1.036269 2.061102 0.149235 -0.064554 56115.200000 0 0 1
-14.351568 23.563631 -13.173417 30.573700 -1.023745 2.016258 0.149188 -0.057968 -341238.000000 0 0 1
-13.333868 24.012531 -12.128717 30.024980 -1.063902 1.986632 0.173056 -0.056376 -225904.000000 0 0 1
-12.801268 25.330931 -12.396317 30.970909 -1.102869 1.982593 0.165327 -0.060777 306124.000000 0 0 1
-12.060268 25.890731 -11.338117 30.730000 -1.134869 1.948685 0.087970 -0.044697 -183909.000000 0 0 1
-11.706368 27.402031 -11.668017 32.000828 -1.167057 1.944017 0.116173 -0.038266 -207289.000000 0 0 1
-10.786068 27.510331 -12.703917 32.164376 -1.197142 1.976830 0.115851 -0.033669 -455126.000000 0 0 1
-10.772768 28.788431 -13.321717 33.500663 -1.212723 1.979756 0.084273 -0.023364 -498887.000000 0 0 1
-10.258668 28.722431 -14.804217 33.902554 -1.227752 2.022690 0.129063 -0.046812 986662.000000 0 0 1
-8.845968 28.715231 -15.054717 33.607442 -1.271963 2.035276 0.100153 -0.045591 371250.000000 0 0 1
-8.191668 27.546431 -14.704517 32.282071 -1.281748 2.043731 0.106225 -0.041963 -280922.000000 0 0 1
-6.670068 27.477431 -15.016417 32.015493 -1.332655 2.058995 0.107002 -0.041182 362493.000000 0 0 1
-5.957768 28.351531 -14.193717 32.260904 -1.363671 2.026358 0.093811 -0.034017 -1628240.000000 0 0 1
-4.611068 28.197131 -14.465317 32.024764 -1.408701 2.039457 0.102860 -0.040497 -896725.000000 0 0 1
-3.789368 29.257631 -13.734017 32.542150 -1.441996 2.006488 0.078832 -0.028429 -273201.000000 0 0 1
-3.807468 30.589031 -14.291117 33.976781 -1.446962 2.004919 0.064403 -0.019556 -377716.000000 0 0 1
-4.933868 31.382631 -14.036017 34.730712 -1.414856 1.986833 0.067918 -0.021443 -317329.000000 0 0 1
-4.676168 32.845731 -14.346817 36.146089 -1.429379 1.978946 0.067353 -0.022082 -49030.100000 0 0 1
-3.762968 33.389531 -13.440417 36.189301 -1.458571 1.951304 0.047165 -0.027610 -369260.000000 0 0 1
-3.874968 -32.863365 -13.461217 35.724228 1.453427 1.957145 0.058791 -0.024740 674119.000000 0 0 1
-2.822968 -32.199265 -12.506417 34.657932 1.483348 1.939979 0.059984 -0.029933 388166.000000 0 0 1
-3.299468 -32.218565 -11.197417 34.268128 1.468743 1.903669 0.064036 -0.035080 222208.000000 0 0 1
-2.436068 -31.496265 -10.285217 33.222505 1.493605 1.885554 0.052831 -0.033806 65334.000000 0 0 1
-2.746268 -31.570965 -8.769017 32.881050 1.484028 1.840752 0.058612 -0.027398 253640.000000 0 0 1
-1.823168 -30.685165 -8.091017 31.786284 1.511451 1.828173 0.055765 -0.022837 462157.000000 0 0 1
-1.864568 -30.904565 -6.693917 31.676131 1.510536 1.783725 0.063435 -0.030370 -145963.000000 0 0 1
-0.737168 -30.246665 -5.887517 30.823157 1.546429 1.762987 0.075289 -0.023068 -57342.000000 0 0 1
-0.818468 -30.430065 -4.486717 30.769943 1.543906 1.717133 0.095743 -0.030674 -299487.000000 0 0 1
0.330632 -29.939665 -3.842517 30.187047 -1.559753 1.698433 0.079321 -0.021235 -177820.000000 0 0 1
0.284232 -30.192265 -2.293617 30.280593 -1.561383 1.646614 0.079381 -0.017704 -401041.000000 0 0 1
0.314132 -31.477565 -1.741417 31.527263 -1.560817 1.626060 0.084229 -0.028058 737418.000000 0 0 1
1.410032 -32.360865 -2.109817 32.460208 -1.527252 1.635839 0.070635 -0.023067 1925590.000000 0 0 1
2.888332 -31.939765 -1.713917 32.115862 -1.480611 1.624188 0.064187 -0.012873 364851.000000 0 0 1
3.051132 -32.165165 -0.326917 32.311207 -1.476221 1.580914 0.056196 -0.012439 -138919.000000 0 0 1
4.314932 -31.906965 0.257483 32.198437 -1.436377 1.562799 0.051122 -0.010560 231394.000000 0 0 1
4.746032 -30.435765 0.314583 30.805188 -1.416106 1.560584 0.035023 -0.014655 -537721.000000 0 0 1
5.195132 -29.834365 -0.902317 30.296748 -1.398393 1.600583 0.036533 -0.019443 109092.000000 0 0 1
5.136032 -28.423665 -0.877517 28.897294 -1.392030 1.601168 0.053597 -0.015403 -381602.000000 0 0 1
4.595632 -27.794565 -2.123617 28.251857 -1.406936 1.646035 0.048500 -0.009015 -459676.000000 0 0 1
3.229932 -28.070065 -2.318017 28.350207 -1.456233 1.652651 0.068566 -0.013119 -201175.000000 0 0 1
2.618332 -27.086765 -3.174117 27.397509 -1.474431 1.686911 0.074430 -0.015816 34471.000000 0 0 1
2.854832 -27.069565 -4.688417 27.620512 -1.465722 1.741366 0.073160 -0.015691 -280899.000000 0 0 1
2.457732 -28.172165 -5.477817 28.804823 -1.483777 1.762132 0.075982 -0.020135 -158146.000000 0 0 1
3.015232 -28.037065 -6.759217 28.997511 -1.463664 1.806057 0.087558 -0.026657 -307199.000000 0 0 1
2.192932 -28.678865 -7.912817 29.831174 -1.494480 1.839263 0.078136 -0.026355 -188960.000000 0 0 1
0.960832 -28.026165 -8.109517 29.191666 -1.536526 1.852302 0.073985 -0.021755 -537287.000000 0 0 1
0.567132 -28.247665 -9.448517 29.791386 -1.550722 1.893525 0.074238 -0.023255 -280898.000000 0 0 1
-0.858868 -27.793365 -9.764317 29.471184 1.539904 1.908496 0.057370 -0.023989 -969662.000000 0 0 1
-1.043668 -26.394665 -9.591417 28.102720 1.531276 1.919094 0.056775 -0.013621 -297419.000000 0 0 1
-2.365068 -25.900765 -9.529817 27.699469 1.479736 1.922016 0.065692 -0.020424 252916.000000 0 0 1
-3.316368 -26.437965 -8.447417 27.952158 1.446009 1.877806 0.076469 -0.022348 -584471.000000 0 0 1
-3.041568 -26.110965 -7.042217 27.214453 1.454833 1.832542 0.096610 -0.029570 209674.000000 0 0 1
-1.825368 -26.669365 -6.531617 27.518158 1.502459 1.810440 0.095503 -0.026918 668568.000000 0 0 1
-1.499968 -26.251965 -5.044517 26.774292 1.513721 1.760338 0.112378 -0.028619 99593.400000 0 0 1
-2.524268 -26.639265 -4.146617 27.077976 1.476321 1.724537 0.130064 -0.035955 83182.300000 0 0 1
-2.180968 -26.389465 -2.800117 26.627075 1.488338 1.676152 0.133364 -0.037455 199790.000000 0 0 1
-3.359568 -26.640565 -1.815217 26.912849 1.445351 1.638296 0.133906 -0.040025 117234.000000 0 0 1
-4.361868 -25.683165 -1.850117 26.116542 1.402568 1.641697 0.132105 -0.040171 -397468.000000 0 0 1
-5.426268 -25.843065 -0.904317 26.422078 1.363833 1.605029 0.151121 -0.043053 465988.000000 0 0 1
-6.598268 -24.911665 -1.333617 25.805169 1.311875 1.622500 0.113031 -0.039422 -135818.000000 0 0 1
-6.401968 -23.515565 -1.064417 24.394671 1.304994 1.614443 0.115613 -0.045282 247136.000000 0 1 0
-7.115668 -23.062965 0.098783 24.135924 1.271530 1.566704 0.110307 -0.033610 197683.000000 0 1 0
-6.559168 -21.663765 0.558883 22.641858 1.276799 1.546110 0.082675 -0.035518 658960.000000 0 1 0
-5.347068 -21.809265 1.305583 22.493104 1.330365 1.512720 0.074561 -0.036092 443488.000000 0 1 0
-4.759068 -20.562065 1.652883 21.170245 1.343352 1.492641 0.046439 -0.026557 324710.000000 0 1 0
-3.645468 -20.585065 2.745883 21.084929 1.395521 1.440196 0.043261 -0.014760 69880.400000 0 1 0
-4.071868 -20.935465 4.060683 21.710895 1.378698 1.382654 0.034589 0.010544 -81104.000000 0 1 0
-3.165868 -20.490265 5.049283 21.339375 1.417503 1.331913 0.051318 -0.004824 152393.000000 0 1 0
-1.977568 -21.416565 5.342183 22.161204 1.478719 1.327338 0.051283 -0.025601 -288966.000000 0 1 0
-1.133368 -21.676365 4.264583 22.120940 1.518558 1.376797 0.066529 -0.029445 -302071.000000 0 1 0
-0.411468 -22.883165 4.499183 23.324905 1.552817 1.376688 0.072979 -0.031951 263550.000000 0 1 0
0.716632 -23.234865 3.451283 23.500721 -1.539963 1.423405 0.081577 -0.037682 1054200.000000 0 1 0
1.813332 -22.332365 3.304083 22.648171 -1.489777 1.424386 0.047825 -0.037339 -2362.160000 0 1 0
2.836632 -22.586765 4.217883 23.151652 -1.445862 1.387588 0.064903 -0.039007 -1047960.000000 0 1 0
3.993132 -21.571665 4.127083 22.322963 -1.387758 1.384846 0.067957 -0.035852 -345821.000000 0 1 0
4.805932 -21.842665 2.991483 22.564308 -1.354222 1.437829 0.044498 -0.022659 -807927.000000 0 1 0
6.074332 -21.512565 3.479983 22.622959 -1.295599 1.416358 0.060063 -0.015613 -483505.000000 0 1 0
7.055532 -20.819165 2.522983 22.126536 -1.244048 1.456523 0.069969 -0.017630 -355434.000000 0 1 0
7.708632 -21.660765 1.600483 23.047197 -1.228893 1.501297 0.056889 -0.018063 -21991.500000 0 1 0
7.252232 -21.415665 0.260283 22.611796 -1.244276 1.559285 0.048996 -0.026841 76242.000000 0 1 0
8.110732 -22.205565 -0.763017 23.652765 -1.220595 1.603061 0.053289 -0.017089 -185981.000000 0 1 0
9.306932 -21.511965 -1.005917 23.460509 -1.162473 1.613686 0.047257 -0.009172 -1222390.000000 0 1 0
10.265632 -22.473065 -1.375717 24.744989 -1.142304 1.626421 0.053084 -0.009967 -184940.000000 0 1 0
11.640532 -21.832965 -1.628717 24.795828 -1.080972 1.636529 0.059526 -0.011623 -222921.000000 0 1 0
11.616232 -20.867065 -2.664617 24.030635 -1.062841 1.681909 0.054368 -0.002603 109523.000000 0 1 0
12.847132 -20.781365 -3.386917 24.665465 -1.017099 1.708546 0.059444 -0.001385 560215.000000 0 1 0
12.854832 -19.549865 -4.328517 23.794537 -0.989138 1.753727 0.053346 -0.014285 -236394.000000 0 1 0
13.062632 -18.371365 -3.659717 22.837096 -0.952705 1.731743 0.072952 -0.014221 -38563.400000 0 1 0
13.067432 -17.304565 -4.609717 22.168790 -0.924011 1.780262 0.075064 -0.021645 -966817.000000 0 1 0
13.426032 -15.990465 -3.930017 21.246137 -0.872355 1.756843 0.073358 -0.021291 526835.000000 0 1 0
14.757832 -15.699165 -3.525517 21.833155 -0.816295 1.732982 0.073785 -0.022759 457477.000000 0 1 0
15.683432 -15.670565 -4.612817 22.645413 -0.784988 1.775930 0.071641 -0.021208 1200400.000000 0 1 0
17.204232 -15.329365 -4.231517 23.428205 -0.727833 1.752409 0.086640 -0.021206 1357710.000000 0 1 0
17.908032 -16.364165 -3.663317 24.533720 -0.740381 1.720674 0.096667 -0.017476 -552743.000000 0 1 0
19.244332 -15.970065 -3.506717 25.252413 -0.692684 1.710113 0.069825 -0.003974 -643441.000000 0 0 1
20.106832 -17.073265 -2.906217 26.537279 -0.703987 1.680531 0.073085 -0.019254 -803919.000000 0 0 1
21.420132 -16.654365 -2.655417 27.262450 -0.660876 1.668353 0.065802 -0.010686 -486839.000000 0 0 1
22.021932 -17.671965 -1.868717 28.297632 -0.676246 1.636882 0.063452 -0.005680 702686.000000 0 0 1
23.585032 -17.624265 -2.007817 29.511011 -0.641748 1.638885 0.082624 -0.006744 652431.000000 0 0 1
24.179332 -16.440565 -1.520817 29.278749 -0.597138 1.622762 0.069644 0.001307 775080.000000 0 0 1
25.430132 -16.608365 -0.833917 30.384615 -0.578550 1.598245 0.123176 -0.004856 1154210.000000 0 0 1
26.234932 -15.356665 -0.383817 30.401417 -0.529579 1.583422 0.110471 -0.003872 504903.000000 0 0 1
25.444232 -14.686065 0.594083 29.384390 -0.523476 1.550577 0.083759 -0.004152 850926.000000 0 0 1
26.184232 -13.609365 1.227983 29.535348 -0.479326 1.529208 0.076081 -0.002679 592371.000000 0 0 1
25.282232 -12.849765 2.254083 28.449756 -0.470228 1.491483 0.084681 -0.009602 52652.100000 0 0 1
25.001832 -13.442165 3.506783 28.602114 -0.493310 1.447881 0.111121 0.001250 241259.000000 0 0 1
26.106432 -13.768465 4.334083 29.831204 -0.485325 1.424993 0.158237 0.012418 46070.500000 0 0 1
25.668632 -14.496665 5.627783 30.011730 -0.514106 1.382160 0.135555 0.013443 208473.000000 0 0 1
25.037632 -15.744465 5.374783 30.060930 -0.561350 1.391033 0.148071 0.001928 167129.000000 0 0 1
24.544632 -16.216265 6.633583 30.156436 -0.583850 1.349010 0.118773 0.003312 323021.000000 0 0 1
23.868332 -17.632465 6.515283 30.381738 -0.636255 1.354670 0.106926 0.001065 347559.000000 0 0 1
24.853432 -18.632565 6.322583 31.699221 -0.643308 1.369994 0.110908 -0.004526 46102.600000 0 0 1
24.383432 -19.897865 6.701383 32.177404 -0.684445 1.360997 0.074326 0.003700 121088.000000 0 0 1
2.370632 23.153231 -3.328717 23.511111 1.468763 1.712854 0.029580 -0.026130 334908.000000 0 1 0
3.041732 24.323731 -2.807617 24.673442 1.446390 1.684834 0.045962 -0.026943 290183.000000 0 1 0
3.654632 25.150131 -3.827917 25.700941 1.426494 1.720293 0.064323 -0.024444 326316.000000 0 0 1
4.736632 26.106831 -3.270317 26.733823 1.391316 1.693432 0.047475 -0.019809 -314942.000000 0 0 1
5.859832 25.469731 -2.725617 26.276869 1.344661 1.674710 0.045169 -0.019935 -316349.000000 0 0 1
6.572532 26.399731 -1.881517 27.270572 1.326795 1.639846 0.035637 -0.014151 -2907.510000 0 0 1
7.718032 25.622831 -1.210017 26.787341 1.278223 1.615983 0.024849 -0.027327 -582307.000000 0 0 1
8.644532 25.165131 -2.152817 26.695437 1.239913 1.651528 0.028488 -0.026267 -592530.000000 0 0 1
9.495532 24.218431 -1.525217 26.058086 1.197137 1.629361 0.027075 -0.025489 323159.000000 0 0 1
10.660932 23.799431 -2.489117 26.196643 1.149649 1.665957 0.053670 -0.021424 249597.000000 0 0 1
11.551032 24.859131 -2.772017 27.551530 1.135819 1.671579 0.055677 -0.012404 174708.000000 0 0 1
12.610632 24.724131 -3.690617 27.998774 1.099138 1.702995 0.078609 -0.020846 1561190.000000 0 0 1
13.821632 23.708231 -3.535217 27.669758 1.042979 1.698911 0.079293 -0.015527 657484.000000 0 0 1
13.375632 22.400831 -3.741617 26.357247 1.032509 1.713235 0.092581 -0.019326 3601.920000 0 0 1
13.101932 21.975931 -5.075717 26.083809 1.033180 1.766638 0.118260 -0.031510 -511476.000000 0 0 1
12.102632 20.833531 -5.096017 24.626797 1.044524 1.779232 0.114489 -0.038311 305190.000000 0 1 0
10.783632 21.261231 -4.729517 24.304218 1.101408 1.766642 0.104280 -0.030971 518794.000000 0 1 0
9.843832 20.203231 -4.725417 22.965216 1.117408 1.778041 0.080507 -0.025804 809021.000000 0 1 0
8.355632 20.690731 -4.671617 22.797959 1.186989 1.777172 0.060937 -0.022731 674278.000000 0 1 0
7.897932 21.199331 -3.418917 22.879641 1.214170 1.720789 0.057570 -0.020362 -61620.700000 0 1 0
6.625632 21.782031 -3.554717 23.043261 1.275510 1.725678 0.051602 -0.008858 107434.000000 0 1 0
6.105132 22.446431 -2.244217 23.369883 1.305234 1.666975 0.044679 -0.013720 40803.700000 0 1 0
5.631832 21.554931 -1.247217 22.313407 1.315231 1.626721 0.039263 -0.016673 -158111.000000 0 1 0
4.841632 22.177331 -0.278417 22.701386 1.355854 1.583061 0.043016 -0.018611 -47539.900000 0 1 0
4.242932 21.162631 0.752683 21.596897 1.372928 1.535938 0.026866 -0.022629 269633.000000 0 1 0
3.443032 21.898931 1.705083 22.233420 1.414849 1.494031 0.018222 -0.014804 458518.000000 0 1 0
3.228832 21.043731 2.833083 21.477671 1.418549 1.438502 0.026272 -0.011990 -92167.700000 0 1 0
2.250832 21.551531 3.899783 22.016881 1.466734 1.392730 0.026311 -0.019893 742124.000000 0 1 0
0.865632 21.523331 3.529683 21.828004 1.530600 1.408379 0.023341 -0.025058 77113.000000 0 1 0
0.049432 21.995731 4.546783 22.460807 1.568549 1.366956 0.036061 -0.031184 -407665.000000 0 1 0
-1.381968 22.189331 4.054783 22.599060 -1.508596 1.390397 0.039660 -0.027616 -218708.000000 0 1 0
-2.342568 22.555531 5.050283 23.232412 -1.467310 1.351666 0.067648 -0.036002 231007.000000 0 1 0
-3.580168 22.610631 4.352983 23.302504 -1.413760 1.382889 0.089017 -0.039874 252506.000000 0 1 0
-4.883968 22.823231 5.134283 23.897989 -1.359985 1.354267 0.117532 -0.053668 -115342.000000 0 1 0
-5.186368 24.035931 5.651983 25.230325 -1.358279 1.344864 0.146613 -0.042641 570566.000000 0 0 1
-6.530668 24.032331 6.177683 25.658650 -1.305459 1.327643 0.164833 -0.044938 947058.000000 0 0 1
-6.917768 25.460531 6.599683 27.196507 -1.305496 1.325683 0.169626 -0.046712 -137336.000000 0 0 1
-6.168268 26.021131 7.662783 27.818430 -1.338044 1.291731 0.134261 -0.053993 26350.400000 0 0 1
-6.864868 27.033931 8.391983 29.127053 -1.322117 1.278537 0.165719 -0.045894 165161.000000 0 0 1
-7.075368 28.412531 7.653683 30.264032 -1.326738 1.315123 0.171779 -0.043391 619655.000000 0 0 1
-8.217668 28.218131 6.815083 30.170157 -1.287414 1.342942 0.152009 -0.050446 -134421.000000 0 0 1
-8.428168 29.349131 6.012383 31.121604 -1.291152 1.376384 0.179302 -0.046970 -36226.200000 0 0 1
-9.900168 29.632131 5.610583 31.742009 -1.248354 1.393107 0.186213 -0.042355 972972.000000 0 0 1
-10.798468 30.174531 6.608883 32.722875 -1.227130 1.367432 0.158116 -0.044496 256761.000000 0 0 1
-11.309968 29.152231 7.431483 32.140238 -1.200710 1.337464 0.121638 -0.040389 -596962.000000 0 0 1
-12.137868 29.744331 8.576383 33.250675 -1.183350 1.309916 0.078165 -0.036902 350929.000000 0 0 1
-11.265868 30.253631 9.607583 33.682453 -1.214324 1.281539 0.099474 -0.039629 757778.000000 0 0 1
-12.066768 30.883331 10.596783 34.809178 -1.198315 1.261462 0.087355 -0.037182 351836.000000 0 0 1
-11.196168 31.363831 11.790483 35.327887 -1.227919 1.230523 0.081725 -0.044364 -32380.000000 0 0 1
-10.517868 32.583431 11.506083 36.120569 -1.258557 1.246601 0.093608 -0.042808 256922.000000 0 0 1
-9.599568 32.889931 12.542183 36.485691 -1.286815 1.219882 0.085690 -0.050152 229247.000000 0 0 1
-9.440668 -33.244165 12.718983 36.824900 1.294101 1.218141 0.098748 -0.044986 -326439.000000 0 0 1
-10.562568 -32.656565 13.299283 36.808831 1.257972 1.201127 0.092181 -0.034653 -315418.000000 0 0 1
-10.325768 -31.274965 13.481883 35.588005 1.251904 1.182262 0.094645 -0.023882 770802.000000 0 0 1
-11.588068 -30.511865 14.042783 35.531071 1.207834 1.164483 0.082061 -0.029969 522306.000000 0 0 1
-11.758068 -30.668765 15.433183 36.290611 1.204691 1.131540 0.069844 -0.034292 481904.000000 0 0 1
-10.906468 -29.786365 16.198083 35.616801 1.219801 1.098662 0.078910 -0.032188 421873.000000 0 0 1
-11.013868 -30.141765 17.709683 36.653297 1.220467 1.066527 0.079438 -0.043396 758014.000000 0 0 1
-12.167968 -29.559665 18.357483 36.862317 1.180295 1.049504 0.087127 -0.046456 841997.000000 0 0 1
-12.487268 -30.184465 19.552083 38.069906 1.178537 1.031440 0.090502 -0.051396 -287634.000000 0 0 1
-12.737568 -29.199465 20.703483 37.993271 1.159456 0.994497 0.113915 -0.052612 683.960000 0 0 1
-11.572068 -28.549265 21.162683 37.374222 1.185698 0.968863 0.098471 -0.056880 253118.000000 0 0 1
-11.879968 -27.824065 22.351883 37.615408 1.167260 0.934499 0.112125 -0.053621 -267112.000000 0 0 1
-10.656368 -27.634365 23.227983 37.639813 1.202748 0.905729 0.131423 -0.053212 -147149.000000 0 0 1
-10.197068 -28.850565 23.875283 38.811911 1.231056 0.908216 0.110528 -0.038427 975297.000000 0 0 1
-8.895868 -28.687565 24.477483 38.746097 1.270104 0.887000 0.139226 -0.031848 1011090.000000 0 0 1
-8.444368 -29.661965 25.595583 40.078341 1.293447 0.878068 0.128723 -0.028413 99339.300000 0 0 1
-8.441068 -31.004465 25.037483 40.735783 1.304985 0.908878 0.123128 -0.010740 260399.000000 0 0 1
-8.143468 -31.932465 26.071183 42.020293 1.321097 0.901489 0.122334 -0.010945 -174311.000000 0 0 1
-8.607168 -33.356965 25.800983 43.040228 1.318272 0.927967 0.119474 -0.010435 -639323.000000 0 0 1
-7.748368 33.651431 24.935783 42.594006 -1.344487 0.945387 0.111446 -0.013317 -125550.000000 0 0 1
-8.066268 32.298631 24.638083 41.416197 -1.326062 0.933667 0.068032 -0.009553 -361982.000000 0 0 1
-8.941668 31.998331 23.437783 40.659271 -1.298305 0.956426 0.076240 -0.015759 -221997.000000 0 0 1
-9.267568 30.598731 23.365283 39.599326 -1.276705 0.939685 0.085358 -0.012438 193713.000000 0 0 1
-9.988768 30.333131 22.171283 38.877244 -1.252678 0.963938 0.070697 -0.022455 -108420.000000 0 0 1
-10.437968 28.830631 21.957583 37.713286 -1.223432 0.949335 0.076773 -0.020896 -154793.000000 0 0 1
-9.515968 27.774331 21.730383 36.526383 -1.240714 0.933627 0.060885 -0.017694 -105530.000000 0 0 1
-9.903868 26.567731 22.357883 36.108252 -1.213975 0.903085 0.048905 -0.012917 281287.000000 0 0 1
-8.869768 25.406031 22.128483 34.839761 -1.234905 0.882593 0.064953 -0.012056 734513.000000 0 0 1
-7.629068 25.487431 22.807983 35.043058 -1.279957 0.862085 0.044005 -0.024309 129093.000000 0 0 1
-6.875968 24.276431 22.738083 33.965342 -1.294789 0.837329 0.038336 -0.020506 738029.000000 0 0 1
-5.468868 24.500831 23.385983 34.308941 -1.351185 0.820809 0.042418 -0.027026 295530.000000 0 0 1
-4.544568 25.151431 22.572283 34.099202 -1.392037 0.847367 0.061496 -0.019785 -754080.000000 0 0 1
-3.286568 25.276731 23.178583 34.452306 -1.441498 0.832846 0.064228 -0.025189 -440627.000000 0 0 1
-2.248068 25.780331 22.184283 34.085506 -1.483815 0.862103 0.071476 -0.014449 -579085.000000 0 0 1
-1.820468 24.809731 21.318483 32.761480 -1.497550 0.862267 0.041839 -0.008198 -288241.000000 0 0 1
-1.382368 25.301331 20.086383 32.334673 -1.516214 0.900520 0.044411 -0.006538 -25098.800000 0 0 1
-1.001068 24.111431 19.181083 30.826567 -1.529302 0.899214 0.034331 -0.009685 67177.900000 0 0 1
0.101732 23.313531 19.602883 30.459877 1.566433 0.871651 0.040325 -0.008322 -21456.200000 0 0 1
0.299832 22.206231 18.729783 29.051874 1.557295 0.870164 0.043243 -0.007556 750457.000000 0 0 1
1.584832 21.447331 19.245783 28.860005 1.497036 0.840800 0.050756 -0.013368 1660600.000000 0 0 1
2.862632 22.092631 19.125083 29.360651 1.441940 0.861388 0.049142 -0.017269 1068330.000000 0 0 1
3.955032 21.208231 19.418483 29.026003 1.386428 0.837930 0.053268 -0.018451 -174138.000000 0 0 1
5.297632 21.781931 19.033283 29.407198 1.332216 0.866848 0.063454 -0.018140 -1018730.000000 0 0 1
6.301532 20.811831 19.127483 28.960356 1.276785 0.849350 0.069125 -0.024483 -1510300.000000 0 0 1
7.497332 21.387031 18.804083 29.448406 1.233627 0.878192 0.089841 -0.029465 -808365.000000 0 0 1
8.663532 20.420431 18.422383 28.834615 1.169554 0.877731 0.082609 -0.015407 108133.000000 0 0 1
9.104032 19.645031 19.523683 29.154500 1.136833 0.837042 0.080933 -0.022931 103718.000000 0 0 1
10.167132 18.817631 19.066583 28.653244 1.075432 0.842733 0.076712 -0.022917 232024.000000 0 0 1
10.702232 17.833931 20.136883 28.949628 1.030300 0.801565 0.081390 -0.018991 656875.000000 0 0 1
9.733032 16.835231 20.589583 28.321156 1.046609 0.756848 0.077864 -0.019494 864492.000000 0 0 1
10.260332 16.219531 21.745883 29.003983 1.006757 0.723104 0.075088 -0.024682 -31230.000000 0 0 1
9.392132 15.030731 22.233283 28.433324 1.012296 0.673017 0.070641 -0.022829 396877.000000 0 0 1
8.197732 15.514931 22.856683 28.815688 1.084706 0.654746 0.072501 -0.002992 216968.000000 0 0 1
7.266332 14.563331 23.287383 28.411132 1.107991 0.609984 0.066373 -0.000441 -134754.000000 0 0 1
7.747932 13.564431 24.403183 28.974810 1.051826 0.569407 0.082612 -0.008850 -438846.000000 0 0 1
7.926532 14.174931 25.632383 30.344318 1.060922 0.564759 0.097501 -0.012236 65096.700000 0 0 1
8.094232 13.293731 26.724183 30.926071 1.023876 0.527375 0.113526 -0.018384 -510702.000000 0 0 1
9.039732 13.833731 27.803083 32.343474 0.991996 0.536272 0.095631 -0.008072 -57943.900000 0 0 1
10.427032 13.718031 27.581583 32.521549 0.920864 0.558404 0.123455 -0.008645 -235712.000000 0 0 1
10.971232 14.825331 26.990783 32.690377 0.933705 0.599444 0.102333 -0.003353 -257922.000000 0 0 1
12.202532 14.411031 26.125383 32.235311 0.868192 0.625862 0.115545 -0.015413 323352.000000 0 0 1
11.859332 13.744031 24.906783 30.820286 0.858877 0.629827 0.111978 -0.029681 -654232.000000 0 0 1
13.000032 13.274431 24.289883 30.581200 0.795841 0.652983 0.140699 -0.043653 -1135220.000000 0 0 1
12.740632 12.370031 23.058683 29.104025 0.770641 0.656251 0.108704 -0.041648 137140.000000 0 0 1
12.344032 11.004531 23.292883 28.566296 0.728091 0.617381 0.114893 -0.033800 320586.000000 0 0 1
11.102432 10.858031 23.960683 28.553024 0.774269 0.575051 0.113738 -0.033242 -377931.000000 0 0 1
10.911532 9.442931 24.434083 28.377014 0.713372 0.533462 0.118470 -0.030638 -57623.400000 0 0 1
10.827632 8.483031 23.359383 27.108306 0.664575 0.532174 0.117224 -0.024900 150052.000000 0 0 1
10.677032 7.190631 23.825583 27.080669 0.592696 0.495354 0.112155 -0.026952 -287685.000000 0 0 1
11.139732 6.119931 22.810183 26.112289 0.502366 0.508364 0.117610 -0.038045 -138445.000000 0 0 1
12.548232 6.040931 22.689183 26.622359 0.448671 0.550505 0.129619 -0.032764 322949.000000 0 0 1
12.957032 4.879831 21.929783 25.934780 0.360187 0.563156 0.142992 -0.039829 -73130.600000 0 0 1
12.643232 3.503131 22.525983 26.068049 0.270295 0.527392 0.124573 -0.042929 -805988.000000 0 0 1
13.546832 3.122331 23.530983 27.330803 0.226528 0.533624 0.134117 -0.037527 195482.000000 0 0 1
13.102232 1.919931 24.198083 27.584450 0.145499 0.500722 0.119675 -0.030148 -153344.000000 0 0 1
14.242332 1.265931 25.037183 28.832398 0.088652 0.518891 0.082397 -0.017837 -176773.000000 0 0 1
15.158132 0.608931 24.239083 28.594981 0.040150 0.559220 0.114638 -0.027089 27505.100000 0 0 1
16.437532 1.251731 24.202783 29.283682 0.076004 0.597946 0.104634 -0.034873 -27986.700000 0 0 1
17.359432 0.688831 23.120683 28.920415 0.039660 0.644402 0.114380 -0.037353 -594198.000000 0 0 1
17.812032 -0.597069 23.502983 29.496020 -0.033508 0.648785 0.108525 -0.037059 302415.000000 0 0 1
18.599732 -1.334569 22.555283 29.265542 -0.071629 0.690840 0.136794 -0.031474 411115.000000 0 0 1
18.805532 -2.795969 23.015383 29.852527 -0.147597 0.690435 0.116666 -0.026809 96945.300000 0 0 1
17.708332 -3.599869 22.634083 28.962835 -0.200554 0.673751 0.108080 -0.016591 42138.800000 0 0 1
17.775432 -4.967869 23.063683 29.539452 -0.272526 0.674890 0.121344 -0.013686 401317.000000 0 0 1
16.777832 -5.993069 22.380183 28.605684 -0.343076 0.672337 0.126965 -0.017727 267040.000000 0 0 1
16.905832 -6.075469 20.968983 27.611895 -0.344999 0.708377 0.123083 -0.019198 271041.000000 0 0 1
16.339832 -7.378369 20.552383 27.273264 -0.424148 0.717316 0.148461 -0.031035 251653.000000 0 0 1
17.213332 -8.648069 20.835183 28.375919 -0.465570 0.746227 0.155571 -0.036280 118063.000000 0 0 1
17.171132 -9.197969 22.110183 29.467111 -0.491771 0.722229 0.138028 -0.028095 -175434.000000 0 0 1
18.108932 -10.225869 22.178383 30.403659 -0.514049 0.753258 0.109661 -0.037581 -398182.000000 0 0 1
17.693432 -11.312369 23.240283 31.323123 -0.568855 0.734818 0.111599 -0.040788 238697.000000 0 0 1
16.481032 -11.976169 22.931983 30.674564 -0.628398 0.726371 0.147770 -0.049563 201262.000000 0 0 1
16.056432 -12.799969 24.011483 31.594296 -0.673023 0.707492 0.154263 -0.039765 -197824.000000 0 0 1
14.829232 -13.648169 23.699983 31.110575 -0.743948 0.704712 0.174505 -0.046122 -213527.000000 0 0 1
15.158632 -14.582969 22.612183 30.882972 -0.766045 0.749265 0.192616 -0.048663 588260.000000 0 0 1
13.959532 -15.179069 22.155583 30.267847 -0.827227 0.749567 0.190567 -0.040738 180309.000000 0 0 1
14.241132 -16.040569 20.930083 29.969619 -0.844752 0.797669 0.174569 -0.041502 76583.400000 0 0 1
14.925132 -17.227169 21.298583 31.195586 -0.856874 0.819285 0.192457 -0.045656 107134.000000 0 0 1
15.162432 -17.922169 20.154083 30.940113 -0.868620 0.861381 0.173096 -0.031543 -151419.000000 0 0 1
-24.089768 -31.933965 25.821498 47.611394 0.924509 0.997578 0.065818 -0.035155 -433063.000000 0 0 1
-24.873068 -33.076165 25.563058 48.643316 0.926020 1.017470 0.056884 -0.027589 -80391.000000 0 0 1
-26.135858 -32.995765 26.182298 49.571326 0.900893 1.014347 0.046994 -0.035871 -134176.000000 0 0 1
-26.203318 -33.587465 27.610908 50.765086 0.908276 0.995724 0.038975 -0.032045 -134105.000000 0 0 1
-27.441548 -33.201465 28.182858 51.474745 0.880095 0.991412 0.057015 -0.032894 571804.000000 0 0 1
-27.339418 -33.350865 29.548098 52.276324 0.884127 0.970085 0.037424 -0.033569 -234910.000000 0 0 1
-28.512408 -32.621165 30.224268 52.826170 0.852507 0.961677 0.035779 -0.034549 -256673.000000 0 0 1
-28.501648 -31.210465 30.115608 51.897851 0.830732 0.951716 0.033451 -0.026248 -3130.900000 0 0 1
-29.587288 -30.654665 30.816078 52.580859 0.803114 0.944596 0.029522 -0.005676 -452345.000000 0 0 1
-29.733448 -29.124265 30.671958 51.701738 0.775048 0.935709 0.019527 -0.007244 -368308.000000 0 0 1
-30.498218 -28.845265 29.551098 51.336712 0.757551 0.957418 0.018740 -0.003889 -89363.000000 0 0 1
-30.566078 -27.439065 29.518088 50.581666 0.731541 0.947675 0.033222 -0.000201 170833.000000 0 0 1
-31.340238 -26.966765 28.241548 50.069971 0.710531 0.971524 0.026765 -0.010883 187052.000000 0 0 1
-30.607448 -27.119865 27.008078 49.007543 0.725057 0.987114 0.040290 -0.008923 423530.000000 0 0 1
-30.037518 -25.882265 26.590978 47.741222 0.711227 0.980049 0.030413 -0.006420 7019.280000 0 0 1
-29.171438 -26.052765 25.309428 46.586334 0.728985 0.996457 0.030480 -0.008388 126787.000000 0 0 1
-29.863868 -26.090865 24.064868 46.386439 0.718071 1.025360 0.015490 -0.014319 213156.000000 0 0 1
-28.914868 -26.206065 23.022868 45.308718 0.736295 1.037780 0.024442 0.007183 -22565.500000 0 0 1
-29.523118 -26.289865 21.598688 45.047473 0.727533 1.070751 0.021725 0.003667 -139562.000000 0 0 1
-30.136108 -25.155365 21.073188 44.553975 0.695559 1.078125 0.033908 -0.012171 -101274.000000 0 0 1
-30.599608 -25.377665 19.788888 44.406779 0.692381 1.108921 0.040285 0.001322 -199994.000000 0 0 1
-31.298778 -24.140565 19.160188 43.925997 0.656991 1.119433 0.060958 -0.000445 1249020.000000 0 0 1
-32.645998 -24.002165 19.702688 45.056198 0.633978 1.118212 0.087896 -0.010310 1076330.000000 0 0 1
-33.215698 -22.809965 19.306988 44.680386 0.601759 1.123962 0.086686 -0.002028 321034.000000 0 0 1
-34.748422 -22.633965 19.526488 45.837026 0.577335 1.130731 0.091984 0.000551 281425.000000 0 0 1
-35.618946 -23.491065 18.858888 46.649728 0.583032 1.154620 0.083199 -0.014260 109098.000000 0 0 1
-36.935498 -22.987265 18.860188 47.416791 0.556700 1.161729 0.074241 -0.015970 222873.000000 0 0 1
37.303870 -23.668965 17.956988 47.689118 -0.565395 1.184735 0.076889 -0.014526 314208.000000 0 0 1
36.787930 -24.924065 18.420788 48.102871 -0.595470 1.177813 0.072192 -0.008021 -339634.000000 0 0 1
36.037680 -25.585165 17.438588 47.512308 -0.617377 1.194979 0.075381 -0.001941 21185.600000 0 0 1
35.743200 -27.002565 17.907888 48.243210 -0.646986 1.190495 0.081552 0.005356 366246.000000 0 0 1
34.784230 -27.143565 18.974188 48.028487 -0.662638 1.164662 0.070236 -0.002132 483647.000000 0 0 1
35.213660 -26.581465 20.247188 48.544049 -0.646606 1.140556 0.084990 0.003434 -226646.000000 0 0 1
34.069160 -26.532065 21.273188 48.137373 -0.661662 1.113051 0.067070 0.004873 321823.000000 0 0 1
32.934030 -25.807865 20.840888 46.744399 -0.664675 1.108675 0.056519 0.005738 123799.000000 0 0 1
31.935950 -25.577665 21.820988 46.371083 -0.675293 1.080856 0.061319 0.003968 358223.000000 0 0 1
30.911640 -24.532465 21.218588 44.806247 -0.670846 1.077464 0.056544 0.010299 -19827.100000 0 0 1
31.265470 -23.168265 20.889988 44.166613 -0.637728 1.078125 0.039383 0.013714 121.878000 0 0 1
31.894470 -22.428365 21.930388 44.735117 -0.612874 1.058445 0.066624 0.002458 19664.300000 0 0 1
32.793020 -21.210365 21.591488 44.625711 -0.574119 1.065765 0.055367 -0.002748 -269104.000000 0 0 1
31.959760 -20.239365 21.013288 43.273738 -0.564529 1.063759 0.042416 -0.010417 83758.200000 0 0 1
32.654140 -19.093765 20.555588 43.051096 -0.529114 1.073024 0.047640 -0.007870 -740286.000000 0 0 1
31.772220 -17.860265 20.731288 41.931484 -0.512112 1.053642 0.013997 0.005326 -96411.600000 0 0 1
31.406260 -17.638765 22.067688 42.242893 -0.511730 1.021133 0.046812 -0.012274 560403.000000 0 0 1
30.329010 -18.440465 22.563688 42.059715 -0.546291 1.004550 0.051442 -0.015855 -771849.000000 0 0 1
30.155990 -18.224665 24.100018 42.688792 -0.543609 0.970907 0.049505 -0.018568 -54987.900000 0 0 1
29.865490 -16.867365 24.490488 42.145456 -0.514118 0.950724 0.059841 -0.018626 222426.000000 0 0 1
29.584590 -16.781065 25.856858 42.725042 -0.515970 0.920789 0.064005 -0.023580 -222188.000000 0 0 1
29.586390 -15.272265 26.353108 42.462723 -0.476517 0.901266 0.036843 -0.018075 -667187.000000 0 0 1
28.460090 -14.528565 26.027818 41.212901 -0.472004 0.887252 0.057068 -0.015617 -276167.000000 0 0 1
28.588390 -13.145365 26.365708 41.051763 -0.430986 0.873359 0.044525 -0.020586 -91705.300000 0 0 1
29.440990 -12.235165 25.464498 40.803331 -0.393867 0.896844 0.053659 -0.025782 -429794.000000 0 0 1
28.709090 -11.695865 24.371738 39.433320 -0.386863 0.904537 0.052941 -0.020062 90465.200000 0 0 1
29.340790 -10.808765 23.464328 39.093299 -0.352960 0.927028 0.061446 -0.015379 323263.000000 0 0 1
30.512710 -11.327265 22.507988 39.571984 -0.355462 0.965767 0.058066 -0.026116 734272.000000 0 0 1
30.102490 -12.272765 21.546888 39.000629 -0.387126 0.985465 0.046335 -0.022688 99566.700000 0 0 1
30.343390 -13.594165 21.948088 39.840196 -0.421198 0.987350 0.047782 -0.025639 -130001.000000 0 0 1
29.824590 -14.653865 20.920688 39.267252 -0.456692 1.008918 0.041647 -0.019527 -425308.000000 0 0 1
30.381380 -14.550365 19.629188 38.987772 -0.446645 1.043186 0.043487 -0.022805 -524676.000000 0 0 1
29.805690 -15.346765 18.651988 38.364033 -0.475492 1.063078 0.048839 -0.030070 -602617.000000 0 0 1
30.249190 -15.136165 17.161988 37.929551 -0.463954 1.101263 0.063948 -0.037377 -176697.000000 0 0 1
29.834590 -16.202765 16.268588 37.647036 -0.497520 1.123938 0.061844 -0.043930 1606260.000000 0 0 1
28.392490 -16.239965 16.029788 36.425596 -0.519562 1.115120 0.093226 -0.044552 1281700.000000 0 0 1
27.934590 -15.208165 14.893288 35.120359 -0.498549 1.132868 0.106524 -0.044076 -319943.000000 0 0 1
27.963990 -15.692465 13.537888 34.806789 -0.511376 1.171311 0.122849 -0.046726 250305.000000 0 0 1
26.870290 -16.553565 13.278888 34.239770 -0.552141 1.172530 0.134551 -0.048444 -180502.000000 0 0 1
26.842590 -17.233265 11.899088 34.045533 -0.570739 1.213753 0.116579 -0.022113 -504858.000000 0 0 1
26.497390 -16.450065 10.803088 33.006409 -0.555587 1.237349 0.147619 -0.018554 -117986.000000 0 0 1
26.540590 -17.218965 9.598888 33.061069 -0.575516 1.276216 0.120599 -0.017034 867935.000000 0 0 1
27.980390 -17.564065 9.055288 34.254880 -0.560558 1.303266 0.127115 -0.007896 463515.000000 0 0 1
28.742090 -18.331365 9.885788 35.494725 -0.567743 1.288549 0.115283 -0.000546 427866.000000 0 0 1
30.147490 -18.348465 9.534188 36.557325 -0.546736 1.306944 0.122206 0.002345 1223120.000000 0 0 1
30.992760 -19.200265 10.486988 37.936503 -0.554640 1.290713 0.104483 -0.019420 -315953.000000 0 0 1
30.940920 -18.644165 11.804988 38.003989 -0.542309 1.254946 0.089283 -0.036744 81912.000000 0 0 1
31.477050 -19.521965 12.745988 39.171061 -0.555138 1.239369 0.054256 -0.035569 -292341.000000 0 0 1
31.123540 -19.061565 14.165088 39.149300 -0.549523 1.200574 0.067495 -0.027384 10325.400000 0 0 1
31.362050 -19.994965 15.249988 40.198743 -0.567575 1.181687 0.065513 -0.025634 31647.500000 0 0 1
30.965130 -19.480265 16.481288 40.124218 -0.561545 1.147513 0.069964 -0.038293 -102241.000000 0 0 1
30.674910 -20.555465 17.567788 40.891373 -0.590380 1.126723 0.059383 -0.025339 580673.000000 0 0 1
29.511190 -21.282765 17.115088 40.209360 -0.624797 1.131117 0.012535 -0.012801 482632.000000 0 0 1
29.173190 -22.232765 18.080088 40.893281 -0.651198 1.112826 0.029526 -0.009345 510916.000000 0 0 1
27.764390 -22.890665 17.939088 40.207646 -0.689479 1.108325 0.044178 -0.001522 919332.000000 0 0 1
26.646690 -22.090665 18.319888 39.161995 -0.692188 1.083999 0.055135 -0.001205 211723.000000 0 0 1
25.464290 -22.841265 18.334888 38.811359 -0.731151 1.078773 0.070779 -0.013807 439877.000000 0 0 1
24.245890 -22.197265 19.092188 38.014384 -0.741316 1.044614 0.067637 -0.013884 382658.000000 0 0 1
23.602790 -21.084865 18.484088 36.651395 -0.729113 1.042200 0.073654 -0.020752 430424.000000 0 0 1
22.442090 -20.576665 19.140988 35.964204 -0.742062 1.009572 0.088971 -0.019210 472166.000000 0 0 1
22.557590 -19.885765 20.485388 36.385981 -0.722531 0.972782 0.078307 -0.014988 -372500.000000 0 0 1
23.138890 -20.744365 21.462688 37.767498 -0.730886 0.966377 0.077319 -0.019350 117479.000000 0 0 1
23.202590 -20.214165 22.792758 38.294679 -0.716675 0.933289 0.059637 -0.019523 -126701.000000 0 0 1
23.664090 -21.197765 23.823688 39.710232 -0.730477 0.927372 0.054591 -0.014195 346221.000000 0 0 1
22.688890 -22.213065 24.163538 39.900909 -0.774802 0.920291 0.078908 -0.013960 420718.000000 0 0 1
23.258090 -23.355765 24.761068 41.225490 -0.787494 0.926513 0.082586 -0.012419 -100354.000000 0 0 1
22.336990 -24.306565 25.625028 41.789859 -0.827599 0.910707 0.085823 -0.014488 632009.000000 0 0 1
21.444690 -25.144965 24.847028 41.346327 -0.864654 0.926109 0.097850 -0.014157 862624.000000 0 0 1
20.471690 -25.735865 25.719268 41.748121 -0.898834 0.907068 0.114403 -0.025501 21762.000000 0 0 1
19.527390 -26.668565 24.970238 41.425163 -0.938769 0.923816 0.120770 -0.030345 -310425.000000 0 0 1
18.534790 -25.953165 24.261718 40.071638 -0.950628 0.920454 0.125264 -0.029501 327017.000000 0 0 1
17.738090 -26.854065 23.509828 39.855899 -0.987050 0.939898 0.118682 -0.030539 256130.000000 0 0 1
16.815490 -26.204765 22.407788 38.360909 -1.000281 0.946988 0.124783 -0.035020 259701.000000 0 0 1
15.477690 -25.938465 22.752578 37.815905 -1.032801 0.925210 0.119745 -0.037506 -224012.000000 0 0 1
14.904590 -25.213065 21.711488 36.458664 -1.036913 0.932896 0.095013 -0.030233 290678.000000 0 0 1
13.463090 -24.654765 21.890488 35.613280 -1.070980 0.908826 0.084463 -0.019274 819617.000000 0 0 1
12.440190 -25.652765 21.920988 35.963209 -1.119265 0.915317 0.079240 -0.019284 1097280.000000 0 0 1
11.138090 -25.051865 21.737488 34.988161 -1.152441 0.900420 0.071097 -0.012362 1319740.000000 0 0 1
9.925990 -26.016265 21.863188 35.402970 -1.206313 0.905169 0.073893 -0.013554 265271.000000 0 0 1
9.887590 -26.962965 20.841388 35.484213 -1.219313 0.943025 0.088347 -0.020860 438099.000000 0 0 1
8.621190 -27.612065 20.888988 35.680539 -1.268162 0.945368 0.097958 -0.026224 374704.000000 0 0 1
8.347390 -28.571865 19.663788 35.674850 -1.286553 0.987001 0.119319 -0.034596 129966.000000 0 0 1
9.022190 -29.827665 19.695088 36.864427 -1.277068 1.007167 0.123752 -0.033782 260235.000000 0 0 1
8.661390 -30.629965 18.595788 36.864858 -1.295216 1.042073 0.134449 -0.039496 18466.000000 0 0 1
9.165990 -32.061965 18.774088 38.268151 -1.292340 1.058026 0.129451 -0.040769 -229530.000000 0 0 1
8.536190 -32.800465 19.744988 39.225012 -1.316198 1.043293 0.126658 -0.039509 16576.000000 0 0 1
9.358590 33.766431 20.072888 40.381628 1.300426 1.050566 0.117930 -0.044376 43013.000000 0 0 1
8.732690 32.810131 21.111688 39.980845 1.310669 1.014499 0.127499 -0.045190 -761935.000000 0 0 1
7.840890 31.995031 20.476188 38.787058 1.330467 1.014655 0.120658 -0.046843 -672442.000000 0 0 1
7.772990 30.767631 21.162088 38.143158 1.323339 0.982665 0.113221 -0.052930 -285167.000000 0 0 1
6.711390 29.810731 20.619488 36.863067 1.349355 0.977191 0.109169 -0.046751 219464.000000 0 0 1
5.387290 30.122831 21.032988 37.132121 1.393823 0.968621 0.112351 -0.046690 -83322.600000 0 0 1
4.471690 29.145131 20.698688 36.025968 1.418555 0.958743 0.111162 -0.042866 582552.000000 0 0 1
3.008790 29.292931 21.248888 36.313136 1.468441 0.945723 0.091679 -0.034183 907604.000000 0 0 1
2.974890 28.881931 22.642228 36.819647 1.468157 0.908474 0.068686 -0.035447 -445551.000000 0 0 1
1.629790 28.708931 22.965318 36.800337 1.514088 0.896879 0.065214 -0.027350 -361559.000000 0 0 1
1.376690 28.228831 24.449858 37.370546 1.522066 0.857600 0.069659 -0.021950 -61296.500000 0 0 1
1.692590 29.201331 25.422728 38.754325 1.512898 0.855293 0.090070 -0.022304 23401.700000 0 0 1
1.313890 28.797031 26.698358 39.291190 1.525202 0.823716 0.091786 -0.024130 -209654.000000 0 0 1
2.283890 27.881331 27.463238 39.202222 1.489064 0.794624 0.076379 -0.025571 -298722.000000 0 0 1
2.471090 26.600231 26.957858 37.952664 1.478165 0.780869 0.063242 -0.024440 21024.700000 0 0 1
3.397290 25.906731 27.758258 38.121138 1.440405 0.755164 0.048591 -0.021893 62132.300000 0 0 1
4.128090 24.749131 27.035218 36.884463 1.405520 0.748118 0.044796 -0.004545 61914.000000 0 0 1
3.237690 23.675431 26.751318 35.869788 1.434886 0.729077 0.053616 -0.003359 -4959.360000 0 0 1
3.827190 22.496531 26.264338 34.793056 1.402286 0.715336 0.054728 0.003594 -675575.000000 0 0 1
2.809090 21.386631 26.199708 33.936760 1.440196 0.688790 0.065632 0.006763 -602142.000000 0 0 1
3.240890 20.051031 26.224438 33.170294 1.410550 0.659008 0.081670 0.009526 -89171.900000 0 0 1
4.069790 19.616231 25.157018 32.159529 1.366228 0.672516 0.089385 0.002349 -102940.000000 0 0 1
4.455190 18.142731 25.359938 31.498157 1.329998 0.634911 0.087356 -0.006419 83958.400000 0 0 1
5.467090 17.843131 26.295278 32.244504 1.273481 0.617210 0.062289 0.003013 341907.000000 0 0 1
6.724590 17.538031 25.700828 31.832926 1.204656 0.631122 0.062595 0.009921 99711.300000 0 0 1
7.923690 17.472631 26.694698 32.873768 1.145043 0.623163 0.059802 0.003667 297143.000000 0 0 1
8.298290 18.703931 27.249048 34.076521 1.153223 0.644096 0.057059 0.006449 -176171.000000 0 0 1
8.958190 19.585631 26.422278 34.087870 1.141817 0.683887 0.047659 -0.007141 -726298.000000 0 0 1
9.343490 20.919531 27.091028 35.480296 1.150740 0.702001 0.035687 -0.005386 461454.000000 0 0 1
10.409190 20.763831 28.036888 36.408172 1.106098 0.691843 0.046607 -0.017131 375720.000000 0 0 1
10.727590 21.984531 28.708488 37.717079 1.116826 0.705706 0.073003 -0.029511 425011.000000 0 0 1
11.821690 21.801931 29.845598 38.805106 1.073937 0.693341 0.077751 -0.031281 1294450.000000 0 0 1
13.118790 21.534631 29.260218 38.626459 1.023643 0.711294 0.071832 -0.035128 451349.000000 0 0 1
14.019990 21.561531 30.358438 39.788120 0.994258 0.702851 0.080821 -0.033844 418161.000000 0 0 1
15.471490 21.128331 29.983458 39.809310 0.938744 0.717918 0.072906 -0.040807 685238.000000 0 0 1
16.225890 22.131831 29.290558 40.137691 0.938169 0.752837 0.065039 -0.048211 159576.000000 0 0 1
17.504890 21.621031 28.978338 40.170066 0.890215 0.764987 0.141394 -0.036956 -80054.900000 0 0 1
-8.604668 16.668331 4.300983 19.245052 -1.094250 1.345408 0.045614 -0.026427 -126885.000000 0 1 0
-8.581868 18.054531 4.499683 20.490527 -1.127078 1.349394 0.063318 -0.027672 -563298.000000 0 1 0
-7.268268 18.403531 4.783183 20.356731 -1.194661 1.333611 0.063264 -0.025910 -867822.000000 0 1 0
-7.159468 19.800731 5.502583 21.762476 -1.223846 1.315174 0.076841 -0.031058 -62609.400000 0 1 0
-7.353768 20.934031 4.727783 22.686196 -1.232979 1.360858 0.090472 -0.034021 -375814.000000 0 1 0
-8.705568 21.068231 4.374983 23.212017 -1.178956 1.381183 0.090143 -0.040845 -330153.000000 0 1 0
-8.901468 22.268131 3.378283 24.218146 -1.190514 1.430846 0.136557 -0.047241 74589.000000 0 1 0
-8.182368 22.225931 2.161083 23.782629 -1.218049 1.479803 0.104564 -0.042967 -192642.000000 0 1 0
-8.440268 21.135531 1.277283 22.794303 -1.190859 1.514732 0.112797 -0.050206 -1237350.000000 0 1 0
-7.781668 21.287231 -0.071817 22.665077 -1.220331 1.573965 0.076959 -0.024091 -1005910.000000 0 1 0
-6.509568 20.808231 -0.155017 21.803233 -1.267605 1.577906 0.052403 -0.016876 -1506630.000000 0 1 0
-5.473368 21.571031 0.397583 22.258149 -1.322304 1.552933 0.053577 -0.024705 -683953.000000 0 1 0
-4.101668 21.309331 -0.259817 21.702045 -1.380640 1.582769 0.037074 -0.018160 -127214.000000 0 1 0
-3.998168 21.740731 -1.613317 22.164104 -1.388926 1.643650 0.034931 -0.014547 416138.000000 0 1 0
-2.677968 21.512031 -2.097817 21.779344 -1.446946 1.667267 0.019797 -0.014555 565292.000000 0 1 0
-2.694168 21.829531 -3.622317 22.291437 -1.447999 1.734018 0.027593 -0.010718 246218.000000 0 1 0
-1.383368 21.981531 -4.116817 22.406463 -1.507946 1.755580 0.035371 -0.016076 -14396.900000 0 1 0
-1.484268 22.288031 -5.487817 23.001642 -1.504300 1.811703 0.048958 -0.022615 -92845.300000 0 1 0
-0.188468 22.866231 -6.051217 23.654117 -1.562554 1.829493 0.064806 -0.026704 166184.000000 0 1 0
0.953232 22.011531 -6.030617 22.842603 1.527517 1.837971 0.048326 -0.018346 -211764.000000 0 1 0
1.999432 22.586931 -6.763517 23.662467 1.482505 1.860672 0.056182 -0.019532 -305023.000000 0 1 0
3.187332 21.623431 -6.895717 22.919048 1.424448 1.876404 0.047670 -0.013633 -209715.000000 0 1 0
2.896032 20.554531 -7.759917 22.160597 1.430823 1.928546 0.048498 -0.024425 -152807.000000 0 1 0
3.853232 19.534831 -7.641817 21.327315 1.376047 1.937255 0.044467 -0.025367 147111.000000 0 1 0
3.715732 18.577731 -8.820917 20.898501 1.373391 2.006539 0.042496 -0.026989 48922.600000 0 1 0
4.121732 19.132331 -10.078817 22.014025 1.358606 2.046356 0.044967 -0.025219 80039.600000 0 1 0
3.127932 18.849531 -11.041317 22.068064 1.406353 2.094776 0.048517 -0.025825 -255004.000000 0 1 0
3.459032 19.188131 -12.548917 23.186733 1.392442 2.142673 0.048401 -0.025037 40581.000000 0 1 0
3.651532 20.580931 -12.881617 24.552891 1.395201 2.123098 0.084071 -0.030586 -177628.000000 0 1 0
4.098232 20.881131 -14.153617 25.556643 1.376995 2.157734 0.101424 -0.030271 -167190.000000 0 0 1
4.313732 22.395431 -14.469017 27.009555 1.380510 2.136133 0.097035 -0.033483 -105626.000000 0 0 1
3.124632 23.138931 -14.603617 27.539773 1.436570 2.129720 0.108750 -0.038388 -316086.000000 0 0 1
3.431532 24.429431 -15.153017 28.951450 1.431242 2.121626 0.101074 -0.036818 376815.000000 0 0 1
2.191132 25.263631 -15.637617 29.792401 1.484282 2.123378 0.102704 -0.036085 878318.000000 0 0 1
1.233832 25.487931 -14.602317 29.400419 1.522426 2.090555 0.112807 -0.039621 47310.400000 0 0 1
1.291032 26.874031 -14.314517 30.475986 1.522793 2.059745 0.092821 -0.034876 -616260.000000 0 0 1
0.406832 27.265231 -13.150017 30.273442 1.555876 2.020140 0.113350 -0.033013 592959.000000 0 0 1
-1.021468 27.165231 -13.221417 30.229109 -1.533212 2.023472 0.098346 -0.032980 871092.000000 0 0 1
-1.637368 25.863831 -13.240817 29.102198 -1.507573 2.043142 0.095694 -0.033152 -178023.000000 0 0 1
-1.523168 24.893931 -12.037217 27.693364 -1.509686 2.020458 0.123630 -0.033950 -374564.000000 0 0 1
-2.292868 25.204931 -10.895017 27.554440 -1.480077 1.977299 0.120272 -0.023169 -167295.000000 0 0 1
-2.217268 24.151231 -9.996617 26.232243 -1.479245 1.961762 0.117495 -0.016542 66009.500000 0 0 1
-3.278668 24.207431 -8.869917 25.988936 -1.436175 1.919092 0.093436 -0.017308 -33493.700000 0 0 1
-2.903568 24.647231 -7.549217 25.940458 -1.453532 1.866090 0.102426 -0.024577 37366.300000 0 0 1
-2.363968 26.015331 -7.515317 27.182086 -1.480177 1.850926 0.103596 -0.031343 440940.000000 0 0 1
-2.025168 26.626231 -6.114217 27.394181 -1.494883 1.795886 0.099860 -0.025297 365231.000000 0 0 1
-1.029068 25.879031 -5.422217 26.460984 -1.531053 1.777172 0.091588 -0.031119 -40462.000000 0 0 1
-0.826768 26.236131 -4.053417 26.560277 -1.539294 1.724007 0.091249 -0.034636 -10121.000000 0 0 1
-1.864268 25.820131 -2.949517 26.054833 -1.498719 1.684244 0.084434 -0.030683 358704.000000 0 0 1
-3.091468 26.541331 -2.988717 26.887392 -1.454841 1.682183 0.079168 -0.032306 585190.000000 0 0 1
-4.043868 26.102431 -2.014317 26.490512 -1.417095 1.646909 0.071146 -0.024231 435421.000000 0 0 1
-5.000768 24.948731 -2.438117 25.561519 -1.372976 1.666324 0.075195 -0.032981 -231519.000000 0 0 1
-6.125168 25.333931 -3.221417 26.262202 -1.333572 1.693770 0.078299 -0.031915 197131.000000 0 0 1
-6.947468 24.196931 -3.500917 25.416829 -1.291196 1.708976 0.029454 -0.027034 311917.000000 0 0 1
-8.339268 24.683731 -3.964517 26.354266 -1.244991 1.721801 0.050869 -0.027909 -68674.800000 0 0 1
-9.222568 24.962431 -2.912117 26.770490 -1.216893 1.679793 0.085408 -0.032785 -661000.000000 0 0 1
-10.473468 25.454031 -3.304217 27.722177 -1.180445 1.690271 0.091223 -0.034275 74673.800000 0 0 1
-11.432668 25.798331 -2.129917 28.298345 -1.153649 1.646134 0.108951 -0.039864 -195093.000000 0 0 1
-11.971568 24.694431 -1.446617 27.481377 -1.119392 1.623461 0.110282 -0.037807 145573.000000 0 0 1
-11.022168 24.003731 -0.633417 26.420986 -1.140330 1.594773 0.138271 -0.047267 35055.500000 0 0 1
-11.538868 22.660531 -0.130317 25.429552 -1.099811 1.575921 0.123831 -0.046715 -498813.000000 0 0 1
-12.527968 22.864831 0.830383 26.085245 -1.069556 1.538957 0.136410 -0.046653 -365845.000000 0 0 1
-13.292868 21.682731 0.944983 25.450622 -1.020827 1.533658 0.133023 -0.049455 -204723.000000 0 0 1
-14.476368 21.744931 1.910683 26.192708 -0.983439 1.497784 0.134219 -0.044592 -168748.000000 0 0 1
-14.126068 21.517131 3.251383 25.944252 -0.989863 1.445144 0.112173 -0.038805 75400.500000 0 0 1
-13.768368 22.747231 3.898683 26.873857 -1.026506 1.425209 0.111510 -0.041476 91287.900000 0 0 1
-13.386468 22.546831 5.410383 26.773669 -1.035008 1.367317 0.111432 -0.045369 1314920.000000 0 0 1
-12.035168 22.086931 5.692183 25.789121 -1.071877 1.348243 0.113416 -0.038705 1292130.000000 0 0 1
-12.049368 21.744431 7.048083 25.839563 -1.064783 1.294532 0.094150 -0.042998 658578.000000 0 0 1
-10.663768 21.454931 7.787883 25.192879 -1.109527 1.256518 0.091921 -0.043895 680548.000000 0 0 1
-9.974168 22.686731 7.961183 26.029833 -1.156585 1.259967 0.112809 -0.047163 313389.000000 0 0 1
-8.795568 22.541631 8.764183 25.735152 -1.198773 1.223291 0.115178 -0.048137 413526.000000 0 0 1
-9.058468 22.524731 10.305683 26.374731 -1.188432 1.169360 0.074431 -0.042264 -534293.000000 0 0 1
-9.505768 21.321031 10.756483 25.703072 -1.151407 1.139014 0.079044 -0.037357 -156415.000000 0 0 1
-9.291368 21.097031 12.159983 26.062990 -1.155945 1.085397 0.063669 -0.024954 -355676.000000 0 0 1
-10.251268 20.000531 12.605483 25.768352 -1.097159 1.059642 0.054996 -0.019496 -498617.000000 0 0 1
-10.163568 18.832031 11.917083 24.494089 -1.075899 1.062684 0.061892 -0.027501 -46995.900000 0 1 0
-10.877468 17.764831 12.511883 24.299295 -1.021379 1.029897 0.047245 -0.028903 -135990.000000 0 1 0
-10.949968 16.586631 11.557883 22.991363 -0.987306 1.044071 0.043494 -0.029488 -96969.200000 0 1 0
-11.246368 15.337431 12.153283 22.570332 -0.938093 1.002185 0.032625 -0.025776 -55755.600000 0 1 0
-11.463968 14.283931 11.206783 21.471964 -0.894485 1.021689 0.033014 -0.020506 -67800.200000 0 1 0
-11.748668 12.988831 11.941083 21.197415 -0.835489 0.972389 0.017225 -0.014173 359077.000000 0 1 0
-12.950268 13.042531 12.703083 22.342457 -0.788948 0.966039 0.028354 -0.013916 187453.000000 0 1 0
-13.328368 11.731331 12.995883 22.003693 -0.721755 0.938966 0.031859 -0.011707 31126.700000 0 1 0
-14.029268 11.631231 14.424783 23.241778 -0.692216 0.901237 0.043060 -0.015971 399066.000000 0 1 0
-15.215168 12.408431 14.382883 24.337991 -0.684139 0.938543 0.057655 -0.023077 111015.000000 0 1 0
-15.879968 12.398531 15.656883 25.515386 -0.662902 0.910153 0.066172 -0.015412 -177119.000000 0 0 1
-17.074268 13.357431 15.766783 26.805653 -0.663863 0.941979 0.071341 -0.018030 -649133.000000 0 0 1
-18.123668 13.037231 14.934183 26.860130 -0.623594 0.981233 0.062329 -0.021949 -507637.000000 0 0 1
-19.060168 14.107631 14.875883 27.992984 -0.637176 1.010527 0.090144 -0.027329 -351034.000000 0 0 1
-20.236968 13.837531 13.973683 28.218362 -0.599753 1.052733 0.101072 -0.028996 -408240.000000 0 0 1
-21.194768 12.873131 14.386283 28.668813 -0.545823 1.045107 0.101787 -0.027723 -138858.000000 0 0 1
-22.255868 12.865631 13.484283 29.028848 -0.524145 1.087711 0.083181 -0.026408 548158.000000 0 0 1
-23.391868 11.805131 13.883683 29.652947 -0.467375 1.083537 0.089435 -0.032016 1338960.000000 0 0 1
-24.328668 12.147131 14.915983 31.014890 -0.463082 1.069081 0.096139 -0.023032 841670.000000 0 0 1
-25.244798 11.147631 15.312483 31.560127 -0.415831 1.064222 0.086645 -0.025658 65322.600000 0 0 1
-26.228528 11.434731 16.432683 32.995785 -0.411122 1.049478 0.072929 -0.014345 -634029.000000 0 0 1
-27.146598 12.466631 16.256783 34.009376 -0.430506 1.072410 0.089275 -0.001413 94839.100000 0 0 1
-27.696128 12.867631 17.509583 35.202797 -0.434929 1.050207 0.069007 0.013658 -293567.000000 0 0 1
-28.776608 13.944431 17.410883 36.409877 -0.451232 1.072202 0.065795 0.011926 -228816.000000 0 0 1
-28.353598 15.217631 17.000983 36.394179 -0.492582 1.084749 0.089920 0.003179 -961956.000000 0 0 1
-29.490358 15.981631 16.996383 37.602803 -0.496624 1.101793 0.097110 -0.003725 -706158.000000 0 0 1
-29.338298 17.471231 16.748083 38.032590 -0.537111 1.114795 0.097640 -0.008752 -141703.000000 0 0 1
-28.905288 18.212031 17.882383 38.561294 -0.562229 1.088585 0.098962 -0.002486 288248.000000 0 0 1
-29.925228 18.544531 18.828383 39.924014 -0.554776 1.079686 0.106197 -0.021229 -206259.000000 0 0 1
-29.377868 19.043131 20.253983 40.446555 -0.575118 1.046321 0.090923 -0.021301 443546.000000 0 0 1
-28.775788 18.074931 21.107983 40.003701 -0.560847 1.014964 0.083791 -0.013324 730699.000000 0 0 1
-27.524608 17.494631 20.713783 38.635825 -0.566185 1.004952 0.092598 0.000725 300655.000000 0 0 1
-27.183528 16.203231 21.452783 38.232327 -0.537523 0.975062 0.099312 -0.010100 -146441.000000 0 0 1
-28.231408 15.273631 21.331683 38.540069 -0.495919 0.984243 0.067804 -0.003617 178899.000000 0 0 1
-27.811628 13.972031 21.698083 37.940890 -0.465551 0.961986 0.062670 0.002903 -954057.000000 0 0 1
-28.908158 12.960631 21.764883 38.436567 -0.421471 0.968842 0.076746 -0.011266 -940795.000000 0 0 1
-29.497608 12.768331 20.506883 38.127043 -0.408509 1.002904 0.085376 -0.016606 -53102.900000 0 0 1
-30.557128 11.847631 20.590283 38.704834 -0.369876 1.009857 0.123618 -0.022074 -469663.000000 0 0 1
-31.253918 11.672031 19.201383 38.493335 -0.357418 1.048555 0.140607 -0.021565 -680873.000000 0 0 1
-30.557058 11.145431 18.117483 37.231675 -0.349747 1.062586 0.160435 -0.022978 -127008.000000 0 0 1
-30.074338 9.844231 18.350583 36.580303 -0.316338 1.045289 0.170994 -0.024153 231527.000000 0 0 1
-29.238148 9.274131 17.130183 35.132919 -0.307154 1.061478 0.177328 -0.031686 179687.000000 0 0 1
-30.064558 8.866631 16.057783 35.218563 -0.286789 1.097361 0.186373 -0.026731 565509.000000 0 0 1
-30.741178 9.767731 15.170883 35.645256 -0.307652 1.131163 0.187202 -0.021821 428758.000000 0 0 1
-29.837238 10.794731 14.369383 34.831970 -0.347137 1.145562 0.166452 -0.014375 83734.400000 0 0 1
-29.149188 10.250531 13.290783 33.636193 -0.338151 1.164583 0.171137 -0.033181 -352102.000000 0 0 1
-28.237908 11.205331 12.851683 32.986431 -0.377761 1.170594 0.126051 -0.024284 -431499.000000 0 0 1
-27.838548 11.064531 11.347583 32.033986 -0.378309 1.208700 0.164435 -0.016763 -287635.000000 0 0 1
-27.013988 9.989131 11.025983 30.840081 -0.354183 1.205184 0.178117 -0.023554 721604.000000 0 0 1
-27.796858 8.769831 10.915683 31.124386 -0.305613 1.212465 0.201373 -0.023864 299953.000000 0 0 1
-26.968788 7.548431 10.469583 29.898269 -0.272911 1.213040 0.208360 -0.036221 -218038.000000 0 0 1
-26.755798 7.661931 9.057183 29.267909 -0.278901 1.256174 0.206033 -0.028290 236049.000000 0 0 1
-25.957838 6.594131 8.576183 28.121928 -0.248770 1.260895 0.214821 -0.054675 -497686.000000 0 0 1
-25.370758 7.040031 7.245583 27.308165 -0.270676 1.302254 0.200185 -0.035554 -566931.000000 0 0 1
-26.332168 7.271131 6.259383 28.025565 -0.269418 1.345551 0.211448 -0.043363 130137.000000 0 0 1
-25.661958 7.705131 5.092183 27.273347 -0.291691 1.382985 0.199163 -0.037304 -452868.000000 0 0 1
-26.521428 8.605131 4.237583 28.202686 -0.313743 1.419971 0.198036 -0.035221 -346368.000000 0 0 1
-27.569198 8.057931 3.464483 28.930841 -0.284359 1.450758 0.235640 -0.037628 152372.000000 0 0 1
-27.251528 6.991731 2.568383 28.251136 -0.251146 1.479758 0.238657 -0.038510 -401355.000000 0 0 1
-26.262708 7.206231 1.386583 27.268704 -0.267799 1.519925 0.244738 -0.029334 697134.000000 0 0 1
-24.902368 7.414631 1.777983 26.043539 -0.289389 1.502474 0.206659 -0.027275 1023610.000000 0 0 1
-24.078668 7.737031 0.639383 25.299263 -0.310903 1.545521 0.221917 -0.014107 216818.000000 0 0 1
-22.694568 8.265631 1.076983 24.176930 -0.349279 1.526236 0.178308 -0.020924 -165896.000000 0 1 0
-22.779768 9.487031 1.763183 24.739248 -0.394621 1.499465 0.164211 -0.031266 768331.000000 0 1 0
-21.717668 9.657831 2.698683 23.920988 -0.418437 1.457739 0.160415 -0.038582 230378.000000 0 1 0
-21.905168 11.067531 3.201783 24.750314 -0.467837 1.441069 0.147724 -0.051431 -318808.000000 0 1 0
-21.387568 12.052631 2.380883 24.665007 -0.513175 1.474117 0.192315 -0.046305 122601.000000 0 1 0
-21.615568 13.307631 2.947283 25.554105 -0.551848 1.455204 0.178247 -0.047987 -159866.000000 0 0 1
-20.434668 14.037031 3.632383 25.056099 -0.601895 1.425314 0.143846 -0.031843 63888.900000 0 0 1
-19.971668 13.299631 4.757583 24.461854 -0.587489 1.375059 0.137903 -0.039995 247214.000000 0 1 0
-18.984568 14.012631 5.501083 24.228693 -0.635846 1.341751 0.124831 -0.034566 81206.200000 0 1 0
-18.399868 13.353831 6.753483 23.716861 -0.627804 1.282046 0.086159 -0.032542 -545502.000000 0 1 0
-17.456468 12.417931 6.343483 22.342181 -0.618313 1.282912 0.082007 -0.034276 47382.400000 0 1 0
-16.773668 11.934631 7.523483 21.917896 -0.618409 1.220413 0.065351 -0.028562 -16871.700000 0 1 0
10.704532 -32.575665 -14.018517 37.044295 -1.253307 1.958891 0.066466 -0.025134 -756939.000000 0 0 1
11.977132 -32.820365 -13.519317 37.461981 -1.220883 1.940009 0.060039 -0.020796 -225800.000000 0 0 1
12.720332 -31.596965 -13.554817 36.659352 -1.188067 1.949537 0.059009 -0.020369 752339.000000 0 0 1
14.210332 -31.520165 -13.106317 36.976072 -1.147250 1.933126 0.076530 -0.016175 1299560.000000 0 0 1
15.151532 -32.400765 -13.769117 38.327106 -1.133379 1.938263 0.096876 -0.016738 571378.000000 0 0 1
16.507932 -32.068465 -13.555917 38.531301 -1.095401 1.930306 0.105275 -0.017867 238045.000000 0 0 1
17.408332 -33.132065 -14.208417 40.033272 -1.087018 1.933620 0.120910 -0.025600 -89050.900000 0 0 1
17.384132 33.294131 -13.554917 39.930477 1.089596 1.917142 0.118504 -0.020349 -777023.000000 0 0 1
18.346932 32.435331 -14.031617 39.818926 1.056020 1.930915 0.127301 -0.021344 -928466.000000 0 0 1
18.596032 31.182831 -13.206217 38.633994 1.033061 1.919659 0.108108 -0.031560 -455440.000000 0 0 1
19.408332 31.470231 -12.093817 38.901404 1.018173 1.886919 0.097903 -0.041033 -41914.900000 0 0 1
19.660032 30.348131 -11.248117 37.868801 0.995957 1.872376 0.074892 -0.038429 -674376.000000 0 0 1
20.573532 30.476231 -10.093917 38.130802 0.977000 1.838708 0.080147 -0.035330 1055400.000000 0 0 1
21.980932 30.176931 -10.352117 38.742417 0.941262 1.841286 0.081187 -0.035133 1886150.000000 0 0 1
22.705232 30.082531 -9.096517 38.771547 0.924253 1.807622 0.072591 -0.034631 590443.000000 0 0 1
24.008332 29.245331 -9.087817 38.913723 0.883424 1.806511 0.047219 -0.023036 -75750.200000 0 0 1
25.043932 29.697531 -9.892717 40.087501 0.870205 1.820150 0.066672 -0.028674 -515063.000000 0 0 1
26.193232 28.913931 -9.720117 40.206734 0.834729 1.814969 0.050117 -0.014551 -769206.000000 0 0 1
27.324332 29.242131 -10.661317 41.417207 0.819289 1.831140 0.049655 -0.020780 -696646.000000 0 0 1
27.791132 30.546831 -10.424917 42.592661 0.832600 1.818067 0.058894 -0.030693 -61459.800000 0 0 1
28.832732 30.846331 -11.321417 43.714952 0.819126 1.832765 0.063018 -0.030243 20976.600000 0 0 1
29.582732 32.157131 -11.021517 45.063211 0.827072 1.817882 0.055030 -0.033489 -423707.000000 0 0 1
28.957132 33.268331 -11.629217 45.612893 0.854571 1.828597 0.068717 -0.033046 217992.000000 0 0 1
29.414932 -33.151965 -11.084217 45.685347 -0.845056 1.815863 0.088791 -0.029615 440533.000000 0 0 1
28.471032 -31.999565 -11.601017 44.375167 -0.843683 1.835300 0.081369 -0.027027 1129940.000000 0 0 1
27.133632 -32.155865 -11.108017 43.515764 -0.869903 1.828917 0.092924 -0.036424 939698.000000 0 0 1
26.089832 -31.281565 -11.556717 42.341154 -0.875646 1.847247 0.103519 -0.038209 757635.000000 0 0 1
26.148132 -29.831765 -11.002517 41.166909 -0.851106 1.841351 0.085124 -0.036869 -1030760.000000 0 0 1
27.097932 -29.166665 -11.732817 41.504834 -0.822150 1.857389 0.070092 -0.026682 -767973.000000 0 0 1
27.419432 -27.945665 -11.069917 40.685729 -0.794903 1.846354 0.073520 -0.025933 -354340.000000 0 0 1
28.406632 -27.216165 -11.979317 41.123721 -0.763999 1.866381 0.083845 -0.021360 -393658.000000 0 0 1
29.682232 -27.765765 -12.128617 42.415516 -0.752050 1.860792 0.058335 -0.012706 -350700.000000 0 0 1
29.806532 -28.596265 -13.289917 43.391216 -0.764678 1.882080 0.068674 -0.018081 360895.000000 0 0 1
31.262032 -29.109465 -13.587517 44.825174 -0.749758 1.878764 0.061711 -0.013546 768909.000000 0 0 1
31.564032 -30.241065 -12.834217 45.557955 -0.763996 1.856374 0.061805 -0.016230 225813.000000 0 0 1
32.860332 -30.745165 -13.123517 46.875295 -0.752156 1.854556 0.062067 -0.025745 83334.700000 0 0 1
33.201332 -31.978365 -12.309417 47.712326 -0.766637 1.831740 0.046512 -0.021760 435787.000000 0 0 1
34.472232 -32.475965 -12.757717 49.048776 -0.755589 1.833925 0.035815 -0.026592 856646.000000 0 0 1
35.244132 -33.285265 -11.853417 49.905523 -0.756822 1.810605 0.033628 -0.024467 -48603.900000 0 0 1
34.568932 33.153531 -11.278617 49.207468 0.764501 1.802058 0.033803 -0.030018 -410095.000000 0 0 1
33.837532 33.307631 -10.087417 48.540013 0.777506 1.780139 0.040832 -0.038296 -77182.400000 0 0 1
33.123732 32.130731 -9.739717 47.163838 0.770182 1.778801 0.052022 -0.034330 157302.000000 0 0 1
32.273032 32.334131 -8.408317 46.451528 0.786344 1.752812 0.033202 -0.029419 75224.200000 0 0 1
31.232732 33.252931 -8.562917 46.417287 0.816716 1.756336 0.035424 -0.028243 -785380.000000 0 0 1
30.631632 33.536531 -7.335217 46.008708 0.830637 1.730911 0.030887 -0.022624 557322.000000 0 0 1
29.524732 -33.040765 -7.450217 44.932257 -0.841537 1.737376 0.033180 -0.031702 255489.000000 0 0 1
30.146832 -31.751765 -7.576617 44.434347 -0.811321 1.742146 0.012905 -0.035076 208073.000000 0 0 1
29.328232 -30.687465 -8.027317 43.200735 -0.808042 1.757697 0.030296 -0.027346 192834.000000 0 0 1
28.233732 -30.131965 -7.079117 41.895022 -0.817910 1.740584 0.044847 -0.033122 278161.000000 0 0 1
27.399832 -29.187765 -7.662117 40.760084 -0.816983 1.759902 0.044858 -0.043678 -77245.200000 0 0 1
26.376232 -28.622165 -6.866317 39.523161 -0.826212 1.745411 0.061751 -0.054162 145091.000000 0 0 1
25.359032 -27.726965 -7.563117 38.328395 -0.829974 1.769424 0.121255 -0.059152 -663655.000000 0 0 1
24.371732 -28.394965 -8.292217 38.327748 -0.861497 1.788871 0.155860 -0.060625 208946.000000 0 0 1
23.479332 -27.399865 -8.833517 37.149195 -0.862302 1.810881 0.171676 -0.057668 -662533.000000 0 0 1
22.280332 -28.033865 -9.491717 37.045964 -0.899256 1.829900 0.154082 -0.042887 -1241400.000000 0 0 1
22.452432 -28.829465 -10.642917 38.059446 -0.909116 1.854215 0.165138 -0.040648 193462.000000 0 0 1
21.315432 -29.554465 -11.140917 38.104253 -0.945967 1.867511 0.147870 -0.038248 509323.000000 0 0 1
21.012232 -30.916465 -10.479517 38.822184 -0.973862 1.844123 0.148925 -0.044410 -104468.000000 0 0 1
21.993732 -31.896465 -10.756317 40.209540 -0.967128 1.841601 0.139574 -0.042477 -303456.000000 0 0 1
21.810232 -33.270665 -10.373717 41.112497 -0.990537 1.825879 0.116029 -0.042153 -523496.000000 0 0 1
23.049632 33.518931 -10.455517 42.001454 0.968400 1.822374 0.102927 -0.038307 -719030.000000 0 0 1
23.917732 33.639631 -9.377717 42.327583 0.952727 1.794201 0.113713 -0.038829 -26502.100000 0 0 1
25.142332 32.993531 -9.751817 42.612297 0.919635 1.801692 0.099090 -0.033721 -358772.000000 0 0 1
26.291932 33.375131 -8.854417 43.400066 0.903557 1.776257 0.073183 -0.032571 -1056150.000000 0 0 1
26.349732 32.933131 -7.453017 42.830444 0.895996 1.745699 0.057729 -0.037100 -19183.400000 0 0 1
26.698832 31.553731 -7.311917 41.975346 0.868548 1.745885 0.052720 -0.026076 -176784.000000 0 0 1
26.624332 31.121931 -5.805617 41.365866 0.863127 1.711609 0.051414 -0.022320 -559874.000000 0 0 1
27.669532 31.556731 -4.981517 42.264001 0.850937 1.688938 0.046601 -0.013618 -857268.000000 0 0 1
28.447732 30.556731 -4.439717 41.984502 0.821126 1.676741 0.061066 -0.012698 -506663.000000 0 0 1
27.910432 29.488831 -3.414817 40.746096 0.812890 1.654702 0.061122 -0.007109 -614290.000000 0 0 1
27.463932 29.995731 -2.181817 40.728022 0.829432 1.624392 0.070707 -0.004547 -25419.600000 0 0 1
27.104032 28.924631 -1.302917 39.660565 0.817881 1.603654 0.059390 0.001297 1261140.000000 0 0 1
25.609132 28.408731 -1.441817 38.274828 0.837179 1.608475 0.027341 0.002456 808427.000000 0 0 1
24.655932 29.330031 -0.963017 38.328751 0.871763 1.595924 0.037384 -0.003984 296492.000000 0 0 1
23.338532 28.915731 -1.383717 37.184960 0.891728 1.608017 0.052251 -0.000168 1166090.000000 0 0 1
22.227632 29.521031 -0.471517 36.956478 0.925415 1.583555 0.058287 -0.004895 142520.000000 0 0 1
22.121132 29.072331 0.876783 36.541944 0.920356 1.546800 0.073901 -0.019053 -424041.000000 0 0 1
21.093632 29.721731 1.538983 36.478639 0.953587 1.528595 0.076466 -0.018954 -655978.000000 0 0 1
20.323032 28.824031 2.543483 35.359860 0.956674 1.498803 0.088634 -0.030584 -241746.000000 0 0 1
19.504832 27.878931 1.908883 34.078103 0.960321 1.514752 0.087328 -0.025024 37173.200000 0 0 1
18.788632 27.008731 2.770783 33.017594 0.962996 1.486779 0.104312 -0.029816 -163183.000000 0 0 1
18.311632 25.789231 1.958783 31.689701 0.953357 1.508946 0.106895 -0.017169 348816.000000 0 0 1
19.349832 24.888431 1.506883 31.561380 0.909949 1.523034 0.108237 -0.021948 701937.000000 0 0 1
20.080232 24.256731 2.546383 31.592543 0.879320 1.490108 0.119931 -0.015409 -141617.000000 0 0 1
21.345732 23.582531 1.950483 31.868173 0.835143 1.509553 0.115595 -0.012811 -11975.400000 0 0 1
20.986332 22.475531 1.109783 30.770233 0.819649 1.534722 0.108084 -0.007192 674518.000000 0 0 1
22.138432 21.874931 0.527183 31.127170 0.779411 1.553859 0.077797 -0.013606 198451.000000 0 0 1
21.804232 20.705331 -0.475117 30.072596 0.759553 1.586596 0.117122 -0.013930 -330404.000000 0 0 1
21.239632 21.171431 -1.656117 30.034883 0.783790 1.625964 0.075094 -0.001897 271720.000000 0 0 1
21.470432 20.310331 -2.753417 29.682829 0.757639 1.663691 0.123955 -0.006160 -44946.000000 0 0 1
21.518632 20.963231 -4.179117 30.331067 0.772325 1.709019 0.077881 -0.011769 -277908.000000 0 0 1
22.563432 21.897631 -4.170317 31.717602 0.770424 1.702661 0.083630 -0.006682 127689.000000 0 0 1
22.530132 22.680431 -5.346217 32.412819 0.788723 1.736495 0.041597 -0.004052 -157947.000000 0 0 1
23.749132 23.643531 -5.381817 33.941152 0.783170 1.730032 0.044648 0.003172 -7862.560000 0 0 1
23.672132 24.856031 -4.633717 34.636158 0.809789 1.704981 0.040924 -0.002494 -93246.700000 0 0 1
23.964432 24.736131 -3.266917 34.595418 0.801243 1.665369 0.052833 -0.003256 -355071.000000 0 0 1
22.807532 24.484031 -2.278417 33.538672 0.820834 1.638783 0.048684 -0.005366 -1431180.000000 0 0 1
22.043732 25.636931 -2.058117 33.873503 0.860616 1.631593 0.061516 -0.007832 1364450.000000 0 0 1
20.776432 25.473931 -1.371017 32.900775 0.886618 1.612480 0.073239 -0.002647 1453840.000000 0 0 1
19.789232 24.312531 -1.786917 31.399139 0.887606 1.627737 0.086505 -0.015934 -942650.000000 0 0 1
19.225832 24.495931 -3.079217 31.291610 0.905357 1.669360 0.077772 -0.014117 350554.000000 0 0 1
18.465232 23.344131 -3.461017 29.964844 0.901567 1.686557 0.076937 -0.019146 239981.000000 0 0 1
17.855832 23.625231 -4.872617 30.012076 0.923597 1.733873 0.085410 -0.022720 49967.800000 0 0 1
17.086532 22.606431 -5.509217 28.867833 0.923577 1.762817 0.096168 -0.028638 364021.000000 0 0 1
16.874232 23.010631 -6.812217 29.336584 0.938054 1.805144 0.096316 -0.027443 144050.000000 0 0 1
16.187932 22.012631 -7.784717 28.411387 0.936710 1.848346 0.120585 -0.031784 554798.000000 0 0 1
17.099132 21.000831 -8.248117 28.309833 0.887449 1.866436 0.096498 -0.025760 967155.000000 0 0 1
16.466432 20.301031 -9.299617 27.744515 0.889316 1.912601 0.150543 -0.034056 182761.000000 0 0 1
17.156332 18.893031 -9.391017 27.193337 0.833537 1.923400 0.142182 -0.032649 933594.000000 0 0 1
18.446432 19.007731 -10.023417 28.320197 0.800383 1.932568 0.113780 -0.024735 871181.000000 0 0 1
18.857432 17.676731 -10.321217 27.831584 0.753092 1.950716 0.118573 -0.025059 647820.000000 0 0 1
20.381832 17.566931 -10.698117 28.956275 0.711357 1.949222 0.082249 -0.017344 641006.000000 0 0 1
20.664632 18.198231 -11.925017 30.006810 0.722019 1.979489 0.091450 -0.015077 579416.000000 0 0 1
22.058832 18.496931 -12.038617 31.203475 0.697796 1.966882 0.072991 -0.004853 564812.000000 0 0 1
22.374932 18.834831 -13.533517 32.226457 0.699704 2.004187 0.078551 -0.013129 -62549.200000 0 0 1
22.345532 17.737131 -14.388017 31.952209 0.670928 2.037895 0.074154 -0.009378 25306.200000 0 0 1
22.516232 18.218531 -15.702917 32.946581 0.680283 2.067599 0.085537 -0.017155 7395.090000 0 0 1
22.539332 17.066631 -16.806017 32.889719 0.648089 2.107122 0.072886 -0.021955 -241556.000000 0 0 1
23.544732 16.099531 -16.625217 33.014348 0.599760 2.098529 0.070846 -0.018037 -61953.200000 0 0 1
23.686732 15.307631 -17.824017 33.362860 0.573737 2.134413 0.078277 -0.029284 -121774.000000 0 0 1
24.417732 15.950931 -19.084417 34.855026 0.578658 2.150214 0.094062 -0.021041 -96613.200000 0 0 1
25.784332 16.177531 -18.779617 35.766161 0.560336 2.123590 0.107075 -0.014631 280648.000000 0 0 1
26.376732 16.911631 -19.819217 37.074744 0.570134 2.134801 0.122148 -0.022210 -942503.000000 0 0 1
27.871532 17.110231 -19.692817 38.175769 0.550575 2.112791 0.088631 -0.016692 -763341.000000 0 0 1
28.206432 18.152331 -18.797217 38.450557 0.571830 2.081587 0.067577 -0.009115 -172390.000000 0 0 1
29.548832 18.039331 -18.391717 39.202120 0.548099 2.059126 0.049401 -0.011348 -106328.000000 0 0 1
29.952132 19.010031 -17.258417 39.450785 0.565530 2.023576 0.061144 -0.018034 709642.000000 0 0 1
29.151932 18.819031 -16.045517 38.228912 0.573241 2.003935 0.028539 -0.017879 356506.000000 0 0 1
28.003632 19.606131 -15.923217 37.711439 0.610812 2.006710 0.029074 -0.010882 -140509.000000 0 0 1
27.017532 19.173931 -14.798917 36.284909 0.617196 1.990898 0.025820 -0.004364 46624.500000 0 0 1
27.479232 19.309931 -13.440617 36.175016 0.612542 1.951468 0.021299 -0.008066 125251.000000 0 0 1
26.411232 19.305031 -12.500517 35.021427 0.631191 1.935785 0.034333 -0.007363 -233085.000000 0 0 1
26.726732 19.689731 -11.067617 34.992797 0.634938 1.892605 0.027103 -0.007476 -370820.000000 0 0 1
26.903632 21.070931 -10.929917 35.878303 0.664413 1.880355 0.035849 -0.009062 87175.800000 0 0 1
27.336932 21.582431 -9.694417 36.153712 0.668304 1.842263 0.037917 -0.005695 95853.400000 0 0 1
26.321932 21.464431 -8.519617 35.016422 0.684096 1.816567 0.054341 -0.008755 18462.400000 0 0 1
26.219732 20.097431 -8.052917 34.003390 0.653978 1.809895 0.069390 -0.019193 32212.800000 0 0 1
25.257532 19.950031 -7.032617 32.945476 0.668530 1.785914 0.079983 -0.027067 -44790.200000 0 0 1
23.902132 19.375631 -7.514517 31.673253 0.681185 1.810332 0.091733 -0.025840 -138872.000000 0 0 1
23.149832 20.466931 -7.973617 31.912201 0.723965 1.823333 0.072989 -0.012822 1227390.000000 0 0 1
21.732832 20.178031 -8.169617 30.760552 0.748317 1.839610 0.064696 -0.014709 1347100.000000 0 0 1
20.885732 21.440131 -8.123017 31.014133 0.798496 1.835801 0.084247 -0.024838 -708589.000000 0 0 1
21.288732 22.353831 -9.128817 32.190669 0.809798 1.858328 0.093360 -0.022563 11522.100000 0 0 1
20.812532 22.135831 -10.447117 32.129406 0.816200 1.901975 0.098419 -0.012577 223527.000000 0 0 1
19.306432 22.503231 -10.580217 31.481339 0.861710 1.913547 0.104233 -0.023866 -158444.000000 0 0 1
19.059232 23.886831 -10.310717 32.251293 0.897339 1.896208 0.110563 -0.034563 480256.000000 0 0 1
17.711032 24.297731 -10.513417 31.852666 0.940925 1.907168 0.109616 -0.030928 397084.000000 0 0 1
17.329932 25.640231 -9.854117 32.478479 0.976437 1.879060 0.100657 -0.033909 132785.000000 0 0 1
17.984732 26.730931 -10.433217 33.865104 0.978555 1.883972 0.142873 -0.023217 38561.300000 0 0 1
17.419832 27.837931 -9.815117 34.274443 1.011651 1.861231 0.142399 -0.050332 93764.200000 0 0 1
20.953332 28.896731 32.029200 47.957615 0.943416 0.839460 0.066498 0.007381 -295818.000000 0 0 1
19.594532 29.215031 32.032443 47.576687 0.980006 0.832160 0.085758 -0.018614 -770733.000000 0 0 1
18.869032 27.973131 32.088035 46.563703 0.977362 0.810521 0.079743 -0.020452 336386.000000 0 0 1
17.415932 28.261531 32.549951 46.492237 1.018520 0.795237 0.114306 -0.035634 209802.000000 0 0 1
16.624732 28.953931 31.602244 45.971879 1.049579 0.812858 0.116686 -0.039143 3733.170000 0 0 1
15.377132 29.357731 32.149832 46.172982 1.088302 0.800579 0.142783 -0.038284 609977.000000 0 0 1
14.203032 29.263131 31.128688 45.022796 1.118933 0.807374 0.135384 -0.039918 51993.900000 0 0 1
13.863032 27.933731 30.815878 43.841708 1.110127 0.791345 0.124007 -0.052236 -222140.000000 0 0 1
12.479132 27.825431 30.624178 43.218325 1.149208 0.783295 0.112858 -0.033746 -350510.000000 0 0 1
11.893032 26.425931 30.353788 41.965778 1.147900 0.762229 0.086004 -0.035042 -84525.500000 0 0 1
12.257832 25.767131 29.150748 40.791735 1.126764 0.774710 0.083368 -0.030625 272257.000000 0 0 1
13.509132 25.143331 28.949308 40.653981 1.077768 0.778325 0.060210 -0.024635 -19868.600000 0 0 1
13.642232 24.450631 27.568418 39.293276 1.061870 0.793147 0.074282 -0.024710 -371258.000000 0 0 1
13.221432 25.239631 26.512768 38.920074 1.088262 0.821381 0.070745 -0.029852 181642.000000 0 0 1
13.261432 24.538031 25.227378 37.608525 1.075319 0.835524 0.083939 -0.030325 163028.000000 0 0 1
12.187832 23.427531 25.014428 36.374635 1.091092 0.812496 0.077466 -0.022636 -87631.200000 0 0 1
12.216432 23.149631 23.636128 35.267736 1.085223 0.836330 0.092755 -0.031445 -381786.000000 0 0 1
11.299732 22.158931 23.337408 34.107723 1.099228 0.817254 0.090995 -0.026251 -342570.000000 0 0 1
11.207832 21.846631 21.835188 32.858275 1.096784 0.843937 0.101719 -0.042643 66754.200000 0 0 1
10.758132 23.030231 21.163288 33.075878 1.133788 0.876506 0.110366 -0.043604 172243.000000 0 0 1
10.981832 22.855031 19.738588 32.133549 1.122870 0.909339 0.115057 -0.041564 -478038.000000 0 0 1
10.580132 24.074631 18.790788 32.320594 1.156732 0.950363 0.111525 -0.050244 850924.000000 0 0 1
9.209432 24.483031 18.675088 32.140183 1.211013 0.950777 0.116201 -0.056138 655748.000000 0 0 1
8.624932 25.119731 19.807688 33.132082 1.240055 0.929992 0.115749 -0.061715 709977.000000 0 0 1
7.107432 25.489331 19.618088 32.940719 1.298864 0.932837 0.115262 -0.055721 765375.000000 0 0 1
7.000632 26.501131 18.683288 33.172037 1.312532 0.972514 0.126724 -0.061562 28920.800000 0 0 1
5.644732 26.658631 18.301088 32.824921 1.362137 0.979381 0.106229 -0.058526 -425523.000000 0 0 1
5.447432 27.628631 17.120388 32.956387 1.376127 1.024547 0.116079 -0.059772 543908.000000 0 0 1
6.249132 27.319331 15.943788 32.242858 1.345921 1.053548 0.121553 -0.053365 165199.000000 0 0 1
7.420632 28.090531 15.813688 33.078943 1.312528 1.072353 0.116881 -0.049768 -341119.000000 0 0 1
8.279032 27.681331 14.626488 32.384142 1.280180 1.102176 0.116287 -0.048967 -213623.000000 0 0 1
7.810732 27.840131 13.234188 31.799751 1.297272 1.141564 0.126567 -0.050851 -509614.000000 0 0 1
6.917932 26.848431 12.845988 30.556758 1.318616 1.136913 0.094096 -0.043744 -627501.000000 0 0 1
6.141832 27.137431 11.541188 30.122438 1.348223 1.177600 0.089903 -0.046173 -716126.000000 0 0 1
6.866132 27.383831 10.347988 30.068236 1.325124 1.219463 0.077123 -0.037259 95133.900000 0 0 1
7.393432 28.734031 10.261688 31.394420 1.318954 1.237814 0.070792 -0.036530 -120652.000000 0 0 1
7.624232 29.282131 8.818488 31.517263 1.316080 1.287212 0.054124 -0.021045 86205.500000 0 0 1
6.442032 29.425531 8.013288 31.170089 1.355270 1.310794 0.049742 -0.032340 353984.000000 0 0 1
6.220632 28.181331 7.369688 29.785835 1.353544 1.320777 0.038967 -0.021134 -556239.000000 0 0 1
4.768232 27.865631 7.013988 29.127744 1.401323 1.327605 0.049021 -0.032373 -297686.000000 0 0 1
4.185332 28.761631 6.091188 29.695976 1.426293 1.364212 0.044338 -0.024104 289121.000000 0 0 1
2.793032 28.539831 5.884988 29.273812 1.473243 1.368384 0.072912 -0.028883 467066.000000 0 0 1
2.108232 29.545531 4.949088 30.031259 1.499562 1.405243 0.089484 -0.030418 -313931.000000 0 0 1
2.601532 29.464831 3.601388 29.797890 1.482732 1.449640 0.055504 -0.030127 106676.000000 0 0 1
1.938432 30.284431 2.659988 30.462761 1.506876 1.483366 0.046482 -0.030430 587689.000000 0 0 1
0.505232 29.838431 2.231788 29.926044 1.553866 1.496150 0.113400 -0.036753 304355.000000 0 0 1
0.623632 28.597731 1.543288 28.646132 1.548993 1.516896 0.099796 -0.034512 -404706.000000 0 0 1
-0.627768 28.037431 1.271288 28.073258 -1.548410 1.525496 0.111051 -0.038349 -181000.000000 0 0 1
-1.012568 27.974831 -0.235712 27.994143 -1.534616 1.579216 0.094550 -0.041857 -254626.000000 0 0 1
-1.468368 29.233831 -0.640512 29.277692 -1.520610 1.592675 0.107229 -0.044349 -331299.000000 0 0 1
-1.413168 29.468731 -2.026912 29.572141 -1.522878 1.639391 0.099169 -0.039347 227340.000000 0 0 1
-2.399368 30.555031 -2.666412 30.764861 -1.492431 1.657576 0.121681 -0.039187 1532770.000000 0 0 1
-3.755368 30.150531 -2.964312 30.527765 -1.446881 1.668052 0.104801 -0.038421 1029150.000000 0 0 1
-3.904568 29.302731 -4.117612 29.847118 -1.438327 1.709194 0.079079 -0.037197 269542.000000 0 0 1
-5.319268 29.024231 -4.758112 29.888798 -1.389538 1.730670 0.085219 -0.029865 581063.000000 0 0 1
-5.800368 30.169231 -5.455512 31.202394 -1.380853 1.746542 0.094847 -0.031317 -375747.000000 0 0 1
-6.780068 29.678531 -6.319512 31.092133 -1.346200 1.775474 0.085559 -0.025686 -383280.000000 0 0 1
-7.555268 30.840431 -7.008912 32.516751 -1.330549 1.788049 0.081630 -0.017867 155400.000000 0 0 1
-8.370368 31.541431 -6.070412 33.192994 -1.311398 1.754714 0.068198 -0.016661 -149173.000000 0 0 1
-8.741168 32.761631 -6.613312 34.546612 -1.310059 1.763417 0.060758 -0.023736 -490535.000000 0 0 1
-9.713468 33.503531 -5.713312 35.347984 -1.288609 1.733139 0.065885 -0.031931 -285779.000000 0 0 1
-10.992768 32.914631 -5.749112 35.174795 -1.248466 1.734977 0.076879 -0.026499 -487622.000000 0 0 1
-11.951568 33.781231 -5.177812 36.205266 -1.230746 1.714301 0.078096 -0.018788 -65261.600000 0 0 1
-13.407568 33.395331 -5.461412 36.398325 -1.189014 1.721411 0.094056 -0.022053 -215612.000000 0 0 1
-13.701068 33.477531 -6.796412 36.805646 -1.182331 1.756519 0.073069 -0.016048 -112495.000000 0 0 1
-15.083968 33.218531 -6.952512 37.139390 -1.144552 1.759108 0.100617 -0.030843 -568002.000000 0 0 1
-15.404368 33.100431 -8.461912 37.477154 -1.135224 1.798549 0.149522 -0.034932 61204.400000 0 0 1
-16.753068 32.766631 -8.721112 37.820301 -1.098162 1.803484 0.201887 -0.036147 -233540.000000 0 0 1
-17.551868 -33.754465 -8.756512 39.039832 1.091288 1.797018 0.186534 -0.043266 -262688.000000 0 0 1
-18.969168 33.510631 -9.404812 39.638898 -1.055703 1.810343 0.186300 -0.048915 1304490.000000 0 0 1
-19.758268 32.728831 -8.523512 39.169067 -1.027664 1.790160 0.177507 -0.054598 -224045.000000 0 0 1
-20.455068 33.550931 -7.648312 40.032130 -1.023295 1.763032 0.164746 -0.038623 -320436.000000 0 0 1
-21.198668 32.731631 -6.470012 39.529789 -0.996074 1.735210 0.172851 -0.045188 162787.000000 0 0 1
-20.910368 33.389131 -5.226712 39.741616 -1.011290 1.702696 0.144425 -0.042768 -244555.000000 0 0 1
-21.744868 32.966631 -4.212512 39.716285 -0.987700 1.677061 0.129877 -0.044556 46816.800000 0 0 1
-23.017768 -33.795765 -4.095912 41.094378 0.972879 1.670633 0.171851 -0.052889 644440.000000 0 0 1
-23.819568 33.741131 -5.298412 41.640232 -0.956088 1.698385 0.185622 -0.060173 -438131.000000 0 0 1
-24.929768 -33.091365 -5.320412 41.771265 0.925147 1.698513 0.187456 -0.075913 -408443.000000 0 0 1
-25.430278 -32.904365 -6.734112 42.127717 0.912828 1.731335 0.230032 -0.068402 -652025.000000 0 0 1
-24.490768 -32.273265 -7.571012 41.215065 0.921651 1.755541 0.254881 -0.053681 -306431.000000 0 0 1
-24.801568 -32.199065 -8.926812 41.612324 0.914456 1.787000 0.226353 -0.056233 483810.000000 0 0 1
-26.078038 -31.410565 -9.434412 41.901024 0.877891 1.797903 0.195763 -0.039316 570157.000000 0 0 1
-27.283568 -32.109965 -9.048212 43.096555 0.866481 1.782322 0.179944 -0.033885 1037780.000000 0 0 1
-28.417558 -31.679165 -9.830812 43.678049 0.839618 1.797816 0.100059 -0.024257 784470.000000 0 0 1
-29.019038 -30.283165 -9.588112 43.024488 0.806712 1.795536 0.064311 -0.009157 -1085930.000000 0 0 1
-28.235488 -29.230565 -10.054712 41.866048 0.802712 1.813331 0.099598 -0.004124 -495279.000000 0 0 1
-28.484798 -28.861865 -11.391112 42.120641 0.791973 1.844646 0.084366 -0.007605 -243896.000000 0 0 1
-27.365658 -28.052365 -12.056512 41.002121 0.797789 1.869254 0.142875 -0.004128 24714.300000 0 0 1
-26.113978 -28.697765 -12.215712 40.678313 0.832503 1.875804 0.150954 -0.019661 -188794.000000 0 0 1
-25.300768 -27.874165 -13.034412 39.837091 0.833755 1.904128 0.134146 -0.022903 729076.000000 0 0 1
-23.867368 -28.469965 -13.306012 39.461882 0.873114 1.914723 0.159275 -0.032530 652747.000000 0 0 1
-23.784068 -29.631465 -14.151312 40.545841 0.894434 1.927322 0.168696 -0.046277 -281386.000000 0 0 1
-24.366868 -30.794065 -13.644312 41.571456 0.901392 1.905208 0.159927 -0.048405 -199368.000000 0 0 1
-24.151568 -32.085265 -14.446712 42.678683 0.925550 1.916118 0.164674 -0.041068 -5180.800000 0 0 1
-24.761268 -33.148365 -13.761712 43.604119 0.929229 1.891891 0.150999 -0.046271 -26771.700000 0 0 1
-24.836068 33.339631 -14.560512 44.049628 -0.930541 1.907680 0.153844 -0.037698 -448402.000000 0 0 1
-25.638168 32.315031 -13.790012 43.494153 -0.900104 1.893418 0.141353 -0.044848 -738587.000000 0 0 1
-25.135598 31.814231 -12.591612 42.455768 -0.902137 1.871908 0.167183 -0.047104 -4606.030000 0 0 1
-25.007098 32.696031 -11.455912 42.727313 -0.917868 1.842234 0.198951 -0.046013 75920.800000 0 0 1
-24.047068 32.188431 -10.358212 41.492760 -0.929172 1.823104 0.203199 -0.044194 80079.400000 0 0 1
-24.684368 31.188531 -9.560812 40.907843 -0.901287 1.806694 0.181884 -0.043281 439568.000000 0 0 1
-23.787968 30.557931 -8.646912 39.679008 -0.909331 1.790481 0.159801 -0.040924 207549.000000 0 0 1
-24.446368 29.408231 -7.812912 39.032173 -0.877273 1.772324 0.147486 -0.032330 74783.900000 0 0 1
-24.928368 28.286631 -8.517412 38.653633 -0.848422 1.792972 0.150912 -0.015859 119916.000000 0 0 1
-25.465568 27.249731 -7.746112 38.092588 -0.819231 1.775574 0.137045 -0.015520 355580.000000 0 0 1
-24.339068 26.356731 -7.083512 36.568342 -0.825177 1.765735 0.140926 -0.008871 535157.000000 0 0 1
-23.638268 27.029031 -6.060212 36.415140 -0.852221 1.737994 0.143161 -0.011610 164153.000000 0 0 1
-22.727368 26.093631 -5.468212 35.033015 -0.854240 1.727525 0.112894 -0.020915 1276210.000000 0 0 1
-21.304168 26.677031 -5.063712 34.513370 -0.896912 1.718045 0.096947 -0.032657 1541670.000000 0 0 1
-20.348568 26.687931 -6.144212 34.118341 -0.919366 1.751869 0.122818 -0.032384 1031160.000000 0 0 1
-19.175068 27.454731 -5.781112 33.983330 -0.961128 1.741744 0.119662 -0.032867 1156060.000000 0 0 1
-18.060268 27.470131 -6.896212 33.590759 -0.989201 1.777567 0.137692 -0.035133 61023.500000 0 0 1
-18.389468 27.917831 -8.207412 34.422949 -0.988330 1.811544 0.160099 -0.040534 24394.400000 0 0 1
-18.723368 29.264131 -8.307312 35.720656 -1.001621 1.805509 0.166974 -0.039561 -60372.000000 0 0 1
-18.844568 29.787131 -9.766612 36.575642 -1.006721 1.841101 0.182280 -0.037014 202823.000000 0 0 1
-17.562968 29.927731 -10.363012 36.214899 -1.040105 1.861006 0.171000 -0.040343 438070.000000 0 0 1
-17.676668 30.698331 -11.510112 37.246943 -1.048347 1.884960 0.175071 -0.048879 820973.000000 0 0 1
-16.233368 31.156431 -11.983912 37.119531 -1.090468 1.899532 0.159794 -0.043203 1153430.000000 0 0 1
-15.943868 31.756531 -13.254512 37.925800 -1.105497 1.927818 0.158461 -0.043869 -279493.000000 0 0 1
-16.160268 30.870931 -14.378512 37.694963 -1.088543 1.962154 0.167059 -0.050327 -184559.000000 0 0 1
-15.812968 31.478531 -15.724712 38.577382 -1.105277 1.990637 0.196307 -0.054216 -45422.500000 0 0 1
-14.419968 31.280731 -15.836612 37.910657 -1.138844 2.001747 0.188111 -0.058928 -271139.000000 0 0 1
-13.920868 31.816931 -17.039312 38.683922 -1.158361 2.026924 0.167593 -0.063561 159068.000000 0 0 1
-12.386068 31.954531 -17.168212 38.330852 -1.201012 2.035206 0.175784 -0.067071 266871.000000 0 0 1
-11.583868 30.802831 -17.234612 37.148785 -1.211092 2.053228 0.180847 -0.075482 231795.000000 0 0 1
-10.319068 30.997731 -17.867212 37.236806 -1.249438 2.071253 0.155458 -0.065062 539147.000000 0 0 1
-10.212568 30.711631 -19.391212 37.729563 -1.249768 2.110583 0.142832 -0.073495 -486629.000000 0 0 1
-10.304168 29.362131 -19.792912 36.879127 -1.233290 2.137314 0.156846 -0.077384 86114.300000 0 0 1
-10.011968 29.062431 -21.132812 37.302281 -1.239031 2.173084 0.105521 -0.076488 -149290.000000 0 0 1
-11.235868 29.032531 -22.098012 38.176625 -1.201538 2.188097 0.120590 -0.062979 191226.000000 0 0 1
-11.922168 30.236931 -22.285612 39.408864 -1.195221 2.171833 0.152770 -0.061444 -508112.000000 0 0 1
-13.097668 30.294031 -21.529312 39.405437 -1.162715 2.148801 0.167243 -0.060414 -728453.000000 0 0 1
-13.810368 31.660831 -21.680512 40.782093 -1.159480 2.131307 0.190428 -0.066383 -91889.900000 0 0 1
-14.661068 31.766531 -22.771412 41.744420 -1.138399 2.147777 0.153578 -0.051191 -88633.400000 0 0 1
-15.513268 32.900131 -22.759712 42.907862 -1.130186 2.129907 0.145039 -0.057033 449780.000000 0 0 1
-16.154268 33.226131 -24.144312 44.134838 -1.118256 2.149642 0.134452 -0.043168 354542.000000 0 0 1
-15.168568 33.555231 -25.111712 44.571707 -1.146241 2.169292 0.132502 -0.036587 361927.000000 0 0 1
-15.718668 33.637031 -26.423812 45.571309 -1.133647 2.189322 0.133283 -0.032694 281208.000000 0 0 1
-16.490468 -32.780665 -26.909412 45.504109 1.104708 2.203543 0.113190 -0.021529 1189130.000000 0 0 1
-17.876568 -32.703365 -26.531512 45.749348 1.070546 2.189442 0.115535 -0.023678 689500.000000 0 0 1
-18.536668 -31.645765 -27.138812 45.624309 1.040917 2.207853 0.094852 -0.003975 9005.390000 0 0 1
-20.024668 -31.465365 -26.756912 45.901948 1.004039 2.193107 0.111279 -0.022261 306094.000000 0 0 1
-20.848768 -32.470465 -27.309812 47.273968 1.000006 2.186695 0.124791 -0.026223 -636393.000000 0 0 1
-22.200468 -32.098165 -27.366612 47.666387 0.965701 2.182335 0.111660 -0.022535 174899.000000 0 0 1
-23.208168 -33.254165 -27.522812 49.009833 0.961479 2.167087 0.091372 -0.012388 95423.200000 0 0 1
-23.581968 33.730031 -26.325612 48.855522 -0.960649 2.139863 0.123400 -0.021872 -220238.000000 0 0 1
-24.562768 32.725331 -26.544312 48.773736 -0.926928 2.146272 0.077433 -0.011509 73427.800000 0 0 1
-24.154568 31.371231 -27.163612 48.015196 -0.914643 2.172114 0.065461 -0.011287 -172730.000000 0 0 1
-23.308868 30.649331 -26.275312 46.616272 -0.920608 2.169596 0.089278 -0.028959 -282991.000000 0 0 1
-23.905468 29.714931 -25.397812 45.820272 -0.893321 2.158308 0.063597 -0.021097 -212479.000000 0 0 1
33.148510 10.376231 -25.934697 43.348568 0.303361 2.212152 0.039929 -0.015383 -52480.400000 0 0 1
32.788550 9.061331 -25.648257 42.603166 0.269627 2.216834 0.018876 -0.003730 191275.000000 0 0 1
31.632610 8.663731 -26.374437 42.086733 0.267330 2.248067 0.056460 -0.016430 373533.000000 0 0 1
31.257190 7.178431 -26.114707 41.358429 0.225743 2.254185 0.047552 -0.014762 -68569.100000 0 0 1
31.124770 6.865431 -24.735817 40.345335 0.217101 2.230778 0.021931 0.010064 105912.000000 0 0 1
30.774700 5.550031 -24.407617 39.668838 0.178426 2.233543 0.059229 0.007353 25191.500000 0 0 1
30.446240 5.466531 -22.886717 38.479323 0.177654 2.207788 0.070826 -0.006217 -78650.800000 0 0 1
31.608970 5.369831 -22.093417 38.936886 0.168277 2.174161 0.059327 -0.008669 97205.700000 0 0 1
31.389800 4.960731 -20.785317 37.973119 0.156740 2.150014 0.065014 -0.008965 -160019.000000 0 0 1
32.658000 4.651831 -19.937817 38.544792 0.141489 2.114447 0.063458 -0.015547 -157704.000000 0 0 1
33.103220 3.343031 -20.038017 38.839685 0.100647 2.112873 0.088259 -0.016207 130837.000000 0 0 1
33.793250 3.025731 -18.847117 38.811758 0.089298 2.077849 0.092335 -0.023979 -514469.000000 0 0 1
34.535870 1.701031 -18.915617 39.413454 0.049214 2.071369 0.100396 -0.028071 -54806.800000 0 0 1
33.667370 0.621831 -18.623817 38.480190 0.018468 2.075999 0.106895 -0.022598 124710.000000 0 0 1
34.264830 -0.618969 -18.891817 39.132626 -0.018062 2.074604 0.125575 -0.019089 -228495.000000 0 0 1
33.391450 -1.843969 -18.503617 38.220060 -0.055167 2.076169 0.105994 -0.014769 173920.000000 0 0 1
33.168760 -1.994669 -17.100017 37.370522 -0.060065 2.046068 0.102488 -0.016563 792645.000000 0 0 1
31.868230 -1.460969 -16.763717 36.038045 -0.045812 2.054620 0.082881 -0.025661 623130.000000 0 0 1
31.390620 -1.704069 -15.339617 34.979690 -0.054233 2.024758 0.096128 -0.025325 31019.800000 0 0 1
31.069890 -3.078369 -15.172417 34.713349 -0.098757 2.023143 0.085896 -0.029106 -253613.000000 0 0 1
30.276190 -3.317469 -14.080517 33.554645 -0.109138 2.003833 0.087299 -0.029650 -387143.000000 0 0 1
30.120290 -4.741169 -13.521617 33.354829 -0.156127 1.988199 0.076480 -0.036027 -39347.100000 0 0 1
29.383290 -5.531469 -14.425317 33.197359 -0.186075 2.020315 0.052307 -0.028884 520496.000000 0 0 1
28.887790 -6.747269 -13.834217 32.732485 -0.229455 2.007158 0.055463 -0.032074 -168052.000000 0 0 1
28.277290 -7.771469 -14.805017 32.851018 -0.268209 2.038314 0.042537 -0.022357 -206558.000000 0 0 1
27.005490 -7.390269 -15.266517 31.890109 -0.267118 2.069996 0.044347 -0.017018 -148156.000000 0 0 1
26.513790 -8.293269 -16.226117 32.172134 -0.303150 2.099429 0.048067 -0.017947 141748.000000 0 0 1
25.144790 -7.860769 -16.801217 31.246328 -0.302994 2.138506 0.055689 -0.017813 -73254.500000 0 0 1
25.245690 -6.696569 -17.597417 31.493776 -0.259285 2.163684 0.037776 -0.014080 343224.000000 0 0 1
23.988490 -6.281969 -18.135317 30.721336 -0.256123 2.202247 0.086464 -0.023975 514440.000000 0 0 1
23.718590 -6.909769 -19.545917 31.501734 -0.283477 2.240140 0.055633 -0.010838 -231979.000000 0 0 1
24.569690 -6.377269 -20.529517 32.646596 -0.253954 2.250858 0.050504 -0.005897 -52754.700000 0 0 1
24.291390 -6.698269 -21.859717 33.358442 -0.269060 2.285373 0.068327 -0.016603 -133819.000000 0 0 1
25.032390 -5.847869 -22.944217 34.456569 -0.229496 2.299480 0.080201 -0.018686 62666.300000 0 0 1
24.751190 -6.326069 -24.264217 35.233404 -0.250230 2.330451 0.107722 -0.027044 118090.000000 0 0 1
24.881190 -5.228169 -25.141547 35.756184 -0.207112 2.350598 0.100347 -0.031027 -220065.000000 0 0 1
24.623190 -5.615569 -26.605387 36.683548 -0.224225 2.382219 0.117681 -0.032108 -701603.000000 0 0 1
23.320590 -6.015769 -26.855177 36.072703 -0.252456 2.410542 0.124309 -0.026265 -804554.000000 0 0 1
23.145690 -6.120169 -28.257327 37.035873 -0.258503 2.438694 0.115182 -0.025405 1409710.000000 0 0 1
21.828390 -6.897969 -28.748437 36.749601 -0.306079 2.469112 0.095854 -0.026512 1309730.000000 0 0 1
21.829590 -8.251769 -28.344087 36.715255 -0.361406 2.452774 0.087219 -0.022454 111651.000000 0 0 1
20.550590 -8.847869 -28.332127 36.101536 -0.406554 2.473154 0.087616 -0.029347 -11503.400000 0 0 1
20.593390 -10.216769 -27.706347 36.001551 -0.460538 2.448991 0.106225 -0.031140 -731142.000000 0 0 1
19.355390 -10.829469 -27.603017 35.409533 -0.510113 2.464722 0.121354 -0.030526 -310904.000000 0 0 1
19.454490 -12.105669 -27.046047 35.447327 -0.556624 2.438726 0.115107 -0.028565 -69203.800000 0 0 1
19.658290 -13.264869 -28.026427 36.713563 -0.593593 2.439327 0.098435 -0.020348 -232102.000000 0 0 1
18.467690 -13.507669 -28.718037 36.718365 -0.631505 2.468851 0.086721 -0.020657 161887.000000 0 0 1
18.678690 -14.522269 -29.731007 37.996348 -0.660856 2.469419 0.070148 -0.024499 -477970.000000 0 0 1
17.523590 -14.690869 -30.719787 38.296255 -0.697691 2.501703 0.051144 -0.024722 -195186.000000 0 0 1
16.357790 -15.236669 -30.137257 37.523161 -0.749928 2.503384 0.054781 -0.029847 661941.000000 0 0 1
15.362190 -15.607369 -31.105917 38.041620 -0.793315 2.528168 0.047482 -0.035021 -659895.000000 0 0 1
14.141790 -16.207069 -30.517747 37.336204 -0.853345 2.527639 0.061745 -0.041928 -1096870.000000 0 0 1
14.359690 -17.438469 -29.958207 37.520595 -0.881920 2.495508 0.038272 -0.035381 687143.000000 0 0 1
13.303590 -17.812869 -29.029347 36.564830 -0.929313 2.488016 0.041186 -0.030649 798521.000000 0 0 1
13.499090 -19.176469 -28.436747 36.859340 -0.957431 2.451982 0.049306 -0.023517 146339.000000 0 0 1
14.584590 -19.207669 -27.523327 36.594785 -0.921363 2.422055 0.045139 -0.018720 83442.500000 0 0 1
14.449990 -20.153969 -26.477897 36.277592 -0.948765 2.388927 0.059090 -0.014038 -530636.000000 0 0 1
15.423190 -19.978169 -25.351947 35.773219 -0.913362 2.358429 0.051574 -0.005371 -306783.000000 0 0 1
16.759890 -20.345969 -25.623597 36.761679 -0.881744 2.342028 0.065484 -0.014099 295395.000000 0 0 1
17.662290 -20.261269 -24.545317 36.399836 -0.853823 2.310846 0.075514 -0.009881 -487608.000000 0 0 1
19.107290 -20.591569 -24.952917 37.573252 -0.822769 2.297104 0.067534 -0.005737 -229801.000000 0 0 1
19.559290 -21.926269 -25.074717 38.627302 -0.842392 2.277256 0.069013 -0.013150 340988.000000 0 0 1
19.311990 -22.688669 -23.920717 38.209021 -0.865621 2.247272 0.067220 -0.011994 -990171.000000 0 0 1
20.051390 -24.048969 -23.974817 39.436062 -0.875798 2.224262 0.057227 -0.012278 -840394.000000 0 0 1
21.403590 -23.725869 -23.805817 39.846548 -0.836811 2.211098 0.083699 -0.017063 -346091.000000 0 0 1
22.177890 -24.851969 -23.379917 40.695204 -0.842196 2.182805 0.096565 -0.025224 49302.000000 0 0 1
22.059590 -25.400459 -21.920817 40.153842 -0.855676 2.148284 0.106026 -0.023267 -247658.000000 0 0 1
20.769990 -25.895979 -21.585817 39.597243 -0.894804 2.147346 0.083183 -0.023507 312237.000000 0 0 1
20.627790 -25.990329 -20.193017 38.842770 -0.899926 2.117490 0.068782 -0.019260 425503.000000 0 0 1
19.290990 -26.616059 -19.670617 38.307832 -0.943627 2.110041 0.070797 -0.018322 -66273.500000 0 0 1
19.087790 -27.968219 -19.857817 39.254272 -0.971925 2.101194 0.086330 -0.018238 170353.000000 0 0 1
18.087790 -28.601729 -19.073617 38.846234 -1.006892 2.084037 0.083528 -0.007358 1135110.000000 0 0 1
16.577990 -28.458189 -19.488517 38.268793 -1.043315 2.105113 0.097979 -0.022152 814756.000000 0 0 1
15.893290 -27.368759 -18.875917 36.850317 -1.044682 2.108578 0.082585 -0.017516 870996.000000 0 0 1
14.554390 -27.268579 -19.423217 36.505712 -1.080521 2.131828 0.082221 -0.009818 938064.000000 0 0 1
13.589390 -26.388389 -18.649417 35.054519 -1.095240 2.131771 0.056479 -0.010613 -635357.000000 0 0 1
13.080190 -26.905669 -17.451917 34.634892 -1.118290 2.098884 0.056320 -0.014425 -74413.000000 0 0 1
12.124890 -26.127769 -16.786717 33.338673 -1.136311 2.098465 0.057528 -0.018871 124373.000000 0 0 1
10.633990 -26.239319 -17.176517 33.115198 -1.185756 2.116114 0.067542 -0.023729 -426430.000000 0 0 1
9.968890 -27.401649 -16.688417 33.596613 -1.221875 2.090622 0.077492 -0.022200 476644.000000 0 0 1
8.556390 -27.172119 -16.739617 33.041650 -1.265730 2.102058 0.080310 -0.014026 843992.000000 0 0 1
7.861090 -27.673629 -18.026817 33.949854 -1.294023 2.130557 0.090145 -0.008006 -408697.000000 0 0 1
7.887890 -26.858569 -19.183417 33.935306 -1.285146 2.171586 0.092405 -0.007702 -82907.500000 0 0 1
7.401090 -27.573429 -20.313917 35.038911 -1.308563 2.189222 0.084573 0.000324 -214444.000000 0 0 1
7.225790 -26.651079 -21.514617 35.005296 -1.306036 2.232688 0.094240 -0.001515 -200637.000000 0 0 1
6.064190 -25.844859 -21.608617 34.229570 -1.340327 2.254005 0.095728 -0.006801 134408.000000 0 0 1
6.261690 -25.103519 -22.792217 34.480147 -1.326350 2.292979 0.077449 -0.005634 126993.000000 0 0 1
4.970290 -24.441269 -23.343617 34.161438 -1.370176 2.323113 0.065840 -0.003224 57100.200000 0 0 1
3.980190 -25.379829 -23.667517 34.930345 -1.415238 2.315241 0.067029 0.000572 -68044.100000 0 0 1
2.806690 -24.810869 -24.207517 34.777300 -1.458152 2.340709 0.065298 -0.005146 18506.600000 0 0 1
1.739890 -25.817949 -24.588217 35.695575 -1.503507 2.330671 0.046033 -0.010525 -359957.000000 0 0 1
2.107190 -26.483699 -25.754587 37.001693 -1.491398 2.340661 0.065271 -0.016608 -24172.200000 0 0 1
1.039990 -27.244799 -26.254407 37.850423 -1.532643 2.337321 0.067591 -0.031261 -35223.600000 0 0 1
1.530790 -28.234419 -27.342137 39.333423 -1.516632 2.339407 0.076004 -0.032885 -85390.400000 0 0 1
2.010890 -27.617279 -28.524517 39.754318 -1.498112 2.371032 0.070567 -0.031744 51158.500000 0 0 1
2.393090 -28.597359 -29.516797 41.167671 -1.487309 2.370271 0.097841 -0.048320 1338260.000000 0 0 1
3.936490 -28.994389 -29.464107 41.524741 -1.435854 2.359663 0.097084 -0.042821 1098070.000000 0 0 1
4.419490 -29.532799 -28.198147 41.071323 -1.422252 2.327551 0.083478 -0.045651 281009.000000 0 0 1
5.632790 -30.253899 -28.317027 41.819621 -1.386720 2.314642 0.101485 -0.051669 -3408.500000 0 0 1
5.764190 -31.411369 -27.332747 42.035450 -1.389309 2.278685 0.117719 -0.062732 44458.000000 0 0 1
4.850190 -32.481289 -27.477797 42.820413 -1.422569 2.267507 0.123663 -0.075522 622637.000000 0 0 1
5.404790 -33.531609 -26.659487 43.177642 -1.410986 2.236277 0.136480 -0.080737 153993.000000 0 0 1
4.287690 33.145738 -26.354067 42.562437 1.442152 2.238502 0.157173 -0.073343 -532839.000000 0 0 1
3.769890 32.578378 -27.520507 42.812861 1.455591 2.268956 0.140669 -0.076726 -298845.000000 0 0 1
2.602890 31.908348 -27.134307 41.966514 1.489403 2.273876 0.110746 -0.078961 -821602.000000 0 0 1
1.462790 32.043033 -28.127477 42.662052 1.525177 2.290696 0.109360 -0.059628 -567739.000000 0 0 1
1.311290 31.108507 -29.155517 42.655631 1.528669 2.323356 0.123198 -0.062044 -349352.000000 0 0 1
0.062490 31.331037 -29.727317 43.189711 1.568802 2.329934 0.117193 -0.058968 -340675.000000 0 0 1
-0.277310 30.440037 -30.955727 43.415778 -1.561687 2.364573 0.119813 -0.054074 290354.000000 0 0 1
0.732190 30.559807 -31.956577 44.222853 1.546842 2.378390 0.138449 -0.056883 406003.000000 0 0 1
0.385290 29.796037 -33.045787 44.496925 1.557866 2.407820 0.169017 -0.058784 485905.000000 0 0 1
1.621390 29.164627 -33.793137 44.667443 1.515259 2.428817 0.142675 -0.044880 895228.000000 0 0 1
2.434190 30.125247 33.182054 44.883232 1.490169 0.738770 0.144313 -0.047929 -98963.400000 0 0 1
3.610190 29.742077 32.545991 44.236480 1.450004 0.744056 0.123779 -0.050068 -501300.000000 0 0 1
3.453490 29.042467 31.208228 42.770843 1.452440 0.752970 0.127955 -0.034458 -262353.000000 0 0 1
2.990490 27.681307 31.229778 41.838939 1.463181 0.728117 0.137733 -0.038286 295283.000000 0 0 1
4.083190 26.783217 31.384248 41.460634 1.419508 0.712140 0.127176 -0.033756 -429305.000000 0 0 1
3.759290 25.340967 31.796974 40.833129 1.423522 0.678197 0.136715 -0.034630 -51509.100000 0 0 1
2.991590 24.677807 30.808818 39.586956 1.450159 0.678911 0.125126 -0.025023 171599.000000 0 0 1
2.909190 23.295047 31.086218 38.954789 1.446555 0.646814 0.105002 -0.013472 77610.900000 0 0 1
2.171190 22.472727 29.961238 37.515508 1.474481 0.645771 0.092717 0.001607 1083200.000000 0 0 1
0.747490 22.439427 30.183418 37.618152 1.537497 0.639552 0.091017 -0.009534 667056.000000 0 0 1
0.121590 21.741927 29.123328 36.344111 1.565204 0.641295 0.086453 -0.003513 -61238.700000 0 0 1
-1.376510 21.454527 29.299328 36.340641 -1.506725 0.633025 0.074065 -0.003735 -134014.000000 0 0 1
-2.149410 22.613327 29.606558 37.316629 -1.476030 0.654442 0.082042 -0.010852 510197.000000 0 0 1
-3.510110 22.187727 29.747428 37.276341 -1.413896 0.646787 0.060309 -0.018023 934526.000000 0 0 1
-4.457610 23.352547 30.235638 38.463042 -1.382182 0.666329 0.034170 -0.022385 331841.000000 0 0 1
-4.737610 23.404347 31.618386 39.622352 -1.371071 0.646838 0.045492 -0.020194 -154981.000000 0 0 1
-5.627110 24.455967 31.843342 40.543275 -1.344641 0.667428 0.034511 -0.024335 -285455.000000 0 0 1
-5.868710 24.686057 33.333199 41.892068 -1.337395 0.650647 0.052039 -0.021539 -761411.000000 0 0 1
-6.950410 25.503757 33.544956 42.708476 -1.304733 0.667389 0.040007 -0.017844 -733807.000000 0 0 1
-7.212010 25.613867 -32.688607 42.150069 -1.296335 2.458349 0.033460 -0.017424 -196862.000000 0 0 1
-8.613910 26.181937 -32.442327 42.569917 -1.252949 2.437339 0.074748 -0.013823 -435646.000000 0 0 1
-8.730710 27.513317 -32.838477 43.721545 -1.263520 2.420496 0.061635 -0.015233 689386.000000 0 0 1
-9.996910 28.072037 -32.432187 44.043436 -1.228683 2.398483 0.068290 -0.016337 872556.000000 0 0 1
-9.923710 28.486967 -30.939347 43.211463 -1.235584 2.368850 0.077156 -0.014672 -54159.200000 0 0 1
-9.061510 29.576497 -30.653537 43.549047 -1.273501 2.351649 0.082417 -0.013899 253211.000000 0 0 1
-9.364310 29.924737 -29.346387 42.946369 -1.267521 2.323105 0.090137 -0.020811 43619.500000 0 0 1
-8.711310 31.250827 -28.924367 43.464009 -1.298943 2.298931 0.073137 -0.016480 794119.000000 0 0 1
-7.332810 31.147557 -28.541327 42.878290 -1.339585 2.299142 0.052331 -0.018331 618240.000000 0 0 1
-6.774410 32.462505 -28.327047 43.613398 -1.365065 2.277727 0.052130 -0.013652 913262.000000 0 0 1
-5.201710 32.383210 -28.228597 43.273361 -1.411527 2.281453 0.074650 -0.021377 610373.000000 0 0 1
-4.518810 33.518671 -27.754517 43.751962 -1.436790 2.257977 0.092185 -0.033769 -89444.700000 0 0 1
-4.386410 -33.074869 -28.672537 43.992066 1.438945 2.280707 0.092151 -0.042535 -37947.600000 0 0 1
-3.388310 -33.302659 -29.898387 44.882750 1.469402 2.299823 0.097361 -0.045350 179847.000000 0 0 1
-3.778410 33.476591 -30.907737 45.719216 -1.458405 2.313163 0.089841 -0.038473 -100054.000000 0 0 1
-4.770010 -33.754619 -31.824917 46.636387 1.430412 2.321844 0.102848 -0.031727 49551.000000 0 0 1
-4.387810 -32.809519 -33.021837 46.756380 1.437849 2.354988 0.070089 -0.035424 -294720.000000 0 0 1
-4.018310 -31.485939 -32.629957 45.521701 1.443860 2.369999 0.078879 -0.040591 240346.000000 0 0 1
-3.196510 -30.726399 -33.482097 45.556339 1.467138 2.396404 0.081308 -0.053173 6663.520000 0 0 1
34.240970 17.764531 12.782888 40.637726 0.478582 1.250806 0.095404 -0.034880 -157465.000000 0 0 1
35.616290 17.659631 13.029188 41.834703 0.460306 1.254084 0.115134 -0.046360 -320360.000000 0 0 1
35.853780 16.326431 13.516488 41.650226 0.427304 1.240288 0.134613 -0.024690 -700328.000000 0 0 1
37.266510 16.086331 14.024288 42.944656 0.407495 1.238128 0.120310 -0.044233 -77070.200000 0 0 1
-36.969688 15.860631 13.087288 42.303600 -0.405268 1.256270 0.113635 -0.016900 195349.000000 0 0 1
-36.930558 14.577431 12.489888 41.621688 -0.375951 1.266018 0.165401 -0.039805 -623708.000000 0 0 1
-35.564936 13.912531 12.241788 40.103423 -0.372886 1.260590 0.186039 -0.028639 383246.000000 0 0 1
-34.887980 13.152031 13.274688 39.577322 -0.360504 1.228754 0.155903 -0.021186 520644.000000 0 0 1
-35.706937 12.068731 13.700988 40.104322 -0.325939 1.222142 0.163492 -0.020759 -60004.900000 0 0 1
-35.172323 11.504831 14.988788 39.926397 -0.316129 1.185957 0.195577 -0.032400 -119837.000000 0 0 1
-35.435265 12.269831 16.134188 40.823018 -0.333340 1.164486 0.200142 -0.026354 472107.000000 0 0 1
-34.703917 11.900831 17.319388 40.570344 -0.330358 1.129737 0.194757 -0.014722 202522.000000 0 0 1
-35.006536 12.924231 18.448888 41.627572 -0.353671 1.111643 0.182089 -0.024208 277363.000000 0 0 1
-36.290638 12.788231 19.037488 42.929887 -0.338797 1.111346 0.204022 -0.046017 347670.000000 0 0 1
-36.455458 13.670031 20.129688 43.830064 -0.358752 1.093627 0.204403 -0.043616 405916.000000 0 0 1
37.369740 13.663931 20.668588 44.837384 0.350541 1.091711 0.200334 -0.065654 348984.000000 0 0 1
37.060510 12.373731 21.161988 44.434450 0.322242 1.074409 0.173354 -0.046759 764318.000000 0 0 1
35.927130 12.431631 22.060388 43.954122 0.333128 1.045007 0.179110 -0.055537 693597.000000 0 0 1
35.790530 11.047731 22.731348 43.814707 0.299399 1.025342 0.162972 -0.045279 149094.000000 0 0 1
36.839150 10.872031 23.695228 45.130786 0.286975 1.018040 0.152403 -0.032174 393413.000000 0 0 1
36.732770 11.514531 24.943268 45.869897 0.303766 0.995858 0.145182 -0.027141 -465671.000000 0 0 1
-37.229958 11.481731 25.740418 46.695493 -0.299146 0.986947 0.132484 -0.025979 334748.000000 0 0 1
-36.220768 12.360731 25.359588 45.911223 -0.328868 0.985602 0.136520 -0.038446 61091.200000 0 0 1
-35.218414 11.878431 24.464208 44.496419 -0.325297 0.988669 0.130771 -0.039501 361836.000000 0 0 1
-34.092670 12.893731 24.100468 43.696579 -0.361570 0.986585 0.130365 -0.044225 268354.000000 0 0 1
-33.232148 13.354331 25.109778 43.740311 -0.382100 0.959335 0.103712 -0.039515 -230179.000000 0 0 1
-33.839098 14.178531 26.071058 45.009059 -0.396776 0.953000 0.100452 -0.035046 -716799.000000 0 0 1
-32.975348 14.653831 27.294278 45.244734 -0.418177 0.923216 0.093104 -0.021798 -45341.700000 0 0 1
-32.179018 15.768131 26.939718 44.831591 -0.455626 0.926158 0.110885 -0.031170 -180402.000000 0 0 1
-31.736618 16.512331 28.025318 45.445445 -0.479750 0.906277 0.115896 -0.036078 -118891.000000 0 0 1
-30.934958 17.777431 27.640718 45.133335 -0.521587 0.911674 0.104405 -0.035522 -405682.000000 0 0 1
-31.630968 18.674131 26.797898 45.468326 -0.533312 0.940511 0.110954 -0.039538 5192.440000 0 0 1
-30.872258 19.744531 26.387778 45.158140 -0.568998 0.946728 0.117879 -0.035401 -626513.000000 0 0 1
-31.695258 20.578231 25.402418 45.533897 -0.575850 0.978968 0.132550 -0.028655 -509968.000000 0 0 1
-32.500868 21.499531 26.041718 46.869044 -0.584422 0.981679 0.129036 -0.034747 -111425.000000 0 0 1
-33.137098 22.233731 25.051498 47.116702 -0.590970 1.010201 0.133316 -0.023959 -477021.000000 0 0 1
-33.946778 23.434731 25.561458 48.527915 -0.604212 1.016039 0.129732 -0.021173 -162918.000000 0 0 1
-34.843505 23.845331 24.559348 48.844971 -0.600149 1.043959 0.141445 -0.025312 -3797.920000 0 0 1
-35.175079 25.248931 24.620318 49.809183 -0.622578 1.053775 0.138228 -0.015875 325468.000000 0 0 1
-36.244518 25.659831 23.564638 50.273096 -0.616051 1.082941 0.143448 -0.007093 171695.000000 0 0 1
-35.774370 25.503931 22.271688 49.257326 -0.619338 1.101622 0.136069 -0.020167 -11269.300000 0 0 1
-36.620118 26.186031 21.390888 49.842867 -0.620770 1.127227 0.143112 -0.020332 42510.700000 0 0 1
-36.284038 25.847931 19.932288 48.805154 -0.618985 1.150090 0.168757 -0.034349 292015.000000 0 0 1
-36.832248 24.595131 19.518688 48.399526 -0.588760 1.155695 0.168407 -0.043115 245283.000000 0 0 1
-36.184378 24.191031 18.307288 47.219403 -0.589305 1.172654 0.179879 -0.035366 40570.300000 0 0 1
-36.748868 22.959831 17.578888 46.761634 -0.558439 1.185401 0.191291 -0.041203 1226840.000000 0 0 1
37.204810 23.095331 17.023588 46.982920 0.555546 1.200024 0.159487 -0.047647 1016940.000000 0 0 1
37.048380 22.256331 15.916388 46.057118 0.540961 1.217940 0.157258 -0.041377 -106938.000000 0 0 1
35.639480 22.244431 15.309588 44.714323 0.557989 1.221340 0.134732 -0.030431 241318.000000 0 0 1
34.681520 21.398031 15.960188 43.765410 0.552816 1.197512 0.128849 -0.037622 -206589.000000 0 0 1
33.461650 21.516131 15.293088 42.620470 0.571445 1.203793 0.113623 -0.032165 -443055.000000 0 0 1
32.315310 20.679331 15.970488 41.556834 0.569259 1.176342 0.090475 -0.041987 576849.000000 0 0 1
31.680770 21.196331 17.137488 41.792931 0.589658 1.148280 0.093706 -0.030498 -178343.000000 0 0 1
30.686350 22.133031 16.815288 41.403829 0.624857 1.152583 0.092559 -0.021021 -356438.000000 0 0 1
30.120490 22.899331 18.067888 41.929367 0.650034 1.125293 0.082807 -0.014894 275488.000000 0 0 1
31.169570 23.435131 18.849688 43.313487 0.644690 1.120545 0.038685 -0.016298 -329283.000000 0 0 1
30.675250 24.091631 19.963588 43.816920 0.665761 1.097735 0.056116 -0.012058 -181409.000000 0 0 1
31.732530 24.711431 20.870188 45.311952 0.661643 1.092138 0.047767 -0.011748 -255952.000000 0 0 1
32.309980 25.917031 20.389788 46.166771 0.676043 1.113354 0.059474 -0.021222 -242828.000000 0 0 1
33.334870 26.297531 21.245088 47.477652 0.667929 1.106856 0.080323 -0.027469 -885776.000000 0 0 1
34.305400 27.318031 20.677588 48.483996 0.672492 1.130196 0.092985 -0.029436 -769489.000000 0 0 1
35.368000 27.841731 21.387888 49.834718 0.666888 1.127216 0.099882 -0.023352 -226228.000000 0 0 1
35.052730 28.576831 22.550488 50.535667 0.683972 1.108249 0.072105 -0.014538 -1118110.000000 0 0 1
36.205250 28.555431 23.492388 51.750604 0.667819 1.099599 0.069712 -0.013740 -314090.000000 0 0 1
37.357490 29.331131 23.173798 52.848105 0.665619 1.116869 0.100820 -0.014139 9733.650000 0 0 1
-37.154788 29.435831 24.332738 53.282535 -0.669997 1.096544 0.111962 -0.008159 494.668000 0 0 1
-35.914991 30.372631 24.282348 52.934070 -0.701981 1.094233 0.129604 -0.011567 -331520.000000 0 0 1
-34.844513 29.761331 23.644098 51.564719 -0.706880 1.094453 0.126835 -0.009185 -1453400.000000 0 0 1
-33.847098 30.721931 23.505598 51.400158 -0.737036 1.095833 0.128934 -0.010143 -198326.000000 0 0 1
-32.471288 29.981531 23.443318 50.028651 -0.745553 1.083093 0.122140 -0.010827 233418.000000 0 0 1
-32.068188 29.438331 22.188588 48.860183 -0.742667 1.099407 0.105586 -0.007475 362104.000000 0 0 1
-32.696038 28.153931 21.906388 48.389715 -0.710892 1.100997 0.129868 -0.005076 50026.200000 0 0 1
-32.092218 26.950131 22.646148 47.634736 -0.698526 1.075363 0.126035 -0.005703 -455420.000000 0 0 1
-30.701638 26.806831 22.411388 46.513085 -0.717776 1.068055 0.088156 -0.006256 103230.000000 0 0 1
-30.140788 25.825331 23.248988 45.999242 -0.708442 1.040926 0.085332 -0.005329 40699.700000 0 0 1
-29.780778 26.381331 24.651418 46.803438 -0.724943 1.016081 0.078042 -0.005538 -121178.000000 0 0 1
-30.962668 26.694731 25.391538 48.125104 -0.711511 1.015006 0.088081 -0.003741 545184.000000 0 0 1
-30.595548 27.174231 26.691888 48.856763 -0.726244 0.992821 0.096278 -0.009215 38822.900000 0 0 1
-31.826808 27.485531 27.579848 50.289642 -0.712335 0.990323 0.107745 -0.021701 -144564.000000 0 0 1
-32.616208 26.354531 27.783988 50.302369 -0.679612 0.985628 0.105581 -0.022871 -320852.000000 0 0 1
-33.592898 26.678031 28.728348 51.628656 -0.671168 0.980699 0.111141 -0.019362 -339325.000000 0 0 1
-34.362067 25.516531 29.329998 51.885391 -0.638734 0.970018 0.103799 -0.025535 -72459.700000 0 0 1
-33.598208 24.829731 30.271358 51.591765 -0.636436 0.943759 0.096601 -0.030000 224003.000000 0 0 1
-34.366064 23.683031 30.700338 51.811418 -0.603400 0.936588 0.083274 -0.038586 298601.000000 0 0 1
-33.648898 22.620931 31.546268 51.372384 -0.591867 0.909589 0.076313 -0.043971 -971976.000000 0 0 1
-32.702488 21.855831 30.786768 49.949526 -0.589149 0.906688 0.084900 -0.038418 539140.000000 0 0 1
-31.795468 21.179031 31.656200 49.614697 -0.587612 0.878845 0.080613 -0.031426 230145.000000 0 0 1
-30.737178 22.029931 32.403819 49.800597 -0.621859 0.862328 0.085568 -0.030482 -1206250.000000 0 0 1
-31.193658 22.783431 33.460808 51.105329 -0.630830 0.856955 0.097844 -0.037471 -225664.000000 0 0 1
-31.455408 22.121731 -32.966587 50.651846 -0.612919 2.279495 0.086746 -0.032689 -262418.000000 0 0 1
-30.356108 22.201931 -31.890677 49.309576 -0.631479 2.274104 0.105157 -0.023705 -114774.000000 0 0 1
-30.392718 23.491731 -31.378287 49.600157 -0.658021 2.255734 0.089090 -0.017510 90213.800000 0 0 1
-29.703268 23.581731 -30.158847 48.455528 -0.671017 2.242605 0.119585 -0.018625 -153881.000000 0 0 1
-29.944048 24.964131 -29.389417 48.822041 -0.694950 2.216763 0.095647 -0.006838 -95377.100000 0 0 1
-29.381268 26.200231 -29.793287 49.369534 -0.728229 2.218648 0.096010 -0.012876 212995.000000 0 0 1
-29.998808 26.704831 -30.972847 50.718771 -0.727372 2.227713 0.067633 0.001101 -17347.300000 0 0 1
-29.433318 28.064731 -31.463467 51.418859 -0.761600 2.229263 0.066668 -0.002992 -417506.000000 0 0 1
-29.814538 29.193331 -30.734557 51.824417 -0.774871 2.205640 0.051286 -0.007984 68274.300000 0 0 1
-29.237428 30.371131 -31.251947 52.477776 -0.804415 2.208718 0.035094 -0.013745 -268278.000000 0 0 1
-29.738498 31.685131 -30.618077 53.158183 -0.817079 2.184599 0.023735 -0.005626 45400.600000 0 0 1
-29.284228 31.833231 -29.285007 52.235354 -0.827081 2.165950 0.038016 -0.004400 354173.000000 0 0 1
-29.831778 33.019831 -28.733757 52.970492 -0.836078 2.144145 0.021539 -0.001402 -147243.000000 0 0 1
-29.178208 33.224631 -27.328667 51.981727 -0.850151 2.124376 0.008190 -0.001634 785249.000000 0 0 1
-27.799028 33.582731 -27.229247 51.400561 -0.879346 2.129098 0.048570 0.002049 557008.000000 0 0 1
-27.474508 -32.689765 -27.419777 50.747546 0.871866 2.141610 0.047166 0.007282 -263277.000000 0 0 1
-27.992868 -31.646865 -26.421347 49.831840 0.846590 2.129645 0.055351 -0.001901 912318.000000 0 0 1
-29.403648 -31.345065 -26.479337 50.480124 0.817345 2.122983 0.032084 -0.009295 801941.000000 0 0 1
-29.843358 -30.685665 -25.320757 49.733055 0.799313 2.104974 0.036816 -0.005682 576384.000000 0 0 1
-31.358988 -30.319165 -25.296897 50.423912 0.768541 2.096341 0.031639 -0.009175 459575.000000 0 0 1
-31.812148 -29.418565 -26.273567 50.673119 0.746327 2.115882 0.030120 -0.012866 251746.000000 0 0 1
-33.228758 -29.382665 -26.174427 51.503320 0.724047 2.103900 0.033650 -0.016826 245562.000000 0 0 1
-33.901308 -28.378165 -27.162907 51.888750 0.696946 2.121731 0.046722 -0.024219 -445431.000000 0 0 1
-35.282047 -28.587565 -27.206377 52.936364 0.680965 2.110574 0.055293 -0.028701 -485503.000000 0 0 1
-35.905566 -27.705065 -28.124087 53.364263 0.657188 2.125888 0.073272 -0.034681 1239460.000000 0 0 1
-37.474748 -27.897365 -28.225807 54.583110 0.639927 2.114274 0.075418 -0.038891 1050790.000000 0 0 1
37.123590 -27.276765 -27.181497 53.488471 -0.633673 2.103861 0.061049 -0.033007 -348157.000000 0 0 1
35.754560 -27.513165 -27.429437 52.799023 -0.655865 2.117070 0.066248 -0.032606 -216624.000000 0 0 1
34.752880 -26.906565 -26.450467 51.296716 -0.658826 2.112547 0.060476 -0.028320 -344059.000000 0 0 1
34.641020 -27.701265 -25.267747 51.047227 -0.674538 2.088617 0.061985 -0.022074 158312.000000 0 0 1
33.829480 -27.076165 -24.311817 49.685177 -0.674968 2.082103 0.060644 -0.021757 -158561.000000 0 0 1
33.585600 -27.858865 -22.991917 49.322785 -0.692465 2.055733 0.067300 -0.013596 129120.000000 0 0 1
32.936530 -29.118065 -23.261717 49.737151 -0.723942 2.057475 0.079065 -0.016618 208458.000000 0 0 1
32.504160 -29.847365 -22.100717 49.354101 -0.742814 2.035099 0.080753 -0.020788 149478.000000 0 0 1
33.516290 -30.116765 -20.922217 49.679979 -0.732025 2.005498 0.068980 -0.013589 -937212.000000 0 0 1
34.651850 -30.822965 -21.292517 51.031139 -0.726986 2.001209 0.061948 -0.014163 -79022.200000 0 0 1
35.691830 -30.739165 -20.314617 51.298018 -0.710982 1.977966 0.042108 -0.010702 868808.000000 0 0 1
36.596880 -29.441065 -20.397117 51.206936 -0.677460 1.980489 0.030282 -0.004236 -93052.000000 0 0 1
35.880720 -28.238365 -20.105917 49.890672 -0.666768 1.985588 0.026031 0.004367 174596.000000 0 0 1
36.587850 -27.123765 -20.572617 49.976013 -0.637931 1.995060 0.006755 0.011206 -438824.000000 0 0 1
35.835880 -25.969165 -20.081117 48.598961 -0.627091 1.996762 0.011005 0.006533 -768554.000000 0 0 1
34.671990 -25.709465 -20.772017 47.901985 -0.638042 2.019320 0.043867 0.001304 -943526.000000 0 0 1
33.755270 -24.911465 -20.081517 46.510930 -0.635778 2.017238 0.076416 -0.010974 -324623.000000 0 0 1
32.519480 -24.648565 -20.967317 45.876973 -0.648578 2.045454 0.081067 -0.018201 -304637.000000 0 0 1
31.654410 -25.743965 -21.017317 45.896416 -0.682787 2.046461 0.102889 -0.019408 -141635.000000 0 0 1
30.535240 -25.477265 -21.845717 45.373199 -0.695342 2.073125 0.093229 -0.025248 396691.000000 0 0 1
29.737190 -26.747965 -22.304417 45.795645 -0.732527 2.079496 0.091063 -0.019067 476916.000000 0 0 1
28.802190 -27.204565 -21.316917 44.989615 -0.756880 2.064418 0.087592 -0.017048 175980.000000 0 0 1
28.195890 -28.364565 -21.775417 45.538176 -0.788380 2.069377 0.070641 -0.009000 -478166.000000 0 0 1
27.485690 -29.185365 -20.704317 45.121141 -0.815381 2.047509 0.064209 0.002321 -1000010.000000 0 0 1
28.270890 -29.737265 -19.745917 45.535144 -0.810672 2.019326 0.092311 -0.012487 -432835.000000 0 0 1
28.952290 -30.910565 -20.229117 46.935224 -0.818099 2.016398 0.091518 -0.014070 131238.000000 0 0 1
29.854890 -31.532865 -19.147117 47.457856 -0.812725 1.986086 0.062131 -0.013988 -146016.000000 0 0 1
29.180690 -32.092065 -18.059217 46.984557 -0.832877 1.965316 0.065465 -0.014531 -129289.000000 0 0 1
28.807190 -31.146465 -17.035717 45.718400 -0.824396 1.952630 0.052806 -0.021872 -159193.000000 0 0 1
28.239090 -31.819665 -15.782117 45.376343 -0.844946 1.926025 0.059270 -0.020243 -479300.000000 0 0 1
26.975190 -32.371965 -16.030117 45.084028 -0.876084 1.934310 0.059079 -0.014312 -395053.000000 0 0 1
26.614690 -33.211765 -14.955417 45.111279 -0.895225 1.908714 0.079421 -0.018175 -1308150.000000 0 0 1
25.139290 -33.421965 -14.801417 44.363201 -0.925902 1.910960 0.084125 -0.018678 -1267550.000000 0 0 1
24.533390 -32.321865 -14.197017 42.990062 -0.921539 1.907354 0.089139 -0.012292 -290471.000000 0 0 1
23.150890 -32.555565 -14.072017 42.353868 -0.952647 1.909483 0.105358 -0.023976 -206854.000000 0 0 1
-0.298068 -7.204369 -29.030317 29.912390 1.529447 2.898140 0.109103 -0.040968 160138.000000 0 0 1
-0.321768 -8.609369 -28.902307 30.159047 1.533440 2.851893 0.108804 -0.036092 -157379.000000 0 0 1
-0.357568 -9.202969 -30.190697 31.564231 1.531962 2.845502 0.117204 -0.051443 -73653.700000 0 0 1
-0.074368 -10.681969 -30.114607 31.953083 1.563834 2.800720 0.124833 -0.030782 -287722.000000 0 0 1
1.253632 -10.955769 -29.751937 31.729768 -1.456865 2.786650 0.086252 -0.032218 -376604.000000 0 0 1
1.522332 -12.301169 -29.456257 31.957899 -1.447667 2.743290 0.111069 -0.035204 558020.000000 0 0 1
2.981432 -12.533469 -28.948747 31.686065 -1.337259 2.722876 0.085378 -0.023795 154507.000000 0 0 1
3.976432 -12.156269 -29.887197 32.508944 -1.254658 2.737229 0.090832 -0.031118 1119500.000000 0 0 1
5.354032 -12.436469 -29.558247 32.511865 -1.164267 2.712041 0.091549 -0.029510 1414670.000000 0 0 1
5.835632 -13.878469 -29.281367 32.925141 -1.172760 2.666678 0.096766 -0.029519 -929820.000000 0 0 1
5.208432 -14.454969 -28.165477 32.083765 -1.224956 2.642199 0.088176 -0.022177 30259.500000 0 0 1
5.963732 -15.519969 -27.579327 32.203335 -1.203930 2.599076 0.093790 -0.019693 118329.000000 0 0 1
5.870232 -16.911069 -28.272147 33.462788 -1.236686 2.577143 0.059188 -0.017468 -131752.000000 0 0 1
6.494732 -16.976269 -29.555367 34.697189 -1.205399 2.590225 0.085074 -0.032853 294538.000000 0 0 1
6.213232 -18.294369 -29.984097 35.669794 -1.243394 2.569190 0.074664 -0.024259 -502614.000000 0 0 1
6.807332 -18.547569 -31.375467 37.077918 -1.219040 2.579616 0.083181 -0.054280 -675162.000000 0 0 1
8.206032 -18.476269 -31.319017 37.277235 -1.152827 2.568383 0.087656 -0.047942 -423054.000000 0 0 1
8.725532 -19.309369 -32.336087 38.660175 -1.146379 2.561512 0.097050 -0.054176 -129540.000000 0 0 1
10.212932 -19.203569 -32.714037 39.284720 -1.082014 2.554838 0.099369 -0.051665 -108500.000000 0 0 1
10.553232 -17.992869 -33.348777 39.335162 -1.040345 2.582640 0.115226 -0.058246 96770.600000 0 0 1
11.718532 -18.020169 33.504138 39.806755 -0.994210 0.570429 0.122389 -0.045693 -252589.000000 0 0 1
11.903832 -16.672069 32.770317 38.646511 -0.950737 0.558690 0.113484 -0.047012 330443.000000 0 0 1
10.839232 -16.350969 31.859722 37.415038 -0.985399 0.551915 0.130953 -0.040665 428187.000000 0 0 1
10.776832 -15.040269 31.448178 36.487501 -0.949061 0.531813 0.108375 -0.032098 674438.000000 0 0 1
9.444432 -14.913369 30.615658 35.340124 -1.006261 0.523021 0.142087 -0.038856 796522.000000 0 0 1
9.474332 -15.683569 29.454138 34.688378 -1.027373 0.556504 0.133827 -0.034986 -235566.000000 0 0 1
8.330932 -15.430169 28.691598 33.625918 -1.075731 0.548594 0.137813 -0.034372 -567570.000000 0 0 1
8.071432 -16.286369 27.433798 32.909073 -1.110679 0.585159 0.110598 -0.028349 -514447.000000 0 0 1
7.669432 -17.593369 27.752478 33.742360 -1.159707 0.605036 0.118383 -0.032427 231256.000000 0 0 1
7.836632 -18.461869 26.675868 33.374472 -1.169369 0.644684 0.097492 -0.030124 -47211.100000 0 0 1
7.521132 -19.895269 27.149248 34.488706 -1.209366 0.664553 0.099740 -0.040405 -64428.600000 0 0 1
8.392832 -20.375369 28.184088 35.776223 -1.180064 0.663586 0.114156 -0.034749 503565.000000 0 0 1
7.872132 -21.436969 28.924898 36.853274 -1.218862 0.668316 0.101015 -0.033954 -72293.900000 0 0 1
8.540432 -21.433469 30.350788 38.124833 -1.191616 0.649990 0.124006 -0.045839 -68892.200000 0 0 1
8.119832 -20.564869 31.414348 38.414929 -1.194746 0.613281 0.135178 -0.052735 11552.900000 0 0 1
8.148632 -19.194069 31.070128 37.418783 -1.169316 0.591088 0.130616 -0.048238 -436444.000000 0 0 1
7.336432 -18.281169 31.950716 37.534952 -1.189160 0.552480 0.126857 -0.045473 -783793.000000 0 0 1
5.971332 -18.518169 31.873419 37.342928 -1.258865 0.548068 0.133029 -0.052875 -515564.000000 0 0 1
5.189932 -17.650069 32.703740 37.523259 -1.284811 0.512423 0.122560 -0.046202 729178.000000 0 0 1
3.693132 -18.014069 32.902552 37.692491 -1.368585 0.509639 0.133942 -0.046960 423175.000000 0 0 1
3.584532 -18.985569 -33.735287 38.876346 -1.384190 2.621471 0.131865 -0.055485 66610.600000 0 0 1
3.210532 -18.566569 -32.437527 37.512906 -1.399570 2.615355 0.114113 -0.061718 -563738.000000 0 0 1
2.582032 -19.642569 -31.553637 37.257608 -1.440095 2.580933 0.099058 -0.043717 -488911.000000 0 0 1
1.329232 -20.049569 -32.081397 37.854565 -1.504596 2.582037 0.099822 -0.040634 46491.700000 0 0 1
0.737832 -21.050769 -31.268517 37.701451 -1.535761 2.548778 0.097095 -0.041298 452917.000000 0 0 1
-0.147568 -20.429869 -30.117017 36.392802 1.563573 2.545533 0.100263 -0.038355 431777.000000 0 0 1
-1.400568 -19.854369 -30.528097 36.443411 1.500371 2.563827 0.110989 -0.045460 793718.000000 0 0 1
-2.058968 -18.996669 -29.580907 35.215662 1.462832 2.568067 0.153928 -0.040721 505804.000000 0 0 1
-1.553968 -17.532769 -29.694127 34.518893 1.482395 2.606513 0.138912 -0.040243 -287964.000000 0 0 1
-2.355368 -16.698769 -28.928917 33.485502 1.430670 2.613806 0.149624 -0.043128 -489831.000000 0 0 1
-2.196368 -15.324369 -29.284897 33.124998 1.428441 2.655302 0.143754 -0.034037 -167397.000000 0 0 1
-3.270468 -14.313169 -28.866007 32.385322 1.346159 2.671067 0.139468 -0.027530 -316528.000000 0 0 1
-3.249368 -13.832369 -27.528317 30.979042 1.340069 2.665104 0.133605 -0.028296 -280738.000000 0 0 1
-4.425768 -13.090169 -27.373477 30.663450 1.244763 2.674113 0.126204 -0.032418 -206698.000000 0 0 1
-4.600568 -12.650369 -25.916817 29.204083 1.221995 2.662553 0.127101 -0.038360 -281133.000000 0 0 1
-4.943068 -13.746269 -25.082467 29.026263 1.225601 2.614216 0.143817 -0.035987 -50990.200000 0 0 1
-5.057468 -13.426669 -23.672717 27.681238 1.210559 2.596714 0.131489 -0.043125 594093.000000 0 0 1
-6.158068 -12.374869 -23.253617 27.051615 1.109049 2.605286 0.105399 -0.040926 475676.000000 0 0 1
-7.479168 -12.736869 -23.592217 27.834483 1.039837 2.582223 0.113479 -0.040365 -23328.200000 0 0 1
-8.420768 -11.761669 -23.144117 27.292789 0.949446 2.582985 0.085991 -0.038047 1234140.000000 0 0 1
-9.909968 -12.220769 -23.422117 28.216134 0.889437 2.550077 0.096363 -0.038165 786348.000000 0 0 1
-10.342668 -13.279769 -22.604317 28.182941 0.909099 2.501527 0.095177 -0.041897 118714.000000 0 0 1
-11.495968 -13.907269 -23.170717 29.367525 0.880036 2.479962 0.078900 -0.035285 322592.000000 0 0 1
-12.291068 -14.835669 -22.202617 29.395979 0.878929 2.426899 0.070931 -0.033249 -153575.000000 0 0 1
-11.622668 -16.066369 -21.936217 29.570462 0.944527 2.406590 0.110014 -0.038359 -332483.000000 0 0 1
-12.399168 -17.166069 -21.435717 30.131433 0.945256 2.362295 0.096847 -0.027282 350867.000000 0 0 1
-13.111768 -18.018469 -22.536217 31.693292 0.941731 2.361818 0.098754 -0.024230 228743.000000 0 0 1
-14.248568 -17.423069 -23.094617 32.248199 0.885296 2.369070 0.057657 -0.016195 -481631.000000 0 0 1
-14.827668 -18.170569 -24.107917 33.633628 0.886359 2.369970 0.025047 -0.013372 561856.000000 0 0 1
-16.105368 -17.599969 -24.812417 34.420892 0.829712 2.375829 0.033005 -0.014472 1175660.000000 0 0 1
-17.377968 -18.034769 -24.301717 34.897279 0.803943 2.341135 0.030649 -0.008658 883882.000000 0 0 1
-18.488468 -17.479569 -24.985317 35.659849 0.757356 2.347114 0.022734 -0.013005 392091.000000 0 0 1
-19.059968 -16.119169 -24.388117 34.898284 0.701997 2.344563 0.036290 -0.002881 -287165.000000 0 0 1
-19.674568 -16.127769 -23.102017 34.364178 0.686654 2.308068 0.039620 -0.005868 498958.000000 0 0 1
-20.267068 -14.827269 -22.848017 33.950461 0.631617 2.309028 0.048451 -0.010540 2228.430000 0 0 1
-20.862568 -14.628669 -21.405917 33.278491 0.611526 2.269513 0.049505 -0.015239 -121496.000000 0 0 1
-19.985468 -14.366669 -20.330917 31.924384 0.623269 2.261197 0.058205 -0.008070 -191879.000000 0 0 1
-20.587368 -14.574269 -19.080517 31.627759 0.616024 2.218409 0.044707 -0.013887 -213668.000000 0 0 1
-21.105468 -13.349069 -18.317917 30.970704 0.563970 2.203664 0.050530 -0.014137 428189.000000 0 0 1
-22.316968 -12.839769 -18.883917 31.929751 0.522087 2.203616 0.052506 -0.021601 398441.000000 0 0 1
-22.780368 -11.664869 -18.298517 31.461882 0.473247 2.191502 0.053947 -0.024975 -264669.000000 0 0 1
-24.243968 -11.352769 -18.623717 32.611319 0.437945 2.178619 0.078392 -0.031912 -222399.000000 0 0 1
-24.392868 -10.708069 -19.896317 33.249634 0.413655 2.212289 0.050717 -0.032533 664107.000000 0 0 1
-25.806288 -10.594569 -20.124317 34.397638 0.389561 2.195737 0.069022 -0.037480 711041.000000 0 0 1
-26.276658 -9.656869 -21.292117 35.172036 0.352186 2.221028 0.067552 -0.033510 -134078.000000 0 0 1
-26.056578 -9.970569 -22.632917 35.925011 0.365461 2.252355 0.049050 -0.032840 268001.000000 0 0 1
-27.004168 -9.154269 -23.295817 36.820114 0.326837 2.255822 0.020903 -0.024784 -342007.000000 0 0 1
-27.271608 -9.563669 -24.766517 38.060277 0.337282 2.279326 0.032259 -0.020389 -180394.000000 0 0 1
-26.204658 -9.299769 -25.657837 37.835094 0.341024 2.316038 0.012613 -0.024518 -273847.000000 0 0 1
-25.362958 -10.415669 -25.702687 37.581829 0.389666 2.323909 0.026100 -0.014152 -367483.000000 0 0 1
-24.308368 -10.336169 -26.840497 37.658271 0.402049 2.364191 0.038326 -0.019292 83456.900000 0 0 1
-24.846368 -10.472469 -28.141797 38.974034 0.398893 2.377579 0.040294 -0.008035 3012.480000 0 0 1
-23.888968 -10.174969 -29.122337 39.016961 0.402656 2.413435 0.038449 -0.001810 424759.000000 0 0 1
-24.501168 -10.726369 -30.472117 40.545186 0.412654 2.421219 0.040373 -0.004413 670372.000000 0 0 1
-25.451098 -9.895869 -31.087497 41.377760 0.370831 2.420840 0.032328 -0.011954 -82247.600000 0 0 1
-24.775568 -8.951869 -31.901127 41.372051 0.346722 2.451331 0.031349 -0.016571 -499423.000000 0 0 1
-25.701948 -7.881569 -32.545417 42.212716 0.297549 2.451184 0.029672 -0.018558 -361884.000000 0 0 1
-26.655938 -8.419769 -33.452517 43.594752 0.305951 2.445497 0.045866 -0.018922 1289040.000000 0 0 1
-27.807848 -9.122569 -32.931367 44.056470 0.316995 2.415058 0.059772 -0.020641 38700.400000 0 0 1
-28.843868 -8.220569 -32.212717 44.013698 0.277641 2.391872 0.045257 -0.013891 -612624.000000 0 0 1
-30.065358 -8.892769 -31.976127 44.782583 0.287582 2.366035 0.066211 -0.017141 315212.000000 0 0 1
-30.925858 -8.211569 -31.067537 44.598547 0.259536 2.341450 0.060351 -0.013038 1368560.000000 0 0 1
-32.465608 -8.556469 -31.203657 45.835543 0.257695 2.319615 0.065591 -0.016080 1140980.000000 0 0 1
-32.741968 -9.834369 -30.748917 45.980943 0.291787 2.303298 0.066174 -0.014286 704357.000000 0 0 1
-34.112679 -10.159169 -31.032017 47.221495 0.289448 2.287839 0.077963 -0.013419 780094.000000 0 0 1
-34.164694 -11.702569 -30.935847 47.552109 0.330008 2.279128 0.078168 -0.016614 -617950.000000 0 0 1
-35.389303 -12.363869 -31.065017 48.685760 0.336111 2.262788 0.052818 -0.015027 -323428.000000 0 0 1
-35.132803 -13.767069 -31.144917 48.927005 0.373468 2.260824 0.050817 -0.023598 746337.000000 0 0 1
-36.495358 -14.471169 -30.862627 49.938238 0.377503 2.237013 0.029507 -0.026889 662190.000000 0 0 1
-36.897478 -14.419769 -29.516407 49.402144 0.372556 2.211141 0.039415 -0.029268 424613.000000 0 0 1
37.309280 -15.338069 -29.244857 49.824696 -0.390044 2.198089 0.027627 -0.025325 665715.000000 0 0 1
37.207060 -15.589669 -27.743027 48.959969 -0.396776 2.173227 0.040424 -0.019833 -186577.000000 0 0 1
-36.828828 -15.932869 -27.241837 48.500892 0.408307 2.167208 0.055147 -0.035923 -274611.000000 0 0 1
-36.913918 -15.972369 -25.827647 47.799804 0.408368 2.141625 0.066780 -0.032920 684462.000000 0 0 1
-35.647896 -15.285469 -25.184137 46.245635 0.405077 2.146677 0.133124 -0.038520 696452.000000 0 0 1
-34.431869 -15.973969 -25.372607 45.656220 0.434377 2.160039 0.125535 -0.039953 -131330.000000 0 0 1
-33.385008 -15.338469 -24.644617 44.240078 0.430678 2.161644 0.145724 -0.031886 -357004.000000 0 0 1
-32.072928 -16.083869 -24.802417 43.617925 0.464829 2.175635 0.150736 -0.036360 -570707.000000 0 0 1
-31.956728 -17.239469 -23.966817 43.506782 0.494717 2.154209 0.175093 -0.045151 257962.000000 0 0 1
-32.685368 -18.402769 -24.422017 44.759692 0.512790 2.147931 0.135815 -0.044400 78916.600000 0 0 1
-32.347958 -19.654569 -23.629017 44.620879 0.545988 2.128867 0.132130 -0.036829 635525.000000 0 0 1
-31.056258 -20.192569 -23.958417 44.116173 0.576511 2.144892 0.116528 -0.031767 676015.000000 0 0 1
-30.834168 -21.399869 -23.289317 44.171173 0.606709 2.126159 0.100471 -0.024824 -403514.000000 0 0 1
-29.379098 -21.913469 -23.434117 43.502751 0.640863 2.139667 0.096660 -0.021206 420051.000000 0 0 1
-28.309588 -21.283069 -22.751017 42.095256 0.644650 2.141786 0.114356 -0.018824 176627.000000 0 0 1
-28.236648 -21.427269 -21.364617 41.386990 0.649139 2.113223 0.114685 -0.030952 -622022.000000 0 0 1
-27.990708 -22.809169 -20.702117 41.621095 0.683751 2.091389 0.099070 -0.021222 -76116.500000 0 0 1
-28.012528 -22.643469 -19.281717 40.856003 0.679802 2.062290 0.097011 -0.026326 18777.500000 0 0 1
-27.859688 -23.809569 -18.577417 41.087446 0.707173 2.039963 0.081419 -0.002010 -115937.000000 0 0 1
-27.838478 -23.497669 -17.065517 40.228760 0.701042 2.008888 0.077111 -0.007167 610472.000000 0 0 1
-29.003728 -22.841269 -16.529217 40.449410 0.667090 1.991759 0.100399 -0.005022 315957.000000 0 0 1
-28.851928 -21.428369 -16.394717 39.501841 0.638814 1.998780 0.095640 -0.019248 -33070.700000 0 0 1
-29.978458 -20.624169 -15.696517 39.628839 0.602604 1.978049 0.115191 -0.004406 1039450.000000 0 0 1
-31.223578 -20.549269 -16.411517 40.823059 0.582071 1.984514 0.117106 -0.020901 1461650.000000 0 0 1
-32.324388 -19.921769 -15.707417 41.090946 0.552324 1.963037 0.129021 -0.023467 929152.000000 0 0 1
-33.218308 -19.182769 -16.745317 41.854990 0.523693 1.982400 0.140886 -0.047333 -663602.000000 0 0 1
-34.110635 -20.004569 -17.418817 43.210339 0.530405 1.985716 0.090756 -0.038126 -434496.000000 0 0 1
-34.678615 -19.298269 -18.512617 43.792082 0.507812 2.007262 0.088011 -0.036364 -1066480.000000 0 0 1
-35.981291 -19.865069 -19.052917 45.302184 0.504450 2.004874 0.053145 -0.022629 -312046.000000 0 0 1
-37.076918 -19.695169 -18.161217 45.743057 0.488293 1.979071 0.042708 -0.009383 84544.700000 0 0 1
-37.163008 -20.392069 -16.913417 45.639777 0.501860 1.950435 0.070278 -0.017079 -1137420.000000 0 0 1
-37.458788 -21.909869 -16.994117 46.604754 0.529247 1.944046 0.049226 0.018780 1114940.000000 0 0 1
36.414480 -22.153669 -16.843217 45.831139 -0.546555 1.947122 0.043978 -0.008275 1005910.000000 0 0 1
36.129870 -23.555769 -16.874517 46.314048 -0.577762 1.943731 0.040098 -0.003747 721864.000000 0 0 1
34.684430 -23.839369 -16.334417 45.145745 -0.602166 1.941011 0.026569 -0.006103 676799.000000 0 0 1
33.592720 -23.653069 -17.223917 44.548870 -0.613481 1.967771 0.050409 -0.012770 -374698.000000 0 0 1
32.465970 -23.998769 -16.465617 43.601567 -0.636552 1.958041 0.083382 -0.013153 -925671.000000 0 0 1
31.168710 -23.930369 -17.271717 42.923923 -0.654777 1.984911 0.087567 -0.027485 -379097.000000 0 0 1
30.805630 -22.644369 -17.639517 42.105900 -0.633879 2.003065 0.057488 -0.027269 -1196980.000000 0 0 1
29.523990 -22.644569 -18.108417 41.380638 -0.654286 2.023731 0.102773 -0.034108 -1429750.000000 0 0 1
35.521950 29.846231 -18.251317 49.856965 0.698788 1.945583 0.059948 -0.014085 -159041.000000 0 0 1
34.761070 30.039031 -19.421717 49.878637 0.712656 1.970754 0.057018 -0.025394 101533.000000 0 0 1
35.131560 29.102131 -20.460717 49.998014 0.691805 1.992407 0.063751 -0.016877 -801125.000000 0 0 1
34.177140 29.069631 -21.588817 49.791539 0.704818 2.019263 0.070451 -0.025641 -1432540.000000 0 0 1
33.048020 28.281131 -21.312917 48.437944 0.707828 2.026400 0.053602 -0.015419 250811.000000 0 0 1
32.173240 28.198831 -22.457617 48.318071 0.719661 2.054190 0.077515 -0.014935 328456.000000 0 0 1
31.042590 29.248831 -22.475117 48.210656 0.755655 2.055771 0.064179 -0.017009 -447948.000000 0 0 1
31.538200 30.575731 -22.648417 49.421495 0.769904 2.046845 0.086796 -0.029902 -24599.600000 0 0 1
30.436410 31.431231 -22.442617 49.172842 0.801477 2.044744 0.079425 -0.013524 -598856.000000 0 0 1
30.585420 32.982731 -22.379317 50.241042 0.823093 2.032461 0.084037 -0.017621 90232.900000 0 0 1
31.288810 33.466631 -21.248317 50.502435 0.819017 2.005056 0.072659 -0.019090 88013.500000 0 0 1
32.697550 33.356731 -21.290117 51.332936 0.795377 1.998460 0.062457 -0.023115 -180017.000000 0 0 1
33.299150 33.159231 -19.855417 51.015738 0.783293 1.970561 0.066663 -0.023177 -289591.000000 0 0 1
33.213270 -33.308265 -19.075817 50.758729 -0.786826 1.956071 0.059043 -0.022549 110650.000000 0 0 1
33.515750 -33.599065 -17.778317 50.678113 -0.786640 1.929231 0.050778 -0.030380 -186502.000000 0 0 1
33.561790 -32.298765 -16.830717 49.526528 -0.766223 1.917535 0.049530 -0.026112 948452.000000 0 0 1
34.785140 -31.531165 -16.912017 49.902271 -0.736370 1.916547 0.058483 -0.020002 329645.000000 0 0 1
35.651320 -31.736065 -15.826717 50.285976 -0.727363 1.890973 0.052764 -0.018481 7753.150000 0 0 1
36.863660 -30.780165 -16.072617 50.642640 -0.695705 1.893755 0.053402 -0.004552 20621.900000 0 0 1
37.629810 -31.252065 -17.181617 51.844981 -0.693072 1.908587 0.045574 -0.008494 -19930.600000 0 0 1
-36.462438 -30.481165 -17.241517 50.555719 0.696287 1.918819 0.028025 0.003147 761552.000000 0 0 1
-35.427897 -30.966765 -18.318217 50.493895 0.718308 1.942047 0.058970 -0.005535 -9436.580000 0 0 1
-34.848924 -32.188965 -17.887017 50.700319 0.745741 1.931357 0.054754 -0.015855 237285.000000 0 0 1
-33.880048 -32.839365 -18.686917 50.749211 0.769802 1.947891 0.079383 -0.021125 83661.300000 0 0 1
-32.465188 -32.255465 -18.740517 49.453113 0.782158 1.959463 0.061052 -0.021889 -1277090.000000 0 0 1
-32.413088 -31.204065 -19.722617 49.125182 0.766396 1.983925 0.057245 -0.008403 7715.350000 0 0 1
-31.149608 -30.865565 -20.247817 48.300675 0.780818 2.003364 0.074358 -0.010224 140713.000000 0 0 1
-30.300788 -32.008365 -20.926617 48.791356 0.812796 2.014071 0.079224 -0.010528 -398369.000000 0 0 1
-30.627248 -32.383965 -22.219917 49.804359 0.813270 2.033248 0.070399 -0.001216 60957.200000 0 0 1
-29.823438 -33.484365 -22.674017 50.246902 0.843161 2.038964 0.070049 -0.006500 51364.500000 0 0 1
-30.431018 33.459331 -23.930117 51.168586 -0.832761 2.057452 0.061228 -0.010605 -309297.000000 0 0 1
-31.530818 32.663931 -23.571917 51.154278 -0.803048 2.049693 0.074908 -0.024618 -37052.900000 0 0 1
-32.253408 32.090931 -24.653217 51.748345 -0.782873 2.067359 0.064894 -0.017631 852552.000000 0 0 1
-33.165978 32.970831 -25.597727 53.313238 -0.782448 2.071609 0.054846 -0.028015 -185433.000000 0 0 1
-32.470178 33.740731 -26.516657 53.813404 -0.804585 2.086046 0.039197 -0.027150 -809932.000000 0 0 1
-33.370478 -33.135365 -27.182947 54.318080 0.781863 2.094903 0.041124 -0.027280 -208837.000000 0 0 1
-32.758108 -32.419165 -28.400907 54.136008 0.780198 2.123067 0.025378 -0.019483 -145636.000000 0 0 1
-32.536198 -33.197965 -29.494957 55.051444 0.795465 2.136217 0.030792 -0.017412 -568435.000000 0 0 1
-33.515258 -33.183465 -30.486657 56.159159 0.780424 2.144637 0.038658 -0.018159 -501356.000000 0 0 1
-33.366868 33.448331 -31.672407 56.879522 -0.786617 2.161365 0.053400 -0.016331 133370.000000 0 0 1
-32.386078 -33.788965 -32.600957 57.038361 0.806595 2.179204 0.034651 -0.017862 36707.800000 0 0 1
-32.537848 33.208131 -33.793407 57.475959 -0.795593 2.199327 0.046682 -0.030609 -774369.000000 0 0 1
-31.693218 33.651231 32.659188 56.599364 -0.815354 0.955716 0.048677 -0.027047 -186942.000000 0 0 1
-30.357188 33.220831 32.741703 55.652508 -0.830409 0.941812 0.038882 -0.023668 -302307.000000 0 0 1
-30.118748 31.879031 32.326708 54.483279 -0.813783 0.935604 0.041437 -0.033619 -96135.800000 0 0 1
-28.671868 31.284531 32.386877 53.382654 -0.828947 0.918903 0.053402 -0.028727 342207.000000 0 0 1
-28.156378 31.248631 33.730528 53.916668 -0.837405 0.894890 0.054775 -0.032258 389142.000000 0 0 1
-26.782108 30.920531 -33.771057 53.045686 -0.856995 2.260931 0.068426 -0.036663 60934.900000 0 0 1
-26.402358 29.394031 33.573369 51.848478 -0.838965 0.866460 0.079583 -0.033143 -439463.000000 0 0 1
-26.490578 28.571231 -32.922307 51.009256 -0.823168 2.272367 0.081304 -0.026051 230074.000000 0 0 1
-26.282678 27.229531 -33.235857 50.367139 -0.803090 2.291445 0.077828 -0.021632 -564247.000000 0 0 1
-26.103838 26.331631 -31.985397 48.967650 -0.789742 2.282592 0.112768 -0.026635 -182418.000000 0 0 1
-24.878568 26.463731 -31.292687 47.942720 -0.816263 2.281952 0.097579 -0.025343 133153.000000 0 0 1
-24.788168 27.619831 -30.461377 48.012538 -0.839377 2.258088 0.077763 -0.024727 -364710.000000 0 0 1
-23.461768 27.803931 -29.724347 46.979250 -0.869896 2.255847 0.109597 -0.030545 -422183.000000 0 0 1
-22.319268 28.106831 -30.496067 47.097280 -0.899671 2.275112 0.111923 -0.027091 185299.000000 0 0 1
-21.098368 28.125031 -29.777767 46.074656 -0.927191 2.273514 0.090735 -0.025571 293395.000000 0 0 1
-20.838268 29.415231 -28.985587 46.256388 -0.954443 2.248016 0.079214 -0.022058 -1122730.000000 0 0 1
-20.442468 30.520031 -29.711427 47.245483 -0.980624 2.250900 0.083438 -0.018141 -3486.980000 0 0 1
-20.504768 31.679631 -28.896857 47.529705 -0.996354 2.224303 0.104382 -0.026397 -89613.900000 0 0 1
-19.847868 32.909131 -29.595887 48.506343 -1.028092 2.227040 0.104097 -0.015931 -442799.000000 0 0 1
-18.469268 32.874831 -29.773457 48.045053 -1.058934 2.239155 0.097134 -0.012019 -708143.000000 0 0 1
-18.030668 -33.779365 -30.658017 49.051651 1.080493 2.245947 0.101814 -0.005297 -758792.000000 0 0 1
-16.571068 33.725931 -31.013337 48.722333 -1.114097 2.260790 0.081645 0.002199 -986491.000000 0 0 1
-15.669568 -33.577865 -29.951047 47.645289 1.134172 2.250581 0.089716 -0.003157 128956.000000 0 0 1
-14.320668 -33.718965 -30.352597 47.574471 1.169174 2.262697 0.111122 0.000470 375340.000000 0 0 1
-13.748068 32.483531 -30.288117 46.492571 -1.170424 2.280305 0.113411 -0.011629 -694257.000000 0 0 1
-13.560468 32.079631 -28.943107 45.284572 -1.170865 2.264174 0.111360 -0.023348 78410.000000 0 0 1
-13.226068 30.704031 -28.750227 44.093559 -1.164057 2.281052 0.099667 -0.023087 -68006.500000 0 0 1
-13.070668 30.421931 -27.248287 42.881294 -1.164997 2.259368 0.086261 -0.035495 -509697.000000 0 0 1
-11.787068 30.715631 -26.808197 42.438949 -1.204378 2.254526 0.081586 -0.029417 -781104.000000 0 0 1
-11.587868 30.709831 -25.408847 41.508817 -1.209981 2.229549 0.063147 -0.029758 63561.100000 0 0 1
-10.161168 31.144531 -25.027317 41.226178 -1.255427 2.223169 0.060782 -0.032441 -443497.000000 0 0 1
-9.186568 30.210131 -25.289367 40.454877 -1.275592 2.246088 0.063186 -0.018381 -1474220.000000 0 0 1
-7.943668 30.792831 -25.076037 40.498246 -1.318329 2.238505 0.077602 -0.029419 -389454.000000 0 0 1
-6.743468 29.965531 -25.623667 39.999746 -1.349443 2.266070 0.076724 -0.031424 26555.900000 0 0 1
-6.464668 28.790731 -24.892717 38.604993 -1.349920 2.271565 0.077125 -0.046528 -202018.000000 0 0 1
-5.448568 27.985131 -25.399917 38.183900 -1.378507 2.298557 0.078379 -0.053296 -434083.000000 0 0 1
-5.037968 26.865531 -24.446817 36.671307 -1.385424 2.300498 0.090903 -0.049646 483803.000000 0 0 1
-6.015568 25.792931 -24.465617 36.055911 -1.341667 2.316579 0.086054 -0.048489 530539.000000 0 0 1
-5.542068 24.672831 -23.772117 34.707011 -1.349841 2.325314 0.093079 -0.062609 -600030.000000 0 0 1
-6.372768 23.412631 -23.853617 34.025850 -1.305041 2.347657 0.091222 -0.053446 -386271.000000 0 0 1
-6.451668 22.924031 -25.196377 34.669765 -1.296456 2.384380 0.085672 -0.049200 522165.000000 0 0 1
-7.420368 21.867931 -25.268297 34.230908 -1.243662 2.401153 0.083120 -0.052105 21709.600000 0 0 1
-7.156168 20.999031 -26.529177 34.582760 -1.242354 2.445138 0.049333 -0.041099 485213.000000 0 0 1
-5.951868 20.218731 -26.557087 33.904287 -1.284509 2.470746 0.066859 -0.051950 90438.300000 0 0 1
-5.792868 19.181131 -25.630077 32.532660 -1.277498 2.478068 0.065879 -0.049392 -503239.000000 0 0 1
-4.440668 18.490131 -25.784057 32.037822 -1.335096 2.506136 0.070124 -0.058687 -382453.000000 0 0 1
-4.408868 17.790331 -27.055137 32.678960 -1.327867 2.546162 0.067886 -0.059107 -337173.000000 0 0 1
-3.376268 16.849031 -27.152117 32.132950 -1.373032 2.577348 0.072304 -0.057207 -566069.000000 0 0 1
-3.108668 16.390331 -28.575057 33.088376 -1.383358 2.613159 0.074817 -0.048575 -13541.500000 0 0 1
-2.535668 17.491631 -29.324767 34.239286 -1.426835 2.599179 0.090060 -0.055503 335668.000000 0 0 1
-2.416968 17.293031 -30.706167 35.323637 -1.431930 2.624542 0.087476 -0.058766 -37177.600000 0 0 1
-1.611768 18.426131 -31.370937 36.417795 -1.483547 2.608851 0.092552 -0.040453 920105.000000 0 0 1
-0.186968 18.473131 -31.171617 36.234807 -1.560676 2.606590 0.128334 -0.048626 941465.000000 0 0 1
0.577732 19.530231 -31.706817 37.243602 1.541224 2.589323 0.147576 -0.038010 417908.000000 0 0 1
0.504432 20.795331 -30.828677 37.190154 1.546544 2.548019 0.146820 -0.039417 -88469.200000 0 0 1
1.338932 20.894231 -29.690877 36.330563 1.506802 2.527406 0.165849 -0.054686 -298664.000000 0 0 1
1.114232 22.115831 -28.994047 36.482958 1.520457 2.489356 0.164214 -0.064516 -343059.000000 0 0 1
2.212432 22.355931 -27.984557 35.886180 1.472154 2.465165 0.172761 -0.067607 -92846.300000 0 0 1
3.486032 22.426431 -28.613287 36.521465 1.416587 2.471018 0.169254 -0.065194 -30618.900000 0 0 1
4.545932 22.630931 -27.707067 36.062530 1.372562 2.446987 0.160632 -0.068778 110866.000000 0 0 1
5.134032 24.030631 -27.483307 36.866810 1.360315 2.412044 0.166051 -0.065250 -478270.000000 0 0 1
5.896432 24.514331 -28.545277 38.086128 1.334750 2.418092 0.148668 -0.059704 57055.400000 0 0 1
6.349632 25.839731 -28.244257 38.803963 1.329839 2.386007 0.149388 -0.060618 -82213.900000 0 0 1
7.226032 26.502931 -29.349507 40.199682 1.304616 2.389254 0.159391 -0.051800 622188.000000 0 0 1
8.605632 26.191631 -29.163037 40.131548 1.253344 2.384282 0.134816 -0.044606 86802.400000 0 0 1
9.427932 27.063031 -29.864137 41.390340 1.235575 2.376798 0.139257 -0.042444 -323510.000000 0 0 1
10.908832 26.894431 -29.496587 41.380692 1.185457 2.364293 0.126222 -0.038029 163756.000000 0 0 1
11.791932 27.785431 -30.159437 42.669327 1.169440 2.355786 0.117899 -0.030592 930991.000000 0 0 1
13.129732 27.866031 -29.625247 42.738283 1.130475 2.336686 0.111543 -0.033014 1395840.000000 0 0 1
13.917932 29.019631 -30.437747 44.297903 1.123598 2.328307 0.111725 -0.031801 130098.000000 0 0 1
13.518032 30.347831 -30.193207 44.892736 1.151744 2.308463 0.117994 -0.027390 85057.600000 0 0 1
14.289732 31.247631 -30.970187 46.257576 1.141883 2.304353 0.159958 -0.040612 53204.100000 0 0 1
13.922432 32.752231 -30.762767 47.041371 1.168855 2.283592 0.161928 -0.050670 -129525.000000 0 0 1
12.704732 32.975931 -31.422667 47.288542 1.203050 2.297605 0.139131 -0.045344 -120902.000000 0 0 1
12.238932 -33.393065 -31.333057 47.398826 -1.219489 2.293015 0.121839 -0.041587 -130964.000000 0 0 1
10.962832 -33.140965 -32.174037 47.472896 -1.251333 2.315474 0.087427 -0.037257 -127131.000000 0 0 1
11.079832 -32.918165 -33.570307 48.304594 -1.246120 2.339176 0.065464 -0.022719 36026.900000 0 0 1
9.799832 -32.673665 33.538363 47.837505 -1.279403 0.793872 0.077555 -0.027079 174507.000000 0 0 1
9.917532 -31.971565 32.206503 46.452097 -1.270010 0.804700 0.076399 -0.031077 30757.700000 0 0 1
9.793432 -30.555665 32.398457 45.598465 -1.260630 0.780565 0.067263 -0.036041 -126449.000000 0 0 1
9.929532 -29.798665 31.207558 44.277170 -1.249147 0.788623 0.086298 -0.036660 -703302.000000 0 0 1
9.383632 -28.377865 31.119528 43.148358 -1.251447 0.765232 0.086102 -0.043636 -56260.400000 0 0 1
7.974432 -28.318965 31.171458 42.862748 -1.296311 0.756506 0.055325 -0.040164 -295017.000000 0 0 1
7.443932 -28.319265 32.511002 43.753379 -1.313754 0.733178 0.071125 -0.044132 -1604890.000000 0 0 1
5.935832 -28.216765 32.447423 43.408009 -1.363454 0.726508 0.058474 -0.040581 -711292.000000 0 0 1
5.207332 -29.435065 32.152227 43.901083 -1.395699 0.748987 0.080943 -0.048741 307945.000000 0 0 1
5.464632 -30.134665 30.898658 43.505026 -1.391405 0.780969 0.078237 -0.036491 -807221.000000 0 0 1
5.334132 -29.295465 29.561918 41.959317 -1.390689 0.789025 0.069210 -0.039728 -54882.400000 0 0 1
4.055432 -28.771965 29.237238 41.220002 -1.430768 0.782295 0.106114 -0.041361 401224.000000 0 0 1
4.047532 -28.263165 27.925478 39.937718 -1.428555 0.796483 0.118091 -0.039410 428401.000000 0 0 1
2.605132 -28.306765 27.275058 39.395285 -1.479023 0.806065 0.099985 -0.032463 832700.000000 0 0 1
2.308332 -29.510765 26.618618 39.809101 -1.492735 0.838396 0.117962 -0.034975 251881.000000 0 0 1
1.816432 -30.490165 27.540248 41.126814 -1.511292 0.837069 0.161439 -0.048397 -818157.000000 0 0 1
2.041632 -31.958265 27.058638 41.924562 -1.506999 0.869233 0.188795 -0.047327 58738.700000 0 0 1
3.405832 -32.320965 27.113658 42.324874 -1.465808 0.875506 0.143522 -0.038125 194570.000000 0 0 1
4.148432 -32.119765 25.948338 41.499459 -1.442352 0.895320 0.128206 -0.041636 -612427.000000 0 0 1
5.653132 -31.909665 26.153178 41.643407 -1.395455 0.891781 0.139884 -0.022653 -256710.000000 0 0 1
6.244432 -31.537565 24.928858 40.682415 -1.375325 0.911239 0.116751 -0.032858 270185.000000 0 0 1
7.659332 -31.523165 25.017948 40.966731 -1.332441 0.913865 0.104389 -0.041144 12657.000000 0 0 1
8.417732 -31.329265 23.671198 40.158520 -1.308310 0.940426 0.090187 -0.036564 169664.000000 0 0 1
9.785332 -31.044265 23.901918 40.383175 -1.265448 0.937409 0.082470 -0.022765 179362.000000 0 0 1
10.452832 -30.597865 22.748118 39.534389 -1.241607 0.957702 0.093914 -0.029476 457991.000000 0 0 1
11.688332 -29.662365 22.895688 39.251568 -1.195433 0.948003 0.064735 -0.023633 979184.000000 0 0 1
12.800532 -30.247565 23.585808 40.435865 -1.170458 0.948024 0.064742 -0.036363 914686.000000 0 0 1
14.001032 -29.501165 23.407698 40.177954 -1.127681 0.948872 0.077822 -0.033327 432556.000000 0 0 1
15.309132 -30.059265 24.012598 41.406930 -1.099738 0.952169 0.088830 -0.030790 -121669.000000 0 0 1
15.375832 -30.125265 25.428808 42.315152 -1.098866 0.926121 0.099599 -0.037284 124894.000000 0 0 1
15.891632 -28.967865 26.054718 42.077661 -1.069032 0.903066 0.105311 -0.040662 -264708.000000 0 0 1
-11.175368 -13.823269 25.292048 30.913740 0.890927 0.612612 0.109634 -0.032070 265286.000000 0 0 1
-9.765868 -13.711069 25.184508 30.292326 0.951888 0.589206 0.111442 -0.029305 -351398.000000 0 0 1
-9.168568 -13.967669 26.465128 31.297946 0.989926 0.563133 0.120982 -0.032761 -487444.000000 0 0 1
-7.648368 -14.029069 26.304408 30.777170 1.071661 0.545876 0.128818 -0.029091 -742439.000000 0 0 1
-7.191268 -15.107869 25.519118 30.515364 1.126537 0.580349 0.125877 -0.029800 -100367.000000 0 0 1
-7.236368 -14.814669 24.140888 29.233917 1.116424 0.599206 0.125572 -0.031806 -1048820.000000 0 0 1
-6.619068 -15.897069 23.253068 28.934997 1.176258 0.637424 0.133886 -0.037688 195285.000000 0 0 1
-7.276768 -17.202469 23.133408 29.732656 1.170615 0.679245 0.145623 -0.036141 18867.700000 0 0 1
-7.208768 -18.008869 24.305728 31.097494 1.190040 0.673573 0.150916 -0.036126 -186595.000000 0 0 1
-7.912868 -19.386769 24.089628 31.918184 1.183277 0.715553 0.161052 -0.039027 -925352.000000 0 0 1
-9.248868 -19.192269 23.758538 31.911642 1.121728 0.730996 0.152383 -0.037949 -673316.000000 0 0 1
-9.890668 -20.461669 23.560038 32.735006 1.120537 0.767397 0.144720 -0.038228 686291.000000 0 0 1
-11.444268 -20.507369 23.449998 33.187737 1.061789 0.786134 0.115370 -0.040797 510207.000000 0 0 1
-12.120368 -20.254069 24.656918 34.133477 1.031542 0.763576 0.118909 -0.043104 8850.440000 0 0 1
-13.522068 -20.389069 24.482818 34.611686 0.985196 0.785044 0.124614 -0.037061 375064.000000 0 0 1
-14.288668 -20.259769 25.830498 35.802778 0.956540 0.764879 0.126694 -0.043717 -206094.000000 0 0 1
-14.118768 -21.401669 26.709978 37.024235 0.987629 0.764947 0.113912 -0.038046 -208174.000000 0 0 1
-13.273268 -21.022469 27.751148 37.259228 1.007619 0.730542 0.113547 -0.041428 -319166.000000 0 0 1
-12.749468 -22.164469 28.631578 38.387236 1.048796 0.728968 0.103853 -0.038310 -268127.000000 0 0 1
-13.676668 -22.935069 29.335348 39.669022 1.033086 0.738465 0.098341 -0.034069 -251674.000000 0 0 1
-13.105968 -24.196569 29.670938 40.467331 1.074390 0.747770 0.099671 -0.028691 -322498.000000 0 0 1
-13.988168 -24.912669 30.617978 41.878043 1.059176 0.750831 0.102399 -0.032195 -386066.000000 0 0 1
-13.943668 -24.224169 31.838293 42.366415 1.048504 0.720466 0.091244 -0.032731 -90375.100000 0 0 1
-14.689368 -24.933269 32.788009 43.732127 1.038395 0.723117 0.083363 -0.033860 -417575.000000 0 0 1
-14.459668 -24.294969 -33.489487 43.827768 1.033935 2.440466 0.086898 -0.031581 99473.100000 0 0 1
-14.832268 -22.931269 -33.435567 43.171476 0.996664 2.456693 0.094847 -0.039469 226657.000000 0 0 1
-16.216868 -22.648669 -33.603797 43.648186 0.949400 2.449447 0.097422 -0.044954 -28997.200000 0 0 1
-16.617868 -21.157269 -33.539737 42.996482 0.904994 2.465554 0.087892 -0.046667 9913.180000 0 0 1
-16.597968 -20.568969 -32.229057 41.680776 0.891837 2.454724 0.081726 -0.048479 75901.000000 0 0 1
-16.805368 -19.177869 -32.256767 41.118245 0.851236 2.472666 0.071971 -0.047276 -111756.000000 0 0 1
-17.036568 -18.599569 -30.832517 39.835069 0.829230 2.455937 0.064270 -0.034040 191355.000000 0 0 1
-18.317668 -18.936769 -30.311837 40.161494 0.802015 2.426067 0.057893 -0.030874 300948.000000 0 0 1
-18.433168 -18.876069 -28.878507 39.115928 0.797269 2.401313 0.043158 -0.024060 46010.300000 0 0 1
-17.792168 -20.068469 -28.086777 38.835186 0.845449 2.379264 0.028754 -0.007977 369008.000000 0 0 1
-16.380268 -19.910369 -28.057067 38.104264 0.882366 2.398417 0.028389 -0.012198 275346.000000 0 0 1
-15.740968 -20.884869 -27.232537 37.756680 0.924930 2.376422 0.030229 -0.013355 -142687.000000 0 0 1
-14.216368 -20.888969 -27.349997 37.235419 0.973231 2.395749 0.143782 -0.024321 -1186160.000000 0 0 1
-13.605968 -19.759569 -26.773677 35.949863 0.967779 2.410957 0.148778 -0.034656 1517820.000000 0 0 1
-12.153468 -19.921669 -26.728377 35.482190 1.023011 2.423846 0.125711 -0.041742 1746490.000000 0 0 1
-11.471668 -20.969069 -25.833077 35.194444 1.070201 2.395004 0.184412 -0.052457 -834722.000000 0 0 1
-11.698468 -22.281369 -26.285977 36.390467 1.087323 2.377964 0.177242 -0.044129 -94796.400000 0 0 1
-11.073268 -23.153269 -25.392187 36.103383 1.124692 2.350852 0.250117 -0.048114 -69696.000000 0 0 1
-11.066868 -24.623169 -25.865607 37.387239 1.148400 2.334816 0.225159 -0.048224 71858.100000 0 0 1
-10.236868 -24.884769 -27.024767 38.136376 1.180526 2.358358 0.221085 -0.045696 306194.000000 0 0 1
-10.268868 -26.211699 -27.512207 39.362728 1.197408 2.344711 0.204561 -0.039483 -301994.000000 0 0 1
-9.969168 -27.444289 -26.625917 39.515981 1.222366 2.310137 0.213670 -0.034564 48664.800000 0 0 1
-10.885368 -27.786629 -25.575457 39.302569 1.197424 2.279345 0.165489 -0.036186 305623.000000 0 0 1
-10.410768 -28.896239 -24.827917 39.494331 1.224992 2.250606 0.152724 -0.044878 -363768.000000 0 0 1
-11.227768 -29.100339 -23.542617 39.078732 1.202565 2.217352 0.150049 -0.044650 -90796.200000 0 0 1
-11.182468 -28.090859 -22.568217 37.728879 1.191944 2.212010 0.150035 -0.043790 -244603.000000 0 0 1
-12.079368 -27.052579 -22.849617 37.414678 1.150845 2.227757 0.149049 -0.041802 -362593.000000 0 0 1
-11.928568 -25.943069 -21.890717 35.979675 1.139824 2.224863 0.176234 -0.039456 -163464.000000 0 0 1
-12.420868 -26.227489 -20.604917 35.591034 1.128506 2.188219 0.110255 -0.028615 17788.400000 0 0 1
-12.611068 -25.009619 -19.981217 34.405946 1.103756 2.190445 0.104393 -0.019463 -177475.000000 0 0 1
-13.222368 -25.155679 -18.610417 33.970381 1.086862 2.150579 0.138248 -0.023736 691427.000000 0 0 1
-14.615568 -25.507739 -18.562117 34.767970 1.050477 2.133986 0.168785 -0.032413 879087.000000 0 0 1
-15.054168 -25.606039 -17.192817 34.320404 1.039310 2.095493 0.158279 -0.039397 196037.000000 0 0 1
-16.553168 -25.814179 -16.882317 35.005597 1.000602 2.074046 0.159480 -0.041714 -195673.000000 0 0 1
-17.344268 -24.642969 -16.916417 34.558135 0.957510 2.082320 0.141241 -0.035781 973075.000000 0 0 1
-18.743268 -24.771569 -16.621917 35.231078 0.923056 2.062124 0.146475 -0.037340 1389730.000000 0 0 1
-19.738668 -25.459159 -17.632117 36.724315 0.911294 2.071589 0.134801 -0.032747 -282091.000000 0 0 1
-19.636168 -26.886919 -17.737917 37.724252 0.940007 2.060313 0.144697 -0.032212 119830.000000 0 0 1
-19.931368 -27.710549 -16.575117 37.945598 0.947254 2.022849 0.151203 -0.042722 792830.000000 0 0 1
-21.461768 -28.064799 -16.416317 38.958130 0.917940 2.005767 0.135636 -0.032665 1065620.000000 0 0 1
-21.830268 -29.111969 -17.335417 40.306128 0.927377 2.015393 0.115392 -0.028077 897953.000000 0 0 1
-23.212468 -29.463809 -17.108917 41.226808 0.903520 1.998734 0.130479 -0.024005 966107.000000 0 0 1
-23.842368 -30.420689 -18.134417 42.693488 0.906040 2.009491 0.101857 -0.029610 -50592.500000 0 0 1
-23.257368 -31.695479 -18.069617 43.266842 0.937760 2.001634 0.093674 -0.034958 157766.000000 0 0 1
-23.677068 -32.480849 -19.185917 44.538842 0.940901 2.016140 0.071485 -0.005108 -347187.000000 0 0 1
-23.203068 33.709947 -19.170117 45.191108 -0.967956 2.008876 0.053820 -0.013281 -276685.000000 0 0 1
-23.793968 32.836993 -18.290417 44.485507 -0.943745 1.994517 0.072647 -0.020812 -39178.100000 0 0 1
-22.945068 31.722660 -18.058417 43.115075 -0.944602 2.002966 0.064187 -0.023542 558630.000000 0 0 1
-23.858968 30.431557 -17.844517 42.588224 -0.905875 2.003141 0.086004 -0.037429 632466.000000 0 0 1
-24.587668 30.353367 -16.642817 42.460142 -0.889959 1.973561 0.076091 -0.039532 -10534.400000 0 0 1
-25.242778 29.103127 -16.435517 41.884556 -0.856312 1.974036 0.080298 -0.034830 -428475.000000 0 0 1
-24.398668 27.888147 -16.099617 40.401007 -0.852037 1.980672 0.086124 -0.042841 -733792.000000 0 0 1
-23.566468 27.514707 -17.156917 40.084876 -0.862538 2.013091 0.073412 -0.034320 -234599.000000 0 0 1
-22.963668 26.284457 -16.782617 38.728013 -0.852726 2.018998 0.080730 -0.027458 -4286.300000 0 0 1
-22.242368 25.568967 -17.941117 38.345517 -0.854864 2.057687 0.070873 -0.021956 -678141.000000 0 0 1
-21.959668 24.127617 -17.805117 37.167070 -0.832404 2.070376 0.089210 -0.027411 145113.000000 0 0 1
-21.326668 23.635057 -18.970817 37.058529 -0.836694 2.108209 0.081806 -0.013892 224567.000000 0 0 1
-19.818768 23.988117 -19.092917 36.506887 -0.880288 2.121157 0.069417 -0.027388 -610129.000000 0 0 1
-19.081768 23.463237 -18.012617 35.200735 -0.888021 2.107972 0.100807 -0.036885 741254.000000 0 0 1
-17.839868 24.172067 -17.770017 34.904487 -0.934996 2.104940 0.113660 -0.053259 726338.000000 0 0 1
-17.887068 25.462317 -16.903417 35.411895 -0.958400 2.068418 0.143830 -0.054324 -218280.000000 0 0 1
-18.571768 26.549107 -17.525117 36.836061 -0.960389 2.066624 0.115121 -0.044637 4057.440000 0 0 1
-18.241268 27.782837 -16.920717 37.295315 -0.989819 2.041704 0.141822 -0.059366 -513241.000000 0 0 1
-19.308068 28.900957 -16.978317 38.682426 -0.981818 2.025188 0.118463 -0.042847 21340.100000 0 0 1
-19.651768 29.416747 -18.277617 39.819697 -0.981839 2.047676 0.117570 -0.040235 245783.000000 0 0 1
-20.265268 28.489927 -19.158317 39.867256 -0.952518 2.072081 0.085506 -0.024207 -649909.000000 0 0 1
-20.421868 29.068297 -20.628117 41.079652 -0.958362 2.096879 0.089367 -0.028841 -227383.000000 0 0 1
-21.359868 30.104687 -20.738617 42.339419 -0.953710 2.082678 0.087838 -0.023472 72438.400000 0 0 1
-21.590068 30.327897 -22.088517 43.287584 -0.952136 2.106299 0.098122 -0.023908 36429.000000 0 0 1
-22.135568 31.693597 -22.566417 44.762826 -0.961129 2.099174 0.100619 -0.025706 227368.000000 0 0 1
-21.144068 32.710176 -22.469717 44.965713 -0.996951 2.094058 0.088493 -0.024150 375090.000000 0 0 1
-21.296968 33.590571 -23.589917 46.242529 -1.005740 2.106138 0.098808 -0.016523 -599276.000000 0 0 1
-20.105568 -33.152509 -23.597417 45.388994 1.025643 2.117522 0.116453 -0.016227 -478349.000000 0 0 1
-19.987668 -32.197379 -22.572017 44.109795 1.015233 2.107986 0.109572 -0.021745 305568.000000 0 0 1
-19.373068 -32.764919 -21.375517 43.655107 1.036817 2.082479 0.121125 -0.037309 -133360.000000 0 0 1
-19.174668 -31.772879 -20.220617 42.261768 1.027813 2.069698 0.136058 -0.039782 -640006.000000 0 0 1
-18.290568 -30.736239 -20.414017 41.182440 1.034001 2.089434 0.134189 -0.040363 -312225.000000 0 0 1
-17.962468 -30.066619 -19.218017 39.949768 1.032274 2.072653 0.128522 -0.037340 76500.300000 0 0 1
-16.823668 -29.028199 -19.434317 38.773248 1.045540 2.095816 0.139743 -0.033056 1171390.000000 0 0 1
-15.550668 -29.599889 -19.777717 38.847584 1.087065 2.104947 0.152896 -0.046968 187126.000000 0 0 1
-14.496368 -28.698659 -19.672717 37.693149 1.103058 2.119894 0.130767 -0.041206 -473419.000000 0 0 1
-13.122368 -29.347889 -19.976017 37.848862 1.150330 2.126786 0.170347 -0.052749 66353.200000 0 0 1
-12.681568 -30.087889 -18.827717 37.690664 1.171907 2.093856 0.161401 -0.049457 563135.000000 0 0 1
-11.685968 -29.372999 -18.074117 36.414401 1.192147 2.090180 0.138288 -0.035286 64360.300000 0 0 1
-10.883868 -30.184239 -17.007917 36.315507 1.224726 2.058205 0.127777 -0.014119 -437101.000000 0 0 1
-11.473368 -30.680989 -15.844417 36.386904 1.212940 2.021326 0.150179 -0.027760 -428926.000000 0 0 1
-12.247668 -31.816729 -16.153517 37.725929 1.203336 2.013275 0.156900 -0.029155 -339287.000000 0 0 1
-13.204468 -32.290589 -15.059517 37.997752 1.182619 1.978309 0.158625 -0.037412 -210933.000000 0 0 1
-12.601068 -33.000189 -14.009617 38.000904 1.206035 1.948369 0.138545 -0.033812 75383.000000 0 0 1
-13.559168 -33.154799 -12.989517 38.102746 1.182585 1.918679 0.143315 -0.032454 243763.000000 0 0 1
-12.900268 -33.547599 -11.635617 37.778908 1.203691 1.883878 0.108606 -0.024861 590282.000000 0 0 1
-12.053868 -32.549359 -11.024917 36.418474 1.216130 1.878351 0.077922 -0.013541 389463.000000 0 0 1
-11.797168 -32.819669 -9.699617 36.199260 1.225724 1.842062 0.087737 -0.018676 -821885.000000 0 0 1
-10.430868 -32.379109 -9.219617 35.245014 1.259146 1.835462 0.075246 -0.019722 -1383980.000000 0 0 1
-9.396268 -33.179419 -9.604417 35.796767 1.294827 1.842428 0.050442 -0.017278 -1445480.000000 0 0 1
-8.211468 -32.453359 -9.512917 34.801498 1.322974 1.847668 0.045701 -0.032592 -206755.000000 0 0 1
-6.974868 -33.008889 -10.258217 35.262821 1.362557 1.865971 0.066729 -0.047555 217229.000000 0 0 1
-6.377968 33.576282 -9.621317 35.505140 -1.383078 1.845211 0.059439 -0.021133 -97663.100000 0 0 1
-5.169268 33.137900 -10.208317 35.057831 -1.416051 1.866262 0.079116 -0.022423 284401.000000 0 0 1
-4.376568 32.023433 -9.470417 33.680015 -1.434970 1.855828 0.087919 -0.024839 493766.000000 0 0 1
-3.771268 32.559360 -8.262117 33.802322 -1.455483 1.817723 0.110161 -0.032249 114833.000000 0 0 1
-3.024068 31.598337 -7.525517 32.622589 -1.475384 1.803577 0.093757 -0.034509 106303.000000 0 0 1
-2.709368 32.191236 -6.159017 32.886925 -1.486829 1.759187 0.103624 -0.035140 -108144.000000 0 0 1
-1.813968 33.302030 -6.216617 33.925831 -1.516380 1.755079 0.082063 -0.026471 212584.000000 0 0 1
-1.379168 33.721707 -4.916317 34.106096 -1.529921 1.715448 0.086304 -0.028765 589148.000000 0 0 1
-0.233668 32.961421 -4.161617 33.223921 -1.563707 1.696386 0.083560 -0.033963 -598570.000000 0 0 1
1.024732 33.129297 -4.721517 33.479742 1.539875 1.712294 0.073330 -0.025489 -114354.000000 0 0 1
2.006432 32.462844 -3.882917 32.755749 1.509068 1.689617 0.069979 -0.020749 944214.000000 0 0 1
3.486332 32.454225 -4.324817 32.926210 1.463784 1.702526 0.060118 -0.009893 528866.000000 0 0 1
4.200732 33.683043 -4.161617 34.198138 1.446723 1.692790 0.049902 -0.008970 204943.000000 0 0 1
5.599632 33.476383 -4.308717 34.213874 1.405060 1.697066 0.058953 -0.003064 726975.000000 0 0 1
6.428532 -32.915099 -3.989817 33.773487 -1.377918 1.689207 0.060427 -0.004740 147709.000000 0 0 1
6.073932 -31.873319 -4.909717 32.816253 -1.382489 1.720973 0.063923 -0.010771 -56334.400000 0 0 1
6.272632 -30.575799 -4.337317 31.512501 -1.368454 1.708873 0.059816 -0.011020 33010.100000 0 0 1
6.000932 -29.388529 -5.262617 30.453111 -1.369372 1.744479 0.066231 -0.013258 -256543.000000 0 0 1
7.010732 -29.152019 -6.243617 30.626350 -1.334789 1.776100 0.076958 -0.008378 107310.000000 0 0 1
6.919432 -27.876489 -6.866017 29.531667 -1.327496 1.805440 0.087499 -0.015710 202815.000000 0 0 1
7.562132 -26.728589 -6.014517 28.421431 -1.295079 1.784028 0.087558 -0.014524 182332.000000 0 0 1
6.882632 -26.510239 -4.796117 27.805865 -1.316783 1.744149 0.074466 -0.020093 -311594.000000 0 0 1
7.251032 -25.241519 -4.266717 26.606702 -1.291063 1.731854 0.076603 -0.022630 -284538.000000 0 0 1
6.319232 -24.657869 -3.171917 25.651594 -1.319919 1.694767 0.058135 -0.021682 144429.000000 0 0 1
5.132332 -24.190669 -3.773617 25.015385 -1.361735 1.722226 0.060028 -0.024116 -325696.000000 0 0 1
4.223232 -23.647369 -2.844717 24.189381 -1.394067 1.688671 0.064962 -0.032550 419210.000000 0 1 0
3.079832 -22.802169 -3.465117 23.268677 -1.436541 1.720270 0.074732 -0.036155 -484022.000000 0 1 0
2.053832 -23.500669 -4.040817 23.933823 -1.483623 1.740442 0.078311 -0.030687 -950097.000000 0 1 0
1.142732 -22.551369 -4.592217 23.042537 -1.520167 1.771433 0.097908 -0.030536 102147.000000 0 1 0
-15.193068 22.718531 17.968688 32.708328 -0.981351 0.989197 0.027972 -0.018833 -23347.100000 0 0 1
-15.478868 22.260231 19.240288 33.246081 -0.963191 0.953634 0.035665 -0.016335 211247.000000 0 0 1
-15.222868 23.240631 20.202388 34.351115 -0.990907 0.942071 0.052220 -0.015349 -963228.000000 0 0 1
-15.244268 22.717031 21.631188 34.876346 -0.979765 0.901767 0.078959 -0.020318 -458133.000000 0 0 1
-14.191368 21.829531 21.917088 34.033544 -0.994351 0.871101 0.071740 -0.021042 761855.000000 0 0 1
-12.860268 22.366431 21.972188 33.888358 -1.048976 0.865355 0.052226 -0.021205 192344.000000 0 0 1
-12.544068 23.461631 23.072398 35.215584 -1.079804 0.856381 0.070464 -0.017001 -813734.000000 0 0 1
-12.273768 22.990731 24.359888 35.673845 -1.080431 0.819140 0.061136 -0.010970 92065.200000 0 0 1
-12.235068 23.957531 25.370908 36.977604 -1.098627 0.814660 0.080131 -0.018083 -115802.000000 0 0 1
-11.632768 23.403731 26.652418 37.328371 -1.109513 0.775603 0.076936 -0.017712 -894301.000000 0 0 1
-10.314168 23.004131 26.689898 36.714068 -1.149306 0.756902 0.048460 -0.014999 -1316300.000000 0 0 1
-9.962468 22.376231 27.911388 37.134783 -1.151920 0.720276 0.038466 -0.017976 -421622.000000 0 0 1
-8.440968 22.118831 27.948518 36.628026 -1.206235 0.702798 0.033538 -0.020474 559478.000000 0 0 1
-7.606868 23.286331 28.044238 37.237037 -1.255058 0.717993 0.028644 -0.015070 197442.000000 0 0 1
-7.494068 24.054131 26.853478 36.822161 -1.268777 0.753535 0.035564 -0.012482 -827604.000000 0 0 1
-6.579968 25.294231 26.984088 37.566409 -1.316300 0.769435 0.041244 -0.020774 -961276.000000 0 0 1
-5.254568 24.972131 27.134268 37.248977 -1.363405 0.754730 0.049760 -0.020171 -1701260.000000 0 0 1
-4.500668 26.076531 27.512658 38.173130 -1.399886 0.765936 0.067844 -0.011611 640321.000000 0 0 1
-2.992368 25.671331 27.702948 37.887001 -1.454755 0.750718 0.058683 -0.008308 700629.000000 0 0 1
-2.263368 25.499931 26.491228 36.839578 -1.482269 0.768294 0.061613 -0.013652 184977.000000 0 0 1
-1.010768 24.897931 26.803418 36.597156 -1.530222 0.748970 0.067368 -0.008232 1264760.000000 0 0 1
0.022432 24.755031 25.604388 35.614558 1.569890 0.768534 0.058140 -0.016855 739767.000000 0 0 1
-0.393168 23.657331 24.807268 34.281547 -1.554179 0.761744 0.058163 -0.005426 -415317.000000 0 0 1
0.353632 23.503531 23.660168 33.351830 1.555752 0.782134 0.060523 -0.004622 -430809.000000 0 0 1
-0.027668 22.283931 22.824158 31.898535 -1.569555 0.773423 0.044697 -0.007302 368719.000000 0 0 1
0.686032 21.077331 23.215268 31.363565 1.538259 0.737431 0.065726 -0.007735 259736.000000 0 0 1
0.386032 19.995831 22.369388 30.006196 1.551493 0.729523 0.070477 -0.011703 369845.000000 0 0 1
1.343832 18.747631 22.613398 29.404852 1.499239 0.693464 0.081969 -0.004089 150755.000000 0 0 1
2.579132 18.959031 21.999888 29.156335 1.435589 0.715829 0.083863 -0.013088 -448281.000000 0 0 1
3.373432 17.757931 22.012588 28.482946 1.383066 0.687502 0.085655 -0.016140 124715.000000 0 0 1
4.778332 17.930031 21.388488 28.315824 1.310351 0.714601 0.076016 -0.017221 201867.000000 0 0 1
5.580732 18.682731 22.291388 29.615790 1.280523 0.718664 0.058758 -0.003860 -62590.600000 0 0 1
6.874932 18.944331 21.747388 29.649642 1.222674 0.747370 0.063272 -0.015020 209175.000000 0 0 1
7.863632 19.463931 22.787758 30.983274 1.186837 0.744413 0.069416 -0.016604 -481561.000000 0 0 1
7.584232 20.751331 23.425608 32.200892 1.220396 0.756150 0.056937 -0.010560 107484.000000 0 0 1
7.305532 21.820331 22.499088 32.182396 1.247723 0.796642 0.065561 -0.025612 371797.000000 0 0 1
5.914232 22.419631 22.877918 32.573258 1.312875 0.792099 0.052872 -0.014859 318799.000000 0 0 1
5.820332 23.760431 22.343088 33.130770 1.330568 0.830657 0.047485 -0.023832 47827.600000 0 0 1
4.768232 24.521231 22.900088 33.888654 1.378740 0.828821 0.024073 -0.013860 -251775.000000 0 0 1
4.448632 25.788331 22.131988 34.273215 1.399972 0.868789 0.044374 -0.019962 -43616.800000 0 0 1
4.017932 25.748231 20.760588 33.318421 1.415998 0.898101 0.054044 -0.024662 295076.000000 0 0 1
2.927532 24.917031 20.342588 32.299377 1.453841 0.889483 0.055409 -0.025260 86955.100000 0 0 1
2.514432 25.185131 18.868188 31.569316 1.471288 0.930198 0.055013 -0.030804 -966809.000000 0 0 1
1.996632 26.476931 18.851488 32.563677 1.495529 0.953403 0.064654 -0.033553 138103.000000 0 0 1
1.415532 26.853631 17.615688 32.147064 1.518132 0.990859 0.069857 -0.035051 -157925.000000 0 0 1
0.316232 27.912231 17.695688 33.050416 1.559467 1.005797 0.063473 -0.021933 -54466.900000 0 0 1
0.803932 29.202331 17.970688 34.298223 1.543274 1.019310 0.086409 -0.028905 647365.000000 0 0 1
-0.316168 30.034731 18.304188 35.174257 -1.560270 1.023493 0.065831 -0.030893 256155.000000 0 0 1
0.065232 31.434631 18.732188 36.592829 1.568721 1.033391 0.078580 -0.026969 -120424.000000 0 0 1
0.475032 31.397731 20.074088 37.269454 1.555668 1.001997 0.098526 -0.026642 -20652.700000 0 0 1
1.081632 32.600431 20.503088 38.527064 1.537630 1.009630 0.123690 -0.029841 -111954.000000 0 0 1
1.604132 32.557231 21.970588 39.309710 1.521565 0.977726 0.119602 -0.038322 -747252.000000 0 0 1
0.628532 32.505231 22.924718 39.780998 1.551462 0.956635 0.137043 -0.029771 -346502.000000 0 0 1
1.189632 32.354431 24.225218 40.436192 1.534044 0.928423 0.152607 -0.032509 213141.000000 0 0 1
0.027632 32.111731 25.212028 40.826589 1.569936 0.905186 0.160266 -0.022837 24235.700000 0 0 1
-1.002668 33.084531 25.273708 41.645550 -1.540499 0.918672 0.166757 -0.020519 395214.000000 0 0 1
-1.774268 33.065131 26.471368 42.393210 -1.517188 0.896402 0.168696 -0.018929 -114816.000000 0 0 1
-1.121768 33.676631 27.751218 43.652078 -1.537499 0.881834 0.182563 -0.029836 -686980.000000 0 0 1
-0.237268 32.716531 28.323378 43.274027 -1.563544 0.857259 0.174703 -0.033992 -4949.140000 0 0 1
0.113432 32.927031 29.691678 44.337321 1.567351 0.837023 0.169032 -0.040159 -965569.000000 0 0 1
1.134032 31.886931 30.123228 43.880192 1.535247 0.814148 0.136470 -0.037258 -248113.000000 0 0 1
2.458732 32.020631 29.662798 43.717820 1.494161 0.825070 0.122955 -0.037699 122277.000000 0 0 1
2.748332 31.953231 28.272738 42.754065 1.484996 0.848262 0.114375 -0.033415 -1188360.000000 0 0 1
4.246632 31.774831 27.983698 42.553039 1.437936 0.853142 0.087609 -0.030092 -149313.000000 0 0 1
4.763932 30.566531 28.515788 42.073246 1.416186 0.826077 0.090034 -0.029329 -1788620.000000 0 0 1
6.089332 30.503331 28.255638 42.022783 1.373758 0.833365 0.075462 -0.038837 -1691460.000000 0 0 1
6.737432 29.203131 28.814628 41.575217 1.344054 0.805054 0.083857 -0.026785 67460.100000 0 0 1
6.798632 29.237431 30.256208 42.620264 1.342325 0.781437 0.103474 -0.034592 -124734.000000 0 0 1
7.638932 28.239131 30.764998 42.453350 1.306610 0.760230 0.080263 -0.033594 -152684.000000 0 0 1
7.623832 28.201031 32.304521 43.554599 1.306769 0.735192 0.112352 -0.036879 179572.000000 0 0 1
6.334132 28.035831 32.891812 43.680664 1.348597 0.718177 0.125782 -0.043073 -255049.000000 0 0 1
6.303632 27.950731 -33.386347 43.995764 1.348981 2.432347 0.145672 -0.040637 -217056.000000 0 0 1
6.654132 26.506731 -32.885637 42.759202 1.324843 2.448211 0.138688 -0.041522 68622.600000 0 0 1
8.022232 26.164531 -32.960717 42.840959 1.273289 2.448657 0.112804 -0.040853 38407.800000 0 0 1
8.055132 24.737231 -32.787927 41.855273 1.255997 2.470856 0.127519 -0.042414 682195.000000 0 0 1
9.484832 24.174331 -33.075127 42.051449 1.196901 2.475982 0.101480 -0.038263 257667.000000 0 0 1
9.932232 24.063031 33.192742 42.183372 1.179339 0.665079 0.069560 -0.030263 778717.000000 0 0 1
11.190032 23.409231 32.977161 41.960721 1.124889 0.666637 0.085073 -0.042171 511747.000000 0 0 1
11.303932 21.955731 33.496173 41.615221 1.095339 0.635286 0.081772 -0.041629 -997710.000000 0 0 1
10.619532 21.079931 32.640796 40.281007 1.104134 0.626086 0.064280 -0.031369 130403.000000 0 0 1
10.303532 19.776331 33.167688 39.967006 1.090488 0.591910 0.058077 -0.018528 -299664.000000 0 0 1
9.060332 19.597931 -33.621347 39.957020 1.137752 2.570735 0.111319 -0.032561 -530996.000000 0 0 1
9.116832 20.202031 -32.298677 39.171970 1.146876 2.540177 0.114267 -0.034245 426100.000000 0 0 1
7.793032 20.573031 -31.910057 38.758646 1.208700 2.538000 0.128406 -0.045019 564476.000000 0 0 1
7.739632 21.285431 -30.542697 38.024042 1.222047 2.503523 0.145248 -0.049415 32449.500000 0 0 1
8.527432 22.446331 -30.484417 38.805342 1.207734 2.474417 0.161532 -0.051660 -115120.000000 0 0 1
8.698232 22.896031 -29.156147 38.078450 1.207736 2.442904 0.127487 -0.042715 -199399.000000 0 0 1
10.165232 23.073631 -28.732107 38.226409 1.155824 2.421326 0.115636 -0.036435 106250.000000 0 0 1
10.898832 21.848831 -28.674857 37.661696 1.108086 2.436235 0.104794 -0.035257 -969386.000000 0 0 1
12.263432 21.998831 -28.558317 38.077786 1.062245 2.418857 0.097807 -0.027550 -829484.000000 0 0 1
12.979932 20.640231 -28.544747 37.540649 1.009422 2.434677 0.100442 -0.036170 -356892.000000 0 0 1
12.832032 19.783131 -29.648487 37.882266 0.995381 2.469705 0.090625 -0.039336 532167.000000 0 0 1
11.583032 19.086031 -29.779787 37.219335 1.025329 2.498285 0.113011 -0.038709 344256.000000 0 0 1
11.331932 18.148431 -30.922177 37.602649 1.012627 2.536308 0.090309 -0.032394 -471777.000000 0 0 1
11.701632 16.816031 -30.601587 36.826135 0.962853 2.551654 0.098672 -0.033628 31002.400000 0 0 1
11.555032 15.964131 -31.728527 37.350658 0.944267 2.585790 0.077478 -0.020450 -137658.000000 0 0 1
12.749832 15.832231 -32.715797 38.516764 0.892827 2.585627 0.061369 -0.003416 -146353.000000 0 0 1
12.941432 17.154031 -33.265667 39.602349 0.924469 2.568065 0.056567 -0.010761 -19333.600000 0 0 1
13.668332 17.195431 33.160108 39.775607 0.899184 0.585059 0.066947 -0.009848 -69024.200000 0 0 1
12.839032 16.929331 31.886506 38.316997 0.921947 0.587775 0.075028 -0.015894 -752463.000000 0 0 1
13.274232 17.742331 30.782928 37.928673 0.928469 0.623910 0.064760 -0.013870 -610.731000 0 0 1
12.473432 17.643731 29.601218 36.648600 0.955414 0.630549 0.064137 -0.013092 -942069.000000 0 0 1
11.045932 18.094831 29.720808 36.507013 1.022731 0.619597 0.056362 -0.000604 -1495450.000000 0 0 1
10.200432 17.161431 30.378048 36.350919 1.034519 0.581411 0.065999 -0.003185 -715483.000000 0 0 1
8.929832 17.740431 30.459728 36.362891 1.104464 0.577812 0.078827 -0.011214 -418900.000000 0 0 1
7.970132 16.905631 31.339028 36.489150 1.130250 0.537759 0.101705 -0.017173 -28173.600000 0 0 1
8.217132 16.966731 32.708360 37.752193 1.119781 0.522856 0.120744 -0.019769 407642.000000 0 0 1
7.491432 15.913231 33.386075 37.735693 1.130807 0.484872 0.142362 -0.024270 211077.000000 0 0 1
7.773132 16.136131 -32.753487 37.330781 1.121878 2.641182 0.139881 -0.027536 24813.600000 0 0 1
6.939232 17.142631 -32.199837 37.132899 1.186164 2.620250 0.138896 -0.030355 128690.000000 0 0 1
6.868732 17.046731 -30.768887 35.839851 1.187762 2.603154 0.141306 -0.045978 458856.000000 0 0 1
5.748832 17.902831 -30.049577 35.447673 1.260084 2.582462 0.147159 -0.054586 -391101.000000 0 0 1
5.507032 17.693731 -28.686157 34.151004 1.269058 2.568042 0.131995 -0.059174 -125335.000000 0 0 1
4.728832 18.744631 -28.201327 34.191196 1.323676 2.540667 0.136746 -0.059132 378865.000000 0 0 1
3.203332 18.712231 -28.539057 34.276620 1.401251 2.554600 0.153416 -0.071083 -992089.000000 0 0 1
2.541032 17.631231 -27.887367 33.091122 1.427661 2.573158 0.148170 -0.065954 104324.000000 0 0 1
1.137532 17.683531 -27.987577 33.125605 1.506558 2.577161 0.141309 -0.063925 298963.000000 0 0 1
0.260032 18.835231 -27.428607 33.274044 1.556992 2.539804 0.133521 -0.068550 -783496.000000 0 0 1
0.009632 18.874631 -26.031757 32.154380 1.570286 2.514244 0.128214 -0.071117 171950.000000 0 0 1
-0.516968 20.175931 -25.701237 32.678571 -1.545179 2.475895 0.133735 -0.065009 -185459.000000 0 0 1
-0.981768 20.457031 -24.292017 31.773512 -1.522841 2.441119 0.120370 -0.065473 102201.000000 0 0 1
-2.141868 19.721231 -23.940017 31.090818 -1.462613 2.449642 0.113678 -0.064532 72187.200000 0 0 1
-2.486268 19.983531 -22.571817 30.249131 -1.447017 2.413128 0.126327 -0.062916 -154993.000000 0 0 1
-3.472268 18.945431 -22.055717 29.282087 -1.389531 2.423733 0.100500 -0.057267 -800712.000000 0 0 1
-4.786768 19.102531 -22.482817 29.888073 -1.325269 2.422242 0.098680 -0.046576 -829379.000000 0 0 1
-5.593668 18.272631 -21.662117 28.886424 -1.273732 2.418717 0.093799 -0.043857 494909.000000 0 0 1
-7.137368 18.460531 -21.815217 29.455677 -1.201870 2.404776 0.119011 -0.038847 928232.000000 0 0 1
-7.824068 19.544431 -21.160217 29.848879 -1.190012 2.358750 0.098572 -0.034633 373319.000000 0 0 1
-7.349568 20.856831 -21.543417 30.873004 -1.232001 2.343128 0.108556 -0.044444 -183217.000000 0 0 1
-7.838768 21.967031 -20.632117 31.139701 -1.228039 2.295036 0.117685 -0.053099 415199.000000 0 0 1
-7.042668 22.043131 -19.426017 30.213721 -1.261552 2.269145 0.131595 -0.055716 389097.000000 0 0 1
-7.459568 23.136831 -18.689817 30.663779 -1.258908 2.226236 0.132696 -0.053796 -287430.000000 0 0 1
-6.845168 23.239231 -17.310617 29.775420 -1.284345 2.191211 0.145360 -0.049771 448656.000000 0 0 1
-5.439368 23.449131 -17.351817 29.673793 -1.342863 2.195371 0.132504 -0.057363 -124742.000000 0 0 1
-4.870468 23.621631 -16.116217 29.007505 -1.367459 2.159866 0.132439 -0.042585 -985394.000000 0 0 1
-3.387668 23.909831 -16.020217 28.979366 -1.430048 2.156534 0.118423 -0.042039 -677328.000000 0 0 1
-3.074368 25.141931 -16.578617 30.272413 -1.449120 2.150347 0.100349 -0.046626 -397342.000000 0 0 1
-1.864668 25.041731 -17.295317 30.490872 -1.496471 2.173934 0.091578 -0.049524 -142242.000000 0 0 1
-1.186368 26.394631 -17.473617 31.676668 -1.525879 2.155107 0.077814 -0.062623 -456524.000000 0 0 1
-1.917668 27.274931 -18.263117 32.880705 -1.500603 2.159683 0.077912 -0.060666 -289330.000000 0 0 1
-1.270068 28.514031 -18.530617 34.030087 -1.526284 2.146632 0.085806 -0.066520 -406251.000000 0 0 1
-2.183868 29.537331 -19.265817 35.332632 -1.496995 2.147507 0.118934 -0.056869 681638.000000 0 0 1
-3.249168 30.129431 -18.527017 35.518869 -1.463371 2.119534 0.075615 -0.043187 662412.000000 0 0 1
-4.427968 29.288931 -18.417817 34.880716 -1.420750 2.127067 0.047645 -0.044937 1056710.000000 0 0 1
-5.568968 30.136531 -17.700317 35.391032 -1.388066 2.094552 0.087485 -0.034730 705589.000000 0 0 1
-6.016768 31.271531 -18.433217 36.795294 -1.380715 2.095512 0.120242 -0.038363 1315.720000 0 0 1
-5.552068 32.461331 -17.860317 37.464041 -1.401399 2.067730 0.115902 -0.063173 -170885.000000 0 0 1
-6.342168 33.723631 -18.238117 38.860459 -1.384905 2.059321 0.111617 -0.036141 96769.000000 0 0 1
-7.646168 33.834531 -17.705317 38.945059 -1.348543 2.042745 0.135824 -0.058826 262295.000000 0 0 1
-8.311368 -32.635765 -17.933517 38.154725 1.321427 2.060111 0.184849 -0.055934 -76440.400000 0 0 1
31.116532 -20.372169 -26.092517 45.432183 -0.579676 2.182567 0.076858 -0.014194 182524.000000 0 0 1
30.450732 -21.457469 -25.419957 45.098162 -0.613848 2.169604 0.100252 -0.022564 168997.000000 0 0 1
29.055932 -21.416369 -25.684227 44.301101 -0.635177 2.189237 0.103378 -0.018822 244791.000000 0 0 1
28.360832 -22.708469 -25.225207 44.230334 -0.675167 2.177685 0.085102 -0.017800 -572131.000000 0 0 1
28.770232 -23.923269 -25.843527 45.474575 -0.693672 2.175243 0.067194 -0.002725 -480526.000000 0 0 1
29.978332 -24.472069 -25.423767 46.302813 -0.684616 2.152055 0.069924 0.002391 -491154.000000 0 0 1
30.221632 -25.748899 -26.155597 47.544380 -0.705655 2.153316 0.076604 -0.004315 106221.000000 0 0 1
29.320232 -26.704909 -25.621127 47.215149 -0.738751 2.144381 0.081815 -0.012543 92845.900000 0 0 1
29.519232 -28.023209 -26.118287 48.361660 -0.759405 2.141307 0.073253 -0.010584 828624.000000 0 0 1
28.405232 -28.346469 -27.210627 48.485026 -0.784363 2.166652 0.096753 -0.009554 244615.000000 0 0 1
28.453932 -27.730389 -28.472057 48.880044 -0.772521 2.192583 0.063008 -0.013060 326438.000000 0 0 1
29.567632 -27.940259 -29.354657 50.165713 -0.757107 2.195866 0.050924 -0.010697 95066.100000 0 0 1
29.785432 -29.346739 -29.904607 51.407087 -0.777979 2.191640 0.074946 -0.013466 -904760.000000 0 0 1
30.257732 -30.365199 -29.056747 51.786776 -0.787171 2.166491 0.088648 -0.016231 1403660.000000 0 0 1
31.601332 -30.191129 -28.492817 52.172685 -0.762581 2.148528 0.079194 -0.013623 1322310.000000 0 0 1
32.778632 -30.217929 -29.481077 53.448067 -0.744772 2.155058 0.065496 -0.018904 -801997.000000 0 0 1
32.909532 -29.000769 -30.206527 53.258954 -0.722346 2.173854 0.071620 -0.026542 -80283.600000 0 0 1
34.208432 -28.890449 -30.752987 54.319619 -0.701317 2.172623 0.067263 -0.026261 140149.000000 0 0 1
34.377832 -27.485399 -31.454217 54.098524 -0.674442 2.191275 0.062483 -0.012209 23913.900000 0 0 1
34.276432 -26.324819 -30.690477 53.007313 -0.654931 2.188280 0.048599 -0.004584 322900.000000 0 0 1
32.953632 -25.983239 -30.280377 51.749124 -0.667676 2.195846 0.048986 -0.005091 298262.000000 0 0 1
32.858232 -24.605769 -29.576567 50.595262 -0.642762 2.195149 0.052101 -0.011402 -555160.000000 0 0 1
33.568332 -24.562769 -28.358297 50.342383 -0.631702 2.169181 0.047827 -0.013555 47080.300000 0 0 1
33.589732 -23.292969 -27.811787 49.440146 -0.606320 2.168244 0.037711 -0.006636 -60314.900000 0 0 1
34.633332 -23.213469 -26.682897 49.500604 -0.590489 2.140095 0.035529 -0.014321 -366473.000000 0 0 1
34.349432 -24.000769 -25.497677 49.051523 -0.609869 2.117430 0.043315 -0.022284 -340580.000000 0 0 1
33.455432 -23.375769 -24.621817 47.664729 -0.609862 2.113628 0.062886 -0.005810 -375646.000000 0 0 1
33.981032 -22.124769 -23.801817 47.018533 -0.577142 2.101595 0.045567 -0.001145 -118795.000000 0 0 1
34.076932 -20.936069 -24.588417 46.948339 -0.550923 2.122024 0.031167 -0.005884 -71156.000000 0 0 1
34.319032 -19.821669 -23.670217 46.162471 -0.523764 2.109192 0.015713 -0.016199 7762.150000 0 0 1
34.439432 -18.445969 -24.431717 46.078596 -0.491725 2.129654 0.001107 -0.022312 520229.000000 0 0 1
33.246032 -18.097469 -25.125227 45.432302 -0.498495 2.156788 0.020880 -0.026117 489377.000000 0 0 1
33.475132 -16.808969 -25.725167 45.441282 -0.465353 2.172586 0.022587 -0.025422 -129645.000000 0 0 1
32.515532 -16.561169 -26.886217 45.325498 -0.471085 2.205800 0.040296 -0.012264 -1421690.000000 0 0 1
31.208132 -16.525469 -26.506677 44.154757 -0.486987 2.214689 0.058548 -0.012015 -740227.000000 0 0 1
30.353632 -16.073669 -27.609357 44.067929 -0.487005 2.247874 0.070150 -0.016217 572408.000000 0 0 1
28.849132 -15.853569 -27.356077 42.801437 -0.502485 2.264175 0.072841 -0.013820 367472.000000 0 0 1
28.192432 -16.946669 -26.707887 42.371146 -0.541233 2.252777 0.084212 -0.010608 37685.500000 0 0 1
28.114632 -16.710669 -25.336877 41.371927 -0.536274 2.229911 0.095514 -0.005805 -81503.600000 0 0 1
27.127932 -17.589369 -24.498717 40.564735 -0.575240 2.219233 0.104605 -0.004657 195026.000000 0 0 1
26.941832 -17.156769 -23.145317 39.445186 -0.567045 2.197863 0.109492 -0.001715 82163.700000 0 0 1
26.154632 -18.076669 -22.406217 38.895620 -0.604759 2.184697 0.115384 -0.011424 44997.800000 0 0 1
26.026032 -17.643769 -20.940317 37.777689 -0.595758 2.158323 0.105818 -0.010427 -60354.600000 0 0 1
25.210232 -16.554069 -20.517117 36.476637 -0.581030 2.168170 0.100095 -0.010356 105441.000000 0 0 1
25.600532 -15.244469 -20.939817 36.417812 -0.537085 2.183386 0.095716 -0.001163 -172904.000000 0 0 1
26.957332 -14.744469 -20.424417 36.895175 -0.500503 2.157453 0.079241 -0.008051 -237817.000000 0 0 1
26.867632 -13.823369 -19.405717 35.910124 -0.475179 2.141705 0.082982 -0.022533 1860310.000000 0 0 1
28.195132 -13.237469 -19.135117 36.556104 -0.438947 2.121686 0.049308 -0.016567 1589050.000000 0 0 1
28.159032 -12.241869 -17.912617 35.547943 -0.410092 2.098905 0.061209 -0.011991 -229903.000000 0 0 1
28.147332 -12.852469 -16.658217 35.141919 -0.428341 2.064655 0.061872 -0.014203 140627.000000 0 0 1
28.171632 -11.928669 -15.557417 34.321527 -0.400539 2.041243 0.050786 -0.012994 88612.600000 0 0 1
28.782232 -12.403069 -14.209117 34.411510 -0.406881 1.996451 0.068045 -0.021763 286511.000000 0 0 1
28.056432 -13.551569 -13.654917 34.018600 -0.449964 1.983836 0.105992 -0.035799 1079430.000000 0 0 1
28.715232 -14.066069 -12.497117 34.330697 -0.455492 1.943378 0.123918 -0.035370 357316.000000 0 0 1
27.845232 -15.249969 -12.009617 33.943326 -0.501052 1.932442 0.121340 -0.054038 667243.000000 0 0 1
26.508332 -14.907169 -11.648317 32.566833 -0.512281 1.936572 0.112996 -0.048458 882038.000000 0 0 1
25.731132 -16.079769 -11.368817 32.402162 -0.558538 1.929292 0.096087 -0.045581 1079110.000000 0 0 1
24.268432 -15.754069 -10.863917 30.905860 -0.575784 1.929987 0.106032 -0.042900 606478.000000 0 0 1
24.035032 -15.344269 -9.516917 30.061621 -0.568186 1.892918 0.091986 -0.040090 918897.000000 0 0 1
22.633832 -15.160069 -9.287817 28.781619 -0.590167 1.899377 0.097163 -0.040420 480944.000000 0 0 1
22.106132 -15.038869 -7.838517 27.861999 -0.597384 1.855980 0.081256 -0.033281 -286778.000000 0 0 1
22.436932 -13.698969 -7.360117 27.299249 -0.548144 1.843783 0.101855 -0.023558 447427.000000 0 0 1
22.159332 -13.481569 -5.971817 26.616748 -0.546568 1.797086 0.093904 -0.019631 -400671.000000 0 0 1
23.029532 -14.273169 -5.001517 27.551731 -0.554834 1.753340 0.076983 -0.010758 803676.000000 0 0 1
24.413632 -13.850069 -5.023217 28.514602 -0.516035 1.747883 0.101225 -0.015062 1327530.000000 0 0 1
25.271732 -14.743469 -4.325217 29.575967 -0.528122 1.717564 0.105723 -0.018118 797516.000000 0 0 1
26.784732 -14.328969 -4.400117 30.693684 -0.491229 1.714648 0.120706 -0.020411 619480.000000 0 0 1
27.112232 -13.112169 -3.817717 30.357488 -0.450462 1.696889 0.125815 -0.018709 -331329.000000 0 0 1
28.458432 -12.830569 -4.074317 31.481835 -0.423563 1.700578 0.142902 -0.025830 -237011.000000 0 0 1
28.991532 -11.709069 -3.135517 31.423601 -0.383846 1.670745 0.181010 -0.035662 -962907.000000 0 0 1
29.247232 -12.091469 -1.828717 31.700921 -0.392024 1.628515 0.201248 -0.038549 855293.000000 0 0 1
30.140232 -11.231269 -1.057017 32.182173 -0.356695 1.603647 0.200409 -0.034391 1659840.000000 0 0 1
31.638132 -11.121969 -1.552517 33.572011 -0.338043 1.617057 0.227628 -0.046660 -3447.410000 0 0 1
31.746232 -10.387869 -2.710917 33.512388 -0.316235 1.651778 0.219034 -0.049560 479639.000000 0 0 1
33.043832 -10.414569 -3.309617 34.803903 -0.305319 1.666033 0.237647 -0.050179 362846.000000 0 0 1
32.966632 -9.961269 -4.764517 34.766742 -0.293439 1.708271 0.211159 -0.053124 107169.000000 0 0 1
32.083632 -10.718669 -5.597817 34.286803 -0.322427 1.734795 0.194633 -0.054294 477787.000000 0 0 1
32.065432 -10.324069 -6.956217 34.397199 -0.311488 1.774433 0.158516 -0.053176 630563.000000 0 0 1
30.919332 -11.057969 -7.793817 33.749479 -0.343464 1.803831 0.162200 -0.047194 705667.000000 0 0 1
31.021132 -12.427369 -8.009217 34.364192 -0.381032 1.806028 0.150633 -0.045565 -94778.200000 0 0 1
29.837332 -12.959969 -8.539317 33.632531 -0.409767 1.827507 0.146574 -0.041229 -36912.800000 0 0 1
29.780432 -14.505169 -8.374417 34.167308 -0.453251 1.818419 0.156405 -0.043936 -195088.000000 0 0 1
30.452532 -15.080069 -9.436917 35.267841 -0.459800 1.841675 0.162488 -0.049035 79168.400000 0 0 1
30.459932 -16.446269 -9.307017 35.845610 -0.495080 1.833448 0.148967 -0.049726 -69045.500000 0 0 1
30.818332 -17.217569 -10.627217 36.866679 -0.509482 1.863206 0.118463 -0.049265 262161.000000 0 0 1
32.159732 -17.004169 -11.068117 38.024904 -0.486375 1.866147 0.116342 -0.043532 604782.000000 0 0 1
32.472332 -17.493769 -12.346717 38.896346 -0.494148 1.893810 0.101229 -0.033567 -296563.000000 0 0 1
31.979232 -16.840469 -13.631117 38.627452 -0.484705 1.931451 0.086838 -0.032490 -209167.000000 0 0 1
32.557132 -15.574369 -13.842517 38.654147 -0.446195 1.937041 0.076007 -0.032498 364913.000000 0 0 1
31.780732 -14.897769 -14.815717 38.098083 -0.438351 1.970216 0.062022 -0.030524 -1114800.000000 0 0 1
32.588232 -13.698469 -15.357817 38.542230 -0.397926 1.980641 0.066981 -0.030478 279011.000000 0 0 1
33.584732 -14.091469 -16.294217 39.899940 -0.397271 1.991472 0.041740 -0.023486 943646.000000 0 0 1
34.736032 -14.687069 -15.663117 40.836689 -0.400022 1.964439 0.060676 -0.027602 -669717.000000 0 0 1
35.746932 -15.166969 -16.735517 42.284248 -0.401267 1.977720 0.074372 -0.034103 658869.000000 0 0 1
37.106132 -15.401669 -16.345117 43.373255 -0.393430 1.957187 0.096531 -0.039308 817547.000000 0 0 1
-37.420625 -15.944269 -17.406017 44.243557 0.402787 1.975138 0.104956 -0.048085 -258896.000000 0 0 1
-35.920625 -15.896269 -17.077117 42.832354 0.416632 1.980892 0.135559 -0.048213 -322462.000000 0 0 1
-35.432425 -16.807469 -16.073917 42.382998 0.442920 1.959786 0.127730 -0.049473 137003.000000 0 0 1
-35.751925 -16.548069 -14.698417 42.048569 0.433495 1.927896 0.105008 -0.041294 -729355.000000 0 0 1
-35.127925 -17.384169 -13.595917 41.485291 0.459545 1.904695 0.091484 -0.030469 -907843.000000 0 0 1
-33.753025 -17.172269 -13.497617 40.203721 0.470633 1.913177 0.149055 -0.036914 -367918.000000 0 0 1
-33.238225 -17.997169 -12.425617 39.787858 0.496263 1.888406 0.151729 -0.014503 156712.000000 0 0 1
-31.696625 -17.937169 -12.347617 38.456231 0.514970 1.897668 0.199597 -0.022952 -184200.000000 0 0 1
-31.136825 -16.690569 -12.054717 37.328182 0.492062 1.899629 0.183868 -0.034450 176181.000000 0 0 1
-29.799125 -16.798369 -11.593417 36.118975 0.513316 1.897559 0.204825 -0.036300 278647.000000 0 0 1
-29.672225 -16.701369 -10.065517 35.506215 0.512664 1.858224 0.203209 -0.043236 -198694.000000 0 0 1
-30.094025 -17.891369 -9.430217 36.258522 0.536377 1.833904 0.199996 -0.037274 -258203.000000 0 0 1
-30.206125 -17.666969 -8.048717 35.907014 0.529228 1.796872 0.196312 -0.038737 -17119.500000 0 0 1
-31.235825 -18.623369 -7.326317 37.096921 0.537634 1.769594 0.171939 -0.033357 963965.000000 0 0 1
-32.589825 -18.650969 -7.770217 38.344903 0.519798 1.774850 0.147430 -0.026450 569001.000000 0 0 1
-32.652325 -19.395469 -8.921717 39.012249 0.535996 1.801528 0.141576 -0.021623 -561075.000000 0 0 1
-34.028425 -20.036569 -9.238317 40.555447 0.532157 1.800609 0.108842 -0.015144 81525.000000 0 0 1
-35.036725 -19.239969 -9.796417 41.154809 0.502181 1.811142 0.107422 -0.012567 200542.000000 0 0 1
-36.246325 -20.000269 -9.875417 42.559731 0.504215 1.804967 0.090928 -0.016908 -112443.000000 0 0 1
-37.385625 -19.161569 -10.407117 43.280004 0.473628 1.813636 0.072271 -0.031053 -728452.000000 0 0 1
37.644132 -19.178069 -11.814917 43.868796 -0.471185 1.843487 0.077678 -0.037506 -183435.000000 0 0 1
36.558732 -18.351269 -12.077017 42.651662 -0.465220 1.857878 0.072523 -0.039717 -551216.000000 0 0 1
36.202332 -18.242469 -13.574317 42.751124 -0.466765 1.893909 0.071515 -0.043076 -5323.380000 0 0 1
35.603832 -19.455969 -14.060917 42.940389 -0.500119 1.904402 0.059112 -0.037049 273161.000000 0 0 1
35.059032 -19.436469 -15.355317 42.926656 -0.506209 1.936611 0.051446 -0.034594 -709817.000000 0 0 1
33.806732 -20.305969 -15.500217 42.373155 -0.540896 1.945292 0.062014 -0.039763 -578772.000000 0 0 1
32.814032 -19.747569 -14.654017 41.005700 -0.541744 1.936242 0.080044 -0.038483 102414.000000 0 0 1
31.607232 -20.487269 -14.616117 40.402675 -0.575097 1.940953 0.099622 -0.039114 189823.000000 0 0 1
30.514832 -20.267169 -15.658917 39.838609 -0.586275 1.974752 0.125390 -0.041699 -884413.000000 0 0 1
29.792332 -19.085669 -15.529217 38.639389 -0.569755 1.984388 0.081807 -0.032998 297794.000000 0 0 1
28.975232 -18.964769 -16.716217 38.453328 -0.579544 2.020517 0.086710 -0.033000 164548.000000 0 0 1
28.245932 -17.574369 -16.873017 37.301338 -0.556577 2.040188 0.086164 -0.029648 -573325.000000 0 0 1
27.019232 -17.585069 -16.229617 36.092576 -0.576962 2.037188 0.099131 -0.033632 -683198.000000 0 0 1
26.616532 -16.232469 -16.115017 35.094538 -0.547641 2.047878 0.075717 -0.024515 -1471590.000000 0 0 1
25.213232 -16.120069 -15.529417 33.715375 -0.568852 2.049471 0.073375 -0.022140 -54747.600000 0 0 1
24.162032 -16.749369 -16.268117 33.600547 -0.606155 2.076202 0.079978 -0.016144 574219.000000 0 0 1
23.910332 -16.179969 -17.577317 33.800258 -0.594912 2.117688 0.083295 -0.006159 -614994.000000 0 0 1
22.698032 -16.851569 -18.291717 33.671396 -0.638635 2.145090 0.081042 0.002869 1064230.000000 0 0 1
21.395132 -16.572269 -17.784217 32.383177 -0.659048 2.152180 0.074838 0.002510 438647.000000 0 0 1
20.392832 -17.361369 -18.386717 32.486245 -0.705275 2.172423 0.067526 0.000424 1081660.000000 0 0 1
18.957032 -17.326369 -17.775617 31.233711 -0.740486 2.176227 0.079398 0.002509 1111700.000000 0 0 1
18.146932 -16.159069 -17.780417 30.109299 -0.727518 2.202511 0.087449 -0.003837 172243.000000 0 0 1
16.863432 -16.360669 -17.252017 29.149252 -0.770267 2.204150 0.085081 -0.010337 -379516.000000 0 0 1
15.947232 -15.149969 -17.216617 27.932914 -0.759766 2.234903 0.102866 -0.023300 -239046.000000 0 0 1
15.370132 -14.899569 -18.476217 28.277353 -0.769854 2.282854 0.096180 -0.018331 293798.000000 0 0 1
14.025432 -14.447169 -18.451617 27.311089 -0.800209 2.312587 0.109282 -0.021065 801996.000000 0 0 1
13.410532 -13.930869 -19.824817 27.693588 -0.804427 2.368656 0.091451 -0.018533 378578.000000 0 0 1
13.577932 -12.567969 -20.010417 27.253089 -0.746789 2.395349 0.128630 -0.030321 -217130.000000 0 0 1
13.037932 -12.152269 -21.230417 27.719955 -0.750254 2.443220 0.114508 -0.024911 70115.700000 0 0 1
13.156332 -10.647769 -21.529117 27.385524 -0.680402 2.475350 0.129429 -0.023447 1544280.000000 0 0 1
14.543432 -10.384369 -21.916617 28.278696 -0.620077 2.457547 0.132297 -0.024111 1188070.000000 0 0 1
14.768332 -9.059169 -22.246217 28.196921 -0.550228 2.479909 0.139653 -0.032214 -583614.000000 0 0 1
16.215132 -8.795669 -22.608817 29.179666 -0.497017 2.457217 0.131823 -0.027580 -592842.000000 0 0 1
16.659832 -9.359469 -23.827417 30.543337 -0.511856 2.465651 0.147645 -0.023014 -544400.000000 0 0 1
18.012032 -9.109869 -24.047417 31.395880 -0.468250 2.443301 0.127375 -0.037199 -676775.000000 0 0 1
22.498732 5.322831 -7.395317 24.273776 0.232312 1.880381 0.194554 0.005819 -43156.900000 0 1 0
22.193932 6.692931 -7.471317 24.355421 0.292893 1.882585 0.176135 0.002865 574047.000000 0 1 0
21.721932 7.182631 -6.205517 23.705294 0.319345 1.835660 0.170398 -0.002020 -51849.800000 0 1 0
21.434232 8.692331 -6.011617 23.898169 0.385269 1.825079 0.138656 0.006670 -1348430.000000 0 1 0
20.314232 9.117431 -6.680817 23.247127 0.421872 1.862289 0.072139 -0.012791 -587704.000000 0 1 0
19.899432 10.419531 -6.482017 23.378849 0.482356 1.851737 0.054637 -0.006259 -169959.000000 0 1 0
19.532932 10.985231 -5.100317 22.983124 0.512310 1.794575 0.087748 -0.009774 -131018.000000 0 1 0
20.572932 11.077831 -4.109717 23.724537 0.493945 1.744901 0.120824 -0.007189 637781.000000 0 1 0
21.183032 12.374731 -4.091317 24.871544 0.528707 1.736045 0.182389 -0.021901 307367.000000 0 1 0
22.147732 12.782931 -2.960417 25.742755 0.523461 1.686051 0.155272 -0.034081 936847.000000 0 0 1
23.396632 12.062631 -2.898117 26.482231 0.476027 1.680452 0.148515 -0.058743 931105.000000 0 0 1
24.182632 12.539631 -1.840017 27.302522 0.478368 1.638241 0.162621 -0.060931 -14353.900000 0 0 1
25.259632 11.550831 -1.329017 27.807139 0.428895 1.618609 0.144628 -0.055511 763378.000000 0 0 1
26.453632 11.385431 -2.127317 28.878161 0.406429 1.644528 0.112175 -0.038894 726065.000000 0 0 1
27.165332 10.277531 -1.631317 29.090275 0.361689 1.626903 0.159542 -0.043957 313268.000000 0 0 1
28.654932 10.167331 -2.080317 30.476343 0.340962 1.639109 0.143353 -0.039834 20799.600000 0 0 1
29.424032 11.154531 -1.506117 31.503422 0.362357 1.618623 0.132329 -0.049998 -850656.000000 0 0 1
30.770932 11.008531 -1.837117 32.732446 0.343569 1.626951 0.130080 -0.042520 -289174.000000 0 0 1
31.703632 12.040831 -1.149517 33.932629 0.362966 1.604679 0.114364 -0.037823 -740667.000000 0 0 1
31.881632 11.852931 0.272483 34.014772 0.355944 1.562786 0.137347 -0.056794 224297.000000 0 0 1
32.872932 12.728531 0.747783 35.259103 0.369427 1.549587 0.130178 -0.049908 -151372.000000 0 0 1
34.352132 12.387431 0.447783 36.520103 0.346088 1.558535 0.150545 -0.049346 -984889.000000 0 0 1
35.191832 13.438531 0.834283 37.679639 0.364776 1.548653 0.148482 -0.065644 -151742.000000 0 0 1
35.765032 14.184831 -0.244417 38.476054 0.377582 1.577149 0.155884 -0.047238 -589051.000000 0 0 1
34.933932 15.302631 -0.884317 38.148816 0.412868 1.593979 0.102153 -0.028894 -589533.000000 0 0 1
33.832032 14.868631 -1.618317 36.990560 0.414074 1.614560 0.119638 -0.021735 -503591.000000 0 0 1
33.240432 15.928031 -2.280917 36.930084 0.446850 1.632599 0.091967 -0.004565 208031.000000 0 0 1
31.924332 15.612231 -3.063617 35.669181 0.454840 1.656792 0.101572 -0.018551 -376485.000000 0 0 1
32.054932 14.863631 -4.283217 35.592024 0.434182 1.691431 0.074976 -0.012424 761398.000000 0 0 1
30.849532 14.725831 -5.048817 34.554801 0.445359 1.717432 0.064073 -0.013749 405206.000000 0 0 1
29.638132 14.023031 -4.436617 33.086974 0.441931 1.705291 0.090613 -0.032769 135556.000000 0 0 1
28.627332 13.614831 -5.395817 32.155911 0.443928 1.739396 0.112838 -0.030351 700726.000000 0 0 1
27.396132 13.196031 -4.879817 30.797661 0.448880 1.729915 0.105656 -0.017139 -155593.000000 0 0 1
26.359132 12.931731 -5.993117 29.965830 0.456098 1.772153 0.089101 -0.014710 -434401.000000 0 0 1
26.589932 11.826031 -6.857817 29.898314 0.418484 1.802228 0.091295 -0.001107 -30456.300000 0 0 1
25.619132 11.538331 -7.832517 29.168842 0.423169 1.842656 0.096867 -0.000271 -170812.000000 0 0 1
25.289832 12.612131 -8.956517 29.645584 0.462610 1.877712 0.095856 0.008093 232144.000000 0 0 1
24.413932 13.618531 -8.418317 29.195420 0.508826 1.863293 0.086213 -0.001395 322278.000000 0 0 1
24.328732 14.817131 -9.120617 29.910203 0.547039 1.880665 0.085122 -0.012604 -195046.000000 0 0 1
23.254732 15.792231 -8.527017 29.374941 0.596559 1.865318 0.076756 0.000160 1163720.000000 0 0 1
21.865232 15.595831 -8.782917 28.256998 0.619577 1.886855 0.095371 -0.015989 1147340.000000 0 0 1
21.231832 14.379431 -8.309417 26.955614 0.595299 1.884163 0.103527 -0.024117 338381.000000 0 0 1
19.683132 14.282831 -8.560717 25.781986 0.627726 1.909264 0.121076 -0.017149 508061.000000 0 0 1
19.033932 15.023531 -7.550917 25.397114 0.668184 1.872674 0.172427 -0.045826 -93731.600000 0 0 1
17.644132 15.021631 -7.801617 24.450563 0.705287 1.895552 0.186680 -0.037182 -615940.000000 0 1 0
16.834832 15.313531 -6.583917 23.691006 0.738112 1.852412 0.176544 -0.025499 -585518.000000 0 1 0
16.910432 14.271731 -5.630417 22.833016 0.700977 1.819957 0.141111 -0.036160 305821.000000 0 1 0
16.261732 14.663031 -4.457317 22.345382 0.733748 1.771617 0.117032 -0.024848 -179735.000000 0 1 0
16.177032 13.533331 -3.483017 21.377063 0.696649 1.734458 0.101208 -0.018967 -315969.000000 0 1 0
17.425232 13.203531 -2.945317 22.060073 0.648427 1.704710 0.109744 -0.015965 222154.000000 0 1 0
17.229032 12.339031 -1.837017 21.271245 0.621500 1.657266 0.094075 -0.019012 -1595.920000 0 1 0
17.047832 13.068531 -0.456617 21.485427 0.654028 1.592050 0.091197 -0.023827 -826694.000000 0 1 0
15.982232 13.930731 -0.365217 21.204490 0.716923 1.588021 0.078744 -0.027272 -358376.000000 0 1 0
16.015732 14.585531 0.895183 21.680469 0.738695 1.529495 0.073366 -0.025906 -530190.000000 0 1 0
14.825432 15.504531 1.214683 21.486260 0.807785 1.514233 0.065354 -0.019986 -518344.000000 0 1 0
14.746832 16.668631 0.368083 22.258657 0.846496 1.554259 0.074523 -0.022619 332002.000000 0 1 0
13.724932 17.546131 0.824383 22.291704 0.906991 1.533806 0.053315 -0.029878 -50567.500000 0 1 0
13.782732 18.933631 0.264183 23.420416 0.941557 1.559516 0.055927 -0.028779 -187148.000000 0 1 0
13.347332 18.912931 -1.059417 23.172669 0.956238 1.616531 0.068132 -0.034212 -39358.600000 0 1 0
12.917032 20.245331 -1.457717 24.059262 1.002885 1.631422 0.072146 -0.034630 -129094.000000 0 1 0
11.399932 20.454431 -1.560317 23.468634 1.062341 1.637331 0.062162 -0.031074 -458251.000000 0 1 0
10.788032 20.308031 -0.340217 22.998120 1.082486 1.585590 0.052619 -0.036742 -722674.000000 0 1 0
9.390032 20.347731 -0.397817 22.413414 1.138438 1.588546 0.052565 -0.029504 -60470.000000 0 1 0
8.585832 20.454531 0.896183 22.201520 1.173379 1.530420 0.037025 -0.025362 -115637.000000 0 1 0
8.566332 21.675931 1.636383 23.364627 1.194435 1.500702 0.033725 -0.027632 -116785.000000 0 1 0
7.509932 21.546531 2.542283 22.958991 1.235418 1.459837 0.032055 -0.031608 -309938.000000 0 1 0
7.140832 22.885731 3.152883 24.180340 1.268348 1.440034 0.029886 -0.026593 176475.000000 0 1 0
7.784132 23.208831 4.398883 24.871524 1.247191 1.392997 0.037835 -0.023432 271355.000000 0 1 0
7.478032 24.529231 4.703183 26.071519 1.274885 1.389408 0.034152 -0.020915 76288.900000 0 0 1
7.964932 24.987131 6.138983 26.934810 1.262217 1.340855 0.039152 -0.018761 268606.000000 0 0 1
7.269032 24.412631 7.246783 26.482660 1.281399 1.293618 0.042225 -0.023134 99163.600000 0 0 1
7.746232 25.063031 8.351383 27.530079 1.271039 1.262585 0.050435 -0.012077 -62269.200000 0 0 1
7.593732 24.197431 9.662783 27.139451 1.266706 1.206767 0.061334 -0.020793 -442181.000000 0 0 1
6.270532 24.146631 10.090083 26.910763 1.316723 1.186458 0.062389 -0.022623 -468042.000000 0 0 1
5.875832 22.984631 10.792583 26.063356 1.320515 1.143853 0.055501 -0.032478 555330.000000 0 0 1
4.512732 23.221031 11.528583 26.315191 1.378851 1.117317 0.048056 -0.036758 245858.000000 0 0 1
3.416232 23.275731 10.693283 25.841374 1.425065 1.144167 0.039426 -0.029680 -74728.400000 0 0 1
2.148132 23.385931 11.347783 26.082339 1.479198 1.120674 0.042179 -0.032571 1097780.000000 0 0 1
0.982332 23.718231 10.357883 25.899908 1.529403 1.159367 0.067355 -0.037547 10283.900000 0 0 1
1.093932 24.984331 9.705083 26.825401 1.527040 1.200612 0.070930 -0.039352 51396.500000 0 0 1
0.151332 25.130431 8.653183 26.578921 1.564775 1.239186 0.068802 -0.036101 637865.000000 0 0 1
-1.246068 25.674331 9.035783 27.246456 -1.522301 1.232764 0.094335 -0.043484 351129.000000 0 0 1
-2.155968 24.866831 9.747383 26.795876 -1.484312 1.198490 0.084805 -0.041837 -61082.500000 0 0 1
-3.430068 25.452931 9.868383 27.513670 -1.436842 1.203951 0.095936 -0.043850 -251167.000000 0 0 1
-4.496068 24.438631 10.333783 26.911863 -1.388857 1.176687 0.107615 -0.052842 -35306.400000 0 0 1
-4.894768 24.557031 11.704483 27.640576 -1.374052 1.133543 0.080657 -0.034356 113463.000000 0 0 1
-5.892268 25.495431 12.009483 28.791727 -1.343673 1.140527 0.092640 -0.033353 -423766.000000 0 0 1
-6.300368 25.500931 13.493183 29.530630 -1.328583 1.096265 0.060236 -0.023668 -577686.000000 0 0 1
-7.300868 24.592031 13.774983 29.117363 -1.282205 1.078007 0.060437 -0.030177 -439140.000000 0 0 1
-7.730668 24.531331 15.143583 29.847572 -1.265513 1.038673 0.047331 -0.013889 -546329.000000 0 0 1
-9.026568 23.764031 15.213983 29.625553 -1.207788 1.031488 0.037577 -0.015471 -1236180.000000 0 0 1
-10.161668 24.489931 14.904883 30.416636 -1.177484 1.058679 0.038338 -0.015340 -239741.000000 0 0 1
-11.297368 23.604031 14.848683 30.087609 -1.124398 1.054670 0.029866 -0.009995 652029.000000 0 0 1
-12.669768 24.285531 14.716883 31.094962 -1.089940 1.077776 0.029298 -0.019393 -93675.700000 0 0 1
-13.172968 24.978531 15.864083 32.390172 -1.085492 1.058958 0.036294 -0.023106 271311.000000 0 0 1
-14.177568 25.917831 15.478183 33.351335 -1.070244 1.088184 0.033093 -0.023060 463404.000000 0 0 1
-14.930768 26.584131 16.726983 34.776944 -1.059059 1.069025 0.042077 -0.021695 479358.000000 0 0 1
-15.998468 25.831031 17.293683 34.960901 -1.016270 1.053355 0.046031 -0.025808 274111.000000 0 0 1
-16.607868 26.658431 18.282383 36.341970 -1.013646 1.043654 0.073173 -0.024361 -241526.000000 0 0 1
-17.880968 26.134431 18.938883 36.897409 -0.970759 1.031788 0.063179 -0.032161 667351.000000 0 0 1
-19.081968 26.258031 18.148083 37.188152 -0.942368 1.060991 0.060127 -0.022371 700672.000000 0 0 1
-20.244068 25.818231 18.843783 37.835057 -0.905826 1.049447 0.078287 -0.029527 33363.700000 0 0 1
-21.460468 26.093031 17.955383 38.259558 -0.882510 1.082293 0.075627 -0.026770 -602084.000000 0 0 1
-21.903068 27.466231 17.895383 39.425664 -0.897609 1.099657 0.065418 -0.027149 769108.000000 0 0 1
-22.757268 27.675631 16.737183 39.547024 -0.882614 1.133797 0.068821 -0.031304 204162.000000 0 0 1
-23.544268 28.989631 16.672183 40.898569 -0.888684 1.150920 0.060960 -0.032523 277124.000000 0 0 1
-24.778968 28.890231 17.364483 41.835009 -0.861853 1.142776 0.056756 -0.029239 541225.000000 0 0 1
-25.703578 29.956731 17.118783 43.024788 -0.861663 1.161589 0.055308 -0.032365 738438.000000 0 0 1
-27.113148 29.715131 17.740883 43.964198 -0.831153 1.155424 0.060554 -0.023677 -456155.000000 0 0 1
-27.924318 28.955231 16.925283 43.642160 -0.803521 1.172531 0.097961 -0.022336 49237.300000 0 0 1
-29.256538 28.881131 17.450583 44.660806 -0.778941 1.169365 0.140446 -0.025995 689521.000000 0 0 1
-29.548758 27.716331 18.436383 44.510946 -0.753410 1.143734 0.120805 -0.021199 -603928.000000 0 0 1
-29.671628 26.452031 17.748183 43.532901 -0.728095 1.150867 0.141253 -0.024414 163135.000000 0 0 1
-29.913938 25.326531 18.616483 43.391823 -0.702544 1.127375 0.142087 -0.024909 -83087.300000 0 0 1
-29.910858 24.005131 17.769083 42.268736 -0.676297 1.136928 0.134991 -0.031349 1167140.000000 0 0 1
-31.134578 23.882831 16.968883 42.751544 -0.654345 1.162639 0.152013 -0.035104 1388140.000000 0 0 1
-30.957258 22.914331 15.948083 41.686446 -0.637195 1.178217 0.162007 -0.037024 -77516.700000 0 0 1
-31.298768 21.459531 16.381483 41.333731 -0.601020 1.163289 0.148280 -0.029895 176476.000000 0 0 1
-32.705618 21.290931 16.393383 42.328527 -0.577069 1.173107 0.161093 -0.028664 38345.500000 0 0 1
-33.086048 19.950931 16.628083 42.062089 -0.542623 1.164378 0.147873 -0.030742 -52891.900000 0 0 1
-34.556824 19.740631 16.232383 42.980889 -0.519012 1.183523 0.170576 -0.040268 -125075.000000 0 0 1
-34.839837 19.830331 14.844183 42.748170 -0.517454 1.216162 0.148961 -0.035358 -54772.800000 0 0 1
-36.080098 19.257231 14.493383 43.389775 -0.490270 1.230223 0.154718 -0.038280 10749.700000 0 0 1
-36.450898 19.379231 13.016783 43.285785 -0.488648 1.265352 0.142808 -0.027418 19239.800000 0 0 1
-36.880828 20.677431 12.659183 44.136227 -0.510987 1.279890 0.144257 -0.036957 -230438.000000 0 0 1
-37.024288 20.973731 11.262183 44.017406 -0.515412 1.312062 0.091698 -0.017731 -22116.900000 0 0 1
-35.809067 20.792431 10.318083 42.674082 -0.526068 1.326588 0.109353 -0.022945 -61261.200000 0 0 1
-35.685326 19.463631 9.888983 41.833807 -0.499323 1.332150 0.124330 -0.020452 -386852.000000 0 0 1
-34.462647 19.222231 9.255783 40.531935 -0.508789 1.340406 0.140443 -0.020900 -742419.000000 0 0 1
-33.606288 18.245831 10.048983 39.538273 -0.497398 1.313819 0.118455 -0.019923 -440051.000000 0 0 1
-33.146778 18.755131 11.288083 39.722596 -0.514908 1.282653 0.132050 -0.030567 -100412.000000 0 0 1
-32.535318 17.787831 12.084583 38.999885 -0.500324 1.255748 0.137364 -0.040618 -120671.000000 0 0 1
-31.649168 18.286531 13.238683 38.875825 -0.523928 1.223308 0.108166 -0.016831 563566.000000 0 0 1
-30.408168 18.892031 12.880383 38.045628 -0.555921 1.225420 0.122108 -0.014153 325581.000000 0 0 1
-30.486478 20.303931 12.713583 38.772544 -0.587539 1.236715 0.146309 -0.018007 156774.000000 0 0 1
-29.094078 20.964531 12.863183 38.097748 -0.624403 1.226392 0.167954 -0.036270 190381.000000 0 0 1
-28.684998 21.078531 14.244083 38.340937 -0.633720 1.190160 0.154067 -0.021268 320414.000000 0 0 1
-27.445358 21.738531 14.460283 37.880222 -0.669884 1.179121 0.135319 -0.025930 158385.000000 0 0 1
-27.000218 21.614631 15.947383 38.085733 -0.675067 1.138757 0.115688 -0.026377 -283078.000000 0 0 1
-26.715988 20.299631 16.327483 37.314953 -0.649763 1.117914 0.127637 -0.026172 22620.800000 0 0 1
-26.327858 20.226431 17.656383 37.603357 -0.655080 1.082024 0.105530 -0.014856 -868685.000000 0 0 1
-25.176078 19.289031 17.880183 36.408825 -0.653767 1.057450 0.109467 -0.013418 -591541.000000 0 0 1
-24.619768 19.335431 19.181983 36.714307 -0.665751 1.021056 0.104760 -0.017541 441026.000000 0 0 1
-23.666168 18.264031 19.347283 35.608703 -0.657268 0.996397 0.102735 -0.013306 610127.000000 0 0 1
-22.991968 18.315431 20.736283 35.973310 -0.672665 0.956437 0.101094 -0.020885 98578.800000 0 0 1
-23.916468 17.831831 21.680283 36.878263 -0.640671 0.942351 0.109640 -0.009300 384086.000000 0 0 1
-23.475968 17.947231 23.033883 37.467105 -0.652713 0.908694 0.140445 -0.021066 -50634.700000 0 0 1
-24.399468 17.098731 23.918983 38.207570 -0.611251 0.894348 0.135718 -0.019453 -108193.000000 0 0 1
-24.260868 15.734631 23.813583 37.460046 -0.575362 0.881873 0.132091 -0.035259 119905.000000 0 0 1
-25.256418 15.018031 24.513183 38.266487 -0.536456 0.875528 0.127536 -0.036154 -50078.200000 0 0 1
21.240732 24.608631 32.824488 46.197407 0.858722 0.780550 0.136338 -0.027117 359203.000000 0 0 1
22.134932 23.626431 32.282534 45.720077 0.817980 0.786834 0.155398 -0.042608 259243.000000 0 0 1
21.844832 22.344031 32.754126 45.269031 0.796695 0.761874 0.165574 -0.043473 711021.000000 0 0 1
20.625532 21.567131 32.117314 43.841483 0.807711 0.748694 0.171951 -0.044383 440325.000000 0 0 1
21.008832 20.943531 30.937248 42.861589 0.783842 0.764405 0.203800 -0.047772 -109082.000000 0 0 1
20.244832 19.828331 30.582958 41.693324 0.775005 0.747307 0.164308 -0.048143 -562320.000000 0 0 1
20.679032 19.056231 29.339618 40.639581 0.744581 0.764185 0.165589 -0.045735 -700869.000000 0 0 1
21.874932 18.379231 29.505098 41.071397 0.698775 0.769318 0.163015 -0.043456 -440247.000000 0 0 1
22.391632 17.910131 28.230308 40.238145 0.674654 0.793183 0.142398 -0.040030 713540.000000 0 0 1
23.633732 16.947831 28.224988 40.526932 0.622113 0.800358 0.142936 -0.035320 1330290.000000 0 0 1
24.926132 17.550031 28.080298 41.446578 0.613460 0.826430 0.161474 -0.036660 669786.000000 0 0 1
25.950332 16.715431 28.586428 42.071478 0.572239 0.823752 0.130955 -0.027652 41176.200000 0 0 1
27.300832 17.390631 28.844448 43.356334 0.567182 0.842917 0.101937 -0.027645 -210260.000000 0 0 1
28.128432 17.588431 27.726478 43.235624 0.558808 0.874621 0.093620 -0.018234 -511707.000000 0 0 1
29.462332 17.812931 28.082608 44.429297 0.543795 0.886569 0.087167 -0.010471 -634461.000000 0 0 1
30.332732 17.545331 26.880208 44.164000 0.524407 0.916444 0.073083 -0.013553 -620481.000000 0 0 1
30.403432 18.529931 25.924768 44.043395 0.547352 0.941447 0.093225 -0.015374 -376551.000000 0 0 1
31.407132 18.360631 24.987818 44.135154 0.529020 0.968949 0.082110 -0.016410 -126258.000000 0 0 1
31.859832 19.568231 24.128058 44.498627 0.550794 0.997719 0.099365 -0.027901 369536.000000 0 0 1
30.733532 19.888531 23.325618 43.407236 0.574354 1.003484 0.097349 -0.032600 512619.000000 0 0 1
31.039532 20.794731 22.249988 43.484887 0.590268 1.033667 0.092612 -0.027603 47240.200000 0 0 1
31.793632 20.295831 20.944488 43.144263 0.568150 1.063916 0.089720 -0.024151 -244679.000000 0 0 1
31.053832 19.354531 20.234288 41.813452 0.557345 1.065670 0.100324 -0.035416 47534.400000 0 0 1
31.678032 18.629731 19.166488 41.447785 0.531621 1.090068 0.108661 -0.038938 -105729.000000 0 0 1
32.784432 17.614431 19.469288 42.001671 0.493025 1.088815 0.144380 -0.049727 -144998.000000 0 0 1
32.218132 16.428931 19.978888 41.316750 0.471559 1.066086 0.141522 -0.052273 926489.000000 0 0 1
33.229632 15.483931 20.389588 41.948729 0.436053 1.063221 0.151415 -0.060144 -182165.000000 0 0 1
32.600732 14.162331 20.900488 41.233600 0.409820 1.039235 0.146094 -0.061669 366149.000000 0 0 1
31.934632 14.179231 22.202788 41.398492 0.417860 1.004727 0.117993 -0.049241 1033130.000000 0 0 1
30.707332 14.921631 22.171788 40.708519 0.452329 0.994828 0.105391 -0.039716 -142363.000000 0 0 1
29.697832 14.358031 23.206818 40.332006 0.450337 0.957710 0.073928 -0.033463 -35173.900000 0 0 1
29.240132 13.068831 22.936808 39.393868 0.420313 0.949311 0.074512 -0.032316 -134477.000000 0 0 1
28.693332 12.490031 24.088048 39.491040 0.410557 0.914783 0.067085 -0.025954 -84212.000000 0 0 1
28.238032 11.065631 23.822798 38.566311 0.373478 0.904969 0.069922 -0.020949 -5138.650000 0 0 1
27.060332 10.835731 23.069358 37.173511 0.380876 0.901307 0.060121 -0.013119 116460.000000 0 0 1
26.950532 9.570731 22.498888 36.388598 0.341231 0.904225 0.062279 -0.006686 -392545.000000 0 0 1
25.710832 9.455531 21.616188 34.895753 0.352412 0.902754 0.064588 -0.020492 -1199930.000000 0 0 1
24.495532 9.281531 22.239888 34.362633 0.362192 0.866876 0.068912 -0.023870 -542586.000000 0 0 1
23.574532 8.819131 21.261888 32.948498 0.357978 0.869372 0.076711 -0.009766 -392346.000000 0 0 1
22.099932 8.782231 21.666388 32.170902 0.378252 0.831893 0.080912 -0.014047 -378264.000000 0 0 1
21.829332 7.844131 22.704928 32.458649 0.344970 0.796094 0.080316 -0.006445 931314.000000 0 0 1
20.403332 7.807631 22.892598 31.643737 0.365473 0.762013 0.108587 -0.012868 787341.000000 0 0 1
19.975432 7.056231 24.172368 32.142055 0.339563 0.719632 0.109327 -0.020203 -146575.000000 0 0 1
20.086032 5.626031 24.104328 31.876630 0.273098 0.713348 0.097588 -0.024466 286830.000000 0 0 1
19.757432 5.014031 25.350128 32.528843 0.248533 0.677229 0.117585 -0.039088 -98150.300000 0 0 1
20.047532 3.504131 25.299988 32.469553 0.173043 0.677422 0.118920 -0.037381 -746563.000000 0 0 1
21.428732 3.352831 25.277018 33.307052 0.155206 0.709160 0.129161 -0.030579 -628142.000000 0 0 1
21.797032 1.984031 25.093158 33.297351 0.090773 0.717262 0.118825 -0.031608 -182640.000000 0 0 1
23.318232 1.883231 24.881968 34.152582 0.080587 0.754589 0.114571 -0.025150 131569.000000 0 0 1
24.063732 2.319331 26.027008 35.522495 0.096086 0.748529 0.116295 -0.031820 -192341.000000 0 0 1
25.423132 2.520231 25.764658 36.283672 0.098809 0.781171 0.112839 -0.026605 90414.500000 0 0 1
26.250132 3.062031 26.984588 37.770537 0.116123 0.774980 0.080836 -0.020273 -539058.000000 0 0 1
26.594632 2.011731 27.832108 38.547993 0.075500 0.764091 0.086081 -0.026571 -121763.000000 0 0 1
27.376132 2.543831 28.863398 39.862507 0.092655 0.761106 0.082497 -0.007839 1301390.000000 0 0 1
28.919632 2.793731 28.602638 40.770835 0.096304 0.793231 0.094651 -0.019637 20572.800000 0 0 1
29.280432 4.095931 28.058018 40.759940 0.138984 0.811554 0.086951 -0.003631 304989.000000 0 0 1
30.643032 4.334431 27.769828 41.580597 0.140517 0.839473 0.072059 0.003993 32858.400000 0 0 1
31.286232 3.353231 26.700198 41.267094 0.106772 0.867141 0.073478 -0.002540 -986927.000000 0 0 1
30.659232 3.381231 25.481548 40.009131 0.109840 0.880334 0.060978 0.020457 -204617.000000 0 0 1
31.061132 2.338731 24.594668 39.688302 0.075153 0.902441 0.079367 0.021479 -53672.200000 0 0 1
30.430132 2.479431 23.168438 38.326454 0.081300 0.921655 0.084595 0.007854 104426.000000 0 0 1
30.934732 3.451831 22.307088 38.294634 0.111125 0.948980 0.079050 0.003418 -1246120.000000 0 0 1
32.207232 3.266131 21.828888 39.044510 0.101064 0.977524 0.064618 0.001096 -647962.000000 0 0 1
33.020232 4.456531 21.213888 39.499689 0.134153 1.003843 0.083763 -0.004829 -126420.000000 0 0 1
32.447832 5.048831 20.038388 38.469332 0.154361 1.022900 0.077539 -0.004738 -105455.000000 0 0 1
33.024832 6.235831 19.553988 38.882947 0.186625 1.043853 0.109807 -0.005675 937365.000000 0 0 1
34.566732 6.188231 19.070588 39.960487 0.177146 1.073289 0.111057 -0.010838 1991400.000000 0 0 1
35.441332 6.110431 20.213788 41.255577 0.170731 1.058747 0.099112 -0.011689 388097.000000 0 0 1
35.632432 7.369331 20.825388 41.924624 0.203940 1.050965 0.116772 -0.015843 -1245870.000000 0 0 1
36.519432 7.228131 22.055588 43.270819 0.195400 1.035948 0.125577 -0.015997 -106643.000000 0 0 1
35.965032 6.498031 23.167738 43.271839 0.178748 1.005815 0.120050 -0.003231 111550.000000 0 0 1
36.955432 6.321831 24.129818 44.586070 0.169426 0.998937 0.123612 -0.007063 -157743.000000 0 0 1
36.556132 5.420231 25.329938 44.803298 0.147199 0.969928 0.108781 -0.004433 106396.000000 0 0 1
36.186032 4.101531 24.944048 44.141330 0.112864 0.970248 0.108801 -0.006053 386214.000000 0 0 1
35.442232 3.445431 25.980678 44.079683 0.096908 0.940477 0.103497 0.004340 180249.000000 0 0 1
35.321932 1.893131 25.675578 43.708788 0.053545 0.942925 0.096988 0.008720 -304948.000000 0 0 1
34.551232 1.553931 24.576088 42.428604 0.044944 0.953008 0.099530 0.001070 -210627.000000 0 0 1
34.546832 0.149531 24.496548 42.350760 0.004328 0.954005 0.103846 -0.009143 -212497.000000 0 0 1
33.596032 -0.495069 23.479028 40.990282 -0.014735 0.960885 0.118589 0.002390 648723.000000 0 0 1
32.217432 -0.673369 23.822358 40.073946 -0.020898 0.934202 0.118797 -0.008715 551539.000000 0 0 1
31.659432 -1.632969 22.895388 39.104796 -0.051534 0.945314 0.120822 -0.007163 383812.000000 0 0 1
30.146432 -1.890569 23.108058 38.031092 -0.062631 0.917749 0.118297 -0.000191 398170.000000 0 0 1
29.366832 -0.703369 22.929338 37.264730 -0.023947 0.908018 0.108048 -0.002665 192082.000000 0 0 1
27.989932 -1.071369 22.943228 36.207401 -0.038258 0.884520 0.099241 -0.002904 469645.000000 0 0 1
27.080132 0.183031 22.912488 35.473218 0.006759 0.868582 0.106841 -0.010717 -4312.750000 0 0 1
27.273832 0.871231 21.694188 34.860562 0.031933 0.899102 0.089992 -0.009129 286345.000000 0 0 1
26.399932 1.992031 21.652388 34.201616 0.075313 0.885270 0.103395 -0.006854 82678.000000 0 0 1
26.692232 2.881931 20.438188 33.741670 0.107552 0.920119 0.090677 -0.004357 -403518.000000 0 0 1
26.226032 2.473331 19.162988 32.575178 0.094030 0.941879 0.097537 -0.012347 617967.000000 0 0 1
24.996432 3.134831 18.833388 31.453860 0.124760 0.928841 0.095634 -0.011094 550502.000000 0 0 1
24.564232 3.014531 17.362288 30.231407 0.122110 0.959032 0.104430 -0.018612 95217.100000 0 0 1
25.522232 3.648431 16.518588 30.619588 0.141989 1.000980 0.082231 -0.009859 426655.000000 0 0 1
25.058332 4.067631 15.235088 29.606985 0.160923 1.030281 0.070427 -0.006013 -553118.000000 0 0 1
24.677432 2.986931 14.124388 28.590134 0.120453 1.054077 0.089955 -0.005674 -39606.800000 0 0 1
23.381432 2.454931 14.231588 27.481924 0.104612 1.026457 0.119696 -0.003280 61792.100000 0 0 1
23.313632 1.234931 13.561088 26.999141 0.052921 1.044565 0.116915 -0.006275 146947.000000 0 0 1
21.862232 0.655331 13.470488 25.687365 0.029967 1.018784 0.193175 -0.029769 490840.000000 0 0 1
20.876832 1.382731 12.736288 24.494226 0.066136 1.023979 0.215887 -0.031013 846780.000000 0 1 0
21.075932 1.470931 11.304588 23.961475 0.069679 1.079486 0.215872 -0.026526 -1027100.000000 0 1 0
20.834432 0.116331 10.555388 23.356012 0.005584 1.101864 0.219650 -0.031112 -255632.000000 0 1 0
21.710732 -0.943469 10.877088 24.301380 -0.043429 1.106726 0.216232 -0.039700 1443060.000000 0 1 0
23.026432 -0.820069 10.260588 25.222386 -0.035599 1.151843 0.228798 -0.031902 831408.000000 0 0 1
24.053032 -1.833469 10.822088 26.439129 -0.076079 1.149087 0.230680 -0.038326 -33481.400000 0 0 1
24.453832 -1.543269 12.158288 27.353164 -0.063026 1.110188 0.192083 -0.033677 87826.700000 0 0 1
25.191932 -2.572569 12.763688 28.357773 -0.101766 1.103925 0.130344 -0.012305 -7041.320000 0 0 1
25.746132 -2.136869 14.161588 29.461502 -0.082808 1.069365 0.126259 -0.015891 554258.000000 0 0 1
26.784732 -1.153869 14.071888 30.278232 -0.043053 1.087441 0.083865 -0.006818 340450.000000 0 0 1
26.948132 -0.589169 15.312688 31.000441 -0.021860 1.054169 0.076689 -0.015324 -358435.000000 0 0 1
28.146032 0.344131 15.430588 32.100165 0.012226 1.069342 0.106712 -0.016715 294341.000000 0 0 1
29.417632 -0.328369 15.351788 33.184067 -0.011162 1.089842 0.130075 -0.016872 850538.000000 0 0 1
30.455232 0.647431 15.360888 34.115938 0.021255 1.103745 0.132134 -0.021491 917085.000000 0 0 1
31.893432 0.030431 15.566388 35.489497 0.000954 1.116734 0.146029 -0.015656 798276.000000 0 0 1
32.390432 -0.697869 14.464388 35.480215 -0.021542 1.150890 0.166950 -0.019633 -1063540.000000 0 0 1
33.716232 -1.018369 14.599388 36.755456 -0.030195 1.162329 0.142372 -0.020145 -1054700.000000 0 0 1
34.192232 -2.047069 13.524088 36.826623 -0.059798 1.194760 0.143726 -0.022709 -53045.300000 0 0 1
34.302932 -1.407469 12.274688 36.460117 -0.041008 1.227428 0.171298 -0.029620 298579.000000 0 0 1
35.193432 -2.143969 11.457388 37.073522 -0.060844 1.256608 0.164655 -0.035297 -66665.600000 0 0 1
35.051232 -1.810969 9.978288 36.488830 -0.051620 1.293807 0.214038 -0.038395 -234708.000000 0 0 1
35.622632 -0.588369 9.482988 36.867942 -0.016515 1.310657 0.195330 -0.036131 666670.000000 0 0 1
34.722532 0.523431 9.562388 36.018988 0.015074 1.302093 0.218855 -0.039484 -187591.000000 0 0 1
35.305432 1.888431 9.174088 36.526752 0.053437 1.316917 0.237680 -0.045898 -298059.000000 0 0 1
35.655332 1.947831 7.770388 36.544161 0.054575 1.356531 0.219016 -0.043531 463677.000000 0 0 1
35.944832 3.284531 7.451588 36.855736 0.091124 1.367210 0.222176 -0.042364 -275859.000000 0 0 1
36.436232 3.487031 6.041388 37.097935 0.095412 1.407218 0.204175 -0.044393 -177782.000000 0 0 1
36.615032 4.828531 5.624588 37.357881 0.131116 1.419662 0.177443 -0.033881 316125.000000 0 0 1
36.876232 4.844531 4.201788 37.429681 0.130625 1.458301 0.179881 -0.034502 -155092.000000 0 0 1
37.119632 6.213331 3.646388 37.812283 0.165849 1.474212 0.183879 -0.052033 -576782.000000 0 0 1
35.985632 6.995331 3.779288 36.853540 0.191998 1.468067 0.194410 -0.054952 -363523.000000 0 0 1
36.270932 8.324831 3.316088 37.361475 0.225611 1.481922 0.184964 -0.058275 -156849.000000 0 0 1
35.026932 9.265531 3.148788 36.368268 0.258603 1.484107 0.203215 -0.068183 891169.000000 0 0 1
34.039432 9.027031 2.137088 35.280836 0.259226 1.510186 0.198330 -0.068371 526504.000000 0 0 1
33.269232 7.863131 2.397888 34.269819 0.232089 1.500768 0.234321 -0.065053 -858996.000000 0 0 1
32.003132 7.820531 1.526488 32.980166 0.239671 1.524495 0.228913 -0.064930 -283001.000000 0 0 1
32.323232 7.562931 0.204488 33.196854 0.229843 1.564636 0.227977 -0.061302 456037.000000 0 0 1
31.198532 7.284231 -0.618612 32.043582 0.229371 1.590103 0.208089 -0.061723 36102.300000 0 0 1
31.657032 7.276031 -2.088412 32.549497 0.225916 1.635002 0.173934 -0.041505 -545648.000000 0 0 1
30.768332 6.670131 -2.957212 31.621607 0.213482 1.664452 0.209958 -0.045286 181528.000000 0 0 1
31.379732 6.423631 -4.198812 32.304499 0.201917 1.701141 0.171914 -0.036663 -360029.000000 0 0 1
30.411032 5.727231 -5.170812 31.374661 0.186147 1.736360 0.210938 -0.031139 -263174.000000 0 0 1
30.180432 4.342231 -4.946212 30.889779 0.142895 1.731613 0.210278 -0.030395 905106.000000 0 0 1
28.979032 3.816031 -5.495612 29.741354 0.130929 1.756644 0.205282 -0.032467 88149.200000 0 0 1
28.905532 2.259331 -5.341512 29.481623 0.078004 1.752984 0.230854 -0.030965 -344074.000000 0 0 1
28.692732 1.770731 -3.980612 29.021606 0.061635 1.708390 0.266354 -0.052414 603030.000000 0 0 1
28.472832 0.407731 -3.722812 28.718074 0.014319 1.700795 0.227002 -0.052835 -171635.000000 0 0 1
28.534632 0.090531 -2.212012 28.620385 0.003173 1.648161 0.236540 -0.049625 -657416.000000 0 0 1
29.851032 0.157031 -1.780212 29.904480 0.005260 1.630361 0.212878 -0.049554 -824893.000000 0 0 1
30.013732 -0.043369 -0.408012 30.016537 -0.001445 1.584390 0.228020 -0.040357 -74835.900000 0 0 1
31.337532 0.414631 0.262188 31.341372 0.013230 1.562431 0.250481 -0.045318 619743.000000 0 0 1
32.409432 -0.468169 -0.124612 32.413053 -0.014444 1.574641 0.197825 -0.046648 464342.000000 0 0 1
33.654532 0.054031 0.297388 33.655890 0.001605 1.561960 0.153676 -0.049821 -67861.200000 0 0 1
-2.991268 -21.453969 -8.363017 23.219830 1.432262 1.939243 0.062206 0.009768 346650.000000 0 1 0
-3.416268 -21.739769 -7.018917 23.098780 1.414927 1.879543 0.070341 -0.009226 -170000.000000 0 1 0
-2.774568 -22.854469 -6.456417 23.910464 1.449986 1.844215 0.070597 -0.012717 -89271.500000 0 1 0
-3.410668 -23.291769 -5.116117 24.089703 1.425397 1.784804 0.081762 -0.019878 -299606.000000 0 1 0
-3.249168 -22.342669 -4.050717 22.938183 1.426384 1.748320 0.093802 -0.030768 -481230.000000 0 1 0
-3.647468 -22.841369 -2.754317 23.294171 1.412446 1.689314 0.094689 -0.043509 -132966.000000 0 1 0
-2.783868 -22.278569 -1.603117 22.508988 1.446483 1.642078 0.095860 -0.055289 -1116420.000000 0 1 0
-1.433768 -22.426969 -1.773217 22.542602 1.506953 1.649538 0.102130 -0.047512 -1664910.000000 0 1 0
-0.868368 -22.565969 -0.459617 22.587347 1.532334 1.591146 0.079968 -0.043229 -19527.500000 0 1 0
0.662232 -22.445369 -0.490017 22.460482 -1.541301 1.592615 0.084187 -0.047190 -96466.700000 0 1 0
1.212332 -21.133769 -0.718017 21.180687 -1.513494 1.604702 0.061205 -0.046149 -339789.000000 0 1 0
2.463632 -21.043069 -0.093417 21.187000 -1.454251 1.575205 0.041860 -0.038963 195723.000000 0 1 0
3.415932 -19.928869 -0.679217 20.230911 -1.401040 1.604376 0.053684 -0.036735 509828.000000 0 1 0
4.098332 -20.429169 -1.808617 20.914549 -1.372813 1.657381 0.044771 -0.030160 -610418.000000 0 1 0
5.015832 -19.474969 -2.234417 20.234268 -1.318722 1.681449 0.049175 -0.023350 -523979.000000 0 1 0
5.923532 -19.879669 -3.414617 21.022585 -1.281204 1.733945 0.042994 -0.015988 -502370.000000 0 1 0
6.953032 -20.815069 -3.076417 22.160237 -1.248411 1.710072 0.053847 -0.020726 -298738.000000 0 1 0
7.588032 -21.382969 -4.169717 23.069376 -1.229795 1.752542 0.050499 -0.015563 52205.500000 0 1 0
8.730232 -20.616869 -4.877617 22.914262 -1.170238 1.785301 0.061962 -0.008969 -336966.000000 0 1 0
8.423032 -19.432269 -5.597517 21.906454 -1.161785 1.829181 0.048351 -0.016067 663213.000000 0 1 0
9.689132 -18.804469 -5.925417 21.968111 -1.095018 1.843907 0.066220 -0.022232 656972.000000 0 1 0
9.636632 -17.837269 -7.157817 21.500400 -1.075467 1.910190 0.059602 -0.007690 -481967.000000 0 1 0
10.846932 -17.207569 -7.491817 21.676801 -1.008353 1.923690 0.075779 -0.018511 -270831.000000 0 1 0
10.860632 -16.260369 -8.600217 21.361570 -0.981926 1.985154 0.077954 -0.007291 -143364.000000 0 1 0
10.778132 -16.830469 -10.068117 22.378556 -1.001204 2.037450 0.062509 0.002080 430246.000000 0 1 0
9.502032 -17.362969 -10.465217 22.389329 -1.070060 2.057166 0.052372 -0.014455 599139.000000 0 1 0
8.873132 -16.440569 -11.373017 21.871678 -1.075888 2.117634 0.035956 -0.026206 -67994.000000 0 1 0
8.473332 -17.012469 -12.706717 22.862242 -1.108697 2.160115 0.053395 -0.028574 172673.000000 0 1 0
7.334632 -17.871269 -12.537817 23.029892 -1.181344 2.146488 0.048914 -0.019960 775878.000000 0 1 0
6.846832 -18.295369 -13.844917 23.943295 -1.212693 2.187363 0.061976 -0.016000 -20282.800000 0 1 0
5.620332 -19.200469 -13.806317 24.307623 -1.286033 2.174849 0.067203 -0.008966 -257894.000000 0 1 0
5.985032 -20.481869 -13.310117 25.149290 -1.286500 2.128506 0.079272 -0.016646 70566.900000 0 0 1
4.878332 -21.326469 -13.034317 25.465856 -1.345920 2.108116 0.100453 -0.020865 194594.000000 0 0 1
5.262232 -22.782569 -12.767517 26.641059 -1.343801 2.070587 0.083381 -0.030232 -48828.700000 0 0 1
5.683932 -23.522169 -13.921617 27.917932 -1.333700 2.092851 0.101136 -0.033460 15557.200000 0 0 1
5.267432 -24.906769 -13.913217 29.011559 -1.362381 2.070967 0.088435 -0.024295 585562.000000 0 0 1
3.791132 -25.126549 -14.341817 29.178825 -1.421044 2.084624 0.104549 -0.028038 767691.000000 0 0 1
2.746432 -24.621969 -13.481617 28.205287 -1.459712 2.069152 0.104255 -0.025876 286937.000000 0 0 1
1.448432 -24.910069 -13.932217 28.578246 -1.512715 2.080033 0.087646 -0.025715 60395.200000 0 0 1
0.730832 -26.254299 -13.538217 29.548361 -1.542967 2.046733 0.072214 -0.023600 -648488.000000 0 0 1
1.325232 -27.460009 -13.990917 30.847270 -1.522573 2.041546 0.085560 -0.029146 -15259.700000 0 0 1
0.846332 -28.650219 -13.364917 31.625501 -1.541265 2.007108 0.064629 -0.024233 2245630.000000 0 0 1
-0.710668 -29.103589 -13.369917 32.035583 1.546383 2.001319 0.047321 -0.024652 2179010.000000 0 0 1
-1.662368 -28.276369 -12.752017 31.063329 1.512074 1.993817 0.045078 -0.026264 673033.000000 0 0 1
-2.986268 -28.655109 -13.205017 31.692358 1.466957 2.000567 0.047070 -0.025719 1121080.000000 0 0 1
-4.116768 -27.724149 -12.582717 30.722971 1.423383 1.992761 0.041422 -0.011076 505874.000000 0 0 1
-4.462468 -27.953269 -11.255517 30.462855 1.412492 1.949249 0.044453 -0.028390 -350.606000 0 0 1
-5.114168 -29.190189 -11.051117 31.628295 1.397355 1.927733 0.045243 -0.024194 -1127990.000000 0 0 1
-5.784368 -29.447789 -9.649717 31.523772 1.376838 1.881900 0.051328 -0.025281 843451.000000 0 0 1
-7.144868 -28.991009 -9.558917 31.351246 1.329161 1.880627 0.045494 -0.021894 224150.000000 0 0 1
-7.242968 -27.624889 -9.357517 30.052590 1.314378 1.887432 0.049672 -0.018512 -1024120.000000 0 0 1
-8.659968 -27.138429 -8.975117 29.867074 1.261907 1.876015 0.052222 -0.022067 500576.000000 0 0 1
-9.706468 -27.297439 -9.922217 30.623783 1.229158 1.900755 0.068275 -0.025130 170779.000000 0 0 1
-9.975368 -28.608419 -10.431017 32.043029 1.235292 1.902370 0.073626 -0.029071 -1955880.000000 0 0 1
-11.227568 -28.716619 -11.246317 32.820453 1.198092 1.920545 0.088513 -0.026609 -1086280.000000 0 0 1
-11.067568 -27.943839 -12.411017 32.517419 1.193687 1.962402 0.111016 -0.030317 242268.000000 0 0 1
-11.676368 -28.493649 -13.580917 33.655117 1.181880 1.986170 0.125106 -0.039326 -170110.000000 0 0 1
-11.974168 -27.453759 -14.743817 33.383674 1.159513 2.028230 0.140461 -0.035010 342763.000000 0 0 1
-13.110868 -26.599099 -14.621217 33.063377 1.112840 2.028866 0.125412 -0.042627 332650.000000 0 0 1
-13.170668 -25.742669 -13.481717 31.904673 1.097890 2.007067 0.135025 -0.037891 -248134.000000 0 0 1
-14.251668 -24.672169 -13.713917 31.621155 1.046979 2.019385 0.161798 -0.035490 -367973.000000 0 0 1
-13.892368 -23.730669 -14.726917 31.193342 1.041168 2.062487 0.172237 -0.035337 46056.400000 0 0 1
-14.867868 -22.723269 -14.907817 30.978112 0.991403 2.072862 0.181007 -0.039313 -360044.000000 0 0 1
-14.952868 -21.874369 -16.188117 31.050465 0.971176 2.119227 0.158783 -0.026627 -41373.000000 0 0 1
-14.179868 -20.666969 -16.189717 29.837882 0.969452 2.144313 0.143623 -0.025145 431288.000000 0 0 1
-14.200468 -19.922769 -17.417517 30.032314 0.951547 2.189475 0.128445 -0.019140 -106627.000000 0 0 1
-14.025968 -18.390069 -17.252617 28.854379 0.919221 2.211700 0.101524 -0.020019 324473.000000 0 0 1
-12.664668 -17.994169 -17.333717 28.011456 0.957511 2.238021 0.094568 -0.001962 415169.000000 0 0 1
-12.685368 -16.627669 -17.218317 27.090005 0.919086 2.259577 0.083341 -0.006666 -840347.000000 0 0 1
-11.363368 -15.978869 -17.477917 26.266480 0.952626 2.298836 0.084884 -0.008525 -743392.000000 0 0 1
-10.584268 -15.771369 -16.314417 25.038430 0.979726 2.280455 0.105457 -0.017833 -434752.000000 0 0 1
-9.238668 -15.493569 -16.538917 24.473239 1.033109 2.312840 0.089069 -0.011839 -759316.000000 0 1 0
-8.455068 -14.892169 -15.329017 22.983551 1.054426 2.300912 0.071161 -0.015557 20818.200000 0 1 0
-8.089968 -15.785769 -14.272817 22.767331 1.097211 2.248363 0.072360 -0.007284 13213.500000 0 1 0
-7.075068 -16.691669 -14.690917 23.334340 1.169885 2.251813 0.069672 0.008244 -641085.000000 0 1 0
-6.522868 -17.503469 -13.510817 23.053446 1.214077 2.196990 0.054816 0.012234 20402.200000 0 1 0
-5.710468 -16.730269 -12.594517 21.705603 1.241870 2.189823 0.049376 0.003690 577637.000000 0 1 0
-5.316868 -17.447669 -11.425017 21.522575 1.275004 2.130386 0.039796 0.000433 214163.000000 0 1 0
-4.193768 -18.549369 -11.443717 22.195167 1.348448 2.112498 0.049788 0.002426 -133159.000000 0 1 0
-2.903168 -18.011669 -11.381317 21.503092 1.410988 2.128557 0.055334 0.006210 -1262920.000000 0 1 0
-2.003468 -19.058669 -11.602017 22.402088 1.466060 2.115189 0.042296 0.018342 421248.000000 0 1 0
-0.642768 -18.602769 -12.213717 22.263222 1.536258 2.151491 0.043883 0.015069 -246712.000000 0 1 0
-0.696868 -18.295369 -13.591717 22.802213 1.532725 2.209394 0.051726 0.010799 890282.000000 0 1 0
0.550232 -17.801369 -14.158917 22.752284 -1.539897 2.242483 0.054900 0.007357 1526240.000000 0 1 0
1.794932 -18.723969 -14.153817 23.540164 -1.475226 2.215876 0.072620 -0.004879 -436553.000000 0 1 0
1.805032 -19.725469 -15.153417 24.939493 -1.479543 2.223841 0.097780 -0.004694 279835.000000 0 1 0
1.127932 -20.980169 -14.824917 25.714157 -1.517086 2.185269 0.095450 -0.006868 -500253.000000 0 0 1
1.088532 -21.938069 -16.054017 27.206529 -1.521219 2.201954 0.105556 -0.010287 612180.000000 0 0 1
2.308732 -22.565369 -16.479617 28.037544 -1.468838 2.199096 0.116975 -0.020585 178273.000000 0 0 1
3.289932 -21.646069 -16.886817 27.650326 -1.419963 2.227775 0.120006 -0.024208 -524372.000000 0 0 1
4.733332 -22.207269 -16.808417 28.250488 -1.360795 2.208034 0.127835 -0.033670 143072.000000 0 0 1
5.047332 -23.032469 -17.886717 29.595689 -1.355067 2.219770 0.110764 -0.025295 344109.000000 0 0 1
6.414832 -23.429669 -17.785717 30.106995 -1.303554 2.202785 0.114037 -0.027297 662209.000000 0 0 1
7.064532 -23.552069 -19.204517 31.199696 -1.279382 2.233861 0.103009 -0.016077 -27413.000000 0 0 1
7.212832 -22.226569 -19.739317 30.588984 -1.257004 2.272223 0.111429 -0.026202 -94443.500000 0 0 1
7.627932 -22.148469 -21.069117 31.506312 -1.239119 2.303291 0.077880 -0.005779 -201961.000000 0 0 1
7.741632 -20.688469 -21.564817 30.870486 -1.212727 2.344176 0.062699 -0.001737 399212.000000 0 0 1
6.525032 -19.993969 -21.806717 30.296332 -1.255344 2.374283 0.097504 -0.012205 68695.300000 0 0 1
6.801932 -18.609969 -22.029517 29.629324 -1.220381 2.409091 0.095293 -0.003306 210164.000000 0 0 1
5.648832 -17.694369 -22.523517 29.194328 -1.261779 2.451997 0.093806 -0.010637 -530036.000000 0 0 1
5.071432 -18.138169 -23.724017 30.290949 -1.298159 2.470600 0.083381 -0.009893 -133074.000000 0 0 1
4.335032 -17.150069 -24.453617 30.181066 -1.323212 2.515341 0.089801 -0.011210 89851.800000 0 0 1
2.904532 -16.937369 -23.967017 29.491162 -1.400962 2.519541 0.105332 -0.009765 -735827.000000 0 0 1
2.952232 -16.163769 -22.737717 28.053286 -1.390143 2.515834 0.104721 -0.004239 -1482710.000000 0 0 1
1.678932 -16.045969 -22.247017 27.481297 -1.466543 2.514153 0.110168 -0.009691 -905472.000000 0 0 1
1.626432 -15.369069 -20.833017 25.939702 -1.465364 2.503331 0.110760 -0.010837 -71653.300000 0 0 1
1.953532 -13.996269 -20.779917 25.129997 -1.432117 2.544363 0.085249 -0.008279 -348243.000000 0 0 1
2.296932 -13.690069 -19.463117 23.906208 -1.404564 2.522051 0.085227 -0.006997 -386151.000000 0 1 0
3.258132 -12.520569 -19.451617 23.361196 -1.316220 2.554666 0.066051 -0.009195 -606567.000000 0 1 0
4.602032 -12.944969 -19.555217 23.898900 -1.229224 2.529152 0.070219 -0.007319 527094.000000 0 1 0
5.570332 -11.868069 -19.819117 23.762934 -1.131964 2.557178 0.062993 -0.004665 1199360.000000 0 1 0
5.921332 -10.867669 -18.689517 22.415763 -1.071910 2.556692 0.069094 -0.003997 -546925.000000 0 1 0
5.010132 -9.809869 -18.417517 21.460193 -1.098607 2.602583 0.039639 -0.000402 -161011.000000 0 1 0
5.092232 -8.558769 -19.172517 21.604832 -1.034082 2.662510 0.057585 -0.012356 -355784.000000 0 1 0
4.698332 -8.677769 -20.656917 22.892929 -1.074563 2.695935 0.082055 -0.024796 760546.000000 0 1 0
3.271632 -8.892869 -20.596117 22.671275 -1.218270 2.710399 0.057978 -0.024232 566543.000000 0 1 0
2.728032 -8.847169 -21.884517 23.762294 -1.271696 2.741376 0.068169 -0.035893 411715.000000 0 1 0
1.182032 -8.783669 -21.996417 23.714814 -1.437028 2.758570 0.049343 -0.030779 443506.000000 0 1 0
0.647332 -7.531669 -21.583817 22.869329 -1.485059 2.804707 0.034325 -0.031014 43769.000000 0 1 0
-0.768368 -7.464469 -21.698417 22.959311 1.468221 2.808640 0.040709 -0.025186 536563.000000 0 1 0
-1.320068 -6.420069 -22.667317 23.595913 1.368007 2.860114 0.051232 -0.031101 -47797.200000 0 1 0
-1.058468 -6.799269 -24.014517 24.980941 1.416362 2.862528 0.066164 -0.030042 -619614.000000 0 1 0
-1.717068 -6.052469 -24.965517 25.746023 1.294363 2.894732 0.084145 -0.036901 -757234.000000 0 0 1
-1.082568 -4.767069 -25.535567 25.999270 1.347491 2.952444 0.074638 -0.027027 -281717.000000 0 0 1
-1.723168 -4.178969 -26.670567 27.050919 1.179695 2.973702 0.083807 -0.030623 -35755.500000 0 0 1
-1.275868 -2.904469 -27.108227 27.293218 1.156895 3.025097 0.065645 -0.031075 -739658.000000 0 0 1
-1.672768 -1.711369 -26.113087 26.222514 0.796804 3.050204 0.058956 -0.030077 510774.000000 0 0 1
-3.039268 -1.465169 -25.800567 26.020244 0.449209 3.011558 0.048041 -0.033946 432988.000000 0 0 1
-3.854068 -1.111469 -26.920927 27.218110 0.280770 2.993684 0.062571 -0.026217 389967.000000 0 0 1
-5.373168 -1.123569 -26.532777 27.094678 0.206137 2.937580 0.056929 -0.035520 938534.000000 0 0 1
-5.869968 0.128731 -25.930777 26.587182 -0.021927 2.918922 0.071762 -0.028067 198770.000000 0 0 1
-7.247968 0.041131 -25.638937 26.643757 -0.005675 2.866084 0.097318 -0.044935 -345750.000000 0 0 1
-7.959068 1.341731 -25.247097 26.505903 -0.167009 2.832166 0.103233 -0.044120 -1072270.000000 0 0 1
-8.167968 2.358331 -26.265947 27.607560 -0.281085 2.828560 0.122888 -0.042361 321277.000000 0 0 1
-9.016668 1.952331 -27.346847 28.861080 -0.213233 2.816226 0.135654 -0.045891 974625.000000 0 0 1
-10.474568 1.501931 -26.950407 28.953355 -0.142418 2.767451 0.128617 -0.041663 57769.600000 0 0 1
-11.565568 2.277631 -27.413247 29.840175 -0.194444 2.735494 0.122781 -0.053324 932249.000000 0 0 1
-12.823368 1.703131 -27.055987 29.989429 -0.132042 2.695603 0.067213 -0.034376 669554.000000 0 0 1
-14.096968 2.335731 -27.645597 31.120076 -0.164199 2.664541 0.037790 -0.030806 -708447.000000 0 0 1
-15.296968 1.597931 -27.430457 31.448061 -0.104083 2.630573 0.033694 -0.025393 317459.000000 0 0 1
-16.332168 2.186931 -28.189647 32.652390 -0.133111 2.612619 0.026405 -0.022287 -120961.000000 0 0 1
-16.998668 3.470831 -27.589697 32.591298 -0.201414 2.580240 0.018034 -0.015621 -1409000.000000 0 0 1
-16.254068 4.633331 -27.613697 32.375588 -0.277692 2.592344 0.035233 -0.020841 -417610.000000 0 0 1
-16.183668 5.264431 -28.878697 33.520210 -0.314497 2.609074 0.037290 -0.019238 75300.000000 0 0 1
-17.538668 5.679031 -29.526917 34.809411 -0.313147 2.583459 0.017188 -0.006129 302921.000000 0 0 1
-18.191868 6.768431 -28.878677 34.795599 -0.356189 2.549818 0.012947 0.001445 -150060.000000 0 0 1
-19.030268 7.397031 -29.783907 36.110224 -0.370726 2.540654 0.016453 0.004339 -540777.000000 0 0 1
-19.727968 8.627331 -29.178817 36.263300 -0.412255 2.505861 0.024119 -0.000378 -522601.000000 0 0 1
-18.896768 9.697231 -28.834237 35.812530 -0.474127 2.506714 0.032465 0.004401 42814.400000 0 0 1
-19.661668 10.815631 -28.453267 36.237376 -0.502910 2.473801 0.063279 0.002328 -30032.800000 0 0 1
-9.089168 24.696431 30.649338 40.396889 -1.218145 0.709473 0.039108 -0.014331 -157326.000000 0 0 1
-9.976568 25.839531 30.576048 41.256612 -1.202332 0.736061 0.042733 -0.012760 514920.000000 0 0 1
-9.664568 26.904631 31.527688 42.558879 -1.225935 0.736533 0.057020 -0.019401 807638.000000 0 0 1
-8.284068 27.625431 31.248808 42.523855 -1.279458 0.745346 0.052130 -0.018871 752771.000000 0 0 1
-8.270368 28.329431 30.044918 42.114757 -1.286754 0.776450 0.054815 -0.007510 -749265.000000 0 0 1
-6.984568 28.441231 29.543328 41.599231 -1.329983 0.781029 0.064790 -0.008332 -693030.000000 0 0 1
-6.741168 29.599631 28.552728 41.675410 -1.346871 0.816026 0.095230 -0.009093 -223389.000000 0 0 1
-6.735468 30.813631 29.277968 43.035402 -1.355594 0.822593 0.098562 -0.012940 286620.000000 0 0 1
-6.235368 31.936431 28.573278 43.304130 -1.377979 0.850206 0.114828 -0.007968 5921.440000 0 0 1
-6.641568 33.237031 29.248238 44.769075 -1.373570 0.858844 0.120223 -0.020461 -278799.000000 0 0 1
-5.853268 33.458231 30.374268 45.566546 -1.397606 0.841170 0.134831 -0.024140 311891.000000 0 0 1
-6.625368 -33.379765 31.235348 46.192545 1.374858 0.828205 0.131420 -0.024465 547066.000000 0 0 1
-7.623868 33.581031 32.182008 47.132692 -1.347551 0.819214 0.086665 -0.024071 114364.000000 0 0 1
-7.017268 32.838631 33.232999 47.244576 -1.360273 0.790592 0.094863 -0.020317 206345.000000 0 0 1
-6.975668 31.444431 32.924464 46.059011 -1.352491 0.774412 0.089249 -0.011438 -324847.000000 0 0 1
-6.967968 30.558931 -33.494117 45.872178 -1.346612 2.389355 0.074487 -0.014796 -442919.000000 0 0 1
-5.726268 30.491931 -32.868107 45.198014 -1.385162 2.385034 0.081909 -0.014600 -487473.000000 0 0 1
-5.832368 29.640431 -31.761987 43.833725 -1.376508 2.381252 0.071374 -0.016052 -229330.000000 0 0 1
-4.444868 29.365431 -31.118157 43.016567 -1.420573 2.379510 0.076253 -0.023954 699888.000000 0 0 1
-3.724368 28.227131 -31.624677 42.553049 -1.439611 2.408610 0.092866 -0.020452 303203.000000 0 0 1
-3.277468 28.280531 -32.958807 43.552419 -1.455420 2.429141 0.096852 -0.024362 -692266.000000 0 0 1
-2.525468 26.967931 -33.295047 42.920944 -1.477422 2.458667 0.104099 -0.035944 918961.000000 0 0 1
-1.313768 26.734031 -32.469287 42.079555 -1.521694 2.452175 0.132223 -0.039217 1858940.000000 0 0 1
-0.553668 25.565631 -32.751847 41.552274 -1.549143 2.478688 0.147440 -0.036811 400419.000000 0 0 1
-0.095868 25.257631 33.444812 41.910769 -1.567001 0.646826 0.141655 -0.032714 -706259.000000 0 0 1
-1.184468 25.080631 32.562434 41.118769 -1.523605 0.656863 0.131281 -0.026191 -235204.000000 0 0 1
-0.898868 25.059231 31.178278 40.010724 -1.534942 0.677331 0.138679 -0.022775 -37144.300000 0 0 1
-0.479468 26.383131 30.529128 40.352536 -1.552625 0.712759 0.116369 -0.019297 375710.000000 0 0 1
-1.593668 27.260731 30.465558 40.912559 -1.512403 0.730785 0.105884 -0.021022 127143.000000 0 0 1
-1.282168 28.585031 29.991548 41.451670 -1.525972 0.761893 0.092609 -0.020452 150889.000000 0 0 1
-2.446268 29.627931 30.059658 42.277436 -1.488417 0.779864 0.109499 -0.020196 343527.000000 0 0 1
-2.827768 29.841731 31.410438 43.418208 -1.476320 0.762025 0.110847 -0.024345 258581.000000 0 0 1
-3.663968 31.001431 31.530378 44.369789 -1.453155 0.780407 0.118620 -0.018663 209137.000000 0 0 1
-3.076268 31.878731 32.673278 45.752159 -1.474595 0.775407 0.119612 -0.016755 462087.000000 0 0 1
-1.739168 32.339731 32.550727 45.917674 -1.517070 0.782869 0.170856 -0.036637 147319.000000 0 0 1
-1.398168 33.006631 33.757358 47.232952 -1.528461 0.774602 0.143012 -0.034337 -161209.000000 0 0 1
0.096932 33.394031 33.785588 47.504070 1.567894 0.779572 0.139943 -0.048806 43769.100000 0 0 1
0.384732 -33.149165 32.994491 46.772338 -1.559191 0.787770 0.162136 -0.051219 292076.000000 0 0 1
1.778432 -32.895865 32.968969 46.607442 -1.516786 0.785018 0.148654 -0.052911 70291.100000 0 0 1
2.111332 -31.448465 32.485549 45.263391 -1.503761 0.770302 0.145971 -0.059952 -413711.000000 0 0 1
1.792532 -30.489065 33.455510 45.299751 -1.512071 0.739900 0.134832 -0.050670 171317.000000 0 0 1
2.064832 -29.118465 33.086901 44.123594 -1.500003 0.722933 0.109219 -0.054501 -258871.000000 0 0 1
1.605732 -28.091365 -33.503087 43.751114 -1.513697 2.443027 0.115768 -0.054271 392022.000000 0 0 1
0.192332 -27.942965 -33.563657 43.673394 -1.563913 2.447313 0.108854 -0.053708 331126.000000 0 0 1
-0.304768 -27.430465 -32.332127 42.401530 1.559686 2.438000 0.096194 -0.047794 1172450.000000 0 0 1
-1.855868 -27.106065 -32.451117 42.323256 1.502436 2.444550 0.134651 -0.042470 1265140.000000 0 0 1
-2.354768 -26.810765 -31.159437 41.173688 1.483192 2.429170 0.130729 -0.040641 -393151.000000 0 0 1
-3.646168 -26.290365 -31.120257 40.901690 1.432987 2.435426 0.154286 -0.044348 -502447.000000 0 0 1
-3.914768 -25.577265 -29.793097 39.460746 1.418918 2.426459 0.170672 -0.049924 -433159.000000 0 0 1
-4.262368 -26.535165 -28.828447 39.412715 1.411526 2.391243 0.182128 -0.056025 -171823.000000 0 0 1
-4.107768 -26.112565 -27.436297 38.098428 1.414765 2.374804 0.200150 -0.050329 -41425.400000 0 0 1
-2.689468 -25.772665 -26.904387 37.353842 1.466819 2.374970 0.197383 -0.054289 -20961.700000 0 0 1
-2.185768 -24.545765 -27.441037 36.882010 1.481982 2.409867 0.220175 -0.056234 619913.000000 0 0 1
-1.078068 -24.097865 -26.647597 35.943897 1.526089 2.405900 0.173118 -0.050988 -126468.000000 0 0 1
-0.172068 -22.961765 -27.175017 35.577434 1.563303 2.440019 0.119498 -0.043985 1212970.000000 0 0 1
0.678032 -23.118865 -28.373067 36.605636 -1.541477 2.457671 0.068455 -0.043057 995318.000000 0 0 1
1.518832 -24.275565 -28.408957 37.398913 -1.508311 2.433525 0.050717 -0.025967 -123492.000000 0 0 1
2.250532 -24.433065 -29.747427 38.560977 -1.478945 2.451895 0.054898 -0.030971 209501.000000 0 0 1
3.209632 -23.454365 -30.053607 38.257395 -1.434795 2.474402 0.068005 -0.034078 242379.000000 0 0 1
4.188032 -23.761765 -31.051377 39.323645 -1.396337 2.481012 0.068605 -0.032368 -136164.000000 0 0 1
5.177332 -22.567665 -31.108767 38.779629 -1.345285 2.501756 0.088572 -0.047375 -369576.000000 0 0 1
6.337832 -22.582565 -30.304117 38.320750 -1.297184 2.482914 0.057737 -0.038634 917394.000000 0 0 1
7.419932 -23.496965 -30.504377 39.213260 -1.264924 2.462129 0.073311 -0.029829 458346.000000 0 0 1
7.971532 -23.776165 -31.961757 40.625180 -1.247300 2.476318 0.089541 -0.025925 -866949.000000 0 0 1
7.067932 -24.536165 -32.711927 41.497581 -1.290328 2.478813 0.067178 -0.032728 -220117.000000 0 0 1
7.175032 -24.460165 33.543379 42.130026 -1.285465 0.649829 0.087998 -0.037119 -93416.800000 0 0 1
6.562432 -23.170965 32.951191 40.813480 -1.294806 0.631131 0.091847 -0.031233 -372906.000000 0 0 1
5.175332 -23.079465 33.190812 40.756298 -1.350206 0.619149 0.104603 -0.039296 -110290.000000 0 0 1
4.693332 -21.952065 32.409136 39.424265 -1.360168 0.605776 0.133065 -0.049156 -765588.000000 0 0 1
3.246632 -21.661465 32.752104 39.401269 -1.422023 0.589453 0.098811 -0.044773 -303248.000000 0 0 1
2.302832 -22.671365 32.332553 39.556135 -1.469569 0.613941 0.096103 -0.049180 407936.000000 0 0 1
2.004732 -23.620665 33.365971 40.929730 -1.486127 0.617720 0.097072 -0.038861 -88401.900000 0 0 1
0.601632 -24.280965 33.283546 41.203418 -1.546023 0.630410 0.096420 -0.033775 366638.000000 0 0 1
0.407632 -25.090865 32.112505 40.754517 -1.554552 0.663324 0.110811 -0.034208 -496649.000000 0 0 1
-0.940368 -25.326665 31.858833 40.710066 1.533684 0.671999 0.112587 -0.036616 -641927.000000 0 0 1
-1.138168 -26.350865 30.747648 40.510263 1.527630 0.709007 0.105589 -0.042574 -111198.000000 0 0 1
-2.466168 -26.655565 30.395278 40.502766 1.478539 0.722054 0.128352 -0.041141 -111252.000000 0 0 1
-2.460968 -27.571565 29.294458 40.304005 1.481775 0.757090 0.146251 -0.051201 -248876.000000 0 0 1
-3.845668 -27.640665 28.658848 40.001564 1.432553 0.772106 0.170593 -0.042828 -1153230.000000 0 0 1
-4.855868 -28.078465 29.449948 40.979008 1.399551 0.768924 0.172566 -0.046633 -1227530.000000 0 0 1
-5.898568 -28.596265 28.698118 40.940462 1.367379 0.794037 0.157003 -0.042237 -121844.000000 0 0 1
-7.017968 -29.275565 29.569748 42.198111 1.335515 0.794367 0.117933 -0.032689 -436908.000000 0 0 1
-8.180868 -29.434065 28.861458 42.027069 1.299700 0.813809 0.127148 -0.028396 201161.000000 0 0 1
-9.438968 -29.700265 29.506868 42.916840 1.263083 0.812706 0.099881 -0.021574 952625.000000 0 0 1
-9.651868 -30.887065 30.496448 44.465747 1.267921 0.815037 0.062928 -0.006569 -706439.000000 0 0 1
-9.516068 -32.204665 30.054028 45.065958 1.283485 0.840769 0.077510 -0.011091 1345670.000000 0 0 1
-10.656968 -32.657465 29.250128 45.118189 1.255366 0.865447 0.067943 -0.007472 968468.000000 0 0 1
-10.514268 33.498231 28.859348 45.448248 -1.266659 0.882796 0.069008 -0.007512 -293764.000000 0 0 1
-10.748368 32.658931 29.991518 45.624822 -1.252852 0.853498 0.068242 -0.001867 372442.000000 0 0 1
-10.364968 31.318131 29.731308 44.409555 -1.251186 0.837288 0.076068 -0.001552 -74417.100000 0 0 1
-10.961368 30.375931 30.800938 44.626747 -1.224482 0.809045 0.054541 -0.002974 -284698.000000 0 0 1
-12.352168 30.263731 30.612258 44.783700 -1.183283 0.818170 0.066448 0.000274 124647.000000 0 0 1
-13.050568 29.086031 31.032688 44.489800 -1.149034 0.798861 0.063187 -0.008013 273865.000000 0 0 1
-13.137968 28.943531 32.552894 45.497529 -1.144690 0.773475 0.069577 -0.012054 -439523.000000 0 0 1
-14.116368 29.850431 33.051201 46.719396 -1.129060 0.784926 0.077462 -0.008004 507037.000000 0 0 1
-14.253568 29.640831 -33.227567 46.752692 -1.122565 2.361302 0.079751 -0.015651 6037.210000 0 0 1
-15.675168 29.970131 -32.718817 47.057843 -1.088898 2.339619 0.074092 -0.017208 55505.300000 0 0 1
-15.736468 29.661331 -31.302607 45.905165 -1.083018 2.321150 0.068127 -0.017714 975478.000000 0 0 1
-17.033368 30.010331 -30.757627 46.225395 -1.054554 2.298804 0.086346 -0.017633 995360.000000 0 0 1
-17.226268 29.600631 -29.276187 45.055929 -1.043750 2.278084 0.101749 -0.024300 -534132.000000 0 0 1
-17.420768 28.194131 -29.126367 44.121847 -1.017329 2.291795 0.090822 -0.030685 239477.000000 0 0 1
-17.405768 27.810031 -27.764297 42.979236 -1.011564 2.273120 0.114660 -0.034574 -315445.000000 0 0 1
-17.943068 26.405831 -27.446657 42.101551 -0.973954 2.280904 0.071345 -0.031501 659286.000000 0 0 1
-19.337668 26.291931 -27.746587 42.837882 -0.936641 2.275373 0.078314 -0.032369 456802.000000 0 0 1
-19.894968 25.051331 -27.421067 42.134236 -0.899622 2.279437 0.055592 -0.027025 -239737.000000 0 0 1
-21.357668 24.891131 -27.853507 43.029481 -0.861651 2.274849 0.081617 -0.028745 -517739.000000 0 0 1
-22.323268 25.239631 -26.884347 43.106094 -0.846637 2.244236 0.079289 -0.027921 -845627.000000 0 0 1
-23.515368 24.763731 -27.391067 43.777682 -0.811250 2.246806 0.094465 -0.030956 -938556.000000 0 0 1
-24.733768 24.723531 -26.453717 43.849873 -0.785191 2.218403 0.108019 -0.026665 -48445.600000 0 0 1
-25.277048 25.985831 -26.141337 44.694094 -0.799224 2.195546 0.071816 -0.018097 -325361.000000 0 0 1
-26.355078 25.963431 -25.245637 44.788749 -0.777912 2.169607 0.098006 -0.018152 -218131.000000 0 0 1
-26.109868 25.633231 -23.736817 43.614495 -0.776187 2.146281 0.077974 -0.013822 -716428.000000 0 0 1
-25.795688 24.289031 -23.641017 42.594274 -0.755325 2.159193 0.090216 -0.007784 505070.000000 0 0 1
-26.876558 23.322331 -23.454517 42.619184 -0.714713 2.153553 0.115219 -0.009890 963784.000000 0 0 1
-27.759958 23.411531 -22.151317 42.536994 -0.700624 2.118530 0.083881 -0.012472 88682.700000 0 0 1
-27.154478 23.056531 -20.930417 41.316481 -0.703964 2.102019 0.087940 -0.010324 -90822.000000 0 0 1
-26.426428 24.049631 -20.290517 41.090703 -0.738345 2.087249 0.081850 -0.003653 -172107.000000 0 0 1
-25.615398 23.640231 -19.047317 39.721649 -0.745319 2.070904 0.075952 -0.005235 191111.000000 0 0 1
-26.401068 23.479631 -17.869117 39.593115 -0.726897 2.039039 0.074305 0.000151 956110.000000 0 0 1
-25.507718 23.409231 -16.730417 38.451822 -0.742525 2.020947 0.103308 -0.022598 636069.000000 0 0 1
-26.275898 23.589131 -15.375717 38.513408 -0.731569 1.981473 0.105845 -0.029300 -657.866000 0 0 1
-26.614878 24.971431 -15.165217 39.520980 -0.753551 1.964624 0.114135 -0.027690 48666.900000 0 0 1
-27.260028 25.148531 -13.923617 39.615967 -0.745131 1.929932 0.069041 -0.032698 -3192.510000 0 0 1
-27.029348 26.634631 -13.395717 40.242197 -0.778043 1.910150 0.061758 -0.018876 388747.000000 0 0 1
-25.651168 26.853431 -13.163317 39.400026 -0.808292 1.911440 0.109855 -0.040300 -77624.900000 0 0 1
-25.526808 27.773031 -12.133117 39.625392 -0.827516 1.881990 0.121587 -0.036201 -356140.000000 0 0 1
-24.106568 28.103331 -11.675917 38.823329 -0.861801 1.876270 0.144715 -0.042592 -167657.000000 0 0 1
-23.423868 26.993431 -11.052417 37.409609 -0.856081 1.870716 0.153342 -0.044423 983376.000000 0 0 1
-22.228768 27.454131 -10.368617 36.815155 -0.890187 1.856299 0.147748 -0.041480 1079640.000000 0 0 1
-21.306868 26.314331 -9.793417 35.246810 -0.890165 1.852354 0.193949 -0.045375 190970.000000 0 0 1
-20.618968 25.692431 -10.836317 34.679513 -0.894514 1.888589 0.186465 -0.057824 -312393.000000 0 0 1
-19.844368 24.645531 -10.302417 33.276732 -0.892898 1.885567 0.196237 -0.049868 33478.600000 0 0 1
-19.157668 23.794231 -11.445917 32.621935 -0.892930 1.929292 0.188137 -0.056184 -133269.000000 0 0 1
-18.319968 22.859031 -10.840317 31.235701 -0.895183 1.925219 0.152840 -0.044997 142013.000000 0 0 1
-17.747168 21.871731 -11.737217 30.513879 -0.889130 1.965627 0.149013 -0.030018 619759.000000 0 0 1
-17.200868 20.616431 -11.003517 29.016969 -0.875471 1.959738 0.132203 -0.018898 1219130.000000 0 0 1
-18.392568 19.841331 -10.661317 29.079695 -0.823272 1.946174 0.154636 -0.020277 1214360.000000 0 0 1
-18.114368 18.474031 -10.238917 27.825448 -0.795228 1.947621 0.168789 -0.034432 -1535100.000000 0 0 1
-19.376268 17.673431 -10.176317 28.130897 -0.739470 1.940939 0.160486 -0.018558 -698549.000000 0 0 1
-20.091968 17.389531 -11.383317 28.907834 -0.713422 1.975536 0.152865 -0.021276 314111.000000 0 0 1
-20.481968 18.475231 -12.235317 30.175290 -0.733932 1.988294 0.160344 -0.032702 -724171.000000 0 0 1
-21.440768 18.013631 -13.345517 31.020965 -0.698752 2.015521 0.160795 -0.033784 462610.000000 0 0 1
-20.655768 17.275931 -14.311517 30.494886 -0.696530 2.059304 0.158388 -0.042976 759041.000000 0 0 1
-21.446768 16.680731 -15.315617 31.189401 -0.661041 2.084093 0.142483 -0.036229 661808.000000 0 0 1
-20.485868 16.194431 -16.499817 30.889712 -0.668932 2.134301 0.170055 -0.039284 658309.000000 0 0 1
-19.902468 17.288731 -17.198317 31.476825 -0.715235 2.148833 0.152596 -0.035612 183389.000000 0 0 1
-19.403968 16.828431 -18.437217 31.617100 -0.714434 2.193386 0.142284 -0.025326 -280294.000000 0 0 1
-18.472168 17.844031 -19.166017 32.046320 -0.768104 2.211890 0.100817 -0.022151 321620.000000 0 0 1
-17.301968 18.176131 -18.413517 31.125350 -0.810033 2.203829 0.112044 -0.021328 795372.000000 0 0 1
-16.802068 19.491631 -18.638817 31.774812 -0.859368 2.197639 0.113856 -0.022730 -55165.400000 0 0 1
34.424840 30.181631 2.159783 45.833013 0.719815 1.523656 0.098932 -0.022577 299361.000000 0 0 1
35.611330 30.094031 1.385883 46.644809 0.701624 1.541081 0.119349 -0.026334 288364.000000 0 0 1
35.587440 31.033631 0.372683 47.219604 0.717150 1.562904 0.116419 -0.018199 770920.000000 0 0 1
36.931350 31.116631 -0.445817 48.294597 0.700155 1.580028 0.084637 -0.017364 864048.000000 0 0 1
-37.248418 31.639531 0.248283 48.872960 -0.704157 1.565716 0.060313 -0.012689 -197534.000000 0 0 1
-36.168538 31.861931 -0.602217 48.204859 -0.722178 1.583290 0.068176 -0.009055 227266.000000 0 0 1
-35.124514 32.908631 -0.041617 48.132226 -0.752839 1.571661 0.043889 -0.010404 700895.000000 0 0 1
-34.401522 32.536831 1.142583 47.364708 -0.757549 1.546671 0.032589 -0.007238 257170.000000 0 0 1
-33.677538 33.644931 1.604783 47.631222 -0.784914 1.537098 0.025139 -0.002440 -386637.000000 0 0 1
-32.952828 33.342031 2.934983 46.970140 -0.791269 1.508269 0.052672 -0.002586 -208333.000000 0 0 1
-32.535558 -33.142665 3.611183 46.583682 0.794642 1.493198 0.046506 0.003115 -1215.980000 0 0 1
-31.883268 -33.617065 4.775183 46.577379 0.811862 1.468094 0.079858 -0.010960 -281609.000000 0 0 1
-31.545238 -32.371665 5.725583 45.561047 0.798327 1.444795 0.087976 -0.009900 157708.000000 0 0 1
-32.643558 -31.730865 6.359483 45.966213 0.771221 1.432000 0.085548 -0.010086 667231.000000 0 0 1
-33.358618 -32.431665 7.406883 47.111275 0.771310 1.412920 0.070366 -0.026113 -646609.000000 0 0 1
-34.496150 -31.720865 8.157483 47.568290 0.743511 1.398455 0.073907 -0.025653 688344.000000 0 0 1
-35.810211 -31.502165 7.619483 48.299215 0.721485 1.412379 0.038636 -0.016798 882879.000000 0 0 1
-36.457078 -32.696265 7.229283 49.501786 0.731068 1.424231 0.034018 -0.020078 -506376.000000 0 0 1
37.311520 -32.500065 6.979083 49.971105 -0.716586 1.430676 0.025121 -0.013691 705852.000000 0 0 1
36.463100 -32.431565 8.123983 49.470831 -0.726947 1.405831 0.025376 -0.013537 1178980.000000 0 0 1
35.061040 -32.493065 7.804683 48.435409 -0.747403 1.408955 0.031788 -0.004946 1162240.000000 0 0 1
34.194310 -32.366065 9.113483 47.956945 -0.757938 1.379599 0.037405 -0.018212 207769.000000 0 0 1
32.806350 -32.563465 8.889783 47.070841 -0.781683 1.380796 0.046277 -0.018415 998283.000000 0 0 1
31.903540 -32.404165 10.017083 46.564017 -0.793183 1.353977 0.052155 -0.024461 613743.000000 0 0 1
31.970060 -31.052465 10.886083 45.878613 -0.770839 1.331231 0.056270 -0.022337 -668915.000000 0 0 1
31.309330 -29.892665 10.377883 44.514560 -0.762255 1.335496 0.068435 -0.030932 506352.000000 0 0 1
32.002390 -29.236265 9.312183 44.335414 -0.740259 1.359181 0.081605 -0.027141 29432.600000 0 0 1
31.245780 -27.971765 8.923483 42.875948 -0.730166 1.361140 0.084188 -0.032034 18743.900000 0 0 1
31.759240 -27.425765 7.705383 42.663741 -0.712309 1.389192 0.084314 -0.026629 604393.000000 0 0 1
30.977130 -26.220565 7.484483 41.268851 -0.702429 1.388428 0.093326 -0.026329 635364.000000 0 0 1
31.044380 -25.569365 6.081883 40.675979 -0.688990 1.420713 0.087505 -0.014943 259590.000000 0 0 1
32.375840 -25.254165 5.723083 41.457466 -0.662446 1.432307 0.069387 -0.015547 -193260.000000 0 0 1
32.572510 -24.492265 4.502483 41.001363 -0.644736 1.460761 0.071026 -0.014036 97336.500000 0 0 1
34.047150 -24.080065 4.263383 41.919379 -0.615579 1.468916 0.064054 -0.016869 280891.000000 0 0 1
34.800270 -25.232765 3.836883 43.156377 -0.627357 1.481772 0.052764 -0.014355 -320938.000000 0 0 1
36.148290 -24.821665 3.768483 44.011537 -0.601718 1.485066 0.051198 -0.018721 -567940.000000 0 0 1
37.107780 -25.940965 3.530783 45.413516 -0.610102 1.492970 0.047183 -0.016584 -607641.000000 0 0 1
37.157480 -26.719565 4.699883 46.007634 -0.623423 1.468463 0.035763 -0.016144 -500566.000000 0 0 1
-37.399058 -27.877165 4.578583 46.869919 0.640549 1.472953 0.036671 -0.017992 -971718.000000 0 0 1
37.490460 -29.032165 5.607583 47.747735 -0.658928 1.453083 0.034054 -0.017377 -553995.000000 0 0 1
36.249450 -29.643165 5.453983 47.143247 -0.685474 1.454847 0.019548 -0.017310 -504069.000000 0 0 1
35.204050 -28.817165 5.934583 45.879989 -0.685965 1.441083 0.042706 -0.008302 -131688.000000 0 0 1
33.813380 -29.536465 6.016983 45.298471 -0.717988 1.437573 0.088354 -0.014124 636608.000000 0 0 1
33.154060 -30.032265 4.859483 44.997146 -0.736032 1.462590 0.075306 -0.021841 209425.000000 0 0 1
32.446530 -29.001965 4.153883 43.716656 -0.729401 1.475634 0.088871 -0.022785 -552924.000000 0 0 1
30.932120 -29.243865 4.109483 42.765495 -0.757350 1.474554 0.084411 -0.020668 -198282.000000 0 0 1
30.674250 -30.427365 3.372983 43.337180 -0.781358 1.492886 0.087577 -0.013795 63042.500000 0 0 1
29.279690 -30.715365 3.401083 42.571132 -0.809323 1.490819 0.104868 -0.018551 608951.000000 0 0 1
28.981890 -32.093665 2.777983 43.332095 -0.836304 1.506643 0.104345 -0.012945 -79457.300000 0 0 1
29.188290 -32.191365 1.347083 43.474761 -0.834285 1.539806 0.100017 -0.005407 209730.000000 0 0 1
28.889990 -33.513165 0.892183 44.255618 -0.859349 1.550635 0.093114 -0.007088 -226346.000000 0 0 1
28.660990 -33.687865 -0.606217 44.234512 -0.865849 1.584501 0.084317 -0.011390 -421044.000000 0 0 1
29.695390 -33.293465 -1.474717 44.636821 -0.842459 1.603840 0.081464 -0.012099 -107193.000000 0 0 1
29.409190 -33.542665 -2.874917 44.702080 -0.850965 1.635154 0.068946 -0.009961 353592.000000 0 0 1
30.509500 -32.987565 -3.849817 45.098006 -0.824405 1.656266 0.051355 -0.006612 530687.000000 0 0 1
30.469380 -31.604565 -3.949217 44.077522 -0.803684 1.660514 0.041682 -0.004815 330539.000000 0 0 1
31.558410 -31.141865 -4.737817 44.589190 -0.778755 1.677252 0.031111 -0.004236 -23136.400000 0 0 1
31.779610 -29.590965 -4.698417 43.676583 -0.749751 1.678578 0.032014 0.005994 -492999.000000 0 0 1
30.694230 -28.758065 -5.055117 42.364091 -0.752843 1.690407 0.026083 -0.011503 104078.000000 0 0 1
31.049920 -27.320665 -5.020417 41.661983 -0.721596 1.691593 0.030392 -0.013965 458833.000000 0 0 1
32.085920 -26.776765 -6.094417 42.233201 -0.695446 1.715606 0.046243 -0.011624 278760.000000 0 0 1
33.391820 -27.164165 -5.710017 43.422457 -0.682917 1.702677 0.053693 -0.001518 246151.000000 0 0 1
34.397460 -26.772465 -6.680917 44.097446 -0.661385 1.722885 0.060488 -0.007280 576498.000000 0 0 1
34.564080 -27.622465 -7.985817 44.960532 -0.674233 1.749362 0.054221 -0.020028 -481289.000000 0 0 1
33.478610 -27.584465 -8.907917 44.283981 -0.689171 1.773333 0.057192 -0.019153 90388.300000 0 0 1
33.354460 -28.816165 -9.630017 45.117941 -0.712530 1.785892 0.035535 -0.007530 205011.000000 0 0 1
33.143320 -30.185765 -9.004417 45.724606 -0.738731 1.769019 0.031382 -0.006312 -317207.000000 0 0 1
34.305120 -30.683665 -8.401517 46.785831 -0.729731 1.751350 0.038171 -0.013459 -663871.000000 0 0 1
34.137800 -31.976665 -7.904317 47.438114 -0.752722 1.738201 0.049573 -0.025087 262191.000000 0 0 1
35.352920 -32.442565 -7.076917 48.501873 -0.742496 1.717229 0.056150 -0.025056 151704.000000 0 0 1
35.248770 -33.742265 -6.481717 49.224271 -0.763565 1.702857 0.054198 -0.020590 63725.200000 0 0 1
34.619680 -33.736765 -5.182917 48.616398 -0.772483 1.677608 0.066717 -0.015922 106138.000000 0 0 1
34.378070 32.496031 -4.627517 47.531649 0.757263 1.668307 0.055589 -0.011551 247541.000000 0 0 1
33.265090 31.916131 -5.292417 46.402751 0.764706 1.685099 0.065824 -0.022524 130379.000000 0 0 1
33.153630 30.561831 -4.870617 45.353187 0.744743 1.678397 0.076200 -0.013686 -123160.000000 0 0 1
31.956580 29.789331 -5.411217 44.021682 0.750313 1.694030 0.093712 -0.028675 -344995.000000 0 0 1
32.105020 29.544431 -6.819617 44.160082 0.743887 1.725846 0.061227 -0.024069 482672.000000 0 0 1
30.908130 28.960131 -7.348517 42.988398 0.752872 1.742582 0.043155 -0.018757 610949.000000 0 0 1
31.056900 28.583031 -8.836317 43.123093 0.743942 1.777167 0.043321 -0.013715 -275302.000000 0 0 1
31.893130 27.443031 -9.057717 43.038749 0.710540 1.782837 0.043789 -0.014606 244410.000000 0 0 1
32.270680 27.348031 -10.426517 43.566315 0.703016 1.812467 0.042383 -0.013106 -82407.100000 0 0 1
33.488890 28.206231 -10.785917 45.093605 0.699981 1.812327 0.049422 -0.018064 -402054.000000 0 0 1
34.768920 27.696731 -10.355117 45.642251 0.672661 1.799665 0.059335 -0.023956 527012.000000 0 0 1
35.820770 28.471931 -10.822017 47.020149 0.671589 1.803035 0.060680 -0.023577 -614856.000000 0 0 1
36.114710 29.896531 -10.306717 48.003158 0.691477 1.787190 0.047628 -0.036995 -1130170.000000 0 0 1
36.669510 29.839631 -9.024717 48.130053 0.683066 1.759420 0.062253 -0.029643 -75956.800000 0 0 1
36.559000 31.135031 -8.366117 48.743641 0.705444 1.743285 0.050971 -0.028733 -1622240.000000 0 0 1
37.608480 31.494831 -7.343117 49.600842 0.697157 1.719387 0.052282 -0.018769 269714.000000 0 0 1
-36.371538 31.777031 -7.849717 48.931447 -0.718081 1.731915 0.059886 -0.022528 412123.000000 0 0 1
-35.668882 30.586231 -8.154817 47.689492 -0.708835 1.742639 0.070389 -0.029491 -1194380.000000 0 0 1
-34.240065 30.917831 -8.629917 46.933674 -0.734455 1.755723 0.098920 -0.029355 -832264.000000 0 0 1
-33.443148 31.454831 -7.626117 46.540393 -0.754770 1.735399 0.100909 -0.024242 205220.000000 0 0 1
-32.071258 31.622531 -7.980117 45.740926 -0.778353 1.746157 0.099904 -0.030913 527419.000000 0 0 1
-31.776948 32.825531 -8.928217 46.551079 -0.801628 1.763786 0.071127 -0.037881 -628792.000000 0 0 1
-31.886018 -33.487065 -8.402117 46.996779 0.809884 1.750543 0.066903 -0.033705 -31257.100000 0 0 1
-30.925698 -33.159865 -7.421517 45.946211 0.820246 1.733033 0.090842 -0.037849 -149004.000000 0 0 1
-31.063338 -31.741165 -6.750317 44.922147 0.796190 1.721635 0.084879 -0.043125 488579.000000 0 0 1
-32.124868 -31.593765 -5.783017 45.427045 0.777063 1.698446 0.067062 -0.039167 265277.000000 0 0 1
-31.984958 -32.325865 -4.576517 45.704962 0.790699 1.671096 0.081837 -0.034230 332327.000000 0 0 1
-33.100898 -32.420665 -3.446217 46.461224 0.775017 1.645039 0.068721 -0.026929 325691.000000 0 0 1
-33.353988 -31.235265 -2.786817 45.780964 0.752607 1.631707 0.063254 -0.020866 -205124.000000 0 0 1
-34.379206 -31.323765 -1.831517 46.545274 0.738928 1.610156 0.063390 -0.016193 -57156.700000 0 0 1
-34.978504 -29.908465 -1.519917 46.046956 0.707420 1.603810 0.070131 -0.009339 2029.230000 0 0 1
-35.934574 -29.978065 -0.478717 46.799649 0.695273 1.581026 0.063098 -0.005447 -439443.000000 0 0 1
-36.603398 -28.744265 -0.420117 46.542647 0.665707 1.579823 0.069042 -0.007224 34329.100000 0 0 1
37.638780 -28.723765 0.726183 47.352505 -0.651860 1.555460 0.062113 -0.002801 -550295.000000 0 0 1
36.528320 -29.528265 0.420883 46.972478 -0.679822 1.561836 0.042870 0.000457 287150.000000 0 0 1
35.455720 -29.556465 1.367583 46.179681 -0.694905 1.541178 0.048077 -0.009857 687451.000000 0 0 1
34.618630 -28.253165 1.515783 44.710049 -0.684497 1.536887 0.042720 0.003071 -1052650.000000 0 0 1
33.596630 -28.163365 0.552983 43.843066 -0.697650 1.558183 0.047106 -0.003760 -321017.000000 0 0 1
32.976820 -26.921265 0.594183 42.574384 -0.684643 1.556840 0.048637 -0.005245 -234784.000000 0 0 1
31.649590 -26.892065 -0.214217 41.532223 -0.704309 1.575954 0.058394 -0.021058 486911.000000 0 0 1
30.475060 -27.333665 0.470483 40.939954 -0.731110 1.559304 0.069150 -0.006553 474087.000000 0 0 1
30.268190 -28.769765 0.405083 41.761547 -0.760023 1.561096 0.069181 -0.006426 -368275.000000 0 0 1
29.805790 -29.394665 -0.938317 41.872567 -0.778454 1.593207 0.052534 -0.003413 -103301.000000 0 0 1
28.496190 -29.049965 -1.347817 40.715475 -0.795021 1.603906 0.062172 -0.006399 170896.000000 0 0 1
28.318390 -29.296965 -2.755617 40.839157 -0.802381 1.638322 0.056310 -0.008283 -110843.000000 0 0 1
26.944290 -29.885465 -3.146717 40.361338 -0.837106 1.648839 0.081473 -0.019748 247145.000000 0 0 1
25.927590 -28.901365 -3.135917 38.953341 -0.839582 1.651388 0.086548 -0.022961 423744.000000 0 0 1
24.632990 -29.501165 -3.360717 38.579753 -0.875085 1.658018 0.068894 -0.024034 684973.000000 0 0 1
23.580290 -28.377765 -3.470417 37.059026 -0.877471 1.664579 0.072791 -0.020444 -189358.000000 0 0 1
23.622790 -27.690065 -4.689017 36.698267 -0.864497 1.698919 0.085540 -0.031000 -5870.860000 0 0 1
23.019890 -26.458265 -4.457717 35.352883 -0.854779 1.697225 0.093109 -0.034043 -191489.000000 0 0 1
22.261490 -25.855065 -5.643417 34.581881 -0.859945 1.734719 0.093546 -0.043929 12289.000000 0 0 1
20.966690 -26.314865 -5.975017 34.172723 -0.898033 1.746547 0.095437 -0.037027 -181028.000000 0 0 1
20.522790 -25.668665 -7.132817 33.629486 -0.896344 1.784520 0.111920 -0.042357 100534.000000 0 0 1
19.031190 -25.908065 -7.468717 33.002966 -0.937246 1.799078 0.092860 -0.030319 260695.000000 0 0 1
18.176890 -25.185265 -6.633317 31.760003 -0.945637 1.781203 0.086461 -0.025207 -293934.000000 0 0 1
16.789490 -25.384265 -6.796917 31.184066 -0.986440 1.790521 0.078422 -0.027595 68581.800000 0 0 1
16.016190 -24.520765 -5.825717 29.861769 -0.992197 1.767145 0.069543 -0.015271 -372062.000000 0 0 1
16.321790 -24.920765 -4.480417 30.125064 -0.990951 1.720077 0.076736 -0.012301 134021.000000 0 0 1
15.664090 -24.113165 -3.522317 28.969210 -0.994697 1.692686 0.088097 -0.014893 -20214.800000 0 0 1
15.732790 -24.590065 -2.076917 29.266116 -1.001623 1.641823 0.080550 -0.009080 109857.000000 0 0 1
15.005890 -25.819865 -1.980517 29.929327 -1.044333 1.637018 0.089035 -0.012049 364774.000000 0 0 1
15.416290 -26.690165 -0.931417 30.836576 -1.047009 1.601006 0.088936 -0.012206 -131369.000000 0 0 1
14.814790 -28.050965 -1.199617 31.745452 -1.084892 1.608594 0.097861 -0.018385 -807248.000000 0 0 1
13.464390 -28.149065 -0.896517 31.216396 -1.124639 1.599520 0.101408 -0.022567 -721769.000000 0 0 1
12.823690 -29.372065 -1.281017 32.075009 -1.159146 1.610745 0.095839 -0.024857 67432.400000 0 0 1
13.348090 -30.744965 -0.767817 33.526317 -1.161197 1.593700 0.097850 -0.024769 146230.000000 0 0 1
14.559590 -31.107265 -1.432517 34.375801 -1.133038 1.612481 0.105600 -0.026048 -93585.100000 0 0 1
15.150990 -32.262565 -0.949517 35.655675 -1.131751 1.597430 0.100469 -0.032540 427124.000000 0 0 1
16.588190 -32.427165 -1.579817 36.457988 -1.097950 1.614142 0.092689 -0.028528 744718.000000 0 0 1
17.408390 -31.370765 -1.115717 35.894592 -1.064181 1.601884 0.088432 -0.018098 -1064330.000000 0 0 1
18.645890 -31.315865 -1.734817 36.487836 -1.033756 1.618359 0.076816 -0.021017 -1223130.000000 0 0 1
19.461090 -30.225665 -1.082617 35.965218 -0.998750 1.600903 0.066046 -0.015956 -511939.000000 0 0 1
19.129790 -28.931465 -1.469217 34.715085 -0.986581 1.613131 0.086360 -0.022552 259792.000000 0 0 1
19.825090 -28.081365 -0.570317 34.379100 -0.956063 1.587386 0.070522 -0.009283 73795.100000 0 0 1
19.451590 -26.580065 -0.852917 32.948318 -0.939038 1.596686 0.077745 -0.008850 18620.500000 0 0 1
19.886790 -26.000265 -2.071817 32.799247 -0.917847 1.634005 0.067045 -0.013537 82251.800000 0 0 1
19.071690 -26.424565 -3.134517 32.738543 -0.945628 1.666687 0.079813 -0.019766 -26750.400000 0 0 1
33.541840 -29.377865 13.480383 46.581484 -0.719315 1.277203 0.039011 -0.045370 221130.000000 0 0 1
34.490120 -29.610165 14.522083 47.720238 -0.709415 1.261575 0.055719 -0.039020 -23917.200000 0 0 1
33.857520 -30.029665 15.690883 47.899021 -0.725554 1.237053 0.039666 -0.027904 141790.000000 0 0 1
34.779620 -30.465865 16.882483 49.222039 -0.719378 1.220702 0.052472 -0.021753 -74664.100000 0 0 1
33.997020 -30.862065 18.026483 49.327665 -0.737101 1.196687 0.038121 -0.015178 437484.000000 0 0 1
34.805540 -31.115865 19.139183 50.457219 -0.729486 1.181740 0.035723 -0.013780 -275697.000000 0 0 1
35.572590 -32.452665 19.076483 51.792826 -0.739566 1.193592 0.035225 -0.009101 -281983.000000 0 0 1
36.575340 -32.504865 18.068283 52.161141 -0.726542 1.217072 0.046199 -0.010569 -247914.000000 0 0 1
37.262750 -33.696065 18.186983 53.429427 -0.735176 1.223462 0.071085 -0.015407 -293183.000000 0 0 1
-36.867658 33.824831 17.158083 52.893697 -0.742382 1.240432 0.075682 -0.015738 691033.000000 0 0 1
-35.762100 -32.984165 17.487883 51.698249 0.745012 1.225720 0.094799 -0.022124 684739.000000 0 0 1
-34.727734 -33.063965 16.520883 50.716672 0.760861 1.238993 0.103838 -0.013977 1023750.000000 0 0 1
-33.461868 -32.166965 16.985383 49.425838 0.765670 1.219991 0.090674 -0.017792 1839060.000000 0 0 1
-32.355628 -32.127565 16.065783 48.344353 0.781861 1.232034 0.102859 -0.025821 585827.000000 0 0 1
-32.606258 -31.238665 14.978083 47.574838 0.763981 1.250517 0.103684 -0.030266 -410855.000000 0 0 1
-31.410198 -31.120965 14.021583 46.386634 0.780773 1.263716 0.095625 -0.034481 -585031.000000 0 0 1
-30.279468 -30.677865 14.676183 45.534250 0.791934 1.242627 0.080355 -0.036235 -50308.600000 0 0 1
-29.116388 -30.753165 13.810083 44.544804 0.812730 1.255575 0.080831 -0.031729 1443500.000000 0 0 1
-27.751148 -30.355965 14.429483 43.586934 0.830196 1.233380 0.075448 -0.035744 982686.000000 0 0 1
-26.636758 -30.440465 13.536483 42.654134 0.851941 1.247858 0.075816 -0.037608 -87933.200000 0 0 1
-25.515218 -29.806165 14.072583 41.682987 0.862807 1.226420 0.069301 -0.028145 -393884.000000 0 0 1
-24.204068 -29.910865 13.275583 40.703045 0.890467 1.238561 0.085105 -0.027570 -51373.200000 0 0 1
-23.705768 -31.195965 13.186383 41.340445 0.920990 1.246153 0.091930 -0.047132 -326952.000000 0 0 1
-22.414568 -31.211165 12.639683 40.451344 0.947987 1.253008 0.082471 -0.048452 -241713.000000 0 0 1
-22.092168 -32.573865 12.018883 41.153057 0.974840 1.274423 0.066926 -0.039399 -320401.000000 0 0 1
-22.875668 -33.068965 10.964983 41.678334 0.965624 1.304577 0.061410 -0.039426 -251118.000000 0 0 1
-22.764068 33.195831 10.780383 41.669925 -0.969698 1.309111 0.076840 -0.028396 -67736.400000 0 0 1
-23.738268 32.589331 9.749483 41.480384 -0.941259 1.333538 0.074183 -0.026136 -90683.200000 0 0 1
-23.488668 33.044631 8.404683 41.404153 -0.952848 1.366384 0.070056 -0.022776 147946.000000 0 0 1
-24.504968 32.670831 7.488483 41.520525 -0.927259 1.389448 0.075677 -0.024877 -261919.000000 0 0 1
-24.102468 32.891531 6.003683 41.216817 -0.938403 1.424615 0.065540 -0.012560 452821.000000 0 0 1
-23.145968 32.013531 5.354283 39.865654 -0.944797 1.436081 0.065977 -0.014220 1626350.000000 0 0 1
-21.749268 32.031431 5.716083 39.137154 -0.974305 1.424219 0.063032 -0.020604 1167690.000000 0 0 1
-20.915068 33.320531 5.356883 39.703829 -1.010263 1.435463 0.073306 -0.023449 -450143.000000 0 0 1
-20.981768 -33.288165 6.319183 39.853088 1.008390 1.411562 0.067706 -0.023124 97474.300000 0 0 1
-20.358868 -33.501065 7.571183 39.926528 1.024728 1.380013 0.059035 -0.030270 -193108.000000 0 0 1
-20.374268 -32.206965 8.443083 39.034408 1.006747 1.352775 0.056812 -0.035130 70193.700000 0 0 1
-19.509468 -31.181865 7.914583 37.624044 1.011717 1.358853 0.058877 -0.041130 140431.000000 0 0 1
-19.460768 -29.964165 8.630283 36.756693 0.994795 1.333789 0.055838 -0.038505 -171546.000000 0 0 1
-18.954568 -29.887365 10.096683 36.803169 1.005609 1.292890 0.055998 -0.034655 -70691.100000 0 0 1
-17.621368 -30.314865 10.177483 36.511434 1.044257 1.288306 0.058302 -0.044828 -483224.000000 0 0 1
-17.084468 -30.238465 11.505883 36.587281 1.056516 1.250890 0.074343 -0.041102 -179662.000000 0 0 1
-15.779968 -31.028465 11.597983 36.691774 1.100321 1.249189 0.075552 -0.043076 273065.000000 0 0 1
-14.666468 -30.391465 10.946983 35.476512 1.121177 1.257107 0.095053 -0.042359 237620.000000 0 0 1
-13.697868 -31.321765 10.549783 35.776843 1.158531 1.271469 0.106543 -0.041337 -211057.000000 0 0 1
-12.445168 -30.755965 9.873683 34.616488 1.186294 1.281549 0.117199 -0.033697 -121372.000000 0 0 1
-11.593368 -30.096765 10.776783 34.005301 1.203111 1.248321 0.120211 -0.036015 -779780.000000 0 0 1
-10.524368 -29.529165 10.103083 32.936396 1.228426 1.259025 0.126289 -0.037755 -123967.000000 0 0 1
-9.476568 -28.863765 11.031783 32.320621 1.253564 1.222472 0.126095 -0.028192 111002.000000 0 0 1
-10.057868 -27.780665 11.698383 31.777008 1.223431 1.193789 0.101426 -0.031838 -136869.000000 0 0 1
-9.281168 -27.372265 12.833883 31.624192 1.243890 1.152915 0.098534 -0.013708 301699.000000 0 0 1
-9.720668 -26.007165 13.431083 30.842471 1.213105 1.120232 0.079242 -0.021858 158124.000000 0 0 1
-9.272868 -24.823865 12.800283 29.428857 1.213301 1.120806 0.063137 -0.019349 -281044.000000 0 0 1
-9.923068 -24.518565 11.608383 28.885669 1.186231 1.157234 0.063321 -0.016395 -156016.000000 0 0 1
-9.400468 -23.225365 10.968083 27.351147 1.186202 1.158177 0.056182 -0.015303 -757119.000000 0 0 1
-8.181868 -23.314665 10.343683 26.786346 1.233291 1.174337 0.051268 -0.018026 -1021570.000000 0 0 1
-7.659168 -22.053065 9.896083 25.356123 1.236523 1.169857 0.054697 -0.012270 58299.500000 0 0 1
-6.588268 -22.163665 8.772683 24.730412 1.281859 1.208168 0.056461 -0.020792 405939.000000 0 1 0
-5.381668 -22.601565 9.387483 25.058291 1.337039 1.186803 0.063170 -0.027275 -581832.000000 0 0 1
-4.376668 -22.696565 8.422983 24.601543 1.380301 1.221352 0.062495 -0.033693 415115.000000 0 1 0
-3.059368 -23.384265 8.936683 25.219990 1.440705 1.208578 0.068531 -0.034278 510078.000000 0 0 1
-2.308568 -22.647265 9.845383 24.802413 1.469211 1.162602 0.067104 -0.032137 22341.600000 0 1 0
-1.198868 -23.472665 10.257383 25.644048 1.519766 1.159290 0.066109 -0.039554 1089380.000000 0 0 1
-0.268868 -22.896465 11.354783 25.558785 1.559054 1.110447 0.068136 -0.039631 13037.700000 0 0 1
-0.927068 -23.089565 12.588783 26.314729 1.530667 1.071972 0.071563 -0.027400 40803.300000 0 0 1
-0.108268 -22.894665 13.726283 26.694349 1.566067 1.030720 0.096500 -0.026782 -130285.000000 0 0 1
0.722932 -21.552665 13.956083 25.686811 -1.537266 0.996413 0.077148 -0.015918 445965.000000 0 0 1
1.732332 -21.309765 12.977283 25.010337 -1.489682 1.025260 0.074009 -0.026735 -46283.300000 0 0 1
2.129232 -19.927965 13.072783 23.928123 -1.464354 0.992814 0.057164 -0.016852 -444348.000000 0 1 0
3.632832 -19.806565 12.792583 23.856816 -1.389397 1.004840 0.068677 -0.016618 -135627.000000 0 1 0
3.927532 -20.101365 11.449283 23.464366 -1.377841 1.061064 0.072257 -0.020226 -417028.000000 0 1 0
5.325732 -20.043865 11.279483 23.608191 -1.311093 1.072672 0.103961 -0.027730 203625.000000 0 1 0
5.803132 -20.809565 10.033283 23.819763 -1.298837 1.136010 0.110451 -0.033786 -333045.000000 0 1 0
5.821532 -20.103965 8.750883 22.685626 -1.288934 1.174780 0.090438 -0.035952 -333440.000000 0 1 0
6.084332 -21.012665 7.704983 23.193058 -1.288949 1.232150 0.087200 -0.039821 322656.000000 0 1 0
7.544132 -21.571665 7.590583 24.080441 -1.234367 1.250110 0.094825 -0.028739 628403.000000 0 1 0
8.525332 -20.706165 7.007483 23.463405 -1.180220 1.267512 0.096845 -0.033802 273459.000000 0 1 0
9.027632 -19.635365 7.833283 22.987084 -1.139852 1.223062 0.103444 -0.023261 44765.200000 0 1 0
9.852832 -19.855865 9.160283 23.984255 -1.110179 1.178914 0.103114 -0.020463 350967.000000 0 1 0
9.148632 -20.259065 10.333383 24.513384 -1.146627 1.135653 0.120344 -0.024332 -474001.000000 0 1 0
9.835632 -19.796565 11.477183 24.907216 -1.109684 1.091903 0.120379 -0.014739 124163.000000 0 1 0
9.255732 -20.147065 12.861483 25.631827 -1.140146 1.045143 0.147706 -0.021636 70492.900000 0 0 1
9.276432 -21.526065 13.096683 26.850452 -1.163906 1.061270 0.125382 -0.020013 -207553.000000 0 0 1
8.467132 -21.789465 14.223283 27.363752 -1.200166 1.024196 0.155613 -0.021071 288783.000000 0 0 1
8.553532 -23.260265 14.703283 28.816478 -1.218413 1.035334 0.150891 -0.033767 131533.000000 0 0 1
8.284732 -24.221965 13.693783 29.032053 -1.241236 1.079603 0.160701 -0.035770 -179439.000000 0 0 1
8.224732 -25.492665 14.319083 30.373646 -1.258708 1.079883 0.167418 -0.043142 187140.000000 0 0 1
8.444732 -26.669865 13.317483 30.983069 -1.264145 1.126491 0.179751 -0.049251 -699962.000000 0 0 1
9.722532 -26.764165 12.806183 31.222532 -1.222352 1.148169 0.155046 -0.039379 -881574.000000 0 0 1
9.871732 -27.950565 11.984683 31.973705 -1.231287 1.186584 0.144871 -0.047599 -1127140.000000 0 0 1
11.266732 -28.081365 11.451483 32.351797 -1.189241 1.208987 0.136224 -0.037068 -873634.000000 0 0 1
12.170732 -28.556365 12.441783 33.442349 -1.167909 1.189594 0.109135 -0.031088 770291.000000 0 0 1
13.436632 -28.904865 11.852983 34.007757 -1.135656 1.214786 0.144117 -0.026267 696992.000000 0 0 1
14.431132 -29.618765 12.790583 35.343003 -1.117417 1.200493 0.111214 -0.029871 -854014.000000 0 0 1
14.986532 -28.801065 13.803783 35.279483 -1.091004 1.168786 0.096456 -0.027550 120577.000000 0 0 1
16.022432 -29.322365 14.604983 36.466765 -1.070703 1.158733 0.078617 -0.024406 573456.000000 0 0 1
17.336432 -29.665065 13.858283 37.048886 -1.041922 1.187420 0.079690 -0.019704 -446396.000000 0 0 1
18.124732 -28.578065 13.384683 36.391778 -1.005596 1.194161 0.067600 -0.021108 -1592270.000000 0 0 1
19.388132 -28.873565 13.049483 37.146621 -0.979466 1.211841 0.058525 -0.020481 -2127660.000000 0 0 1
20.173632 -27.542265 12.928383 36.506094 -0.938615 1.208799 0.030675 -0.020947 83923.500000 0 0 1
21.394532 -27.739065 12.221483 37.101838 -0.913816 1.235124 0.035969 -0.026191 373654.000000 0 0 1
22.090732 -26.494165 11.948383 36.506234 -0.875785 1.237355 0.031752 -0.020992 394709.000000 0 0 1
23.496932 -26.789765 11.375283 37.405807 -0.850786 1.261798 0.050868 -0.022851 -225419.000000 0 0 1
24.394332 -27.305065 12.295983 38.624361 -0.841640 1.246810 0.065639 -0.026215 -1136240.000000 0 0 1
25.578232 -27.672465 11.712183 39.461203 -0.824706 1.269454 0.070083 -0.037120 -1421840.000000 0 0 1
26.598232 -28.434965 12.601383 40.924419 -0.818761 1.257792 0.076977 -0.034541 278880.000000 0 0 1
27.679732 -27.638965 13.042983 41.233474 -0.784661 1.248948 0.066648 -0.034153 410059.000000 0 0 1
28.761232 -27.494665 12.113783 41.592173 -0.762888 1.275262 0.046458 -0.036418 323199.000000 0 0 1
30.016132 -26.807065 12.762783 42.219374 -0.728983 1.263695 0.055684 -0.041077 -226662.000000 0 0 1
29.960732 -25.430665 13.020483 41.399241 -0.703797 1.250856 0.060854 -0.041866 67949.700000 0 0 1
29.235332 -24.982365 14.171083 40.983446 -0.707116 1.217731 0.065589 -0.032229 -33781.200000 0 0 1
30.077532 -24.943865 15.486883 42.032106 -0.692364 1.193451 0.046538 -0.021856 9221.010000 0 0 1
30.560632 -26.232265 15.868783 43.288593 -0.709332 1.195465 0.059964 -0.019911 -123607.000000 0 0 1
31.231732 -26.155365 17.073583 44.170482 -0.697169 1.173921 0.062531 -0.004458 -252025.000000 0 0 1
31.668532 -27.433265 17.775883 45.513317 -0.713860 1.169552 0.055183 0.011895 402576.000000 0 0 1
30.576032 -28.242765 18.266683 45.455684 -0.745750 1.157252 0.047136 0.001462 396602.000000 0 0 1
30.928832 -29.191565 19.231483 46.675369 -0.756510 1.146119 0.061027 -0.008641 191526.000000 0 0 1
29.740432 -29.912765 19.927083 46.651425 -0.788287 1.129460 0.058174 -0.000362 -325630.000000 0 0 1
28.857632 -29.084365 20.659683 45.885572 -0.789311 1.103758 0.058701 0.005762 1839940.000000 0 0 1
27.599332 -29.662265 21.159883 45.709012 -0.821409 1.089503 0.068040 -0.000815 2050030.000000 0 0 1
26.540132 -30.092565 20.117983 44.885124 -0.848044 1.106034 0.084146 -0.008252 -506663.000000 0 0 1
26.985132 -31.313765 19.526983 45.717090 -0.859511 1.129484 0.077243 -0.007980 145770.000000 0 0 1
26.344332 -31.607665 18.295583 45.031064 -0.875972 1.152408 0.087719 -0.010512 -306846.000000 0 0 1
26.664932 -30.828465 17.008283 44.166668 -0.857690 1.175488 0.085435 -0.006563 781254.000000 0 0 1
28.016732 -31.081565 16.543083 44.996384 -0.837212 1.194312 0.082914 -0.013483 1063100.000000 0 0 1
28.415532 -30.111465 15.583283 44.237784 -0.814367 1.210810 0.074886 -0.033071 -537177.000000 0 0 1
29.896332 -30.209265 15.199183 45.137629 -0.790605 1.227355 0.074196 -0.030612 -358373.000000 0 0 1
30.414132 -31.293565 14.423483 45.960239 -0.799649 1.251577 0.109109 -0.022408 339977.000000 0 0 1
30.210032 -32.615365 14.924683 46.895141 -0.823665 1.246907 0.102646 -0.025396 -1026530.000000 0 0 1
29.240632 -33.370665 14.052883 46.541373 -0.851266 1.264065 0.098305 -0.028976 -468083.000000 0 0 1
29.620332 -33.525865 12.707283 46.506158 -0.847169 1.294038 0.102402 -0.026210 -11245.800000 0 0 1
28.892132 33.077731 12.215883 45.586395 0.852838 1.299509 0.092519 -0.032765 -453889.000000 0 0 1
29.220532 32.644431 10.768783 45.116129 0.840686 1.329779 0.103306 -0.036484 -279559.000000 0 0 1
30.492332 32.041531 10.863883 45.546306 0.810167 1.329951 0.067530 -0.031056 123458.000000 0 0 1
30.749532 31.212731 9.732883 44.883152 0.792874 1.352210 0.068602 -0.040217 543624.000000 0 0 1
32.273632 30.845431 9.692583 45.683412 0.762775 1.357003 0.044218 -0.030281 631501.000000 0 0 1
32.566132 29.905231 10.714283 45.493644 0.742830 1.333051 0.032357 -0.015491 -171885.000000 0 0 1
33.933532 29.618231 10.825283 46.323978 0.717600 1.334929 0.034690 -0.015969 -290129.000000 0 0 1
34.159732 28.533431 11.928283 46.079583 0.695894 1.308952 0.024868 -0.007949 -94932.900000 0 0 1
33.773732 27.221531 11.643683 44.913830 0.678387 1.308556 0.027503 -0.009380 245340.000000 0 0 1
34.041932 26.456831 12.812283 44.977457 0.660673 1.281936 0.042247 -0.016268 -98540.000000 0 0 1
34.003932 24.961331 12.599883 44.023772 0.633229 1.280531 0.036263 -0.019331 -500607.000000 0 0 1
35.139832 24.503931 11.947283 44.474577 0.608929 1.298824 0.037009 -0.007600 -921667.000000 0 0 1
35.166332 23.044531 11.701883 43.642358 0.580093 1.299344 0.052536 -0.016245 51229.900000 0 0 1
34.038132 22.284031 10.908783 42.120945 0.579657 1.308823 0.039470 -0.011825 955428.000000 0 0 1
32.816832 22.215331 11.641083 41.303514 0.595088 1.285082 0.070274 -0.026521 -377744.000000 0 0 1
31.688832 22.010331 10.868783 40.084501 0.607077 1.296212 0.070631 -0.017805 -520042.000000 0 0 1
30.396732 21.987631 11.701783 39.298206 0.626229 1.268442 0.072535 -0.019423 -89654.000000 0 0 1
30.273132 23.117831 12.530283 40.098686 0.652175 1.252987 0.080044 -0.015962 326476.000000 0 0 1
29.162432 22.991831 13.421383 39.486774 0.667631 1.223990 0.141910 -0.023891 398843.000000 0 0 1
25.209732 10.126731 25.758248 37.437530 0.381970 0.812022 0.045784 -0.005596 -595729.000000 0 0 1
25.044732 8.774131 26.114518 37.231600 0.336976 0.793426 0.047164 -0.008299 909763.000000 0 0 1
23.696732 8.334031 25.891078 36.074078 0.338184 0.770274 0.058621 -0.015142 574586.000000 0 0 1
23.465632 6.936231 26.482938 36.056805 0.287407 0.745899 0.067811 -0.017732 -78655.400000 0 0 1
23.723132 6.845131 27.895168 37.252963 0.280912 0.724541 0.064826 -0.005171 1103890.000000 0 0 1
25.108032 6.739631 28.280668 38.413957 0.262244 0.743346 0.056189 -0.003973 716022.000000 0 0 1
25.172932 6.739631 29.826428 39.607006 0.261598 0.718097 0.074082 -0.008030 -100050.000000 0 0 1
24.657332 7.898531 30.455618 39.973935 0.310004 0.704575 0.091944 -0.016907 232668.000000 0 0 1
24.697932 7.683831 31.838175 41.020708 0.301620 0.682261 0.105030 -0.012431 -29611.300000 0 0 1
24.592632 8.930731 32.723711 41.897456 0.348338 0.674462 0.121705 -0.021424 242712.000000 0 0 1
25.744432 9.790531 32.718887 42.768632 0.363407 0.699723 0.118404 -0.021159 259664.000000 0 0 1
26.075532 10.127531 -33.596727 43.717734 0.370460 2.447277 0.129375 -0.020974 445056.000000 0 0 1
27.440732 10.846931 -33.352497 44.531323 0.376436 2.417298 0.110989 -0.017515 386950.000000 0 0 1
27.500432 12.138131 33.730618 45.181441 0.415662 0.727921 0.115175 -0.028831 17167.000000 0 0 1
27.031532 13.108031 -33.092347 44.694828 0.451508 2.404471 0.123356 -0.029118 -498540.000000 0 0 1
26.745732 14.564631 -33.624417 45.365891 0.498656 2.405627 0.124418 -0.032550 49842.800000 0 0 1
27.867232 15.256031 33.471402 46.148281 0.500886 0.759325 0.096730 -0.027936 578204.000000 0 0 1
27.518932 16.585731 33.369803 46.324096 0.542404 0.766482 0.122503 -0.033834 -11910.200000 0 0 1
28.127632 17.490031 -33.193597 46.892214 0.556302 2.357275 0.121460 -0.041485 -637020.000000 0 0 1
27.610232 17.247631 -31.905687 45.582656 0.558371 2.346127 0.136529 -0.045939 612592.000000 0 0 1
28.453932 16.405831 -31.090637 45.226157 0.523017 2.328766 0.114167 -0.047067 120985.000000 0 0 1
27.674532 15.926331 -29.844607 43.706159 0.522200 2.322449 0.133411 -0.041982 45868.000000 0 0 1
26.557132 15.156431 -30.197117 42.975162 0.518605 2.349932 0.147177 -0.030756 -382252.000000 0 0 1
25.692832 14.929531 -29.138537 41.618107 0.526390 2.346391 0.174336 -0.039360 -304405.000000 0 0 1
24.738432 13.749031 -29.422877 40.825624 0.507267 2.375603 0.160679 -0.034286 -765621.000000 0 0 1
24.017932 14.001431 -30.656357 41.384941 0.527794 2.404999 0.177338 -0.036842 324040.000000 0 0 1
23.537132 12.828031 -31.327497 41.230656 0.499006 2.433818 0.151998 -0.028062 184236.000000 0 0 1
22.552832 11.967231 -30.465267 39.748929 0.487851 2.444080 0.159276 -0.038164 -76418.400000 0 0 1
21.314832 12.617431 -30.137737 39.010317 0.534483 2.453657 0.169999 -0.034382 372408.000000 0 0 1
20.556532 11.708731 -29.410217 37.744221 0.517757 2.464181 0.136947 -0.029614 665662.000000 0 0 1
19.166332 12.288131 -28.918977 36.805620 0.570115 2.474658 0.128856 -0.023602 588452.000000 0 0 1
18.173432 12.463131 -29.874737 37.122812 0.601124 2.506058 0.087637 -0.016920 -1038870.000000 0 0 1
17.013232 12.777931 -29.210447 36.138287 0.644178 2.512049 0.074071 -0.028526 -1011070.000000 0 0 1
15.753832 13.142731 -30.032047 36.370846 0.695283 2.542269 0.058718 -0.025171 198871.000000 0 0 1
15.229532 12.002131 -30.739637 36.344395 0.667432 2.578836 0.056167 -0.015267 -429522.000000 0 0 1
13.961032 11.694731 -30.243747 35.303844 0.697292 2.599576 0.072560 -0.023057 -616378.000000 0 0 1
13.122032 10.934431 -31.277757 35.637727 0.694711 2.641751 0.081112 -0.017494 -28479.800000 0 0 1
12.764132 11.755631 -32.409797 36.762928 0.744291 2.650015 0.086165 -0.018291 299506.000000 0 0 1
11.545232 11.362731 -33.027307 36.785962 0.777432 2.685598 0.100892 -0.011883 523971.000000 0 0 1
10.997032 12.227431 33.419729 37.246786 0.838327 0.457292 0.112089 -0.014072 521428.000000 0 0 1
11.902332 12.170131 32.327136 36.535207 0.796522 0.484686 0.079429 -0.003392 151843.000000 0 0 1
11.227832 12.633931 31.207988 35.491111 0.844257 0.496367 0.095913 -0.023529 -559608.000000 0 0 1
12.116132 12.716431 29.984158 34.749936 0.809567 0.529905 0.088886 -0.010276 -435200.000000 0 0 1
12.597532 11.472531 29.516138 34.081068 0.738694 0.523536 0.089335 -0.010367 -39832.200000 0 0 1
12.620032 11.307331 28.130028 32.839297 0.730591 0.542159 0.109482 -0.001830 46601.900000 0 0 1
13.178032 9.929831 27.716338 32.256123 0.645746 0.536979 0.121329 -0.016505 359101.000000 0 0 1
12.198732 8.920531 27.939008 31.764337 0.631404 0.495835 0.124176 -0.031925 257185.000000 0 0 1
12.704932 7.681731 27.577938 31.320392 0.543814 0.493858 0.112668 -0.030140 -242699.000000 0 0 1
11.822932 6.440231 27.854748 30.937765 0.498783 0.450228 0.098772 -0.026707 436992.000000 0 0 1
10.612632 6.450131 27.087338 29.798591 0.546119 0.429884 0.082574 -0.027400 -23747.900000 0 0 1
9.749132 5.375431 27.266388 29.451600 0.503899 0.387641 0.081724 -0.028918 -391432.000000 0 0 1
10.261532 3.992531 26.798808 28.972668 0.371055 0.389843 0.068519 -0.023723 -437011.000000 0 0 1
11.176032 3.466631 27.734428 30.101823 0.300774 0.399247 0.079081 -0.024062 -7678.960000 0 0 1
11.327732 2.153431 27.360118 29.690585 0.187861 0.398850 0.063400 -0.017061 -29391.800000 0 0 1
12.001132 1.299131 28.485668 30.937812 0.107831 0.400825 0.047872 -0.009689 153458.000000 0 0 1
11.051732 1.166031 29.514128 31.537029 0.105118 0.360115 0.051152 -0.013396 80734.900000 0 0 1
11.401432 0.180931 30.405948 32.473791 0.015868 0.358789 0.059000 -0.017837 150926.000000 0 0 1
10.315132 -0.006869 31.489078 33.135541 -0.000666 0.316562 0.077991 -0.013265 267964.000000 0 0 1
10.355432 0.929531 32.544985 34.165408 0.089523 0.309220 0.074617 -0.016408 688292.000000 0 0 1
9.017932 1.073631 33.036717 34.262231 0.118497 0.268268 0.091513 -0.031091 397673.000000 0 0 1
8.967932 2.411931 -33.804197 35.056596 0.262734 2.873489 0.090353 -0.035684 -221136.000000 0 0 1
9.113832 3.670631 33.164413 34.589215 0.382878 0.288021 0.077313 -0.028276 685923.000000 0 0 1
10.283232 3.752431 32.333041 34.135775 0.349893 0.326442 0.077972 -0.026038 255102.000000 0 0 1
10.370932 5.041631 31.489358 33.534370 0.452491 0.351035 0.084284 -0.031732 75172.700000 0 0 1
10.596432 6.196831 32.288713 34.543394 0.529171 0.363301 0.090161 -0.040155 -31871.400000 0 0 1
10.929332 7.259931 31.441778 34.069669 0.586335 0.395336 0.091569 -0.036233 -227910.000000 0 0 1
11.020432 8.568731 32.246468 35.138409 0.660890 0.408548 0.112049 -0.036006 53331.000000 0 0 1
9.829932 9.063031 32.830833 35.448973 0.744829 0.386740 0.122380 -0.038479 -145171.000000 0 0 1
9.381832 8.343831 -33.708807 35.971126 0.726906 2.785045 0.114547 -0.037117 233992.000000 0 0 1
7.979332 8.816131 -33.201087 35.266217 0.835180 2.797677 0.116398 -0.041473 615497.000000 0 0 1
7.392932 8.022631 -32.164827 33.964601 0.826224 2.814593 0.119208 -0.033719 452657.000000 0 0 1
6.018532 8.389231 -32.029817 33.652802 0.948480 2.829759 0.101720 -0.030476 632116.000000 0 0 1
5.384932 7.904731 -30.737917 32.191642 0.972780 2.839922 0.093929 -0.021485 -418420.000000 0 0 1
5.926432 8.676731 -29.654107 31.460679 0.971553 2.801060 0.108801 -0.030662 261682.000000 0 0 1
5.467832 8.327331 -28.370607 30.068804 0.989786 2.803904 0.097320 -0.027445 -668458.000000 0 0 1
3.988532 8.458831 -28.022037 29.541407 1.130189 2.819478 0.073944 -0.026754 -998235.000000 0 0 1
3.196132 7.521131 -28.682957 29.824397 1.168965 2.864037 0.050903 -0.015072 -1018870.000000 0 0 1
1.950332 7.487831 -28.046747 29.094525 1.315991 2.872404 0.064589 0.000126 -590268.000000 0 0 1
0.907732 6.754131 -28.911977 29.704287 1.437200 2.910107 0.066320 -0.017355 -516155.000000 0 0 1
0.695032 7.446131 -30.117077 31.031697 1.477725 2.898201 0.061388 -0.019224 -127346.000000 0 0 1
0.230332 6.552731 -31.064947 31.749366 1.535660 2.933579 0.096458 -0.016828 -343289.000000 0 0 1
-0.109868 7.292531 -32.398527 33.209300 -1.555732 2.920170 0.115949 -0.022967 372161.000000 0 0 1
0.990832 7.746331 -33.189787 34.096178 1.443577 2.910500 0.080015 -0.015465 756324.000000 0 0 1
1.840532 6.777531 33.763438 34.486117 1.305628 0.205082 0.086457 -0.019710 585424.000000 0 0 1
1.618532 6.433131 32.266136 32.940983 1.324319 0.202765 0.110746 -0.022858 -37718.500000 0 0 1
0.391832 5.785831 31.985079 32.506533 1.503177 0.179358 0.113313 -0.022215 -190203.000000 0 0 1
0.047332 5.757831 30.583258 31.120581 1.562576 0.186095 0.139794 -0.034362 446689.000000 0 0 1
0.921132 4.851131 29.622158 30.030888 1.383150 0.165174 0.150521 -0.041476 454450.000000 0 0 1
0.612832 4.992031 28.236428 28.680861 1.448645 0.176273 0.142623 -0.033466 477170.000000 0 0 1
1.541232 4.152331 27.525888 27.879953 1.215385 0.159541 0.122663 -0.030302 485989.000000 0 0 1
1.792932 4.630531 26.085658 26.554058 1.201375 0.188104 0.124382 -0.024681 38189.000000 0 0 1
2.538232 5.837331 26.056548 26.822766 1.160631 0.239595 0.120110 -0.025757 -94664.100000 0 0 1
2.786332 6.239731 24.764038 25.689599 1.150818 0.269247 0.111478 -0.024540 -1001060.000000 0 0 1
3.624432 7.529531 24.771698 26.143209 1.122170 0.325351 0.104787 -0.022783 77570.400000 0 0 1
5.031232 7.454631 24.798748 26.379210 0.977106 0.347911 0.072789 -0.019969 -213737.000000 0 0 1
5.535232 7.072231 23.526778 25.182624 0.906711 0.364656 0.059627 -0.013602 -455896.000000 0 0 1
7.068532 6.829631 23.431698 25.409693 0.768210 0.397179 0.079546 -0.017623 -24699.900000 0 0 1
7.549232 5.695631 24.163758 25.948378 0.646353 0.373039 0.092958 -0.019152 197839.000000 0 0 1
6.981432 4.347631 24.009388 25.378988 0.556974 0.330025 0.093846 -0.021672 -609753.000000 0 0 1
6.896832 3.721731 22.532488 23.856458 0.494846 0.334719 0.075464 -0.023159 622142.000000 0 1 0
5.891132 4.252631 21.660188 22.846314 0.625253 0.323645 0.049626 -0.028232 330985.000000 0 1 0
4.565232 3.834331 21.934188 22.729981 0.698600 0.265394 0.051723 -0.021951 510862.000000 0 1 0
3.451032 4.341631 20.949588 21.671286 0.899191 0.258799 0.026696 -0.014859 505785.000000 0 1 0
3.220532 5.726131 21.063288 22.064055 1.058462 0.302339 0.030495 -0.018623 497735.000000 0 1 0
2.099832 6.117831 20.260688 21.268113 1.240164 0.309020 0.029229 -0.015598 476238.000000 0 1 0
1.737032 7.611931 20.390788 21.834446 1.346439 0.365678 0.033544 0.001426 242007.000000 0 1 0
2.345232 8.466631 19.440388 21.333369 1.300574 0.424447 0.025408 -0.010880 83306.100000 0 1 0
1.795832 9.753431 19.617488 21.981817 1.388713 0.468068 0.043748 -0.017317 271580.000000 0 1 0
2.870332 10.772931 19.159888 22.167457 1.310406 0.526990 0.056293 -0.024628 -229940.000000 0 1 0
3.200532 10.872831 17.822088 21.120812 1.284521 0.566441 0.043310 -0.025826 506369.000000 0 1 0
4.258632 11.790031 17.477588 21.508298 1.224173 0.622201 0.061041 -0.023723 458770.000000 0 1 0
5.691332 11.381131 17.826588 21.902252 1.107095 0.619936 0.063672 -0.029501 -799014.000000 0 1 0
6.176332 10.341531 17.021888 20.852794 1.032412 0.615841 0.055085 -0.022551 -30281.600000 0 1 0
7.390432 9.817431 17.538088 21.414597 0.925514 0.611168 0.053868 -0.011982 52151.600000 0 1 0
7.337132 8.335331 17.975488 21.128877 0.849004 0.553377 0.052091 -0.019443 -23981.500000 0 1 0
6.636132 8.068831 19.206488 21.863977 0.882521 0.498180 0.057127 -0.025454 186083.000000 0 1 0
6.661932 6.697731 19.553088 21.715529 0.788078 0.450063 0.053542 -0.031852 1165900.000000 0 1 0
8.092632 6.079031 19.963688 22.382899 0.644256 0.469229 0.076316 -0.029624 1503910.000000 0 1 0
8.960932 5.982131 18.834188 21.698176 0.588634 0.519620 0.056752 -0.024110 -867793.000000 0 1 0
10.268832 5.687731 19.196588 22.501293 0.505819 0.548835 0.072832 -0.024473 -579962.000000 0 1 0
10.591532 4.218131 18.988988 22.148473 0.379001 0.540698 0.085837 -0.027378 -588342.000000 0 1 0
10.177232 3.362431 20.040288 22.726530 0.319097 0.491128 0.095544 -0.034066 -29592.300000 0 1 0
10.618332 2.057931 19.935388 22.680471 0.191436 0.497104 0.091312 -0.044265 -147185.000000 0 1 0
9.864532 1.047131 20.842788 23.083052 0.105755 0.444216 0.091619 -0.034964 254392.000000 0 1 0
10.143432 1.185731 22.237788 24.470684 0.116368 0.430512 0.074719 -0.031628 137159.000000 0 1 0
9.195732 0.411231 22.932018 24.710485 0.044690 0.381713 0.090260 -0.037491 -174912.000000 0 1 0
9.449632 0.306431 24.461768 26.225323 0.032416 0.368819 0.094642 -0.024006 -252923.000000 0 0 1
10.667232 -0.269869 24.870618 27.063080 -0.025293 0.405293 0.086008 -0.028142 -131995.000000 0 0 1
10.802132 -1.684369 24.740888 27.048747 -0.154684 0.416086 0.081581 -0.025274 277304.000000 0 0 1
12.260032 -2.219669 24.884348 27.829231 -0.179109 0.464200 0.070132 -0.024290 460367.000000 0 0 1
12.358732 -3.613669 24.843348 27.981937 -0.284468 0.478177 0.067379 -0.013187 -262275.000000 0 0 1
13.664332 -4.085769 25.062658 28.836510 -0.290548 0.517357 0.077378 -0.012800 -384036.000000 0 0 1
13.729332 -5.617769 25.032398 29.097678 -0.388395 0.534961 0.093778 -0.016592 -77930.600000 0 0 1
13.838932 -6.251969 23.785988 28.220142 -0.424322 0.568197 0.114958 -0.026161 18708.400000 0 0 1
13.337732 -7.540069 23.941568 28.424398 -0.514528 0.569280 0.148633 -0.042991 -14319.900000 0 0 1
13.590732 -8.502469 22.786288 27.860634 -0.559036 0.613102 0.175894 -0.046950 11234.200000 0 0 1
12.907632 -9.702469 23.040548 28.135595 -0.644578 0.611285 0.176186 -0.039196 -209574.000000 0 0 1
13.108232 -10.578469 21.915888 27.641200 -0.679000 0.655291 0.186321 -0.047295 136681.000000 0 0 1
12.225332 -11.832869 22.036188 27.840063 -0.769087 0.657491 0.196851 -0.042112 1254590.000000 0 0 1
10.807132 -11.533569 21.953388 27.051221 -0.817903 0.623998 0.179278 -0.041396 1630200.000000 0 0 1
9.987532 -12.750869 22.041288 27.352401 -0.906332 0.633727 0.164140 -0.040545 239702.000000 0 0 1
8.559932 -12.519169 22.510888 27.142994 -0.971063 0.592863 0.117364 -0.036947 -14699.200000 0 0 1
7.709332 -11.785069 21.582088 25.770297 -0.991502 0.578142 0.107928 -0.036499 -9310.360000 0 0 1
6.377632 -11.971169 22.004188 25.848934 -1.081294 0.552413 0.062872 -0.030294 88735.300000 0 0 1
5.503332 -10.790669 21.439188 24.624459 -1.099174 0.514282 0.052026 -0.027092 166392.000000 0 1 0
5.554132 -9.591469 22.151488 24.769600 -1.045909 0.463929 0.055378 -0.018607 -517353.000000 0 1 0
4.778432 -8.637469 21.509488 23.666376 -1.065483 0.430247 0.044141 -0.009365 -152766.000000 0 1 0
5.036832 -7.254569 22.102088 23.801276 -0.963908 0.380149 0.045322 -0.012232 206810.000000 0 1 0
4.635332 -6.195869 21.184788 22.553721 -0.928491 0.350202 0.033060 -0.019999 -81654.200000 0 1 0
5.312032 -5.013569 21.505388 22.712007 -0.756501 0.327427 0.061294 -0.034847 -4546.850000 0 1 0
-8.971168 -15.153069 -20.453117 26.989393 1.036253 2.430763 0.116201 -0.019197 276582.000000 0 0 1
-8.071368 -14.732369 -19.382917 25.649310 1.069593 2.427503 0.086385 -0.015256 358551.000000 0 0 1
-7.121268 -13.856769 -19.941917 25.306176 1.096075 2.478392 0.085591 -0.021359 101845.000000 0 0 1
-6.182468 -13.196269 -18.903117 23.868227 1.132664 2.484839 0.057361 -0.013655 436165.000000 0 1 0
-5.247168 -14.126069 -18.343117 23.739177 1.215139 2.453870 0.056345 -0.004033 16019.800000 0 1 0
-4.529068 -13.470569 -17.333017 22.414329 1.246450 2.454827 0.044324 -0.000998 29938.600000 0 1 0
-3.446768 -14.305769 -16.629917 22.205615 1.334367 2.417206 0.044989 0.001629 1616940.000000 0 1 0
-2.193268 -14.548369 -17.370717 22.764166 1.421166 2.438851 0.050329 0.005793 1312320.000000 0 1 0
-1.407068 -15.461369 -16.619717 22.743103 1.480041 2.390229 0.057360 0.010566 371189.000000 0 1 0
-0.057568 -15.832469 -17.314617 23.462019 1.567160 2.400876 0.060384 0.010703 340070.000000 0 1 0
-0.035068 -16.794169 -18.440917 24.942188 1.568708 2.402895 0.109246 -0.011881 -310918.000000 0 1 0
-0.427468 -18.110369 -18.227717 25.698596 1.547197 2.359285 0.092395 -0.003051 -271305.000000 0 0 1
-0.808868 -18.790669 -19.524317 27.109822 1.527777 2.374877 0.114304 -0.012897 17471.400000 0 0 1
-2.161268 -18.608569 -19.905717 27.334730 1.455171 2.386518 0.135466 -0.013488 15572.400000 0 0 1
-2.278668 -18.738669 -21.310517 28.468722 1.449788 2.416682 0.138727 -0.025516 134713.000000 0 0 1
-2.976268 -17.479969 -21.912817 28.188278 1.402146 2.461276 0.164201 -0.037185 18967.900000 0 0 1
-2.311568 -16.233669 -21.788917 27.269621 1.429354 2.496457 0.154880 -0.032126 -283927.000000 0 0 1
-2.628568 -15.465269 -20.591417 25.886103 1.402439 2.490566 0.146152 -0.020586 -54309.100000 0 0 1
-1.955268 -14.110669 -20.457017 24.928369 1.433106 2.533312 0.108502 -0.021586 -210793.000000 0 1 0
-2.303968 -13.171569 -21.478117 25.300356 1.397629 2.584745 0.100384 -0.033858 443.113000 0 0 1
-1.651468 -11.889669 -21.438017 24.569903 1.432780 2.631157 0.062649 -0.021775 275728.000000 0 1 0
-1.816568 -11.069569 -22.773117 25.386022 1.408141 2.683897 0.068284 -0.015584 -323685.000000 0 0 1
-2.967168 -10.291669 -22.687717 25.088942 1.290101 2.700513 0.072266 -0.023346 -390348.000000 0 0 1
-3.171368 -9.585869 -23.941217 25.983231 1.251293 2.742491 0.086798 -0.025458 317197.000000 0 0 1
-4.328968 -8.552569 -23.880817 25.732854 1.102233 2.759881 0.067354 -0.025748 202436.000000 0 0 1
-5.637368 -9.031069 -23.629417 25.916972 1.012759 2.718285 0.066104 -0.033314 274681.000000 0 0 1
-6.445468 -7.892569 -23.456117 25.573934 0.885985 2.731762 0.060386 -0.037130 -159891.000000 0 0 1
-7.974768 -8.063269 -23.172617 25.798903 0.790916 2.686458 0.045762 -0.044602 1025470.000000 0 0 1
-8.811168 -8.427869 -24.273917 27.164106 0.763167 2.676105 0.048796 -0.038415 219909.000000 0 0 1
-9.036568 -7.396869 -25.189167 27.764498 0.685949 2.707480 0.049662 -0.038494 -454462.000000 0 0 1
-9.942868 -7.803669 -26.367547 29.240475 0.665435 2.694593 0.054664 -0.037832 306765.000000 0 0 1
-10.626868 -6.688669 -26.973757 29.753187 0.561765 2.705914 0.076339 -0.045852 308690.000000 0 0 1
-11.341668 -7.159569 -28.113317 31.148859 0.563090 2.696445 0.081641 -0.039478 41095.600000 0 0 1
-12.054868 -6.000969 -28.909927 31.892245 0.461890 2.705686 0.071150 -0.041056 479066.000000 0 0 1
-11.222168 -5.216069 -29.776687 32.245860 0.435094 2.747712 0.036598 -0.027658 561762.000000 0 0 1
-12.039068 -4.605669 -30.760107 33.351694 0.365382 2.744774 0.069867 -0.037158 133221.000000 0 0 1
-11.207568 -3.508069 -31.422547 33.545381 0.303348 2.783930 0.058931 -0.034652 -196993.000000 0 0 1
-10.123468 -4.061069 -32.146717 33.946845 0.381501 2.814474 0.045287 -0.024820 -51931.200000 0 0 1
-9.544668 -2.988169 -32.878407 34.365964 0.303406 2.846290 0.046432 -0.019577 -668536.000000 0 0 1
-8.525468 -3.590769 33.814768 35.057321 0.398632 0.267039 0.049657 -0.021822 323164.000000 0 0 1
-7.215668 -3.710769 -33.253737 34.229325 0.474995 2.902269 0.052845 -0.026346 -39540.800000 0 0 1
-6.317768 -4.024069 33.397538 34.227224 0.567143 0.220631 0.061737 -0.030222 -385118.000000 0 0 1
-4.847668 -3.728269 33.756048 34.305549 0.655604 0.179225 0.090700 -0.040453 62943.900000 0 0 1
-4.704768 -2.302369 -33.751787 34.155802 0.455107 2.987632 0.112547 -0.046164 759763.000000 0 0 1
-3.339568 -1.898369 -33.541747 33.761002 0.516896 3.027563 0.110612 -0.048344 899709.000000 0 0 1
-3.412868 -0.452669 -33.056797 33.235589 0.131866 3.037820 0.106873 -0.046144 -47935.900000 0 0 1
-3.745068 -0.397569 -31.688287 31.911301 0.105762 3.023299 0.105332 -0.047084 140767.000000 0 0 1
-4.364468 0.865231 -31.413717 31.727256 -0.195707 3.000890 0.136174 -0.044797 -876133.000000 0 0 1
-4.921868 0.881631 -30.005777 30.419544 -0.177246 2.976469 0.119668 -0.050072 370722.000000 0 0 1
-5.940668 -0.083069 -29.783157 30.369966 0.013982 2.944694 0.108779 -0.047448 -2211.470000 0 0 1
-7.231368 0.271031 -30.201517 31.056364 -0.037462 2.906421 0.120005 -0.048339 -532782.000000 0 0 1
-8.238468 -0.908169 -30.092807 31.213365 0.109792 2.872829 0.105080 -0.047046 130203.000000 0 0 1
-8.520768 -1.316569 -28.740387 30.005777 0.153301 2.850143 0.093954 -0.042988 -366954.000000 0 0 1
-9.386968 -2.383369 -28.676907 30.268145 0.248648 2.815898 0.055208 -0.027201 -614377.000000 0 0 1
-9.623968 -2.844469 -27.226587 29.017215 0.287379 2.788451 0.054206 -0.028865 98197.900000 0 0 1
-10.398268 -1.972769 -26.413357 28.454898 0.187493 2.760486 0.062312 -0.028493 151893.000000 0 0 1
-10.506868 -2.374169 -25.091557 27.305991 0.222231 2.736087 0.053888 -0.030268 542292.000000 0 0 1
-11.579068 -1.630069 -24.227317 26.901576 0.139858 2.691924 0.071516 -0.039153 566797.000000 0 0 1
-11.049968 -0.352169 -23.995617 26.419982 0.031860 2.709849 0.080977 -0.035938 433170.000000 0 0 1
-11.902568 0.452331 -23.186317 26.066856 -0.037985 2.667033 0.087215 -0.037654 309250.000000 0 0 1
-11.207068 1.788031 -22.882717 25.542399 -0.158212 2.681186 0.102685 -0.042316 195447.000000 0 0 1
-11.167868 2.683731 -23.926517 26.540570 -0.235836 2.694036 0.085116 -0.037932 -217822.000000 0 0 1
-10.445368 3.804431 -23.558417 26.049537 -0.349288 2.700697 0.098175 -0.033666 -717425.000000 0 0 1
-10.570368 4.956931 -24.569517 27.202297 -0.438497 2.697998 0.133104 -0.043539 1773810.000000 0 0 1
-11.958568 5.401131 -24.393717 27.698971 -0.424228 2.648076 0.111496 -0.048580 1883460.000000 0 0 1
-12.855468 4.836931 -25.387547 28.864970 -0.359870 2.645666 0.096469 -0.053098 304046.000000 0 0 1
-14.244068 5.523331 -25.225797 29.491380 -0.369913 2.597045 0.072816 -0.032760 187695.000000 0 0 1
-14.180768 6.886431 -25.724327 30.170484 -0.452076 2.591799 0.092369 -0.033980 -480377.000000 0 0 1
-15.426368 7.479531 -25.826487 30.998768 -0.451457 2.555568 0.080163 -0.028284 -928963.000000 0 0 1
-15.270068 8.999031 -25.998307 31.465370 -0.532533 2.543217 0.090957 -0.016557 -192589.000000 0 0 1
-14.819868 9.575931 -24.801317 30.437349 -0.573667 2.523235 0.144564 -0.033260 249827.000000 0 0 1
-14.961768 10.966031 -24.828217 30.992720 -0.632491 2.499924 0.136846 -0.023131 -132234.000000 0 0 1
-14.536568 11.656631 -23.501517 29.991834 -0.675888 2.471231 0.156746 -0.031382 100169.000000 0 0 1
-15.467568 11.415531 -22.458017 29.562180 -0.635796 2.433629 0.174601 -0.034841 186671.000000 0 0 1
-15.201768 12.213831 -21.332317 28.902234 -0.676840 2.401025 0.170881 -0.037050 69571.000000 0 0 1
-16.282768 12.012431 -20.227817 28.611040 -0.635608 2.356034 0.173722 -0.046917 608338.000000 0 0 1
-17.556068 12.525831 -20.601217 29.824857 -0.619713 2.333308 0.152290 -0.038906 196998.000000 0 0 1
-18.272068 12.871031 -19.430217 29.615287 -0.613680 2.286419 0.142681 -0.032023 332849.000000 0 0 1
-19.780268 13.186831 -19.660017 30.849113 -0.588002 2.261781 0.126120 -0.032202 375613.000000 0 0 1
-20.110468 14.337731 -20.405717 32.037396 -0.619364 2.261311 0.111795 -0.029199 222335.000000 0 0 1
-21.525468 14.451631 -20.403717 32.992530 -0.591254 2.237545 0.094391 -0.026021 308034.000000 0 0 1
-22.074368 15.807331 -20.892817 34.258710 -0.621446 2.226673 0.099617 -0.020931 -234574.000000 0 0 1
-22.125168 15.808331 -22.285517 35.157796 -0.620388 2.257345 0.090329 -0.019511 189146.000000 0 0 1
-21.912968 17.133631 -22.803917 35.968849 -0.663603 2.257499 0.085312 -0.005689 -184032.000000 0 0 1
-21.857468 17.168931 -24.328817 36.937954 -0.665834 2.289806 0.085540 -0.002808 391785.000000 0 0 1
-20.635668 16.527731 -24.725317 36.198591 -0.675308 2.322722 0.093389 -0.025425 770563.000000 0 0 1
-20.291168 16.545631 -26.089607 36.961561 -0.684067 2.354430 0.094419 -0.023204 213337.000000 0 0 1
-19.430168 17.696731 -26.616077 37.404829 -0.738743 2.362524 0.075570 -0.022322 316309.000000 0 0 1
-20.360668 18.774531 -26.789347 38.531921 -0.744891 2.339565 0.075568 -0.032237 840154.000000 0 0 1
-19.761468 20.040931 -27.020117 39.015910 -0.792419 2.335802 0.062055 -0.026803 -126517.000000 0 0 1
-20.819068 21.170131 -27.269147 40.313948 -0.793759 2.313687 0.086994 -0.019431 434544.000000 0 0 1
-21.663968 21.672631 -26.249057 40.349020 -0.785598 2.279105 0.095173 -0.017808 428494.000000 0 0 1
-22.810168 20.852231 -26.122927 40.466364 -0.740586 2.272535 0.131245 -0.027463 -370329.000000 0 0 1
-23.696068 21.150331 -24.899817 40.358902 -0.728693 2.235670 0.133169 -0.008912 -54162.300000 0 0 1
-23.104168 20.632631 -23.732717 39.022428 -0.728949 2.224564 0.087002 -0.002288 634516.000000 0 0 1
-23.981468 20.853431 -22.608617 39.001614 -0.715743 2.189137 0.082918 -0.010431 466016.000000 0 0 1
-23.575368 20.088331 -21.287717 37.583319 -0.705706 2.172944 0.073927 -0.003458 586716.000000 0 0 1
-22.437768 20.644731 -20.596717 36.795150 -0.743803 2.164901 0.079750 -0.009244 555117.000000 0 0 1
-21.730668 19.782231 -19.743817 35.403063 -0.738497 2.162393 0.085189 -0.015416 -307398.000000 0 0 1
-22.392168 19.319031 -18.436717 34.850347 -0.711855 2.128248 0.110399 -0.018601 -1231760.000000 0 0 1
-23.522168 18.536331 -18.690117 35.301677 -0.667404 2.128737 0.146970 -0.024010 -109169.000000 0 0 1
-24.207868 18.203431 -17.447017 34.954029 -0.644757 2.093404 0.114802 -0.024640 191610.000000 0 0 1
-25.282248 19.249431 -17.080217 36.075843 -0.650745 2.064003 0.082554 -0.016492 -198368.000000 0 0 1
-26.467678 19.153031 -17.871117 37.239138 -0.626415 2.071339 0.079476 -0.010323 539162.000000 0 0 1
-27.443348 20.102031 -17.503517 38.257053 -0.632201 2.046005 0.068622 -0.004957 654362.000000 0 0 1
-28.874248 19.893731 -18.156217 39.485832 -0.603291 2.048584 0.040443 0.012939 1262040.000000 0 0 1
-29.610978 18.719031 -17.807717 39.297925 -0.563735 2.041088 0.043841 0.003000 374435.000000 0 0 1
-30.092918 18.631131 -16.482717 39.043344 -0.554360 2.006628 0.034131 -0.010841 -549854.000000 0 0 1
-31.004288 17.386531 -16.214617 39.070080 -0.511081 1.998754 0.033178 -0.020337 218390.000000 0 0 1
-30.315788 16.155631 -16.279817 38.014258 -0.489629 2.013358 0.059066 -0.038243 60463.500000 0 0 1
-31.083678 15.294031 -15.511317 37.956598 -0.457249 1.991781 0.058662 -0.043307 -183944.000000 0 0 1
-30.284138 14.078531 -15.066717 36.637958 -0.435160 1.994602 0.110021 -0.047593 -86870.200000 0 0 1
-29.528718 14.137631 -13.855817 35.549985 -0.446524 1.971163 0.125838 -0.048715 343350.000000 0 0 1
-30.404018 14.000631 -12.760817 35.822624 -0.431540 1.935018 0.089609 -0.033489 30036.300000 0 0 1
-29.947838 14.801931 -11.490417 35.327041 -0.459043 1.902081 0.118836 -0.056807 107474.000000 0 0 1
-30.098948 16.226231 -11.600617 36.108331 -0.494433 1.897869 0.107817 -0.042732 155781.000000 0 0 1
-30.994118 16.744831 -10.606917 36.790371 -0.495333 1.863254 0.054945 -0.030755 276112.000000 0 0 1
-31.090778 18.275631 -10.648017 37.603396 -0.531412 1.857890 0.148066 -0.014342 -274096.000000 0 0 1
-29.818848 18.835731 -10.454317 36.786427 -0.563383 1.858957 0.061824 -0.033843 -250581.000000 0 0 1
-29.787428 20.255731 -10.748917 37.591551 -0.597183 1.860783 0.024325 -0.028915 -523603.000000 0 0 1
-28.460938 20.942231 -10.405817 36.835893 -0.634366 1.857186 0.105078 -0.032121 -17535.600000 0 0 1
-28.497118 22.369631 -10.656317 37.762987 -0.665514 1.856872 0.087000 -0.032101 95770.800000 0 0 1
-27.162648 22.835131 -10.529317 37.015121 -0.699059 1.859239 0.086478 -0.016863 256656.000000 0 0 1
-27.005718 24.182531 -9.756217 37.540476 -0.730301 1.833700 0.118012 -0.007306 44688.300000 0 0 1
-27.086418 24.092231 -8.359217 37.201964 -0.726960 1.797430 0.110816 -0.019775 -618456.000000 0 0 1
-28.393668 24.268231 -7.916317 38.181350 -0.707220 1.779646 0.136359 -0.019712 -583228.000000 0 0 1
-28.702798 23.931331 -6.481117 37.928407 -0.694992 1.742517 0.146459 -0.020074 -217002.000000 0 0 1
-28.689968 22.575231 -6.251417 37.038298 -0.666682 1.740391 0.147878 -0.037346 147281.000000 0 0 1
-28.959188 22.248831 -4.897617 36.846054 -0.655099 1.704112 0.126060 -0.029607 -425207.000000 0 0 1
-29.110118 20.689231 -4.618917 36.010799 -0.617886 1.699415 0.134122 -0.037184 835091.000000 0 0 1
-27.921968 19.854031 -4.715317 34.584000 -0.618106 1.707566 0.138072 -0.040896 982211.000000 0 0 1
-27.216248 19.770131 -5.957517 34.162468 -0.628231 1.746080 0.131398 -0.038998 -457494.000000 0 0 1
-27.855118 18.958131 -7.111617 34.436803 -0.597585 1.778805 0.126022 -0.036250 -424591.000000 0 0 1
-27.569288 17.543831 -7.183717 33.458294 -0.566722 1.787188 0.120132 -0.040719 227503.000000 0 0 1
-27.819718 17.154231 -8.497317 33.769938 -0.552551 1.825154 0.086789 -0.048505 -192170.000000 0 0 1
-27.567028 15.645931 -8.649117 32.856406 -0.516225 1.837175 0.145085 -0.054690 273488.000000 0 0 1
-28.479888 14.860231 -7.890617 33.078578 -0.480919 1.811660 0.141811 -0.045743 166464.000000 0 0 1
-28.246988 13.495031 -8.143617 32.346973 -0.445691 1.825293 0.157032 -0.059586 443264.000000 0 0 1
-29.283868 12.652631 -7.342917 32.734575 -0.407842 1.797038 0.138488 -0.056799 235725.000000 0 0 1
-30.648358 12.831731 -7.674817 34.100997 -0.396502 1.797802 0.143631 -0.044778 -37501.600000 0 0 1
-31.413038 12.050831 -6.753417 34.316324 -0.366311 1.768888 0.160388 -0.051140 22998.900000 0 0 1
-32.044778 10.798131 -7.376617 34.610430 -0.325020 1.785577 0.138486 -0.037163 -131647.000000 0 0 1
-31.049398 9.942131 -7.930617 33.553029 -0.309888 1.809415 0.158580 -0.037220 122296.000000 0 0 1
-31.459228 8.594031 -7.953217 33.567753 -0.266673 1.810001 0.139808 -0.028360 -291992.000000 0 0 1
-30.340448 7.611031 -8.322617 32.368758 -0.245783 1.830836 0.172341 -0.032392 -230371.000000 0 0 1
-29.858908 7.732431 -9.646517 32.317180 -0.253399 1.873912 0.160851 -0.042653 346625.000000 0 0 1
-28.927418 6.675831 -9.867517 31.284662 -0.226808 1.891686 0.180076 -0.045535 -167415.000000 0 0 1
-28.174348 6.689431 -11.209917 31.051644 -0.233113 1.940146 0.157768 -0.036488 -347436.000000 0 0 1
-27.240468 7.731931 -11.255317 30.471429 -0.276566 1.949130 0.175460 -0.047664 101272.000000 0 0 1
-26.398748 7.600831 -12.387017 30.134776 -0.280341 1.994406 0.154162 -0.031241 -53889.100000 0 0 1
-32.526628 25.516431 33.674788 53.320363 -0.665205 0.887238 0.061955 -0.008332 -160071.000000 0 0 1
-33.094548 26.775531 33.620878 54.245199 -0.680242 0.902315 0.072129 -0.022278 131620.000000 0 0 1
-32.782598 27.276931 32.377684 53.544786 -0.693983 0.921427 0.082144 -0.031608 1712.640000 0 0 1
-33.206598 28.766931 32.242454 54.495783 -0.713882 0.937692 0.086888 -0.040583 -1598.660000 0 0 1
-32.905038 29.241231 31.010068 53.846220 -0.726512 0.957091 0.101147 -0.038599 44054.200000 0 0 1
-33.330668 30.573031 30.903988 54.778647 -0.742272 0.971379 0.105883 -0.034800 -114627.000000 0 0 1
-33.052128 31.140931 29.499728 54.151959 -0.755634 0.994695 0.110284 -0.034293 -797439.000000 0 0 1
-31.702878 31.325131 29.274528 53.322925 -0.779405 0.989624 0.089915 -0.025067 -836222.000000 0 0 1
-31.472268 32.013431 28.060848 52.941237 -0.793922 1.012151 0.078871 -0.015899 -486270.000000 0 0 1
-30.024658 31.903131 27.602688 51.780288 -0.815722 1.008567 0.091056 -0.019491 -735673.000000 0 0 1
-29.708758 30.622131 27.049238 50.517190 -0.800536 1.005760 0.116872 -0.020481 823984.000000 0 0 1
-28.563688 30.623631 26.155798 49.374253 -0.820188 1.012496 0.081665 -0.013985 584178.000000 0 0 1
-28.718788 31.303631 24.758398 49.169751 -0.828436 1.043118 0.081671 -0.024823 -239931.000000 0 0 1
-28.829978 32.688631 24.950228 50.221789 -0.848039 1.050888 0.064700 -0.026439 145984.000000 0 0 1
-29.745748 33.432431 24.161908 50.856020 -0.843686 1.075714 0.077496 -0.022369 129507.000000 0 0 1
-30.042478 -32.799365 24.719618 50.886229 0.829240 1.063539 0.084904 -0.027677 -140233.000000 0 0 1
-30.670148 -32.906365 25.964128 51.938644 0.820557 1.047313 0.086743 -0.034417 24712.300000 0 0 1
-30.822578 -31.637165 26.547738 51.533716 0.798439 1.029610 0.068243 -0.032558 -199356.000000 0 0 1
-31.316258 -31.675665 28.002198 52.613486 0.791104 1.009570 0.074712 -0.038756 861450.000000 0 0 1
-32.692078 -32.121365 28.122058 53.771779 0.776593 1.020442 0.087958 -0.039304 1112780.000000 0 0 1
-32.930898 -32.330965 29.507758 54.776301 0.776206 1.001908 0.068248 -0.029768 727094.000000 0 0 1
-34.318587 -33.001965 29.834168 56.186944 0.765843 1.011039 0.098618 -0.030743 766797.000000 0 0 1
-34.573482 -33.209465 31.161898 57.177427 0.765278 0.994403 0.090715 -0.033409 -204264.000000 0 0 1
-35.916635 -33.574865 31.379728 58.326354 0.751712 1.002731 0.100880 -0.036059 -269164.000000 0 0 1
-36.226528 33.568931 32.772426 59.272813 -0.747340 0.984946 0.111184 -0.039903 -163709.000000 0 0 1
-35.857574 32.216431 33.086118 58.466702 -0.731961 0.969276 0.085808 -0.028796 -255113.000000 0 0 1
-36.455478 31.767331 -33.406157 58.771902 -0.716788 2.175360 0.115417 -0.041119 -70237.400000 0 0 1
-36.076098 30.325831 -32.996987 57.532095 -0.699016 2.181618 0.094491 -0.030109 1061100.000000 0 0 1
-34.717056 30.141931 -32.551077 56.332784 -0.714975 2.186870 0.099915 -0.015623 489049.000000 0 0 1
-34.422641 28.848731 -32.090677 55.199448 -0.697530 2.191194 0.069179 -0.023408 -62800.700000 0 0 1
-33.814098 29.017431 -30.663067 54.089076 -0.709204 2.173533 0.059272 -0.017299 -554420.000000 0 0 1
-34.684766 29.432631 -29.678987 54.315329 -0.703666 2.148880 0.069492 -0.023920 -809966.000000 0 0 1
-34.542711 30.780131 -29.359677 54.796040 -0.727862 2.136250 0.071586 -0.025981 181687.000000 0 0 1
-35.680832 31.342331 -28.478967 55.376123 -0.720757 2.110967 0.072856 -0.025841 268192.000000 0 0 1
-35.579340 30.919131 -27.124077 54.383799 -0.715433 2.092956 0.060885 -0.039206 275754.000000 0 0 1
-36.821528 31.213931 -26.505917 55.069938 -0.703162 2.072949 0.107811 -0.040964 300740.000000 0 0 1
-36.806898 30.821331 -25.019517 54.135740 -0.697121 2.051229 0.102509 -0.039567 -69523.200000 0 0 1
-36.266628 31.875031 -24.220417 54.017724 -0.721039 2.035747 0.102267 -0.046858 22090.600000 0 0 1
-36.222198 31.563531 -22.866917 53.209022 -0.716780 2.015019 0.096585 -0.041630 1163420.000000 0 0 1
-37.606658 31.350231 -22.075217 53.706730 -0.694916 1.994383 0.079200 -0.037076 976707.000000 0 0 1
36.876690 32.497131 -21.906617 53.813136 0.722352 1.990059 0.081234 -0.040390 -305442.000000 0 0 1
37.226010 33.588631 -21.077717 54.389724 0.734078 1.968748 0.086849 -0.042326 -453044.000000 0 0 1
37.316990 33.318831 -19.566417 53.717287 0.728856 1.943622 0.083366 -0.036042 78107.900000 0 0 1
-36.975318 32.392931 -19.196917 52.773078 -0.719435 1.943101 0.068285 -0.036268 -116305.000000 0 0 1
-36.740718 32.351031 -17.832317 52.100490 -0.721949 1.920126 0.056903 -0.022654 758455.000000 0 0 1
-35.427611 31.519131 -17.525517 50.554080 -0.727082 1.924814 0.087731 -0.027446 784794.000000 0 0 1
-35.050484 31.295831 -16.192317 49.700670 -0.728867 1.902651 0.044495 -0.012681 -266780.000000 0 0 1
-33.884508 30.529731 -16.110017 48.371035 -0.733364 1.910334 0.073607 -0.019737 -422660.000000 0 0 1
-33.511458 30.103631 -14.615617 47.358871 -0.731880 1.884532 0.061561 -0.020548 349869.000000 0 0 1
-34.629790 29.436931 -14.043917 47.570861 -0.704521 1.870483 0.037179 -0.008234 787787.000000 0 0 1
-34.202597 29.231931 -12.709617 46.753158 -0.707199 1.846106 0.066533 -0.009120 581931.000000 0 0 1
-35.314052 28.424431 -11.971917 46.886643 -0.677724 1.828993 0.067758 -0.022100 123302.000000 0 0 1
-34.999171 28.209331 -10.640617 46.194491 -0.678389 1.803227 0.085381 -0.017452 375242.000000 0 0 1
-35.862473 27.304231 -9.974317 46.164109 -0.650732 1.788576 0.109894 -0.036899 -99779.000000 0 0 1
-35.034843 26.613031 -8.914217 44.890499 -0.649627 1.770702 0.123816 -0.030087 228026.000000 0 0 1
-34.513617 27.487231 -7.898717 44.823290 -0.672552 1.747940 0.121614 -0.027185 226995.000000 0 0 1
-33.338148 26.976531 -7.327817 43.507036 -0.680313 1.740031 0.113018 -0.031469 -239054.000000 0 0 1
-32.675028 27.650131 -6.123717 43.239879 -0.702293 1.712896 0.131667 -0.029110 -692662.000000 0 0 1
-31.679988 26.868231 -5.599817 41.915169 -0.703398 1.704796 0.147572 -0.022895 -698544.000000 0 0 1
-31.159948 27.410631 -4.426417 41.735814 -0.721472 1.677054 0.153447 -0.022321 -467543.000000 0 0 1
-30.518688 26.218831 -3.590617 40.394429 -0.709758 1.659803 0.149106 -0.029265 -64644.800000 0 0 1
-31.336598 25.165431 -3.211117 40.318638 -0.676609 1.650524 0.137640 -0.023841 30033.900000 0 0 1
-30.553028 24.357831 -2.327717 39.143450 -0.673050 1.630298 0.147564 -0.032301 731735.000000 0 0 1
-31.461828 23.240531 -1.765817 39.154655 -0.636223 1.615910 0.127195 -0.039896 94841.300000 0 0 1
-31.642438 22.307131 -2.753317 38.812791 -0.614057 1.641794 0.128509 -0.039529 -344667.000000 0 0 1
-32.598428 21.394231 -2.292917 39.059289 -0.580789 1.629534 0.121090 -0.041348 -12550.900000 0 0 1
-33.203838 20.528331 -3.416117 39.186440 -0.553732 1.658083 0.148547 -0.033817 -426206.000000 0 0 1
-32.210498 19.749831 -3.962617 37.990450 -0.550032 1.675292 0.131587 -0.035551 -462465.000000 0 0 1
-32.721688 18.953131 -5.016117 38.145661 -0.525002 1.702677 0.128082 -0.035262 -234743.000000 0 0 1
-31.692638 17.990931 -5.579917 36.867769 -0.516307 1.722730 0.103929 -0.049645 -496491.000000 0 0 1
-31.191528 17.037131 -4.701117 35.850742 -0.499929 1.702305 0.153429 -0.042504 269814.000000 0 0 1
-30.372518 16.084231 -5.403817 34.790711 -0.487019 1.726751 0.152013 -0.054283 188166.000000 0 0 1
-29.885998 14.992531 -4.464817 33.732528 -0.464973 1.703545 0.161317 -0.040849 -217725.000000 0 0 1
-30.877698 14.028431 -4.203717 34.174557 -0.426443 1.694116 0.181637 -0.039524 14527.200000 0 0 1
-30.360748 12.907231 -3.572617 33.183357 -0.401980 1.678668 0.200761 -0.051581 -319696.000000 0 0 1
-31.393928 12.082931 -2.783917 33.753905 -0.367405 1.653367 0.195939 -0.055278 171469.000000 0 0 1
-32.430198 11.568431 -3.610017 34.620493 -0.342647 1.675260 0.153285 -0.035278 845150.000000 0 0 1
-33.337958 10.650031 -2.971617 35.123683 -0.309210 1.655502 0.163354 -0.036909 410238.000000 0 0 1
-34.565669 10.214631 -3.793117 36.242404 -0.287336 1.675648 0.127586 -0.029776 -74774.500000 0 0 1
-34.229212 9.372231 -4.867617 35.821381 -0.267258 1.707104 0.134220 -0.027569 605102.000000 0 0 1
-35.356317 8.679931 -5.419317 36.807327 -0.240738 1.718568 0.141168 -0.023647 260795.000000 0 0 1
-35.014623 7.720231 -6.568717 36.452350 -0.217014 1.751986 0.148987 -0.030688 199357.000000 0 0 1
-34.186956 6.608331 -6.122617 35.353987 -0.190945 1.744854 0.154057 -0.027361 949346.000000 0 0 1
-33.744498 5.802031 -7.217217 34.992041 -0.170275 1.778540 0.145984 -0.025550 -482158.000000 0 0 1
-32.813678 4.682231 -6.751617 33.826692 -0.141735 1.771740 0.162542 -0.032380 -375933.000000 0 0 1
-31.503378 5.089931 -6.453817 32.557978 -0.160184 1.770343 0.164658 -0.037192 -572.325000 0 0 1
-30.682248 3.969731 -6.156717 31.544639 -0.128667 1.767232 0.171173 -0.038513 -128334.000000 0 0 1
-29.218288 4.298231 -5.828317 30.102365 -0.146060 1.765643 0.211434 -0.043684 176447.000000 0 0 1
-28.408568 4.621831 -6.976317 29.615486 -0.161278 1.808594 0.201798 -0.039792 910746.000000 0 0 1
-27.014788 4.557231 -6.654417 28.193055 -0.167121 1.809075 0.225387 -0.049504 460944.000000 0 0 1
-26.128778 4.927731 -7.818417 27.715036 -0.186405 1.856779 0.220592 -0.046974 -494736.000000 0 0 1
-26.324498 4.128631 -8.948517 28.108730 -0.155569 1.894789 0.198470 -0.053695 741635.000000 0 0 1
-25.212368 4.201431 -9.850617 27.392520 -0.165124 1.938646 0.197084 -0.053501 389857.000000 0 0 1
-25.613868 3.439031 -11.105017 28.128607 -0.133466 1.976640 0.162926 -0.054451 311048.000000 0 0 1
-26.472868 4.164231 -11.997817 29.361559 -0.156023 1.991741 0.166414 -0.037326 466576.000000 0 0 1
-27.063488 3.366631 -12.982817 30.204637 -0.123762 2.015099 0.144248 -0.037983 135528.000000 0 0 1
-27.937518 4.212631 -13.972317 31.519467 -0.149660 2.030064 0.132027 -0.028279 1923.270000 0 0 1
-27.157848 5.017531 -14.874517 31.368385 -0.182694 2.064838 0.104399 -0.024255 742933.000000 0 0 1
-27.873878 5.972431 -15.737117 32.561938 -0.211075 2.075214 0.136695 -0.028287 8526.980000 0 0 1
-28.744328 5.417431 -16.844917 33.754054 -0.186284 2.093297 0.091515 -0.018892 663608.000000 0 0 1
-29.889838 4.664731 -16.385117 34.403985 -0.154815 2.067189 0.109607 -0.027146 641887.000000 0 0 1
-30.738298 4.185831 -17.410017 35.573485 -0.135344 2.082209 0.114463 -0.019524 685008.000000 0 0 1
-32.120598 3.637931 -16.915417 36.484225 -0.112778 2.052891 0.120604 -0.026396 320590.000000 0 0 1
-32.120668 2.475731 -16.074317 36.003475 -0.076924 2.033608 0.136460 -0.034969 162542.000000 0 0 1
-31.685578 1.277131 -16.708117 35.843661 -0.040285 2.055718 0.163244 -0.038408 48556.100000 0 0 1
-31.911908 0.086131 -15.785517 35.602806 -0.002699 2.030161 0.165261 -0.034089 -29334.400000 0 0 1
-31.278688 -1.027469 -16.350717 35.309460 0.032837 2.052251 0.169913 -0.017536 273307.000000 0 0 1
-31.449078 -2.112169 -15.499017 35.124425 0.067061 2.027799 0.199807 -0.030905 158312.000000 0 0 1
-31.243228 -3.431069 -16.325317 35.417898 0.109380 2.049844 0.199747 -0.021363 471493.000000 0 0 1
-32.280748 -3.528169 -17.311117 36.799041 0.108864 2.060566 0.203849 -0.021114 552421.000000 0 0 1
-32.093828 -4.603169 -18.225417 37.193666 0.142457 2.082902 0.195636 -0.019521 -21038.700000 0 0 1
-33.185048 -4.689469 -19.313217 38.681247 0.140383 2.093577 0.201591 -0.020261 -101262.000000 0 0 1
-33.161018 -5.956969 -19.891617 39.125631 0.177742 2.104126 0.195095 -0.016510 210768.000000 0 0 1
-33.918828 -5.943469 -21.083617 40.377352 0.173465 2.120183 0.190407 -0.015114 -101841.000000 0 0 1
-33.601878 -7.247169 -21.905517 40.761002 0.212424 2.138163 0.184743 -0.015505 243150.000000 0 0 1
-32.320608 -7.291069 -22.522517 40.063014 0.221872 2.167812 0.155766 -0.013545 268055.000000 0 0 1
-32.154748 -8.247469 -23.549817 40.700644 0.251080 2.187820 0.130684 -0.012439 302061.000000 0 0 1
-30.718918 -8.086369 -24.131117 39.891754 0.257398 2.220455 0.100001 -0.008677 -28042.300000 0 0 1
-30.433768 -6.867069 -24.873217 39.900473 0.221923 2.243856 0.081344 -0.009880 2951.460000 0 0 1
-30.602178 -6.862269 -26.325187 40.946300 0.220592 2.269101 0.052462 -0.011796 -766035.000000 0 0 1
-31.978448 -6.853069 -26.989667 42.403158 0.211110 2.260750 0.078123 -0.008659 -412697.000000 0 0 1
-32.786918 -7.980669 -26.616837 42.978239 0.238767 2.238659 0.087701 -0.009068 -393902.000000 0 0 1
-33.881268 -8.030369 -27.489147 44.363051 0.232721 2.239081 0.085365 -0.008917 -165196.000000 0 0 1
-34.909330 -9.107869 -27.082607 45.111885 0.255212 2.214726 0.091979 -0.009542 -479565.000000 0 0 1
-34.439702 -10.439769 -27.232587 45.129764 0.294328 2.218590 0.086229 -0.007209 188982.000000 0 0 1
-35.411181 -11.474869 -27.025057 45.999761 0.313369 2.198768 0.065924 -0.011949 -173616.000000 0 0 1
-36.553448 -11.623469 -28.024417 47.503974 0.307875 2.201779 0.044919 -0.008573 -36753.600000 0 0 1
-37.534578 -10.595969 -27.676067 47.823464 0.275139 2.187946 0.054558 -0.012819 107531.000000 0 0 1
36.912810 -10.448569 -28.798417 47.969541 -0.275845 2.214732 0.054072 -0.022489 5798.700000 0 0 1
35.779580 -9.420369 -28.544457 46.730158 -0.257446 2.227912 0.086317 -0.014523 823731.000000 0 0 1
34.596210 -9.856969 -27.848917 45.493073 -0.277560 2.229582 0.066005 -0.016533 708786.000000 0 0 1
33.869750 -8.741069 -27.365037 44.411839 -0.252568 2.234661 0.054448 -0.009838 95538.000000 0 0 1
32.560570 -9.072569 -26.625937 43.028394 -0.271744 2.238010 0.055138 -0.003865 43350.500000 0 0 1
32.770180 -9.454669 -25.252477 42.437755 -0.280887 2.208121 0.036876 0.014107 -343004.000000 0 0 1
31.561310 -9.665269 -24.586717 41.158721 -0.297170 2.211006 0.011266 0.013208 -426615.000000 0 0 1
31.700300 -9.834869 -23.067117 40.419370 -0.300829 2.178148 -0.001208 0.014991 -35232.200000 0 0 1
32.227820 -11.095469 -22.727117 40.966616 -0.331572 2.158885 -0.018957 0.012595 61093.600000 0 0 1
32.362020 -11.126969 -21.324317 40.321660 -0.331166 2.128047 -0.006211 0.004169 -12300.800000 0 0 1
33.158530 -12.287169 -20.685117 40.967507 -0.354871 2.100080 0.031436 -0.002202 255978.000000 0 0 1
34.558040 -12.201169 -20.895217 42.186926 -0.339401 2.088977 0.043435 0.000026 268277.000000 0 0 1
35.253730 -13.035069 -19.969617 42.562003 -0.354160 2.059168 0.087348 -0.006220 619718.000000 0 0 1
36.791100 -13.094469 -20.235317 43.983158 -0.341934 2.048870 0.122086 -0.017038 464208.000000 0 0 1
37.597670 -11.878269 -20.151817 44.280625 -0.306008 2.043273 0.165042 -0.019562 753645.000000 0 0 1
37.508230 -10.901469 -21.241217 44.462328 -0.282850 2.068871 0.161168 -0.006905 -549510.000000 0 0 1
-37.018688 -11.325569 -22.519317 44.785839 0.296899 2.097657 0.109961 -0.005877 43604.700000 0 0 1
-37.580898 -12.403969 -23.313817 45.931649 0.318802 2.103166 0.091079 -0.008449 606047.000000 0 0 1
36.511780 -12.047569 -24.001517 45.324682 -0.318715 2.128862 0.103713 -0.005819 84814.100000 0 0 1
36.064790 -13.181869 -24.932417 45.782705 -0.350421 2.146686 0.068467 -0.023308 -361033.000000 0 0 1
35.812460 -14.497469 -24.406917 45.699086 -0.384651 2.134214 0.052606 -0.031154 863276.000000 0 0 1
34.716890 -14.562469 -23.475217 44.366809 -0.397172 2.128356 0.012753 -0.020704 -148920.000000 0 0 1
-30.196288 9.245031 -18.528917 36.614302 -0.297103 2.101403 0.073268 -0.003566 -294184.000000 0 0 1
-29.150538 8.347431 -18.712117 35.631121 -0.278893 2.123702 0.076016 -0.000079 -520735.000000 0 0 1
-28.605878 8.423431 -19.979717 35.894840 -0.286371 2.161106 0.086496 -0.022246 -154564.000000 0 0 1
-27.444808 7.465931 -20.306117 34.947045 -0.265607 2.190819 0.076514 -0.019359 -464819.000000 0 0 1
-26.315828 7.614731 -19.511817 33.633583 -0.281666 2.189683 0.077584 -0.024555 -263016.000000 0 0 1
-25.421168 6.507731 -19.635917 32.774312 -0.250614 2.213204 0.104025 -0.032741 -239783.000000 0 0 1
-24.040568 6.843931 -19.089917 31.451760 -0.277346 2.223024 0.069152 -0.030323 -234320.000000 0 0 1
-23.374968 7.919131 -19.753717 31.611882 -0.326651 2.245778 0.066672 -0.023461 666959.000000 0 0 1
-22.059968 8.183731 -19.239517 30.393661 -0.355239 2.256233 0.070569 -0.022545 655602.000000 0 0 1
-21.427368 9.401731 -19.934917 30.739641 -0.413478 2.276420 0.077772 -0.014215 -196524.000000 0 0 1
-20.906268 8.976131 -21.197117 31.095992 -0.405550 2.320835 0.100563 -0.026728 -184112.000000 0 0 1
-20.461568 10.048231 -21.933717 31.634327 -0.456485 2.336926 0.079896 -0.026964 491842.000000 0 0 1
-19.287168 9.596531 -22.868717 31.417614 -0.461694 2.386043 0.109534 -0.021312 485950.000000 0 0 1
-19.836368 8.792231 -23.864517 32.253681 -0.417216 2.403719 0.089415 -0.017589 420590.000000 0 0 1
-18.834568 8.332131 -24.771617 32.214878 -0.416503 2.447993 0.065040 -0.013869 -121704.000000 0 0 1
-19.399868 7.340131 -25.807917 33.110134 -0.361713 2.464594 0.039591 -0.010482 -241384.000000 0 0 1
-19.824968 6.183831 -25.141667 32.609393 -0.302358 2.451198 0.064592 -0.014891 181475.000000 0 0 1
-20.246268 5.273231 -26.157897 33.495580 -0.254794 2.466959 0.063600 -0.020244 -602793.000000 0 0 1
-20.555068 3.899731 -25.524367 33.003212 -0.187493 2.454968 0.065038 -0.013882 263306.000000 0 0 1
-19.493968 2.999531 -25.221387 32.017656 -0.152672 2.477918 0.050849 -0.016602 297493.000000 0 0 1
-18.478268 3.363331 -24.315217 30.724390 -0.180044 2.483889 0.049969 -0.022155 -27164.500000 0 0 1
-17.541968 2.156131 -23.949517 29.764893 -0.122299 2.505837 0.054355 -0.022495 146669.000000 0 0 1
-17.948168 1.224031 -22.911017 29.129876 -0.068093 2.475938 0.060418 -0.022658 -890838.000000 0 0 1
-19.204968 0.659031 -22.990717 29.963948 -0.034302 2.445384 0.065608 -0.020841 -908760.000000 0 0 1
-19.674168 -0.152669 -21.776117 29.347835 0.007760 2.406846 0.096990 -0.018973 -50940.900000 0 0 1
-19.070268 -1.421669 -21.588417 28.840180 0.074411 2.416674 0.102173 -0.027014 20498.100000 0 0 1
-19.567868 -2.045869 -20.453417 28.380086 0.104174 2.375602 0.102430 -0.019834 -358398.000000 0 0 1
-19.043968 -3.457969 -20.197117 27.974163 0.179621 2.377473 0.094234 -0.037743 -102019.000000 0 0 1
-19.411268 -4.372069 -21.233017 29.099026 0.221537 2.388652 0.103797 -0.040494 357463.000000 0 0 1
-19.372268 -5.703869 -20.788717 28.982574 0.286343 2.370692 0.101845 -0.033389 -72923.800000 0 0 1
-19.429068 -6.621569 -22.026317 30.108013 0.328462 2.391428 0.076551 -0.038428 241027.000000 0 0 1
-18.202268 -6.531769 -22.746217 29.855936 0.344532 2.436985 0.080746 -0.027211 386862.000000 0 0 1
-18.252168 -7.268869 -23.955217 30.981131 0.378994 2.454699 0.097323 -0.032618 998755.000000 0 0 1
-16.801768 -7.434669 -24.554917 30.667860 0.416594 2.499213 0.092960 -0.033732 169139.000000 0 0 1
-16.715768 -8.044569 -25.827427 31.799182 0.448541 2.518717 0.094065 -0.054272 529058.000000 0 0 1
-15.432668 -8.398169 -26.375167 31.691417 0.498365 2.553949 0.102232 -0.048956 643011.000000 0 0 1
-14.712568 -9.479469 -25.545007 30.965583 0.572366 2.540907 0.083848 -0.043405 -642188.000000 0 0 1
-13.975968 -9.034569 -24.426217 29.556576 0.573866 2.543520 0.079731 -0.038066 -209588.000000 0 0 1
-13.150868 -9.972869 -23.856217 29.009007 0.648819 2.536365 0.045241 -0.036895 -470813.000000 0 0 1
-12.122968 -9.352969 -22.895717 27.543751 0.657125 2.552147 0.068266 -0.032831 -386157.000000 0 0 1
-12.601368 -8.902069 -21.672617 26.603451 0.615033 2.522929 0.062376 -0.035329 -743606.000000 0 0 1
-11.630068 -8.241569 -20.953117 25.341962 0.616503 2.544218 0.062183 -0.033902 -1378100.000000 0 0 1
-11.990068 -7.784669 -19.499317 24.178216 0.575855 2.508975 0.058207 -0.027055 199710.000000 0 1 0
-13.002668 -6.788269 -19.321817 24.258660 0.481145 2.492267 0.065918 -0.019755 1580830.000000 0 1 0
-14.355768 -7.200069 -19.619717 25.354730 0.464883 2.455629 0.094231 -0.030563 572459.000000 0 0 1
-15.438968 -6.126269 -19.430417 25.562355 0.377750 2.434292 0.084391 -0.022487 -42697.000000 0 0 1
-15.720468 -5.953069 -18.031717 24.651875 0.361995 2.391248 0.068438 -0.019294 224122.000000 0 1 0
-15.125968 -4.762669 -17.550617 23.653796 0.305040 2.406814 0.078213 -0.023235 -650009.000000 0 1 0
-15.272568 -4.534169 -16.083717 22.638373 0.288595 2.360952 0.088115 -0.015725 568394.000000 0 1 0
-16.494868 -4.028669 -15.515417 23.000848 0.239548 2.311163 0.103170 -0.025212 553897.000000 0 1 0
-16.763568 -2.684569 -15.776717 23.176042 0.158795 2.319560 0.057050 -0.022660 -514739.000000 0 1 0
-17.865568 -2.218369 -14.838917 23.330090 0.123538 2.260154 0.047740 -0.024502 -528774.000000 0 1 0
-17.802868 -2.654569 -13.487717 22.492384 0.148019 2.213869 0.080355 -0.025519 181037.000000 0 1 0
-18.802568 -2.053769 -12.709017 22.787576 0.108797 2.162429 0.076222 -0.030688 -211498.000000 0 1 0
-18.281668 -0.852569 -11.904617 21.832685 0.046601 2.147502 0.080975 -0.030112 -72783.200000 0 1 0
-17.978168 0.211631 -12.824217 22.084380 -0.011771 2.190374 0.106020 -0.033940 1061300.000000 0 1 0
-17.077468 1.190231 -12.237917 21.043364 -0.069583 2.191438 0.103630 -0.027547 -360071.000000 0 1 0
-16.682468 2.264731 -13.292517 21.450518 -0.134930 2.239135 0.115677 -0.027322 279088.000000 0 1 0
-15.835968 1.837431 -14.350417 21.449673 -0.115512 2.303696 0.096609 -0.030446 731406.000000 0 1 0
-14.536868 1.387331 -14.002317 20.231413 -0.095147 2.335201 0.081576 -0.026458 -433922.000000 0 1 0
-13.777568 0.556931 -15.043317 20.406688 -0.040401 2.399677 0.067327 -0.027119 -98942.000000 0 1 0
-13.495668 1.118731 -16.304517 21.194855 -0.082706 2.448491 0.079159 -0.031536 595881.000000 0 1 0
-12.823568 0.094531 -17.082417 21.360285 -0.007372 2.497638 0.047005 -0.022698 112137.000000 0 1 0
-12.277468 0.600231 -18.449417 22.169291 -0.048850 2.553871 0.060469 -0.025729 176123.000000 0 1 0
-11.149668 1.455931 -18.361317 21.530740 -0.129846 2.592111 0.047028 -0.015885 -109370.000000 0 1 0
-10.952368 2.179831 -19.542217 22.507871 -0.196461 2.622439 0.064812 -0.014197 1396470.000000 0 1 0
-9.481968 2.780931 -19.542717 21.898837 -0.285286 2.673452 0.047009 -0.010427 795634.000000 0 1 0
-8.435568 1.826931 -19.616217 21.431109 -0.213281 2.727086 0.050396 -0.011217 169448.000000 0 1 0
-7.100468 2.255431 -19.462917 20.840075 -0.307566 2.776016 0.036784 -0.003792 506342.000000 0 1 0
-6.555568 3.389031 -20.348117 21.645019 -0.477131 2.793670 0.037515 -0.002201 -989365.000000 0 1 0
-6.610568 3.109531 -21.747617 22.941831 -0.439679 2.817519 0.039749 0.003604 214120.000000 0 1 0
-6.107868 4.205831 -22.473017 23.664986 -0.603029 2.822854 0.044316 -0.005995 -444823.000000 0 1 0
-5.480268 3.831331 -23.798717 24.720262 -0.610131 2.867684 0.067888 -0.021283 67293.700000 0 1 0
-4.282068 3.080731 -23.645017 24.226304 -0.623660 2.922090 0.076194 -0.024282 -8039.710000 0 1 0
-3.917668 2.486731 -24.871717 25.300874 -0.565578 2.957146 0.098934 -0.030022 464433.000000 0 0 1
-2.501468 1.810531 -24.881117 25.072003 -0.626513 3.018116 0.076339 -0.026995 -53181.700000 0 0 1
-1.496168 2.790231 -24.618117 24.820870 -1.078597 3.013688 0.061060 -0.027447 -570591.000000 0 1 0
-0.209968 2.268631 -24.701617 24.806464 -1.478507 3.049619 0.058596 -0.020912 -372527.000000 0 1 0
0.290432 1.335931 -23.576817 23.616421 1.356727 3.083671 0.059750 -0.022980 -1017070.000000 0 1 0
-0.151968 0.010631 -23.667217 23.667707 -0.069842 3.135156 0.044368 -0.022894 -267076.000000 0 1 0
0.706432 -0.858269 -22.964317 22.991205 -0.882134 3.093225 0.048916 -0.015423 -781253.000000 0 1 0
0.160332 -2.276769 -22.803817 22.917754 -1.500491 3.041836 0.052187 -0.024416 -290077.000000 0 1 0
-0.960468 -2.495969 -21.979217 22.141326 1.203455 3.020510 0.040668 -0.024793 63627.800000 0 1 0
-2.226068 -2.525969 -22.624317 22.873469 0.848425 2.993860 0.051790 -0.026077 5241.580000 0 1 0
-2.892868 -1.154969 -22.682517 22.895397 0.379857 3.005120 0.052489 -0.023883 -1997740.000000 0 1 0
-3.447968 -0.832969 -21.438517 21.729987 0.237041 2.977621 0.034998 -0.022520 123670.000000 0 1 0
-4.430568 0.183831 -21.402717 21.857264 -0.041468 2.937295 0.035022 -0.022070 439595.000000 0 1 0
-5.750068 -0.054569 -22.176017 22.909430 0.009490 2.887877 0.035589 -0.013980 -636041.000000 0 1 0
-6.459968 -1.120969 -21.588017 22.561698 0.171815 2.846735 0.039692 -0.012874 -1020740.000000 0 1 0
-7.827868 -1.083869 -21.764117 23.154418 0.137588 2.793296 0.045215 -0.009608 -661458.000000 0 1 0
-8.516468 -2.369069 -21.298417 23.060036 0.271316 2.748183 0.033437 -0.014071 -32503.500000 0 1 0
-8.350668 -3.409969 -22.297017 24.052411 0.387681 2.757178 0.042815 -0.019406 124360.000000 0 1 0
-9.031968 -4.528769 -21.739917 23.973113 0.464779 2.706535 0.042098 -0.018724 360219.000000 0 1 0
-10.130368 -5.095169 -22.703717 25.378019 0.466013 2.678379 0.052853 -0.030522 1405060.000000 0 0 1
-11.470568 -4.578169 -22.466317 25.637257 0.379750 2.638955 0.065877 -0.036571 1261280.000000 0 0 1
-12.326668 -5.165369 -23.431617 26.975330 0.396812 2.623229 0.058504 -0.042943 363255.000000 0 0 1
-13.866068 -5.176669 -23.225717 27.540872 0.357309 2.574224 0.098854 -0.039904 638207.000000 0 0 1
-14.466168 -3.874869 -23.456917 27.830048 0.261714 2.573378 0.089161 -0.042508 326984.000000 0 0 1
-15.880168 -3.964569 -23.510517 28.646848 0.244654 2.533434 0.096695 -0.038647 185946.000000 0 0 1
-16.620268 -2.683269 -23.855517 29.197926 0.160064 2.527034 0.088953 -0.036003 -305655.000000 0 0 1
-16.278768 -2.135869 -25.112087 30.002952 0.130461 2.562551 0.078924 -0.034717 268782.000000 0 0 1
-16.994168 -0.953069 -25.485097 30.646374 0.056023 2.552754 0.055686 -0.031476 1297330.000000 0 0 1
-18.466868 -1.027269 -26.098167 31.987416 0.055570 2.525061 0.067397 -0.028387 1224730.000000 0 0 1
-18.537568 -1.659669 -27.347547 33.079967 0.089292 2.544031 0.075349 -0.035921 6730.340000 0 0 1
-18.203668 -0.772269 -28.453587 33.787224 0.042398 2.572037 0.068070 -0.033690 -100431.000000 0 0 1
-18.303668 -1.453269 -29.839067 35.035784 0.079231 2.589968 0.060230 -0.033680 -108571.000000 0 0 1
-19.633868 -1.728069 -30.179587 36.045561 0.087788 2.563053 0.051026 -0.031333 -438937.000000 0 0 1
-19.644268 -2.330569 -31.440097 37.145773 0.118087 2.579981 0.051725 -0.038504 -834571.000000 0 0 1
-21.006968 -2.959169 -31.779347 38.209636 0.139945 2.552977 0.025592 -0.029845 461315.000000 0 0 1
-22.173068 -2.171869 -32.014657 39.003848 0.097639 2.533620 0.027528 -0.030970 730012.000000 0 0 1
-22.593668 -1.460169 -30.900707 38.307435 0.064538 2.509259 0.026392 -0.018427 -1430140.000000 0 0 1
-23.788068 -0.544069 -31.149127 39.197401 0.022868 2.489265 0.031026 -0.020122 -423394.000000 0 0 1
-23.452068 0.586131 -31.938097 39.628084 -0.024988 2.508068 0.036837 -0.020152 436482.000000 0 0 1
-24.555468 1.428631 -32.241347 40.552638 -0.058114 2.489885 0.044922 -0.020098 47257.300000 0 0 1
-24.172468 2.669731 -33.080077 41.057607 -0.109999 2.507651 0.045122 -0.014335 38327.300000 0 0 1
-23.554368 3.822931 -32.357757 40.205068 -0.160899 2.506165 0.036196 -0.011616 1090650.000000 0 0 1
-24.377868 4.504531 -31.390337 39.999056 -0.182719 2.473132 0.042324 -0.014182 954127.000000 0 0 1
-25.741928 5.129431 -31.887977 41.301343 -0.196687 2.452905 0.051899 -0.020630 1413760.000000 0 0 1
-26.871608 4.244531 -32.069887 42.054453 -0.156662 2.438088 0.079312 -0.029766 1154510.000000 0 0 1
-28.006828 4.926531 -32.607107 43.265188 -0.174123 2.424405 0.093283 -0.035582 215786.000000 0 0 1
-28.856148 3.989231 -33.483017 44.381343 -0.137375 2.425595 0.104437 -0.036089 -293696.000000 0 0 1
-28.325938 3.602231 32.897790 43.561444 -0.126492 0.714831 0.112036 -0.031978 288780.000000 0 0 1
-29.197008 2.825331 32.075727 43.466079 -0.096467 0.740771 0.119529 -0.030028 83332.900000 0 0 1
-29.449688 1.288931 32.378937 43.787453 -0.043739 0.738533 0.120882 -0.012713 -120064.000000 0 0 1
-30.095648 0.987131 33.578748 45.102714 -0.032788 0.731018 0.118480 -0.005643 280251.000000 0 0 1
-30.486418 -0.407969 33.512743 45.306645 0.013381 0.738191 0.115879 -0.002907 -491005.000000 0 0 1
-30.302368 -1.146469 -32.764007 44.643342 0.037816 2.394851 0.085735 -0.004715 -884539.000000 0 0 1
-29.052418 -1.688269 -32.511747 43.633782 0.058046 2.411489 0.082337 -0.014873 469445.000000 0 0 1
-28.021488 -0.749369 -32.073377 42.596559 0.026736 2.423340 0.068532 -0.009966 414801.000000 0 0 1
-28.200508 -0.205969 -30.602177 41.614953 0.007304 2.397001 0.087505 -0.011982 -682415.000000 0 0 1
-27.733788 -1.160569 -29.689567 40.644560 0.041822 2.389804 0.060190 -0.018529 257236.000000 0 0 1
-27.551368 -0.576869 -28.351417 39.537494 0.020935 2.370395 0.076073 -0.022658 -237385.000000 0 0 1
-26.435928 -1.154869 -27.449047 38.126659 0.043658 2.374517 0.077159 -0.023588 -66360.400000 0 0 1
-26.535838 -2.548769 -27.286357 38.146981 0.095756 2.367843 0.049051 -0.013966 5262.350000 0 0 1
-25.681408 -2.942869 -26.232177 36.828281 0.114094 2.363543 0.066402 -0.020044 -97737.400000 0 0 1
-25.821878 -4.310969 -25.572457 36.596508 0.165425 2.344470 0.044713 -0.027384 529486.000000 0 0 1
-26.905418 -4.317569 -24.619817 36.724355 0.159116 2.305537 0.058208 -0.019504 479336.000000 0 0 1
-26.943738 -5.433569 -23.801217 36.359134 0.198995 2.284469 0.034481 -0.016253 -399001.000000 0 0 1
-28.202738 -5.415869 -22.946817 36.759794 0.189724 2.244951 0.064926 -0.014934 -428240.000000 0 0 1
-28.241068 -6.475169 -21.973417 36.363674 0.225386 2.219644 0.061412 -0.020990 -101997.000000 0 0 1
-29.326428 -6.335969 -21.082517 36.669557 0.212779 2.183318 0.115828 -0.017836 -138602.000000 0 0 1
-29.404418 -7.575069 -20.218617 36.480048 0.252134 2.158243 0.130793 -0.023169 523231.000000 0 0 1
-28.284178 -7.835669 -19.342817 35.150206 0.270256 2.153508 0.124276 -0.032254 505208.000000 0 0 1
-28.553568 -8.745969 -18.323417 35.036350 0.297227 2.121143 0.148198 -0.035969 5393.810000 0 0 1
-29.285178 -8.204369 -17.057717 34.869743 0.273152 2.081950 0.151673 -0.035910 102478.000000 0 0 1
-28.438708 -7.409169 -16.235217 33.574367 0.254866 2.075513 0.119890 -0.036928 217124.000000 0 0 1
-28.981228 -6.877769 -15.035417 33.365836 0.233008 2.038260 0.137435 -0.036768 491964.000000 0 0 1
-27.927828 -5.907069 -14.334517 31.942689 0.208440 2.036171 0.153477 -0.036319 792341.000000 0 0 1
-27.792918 -4.640369 -14.947317 31.896733 0.165436 2.058520 0.155278 -0.032095 23462.100000 0 0 1
-26.834308 -3.867969 -14.251017 30.628953 0.143157 2.054746 0.129211 -0.036430 -224083.000000 0 0 1
-13.800868 20.827431 -5.162417 25.512671 -0.985594 1.774550 0.098107 -0.044897 -155669.000000 0 0 1
-14.289968 20.342231 -6.401117 25.670681 -0.958409 1.822811 0.122829 -0.042290 51338.200000 0 0 1
-15.201768 19.282131 -6.249817 25.336822 -0.903177 1.820038 0.125449 -0.053916 -174422.000000 0 0 1
-15.455968 18.628731 -7.615717 25.375494 -0.878215 1.875616 0.141850 -0.052518 436184.000000 0 0 1
-14.294168 17.930531 -8.130017 24.329495 -0.897767 1.911513 0.115470 -0.045346 650504.000000 0 1 0
-14.558468 16.951031 -9.109917 24.130417 -0.861184 1.957922 0.100763 -0.046802 -275604.000000 0 1 0
-15.154068 15.630231 -8.585617 23.402194 -0.800865 1.946441 0.109717 -0.044222 -848561.000000 0 1 0
-16.507668 15.778531 -8.346617 24.313189 -0.762818 1.921220 0.112301 -0.037100 -1107480.000000 0 1 0
-17.021368 14.893031 -7.399417 23.796653 -0.718808 1.886982 0.128529 -0.024625 -489188.000000 0 1 0
-18.499368 15.253131 -7.259617 25.051680 -0.689515 1.864799 0.149281 -0.021394 -191991.000000 0 0 1
-19.405768 14.519731 -8.088317 25.550485 -0.642359 1.892899 0.144431 -0.036594 -584739.000000 0 0 1
-20.692068 15.019931 -7.965617 26.780796 -0.627884 1.872804 0.121235 -0.038908 -794636.000000 0 0 1
-21.716668 14.156031 -8.712817 27.348127 -0.577675 1.895037 0.116349 -0.035234 -187507.000000 0 0 1
-22.132968 13.018031 -7.963017 26.883955 -0.531678 1.871508 0.159527 -0.034149 93729.800000 0 0 1
-23.036368 12.230231 -8.705417 27.496128 -0.488069 1.892945 0.177655 -0.038761 184612.000000 0 0 1
-23.231668 10.790131 -8.075617 26.858014 -0.434812 1.876200 0.175618 -0.048239 -859421.000000 0 0 1
-22.130068 9.960531 -8.186217 25.611838 -0.422929 1.896131 0.181870 -0.042603 -372943.000000 0 0 1
-22.111368 9.054131 -7.092817 24.923842 -0.388651 1.859364 0.196461 -0.044953 -339023.000000 0 1 0
-20.878868 8.144931 -7.173017 23.531239 -0.371946 1.880556 0.142098 -0.029087 -533334.000000 0 1 0
-21.027668 6.977431 -7.961917 23.542291 -0.320389 1.915796 0.168837 -0.033125 800327.000000 0 1 0
-19.858568 6.147131 -7.884117 22.233066 -0.300191 1.933296 0.115897 -0.016199 382734.000000 0 1 0
-19.825168 5.080331 -8.877917 22.308394 -0.250859 1.980092 0.117583 -0.023977 -821869.000000 0 1 0
-20.700968 4.040731 -8.681417 22.808432 -0.192771 1.961266 0.130600 -0.028613 -166779.000000 0 1 0
-20.468968 3.030131 -9.601517 22.811170 -0.146968 2.005248 0.120664 -0.025686 -296279.000000 0 1 0
-21.362968 1.807231 -9.501417 23.450360 -0.084395 1.987963 0.123822 -0.028883 -299565.000000 0 1 0
-21.130668 1.068031 -8.302817 22.728453 -0.050501 1.944757 0.122936 -0.032434 -162482.000000 0 1 0
-22.041568 0.045631 -8.055017 23.467341 -0.002070 1.921165 0.136715 -0.032280 -544792.000000 0 1 0
-21.935768 -1.255069 -8.858217 23.690106 0.057153 1.954029 0.104006 -0.043138 -513692.000000 0 1 0
-20.945668 -2.116969 -8.396617 22.665077 0.100727 1.950306 0.099290 -0.029922 -112949.000000 0 1 0
-20.947768 -3.434569 -8.895417 23.015944 0.162513 1.967618 0.079356 -0.029227 112995.000000 0 1 0
-22.018668 -4.359069 -8.243017 23.911724 0.195444 1.922744 0.095818 -0.027660 320724.000000 0 1 0
-21.759868 -4.623869 -6.875917 23.284120 0.209381 1.870571 0.104402 -0.024851 1464590.000000 0 1 0
-22.875568 -5.412469 -6.310417 24.339428 0.232332 1.833060 0.136555 -0.027648 1196060.000000 0 1 0
-22.906368 -6.963469 -6.547617 24.820614 0.295120 1.837753 0.133154 -0.032461 -595305.000000 0 1 0
-21.801568 -7.589469 -5.992217 23.849844 0.334995 1.824765 0.127653 -0.031357 -111773.000000 0 1 0
-21.828068 -8.978269 -6.290617 24.426332 0.390225 1.831266 0.130231 -0.027927 -760117.000000 0 1 0
-20.620368 -9.736569 -5.800317 23.529641 0.441147 1.819875 0.117740 -0.022998 -494982.000000 0 1 0
-19.386468 -9.428469 -6.439417 22.498828 0.452662 1.861067 0.103097 -0.024776 421688.000000 0 1 0
-18.322868 -9.937769 -5.649317 21.596331 0.496966 1.835462 0.092779 -0.021776 -294134.000000 0 1 0
-17.576168 -11.182769 -6.219417 21.740679 0.566646 1.860922 0.080832 -0.021130 -253772.000000 0 1 0
-16.528968 -10.905769 -7.130217 21.047151 0.583232 1.916409 0.079141 -0.030376 451432.000000 0 1 0
-16.961468 -10.524969 -8.443517 21.673932 0.555373 1.970961 0.078536 -0.032864 -59724.200000 0 1 0
-15.940668 -10.845569 -9.576417 21.527634 0.597430 2.031795 0.073406 -0.021399 398853.000000 0 1 0
-16.099468 -12.196169 -10.015717 22.544489 0.648316 2.031149 0.091741 -0.022109 194598.000000 0 1 0
-14.977668 -12.643769 -10.747117 22.353880 0.701102 2.072331 0.077157 -0.008350 261563.000000 0 1 0
-15.260068 -14.029369 -11.476517 23.693951 0.743404 2.076433 0.090507 -0.010293 270876.000000 0 1 0
-16.148268 -13.943069 -12.577017 24.766047 0.712245 2.103464 0.099857 -0.021250 21353.900000 0 1 0
-16.196268 -15.191569 -13.206617 25.836362 0.753400 2.107335 0.078591 -0.017709 133071.000000 0 0 1
-16.688168 -15.096569 -14.702717 26.880685 0.735366 2.149527 0.093792 -0.018194 106777.000000 0 0 1
-16.992168 -16.358769 -15.304817 28.117263 0.766409 2.146376 0.086105 -0.006919 179683.000000 0 0 1
-17.366868 -16.225469 -16.651117 29.019539 0.751433 2.181922 0.084472 -0.009711 -114567.000000 0 0 1
-18.066368 -17.511869 -17.200217 30.477970 0.769814 2.170441 0.100005 -0.020617 -804920.000000 0 0 1
-19.303968 -17.740769 -16.642117 31.053794 0.743226 2.136385 0.070215 -0.005994 -755373.000000 0 0 1
-20.312268 -17.961769 -17.658717 32.358054 0.724063 2.148055 0.054311 0.001871 1291760.000000 0 0 1
-21.730168 -17.908369 -16.966517 32.875105 0.689279 2.113076 0.048866 -0.000249 399182.000000 0 0 1
-22.044668 -16.644269 -16.458117 32.153828 0.646709 2.108140 0.040059 0.013389 323880.000000 0 0 1
-21.566168 -16.345269 -15.118717 30.997468 0.648546 2.080296 0.050339 0.000343 -235259.000000 0 0 1
-21.728668 -14.894169 -14.692217 30.163430 0.600902 2.079548 0.074186 -0.019835 723680.000000 0 0 1
-23.072468 -14.406169 -14.505217 30.826576 0.558159 2.060702 0.102901 -0.026873 1039580.000000 0 0 1
-23.166468 -13.034069 -14.048717 30.065572 0.512486 2.056996 0.106783 -0.030610 -1207560.000000 0 0 1
-24.559568 -12.573669 -13.757717 30.830898 0.473175 2.033346 0.127337 -0.040490 -902517.000000 0 0 1
-25.188298 -13.060469 -12.508417 31.007849 0.478348 1.986021 0.153744 -0.036346 -496371.000000 0 0 1
-26.468908 -12.599169 -12.429317 31.840698 0.444263 1.971818 0.158343 -0.045190 -1108140.000000 0 0 1
-27.404238 -13.143369 -11.302917 32.426784 0.447204 1.926838 0.190782 -0.045464 -96978.700000 0 0 1
-28.577378 -12.393869 -11.212717 33.105883 0.409212 1.916323 0.182037 -0.047715 14576.200000 0 0 1
-29.335878 -12.715469 -10.023117 33.507309 0.409001 1.874579 0.189046 -0.042961 520618.000000 0 0 1
-30.083528 -11.486769 -9.395417 33.544573 0.364744 1.854682 0.171900 -0.042529 25621.900000 0 0 1
-29.257558 -10.476869 -8.850417 32.312526 0.343865 1.848243 0.164706 -0.048589 -30832.500000 0 0 1
-29.975658 -9.560769 -8.077417 32.483735 0.308751 1.822093 0.173644 -0.054101 -494468.000000 0 0 1
-29.080538 -8.404569 -7.671217 31.227584 0.281344 1.818992 0.180727 -0.049403 -651267.000000 0 0 1
-28.072978 -8.831369 -6.817917 30.208759 0.304784 1.798451 0.168023 -0.045253 -497253.000000 0 0 1
-27.312988 -7.780369 -6.242417 29.077503 0.277509 1.787163 0.161083 -0.045452 9103.070000 0 0 1
-27.993378 -6.685069 -5.371917 29.277582 0.234418 1.755324 0.174007 -0.050975 -555323.000000 0 0 1
-28.622888 -6.971469 -4.126017 29.747186 0.238911 1.709948 0.176642 -0.048321 319851.000000 0 0 1
-27.750108 -7.205969 -3.012917 28.828322 0.254062 1.675500 0.179657 -0.032907 -153777.000000 0 0 1
-27.228608 -5.918269 -2.397317 27.967304 0.214026 1.656620 0.194095 -0.033413 -221690.000000 0 0 1
-28.191088 -5.063169 -1.807817 28.699152 0.177707 1.633830 0.201388 -0.039875 175950.000000 0 0 1
-27.562638 -4.027969 -1.097117 27.877001 0.145112 1.610162 0.186683 -0.042295 -23247.300000 0 0 1
-28.539198 -2.933769 -0.553217 28.694927 0.102438 1.590077 0.185241 -0.048609 -54129.400000 0 0 1
-29.391528 -3.124869 0.510083 29.561578 0.105921 1.553541 0.174269 -0.033954 -376011.000000 0 0 1
-28.750608 -3.302369 1.724683 28.990992 0.114361 1.511271 0.175795 -0.040542 122764.000000 0 0 1
-29.769888 -3.418369 2.914983 30.106953 0.114326 1.473823 0.170556 -0.035471 412137.000000 0 0 1
-30.313008 -4.704169 3.011683 30.823333 0.153958 1.472932 0.184573 -0.034965 200580.000000 0 0 1
-31.484708 -4.754369 3.821483 32.070151 0.149873 1.451352 0.210129 -0.042087 465970.000000 0 0 1
-32.246998 -6.097369 3.588883 33.014040 0.186877 1.461873 0.209918 -0.043979 -129320.000000 0 0 1
-31.437208 -7.186069 3.855783 32.477757 0.224724 1.451795 0.199884 -0.038298 281639.000000 0 0 1
-32.208848 -8.348769 3.517683 33.458720 0.253625 1.465467 0.209732 -0.049630 -16560.200000 0 0 1
-31.536228 -9.651169 3.757883 33.193379 0.296984 1.457341 0.183873 -0.036596 -256335.000000 0 0 1
-31.373408 -10.020869 5.121583 33.330754 0.309164 1.416526 0.164844 -0.028208 181364.000000 0 0 1
-30.740508 -11.282869 5.256683 33.164961 0.351770 1.411624 0.166609 -0.022790 -393717.000000 0 0 1
-30.471448 -11.617369 6.759483 33.304099 0.364243 1.366414 0.159112 -0.024328 -444657.000000 0 0 1
-29.411708 -10.934769 7.360083 32.230243 0.355947 1.340404 0.131108 -0.009381 -63673.600000 0 0 1
-29.146128 -11.328769 8.691883 32.455918 0.370717 1.299681 0.155864 -0.017607 -131609.000000 0 0 1
-29.716688 -10.382669 9.725583 32.946446 0.336130 1.271138 0.163038 -0.025321 -280225.000000 0 0 1
-28.995398 -9.167769 9.703783 31.920910 0.306234 1.261913 0.141878 -0.006635 412375.000000 0 0 1
-29.382808 -8.275769 10.732583 32.357783 0.274541 1.232707 0.148855 -0.002116 165588.000000 0 0 1
-28.303478 -7.163669 10.883883 31.158689 0.247896 1.213967 0.152215 0.000396 241790.000000 0 0 1
-28.295218 -6.241269 9.779883 30.581349 0.217100 1.245279 0.169269 -0.003693 505165.000000 0 0 1
-27.471408 -5.128069 10.142783 29.729638 0.184545 1.222638 0.155832 -0.011945 79459.500000 0 0 1
-27.503238 -4.025969 8.993183 29.214960 0.145349 1.257887 0.175448 -0.029572 255731.000000 0 0 1
-26.712158 -4.248569 7.813683 28.153923 0.157729 1.289570 0.142364 -0.018583 649562.000000 0 0 1
-27.238578 -3.408069 6.791783 28.278673 0.124472 1.328252 0.159153 -0.043979 92917.200000 0 0 1
-26.528528 -3.692669 5.464083 27.335962 0.138307 1.369554 0.147159 -0.026797 -918024.000000 0 0 1
-25.193988 -3.336569 5.452983 25.992398 0.131669 1.359435 0.172642 -0.047525 -678352.000000 0 0 1
-24.563968 -3.916669 4.333783 25.248970 0.158117 1.398300 0.180297 -0.040656 21036.200000 0 0 1
-23.024768 -3.709369 4.352783 23.724377 0.159731 1.386278 0.169415 -0.039008 240960.000000 0 1 0
-22.668668 -2.359569 4.334383 23.199632 0.103716 1.382862 0.140490 -0.039263 919773.000000 0 1 0
-21.232868 -2.238869 4.296583 21.778610 0.105055 1.372209 0.118729 -0.027669 820199.000000 0 1 0
-20.708968 -0.854769 4.695183 21.251746 0.041252 1.348027 0.098338 -0.034970 -262553.000000 0 1 0
-21.028968 0.182331 3.793383 21.369148 -0.008670 1.392334 0.120486 -0.029648 1376500.000000 0 1 0
-22.372168 0.707231 3.790583 22.702039 -0.031602 1.403040 0.128031 -0.047851 652047.000000 0 1 0
-22.421568 1.853531 2.737983 22.664043 -0.082480 1.449693 0.148118 -0.032132 -291099.000000 0 1 0
-21.696268 2.995831 3.070183 22.116262 -0.137213 1.431526 0.111003 -0.035856 84580.200000 0 1 0
-21.950268 4.068931 2.169383 22.429371 -0.183290 1.473924 0.137290 -0.021601 718229.000000 0 1 0
-20.811368 4.268331 1.076083 21.271804 -0.202291 1.520187 0.116833 -0.011599 357298.000000 0 1 0
-21.087868 5.067131 -0.073117 21.688230 -0.235816 1.574168 0.137013 -0.003568 468891.000000 0 1 0
-21.991568 4.493731 -1.027517 22.469501 -0.201564 1.616542 0.174719 -0.013992 79641.700000 0 1 0
-21.501768 3.277131 -1.847717 21.828414 -0.151248 1.655545 0.163414 -0.017350 -332192.000000 0 1 0
-21.274668 2.127731 -1.057317 21.406930 -0.099681 1.620208 0.115979 -0.018887 450272.000000 0 1 0
-20.943068 0.989231 -1.829817 21.046114 -0.047199 1.657849 0.115689 -0.016728 -66963.800000 0 1 0
-20.045368 0.074331 -0.958517 20.068409 -0.003708 1.618577 0.104168 -0.017427 237792.000000 0 1 0
-20.774768 -0.632869 0.038483 20.784441 0.030454 1.568945 0.119802 -0.022291 970093.000000 0 1 0
-19.822268 -1.258669 0.875783 19.881487 0.063413 1.526732 0.085828 -0.020534 77326.600000 0 1 0
-19.166168 -2.546469 0.351983 19.337797 0.132089 1.552593 0.065270 -0.017354 -457511.000000 0 1 0
-18.390668 -3.218969 1.283383 18.714313 0.173277 1.502165 0.056280 -0.015044 347769.000000 0 1 0
-17.662268 -4.363169 0.813783 18.211403 0.242185 1.526096 0.040552 -0.011647 -614207.000000 0 1 0
-18.470268 -5.575869 0.447483 19.298740 0.293184 1.547607 0.040685 -0.014542 -582504.000000 0 1 0
-19.132568 -5.927869 1.668083 20.099186 0.300452 1.487708 0.057997 -0.020109 317749.000000 0 1 0
-20.195768 -6.826569 1.437883 21.366764 0.325962 1.503450 0.078388 -0.025201 -626572.000000 0 1 0
-20.944568 -7.120869 2.713183 22.287733 0.327726 1.448759 0.093803 -0.018767 -661439.000000 0 1 0
-20.313468 -7.916069 3.712883 22.115303 0.371592 1.402110 0.083907 -0.014426 384068.000000 0 1 0
-21.172668 -8.505169 4.663483 23.288792 0.381975 1.369188 0.091310 -0.014467 156985.000000 0 1 0
-20.337368 -9.401569 5.641383 23.104615 0.433019 1.324136 0.073767 0.003112 234954.000000 0 1 0
-19.839968 -10.548769 4.960883 23.011111 0.488679 1.353504 0.075640 -0.003441 177569.000000 0 1 0
-18.915268 -11.131669 5.853383 22.714830 0.531922 1.310166 0.074515 -0.010265 -27033.100000 0 1 0
-18.300768 -12.467069 5.275483 22.763493 0.598019 1.336918 0.057205 -0.007591 251495.000000 0 1 0
-19.210468 -13.599169 5.320983 24.130734 0.616011 1.348463 0.080054 -0.007823 338838.000000 0 1 0
-18.810068 -14.718069 4.585583 24.320111 0.663952 1.381110 0.085728 -0.008304 -288096.000000 0 1 0
-19.601468 -15.981069 4.934083 25.767369 0.684001 1.378121 0.093618 -0.017309 319039.000000 0 0 1
-18.903568 -17.199069 4.595283 25.966699 0.738221 1.392891 0.094044 -0.026297 627429.000000 0 0 1
-19.629368 -18.299869 5.139883 27.324269 0.750360 1.381562 0.094895 -0.029922 573526.000000 0 0 1
-18.726468 -19.581369 5.063483 27.563553 0.807711 1.386045 0.097843 -0.035217 -218301.000000 0 0 1
-18.442868 -20.016869 3.766483 27.477278 0.826301 1.433287 0.103257 -0.033263 451031.000000 0 0 1
-17.588968 -21.161969 3.684083 27.762802 0.877342 1.437705 0.093431 -0.032728 -139350.000000 0 0 1
-16.089868 -20.886069 3.903283 26.652342 0.914389 1.423816 0.091518 -0.030775 -626413.000000 0 0 1
-15.459868 -22.153469 3.864883 27.289577 0.961513 1.428694 0.076808 -0.030654 1266830.000000 0 0 1
-14.057168 -22.081569 4.274083 26.522961 1.003898 1.408944 0.075232 -0.025829 1531750.000000 0 0 1
-13.428368 -23.487669 4.448783 27.418667 1.051431 1.407822 0.083977 -0.026069 -295928.000000 0 0 1
-13.136068 -24.050069 3.234583 27.593924 1.070878 1.453305 0.085982 -0.026911 370391.000000 0 0 1
-12.535668 -25.363469 3.400783 28.495857 1.111766 1.451168 0.101344 -0.023542 258201.000000 0 0 1
19.682232 19.348431 -24.215517 36.717071 0.776846 2.290972 0.081667 -0.007511 54714.200000 0 0 1
18.588032 19.604531 -25.087177 36.867588 0.812007 2.319196 0.065156 -0.013189 363836.000000 0 0 1
18.921032 19.161231 -26.397187 37.709014 0.791705 2.346226 0.076466 -0.005954 695355.000000 0 0 1
17.695032 19.337531 -27.360777 37.890188 0.829722 2.377640 0.066720 -0.008817 597316.000000 0 0 1
17.668832 20.632531 -27.899157 38.939079 0.862623 2.369543 0.060851 0.001823 158188.000000 0 0 1
16.732732 20.782131 -28.944447 39.365750 0.892923 2.396861 0.062029 0.005555 -217051.000000 0 0 1
16.480932 22.251231 -29.362517 40.359581 0.933290 2.385501 0.047954 0.009066 -210705.000000 0 0 1
15.795932 23.014231 -28.368057 39.798404 0.969287 2.364270 0.057108 -0.000307 413999.000000 0 0 1
15.953432 24.461731 -28.567677 40.853402 0.992891 2.345176 0.058153 0.005308 -346644.000000 0 0 1
15.186332 25.205131 -27.487187 40.267465 1.028534 2.322132 0.062285 -0.006963 428848.000000 0 0 1
13.787532 24.898931 -27.441687 39.536047 1.065086 2.337955 0.076573 -0.018469 495261.000000 0 0 1
13.185232 25.504231 -26.333927 38.958848 1.093655 2.313039 0.079685 -0.016966 -568747.000000 0 0 1
11.658632 25.302531 -26.307397 38.317371 1.139023 2.327551 0.113061 -0.023646 -70444.200000 0 0 1
10.971032 26.080331 -25.371977 38.003742 1.172605 2.301801 0.106090 -0.028741 -132180.000000 0 0 1
10.575832 27.352231 -25.887927 39.117484 1.201848 2.294013 0.120399 -0.039568 -120760.000000 0 0 1
10.041832 28.334831 -24.777817 38.956915 1.230208 2.260141 0.138515 -0.045389 541235.000000 0 0 1
11.045832 28.722031 -23.817617 38.913293 1.203656 2.229470 0.125555 -0.039863 191397.000000 0 0 1
10.524432 29.533831 -22.781917 38.755988 1.228474 2.199170 0.147682 -0.051897 -158559.000000 0 0 1
11.527732 29.966131 -21.675617 38.738740 1.203556 2.164619 0.118025 -0.054387 207520.000000 0 0 1
12.630032 30.738231 -22.109617 39.914806 1.180937 2.157862 0.116057 -0.058824 416.303000 0 0 1
13.394132 31.243331 -21.060517 39.988672 1.165793 2.125465 0.102290 -0.048795 -147670.000000 0 0 1
14.656832 32.019431 -21.465317 41.241078 1.141518 2.118214 0.096922 -0.033125 62666.700000 0 0 1
15.734532 31.244531 -21.948117 41.297894 1.104278 2.131118 0.089264 -0.032347 430151.000000 0 0 1
16.765532 32.049731 -22.535917 42.616146 1.088832 2.127996 0.090497 -0.030296 -120056.000000 0 0 1
17.968332 31.289531 -23.063017 42.822873 1.049518 2.139533 0.041281 -0.014249 -29375.900000 0 0 1
18.774032 30.807931 -21.933617 42.221753 1.023501 2.117046 0.045236 -0.005024 1160110.000000 0 0 1
20.073532 30.526831 -22.510317 42.913267 0.989118 2.122987 0.028232 0.003875 607927.000000 0 0 1
21.014132 29.711931 -21.632917 42.336458 0.955213 2.107116 0.036439 0.008933 57330.000000 0 0 1
21.646432 30.423331 -20.549217 42.619449 0.952389 2.073910 0.030489 0.017694 809574.000000 0 0 1
22.634532 29.582231 -19.906317 42.233777 0.917676 2.061602 0.042380 0.008762 516042.000000 0 0 1
23.244432 30.275831 -18.682717 42.496747 0.916028 2.025980 0.057007 -0.004958 -544392.000000 0 0 1
24.130732 31.302331 -18.990317 43.849291 0.914058 2.018705 0.033578 -0.002009 -160567.000000 0 0 1
24.646432 31.910331 -17.822317 44.083453 0.913134 1.986994 0.054251 -0.002183 12868.200000 0 0 1
25.892632 32.796931 -18.178317 45.568830 0.902501 1.981135 0.041677 0.002675 369607.000000 0 0 1
27.034532 31.971431 -18.240217 45.669945 0.868872 1.981650 0.043348 -0.000692 -958990.000000 0 0 1
28.187532 32.734831 -18.308217 46.917981 0.859901 1.971664 0.051573 -0.008588 -24640.000000 0 0 1
29.424032 32.004331 -18.921217 47.413746 0.827378 1.981294 0.064352 -0.018154 419880.000000 0 0 1
29.965932 30.969931 -18.126717 46.751167 0.801873 1.968961 0.061239 -0.009700 211421.000000 0 0 1
31.237932 30.563531 -18.627917 47.507232 0.774486 1.973717 0.050960 -0.011128 292360.000000 0 0 1
31.837232 29.419531 -17.781617 46.854072 0.745950 1.960064 0.044629 -0.017097 -318881.000000 0 0 1
32.147632 29.848831 -16.460117 46.854652 0.748336 1.929757 0.050657 -0.017426 34446.200000 0 0 1
32.219232 28.737831 -15.573217 45.896263 0.728348 1.916983 0.048918 -0.019781 -557766.000000 0 0 1
32.724332 29.030431 -14.122017 45.968241 0.725654 1.883059 0.059463 -0.028421 823670.000000 0 0 1
34.059532 29.549831 -14.019717 47.220723 0.714620 1.872238 0.029872 -0.021832 601934.000000 0 0 1
34.139832 30.909231 -14.290717 48.219636 0.735775 1.871683 0.040875 -0.015793 -402365.000000 0 0 1
35.601132 31.355631 -14.516317 49.611890 0.722076 1.867738 0.036678 -0.024719 230665.000000 0 0 1
36.334032 31.307631 -13.293417 49.769917 0.711225 1.841176 0.035497 -0.024760 -830027.000000 0 0 1
-37.633225 31.621931 -13.577617 50.995665 -0.698816 1.840297 0.028026 -0.026709 -400659.000000 0 0 1
-36.752125 31.847531 -12.320517 50.167510 -0.714024 1.818922 0.033202 -0.024991 -211344.000000 0 0 1
-37.188125 33.026231 -11.686417 51.090713 -0.726193 1.801578 0.045914 -0.029708 656895.000000 0 0 1
-36.248525 33.524531 -10.703917 50.521516 -0.746377 1.784283 0.044631 -0.027380 412256.000000 0 0 1
-36.865425 -32.909965 -9.956517 50.410888 0.728770 1.769611 0.045158 -0.021178 157185.000000 0 0 1
-36.053525 -32.266865 -8.971817 49.208747 0.730030 1.754143 0.049709 -0.024065 -183294.000000 0 0 1
-35.849625 -32.974365 -7.752017 49.321376 0.743645 1.728624 0.046893 -0.023795 435464.000000 0 0 1
-35.417725 -31.904365 -6.674817 48.133740 0.733258 1.709917 0.049446 -0.031419 826376.000000 0 0 1
-36.584025 -31.102665 -6.442417 48.448647 0.704593 1.704165 0.047457 -0.018563 649530.000000 0 0 1
-36.308125 -30.257765 -5.405217 47.571301 0.694754 1.684666 0.066642 -0.018280 419895.000000 0 0 1
37.639632 -29.556365 -5.093617 48.127597 -0.665680 1.676831 0.070569 -0.014168 177290.000000 0 0 1
36.619332 -30.446565 -4.678917 47.852493 -0.693616 1.668731 0.050529 -0.006182 479440.000000 0 0 1
35.429532 -29.801265 -4.203517 46.486952 -0.699329 1.661344 0.048769 0.002726 209873.000000 0 0 1
35.447132 -29.022365 -2.869117 45.902382 -0.686070 1.633342 0.046563 0.000777 -724119.000000 0 0 1
36.170832 -27.830865 -2.893517 45.730281 -0.655820 1.634112 0.075688 -0.010281 195623.000000 0 0 1
35.563932 -26.881465 -2.057817 44.627806 -0.647243 1.616923 0.069222 -0.009489 -65632.000000 0 0 1
36.205532 -25.503365 -2.330817 44.347434 -0.613676 1.623379 0.076050 -0.027308 -55227.800000 0 0 1
35.724632 -24.992565 -3.559517 43.744118 -0.610450 1.652258 0.083136 -0.023246 371164.000000 0 0 1
35.887432 -23.592765 -3.555817 43.094897 -0.581567 1.653402 0.092359 -0.032032 -169374.000000 0 0 1
35.307432 -23.021665 -4.827217 42.425392 -0.577804 1.684825 0.083771 -0.031725 -552621.000000 0 0 1
36.124832 -23.318165 -5.933917 43.404512 -0.573197 1.707938 0.079573 -0.028199 323337.000000 0 0 1
35.568932 -22.831665 -7.162317 42.868784 -0.570659 1.738659 0.070258 -0.028913 -35885.600000 0 0 1
36.600932 -22.657065 -8.296717 43.838412 -0.554295 1.761202 0.063769 -0.023633 93540.200000 0 0 1
37.282932 -23.848465 -8.660917 45.097426 -0.569073 1.764046 0.057011 -0.015159 649291.000000 0 0 1
-36.997125 -23.603865 -9.664917 44.937071 0.567887 1.787567 0.058201 -0.012632 702887.000000 0 0 1
-36.352525 -24.866965 -10.261217 45.223496 0.599941 1.799690 0.053828 -0.015174 -159452.000000 0 0 1
-35.526025 -25.632865 -9.419217 44.809194 0.625026 1.782583 0.062489 -0.015491 -172375.000000 0 0 1
-36.216425 -26.695665 -8.853917 45.854987 0.635203 1.765102 0.054333 -0.016958 -659024.000000 0 0 1
-35.350225 -27.822465 -8.361117 45.756270 0.666796 1.754560 0.055926 -0.018874 -635445.000000 0 0 1
-34.704225 -28.464265 -9.471317 45.872688 0.686935 1.778762 0.054382 -0.024702 138028.000000 0 0 1
-34.112625 -29.665165 -9.035417 46.101323 0.715777 1.768064 0.053469 -0.026712 -352149.000000 0 0 1
-33.722325 -30.600665 -10.220817 46.669701 0.736905 1.791589 0.055835 -0.022816 253834.000000 0 0 1
-32.409225 -30.290365 -10.727617 45.639302 0.751617 1.808069 0.048699 -0.005208 842811.000000 0 0 1
-32.122725 -31.036865 -11.846817 46.211509 0.768208 1.830052 0.045722 -0.007204 -190022.000000 0 0 1
-32.292825 -30.310365 -13.189517 46.211558 0.753742 1.860237 0.033383 -0.003778 -276439.000000 0 0 1
-31.363825 -29.282365 -13.474717 44.974597 0.751090 1.875077 0.038143 0.004874 -240939.000000 0 0 1
-31.598525 -28.794665 -14.788517 45.236045 0.739005 1.903838 0.026577 0.022226 -43491.900000 0 0 1
-30.533425 -27.870165 -15.421517 44.123229 0.739829 1.927845 0.041101 0.005697 264208.000000 0 0 1
-29.354325 -28.598665 -15.722917 43.894990 0.772360 1.937129 0.064563 -0.003191 704574.000000 0 0 1
-28.219225 -27.757165 -16.043317 42.710337 0.777144 1.955874 0.092015 0.007517 907117.000000 0 0 1
-27.039825 -28.543765 -16.667017 42.704661 0.812449 1.971738 0.112240 -0.011263 -229014.000000 0 0 1
-27.171525 -29.074965 -17.997717 43.675659 0.819226 1.995528 0.099517 -0.017329 -274617.000000 0 0 1
-27.366925 -28.165165 -19.057517 43.651049 0.799772 2.022599 0.074267 0.001045 -55676.800000 0 0 1
-26.195525 -27.251965 -19.469317 42.519753 0.805162 2.046415 0.090889 -0.004827 54319.100000 0 0 1
-25.696125 -26.390265 -18.473817 41.207024 0.798724 2.035678 0.095755 -0.008643 -721550.000000 0 0 1
-24.327925 -26.183365 -18.679917 40.328102 0.822115 2.052397 0.109483 -0.023624 -203828.000000 0 0 1
-23.823025 -25.006865 -17.817917 38.863324 0.809638 2.047076 0.107508 -0.024463 -51608.500000 0 0 1
-24.037725 -25.301565 -16.455817 38.584651 0.811008 2.011401 0.124710 -0.028520 -83605.100000 0 0 1
-23.770325 -24.133365 -15.757717 37.359782 0.792977 2.006207 0.132408 -0.031271 -127691.000000 0 0 1
-24.295325 -24.139765 -14.307717 37.117406 0.782186 1.966516 0.121261 -0.022238 737996.000000 0 0 1
-25.714425 -23.967165 -14.252117 37.931247 0.750243 1.955987 0.097068 -0.000271 288786.000000 0 0 1
-26.150625 -23.924365 -12.920917 37.725065 0.740969 1.920375 0.099243 -0.002563 -184220.000000 0 0 1
-27.684025 -23.868165 -12.859917 38.748832 0.711514 1.909091 0.108014 0.021566 -1040350.000000 0 0 1
-28.288025 -25.091265 -13.285917 40.078667 0.725582 1.908685 0.106296 0.011077 1435270.000000 0 0 1
-29.687925 -25.253965 -12.923817 41.062887 0.704870 1.890971 0.091236 0.013268 1586780.000000 0 0 1
-30.710725 -24.189765 -13.493917 41.356731 0.667174 1.903163 0.092462 0.013337 -887273.000000 0 0 1
-30.910425 -22.955265 -12.799917 40.573839 0.638773 1.891751 0.105629 0.007182 325373.000000 0 0 1
-31.435125 -23.070965 -11.468917 40.644465 0.633132 1.856858 0.114616 0.000574 405443.000000 0 0 1
-32.932825 -23.548765 -11.226117 42.013581 0.620758 1.841285 0.078783 -0.000290 1094660.000000 0 0 1
-34.015125 -22.677465 -11.493817 42.466504 0.588017 1.844871 0.096473 -0.014453 348449.000000 0 0 1
-34.124725 -22.286365 -12.834917 42.730715 0.578541 1.875874 0.096796 -0.006576 -873503.000000 0 0 1
-35.565725 -21.814765 -13.154217 43.747436 0.550189 1.876208 0.056734 -0.017386 604885.000000 0 0 1
-36.456425 -22.941665 -13.242017 45.063754 0.561678 1.869049 0.060129 -0.012129 921581.000000 0 0 1
37.464032 -22.599465 -13.497817 45.787341 -0.542792 1.870036 0.071152 -0.027109 1025610.000000 0 0 1
36.502032 -23.674665 -12.896817 45.378585 -0.575380 1.858973 0.054754 -0.010537 -53847.900000 0 0 1
36.518632 -24.860465 -13.631317 46.232738 -0.597697 1.870086 0.035113 -0.000986 244124.000000 0 0 1
35.638632 -25.807265 -13.024017 45.888474 -0.626743 1.858571 0.034446 -0.012663 365548.000000 0 0 1
35.545432 -27.101765 -13.919417 46.815954 -0.651424 1.872683 0.033251 -0.009364 423074.000000 0 0 1
34.541132 -27.017365 -14.925117 46.322640 -0.663780 1.898848 0.038740 -0.010509 102227.000000 0 0 1
34.604332 -27.992565 -15.950617 47.280712 -0.680164 1.914907 0.039187 -0.003941 -341669.000000 0 0 1
33.762132 -27.661565 -17.192017 46.910651 -0.686403 1.946024 0.041759 -0.011168 -50256.000000 0 0 1
32.391832 -27.821065 -16.893717 45.919932 -0.709633 1.947541 0.092364 -0.014816 -23174.900000 0 0 1
31.558832 -27.596765 -18.047517 45.642680 -0.718521 1.977309 0.093243 -0.015799 -169229.000000 0 0 1
30.103132 -27.851665 -17.698717 44.667196 -0.746569 1.978209 0.100582 -0.023365 -284854.000000 0 0 1
29.469632 -26.797265 -16.922817 43.277412 -0.737939 1.972548 0.096175 -0.026784 480810.000000 0 0 1
28.067232 -26.920565 -16.756017 42.346788 -0.764548 1.977611 0.116008 -0.031148 411396.000000 0 0 1
27.392632 -25.922565 -15.796717 40.888531 -0.757832 1.967452 0.107064 -0.036536 60214.200000 0 0 1
27.196532 -24.626965 -16.271517 40.136032 -0.735856 1.988223 0.121497 -0.039356 -54863.300000 0 0 1
27.041032 -23.758165 -15.175817 39.063708 -0.720864 1.969787 0.119812 -0.032712 -71352.400000 0 0 1
26.815132 -22.305465 -15.638617 38.225010 -0.693847 1.992286 0.119821 -0.028987 642203.000000 0 0 1
25.470532 -21.999965 -16.039717 37.282958 -0.712418 2.015528 0.127520 -0.025234 732758.000000 0 0 1
25.312032 -20.642465 -16.361817 36.531074 -0.684133 2.035198 0.120033 -0.021517 764907.000000 0 0 1
23.776032 -20.297965 -16.343217 35.276165 -0.706647 2.052504 0.102395 -0.017443 831064.000000 0 0 1
23.324732 -20.122665 -15.010617 34.267819 -0.711831 2.024212 0.103549 -0.018467 103817.000000 0 0 1
21.965532 -19.732765 -15.010817 33.123877 -0.731903 2.041117 0.084881 -0.016271 158051.000000 0 0 1
21.550132 -18.465765 -14.254517 31.758210 -0.708472 2.036269 0.072343 -0.009197 -113514.000000 0 0 1
21.624732 -18.599865 -12.835717 31.278421 -0.710340 1.993656 0.082404 -0.023499 210312.000000 0 0 1
21.161832 -17.400265 -12.206817 29.993312 -0.688160 1.989947 0.079630 -0.038552 -510888.000000 0 0 1
20.240132 -17.719565 -11.050417 29.081913 -0.719094 1.960566 0.086394 -0.030398 -540476.000000 0 0 1
20.835232 -18.128165 -9.850017 29.321666 -0.716032 1.913388 0.091474 -0.035654 346735.000000 0 0 1
19.802232 -18.441565 -8.911017 28.489050 -0.749834 1.888923 0.075757 -0.036260 557626.000000 0 0 1
20.407432 -18.978365 -7.600417 28.886121 -0.749130 1.837047 0.074924 -0.035796 180269.000000 0 0 1
21.283432 -18.044765 -6.942917 28.754167 -0.703234 1.814664 0.075592 -0.035973 145824.000000 0 0 1
21.895232 -18.712665 -5.865217 29.393295 -0.707185 1.771688 0.077609 -0.026113 -1432470.000000 0 0 1
23.256932 -18.135965 -5.604417 30.020120 -0.662308 1.758587 0.082247 -0.024742 -1389160.000000 0 0 1
24.028132 -18.399965 -6.762917 31.010432 -0.653516 1.790648 0.081113 -0.040265 -151981.000000 0 0 1
24.978832 -17.409765 -7.042717 31.251269 -0.608697 1.798107 0.096844 -0.027268 -682806.000000 0 0 1
26.031632 -17.778665 -8.078717 32.542165 -0.599201 1.821674 0.118355 -0.044614 -306237.000000 0 0 1
27.023532 -18.679065 -7.630617 33.725437 -0.604805 1.799030 0.142839 -0.056219 104692.000000 0 0 1
27.453932 -19.438065 -8.729717 34.752910 -0.616091 1.824710 0.139855 -0.063693 -474620.000000 0 0 1
28.565932 -20.450665 -8.490017 36.143085 -0.621325 1.807912 0.142228 -0.067752 -155531.000000 0 0 1
29.849932 -19.913365 -8.241117 36.816797 -0.588314 1.796550 0.128919 -0.049046 -161593.000000 0 0 1
30.721832 -21.007265 -8.114717 38.091794 -0.599763 1.785472 0.123074 -0.054597 -346319.000000 0 0 1
-31.299698 29.701831 4.485383 43.381892 -0.759210 1.467218 0.097397 -0.014381 195773.000000 0 0 1
-30.678938 30.429631 3.453483 43.348428 -0.781318 1.491044 0.082769 -0.007008 -1133950.000000 0 0 1
-29.503058 30.947831 3.962383 42.940647 -0.809294 1.478389 0.082253 -0.006200 -632722.000000 0 0 1
-28.913908 31.923231 2.922483 43.169986 -0.834823 1.503047 0.076553 -0.009708 -510928.000000 0 0 1
-28.280088 31.291931 1.791083 42.215593 -0.835913 1.528357 0.085405 -0.010174 301286.000000 0 0 1
-27.732928 32.201031 0.835383 42.505524 -0.859811 1.551142 0.081109 -0.021262 431992.000000 0 0 1
-26.574618 33.136131 1.304183 42.496051 -0.894847 1.540102 0.103330 -0.013576 -362546.000000 0 0 1
-25.312268 32.548031 1.512083 41.259806 -0.909808 1.534140 0.082474 -0.012595 -341416.000000 0 0 1
-24.581268 33.429831 2.332783 41.560007 -0.936764 1.514636 0.079657 -0.017870 222607.000000 0 0 1
-23.044568 33.231131 2.348183 40.507705 -0.964471 1.512795 0.078863 -0.034507 262554.000000 0 0 1
-22.409168 33.659731 1.177083 40.454095 -0.983424 1.541695 0.115931 -0.037606 -273502.000000 0 0 1
-21.030568 33.372431 1.161083 39.463300 -1.008482 1.541370 0.114651 -0.042182 -329864.000000 0 0 1
-20.314268 -33.818165 -0.162217 39.450780 1.029869 1.574908 0.126113 -0.043606 192172.000000 0 0 1
-19.979868 -32.447765 -0.271917 38.106778 1.018873 1.577932 0.120758 -0.039760 443564.000000 0 0 1
-19.007468 -32.000365 0.670083 37.225747 1.034818 1.552795 0.127287 -0.031735 -257347.000000 0 0 1
-18.638568 -30.501665 0.542083 35.749708 1.022279 1.555632 0.128934 -0.034126 120338.000000 0 0 1
-17.730168 -30.138865 -0.506817 34.970944 1.039037 1.585289 0.141414 -0.028577 364908.000000 0 0 1
-17.620068 -28.761165 -0.565417 33.734124 1.021139 1.587558 0.106039 -0.027289 -162946.000000 0 0 1
-16.597868 -28.105265 -1.497317 32.674717 1.037346 1.616637 0.091791 -0.024172 -445813.000000 0 0 1
-16.948668 -28.248065 -2.842817 33.064968 1.030381 1.656879 0.094139 -0.028068 -329831.000000 0 0 1
-15.978568 -27.609965 -3.657317 32.109201 1.046167 1.684947 0.069149 -0.012997 -215393.000000 0 0 1
-16.165568 -27.520865 -5.187917 32.336328 1.039698 1.731929 0.094927 -0.023773 -270736.000000 0 0 1
-17.212368 -26.682465 -5.594817 32.241612 0.997886 1.745207 0.098891 -0.017403 -280481.000000 0 0 1
-17.380768 -26.705865 -6.977117 32.618622 0.993843 1.786362 0.111357 -0.032489 1203760.000000 0 0 1
-18.338568 -25.474565 -7.477317 32.267116 0.946854 1.804654 0.106725 -0.021169 944982.000000 0 0 1
-17.634068 -24.348065 -7.125617 30.896004 0.943980 1.803524 0.059332 -0.010914 333170.000000 0 0 1
-18.404268 -23.163565 -7.265717 30.464052 0.899396 1.811619 0.049266 0.002744 479424.000000 0 0 1
-17.446268 -21.985465 -6.883417 28.898345 0.900009 1.811302 0.058413 0.006403 712889.000000 0 0 1
-16.355168 -21.950365 -7.777917 28.457091 0.930440 1.847640 0.072299 -0.007383 -232275.000000 0 0 1
-15.233068 -21.213365 -7.291417 27.114903 0.948033 1.843056 0.100241 -0.021530 661689.000000 0 0 1
-14.098768 -21.115865 -8.320617 26.718676 0.982088 1.887479 0.096198 -0.018012 175882.000000 0 0 1
-14.574768 -20.392065 -9.433817 26.781655 0.950254 1.930770 0.114237 -0.013276 -55454.800000 0 0 1
-13.547868 -20.287465 -10.405117 26.521546 0.982013 1.973956 0.112082 -0.012297 353961.000000 0 0 1
-13.901968 -19.381465 -11.627117 26.534802 0.948566 2.024373 0.122689 -0.012330 604657.000000 0 0 1
-15.060168 -19.859365 -12.336217 27.809805 0.921978 2.030399 0.105924 0.003177 318021.000000 0 0 1
-15.469868 -18.916065 -13.307117 27.824696 0.885286 2.069455 0.123778 -0.018521 459005.000000 0 0 1
-16.772068 -19.410165 -14.005017 29.226653 0.858181 2.070524 0.132894 -0.020867 549491.000000 0 0 1
-17.951968 -19.439865 -13.215017 29.577325 0.825169 2.033977 0.115745 -0.017762 329594.000000 0 0 1
-19.073368 -19.654365 -14.068117 30.789598 0.800399 2.045316 0.100383 -0.014570 1155590.000000 0 0 1
-20.458668 -19.545565 -13.286017 31.258670 0.762577 2.009796 0.071477 -0.009641 2143740.000000 0 0 1
-21.536968 -20.023665 -14.151517 32.635158 0.749002 2.019311 0.074122 -0.015888 2098240.000000 0 0 1
-22.899168 -19.691665 -13.743417 33.181547 0.710230 1.997847 0.070596 -0.008560 1253580.000000 0 0 1
-23.906668 -20.420165 -14.629117 34.677413 0.706905 2.006295 0.088805 -0.014362 -524534.000000 0 0 1
-24.143368 -19.837965 -15.933217 35.075839 0.687817 2.042327 0.083012 -0.022400 86897.100000 0 0 1
-25.002198 -20.542065 -16.773617 36.447778 0.687780 2.049028 0.095339 -0.028001 -620299.000000 0 0 1
-25.235158 -19.878265 -18.149117 36.896464 0.667209 2.085059 0.093613 -0.020982 133248.000000 0 0 1
-24.086268 -19.836865 -18.982117 36.523558 0.688952 2.117322 0.064331 -0.021210 398107.000000 0 0 1
-24.424568 -19.217365 -20.217017 37.075523 0.666643 2.147535 0.092650 -0.025790 195893.000000 0 0 1
-23.182268 -18.735565 -21.003517 36.463497 0.679712 2.184641 0.044554 -0.018215 589080.000000 0 0 1
-22.238668 -19.690465 -21.503617 36.669855 0.724699 2.197418 0.024194 -0.007886 -6740.620000 0 0 1
-21.167568 -19.050965 -22.118317 36.058635 0.732819 2.231153 0.020380 -0.004507 -133604.000000 0 0 1
-19.887368 -19.914865 -22.226817 35.862803 0.786089 2.239250 0.029390 0.003962 -424747.000000 0 0 1
-19.927468 -20.941465 -23.210317 37.072466 0.810204 2.247312 0.012990 0.007119 319469.000000 0 0 1
-18.661768 -21.603765 -23.306117 36.853213 0.858333 2.255449 0.012251 0.004503 433288.000000 0 0 1
-18.660868 -22.896065 -24.203317 38.187149 0.886961 2.257263 0.025103 -0.002045 -283533.000000 0 0 1
-18.703668 -22.555965 -25.558507 38.882335 0.878495 2.288066 0.026781 0.000720 69953.700000 0 0 1
-18.959068 -23.717465 -26.312977 40.178815 0.896439 2.284842 0.039732 -0.006413 -123010.000000 0 0 1
-18.798868 -23.605965 -27.870607 41.078093 0.898278 2.316486 0.054622 0.003918 -440164.000000 0 0 1
-17.437668 -23.477865 -28.163817 40.601514 0.931966 2.337360 0.041204 0.002571 -390895.000000 0 0 1
-17.287968 -23.496365 -29.557227 41.528095 0.936463 2.362769 0.075543 -0.005957 -653111.000000 0 0 1
-15.859368 -23.253465 -30.029787 41.158611 0.972239 2.388550 0.048229 -0.011728 -566486.000000 0 0 1
-15.041568 -24.338065 -29.719807 41.253571 1.017227 2.375201 0.056472 -0.008288 -650887.000000 0 0 1
-13.727568 -24.233265 -30.179817 41.067245 1.055392 2.396298 0.074339 -0.013105 -306931.000000 0 0 1
-12.913068 -25.520865 -30.026317 41.468561 1.102376 2.380488 0.101685 -0.019789 -900341.000000 0 0 1
-13.195768 -26.546565 -30.982807 42.881030 1.109487 2.378250 0.076214 -0.008405 443303.000000 0 0 1
-12.306968 -27.652365 -30.883707 43.242549 1.152058 2.366273 0.074029 -0.009563 1117720.000000 0 0 1
-10.797068 -27.523565 -31.282747 43.043391 1.196959 2.384408 0.088406 -0.013774 869519.000000 0 0 1
-10.071668 -26.465365 -30.626267 41.711177 1.207160 2.395352 0.132815 -0.032434 -196687.000000 0 0 1
-8.831668 -26.207065 -31.237177 41.720137 1.245753 2.416943 0.114424 -0.028003 -474153.000000 0 0 1
-8.077168 -25.092365 -30.542997 40.345286 1.259373 2.429567 0.180565 -0.041539 -402696.000000 0 0 1
-8.639168 -23.836765 -30.692667 39.810380 1.223091 2.451161 0.187051 -0.034120 -264111.000000 0 0 1
-9.697868 -23.433365 -29.866357 39.181252 1.178409 2.437596 0.171004 -0.028619 -233396.000000 0 0 1
-9.822568 -21.932965 -29.703557 38.207840 1.149736 2.461351 0.187428 -0.038460 -158477.000000 0 0 1
-10.386168 -21.399865 -30.874327 38.975002 1.118947 2.485132 0.172264 -0.035823 -54260.200000 0 0 1
-10.610768 -20.013765 -30.616367 38.085445 1.083302 2.504597 0.180640 -0.044305 214230.000000 0 0 1
-11.367868 -19.350665 -31.817797 38.936472 1.039644 2.527284 0.160710 -0.052962 -202210.000000 0 0 1
-12.055968 -18.227165 -31.389867 38.247871 0.986429 2.533424 0.148412 -0.049807 -70448.200000 0 0 1
-12.842768 -17.865765 -32.525577 39.268758 0.947532 2.546830 0.143164 -0.050606 -421288.000000 0 0 1
-13.717068 -16.631665 -32.259407 38.799994 0.881141 2.552469 0.153247 -0.050454 -422781.000000 0 0 1
-13.162068 -15.331965 -32.279057 38.082104 0.861404 2.582275 0.162586 -0.049371 -25918.500000 0 0 1
-12.345368 -14.888865 -31.205387 36.713248 0.878521 2.586736 0.147871 -0.043723 76390.000000 0 0 1
-11.878768 -13.450565 -31.429257 36.191449 0.847373 2.622796 0.124015 -0.042538 473789.000000 0 0 1
-10.995268 -13.177465 -32.571617 36.816460 0.875429 2.656652 0.141786 -0.044398 634536.000000 0 0 1
-11.515568 -13.100065 33.778738 38.016091 0.849679 0.476648 0.150260 -0.042401 -171584.000000 0 0 1
-12.317868 -11.787865 33.370643 37.473770 0.763415 0.472339 0.124252 -0.026434 92500.300000 0 0 1
-13.512368 -11.477965 -33.618367 38.006872 0.704170 2.656290 0.101177 -0.024491 -242343.000000 0 0 1
-14.448968 -11.004365 33.071516 37.730543 0.650885 0.502215 0.079569 -0.028542 448479.000000 0 0 1
-15.586168 -10.154765 33.696148 38.489976 0.577446 0.504425 0.076833 -0.020544 278121.000000 0 0 1
-15.100968 -9.108565 -33.156297 37.554563 0.542753 2.652764 0.089298 -0.025050 100776.000000 0 0 1
-16.154268 -8.539365 -32.418907 37.213796 0.486276 2.628342 0.084538 -0.027722 410460.000000 0 0 1
-15.458368 -7.548265 -31.443347 35.841617 0.454241 2.640974 0.085059 -0.037968 224068.000000 0 0 1
-15.241068 -6.287365 -32.022907 36.017880 0.391259 2.666136 0.079371 -0.048153 1182130.000000 0 0 1
-16.413268 -5.410165 -32.013427 36.380279 0.318406 2.646588 0.081958 -0.040470 922401.000000 0 0 1
-16.723368 -4.720665 -30.673527 35.253666 0.275121 2.626162 0.082370 -0.048980 -483878.000000 0 0 1
-17.204868 -5.587765 -29.656397 34.738055 0.314031 2.593874 0.090542 -0.047627 -40057.900000 0 0 1
-17.401868 -5.045165 -28.274087 33.581284 0.282184 2.571701 0.097251 -0.048992 -127896.000000 0 0 1
-16.151768 -4.509065 -27.559897 32.260799 0.272238 2.594969 0.092247 -0.051114 1505.600000 0 0 1
-15.594968 -3.333365 -28.139647 32.344305 0.210577 2.626005 0.087435 -0.046209 -83462.500000 0 0 1
-14.327568 -3.026265 -27.596747 31.241285 0.208160 2.653742 0.075298 -0.040347 231881.000000 0 0 1
-13.789468 -1.659765 -28.158147 31.397221 0.119788 2.683360 0.043348 -0.021763 125227.000000 0 0 1
-13.549168 -1.788765 -29.545297 32.553098 0.131261 2.708336 0.050563 -0.023562 118519.000000 0 0 1
-13.738868 -0.565765 -30.254527 33.232709 0.041157 2.715008 0.051285 -0.028246 -49756.800000 0 0 1
-13.910868 -0.752765 -31.758487 34.679682 0.054061 2.728208 0.051045 -0.027678 -112227.000000 0 0 1
-15.226068 -1.115765 -32.116657 35.560620 0.073149 2.697853 0.040540 -0.031542 221195.000000 0 0 1
-15.407768 -0.969765 -33.524417 36.908349 0.062857 2.710035 0.039382 -0.026232 371498.000000 0 0 1
-16.843168 -1.330765 33.621288 37.627839 0.078845 0.465668 0.031503 -0.026095 478966.000000 0 0 1
-16.893768 -1.456765 32.202204 36.393729 0.086018 0.484671 0.043648 -0.026184 -530573.000000 0 0 1
-18.195568 -1.457765 31.721891 36.598936 0.079946 0.522161 0.033391 -0.022539 -661285.000000 0 0 1
-18.213768 -1.355765 30.158208 35.257580 0.074299 0.544535 0.050288 -0.017694 169198.000000 0 0 1
-17.607768 -0.168765 29.665348 34.497751 0.009584 0.535681 0.059537 -0.004503 -24127.700000 0 0 1
-17.614268 -0.172765 28.236718 33.280693 0.009808 0.557763 0.068435 -0.015285 -160924.000000 0 0 1
-16.939968 1.064235 27.577928 32.382669 -0.062741 0.551716 0.069780 -0.015234 -150686.000000 0 0 1
-17.442768 2.350235 27.873898 32.965557 -0.133933 0.563209 0.050722 -0.009668 533532.000000 0 0 1
-18.820368 2.584235 27.517648 33.438084 -0.136457 0.604224 0.049718 -0.018267 867174.000000 0 0 1
-19.077868 3.210235 26.115678 32.500758 -0.166708 0.637577 0.065373 -0.025858 -354102.000000 0 0 1
-18.792268 4.595235 26.105648 32.492620 -0.239822 0.637757 0.067301 -0.026807 -22239.600000 0 0 1
-19.196768 5.282235 24.922608 31.899127 -0.268517 0.674059 0.072424 -0.029099 -762571.000000 0 0 1
-18.833468 6.777235 24.986938 32.015270 -0.345423 0.675380 0.066202 -0.024186 -137627.000000 0 0 1
-17.468468 7.082235 25.094108 31.385023 -0.385178 0.644239 0.073380 -0.027119 -210494.000000 0 0 1
-16.796668 6.959235 23.845658 29.986237 -0.392792 0.651426 0.068876 -0.022905 -809550.000000 0 0 1
-15.590968 7.846235 23.572178 29.330688 -0.466248 0.637360 0.067031 -0.016407 -341468.000000 0 0 1
-14.490768 7.476235 24.377438 29.328074 -0.476311 0.589537 0.071913 -0.023835 438141.000000 0 0 1
-13.304268 8.063235 23.812528 28.443906 -0.544866 0.578699 0.080897 -0.028184 319498.000000 0 0 1
-12.038368 7.944235 24.678758 28.584511 -0.583310 0.528903 0.077263 -0.016614 1386660.000000 0 0 1
-10.892068 8.612235 24.008168 27.734453 -0.669037 0.524361 0.055722 -0.017313 2250010.000000 0 0 1
-9.647368 8.687235 24.731638 27.931947 -0.733079 0.483389 0.059480 -0.017638 855004.000000 0 0 1
-9.542268 9.985235 25.538388 29.033929 -0.808079 0.495765 0.052882 -0.029886 -746521.000000 0 0 1
-10.644768 10.129235 26.388348 30.203599 -0.760587 0.508076 0.052191 -0.034739 -149668.000000 0 0 1
-10.688968 11.410235 27.042028 31.236498 -0.818024 0.524211 0.064150 -0.037531 -353748.000000 0 0 1
-11.426368 12.529235 26.262408 31.261121 -0.831404 0.573332 0.055460 -0.039812 816611.000000 0 0 1
-12.846668 12.312235 26.169628 31.646128 -0.764159 0.597143 0.055735 -0.041216 815604.000000 0 0 1
-13.214068 11.656235 24.950608 30.545249 -0.722842 0.614883 0.054133 -0.036883 -355823.000000 0 0 1
-14.716068 11.439235 24.700408 30.943964 -0.660764 0.646445 0.054984 -0.036984 -751026.000000 0 0 1
-15.426768 12.629235 24.629138 31.687177 -0.686014 0.680499 0.058908 -0.037625 -657758.000000 0 0 1
-16.698568 12.442235 24.066378 31.825178 -0.640363 0.713302 0.075012 -0.024812 -412079.000000 0 0 1
-16.825968 12.130235 22.567888 30.652331 -0.624631 0.743279 0.068935 -0.009012 -1044070.000000 0 0 1
-16.628268 10.763235 22.216688 29.764538 -0.574465 0.728138 0.067471 -0.010252 66274.700000 0 0 1
-16.751368 10.513235 20.801688 28.702729 -0.560470 0.760156 0.073983 -0.014251 3272.630000 0 0 1
-17.065268 9.039235 20.369188 28.068398 -0.487113 0.758748 0.076182 -0.022419 -281975.000000 0 0 1
-18.401568 8.711235 20.603988 28.965974 -0.442139 0.779426 0.084777 -0.012251 -593669.000000 0 0 1
-18.656068 7.353235 20.691888 28.814461 -0.375451 0.769717 0.080841 -0.012706 441124.000000 0 0 1
-20.187468 7.187235 20.941788 29.962455 -0.342032 0.796890 0.091009 -0.019784 642491.000000 0 0 1
-20.642468 7.568235 22.242888 31.275162 -0.351416 0.779593 0.084778 -0.024957 1042890.000000 0 0 1
-22.050068 7.874235 22.353288 32.370952 -0.342992 0.808567 0.079906 -0.019402 1017420.000000 0 0 1
-22.382368 8.553235 23.750368 33.737341 -0.365017 0.789812 0.077589 -0.028659 -784913.000000 0 0 1
-22.373268 9.998235 23.775618 34.143928 -0.420259 0.800518 0.075572 -0.021652 760338.000000 0 0 1
-21.136068 10.636235 23.415898 33.289145 -0.466226 0.790613 0.079453 -0.015216 1507680.000000 0 0 1
-19.791268 10.253235 24.148938 32.863267 -0.477998 0.745379 0.074486 -0.029790 -9796.460000 0 0 1
-19.480668 10.787235 25.426128 33.798652 -0.505710 0.719277 0.086721 -0.030178 -243253.000000 0 0 1
-20.088868 10.207235 26.528848 34.807040 -0.470110 0.704139 0.055797 -0.028093 -253027.000000 0 0 1
-32.175868 -14.007769 20.766388 40.776794 0.410605 1.036460 0.095446 -0.007714 98423.900000 0 0 1
-31.376158 -15.139169 20.439288 40.390868 0.449554 1.040212 0.105228 -0.005340 126303.000000 0 0 1
-31.957708 -15.976969 19.443388 40.676823 0.463600 1.072424 0.090737 0.003722 190396.000000 0 0 1
-31.606938 -15.511969 17.988188 39.537256 0.456242 1.098460 0.092883 0.012262 219950.000000 0 0 1
-32.429078 -14.429969 17.600388 39.618717 0.418663 1.110466 0.089778 0.004989 -30996.700000 0 0 1
-32.049188 -14.096869 16.319888 38.629146 0.414382 1.134621 0.086391 0.002931 177844.000000 0 0 1
-33.161448 -13.267069 15.544488 38.952893 0.380571 1.160306 0.077095 -0.002685 252376.000000 0 0 1
-34.390396 -13.869069 15.258988 40.098468 0.383334 1.180418 0.086841 -0.007209 1032610.000000 0 0 1
-35.374291 -13.921969 16.355788 41.384459 0.374944 1.164494 0.079554 -0.004668 210594.000000 0 0 1
-36.191148 -12.668169 16.566688 41.770047 0.336706 1.162968 0.084212 0.000664 -620259.000000 0 0 1
-37.049088 -12.811169 17.705488 43.014477 0.332919 1.146569 0.043792 -0.003141 129512.000000 0 0 1
-37.570978 -11.554369 18.074088 43.263778 0.298355 1.139812 0.046415 0.000250 -105311.000000 0 0 1
36.696880 -11.635169 19.226888 43.031516 -0.307035 1.107601 0.044350 -0.001015 -160211.000000 0 0 1
37.244450 -12.203169 20.395488 44.181923 -0.316627 1.090970 0.043441 0.006350 -228621.000000 0 0 1
36.496300 -11.780569 21.489688 43.960987 -0.312230 1.060042 0.035811 -0.001569 -1275450.000000 0 0 1
37.097240 -12.217869 22.862398 45.256721 -0.318159 1.041216 0.030999 -0.011028 179476.000000 0 0 1
-36.920878 -11.613269 23.103628 45.075457 0.304747 1.032639 0.047829 -0.014105 447322.000000 0 0 1
-35.856461 -12.336969 22.546888 44.116309 0.331378 1.034357 0.050467 -0.020675 -622899.000000 0 0 1
-34.498902 -11.598769 22.462088 42.769745 0.324335 1.017862 0.079551 -0.021037 200352.000000 0 0 1
-34.547648 -10.554669 21.478588 42.027024 0.296505 1.034372 0.094009 -0.023263 -564028.000000 0 0 1
-33.336558 -9.876869 21.534888 40.897800 0.288038 1.016255 0.123836 -0.033420 -1077420.000000 0 0 1
-33.399638 -8.439769 20.966188 40.327987 0.247509 1.024072 0.116363 -0.013094 36167.700000 0 0 1
-33.645978 -8.367369 19.559688 39.807613 0.243744 1.057151 0.119165 -0.012463 539477.000000 0 0 1
-34.996245 -8.612069 19.175688 40.824159 0.241291 1.081829 0.098721 -0.010388 -105303.000000 0 0 1
-35.139881 -8.542969 17.640888 40.236730 0.238487 1.116948 0.109858 -0.010268 385753.000000 0 0 1
-36.506438 -8.596969 17.232688 41.274610 0.231278 1.140090 0.024728 -0.002523 668423.000000 0 0 1
-36.556938 -8.631169 15.833188 40.762687 0.231856 1.171876 0.059714 0.010712 -53181.500000 0 0 1
37.251220 -8.604269 15.434388 41.229930 -0.226998 1.187102 0.058520 0.005539 -227624.000000 0 0 1
36.544960 -9.751469 15.787088 40.986063 -0.260759 1.175391 0.047158 0.011040 164373.000000 0 0 1
35.168310 -9.546469 15.470988 39.589096 -0.265064 1.169308 0.043851 0.012969 470241.000000 0 0 1
34.304150 -10.828069 15.559288 39.193280 -0.305751 1.162563 0.037282 -0.001816 63742.500000 0 0 1
34.121210 -11.381269 16.834888 39.714024 -0.321949 1.133046 0.017700 -0.009019 -71774.200000 0 0 1
32.897650 -12.060069 16.963088 38.928742 -0.351380 1.119928 0.040129 -0.016306 -137027.000000 0 0 1
32.679190 -12.514169 18.386788 39.529835 -0.365714 1.087007 0.028800 -0.012214 -225107.000000 0 0 1
33.468860 -13.612969 18.758888 40.710851 -0.386299 1.091919 0.024635 -0.002088 -195069.000000 0 0 1
33.624510 -13.604769 20.134788 41.486228 -0.384473 1.064048 0.031440 -0.000067 -431940.000000 0 0 1
34.299750 -14.812069 20.762088 42.742654 -0.407651 1.063580 0.027396 -0.000809 -170559.000000 0 0 1
34.488580 -14.726569 22.171788 43.565148 -0.403562 1.036850 0.024630 -0.009008 -131580.000000 0 0 1
34.757420 -15.995469 22.742388 44.510105 -0.431306 1.034508 0.041998 -0.007100 3798.700000 0 0 1
35.172940 -15.760369 24.200188 45.510153 -0.421258 1.010126 0.058761 -0.013026 -261571.000000 0 0 1
36.382040 -15.080269 24.360588 46.308807 -0.392942 1.016851 0.061186 -0.009375 -366738.000000 0 0 1
36.668170 -14.840369 25.702008 47.173980 -0.384569 0.994605 0.067700 -0.013215 629474.000000 0 0 1
-37.341718 -13.968169 25.987748 47.590721 0.357949 0.993133 0.066538 -0.010925 712044.000000 0 0 1
-36.089208 -14.570069 25.755978 46.669993 0.383712 0.986186 0.042668 -0.011045 1071180.000000 0 0 1
-34.986904 -13.711369 26.191598 45.804857 0.373504 0.962088 0.059156 -0.017781 758130.000000 0 0 1
-33.591358 -14.262369 25.942348 44.774992 0.401519 0.952812 0.060631 -0.016906 -521885.000000 0 0 1
-33.249738 -14.348669 24.516848 43.732199 0.407399 0.975670 0.064571 -0.015083 425266.000000 0 0 1
-31.898128 -14.663069 24.207988 42.644142 0.430878 0.967118 0.080196 -0.023395 474926.000000 0 0 1
-31.451328 -16.150469 24.384938 42.949376 0.474395 0.967014 0.080462 -0.017727 -319299.000000 0 0 1
-31.364438 -16.489869 25.737608 43.795756 0.484035 0.942616 0.081749 -0.018691 163152.000000 0 0 1
-30.936238 -17.852669 25.863128 44.098413 0.523396 0.944082 0.080875 -0.017456 -220876.000000 0 0 1
-30.523978 -18.190969 27.341608 44.835121 0.537441 0.914956 0.065033 -0.024471 193407.000000 0 0 1
-29.451288 -17.332569 27.740348 44.015034 0.531933 0.888925 0.066105 -0.024700 236051.000000 0 0 1
-28.837998 -17.741069 28.944158 44.543686 0.551519 0.863485 0.076473 -0.032401 267263.000000 0 0 1
-27.534428 -16.995969 29.305498 43.655697 0.553016 0.834853 0.053212 -0.024794 -120992.000000 0 0 1
-27.735058 -15.717169 29.835808 43.662779 0.515566 0.818491 0.076771 -0.037124 -198369.000000 0 0 1
-26.597058 -14.889569 29.690388 42.551403 0.510351 0.798540 0.053313 -0.029527 -750919.000000 0 0 1
-26.534148 -13.476769 30.383718 42.530632 0.469950 0.775036 0.062758 -0.024064 -490777.000000 0 0 1
-26.058658 -13.501369 31.672896 43.180006 0.478034 0.747327 0.064686 -0.021100 -30369.700000 0 0 1
-25.946248 -12.150369 32.139817 43.055860 0.437959 0.728058 0.068218 -0.013619 -288942.000000 0 0 1
-25.328828 -11.995269 33.575502 43.735001 0.442290 0.695547 0.066548 -0.013101 236416.000000 0 0 1
-23.954968 -12.288869 33.742498 43.167267 0.473992 0.673460 0.040677 -0.008515 153041.000000 0 0 1
-23.603368 -13.674569 33.665358 43.329772 0.525096 0.680979 0.039251 -0.009268 -395273.000000 0 0 1
-23.492368 -14.491169 -32.637647 42.744605 0.552714 2.439589 0.036229 -0.010620 743994.000000 0 0 1
-22.426968 -14.054369 -31.725587 41.315941 0.559801 2.446318 0.019074 -0.008168 878076.000000 0 0 1
-22.236268 -14.899569 -30.641277 40.685828 0.590346 2.423587 0.033669 -0.010253 -532360.000000 0 0 1
-20.890368 -14.790269 -29.936717 39.387390 0.616071 2.434199 0.036287 -0.008561 -310914.000000 0 0 1
-20.590068 -13.645569 -29.078167 38.153535 0.585269 2.437402 0.028914 -0.006897 328344.000000 0 0 1
-21.369968 -13.640569 -27.865077 37.672313 0.568110 2.403376 0.038394 -0.001344 117293.000000 0 0 1
-20.909468 -12.660069 -26.761567 36.244512 0.544432 2.401434 0.037617 -0.004664 -211736.000000 0 0 1
-19.613968 -12.890069 -26.272737 35.229509 0.581412 2.412470 0.034991 -0.010040 -433308.000000 0 0 1
-19.172968 -11.740669 -25.661887 34.117128 0.549455 2.422146 0.049496 -0.018229 -119757.000000 0 0 1
-17.874168 -11.816469 -24.844917 32.808302 0.584133 2.429927 0.068081 -0.031095 -574535.000000 0 0 1
-17.912968 -12.661969 -23.677317 32.277162 0.615315 2.394345 0.074767 -0.028283 -104256.000000 0 0 1
-16.668768 -12.750169 -23.026117 31.154722 0.652978 2.402513 0.076549 -0.031944 -175916.000000 0 0 1
-15.542468 -13.553869 -23.662017 31.387365 0.717159 2.424730 0.052227 -0.018340 -498852.000000 0 0 1
-14.693668 -12.872269 -24.587317 31.402792 0.719420 2.470216 0.062519 -0.028719 457558.000000 0 0 1
-14.087668 -13.717369 -25.565807 32.252737 0.772081 2.485974 0.075339 -0.034323 74323.200000 0 0 1
-13.139768 -12.934569 -26.547107 32.321903 0.777529 2.534543 0.104907 -0.034043 564534.000000 0 0 1
-13.774568 -12.032769 -27.498017 33.025250 0.718008 2.554647 0.107140 -0.032988 204357.000000 0 0 1
-12.830068 -11.360969 -28.294107 33.079279 0.724744 2.597008 0.106757 -0.036292 -108599.000000 0 0 1
-13.571468 -10.298569 -29.095497 33.716364 0.649135 2.611873 0.098047 -0.041115 -155623.000000 0 0 1
-12.794968 -9.359669 -29.792197 33.747438 0.631563 2.652584 0.086776 -0.030667 -45550.600000 0 0 1
-12.297568 -9.803469 -31.066807 34.820750 0.673024 2.672972 0.101798 -0.028370 511819.000000 0 0 1
-11.345468 -8.812869 -31.816757 34.909774 0.660418 2.717469 0.083155 -0.031014 225086.000000 0 0 1
-10.027068 -8.540669 -31.444907 34.092041 0.705516 2.744924 0.090629 -0.037458 -367132.000000 0 0 1
-9.521468 -7.334569 -31.958337 34.143660 0.656379 2.781875 0.068579 -0.039218 492411.000000 0 0 1
-7.954368 -7.281469 -31.846697 33.622966 0.741261 2.815093 0.086413 -0.044065 497394.000000 0 0 1
-7.487768 -7.276869 -30.498067 32.235874 0.771115 2.811743 0.068165 -0.032369 -195832.000000 0 0 1
-7.759368 -6.106769 -29.667397 31.267473 0.666775 2.820294 0.062920 -0.025779 -427828.000000 0 0 1
-7.115068 -4.771369 -30.153697 31.347019 0.590721 2.864782 0.054261 -0.027638 -374629.000000 0 0 1
-5.719968 -4.744769 -29.995617 30.902555 0.692477 2.898722 0.073871 -0.030942 -404113.000000 0 0 1
-5.222168 -3.464369 -30.314447 30.955429 0.585735 2.937737 0.080691 -0.042085 78609.300000 0 0 1
-3.707968 -3.283269 -30.079407 30.484415 0.724725 2.978404 0.076637 -0.028993 -571035.000000 0 0 1
-2.832868 -4.033769 -30.904037 31.294663 0.958536 2.983427 0.096334 -0.034633 180142.000000 0 0 1
-1.461668 -3.868069 -30.605387 30.883460 1.209503 3.007298 0.107207 -0.040928 136951.000000 0 0 1
-0.836668 -2.501769 -30.977667 31.089784 1.248059 3.056641 0.108927 -0.042762 -1043810.000000 0 0 1
0.579432 -2.536669 -30.860647 30.970146 -1.346227 3.057477 0.109748 -0.032966 441545.000000 0 0 1
1.106532 -1.304569 -31.502067 31.548479 -0.867350 3.087343 0.082047 -0.022008 62476.100000 0 0 1
1.298232 -0.071069 -30.490687 30.518395 -0.054688 3.098977 0.082159 -0.027797 -788325.000000 0 0 1
0.155732 0.464931 -29.905067 29.909086 1.247585 3.125198 0.087518 -0.026895 -882510.000000 0 0 1
0.481532 1.297331 -28.860347 28.893504 1.215386 3.093681 0.106959 -0.037782 -2291.780000 0 0 1
-0.816968 1.525631 -28.039577 28.092932 -1.079158 3.079951 0.093969 -0.031284 256354.000000 0 0 1
-1.815168 2.333531 -28.573057 28.725594 -0.909700 3.038492 0.088603 -0.044521 -112755.000000 0 0 1
-1.723768 3.678431 -28.089787 28.382007 -1.132571 2.997970 0.126936 -0.048559 121120.000000 0 0 1
-2.957668 4.412931 -28.685567 29.173335 -0.980333 2.958473 0.161287 -0.051790 342727.000000 0 0 1
-2.850968 4.696431 -30.073337 30.571066 -1.025209 2.960897 0.157927 -0.055990 -2607.500000 0 0 1
-4.012168 5.324431 -30.559707 31.278471 -0.925034 2.926799 0.176542 -0.043417 -275625.000000 0 0 1
-3.893968 5.613431 -32.118097 32.836652 -0.964319 2.932007 0.170508 -0.037995 -185736.000000 0 0 1
-3.974468 4.527031 -33.055177 33.599630 -0.850303 2.961326 0.179238 -0.037064 175126.000000 0 0 1
-2.859468 3.655331 -33.088167 33.412045 -0.906958 3.002243 0.158754 -0.040164 -288842.000000 0 0 1
-2.568968 3.129031 33.118353 33.364888 -0.883375 0.121640 0.128532 -0.030377 -54234.300000 0 0 1
-3.473168 2.159331 32.558970 32.814816 -0.556236 0.124954 0.127522 -0.043541 288864.000000 0 0 1
-3.165068 1.691231 31.223738 31.429282 -0.490743 0.114429 0.122634 -0.028437 -159465.000000 0 0 1
-3.001268 2.710031 30.091578 30.362064 -0.734449 0.133581 0.116863 -0.023358 -184226.000000 0 0 1
-4.135368 3.511431 29.907408 30.395468 -0.703984 0.179444 0.104641 -0.030243 25211.900000 0 0 1
-3.879668 4.379531 28.802708 29.390953 -0.845846 0.200408 0.095119 -0.037453 -199374.000000 0 0 1
-5.000468 5.380431 28.600858 29.529016 -0.821984 0.251389 0.095112 -0.027342 -123252.000000 0 0 1
-4.847168 6.162631 27.461668 28.558996 -0.904316 0.278107 0.088334 -0.021763 139997.000000 0 0 1
-6.104568 6.800731 27.319378 28.807362 -0.839290 0.322812 0.071582 -0.024124 71126.300000 0 0 1
-6.206068 7.687831 26.060028 27.870111 -0.891645 0.362388 0.076695 -0.024728 -290928.000000 0 0 1
-5.548568 8.907531 26.160448 28.186872 -1.013703 0.381499 0.100600 -0.025216 -144046.000000 0 0 1
-5.469868 9.602731 24.915878 27.256795 -1.053018 0.417474 0.082540 -0.024468 7239.540000 0 0 1
-4.920268 11.020631 25.109528 27.859500 -1.150890 0.448055 0.089135 -0.026301 -711502.000000 0 0 1
-4.861368 11.744031 23.912448 27.080627 -1.178328 0.488560 0.092770 -0.031218 45013.200000 0 0 1
-4.130668 12.962331 23.901268 27.501910 -1.262303 0.517464 0.087814 -0.030907 -393264.000000 0 0 1
-2.577168 12.854931 23.992428 27.340952 -1.372938 0.500116 0.085263 -0.024939 -254047.000000 0 0 1
-1.987068 12.428131 25.168478 28.139992 -1.412254 0.463703 0.101490 -0.026263 -174922.000000 0 0 1
-2.271768 13.283631 26.252398 29.509392 -1.401415 0.474265 0.099624 -0.026569 -863839.000000 0 0 1
-1.559268 12.851831 27.549648 30.439842 -1.450060 0.439294 0.109308 -0.030199 -22522.800000 0 0 1
-0.177568 13.111931 27.500038 30.466479 -1.557255 0.444949 0.120231 -0.025680 -860698.000000 0 0 1
0.442332 12.507731 28.566508 31.187888 1.535446 0.412930 0.112362 -0.030798 347723.000000 0 0 1
1.994232 12.620631 28.370198 31.114714 1.414078 0.423165 0.103807 -0.024063 646841.000000 0 0 1
2.509932 13.888631 28.655908 31.942995 1.392008 0.457646 0.098828 -0.018438 -495086.000000 0 0 1
3.877532 13.948831 28.363318 31.844669 1.299659 0.471964 0.101271 -0.015437 -57794.200000 0 0 1
4.585232 15.310031 28.628738 32.787590 1.279806 0.509153 0.099042 -0.013100 -29513.200000 0 0 1
4.567932 15.723331 29.942718 34.127050 1.288060 0.500402 0.108528 -0.006821 194917.000000 0 0 1
3.614232 16.741631 30.210548 34.727829 1.358176 0.515750 0.094534 -0.007423 7658.690000 0 0 1
3.794032 18.129231 29.557818 34.881633 1.364497 0.559775 0.094313 -0.006154 -141446.000000 0 0 1
4.693232 19.052631 30.137018 35.962050 1.329275 0.577147 0.115008 -0.006826 -8921.010000 0 0 1
4.959032 20.147231 29.285508 35.890722 1.329454 0.616403 0.092658 -0.000875 112939.000000 0 0 1
6.203532 20.983431 29.693168 36.884583 1.283345 0.635072 0.091982 -0.006132 59457.500000 0 0 1
6.060032 21.672931 30.955918 38.271514 1.298147 0.628602 0.097569 -0.029131 261537.000000 0 0 1
7.280632 22.283731 31.351418 39.146950 1.255006 0.642058 0.079614 -0.026962 356800.000000 0 0 1
7.588532 23.698431 30.740118 39.549416 1.260901 0.680500 0.068903 -0.015427 -57777.200000 0 0 1
7.884932 23.679731 29.345468 38.523478 1.249362 0.704778 0.039408 -0.011175 220363.000000 0 0 1
8.194432 24.995831 28.846098 39.038925 1.254005 0.739351 0.044065 -0.008844 -195100.000000 0 0 1
8.606932 24.884731 27.368388 37.978386 1.237804 0.766085 0.058532 -0.013338 -167705.000000 0 0 1
7.633932 24.690031 26.340458 36.901142 1.270929 0.775871 0.051827 -0.012888 362465.000000 0 0 1
8.218832 24.275831 25.116128 35.884329 1.244349 0.795512 0.059101 -0.024039 -126081.000000 0 0 1
28.792090 2.806431 7.376383 29.854171 0.097165 1.321130 0.226124 -0.016172 53897.900000 0 0 1
29.390090 3.958131 7.971883 30.708225 0.133870 1.308187 0.218886 -0.040108 404509.000000 0 0 1
28.816090 4.143631 9.263283 30.550697 0.142817 1.262737 0.177099 -0.012854 -188521.000000 0 0 1
29.514890 5.236531 10.161183 31.651218 0.175593 1.243973 0.180896 -0.023722 -273364.000000 0 0 1
29.212790 6.600031 9.877783 31.535981 0.222199 1.252212 0.193552 -0.031620 225260.000000 0 0 1
29.723890 6.972131 8.596783 31.717896 0.230398 1.296324 0.220157 -0.051138 -183823.000000 0 0 1
29.321690 8.336631 8.017283 31.520434 0.277007 1.313619 0.253616 -0.058711 831793.000000 0 0 1
27.996790 8.416531 7.463083 30.172104 0.292030 1.320852 0.198680 -0.063025 733878.000000 0 0 1
28.011590 9.321731 6.347583 30.196616 0.321254 1.359008 0.229914 -0.085110 -104654.000000 0 0 1
26.713490 9.336431 5.531483 28.833605 0.336232 1.377758 0.176580 -0.071547 309488.000000 0 0 1
25.558990 9.900531 6.168683 28.095108 0.369563 1.349428 0.142802 -0.062851 366228.000000 0 0 1
24.472490 9.807031 5.257783 26.883543 0.381142 1.373951 0.183381 -0.068863 92954.000000 0 0 1
23.216290 10.546431 5.768183 26.143742 0.426398 1.348332 0.086439 -0.050183 -161544.000000 0 0 1
23.398290 11.975631 5.960083 26.952148 0.473056 1.347817 0.080743 -0.047321 -381271.000000 0 0 1
22.208590 12.645231 6.214483 26.301010 0.517604 1.332258 0.072623 -0.026842 -685956.000000 0 0 1
22.335990 14.126031 6.108583 27.124822 0.563927 1.343645 0.056678 -0.010953 -110115.000000 0 0 1
22.653190 14.622031 4.823383 27.390433 0.573186 1.393776 0.074064 -0.024530 410881.000000 0 0 1
22.874690 16.020431 4.854583 28.345593 0.610965 1.398684 0.118150 -0.015088 49635.500000 0 0 1
22.104890 16.657931 3.655883 27.919138 0.645792 1.439474 0.104754 -0.035436 862999.000000 0 0 1
20.675290 16.571931 3.645283 26.746674 0.675675 1.434082 0.107612 -0.015664 844131.000000 0 0 1
20.117090 17.209431 2.504683 26.592015 0.707657 1.476467 0.120318 -0.022185 -1145370.000000 0 0 1
18.622590 17.062931 2.494483 25.380443 0.741720 1.472354 0.086705 -0.019026 -1300730.000000 0 0 1
17.999990 17.892831 3.420983 25.609689 0.782413 1.436814 0.092663 -0.021489 41679.300000 0 0 1
16.594490 17.797031 3.391183 24.568507 0.820350 1.432325 0.062137 -0.033672 -572860.000000 0 1 0
15.853990 18.929531 4.038383 25.019686 0.873588 1.408679 0.089891 -0.039045 -1076970.000000 0 0 1
14.490490 18.671931 3.998383 23.970865 0.910826 1.403211 0.089042 -0.043974 -614132.000000 0 1 0
13.733290 19.861731 4.087283 24.490763 0.965835 1.403121 0.068065 -0.040010 190168.000000 0 1 0
12.198390 19.771731 3.910283 23.558701 1.017999 1.404044 0.060139 -0.031515 -55923.000000 0 1 0
11.637590 19.022831 4.903683 22.833040 1.021768 1.354348 0.048805 -0.040065 -294275.000000 0 1 0
10.228290 19.107931 4.726783 22.182728 1.079317 1.356066 0.046524 -0.025839 527636.000000 0 1 0
9.477390 18.622631 6.016083 21.744345 1.100040 1.290466 0.032571 -0.018854 -450625.000000 0 1 0
9.472590 19.574531 7.043983 22.858476 1.120092 1.257542 0.048207 -0.019879 -177373.000000 0 1 0
8.912590 19.113331 8.284283 22.657957 1.134468 1.196494 0.046534 -0.010256 -378019.000000 0 1 0
7.887890 20.096231 8.847683 23.331498 1.196767 1.181847 0.042470 -0.006230 278837.000000 0 1 0
6.674990 20.242731 8.133483 22.813969 1.252277 1.206263 0.040655 -0.015250 197118.000000 0 1 0
6.766590 21.394831 7.310783 23.600277 1.264479 1.255840 0.044004 -0.014937 -303313.000000 0 1 0
5.565190 21.497131 6.331383 23.090786 1.317477 1.293044 0.038550 -0.015692 579047.000000 0 1 0
4.279090 21.641331 6.923683 23.121315 1.375587 1.266680 0.039874 -0.017044 373505.000000 0 1 0
3.882290 22.882631 7.545983 24.405508 1.402736 1.256453 0.040892 -0.022297 -357408.000000 0 1 0
3.815590 24.134331 6.684683 25.331989 1.413996 1.303751 0.055381 -0.028377 -527987.000000 0 0 1
2.797490 24.067231 5.739283 24.899738 1.455079 1.338209 0.041536 -0.026494 -371611.000000 0 1 0
2.779690 25.193731 4.825083 25.801787 1.460908 1.382683 0.055794 -0.030545 57036.600000 0 0 1
1.413890 25.464731 4.122983 25.835065 1.515330 1.410522 0.063943 -0.025907 165027.000000 0 0 1
0.484790 25.996931 5.046783 26.486704 1.552151 1.379084 0.081502 -0.032352 230904.000000 0 0 1
-0.795910 26.103031 4.426583 26.487664 -1.540315 1.402890 0.100122 -0.035703 495194.000000 0 0 1
-1.947910 26.774631 5.188183 27.342137 -1.498172 1.379888 0.134065 -0.037137 -401185.000000 0 0 1
-3.055010 26.989431 4.396083 27.515233 -1.458083 1.410340 0.169518 -0.043412 -754134.000000 0 0 1
-4.087510 27.720131 5.042083 28.469914 -1.424395 1.392755 0.166858 -0.043752 470411.000000 0 0 1
-5.044110 28.189231 3.880883 28.898738 -1.393733 1.436097 0.178464 -0.047899 110233.000000 0 0 1
-4.327310 28.992731 2.972483 29.464211 -1.422635 1.469740 0.170611 -0.042669 212862.000000 0 0 1
-5.078710 29.311031 1.788783 29.801503 -1.399230 1.510737 0.175700 -0.049942 -79715.500000 0 0 1
-4.255410 29.944131 0.627683 30.251504 -1.429630 1.550046 0.151591 -0.046404 -85282.800000 0 0 1
-3.880610 31.318631 0.854883 31.569710 -1.447517 1.543714 0.152607 -0.045649 934196.000000 0 0 1
-2.828310 31.554931 1.842783 31.734979 -1.481404 1.512696 0.164995 -0.039476 235834.000000 0 0 1
-2.180510 32.934531 1.907083 33.061684 -1.504685 1.513082 0.146164 -0.044655 -816315.000000 0 0 1
-1.350410 33.094231 0.796383 33.131344 -1.530014 1.546757 0.104143 -0.034882 -428204.000000 0 0 1
-0.533110 -33.473865 0.876083 33.489571 1.554872 1.544633 0.096469 -0.032889 -339198.000000 0 0 1
0.842790 -33.693865 1.522583 33.738777 -1.545788 1.525652 0.075114 -0.020762 -791585.000000 0 0 1
0.761390 -33.585765 2.939083 33.722716 -1.548130 1.483531 0.074476 -0.026794 720401.000000 0 0 1
1.963590 33.693931 3.624683 33.945176 1.512585 1.463812 0.059052 -0.024396 603909.000000 0 0 1
1.806490 -33.828865 5.141783 34.265047 -1.517446 1.420168 0.057343 -0.024012 -448091.000000 0 0 1
0.866690 32.996431 5.680483 33.493037 1.544536 1.400371 0.102508 -0.037761 -476095.000000 0 0 1
0.318990 33.255031 6.972283 33.979576 1.561204 1.364138 0.114517 -0.036494 -159479.000000 0 0 1
1.277390 33.329431 8.177283 34.341675 1.532489 1.330371 0.091136 -0.030675 -272171.000000 0 0 1
1.684090 32.002131 8.426483 33.135754 1.518221 1.313671 0.092451 -0.036196 -128804.000000 0 0 1
2.684590 31.939231 9.411083 33.404940 1.486940 1.285202 0.092728 -0.036539 -336744.000000 0 0 1
3.289390 30.551431 9.567783 32.183109 1.463542 1.268941 0.085468 -0.034879 -357028.000000 0 0 1
2.467790 29.673031 10.265683 31.495444 1.487821 1.238789 0.115931 -0.042303 -94955.000000 0 0 1
3.015590 28.386131 10.205783 30.315412 1.464959 1.227436 0.088355 -0.044711 -207154.000000 0 0 1
2.447490 27.365731 11.209383 29.673620 1.481597 1.183425 0.081039 -0.051319 -645044.000000 0 0 1
2.647690 27.820031 12.500483 30.614155 1.475910 1.150179 0.088403 -0.044103 122885.000000 0 0 1
2.256890 26.864531 13.478383 30.140727 1.486983 1.107184 0.093033 -0.039623 497193.000000 0 0 1
0.711090 26.650031 13.700383 29.973827 1.544120 1.096089 0.058463 -0.038238 292447.000000 0 0 1
0.109690 27.720631 14.454983 31.263269 1.566839 1.090138 0.064786 -0.040239 118542.000000 0 0 1
-0.215810 28.881231 13.747783 31.987085 -1.563324 1.126534 0.092452 -0.046759 -656244.000000 0 0 1
-0.886210 29.945131 14.634583 33.341675 -1.541210 1.116391 0.083564 -0.040385 -785600.000000 0 0 1
-2.118110 29.559431 15.108083 33.264103 -1.499263 1.099338 0.068751 -0.037380 -833102.000000 0 0 1
-2.839010 30.672331 15.649083 34.550625 -1.478500 1.100745 0.073626 -0.039125 167359.000000 0 0 1
-4.155910 30.382031 16.422383 34.785544 -1.434852 1.079121 0.069859 -0.034664 34790.700000 0 0 1
-5.100910 29.890031 15.522583 34.064407 -1.401769 1.097657 0.069383 -0.033830 -1000100.000000 0 0 1
-6.322810 29.706031 16.147683 34.397295 -1.361080 1.082133 0.071461 -0.030374 -1159110.000000 0 0 1
-7.356510 28.989031 15.276583 33.583570 -1.322274 1.098556 0.058111 -0.040455 -65156.800000 0 0 1
-8.613210 28.796631 15.900583 34.003851 -1.280161 1.084210 0.058742 -0.036210 297543.000000 0 0 1
-9.587010 28.477231 14.914583 33.545615 -1.246059 1.110062 0.065563 -0.039133 528823.000000 0 0 1
-10.864710 27.741231 15.436083 33.554292 -1.197513 1.092764 0.052890 -0.030066 439342.000000 0 0 1
-11.734910 28.621331 16.130683 34.886783 -1.181694 1.090127 0.051817 -0.035418 181337.000000 0 0 1
-11.692910 28.554331 17.556383 35.500712 -1.182130 1.053495 0.057128 -0.029331 -309898.000000 0 0 1
-12.368610 29.777631 18.248583 37.049975 -1.177114 1.055791 0.059495 -0.033028 -1010800.000000 0 0 1
-13.692410 29.829631 17.852083 37.362894 -1.140466 1.072645 0.073757 -0.025112 -456730.000000 0 0 1
-14.460610 30.990731 18.223683 38.750965 -1.134215 1.081192 0.077230 -0.023109 141757.000000 0 0 1
-15.177810 30.875631 19.589183 39.590487 -1.113908 1.053197 0.087890 -0.021842 -316295.000000 0 0 1
-14.415110 30.799231 20.751983 39.837581 -1.133046 1.022874 0.084066 -0.022580 98743.000000 0 0 1
-15.360410 30.501631 21.768483 40.498871 -1.104278 1.003317 0.094201 -0.022014 306824.000000 0 0 1
-14.817210 30.477231 23.203383 41.070772 -1.118271 0.970410 0.069577 -0.010457 -717720.000000 0 0 1
-13.800810 29.519131 23.420483 40.129297 -1.133468 0.947610 0.067058 -0.009264 419093.000000 0 0 1
-13.252410 29.415431 24.723583 40.646642 -1.147505 0.916934 0.055235 -0.001147 507222.000000 0 0 1
-12.646010 30.723231 25.377583 41.807419 -1.180321 0.918502 0.048075 0.008938 -210804.000000 0 0 1
-13.750710 31.383231 25.966583 42.991309 -1.157836 0.922291 0.045958 -0.001724 556707.000000 0 0 1
-13.422010 32.635631 26.515683 44.139735 -1.180614 0.926393 0.040175 0.000203 283467.000000 0 0 1
-14.656910 33.357631 27.190383 45.462881 -1.156803 0.929695 0.058348 -0.008306 103052.000000 0 0 1
-15.267510 32.687031 28.244883 45.818253 -1.133828 0.906564 0.066008 -0.010117 345270.000000 0 0 1
-14.621010 32.640331 29.538583 46.386346 -1.149654 0.880462 0.069586 0.000193 152323.000000 0 0 1
-15.613510 31.913031 30.497583 46.822279 -1.115784 0.861437 0.066583 -0.000821 407654.000000 0 0 1
-16.775210 32.660631 30.817783 47.936002 -1.096311 0.872525 0.075881 -0.007146 113187.000000 0 0 1
-17.475510 31.995831 31.856783 48.414681 -1.070890 0.852639 0.064618 -0.011887 -272452.000000 0 0 1
-18.918210 32.354931 32.189883 49.405757 -1.041696 0.861182 0.067089 -0.018315 -402831.000000 0 0 1
-19.138910 33.612631 32.711483 50.657161 -1.053184 0.868801 0.087985 -0.009759 272453.000000 0 0 1
-20.527510 -33.786865 32.889583 51.426215 1.024837 0.876885 0.082215 -0.019929 461480.000000 0 0 1
-20.871010 -32.243765 33.078483 50.689698 0.996330 0.859828 0.093913 -0.015621 -211504.000000 0 0 1
-20.589510 -31.717165 -33.281021 50.373931 0.995012 2.292520 0.107470 -0.012655 -177021.000000 0 0 1
-21.477610 -32.111165 -32.271321 50.337390 0.981282 2.266728 0.094289 -0.014661 -24174.000000 0 0 1
-21.299910 -31.253665 -31.014321 48.911818 0.972583 2.257623 0.110008 -0.018336 164040.000000 0 0 1
-21.478610 -29.831265 -31.138421 48.175060 0.946771 2.273600 0.117116 -0.015007 -2763.200000 0 0 1
-20.946110 -29.137265 -30.023621 46.788221 0.947513 2.267499 0.114949 -0.006992 83113.700000 0 0 1
-21.359510 -27.648065 -30.026921 46.067995 0.913019 2.280746 0.108564 -0.019485 -13050.300000 0 0 1
-22.687410 -27.416365 -29.636921 46.311152 0.879503 2.265232 0.097538 -0.014656 -458872.000000 0 0 1
-23.017310 -26.080265 -29.826921 45.821633 0.847702 2.279612 0.094495 -0.019344 644470.000000 0 0 1
-24.352310 -25.639565 -29.121721 45.809355 0.811142 2.259732 0.086968 -0.017503 446032.000000 0 0 1
-24.385510 -25.769265 -27.712121 45.018550 0.812981 2.233907 0.098521 -0.016932 215754.000000 0 0 1
-23.499710 -24.899065 -27.004721 43.605674 0.814303 2.238639 0.107145 -0.027766 1715.740000 0 0 1
-23.195310 -25.406965 -25.623221 42.896221 0.830872 2.210965 0.108486 -0.019349 -38458.400000 0 0 1
-24.277310 -25.094665 -24.782621 42.817150 0.801952 2.188054 0.102686 -0.022552 147704.000000 0 0 1
-24.120210 -25.633165 -23.502721 42.322826 0.815798 2.159544 0.102694 -0.015331 432827.000000 0 0 1
-25.378510 -25.215265 -22.591221 42.311248 0.782172 2.134037 0.091118 -0.017365 1557190.000000 0 0 1
-26.648910 -25.779565 -22.809321 43.531776 0.768818 2.122301 0.095301 -0.011160 -276365.000000 0 0 1
-26.709910 -27.151265 -22.834021 44.407241 0.793592 2.110866 0.107253 -0.002918 -1341450.000000 0 0 1
-28.134010 -27.604165 -23.139021 45.704779 0.775892 2.101652 0.063234 -0.002268 -191984.000000 0 0 1
-29.014010 -27.236965 -22.080621 45.510646 0.753817 2.077359 0.062184 0.005160 -1414770.000000 0 0 1
-30.321610 -27.318765 -22.461621 46.585829 0.733349 2.073910 0.065824 0.004012 -1492800.000000 0 0 1
-31.264610 -26.591965 -21.530121 46.348189 0.704811 2.053900 0.085624 0.003269 -422749.000000 0 0 1
-31.333810 -27.282265 -20.248521 46.218311 0.716388 2.024287 0.064833 0.021687 -92520.200000 0 0 1
-32.112510 -26.483365 -19.395721 45.921411 0.689625 2.006852 0.062772 0.017262 -501690.000000 0 0 1
-32.831610 -27.354265 -18.342321 46.503884 0.694641 1.976239 0.044282 0.013442 678731.000000 0 0 1
-34.126810 -27.871865 -18.751221 47.886202 0.684850 1.973143 0.043764 0.021989 1861840.000000 0 0 1
-35.296910 -27.046765 -18.589821 48.197312 0.653829 1.966765 0.024461 0.022291 484990.000000 0 0 1
-35.696210 -26.532265 -17.157321 47.671314 0.639186 1.938966 0.042781 0.011011 -1380230.000000 0 0 1
-34.881910 -25.616765 -16.569821 46.341400 0.633433 1.936450 0.038821 0.020511 -655178.000000 0 0 1
-35.331710 -25.155165 -15.356321 46.010093 0.618715 1.911086 0.046753 0.013361 -147146.000000 0 0 1
-34.941410 -25.964965 -14.033021 45.738466 0.639071 1.882636 0.059158 0.014103 47066.000000 0 0 1
-35.672510 -27.162065 -13.848521 46.926403 0.650775 1.870369 0.053520 0.007271 301740.000000 0 0 1
-35.440810 -27.707965 -12.551921 46.704744 0.663550 1.842892 0.041954 -0.004681 -7851.790000 0 0 1
-36.236210 -29.000765 -12.376221 48.034136 0.674939 1.831391 0.040549 -0.013620 95412.800000 0 0 1
-35.588410 -29.983165 -13.191021 48.368670 0.700123 1.847014 0.039954 -0.011143 412430.000000 0 0 1
-36.106910 -31.259065 -12.963921 49.486376 0.713559 1.835859 0.029473 -0.020679 -405970.000000 0 0 1
-35.678110 -32.350965 -14.006521 50.156706 0.736529 1.853815 0.025897 -0.008934 -359305.000000 0 0 1
-34.314510 -32.670665 -13.910521 49.379759 0.760863 1.856367 0.034621 -0.009742 -191166.000000 0 0 1
-33.928110 -33.464665 -15.018021 49.965403 0.778521 1.876085 0.069551 -0.032274 -240577.000000 0 0 1
-32.416110 -33.716765 -15.113421 49.153230 0.805063 1.883335 0.062674 -0.023240 -128585.000000 0 0 1
-32.111010 33.372531 -16.336421 49.109281 -0.804660 1.909913 0.090434 -0.026946 674527.000000 0 0 1
-30.750010 32.904731 -16.475121 47.955334 -0.819235 1.921492 0.086808 -0.031478 621079.000000 0 0 1
9.564932 19.819331 -9.315617 23.897166 1.121160 1.971234 0.097555 -0.031670 287153.000000 0 1 0
8.183332 19.451631 -9.383617 23.095132 1.172572 1.989200 0.087031 -0.042785 653326.000000 0 1 0
7.610932 19.597831 -10.689617 23.585359 1.200368 2.041183 0.098029 -0.040083 243136.000000 0 1 0
7.875132 18.371931 -11.618717 23.120124 1.165838 2.097327 0.089828 -0.028705 -102378.000000 0 1 0
9.240932 18.244431 -11.970217 23.696839 1.101957 2.100340 0.141569 -0.036685 -17688.400000 0 1 0
9.393932 16.965731 -12.457817 23.049494 1.065117 2.141805 0.137219 -0.051897 -275975.000000 0 1 0
10.769532 16.619631 -13.031117 23.706644 0.995828 2.152780 0.175840 -0.053607 -304771.000000 0 1 0
10.720332 15.356231 -13.641117 23.169364 0.961340 2.200316 0.181994 -0.065586 63831.000000 0 1 0
11.961432 14.927931 -14.172217 23.806947 0.895276 2.208432 0.206177 -0.075309 -79794.100000 0 1 0
11.905232 13.629631 -15.013417 23.513912 0.852827 2.263332 0.178601 -0.073683 -601634.000000 0 1 0
11.798832 12.384831 -14.395617 22.356884 0.809625 2.270382 0.190902 -0.068493 1660570.000000 0 1 0
13.062032 11.920831 -13.805817 22.434872 0.739751 2.233656 0.227350 -0.066704 1137690.000000 0 1 0
14.075332 11.380131 -14.825117 23.396719 0.679912 2.257047 0.229939 -0.064555 -709701.000000 0 1 0
14.665932 12.369431 -15.564217 24.705004 0.700657 2.252353 0.194689 -0.054774 -283538.000000 0 1 0
15.439832 11.742431 -16.585017 25.521283 0.650205 2.278184 0.171048 -0.056437 1129.090000 0 0 1
15.922032 12.628931 -17.691817 26.944413 0.670564 2.287104 0.117022 -0.048791 -38943.900000 0 0 1
17.040832 13.424431 -17.380117 27.797010 0.667245 2.246250 0.097812 -0.037419 186316.000000 0 0 1
17.718932 13.962231 -18.555517 29.209787 0.667371 2.259128 0.069472 -0.024409 1129680.000000 0 0 1
18.990232 14.847031 -18.210217 30.210515 0.663560 2.217774 0.056702 -0.011493 475650.000000 0 0 1
18.733332 16.165431 -17.809417 30.486624 0.711949 2.194655 0.070312 -0.017822 319575.000000 0 0 1
18.208232 17.020631 -18.850717 31.250458 0.751700 2.218321 0.069279 -0.012293 -79537.600000 0 0 1
18.005332 18.484231 -18.370717 31.675574 0.798522 2.189482 0.080734 -0.011369 609236.000000 0 0 1
19.155332 19.293431 -18.070717 32.645276 0.788990 2.157414 0.085697 -0.010622 696141.000000 0 0 1
18.675932 20.520731 -17.569617 32.841776 0.832429 2.135278 0.075506 -0.008867 394457.000000 0 0 1
19.694232 21.695431 -17.779117 34.273189 0.833711 2.116181 0.071113 -0.009185 1096890.000000 0 0 1
20.867632 21.865631 -16.959717 34.658273 0.808748 2.082130 0.085620 -0.011953 377824.000000 0 0 1
20.661532 22.098331 -15.606117 34.040946 0.818987 2.047048 0.082093 -0.009777 -631461.000000 0 0 1
21.748332 22.875931 -14.877017 34.894467 0.810662 2.011243 0.082566 -0.012311 -497797.000000 0 0 1
22.965332 22.192431 -14.733117 35.170658 0.768284 2.003034 0.080950 -0.020786 -663050.000000 0 0 1
23.759132 23.007731 -13.882417 35.868838 0.769333 1.968208 0.069921 -0.026839 163043.000000 0 0 1
25.201832 22.387831 -13.799117 36.424757 0.726336 1.959338 0.054822 -0.015492 1062970.000000 0 0 1
25.961332 22.580231 -15.036917 37.549520 0.715857 1.982810 0.081102 -0.010465 390714.000000 0 0 1
26.754632 23.725331 -15.109317 38.820009 0.725460 1.970575 0.048037 -0.008416 -598835.000000 0 0 1
26.960732 24.213731 -16.565117 39.844560 0.731770 1.999556 0.052220 -0.017783 -330903.000000 0 0 1
27.971832 23.422931 -17.134817 40.307059 0.697119 2.009877 0.054031 -0.018481 -87201.900000 0 0 1
27.930732 23.544431 -18.527717 40.960253 0.700392 2.040177 0.053462 -0.021699 -398904.000000 0 0 1
28.734432 22.467431 -19.325617 41.278717 0.663606 2.058019 0.043430 -0.018056 -1924490.000000 0 0 1
30.057832 22.630331 -19.391117 42.327539 0.645350 2.046676 0.038540 -0.011371 -2361530.000000 0 0 1
30.567832 21.651231 -20.279517 42.596091 0.616276 2.066998 0.060536 -0.008224 -88587.300000 0 0 1
32.054632 21.930231 -20.588417 43.958132 0.600010 2.058235 0.096917 -0.013043 -232608.000000 0 0 1
32.251632 23.077331 -21.390817 45.058829 0.621079 2.065455 0.084878 -0.009647 -25177.300000 0 0 1
33.580232 23.529231 -21.285017 46.198578 0.611187 2.049613 0.101398 -0.003876 -83277.700000 0 0 1
33.720332 24.927131 -21.810717 47.266585 0.636574 2.050415 0.096601 -0.001691 -256253.000000 0 0 1
33.885332 25.115631 -23.210517 48.142899 0.637842 2.073866 0.094651 -0.010404 556545.000000 0 0 1
32.758932 24.835031 -24.036217 47.620018 0.648674 2.099889 0.100539 -0.021844 17602.400000 0 0 1
33.042032 25.438631 -25.435147 48.845128 0.656108 2.118503 0.103681 -0.028092 -185611.000000 0 0 1
32.743032 26.833731 -25.668797 49.508003 0.686534 2.115866 0.108552 -0.030186 697114.000000 0 0 1
31.348132 27.111631 -25.897417 48.871486 0.713056 2.129289 0.099405 -0.026334 944418.000000 0 0 1
30.925032 26.829931 -27.361707 49.242927 0.714612 2.159938 0.109640 -0.030672 -301651.000000 0 0 1
30.740832 25.441731 -27.672897 48.559959 0.691357 2.177145 0.104217 -0.043109 -84899.500000 0 0 1
30.371032 25.245031 -28.993937 48.993464 0.693490 2.204076 0.115017 -0.050887 -29926.100000 0 0 1
29.712432 23.822931 -29.212647 47.997285 0.675827 2.225131 0.122789 -0.055246 1690090.000000 0 0 1
28.335232 23.817731 -28.726037 46.854614 0.698994 2.230761 0.122534 -0.050589 1323950.000000 0 0 1
27.622532 22.641331 -28.966287 45.985649 0.686620 2.252219 0.140667 -0.057712 -160354.000000 0 0 1
26.135432 22.716631 -28.583717 44.901392 0.715529 2.260863 0.120236 -0.043085 -229282.000000 0 0 1
25.968032 22.813631 -27.202987 43.986395 0.720824 2.237553 0.094827 -0.032216 662782.000000 0 0 1
24.583932 22.942431 -26.880997 43.050120 0.750873 2.245174 0.078117 -0.025685 250515.000000 0 0 1
24.297032 23.144231 -25.373307 42.069061 0.761103 2.218221 0.084011 -0.019862 -207365.000000 0 0 1
24.740632 22.060031 -24.580817 41.266941 0.728184 2.208876 0.082577 -0.025466 369027.000000 0 0 1
25.025932 22.512731 -23.221717 40.894602 0.732581 2.174679 0.082943 -0.017440 -456826.000000 0 0 1
25.720232 21.444531 -22.357717 40.264944 0.694991 2.159478 0.073766 -0.018588 -1476110.000000 0 0 1
26.930032 21.159531 -22.906817 41.202847 0.665974 2.160304 0.067479 -0.019943 -1333830.000000 0 0 1
27.545632 20.133831 -22.177917 40.693894 0.631182 2.147178 0.092947 -0.027220 -136436.000000 0 0 1
28.863932 19.690431 -22.839117 41.742843 0.598667 2.149738 0.121530 -0.039638 307001.000000 0 0 1
29.704832 18.771731 -22.089117 41.505229 0.563576 2.131994 0.123060 -0.029315 147292.000000 0 0 1
30.708032 18.295431 -22.940617 42.473261 0.537316 2.141375 0.120624 -0.024039 405780.000000 0 0 1
31.957832 17.715931 -22.177517 42.743415 0.506179 2.116304 0.090759 -0.011519 803833.000000 0 0 1
32.742932 18.645631 -21.456417 43.360546 0.517657 2.088444 0.096763 -0.003836 -325756.000000 0 0 1
33.922832 18.153231 -20.917017 43.792921 0.491357 2.068757 0.112203 -0.007451 -437002.000000 0 0 1
34.634732 19.204631 -20.119417 44.420417 0.506284 2.040847 0.064316 -0.013729 -181814.000000 0 0 1
33.960632 19.389231 -18.894917 43.431379 0.518772 2.020893 0.074268 -0.013578 262772.000000 0 0 1
34.500332 20.511231 -18.215917 44.077241 0.536382 1.996841 0.057277 -0.008729 16563.200000 0 0 1
33.831532 20.744231 -16.839217 43.109801 0.550042 1.972093 0.058417 -0.014454 15792.100000 0 0 1
33.915632 19.694731 -15.927517 42.330111 0.526106 1.956563 0.061551 -0.024056 269721.000000 0 0 1
33.620632 20.026531 -14.542017 41.747804 0.537224 1.926585 0.054697 -0.023482 -146261.000000 0 0 1
33.923332 18.887031 -13.603417 41.140799 0.508016 1.907794 0.070657 -0.022724 -931401.000000 0 0 1
35.311532 18.704231 -13.530317 42.187937 0.487118 1.897281 0.068824 -0.029592 -317490.000000 0 0 1
35.655732 17.521731 -12.811017 41.742837 0.456755 1.882734 0.066627 -0.009323 -6736.420000 0 0 1
35.690232 17.744531 -11.273117 41.421543 0.461390 1.846429 0.060011 -0.014604 -342741.000000 0 0 1
36.713932 18.611631 -10.820817 42.560495 0.469181 1.827864 0.062663 -0.023647 146667.000000 0 0 1
36.417332 19.276831 -9.582217 42.304104 0.486836 1.799287 0.061896 -0.017951 -483638.000000 0 0 1
35.259332 20.283431 -9.559017 41.785319 0.522033 1.801605 0.065826 -0.014221 212024.000000 0 0 1
34.008032 19.601331 -9.480617 40.381190 0.522866 1.807787 0.058277 -0.024818 -303090.000000 0 0 1
32.972532 20.557531 -9.347617 39.964708 0.557502 1.806880 0.032629 -0.013621 811026.000000 0 0 1
31.573132 19.929631 -9.716217 38.580536 0.563060 1.825380 0.029617 -0.011935 762651.000000 0 0 1
31.636032 19.349631 -10.979717 38.675586 0.548929 1.858648 0.037926 -0.014858 -411478.000000 0 0 1
30.412832 18.796731 -11.372117 37.517762 0.553588 1.878754 0.021721 -0.009197 -410902.000000 0 0 1
30.418832 18.255931 -12.804917 37.716711 0.540531 1.917184 0.038460 -0.003037 -758123.000000 0 0 1
31.037932 17.030331 -12.936917 37.692827 0.501840 1.921139 0.049591 -0.002081 -127510.000000 0 0 1
30.794932 16.339631 -14.122517 37.613254 0.487823 1.955696 0.045029 -0.003572 -17816.400000 0 0 1
32.135232 15.853231 -14.700217 38.731053 0.458296 1.960102 0.063685 -0.012846 320793.000000 0 0 1
32.915332 14.908931 -13.962017 38.738008 0.425303 1.939516 0.056450 -0.015513 348766.000000 0 0 1
34.106632 14.563531 -14.654417 39.876192 0.403563 1.947114 0.066083 -0.012974 284762.000000 0 0 1
34.909532 13.515031 -13.836117 39.909518 0.369375 1.924833 0.063185 -0.020922 -106153.000000 0 0 1
35.490732 13.988931 -12.645417 40.189412 0.375459 1.890879 0.056036 -0.007799 -52725.100000 0 0 1
36.287532 12.917831 -12.150317 40.389176 0.341997 1.876360 0.058223 -0.001067 163405.000000 0 0 1
37.372032 13.286931 -11.112117 41.190903 0.341594 1.843952 0.092071 -0.004442 -312513.000000 0 0 1
-36.775725 13.817131 -11.700817 40.991172 -0.359396 1.860269 0.071113 -0.013806 -347450.000000 0 0 1
-35.879525 14.219131 -10.632917 40.032274 -0.377314 1.839631 0.066275 -0.022202 809368.000000 0 0 1
-34.419825 14.552631 -11.099117 38.983251 -0.400004 1.859505 0.100048 -0.033934 1252170.000000 0 0 1
-33.484425 13.525131 -11.478217 37.893078 -0.383884 1.878542 0.114875 -0.039618 598784.000000 0 0 1
-33.245625 12.425731 -10.576417 37.034187 -0.357679 1.860413 0.131378 -0.033207 -835636.000000 0 0 1
-32.134425 11.459631 -11.010117 35.849227 -0.342556 1.882965 0.161126 -0.042352 -244263.000000 0 0 1
-32.403325 10.789431 -12.237017 36.278532 -0.321426 1.914852 0.138643 -0.028914 797465.000000 0 0 1
-31.314625 9.878231 -12.481917 35.128100 -0.305571 1.934059 0.162624 -0.033012 486014.000000 0 0 1
-31.297525 9.233331 -13.863617 35.454046 -0.286880 1.972547 0.155221 -0.031595 -586446.000000 0 0 1
-32.414125 8.487531 -14.232317 36.404293 -0.256097 1.972462 0.135435 -0.030872 -272343.000000 0 0 1
-32.170025 7.496731 -15.223817 36.371364 -0.228949 2.002662 0.128191 -0.031494 13630.500000 0 0 1
-33.464025 7.024731 -15.971717 37.739681 -0.206915 2.007779 0.122851 -0.033548 65912.800000 0 0 1
-34.324825 6.366731 -15.090417 38.032217 -0.183400 1.978802 0.127220 -0.032445 -754352.000000 0 0 1
-35.345825 5.762731 -15.799917 39.142992 -0.161617 1.986295 0.110824 -0.039878 -746166.000000 0 0 1
-36.462825 5.276531 -14.860517 39.726746 -0.143712 1.954188 0.126804 -0.039818 -163885.000000 0 0 1
-37.313125 4.290531 -15.392317 40.590656 -0.114484 1.959737 0.127818 -0.036378 868990.000000 0 0 1
36.815932 4.034731 -14.560317 39.795662 0.109156 1.945371 0.125599 -0.037804 1244430.000000 0 0 1
35.901132 2.876831 -15.049917 39.034183 0.079961 1.966608 0.116549 -0.034909 105915.000000 0 0 1
36.505132 1.567731 -14.895317 39.458243 0.042919 1.957887 0.140607 -0.042127 272717.000000 0 0 1
35.623732 0.447731 -14.872917 38.606404 0.012568 1.966269 0.141618 -0.031110 355923.000000 0 0 1
34.850932 0.157931 -13.511317 37.378712 0.004532 1.940641 0.131115 -0.040368 286398.000000 0 0 1
35.664232 -0.227269 -12.437217 37.771331 -0.006372 1.906334 0.157960 -0.042456 -123224.000000 0 0 1
34.900532 -0.407369 -11.297917 36.685910 -0.011672 1.883848 0.138589 -0.035104 -314905.000000 0 0 1
34.986532 0.859131 -10.371217 36.501475 0.024551 1.858897 0.143915 -0.038949 79107.000000 0 0 1
34.215732 1.944931 -10.924717 35.970106 0.056782 1.879387 0.137729 -0.020748 478875.000000 0 0 1
34.723832 3.244231 -10.639217 36.461795 0.093159 1.866895 0.140982 -0.032492 -511680.000000 0 0 1
33.939332 4.382731 -11.257917 36.025370 0.128424 1.888620 0.145336 -0.036177 -278408.000000 0 0 1
33.905432 4.489331 -12.617817 36.454653 0.131642 1.924233 0.130251 -0.030760 336623.000000 0 0 1
32.930632 5.463531 -12.894317 35.784635 0.164413 1.939419 0.129705 -0.034444 -194400.000000 0 0 1
33.241732 6.241631 -14.206517 36.685090 0.185604 1.968450 0.095293 -0.025036 -279280.000000 0 0 1
33.117132 5.428931 -15.361317 36.907828 0.162486 2.000067 0.085333 -0.013988 382241.000000 0 0 1
33.441732 6.042131 -16.600217 37.820947 0.178748 2.025188 0.076434 -0.012799 -633938.000000 0 0 1
32.372032 7.089931 -17.035517 37.261568 0.215610 2.045626 0.083336 -0.018101 1095460.000000 0 0 1
31.184632 6.631231 -17.723817 36.477228 0.209523 2.078174 0.065427 -0.017590 1108600.000000 0 0 1
30.244432 5.963731 -16.903417 35.157037 0.194687 2.072360 0.064740 -0.010872 -341191.000000 0 0 1
28.813032 5.962631 -17.524517 34.246934 0.204062 2.107971 0.063036 -0.013726 172607.000000 0 0 1
28.635332 5.041831 -18.568417 34.499107 0.174284 2.139131 0.074947 -0.009627 -454626.000000 0 0 1
27.549032 5.403031 -19.336517 34.088749 0.193666 2.173947 0.068630 -0.012107 -685284.000000 0 0 1
27.014132 4.107731 -20.058417 33.896561 0.150903 2.204029 0.063550 0.005316 -188292.000000 0 0 1
26.273032 3.202831 -19.280017 32.745219 0.121307 2.200356 0.068579 -0.007600 40105.000000 0 0 1
25.817432 2.172731 -20.093017 32.787038 0.083960 2.230439 0.070547 -0.009966 489253.000000 0 0 1
24.583032 1.424831 -19.437117 31.371279 0.057895 2.239008 0.087481 -0.009969 901646.000000 0 0 1
23.455432 2.259831 -19.185417 30.386582 0.096049 2.254125 0.101361 -0.026838 638384.000000 0 0 1
22.369832 1.431231 -18.779617 29.242637 0.063893 2.268161 0.114111 -0.031421 673023.000000 0 0 1
20.981332 2.108831 -18.571717 28.099326 0.100173 2.292855 0.130288 -0.044999 -1002800.000000 0 0 1
20.309632 2.380131 -19.783517 28.452306 0.116660 2.339664 0.125728 -0.035268 264416.000000 0 0 1
19.071832 3.036431 -19.594617 27.511883 0.157885 2.363457 0.120038 -0.034718 717192.000000 0 0 1
17.922832 2.324531 -18.793817 26.073721 0.128977 2.375745 0.162404 -0.043204 -1002300.000000 0 0 1
18.143132 2.311931 -17.403617 25.246864 0.126744 2.331371 0.172241 -0.051063 -132778.000000 0 0 1
17.022732 1.846331 -16.679717 23.903876 0.108040 2.343094 0.140563 -0.041352 377356.000000 0 1 0
15.985632 2.970031 -16.364817 23.068783 0.183699 2.359432 0.136959 -0.036229 293841.000000 0 1 0
15.220132 3.349131 -17.513117 23.443088 0.216594 2.414407 0.122748 -0.029069 -341159.000000 0 1 0
14.286932 4.319131 -17.308917 22.855413 0.293578 2.429999 0.135872 -0.031432 -699840.000000 0 1 0
-21.402368 -21.746069 -17.215017 35.032980 0.793364 2.084487 0.097989 -0.026104 -240201.000000 0 0 1
-21.030168 -22.356569 -18.433617 35.803385 0.815960 2.111637 0.099973 -0.027274 417679.000000 0 0 1
-22.000468 -22.130869 -19.440217 36.765717 0.788353 2.127935 0.099963 -0.022469 -63345.100000 0 0 1
-21.547768 -22.866369 -20.751917 37.653940 0.815078 2.154505 0.075276 -0.011613 84862.900000 0 0 1
-21.563268 -24.242469 -20.554617 38.407865 0.843822 2.135502 0.076098 -0.015126 349342.000000 0 0 1
-20.834468 -25.002249 -21.522917 39.018245 0.876076 2.155091 0.073279 -0.020894 38823.400000 0 0 1
-20.839868 -26.453419 -21.117617 39.749682 0.903542 2.130889 0.081438 -0.007652 639886.000000 0 0 1
-22.065368 -27.186519 -21.268817 40.967668 0.889005 2.116665 0.100756 0.007320 604149.000000 0 0 1
-21.795568 -28.546719 -21.071017 41.640721 0.918708 2.101360 0.123497 -0.022774 -6726.860000 0 0 1
-22.972568 -29.379749 -21.577517 43.087095 0.907178 2.095306 0.116471 -0.017479 139463.000000 0 0 1
-23.516568 -28.981859 -22.841417 43.757370 0.889128 2.119992 0.106827 -0.015474 355843.000000 0 0 1
-23.124468 -29.917899 -23.848217 44.705247 0.912780 2.133476 0.100540 -0.022926 -20349.800000 0 0 1
-23.597968 -29.427749 -25.212717 45.371109 0.894901 2.160001 0.098646 -0.016640 427204.000000 0 0 1
-25.012498 -29.603049 -25.379637 46.325927 0.869253 2.150588 0.093849 -0.012059 951155.000000 0 0 1
-25.542148 -28.811439 -26.459227 46.718208 0.845474 2.172876 0.090575 -0.008666 -104728.000000 0 0 1
-24.968168 -29.048929 -27.881747 47.377647 0.860801 2.199999 0.088928 -0.015921 -647322.000000 0 0 1
-25.326048 -30.256389 -28.539647 48.696706 0.873870 2.196996 0.073305 -0.007374 208096.000000 0 0 1
-24.985668 -30.235259 -29.904767 49.322911 0.880179 2.222203 0.096170 -0.007876 -12187.600000 0 0 1
-25.676218 -31.417199 -30.615567 50.829337 0.885615 2.217202 0.063232 -0.005858 170663.000000 0 0 1
-25.038138 -32.673489 -30.429477 51.190021 0.916936 2.207367 0.071805 -0.017183 111906.000000 0 0 1
-25.882678 -33.685219 -30.885527 52.521641 0.915642 2.199446 0.061163 -0.012604 -91826.100000 0 0 1
-25.162868 32.601223 -30.796987 51.424353 -0.913465 2.212897 0.070064 -0.012651 -89050.300000 0 0 1
-24.114468 32.530025 -31.713437 51.433959 -0.932887 2.235195 0.086544 -0.027180 -587249.000000 0 0 1
-23.464068 31.301437 -31.529997 50.244235 -0.927541 2.249179 0.090010 -0.024771 -739975.000000 0 0 1
-22.192068 31.170437 -32.343137 50.101522 -0.952089 2.272542 0.079467 -0.025914 -710531.000000 0 0 1
-22.281768 30.873497 -33.726707 50.863944 -0.945647 2.295718 0.069411 -0.024125 -90271.600000 0 0 1
-21.705468 29.656857 33.572630 49.777284 -0.938989 0.830568 0.057719 -0.014506 -130421.000000 0 0 1
-21.942068 29.388317 32.076746 48.724174 -0.929458 0.852194 0.051230 -0.015778 202203.000000 0 0 1
-20.995868 30.021257 31.228258 48.138409 -0.960496 0.864898 0.054233 -0.019023 376180.000000 0 0 1
-21.355868 29.849957 29.920838 47.353454 -0.949783 0.886843 0.058834 -0.015526 -59536.100000 0 0 1
-20.868168 31.059287 29.079278 47.389494 -0.979192 0.910156 0.057725 -0.028218 79265.900000 0 0 1
-21.601668 32.226532 29.314138 48.626126 -0.980278 0.923731 0.057531 -0.027680 439576.000000 0 0 1
-20.741268 33.309082 29.024948 48.807200 -1.013859 0.933922 0.065831 -0.032010 659483.000000 0 0 1
-21.545768 -32.970959 29.026788 48.927075 0.991981 0.935686 0.071157 -0.038976 388859.000000 0 0 1
-22.050968 -32.680579 30.309798 49.728757 0.977224 0.915364 0.069482 -0.029434 -114046.000000 0 0 1
-23.335068 -32.097289 30.306848 49.932619 0.942172 0.918573 0.075893 -0.032248 -279497.000000 0 0 1
-23.485368 -30.571909 30.006018 48.852484 0.915748 0.909403 0.078792 -0.014728 -633630.000000 0 0 1
-23.212268 -30.229739 28.681518 47.699853 0.915961 0.925680 0.055986 -0.016541 58264.400000 0 0 1
-23.260468 -28.808419 28.445318 46.691653 0.891548 0.915724 0.049467 -0.015729 343370.000000 0 0 1
-24.638268 -28.394799 27.827508 46.772631 0.856114 0.933589 0.049743 -0.007409 -596511.000000 0 0 1
-25.716078 -28.376709 28.678578 47.843653 0.834545 0.928016 0.072781 -0.002599 -949578.000000 0 0 1
-26.574638 -29.437359 28.494988 48.833737 0.836463 0.947752 0.062599 -0.017690 -242242.000000 0 0 1
-27.675658 -29.391249 27.359918 48.768357 0.815452 0.975181 0.041142 -0.001831 -46713.700000 0 0 1
-27.052928 -29.512229 26.101438 47.792443 0.828848 0.993045 0.041473 -0.007447 202116.000000 0 0 1
-27.943368 -29.637309 25.011608 47.799398 0.814808 1.020122 0.038078 -0.008266 -299053.000000 0 0 1
-27.161348 -29.903489 23.734078 46.853644 0.833414 1.039609 0.026460 -0.015393 -300071.000000 0 0 1
-26.487318 -28.717989 23.268758 45.472365 0.825783 1.033620 0.009595 -0.015606 190130.000000 0 0 1
-25.978118 -28.781669 21.981888 44.569614 0.836551 1.055028 0.029386 -0.023034 136130.000000 0 0 1
-24.739568 -29.689749 21.701188 44.322330 0.876096 1.059140 0.040698 -0.030350 -494501.000000 0 0 1
-25.042598 -31.050419 21.519988 45.325160 0.892096 1.076070 0.047783 -0.035995 -421514.000000 0 0 1
-23.978268 -31.790389 21.094888 45.061962 0.924573 1.083622 0.054317 -0.027979 -213273.000000 0 0 1
-22.911068 -32.386809 22.113388 45.418326 0.955108 1.062279 0.052644 -0.023180 144872.000000 0 0 1
-22.248768 -31.494119 22.888178 44.841453 0.955760 1.035118 0.058705 -0.023378 -810906.000000 0 0 1
-21.121468 -32.141639 23.359838 44.998704 0.989420 1.024972 0.075016 -0.027584 -831910.000000 0 0 1
-20.562768 -31.646619 24.682128 45.094826 0.994588 0.991616 0.071063 -0.027319 -1108410.000000 0 0 1
-20.002368 -30.382479 24.645088 43.938253 0.988572 0.975320 0.075434 -0.027042 155678.000000 0 0 1
-19.291868 -29.954319 25.782718 43.979381 0.998620 0.944380 0.085602 -0.021054 518917.000000 0 0 1
-18.060068 -30.747049 26.304878 44.311327 1.039711 0.935224 0.082294 -0.031064 -579346.000000 0 0 1
-18.450868 -31.877029 27.039028 45.691230 1.046101 0.937535 0.088003 -0.029766 100180.000000 0 0 1
-17.542968 -32.353899 28.024278 46.258952 1.073945 0.920009 0.090179 -0.019927 -389527.000000 0 0 1
-17.706868 -31.719729 29.456538 46.769242 1.061657 0.889466 0.110337 -0.021322 -79568.400000 0 0 1
-17.527068 -30.295439 29.498088 45.772797 1.046307 0.870498 0.104962 -0.013645 216064.000000 0 0 1
-18.049568 -29.751439 30.675388 46.388732 1.025480 0.848288 0.124931 -0.012191 -228081.000000 0 0 1
-17.692268 -28.280399 30.887098 45.462184 1.011764 0.823849 0.120277 -0.020125 43296.800000 0 0 1
-18.415668 -27.250629 30.179298 44.637693 0.976505 0.828347 0.124518 -0.018576 249883.000000 0 0 1
-18.518168 -27.299319 28.761608 43.765345 0.974757 0.853728 0.101621 -0.016513 -268451.000000 0 0 1
-17.334268 -26.765899 27.938458 42.396316 0.996092 0.851330 0.101892 -0.018942 -114927.000000 0 0 1
-17.239368 -25.388159 28.071958 41.590735 0.974282 0.829890 0.105262 -0.018073 335332.000000 0 0 1
-16.160468 -24.826069 27.328138 40.302873 0.993755 0.825664 0.091919 -0.017988 176153.000000 0 0 1
-16.546268 -23.429069 26.765018 39.230937 0.955903 0.819971 0.093244 -0.018767 -122036.000000 0 0 1
-17.479568 -23.537769 25.707448 38.992752 0.932037 0.850925 0.094879 -0.019942 75760.500000 0 0 1
-17.504568 -22.377369 24.870358 37.758327 0.906976 0.851744 0.105466 -0.029439 18194.400000 0 0 1
-18.067368 -21.009769 25.367548 37.567974 0.860554 0.829501 0.081407 -0.022004 -283334.000000 0 0 1
-17.870768 -20.026769 24.368818 36.252932 0.842227 0.833635 0.100105 -0.024697 177539.000000 0 0 1
-18.135668 -18.746969 24.930538 36.081616 0.801971 0.807996 0.083220 -0.013226 40233.700000 0 0 1
-17.521068 -17.586169 24.065448 34.574658 0.787253 0.800925 0.089716 -0.025933 389498.000000 0 0 1
-16.099468 -17.533769 24.144948 33.905817 0.828018 0.778286 0.093659 -0.028181 272665.000000 0 0 1
-15.596268 -16.494969 23.298108 32.528901 0.813395 0.772414 0.097714 -0.026761 -234824.000000 0 0 1
-14.140568 -16.105869 23.531658 31.829131 0.850283 0.738748 0.100358 -0.034185 -1030250.000000 0 0 1
-13.214568 -17.070969 23.164118 31.664162 0.912051 0.750194 0.094939 -0.032564 -32822.200000 0 0 1
-11.868368 -16.617469 23.280958 30.967748 0.950597 0.720038 0.097991 -0.031750 412175.000000 0 0 1
-11.305468 -15.918269 22.005588 29.418545 0.953244 0.725726 0.101118 -0.026638 -474629.000000 0 0 1
-10.923068 -16.680869 20.900488 28.885900 0.991036 0.761860 0.118506 -0.028096 905499.000000 0 0 1
-9.550268 -17.114669 21.029188 28.746239 1.061819 0.750210 0.113599 -0.028622 674976.000000 0 0 1
-9.184768 -18.298369 20.119688 28.705263 1.105594 0.794130 0.111219 -0.027942 48792.900000 0 0 1
-9.367068 -18.021269 18.786388 27.666523 1.091451 0.824356 0.103221 -0.029111 -197182.000000 0 0 1
-9.249468 -19.210669 18.079288 27.954662 1.122078 0.867499 0.093361 -0.030806 -28845.900000 0 0 1
-8.860668 -18.902669 16.634088 26.692981 1.132458 0.898015 0.092606 -0.032116 -683063.000000 0 0 1
-7.683168 -18.203369 16.413788 25.686692 1.171407 0.877599 0.101908 -0.027983 -747818.000000 0 0 1
-7.702468 -17.687169 15.153188 24.531267 1.160080 0.904970 0.129377 -0.033414 -58558.800000 0 1 0
-6.512268 -16.781269 14.800188 23.303781 1.200619 0.882661 0.094245 -0.030515 -96928.600000 0 1 0
-6.501568 -15.591169 15.499488 22.925729 1.175718 0.828375 0.095853 -0.036054 203171.000000 0 1 0
-5.217568 -15.008269 15.645088 22.298877 1.236220 0.793144 0.057836 -0.010801 -203625.000000 0 1 0
-5.275068 -13.955669 16.806488 22.473208 1.209409 0.725986 0.027943 0.001689 -307585.000000 0 1 0
-5.383568 -14.350869 18.178788 23.778111 1.211904 0.700503 0.059148 0.007303 975777.000000 0 1 0
-6.604768 -14.951369 18.711288 24.845094 1.154824 0.718008 0.107089 -0.019139 1332630.000000 0 1 0
-7.797768 -14.002369 18.965988 24.831034 1.062679 0.701613 0.110207 -0.034046 -70394.200000 0 1 0
-7.480368 -13.033369 19.935988 24.965341 1.049759 0.645920 0.097090 -0.036543 846828.000000 0 1 0
-8.652968 -12.604469 20.664188 25.705158 0.969188 0.636985 0.098723 -0.021968 1052220.000000 0 0 1
-8.192668 -11.737669 21.896988 26.160481 0.961427 0.578972 0.092464 -0.011796 -276937.000000 0 0 1
-7.814668 -10.445769 21.497088 25.145734 0.928501 0.545438 0.070213 -0.009640 253162.000000 0 0 1
-7.312268 -9.643969 22.547688 25.590499 0.922054 0.492622 0.062203 -0.012775 -79576.500000 0 0 1
-5.952668 -9.923569 23.218158 25.942135 1.030486 0.462370 0.070288 -0.008045 -220915.000000 0 0 1
-5.935568 -11.079169 24.046028 27.132829 1.078966 0.481646 0.082207 -0.005524 158656.000000 0 0 1
-4.632768 -11.222869 24.596378 27.429859 1.179307 0.458537 0.082420 -0.009677 317912.000000 0 0 1
-4.563768 -12.511269 25.420398 28.697674 1.221022 0.482581 0.097120 -0.009029 216527.000000 0 0 1
-3.243268 -12.749169 25.941638 29.086572 1.321690 0.469318 0.086874 -0.011103 867670.000000 0 0 1
-3.082968 -13.944169 26.683678 30.264884 1.353203 0.491404 0.100745 -0.020289 -168517.000000 0 0 1
-3.020368 -15.286669 25.888028 30.215805 1.375727 0.541821 0.112126 -0.030606 -626635.000000 0 0 1
-1.774168 -15.644169 25.373838 29.861670 1.457871 0.555356 0.111678 -0.037376 -381988.000000 0 0 1
-1.682868 -16.884869 24.692298 29.960648 1.471457 0.602083 0.108492 -0.034062 174535.000000 0 0 1
-0.267468 -17.561369 24.657778 30.273408 1.555567 0.618925 0.104972 -0.037303 654887.000000 0 0 1
0.183332 -18.102669 25.857628 31.565126 -1.560669 0.610811 0.099622 -0.041119 109603.000000 0 0 1
0.905432 -17.172469 26.669818 31.733148 -1.518119 0.572701 0.119334 -0.045239 -18370.700000 0 0 1
1.643832 -17.814169 27.888278 33.133108 -1.478780 0.570364 0.097475 -0.034481 -373251.000000 0 0 1
2.809432 -18.546969 27.510338 33.297172 -1.420463 0.598456 0.092354 -0.040747 352021.000000 0 0 1
3.709232 -18.653569 28.617278 34.360772 -1.374508 0.586564 0.101587 -0.042905 224719.000000 0 0 1
4.600632 -17.440669 28.948348 34.107911 -1.312884 0.557221 0.132613 -0.039954 -1080570.000000 0 0 1
3.923532 -16.265269 29.323908 33.761586 -1.334097 0.518510 0.128853 -0.044901 -178548.000000 0 0 1
4.821532 -15.251569 29.725378 33.755824 -1.264605 0.493669 0.159248 -0.054033 -354343.000000 0 0 1
4.116232 -14.075369 30.390598 33.743856 -1.286288 0.449588 0.137543 -0.046407 -86552.200000 0 0 1
3.753832 -14.482169 31.723290 35.074087 -1.317174 0.440672 0.114213 -0.053838 -381752.000000 0 0 1
2.786232 -13.568069 32.147953 35.004949 -1.368260 0.406822 0.123103 -0.047440 -634860.000000 0 0 1
1.951332 -14.111369 33.294721 36.214319 -1.433387 0.404295 0.112907 -0.043537 -223220.000000 0 0 1
2.645632 -14.269969 -33.158007 36.195093 -1.387479 2.729017 0.121251 -0.038235 -267330.000000 0 0 1
1.895332 -15.130869 -32.313057 35.730507 -1.446183 2.700662 0.113061 -0.046221 244656.000000 0 0 1
2.493232 -15.446869 -30.918667 34.652358 -1.410770 2.673107 0.111824 -0.035107 153208.000000 0 0 1
1.773432 -16.445269 -30.188677 34.423076 -1.463373 2.640357 0.104709 -0.030803 133017.000000 0 0 1
2.131932 -16.398369 -28.806647 33.215577 -1.441513 2.620475 0.107794 -0.024568 -13979.300000 0 0 1
1.905332 -17.730169 -28.049547 33.238024 -1.463744 2.575307 0.103386 -0.029180 51549.000000 0 0 1
2.739232 -18.773269 -28.565477 34.291770 -1.425907 2.555327 0.091230 -0.017480 285906.000000 0 0 1
2.694032 -19.909369 -27.738907 34.250368 -1.436298 2.514755 0.073110 -0.027584 -841513.000000 0 0 1
3.897432 -20.849369 -27.962807 35.097076 -1.385996 2.492657 0.051339 -0.026439 4806.370000 0 0 1
5.131932 -20.406069 -27.425677 34.567501 -1.324415 2.487162 0.064561 -0.018442 90787.200000 0 0 1
5.254132 -20.366169 -26.032817 33.467810 -1.318318 2.462028 0.085125 -0.019587 -412967.000000 0 0 1
6.446532 -21.307869 -25.595057 33.921822 -1.277009 2.425735 0.043487 -0.011108 542558.000000 0 0 1
6.110232 -22.707869 -25.722977 34.851883 -1.307942 2.400995 0.051011 -0.007509 84419.300000 0 0 1
6.428032 -23.215169 -26.977767 36.167161 -1.300674 2.412710 0.042354 -0.009595 -177007.000000 0 0 1
5.858132 -24.615469 -27.358497 37.265619 -1.337157 2.395208 0.048613 -0.000897 217955.000000 0 0 1
6.485632 -25.545669 -26.506087 37.379369 -1.322166 2.359032 0.063324 -0.005768 125418.000000 0 0 1
5.905232 -26.847069 -26.674567 38.303647 -1.354286 2.341162 0.072521 -0.008772 186314.000000 0 0 1
6.367132 -27.824929 -25.587527 38.333909 -1.345841 2.301630 0.093867 -0.015354 959445.000000 0 0 1
7.784532 -28.052319 -25.702407 38.834846 -1.300107 2.294065 0.111628 -0.023519 393221.000000 0 0 1
8.179132 -29.176719 -24.975117 39.267488 -1.297481 2.260133 0.125487 -0.034980 -565623.000000 0 0 1
9.695732 -29.347069 -24.859617 39.664319 -1.251705 2.248172 0.158791 -0.043851 -524856.000000 0 0 1
10.207232 -29.573129 -26.160467 40.781461 -1.238447 2.267221 0.168435 -0.047671 -402234.000000 0 0 1
11.558032 -29.957889 -26.119857 41.392151 -1.202583 2.253682 0.146593 -0.038695 -262398.000000 0 0 1
12.138332 -29.791409 -27.536937 42.345602 -1.183889 2.278763 0.146920 -0.056580 -106404.000000 0 0 1
11.396332 -30.608009 -28.437017 43.305779 -1.214367 2.287173 0.163788 -0.066161 241182.000000 0 0 1
11.513632 -30.120909 -29.760717 43.880897 -1.205687 2.316128 0.136956 -0.042053 -85981.900000 0 0 1
-35.620806 -5.328169 -5.727417 36.469638 0.148479 1.728495 0.239155 -0.046053 153835.000000 0 0 1
-35.548625 -4.584869 -4.510617 36.125772 0.128266 1.695982 0.233585 -0.054972 29494.600000 0 0 1
-34.994278 -3.277769 -4.658817 35.454871 0.093393 1.702579 0.236641 -0.060088 -230899.000000 0 0 1
-35.920278 -2.137769 -5.086917 36.341617 0.059444 1.711232 0.204177 -0.046873 -432687.000000 0 0 1
-36.865708 -1.733569 -4.106317 37.134182 0.046989 1.681603 0.159922 -0.043049 661405.000000 0 0 1
-37.616038 -0.612169 -4.638717 37.905920 0.016273 1.693478 0.171145 -0.044341 564350.000000 0 0 1
36.804770 0.103431 -3.569417 36.977595 0.002810 1.667476 0.144782 -0.038138 9803.560000 0 0 1
37.583600 0.962031 -2.807017 37.700554 0.025592 1.645321 0.145508 -0.024954 -87309.700000 0 0 1
36.734050 1.762531 -2.045017 36.833124 0.047944 1.626346 0.136116 -0.032514 -272325.000000 0 0 1
37.498620 2.951531 -1.377117 37.639799 0.078548 1.607391 0.143931 -0.032241 -25497.900000 0 0 1
-37.464538 3.948631 -2.295617 37.741928 -0.105009 1.631658 0.165820 -0.040264 66218.200000 0 0 1
-36.255938 3.801431 -3.013117 36.578994 -0.104468 1.653263 0.149854 -0.019942 -354006.000000 0 0 1
-35.443263 5.112731 -3.116217 35.945455 -0.143263 1.657598 0.150585 -0.024428 -247756.000000 0 0 1
-34.643685 5.352931 -2.003017 35.111976 -0.153302 1.627874 0.149863 -0.029947 112652.000000 0 0 1
-34.227615 6.732131 -1.983617 34.939747 -0.194208 1.627599 0.169433 -0.040916 -171695.000000 0 0 1
-33.721548 7.164731 -0.625717 34.479961 -0.209354 1.588945 0.185833 -0.044874 86375.500000 0 0 1
-32.355828 6.778231 -0.404417 33.060665 -0.206504 1.583029 0.205598 -0.038728 1132320.000000 0 0 1
-31.707328 7.289131 0.763183 32.543333 -0.225962 1.547343 0.214230 -0.046277 207454.000000 0 0 1
-31.620288 8.842931 0.909083 32.846103 -0.272693 1.543116 0.225586 -0.049150 500197.000000 0 0 1
-32.961788 9.387131 0.995483 34.286859 -0.277443 1.541758 0.203787 -0.051113 1115890.000000 0 0 1
-32.996218 10.773231 1.207783 34.731421 -0.315587 1.536014 0.212456 -0.038513 930829.000000 0 0 1
-34.472305 11.334831 1.309783 36.311620 -0.317674 1.534718 0.202230 -0.044215 400515.000000 0 0 1
-35.133882 11.409031 0.061983 36.939944 -0.313988 1.569118 0.162146 -0.034122 -301521.000000 0 0 1
-36.366858 12.063131 0.190783 38.315844 -0.320286 1.565817 0.153312 -0.025468 -239195.000000 0 0 1
-37.535408 11.065831 0.362683 39.134269 -0.286689 1.561529 0.170887 -0.054919 -777393.000000 0 0 1
37.354540 10.408331 -0.831917 38.786429 0.271744 1.592247 0.174999 -0.048992 -686569.000000 0 0 1
36.382270 9.467631 -0.577517 37.598392 0.254580 1.586157 0.186421 -0.047353 -524436.000000 0 0 1
35.944520 8.726131 -1.833017 37.033955 0.238159 1.620312 0.161819 -0.056655 625000.000000 0 0 1
35.038050 9.434031 -2.736617 36.388940 0.263014 1.646072 0.149391 -0.051446 690903.000000 0 0 1
34.851120 8.585031 -3.873617 36.101360 0.241526 1.678302 0.125695 -0.055451 -125295.000000 0 0 1
33.945990 9.176131 -4.949117 35.510919 0.264006 1.710620 0.123336 -0.049908 192097.000000 0 0 1
32.582760 9.408931 -4.637317 34.229650 0.281123 1.706691 0.145824 -0.043952 386428.000000 0 0 1
31.892100 9.941931 -5.743117 33.895891 0.302189 1.741052 0.137643 -0.027269 -293056.000000 0 0 1
30.366060 10.113031 -5.647317 32.500202 0.321484 1.745445 0.166620 -0.030542 -422335.000000 0 0 1
29.714290 8.890431 -5.568417 31.511681 0.290720 1.748439 0.175777 -0.030498 1490730.000000 0 0 1
28.296990 9.153031 -5.772917 30.295613 0.312841 1.762522 0.166606 -0.017801 1192910.000000 0 0 1
27.354290 8.037331 -6.228117 29.182962 0.285781 1.785867 0.181288 -0.012712 -143436.000000 0 0 1
27.523190 7.685931 -7.549117 29.556533 0.272316 1.829071 0.206482 -0.018943 19164.700000 0 0 1
26.605290 6.703231 -7.919017 28.556708 0.246814 1.851788 0.211164 -0.013130 -224330.000000 0 0 1
27.145990 5.724331 -8.965917 29.155795 0.207827 1.883379 0.232501 -0.033017 660847.000000 0 0 1
28.207990 4.827231 -8.542417 29.865795 0.169488 1.860874 0.215839 -0.034272 1003960.000000 0 0 1
28.469590 3.825531 -9.511217 30.259138 0.133572 1.890542 0.199682 -0.034005 -696895.000000 0 0 1
29.569890 2.882731 -9.076417 31.065573 0.097182 1.867291 0.169181 -0.032630 -705956.000000 0 0 1
30.863370 3.469331 -9.080517 32.357992 0.111939 1.855243 0.152103 -0.024995 794417.000000 0 0 1
31.891950 2.950631 -8.259917 33.076108 0.092257 1.823192 0.122737 -0.026206 233579.000000 0 0 1
32.105920 1.385331 -8.097517 33.140293 0.043122 1.817636 0.102795 -0.025699 -1226800.000000 0 0 1
31.078070 0.935731 -7.268017 31.930331 0.030100 1.800430 0.127295 -0.033195 -47277.200000 0 0 1
31.386170 -0.365869 -6.785917 32.113458 -0.011656 1.783712 0.116590 -0.032294 -778.197000 0 0 1
30.902730 -1.573569 -7.668317 31.878800 -0.050876 1.813725 0.101571 -0.030727 -132219.000000 0 0 1
31.646310 -1.613469 -8.853017 32.900883 -0.050940 1.843235 0.112634 -0.029973 91449.000000 0 0 1
31.392650 -2.815969 -9.555917 32.935447 -0.089462 1.865170 0.092397 -0.035592 -196005.000000 0 0 1
32.291670 -3.064769 -10.800217 34.187562 -0.094626 1.892213 0.110502 -0.035000 372014.000000 0 0 1
33.603060 -3.494569 -10.415617 35.353397 -0.103623 1.869848 0.136876 -0.030685 467836.000000 0 0 1
34.332940 -3.917269 -11.570617 36.441390 -0.113605 1.893902 0.151268 -0.044287 -369625.000000 0 0 1
35.800020 -4.210669 -11.283117 37.771416 -0.117078 1.874149 0.194879 -0.043504 -654099.000000 0 0 1
35.945930 -5.259769 -10.340817 37.771782 -0.145293 1.848108 0.184526 -0.045809 -215600.000000 0 0 1
37.268710 -5.500569 -9.962917 38.967585 -0.146534 1.829339 0.218793 -0.045450 -465486.000000 0 0 1
37.408530 -6.677969 -9.035217 39.059295 -0.176654 1.804231 0.211552 -0.053121 -302563.000000 0 0 1
36.936920 -6.556969 -7.732417 38.303004 -0.175688 1.774068 0.195988 -0.049947 312839.000000 0 0 1
36.755340 -7.859169 -7.242017 38.277517 -0.210652 1.761141 0.194991 -0.046057 -345910.000000 0 0 1
36.194350 -7.793669 -5.795717 37.474826 -0.212090 1.726076 0.194670 -0.040020 -1091530.000000 0 0 1
37.118160 -7.517769 -4.797617 38.174491 -0.199833 1.696806 0.218143 -0.040333 176661.000000 0 0 1
37.546360 -8.557969 -3.895617 38.705862 -0.224102 1.671614 0.244432 -0.045907 82666.900000 0 0 1
-36.844718 -9.659769 -4.557917 38.361686 0.256404 1.689892 0.231045 -0.045537 -474736.000000 0 0 1
-37.574918 -10.526369 -5.368717 39.389110 0.273142 1.707521 0.203052 -0.042359 382745.000000 0 0 1
-36.712928 -11.416469 -6.062317 38.922057 0.301487 1.727188 0.166772 -0.038708 259031.000000 0 0 1
-37.369228 -11.936869 -7.415117 39.924078 0.309186 1.757612 0.166648 -0.039344 132499.000000 0 0 1
-37.426818 -10.936069 -8.421417 39.890908 0.284284 1.783508 0.161843 -0.046662 222987.000000 0 0 1
37.495180 -11.429469 -9.732917 40.388747 -0.295878 1.814173 0.167039 -0.033423 -341775.000000 0 0 1
37.500710 -10.367669 -10.883517 40.401024 -0.269729 1.843553 0.150518 -0.040539 -805840.000000 0 0 1
36.390630 -9.544169 -10.960417 39.185454 -0.256493 1.854284 0.152015 -0.046353 -89770.900000 0 0 1
36.538760 -8.873569 -12.183917 39.525549 -0.238241 1.884154 0.154026 -0.046320 63390.500000 0 0 1
35.205070 -8.155969 -12.456917 38.224227 -0.227654 1.902750 0.148848 -0.040556 -314613.000000 0 0 1
35.348500 -7.234569 -13.542817 38.539114 -0.201876 1.929867 0.155163 -0.034480 -135286.000000 0 0 1
34.194630 -6.536569 -13.881117 37.479125 -0.188879 1.950203 0.129281 -0.040806 -503316.000000 0 0 1
34.443190 -5.572469 -15.113217 38.023612 -0.160397 1.979554 0.127442 -0.039186 475204.000000 0 0 1
35.290350 -4.432569 -14.815817 38.530051 -0.124949 1.965491 0.144039 -0.029121 457603.000000 0 0 1
35.751800 -3.739169 -15.929517 39.318215 -0.104208 1.987932 0.153361 -0.036197 -32194.300000 0 0 1
37.021060 -2.944669 -15.549017 40.261667 -0.079373 1.967304 0.170874 -0.040221 -421370.000000 0 0 1
-37.587718 -2.499669 -16.658417 41.189655 0.066405 1.987154 0.179037 -0.035905 702977.000000 0 0 1
-36.238438 -2.044469 -16.408417 39.832654 0.056357 1.995372 0.211425 -0.030625 1079470.000000 0 0 1
-36.105918 -0.563369 -15.987817 39.491328 0.015602 1.987604 0.201233 -0.028958 -377506.000000 0 0 1
-36.305028 0.340731 -17.120417 40.140750 -0.009385 2.011427 0.158982 -0.020803 172375.000000 0 0 1
-36.034528 1.672531 -16.744317 39.770048 -0.046381 2.005375 0.161260 -0.043884 -119684.000000 0 0 1
-36.070718 2.672831 -17.970917 40.388050 -0.073965 2.031922 0.139234 -0.035030 231227.000000 0 0 1
-34.985666 2.563131 -18.883317 39.839002 -0.073132 2.064614 0.121417 -0.024673 404062.000000 0 0 1
-35.065751 3.705431 -19.720417 40.400890 -0.105280 2.080729 0.107336 -0.029712 -247951.000000 0 0 1
-34.015243 3.642731 -20.832017 40.053454 -0.106685 2.117771 0.099516 -0.022860 -139725.000000 0 0 1
-32.692458 4.020231 -20.501517 38.797825 -0.122357 2.127534 0.107954 -0.026792 -8155.840000 0 0 1
-31.994008 4.337931 -21.666417 38.882744 -0.134764 2.161836 0.098117 -0.022416 -71036.800000 0 0 1
-30.498968 4.640531 -21.380317 37.534511 -0.150996 2.176837 0.102238 -0.023281 335789.000000 0 0 1
-29.776408 3.573131 -20.720417 36.451850 -0.119428 2.175396 0.114632 -0.014378 103083.000000 0 0 1
-28.413748 3.922231 -20.724817 35.387045 -0.137173 2.196492 0.091542 -0.003535 -465511.000000 0 0 1
-27.536948 2.891031 -20.044917 34.182455 -0.104604 2.197415 0.108692 -0.007777 -334169.000000 0 0 1
-27.503068 3.092631 -18.606717 33.349558 -0.111976 2.162686 0.104745 -0.004249 -9973.480000 0 0 1
-26.641008 2.094031 -18.107717 32.280298 -0.078441 2.166332 0.105955 -0.006076 -198473.000000 0 0 1
-25.886558 2.576831 -16.843717 30.991365 -0.099216 2.145394 0.107975 -0.010381 -156771.000000 0 0 1
-24.844068 3.496831 -17.047917 30.332936 -0.139833 2.167630 0.099454 -0.012867 -294983.000000 0 0 1
-24.119368 3.628431 -15.843717 29.084923 -0.149317 2.146875 0.112868 -0.022431 -37148.000000 0 0 1
-22.824268 4.439931 -16.066417 28.262872 -0.192127 2.175434 0.123019 -0.034196 311419.000000 0 0 1
-21.877768 3.878031 -17.015017 27.985472 -0.175437 2.224329 0.139513 -0.041193 -182210.000000 0 0 1
-20.808068 4.745631 -17.122817 27.362155 -0.224232 2.246933 0.129128 -0.042529 -510692.000000 0 0 1
-19.556668 4.019631 -17.699017 26.681002 -0.202714 2.296092 0.156653 -0.051349 -49551.000000 0 0 1
-18.926768 3.239331 -16.708017 25.453362 -0.169508 2.286856 0.173544 -0.044080 -9736.980000 0 0 1
-17.751968 2.594631 -17.179617 24.839559 -0.145133 2.334530 0.132659 -0.045619 -248037.000000 0 1 0
-17.643268 1.043031 -17.040317 24.550870 -0.059049 2.337940 0.130028 -0.034970 1075880.000000 0 1 0
-18.669468 0.255731 -17.742317 25.756635 -0.013697 2.330690 0.096314 -0.032493 1472220.000000 0 0 1
-19.988668 0.376531 -17.212417 26.380976 -0.018835 2.281617 0.115679 -0.040730 787539.000000 0 0 1
-21.017168 -0.770969 -17.632117 27.444622 0.036666 2.268503 0.095037 -0.040215 393149.000000 0 0 1
-20.798268 -2.039269 -17.021917 26.953148 0.097738 2.254331 0.077590 -0.038710 937523.000000 0 0 1
-21.879668 -2.977969 -17.285717 28.042542 0.135275 2.234972 0.079184 -0.024065 725726.000000 0 0 1
-22.000968 -4.174069 -16.315117 27.706470 0.187494 2.200439 0.090177 -0.026274 8158.370000 0 0 1
-22.554268 -3.878469 -15.048017 27.389420 0.170296 2.152454 0.082132 -0.028141 282305.000000 0 0 1
-23.037968 -4.978269 -14.327417 27.582712 0.212818 2.116986 0.083787 -0.035702 -33864.200000 0 0 1
-23.199868 -4.585369 -12.827517 26.903618 0.195131 2.067802 0.090739 -0.043864 5270.870000 0 0 1
-24.228068 -3.624969 -12.620617 27.557569 0.148517 2.046510 0.076926 -0.040280 401163.000000 0 0 1
-24.239768 -3.104869 -11.318317 26.931596 0.127396 2.004530 0.098626 -0.050994 -654974.000000 0 0 1
-25.241808 -1.968869 -11.167317 27.671904 0.077843 1.986202 0.152293 -0.047572 -466768.000000 0 0 1
-25.311668 -1.480069 -9.845217 27.199254 0.058407 1.941173 0.150130 -0.057912 639976.000000 0 0 1
-26.164308 -0.323569 -9.859417 27.962185 0.012366 1.931143 0.176776 -0.057969 73509.500000 0 0 1
-26.578528 0.036031 -8.413917 27.878548 -0.001356 1.877383 0.202523 -0.054197 -97013.400000 0 0 1
-25.463198 0.329331 -7.602017 26.575808 -0.012933 1.860899 0.182537 -0.053283 498653.000000 0 0 1
-25.894318 0.641231 -6.278517 26.652329 -0.024758 1.808602 0.183198 -0.054110 712682.000000 0 0 1
-24.682668 1.107831 -5.381917 25.286882 -0.044853 1.785271 0.150080 -0.045168 663634.000000 0 0 1
-24.248668 2.418931 -5.753617 25.039034 -0.099426 1.802654 0.185083 -0.045151 393051.000000 0 0 1
-22.895268 2.618031 -5.397917 23.668225 -0.113854 1.800887 0.178693 -0.032585 -84223.800000 0 1 0
-22.412368 4.044931 -5.458417 23.419437 -0.178556 1.806032 0.176137 -0.035663 -328089.000000 0 1 0
-23.064468 4.921931 -4.576317 24.023691 -0.210245 1.762459 0.192654 -0.030952 625662.000000 0 1 0
-22.666968 6.215031 -4.933117 24.015697 -0.267612 1.777681 0.182568 -0.033820 -448386.000000 0 1 0
-23.155268 7.275131 -3.863617 24.576849 -0.304423 1.728657 0.189330 -0.032984 -159991.000000 0 1 0
-22.510468 7.227931 -2.574817 23.782217 -0.310693 1.679275 0.167488 -0.026469 1385440.000000 0 1 0
-21.122168 7.577831 -2.470517 22.575937 -0.344459 1.680447 0.171314 -0.028565 597211.000000 0 1 0
-20.759668 9.066731 -2.708517 22.814589 -0.411779 1.689796 0.162190 -0.031912 -587550.000000 0 1 0
-20.727068 9.615531 -4.053717 23.205654 -0.434363 1.746384 0.147498 -0.024137 410241.000000 0 1 0
-20.012768 10.820331 -4.025317 23.103974 -0.495653 1.745916 0.134315 -0.022495 -149213.000000 0 1 0
-19.764468 11.493731 -5.452817 23.504750 -0.526732 1.804917 0.114218 -0.022866 388031.000000 0 1 0
-18.597168 10.976831 -6.090717 22.437520 -0.533214 1.845698 0.082191 -0.018522 241131.000000 0 1 0
-18.649168 11.339531 -7.442517 23.060084 -0.546314 1.899424 0.099818 -0.022381 46716.900000 0 1 0
-17.333268 11.103731 -8.204117 22.159480 -0.569740 1.950054 0.085123 -0.012971 -218365.000000 0 1 0
-17.058968 9.716231 -8.574417 21.422748 -0.517742 1.982584 0.076899 -0.014840 307256.000000 0 1 0
-18.009968 9.092931 -9.429817 22.270199 -0.467547 2.008022 0.094337 -0.018548 92778.100000 0 1 0
-18.207668 9.643731 -10.842917 23.282817 -0.487087 2.055227 0.116432 -0.024868 1834030.000000 0 1 0
-16.943668 9.464531 -11.583717 22.601941 -0.509413 2.108901 0.103844 -0.025097 1562460.000000 0 1 0
-17.057068 10.212131 -12.720017 23.601483 -0.539466 2.139986 0.119480 -0.036009 285172.000000 0 1 0
-16.061668 9.907831 -13.875217 23.423576 -0.552726 2.204783 0.098579 -0.021600 -133560.000000 0 1 0
-16.135668 8.609631 -14.532417 23.359723 -0.490147 2.242237 0.112228 -0.038022 111615.000000 0 1 0
-15.758568 7.430031 -13.772517 22.208558 -0.440582 2.239723 0.091516 -0.027242 -137277.000000 0 1 0
-15.632668 6.201131 -14.676217 22.320969 -0.377639 2.288303 0.095706 -0.028893 -212280.000000 0 1 0
-14.495268 6.096131 -15.502517 22.081749 -0.398104 2.349070 0.085856 -0.034358 331763.000000 0 1 0
-14.363868 4.846031 -16.134217 22.138601 -0.325385 2.387338 0.073545 -0.035507 -449075.000000 0 1 0
33.435580 -15.980069 27.652198 46.237914 -0.445841 0.929741 0.057758 -0.009156 -178122.000000 0 0 1
33.099060 -14.639969 28.063468 45.797758 -0.416439 0.911236 0.050991 -0.007872 509288.000000 0 0 1
31.972620 -14.624269 28.964978 45.553129 -0.428991 0.881686 0.057002 -0.014905 551255.000000 0 0 1
32.211650 -14.866369 30.491448 46.779565 -0.432394 0.860826 0.047107 -0.015850 76144.900000 0 0 1
32.970280 -13.803469 31.038938 47.339104 -0.396492 0.855724 0.041032 -0.012738 162999.000000 0 0 1
32.716170 -13.670069 32.404167 48.033828 -0.395789 0.830358 0.046974 -0.019713 -525534.000000 0 0 1
33.224570 -12.321669 32.846852 48.317815 -0.355136 0.823295 0.046045 -0.013170 -173791.000000 0 0 1
32.829730 -12.055369 -33.464507 48.404507 -0.351923 2.334154 0.058379 -0.031440 16632.200000 0 0 1
33.447050 -10.916269 -32.903897 48.171947 -0.315475 2.322728 0.064710 -0.023916 -307633.000000 0 0 1
32.986980 -10.507469 -31.488157 46.797989 -0.308372 2.308855 0.074971 -0.021012 8852.090000 0 0 1
31.617320 -10.134569 -31.528227 45.786389 -0.310191 2.330344 0.109906 -0.024005 180433.000000 0 0 1
31.229850 -9.788069 -30.225497 44.549865 -0.303723 2.316467 0.113349 -0.023651 -1583330.000000 0 0 1
29.787990 -9.999369 -29.930187 43.395020 -0.323865 2.331891 0.123359 -0.014176 -1553010.000000 0 0 1
29.484390 -9.753269 -28.563297 42.193808 -0.319464 2.314414 0.118120 -0.018908 -55997.500000 0 0 1
28.489490 -10.614369 -28.098607 41.398642 -0.356640 2.316832 0.139001 -0.022543 -1273010.000000 0 0 1
28.077190 -10.466169 -26.590577 40.061553 -0.356809 2.296608 0.126010 -0.015824 -56000.700000 0 0 1
27.150090 -9.419569 -26.237887 38.913781 -0.333950 2.310754 0.105857 -0.014162 1347870.000000 0 0 1
25.984290 -9.179369 -27.051597 38.616486 -0.339582 2.346921 0.099826 -0.015641 106773.000000 0 0 1
24.896290 -10.257569 -27.069997 38.181510 -0.390818 2.358850 0.108941 -0.006174 -814240.000000 0 0 1
25.271590 -11.420969 -27.740057 39.225024 -0.424457 2.356331 0.114582 -0.017419 -225250.000000 0 0 1
24.249890 -12.367769 -27.571717 38.745560 -0.471626 2.362583 0.125317 -0.027527 -79159.500000 0 0 1
24.572290 -13.765669 -28.087877 39.777127 -0.510649 2.354816 0.136840 -0.021732 -71423.500000 0 0 1
24.758090 -13.783969 -29.497937 40.903411 -0.508008 2.376273 0.125459 -0.029042 415314.000000 0 0 1
25.952490 -14.419069 -29.942617 42.166356 -0.507129 2.360446 0.120973 -0.022851 144422.000000 0 0 1
26.126390 -14.441069 -31.460957 43.369626 -0.504943 2.382433 0.120214 -0.031415 -478797.000000 0 0 1
25.167690 -15.159969 -32.163257 43.562740 -0.542152 2.401373 0.130936 -0.027883 -432956.000000 0 0 1
25.564690 -15.512169 -33.427027 44.850271 -0.545391 2.411785 0.135058 -0.026127 -83091.700000 0 0 1
25.558490 -14.337769 33.162756 44.255806 -0.511233 0.723728 0.094567 -0.035730 -173325.000000 0 0 1
24.310090 -13.755269 32.900588 43.158274 -0.514912 0.703900 0.105577 -0.028930 -131385.000000 0 0 1
24.363190 -12.826369 31.819513 42.078048 -0.484595 0.713307 0.090912 -0.028105 106057.000000 0 0 1
23.338490 -11.642069 32.088373 41.350775 -0.462716 0.682491 0.089086 -0.029345 896716.000000 0 0 1
21.953890 -11.916069 32.157054 40.719063 -0.497281 0.660428 0.077195 -0.019291 334628.000000 0 0 1
21.300890 -12.047169 30.908128 39.423021 -0.514719 0.669693 0.062940 -0.021334 -19227.600000 0 0 1
19.762790 -12.257969 30.968988 38.728593 -0.555180 0.644098 0.066471 -0.018192 399638.000000 0 0 1
18.999690 -11.065369 31.113338 38.098168 -0.527376 0.615193 0.076519 -0.014154 -1218700.000000 0 0 1
17.880090 -11.383369 31.833648 38.244736 -0.566933 0.587432 0.061965 -0.009085 -741558.000000 0 0 1
17.076890 -10.050969 32.150361 37.766226 -0.531974 0.552340 0.069143 -0.002653 -361443.000000 0 0 1
16.390890 -9.641469 30.975798 36.347204 -0.531714 0.550583 0.088378 -0.002243 567289.000000 0 0 1
15.511290 -8.469769 31.077988 35.751621 -0.499797 0.517063 0.095121 0.007483 1504040.000000 0 0 1
14.371090 -8.488569 32.187255 36.257460 -0.533531 0.478381 0.110018 -0.000590 -997418.000000 0 0 1
13.460790 -9.506869 31.855926 35.866049 -0.614918 0.477402 0.113721 -0.011072 -594129.000000 0 0 1
12.364190 -9.673469 32.698838 36.272072 -0.663903 0.447601 0.115207 -0.013863 695995.000000 0 0 1
11.200090 -8.630069 32.383650 35.335830 -0.656515 0.411671 0.135336 -0.020148 -85814.300000 0 0 1
11.644990 -7.299069 32.639319 35.414790 -0.559892 0.398537 0.136128 -0.016885 271497.000000 0 0 1
10.729590 -6.335969 32.102220 34.435754 -0.533415 0.370255 0.157687 -0.016696 285717.000000 0 0 1
11.261790 -4.920769 32.295279 34.554695 -0.411943 0.363626 0.158502 -0.016156 42251.800000 0 0 1
11.225390 -4.321669 33.594768 35.683254 -0.367501 0.343827 0.161451 -0.031759 -53393.000000 0 0 1
11.666490 -3.005869 33.638508 35.730819 -0.252165 0.343913 0.116310 -0.021613 -167218.000000 0 0 1
11.156290 -2.125269 -32.799627 34.710158 -0.188244 2.808261 0.106009 -0.028099 -14623.600000 0 0 1
9.768290 -2.030769 -32.578217 34.071743 -0.204974 2.844410 0.117399 -0.015335 -164510.000000 0 0 1
9.480090 -1.328969 -31.385297 32.812728 -0.139278 2.845547 0.126730 -0.021765 346844.000000 0 0 1
7.946590 -1.115269 -31.325027 32.336503 -0.139435 2.890817 0.129420 -0.026535 300924.000000 0 0 1
7.342690 -0.044469 -32.083487 32.913025 -0.006056 2.916601 0.122707 -0.026111 172019.000000 0 0 1
5.976990 0.117831 -31.745307 32.303294 0.019712 2.955456 0.129119 -0.028729 62986.000000 0 0 1
5.229590 0.992731 -32.764127 33.193706 0.187598 2.980536 0.135919 -0.024504 -146570.000000 0 0 1
5.719690 2.345231 -32.807927 33.385251 0.389121 2.955352 0.109564 -0.023302 39344.800000 0 0 1
5.066690 3.098631 -33.811807 34.329450 0.548883 2.967715 0.115631 -0.019921 -90374.900000 0 0 1
5.838990 4.441631 33.528406 34.321654 0.650304 0.215415 0.105272 -0.020534 135398.000000 0 0 1
5.276390 5.323731 32.599314 33.449928 0.789864 0.226000 0.122273 -0.030435 -15545.800000 0 0 1
6.160690 6.419731 32.347417 33.548807 0.805986 0.268425 0.113678 -0.036449 39278.200000 0 0 1
5.710290 7.434231 31.322378 32.695054 0.915807 0.290797 0.121305 -0.038010 38616.300000 0 0 1
4.513790 8.088031 31.782827 33.104964 1.061769 0.283572 0.133406 -0.036924 443426.000000 0 0 1
4.362390 9.319131 31.080298 32.739297 1.132984 0.319709 0.144207 -0.051521 -43523.000000 0 0 1
3.940990 9.260431 29.620168 31.283244 1.168440 0.327535 0.141965 -0.051567 325909.000000 0 0 1
2.569990 8.907931 29.423918 30.850009 1.289918 0.305245 0.138185 -0.044792 373732.000000 0 0 1
2.163990 8.916431 28.062948 29.524814 1.332703 0.315997 0.109133 -0.035058 1896820.000000 0 0 1
0.695890 8.320531 27.756278 28.984935 1.487355 0.292207 0.115812 -0.033538 1789080.000000 0 0 1
-0.350410 9.092531 28.333328 29.758602 -1.532277 0.310747 0.117234 -0.033634 505139.000000 0 0 1
-1.573110 8.636031 27.699208 29.056873 -1.390615 0.306897 0.113686 -0.028407 997555.000000 0 0 1
-2.868010 8.940731 28.475718 29.983807 -1.260386 0.318510 0.102675 -0.023697 -84771.000000 0 0 1
-3.201410 10.290731 28.658958 30.618361 -1.269191 0.359691 0.102230 -0.028773 1115740.000000 0 0 1
-4.610310 10.276531 29.011088 31.120818 -1.149086 0.370329 0.082461 -0.020881 1079750.000000 0 0 1
-5.140310 11.557431 29.709668 32.290268 -1.152307 0.402509 0.066798 -0.018612 71725.300000 0 0 1
-5.193910 12.829931 29.059738 32.187765 -1.186135 0.444515 0.066942 -0.023437 341818.000000 0 0 1
-6.339410 12.820831 28.218628 31.636258 -1.111589 0.469110 0.072559 -0.028081 113229.000000 0 0 1
-6.618510 14.183931 27.525318 31.664360 -1.134207 0.517045 0.064973 -0.025750 145943.000000 0 0 1
-5.619910 14.488531 26.577088 30.787052 -1.200776 0.529113 0.069793 -0.022892 -79156.600000 0 0 1
-5.571510 15.910931 26.371448 31.299405 -1.233971 0.568788 0.051510 -0.014597 -297353.000000 0 0 1
-4.395910 16.489531 25.576698 30.747295 -1.310267 0.588389 0.086945 -0.020989 -365433.000000 0 0 1
-4.254910 16.035131 24.282648 29.408786 -1.311424 0.599366 0.079334 -0.015515 -279301.000000 0 0 1
-3.210910 16.753731 23.676118 29.181433 -1.381439 0.624352 0.093660 -0.016460 -112077.000000 0 0 1
-3.106810 16.452231 22.190688 27.798468 -1.384156 0.646379 0.092328 -0.019615 257368.000000 0 0 1
-2.380410 15.259631 21.791588 26.709474 -1.416050 0.616556 0.079860 -0.027716 344168.000000 0 0 1
-2.414610 15.154131 20.331288 25.472324 -1.412788 0.646542 0.081678 -0.029858 60316.200000 0 0 1
-1.622310 13.918431 19.861488 24.307063 -1.454761 0.614420 0.070788 -0.031687 -266234.000000 0 1 0
-2.112210 12.700931 20.276588 24.019057 -1.406001 0.565749 0.068114 -0.016317 -214511.000000 0 1 0
-1.440510 11.656731 19.552888 22.809425 -1.447842 0.540933 0.057142 -0.020731 -224804.000000 0 1 0
-2.075810 10.224531 19.564488 22.172488 -1.370496 0.489907 0.047896 -0.007539 -609300.000000 0 1 0
-2.122710 9.507631 20.791488 22.960552 -1.351135 0.438167 0.071829 -0.019166 710804.000000 0 1 0
-3.215610 9.881231 21.641988 24.007385 -1.256179 0.447638 0.083398 -0.021298 404072.000000 0 1 0
-4.710810 9.844031 21.297288 23.930549 -1.124460 0.473534 0.065048 -0.012917 -393519.000000 0 1 0
-5.320510 8.573831 21.389988 23.650582 -1.015402 0.440785 0.049208 -0.014752 144489.000000 0 1 0
-6.721810 8.684031 21.210388 23.884633 -0.912085 0.477743 0.051063 -0.017464 117341.000000 0 1 0
-7.456510 7.362831 21.306088 23.743635 -0.779077 0.457094 0.051696 -0.013750 -220196.000000 0 1 0
-7.456610 6.810931 22.624078 24.775769 -0.740174 0.419842 0.054900 -0.013497 185446.000000 0 1 0
-8.159510 5.565931 22.699088 24.754915 -0.598639 0.410421 0.053856 -0.010872 237637.000000 0 1 0
-8.190610 4.857831 24.082978 25.897383 -0.535329 0.376550 0.057163 -0.014298 -337173.000000 0 0 1
-9.090110 5.595331 24.860098 27.054802 -0.551768 0.405566 0.052677 -0.012692 87072.000000 0 0 1
-9.079310 4.959931 26.124778 28.098734 -0.499990 0.377065 0.056738 -0.011999 29795.500000 0 0 1
-9.974910 5.726331 27.133678 29.470769 -0.521138 0.400931 0.067389 -0.013657 92980.100000 0 0 1
-9.361310 6.918631 27.522228 29.882681 -0.636467 0.400133 0.057091 -0.024302 -89872.300000 0 0 1
-10.148610 7.594731 28.491258 31.183746 -0.642445 0.418604 0.059923 -0.024398 18355.700000 0 0 1
-9.412310 8.642731 29.354688 32.015404 -0.742800 0.410572 0.073754 -0.019001 375937.000000 0 0 1
-8.297310 8.090231 30.053128 32.210056 -0.772762 0.368037 0.090384 -0.021707 252709.000000 0 0 1
-7.887510 8.976131 31.116738 33.332194 -0.849863 0.366649 0.097034 -0.027082 -87110.100000 0 0 1
-6.962810 8.335531 32.162450 33.946797 -0.874889 0.325669 0.116315 -0.028905 1267560.000000 0 0 1
-5.603610 8.203131 31.651104 33.173547 -0.971499 0.304134 0.100626 -0.026033 827946.000000 0 0 1
-4.786610 7.686731 32.691488 33.922424 -1.013845 0.270216 0.112026 -0.020503 -649048.000000 0 0 1
-3.326510 7.552431 32.304570 33.342018 -1.155908 0.250112 0.092395 -0.014818 -399177.000000 0 0 1
-2.825810 8.854031 31.970571 33.294091 -1.261860 0.282908 0.089571 -0.022829 -122769.000000 0 0 1
-1.430510 8.983631 31.772229 33.048851 -1.412887 0.278853 0.082148 -0.022243 325307.000000 0 0 1
-1.062810 10.422631 31.316698 33.022665 -1.469176 0.322836 0.089609 -0.026203 -102891.000000 0 0 1
-1.275810 11.407031 32.346862 34.322989 -1.459415 0.340985 0.093106 -0.036695 21943.000000 0 0 1
-1.448810 12.627031 31.721638 34.173137 -1.456557 0.381083 0.087379 -0.041215 -137778.000000 0 0 1
-1.606710 13.731531 32.772842 35.569589 -1.454317 0.399199 0.085122 -0.043726 -161172.000000 0 0 1
-0.450410 13.925931 33.537733 36.316855 -1.538464 0.393753 0.124846 -0.046684 -554225.000000 0 0 1
-0.674110 14.846631 -33.114667 36.296805 -1.525423 2.719735 0.116958 -0.048108 -283778.000000 0 0 1
0.615490 15.362431 -32.464687 35.921289 1.530753 2.699300 0.109583 -0.049398 -352964.000000 0 0 1
1.386590 16.106431 -33.407217 37.113096 1.484919 2.690902 0.134087 -0.045666 -678416.000000 0 0 1
2.659790 16.219831 -32.888057 36.766584 1.408259 2.678129 0.151920 -0.047424 -304224.000000 0 0 1
3.678090 17.157731 -33.661067 37.960288 1.359623 2.661050 0.154666 -0.032925 577237.000000 0 0 1
3.401590 18.528031 -33.616547 38.534802 1.389227 2.630823 0.145655 -0.030608 -321691.000000 0 0 1
4.481990 19.233231 33.497441 38.885524 1.341849 0.532703 0.121181 -0.009599 -79650.000000 0 0 1
4.286590 20.778031 33.414081 39.580327 1.367347 0.565708 0.126352 -0.026765 -118144.000000 0 0 1
4.315790 21.421731 -33.008897 39.586663 1.371990 2.556822 0.151730 -0.051311 172108.000000 0 0 1
4.071590 22.799831 -33.105387 40.402683 1.394079 2.531135 0.139374 -0.042171 38789.500000 0 0 1
3.924290 23.478631 -31.753917 39.685733 1.405184 2.498315 0.161282 -0.042045 45798.500000 0 0 1
3.534490 24.826731 -31.859417 40.544810 1.429380 2.474757 0.162667 -0.048027 234509.000000 0 0 1
3.193090 25.330231 -30.585057 39.840458 1.445399 2.446022 0.162021 -0.054065 -141113.000000 0 0 1
2.882390 26.832931 -30.596867 40.798071 1.463787 2.418796 0.155076 -0.054110 807728.000000 0 0 1
4.013390 27.742131 -30.664377 41.545603 1.427125 2.401031 0.158310 -0.057192 1060420.000000 0 0 1
3.555190 29.091831 -30.514417 42.309616 1.449194 2.376354 0.148444 -0.057085 189289.000000 0 0 1
4.702690 30.070431 -30.113907 42.815809 1.415664 2.350876 0.175755 -0.068788 202413.000000 0 0 1
5.351090 29.682831 -28.920317 41.786234 1.392436 2.335193 0.162163 -0.073875 -146075.000000 0 0 1
6.136990 30.806931 -28.575257 42.464985 1.374162 2.308937 0.184826 -0.086844 -297712.000000 0 0 1
7.089990 30.556831 -27.346507 41.615133 1.342804 2.287800 0.182059 -0.077473 610561.000000 0 0 1
8.281590 29.807231 -27.625057 41.475288 1.299793 2.299711 0.178461 -0.064180 1391160.000000 0 0 1
9.549290 30.474331 -27.712567 42.283095 1.267133 2.285516 0.172668 -0.069716 834398.000000 0 0 1
9.792490 31.751431 -28.565677 43.818308 1.271641 2.280899 0.188081 -0.075046 -838560.000000 0 0 1
9.082890 32.852931 -28.002037 44.112674 1.301063 2.258526 0.191567 -0.077463 327907.000000 0 0 1
9.182690 -33.614565 -28.768457 45.187220 -1.304127 2.260943 0.172931 -0.072955 -60932.700000 0 0 1
7.998590 -33.327665 -29.726157 45.369098 -1.335253 2.285253 0.156567 -0.056339 -26300.000000 0 0 1
8.072990 33.631631 -30.894057 46.375667 1.335212 2.299857 0.137781 -0.048831 -946833.000000 0 0 1
6.848890 33.117631 -31.256007 46.050220 1.366866 2.316838 0.129366 -0.043083 -1090400.000000 0 0 1
6.823090 32.273531 -32.562577 46.351448 1.362450 2.349721 0.141129 -0.062228 -118906.000000 0 0 1
6.977890 32.871231 -33.818457 47.674907 1.361622 2.359380 0.131131 -0.046426 120479.000000 0 0 1
6.942490 31.979031 32.753785 46.299752 1.357019 0.784942 0.117893 -0.039126 289700.000000 0 0 1
6.308890 32.641631 31.476188 45.782405 1.379873 0.812732 0.105632 -0.036872 -20245.600000 0 0 1
7.239690 33.537331 30.973988 46.222869 1.358189 0.836452 0.098047 -0.038166 -73223.100000 0 0 1
6.802290 -33.466565 29.814078 45.333888 -1.370272 0.853094 0.076716 -0.046317 -175773.000000 0 0 1
18.834332 -22.313269 28.240738 40.622079 -0.869745 0.802089 0.120869 -0.019775 -423035.000000 0 0 1
18.244232 -21.066769 28.518878 39.874643 -0.857075 0.773867 0.104236 -0.023961 -420091.000000 0 0 1
16.896232 -21.160969 28.860838 39.575463 -0.896994 0.753555 0.088184 -0.019935 -276387.000000 0 0 1
16.502532 -21.336869 30.363308 40.614357 -0.912469 0.726355 0.055723 -0.023909 -139228.000000 0 0 1
17.000232 -22.557769 30.907228 41.870247 -0.924975 0.740447 0.092402 -0.028086 82926.800000 0 0 1
16.447432 -22.817769 32.141180 42.710936 -0.946236 0.718904 0.090899 -0.024054 -418769.000000 0 0 1
17.127432 -23.936069 32.886781 44.134167 -0.949711 0.730030 0.121947 -0.034390 -411250.000000 0 0 1
16.781332 -25.260399 32.543533 44.483507 -0.984411 0.750150 0.130542 -0.043181 -89696.200000 0 0 1
17.384032 -26.185839 33.421115 45.878902 -0.984731 0.754720 0.129140 -0.039992 50847.800000 0 0 1
16.925832 -27.643029 33.154349 46.366278 -1.021382 0.774096 0.118154 -0.038679 163859.000000 0 0 1
17.617232 -28.175649 32.026614 46.151252 -1.012007 0.803837 0.126308 -0.043864 192423.000000 0 0 1
17.213232 -29.485129 31.685407 46.579322 -1.042378 0.822698 0.133431 -0.040740 -134942.000000 0 0 1
18.174432 -30.111949 30.660648 46.659563 -1.027762 0.853813 0.156237 -0.044365 -850433.000000 0 0 1
19.400032 -30.507699 31.142078 47.716978 -1.004393 0.859731 0.161487 -0.052616 -1049040.000000 0 0 1
20.128232 -31.024539 30.070498 47.664480 -0.995276 0.888111 0.135950 -0.043654 -735031.000000 0 0 1
21.533632 -31.555659 30.350118 48.791255 -0.971979 0.899451 0.118628 -0.042568 -336353.000000 0 0 1
22.532032 -30.571069 30.355738 48.618449 -0.935643 0.896476 0.108178 -0.038032 -182429.000000 0 0 1
23.837632 -31.120149 30.357468 49.580967 -0.917142 0.911854 0.091013 -0.032613 -170236.000000 0 0 1
24.850132 -29.960309 30.404208 49.391953 -0.878363 0.907687 0.071719 -0.029368 -384872.000000 0 0 1
26.115832 -30.305319 29.912318 49.951935 -0.859516 0.928767 0.058422 -0.025406 -242446.000000 0 0 1
27.008032 -29.216879 29.896318 49.767958 -0.824664 0.926402 0.044575 -0.019460 164959.000000 0 0 1
28.237632 -29.372229 28.992698 50.006682 -0.805090 0.952342 0.039122 -0.010895 1091680.000000 0 0 1
29.376332 -30.149009 29.474378 51.387456 -0.798378 0.959937 0.036623 -0.013107 803211.000000 0 0 1
30.282332 -30.421639 28.456498 51.500175 -0.787693 0.985374 0.036482 -0.023056 400622.000000 0 0 1
31.446932 -31.406519 28.867508 52.996340 -0.784755 0.994756 0.045211 -0.030809 638050.000000 0 0 1
31.052532 -32.785769 28.943578 53.636714 -0.812542 1.000808 0.031126 -0.030342 242790.000000 0 0 1
32.060332 -33.555999 29.601908 55.046734 -0.808188 1.003019 0.054888 -0.025191 -372446.000000 0 0 1
31.444732 32.760774 30.193488 54.531516 0.805893 0.984009 0.056617 -0.018313 -201576.000000 0 0 1
30.597632 32.892101 31.281168 54.741364 0.821522 0.962542 0.067890 -0.018753 1171940.000000 0 0 1
29.399932 33.710207 31.123818 54.492441 0.853590 0.962880 0.052878 -0.015207 649274.000000 0 0 1
28.276032 33.442202 30.067438 53.122177 0.868909 0.969144 0.055700 -0.015146 267446.000000 0 0 1
27.692632 32.108341 30.171188 52.039678 0.859104 0.952347 0.042110 -0.010867 476408.000000 0 0 1
26.302732 32.267259 30.479918 51.594914 0.886884 0.938803 0.060843 -0.010667 532677.000000 0 0 1
25.618632 30.894297 30.545108 50.435856 0.878482 0.920248 0.096539 -0.020418 -264703.000000 0 0 1
25.412432 30.403547 29.202868 49.223723 0.874582 0.935684 0.087600 -0.017006 298703.000000 0 0 1
24.753032 29.133387 29.238228 48.128379 0.866508 0.917881 0.128035 -0.032974 -141852.000000 0 0 1
24.184632 28.580407 27.923988 46.706373 0.868515 0.929964 0.130566 -0.039925 44238.800000 0 0 1
22.954732 29.173797 27.563918 46.236347 0.904139 0.932096 0.141682 -0.036290 5008.340000 0 0 1
22.437332 28.723607 26.315528 44.955384 0.907658 0.945460 0.140911 -0.026847 74555.500000 0 0 1
21.130232 29.401847 25.894678 44.513927 0.947650 0.949954 0.148798 -0.023770 -198085.000000 0 0 1
21.317332 30.774857 25.549618 45.324425 0.964996 0.971931 0.127696 -0.026330 58292.200000 0 0 1
20.121732 31.532577 25.339428 45.180462 1.002814 0.975385 0.123066 -0.026643 199368.000000 0 0 1
20.289432 32.911419 24.690568 45.874249 1.018343 1.002469 0.123967 -0.026281 -143191.000000 0 0 1
20.554632 32.874895 23.286428 45.227308 1.012026 1.029934 0.134339 -0.032528 -693087.000000 0 0 1
21.903732 33.172336 23.137958 45.995027 0.987214 1.043668 0.137156 -0.021374 -744654.000000 0 0 1
22.341432 33.235402 21.660988 45.529441 0.978960 1.074971 0.124265 -0.026334 -239494.000000 0 0 1
21.918732 -33.277539 20.998588 45.041826 -0.988354 1.085804 0.114730 -0.019133 72489.900000 0 0 1
22.395632 -33.268229 19.691688 44.677757 -0.978295 1.114363 0.115547 -0.022126 -75889.800000 0 0 1
22.127132 -31.950179 18.957288 43.241215 -0.965087 1.116970 0.105614 -0.017697 -521022.000000 0 0 1
22.714532 -30.864829 19.560888 43.025760 -0.936357 1.098837 0.097239 -0.010207 -79873.600000 0 0 1
22.554732 -29.580379 18.954988 41.749327 -0.919350 1.099525 0.096069 -0.022214 -152588.000000 0 0 1
23.454432 -29.281759 17.715288 41.489315 -0.895451 1.129641 0.085545 -0.025228 -393732.000000 0 0 1
23.020332 -29.862319 16.500888 41.157904 -0.914064 1.158279 0.070322 -0.021222 356037.000000 0 0 1
23.638932 -29.194169 15.428588 40.609604 -0.890160 1.181082 0.064176 -0.016090 -189374.000000 0 0 1
23.090232 -29.714119 14.082188 40.179543 -0.910188 1.212711 0.057585 -0.028613 -418427.000000 0 0 1
23.616132 -30.953129 13.609588 41.243651 -0.919050 1.234514 0.082544 -0.022142 104493.000000 0 0 1
23.510132 -31.307229 12.205188 41.010188 -0.926688 1.268604 0.085932 -0.033521 531143.000000 0 0 1
22.060732 -31.632579 11.663888 40.290722 -0.961814 1.277099 0.087841 -0.024301 578069.000000 0 0 1
21.313132 -32.527929 12.409588 40.820505 -0.990756 1.261904 0.099425 -0.035034 -1674530.000000 0 0 1
20.018832 -32.482769 11.967588 39.988837 -1.018484 1.266865 0.100976 -0.026269 -729419.000000 0 0 1
19.067432 -33.425579 12.821888 40.561523 -1.052392 1.249170 0.087176 -0.022860 215419.000000 0 0 1
18.858432 -32.845329 14.106488 40.415951 -1.049595 1.214258 0.082190 -0.022652 281097.000000 0 0 1
19.667832 -33.314389 15.207488 41.568496 -1.037487 1.196259 0.070793 -0.024431 -735023.000000 0 0 1
19.611332 -32.320989 16.363988 41.195034 -1.025415 1.162298 0.079164 -0.024160 88481.700000 0 0 1
18.379432 -31.770939 16.852888 40.388314 -1.046337 1.140356 0.102120 -0.023796 268438.000000 0 0 1
17.393832 -32.711369 17.232988 40.860188 -1.082083 1.135416 0.092188 -0.023835 -568154.000000 0 0 1
17.586932 -33.633919 18.454288 42.203098 -1.089003 1.118232 0.080660 -0.030573 -149656.000000 0 0 1
18.595232 33.051876 18.183988 42.057896 1.058325 1.123692 0.076400 -0.022999 377575.000000 0 0 1
18.880632 32.431503 19.402088 42.245967 1.043591 1.093629 0.076498 -0.023670 299338.000000 0 0 1
19.742132 31.131157 19.160488 41.545458 1.005637 1.091457 0.093889 -0.022753 417791.000000 0 0 1
19.014432 29.974127 18.793288 40.164470 1.005493 1.083874 0.076962 -0.029946 216900.000000 0 0 1
19.898032 28.851107 18.644688 39.698142 0.967030 1.081889 0.078921 -0.028524 405386.000000 0 0 1
19.147332 27.528207 18.418988 38.258093 0.963061 1.068499 0.086551 -0.029509 175999.000000 0 0 1
18.524332 27.021767 19.595388 38.174678 0.969845 1.031761 0.091977 -0.035737 61162.900000 0 0 1
17.994032 25.737707 19.310688 36.866210 0.960654 1.019485 0.092311 -0.044113 -479847.000000 0 0 1
17.596932 24.791017 20.455288 36.642399 0.953516 0.978532 0.094970 -0.040141 279426.000000 0 0 1
16.384632 25.079467 21.143888 36.667422 0.992099 0.956187 0.099871 -0.035872 -270124.000000 0 0 1
15.411732 24.138357 20.806788 35.399212 1.002566 0.942490 0.103503 -0.043409 -715672.000000 0 0 1
14.111032 24.463907 21.543788 35.520963 1.047603 0.919134 0.101575 -0.057936 -423598.000000 0 0 1
13.487532 25.675497 21.098188 35.864721 1.087108 0.941877 0.107899 -0.050894 154861.000000 0 0 1
12.265032 25.925847 21.780788 36.013654 1.128915 0.921291 0.098221 -0.051491 347715.000000 0 0 1
11.459332 27.016747 21.033188 36.105622 1.169640 0.948939 0.091240 -0.057183 -248177.000000 0 0 1
12.089932 28.253867 21.244688 37.360196 1.166469 0.965939 0.091494 -0.052004 36798.100000 0 0 1
11.661032 29.262717 20.326688 37.489473 1.191588 0.997746 0.099871 -0.055583 -91978.200000 0 0 1
12.205932 30.689267 20.495688 38.870157 1.192251 1.015393 0.104289 -0.053065 -283926.000000 0 0 1
11.687232 31.471557 21.567988 39.902737 1.215222 0.999748 0.102593 -0.051763 -149678.000000 0 0 1
12.165732 31.143867 22.856848 40.501617 1.198393 0.971158 0.080618 -0.049654 101067.000000 0 0 1
11.544132 32.175548 23.911128 41.716603 1.226316 0.960415 0.064146 -0.047438 1437680.000000 0 0 1
10.126732 32.087693 24.153638 41.419428 1.265094 0.948198 0.073391 -0.049521 597103.000000 0 0 1
9.799532 32.519018 25.444228 42.437320 1.278104 0.927830 0.068373 -0.036759 -652781.000000 0 0 1
8.420532 32.163165 26.044768 42.233926 1.314737 0.906280 0.118780 -0.047755 -1140700.000000 0 0 1
7.340832 32.864514 25.549248 42.269708 1.351037 0.921741 0.109815 -0.036905 -638454.000000 0 0 1
6.824132 32.459980 24.320748 41.130498 1.363582 0.938118 0.115459 -0.046848 -591917.000000 0 0 1
5.861632 31.239587 24.495828 40.128745 1.385318 0.914192 0.103782 -0.039617 -1029480.000000 0 0 1
6.450032 30.094217 24.911648 39.596149 1.359663 0.890346 0.082560 -0.044059 -610418.000000 0 0 1
5.621332 28.978557 24.630538 38.445020 1.379193 0.875427 0.074528 -0.036845 -180120.000000 0 0 1
6.417732 27.643137 24.755108 37.658275 1.342674 0.853484 0.073765 -0.039533 549188.000000 0 0 1
7.388532 27.321047 23.732328 36.935802 1.306680 0.873002 0.082054 -0.042364 1461890.000000 0 0 1
8.562132 28.145417 23.596938 37.713262 1.275481 0.894776 0.094871 -0.049607 656732.000000 0 0 1
9.723132 27.914087 24.615518 38.466340 1.235616 0.876398 0.082272 -0.048092 -557068.000000 0 0 1
9.385032 28.161267 25.964738 39.437336 1.249112 0.852132 0.077625 -0.039113 26501.600000 0 0 1
10.445332 27.795047 26.831128 40.019733 1.211326 0.835985 0.080587 -0.024273 51399.700000 0 0 1
11.675532 28.699967 26.867718 41.010736 1.184430 0.856430 0.077183 -0.024406 -477305.000000 0 0 1
11.394732 29.938747 27.456198 42.190181 1.207124 0.862195 0.072992 -0.034080 324877.000000 0 0 1
12.594032 30.708517 27.504528 43.105936 1.181600 0.878810 0.070626 -0.027976 250950.000000 0 0 1
12.449232 32.043981 28.260008 44.502002 1.200239 0.882752 0.047404 -0.028236 -168608.000000 0 0 1
12.211132 31.872401 29.619438 45.191513 1.204921 0.856057 0.056089 -0.037654 570572.000000 0 0 1
10.866332 31.727241 30.081738 45.051149 1.240826 0.839649 0.079152 -0.036738 331920.000000 0 0 1
10.795332 31.701615 31.623141 46.060337 1.242583 0.814051 0.100794 -0.034679 -180567.000000 0 0 1
11.315732 30.546427 32.200603 45.804027 1.216026 0.791178 0.094302 -0.038463 115752.000000 0 0 1
11.354132 30.612577 33.615978 46.862354 1.215627 0.770827 0.126920 -0.036156 -68428.800000 0 0 1
11.364232 29.181787 -33.434337 45.810232 1.199436 2.388890 0.121775 -0.030240 -182964.000000 0 0 1
12.554432 28.486507 -33.717727 45.890957 1.155691 2.396073 0.122305 -0.028562 -48102.500000 0 0 1
12.526432 27.114377 -33.265357 44.706654 1.138021 2.409954 0.128143 -0.032287 -515200.000000 0 0 1
13.822832 26.448737 -33.697357 45.012423 1.089211 2.416780 0.122561 -0.031335 -355528.000000 0 0 1
13.893032 25.058037 -33.464677 44.054582 1.064555 2.433523 0.085044 -0.033644 -115947.000000 0 0 1
14.170232 24.552367 -32.157487 42.868615 1.047353 2.419071 0.077942 -0.029162 -295732.000000 0 0 1
14.052932 23.029167 -32.056707 41.898209 1.022894 2.442007 0.059545 -0.042246 -664964.000000 0 0 1
15.096232 22.335727 -32.661257 42.350190 0.976444 2.451550 0.033615 -0.018118 -351795.000000 0 0 1
14.939532 20.927627 -32.541217 41.473919 0.950824 2.472877 0.028260 -0.021837 188755.000000 0 0 1
16.202032 20.154027 -33.032367 41.950303 0.893676 2.477403 0.054568 -0.033569 1881130.000000 0 0 1
17.370632 20.459527 -32.167887 41.893962 0.866869 2.446260 0.079713 -0.032541 2144900.000000 0 0 1
18.582532 19.854527 -32.675177 42.510939 0.818479 2.447493 0.105850 -0.039405 589669.000000 0 0 1
19.829732 20.077627 -31.824477 42.533830 0.791610 2.416165 0.098105 -0.033449 -433384.000000 0 0 1
20.438032 21.333327 -32.024137 43.570280 0.806828 2.396462 0.101355 -0.021960 -185560.000000 0 0 1
21.419832 21.638327 -31.055417 43.490980 0.790473 2.366085 0.100994 -0.011465 -76784.400000 0 0 1
20.997532 22.038427 -29.637587 42.484999 0.809580 2.342840 0.071948 -0.012047 -85831.900000 0 0 1
20.185832 23.202447 -29.574277 42.666840 0.854812 2.336639 0.045459 0.004935 202127.000000 0 0 1
19.818632 23.561657 -28.249207 41.784537 0.871469 2.313210 0.044735 0.017062 589682.000000 0 0 1
21.054632 24.034837 -27.366177 42.069925 0.851398 2.279029 0.041571 0.003300 829224.000000 0 0 1
21.818632 25.169537 -27.846317 43.416306 0.856591 2.267091 0.045798 0.002903 -317169.000000 0 0 1
21.190332 26.406737 -28.024477 43.951305 0.894558 2.262208 0.034857 0.010195 -1196070.000000 0 0 1
22.012532 27.563267 -28.671017 45.456710 0.896898 2.253293 0.032487 0.007304 -313086.000000 0 0 1
22.252132 27.538507 -30.066397 46.449058 0.891174 2.274831 0.042258 0.003624 -19450.500000 0 0 1
22.758532 26.389047 -30.690227 46.435144 0.859134 2.292849 0.062358 -0.009834 159724.000000 0 0 1
24.141532 25.829057 -30.215767 46.507487 0.819156 2.277982 0.091566 -0.027582 118898.000000 0 0 1
25.206432 26.673797 -30.615947 47.793220 0.813674 2.266065 0.081503 -0.023014 434324.000000 0 0 1
26.491632 26.239797 -30.167307 47.962485 0.780622 2.251033 0.120604 -0.041252 -14611.000000 0 0 1
27.637532 27.109277 -30.603867 49.349192 0.775749 2.239729 0.104264 -0.028494 -849985.000000 0 0 1
27.721532 28.282357 -29.847967 49.591090 0.795412 2.216652 0.072927 -0.021079 647266.000000 0 0 1
28.760732 29.133967 -30.385667 50.982904 0.791845 2.209303 0.075665 -0.025604 739387.000000 0 0 1
28.993632 30.322017 -29.431267 51.246999 0.807790 2.182548 0.058387 -0.009022 -89182.400000 0 0 1
29.266632 29.909487 -28.107207 50.409605 0.796261 2.162260 0.081127 -0.018869 232100.000000 0 0 1
29.089932 30.937927 -27.217977 50.440041 0.816174 2.140771 0.052798 -0.009528 -634756.000000 0 0 1
29.683432 30.733777 -25.825467 49.926205 0.802781 2.114458 0.069856 -0.017680 -188368.000000 0 0 1
29.205932 29.636297 -24.973817 48.528220 0.792712 2.111366 0.063238 -0.007777 402250.000000 0 0 1
27.812132 29.350267 -24.921017 47.497473 0.812300 2.123137 0.046469 -0.005378 52391.900000 0 0 1
27.236732 29.242527 -23.508017 46.363691 0.820897 2.102538 0.045064 -0.001807 -260092.000000 0 0 1
27.274132 30.542977 -22.906817 46.919868 0.841876 2.080836 0.046788 0.006231 -214683.000000 0 0 1
26.591732 30.667887 -21.731717 46.042448 0.856466 2.062346 0.031193 0.011242 -338965.000000 0 0 1
3.949232 -26.306079 -19.561417 33.019013 -1.421783 2.204867 0.098362 -0.016626 -452087.000000 0 0 1
3.946032 -27.350849 -18.605217 33.313574 -1.427510 2.163358 0.119353 -0.015991 173818.000000 0 0 1
3.362732 -26.908669 -17.420717 32.231441 -1.446472 2.141814 0.098301 -0.019134 -134213.000000 0 0 1
3.334432 -28.012819 -16.416917 32.639724 -1.452321 2.097832 0.091565 -0.019310 -1084720.000000 0 0 1
4.571032 -28.409379 -15.974517 32.911583 -1.411265 2.077590 0.086009 -0.020339 -1091050.000000 0 0 1
4.501432 -29.498519 -15.071117 33.429988 -1.419366 2.038487 0.088947 -0.027136 -974050.000000 0 0 1
5.847632 -29.961249 -14.609517 33.842417 -1.378046 2.017165 0.105260 -0.031758 -1176210.000000 0 0 1
6.521332 -29.033169 -13.805117 32.802956 -1.349847 2.005178 0.098407 -0.021601 -64851.600000 0 0 1
7.931532 -29.174029 -13.847817 33.253499 -1.305343 2.000313 0.094365 -0.023720 478519.000000 0 0 1
8.579732 -30.055869 -12.721617 33.746209 -1.292732 1.957329 0.089781 -0.025357 -602112.000000 0 0 1
8.917732 -29.381919 -11.536517 32.801133 -1.276122 1.930194 0.087160 -0.027052 -80142.200000 0 0 1
8.990032 -30.233509 -10.407817 33.214581 -1.281770 1.889516 0.094767 -0.021642 466855.000000 0 0 1
10.250232 -31.131909 -10.233317 34.336333 -1.252724 1.873426 0.079172 -0.018657 1300490.000000 0 0 1
11.458732 -30.536689 -9.686317 34.023766 -1.211811 1.859482 0.080343 -0.016149 435471.000000 0 0 1
12.461132 -31.468469 -9.540417 35.164811 -1.193753 1.845546 0.073136 -0.017412 -580257.000000 0 0 1
13.521732 -31.005739 -8.519217 34.882232 -1.159558 1.817520 0.077198 -0.021973 -218305.000000 0 0 1
14.429232 -30.064249 -9.031917 34.549057 -1.123320 1.835292 0.087258 -0.020849 -401818.000000 0 0 1
15.496032 -29.863149 -8.157317 34.619019 -1.092142 1.808664 0.079158 -0.025080 -30623.200000 0 0 1
16.729932 -29.156619 -8.815617 34.752182 -1.049868 1.827270 0.104195 -0.035834 237435.000000 0 0 1
16.637132 -27.773679 -9.179417 33.651643 -1.031094 1.847075 0.093449 -0.029606 30996.000000 0 0 1
15.912332 -27.591639 -10.376217 33.498757 -1.047679 1.885726 0.074334 -0.025078 -490263.000000 0 0 1
15.528832 -26.087019 -10.579517 32.149702 -1.033862 1.906115 0.064868 -0.021080 -910222.000000 0 0 1
14.568632 -25.493569 -9.708517 30.926080 -1.051624 1.890122 0.054422 -0.023633 263713.000000 0 0 1
14.173032 -24.191469 -10.005617 29.769353 -1.040832 1.913574 0.037516 -0.013579 206363.000000 0 0 1
13.448432 -24.006769 -11.393717 29.782580 -1.060161 1.963365 0.023304 -0.008189 -497756.000000 0 0 1
14.302332 -23.719969 -12.453217 30.369001 -1.028199 1.993320 0.016027 -0.003913 -478451.000000 0 0 1
13.648832 -23.908269 -13.677417 30.740326 -1.052061 2.031897 0.029578 -0.011243 23489.400000 0 0 1
14.465932 -23.386569 -14.873717 31.263753 -1.016843 2.066612 0.034691 -0.003379 227199.000000 0 0 1
15.690832 -23.963369 -15.264217 32.456765 -0.991065 2.060420 0.040229 -0.002753 217099.000000 0 0 1
16.076632 -23.376269 -16.523217 32.831764 -0.968351 2.098174 0.028805 -0.006799 -393824.000000 0 0 1
17.107232 -24.143569 -17.355617 34.304325 -0.954347 2.101257 0.046757 -0.011558 1363640.000000 0 0 1
18.373432 -24.549369 -16.753817 34.942022 -0.928302 2.070852 0.084536 -0.021497 1242870.000000 0 0 1
19.362932 -23.517369 -16.800417 34.788558 -0.881981 2.074793 0.085290 -0.024503 176410.000000 0 0 1
20.710032 -24.038769 -16.216617 35.633503 -0.859649 2.043275 0.088434 -0.023496 278228.000000 0 0 1
21.418332 -24.798169 -17.170417 36.993477 -0.858399 2.053468 0.107368 -0.022717 -209797.000000 0 0 1
22.585732 -25.315289 -16.540017 37.743229 -0.842320 2.024419 0.125935 -0.026982 879035.000000 0 0 1
23.531532 -26.177719 -17.497317 39.308550 -0.838581 2.032113 0.131100 -0.028907 646340.000000 0 0 1
24.133532 -25.284099 -18.463917 39.530106 -0.808676 2.056787 0.133371 -0.021709 340824.000000 0 0 1
25.004632 -25.968019 -19.382317 40.929743 -0.804296 2.064114 0.108251 -0.017850 541886.000000 0 0 1
25.987832 -25.062339 -20.172917 41.357403 -0.767271 2.080330 0.108283 -0.027480 65276.400000 0 0 1
25.344832 -24.123969 -20.973417 40.794737 -0.760724 2.110778 0.124786 -0.020825 -109629.000000 0 0 1
25.144832 -22.892869 -20.263617 39.584848 -0.738553 2.108195 0.133240 -0.017130 57191.600000 0 0 1
24.742732 -21.651669 -21.137617 39.087036 -0.718871 2.142164 0.168638 -0.028359 -349150.000000 0 0 1
25.717232 -21.293369 -22.071117 40.023965 -0.691571 2.154895 0.130592 -0.014165 -115444.000000 0 0 1
25.637532 -22.079169 -23.277817 41.068595 -0.710963 2.173417 0.120785 -0.016247 -140051.000000 0 0 1
24.604832 -21.607869 -24.358417 40.812133 -0.720637 2.210356 0.119136 -0.015641 412201.000000 0 0 1
25.080232 -20.612969 -25.266547 41.137707 -0.687941 2.232161 0.111841 -0.012318 592417.000000 0 0 1
24.078632 -20.305869 -26.239277 40.995225 -0.700600 2.265369 0.093546 -0.007212 85782.100000 0 0 1
24.703332 -19.371469 -27.239197 41.562992 -0.665010 2.285471 0.100062 -0.008501 -252469.000000 0 0 1
23.768232 -18.684769 -28.013527 41.216588 -0.666222 2.318104 0.102556 -0.014119 -7153.140000 0 0 1
24.284432 -18.369069 -29.273497 42.238536 -0.647593 2.336510 0.109476 -0.024713 129007.000000 0 0 1
23.399032 -17.282269 -29.942777 41.746394 -0.636158 2.370650 0.120569 -0.027685 -467846.000000 0 0 1
22.162932 -17.644169 -30.444167 41.585569 -0.672366 2.392174 0.086886 -0.027920 -547254.000000 0 0 1
21.440432 -16.612669 -31.090507 41.258848 -0.659203 2.424238 0.085761 -0.028516 -399255.000000 0 0 1
20.137932 -17.248569 -31.562687 41.221992 -0.708268 2.442888 0.062191 -0.024637 -737292.000000 0 0 1
20.377932 -18.145969 -32.660837 42.558977 -0.727526 2.445612 0.067031 -0.020649 -3067.120000 0 0 1
19.163432 -18.628169 -33.149107 42.580619 -0.771236 2.463072 0.058744 -0.025198 -437869.000000 0 0 1
19.322432 -19.546069 33.244969 43.135057 -0.791152 0.690829 0.103408 -0.024013 -373862.000000 0 0 1
20.015232 -20.698869 33.526556 44.193695 -0.802188 0.709592 0.103030 -0.024012 -193783.000000 0 0 1
20.211232 -21.516269 32.386196 43.821335 -0.816663 0.739136 0.093225 -0.027508 -6705.090000 0 0 1
20.997832 -22.852169 32.619561 45.024064 -0.827661 0.760500 0.091493 -0.016102 7626.350000 0 0 1
20.439632 -23.752169 33.552683 45.909984 -0.860216 0.751250 0.092009 -0.028183 71078.900000 0 0 1
20.707932 -23.315269 -32.774667 45.239352 -0.844555 2.381065 0.092151 -0.028616 -97907.600000 0 0 1
19.719832 -23.969269 -31.797217 44.434903 -0.882359 2.368266 0.099072 -0.034051 -403491.000000 0 0 1
19.893332 -25.366199 -31.716197 45.222846 -0.905736 2.348060 0.106434 -0.040264 1328640.000000 0 0 1
21.034932 -25.778769 -30.883767 45.396259 -0.886388 2.318989 0.101123 -0.040274 1123620.000000 0 0 1
21.253432 -27.340499 -30.784987 46.334940 -0.910013 2.297489 0.093939 -0.037526 -261361.000000 0 0 1
20.306632 -28.061339 -30.050087 45.856360 -0.944373 2.285388 0.089836 -0.036610 -475376.000000 0 0 1
20.323232 -29.428859 -30.329747 46.893337 -0.966415 2.274153 0.090247 -0.023900 -220239.000000 0 0 1
19.051032 -30.182959 -29.882967 46.550451 -1.007762 2.267832 0.103438 -0.026945 288595.000000 0 0 1
17.845232 -30.008479 -30.597477 46.423773 -1.034303 2.290405 0.116738 -0.036453 -111596.000000 0 0 1
17.802432 -30.543689 -31.883557 47.606772 -1.043082 2.304638 0.134186 -0.047466 -343865.000000 0 0 1
16.489632 -31.194769 -32.406517 47.908286 -1.084529 2.313698 0.145235 -0.054166 946796.000000 0 0 1
15.429732 -30.302049 -32.814297 47.255358 -1.099818 2.338387 0.157439 -0.047409 775824.000000 0 0 1
14.299432 -31.038659 -33.291997 47.709843 -1.139082 2.343120 0.102441 -0.032613 81354.200000 0 0 1
13.224732 -30.077169 -33.784197 47.126442 -1.156546 2.370119 0.105603 -0.025166 -489514.000000 0 0 1
12.591832 -29.237109 -32.838057 45.735115 -1.164125 2.371729 0.116133 -0.031255 -189108.000000 0 0 1
11.483532 -28.712769 -33.525407 45.609730 -1.190337 2.396536 0.110024 -0.037971 -394546.000000 0 0 1
10.543132 -27.808819 -32.689567 44.193844 -1.208411 2.403400 0.136872 -0.050256 98097.500000 0 0 1
9.674532 -28.536989 -31.839187 43.837086 -1.243939 2.383730 0.119808 -0.040878 -581040.000000 0 0 1
8.717232 -27.669349 -31.371147 42.728583 -1.265590 2.395278 0.098742 -0.042975 -286540.000000 0 0 1
7.485532 -28.267089 -30.624377 42.342815 -1.311924 2.379291 0.086481 -0.045465 697421.000000 0 0 1
6.492732 -28.912559 -31.449387 43.210595 -1.349897 2.385929 0.086288 -0.048093 213804.000000 0 0 1
6.774832 -30.244669 -31.858307 44.447610 -1.350433 2.369942 0.086286 -0.043426 -162798.000000 0 0 1
5.592132 -31.123539 -32.375187 45.255931 -1.393018 2.367964 0.122142 -0.056222 186724.000000 0 0 1
4.786432 -31.550609 -31.317247 44.711529 -1.420238 2.346795 0.141793 -0.074786 -390636.000000 0 0 1
3.798632 -32.460229 -31.662457 45.503925 -1.454302 2.340355 0.159185 -0.099853 -1518580.000000 0 0 1
2.854632 -32.885859 -30.516297 44.954121 -1.484209 2.316967 0.142569 -0.103401 597380.000000 0 0 1
1.809632 -31.978909 -30.132587 43.976109 -1.514268 2.325679 0.116484 -0.088497 641817.000000 0 0 1
0.809632 -31.814019 -31.119007 44.510447 -1.545353 2.344989 0.088851 -0.047502 -835176.000000 0 0 1
-0.211268 -30.699959 -30.820997 43.502482 1.563915 2.358150 0.070095 -0.030351 -322279.000000 0 0 1
-1.008068 -30.874829 -29.698717 42.851896 1.538158 2.336514 0.048186 -0.033846 -13230.700000 0 0 1
-1.878668 -29.768669 -29.486387 41.942223 1.507771 2.350437 0.112603 -0.029741 -26204.800000 0 0 1
-2.619868 -29.867709 -28.150827 41.126789 1.483305 2.324699 0.117891 -0.036846 -181132.000000 0 0 1
-1.783468 -29.672219 -27.003707 40.159949 1.510763 2.308248 0.101488 -0.032562 160884.000000 0 0 1
-2.401868 -29.922929 -25.746907 39.548121 1.490700 2.279733 0.110212 -0.040240 -138784.000000 0 0 1
-1.328968 -30.064649 -24.669417 38.913100 1.526621 2.257462 0.078957 -0.036732 133826.000000 0 0 1
-1.831168 -29.951359 -23.314717 38.000172 1.509734 2.231335 0.109736 -0.038977 195584.000000 0 0 1
-0.847068 -30.585399 -22.534917 38.000087 1.543108 2.205604 0.091653 -0.025177 321893.000000 0 0 1
-1.294568 -30.756669 -21.064917 37.301197 1.528731 2.170896 0.056905 -0.013999 164252.000000 0 0 1
-1.594568 -29.578049 -20.382017 35.955948 1.516938 2.173487 0.053704 -0.007190 389999.000000 0 0 1
-0.392468 -28.985389 -19.883517 35.151971 1.557257 2.172011 0.078006 -0.016028 386408.000000 0 0 1
-0.411368 -27.584159 -19.280817 33.657168 1.555884 2.180786 0.084020 -0.016669 -12766.700000 0 0 1
-1.152268 -27.483829 -18.067817 32.911010 1.528896 2.151952 0.073632 -0.017501 179485.000000 0 0 1
-0.981168 -26.284899 -17.364717 31.518122 1.533485 2.154291 0.080892 -0.013305 -144202.000000 0 0 1
-1.925768 -26.208509 -16.165617 30.853228 1.497449 2.122281 0.062284 -0.007188 -306086.000000 0 0 1
-2.016368 -24.855769 -15.643817 29.438138 1.489851 2.131064 0.060290 -0.001544 32482.300000 0 0 1
-2.847868 -24.748269 -14.522617 28.835630 1.456227 2.098597 0.056866 0.003924 -89778.800000 0 0 1
-2.429368 -23.484869 -13.609017 27.251536 1.467719 2.093685 0.054670 0.008372 194639.000000 0 0 1
-1.242668 -23.625869 -12.861117 26.928316 1.518247 2.068724 0.044223 0.003000 -283968.000000 0 0 1
-1.079068 -22.512269 -12.060817 25.562276 1.522901 2.062151 0.051562 0.004235 4655.630000 0 0 1
0.103732 -22.564669 -11.084417 25.140393 -1.566199 2.027398 0.064703 -0.001594 75423.200000 0 0 1
0.534332 -21.328669 -10.559817 23.805616 -1.545749 2.030391 0.054922 0.000929 -147227.000000 0 1 0
1.754632 -21.307169 -9.847217 23.538094 -1.488632 2.002427 0.048117 0.001925 434911.000000 0 1 0
2.214432 -19.819969 -9.624017 22.143996 -1.459530 2.020402 0.049373 -0.002449 -1272840.000000 0 1 0
2.639532 -19.231069 -10.833617 22.229899 -1.434395 2.079842 0.049216 0.003819 -448164.000000 0 1 0
3.526532 -18.165369 -10.691917 21.371339 -1.379047 2.094733 0.038509 0.006068 620921.000000 0 1 0
4.962632 -18.619869 -10.257417 21.829838 -1.310328 2.059952 0.064948 -0.008735 -404480.000000 0 1 0
5.133532 -18.947769 -8.879617 21.545735 -1.306217 1.995586 0.059587 -0.008272 -201382.000000 0 1 0
6.225432 -19.818269 -8.640517 22.498407 -1.266431 1.964975 0.066732 -0.002474 -230073.000000 0 1 0
5.954732 -20.784269 -7.463917 22.872576 -1.291769 1.903211 0.063657 -0.014492 -447586.000000 0 1 0
5.097732 -21.775569 -7.906617 23.720811 -1.340834 1.910619 0.079151 -0.015929 -249042.000000 0 1 0
4.767432 -22.799269 -6.916217 24.297513 -1.364662 1.859435 0.090418 -0.022218 -199347.000000 0 1 0
3.627232 -23.703569 -7.339317 25.077511 -1.418950 1.867809 0.081108 -0.016486 -255455.000000 0 0 1
3.987132 -24.362269 -8.554817 26.126658 -1.408574 1.904385 0.093296 -0.018699 1012310.000000 0 0 1
2.823732 -24.903169 -9.249817 26.715172 -1.457890 1.924355 0.077114 -0.014905 1099890.000000 0 0 1
3.198532 -25.730449 -10.454917 27.956965 -1.447122 1.954077 0.086390 -0.021284 -62015.300000 0 0 1
3.749332 -26.983399 -10.171517 29.079564 -1.432731 1.928135 0.079403 -0.022717 -278516.000000 0 0 1
4.326732 -27.566509 -11.307217 30.107909 -1.415110 1.955793 0.096548 -0.026966 178560.000000 0 0 1
4.592632 -29.080069 -11.041117 31.442788 -1.414159 1.929595 0.100124 -0.032202 -85648.600000 0 0 1
3.411932 -29.799279 -11.244017 32.032268 -1.456796 1.929458 0.108012 -0.029960 -245792.000000 0 0 1
3.671032 -31.148639 -11.432017 33.382708 -1.453482 1.920323 0.095251 -0.029527 207051.000000 0 0 1
2.471332 -31.957169 -12.012617 34.229681 -1.493617 1.929373 0.076286 -0.037005 184173.000000 0 0 1
2.090432 -31.653319 -13.337417 34.412050 -1.504851 1.968801 0.077239 -0.037309 386011.000000 0 0 1
1.391632 -32.737449 -13.947917 35.612099 -1.528313 1.973234 0.071555 -0.028548 -113250.000000 0 0 1
0.794232 -32.422079 -15.315017 35.866025 -1.546305 2.011976 0.071096 -0.026556 24540.500000 0 0 1
-0.414568 -31.689009 -15.225817 35.159503 1.557715 2.018670 0.070160 -0.019874 3604.390000 0 0 1
-0.832368 -31.376229 -16.514417 35.466696 1.544274 2.055145 0.044346 -0.021708 463075.000000 0 0 1
-1.947268 -30.266989 -16.529117 34.541195 1.506549 2.069780 0.053700 -0.005017 768339.000000 0 0 1
-3.199968 -30.600159 -15.943717 34.652729 1.466601 2.048904 0.062630 -0.016024 -24268.600000 0 0 1
-4.215868 -30.072709 -16.763717 34.686648 1.431515 2.075205 0.065684 -0.006151 489108.000000 0 0 1
-5.639168 -30.049069 -16.126517 34.566042 1.385289 2.056174 0.059220 -0.011419 82705.000000 0 0 1
-5.802068 -29.135349 -15.037817 33.296674 1.374226 2.039389 0.050840 -0.010072 908057.000000 0 0 1
-7.134968 -29.117559 -14.478717 33.292240 1.330491 2.020721 0.066247 -0.007628 881042.000000 0 0 1
-7.573168 -30.312099 -13.638117 34.090680 1.325968 1.982372 0.055040 -0.022818 -487315.000000 0 0 1
-7.964768 -31.356519 -14.459417 35.436472 1.322050 1.991100 0.070136 -0.023574 -31405.100000 0 0 1
-8.716168 -32.231689 -13.602417 36.053836 1.306691 1.957655 0.081392 -0.017897 457152.000000 0 0 1
-9.166868 -33.537099 -14.310217 37.597218 1.303979 1.961262 0.115311 -0.032597 472856.000000 0 0 1
-8.136968 33.134871 -14.314717 37.000555 -1.329990 1.968040 0.108086 -0.033928 405729.000000 0 0 1
-8.526668 31.941130 -14.948117 36.282035 -1.309930 1.995442 0.133814 -0.037441 -303122.000000 0 0 1
-8.733668 -21.848669 -3.129817 23.736829 1.190519 1.703036 0.124506 -0.039901 151344.000000 0 1 0
-8.258968 -21.048169 -4.241617 23.004940 1.196873 1.756236 0.092041 -0.028915 153279.000000 0 1 0
-6.885868 -21.213969 -4.586117 22.770158 1.256934 1.773593 0.096367 -0.023217 829157.000000 0 1 0
-6.394168 -20.152669 -5.629017 21.879243 1.263557 1.830999 0.085011 -0.030917 203904.000000 0 1 0
-7.159168 -20.336669 -6.789617 22.603820 1.232312 1.875882 0.077825 -0.026119 -320069.000000 0 1 0
-7.003468 -19.235069 -7.700117 21.870716 1.221617 1.930583 0.054712 -0.018451 -607474.000000 0 1 0
-7.850068 -19.213069 -8.911317 22.587101 1.182916 1.976354 0.055546 -0.027755 -439408.000000 0 1 0
-7.448368 -20.196769 -9.838017 23.668000 1.217481 1.999473 0.067321 -0.008358 -422084.000000 0 1 0
-8.231768 -20.180669 -11.000617 24.413827 1.183495 2.038222 0.085178 -0.009507 29898.600000 0 1 0
-7.684768 -20.990569 -12.229217 25.479666 1.219846 2.071405 0.081158 -0.003590 -129148.000000 0 0 1
-6.634968 -20.436069 -12.960917 25.092650 1.256863 2.113581 0.073099 0.014574 -290730.000000 0 0 1
-6.334168 -21.340069 -14.059817 26.328666 1.282259 2.134135 0.059053 0.014847 91881.100000 0 0 1
-5.534768 -20.674069 -15.202417 26.251938 1.309215 2.188417 0.052016 0.018909 403736.000000 0 0 1
-4.159268 -20.414369 -14.915117 25.622386 1.369805 2.192121 0.042625 0.011804 371636.000000 0 0 1
-3.486868 -19.750969 -15.943917 25.621622 1.396055 2.242453 0.050279 0.020544 -139393.000000 0 0 1
-3.694768 -18.210569 -15.973617 24.503725 1.370622 2.280864 0.063656 0.022071 -374263.000000 0 1 0
-4.803168 -17.652369 -16.670917 24.750677 1.305130 2.309803 0.075011 0.028591 105907.000000 0 1 0
-4.738468 -17.753769 -18.092017 25.787021 1.309977 2.348428 0.097450 0.015231 -869545.000000 0 0 1
-6.144368 -17.732269 -18.659817 26.464606 1.237236 2.353340 0.106267 0.014220 -458251.000000 0 0 1
-6.845868 -18.842669 -18.122417 27.024694 1.222307 2.305797 0.097237 0.016258 249793.000000 0 0 1
-8.222368 -18.802469 -18.513217 27.638368 1.158552 2.304786 0.102828 0.003911 776613.000000 0 0 1
-9.032068 -19.962669 -17.877417 28.278763 1.145909 2.255167 0.113202 -0.007103 96216.900000 0 0 1
-8.594568 -21.215869 -18.422217 29.382950 1.185900 2.248454 0.115843 0.001576 798194.000000 0 0 1
-9.450668 -22.357269 -18.141317 30.302970 1.170866 2.212629 0.134758 0.005716 533785.000000 0 0 1
-8.996468 -23.545469 -19.011317 31.571438 1.205825 2.217010 0.155211 -0.007933 -692433.000000 0 0 1
-9.125068 -23.325269 -20.390717 32.297312 1.197891 2.254081 0.146579 -0.010913 -263317.000000 0 0 1
-8.603168 -24.251469 -21.274917 33.388176 1.229898 2.261655 0.162833 -0.032030 226474.000000 0 0 1
-7.033468 -24.301969 -21.255417 33.043125 1.289074 2.269549 0.144974 -0.015261 -90334.300000 0 0 1
-6.445968 -23.179669 -21.830717 32.487347 1.299562 2.307670 0.200106 -0.042144 22611.500000 0 0 1
-6.134668 -22.074069 -21.038117 31.104678 1.299724 2.313613 0.160131 -0.037346 -2107.500000 0 0 1
-5.334968 -22.203369 -19.655017 30.129241 1.334989 2.281486 0.149864 -0.012124 509139.000000 0 0 1
-4.032668 -22.719269 -19.889717 30.463559 1.395126 2.282206 0.130183 -0.021777 605618.000000 0 0 1
-3.148968 -22.604069 -18.746817 29.534777 1.432377 2.258464 0.069345 -0.012162 1150920.000000 0 0 1
-1.688568 -23.094169 -19.003417 29.955329 1.497810 2.258018 0.101756 -0.021428 734261.000000 0 0 1
-0.859968 -22.138469 -19.670517 29.627362 1.531971 2.296859 0.136539 -0.029502 -363936.000000 0 0 1
0.451432 -22.643369 -19.722717 30.031841 -1.550862 2.287267 0.092470 -0.030442 74717.000000 0 0 1
1.424732 -21.645969 -20.404717 29.781375 -1.505071 2.325606 0.080930 -0.025617 94253.100000 0 0 1
1.326632 -21.633769 -21.796617 30.738777 -1.509551 2.359006 0.083887 -0.028897 -143366.000000 0 0 1
2.397632 -20.943469 -22.426017 30.778300 -1.456811 2.387117 0.071793 -0.024180 -98452.000000 0 0 1
2.360332 -20.957769 -24.017617 31.963184 -1.458646 2.421000 0.113225 -0.041430 433682.000000 0 0 1
1.541032 -19.983169 -24.711217 31.817386 -1.493832 2.460139 0.122160 -0.041127 47898.400000 0 0 1
0.158432 -20.061869 -24.457217 31.633197 -1.562899 2.454590 0.149221 -0.046126 -580010.000000 0 0 1
-0.605968 -18.878369 -25.025917 31.353732 1.538709 2.495064 0.173782 -0.041563 -334759.000000 0 0 1
-0.338368 -17.622069 -24.530917 30.206252 1.551597 2.518562 0.113038 -0.030459 -474659.000000 0 0 1
-1.083368 -16.707869 -25.245157 30.292648 1.506045 2.555984 0.143887 -0.041808 -233193.000000 0 0 1
-0.810868 -15.231269 -24.857817 29.164364 1.517609 2.591231 0.129694 -0.024853 -439301.000000 0 0 1
0.475832 -14.826669 -25.205457 29.246736 -1.538714 2.609646 0.124430 -0.026107 -952099.000000 0 0 1
0.862732 -13.549069 -24.712217 28.196014 -1.507208 2.639222 0.102625 -0.023103 271295.000000 0 0 1
0.438132 -12.408469 -25.686387 28.529853 -1.535502 2.691332 0.101115 -0.020108 53289.500000 0 0 1
0.925032 -11.182869 -25.264697 27.644478 -1.488266 2.723623 0.085031 -0.017620 -62050.300000 0 0 1
0.454032 -10.205569 -26.139117 28.064447 -1.526337 2.769026 0.085608 -0.021282 -834026.000000 0 0 1
1.266132 -8.902469 -25.928817 27.443771 -1.429521 2.807773 0.072883 -0.029393 -26477.700000 0 0 1
2.644632 -8.922769 -26.146617 27.753476 -1.282653 2.799642 0.090420 -0.027002 -538260.000000 0 0 1
3.108132 -9.380369 -27.417317 29.143800 -1.250837 2.795661 0.092475 -0.027179 -312427.000000 0 0 1
4.588932 -8.962569 -27.684197 29.458457 -1.097586 2.792755 0.110031 -0.037603 -265187.000000 0 0 1
4.676532 -7.518169 -27.887477 29.259258 -1.014335 2.834169 0.110587 -0.034854 735270.000000 0 0 1
5.895232 -6.959069 -28.423467 29.850894 -0.867971 2.831094 0.145612 -0.037705 309655.000000 0 0 1
7.176432 -7.068269 -27.558687 29.341827 -0.777805 2.791173 0.151258 -0.037362 -143614.000000 0 0 1
7.735832 -8.294069 -27.162097 29.434914 -0.820209 2.746043 0.116107 -0.032850 150131.000000 0 0 1
8.283832 -8.992969 -28.253577 30.785710 -0.826421 2.733173 0.114065 -0.040533 -721331.000000 0 0 1
8.900832 -10.402369 -27.936567 31.110864 -0.863029 2.685927 0.114962 -0.022298 112429.000000 0 0 1
7.981232 -11.366569 -27.404707 30.723231 -0.958617 2.672517 0.120128 -0.032770 392664.000000 0 0 1
8.585032 -12.553769 -26.848967 30.857202 -0.970984 2.626209 0.111351 -0.025942 12970.300000 0 0 1
9.593032 -13.370569 -27.682457 32.204298 -0.948439 2.605261 0.101616 -0.034411 -17956.100000 0 0 1
9.031532 -13.968669 -28.816467 33.272827 -0.996846 2.618075 0.120762 -0.045893 -430062.000000 0 0 1
9.951232 -14.859869 -29.377077 34.392664 -0.980716 2.594743 0.109060 -0.046184 -276287.000000 0 0 1
9.534232 -15.622769 -30.624147 35.676475 -1.022854 2.602909 0.095157 -0.050023 -367001.000000 0 0 1
9.663432 -14.852269 -31.797277 36.401080 -0.993974 2.633195 0.116783 -0.049981 62603.000000 0 0 1
8.844732 -15.379069 -32.798977 37.289649 -1.048876 2.645761 0.128347 -0.050876 61549.800000 0 0 1
7.463432 -14.688969 -32.973297 36.860642 -1.100692 2.678196 0.131367 -0.046221 77775.200000 0 0 1
7.548032 -13.399269 -33.487777 36.850297 -1.057787 2.711080 0.142636 -0.048164 -28070.300000 0 0 1
6.294832 -12.806869 -33.789977 36.679740 -1.113956 2.741992 0.139397 -0.056183 125273.000000 0 0 1
6.349632 -11.619269 32.855807 35.423570 -1.070664 0.383094 0.170518 -0.043572 -243479.000000 0 0 1
6.801532 -12.077969 31.616697 34.521786 -1.057924 0.413182 0.169686 -0.036967 330549.000000 0 0 1
7.225832 -11.008069 30.709838 33.413835 -0.989927 0.405068 0.155199 -0.039217 279155.000000 0 0 1
7.798632 -11.463269 29.286318 32.402371 -0.973404 0.442153 0.150091 -0.038032 343276.000000 0 0 1
6.772732 -11.915369 28.420478 31.552646 -1.053934 0.449345 0.146165 -0.032840 642088.000000 0 0 1
7.372532 -12.161069 27.112198 30.615635 -1.025801 0.483083 0.123821 -0.030613 283618.000000 0 0 1
6.479932 -12.781169 26.016758 29.702180 -1.101572 0.503455 0.105345 -0.043308 -339256.000000 0 0 1
6.386532 -14.199269 26.140088 30.425503 -1.148126 0.537189 0.110431 -0.032692 -196306.000000 0 0 1
5.756332 -14.831969 25.035168 29.662810 -1.200588 0.566114 0.078826 -0.031814 -378717.000000 0 0 1
4.234532 -14.979869 25.132488 29.562979 -1.295303 0.554557 0.077754 -0.036741 -269273.000000 0 0 1
3.586832 -13.687569 24.954898 28.687312 -1.314509 0.515811 0.073190 -0.042874 903569.000000 0 0 1
2.159032 -13.871069 24.951908 28.629804 -1.416385 0.512470 0.069314 -0.037369 614519.000000 0 0 1
1.437732 -12.607169 24.649368 27.723621 -1.457246 0.475398 0.084490 -0.037769 -911281.000000 0 0 1
1.397132 -12.140269 23.303208 26.313069 -1.456218 0.482983 0.050229 -0.030365 634119.000000 0 0 1
0.349332 -11.144469 23.135798 25.682414 -1.539461 0.449091 0.061100 -0.019794 1061630.000000 0 0 1
-1.027268 -11.796369 22.825708 25.714248 1.483932 0.478541 0.058749 -0.010468 -414236.000000 0 0 1
-1.155868 -12.315069 21.499888 24.804075 1.477212 0.522070 0.045782 -0.013610 -595173.000000 0 1 0
-2.254068 -13.143769 21.355688 25.177468 1.400955 0.558207 0.072808 -0.018064 -282632.000000 0 0 1
-2.585268 -13.569369 19.919888 24.240737 1.382530 0.606317 0.077709 -0.021329 830247.000000 0 1 0
-1.432868 -14.314769 19.458888 24.199464 1.471031 0.636629 0.096655 -0.034086 596569.000000 0 1 0
-1.552468 -15.093969 18.273888 23.752327 1.468303 0.692971 0.099915 -0.036600 70330.700000 0 1 0
-2.459568 -16.344569 18.370388 24.711648 1.421435 0.732672 0.098619 -0.034122 369757.000000 0 1 0
-2.301268 -17.238269 17.255288 24.498953 1.438083 0.789321 0.073064 -0.035457 -429129.000000 0 1 0
-3.444368 -18.050869 17.201888 25.171462 1.382248 0.818402 0.092975 -0.029823 -19143.400000 0 0 1
-3.203568 -19.431969 16.528988 25.711315 1.407405 0.872559 0.091234 -0.036300 467553.000000 0 0 1
-2.224368 -20.267169 17.186588 26.666173 1.461482 0.870415 0.090724 -0.034630 472527.000000 0 0 1
-2.304368 -21.621869 16.718988 27.428815 1.464621 0.915315 0.091092 -0.058338 -50260.800000 0 0 1
-1.374768 -22.510969 17.561088 28.583658 1.509801 0.909203 0.097449 -0.039779 40739.300000 0 0 1
-0.020868 -22.406969 17.214388 28.256112 1.569865 0.915711 0.077049 -0.045090 -390742.000000 0 0 1
0.837532 -23.336969 17.894488 29.419862 -1.534923 0.916948 0.098635 -0.027276 1037750.000000 0 0 1
2.243032 -23.322969 17.211988 29.073091 -1.474919 0.937227 0.106052 -0.036046 283378.000000 0 0 1
3.015932 -22.175269 17.407888 28.352654 -1.435621 0.909707 0.105914 -0.029196 502775.000000 0 0 1
4.261432 -22.242169 16.684788 28.129274 -1.381498 0.935834 0.105843 -0.022998 677444.000000 0 0 1
5.092432 -20.991069 16.891688 27.420557 -1.332794 0.907113 0.089262 -0.015787 -1033210.000000 0 0 1
5.773232 -20.887569 18.094188 28.231550 -1.301133 0.875099 0.089082 -0.013115 -457226.000000 0 0 1
6.366632 -19.701869 18.440188 27.726128 -1.258240 0.843191 0.085947 -0.003937 379070.000000 0 0 1
7.442832 -19.048369 17.503488 26.918548 -1.198304 0.862897 0.094790 -0.014764 51532.000000 0 0 1
6.822132 -18.491769 16.348088 25.607557 -1.217360 0.878367 0.083493 -0.013353 121440.000000 0 0 1
7.725232 -17.687369 15.633088 24.837787 -1.159003 0.890006 0.118464 -0.024542 -18732.700000 0 1 0
6.990632 -16.672269 14.735588 23.323187 -1.173766 0.886923 0.068686 -0.013681 135099.000000 0 1 0
6.125232 -17.257169 13.772988 22.913392 -1.229729 0.925933 0.071577 -0.016193 63763.700000 0 1 0
5.561932 -16.346769 12.892588 21.549264 -1.242837 0.929438 0.046863 -0.014203 127357.000000 0 1 0
6.207532 -16.380969 11.449788 20.927667 -1.208569 0.991886 0.054506 -0.019638 222195.000000 0 1 0
7.576732 -16.087469 11.356888 21.099584 -1.130640 1.002435 0.074303 -0.016639 -302577.000000 0 1 0
8.054532 -16.229269 10.050588 20.719049 -1.110116 1.064331 0.077682 -0.023179 392350.000000 0 1 0
9.523032 -15.805569 9.800188 20.893727 -1.028532 1.082582 0.078455 -0.019742 255986.000000 0 1 0
10.145232 -16.340169 8.668988 21.096877 -1.015167 1.147341 0.075963 -0.021467 -305321.000000 0 1 0
11.463332 -15.858269 8.659588 21.398158 -0.944891 1.154158 0.070889 -0.023320 -384346.000000 0 1 0
12.602132 -16.598269 7.988088 22.318733 -0.921405 1.204768 0.093745 -0.031234 -161538.000000 0 1 0
13.033732 -17.791169 8.607288 23.674655 -0.938527 1.198704 0.115940 -0.038969 185829.000000 0 1 0
13.976632 -18.448369 7.759588 24.411058 -0.922444 1.247312 0.120790 -0.035020 385891.000000 0 1 0
14.583832 -19.716569 8.383388 25.917416 -0.933937 1.241407 0.123536 -0.036870 -67241.000000 0 0 1
13.576432 -20.657769 8.631188 26.183207 -0.989371 1.234868 0.118241 -0.036706 52524.000000 0 0 1
14.143332 -21.841769 9.136488 27.578472 -0.996155 1.233125 0.087811 -0.025744 89455.800000 0 0 1
13.051832 -22.712869 9.777488 27.961116 -1.049229 1.213565 0.109297 -0.034976 162617.000000 0 0 1
12.728832 -22.204469 11.056388 27.880196 -1.050274 1.163021 0.125982 -0.035416 -409473.000000 0 0 1
11.796932 -22.948169 11.806988 28.375888 -1.095957 1.141653 0.165919 -0.038628 -305158.000000 0 0 1
12.205332 -24.318869 12.293388 29.858080 -1.105640 1.146448 0.135462 -0.039452 -305880.000000 0 0 1
13.265732 -24.292469 13.207088 30.668076 -1.070964 1.125588 0.112119 -0.034669 -285639.000000 0 0 1
13.520532 -25.590079 13.667488 32.007142 -1.084726 1.129609 0.109711 -0.041348 -16847.000000 0 0 1
14.735932 -25.720549 14.612188 33.048606 -1.050523 1.112811 0.094919 -0.035568 -46435.600000 0 0 1
14.609032 -25.295569 15.982488 33.297591 -1.047060 1.070154 0.095191 -0.029327 314778.000000 0 0 1
15.808332 -25.621889 16.665488 34.411089 -1.017981 1.065227 0.099160 -0.027877 -12036.400000 0 0 1
15.741032 -25.222529 18.145988 34.831494 -1.012854 1.022815 0.121498 -0.026909 -64648.700000 0 0 1
16.046132 -23.878469 18.453688 34.178915 -0.979116 1.000461 0.104422 -0.027865 -1288040.000000 0 0 1
17.372832 -23.810069 18.790188 34.954340 -0.940452 1.003251 0.103660 -0.030226 -1283270.000000 0 0 1
17.765632 -22.376269 19.228788 34.439242 -0.899755 0.978413 0.101687 -0.031082 -126218.000000 0 0 1
17.947732 -21.417469 18.256488 33.378562 -0.873313 0.992077 0.102131 -0.032175 233469.000000 0 0 1
16.721032 -20.796169 17.920388 32.143644 -0.893594 0.979414 0.112194 -0.027491 -226394.000000 0 0 1
16.826332 -19.894769 16.667788 30.931254 -0.868765 1.001706 0.114204 -0.022291 215524.000000 0 0 1
17.615132 -18.732469 16.933888 30.788875 -0.816129 0.988432 0.117373 -0.025103 -671364.000000 0 0 1
18.927332 -18.835169 16.509788 31.393958 -0.782958 1.017034 0.110453 -0.022480 -833423.000000 0 0 1
19.705532 -17.479669 16.611288 31.141319 -0.725611 1.008162 0.115013 -0.023844 -282313.000000 0 0 1
20.072532 -17.269769 17.940688 31.984680 -0.710483 0.975306 0.114548 -0.030408 287945.000000 0 0 1
20.790032 -16.033669 18.048188 31.859709 -0.656944 0.968557 0.117395 -0.027547 -228496.000000 0 0 1
21.097332 -15.650869 19.481688 32.704484 -0.638259 0.932674 0.106972 -0.025866 -332610.000000 0 0 1
22.192832 -16.380969 19.956688 34.045959 -0.635854 0.944474 0.089679 -0.029523 -233553.000000 0 0 1
22.525032 -16.054269 21.289788 34.905182 -0.619219 0.914822 0.076170 -0.023276 173517.000000 0 0 1
35.038730 -2.019769 -7.625217 35.915679 -0.057580 1.784733 0.147883 -0.031925 498911.000000 0 0 1
36.294160 -1.391969 -7.933517 37.177201 -0.038334 1.785847 0.168078 -0.035903 -75939.600000 0 0 1
37.296710 -2.300469 -7.786917 38.170313 -0.061602 1.776243 0.211190 -0.051453 -973200.000000 0 0 1
-36.641598 -1.893669 -8.415717 37.643286 0.051635 1.796267 0.212453 -0.052977 429365.000000 0 0 1
-35.653862 -2.914269 -8.311417 36.725611 0.081557 1.799085 0.246707 -0.049744 367572.000000 0 0 1
-34.427150 -2.527969 -8.933017 35.656950 0.073298 1.824021 0.311507 -0.060670 1365480.000000 0 0 1
-33.306558 -3.683969 -8.746717 34.632405 0.110160 1.826120 0.285604 -0.056615 689948.000000 0 0 1
-32.840168 -3.730469 -7.468217 33.884617 0.113110 1.793022 0.270105 -0.056740 282856.000000 0 0 1
-31.670948 -4.555369 -7.453217 32.853474 0.142855 1.799651 0.252243 -0.063801 258915.000000 0 0 1
-31.037698 -4.503069 -6.052517 31.941341 0.144079 1.761438 0.235268 -0.074981 -102046.000000 0 0 1
-30.388748 -3.273569 -5.733617 31.097695 0.107309 1.756232 0.220815 -0.063525 465476.000000 0 0 1
-30.138758 -3.112769 -4.332817 30.607309 0.102916 1.712835 0.213695 -0.056866 -219367.000000 0 0 1
-30.086998 -1.662569 -3.875517 30.381099 0.055203 1.698708 0.215609 -0.049671 -143732.000000 0 0 1
-28.810398 -1.053369 -3.756617 29.073369 0.036546 1.700370 0.198669 -0.043106 604361.000000 0 0 1
-28.976698 0.157931 -3.067317 29.139018 -0.005450 1.676257 0.219604 -0.055216 -124512.000000 0 0 1
-27.601378 0.713331 -2.631417 27.735704 -0.025838 1.665814 0.236787 -0.037426 18428.500000 0 0 1
-27.021208 -0.036269 -1.604817 27.068846 0.001342 1.630118 0.202284 -0.046613 -428552.000000 0 0 1
-25.686408 0.321431 -1.425517 25.727941 -0.012513 1.626232 0.206389 -0.042650 -274028.000000 0 0 1
-25.059968 -0.314469 -0.113717 25.062199 0.012548 1.575334 0.197633 -0.046668 157214.000000 0 0 1
-24.914868 -1.716769 -0.208917 24.974819 0.068797 1.579162 0.185620 -0.044790 -155757.000000 0 1 0
-24.001268 -2.256469 0.675683 24.116572 0.093739 1.542775 0.157477 -0.038909 -413775.000000 0 1 0
-23.930768 -3.796969 0.683683 24.239762 0.157353 1.542588 0.147026 -0.023533 -743849.000000 0 1 0
-25.046068 -4.389569 1.244683 25.458261 0.173498 1.521886 0.151874 -0.035202 -390760.000000 0 0 1
-24.978468 -5.797269 0.997883 25.661799 0.228053 1.531901 0.125450 -0.019018 -291029.000000 0 0 1
-26.264598 -6.502169 1.437083 27.095618 0.242685 1.517734 0.149609 -0.019650 -203679.000000 0 0 1
-26.481748 -6.579269 2.824383 27.432588 0.243515 1.467656 0.156436 -0.022645 -113582.000000 0 0 1
-27.749948 -7.061469 3.199783 28.812542 0.249179 1.459512 0.164800 -0.015944 95855.600000 0 0 1
-27.751088 -7.292569 4.712683 29.077720 0.256975 1.408006 0.159037 -0.018090 -16998.300000 0 0 1
-26.920598 -8.375469 5.098183 28.650629 0.301625 1.391900 0.159533 -0.001186 654.725000 0 0 1
-26.921048 -8.493769 6.512583 28.970686 0.305622 1.344060 0.137392 -0.005195 405066.000000 0 0 1
-25.971528 -7.525469 7.282283 28.003296 0.282035 1.307721 0.117811 0.013345 -44673.000000 0 0 1
-24.569168 -7.613769 7.230183 26.718702 0.300506 1.296776 0.132765 -0.006590 -205534.000000 0 0 1
-24.128768 -6.458369 7.903083 26.198601 0.261532 1.264363 0.126412 -0.014311 1098750.000000 0 0 1
-22.736268 -5.873469 7.399983 24.621033 0.252804 1.265521 0.108917 -0.018275 954584.000000 0 1 0
-21.616468 -6.615569 7.772783 23.905096 0.296992 1.239624 0.113550 -0.031199 -409622.000000 0 1 0
-20.415268 -6.021169 7.348483 22.517501 0.286803 1.238362 0.100975 -0.027243 690913.000000 0 1 0
-19.205768 -6.165869 8.364383 21.836721 0.310648 1.177709 0.096953 -0.031906 495920.000000 0 1 0
-19.303168 -5.373569 9.504783 22.177205 0.271504 1.127872 0.101662 -0.026133 948071.000000 0 1 0
-18.369068 -5.852769 10.544583 21.974207 0.308451 1.070299 0.105155 -0.032494 640007.000000 0 1 0
-18.092668 -4.801069 11.634083 22.039664 0.259382 1.014705 0.106905 -0.024838 -512817.000000 0 1 0
-19.217568 -4.687769 12.420283 23.357087 0.239259 1.010123 0.131764 -0.027642 -374268.000000 0 1 0
-19.275568 -3.420369 12.993283 23.496209 0.175618 0.984842 0.133692 -0.026307 75520.100000 0 1 0
-20.506668 -3.369669 13.916383 25.010874 0.162865 0.980733 0.129769 -0.033046 -140280.000000 0 0 1
-20.425968 -4.149769 15.104283 25.740632 0.200434 0.943710 0.143280 -0.032025 575731.000000 0 0 1
-21.603668 -4.048769 15.921783 27.140637 0.185262 0.943893 0.131462 -0.021195 447129.000000 0 0 1
-21.577368 -4.928969 17.184583 28.021196 0.224579 0.910601 0.129379 -0.018310 47191.800000 0 0 1
-22.676168 -4.753169 18.059283 29.375822 0.206619 0.908706 0.109815 -0.021010 679036.000000 0 0 1
-22.427968 -5.479569 19.269283 30.072324 0.239624 0.875302 0.122578 -0.015331 -483435.000000 0 0 1
-23.379368 -4.916069 20.268083 31.329822 0.207254 0.867250 0.110331 -0.020561 -693329.000000 0 0 1
-23.112468 -3.547969 20.590783 31.156935 0.152320 0.848815 0.124911 -0.023440 249033.000000 0 0 1
-23.733768 -3.193369 21.805383 32.387715 0.133746 0.832186 0.118374 -0.022666 -125659.000000 0 0 1
-23.817568 -1.704969 22.151483 32.571025 0.071463 0.822900 0.105223 -0.014779 149110.000000 0 0 1
-24.805968 -1.058569 21.360183 32.752313 0.042648 0.860349 0.104649 -0.017432 83753.200000 0 0 1
-24.834168 0.302831 21.688383 32.972922 -0.012194 0.852951 0.095750 -0.020990 93351.800000 0 0 1
-26.083888 1.074331 21.160683 33.605028 -0.041164 0.889645 0.105092 -0.023679 493667.000000 0 0 1
-27.185558 0.745531 21.992583 34.975478 -0.027417 0.890787 0.112810 -0.021478 948168.000000 0 0 1
-28.409618 1.457331 21.666483 35.758449 -0.051252 0.919884 0.104866 -0.019336 888925.000000 0 0 1
-29.430388 1.590631 22.767383 37.242873 -0.053995 0.913066 0.091135 -0.013442 -143612.000000 0 0 1
-28.921528 2.410231 23.833783 37.554137 -0.083145 0.883239 0.089020 -0.015056 367101.000000 0 0 1
-29.581968 2.036431 25.020783 38.797931 -0.068732 0.869904 0.090483 -0.015249 -90366.500000 0 0 1
-29.081038 2.949931 26.160983 39.227617 -0.101093 0.840753 0.103483 -0.018675 -15515.100000 0 0 1
-27.750778 2.745731 26.565983 38.514883 -0.098622 0.809640 0.104258 -0.022234 -202780.000000 0 0 1
-27.600238 3.335331 27.860383 39.358589 -0.120261 0.784332 0.089680 -0.025317 -1106180.000000 0 0 1
-26.369438 2.954131 28.603883 39.016103 -0.111563 0.747883 0.074750 -0.026457 -1232430.000000 0 0 1
-26.406388 1.837631 29.482283 39.621702 -0.069478 0.731618 0.079897 -0.022531 478020.000000 0 0 1
-25.196978 1.658631 30.197683 39.364182 -0.065732 0.696432 0.049792 -0.028491 95692.200000 0 0 1
-25.515768 0.626431 31.295583 40.383912 -0.024546 0.684158 0.061720 -0.023238 58607.300000 0 0 1
-25.822428 -0.615769 30.745683 40.155622 0.023842 0.698725 0.046608 -0.019759 -221265.000000 0 0 1
-26.354778 -1.504369 31.637283 41.203824 0.057020 0.695359 0.060460 -0.020352 -714921.000000 0 0 1
-27.276178 -2.548369 30.988483 41.361457 0.093158 0.723925 0.057375 -0.015407 -100443.000000 0 0 1
-28.534178 -2.110769 30.526583 41.839299 0.073839 0.753037 0.092819 -0.016353 20831.600000 0 0 1
-28.568638 -1.278269 29.396983 41.011994 0.044714 0.771609 0.081637 -0.008561 -543423.000000 0 0 1
-30.047668 -1.091369 28.993683 41.769452 0.036305 0.803577 0.124380 -0.019208 575532.000000 0 0 1
-30.880718 -0.631669 30.055383 43.096912 0.020452 0.799046 0.147203 -0.018868 143918.000000 0 0 1
-32.246908 -0.618369 29.666183 43.821546 0.019174 0.827149 0.146240 -0.029964 617273.000000 0 0 1
-33.266298 -0.334869 30.798483 45.335475 0.010066 0.823925 0.152412 -0.029450 159686.000000 0 0 1
-33.504848 -1.483469 31.566283 46.056549 0.044247 0.815670 0.150803 -0.032788 70544.800000 0 0 1
-34.377521 -1.175269 32.647983 47.424530 0.034174 0.811488 0.155834 -0.029127 267145.000000 0 0 1
-34.891965 -2.361869 33.526683 48.446529 0.067588 0.806492 0.149070 -0.030468 223454.000000 0 0 1
-35.810298 -3.164669 32.805283 48.668051 0.088144 0.831102 0.138148 -0.042637 -144646.000000 0 0 1
-35.967562 -4.492369 33.346283 49.252629 0.124257 0.827055 0.127385 -0.038257 784521.000000 0 0 1
-37.297038 -5.153369 32.805883 49.938484 0.137302 0.854062 0.110535 -0.026338 895937.000000 0 0 1
36.846480 -4.657469 33.470783 49.996484 -0.125735 0.837311 0.106863 -0.037834 74351.400000 0 0 1
35.644100 -5.209069 32.956583 48.823894 -0.145114 0.829819 0.103638 -0.038273 299749.000000 0 0 1
34.345720 -4.718669 33.673383 48.330022 -0.136533 0.799956 0.095135 -0.041496 217944.000000 0 0 1
33.954430 -5.302269 -32.698621 47.436454 -0.154907 2.331338 0.092946 -0.037957 295050.000000 0 0 1
33.650700 -6.698669 -32.723321 47.413685 -0.196496 2.332515 0.083194 -0.031490 474696.000000 0 0 1
32.175870 -7.042469 -33.163321 46.740655 -0.215476 2.359610 0.089051 -0.031147 447100.000000 0 0 1
31.194470 -6.529069 -32.309821 45.383348 -0.206324 2.363041 0.108437 -0.031801 45874.200000 0 0 1
29.933090 -6.692169 -32.968221 45.029752 -0.219954 2.392259 0.090136 -0.025976 630707.000000 0 0 1
28.714890 -6.176469 -32.144921 43.542963 -0.211868 2.401246 0.103262 -0.039204 -387218.000000 0 0 1
27.567690 -6.885169 -32.425521 43.113774 -0.244748 2.422027 0.089781 -0.027653 -459153.000000 0 0 1
26.481890 -6.670369 -31.532721 41.714468 -0.246751 2.427852 0.099475 -0.028738 343382.000000 0 0 1
25.111390 -7.152769 -32.078221 41.361290 -0.277493 2.458400 0.094594 -0.032955 133111.000000 0 0 1
24.978290 -8.584569 -32.191921 41.640480 -0.331035 2.454498 0.094056 -0.039988 228559.000000 0 0 1
24.542390 -9.257269 -30.983821 40.595851 -0.360694 2.439088 0.097091 -0.031962 -114291.000000 0 0 1
24.246990 -10.761569 -31.242021 40.985263 -0.417712 2.437616 0.110049 -0.038914 92408.300000 0 0 1
23.139190 -11.066869 -32.075321 41.069745 -0.446116 2.467056 0.122305 -0.049212 124459.000000 0 0 1
22.862190 -12.453169 -31.956021 41.218302 -0.498770 2.457966 0.111682 -0.037666 -1073130.000000 0 0 1
21.527490 -12.920269 -32.544921 41.103991 -0.540548 2.484498 0.093213 -0.028759 871869.000000 0 0 1
20.325590 -12.607269 -31.792521 39.784887 -0.555188 2.496611 0.069430 -0.017798 792765.000000 0 0 1
19.959590 -11.245469 -31.784821 39.180616 -0.513082 2.517063 0.064181 -0.025516 -565926.000000 0 0 1
18.531090 -10.994269 -31.211221 37.926450 -0.535469 2.537364 0.061155 -0.021028 1056420.000000 0 0 1
17.494290 -11.441369 -32.129821 38.331195 -0.579186 2.564800 0.042939 -0.005935 -732696.000000 0 0 1
16.257890 -11.130669 -31.612421 37.249912 -0.600337 2.584239 0.080998 -0.018198 -745449.000000 0 0 1
15.165690 -11.437169 -32.670821 37.791395 -0.646150 2.614960 0.079412 -0.017979 -414391.000000 0 0 1
14.880590 -12.843869 -32.889221 38.315764 -0.712067 2.602886 0.086744 -0.019086 168592.000000 0 0 1
13.699990 -13.056369 -33.633921 38.592734 -0.761348 2.629068 0.091398 -0.022907 948555.000000 0 0 1
12.336290 -13.038369 -32.857621 37.440705 -0.813060 2.641610 0.099718 -0.025341 282112.000000 0 0 1
11.908890 -11.800869 -32.362421 36.447338 -0.780842 2.663606 0.170021 -0.032868 -327876.000000 0 0 1
10.816490 -11.982669 -31.495221 35.391097 -0.836504 2.667965 0.158106 -0.040456 673519.000000 0 0 1
9.491090 -11.242169 -31.878121 35.109568 -0.869656 2.709189 0.147235 -0.032547 361911.000000 0 0 1
9.714990 -9.881969 -31.713721 34.609167 -0.793919 2.729635 0.156376 -0.029578 793777.000000 0 0 1
8.654990 -9.074569 -32.291121 34.640629 -0.809059 2.771171 0.151322 -0.025766 756454.000000 0 0 1
9.056690 -7.593269 -32.243521 34.341317 -0.697730 2.790256 0.164763 -0.025348 -26902.400000 0 0 1
8.880390 -6.888469 -31.045921 33.017595 -0.659744 2.794260 0.175004 -0.036891 289470.000000 0 0 1
9.410990 -5.561569 -31.215921 33.074636 -0.533750 2.804749 0.164787 -0.028851 92976.000000 0 0 1
9.340690 -4.776569 -29.886521 31.674410 -0.472704 2.803998 0.148969 -0.026388 330163.000000 0 0 1
7.991590 -4.458569 -29.550821 30.935342 -0.508894 2.841282 0.171843 -0.036783 284502.000000 0 0 1
7.951790 -3.374769 -28.598621 29.874758 -0.401365 2.848254 0.160045 -0.036696 -919464.000000 0 0 1
6.565990 -2.948469 -28.211221 29.114922 -0.422065 2.891789 0.132270 -0.034942 -1827270.000000 0 0 1
5.941090 -2.385069 -29.341121 30.031425 -0.381758 2.926769 0.114698 -0.028779 390850.000000 0 0 1
4.610090 -1.938069 -29.087721 29.514481 -0.397966 2.971332 0.117913 -0.036726 962297.000000 0 0 1
3.435490 -2.952969 -28.902321 29.255201 -0.710011 2.986116 0.110153 -0.042601 -141143.000000 0 0 1
3.599490 -3.733769 -27.716521 28.197569 -0.803707 2.956614 0.116759 -0.042267 90410.000000 0 0 1
2.551890 -4.687769 -27.591721 28.103210 -1.072284 2.950512 0.098029 -0.038001 256538.000000 0 0 1
2.769090 -5.689769 -26.432321 27.179201 -1.117862 2.906618 0.075789 -0.040887 -241590.000000 0 0 1
2.766090 -5.040969 -25.189521 25.837465 -1.068935 2.917168 0.077650 -0.037967 116934.000000 0 0 1
2.952490 -5.977269 -24.141521 25.045119 -1.111998 2.872157 0.070631 -0.047421 -72534.800000 0 0 1
2.889090 -5.289469 -22.747521 23.532426 -1.070878 2.882590 0.082640 -0.053669 63653.100000 0 1 0
4.030990 -4.485869 -22.562521 23.354641 -0.838757 2.880401 0.089679 -0.050001 -71173.500000 0 1 0
3.829090 -3.653869 -21.431221 22.075098 -0.761986 2.899475 0.077348 -0.042251 236127.000000 0 1 0
4.859490 -2.497569 -21.224821 21.916787 -0.474751 2.889641 0.090074 -0.043400 -216635.000000 0 1 0
6.059690 -2.877169 -20.635721 21.698639 -0.443289 2.827298 0.085958 -0.052088 -780770.000000 0 1 0
6.851890 -1.764569 -20.387921 21.580765 -0.252053 2.807556 0.090560 -0.037758 606336.000000 0 1 0
8.374690 -1.965769 -20.046221 21.814002 -0.230554 2.736234 0.107662 -0.043189 539676.000000 0 1 0
9.130690 -2.317269 -21.207421 23.205472 -0.248542 2.723580 0.116052 -0.054191 170334.000000 0 1 0
10.385690 -2.924469 -21.019821 23.627272 -0.274479 2.667358 0.110995 -0.049134 821638.000000 0 1 0
11.586590 -2.100369 -20.456521 23.603599 -0.179328 2.619284 0.107577 -0.041599 -205558.000000 0 1 0
11.371190 -1.793069 -19.076821 22.281027 -0.156397 2.598649 0.105809 -0.034790 802036.000000 0 1 0
12.547990 -1.340569 -18.386021 22.300111 -0.106432 2.540081 0.108207 -0.035735 491021.000000 0 1 0
12.916690 0.147331 -18.592921 22.639773 0.011406 2.534395 0.103353 -0.032490 -68498.800000 0 1 0
13.335390 0.525831 -19.880721 23.944774 0.039411 2.550395 0.111253 -0.039575 215693.000000 0 1 0
13.117290 1.900431 -20.061621 24.044616 0.143879 2.557749 0.109386 -0.042403 7377.100000 0 1 0
13.659390 2.460431 -21.430721 25.532498 0.178216 2.566884 0.121260 -0.043700 287891.000000 0 0 1
15.064290 2.719031 -21.534621 26.420936 0.178573 2.523627 0.129884 -0.047857 707335.000000 0 0 1
15.400690 3.786631 -22.345221 27.401254 0.241092 2.524357 0.124547 -0.045246 -437.617000 0 0 1
16.920290 3.654331 -22.628621 28.490434 0.212706 2.488574 0.116943 -0.041577 169828.000000 0 0 1
17.189590 2.566231 -23.510021 29.236769 0.148195 2.504999 0.099074 -0.038302 -180503.000000 0 0 1
18.395990 1.930031 -23.191421 29.664448 0.104533 2.468331 0.102780 -0.038783 -367135.000000 0 0 1
10.127432 26.985031 3.395583 29.022177 1.211764 1.453528 0.021322 -0.009168 -18611.700000 0 0 1
9.894032 27.127631 4.757083 29.264827 1.221067 1.407519 0.028468 -0.011723 396485.000000 0 0 1
11.026832 27.695831 5.418983 30.298770 1.191894 1.390977 0.030808 -0.002564 154178.000000 0 0 1
10.785132 28.146031 6.858183 30.912017 1.204869 1.347073 0.041397 -0.015621 -108382.000000 0 0 1
10.878832 27.173231 7.857183 30.306250 1.189987 1.308541 0.033050 -0.022195 50596.600000 0 0 1
10.831332 27.737131 9.162583 31.154761 1.198507 1.272284 0.042294 -0.015264 -1096440.000000 0 0 1
10.994932 26.743531 10.325183 30.703655 1.180736 1.227827 0.066693 -0.015227 866109.000000 0 0 1
12.305032 26.170131 10.494783 30.764103 1.131277 1.222670 0.061553 -0.014141 727397.000000 0 0 1
12.759532 25.390231 9.400183 29.930469 1.105121 1.251322 0.067885 -0.021827 -1233170.000000 0 0 1
14.117132 24.775131 9.669483 30.109790 1.052871 1.243862 0.092501 -0.025760 -532005.000000 0 0 1
15.210832 25.675931 9.728683 31.389013 1.035972 1.255667 0.090860 -0.025429 -549031.000000 0 0 1
16.316032 24.958731 10.148583 31.498332 0.991810 1.242750 0.108167 -0.026892 -868655.000000 0 0 1
17.506032 25.760031 10.672183 32.923181 0.973906 1.240679 0.102062 -0.030429 -893760.000000 0 0 1
18.217732 26.371431 9.682283 33.482604 0.966263 1.277433 0.094555 -0.032035 -807667.000000 0 0 1
19.597632 26.203531 9.800383 34.157572 0.928640 1.279790 0.107883 -0.038023 282193.000000 0 0 1
20.402132 27.214931 10.792483 35.684411 0.927508 1.263542 0.105235 -0.037970 63680.900000 0 0 1
20.327832 28.559631 10.436583 36.575888 0.952216 1.281435 0.116751 -0.050154 -25865.800000 0 0 1
19.243232 29.204431 11.055083 36.679908 0.988180 1.264643 0.087367 -0.030593 -67980.100000 0 0 1
19.418532 30.723431 11.199183 38.031964 1.007148 1.271898 0.085827 -0.021668 -713310.000000 0 0 1
19.672732 31.493431 10.046783 38.468045 1.012441 1.306560 0.104141 -0.044070 1534150.000000 0 0 1
18.577132 31.565731 9.020383 37.720983 1.038859 1.329322 0.103755 -0.045612 2523530.000000 0 0 1
17.182032 32.092331 9.561683 37.637292 1.079236 1.313933 0.093344 -0.033678 329512.000000 0 0 1
17.235132 33.460031 10.017083 38.948240 1.095145 1.310683 0.082447 -0.029228 -1298230.000000 0 0 1
15.983732 -33.696265 10.096383 38.637481 -1.127881 1.306417 0.090934 -0.018500 -1170670.000000 0 0 1
16.039632 -32.165565 10.115483 37.339207 -1.108222 1.296460 0.087507 -0.017983 332289.000000 0 0 1
16.780332 -31.651665 8.972883 36.931289 -1.083316 1.325379 0.093285 -0.026928 522872.000000 0 0 1
17.015532 -30.245065 9.054383 35.864664 -1.058339 1.315575 0.079272 -0.020361 -282751.000000 0 0 1
17.825832 -29.712665 7.916983 35.542670 -1.030421 1.346166 0.074730 -0.014374 -468192.000000 0 0 1
17.115032 -29.704665 6.693283 34.929808 -1.048081 1.377983 0.085745 -0.013106 79330.400000 0 0 1
17.845332 -29.067765 5.655783 34.574250 -1.020203 1.406474 0.074224 -0.009335 61846.000000 0 0 1
17.320932 -29.414365 4.237683 34.397348 -1.038609 1.447285 0.087736 -0.017112 -35583.800000 0 0 1
17.505032 -30.731765 3.825783 35.573925 -1.053024 1.463043 0.091626 -0.022742 -187084.000000 0 0 1
17.243232 -30.764265 2.481283 35.354290 -1.059931 1.500555 0.091215 -0.026070 -82962.100000 0 0 1
17.592132 -32.164065 1.925483 36.711275 -1.070298 1.518323 0.097447 -0.032900 781763.000000 0 0 1
18.997932 -32.457465 2.045983 37.664234 -1.041243 1.516448 0.079870 -0.022044 815891.000000 0 0 1
19.338632 -33.794365 1.647083 38.971203 -1.051036 1.528520 0.101615 -0.026521 -274367.000000 0 0 1
20.836532 33.549331 1.647083 39.527605 1.015027 1.529115 0.110074 -0.023812 -189359.000000 0 0 1
21.299932 33.378231 2.989483 39.708065 1.002805 1.495438 0.106806 -0.045153 347375.000000 0 0 1
22.500332 32.620331 3.071683 39.746524 0.966973 1.493437 0.074075 -0.024869 -37412.400000 0 0 1
22.748832 32.088331 4.477483 39.588107 0.954093 1.457452 0.087632 -0.018663 -116461.000000 0 0 1
21.955432 30.937531 4.790383 38.237673 0.953610 1.445187 0.099864 -0.035934 433639.000000 0 0 1
22.481532 30.320431 5.944583 38.211070 0.932780 1.414590 0.080550 -0.037180 133959.000000 0 0 1
21.378132 29.676531 6.779783 37.197937 0.946529 1.387509 0.092291 -0.051344 318903.000000 0 0 1
20.662732 28.541431 6.184483 35.774427 0.944173 1.397049 0.108095 -0.047874 130786.000000 0 0 1
19.482332 28.120531 6.757283 34.870997 0.964909 1.375783 0.115557 -0.048347 380601.000000 0 0 1
18.109132 28.551831 6.127983 34.361314 1.005570 1.391498 0.105459 -0.043856 313563.000000 0 0 1
17.871432 29.933031 6.064683 35.385800 1.032551 1.398559 0.098968 -0.051124 144702.000000 0 0 1
18.385732 30.669331 4.945583 36.098502 1.030757 1.433362 0.109482 -0.050430 -286115.000000 0 0 1
18.391432 32.163331 5.101983 37.399932 1.051360 1.433953 0.105781 -0.048939 -430782.000000 0 0 1
17.107632 32.695931 5.099183 37.251801 1.088735 1.433481 0.098739 -0.040294 -620358.000000 0 0 1
17.089532 -33.630865 5.283883 38.092081 -1.100650 1.431634 0.093935 -0.041208 362762.000000 0 0 1
15.699332 -32.989465 5.654183 36.969496 -1.126623 1.417252 0.092867 -0.035376 1049480.000000 0 0 1
14.817932 -33.151565 4.508383 36.591295 -1.150461 1.447273 0.098481 -0.031100 94963.900000 0 0 1
13.633632 -32.405565 4.736983 35.474436 -1.172557 1.436864 0.094509 -0.028446 253835.000000 0 0 1
12.820832 -32.263865 3.422183 34.886130 -1.192555 1.472543 0.091970 -0.029602 591674.000000 0 0 1
11.712532 -31.356765 3.423783 33.647473 -1.213320 1.468865 0.090588 -0.025312 389403.000000 0 0 1
10.997932 -31.278665 2.237783 33.231267 -1.232687 1.503406 0.087022 -0.021628 -82666.700000 0 0 1
9.929632 -30.124065 2.163183 31.792079 -1.252387 1.502702 0.078965 -0.014266 212590.000000 0 0 1
9.498432 -29.667165 0.908583 31.163864 -1.260942 1.541637 0.080018 -0.009615 -643445.000000 0 0 1
8.559232 -30.515165 0.351083 31.694779 -1.297332 1.559719 0.062725 -0.011484 -1045860.000000 0 0 1
8.862932 -31.041165 -1.039817 32.298401 -1.292675 1.602996 0.080916 -0.014760 477265.000000 0 0 1
9.961432 -31.962465 -0.936917 33.491896 -1.268677 1.598774 0.077285 -0.023321 274011.000000 0 0 1
10.009532 -32.853265 -2.040617 34.404824 -1.275057 1.630143 0.069093 -0.009239 299074.000000 0 0 1
11.326532 -33.704265 -2.030917 35.614498 -1.246597 1.627852 0.077810 -0.018553 435930.000000 0 0 1
11.502232 33.192731 -0.908017 35.140905 1.237217 1.596639 0.074565 -0.013460 225161.000000 0 0 1
12.772732 32.555131 -0.948917 34.983992 1.196909 1.597924 0.089619 -0.019907 3646.380000 0 0 1
13.057032 31.632931 0.255683 34.222709 1.179333 1.563325 0.084219 -0.024108 -521325.000000 0 0 1
13.435632 32.292231 1.456683 35.006090 1.176519 1.529172 0.076754 -0.032090 1277460.000000 0 0 1
14.770332 32.839131 1.642083 36.045356 1.148127 1.525225 0.095611 -0.033976 1877740.000000 0 0 1
15.986232 31.811931 1.651883 35.641090 1.105132 1.524432 0.084904 -0.038064 671.804000 0 0 1
16.293232 31.329931 0.404783 35.315688 1.091235 1.559334 0.091796 -0.036621 -345090.000000 0 0 1
17.099632 30.201231 0.621183 34.711636 1.055608 1.552900 0.094417 -0.028263 -570012.000000 0 0 1
17.951132 29.800131 -0.552617 34.793625 1.028625 1.586680 0.090966 -0.025398 -73300.400000 0 0 1
18.943532 30.762831 -0.927017 36.139570 1.018845 1.596450 0.081948 -0.020126 229725.000000 0 0 1
18.556532 31.704531 -1.950317 36.787578 1.041259 1.623837 0.088770 -0.029450 634339.000000 0 0 1
19.839632 32.331031 -2.614117 38.022890 1.020407 1.639602 0.093100 -0.024687 743451.000000 0 0 1
20.655732 33.113731 -1.767717 39.067932 1.013074 1.616059 0.073578 -0.017475 155639.000000 0 0 1
21.564232 -33.775965 -2.528417 40.152519 -1.002584 1.633808 0.069500 -0.007081 -1043250.000000 0 0 1
22.593532 -32.916065 -1.753017 39.962584 -0.969257 1.614677 0.068480 0.001955 -1049900.000000 0 0 1
23.501332 -33.625665 -1.018017 41.036987 -0.960802 1.595606 0.064307 -0.004515 140563.000000 0 0 1
24.375532 33.068331 -1.628017 41.113642 0.935586 1.610405 0.066236 -0.002990 153452.000000 0 0 1
25.350932 33.591131 -2.761117 42.174134 0.924300 1.636313 0.059050 -0.009684 -489217.000000 0 0 1
24.639832 -33.589965 -3.886517 41.839122 -0.937908 1.663822 0.068827 -0.028123 118122.000000 0 0 1
25.473032 -32.966865 -4.847617 41.942687 -0.912934 1.686632 0.065247 -0.029802 99720.700000 0 0 1
24.655432 -32.581765 -6.132117 41.316638 -0.923005 1.719764 0.075719 -0.039656 198454.000000 0 0 1
23.638032 -31.643465 -5.812217 39.923017 -0.929211 1.716901 0.088812 -0.038168 111805.000000 0 0 1
23.067732 -31.150665 -6.987617 39.386685 -0.933389 1.749151 0.100926 -0.042220 -11991.100000 0 0 1
21.955532 -30.087665 -6.747917 37.852970 -0.940402 1.750021 0.117979 -0.044997 -44081.900000 0 0 1
20.758232 -30.579465 -6.212617 37.478054 -0.974421 1.737332 0.121144 -0.042270 -752532.000000 0 0 1
19.930632 -29.466965 -6.001017 36.076922 -0.976105 1.737913 0.115213 -0.047928 -202655.000000 0 0 1
18.845832 -29.657865 -4.951317 35.486193 -1.004724 1.710781 0.104588 -0.038984 -624561.000000 0 0 1
17.633732 -30.230165 -5.323717 35.399906 -1.042735 1.721757 0.102930 -0.038831 -996988.000000 0 0 1
16.774132 -30.065865 -4.247917 34.689661 -1.061898 1.693559 0.082677 -0.031407 -897273.000000 0 0 1
15.348232 -30.552565 -4.484117 34.483833 -1.105267 1.701201 0.072529 -0.027761 -356977.000000 0 0 1
15.338332 -31.927065 -4.651617 35.724494 -1.122937 1.701375 0.077123 -0.016208 239945.000000 0 0 1
14.007432 -32.394965 -4.849817 35.625309 -1.162678 1.707354 0.074210 -0.005760 428503.000000 0 0 1
13.901132 33.757331 -5.125817 36.865606 1.180163 1.710289 0.077086 -0.012776 -247152.000000 0 0 1
14.295932 32.937931 -4.066717 36.136120 1.161305 1.683574 0.094299 -0.023257 -147205.000000 0 0 1
14.422432 31.604731 -4.405417 35.018185 1.142684 1.696934 0.098383 -0.025261 -46005.800000 0 0 1
13.122732 30.782331 -4.643317 33.783404 1.167819 1.708677 0.090893 -0.019890 -454548.000000 0 0 1
12.405432 30.394131 -3.516417 33.016104 1.183282 1.677505 0.080423 -0.018408 -60196.400000 0 0 1
13.038632 29.320631 -2.832417 32.213785 1.152366 1.658836 0.089936 -0.023777 -196381.000000 0 0 1
12.055432 28.516531 -1.983517 31.023545 1.170831 1.634776 0.064439 -0.013695 103584.000000 0 0 1
11.281132 29.260631 -1.059817 31.377885 1.202818 1.604579 0.058555 -0.012916 -156762.000000 0 0 1
10.318132 28.445731 -0.451017 30.262632 1.222826 1.585700 0.036682 -0.004978 -700038.000000 0 0 1
9.144532 29.132631 0.197983 30.534765 1.266643 1.564312 0.017135 0.009082 -426028.000000 0 0 1
8.359832 28.197231 0.942483 29.425481 1.282575 1.538761 0.011952 -0.003220 442270.000000 0 0 1
7.205832 28.925931 1.391183 29.842401 1.326652 1.524162 0.027178 0.000163 562772.000000 0 0 1
6.055332 28.123131 2.049383 28.840553 1.358719 1.499677 0.031688 -0.011816 292560.000000 0 0 1
5.506432 27.161231 1.197283 27.739624 1.370776 1.527621 0.040007 -0.021558 -288908.000000 0 0 1
4.254432 26.753231 1.694283 27.142332 1.413092 1.508334 0.047084 -0.030079 -48431.500000 0 0 1
3.553232 25.777231 0.737983 26.031437 1.433816 1.542443 0.056133 -0.035343 11846.600000 0 0 1
2.279232 25.352731 1.183383 25.482470 1.481137 1.524341 0.066670 -0.038757 133863.000000 0 0 1
1.687832 24.560031 0.139683 24.618355 1.502181 1.565122 0.052809 -0.034294 -426556.000000 0 1 0
0.357632 23.965431 0.535883 23.974089 1.555875 1.548442 0.050394 -0.030677 -711628.000000 0 1 0
-0.720668 24.818331 0.745483 24.839981 -1.541767 1.540780 0.063067 -0.039596 -754259.000000 0 1 0
-1.948968 24.154331 0.655983 24.241710 -1.490283 1.543733 0.055365 -0.031919 -952528.000000 0 1 0
-3.035068 24.930231 1.335283 25.149772 -1.449650 1.517678 0.102195 -0.047839 -1372710.000000 0 0 1
-4.307968 24.456031 1.076983 24.855903 -1.396434 1.527454 0.101607 -0.036777 -510669.000000 0 1 0
-5.332768 25.082431 1.853983 25.709998 -1.361306 1.498622 0.109849 -0.045286 1348970.000000 0 0 1
-6.666468 25.288731 1.034883 26.173129 -1.313046 1.531246 0.114356 -0.045244 629327.000000 0 0 1
-6.605268 26.435831 0.172483 27.249082 -1.325949 1.564466 0.124036 -0.042356 -258294.000000 0 0 1
-7.794768 26.645431 -0.534117 27.767295 -1.286201 1.590033 0.119847 -0.035891 -490891.000000 0 0 1
-7.716568 27.722231 -1.653817 28.823647 -1.299315 1.628205 0.115062 -0.029068 -160425.000000 0 0 1
-7.554868 29.004131 -1.016817 29.989157 -1.315983 1.604709 0.141534 -0.043234 76749.500000 0 0 1
-7.536868 30.050231 -1.953417 31.042497 -1.325056 1.633765 0.136841 -0.041499 13076.200000 0 0 1
-7.258868 31.460131 -1.276517 32.311925 -1.344033 1.610313 0.116280 -0.039955 -412591.000000 0 0 1
-7.465968 32.657731 -2.043217 33.562521 -1.346046 1.631712 0.118048 -0.020952 123438.000000 0 0 1
-6.724568 32.792331 -3.285617 33.635577 -1.368535 1.668635 0.102474 -0.026511 331281.000000 0 0 1
-5.198968 33.022131 -3.165517 33.578429 -1.414639 1.665209 0.118575 -0.030769 -60375.600000 0 0 1
-4.719868 -33.357865 -2.676017 33.796233 1.430237 1.650060 0.128479 -0.031861 285473.000000 0 0 1
-4.364468 -33.534265 -1.290517 33.841704 1.441374 1.608939 0.132852 -0.037757 -101921.000000 0 0 1
-4.206068 -32.214765 -0.506017 32.492124 1.440967 1.586370 0.134017 -0.033668 54807.900000 0 0 1
-5.420268 -31.514465 -0.385517 31.979516 1.400470 1.582852 0.134382 -0.033684 -257668.000000 0 0 1
-5.524668 -30.493065 -1.372017 31.019855 1.391563 1.615041 0.147398 -0.035099 -157567.000000 0 0 1
-6.928968 -29.897965 -1.618617 30.733025 1.343063 1.623488 0.160769 -0.037711 -74151.700000 0 0 1
-7.315168 -29.357865 -0.381717 30.257918 1.326597 1.583412 0.151273 -0.028594 -195290.000000 0 0 1
-8.445368 -28.510965 -0.492317 29.739565 1.282816 1.587351 0.111468 -0.023589 162405.000000 0 0 1
-8.644268 -27.700865 0.816183 29.029768 1.268314 1.542677 0.116255 -0.016745 -31519.900000 0 0 1
-7.599768 -26.809765 1.116283 27.888458 1.294573 1.530759 0.131346 -0.030237 -383503.000000 0 0 1
-7.616568 -26.424265 2.467683 27.610566 1.290162 1.481302 0.130100 -0.019062 -222541.000000 0 0 1
-8.662368 -25.414765 2.954883 27.012557 1.242305 1.461188 0.110463 -0.014999 22534.800000 0 0 1
-8.202368 -24.036765 2.982783 25.572288 1.241944 1.453889 0.114428 -0.022754 197059.000000 0 0 1
-9.223868 -23.217765 3.546683 25.233377 1.192640 1.429774 0.104236 -0.022970 365550.000000 0 0 1
-8.667368 -21.823265 3.836883 23.792853 1.192739 1.408827 0.069522 -0.010112 58017.600000 0 1 0
-7.889768 -21.855865 4.994983 23.767144 1.224364 1.359054 0.058881 -0.011508 -524008.000000 0 1 0
-7.315368 -20.623665 5.349283 22.526984 1.229934 1.331045 0.044300 -0.010381 448423.000000 0 1 0
-8.299268 -19.572665 6.014183 22.093833 1.169753 1.295106 0.049953 -0.009387 529144.000000 0 1 0
-8.783268 -20.032465 7.265483 23.048486 1.157587 1.250101 0.060665 -0.013759 96654.500000 0 1 0
-9.606868 -19.169865 8.030583 22.896854 1.106234 1.212447 0.056305 -0.008540 -239021.000000 0 1 0
-28.134268 28.648131 -5.605917 40.542308 -0.794448 1.709514 0.163806 -0.009592 114999.000000 0 0 1
-27.213818 29.593431 -5.024217 40.516735 -0.827263 1.695120 0.147910 -0.017205 249904.000000 0 0 1
-26.077268 29.013831 -4.442217 39.262700 -0.838652 1.684180 0.130402 -0.008597 637549.000000 0 0 1
-25.114088 30.071731 -3.786217 39.361934 -0.874993 1.667135 0.105896 -0.009088 446237.000000 0 0 1
-25.860538 30.633131 -2.710117 40.180852 -0.869678 1.638296 0.083847 -0.012569 880841.000000 0 0 1
-25.095618 31.492831 -1.816517 40.309902 -0.897968 1.615875 0.075779 -0.013371 755774.000000 0 0 1
-23.954668 30.872531 -0.921417 39.086933 -0.910911 1.594372 0.071949 -0.010577 538066.000000 0 0 1
-22.799168 30.577831 -1.664817 38.178232 -0.930110 1.614417 0.098247 -0.024366 -139103.000000 0 0 1
-21.693268 30.228631 -0.846617 37.216727 -0.948329 1.593547 0.083614 -0.022842 695290.000000 0 0 1
-20.526768 29.648831 -1.738317 36.102952 -0.965237 1.618964 0.094521 -0.023173 1859820.000000 0 0 1
-19.241268 29.626031 -1.036317 35.341223 -0.994793 1.600124 0.097354 -0.024312 933126.000000 0 0 1
-18.326568 28.750831 -1.634417 34.134216 -1.003310 1.618697 0.099678 -0.020979 660860.000000 0 0 1
-16.886668 29.012031 -1.043617 33.584917 -1.043674 1.601875 0.104984 -0.027349 578356.000000 0 0 1
-16.622168 28.668831 0.282183 33.140277 -1.045363 1.562281 0.091907 -0.034407 -70692.300000 0 0 1
-15.411268 29.247531 0.725183 33.067373 -1.085841 1.548864 0.100508 -0.040711 16881.300000 0 0 1
-14.837968 28.460931 1.913883 32.153582 -1.090219 1.511238 0.090850 -0.038404 -510279.000000 0 0 1
-15.683468 28.443231 3.031683 32.621767 -1.066882 1.477728 0.070914 -0.035338 -456839.000000 0 0 1
-15.165668 27.780931 4.175283 31.925078 -1.071105 1.439637 0.067983 -0.041820 298776.000000 0 0 1
-14.025168 28.471231 4.985683 32.127455 -1.113079 1.414982 0.086492 -0.038959 194597.000000 0 0 1
-14.337168 29.689431 5.671983 33.454269 -1.120918 1.400429 0.064356 -0.036861 -342431.000000 0 0 1
-14.382668 30.843031 4.888383 34.380954 -1.134455 1.428130 0.075750 -0.036085 -34638.200000 0 0 1
-14.146868 32.122431 5.713283 35.561581 -1.155950 1.409438 0.083690 -0.034557 -181180.000000 0 0 1
-15.254668 32.541431 6.458783 36.515278 -1.132438 1.392982 0.076511 -0.031696 -393150.000000 0 0 1
-14.986168 33.710431 7.228883 37.593020 -1.152479 1.377298 0.111685 -0.044858 -116771.000000 0 0 1
-16.079268 -33.489465 8.193683 38.042392 1.123171 1.353712 0.093236 -0.038485 -82928.100000 0 0 1
-16.214168 33.317631 9.311583 38.205620 -1.117882 1.324594 0.068874 -0.039611 -272657.000000 0 0 1
-17.352768 33.647831 10.053783 39.171082 -1.094654 1.311228 0.079289 -0.042588 -892465.000000 0 0 1
-17.468368 32.945131 11.427083 39.001330 -1.083261 1.273442 0.072745 -0.035974 1100040.000000 0 0 1
-16.473768 33.210531 12.477783 39.115463 -1.110321 1.246123 0.078932 -0.041707 356470.000000 0 0 1
-15.157168 32.825631 12.216083 38.164047 -1.138216 1.244968 0.083915 -0.044350 -987335.000000 0 0 1
-14.231068 32.978031 13.407183 38.338315 -1.163406 1.213538 0.090642 -0.038734 -620642.000000 0 0 1
-14.450868 32.116431 14.570783 38.112996 -1.147982 1.178507 0.075725 -0.036446 191636.000000 0 0 1
-13.886868 30.794831 14.523583 36.770929 -1.147154 1.164756 0.056593 -0.039286 58831.000000 0 0 1
-14.756468 29.728931 13.775183 35.934918 -1.110059 1.177390 0.059185 -0.038560 220879.000000 0 0 1
-14.896768 29.908731 12.365283 35.627884 -1.108691 1.216354 0.060508 -0.034516 1062630.000000 0 0 1
-16.143168 29.380331 11.851283 35.556415 -1.068372 1.230985 0.043100 -0.033140 867194.000000 0 0 1
-16.139768 29.285131 10.314083 34.992732 -1.067090 1.271603 0.038629 -0.027778 -130407.000000 0 0 1
-15.302168 28.246231 9.905483 33.617325 -1.074315 1.271703 0.030230 -0.022184 -52817.300000 0 0 1
-15.352468 28.090031 8.536583 33.130369 -1.070610 1.310190 0.024943 -0.020838 -557363.000000 0 0 1
-14.796068 26.703631 8.151183 31.598249 -1.064823 1.309883 0.029530 -0.023722 -1330330.000000 0 0 1
-13.429768 26.713331 8.213883 31.006912 -1.104962 1.302691 0.054837 -0.029649 -1403020.000000 0 0 1
-12.852068 25.458031 8.018383 29.624001 -1.103289 1.296705 0.061790 -0.033784 -22542.900000 0 0 1
-11.555968 25.546331 7.184383 28.944270 -1.145987 1.319960 0.110891 -0.042136 -130604.000000 0 0 1
-11.736368 25.708331 5.758883 28.841383 -1.142534 1.369771 0.117623 -0.042057 1580180.000000 0 0 1
-10.444268 25.769531 5.081483 28.266109 -1.185733 1.390041 0.157476 -0.038915 1289980.000000 0 0 1
-10.667468 25.797231 3.536283 28.138893 -1.178696 1.444791 0.145742 -0.036191 126703.000000 0 0 1
-10.724368 27.145931 3.136683 29.355620 -1.194553 1.463741 0.147357 -0.032149 187549.000000 0 0 1
-11.223068 27.274931 1.799483 29.548558 -1.180433 1.509859 0.149494 -0.038517 -65587.800000 0 0 1
-10.891568 28.673531 1.283283 30.699258 -1.207783 1.528982 0.181022 -0.026528 107769.000000 0 0 1
-11.335868 29.752131 2.079883 31.906381 -1.206767 1.505563 0.143237 -0.031404 -124943.000000 0 0 1
-10.718068 30.952731 1.736583 32.801894 -1.237446 1.517830 0.140833 -0.032086 -128529.000000 0 0 1
-11.237368 32.080531 2.681683 34.097366 -1.233867 1.492067 0.127384 -0.032409 35308.600000 0 0 1
-12.566868 32.454031 2.440183 34.887602 -1.201355 1.500795 0.131609 -0.033486 -491188.000000 0 0 1
-12.714568 33.466531 1.393583 35.827518 -1.207720 1.531889 0.132028 -0.032528 -686454.000000 0 0 1
-14.163068 -33.799065 1.154583 36.664729 1.173987 1.539301 0.133359 -0.034732 -408828.000000 0 0 1
-15.045168 32.941331 0.614283 36.219687 -1.142363 1.553836 0.113045 -0.030713 -157669.000000 0 0 1
-15.335268 33.080231 -0.837717 36.471549 -1.136708 1.593767 0.111622 -0.030299 498649.000000 0 0 1
-14.126668 32.838331 -1.816617 35.794117 -1.164539 1.621570 0.125377 -0.029741 416442.000000 0 0 1
-13.841968 31.486131 -1.916117 34.447758 -1.156607 1.626449 0.118607 -0.027827 1019920.000000 0 0 1
-12.412168 31.306031 -2.024717 33.737649 -1.193329 1.630846 0.123523 -0.021913 1041300.000000 0 0 1
-11.954568 29.839831 -2.316917 32.228796 -1.189752 1.642748 0.089698 -0.027224 120558.000000 0 0 1
-12.033668 29.311731 -3.658017 31.896204 -1.181236 1.685734 0.078181 -0.030176 77450.300000 0 0 1
-10.799268 29.548931 -4.316417 31.755235 -1.220406 1.707146 0.062869 -0.026098 331436.000000 0 0 1
-10.770568 28.969031 -5.734817 31.434026 -1.214838 1.754264 0.066554 -0.020704 -63251.500000 0 0 1
-11.027268 27.583031 -5.841717 30.274575 -1.190476 1.764972 0.057249 -0.012294 21827.000000 0 0 1
-10.983468 27.007331 -7.130517 30.014609 -1.184541 1.810658 0.040618 -0.005592 192224.000000 0 0 1
-11.495168 25.480231 -7.224117 28.871594 -1.146994 1.823699 0.057916 -0.014160 585134.000000 0 0 1
-10.698168 24.546031 -6.476517 27.548207 -1.159779 1.808115 0.034150 -0.010394 171759.000000 0 0 1
-11.011268 23.183331 -6.753417 26.539094 -1.127377 1.828096 0.091777 -0.027310 7907.280000 0 0 1
-10.422468 22.120831 -5.741517 25.118201 -1.130485 1.801415 0.080896 -0.035513 -698570.000000 0 0 1
-9.051368 21.859631 -5.911917 24.386912 -1.178222 1.815658 0.072212 -0.032378 -267425.000000 0 1 0
-8.625068 20.668431 -5.359017 23.028133 -1.175460 1.805666 0.076774 -0.027928 -469277.000000 0 1 0
-8.499768 20.678331 -3.779817 22.674356 -1.180803 1.738278 0.082299 -0.038906 -453149.000000 0 1 0
-9.643168 20.542131 -2.972417 22.886789 -1.131899 1.701039 0.101373 -0.043896 -376863.000000 0 1 0
-10.345668 19.341031 -3.011017 22.139886 -1.079614 1.707219 0.102869 -0.044427 -564348.000000 0 1 0
-11.684568 19.411131 -2.270117 22.770037 -1.028943 1.670660 0.097747 -0.040730 -461643.000000 0 1 0
-11.687368 19.481731 -0.860017 22.734820 -1.030440 1.608634 0.105783 -0.042256 68237.500000 0 1 0
-11.487768 18.205231 -0.290817 21.528674 -1.007884 1.584305 0.090618 -0.030311 -217804.000000 0 1 0
-11.487568 18.049931 1.286583 21.434074 -1.004018 1.510735 0.103693 -0.039125 -539378.000000 0 1 0
-12.708168 17.998431 1.938683 22.117856 -0.956008 1.483031 0.125106 -0.042283 -444227.000000 0 1 0
-12.466268 18.389031 3.312983 22.461971 -0.975044 1.422763 0.123957 -0.029094 -237007.000000 0 1 0
-13.660568 18.234331 4.228383 23.172854 -0.927828 1.387297 0.110002 -0.028569 -494097.000000 0 1 0
-13.871268 16.949531 4.711183 22.402989 -0.884944 1.358922 0.079037 -0.033019 583985.000000 0 1 0
-15.223968 16.800031 5.132083 23.245398 -0.834574 1.348184 0.101509 -0.032993 414681.000000 0 1 0
-15.457368 15.364531 5.762683 22.543459 -0.782386 1.312302 0.078642 -0.036031 -352964.000000 0 1 0
-14.698668 15.001331 6.909983 22.109696 -0.795588 1.252939 0.079118 -0.029564 199387.000000 0 1 0
-15.043468 15.746131 8.068283 23.223776 -0.808216 1.215984 0.063219 -0.024523 -739799.000000 0 1 0
-13.905068 15.777231 9.097083 22.913508 -0.848388 1.162530 0.046214 -0.013360 312346.000000 0 1 0
-12.847568 16.653531 8.696783 22.760363 -0.913700 1.178726 0.042753 -0.025882 319914.000000 0 1 0
-11.819068 16.059331 7.914483 21.453007 -0.936340 1.192948 0.042406 -0.026074 55745.300000 0 1 0
-10.671468 17.075731 7.585783 21.517549 -1.012233 1.210513 0.063043 -0.031255 352638.000000 0 1 0
-9.850468 17.324531 8.696583 21.744003 -1.053796 1.159331 0.062047 -0.023489 39987.400000 0 1 0
-9.005868 18.463331 8.515583 22.237702 -1.116980 1.177825 0.064518 -0.031573 -708679.000000 0 1 0
-7.868768 18.591931 9.487483 22.306720 -1.170421 1.131481 0.068737 -0.026291 -680134.000000 0 1 0
-6.813168 17.696931 9.033683 21.004953 -1.203295 1.126222 0.055792 -0.024453 311368.000000 0 1 0
-5.634768 17.991331 9.767883 21.233232 -1.267280 1.092769 0.054111 -0.021229 148129.000000 0 1 0
-4.687368 19.030831 9.159983 21.634446 -1.329299 1.133603 0.052115 -0.023576 -1681890.000000 0 1 0
-5.037368 20.386731 9.254283 22.948543 -1.328558 1.155717 0.065644 -0.026560 -171125.000000 0 1 0
-4.380668 21.249231 8.356383 23.249714 -1.367488 1.203151 0.068089 -0.035742 -762957.000000 0 1 0
-2.940168 21.613731 8.589983 23.443246 -1.435594 1.195642 0.073731 -0.033793 -190669.000000 0 1 0
-1.875568 20.730931 8.144883 22.352369 -1.480570 1.197823 0.056564 -0.020393 1351390.000000 0 1 0
-0.631168 21.459031 8.132083 22.956898 -1.541392 1.208703 0.048824 -0.019944 734791.000000 0 1 0
0.656532 20.654531 7.968383 22.148043 1.539021 1.202766 0.031136 -0.005731 46006.600000 0 1 0
1.071932 19.966631 9.078483 21.959833 1.517162 1.144597 0.027437 -0.011370 -402514.000000 0 1 0
2.413132 19.519531 9.033583 21.643496 1.447794 1.140235 0.023465 -0.010514 114771.000000 0 1 0
2.915632 19.096731 10.458283 21.967288 1.419289 1.074600 0.013504 -0.019415 654304.000000 0 1 0
4.327832 18.836631 10.468983 21.980637 1.344960 1.074375 0.036819 -0.002443 680424.000000 0 1 0
4.749632 18.367131 11.743783 22.312036 1.317746 1.016503 0.038102 -0.005365 651212.000000 0 1 0
6.291232 18.514331 11.960183 22.921737 1.243234 1.021856 0.049522 -0.008836 633394.000000 0 1 0
7.129832 17.771031 11.101583 22.133441 1.189251 1.045378 0.039267 -0.010527 -412363.000000 0 1 0
7.797332 16.830731 11.837783 22.004659 1.136954 1.002773 0.044879 -0.011612 -375422.000000 0 1 0
8.971032 16.208731 11.032783 21.562112 1.065294 1.033664 0.045341 -0.020697 -691772.000000 0 1 0
10.018832 17.027531 10.739683 22.486765 1.038957 1.072875 0.056397 -0.032572 -1732490.000000 0 1 0
11.030032 16.333531 10.114583 22.152892 0.976841 1.096648 0.057117 -0.037824 -904949.000000 0 1 0
12.164632 17.351431 9.894683 23.387073 0.959350 1.133951 0.064115 -0.030533 -132652.000000 0 1 0
13.194132 16.803831 9.079383 23.213984 0.905154 1.168951 0.065983 -0.028088 11048.100000 0 1 0
13.953932 17.857231 8.497583 24.203344 0.907490 1.212060 0.078689 -0.026818 -327036.000000 0 1 0
14.856532 17.466131 7.354683 24.080566 0.865959 1.260417 0.088183 -0.030597 -1172070.000000 0 1 0
16.037032 16.964431 7.828183 24.622323 0.813493 1.247251 0.099173 -0.031985 -389517.000000 0 1 0
17.055932 16.774131 6.814883 24.874061 0.777068 1.293272 0.104601 -0.020858 889027.000000 0 1 0
18.464432 16.461131 7.380583 25.814281 0.728102 1.280839 0.098200 -0.027213 6150.510000 0 0 1
18.692632 15.277831 8.071283 25.455299 0.685212 1.248151 0.097447 -0.025595 1186550.000000 0 0 1
19.908632 15.449031 8.852483 26.709411 0.659932 1.232970 0.111683 -0.029313 959297.000000 0 0 1
20.206932 14.314231 9.927183 26.678948 0.616329 1.189528 0.091654 -0.029125 103386.000000 0 0 1
20.592532 13.008831 9.412383 26.112737 0.563421 1.202044 0.093161 -0.036865 383388.000000 0 0 1
20.830632 12.058131 10.462783 26.244687 0.524734 1.160738 0.093213 -0.043594 -911854.000000 0 0 1
21.773432 11.048031 9.951483 26.366140 0.469557 1.183772 0.080460 -0.035525 -2139210.000000 0 0 1
23.111032 11.325331 10.133183 27.659796 0.455648 1.195712 0.089182 -0.045545 205369.000000 0 0 1
24.059532 10.632631 9.277383 27.892361 0.416123 1.231723 0.113846 -0.049545 142183.000000 0 0 1
24.297232 9.124731 9.557683 27.658010 0.359249 1.217954 0.129731 -0.058632 -589906.000000 0 0 1
23.226732 8.248231 9.226783 26.318205 0.341227 1.212600 0.126555 -0.058694 618351.000000 0 0 1
23.518632 6.868931 9.473883 26.269045 0.284160 1.201834 0.120972 -0.053898 468150.000000 0 0 1
24.617732 6.285531 8.509683 26.794689 0.249984 1.247611 0.131375 -0.055710 1024370.000000 0 0 1
24.012232 6.157731 7.207683 25.815802 0.251032 1.287839 0.113919 -0.035204 159436.000000 0 0 1
24.933232 5.567331 6.397483 26.336079 0.219686 1.325424 0.142408 -0.043623 -839217.000000 0 0 1
24.434032 5.243031 5.014383 25.488337 0.211374 1.372772 0.152634 -0.049061 -390489.000000 0 0 1
23.694332 4.033931 4.918783 24.533414 0.168632 1.368935 0.137927 -0.043767 306836.000000 0 1 0
23.155532 3.839431 3.661383 23.755539 0.164316 1.416052 0.150083 -0.038434 -407945.000000 0 1 0
22.322232 2.564331 3.548383 22.747503 0.114377 1.414167 0.142564 -0.027741 -93148.300000 0 1 0
23.074932 1.362131 3.792683 23.424183 0.058962 1.408167 0.177773 -0.029325 725238.000000 0 1 0
22.347032 0.218931 3.339883 22.596296 0.009797 1.422446 0.171743 -0.020707 8878.910000 0 1 0
22.942932 -1.128669 3.722983 23.270424 -0.049155 1.410118 0.185360 -0.025473 -419177.000000 0 1 0
22.753232 -1.436169 5.065883 23.354557 -0.063036 1.352146 0.160935 -0.022644 500472.000000 0 1 0
23.098432 -2.739969 5.343783 23.866316 -0.118070 1.344977 0.167229 -0.025678 -383026.000000 0 1 0
22.797232 -3.151469 6.856683 24.013739 -0.137368 1.281235 0.186917 -0.034265 -25201.600000 0 1 0
23.040832 -4.512669 7.142683 24.541028 -0.193407 1.275471 0.183245 -0.034747 298877.000000 0 1 0
22.858132 -4.815269 8.477183 24.850426 -0.207623 1.222679 0.196896 -0.046927 -42749.000000 0 1 0
22.599432 -6.339269 8.724183 25.040608 -0.273478 1.214931 0.196823 -0.051312 -216521.000000 0 0 1
21.304032 -6.753569 8.397283 23.874397 -0.306987 1.211380 0.206345 -0.057015 79028.400000 0 1 0
20.904932 -7.806469 9.240083 24.152356 -0.357391 1.178215 0.187116 -0.049026 -322511.000000 0 1 0
-27.558658 -32.962965 5.578383 43.326147 0.874457 1.441685 0.067600 -0.008456 93118.800000 0 0 1
-28.258738 33.496931 5.854983 44.214042 -0.870017 1.437983 0.070602 -0.015472 151113.000000 0 0 1
-28.471718 33.370131 7.266183 44.463488 -0.864442 1.406641 0.073545 -0.017618 317043.000000 0 0 1
-29.449668 32.215931 7.718883 44.325278 -0.830227 1.395762 0.094123 -0.027659 907906.000000 0 0 1
-30.835028 32.507931 7.540283 45.435893 -0.811802 1.404071 0.087450 -0.019340 527848.000000 0 0 1
-31.634948 31.372331 7.981183 45.262483 -0.781230 1.393538 0.106406 -0.032667 490552.000000 0 0 1
-33.142898 31.628531 7.805683 46.473050 -0.762022 1.402035 0.102675 -0.030696 4880.360000 0 0 1
-33.570668 31.682131 6.405583 46.602346 -0.756464 1.432908 0.080570 -0.025448 413642.000000 0 0 1
-34.985377 31.814231 6.369083 47.714643 -0.737961 1.436914 0.068553 -0.026226 209971.000000 0 0 1
-35.595042 31.870731 4.981283 48.037107 -0.730251 1.466913 0.045073 -0.017184 -373904.000000 0 0 1
-35.495378 30.574931 4.413283 47.055556 -0.711063 1.476869 0.060021 -0.022697 107255.000000 0 0 1
-36.221958 30.503031 3.230283 47.464722 -0.699898 1.502687 0.062296 -0.012039 -99242.700000 0 0 1
-35.921135 29.155131 2.431383 46.327759 -0.681800 1.518290 0.074748 -0.020051 72212.200000 0 0 1
-36.471108 28.061631 3.150583 46.125080 -0.655815 1.502438 0.099751 -0.029483 172433.000000 0 0 1
-35.941154 26.813031 2.681483 44.920992 -0.640953 1.511067 0.103219 -0.026841 -294061.000000 0 0 1
-36.425808 25.542831 3.458083 44.623245 -0.611550 1.493223 0.120183 -0.031672 -109188.000000 0 0 1
37.543030 25.136731 3.222183 45.295880 0.589992 1.499600 0.107200 -0.029741 -329290.000000 0 0 1
36.984280 24.406431 4.287683 44.518480 0.583313 1.474334 0.108119 -0.021670 -234476.000000 0 0 1
35.602160 23.837331 3.963983 43.028424 0.589994 1.478541 0.127375 -0.020757 -654772.000000 0 0 1
35.589190 22.845531 2.963383 42.394461 0.570676 1.500839 0.113945 -0.037096 204793.000000 0 0 1
35.844280 21.530831 3.352983 41.947963 0.540917 1.490779 0.110726 -0.032286 -686459.000000 0 0 1
35.388490 20.551131 2.180583 40.981083 0.526129 1.517562 0.120043 -0.026523 1557240.000000 0 0 1
33.946860 20.343631 2.156283 39.634608 0.539889 1.516365 0.120321 -0.035270 1931950.000000 0 0 1
33.325830 19.614931 3.255583 38.806639 0.531980 1.486805 0.107136 -0.037814 -297195.000000 0 0 1
33.491550 18.036031 3.313583 38.183270 0.493990 1.483906 0.130606 -0.036183 -729252.000000 0 0 1
32.776350 17.395631 2.313583 37.178619 0.487934 1.508527 0.121589 -0.053793 -2764.030000 0 0 1
32.737540 15.925931 2.392683 36.484335 0.452768 1.505168 0.118475 -0.045457 156415.000000 0 0 1
31.769690 15.326631 3.464383 35.443205 0.449493 1.472895 0.148514 -0.047709 1117550.000000 0 0 1
30.361730 15.616131 3.334383 34.304756 0.475051 1.473444 0.145921 -0.050198 982962.000000 0 0 1
29.596890 14.894931 4.277183 33.408519 0.466252 1.442417 0.134337 -0.058048 334789.000000 0 0 1
28.104390 15.338731 4.138283 32.284033 0.499595 1.442259 0.125068 -0.046297 575.634000 0 0 1
27.562490 14.799731 2.979883 31.426145 0.492770 1.475832 0.123562 -0.047046 -22989.700000 0 0 1
26.280090 15.336331 2.697983 30.547099 0.528253 1.482359 0.094451 -0.026590 119550.000000 0 0 1
25.502990 14.747831 1.502583 29.498453 0.524295 1.519837 0.096205 -0.039877 1328.050000 0 0 1
26.077590 15.033931 0.214683 30.101592 0.522967 1.563664 0.118533 -0.040713 76623.800000 0 0 1
27.253490 14.344731 -0.077817 30.798215 0.484501 1.573323 0.125054 -0.044698 -1304240.000000 0 0 1
28.115590 14.910431 -1.228517 31.848337 0.487613 1.609380 0.145773 -0.040312 101862.000000 0 0 1
28.533190 16.304731 -1.132117 32.882653 0.519147 1.605232 0.115512 -0.037114 421996.000000 0 0 1
29.379190 16.470231 -0.021117 33.680940 0.510952 1.571423 0.119147 -0.042521 -985410.000000 0 0 1
29.903290 17.881431 0.156183 34.842168 0.538929 1.566314 0.132884 -0.035800 501120.000000 0 0 1
30.866820 18.341131 -0.820417 35.914213 0.536145 1.593642 0.144125 -0.039073 404803.000000 0 0 1
31.485930 19.535231 -0.434817 37.056418 0.555316 1.582531 0.134246 -0.023170 -639030.000000 0 0 1
32.671050 19.794631 -1.326817 38.222838 0.544729 1.605516 0.123456 -0.022090 -756708.000000 0 0 1
33.135360 21.126631 -1.524817 39.326984 0.567599 1.609579 0.070067 -0.016598 354060.000000 0 0 1
32.288450 21.940531 -2.336517 39.107419 0.596846 1.630578 0.098619 -0.020101 -244347.000000 0 0 1
32.857150 23.354031 -2.556717 40.392324 0.617921 1.634136 0.108311 -0.021754 -239032.000000 0 0 1
33.044190 24.224331 -1.429217 40.997309 0.632590 1.605665 0.123702 -0.022280 237193.000000 0 0 1
34.132720 23.863731 -0.603117 41.651938 0.610152 1.585277 0.130461 -0.010900 -497036.000000 0 0 1
34.391860 24.886331 0.493583 42.454365 0.626397 1.559170 0.130384 -0.033990 -385445.000000 0 0 1
35.041380 26.080631 0.075683 43.681842 0.639831 1.569064 0.145518 -0.027413 1502130.000000 0 0 1
36.450150 26.046831 0.484283 44.802738 0.620449 1.559987 0.139691 -0.031781 1024450.000000 0 0 1
37.181360 27.251731 -0.044217 46.098940 0.632493 1.571755 0.109416 -0.031118 -714734.000000 0 0 1
37.441570 27.212531 -1.467617 46.309253 0.628487 1.602493 0.116857 -0.031919 406329.000000 0 0 1
36.459270 27.811931 -2.321217 45.914811 0.651657 1.621373 0.105549 -0.026471 216377.000000 0 0 1
36.629490 27.412431 -3.798417 45.908483 0.642457 1.653630 0.110278 -0.023261 123732.000000 0 0 1
-37.610618 28.045031 -4.517817 47.132717 -0.640723 1.666797 0.106143 -0.022841 250384.000000 0 0 1
-37.307288 27.465631 -5.795117 46.688093 -0.634611 1.695241 0.100212 -0.019551 -656564.000000 0 0 1
36.879740 27.391231 -6.848417 46.446696 0.638824 1.718783 0.076852 -0.006371 -746522.000000 0 0 1
35.932280 26.470931 -6.384817 45.084418 0.634928 1.712893 0.089356 -0.011184 -741940.000000 0 0 1
34.835310 26.482631 -7.282017 44.360526 0.650012 1.735698 0.062518 -0.014119 -166847.000000 0 0 1
33.614870 25.799231 -6.635917 42.890502 0.654604 1.726138 0.066975 -0.012968 -353840.000000 0 0 1
33.565220 24.380231 -6.600217 42.006934 0.628195 1.728572 0.058161 -0.009425 -100364.000000 0 0 1
34.576050 23.804531 -5.808517 42.378034 0.602945 1.708293 0.068053 -0.010774 -240809.000000 0 0 1
34.652130 22.287631 -5.937817 41.626509 0.571567 1.713930 0.068152 -0.011320 -483305.000000 0 0 1
33.609040 21.544331 -5.408017 40.286131 0.570042 1.705443 0.059277 -0.003915 -313630.000000 0 0 1
33.803510 20.116331 -5.671217 39.743009 0.536806 1.713982 0.064649 -0.013135 -181819.000000 0 0 1
32.693220 19.192331 -5.135717 38.256604 0.530838 1.705447 0.089829 -0.010487 -114012.000000 0 0 1
31.541770 19.264631 -5.949617 37.435373 0.548298 1.730403 0.065139 -0.011495 -437165.000000 0 0 1
30.437600 18.716331 -5.267717 36.117826 0.551309 1.717167 0.112668 -0.027801 -305212.000000 0 0 1
29.284490 18.541331 -6.281217 35.225218 0.564435 1.750071 0.070204 -0.025376 -310235.000000 0 0 1
29.421290 17.468131 -7.192417 34.963963 0.535792 1.777985 0.048042 -0.012845 863946.000000 0 0 1
28.265290 17.323731 -8.069817 34.119792 0.549849 1.809573 0.070664 -0.018989 945395.000000 0 0 1
28.406390 16.189231 -9.121417 33.944284 0.518004 1.842857 0.055445 -0.009101 -256717.000000 0 0 1
27.584690 16.427331 -10.243317 33.700116 0.537121 1.879638 0.038770 -0.010960 25811.600000 0 0 1
27.749090 15.392831 -11.206017 33.653024 0.506456 1.910266 0.035073 0.000162 -143979.000000 0 0 1
27.075990 15.607331 -12.555817 33.680061 0.522906 1.952818 0.042617 0.004411 -678767.000000 0 0 1
25.733390 15.214931 -12.571617 32.430649 0.533963 1.968873 0.049533 -0.000961 -289776.000000 0 0 1
25.264090 15.383631 -13.937917 32.698560 0.546947 2.011145 0.033818 -0.009919 -326560.000000 0 0 1
25.199990 14.046031 -14.743217 32.398964 0.508493 2.043227 0.039411 -0.015766 -701798.000000 0 0 1
26.437390 13.550031 -15.177717 33.360186 0.473624 2.043129 0.062490 -0.021560 -331852.000000 0 0 1
26.847590 14.209331 -16.370417 34.506357 0.486780 2.065098 0.075823 -0.028064 -1384670.000000 0 0 1
28.279490 13.813231 -16.638917 35.600399 0.454368 2.057121 0.104206 -0.024025 -944555.000000 0 0 1
28.533690 12.404031 -16.699317 35.311451 0.410071 2.063393 0.107421 -0.033260 153935.000000 0 0 1
29.838090 12.117131 -17.176517 36.498893 0.385751 2.060771 0.104666 -0.023929 246576.000000 0 0 1
29.943790 10.695131 -17.820017 36.449545 0.343051 2.081619 0.074382 -0.021155 -171033.000000 0 0 1
29.248790 10.669831 -19.049317 36.499499 0.349795 2.119880 0.091243 -0.028393 180651.000000 0 0 1
29.241490 9.384131 -19.625217 36.445518 0.310536 2.139430 0.095256 -0.025037 509515.000000 0 0 1
30.638350 8.919531 -20.185717 37.758835 0.283293 2.134826 0.086641 -0.024138 231769.000000 0 0 1
31.114720 9.796231 -21.231117 38.921103 0.305017 2.147771 0.093577 -0.026642 57615.800000 0 0 1
31.685850 9.087131 -22.252017 39.770859 0.279292 2.164585 0.064055 -0.018848 -1225010.000000 0 0 1
33.096990 8.540131 -22.215517 40.766086 0.252525 2.147127 0.048204 -0.013066 -2277050.000000 0 0 1
34.034700 9.503831 -22.209317 41.736523 0.272303 2.131912 0.050785 -0.016338 -1653530.000000 0 0 1
35.263740 8.825331 -22.091717 42.537768 0.245229 2.116879 0.030515 -0.013191 -405124.000000 0 0 1
36.389090 9.872431 -21.979017 43.642959 0.264925 2.098568 0.049535 -0.018860 -369420.000000 0 0 1
36.347290 10.467031 -20.717017 43.126314 0.280386 2.071884 0.039668 -0.018847 515250.000000 0 0 1
37.347110 11.506531 -20.704017 44.225142 0.298869 2.057993 0.029145 -0.009224 395380.000000 0 0 1
37.468360 12.378831 -19.457617 43.996730 0.319091 2.028904 0.039288 -0.015780 -141120.000000 0 0 1
-37.358628 11.722531 -18.305917 43.222580 -0.304054 2.008131 0.038501 -0.014032 169633.000000 0 0 1
37.440860 12.402131 -17.141817 43.005496 0.319871 1.980782 0.044584 -0.006258 219615.000000 0 0 1
-37.440558 11.696131 -15.800517 42.287719 -0.302786 1.953730 0.046073 -0.002911 -195198.000000 0 0 1
37.063650 10.540931 -15.583217 41.565154 0.277085 1.955097 0.031130 -0.006120 128642.000000 0 0 1
37.580770 9.764031 -14.498217 41.446940 0.254194 1.928156 0.025090 -0.019053 19192.300000 0 0 1
36.848780 8.436231 -14.184417 40.375738 0.225063 1.929767 0.082600 -0.020963 1042440.000000 0 0 1
35.642830 8.598231 -13.383117 39.031381 0.236711 1.920778 0.102281 -0.019609 1363780.000000 0 0 1
35.897440 8.245531 -12.025817 38.745777 0.225781 1.886386 0.110466 -0.022163 -3830.250000 0 0 1
34.747620 8.732031 -11.102617 37.508846 0.246201 1.871299 0.135987 -0.024870 -596.467000 0 0 1
34.493100 10.101031 -11.101917 37.617247 0.284877 1.870386 0.135654 -0.026972 -99421.800000 0 0 1
33.686060 10.521731 -10.019517 36.685803 0.302745 1.847428 0.118652 -0.018726 -326410.000000 0 0 1
34.172070 10.337231 -8.543617 36.709428 0.293754 1.805687 0.135072 -0.020389 164943.000000 0 0 1
35.396400 10.964731 -8.172717 37.946327 0.300396 1.787873 0.128804 -0.018141 364051.000000 0 0 1
35.272280 12.378531 -7.924117 38.211953 0.337514 1.779685 0.128583 -0.016341 -326479.000000 0 0 1
35.074720 12.770631 -6.419917 37.875326 0.349179 1.741120 0.118108 -0.022532 702269.000000 0 0 1
36.311620 12.771031 -5.699117 38.911603 0.338194 1.717788 0.130983 -0.025918 628425.000000 0 0 1
36.008200 13.117831 -4.375617 38.572191 0.349358 1.684481 0.141349 -0.031986 -20658.800000 0 0 1
37.216140 12.878631 -3.455017 39.532737 0.333151 1.658304 0.142317 -0.028118 -336781.000000 0 0 1
-37.162408 13.904131 -3.650217 39.845872 -0.358021 1.662533 0.146992 -0.026391 -397014.000000 0 0 1
-35.940234 13.655031 -2.982917 38.562392 -0.363092 1.648227 0.147188 -0.034397 -367780.000000 0 0 1
-34.976471 14.786431 -2.979617 38.090290 -0.399966 1.649101 0.129566 -0.033861 -693558.000000 0 0 1
-35.373069 15.803631 -2.113317 38.800449 -0.420165 1.625290 0.160750 -0.030343 118268.000000 0 0 1
-34.595247 17.009031 -2.118417 38.608625 -0.456952 1.625693 0.124935 -0.029742 -19772.400000 0 0 1
-35.119199 18.160231 -1.268817 39.557073 -0.477236 1.602877 0.138708 -0.021054 -105927.000000 0 0 1
-36.272968 18.826231 -1.749617 40.904967 -0.478744 1.613582 0.121768 -0.024624 104974.000000 0 0 1
-36.954748 19.405131 -0.669717 41.745192 -0.483529 1.586840 0.116603 -0.024743 -269546.000000 0 0 1
37.316870 20.385331 -1.239717 42.539950 0.499980 1.599943 0.114831 -0.023648 -214916.000000 0 0 1
-37.337358 21.547931 -1.682417 43.141884 -0.523422 1.609804 0.096334 -0.020971 241803.000000 0 0 1
37.259340 22.133631 -2.787017 43.427220 0.536027 1.635017 0.086609 -0.012785 113365.000000 0 0 1
-37.472178 23.509431 -3.246417 44.355346 -0.560312 1.644053 0.110257 -0.023430 -486558.000000 0 0 1
-36.145558 23.431131 -3.679217 43.232579 -0.575140 1.656002 0.122167 -0.022606 -446301.000000 0 0 1
-35.666192 24.604631 -4.363417 43.548875 -0.603887 1.671161 0.137767 -0.025902 452465.000000 0 0 1
-34.148330 24.412531 -4.638917 42.232685 -0.620654 1.680860 0.139780 -0.042680 185718.000000 0 0 1
-33.878688 23.420031 -5.608317 41.565810 -0.604857 1.706135 0.111163 -0.026688 171114.000000 0 0 1
-32.493638 23.475631 -5.938117 40.524104 -0.625647 1.717859 0.128217 -0.019912 250596.000000 0 0 1
-32.251838 22.417131 -7.003117 39.896772 -0.607406 1.747241 0.127487 -0.034754 -346118.000000 0 0 1
-32.915828 22.780631 -8.173417 40.856011 -0.605396 1.772210 0.113952 -0.043357 -68799.200000 0 0 1
-32.409558 22.093931 -9.324517 40.317091 -0.598345 1.804189 0.058772 -0.031932 -544766.000000 0 0 1
-33.324068 21.963931 -10.534417 41.278102 -0.582747 1.828857 0.085511 -0.020310 -569719.000000 0 0 1
-33.590408 23.240131 -11.137117 42.337390 -0.605247 1.836985 0.060321 -0.021266 -9336.830000 0 0 1
-34.253087 23.131731 -12.382117 43.147048 -0.593968 1.861864 0.021884 -0.013125 -703062.000000 0 0 1
-34.813299 24.480231 -12.844217 44.454712 -0.612861 1.863903 0.043652 -0.011002 -202053.000000 0 0 1
-33.891308 25.527331 -13.071817 44.397497 -0.645553 1.869652 0.036747 -0.009801 -405128.000000 0 0 1
-33.046758 25.347031 -14.215817 44.007381 -0.654296 1.899728 0.042745 -0.011282 182960.000000 0 0 1
-31.757468 26.242631 -14.073717 43.534836 -0.690600 1.899984 0.071530 -0.014510 540542.000000 0 0 1
-30.815858 25.673931 -13.149717 42.209985 -0.694624 1.887600 0.064839 -0.011931 471952.000000 0 0 1
-31.199298 25.593831 -11.749117 42.029539 -0.687017 1.854116 0.079176 -0.013478 -765183.000000 0 0 1
-31.339858 26.900531 -10.938817 42.725671 -0.709321 1.829704 0.101945 -0.010725 -345569.000000 0 0 1
-30.107938 27.399831 -10.543517 42.052401 -0.738342 1.824224 0.107093 -0.006596 -543958.000000 0 0 1
-30.331738 28.631431 -9.924217 42.874972 -0.756569 1.804384 0.085375 -0.013037 720565.000000 0 0 1
-29.018748 29.480231 -9.737717 42.496998 -0.793287 1.801989 0.103005 -0.012167 693010.000000 0 0 1
-29.076548 30.597031 -8.866417 43.130468 -0.810873 1.777844 0.109086 -0.033603 -1422960.000000 0 0 1
-27.848938 31.166931 -8.692417 42.690737 -0.841561 1.775844 0.157266 -0.034250 -1149960.000000 0 0 1
35.741860 -25.115639 33.296767 54.926774 -0.612533 0.919519 0.061882 -0.010312 64931.200000 0 0 1
35.446040 -23.744269 33.602818 54.308024 -0.590218 0.903652 0.056712 -0.015097 159450.000000 0 0 1
34.437840 -23.655969 -33.056427 53.275670 -0.601892 2.240149 0.040704 -0.004588 24617.200000 0 0 1
34.076570 -22.198969 -32.751057 52.217224 -0.577390 2.248759 0.033038 -0.010996 -45202.900000 0 0 1
33.566990 -21.497569 33.797928 52.260771 -0.569624 0.867524 0.028172 -0.011934 38157.400000 0 0 1
33.327840 -20.177869 -33.506037 51.386241 -0.544407 2.281072 0.023575 -0.010458 123447.000000 0 0 1
33.093580 -19.255069 32.928249 50.499627 -0.526957 0.860512 0.035078 -0.014397 579950.000000 0 0 1
34.251740 -19.141469 32.094543 50.691589 -0.509610 0.885202 0.053175 -0.024867 582747.000000 0 0 1
33.943230 -18.485569 30.860338 49.459272 -0.498690 0.897003 0.067722 -0.018533 -60121.600000 0 0 1
35.154520 -18.385069 29.904368 49.680200 -0.481861 0.924871 0.059222 -0.020249 -25097.600000 0 0 1
36.053700 -17.347969 30.262998 50.166426 -0.448471 0.923224 0.059055 -0.027221 -405725.000000 0 0 1
37.049820 -17.251269 29.307278 50.291271 -0.435770 0.948687 0.063129 -0.021538 -716606.000000 0 0 1
-37.308208 -16.106069 29.709228 50.338316 0.407535 0.939501 0.062973 -0.023756 -400426.000000 0 0 1
-35.982734 -16.268069 29.276348 49.158028 0.424605 0.932839 0.069058 -0.021078 395071.000000 0 0 1
-35.130059 -15.197369 29.808178 48.514004 0.408293 0.909140 0.080328 -0.024865 2044380.000000 0 0 1
-33.595088 -15.603369 29.844948 47.569065 0.434809 0.892583 0.094214 -0.030248 1537180.000000 0 0 1
-32.696848 -14.610569 30.326518 46.928140 0.420231 0.868158 0.093120 -0.028442 575447.000000 0 0 1
-31.394818 -15.153669 30.562928 46.361200 0.449696 0.850995 0.090837 -0.032248 594834.000000 0 0 1
-30.465198 -14.109569 31.209558 45.839336 0.433725 0.821878 0.079882 -0.029090 -228830.000000 0 0 1
-30.772048 -13.936069 32.560375 46.918130 0.425247 0.803790 0.091157 -0.029642 -96410.200000 0 0 1
-30.078788 -12.865769 33.130861 46.560879 0.404185 0.779080 0.079244 -0.026543 -465855.000000 0 0 1
-30.594368 -12.301669 -33.242787 46.823384 0.382306 2.360239 0.069297 -0.012661 -360105.000000 0 0 1
-30.310448 -13.176669 -32.173967 46.124960 0.410078 2.342754 0.073358 -0.012120 75787.200000 0 0 1
-30.653228 -12.637869 -30.945597 45.353788 0.391052 2.321722 0.081039 -0.007908 -480515.000000 0 0 1
-30.748908 -13.588869 -29.757007 44.895792 0.416123 2.295351 0.090758 -0.014981 958576.000000 0 0 1
-31.990218 -14.335869 -29.796707 46.007987 0.421300 2.275282 0.090732 -0.016054 771833.000000 0 0 1
-32.071058 -15.166769 -28.708677 45.637394 0.441743 2.251140 0.108872 -0.020971 -49408.000000 0 0 1
-33.380838 -15.951469 -28.752197 46.855293 0.445782 2.231456 0.096868 -0.026397 -267130.000000 0 0 1
-33.371788 -17.040369 -29.660127 47.788843 0.472109 2.240367 0.105190 -0.030473 -898776.000000 0 0 1
-34.555993 -17.739669 -29.701967 48.898050 0.474278 2.223613 0.085599 -0.028528 -895998.000000 0 0 1
-34.384888 -19.174969 -30.207957 49.623790 0.508703 2.225267 0.095438 -0.023986 -175190.000000 0 0 1
-35.587045 -19.882669 -30.318557 50.803279 0.509502 2.210283 0.051536 -0.019503 -378144.000000 0 0 1
-35.298288 -21.187869 -30.878437 51.462343 0.540605 2.214322 0.060532 -0.024902 -415209.000000 0 0 1
-36.491788 -22.074669 -31.206457 52.846802 0.544030 2.202484 0.072193 -0.025151 -589534.000000 0 0 1
-37.116698 -22.561169 -30.057757 52.821627 0.546167 2.176137 0.046601 -0.017179 -338973.000000 0 0 1
37.195790 -23.531469 -30.325327 53.449810 -0.564073 2.174094 0.050803 -0.019429 -165963.000000 0 0 1
-37.591878 -24.953969 -30.672937 54.558949 0.586024 2.167838 0.056223 -0.014630 509660.000000 0 0 1
-36.704068 -25.001829 -31.815597 54.630689 0.597978 2.192445 0.073724 -0.015033 210490.000000 0 0 1
-35.959524 -26.182769 -31.963827 54.775094 0.629349 2.193886 0.059473 -0.011034 -202603.000000 0 0 1
-36.440558 -27.111039 -33.066057 56.180840 0.639637 2.200079 0.080733 -0.016762 -22224.900000 0 0 1
37.611140 -27.673569 -32.688147 56.999466 -0.634339 2.181546 0.085996 -0.010908 -198675.000000 0 0 1
37.266980 -28.839609 -33.400437 57.759328 -0.658601 2.187402 0.088428 -0.016292 180967.000000 0 0 1
-37.349398 -30.090709 -32.778257 58.093394 0.678179 2.170301 0.094651 -0.024078 581604.000000 0 0 1
37.284950 -30.486129 -31.534207 57.567158 -0.685412 2.150506 0.100844 -0.030123 596906.000000 0 0 1
-37.117068 -31.262319 -30.753377 57.452411 0.699985 2.135641 0.085794 -0.031784 134619.000000 0 0 1
37.531350 -31.816419 -29.445857 57.340607 -0.703174 2.110085 0.076632 -0.030400 142519.000000 0 0 1
36.912490 -33.072949 -29.716337 57.787650 -0.730591 2.110910 0.104838 -0.029545 260752.000000 0 0 1
36.213500 -33.521019 -28.552407 57.011544 -0.746807 2.095340 0.105527 -0.035630 -100445.000000 0 0 1
35.066140 33.176351 -28.870577 56.247797 0.757713 2.109793 0.115620 -0.048385 -132641.000000 0 0 1
33.935570 33.818067 -29.435927 56.229515 0.783664 2.121745 0.126072 -0.041485 186770.000000 0 0 1
32.769050 33.139889 -29.027227 54.905763 0.791025 2.127833 0.130082 -0.043306 329787.000000 0 0 1
31.401810 33.476534 -29.667047 54.652408 0.817366 2.144601 0.089375 -0.025500 349971.000000 0 0 1
31.189180 32.956404 -30.934087 54.916366 0.812941 2.169164 0.102336 -0.017641 -1066980.000000 0 0 1
29.914390 33.305921 -31.305067 54.627487 0.838993 2.181037 0.075392 -0.016413 -894200.000000 0 0 1
29.568690 32.686537 -32.723437 54.895723 0.835438 2.209433 0.079959 -0.023120 24490.100000 0 0 1
29.400690 31.299677 -32.699817 53.975442 0.816673 2.221602 0.064679 -0.018496 -9287.240000 0 0 1
29.215990 30.876017 33.587048 54.175569 0.813016 0.902096 0.071213 -0.020505 -18328.100000 0 0 1
29.150190 29.292757 33.476129 53.183178 0.787838 0.889952 0.075771 -0.036839 692482.000000 0 0 1
30.414730 28.679857 33.792038 53.753994 0.756049 0.890990 0.088378 -0.036258 571018.000000 0 0 1
30.376190 27.320967 -33.500827 52.834208 0.732495 2.257607 0.071033 -0.040496 5098.940000 0 0 1
31.809410 26.840307 -33.236427 53.262564 0.700875 2.244662 0.087328 -0.043638 92495.900000 0 0 1
32.443930 27.239147 -32.035317 53.111592 0.698411 2.218266 0.100692 -0.046685 428613.000000 0 0 1
33.755270 26.639097 -31.991987 53.596147 0.668111 2.210438 0.118495 -0.049177 1219960.000000 0 0 1
34.543110 27.095347 -30.687247 53.563900 0.665151 2.180847 0.126779 -0.054380 -622323.000000 0 0 1
35.071900 28.428787 -30.704547 54.598565 0.681163 2.168044 0.106052 -0.051265 78024.000000 0 0 1
34.166320 29.529947 -30.667427 54.587968 0.712738 2.167354 0.127723 -0.040399 521926.000000 0 0 1
33.216130 29.647807 -29.402257 53.355379 0.728696 2.154436 0.140197 -0.037803 482306.000000 0 0 1
33.955940 29.903367 -28.213127 53.321644 0.722022 2.128350 0.121228 -0.038170 117194.000000 0 0 1
33.138220 30.166717 -27.096937 52.368086 0.738493 2.114644 0.121624 -0.035028 -625509.000000 0 0 1
33.896670 30.564207 -25.832257 52.444833 0.733747 2.085826 0.123171 -0.037454 -396895.000000 0 0 1
34.298950 31.870329 -25.837937 53.476488 0.748711 2.075062 0.124007 -0.039981 48890.400000 0 0 1
34.744150 32.215677 -24.548717 53.363333 0.747655 2.048825 0.095827 -0.050763 -121127.000000 0 0 1
35.064100 33.699217 -24.422717 54.420561 0.765552 2.036193 0.101771 -0.044404 976594.000000 0 0 1
33.865370 -33.126049 -24.527117 53.345832 -0.774363 2.048539 0.100780 -0.033789 1453940.000000 0 0 1
34.106260 -31.731869 -24.493417 52.631511 -0.749350 2.054855 0.091018 -0.030008 -1059590.000000 0 0 1
34.550760 -31.136519 -25.864107 53.218322 -0.733468 2.078303 0.083846 -0.037184 1068980.000000 0 0 1
35.911070 -31.404929 -26.256357 54.454300 -0.718558 2.073929 0.104644 -0.042882 1073540.000000 0 0 1
36.916040 -30.733039 -25.509097 54.387753 -0.694253 2.058980 0.103528 -0.051323 -571880.000000 0 0 1
-36.929398 -30.991449 -25.968487 54.759589 0.698195 2.064882 0.074481 -0.038866 -410511.000000 0 0 1
-36.461358 -32.320149 -25.845907 55.154633 0.725263 2.058511 0.067594 -0.033775 -15721.400000 0 0 1
-36.232138 -32.852639 -24.533817 54.717199 0.736519 2.035743 0.074601 -0.025250 -680166.000000 0 0 1
-35.074790 -32.246209 -23.727017 53.226217 0.743407 2.032838 0.044455 -0.021800 -512296.000000 0 0 1
-35.161655 -30.829699 -23.424417 52.302157 0.719848 2.035175 0.017296 -0.016598 -236435.000000 0 0 1
-34.618047 -30.619989 -22.133217 51.243265 0.724191 2.017422 0.045889 -0.010987 60337.700000 0 0 1
-34.169540 -29.137119 -21.947617 49.982267 0.706072 2.025402 0.048618 0.003601 545516.000000 0 0 1
-35.285591 -28.246349 -22.179617 50.347438 0.675050 2.026987 0.020729 0.008323 537952.000000 0 0 1
-35.376756 -27.648249 -23.460217 50.658882 0.663381 2.052288 0.014965 -0.004822 -917554.000000 0 0 1
-36.706528 -27.022729 -23.782617 51.412157 0.634600 2.051708 0.016551 -0.005463 -900481.000000 0 0 1
-36.942948 -25.772919 -23.131517 50.636862 0.609141 2.045204 0.009000 0.003262 144253.000000 0 0 1
37.245690 -25.085859 -23.717517 50.784469 -0.592735 2.056717 0.029302 -0.001635 260296.000000 0 0 1
37.535970 -24.579669 -25.161757 51.441453 -0.579763 2.081893 0.036455 -0.006764 -444726.000000 0 0 1
-36.745148 -23.580069 -25.267327 50.444656 0.570532 2.095425 0.025013 -0.011561 109752.000000 0 0 1
-36.467258 -23.195769 -26.601377 50.749757 0.566521 2.122534 0.041487 -0.015304 528099.000000 0 0 1
-35.175142 -22.287769 -26.652437 49.440749 0.564776 2.140139 0.053113 -0.030413 327587.000000 0 0 1
-35.211965 -20.927269 -26.160847 48.602705 0.536235 2.139166 0.047785 -0.019726 -298399.000000 0 0 1
-36.194678 -20.052169 -26.663177 49.224680 0.505916 2.143210 0.043463 -0.023037 -23436.900000 0 0 1
-37.425338 -19.858569 -25.753467 49.580840 0.487841 2.116973 0.035360 -0.023096 -92082.000000 0 0 1
-37.179288 -19.128669 -24.540117 48.481159 0.475179 2.101544 0.035534 -0.033201 -245102.000000 0 0 1
-36.389858 -19.672069 -23.502417 47.577049 0.495592 2.087465 0.026233 -0.027114 -172065.000000 0 0 1
-36.960198 -20.865769 -22.699917 48.132346 0.513943 2.061917 0.030925 -0.011655 319771.000000 0 0 1
37.179920 -20.612069 -21.907517 47.824085 -0.506205 2.046636 0.029633 -0.017045 220095.000000 0 0 1
36.729340 -21.813569 -21.307617 47.737728 -0.535922 2.033476 0.040988 -0.001464 -167173.000000 0 0 1
35.644940 -21.591269 -20.243617 46.330860 -0.544623 2.022986 0.045926 -0.012429 -199643.000000 0 0 1
34.505310 -20.911369 -20.713017 45.353399 -0.544844 2.045081 0.055814 -0.009876 -340990.000000 0 0 1
33.464830 -21.064169 -19.785217 44.215934 -0.561787 2.034728 0.067261 -0.014395 604834.000000 0 0 1
32.014550 -20.640769 -20.203117 43.117730 -0.572662 2.058453 0.054474 -0.014983 379560.000000 0 0 1
31.602430 -21.289769 -21.378817 43.692352 -0.592839 2.082087 0.054124 -0.007365 1210980.000000 0 0 1
30.311840 -20.902169 -21.924417 42.853102 -0.603692 2.107863 0.097428 -0.008441 1238830.000000 0 0 1
30.369250 -19.516269 -22.646817 42.615189 -0.571179 2.131079 0.062747 -0.008403 -250218.000000 0 0 1
30.431580 -18.423669 -21.721117 41.681165 -0.544390 2.118965 0.064965 -0.006756 -39229.300000 0 0 1
30.205390 -17.154169 -22.291017 41.273726 -0.516495 2.141326 0.052041 -0.009216 -80623.800000 0 0 1
30.774740 -16.048269 -21.393017 40.771224 -0.480680 2.123169 0.050706 -0.021406 -368547.000000 0 0 1
30.260890 -16.128069 -20.115517 39.755126 -0.489672 2.101320 0.041548 -0.015297 155498.000000 0 0 1
31.106850 -15.592869 -19.107817 39.697384 -0.464662 2.072976 0.027079 -0.006988 27127.800000 0 0 1
32.262460 -16.431669 -18.518817 40.667095 -0.471070 2.043591 0.035265 -0.020650 788838.000000 0 0 1
33.240800 -16.686869 -19.575217 42.030839 -0.465246 2.055261 0.029328 -0.023221 506132.000000 0 0 1
34.366600 -17.403969 -19.104717 42.999436 -0.468771 2.031191 0.034374 -0.026651 208916.000000 0 0 1
35.386350 -17.670769 -20.245517 44.433442 -0.463141 2.043884 0.039102 -0.035133 47599.000000 0 0 1
36.198790 -16.548469 -20.530417 44.785067 -0.428788 2.047014 0.048109 -0.041655 -12566.200000 0 0 1
37.291630 -17.024969 -21.290817 46.193225 -0.428276 2.049814 0.072299 -0.047529 -256071.000000 0 0 1
-37.051818 -15.922769 -21.735417 45.812663 0.405881 2.065126 0.108485 -0.046802 -331178.000000 0 0 1
-36.088288 -15.468669 -20.812417 44.438732 0.404945 2.058207 0.137939 -0.053964 369938.000000 0 0 1
-35.361719 -14.343169 -21.360617 43.731609 0.385336 2.081107 0.161500 -0.051375 -211991.000000 0 0 1
-34.232556 -13.757069 -20.445117 42.179706 0.382118 2.076833 0.166128 -0.056568 771290.000000 0 0 1
-32.981378 -14.425669 -20.520117 41.436052 0.412317 2.088889 0.182419 -0.069055 355734.000000 0 0 1
-32.942568 -15.673969 -19.860817 41.537189 0.444098 2.069338 0.158448 -0.069937 -712121.000000 0 0 1
-31.850308 -16.577869 -20.442817 41.317994 0.479907 2.088364 0.129318 -0.067549 -100985.000000 0 0 1
-31.754908 -17.699369 -19.603717 41.303118 0.508487 2.065340 0.142996 -0.069298 507291.000000 0 0 1
-30.730198 -18.591769 -20.053317 41.135562 0.544088 2.080013 0.134085 -0.065648 98789.900000 0 0 1
-30.870818 -20.045669 -19.512917 41.660415 0.575911 2.058253 0.108063 -0.023210 -1054280.000000 0 0 1
-31.899428 -20.665469 -20.191417 43.038685 0.574850 2.059120 0.102583 -0.021082 -255392.000000 0 0 1
-31.980828 -22.001169 -19.729917 43.544166 0.602592 2.041037 0.075921 0.002614 358588.000000 0 0 1
-33.134488 -22.804969 -20.415017 45.108024 0.602800 2.040454 0.043354 -0.003698 381043.000000 0 0 1
-32.783668 -23.111569 -21.769317 45.637886 0.614055 2.068036 0.043614 -0.003641 -503660.000000 0 0 1
-33.822258 -23.735469 -22.439517 47.019672 0.611913 2.068304 0.036912 0.003014 -522139.000000 0 0 1
-33.568528 -24.053169 -23.936917 47.732347 0.621740 2.096107 0.041442 0.004402 319477.000000 0 0 1
-32.426118 -24.908269 -24.022917 47.423364 0.655019 2.101990 0.058840 -0.011784 107803.000000 0 0 1
-32.153218 -25.205719 -25.333547 48.072302 0.664862 2.125849 0.049238 -0.007348 669190.000000 0 0 1
-30.741378 -25.813239 -25.716477 47.672768 0.698478 2.140565 0.059139 -0.014048 297013.000000 0 0 1
-29.777518 -24.829869 -25.586587 46.453163 0.695041 2.154124 0.068077 -0.018510 -1295730.000000 0 0 1
-28.523688 -25.348199 -25.894037 46.115432 0.726521 2.167000 0.067918 -0.016461 -570858.000000 0 0 1
-27.462508 -24.268069 -26.101097 44.993286 0.723725 2.189661 0.077706 -0.022425 -181099.000000 0 0 1
-27.594968 -23.474069 -27.277737 45.349631 0.704880 2.216172 0.078787 -0.027904 -292660.000000 0 0 1
-26.517298 -22.579869 -27.343027 44.279325 0.705373 2.236372 0.092029 -0.022911 -120568.000000 0 0 1
-26.343258 -21.769969 -28.707137 44.631810 0.690630 2.269465 0.057510 -0.018298 -23245.900000 0 0 1
-25.752068 -22.531269 -29.765277 45.351943 0.718791 2.286724 0.063782 -0.009414 173815.000000 0 0 1
-25.597548 -21.769669 -30.928317 45.669615 0.704761 2.314772 0.059822 -0.002459 -52546.400000 0 0 1
-25.055438 -22.624969 -32.145007 46.615079 0.734468 2.331711 0.061022 -0.016296 36430.700000 0 0 1
-25.989068 -23.565669 -32.603667 47.893334 0.736534 2.319590 0.033149 -0.017050 -309961.000000 0 0 1
-25.543938 -24.335269 -33.676447 48.772955 0.761171 2.332940 0.066564 -0.001006 -43345.500000 0 0 1
-19.570768 -14.921469 -11.187817 27.033913 0.651413 1.997469 0.081454 -0.005084 99170.300000 0 0 1
-20.205068 -14.294469 -10.096217 26.730324 0.615721 1.958114 0.090105 -0.013630 -137997.000000 0 0 1
-19.507468 -14.548869 -8.908017 25.914545 0.640814 1.921699 0.073345 -0.014719 -209638.000000 0 0 1
-20.148468 -13.837469 -7.725917 25.634471 0.601795 1.876944 0.117011 -0.035239 -22349.300000 0 0 1
-21.374268 -14.428869 -7.345917 26.814438 0.593789 1.848298 0.132626 -0.028148 38995.400000 0 0 1
-21.901768 -13.890369 -6.143917 26.652908 0.565196 1.803404 0.141743 -0.034716 589796.000000 0 0 1
-23.185168 -14.654869 -5.645617 28.003396 0.563674 1.773792 0.132530 -0.031145 327058.000000 0 0 1
-22.964568 -15.976369 -5.252517 28.464094 0.607832 1.756391 0.104009 -0.026099 563867.000000 0 0 1
-22.194568 -16.096269 -4.026417 27.711022 0.627462 1.716613 0.100832 -0.027486 231817.000000 0 0 1
-22.105568 -17.552669 -3.502517 28.443276 0.671095 1.694250 0.070534 -0.018110 137278.000000 0 0 1
-23.311668 -18.040069 -2.944317 29.623419 0.658600 1.670352 0.082851 -0.009295 347036.000000 0 0 1
-23.024368 -19.248369 -2.196517 30.090628 0.696310 1.643858 0.064053 -0.004930 25378.200000 0 0 1
-24.220168 -20.172069 -1.878117 31.576197 0.694460 1.630310 0.100218 -0.022415 -63291.000000 0 0 1
-24.503768 -21.003769 -3.026617 32.415326 0.708639 1.664302 0.081619 -0.030495 331186.000000 0 0 1
-25.470548 -22.000169 -2.683617 33.763265 0.712422 1.650364 0.106876 -0.027879 334558.000000 0 0 1
-25.551618 -23.001069 -3.886917 34.598301 0.732915 1.683378 0.119282 -0.026696 -275705.000000 0 0 1
-24.391568 -23.771669 -3.940317 34.286541 0.772528 1.685974 0.121334 -0.028170 -671511.000000 0 0 1
-24.303968 -24.606769 -5.127117 34.963742 0.791589 1.717968 0.135471 -0.033629 1821790.000000 0 0 1
-22.753268 -24.684669 -5.555017 34.027963 0.826090 1.734779 0.115062 -0.021998 2364870.000000 0 0 1
-22.159368 -23.477469 -6.159917 32.865996 0.814273 1.759337 0.087451 -0.011284 424852.000000 0 0 1
-21.911668 -22.366469 -5.261117 31.749952 0.795669 1.737269 0.065744 -0.012715 -417388.000000 0 0 1
-21.867568 -21.018569 -5.948417 30.908808 0.765604 1.764455 0.067991 -0.001678 -87632.800000 0 0 1
-20.756668 -20.767369 -6.772017 30.132758 0.785656 1.797472 0.030146 0.000275 -208920.000000 0 0 1
-20.980168 -19.578969 -7.440117 29.645553 0.750865 1.824478 0.023969 -0.001413 -35942.000000 0 0 1
-19.716468 -19.004469 -8.097817 28.556673 0.767012 1.858311 0.029537 0.002853 78648.000000 0 0 1
-19.194068 -19.850669 -9.152117 29.089904 0.802213 1.890847 0.040899 0.000947 14797.400000 0 0 1
-17.914368 -19.571169 -9.683517 28.244039 0.829568 1.920747 0.055031 0.002279 -59126.800000 0 0 1
-17.598168 -18.236069 -10.432917 27.406121 0.803198 1.961326 0.060837 0.003321 -474564.000000 0 0 1
-17.358668 -17.118069 -9.593417 26.198956 0.778420 1.945692 0.072752 -0.001191 55624.200000 0 0 1
-16.046268 -17.111269 -9.073417 25.151643 0.817507 1.939867 0.097865 -0.001039 -275661.000000 0 0 1
-15.640268 -15.980769 -8.158217 23.802509 0.796166 1.920635 0.076382 -0.006084 110853.000000 0 1 0
-16.242568 -16.172369 -6.868617 23.927900 0.783233 1.861947 0.054830 -0.006732 319455.000000 0 1 0
-16.506968 -14.895669 -6.199017 23.082217 0.734132 1.842697 0.080028 -0.013806 -466932.000000 0 1 0
-17.333568 -15.196069 -4.995217 23.586549 0.719783 1.784195 0.087948 -0.016263 -256583.000000 0 1 0
-17.977068 -14.025069 -4.483717 23.237496 0.662529 1.764966 0.102372 -0.016071 561415.000000 0 1 0
-18.607968 -14.204969 -3.201517 23.628104 0.652010 1.706711 0.101706 -0.016328 232913.000000 0 1 0
-19.430268 -13.043469 -2.609117 23.547290 0.591201 1.681828 0.113960 -0.018142 343517.000000 0 1 0
-20.706168 -12.837069 -3.220017 24.574463 0.554969 1.702205 0.138775 -0.031046 952627.000000 0 1 0
-21.443168 -11.820969 -2.485317 24.611411 0.503818 1.671951 0.140848 -0.021123 -461657.000000 0 1 0
-22.926868 -11.763469 -2.786217 25.918786 0.474062 1.678502 0.126859 -0.015458 -802929.000000 0 0 1
-23.232668 -11.191169 -4.058217 26.104947 0.448900 1.726887 0.153081 -0.039272 881200.000000 0 0 1
-24.643568 -11.425569 -4.215617 27.488552 0.434133 1.724763 0.145798 -0.026212 834776.000000 0 0 1
-25.128998 -10.940069 -5.597317 27.972872 0.410610 1.772254 0.156844 -0.039998 96464.400000 0 0 1
-24.488768 -11.620369 -6.679717 27.916865 0.443055 1.812412 0.157822 -0.044582 403828.000000 0 0 1
-25.172098 -11.333469 -7.879917 28.708450 0.423053 1.848846 0.166953 -0.045774 -76266.700000 0 0 1
-24.371368 -11.816169 -9.067617 28.562337 0.451445 1.893854 0.173781 -0.058057 -341740.000000 0 0 1
-23.220468 -11.049169 -9.254417 27.329809 0.444131 1.916246 0.173703 -0.048537 -476122.000000 0 0 1
-22.231068 -11.590569 -10.069117 27.017564 0.480596 1.952700 0.145227 -0.046796 -151012.000000 0 0 1
-20.945868 -10.727969 -9.935217 25.544612 0.473341 1.970273 0.139189 -0.044778 -121116.000000 0 0 1
-21.075268 -9.430969 -10.558317 25.388740 0.420765 1.999691 0.136134 -0.050599 818613.000000 0 0 1
-20.156368 -8.494969 -9.949117 24.029744 0.398863 1.997677 0.131563 -0.039244 310066.000000 0 1 0
-20.080968 -7.132769 -10.742817 23.864823 0.341300 2.037733 0.104567 -0.040578 171884.000000 0 1 0
-19.246468 -7.146569 -11.922517 23.741238 0.355539 2.096921 0.093169 -0.038811 899409.000000 0 1 0
-19.308668 -5.893569 -12.676717 23.838162 0.296247 2.131500 0.101716 -0.038715 -174553.000000 0 1 0
-18.653168 -6.035069 -14.059617 24.125413 0.312912 2.192932 0.117016 -0.034353 247829.000000 0 1 0
-19.470968 -6.837569 -14.924717 25.467982 0.337714 2.196933 0.116940 -0.040800 704662.000000 0 0 1
-18.987568 -6.755669 -16.257117 25.893255 0.341827 2.249586 0.125272 -0.044322 -199919.000000 0 0 1
-19.855268 -7.556869 -17.199517 27.334251 0.363669 2.251358 0.112206 -0.044158 838456.000000 0 0 1
-21.156168 -7.026069 -17.586217 28.394086 0.320645 2.238726 0.094338 -0.050403 1679540.000000 0 0 1
-21.756168 -7.728569 -18.700117 29.711210 0.341332 2.251572 0.084940 -0.049341 -482196.000000 0 0 1
-23.124368 -7.300869 -19.187517 30.922482 0.305817 2.240181 0.085757 -0.047217 -2136340.000000 0 0 1
-23.164768 -6.001269 -19.741617 31.021817 0.253496 2.260591 0.091267 -0.046279 -133831.000000 0 0 1
-24.295968 -5.823869 -20.564117 32.358838 0.235266 2.259455 0.062308 -0.036645 -313964.000000 0 0 1
-25.607958 -5.815769 -19.791117 32.882807 0.223320 2.216635 0.080873 -0.037531 -2011040.000000 0 0 1
-25.725118 -4.637969 -19.039717 32.338881 0.178373 2.200316 0.093022 -0.031395 -326311.000000 0 0 1
-26.946608 -4.536669 -18.378617 32.931362 0.166794 2.162877 0.123749 -0.025722 -647343.000000 0 0 1
-27.103838 -3.113869 -17.716817 32.529983 0.114385 2.146745 0.126580 -0.020939 25230.800000 0 0 1
-27.378198 -1.977269 -18.577617 33.145183 0.072095 2.165776 0.128125 -0.021148 41568.000000 0 0 1
-28.731308 -1.904669 -18.960017 34.476050 0.066196 2.153098 0.138197 -0.011558 -234525.000000 0 0 1
-28.972278 -0.666669 -19.842817 35.122282 0.023007 2.171186 0.135695 -0.010531 -122055.000000 0 0 1
-28.462308 -0.592869 -21.194417 35.491658 0.020827 2.210760 0.121914 -0.013846 -203.289000 0 0 1
-28.972498 -1.475669 -22.190917 36.524239 0.050889 2.223790 0.112981 -0.003607 -430698.000000 0 0 1
-28.246048 -1.501269 -23.534317 36.796156 0.053100 2.264756 0.103723 -0.008555 -634699.000000 0 0 1
-28.285358 -0.388469 -24.499617 37.422501 0.013733 2.284550 0.112818 -0.006067 49622.200000 0 0 1
-27.792678 0.865531 -24.076917 36.781517 -0.031132 2.284440 0.113156 0.002540 -197804.000000 0 0 1
-26.345148 1.052831 -23.552317 35.353739 -0.039942 2.299885 0.114376 -0.007998 -48649.200000 0 0 1
-25.475788 0.746031 -24.632417 35.444721 -0.029276 2.339151 0.097526 -0.011498 -53001.900000 0 0 1
-24.127968 0.687431 -24.208317 34.185874 -0.028483 2.357654 0.086770 -0.014256 205939.000000 0 0 1
-23.071568 0.286831 -25.251297 34.205372 -0.012432 2.401233 0.076015 -0.018163 -20150.100000 0 0 1
-23.024668 1.032131 -26.426927 35.065411 -0.044797 2.424389 0.056540 -0.016600 -280008.000000 0 0 1
-22.085168 0.472131 -27.284687 35.106006 -0.021374 2.461014 0.039368 -0.023821 -275687.000000 0 0 1
-21.985668 1.344931 -28.610997 36.107722 -0.061097 2.485495 0.037984 -0.010913 -708790.000000 0 0 1
-21.109168 2.405231 -28.518317 35.562290 -0.113453 2.501308 0.044243 -0.008488 -265947.000000 0 0 1
-21.098168 3.191531 -29.667777 36.544432 -0.150132 2.518072 0.023279 -0.006628 282463.000000 0 0 1
-20.327068 2.630131 -30.947677 37.119617 -0.128676 2.556622 0.016235 -0.005331 -257198.000000 0 0 1
-18.945068 2.533431 -30.774887 36.227441 -0.132936 2.585816 0.005776 -0.000292 -375899.000000 0 0 1
-18.313368 2.146931 -31.997277 36.929859 -0.116700 2.618811 0.009366 -0.002614 -992045.000000 0 0 1
-16.815768 2.109231 -31.944667 36.161867 -0.124780 2.653822 0.018460 -0.013840 -1150130.000000 0 0 1
-16.228368 3.395831 -31.917507 35.966913 -0.206276 2.662499 0.026494 -0.007305 459268.000000 0 0 1
-14.863168 3.336731 -32.339257 35.747378 -0.220835 2.701380 0.042155 -0.013044 494721.000000 0 0 1
-14.325468 4.727231 -32.707687 36.018863 -0.318737 2.709451 0.068245 -0.014996 -306155.000000 0 0 1
-14.209268 5.547031 -31.590727 35.080577 -0.372187 2.691758 0.071017 -0.024075 284593.000000 0 0 1
-13.632668 6.768831 -32.013267 35.447369 -0.460856 2.697780 0.113428 -0.024303 -119637.000000 0 0 1
-13.198668 7.772731 -30.895817 34.484368 -0.532220 2.681332 0.115505 -0.032806 -492684.000000 0 0 1
-12.126368 7.381331 -30.069017 33.251746 -0.546793 2.700496 0.161212 -0.048657 -200477.000000 0 0 1
-12.288868 6.384031 -29.087427 32.215687 -0.479123 2.697257 0.145221 -0.045964 -612005.000000 0 0 1
-10.950768 5.810431 -28.517167 31.095164 -0.487824 2.731524 0.164810 -0.045334 228244.000000 0 0 1
-10.189268 5.088331 -29.446287 31.572078 -0.463153 2.772538 0.141154 -0.053796 -166163.000000 0 0 1
-10.910268 3.995231 -29.932947 32.108832 -0.351025 2.771335 0.136106 -0.050975 -969521.000000 0 0 1
-10.282568 3.209231 -31.115947 32.927686 -0.302524 2.808324 0.114119 -0.037853 -81206.500000 0 0 1
-11.016968 2.069331 -31.563957 33.495359 -0.185668 2.800346 0.109994 -0.029979 519587.000000 0 0 1
-10.457668 1.460531 -32.749527 34.409700 -0.138764 2.829694 0.087346 -0.025040 122379.000000 0 0 1
-11.096068 2.112131 33.623408 35.469951 -0.188099 0.324091 0.091243 -0.026097 -459162.000000 0 0 1
-12.416368 1.741831 33.422979 35.697279 -0.139376 0.358884 0.061386 -0.016758 -739208.000000 0 0 1
-12.715768 1.923831 32.026382 34.512042 -0.150156 0.381849 0.060422 -0.009987 -480021.000000 0 0 1
-14.124168 1.472831 31.645183 34.685429 -0.103902 0.421813 0.051470 -0.009223 -48797.100000 0 0 1
-15.115868 2.513231 31.751449 35.255642 -0.164757 0.449634 0.051383 -0.003289 -948497.000000 0 0 1
-16.331668 1.911331 31.605385 35.626913 -0.116502 0.479727 0.032749 0.007609 -976787.000000 0 0 1
-17.454468 2.943131 31.195508 35.867537 -0.167046 0.516117 0.036843 0.009396 226465.000000 0 0 1
-17.903768 3.770931 32.271265 37.097161 -0.207588 0.515772 0.025699 0.000212 316030.000000 0 0 1
-17.174468 4.989031 32.391791 37.001093 -0.282710 0.504476 0.039485 -0.002709 -280373.000000 0 0 1
-17.665168 5.931231 33.576626 38.400879 -0.323932 0.506658 0.023347 -0.001910 -326831.000000 0 0 1
-18.958768 6.468731 33.538970 39.065866 -0.328814 0.538413 0.021596 -0.000462 -631647.000000 0 0 1
-19.830568 5.662631 -33.336627 39.200095 -0.278148 2.587583 0.010804 0.006229 -252440.000000 0 0 1
-21.266068 6.211931 -33.271397 39.972735 -0.284198 2.554135 0.013456 0.007794 -199006.000000 0 0 1
-21.348468 7.500231 -32.704207 39.769029 -0.337854 2.536332 0.020929 -0.005619 102342.000000 0 0 1
-21.076768 8.541431 -33.618347 40.587922 -0.385027 2.546835 0.016270 -0.002408 -412808.000000 0 0 1
-21.279468 9.934431 -32.959457 40.470167 -0.436782 2.522514 0.031734 -0.004785 -258661.000000 0 0 1
-20.240968 10.289431 -32.042777 39.272238 -0.470303 2.525105 0.029190 -0.000477 502630.000000 0 0 1
-19.978868 11.692831 -31.942537 39.448740 -0.529511 2.514476 0.052511 -0.006171 182714.000000 0 0 1
-19.302868 12.353431 -33.204097 40.345012 -0.569298 2.537475 0.047903 -0.018219 -664574.000000 0 0 1
-20.183668 12.522631 33.409856 40.992868 -0.555309 0.618039 0.062717 -0.023249 31094.100000 0 0 1
-19.460168 12.923331 32.242815 39.815948 -0.586218 0.626991 0.048536 -0.023385 221452.000000 0 0 1
-20.132268 12.393631 30.943568 38.941170 -0.551819 0.652409 0.048790 -0.021326 -375323.000000 0 0 1
-20.128368 10.944031 30.910448 38.475691 -0.498003 0.637853 0.041264 -0.009708 372425.000000 0 0 1
-18.862668 10.326231 30.700898 37.483015 -0.500878 0.611023 0.041788 -0.015834 393015.000000 0 0 1
-19.037868 8.822531 30.771958 37.245011 -0.433958 0.598461 0.050834 -0.008370 -129920.000000 0 0 1
-19.700568 8.358931 29.661178 36.575533 -0.401277 0.625011 0.051631 -0.021336 -170664.000000 0 0 1
-19.679168 6.928331 29.684068 36.282438 -0.338513 0.612630 0.040387 -0.016209 155599.000000 0 0 1
-20.313768 6.171331 28.435658 35.486915 -0.294940 0.641332 0.034465 -0.015530 413572.000000 0 0 1
-21.723968 6.266531 28.328028 36.244687 -0.280838 0.673606 0.049471 -0.023294 -29587.200000 0 0 1
-22.138468 5.549531 27.183408 35.494320 -0.245613 0.698430 0.049444 -0.020480 -360912.000000 0 0 1
-23.650968 5.439931 26.951138 36.267409 -0.226077 0.733071 0.065429 -0.022395 -299050.000000 0 0 1
-24.128268 6.281131 25.962768 35.995711 -0.254670 0.765157 0.074038 -0.029357 -353145.000000 0 0 1
-25.521338 6.414231 26.007598 36.998327 -0.246228 0.791274 0.077886 -0.024711 -759762.000000 0 0 1
-26.059288 7.052431 24.745988 36.622223 -0.264299 0.828869 0.074613 -0.022461 -383875.000000 0 0 1
-25.961608 6.313731 23.520178 35.595885 -0.238564 0.848971 0.071749 -0.019828 58267.700000 0 0 1
-26.830348 5.237231 23.407088 35.988719 -0.192774 0.862684 0.067275 -0.015997 -583074.000000 0 0 1
-27.037948 4.677531 21.965988 35.148749 -0.171303 0.895737 0.079987 -0.015318 -49570.800000 0 0 1
-27.766328 5.501731 21.078688 35.292338 -0.195610 0.930716 0.077499 -0.014837 118342.000000 0 0 1
-27.801028 4.838731 19.778388 34.460051 -0.172322 0.959473 0.103355 -0.026041 -171787.000000 0 0 1
-28.605028 5.629831 18.712988 34.642727 -0.194329 1.000156 0.127363 -0.031047 -554658.000000 0 0 1
-29.944548 5.636531 19.101088 35.962453 -0.186055 1.010851 0.138426 -0.027874 -423376.000000 0 0 1
-30.763338 6.156831 18.053288 36.196833 -0.197526 1.048637 0.153576 -0.024971 -321349.000000 0 0 1
-32.271718 6.099431 18.297888 37.596270 -0.186799 1.062495 0.164276 -0.019992 -337639.000000 0 0 1
-32.644618 6.967431 19.360788 38.588292 -0.210278 1.045202 0.172638 -0.027895 -653169.000000 0 0 1
-33.976768 6.764931 19.695188 39.850790 -0.196534 1.053855 0.184955 -0.020285 -697999.000000 0 0 1
-34.618314 7.769131 20.634088 41.043302 -0.220765 1.044031 0.179372 -0.021671 27851.600000 0 0 1
-34.096477 7.678631 21.991188 41.293383 -0.221508 1.009174 0.148051 -0.022043 343697.000000 0 0 1
-34.804437 8.428531 22.969708 42.544053 -0.237594 1.000473 0.156823 -0.019249 61658.900000 0 0 1
0.464032 32.328831 12.366183 34.616342 1.556444 1.205490 0.112723 -0.039256 -66111.800000 0 0 1
-0.095068 32.635431 13.617883 35.362793 -1.567883 1.175490 0.108529 -0.042855 -57167.900000 0 0 1
-0.052068 -33.676965 13.943883 36.449589 1.569250 1.178239 0.105611 -0.043826 -158170.000000 0 0 1
-0.387568 -33.383865 15.442683 36.784632 1.559187 1.137557 0.102538 -0.045761 789981.000000 0 0 1
-1.782468 -33.345565 15.754683 36.923082 1.517393 1.129967 0.085589 -0.041984 365923.000000 0 0 1
-1.864268 -33.441465 17.146283 37.627146 1.515107 1.097650 0.078451 -0.044230 437575.000000 0 0 1
-3.226468 -33.087165 17.835783 37.726460 1.473589 1.078369 0.090386 -0.034821 536420.000000 0 0 1
-4.040268 33.417231 18.023883 38.182397 -1.450477 1.079185 0.089164 -0.032046 -140883.000000 0 0 1
-4.901668 33.717731 19.093983 39.057546 -1.426434 1.060005 0.081486 -0.026736 -293172.000000 0 0 1
-5.987268 32.658831 19.411983 38.461302 -1.389482 1.041745 0.073728 -0.030809 -312899.000000 0 0 1
-6.936268 32.652731 18.419883 38.126169 -1.361482 1.066571 0.072399 -0.037485 -217578.000000 0 0 1
-8.021068 31.740631 18.680683 37.693144 -1.323272 1.052272 0.054761 -0.045837 713457.000000 0 0 1
-9.055668 31.696631 17.526583 37.334470 -1.292512 1.082131 0.051147 -0.049852 -353411.000000 0 0 1
-9.929868 32.794931 17.511283 38.480577 -1.276785 1.098348 0.053358 -0.041859 -493227.000000 0 0 1
-10.765168 32.673831 16.396883 38.109393 -1.252523 1.126017 0.059425 -0.042292 -760618.000000 0 0 1
-11.757868 33.784931 16.254983 39.292410 -1.235886 1.144290 0.076918 -0.045697 -988109.000000 0 0 1
-12.781468 33.773531 17.201983 39.999069 -1.209008 1.126238 0.071705 -0.039036 -626060.000000 0 0 1
-13.699468 -32.905965 16.874683 39.436441 1.176299 1.128633 0.057880 -0.035393 -482312.000000 0 0 1
-14.982468 -33.015165 17.718883 40.353863 1.144782 1.116213 0.080593 -0.039126 -281314.000000 0 0 1
-14.847968 -32.569965 19.031383 40.539590 1.143064 1.082127 0.068140 -0.029254 -217084.000000 0 0 1
-15.943468 -32.875665 19.858183 41.585466 1.119251 1.072958 0.073395 -0.039858 -198225.000000 0 0 1
-15.863768 -32.376765 21.318483 41.885460 1.115202 1.036807 0.071909 -0.038020 -209463.000000 0 0 1
-16.116168 -31.020165 21.489183 41.033724 1.091640 1.019613 0.086618 -0.035159 158374.000000 0 0 1
-15.957968 -30.598165 22.844583 41.385739 1.090071 0.986045 0.074350 -0.036664 94727.800000 0 0 1
-16.562268 -29.162165 22.937183 40.630715 1.054286 0.970935 0.085756 -0.045635 26571.400000 0 0 1
-16.452268 -28.614965 24.227983 40.944945 1.048997 0.937604 0.089327 -0.044403 -185613.000000 0 0 1
-16.460568 -27.179965 24.313283 40.010455 1.026259 0.917669 0.082541 -0.045752 657996.000000 0 0 1
-17.759368 -26.384965 23.900483 39.784352 0.978362 0.926356 0.100590 -0.036548 738221.000000 0 0 1
-18.868268 -26.573365 24.766483 40.933287 0.953361 0.920974 0.091188 -0.027888 -472078.000000 0 0 1
-19.935368 -25.809665 24.306583 40.673919 0.913113 0.930296 0.098899 -0.016218 -703384.000000 0 0 1
-21.020968 -25.737165 25.439683 41.850451 0.885922 0.917419 0.086768 -0.009819 -121281.000000 0 0 1
-21.762468 -26.900065 25.840983 43.185355 0.890585 0.929326 0.074210 -0.007843 491526.000000 0 0 1
-22.486368 -27.542465 24.786483 43.342749 0.886120 0.962011 0.086147 -0.014703 -286566.000000 0 0 1
-23.833268 -26.898965 24.400783 43.439351 0.845754 0.974332 0.071214 0.001515 -549394.000000 0 0 1
-23.636968 -25.681165 23.718683 42.199579 0.826824 0.973922 0.072595 -0.001875 241493.000000 0 0 1
-24.770268 -25.422465 22.900883 42.241193 0.798391 0.997808 0.063666 -0.005870 29504.000000 0 0 1
-24.799768 -23.857065 22.663883 41.204850 0.766026 0.988397 0.046429 0.007218 -5029.190000 0 0 1
-25.251668 -23.126265 23.813983 41.708233 0.741493 0.963114 0.038770 0.009869 26162.500000 0 0 1
-25.842418 -21.927665 23.494383 41.238806 0.703631 0.964637 0.040251 0.008156 -160131.000000 0 0 1
-26.354898 -21.155065 24.738783 41.882273 0.676385 0.938902 0.041482 0.015850 22718.100000 0 0 1
-27.490928 -21.812565 25.256183 43.236719 0.670732 0.946979 0.026712 0.018517 65405.300000 0 0 1
-27.962028 -21.175765 26.426083 43.916124 0.648160 0.925119 0.032904 0.009746 548904.000000 0 0 1
-29.210598 -21.782465 27.197183 45.468908 0.640746 0.929607 0.035918 0.004789 -95375.900000 0 0 1
-30.477778 -21.640365 26.711083 45.942163 0.617431 0.950340 0.040740 -0.001546 -728513.000000 0 0 1
-30.918918 -22.366165 25.552283 45.925418 0.626246 0.980766 0.040981 -0.002148 36506.600000 0 0 1
-32.470888 -22.539265 25.635383 47.112099 0.606781 0.995438 0.062476 -0.014357 775847.000000 0 0 1
-33.147008 -23.181265 24.513483 47.296998 0.610288 1.025948 0.052853 -0.011690 384738.000000 0 0 1
-32.734128 -24.496565 24.173283 47.496868 0.642444 1.036838 0.049003 -0.009315 -744652.000000 0 0 1
-33.295628 -24.929565 22.830383 47.447955 0.642690 1.068811 0.056573 -0.009435 110229.000000 0 0 1
-34.643097 -25.354265 22.831183 48.623511 0.631797 1.082015 0.068347 -0.014384 2319.610000 0 0 1
-35.004627 -25.868665 21.590883 48.586809 0.636428 1.110317 0.067858 -0.009869 900114.000000 0 0 1
-36.412958 -26.590165 21.668183 50.024499 0.630734 1.122810 0.076884 -0.009854 697911.000000 0 0 1
-36.424438 -27.732665 22.540683 51.028647 0.650742 1.113275 0.079742 -0.009490 400343.000000 0 0 1
-35.688233 -28.934465 22.195483 51.024432 0.681265 1.120761 0.062326 -0.009511 -335025.000000 0 0 1
-36.230718 -29.755565 21.014383 51.377650 0.687583 1.149419 0.074450 -0.011580 -370725.000000 0 0 1
-36.177438 -29.226265 19.683683 50.501772 0.679515 1.170423 0.059508 -0.013055 393277.000000 0 0 1
-36.523488 -30.287765 18.815783 51.042606 0.692334 1.193263 0.068636 -0.016140 -368649.000000 0 0 1
-37.039448 -29.806165 17.445483 50.642601 0.677609 1.219109 0.070121 -0.012960 -521310.000000 0 0 1
-35.984501 -29.410765 16.562583 49.337578 0.685212 1.228449 0.102962 -0.018729 324421.000000 0 0 1
-36.247498 -28.928065 15.254383 48.820183 0.673563 1.253014 0.103985 -0.028357 -195341.000000 0 0 1
-36.964728 -29.857865 14.241783 49.605560 0.679442 1.279598 0.087593 -0.029579 181908.000000 0 0 1
-36.127418 -30.926165 13.887183 49.542627 0.707985 1.286682 0.085527 -0.035692 120248.000000 0 0 1
-36.725868 -31.763665 12.930083 50.248451 0.713073 1.310545 0.069587 -0.032763 55843.900000 0 0 1
-36.828448 -31.254765 11.437683 49.638851 0.703715 1.338289 0.068186 -0.030872 318660.000000 0 0 1
37.575700 -30.136165 11.313683 49.478491 -0.675967 1.340097 0.057539 -0.033576 402765.000000 0 0 1
37.622480 -29.483265 10.056083 48.845048 -0.664698 1.363436 0.040933 -0.028039 278454.000000 0 0 1
36.433820 -28.464765 9.984583 47.300718 -0.663217 1.358109 0.073142 -0.024547 351493.000000 0 0 1
36.550820 -27.513265 8.983383 46.622348 -0.645252 1.376900 0.084583 -0.061261 -13576.700000 0 0 1
35.420670 -26.675765 8.956283 45.237543 -0.645490 1.371496 0.077029 -0.052511 7122.280000 0 0 1
35.426740 -25.649165 7.750683 44.418539 -0.626656 1.395406 0.065840 -0.045376 420862.000000 0 0 1
35.994780 -24.404165 8.261983 44.265650 -0.595802 1.383050 0.073836 -0.049516 294565.000000 0 0 1
36.079750 -23.461865 7.209883 43.637024 -0.576571 1.404811 0.073398 -0.045123 -158603.000000 0 0 1
36.479770 -22.039965 7.655683 43.302923 -0.543480 1.393068 0.087409 -0.046836 -421286.000000 0 0 1
35.549580 -21.424165 8.505683 42.368787 -0.542370 1.368669 0.060211 -0.038082 -413416.000000 0 0 1
35.735930 -20.030465 8.564583 41.852459 -0.510879 1.364703 0.084658 -0.034136 78554.500000 0 0 1
35.033260 -19.141465 9.664083 41.074560 -0.500060 1.333288 0.084594 -0.021117 -113359.000000 0 0 1
35.601830 -19.263665 10.905983 41.922781 -0.495974 1.307624 0.067142 -0.038240 -562303.000000 0 0 1
35.015010 -18.513165 11.882583 41.351952 -0.486359 1.279335 0.071308 -0.023687 -491472.000000 0 0 1
35.740290 -18.556665 13.263983 42.398719 -0.478896 1.252615 0.053653 -0.041521 -1095680.000000 0 0 1
36.956580 -17.951565 13.332383 43.194906 -0.452181 1.257016 0.028267 -0.034164 -1103250.000000 0 0 1
37.489180 -17.989465 14.618883 44.076878 -0.447404 1.232725 0.026006 -0.009403 198586.000000 0 0 1
-36.468038 -17.211665 14.846383 42.971785 0.440970 1.218034 0.059324 -0.024431 419673.000000 0 0 1
-35.396129 -17.689365 14.078583 42.000072 0.463451 1.228975 0.053311 -0.021962 1403520.000000 0 0 1
-34.078357 -17.236365 14.501783 40.850072 0.468266 1.207882 0.054997 -0.022735 1937910.000000 0 0 1
-32.920488 -17.251065 13.426583 39.517476 0.482680 1.224131 0.098059 -0.021115 361233.000000 0 0 1
-32.377758 -18.518965 13.245283 39.581673 0.519551 1.229582 0.104209 -0.030319 -438137.000000 0 0 1
-31.372298 -18.455265 12.299883 38.420112 0.531747 1.244917 0.091363 -0.019669 -103546.000000 0 0 1
-30.560438 -19.774765 11.972583 38.318722 0.574313 1.253028 0.092107 -0.020622 533597.000000 0 0 1
-31.315368 -20.689765 11.213083 39.172080 0.583854 1.280484 0.121927 -0.030622 -327024.000000 0 0 1
-30.463198 -21.723765 10.874083 38.963753 0.619474 1.287958 0.123312 -0.039743 -576424.000000 0 0 1
-31.028278 -22.707865 9.784883 39.675497 0.631780 1.321602 0.134739 -0.047288 351442.000000 0 0 1
-32.059718 -23.595065 10.105283 41.069080 0.634463 1.322188 0.126982 -0.043539 -372026.000000 0 0 1
-33.347968 -23.090365 10.357483 41.863222 0.605612 1.320788 0.119336 -0.047893 -124003.000000 0 0 1
-34.314539 -24.318465 10.555083 43.362254 0.616536 1.324910 0.134069 -0.046034 105268.000000 0 0 1
-34.503904 -24.994465 9.341983 43.617833 0.626912 1.354946 0.109281 -0.039210 -102243.000000 0 0 1
-35.215080 -26.210365 9.595883 44.935132 0.639839 1.355589 0.108443 -0.033736 255813.000000 0 0 1
-35.351408 -27.089065 8.309383 45.305467 0.653839 1.386344 0.087680 -0.031470 983002.000000 0 0 1
-34.040403 -27.275365 7.725983 44.298819 0.675511 1.395494 0.093733 -0.033898 631856.000000 0 0 1
-34.037699 -28.163065 6.611883 44.670350 0.691231 1.422235 0.076843 -0.025438 1344990.000000 0 0 1
-32.608908 -28.444165 5.928083 43.675549 0.717289 1.434646 0.100958 -0.021469 1612150.000000 0 0 1
-32.006028 -27.275365 5.365883 42.392500 0.705767 1.443880 0.115535 -0.016389 -706962.000000 0 0 1
-30.863788 -27.668065 4.679983 41.713277 0.730854 1.458366 0.109285 -0.021284 -551436.000000 0 0 1
-30.149818 -26.474165 4.054583 40.327814 0.720576 1.470086 0.115519 -0.014520 -116661.000000 0 0 1
-30.622238 -25.976365 2.829683 40.255436 0.703497 1.500445 0.110303 -0.012356 -521714.000000 0 0 1
-29.828568 -24.915465 2.450283 38.942621 0.695891 1.507834 0.124559 -0.025883 -213398.000000 0 0 1
-30.142648 -24.266965 1.065783 38.711764 0.677825 1.543262 0.126745 -0.021569 -174532.000000 0 0 1
-29.722308 -25.156265 0.060983 38.939144 0.702387 1.569230 0.116197 -0.026677 -26390.100000 0 0 1
-29.744218 -24.639065 -1.278217 38.644998 0.691799 1.603878 0.110857 -0.037514 265507.000000 0 0 1
-31.150528 -24.376265 -1.890617 39.599648 0.663998 1.618558 0.103423 -0.027298 654815.000000 0 0 1
-31.919488 -23.219565 -1.495017 39.499835 0.628907 1.608654 0.107513 -0.016329 673966.000000 0 0 1
-33.231968 -23.286565 -2.055517 40.630690 0.611214 1.621408 0.105428 -0.018510 412863.000000 0 0 1
-34.008939 -21.974465 -1.871517 40.533784 0.573655 1.616985 0.091770 -0.017118 -186846.000000 0 0 1
-34.486680 -21.713965 -0.583717 40.757430 0.561924 1.585119 0.091073 -0.028840 140275.000000 0 0 1
-35.418198 -20.662865 -0.470217 41.007607 0.528122 1.582263 0.099235 -0.021796 -206064.000000 0 0 1
-35.671180 -20.040465 0.914983 40.925426 0.511866 1.548437 0.100766 -0.030126 156442.000000 0 0 1
-36.524048 -20.895365 1.696183 42.112936 0.519651 1.530508 0.085389 -0.037131 498649.000000 0 0 1
-36.556158 -20.614465 3.118683 42.083667 0.513462 1.496622 0.093526 -0.032801 -1390320.000000 0 0 1
-37.521108 -21.518865 3.910383 43.430245 0.520716 1.480636 0.093229 -0.027578 1248200.000000 0 0 1
36.373840 -21.399165 3.543383 42.350160 -0.531781 1.487030 0.079730 -0.019004 1169180.000000 0 0 1
35.790390 -20.149865 3.866983 41.254365 -0.512767 1.476923 0.088086 -0.027342 -1155620.000000 0 0 1
34.528170 -19.840165 3.073683 39.940883 -0.521540 1.493764 0.074084 -0.010012 84913.900000 0 0 1
33.377430 -20.638165 3.242283 39.376377 -0.553786 1.488362 0.057312 -0.006883 -896682.000000 0 0 1
32.331520 -20.309965 2.428883 38.258611 -0.560882 1.507268 0.102921 -0.013820 -125348.000000 0 0 1
30.999340 -21.018865 2.818683 37.559243 -0.595837 1.495679 0.103493 0.000010 412730.000000 0 0 1
30.858530 -22.148565 2.010183 38.037463 -0.622537 1.517924 0.094105 -0.005126 116768.000000 0 0 1
29.601690 -22.766465 2.236983 37.410908 -0.655609 1.510966 0.101569 -0.002145 189630.000000 0 0 1
29.221790 -23.891865 1.297683 37.767952 -0.685384 1.536430 0.088913 -0.003644 36455.800000 0 0 1
28.852990 -23.477765 -0.057317 37.198169 -0.683041 1.572337 0.088942 -0.007546 66317.600000 0 0 1
28.150390 -24.524465 -0.641217 37.340393 -0.716671 1.587969 0.077697 -0.013933 -498420.000000 0 0 1
27.366490 -24.231365 -1.916217 36.602673 -0.724712 1.623172 0.084044 -0.015675 -334053.000000 0 0 1
28.063390 -23.767765 -3.082117 36.904741 -0.702710 1.654409 0.071699 -0.038267 235039.000000 0 0 1
28.493790 -24.726765 -4.059617 37.944557 -0.714735 1.677990 0.071039 -0.037744 -313204.000000 0 0 1
27.325990 -25.318765 -4.895317 37.572779 -0.747289 1.701457 0.073849 -0.037712 259668.000000 0 0 1
26.605790 -24.404865 -5.730317 36.555465 -0.742279 1.728202 0.074919 -0.051167 674616.000000 0 0 1
25.484390 -23.849465 -5.048417 35.266664 -0.752270 1.714440 0.091008 -0.055124 -427884.000000 0 0 1
24.720190 -22.778865 -5.875017 34.124482 -0.744550 1.743823 0.092731 -0.061834 15655.900000 0 0 1
23.936190 -23.322165 -6.940517 34.132614 -0.772406 1.775564 0.081585 -0.054292 469003.000000 0 0 1
22.865990 -22.468365 -7.330717 32.884956 -0.776627 1.795605 0.086664 -0.045718 217957.000000 0 0 1
23.227490 -21.088965 -8.075017 32.395472 -0.737180 1.822716 0.092358 -0.037897 -690845.000000 0 0 1
23.652590 -21.344365 -9.383317 33.212551 -0.734146 1.857220 0.093463 -0.039016 261903.000000 0 0 1
23.549190 -20.135965 -10.172717 32.611433 -0.707424 1.888028 0.086071 -0.034914 116042.000000 0 0 1
24.473490 -20.254365 -11.430817 33.761732 -0.691348 1.916196 0.083707 -0.033035 1644820.000000 0 0 1
25.906590 -20.077665 -11.283917 34.663970 -0.659311 1.902361 0.111911 -0.044390 1446060.000000 0 0 1
26.516890 -19.684365 -12.496317 35.309738 -0.638576 1.932540 0.106780 -0.051330 971375.000000 0 0 1
28.069190 -19.897965 -12.643917 36.656201 -0.616667 1.922963 0.087809 -0.038032 917496.000000 0 0 1
28.399090 -21.233465 -12.869817 37.722679 -0.642015 1.918957 0.067254 -0.034126 16700.400000 0 0 1
29.139490 -21.831565 -11.816917 38.280107 -0.642995 1.884618 0.095567 -0.038024 -85391.500000 0 0 1
29.549690 -23.291365 -12.203717 39.555057 -0.667511 1.884438 0.078665 -0.029415 425648.000000 0 0 1
30.532460 -23.275665 -13.277317 40.623575 -0.651343 1.903752 0.059421 -0.036341 716628.000000 0 0 1
30.909040 -24.592065 -13.617217 41.779983 -0.672069 1.902788 0.058572 -0.028808 -180585.000000 0 0 1
-3.328768 -9.066769 -27.602577 29.243619 1.218935 2.804995 0.052272 -0.026634 -86283.600000 0 0 1
-3.687768 -7.836569 -26.975627 28.331888 1.130957 2.830924 0.070156 -0.022252 547413.000000 0 0 1
-4.794468 -7.141669 -27.597897 28.907339 0.979567 2.839453 0.056813 -0.021035 698139.000000 0 0 1
-4.907968 -5.671269 -27.013837 28.035670 0.857424 2.870775 0.051296 -0.022228 -190715.000000 0 0 1
-5.518568 -5.572169 -25.742997 26.911067 0.790231 2.845882 0.039629 -0.024611 302884.000000 0 0 1
-5.020768 -4.411069 -25.126797 26.000414 0.720845 2.881631 0.040520 -0.018908 -165394.000000 0 0 1
-5.453868 -4.220869 -23.644717 24.629921 0.658636 2.857797 0.033569 -0.022326 -106908.000000 0 1 0
-4.896768 -5.168269 -22.724917 23.814096 0.812366 2.837982 0.025049 -0.034663 307772.000000 0 1 0
-5.311868 -4.926769 -21.419617 22.611700 0.747804 2.815434 0.017380 -0.029103 -203581.000000 0 1 0
-4.775468 -6.017769 -20.431117 21.827715 0.899994 2.781934 0.015705 -0.030420 -742226.000000 0 1 0
-5.432368 -7.226269 -20.558517 22.458455 0.926174 2.727302 0.023876 -0.028915 218810.000000 0 1 0
-4.641968 -8.284169 -20.004317 22.143803 1.060048 2.698388 0.026382 -0.030633 -840267.000000 0 1 0
-5.271068 -9.697469 -20.084317 22.917348 1.072918 2.639091 0.037564 -0.025599 329234.000000 0 1 0
-6.446968 -9.915669 -19.325017 22.657011 0.994295 2.592383 0.042185 -0.020271 -102491.000000 0 1 0
-7.601768 -9.266469 -19.774617 23.123360 0.883768 2.596693 0.041767 -0.022916 -1465740.000000 0 1 0
-8.754568 -9.356469 -18.785417 22.739346 0.818620 2.542982 0.039487 -0.014645 -870233.000000 0 1 0
-9.256968 -10.653869 -18.731817 23.453727 0.855441 2.495880 0.053597 -0.016896 -52161.700000 0 1 0
-9.990968 -10.764869 -17.507017 22.851640 0.822667 2.443573 0.047929 -0.019245 -426919.000000 0 1 0
-10.776868 -12.036169 -17.427017 23.763652 0.840543 2.394029 0.056960 -0.015394 719130.000000 0 1 0
-12.000768 -12.078969 -18.220517 24.938066 0.788646 2.390042 0.078123 -0.035733 1097210.000000 0 1 0
-11.806768 -12.309869 -19.580617 25.967926 0.806256 2.424974 0.080802 -0.037838 -917061.000000 0 0 1
-13.063968 -11.846369 -20.337117 26.918433 0.736558 2.427227 0.080013 -0.034466 1332550.000000 0 0 1
-14.263068 -12.662569 -20.319717 27.868739 0.726027 2.387835 0.078402 -0.027183 1075640.000000 0 0 1
-14.894868 -12.962369 -19.062217 27.445367 0.716138 2.338592 0.073268 -0.021802 -1523100.000000 0 0 1
-16.093968 -13.819169 -19.299817 28.678706 0.709497 2.309009 0.069532 -0.011714 -956393.000000 0 0 1
-15.943268 -15.164469 -19.767817 29.578970 0.760368 2.302726 0.078267 -0.011439 -499856.000000 0 0 1
-17.078668 -15.621269 -20.462017 30.893350 0.740859 2.294739 0.063524 -0.011202 -249921.000000 0 0 1
-16.981868 -17.063969 -21.087017 32.003518 0.787810 2.290148 0.048545 -0.000502 -71316.000000 0 0 1
-17.118268 -18.049469 -20.123517 31.996474 0.811871 2.250971 0.078491 0.000895 150399.000000 0 0 1
-16.751368 -19.315569 -20.628117 32.851465 0.856374 2.249675 0.069078 -0.000840 -258446.000000 0 0 1
-17.297868 -20.478169 -19.755317 33.299312 0.869388 2.205905 0.079138 -0.010949 -205841.000000 0 0 1
-16.988468 -21.734069 -20.286117 34.241850 0.907344 2.204876 0.073587 -0.011498 126701.000000 0 0 1
-17.737568 -22.770669 -19.689517 34.939973 0.909013 2.169442 0.085628 -0.009219 -136787.000000 0 0 1
-17.178268 -24.134669 -19.998717 35.742465 0.952216 2.164606 0.089849 -0.013758 -291467.000000 0 0 1
-17.321568 -24.573069 -21.342917 36.869941 0.956789 2.188139 0.047868 -0.005238 286030.000000 0 0 1
-16.709768 -25.880779 -21.467417 37.548383 0.997489 2.179405 0.053182 -0.000295 165811.000000 0 0 1
-16.688368 -26.508159 -22.903317 38.803943 1.008928 2.202142 0.049406 -0.002098 -334741.000000 0 0 1
-17.927868 -27.049209 -23.263617 39.928236 0.985484 2.192764 0.084260 -0.012159 -496262.000000 0 0 1
-17.947368 -28.441979 -23.137717 40.821662 1.007882 2.173413 0.093863 -0.009021 -81200.000000 0 0 1
-18.797368 -29.128049 -24.263417 42.314272 0.997707 2.181458 0.109359 -0.016938 -79388.900000 0 0 1
-18.388768 -28.949249 -25.590927 42.791370 1.004891 2.211849 0.099686 -0.012231 36235.200000 0 0 1
-18.772568 -27.701469 -26.188927 42.492829 0.975212 2.234850 0.111977 -0.016812 365087.000000 0 0 1
-17.821768 -27.436619 -27.433807 42.696571 0.994730 2.268591 0.116618 -0.018892 101069.000000 0 0 1
-18.114268 -27.875329 -28.701827 43.919876 0.994540 2.283001 0.117649 -0.018091 961489.000000 0 0 1
-16.911168 -27.682129 -29.496567 43.844444 1.022397 2.308722 0.091061 -0.009956 1119830.000000 0 0 1
-17.154968 -27.948999 -31.025877 45.144706 1.020295 2.328498 0.108628 -0.004155 39912.200000 0 0 1
-17.227768 -29.290859 -31.349427 46.233505 1.039127 2.315926 0.094997 -0.005562 58580.500000 0 0 1
-17.666968 -29.449739 -32.665947 47.396972 1.030449 2.331179 0.104927 -0.001859 54565.100000 0 0 1
-17.466468 -30.937259 -33.140947 48.585119 1.056830 2.321456 0.092480 -0.006711 940425.000000 0 0 1
-16.131768 -31.200529 -33.631507 48.629057 1.093614 2.334488 0.091173 -0.006667 893757.000000 0 0 1
-16.130568 -32.329689 33.159369 49.040267 1.107997 0.828250 0.079473 -0.007676 -144804.000000 0 0 1
-14.794368 -32.790319 32.553459 48.516039 1.146961 0.835262 0.060482 -0.005104 -124649.000000 0 0 1
-13.984868 -33.563249 33.404772 49.375571 1.176001 0.827736 0.076318 -0.008534 267993.000000 0 0 1
-12.872468 33.487711 32.766370 48.587676 -1.203816 0.830677 0.073886 -0.007194 611234.000000 0 0 1
-11.891268 32.756143 33.752498 48.513898 -1.222566 0.801363 0.076376 -0.008988 35214.000000 0 0 1
-11.175668 33.601373 -33.074257 48.454662 -1.249710 2.322086 0.083941 -0.006285 -508530.000000 0 0 1
-10.391968 32.876667 -32.180527 47.164123 -1.264645 2.321713 0.076637 -0.015645 -157723.000000 0 0 1
-9.535868 -33.830359 -31.330517 47.085319 1.296052 2.298824 0.064667 -0.014163 19633.100000 0 0 1
-10.326768 -33.063329 -30.424207 46.102692 1.268064 2.291512 0.085088 -0.015820 -101943.000000 0 0 1
-9.670568 -31.965139 -29.855337 44.795436 1.277016 2.300276 0.084085 -0.019776 -48573.800000 0 0 1
-10.605968 -31.048829 -28.964747 43.766116 1.241633 2.294024 0.098982 -0.019515 406450.000000 0 0 1
-10.872468 -31.360129 -27.579627 43.154421 1.237067 2.264113 0.114790 -0.031213 71534.300000 0 0 1
-11.467968 -32.635949 -27.371597 44.111492 1.232883 2.240188 0.104727 -0.029233 -177611.000000 0 0 1
-11.703168 -32.909799 -25.891657 43.478695 1.229129 2.208687 0.110872 -0.030797 -124418.000000 0 0 1
-10.490768 -32.952729 -25.195107 42.787054 1.262583 2.200430 0.112905 -0.047140 -688839.000000 0 0 1
-10.697368 -32.956029 -23.801917 42.036469 1.256931 2.172710 0.108406 -0.060883 -55609.000000 0 0 1
-9.528768 -32.929029 -22.791317 41.165064 1.289117 2.157545 0.119187 -0.070623 -166540.000000 0 0 1
-8.902668 33.501640 -22.631517 41.398103 -1.311061 2.149191 0.094214 -0.055434 -624293.000000 0 0 1
-7.994968 33.598842 -21.581417 40.725413 -1.337187 2.129309 0.113478 -0.057303 -491401.000000 0 0 1
-7.177268 32.294264 -21.376017 39.387393 -1.352105 2.144459 0.107587 -0.051210 -180786.000000 0 0 1
-6.092868 32.045645 -22.240117 39.479985 -1.382908 2.169203 0.087549 -0.062916 -115026.000000 0 0 1
-5.748968 30.676937 -22.267517 38.340154 -1.385542 2.190493 0.064173 -0.052379 614003.000000 0 0 1
-4.227068 30.593257 -22.660417 38.305482 -1.433496 2.203802 0.087511 -0.061229 743273.000000 0 0 1
-4.006168 31.048847 -23.986717 39.439103 -1.442477 2.224583 0.114737 -0.057767 -145823.000000 0 0 1
-2.836768 30.434077 -24.493517 39.169027 -1.477855 2.246349 0.102538 -0.059897 5727.010000 0 0 1
-2.391268 30.919087 -25.892387 40.399552 -1.493610 2.266477 0.104353 -0.036415 -478612.000000 0 0 1
-1.508268 31.971418 -26.016947 41.247157 -1.523656 2.253325 0.113105 -0.056913 -276155.000000 0 0 1
-2.075668 33.244536 -25.753187 42.103850 -1.508441 2.228952 0.111410 -0.051240 -279514.000000 0 0 1
-1.317068 -33.344059 -26.484637 42.602781 1.531318 2.241662 0.055293 -0.032982 939232.000000 0 0 1
0.035832 -33.114249 -26.025657 42.117568 -1.569714 2.236902 0.107389 -0.042951 1058280.000000 0 0 1
0.653932 -32.054109 -26.768757 41.766731 -1.550398 2.266481 0.081235 -0.026261 260593.000000 0 0 1
2.033632 -31.622009 -26.202757 41.117777 -1.506574 2.261735 0.095316 -0.018109 -135325.000000 0 0 1
1.933032 -31.039959 -24.916317 39.850201 -1.508601 2.246247 0.081561 -0.008534 91548.700000 0 0 1
3.159332 -30.455129 -24.546517 39.243187 -1.467429 2.246565 0.062648 -0.009795 -312938.000000 0 0 1
3.249432 -29.726539 -23.139017 37.810581 -1.461918 2.229348 0.073599 -0.007973 -184619.000000 0 0 1
3.467932 -30.639089 -22.081317 37.925781 -1.458089 2.192258 0.078279 -0.010904 450319.000000 0 0 1
3.517232 -29.977639 -20.826017 36.670870 -1.454002 2.174769 0.076634 -0.003525 -247361.000000 0 0 1
3.444932 -30.877379 -19.578217 36.723108 -1.459688 2.133093 0.073216 -0.005136 -870215.000000 0 0 1
2.144832 -31.299019 -19.319417 36.843843 -1.502376 2.122759 0.073841 -0.006216 -515114.000000 0 0 1
1.877032 -32.682949 -19.509217 38.109158 -1.513428 2.108226 0.072273 -0.009051 -279732.000000 0 0 1
2.547132 -33.806499 -18.581317 38.660478 -1.495594 2.072167 0.048281 -0.018605 1374330.000000 0 0 1
3.955032 33.613888 -18.795617 38.714480 1.453674 2.077724 0.051061 -0.008486 801274.000000 0 0 1
4.384532 32.721735 -17.845217 37.528494 1.437595 2.066341 0.056373 -0.029720 -4530.560000 0 0 1
5.577332 31.828664 -18.258317 37.115181 1.397328 2.085109 0.076484 -0.031710 -156727.000000 0 0 1
6.744032 32.581501 -18.480117 38.059833 1.366689 2.077793 0.096974 -0.034290 -596328.000000 0 0 1
7.734332 31.634057 -18.905717 37.655804 1.331007 2.096783 0.102438 -0.060722 -116603.000000 0 0 1
9.025132 32.420225 -19.194717 38.742240 1.299291 2.089145 0.105087 -0.055902 -52942.000000 0 0 1
9.834632 32.815613 -18.057017 38.725190 1.279621 2.055884 0.100702 -0.041835 -9036.270000 0 0 1
11.038232 33.307094 -18.601317 39.714155 1.250780 2.058253 0.106540 -0.035536 -50068.900000 0 0 1
12.106332 33.476165 -17.479817 39.658050 1.223789 2.027245 0.092413 -0.038826 -179612.000000 0 0 1
12.796632 32.313430 -17.092017 38.730461 1.193729 2.027851 0.096005 -0.044708 -114284.000000 0 0 1
13.454832 32.587175 -15.864917 38.660731 1.179230 1.993648 0.090819 -0.041263 -97781.500000 0 0 1
14.715632 31.752539 -15.616417 38.322918 1.136816 1.990506 0.096474 -0.044153 -23712.700000 0 0 1
14.477632 30.449347 -15.086817 36.937469 1.126968 1.991543 0.101956 -0.047518 -342232.000000 0 0 1
15.718832 29.809147 -14.933117 36.860072 1.085536 1.987917 0.103329 -0.044113 -410369.000000 0 0 1
15.617732 28.313907 -14.416617 35.403810 1.066731 1.990188 0.112341 -0.045082 -185635.000000 0 0 1
15.306532 28.086357 -13.029217 34.538296 1.071815 1.957610 0.102503 -0.048406 798649.000000 0 0 1
13.985432 28.480327 -12.587517 34.134542 1.114330 1.948473 0.119361 -0.052786 675468.000000 0 0 1
13.232332 27.313787 -11.992717 32.633768 1.119661 1.947109 0.115585 -0.043955 -586053.000000 0 0 1
12.582332 26.447687 -12.930717 32.015601 1.126741 1.986559 0.092313 -0.044044 38295.500000 0 0 1
12.268432 25.143867 -12.462217 30.627363 1.116852 1.989852 0.116577 -0.042860 251342.000000 0 0 1
11.201032 25.065397 -11.342317 29.704973 1.150546 1.962574 0.120268 -0.047178 -982601.000000 0 0 1
10.030432 25.751637 -11.582517 29.965165 1.199369 1.967665 0.102151 -0.041751 -585519.000000 0 0 1
9.295132 26.027197 -10.397017 29.528163 1.227782 1.930616 0.074892 -0.029648 364619.000000 0 0 1
8.164332 27.089537 -10.590517 30.210237 1.278071 1.928966 0.081721 -0.037310 -41896.700000 0 0 1
8.646132 28.301547 -11.080317 31.599155 1.274301 1.929064 0.080939 -0.033844 -97164.900000 0 0 1
7.679132 29.327767 -10.997517 32.249533 1.314707 1.918791 0.060388 -0.031359 82839.800000 0 0 1
8.312132 30.707857 -11.297317 33.759345 1.306447 1.912022 0.076397 -0.029351 21670.300000 0 0 1
9.207732 31.212637 -10.300317 34.133672 1.283933 1.877339 0.070255 -0.025893 222575.000000 0 0 1
9.868832 32.422405 -10.730317 35.549204 1.275323 1.877423 0.077801 -0.027908 654950.000000 0 0 1
11.048232 32.297107 -11.748117 36.099651 1.241193 1.902269 0.071182 -0.035021 181506.000000 0 0 1
12.322232 31.954380 -11.217917 36.038333 1.202748 1.887333 0.063836 -0.019327 118110.000000 0 0 1
13.305232 32.275460 -12.174017 36.972168 1.179783 1.906332 0.076698 -0.023121 -475706.000000 0 0 1
14.752432 32.221003 -11.720817 37.325659 1.141432 1.890215 0.089442 -0.022385 -356384.000000 0 0 1
15.136232 33.206932 -10.744917 38.042859 1.143117 1.857136 0.090299 -0.015327 -68583.100000 0 0 1
16.520632 33.370712 -10.527217 38.695711 1.111105 1.846320 0.104848 -0.028597 141382.000000 0 0 1
16.837732 -33.264319 -9.466617 38.466102 -1.102217 1.819454 0.102138 -0.023619 -48955.100000 0 0 1
16.686232 -33.711029 -8.130517 38.483362 -1.111174 1.783674 0.097814 -0.026540 155817.000000 0 0 1
17.240732 -32.816799 -7.201217 37.762980 -1.087065 1.762667 0.097336 -0.028941 -519392.000000 0 0 1
17.893432 -33.500919 -5.934117 38.440867 -1.080229 1.725786 0.109106 -0.027937 852241.000000 0 0 1
18.934432 33.224579 -6.232617 38.745721 1.052809 1.732358 0.101108 -0.032451 303843.000000 0 0 1
20.208732 33.805737 -6.402017 39.902463 1.032003 1.731934 0.112385 -0.034610 -154645.000000 0 0 1
21.294532 32.877616 -7.012917 39.794167 0.996046 1.747951 0.083457 -0.027986 444718.000000 0 0 1
21.666132 31.688697 -6.309117 38.902439 0.971082 1.733694 0.080894 -0.017679 -32809.100000 0 0 1
22.598532 31.872492 -5.261917 39.423815 0.954036 1.704666 0.076721 -0.017368 -314878.000000 0 0 1
23.052232 30.487737 -4.690317 38.508526 0.923393 1.692899 0.048553 -0.014447 -262190.000000 0 0 1
23.788732 29.695737 -5.560717 38.453376 0.895396 1.715914 0.043900 -0.015331 -257656.000000 0 0 1
23.982432 28.424667 -5.038417 37.530047 0.869960 1.705453 0.037079 -0.006805 -185148.000000 0 0 1
24.920632 27.540387 -5.883017 37.604797 0.835294 1.727885 0.031677 -0.004058 -419491.000000 0 0 1
26.256732 27.966797 -5.903317 38.812458 0.816925 1.723487 0.048361 -0.005674 52036.000000 0 0 1
27.097632 27.057137 -6.656617 38.867479 0.784650 1.742909 0.031419 -0.003143 349882.000000 0 0 1
27.953932 26.157607 -5.778817 38.717405 0.752214 1.720612 0.033819 0.005907 464714.000000 0 0 1
29.031232 26.778267 -4.982017 39.808398 0.745051 1.696275 0.060172 -0.003648 1180910.000000 0 0 1
29.444432 25.881047 -3.973517 39.402944 0.721079 1.671811 0.074622 -0.004901 -395992.000000 0 0 1
30.729732 26.278737 -3.258417 40.564834 0.707480 1.651209 0.086896 -0.012323 -371767.000000 0 0 1
30.554132 27.374587 -2.461917 41.097251 0.730566 1.630737 0.088898 -0.011875 216762.000000 0 0 1
31.777232 27.631227 -1.787817 42.148232 0.715723 1.613226 0.110479 -0.024716 357525.000000 0 0 1
31.724832 28.884617 -0.909717 42.914027 0.738571 1.591996 0.125163 -0.023630 166797.000000 0 0 1
31.653332 30.130247 -1.606417 43.730376 0.760751 1.607539 0.105539 -0.010678 -119401.000000 0 0 1
31.058532 31.108257 -0.805317 43.965949 0.786198 1.589114 0.110825 -0.013448 16939.000000 0 0 1
34.325780 22.309431 19.028888 45.144971 0.576328 1.135691 0.136505 -0.038439 -78451.900000 0 0 1
34.593840 22.105531 20.404988 45.844866 0.568605 1.109524 0.135413 -0.041428 3043.010000 0 0 1
35.506820 23.087731 20.819588 47.193568 0.576539 1.113913 0.146225 -0.035520 106351.000000 0 0 1
35.741330 23.077331 22.383988 48.073369 0.573330 1.086460 0.108788 -0.024206 865216.000000 0 0 1
34.519120 23.601831 22.926798 47.689141 0.599724 1.069281 0.093405 -0.016640 1124800.000000 0 0 1
34.684580 23.740331 24.327418 48.563841 0.600223 1.046115 0.090331 -0.014930 405486.000000 0 0 1
33.399150 24.355231 24.973408 48.294426 0.630067 1.027328 0.097272 -0.019359 409429.000000 0 0 1
33.280710 25.743531 24.672728 48.775799 0.658389 1.040441 0.083995 -0.019184 -452536.000000 0 0 1
31.958360 26.137731 24.818238 48.171181 0.685542 1.029545 0.071117 -0.024138 -626100.000000 0 0 1
31.763370 27.596131 25.185478 49.038418 0.715310 1.031437 0.067473 -0.018099 -122177.000000 0 0 1
31.646810 28.472531 24.110608 48.923686 0.732648 1.055468 0.066524 -0.024742 266337.000000 0 0 1
31.166150 29.729431 24.501698 49.553014 0.761809 1.053589 0.073032 -0.025669 -63667.000000 0 0 1
31.229500 30.742131 23.391708 49.674262 0.777534 1.080483 0.080023 -0.022409 142248.000000 0 0 1
32.568410 31.134331 23.149898 50.655362 0.762890 1.096168 0.063441 -0.028558 27945.200000 0 0 1
32.703850 31.768731 21.893488 50.577850 0.770895 1.123125 0.054343 -0.018341 1466820.000000 0 0 1
34.219200 32.127431 21.552788 51.649280 0.753881 1.140334 0.041832 -0.033372 1571620.000000 0 0 1
34.810030 32.987431 22.496088 52.971528 0.758522 1.132185 0.043622 -0.013890 -912328.000000 0 0 1
36.175760 33.159131 22.364488 53.929434 0.741917 1.143184 0.050333 -0.012033 -492481.000000 0 0 1
36.830090 -33.355565 23.157518 54.820798 -0.735934 1.134680 0.060977 -0.004223 -7359.450000 0 0 1
36.385150 -32.157365 22.626158 53.571618 -0.723795 1.134756 0.048432 -0.003716 130327.000000 0 0 1
36.683390 -31.020865 23.465328 53.465753 -0.701956 1.116439 0.064736 -0.003103 -673407.000000 0 0 1
35.693280 -29.836765 23.249368 52.007460 -0.696264 1.107344 0.061903 -0.006247 285893.000000 0 0 1
34.390200 -30.231465 23.617308 51.520914 -0.721132 1.094600 0.054364 -0.004066 268232.000000 0 0 1
33.530530 -30.620165 22.550388 50.699220 -0.740062 1.109859 0.051696 0.004001 -125532.000000 0 0 1
32.655240 -31.871565 22.760228 50.992052 -0.773254 1.108116 0.047658 0.001311 -244036.000000 0 0 1
31.660700 -31.814965 23.717718 50.765363 -0.787828 1.084672 0.046671 -0.006233 -480021.000000 0 0 1
31.078950 -33.060365 23.926938 51.297049 -0.816281 1.085536 0.042718 -0.008397 68098.000000 0 0 1
30.300020 -33.180965 25.282388 51.558382 -0.830750 1.058289 0.035971 -0.016016 218179.000000 0 0 1
29.721990 33.217231 25.455988 51.330190 0.840875 1.051895 0.054030 -0.020544 -143515.000000 0 0 1
28.965290 33.053331 26.602148 51.372999 0.851219 1.026491 0.050282 -0.015097 -869679.000000 0 0 1
28.580090 31.550231 26.851368 50.331248 0.834753 1.008071 0.051526 -0.015938 699725.000000 0 0 1
27.733090 31.017231 25.817518 48.966694 0.841240 1.015440 0.054150 -0.014792 323772.000000 0 0 1
26.375690 31.418331 25.840218 48.482011 0.872430 1.008671 0.061743 -0.013035 -227762.000000 0 0 1
25.753690 31.171831 24.406618 47.229425 0.880292 1.027726 0.103072 -0.020284 157692.000000 0 0 1
26.170790 32.012031 23.293948 47.458280 0.885458 1.057754 0.093209 -0.029116 578973.000000 0 0 1
27.497990 31.847631 22.799288 47.856228 0.858561 1.074227 0.075917 -0.024657 231211.000000 0 0 1
27.811190 32.849931 21.679488 48.193158 0.868272 1.104204 0.083485 -0.024798 -140176.000000 0 0 1
29.126890 33.021131 21.202488 48.870403 0.847977 1.122033 0.081553 -0.025268 -42369.100000 0 0 1
29.218690 -33.801365 20.048088 48.971318 -0.857988 1.149017 0.072504 -0.025792 241157.000000 0 0 1
30.634940 -33.497665 19.470888 49.393406 -0.830006 1.165599 0.074541 -0.030201 246523.000000 0 0 1
31.283040 33.121131 18.804388 49.287350 0.813930 1.179350 0.072131 -0.030816 -431195.000000 0 0 1
32.396720 33.724431 18.190488 50.177471 0.805475 1.199823 0.061043 -0.027371 -437734.000000 0 0 1
33.301890 32.672931 17.486588 49.822857 0.775865 1.212184 0.047578 -0.020398 1393.400000 0 0 1
34.077320 31.904731 18.392788 50.174398 0.752483 1.195469 0.044045 -0.024692 127905.000000 0 0 1
34.971560 31.036531 17.707188 49.998208 0.725854 1.208784 0.061257 -0.027812 219071.000000 0 0 1
35.919790 30.261731 18.643988 50.533177 0.700113 1.192922 0.083341 -0.030567 74281.300000 0 0 1
36.955580 31.045331 19.207288 51.946582 0.698702 1.192056 0.091196 -0.031958 89793.500000 0 0 1
-37.442358 30.216331 19.960188 52.089979 -0.679000 1.177552 0.110246 -0.024172 206554.000000 0 0 1
-36.350318 31.161431 20.499388 52.082678 -0.708690 1.166259 0.136825 -0.021377 104049.000000 0 0 1
-35.473083 31.700331 19.516288 51.421164 -0.729293 1.181499 0.136539 -0.027104 860320.000000 0 0 1
-34.269662 32.392131 19.905088 51.184689 -0.757241 1.171373 0.117496 -0.013632 879525.000000 0 0 1
-34.280993 33.782231 20.661988 52.376935 -0.778070 1.165287 0.097565 -0.017916 -351213.000000 0 0 1
-34.433577 33.633231 22.062288 52.949127 -0.773640 1.141018 0.105863 -0.014012 148428.000000 0 0 1
-34.266430 -32.767465 22.687698 52.560695 0.763041 1.124478 0.102288 -0.011217 -51970.200000 0 0 1
-34.282149 -32.906265 24.212288 53.332194 0.764923 1.099558 0.108578 -0.018928 -570679.000000 0 0 1
-35.435455 -33.448865 24.758548 54.657879 0.756567 1.100699 0.101724 -0.013339 -673812.000000 0 0 1
-35.288959 -33.820365 26.088948 55.405423 0.764151 1.080516 0.113648 -0.013581 -34943.700000 0 0 1
-36.661638 33.796331 26.766028 56.592296 -0.744754 1.078146 0.090797 -0.021218 -52249.100000 0 0 1
-36.723928 32.936531 27.900568 56.673659 -0.731082 1.056064 0.110078 -0.019437 426676.000000 0 0 1
37.228610 32.860431 28.418498 57.213533 0.723155 1.050993 0.112931 -0.033470 605536.000000 0 0 1
37.017130 31.857431 29.587928 57.101745 0.710623 1.026096 0.120838 -0.026136 -63886.700000 0 0 1
36.972620 30.426031 29.325178 56.148767 0.688570 1.021278 0.109547 -0.029019 89701.300000 0 0 1
-37.121978 29.942031 28.756988 55.691389 -0.678743 1.028198 0.103780 -0.025598 -129396.000000 0 0 1
-37.259348 28.413431 28.448588 54.817007 -0.651507 1.025146 0.112795 -0.019683 -302293.000000 0 0 1
37.191380 28.130231 27.334448 54.052573 0.647562 1.040602 0.104016 -0.016519 387704.000000 0 0 1
36.991290 26.740131 27.036848 53.050742 0.625915 1.036029 0.107216 -0.019101 306437.000000 0 0 1
36.299610 25.853331 28.122328 52.696506 0.618881 1.007867 0.102894 -0.027178 -236493.000000 0 0 1
37.279440 25.389331 29.021578 53.634194 0.597897 0.999049 0.097189 -0.023792 152734.000000 0 0 1
36.983550 24.066031 29.503498 53.079310 0.576883 0.981426 0.096445 -0.018378 -65731.800000 0 0 1
37.523840 22.939731 28.581528 52.451631 0.548714 0.994512 0.090017 -0.005496 -394901.000000 0 0 1
37.049990 22.882631 27.258598 51.374582 0.553271 1.011505 0.089922 -0.012496 -124866.000000 0 0 1
-37.644428 22.010231 26.284718 50.916006 -0.529084 1.028345 0.095464 -0.023869 -84279.700000 0 0 1
37.292170 20.536831 26.626668 50.214010 0.503381 1.011885 0.086754 -0.028918 -757464.000000 0 0 1
35.917120 20.296531 26.443438 49.002491 0.514357 1.000793 0.110926 -0.025446 23388.000000 0 0 1
35.476200 18.966631 26.719878 48.293330 0.490966 0.984496 0.114649 -0.022766 40176.500000 0 0 1
34.988590 18.691431 28.212178 48.677490 0.490644 0.952591 0.095071 -0.008210 706782.000000 0 0 1
33.720830 19.255831 28.599868 48.226900 0.518851 0.935983 0.083987 -0.012131 809588.000000 0 0 1
33.669750 20.654231 28.785148 48.875700 0.550240 0.941042 0.080334 -0.024050 238589.000000 0 0 1
32.303070 21.133631 29.420708 48.535520 0.579343 0.919562 0.058369 -0.029336 1561500.000000 0 0 1
31.130720 21.149231 28.570838 47.251502 0.596745 0.921464 0.084080 -0.035864 748028.000000 0 0 1
31.062640 22.020631 27.464588 46.947837 0.616681 0.945914 0.102937 -0.025142 -593060.000000 0 0 1
31.104080 23.563531 27.738918 47.876417 0.648329 0.952821 0.112559 -0.024127 69016.900000 0 0 1
32.319610 24.031331 28.310568 49.229567 0.639362 0.958104 0.088481 -0.028017 10896.800000 0 0 1
32.225810 25.301731 28.923638 50.152340 0.665613 0.956094 0.076631 -0.020950 -53725.900000 0 0 1
32.393590 25.211031 30.469488 51.120744 0.661351 0.932249 0.070659 -0.031897 1151420.000000 0 0 1
33.688910 24.547331 30.662728 51.746662 0.629695 0.936570 0.059358 -0.021773 1832710.000000 0 0 1
34.295540 24.728531 31.988539 53.018402 0.624709 0.923104 0.070353 -0.027260 385451.000000 0 0 1
33.730340 23.578531 32.849134 52.656895 0.610075 0.897158 0.077989 -0.030187 -373697.000000 0 0 1
34.174250 23.705331 -33.494617 53.401418 0.606459 2.248779 0.077125 -0.044200 203261.000000 0 0 1
33.609170 22.671631 -32.701537 52.086175 0.593452 2.249565 0.066929 -0.040651 108232.000000 0 0 1
34.247040 22.555731 -31.291567 51.582777 0.582410 2.222609 0.066841 -0.044909 -70474.600000 0 0 1
33.746870 23.682131 -30.574937 51.327588 0.611905 2.208911 0.061149 -0.050619 281214.000000 0 0 1
34.199390 23.657931 -29.233747 50.832154 0.605178 2.183527 0.068899 -0.050091 133254.000000 0 0 1
35.692510 23.962831 -28.976927 51.844332 0.591251 2.163881 0.081731 -0.027313 -173162.000000 0 0 1
35.899560 23.632031 -27.678247 51.120804 0.582175 2.142931 0.066515 -0.020760 -158194.000000 0 0 1
37.134650 24.110431 -27.194917 51.960163 0.575862 2.121609 0.081623 -0.005088 -32625.700000 0 0 1
-37.621368 23.375031 -25.918517 51.317920 -0.555951 2.100245 0.058878 0.004222 -140079.000000 0 0 1
-36.944768 22.184231 -26.328807 50.500119 -0.540765 2.119242 0.038568 0.014652 223500.000000 0 0 1
-36.949528 21.230831 -25.250967 49.534100 -0.521526 2.105713 0.027932 0.014465 -197498.000000 0 0 1
-36.017568 20.035831 -25.555907 48.495403 -0.507651 2.125835 0.031581 0.026081 1402450.000000 0 0 1
-34.605189 20.285631 -25.309457 47.429891 -0.530212 2.133669 0.044799 0.025255 1165690.000000 0 0 1
-33.870638 19.054831 -25.259987 46.350551 -0.512448 2.147158 0.011233 0.021552 259459.000000 0 0 1
-32.483788 19.245731 -24.611217 45.070019 -0.534866 2.148458 0.022042 0.011139 62515.200000 0 0 1
-32.628808 19.259031 -23.212217 44.433730 -0.533217 2.120460 0.039846 0.005780 -470683.000000 0 0 1
-31.445578 19.571531 -22.583817 43.380848 -0.556723 2.118343 0.068340 0.007699 -653178.000000 0 0 1
-31.747528 19.896831 -21.131717 43.015565 -0.559836 2.084329 0.063358 0.002872 295824.000000 0 0 1
-32.406198 18.916731 -20.319617 42.671902 -0.528376 2.067105 0.047945 -0.005796 125754.000000 0 0 1
-32.860198 19.459931 -19.128517 42.712781 -0.534667 2.035145 0.051759 -0.005473 -162375.000000 0 0 1
-33.934708 18.490831 -18.464617 42.830098 -0.498915 2.016522 0.042895 -0.006582 698346.000000 0 0 1
-34.638533 18.933131 -17.340117 43.115787 -0.500223 1.984688 0.061210 -0.017780 -20877.000000 0 0 1
-35.424485 20.084631 -17.422317 44.292478 -0.515779 1.975066 0.050041 -0.011173 -414559.000000 0 0 1
-36.559958 20.120931 -16.344517 44.817693 -0.503115 1.944095 0.047108 -0.015745 276219.000000 0 0 1
-36.124958 20.453631 -15.031117 44.150856 -0.515189 1.918191 0.047092 -0.019932 -134871.000000 0 0 1
-37.138938 20.120531 -14.109317 44.533238 -0.496498 1.893178 0.058121 -0.016785 -570160.000000 0 0 1
-37.254828 21.072531 -12.905817 44.704965 -0.514766 1.863653 0.054604 -0.019280 -116048.000000 0 0 1
-37.485498 22.460431 -13.199617 45.649353 -0.539814 1.864138 0.068535 -0.031034 341408.000000 0 0 1
36.585610 22.719531 -13.872117 45.245105 0.555715 1.882415 0.054787 -0.015436 -166585.000000 0 0 1
36.305250 24.161531 -14.358617 45.913185 0.587202 1.888866 0.057646 -0.023733 41341.100000 0 0 1
36.187120 25.121031 -13.288817 46.012677 0.606821 1.863778 0.064768 -0.024861 59304.000000 0 0 1
35.763840 26.373531 -13.834317 46.540345 0.635411 1.872612 0.043747 -0.007777 628656.000000 0 0 1
36.893920 27.416631 -14.268517 48.129238 0.639084 1.871783 0.062365 -0.005639 698939.000000 0 0 1
37.273370 27.085331 -15.580317 48.638108 0.628400 1.896876 0.066797 -0.001572 1197.170000 0 0 1
-36.970858 27.897131 -16.070817 49.024131 -0.646420 1.904786 0.078923 -0.003244 -296215.000000 0 0 1
-36.532498 27.534331 -17.538217 48.993386 -0.645861 1.936890 0.087285 -0.003884 -13506.000000 0 0 1
-36.080638 26.211631 -17.748917 47.998813 -0.628273 1.949567 0.088738 -0.010591 1562030.000000 0 0 1
-34.691794 26.055331 -17.320717 46.716250 -0.644174 1.950628 0.103905 -0.007463 1000090.000000 0 0 1
-33.982908 24.970831 -18.130917 45.903274 -0.633706 1.976843 0.091020 -0.006143 -187252.000000 0 0 1
-33.715838 25.331631 -19.498417 46.461140 -0.644350 2.003880 0.079648 0.004993 384209.000000 0 0 1
-32.817998 24.369531 -20.045817 45.527242 -0.638726 2.026733 0.075765 0.004484 68116.000000 0 0 1
-32.752808 24.166631 -21.601617 46.080390 -0.635679 2.058707 0.073152 0.007993 -94946.600000 0 0 1
-33.781098 23.307031 -22.071717 46.599795 -0.603944 2.064220 0.080770 0.018516 236665.000000 0 0 1
-33.649338 23.022531 -23.422317 47.020419 -0.600036 2.092238 0.059040 0.014474 -294704.000000 0 0 1
-34.354538 23.985731 -24.409017 48.490717 -0.609505 2.098297 0.043036 0.013186 -578320.000000 0 0 1
-33.982208 25.380431 -24.416917 48.940194 -0.641498 2.093141 0.053934 0.009836 253699.000000 0 0 1
-34.778266 26.038131 -25.396567 50.323927 -0.642662 2.099787 0.059012 -0.000041 371717.000000 0 0 1
-34.151823 27.443131 -25.691247 50.788902 -0.676910 2.101156 0.057689 -0.002460 1459070.000000 0 0 1
-32.841018 27.387031 -26.304187 50.204503 -0.695089 2.122267 0.039072 -0.010311 570434.000000 0 0 1
-32.412108 28.670031 -26.664457 50.828227 -0.724212 2.123041 0.054280 -0.015624 -933608.000000 0 0 1
-31.130828 28.659431 -27.424887 50.424358 -0.744087 2.145852 0.062099 -0.011393 -1888780.000000 0 0 1
-30.082358 28.205731 -26.660797 49.105087 -0.753214 2.144723 0.059931 -0.005721 -609945.000000 0 0 1
-28.842108 28.085831 -27.346027 48.667096 -0.772114 2.167477 0.077753 0.000319 633533.000000 0 0 1
-27.929948 29.333131 -27.216767 48.798227 -0.809897 2.162458 0.060443 -0.015791 -420666.000000 0 0 1
-27.281388 29.694331 -26.015157 47.987663 -0.827723 2.143756 0.055514 -0.017687 438501.000000 0 0 1
-28.209028 30.068731 -24.988217 48.210879 -0.817298 2.115671 0.061846 -0.014572 75749.800000 0 0 1
-27.615898 30.799031 -23.768017 47.708875 -0.839836 2.092305 0.035628 -0.014226 -22509.600000 0 0 1
-27.123688 32.089031 -24.021017 48.398446 -0.869058 2.090149 0.038647 -0.012277 681024.000000 0 0 1
-26.130398 32.571331 -23.099317 47.720726 -0.894684 2.076076 0.047709 -0.003197 390323.000000 0 0 1
-25.810998 -33.597865 -23.051817 48.232877 0.915728 2.069090 0.042865 0.021526 302909.000000 0 0 1
-26.811358 -32.796065 -22.405617 47.921211 0.885465 2.057315 0.033686 0.001800 245021.000000 0 0 1
-26.437318 -31.458265 -22.305917 46.755835 0.871906 2.068117 0.060034 -0.003819 -161478.000000 0 0 1
17.644332 8.373631 -25.211007 31.890986 0.443105 2.482482 0.103274 -0.031718 -222521.000000 0 0 1
16.442732 7.913231 -24.624417 30.648729 0.448544 2.503847 0.082936 -0.033586 21924.200000 0 0 1
16.071532 6.640031 -25.146897 30.573691 0.391795 2.536591 0.079461 -0.034216 -88943.900000 0 0 1
14.607332 6.194031 -25.063517 29.663446 0.401054 2.577229 0.089952 -0.039741 -352898.000000 0 0 1
13.974932 6.191931 -23.821817 28.304022 0.417079 2.571110 0.129088 -0.051809 768888.000000 0 0 1
12.588232 5.839231 -24.036517 27.754537 0.434323 2.618021 0.138458 -0.049035 1016420.000000 0 0 1
11.769032 6.015131 -22.711117 26.277114 0.472487 2.614539 0.145087 -0.050552 -70338.600000 0 0 1
12.148232 5.102731 -21.721617 25.405630 0.397661 2.596332 0.135397 -0.040929 299947.000000 0 0 1
11.331632 5.108031 -20.550317 24.016940 0.423499 2.597620 0.125092 -0.041555 -221791.000000 0 1 0
11.913132 6.132331 -19.564017 23.712422 0.475381 2.541093 0.132505 -0.046411 -56400.200000 0 1 0
11.254232 6.365931 -18.321617 22.424640 0.514777 2.527038 0.108645 -0.040550 -239051.000000 0 1 0
11.424632 7.716231 -17.854017 22.557224 0.594026 2.484054 0.109410 -0.040208 -377412.000000 0 1 0
12.826432 8.175731 -17.477917 23.169754 0.567476 2.425447 0.102096 -0.039597 -607476.000000 0 1 0
13.254032 7.675231 -16.248417 22.329120 0.524900 2.385727 0.111550 -0.043989 373635.000000 0 1 0
14.642432 7.946331 -16.092717 23.162913 0.497215 2.338886 0.104487 -0.038749 273703.000000 0 1 0
15.285832 7.491431 -14.756317 22.528362 0.455688 2.284993 0.111362 -0.044083 -82117.000000 0 1 0
16.664332 7.774731 -14.684117 23.532312 0.436531 2.244645 0.094902 -0.042439 123175.000000 0 1 0
17.206632 7.527431 -13.402617 23.072940 0.412387 2.190606 0.086388 -0.043815 132964.000000 0 1 0
18.169532 8.624031 -12.907417 23.897850 0.443157 2.141362 0.129623 -0.047894 136413.000000 0 1 0
17.440432 9.811231 -12.585917 23.639675 0.512432 2.132237 0.168472 -0.048037 933523.000000 0 1 0
18.361832 10.901831 -12.460217 24.723750 0.535791 2.098994 0.213097 -0.063109 76791.100000 0 1 0
17.653232 12.223031 -12.087117 24.640160 0.605604 2.083512 0.252671 -0.062923 -492635.000000 0 1 0
17.077632 12.188931 -10.826517 23.609935 0.619886 2.047168 0.307857 -0.048034 129982.000000 0 1 0
16.461732 13.403231 -10.405117 23.641102 0.683343 2.026538 0.195985 -0.035951 -486712.000000 0 1 0
14.992232 13.478031 -10.847517 22.893077 0.732263 2.064436 0.153260 -0.052571 -825179.000000 0 1 0
14.104332 14.402231 -10.280917 22.628603 0.795848 2.042419 0.188829 -0.061732 347287.000000 0 1 0
14.380132 15.759831 -10.441117 23.752419 0.831143 2.025929 0.191787 -0.060948 -171793.000000 0 1 0
13.254032 16.557131 -9.703917 23.323249 0.895749 1.999907 0.173921 -0.050599 428569.000000 0 1 0
13.328732 16.469231 -8.296917 22.753670 0.890404 1.944043 0.161904 -0.046088 -143660.000000 0 1 0
12.245232 17.067431 -7.664217 22.360303 0.948447 1.920650 0.131320 -0.027241 -330106.000000 0 1 0
12.373232 17.166231 -6.128917 22.030433 0.946254 1.852718 0.104896 -0.015576 330460.000000 0 1 0
13.429732 18.013031 -5.696317 23.179194 0.930145 1.819091 0.115117 -0.018926 447374.000000 0 1 0
13.908932 17.715531 -4.363017 22.941978 0.905191 1.762138 0.113540 -0.017838 -446662.000000 0 1 0
15.039832 18.626731 -3.907617 24.257393 0.891540 1.732591 0.097316 -0.024618 -586552.000000 0 1 0
16.236532 18.321731 -4.600617 24.909365 0.845664 1.756557 0.105958 -0.040395 -127773.000000 0 1 0
17.031032 19.473731 -4.680817 26.290536 0.852213 1.749793 0.076895 -0.031844 -364749.000000 0 0 1
18.325032 19.239031 -5.488317 27.130587 0.809725 1.774495 0.067827 -0.019064 -159114.000000 0 0 1
19.262632 18.411831 -4.813517 27.077933 0.762819 1.749511 0.076012 -0.032930 437050.000000 0 0 1
19.924432 17.594531 -5.833517 27.213608 0.723379 1.786833 0.110707 -0.036643 -186144.000000 0 0 1
20.973632 16.645931 -5.274917 27.291116 0.670863 1.765304 0.122109 -0.045086 -252717.000000 0 0 1
22.282832 17.179731 -5.180417 28.609517 0.656797 1.752874 0.097240 -0.044736 88762.800000 0 0 1
23.072932 16.198931 -4.520417 28.551703 0.612117 1.729789 0.118374 -0.049850 299016.000000 0 0 1
24.600532 16.440531 -4.657717 29.952822 0.589132 1.726932 0.128182 -0.043168 348033.000000 0 0 1
25.122132 17.521031 -3.927817 30.879375 0.609002 1.698341 0.131561 -0.043904 1694020.000000 0 0 1
26.579832 17.552531 -3.806717 32.079120 0.583631 1.689743 0.123395 -0.031913 1651230.000000 0 0 1
27.145032 18.810531 -3.132017 33.173760 0.605988 1.665350 0.125723 -0.030491 -335506.000000 0 0 1
27.053632 20.018431 -3.890117 33.878749 0.637040 1.685875 0.118085 -0.036095 209378.000000 0 0 1
27.300632 21.158531 -3.099017 34.678695 0.659322 1.660279 0.137549 -0.016691 -467098.000000 0 0 1
27.317832 22.472831 -3.983817 35.597231 0.688396 1.682945 0.092470 -0.017633 -349116.000000 0 0 1
28.416232 22.967631 -4.707017 36.839521 0.679756 1.698917 0.090745 -0.008479 -268633.000000 0 0 1
28.925732 22.075931 -5.643217 36.822420 0.651892 1.724658 0.072715 -0.003740 -548472.000000 0 0 1
29.913432 22.735731 -6.561217 38.141532 0.649903 1.743679 0.063231 -0.004904 -185619.000000 0 0 1
29.191632 23.412631 -7.593817 38.183357 0.675979 1.771009 0.027980 0.003528 405922.000000 0 0 1
29.904632 24.489231 -8.163517 39.505094 0.686166 1.778941 0.023008 -0.000721 -255246.000000 0 0 1
30.989832 24.126431 -9.188017 40.334527 0.661510 1.800609 0.025738 -0.013476 -129389.000000 0 0 1
30.428332 23.751431 -10.407617 39.979149 0.662780 1.834156 0.021584 -0.003041 80782.300000 0 0 1
31.425832 23.243831 -11.281817 40.683387 0.636838 1.851787 0.005181 -0.012417 -23212.400000 0 0 1
30.887232 22.817231 -12.629117 40.424519 0.636247 1.888528 0.017419 -0.004270 -101902.000000 0 0 1
30.700832 23.823931 -13.585017 41.166412 0.659936 1.907102 0.022110 -0.013337 -33173.900000 0 0 1
30.602832 23.258231 -14.869417 41.213811 0.649872 1.939908 0.038964 -0.013311 -107918.000000 0 0 1
30.812332 24.247831 -16.066717 42.373300 0.666734 1.959696 0.041425 -0.006931 237030.000000 0 0 1
32.202132 24.455931 -16.312317 43.602311 0.649522 1.954240 0.039248 -0.003324 437281.000000 0 0 1
32.385232 25.219331 -17.539617 44.636936 0.661636 1.974622 0.050517 0.000114 -954427.000000 0 0 1
33.840432 25.495231 -17.775817 45.947376 0.645671 1.968035 0.048881 0.000976 -924445.000000 0 0 1
34.657832 24.335331 -17.924117 45.985298 0.612174 1.971188 0.061467 0.009115 -213535.000000 0 0 1
35.996232 24.783131 -17.931817 47.238569 0.602961 1.960162 0.077875 0.009714 -177153.000000 0 0 1
37.029032 23.643731 -17.774117 47.392979 0.568262 1.955233 0.068974 -0.005592 -44742.200000 0 0 1
37.093132 22.856731 -18.918317 47.499824 0.552245 1.980439 0.068736 -0.003090 -91125.500000 0 0 1
-36.925225 22.963131 -19.496817 47.653998 -0.556354 1.992300 0.082702 0.012766 -346305.000000 0 0 1
-36.800125 22.059931 -20.754717 47.661809 -0.540017 2.021343 0.084551 0.007888 -26805.200000 0 0 1
-36.588325 20.685231 -20.533417 46.778259 -0.514552 2.025228 0.060173 0.010508 197491.000000 0 0 1
-36.087525 20.167231 -21.780817 46.727194 -0.509606 2.055705 0.063309 0.010443 145498.000000 0 0 1
-35.920725 18.638231 -21.848717 45.989657 -0.478630 2.065850 0.053324 0.002163 -92735.800000 0 0 1
-37.131325 17.932231 -21.759117 46.623592 -0.449907 2.056349 0.064093 -0.005593 -157992.000000 0 0 1
-36.927825 16.530131 -21.648317 45.886372 -0.420884 2.062106 0.045701 -0.012845 -438922.000000 0 0 1
37.101432 15.687431 -21.450117 45.636819 0.400027 2.060107 0.043660 -0.011635 -603890.000000 0 0 1
36.396932 15.625131 -22.655317 45.630525 0.405505 2.090352 0.066916 -0.001203 -362930.000000 0 0 1
35.328932 14.732231 -22.565417 44.433885 0.395077 2.103475 0.107124 -0.013789 -576009.000000 0 0 1
35.673132 13.421031 -23.241317 44.641407 0.359842 2.118376 0.063313 -0.014155 -275195.000000 0 0 1
35.847632 13.565331 -24.603317 45.545517 0.361762 2.141461 0.075646 -0.012732 -294250.000000 0 0 1
36.651732 12.539631 -25.010017 46.109573 0.329646 2.144092 0.034698 -0.003710 -822900.000000 0 0 1
36.722932 12.422631 -26.554437 46.989718 0.326196 2.171365 0.026179 0.000673 -297270.000000 0 0 1
35.537732 12.056831 -27.233167 46.367477 0.327083 2.198556 0.025337 -0.000872 385413.000000 0 0 1
34.719332 13.192131 -27.579567 46.261181 0.363116 2.209520 0.050801 -0.000736 -89639.100000 0 0 1
35.031032 13.580031 -29.010097 47.467633 0.369821 2.228316 0.052821 0.000593 62661.300000 0 0 1
36.366132 14.006731 -29.248307 48.725225 0.367647 2.214635 0.036949 0.007193 209321.000000 0 0 1
36.564032 13.961031 -30.671047 49.724762 0.364740 2.235488 0.053545 0.005176 -679661.000000 0 0 1
-37.277225 14.194931 -31.128697 50.597266 -0.363840 2.233468 0.063785 0.002316 285413.000000 0 0 1
-36.330225 13.164331 -30.837137 49.437980 -0.347636 2.244333 0.059301 0.002965 398751.000000 0 0 1
-36.027125 12.886331 -29.439197 48.277092 -0.343504 2.226600 0.035507 0.004387 -626835.000000 0 0 1
-34.855225 11.896431 -29.220217 47.013114 -0.328912 2.241495 0.032430 -0.006023 283683.000000 0 0 1
-35.290725 10.578131 -29.409607 47.140822 -0.291221 2.244477 0.034976 -0.006505 428212.000000 0 0 1
-34.204525 9.695731 -29.245737 46.035528 -0.276217 2.259175 0.035190 -0.010439 176295.000000 0 0 1
-34.639525 8.263031 -29.713317 46.379474 -0.234167 2.266149 0.043780 -0.009820 -438854.000000 0 0 1
-34.569825 8.181531 -31.099407 47.214228 -0.232391 2.289869 0.053043 -0.013889 112296.000000 0 0 1
-34.914625 6.927831 -31.726657 47.682351 -0.195878 2.298793 0.066364 -0.016534 648337.000000 0 0 1
-36.368425 6.336231 -31.484287 48.518764 -0.172492 2.276947 0.076822 -0.009039 784329.000000 0 0 1
-36.476325 5.801531 -30.203057 47.711683 -0.157728 2.256261 0.076859 -0.012493 305011.000000 0 0 1
37.471532 5.514931 -29.891167 48.249477 0.146127 2.238918 0.062278 0.000370 -243450.000000 0 0 1
37.476932 4.953931 -28.447657 47.311003 0.131424 2.215912 0.066183 -0.013842 -55020.500000 0 0 1
-37.184225 3.707331 -28.286797 46.867406 -0.099373 2.218742 0.090790 -0.010478 402361.000000 0 0 1
-37.545025 3.184031 -27.037827 46.376837 -0.084603 2.193216 0.111540 -0.014426 -234332.000000 0 0 1
-36.946225 1.818731 -26.786237 45.670930 -0.049187 2.197534 0.156696 -0.019136 154539.000000 0 0 1
-35.568125 1.806231 -26.444657 44.358470 -0.050739 2.209504 0.140134 -0.015487 308699.000000 0 0 1
-34.973925 0.532731 -26.581587 43.932220 -0.015231 2.220636 0.152826 -0.015990 429863.000000 0 0 1
-33.687025 0.429031 -25.710577 42.379635 -0.012735 2.222665 0.138310 -0.013573 435422.000000 0 0 1
-34.098825 0.419431 -24.322817 41.886814 -0.012300 2.190359 0.140307 -0.010663 -453054.000000 0 0 1
-33.037025 0.670731 -23.478317 40.535494 -0.020300 2.188548 0.163351 -0.007864 -792887.000000 0 0 1
-33.275825 0.567931 -22.021217 39.906604 -0.017066 2.155340 0.157144 0.000231 -537054.000000 0 0 1
-33.397025 -0.773769 -21.584417 39.772441 0.023165 2.144442 0.163103 -0.010907 341701.000000 0 0 1
-33.763625 -0.995969 -20.189417 39.352089 0.029490 2.109526 0.154135 -0.010898 67056.100000 0 0 1
-35.262925 -0.830669 -19.853017 40.475995 0.023552 2.083447 0.159910 -0.015696 56508.400000 0 0 1
-35.995025 -2.033769 -20.143917 41.298371 0.056441 2.080324 0.156869 -0.011581 1269420.000000 0 0 1
-37.408825 -1.938269 -19.886717 42.410595 0.051767 2.058852 0.149938 -0.013740 1259600.000000 0 0 1
37.036932 -3.240769 -19.723517 42.086269 -0.087279 2.058553 0.140056 -0.017584 -7988.880000 0 0 1
36.611832 -4.074969 -20.840017 42.324200 -0.110846 2.085630 0.130324 -0.005930 381530.000000 0 0 1
37.601832 -4.575769 -21.719417 43.664270 -0.121095 2.091417 0.136668 -0.013841 -155077.000000 0 0 1
37.036132 -5.485669 -22.856717 43.865672 -0.147048 2.118891 0.126853 -0.010784 -620121.000000 0 0 1
36.628432 -6.773069 -22.449817 43.491502 -0.182848 2.113191 0.142519 -0.008775 380755.000000 0 0 1
36.086532 -7.484369 -23.563317 43.743382 -0.204501 2.139656 0.142499 -0.002015 692051.000000 0 0 1
34.694632 -7.115469 -24.188517 42.888597 -0.202283 2.170000 0.100839 0.010463 -49000.100000 0 0 1
34.636532 -5.920869 -24.952617 43.097322 -0.169306 2.188277 0.119158 -0.002397 -1098660.000000 0 0 1
33.330732 -5.543269 -25.111997 42.098431 -0.164803 2.209938 0.096594 -0.002635 -1104380.000000 0 0 1
33.180232 -4.309669 -26.015217 42.382692 -0.129164 2.231683 0.131186 -0.034055 14033.800000 0 0 1
33.312132 -4.632069 -27.418077 43.392455 -0.138165 2.254751 0.137842 -0.042623 125009.000000 0 0 1
32.684932 -3.662869 -28.177377 43.309190 -0.111600 2.279183 0.136688 -0.049480 -129092.000000 0 0 1
32.634532 -3.995569 -29.664677 44.282844 -0.121827 2.304858 0.143915 -0.042753 85372.300000 0 0 1
32.025632 -3.002769 -30.449247 44.292374 -0.093488 2.328782 0.113792 -0.053515 377979.000000 0 0 1
31.324132 -3.509869 -31.610347 44.640054 -0.111585 2.357623 0.105109 -0.056313 -540014.000000 0 0 1
30.949432 -2.412169 -32.559337 44.986624 -0.077782 2.380026 0.103856 -0.054172 -468098.000000 0 0 1
30.007432 -1.412069 -32.152107 44.002249 -0.047023 2.390132 0.097842 -0.052865 2071490.000000 0 0 1
28.637132 -1.873769 -31.869847 42.886868 -0.065338 2.408509 0.114688 -0.052819 1165730.000000 0 0 1
27.808332 -2.178069 -33.107457 43.291466 -0.078165 2.441461 0.111778 -0.055124 -1246920.000000 0 0 1
28.265432 -3.258269 33.756848 44.148338 -0.114767 0.700340 0.109144 -0.054977 -55627.500000 0 0 1
27.530832 -3.343669 32.562418 42.771929 -0.120860 0.705475 0.092799 -0.040208 -517262.000000 0 0 1
28.056632 -4.452969 31.679800 42.551302 -0.157401 0.730998 0.071542 -0.042896 450343.000000 0 0 1
29.402532 -4.269469 31.243458 43.114858 -0.144200 0.760261 0.069643 -0.038477 402287.000000 0 0 1
29.611332 -3.376269 30.127888 42.378294 -0.113529 0.779980 0.085180 -0.042971 -264518.000000 0 0 1
30.527032 -2.170169 30.519408 43.220870 -0.070971 0.786783 0.082759 -0.044190 343646.000000 0 0 1
31.894632 -2.397269 30.797528 44.401601 -0.075021 0.804304 0.078557 -0.046511 -59727.800000 0 0 1
32.468632 -1.356469 31.523068 45.274230 -0.041754 0.800609 0.077017 -0.043621 -243075.000000 0 0 1
33.886132 -1.607469 32.061725 46.677705 -0.047402 0.813617 0.065986 -0.043279 -304534.000000 0 0 1
34.819732 -1.630869 31.019828 46.661582 -0.046803 0.843593 0.081677 -0.043035 -257337.000000 0 0 1
36.125832 -1.605369 31.573348 48.005513 -0.044409 0.853032 0.093738 -0.036890 186134.000000 0 0 1
37.225532 -2.162269 30.642438 48.263596 -0.058020 0.882920 0.109779 -0.032401 -54889.000000 0 0 1
37.388532 -1.394869 29.476078 47.630738 -0.037290 0.903524 0.111237 -0.024421 113939.000000 0 0 1
-36.921325 -2.012569 28.657548 46.781297 0.054456 0.911469 0.133231 -0.020384 102142.000000 0 0 1
-36.695725 -1.212669 27.362918 45.790568 0.033035 0.930333 0.122046 -0.016542 -371539.000000 0 0 1
37.587132 -1.168169 26.422628 45.959900 -0.031069 0.958307 0.108293 -0.021841 -690558.000000 0 0 1
-37.193325 -0.600769 25.272598 44.971197 0.016151 0.974027 0.112816 -0.017379 -226949.000000 0 0 1
-26.990088 15.006431 11.698583 33.022941 -0.507436 1.208678 0.135848 -0.023003 143356.000000 0 0 1
-28.159228 14.264831 12.007283 33.772805 -0.468896 1.207314 0.109458 -0.008751 613382.000000 0 0 1
-29.188468 15.151731 12.455783 35.166577 -0.478811 1.208744 0.120489 -0.015494 325078.000000 0 0 1
-30.275798 14.449331 13.271083 36.076707 -0.445288 1.194093 0.129609 -0.010055 1016780.000000 0 0 1
-31.362068 15.195231 13.898483 37.518558 -0.451179 1.191311 0.133248 -0.015586 936397.000000 0 0 1
-32.313608 14.360231 14.532583 38.230635 -0.418189 1.180860 0.156255 -0.022914 311929.000000 0 0 1
-33.378428 15.045731 15.427783 39.730466 -0.423488 1.171998 0.126386 -0.024620 -15901.100000 0 0 1
-32.821148 15.753431 16.529683 39.982856 -0.447502 1.144590 0.102788 -0.016394 -384085.000000 0 0 1
-33.732878 16.274031 17.467383 41.326270 -0.449500 1.134407 0.124274 -0.039046 -277496.000000 0 0 1
-33.167448 16.595331 18.872883 41.613343 -0.463928 1.100075 0.149245 -0.026149 64792.400000 0 0 1
-32.645558 15.377731 19.442383 40.990405 -0.440222 1.076610 0.149808 -0.023734 -15579.600000 0 0 1
-31.887558 15.541931 20.630483 41.036384 -0.453515 1.044035 0.120629 -0.018622 469841.000000 0 0 1
-32.756358 15.781531 21.921283 42.456782 -0.448970 1.028248 0.112134 -0.040512 201378.000000 0 0 1
-33.438898 17.046131 21.969083 43.489896 -0.471433 1.041236 0.129461 -0.044367 561099.000000 0 0 1
-34.108356 17.424631 23.189383 44.774381 -0.472299 1.026383 0.145949 -0.049996 -783160.000000 0 0 1
-35.314233 16.607831 23.644583 45.628735 -0.439596 1.026057 0.135602 -0.055367 482859.000000 0 0 1
-36.500328 16.642931 22.791183 46.137827 -0.427805 1.054135 0.129337 -0.049133 1088650.000000 0 0 1
-37.199248 17.870931 22.855883 47.175689 -0.447854 1.065023 0.127490 -0.049248 -957829.000000 0 0 1
36.571100 17.592331 22.826583 46.561662 0.448369 1.058426 0.147219 -0.047458 -48389.300000 0 0 1
36.068100 17.137531 24.059783 46.620553 0.443566 1.028532 0.140999 -0.055243 93651.200000 0 0 1
35.772120 15.751831 23.908283 45.818891 0.414790 1.021837 0.131372 -0.052023 -103094.000000 0 0 1
35.295420 15.187831 25.295783 46.003408 0.406356 0.988591 0.124801 -0.039487 151916.000000 0 0 1
34.036910 15.709131 25.728383 45.466886 0.432403 0.969307 0.118975 -0.038887 764372.000000 0 0 1
33.601810 15.185431 27.004683 45.704834 0.424452 0.938685 0.111378 -0.027911 257553.000000 0 0 1
32.739160 13.914331 26.885283 44.590129 0.401876 0.923612 0.101600 -0.028677 -43853.300000 0 0 1
33.600770 12.808631 26.644983 44.755200 0.364196 0.933096 0.108635 -0.025869 267786.000000 0 0 1
32.908130 11.610231 26.778783 43.986881 0.339174 0.916262 0.111207 -0.021267 -349615.000000 0 0 1
33.730970 10.368631 26.484883 44.121830 0.298225 0.926961 0.100911 -0.015074 -26471.000000 0 0 1
34.738000 10.082631 27.476883 45.424302 0.282486 0.921164 0.118913 -0.012776 490703.000000 0 0 1
35.288990 8.781431 27.166383 45.392055 0.243890 0.929190 0.121584 -0.007258 -135441.000000 0 0 1
36.321470 8.294931 28.184383 46.716319 0.224525 0.923152 0.109950 -0.003120 594922.000000 0 0 1
37.589210 8.977031 28.109683 47.787970 0.234428 0.941944 0.116447 -0.009433 1359770.000000 0 0 1
-36.659808 8.071031 28.586283 47.183245 -0.216703 0.919954 0.126142 -0.014418 227653.000000 0 0 1
-35.297200 8.696031 28.780683 46.366378 -0.241556 0.901132 0.129673 -0.020925 -537287.000000 0 0 1
-34.611779 9.040331 27.604183 45.185105 -0.255485 0.913583 0.119319 -0.018501 -169447.000000 0 0 1
-33.417268 9.732031 27.864983 44.585687 -0.283389 0.895696 0.097802 -0.011093 -22088.800000 0 0 1
-32.807648 10.444631 26.659183 43.544737 -0.308214 0.911925 0.086213 -0.006138 -230801.000000 0 0 1
-32.365578 9.563331 25.684683 42.410976 -0.287303 0.920259 0.089989 -0.003552 -90522.700000 0 0 1
-31.335878 10.096031 24.913183 41.286000 -0.311686 0.923002 0.080527 -0.002912 -272126.000000 0 0 1
-30.590938 9.099331 23.980083 39.920517 -0.289117 0.926425 0.083149 -0.008741 -74712.200000 0 0 1
-29.525758 9.632131 23.257983 38.800543 -0.315342 0.928015 0.075339 -0.019033 -163009.000000 0 0 1
-28.931888 8.702331 22.381083 37.599170 -0.292179 0.933214 0.060965 -0.010405 -198212.000000 0 0 1
-27.800288 9.164731 21.468983 36.301041 -0.318444 0.937984 0.053476 -0.008522 -791121.000000 0 0 1
-26.632778 9.624231 22.153483 35.954242 -0.346766 0.906941 0.060692 -0.014290 1040980.000000 0 0 1
-25.603068 10.197531 21.337183 34.853725 -0.379034 0.911966 0.052636 -0.006869 736828.000000 0 0 1
-24.962468 9.274531 20.250283 33.454681 -0.355733 0.920647 0.039287 -0.006859 -1002660.000000 0 0 1
-25.780808 9.140631 19.102383 33.363187 -0.340724 0.961173 0.036564 -0.005591 404988.000000 0 0 1
-25.150288 8.483531 18.008083 32.074886 -0.325328 0.974673 0.042335 -0.018176 -266493.000000 0 0 1
-24.864168 6.964931 18.158783 31.567048 -0.273119 0.957893 0.048534 -0.018525 -113742.000000 0 0 1
-23.717768 6.650031 18.957883 31.083062 -0.273363 0.914849 0.060478 -0.016283 780110.000000 0 0 1
-23.666168 5.337831 19.521883 31.139747 -0.221835 0.893213 0.080223 -0.024243 -230004.000000 0 0 1
-23.621768 4.147631 18.502883 30.291046 -0.173813 0.913679 0.091000 -0.029402 -116268.000000 0 0 1
-24.903968 3.911831 17.920383 30.929762 -0.155804 0.952817 0.114402 -0.031990 712658.000000 0 0 1
-24.974568 2.882631 16.879683 30.281386 -0.114914 0.979512 0.109967 -0.032650 -189889.000000 0 0 1
-24.891968 1.423531 17.446083 30.430286 -0.057126 0.960252 0.117235 -0.026475 -139800.000000 0 0 1
-23.594368 0.962831 17.759783 29.547100 -0.040785 0.925961 0.108414 -0.025674 315478.000000 0 0 1
-23.636768 -0.437369 18.171383 29.817566 0.018502 0.915469 0.123626 -0.021718 75219.700000 0 0 1
-22.207768 -0.981169 18.456083 28.892467 0.044153 0.877878 0.127814 -0.017521 255699.000000 0 0 1
-21.546668 -0.523969 19.624983 29.149158 0.024313 0.832186 0.117916 -0.016875 -582781.000000 0 0 1
-20.574768 -1.459069 19.942483 28.690636 0.070797 0.802256 0.121667 -0.017218 -82625.400000 0 0 1
-19.495168 -0.877469 20.913283 28.604142 0.044979 0.750823 0.124041 -0.018389 411702.000000 0 0 1
-20.014668 -0.867269 22.218783 29.916775 0.043305 0.733723 0.117937 -0.018464 -290350.000000 0 0 1
-19.050268 -0.678769 23.224983 30.046186 0.035615 0.687278 0.117120 -0.018796 -267831.000000 0 0 1
-19.665268 -0.513669 24.636983 31.527251 0.026115 0.673809 0.106642 -0.010323 321939.000000 0 0 1
-20.389268 0.679531 24.883583 32.177270 -0.033316 0.686723 0.103780 -0.030482 -812093.000000 0 0 1
-21.760768 0.562031 24.696283 32.920409 -0.025822 0.722460 0.082905 -0.027436 -1100290.000000 0 0 1
-22.499368 1.646631 25.477383 34.029840 -0.073055 0.724731 0.075265 -0.029934 -641226.000000 0 0 1
-22.341568 2.988431 25.012383 33.670398 -0.132972 0.733464 0.066364 -0.028775 371593.000000 0 0 1
-23.293568 3.419231 24.010683 33.627286 -0.145748 0.775568 0.069430 -0.031314 -374502.000000 0 0 1
-22.790668 4.471831 22.929583 32.637059 -0.193752 0.791804 0.075388 -0.028759 127824.000000 0 0 1
-22.144268 3.883731 21.807383 31.321142 -0.173617 0.800635 0.088321 -0.027389 527256.000000 0 0 1
-20.857568 3.333531 22.051883 30.535817 -0.158483 0.763870 0.099073 -0.027003 -409591.000000 0 0 1
-20.228868 2.535131 20.896383 29.194055 -0.124672 0.773063 0.101743 -0.029786 37145.700000 0 0 1
-19.616168 3.352331 19.878983 28.128387 -0.169261 0.785940 0.096915 -0.016443 151970.000000 0 0 1
-19.156768 2.656931 18.777483 26.956167 -0.137815 0.800158 0.105871 -0.028364 -88789.300000 0 0 1
-18.777168 3.433331 17.536383 25.920928 -0.180848 0.827751 0.085271 -0.025005 607713.000000 0 0 1
-17.441768 3.958431 17.478383 25.007565 -0.223171 0.796905 0.105967 -0.034519 553493.000000 0 0 1
-17.212668 4.546731 16.243583 24.099848 -0.258252 0.831170 0.109417 -0.030189 -95776.900000 0 1 0
-15.738268 4.926531 15.983183 22.965756 -0.303367 0.801044 0.115736 -0.030617 276403.000000 0 1 0
-15.131568 5.945731 16.860183 23.421824 -0.374402 0.767211 0.103721 -0.037942 480820.000000 0 1 0
-15.683268 7.250931 16.832883 24.122331 -0.433065 0.798456 0.108966 -0.042235 -602342.000000 0 1 0
-15.462968 8.125531 15.528283 23.372103 -0.483826 0.844114 0.067384 -0.034768 -65887.100000 0 1 0
-16.042368 7.662331 14.333183 22.836572 -0.445593 0.892276 0.106283 -0.029686 166801.000000 0 1 0
-17.437468 7.818931 14.199783 23.808293 -0.421521 0.931761 0.077512 -0.031433 -111083.000000 0 1 0
-17.980768 6.949131 13.015483 23.259433 -0.368793 0.976919 0.085941 -0.031680 -301.367000 0 1 0
-17.749068 5.593531 13.344783 22.899787 -0.305293 0.948691 0.092205 -0.028268 355264.000000 0 1 0
-18.300868 4.737231 12.336383 22.573203 -0.253293 0.992610 0.090564 -0.033228 223490.000000 0 1 0
-17.951468 3.225431 12.529583 22.128015 -0.177778 0.968870 0.083299 -0.019629 -157903.000000 0 1 0
-18.418268 2.694631 13.761783 23.149089 -0.145271 0.934171 0.086987 -0.028459 257288.000000 0 1 0
-18.082968 1.323631 13.908783 22.851695 -0.073067 0.916433 0.084225 -0.022493 232968.000000 0 1 0
-19.164868 0.563531 14.728783 24.177402 -0.029396 0.915750 0.111504 -0.030908 1044860.000000 0 1 0
-20.451668 0.410531 14.123483 24.857836 -0.020071 0.966516 0.121623 -0.029053 506885.000000 0 1 0
-21.500668 0.271431 15.061883 26.252861 -0.012624 0.959752 0.123608 -0.035052 846984.000000 0 0 1
-22.866568 0.168831 14.265983 26.952304 -0.007383 1.013015 0.124336 -0.032263 447129.000000 0 0 1
-22.917668 -1.016669 13.501783 26.618626 0.044333 1.038828 0.135316 -0.033579 412850.000000 0 0 1
-24.126568 -1.268869 12.811483 27.346579 0.052544 1.083220 0.132587 -0.027598 -79457.100000 0 0 1
-23.978168 -2.377569 11.874483 26.862776 0.098833 1.112922 0.138535 -0.039413 -147466.000000 0 0 1
-23.778968 -3.614769 12.535783 27.122900 0.150860 1.090339 0.121262 -0.027845 356522.000000 0 0 1
-23.683568 -4.771569 11.718183 26.851351 0.198810 1.119192 0.114281 -0.022458 48057.400000 0 0 1
-23.384168 -6.062969 12.466583 27.184455 0.253690 1.094386 0.105298 -0.016583 241825.000000 0 0 1
-24.521268 -6.363769 13.258783 28.593451 0.253919 1.088630 0.105426 -0.013748 437737.000000 0 0 1
-24.788768 -7.736969 13.240083 29.148645 0.302535 1.099293 0.117426 -0.019337 -246980.000000 0 0 1
-25.792218 -8.025069 14.360383 30.591843 0.301648 1.082164 0.140638 -0.013238 -271692.000000 0 0 1
-27.081898 -7.570769 14.056983 31.437947 0.272592 1.107237 0.146656 -0.009421 457920.000000 0 0 1
-28.010008 -7.727769 15.169483 32.777922 0.269196 1.089650 0.151474 -0.003309 618832.000000 0 0 1
-29.448298 -7.163469 15.018783 33.824272 0.238621 1.110712 0.159160 -0.013368 -91751.600000 0 0 1
-30.328798 -7.696169 14.046483 34.298261 0.248512 1.148847 0.153491 0.001348 712979.000000 0 0 1
-30.847218 -9.044669 14.268783 35.170372 0.285215 1.153047 0.145937 -0.003365 94640.700000 0 0 1
-31.450018 -9.369269 15.648183 36.355914 0.289538 1.125842 0.142081 -0.013816 -1265800.000000 0 0 1
-30.363828 -9.517969 16.475583 35.832926 0.303763 1.093039 0.144059 0.006318 -385827.000000 0 0 1
-30.657668 -10.293569 17.677883 36.855905 0.323932 1.070542 0.134599 0.005693 -846364.000000 0 0 1
-29.470878 -10.547269 18.531083 36.375522 0.343684 1.036264 0.166376 -0.015033 -1052230.000000 0 0 1
-28.587258 -11.537769 18.136783 35.767224 0.383605 1.039005 0.170579 -0.015003 262642.000000 0 0 1
-27.336018 -11.461269 18.842983 35.123732 0.397010 1.004542 0.171615 -0.029053 -36694.000000 0 0 1
-26.378918 -12.436569 18.256783 34.406768 0.440555 1.011469 0.146891 -0.021084 -970340.000000 0 0 1
-25.921398 -12.160969 16.987083 33.292177 0.438663 1.035330 0.135222 -0.021648 467057.000000 0 0 1
-24.859468 -13.041969 16.593783 32.610424 0.483155 1.036949 0.120144 -0.024168 403181.000000 0 0 1
-24.237168 -12.787469 15.207083 31.340310 0.485481 1.064177 0.115535 -0.022066 -308454.000000 0 0 1
-23.266468 -11.774269 15.143883 30.154587 0.468485 1.044646 0.101116 -0.028422 -420638.000000 0 0 1
-22.658768 -11.793669 13.864283 29.064217 0.479905 1.073533 0.102265 -0.014572 244225.000000 0 0 1
-21.388468 -10.918169 13.919983 27.756781 0.471988 1.045466 0.088090 -0.019919 -261827.000000 0 0 1
-21.733268 -9.541369 13.939383 27.525971 0.413687 1.039782 0.087663 -0.026153 -88049.200000 0 0 1
-20.671268 -8.667569 13.644983 26.241449 0.397037 1.023971 0.079659 -0.025582 -270584.000000 0 0 1
-20.193168 -8.658769 12.167283 25.115356 0.405082 1.065055 0.100787 -0.016345 -715663.000000 0 0 1
-19.495468 -9.778669 11.853383 24.823342 0.464916 1.072978 0.090247 -0.023491 -363111.000000 0 1 0
-19.250468 -9.699869 10.460983 23.960387 0.466744 1.118986 0.100698 -0.013425 -645490.000000 0 1 0
-18.555268 -10.892069 9.804083 23.644348 0.530811 1.143240 0.083514 -0.014123 567275.000000 0 1 0
-17.145268 -11.019069 9.941983 22.676488 0.571218 1.116949 0.097553 -0.022110 533790.000000 0 1 0
-16.636768 -11.386569 11.195883 23.060438 0.600194 1.063859 0.095757 -0.018090 80253.200000 0 1 0
-15.158568 -11.879369 11.244083 22.300919 0.664706 1.042343 0.108981 -0.018365 555272.000000 0 1 0
-14.935368 -13.227769 10.858383 22.714391 0.724840 1.072375 0.102785 -0.024991 -1674480.000000 0 1 0
-13.601368 -13.441969 10.892283 22.007398 0.779504 1.053034 0.123301 -0.029287 -1640620.000000 0 1 0
-13.112668 -14.928269 10.917883 22.671468 0.850056 1.068352 0.129013 -0.029439 -129253.000000 0 1 0
-13.200568 -15.515769 9.642583 22.538267 0.865847 1.128704 0.097341 -0.032392 175308.000000 0 1 0
-12.922268 -16.891769 9.736083 23.390344 0.917762 1.141486 0.078084 -0.026188 20349.000000 0 1 0
-13.310968 -17.796869 8.485283 23.788872 0.928616 1.206073 0.061433 -0.016962 156962.000000 0 1 0
-12.541368 -17.543769 7.279583 22.760977 0.950166 1.245249 0.078935 -0.030929 384771.000000 0 1 0
-12.887768 -18.448269 6.282083 23.364455 0.961018 1.298573 0.063531 -0.019856 17687.000000 0 1 0
-11.983968 -18.131669 5.086983 22.321521 0.986768 1.340880 0.063920 -0.022529 44889.900000 0 1 0
-12.334668 -18.903669 3.954083 22.915661 0.992665 1.397379 0.075054 -0.021464 203672.000000 0 1 0
-11.340768 -18.791469 2.966683 22.147992 1.027803 1.436444 0.080671 -0.028365 30031.900000 0 1 0
-11.601468 -19.678469 1.745683 22.910338 1.038095 1.494526 0.087412 -0.033235 164291.000000 0 1 0
-11.171868 -21.082669 1.910283 23.936139 1.083510 1.490904 0.078724 -0.034263 -129549.000000 0 1 0
-11.697068 -22.008169 0.973683 24.942513 1.082277 1.531749 0.086290 -0.036893 -320777.000000 0 1 0
-11.103768 -22.061769 -0.416717 24.702003 1.104509 1.587667 0.110188 -0.038803 -443527.000000 0 1 0
-11.144268 -20.850669 -1.169317 23.670919 1.079947 1.620215 0.108338 -0.058594 373140.000000 0 1 0
-12.242768 -20.738569 -2.089417 24.173110 1.037511 1.657340 0.114890 -0.052333 125952.000000 0 1 0
-13.476468 -20.017369 -1.563017 24.181672 0.978258 1.635478 0.132137 -0.042390 -499632.000000 0 1 0
-14.227868 -20.841669 -0.717917 25.245253 0.971800 1.599238 0.129850 -0.028782 387748.000000 0 0 1
-15.474668 -20.291069 -0.283017 25.520049 0.919258 1.581887 0.152785 -0.000804 443485.000000 0 0 1
26.518732 -19.584869 -4.472817 33.268849 -0.636120 1.705649 0.110362 -0.030888 -457879.000000 0 0 1
25.557332 -19.710869 -3.468417 32.461138 -0.656957 1.677849 0.105779 -0.035510 -131108.000000 0 0 1
25.792432 -20.868369 -2.689917 33.286244 -0.680258 1.651696 0.106813 -0.034070 -157738.000000 0 0 1
24.491232 -21.244869 -1.961817 32.480973 -0.714537 1.631232 0.088978 -0.023147 -104703.000000 0 0 1
23.541432 -21.764469 -2.853917 32.187513 -0.746197 1.659578 0.090081 -0.026419 112537.000000 0 0 1
22.427832 -22.345469 -2.166617 31.733608 -0.783559 1.639125 0.064313 -0.016950 148634.000000 0 0 1
21.317732 -22.842369 -3.069117 31.394888 -0.819910 1.668711 0.068596 -0.022977 68112.600000 0 0 1
20.402432 -21.866969 -3.615017 30.124606 -0.820032 1.691088 0.069229 -0.028910 602341.000000 0 0 1
19.387232 -22.606169 -4.315817 30.092024 -0.861902 1.714713 0.070171 -0.025563 617768.000000 0 0 1
18.285132 -21.717269 -5.011017 28.828738 -0.870987 1.745504 0.058524 -0.012627 926507.000000 0 0 1
17.278532 -21.142469 -4.129517 27.615296 -0.885630 1.720897 0.062438 -0.009190 791444.000000 0 0 1
17.759632 -20.173769 -3.222317 27.069703 -0.848954 1.690117 0.063070 -0.013099 -356131.000000 0 0 1
16.614332 -19.653769 -2.320417 25.839718 -0.869007 1.660718 0.070706 -0.004260 233349.000000 0 0 1
16.196332 -20.686669 -1.462017 26.313437 -0.906547 1.626387 0.078107 -0.012083 -254185.000000 0 0 1
15.251632 -20.230669 -0.540017 25.341347 -0.924812 1.592108 0.075967 -0.005676 -316424.000000 0 0 1
14.926932 -21.082969 0.691983 25.841512 -0.954715 1.544015 0.081124 -0.005669 200790.000000 0 0 1
13.983632 -22.127769 0.482083 26.180384 -1.007215 1.552381 0.068656 -0.008270 57096.100000 0 0 1
13.375432 -22.519669 1.682583 26.246309 -1.034841 1.506645 0.068294 -0.007443 645266.000000 0 0 1
12.304532 -23.662269 1.541883 26.714825 -1.091272 1.513048 0.075813 -0.013266 591553.000000 0 0 1
12.942032 -24.898369 1.713683 28.113372 -1.091439 1.509802 0.095799 -0.014485 329618.000000 0 0 1
12.054132 -25.982449 1.504183 28.681916 -1.136416 1.518329 0.090634 -0.014643 150405.000000 0 0 1
12.539232 -27.256839 2.217683 30.084643 -1.139625 1.497015 0.098813 -0.009152 108726.000000 0 0 1
12.282232 -27.202229 3.653183 30.069257 -1.146683 1.449003 0.105328 -0.014853 230246.000000 0 0 1
12.720932 -28.417699 4.281683 31.428022 -1.149906 1.434134 0.099594 -0.015900 91101.100000 0 0 1
12.418432 -28.465049 5.800183 31.593015 -1.159419 1.386158 0.104905 -0.015429 -98636.800000 0 0 1
12.580732 -29.726749 6.372083 32.902247 -1.170441 1.375898 0.089170 -0.015502 -206179.000000 0 0 1
12.488732 -29.685839 7.779383 33.132103 -1.172576 1.333785 0.092010 -0.018437 125466.000000 0 0 1
12.807332 -31.086809 8.314283 34.634445 -1.180000 1.328370 0.085773 -0.019108 159014.000000 0 0 1
12.782432 -31.239949 9.697383 35.119286 -1.182410 1.291034 0.084109 -0.015143 -244530.000000 0 0 1
11.970332 -32.324739 10.023483 35.897741 -1.216139 1.287811 0.080490 -0.014572 -73233.800000 0 0 1
11.822332 -32.308629 11.556083 36.292673 -1.220011 1.246741 0.078422 -0.013361 1080900.000000 0 0 1
12.991132 -32.920419 12.208883 37.437686 -1.194934 1.238608 0.079429 -0.017680 1218900.000000 0 0 1
12.851932 -33.204739 13.600183 38.114195 -1.201502 1.205927 0.084402 -0.021322 120639.000000 0 0 1
11.811232 33.369833 13.986083 38.061286 1.230607 1.194518 0.080435 -0.023524 217907.000000 0 0 1
11.948832 32.125539 13.383783 36.796067 1.214709 1.198529 0.087032 -0.026569 596341.000000 0 0 1
10.827932 31.262267 13.705183 35.810690 1.237370 1.178066 0.091344 -0.026431 810902.000000 0 0 1
10.789032 30.047647 12.699983 34.359189 1.226069 1.192192 0.094028 -0.024880 -110995.000000 0 0 1
10.557232 30.353057 11.306883 34.067710 1.236070 1.232485 0.076767 -0.020644 -186043.000000 0 0 1
11.472532 31.165277 10.620583 34.866751 1.218072 1.261273 0.056914 -0.015300 -306721.000000 0 0 1
11.003632 31.515177 9.169283 34.617367 1.234876 1.302722 0.044576 -0.013987 566711.000000 0 0 1
9.798732 32.276710 9.080683 34.932220 1.276054 1.307824 0.055213 -0.018909 142240.000000 0 0 1
9.188732 32.294195 7.792983 34.468514 1.293590 1.342735 0.044492 -0.013926 -12051.200000 0 0 1
9.646832 33.375267 6.789783 35.398743 1.289423 1.377792 0.053642 -0.010796 -192517.000000 0 0 1
9.110632 -33.055329 7.136883 35.022757 -1.301856 1.365581 0.059344 -0.012576 -236895.000000 0 0 1
9.508232 -32.033179 6.247183 33.993504 -1.282255 1.385970 0.087684 -0.018655 139879.000000 0 0 1
8.742032 -30.709949 6.525783 32.590028 -1.293467 1.369195 0.085851 -0.015879 169630.000000 0 0 1
8.964032 -30.192849 7.807683 32.448758 -1.282193 1.327796 0.098281 -0.017899 282990.000000 0 0 1
8.156532 -29.014369 8.067183 31.200033 -1.296749 1.309262 0.106521 -0.017782 379294.000000 0 0 1
8.745632 -27.601269 7.736783 29.969550 -1.263948 1.309685 0.118807 -0.023141 -470791.000000 0 0 1
9.614832 -27.087289 8.718783 30.036368 -1.229712 1.276283 0.122847 -0.026079 -117493.000000 0 0 1
10.448832 -26.060819 8.180683 29.244965 -1.189480 1.287284 0.122938 -0.029775 -128281.000000 0 0 1
9.945632 -24.815469 7.438983 27.749983 -1.189615 1.299405 0.104904 -0.032185 -631741.000000 0 0 1
9.740032 -25.133109 6.100883 27.636247 -1.201079 1.348206 0.093905 -0.028433 14237.600000 0 0 1
8.876032 -24.179669 5.483183 26.334495 -1.218981 1.361049 0.088481 -0.030940 477613.000000 0 0 1
8.493732 -24.612269 4.037983 26.347914 -1.238492 1.416934 0.078389 -0.023478 921756.000000 0 0 1
7.650332 -25.809459 3.763383 27.181222 -1.282631 1.431895 0.062534 -0.020938 635915.000000 0 0 1
8.305232 -27.066209 3.784383 28.563580 -1.273068 1.437916 0.077503 -0.021020 507285.000000 0 0 1
7.264532 -28.224499 3.603483 29.366322 -1.318880 1.447778 0.069594 -0.014437 -105532.000000 0 0 1
6.250632 -28.271819 4.551783 29.310150 -1.353206 1.414868 0.058467 -0.011059 -977493.000000 0 0 1
5.181432 -29.098079 4.224683 29.856212 -1.394576 1.428819 0.047492 -0.011375 -160978.000000 0 0 1
5.431132 -30.661159 4.297583 31.433630 -1.395481 1.433647 0.049495 -0.011237 -160992.000000 0 0 1
6.386532 -31.245069 3.423883 32.074368 -1.369172 1.463844 0.054039 -0.005142 42538.700000 0 0 1
6.445132 -32.634819 3.676283 33.467689 -1.375813 1.460728 0.049379 -0.007194 -442739.000000 0 0 1
7.555232 -33.366459 2.931383 34.336498 -1.348119 1.485320 0.050232 -0.008707 -428140.000000 0 0 1
7.329332 -33.662019 1.558183 34.485918 -1.356409 1.525598 0.058445 -0.010189 23194.100000 0 0 1
8.311532 33.097911 1.079283 34.142615 1.324764 1.539180 0.045778 -0.010483 -105559.000000 0 0 1
7.937532 32.595699 -0.352217 33.550083 1.331931 1.581295 0.054826 -0.009079 776566.000000 0 0 1
6.797632 31.727053 -0.450217 32.450214 1.359734 1.584671 0.042445 -0.005232 139172.000000 0 0 1
5.560032 32.385310 -0.442717 32.862110 1.400770 1.584269 0.048532 -0.008954 -684281.000000 0 0 1
4.329332 31.513887 -0.223417 31.810661 1.434272 1.577820 0.050874 -0.012534 -194118.000000 0 0 1
3.989332 30.612217 -1.247617 30.896265 1.441208 1.611188 0.055756 -0.010196 324980.000000 0 0 1
2.821332 29.846097 -0.926817 29.993473 1.476547 1.601702 0.058253 -0.020078 618875.000000 0 0 1
2.581532 28.688977 -1.919217 28.868757 1.481055 1.637326 0.059622 -0.020441 -46385.700000 0 0 1
2.339732 29.268127 -3.226717 29.538269 1.491025 1.680253 0.070782 -0.028200 98767.200000 0 0 1
2.066732 28.320497 -4.237917 28.710310 1.497949 1.718947 0.076960 -0.035252 -431691.000000 0 0 1
1.839432 28.976557 -5.597117 29.569445 1.507401 1.761232 0.087478 -0.036445 780540.000000 0 0 1
0.519332 29.535967 -5.747017 30.094373 1.553215 1.762943 0.100945 -0.037987 920077.000000 0 0 1
0.459032 30.358407 -6.936817 31.144229 1.555677 1.795412 0.097614 -0.036972 -184840.000000 0 0 1
0.483232 29.621517 -8.304917 30.767506 1.554484 1.844111 0.113875 -0.039109 -982112.000000 0 0 1
-0.737168 28.975617 -8.513917 30.209545 -1.545361 1.856496 0.109298 -0.030081 -235198.000000 0 0 1
-1.062968 28.678907 -9.878117 30.351059 -1.533749 1.902297 0.113528 -0.028780 98906.500000 0 0 1
-1.185968 29.815487 -10.860117 31.753928 -1.531040 1.919850 0.090093 -0.027403 -834722.000000 0 0 1
0.035832 30.473567 -11.046017 32.413794 1.569620 1.918544 0.094961 -0.034305 -505032.000000 0 0 1
-0.121768 31.744111 -11.565217 33.785465 -1.566960 1.920174 0.084749 -0.036270 -5242.880000 0 0 1
-0.202968 32.863512 -10.504317 34.502062 -1.564620 1.880162 0.084854 -0.038317 -532761.000000 0 0 1
0.958732 33.111709 -9.815017 34.549081 1.541850 1.858853 0.080360 -0.039030 -692937.000000 0 0 1
0.525632 -33.758679 -8.693417 34.864024 -1.555227 1.822807 0.068022 -0.029533 772162.000000 0 0 1
1.690532 -33.344179 -7.729117 34.269978 -1.520140 1.798290 0.059149 -0.026185 933211.000000 0 0 1
2.730232 -32.568359 -8.334917 33.728667 -1.487161 1.820500 0.061468 -0.018769 -184361.000000 0 0 1
3.665632 -32.207759 -7.388117 33.246968 -1.457472 1.794886 0.060948 -0.016973 -845769.000000 0 0 1
4.983132 -31.546769 -7.931317 32.907993 -1.414131 1.814208 0.061965 -0.015030 885515.000000 0 0 1
5.912032 -32.363859 -8.624117 34.010982 -1.390115 1.827164 0.071993 -0.014506 231995.000000 0 0 1
6.469232 -33.350419 -7.804917 34.857110 -1.379198 1.796623 0.072564 -0.004723 -1659490.000000 0 0 1
6.905232 33.027794 -8.612917 34.823839 1.364692 1.820718 0.065560 -0.013252 422257.000000 0 0 1
5.935432 32.045279 -9.051817 33.824025 1.387652 1.841713 0.054661 -0.017981 343816.000000 0 0 1
4.848132 32.537654 -9.842017 34.337569 1.422884 1.861499 0.073242 -0.021641 613488.000000 0 0 1
3.741032 31.457057 -10.034217 33.229915 1.452427 1.877548 0.059917 -0.035121 -9809.920000 0 0 1
4.052132 30.473787 -11.014817 32.655745 1.438601 1.914845 0.055735 -0.029089 -225548.000000 0 0 1
3.182332 29.366297 -10.991617 31.517016 1.462851 1.927035 0.055426 -0.035366 -114354.000000 0 0 1
3.780632 28.082797 -11.653117 30.638731 1.436976 1.960960 0.057252 -0.039353 -88937.400000 0 0 1
3.945032 28.242047 -13.049517 31.360268 1.432008 1.999966 0.058804 -0.035938 520106.000000 0 0 1
5.265232 27.993427 -13.546817 31.541574 1.384880 2.014725 0.059814 -0.047839 445484.000000 0 0 1
5.375332 28.452637 -14.989517 32.605711 1.384075 2.048477 0.065084 -0.044517 -164900.000000 0 0 1
4.518332 27.779817 -15.883917 32.317679 1.409560 2.084600 0.070576 -0.037333 -11256.000000 0 0 1
4.351532 28.572697 -17.052417 33.557708 1.419661 2.103834 0.105785 -0.038789 531248.000000 0 0 1
3.314632 27.889827 -18.022817 33.371413 1.452504 2.141314 0.087280 -0.039901 557909.000000 0 0 1
3.822332 26.711547 -18.537017 32.737409 1.428665 2.172725 0.099493 -0.028914 50617.800000 0 0 1
2.861432 26.162687 -19.412917 32.703751 1.461859 2.206320 0.107652 -0.040995 391513.000000 0 0 1
3.448232 24.919407 -20.123217 32.215074 1.433294 2.245482 0.117724 -0.046486 297926.000000 0 0 1
3.757832 23.901617 -19.131117 30.844906 1.414852 2.239840 0.113952 -0.048421 66692.500000 0 0 1
4.793032 23.053847 -19.566417 30.615318 1.365811 2.264131 0.108983 -0.045386 -75377.000000 0 0 1
5.035332 21.918627 -18.538517 29.145452 1.344986 2.260189 0.111929 -0.036501 333120.000000 0 0 1
4.038032 20.883227 -18.556117 28.226660 1.379791 2.288155 0.131918 -0.038255 204383.000000 0 0 1
4.507932 19.699627 -18.014217 27.072288 1.345836 2.298842 0.113532 -0.030067 -6697.140000 0 0 1
3.372232 18.656727 -17.844817 26.036185 1.391976 2.325929 0.095277 -0.036582 570393.000000 0 0 1
2.546132 18.858027 -16.675517 25.301795 1.436592 2.290371 0.104298 -0.034165 159704.000000 0 0 1
1.737332 17.765427 -16.265517 24.149446 1.473313 2.309778 0.068781 -0.023936 -95596.000000 0 1 0
2.346632 16.647927 -15.444617 22.829725 1.430762 2.313814 0.055844 -0.025854 -168725.000000 0 1 0
3.472732 15.937927 -15.905717 22.783091 1.356258 2.343588 0.070249 -0.031345 -166216.000000 0 1 0
3.137732 14.845727 -16.775217 22.619657 1.362506 2.406280 0.084490 -0.037494 -187078.000000 0 1 0
3.066532 15.173527 -18.348217 24.006178 1.371385 2.440770 0.075010 -0.030671 359117.000000 0 1 0
4.400232 15.387027 -18.850917 24.728116 1.292260 2.437698 0.105504 -0.034082 690113.000000 0 1 0
4.440232 16.025127 -20.126017 26.107028 1.300498 2.451056 0.099680 -0.037453 -631242.000000 0 0 1
4.623232 15.098727 -21.389617 26.586868 1.273661 2.505660 0.107679 -0.042220 -133900.000000 0 0 1
3.663832 14.094127 -21.521317 25.985287 1.316471 2.546705 0.088658 -0.032032 240772.000000 0 0 1
2.340632 14.553327 -21.831717 26.342015 1.411331 2.547719 0.087693 -0.039011 556718.000000 0 0 1
1.511332 13.369427 -22.481317 26.199910 1.458230 2.602293 0.078071 -0.026502 309620.000000 0 0 1
0.997132 12.371627 -21.578217 24.893189 1.490372 2.619610 0.070214 -0.022305 337477.000000 0 1 0
0.067332 11.570127 -22.332817 25.152079 1.564977 2.663581 0.029499 -0.011302 177156.000000 0 0 1
-0.605868 10.584027 -21.320017 23.810330 -1.513615 2.680148 0.007166 -0.008356 -584656.000000 0 1 0
-1.553768 11.229727 -20.474817 23.403826 -1.433307 2.635921 0.016978 -0.009886 35336.000000 0 1 0
-2.153668 10.430127 -19.488817 22.209003 -1.367173 2.641460 0.009985 -0.005522 414151.000000 0 1 0
-3.229268 9.411527 -19.992717 22.331899 -1.240265 2.679797 0.015890 -0.009823 -642351.000000 0 1 0
-2.734968 8.366127 -20.798817 22.584572 -1.254838 2.741257 0.013098 -0.004524 -71448.800000 0 1 0
-3.729668 7.351927 -21.015417 22.574521 -1.101322 2.767762 0.021136 -0.005252 151885.000000 0 1 0
-3.105768 6.094627 -21.638017 22.693480 -1.099505 2.835408 0.024045 -0.019574 2544.540000 0 1 0
-2.417568 5.190827 -20.768017 21.542977 -1.134932 2.872555 0.024211 -0.018705 150378.000000 0 1 0
-2.144668 4.019427 -21.469317 21.947368 -1.080651 2.932493 0.042406 -0.024541 -657052.000000 0 1 0
-1.222968 3.140827 -20.657117 20.930287 -1.199481 2.979853 0.042094 -0.026219 -49825.800000 0 1 0
0.164232 3.342627 -20.929117 21.195001 1.521703 2.983031 0.034485 -0.013592 238230.000000 0 1 0
0.907532 2.497327 -20.058017 20.233247 1.222233 3.009888 0.038607 -0.013932 1142140.000000 0 1 0
2.458432 2.421827 -20.336217 20.626945 0.777898 2.973499 0.033640 -0.011863 886691.000000 0 1 0
2.968832 1.875327 -21.445317 21.730909 0.563383 2.979290 0.055177 -0.014214 551655.000000 0 1 0
4.410732 1.866227 -21.414017 21.943051 0.400269 2.921561 0.073584 -0.009666 771051.000000 0 1 0
5.005132 1.253227 -22.670217 23.249960 0.245344 2.917809 0.080176 -0.010507 236050.000000 0 1 0
6.426932 1.370127 -22.539517 23.477916 0.210041 2.857908 0.087630 -0.019994 517342.000000 0 1 0
6.999632 0.514127 -23.525417 24.550039 0.073319 2.851663 0.091602 -0.024150 462666.000000 0 1 0
8.542932 0.330127 -23.301617 24.820476 0.038624 2.789944 0.086825 -0.035736 831614.000000 0 1 0
9.234732 1.561327 -23.495317 25.293239 0.167487 2.762273 0.096173 -0.042174 -737331.000000 0 0 1
10.500132 1.571727 -22.947117 25.284249 0.148583 2.708246 0.108972 -0.044055 -973695.000000 0 0 1
13.590732 -20.381469 22.052388 32.960887 -0.982689 0.837870 0.125932 -0.014501 -1117730.000000 0 0 1
12.820132 -21.503269 21.938088 33.287026 -1.033180 0.851230 0.109031 -0.005884 -496816.000000 0 0 1
11.480932 -21.382369 21.530688 32.443613 -1.078039 0.845130 0.085779 0.004066 30744.500000 0 0 1
11.335432 -20.923469 20.082988 31.138561 -1.074304 0.869831 0.122553 -0.019365 -1208790.000000 0 0 1
11.478832 -19.529669 19.845188 30.116491 -1.039423 0.851378 0.162458 -0.021719 -39988.700000 0 0 1
11.396332 -19.268369 18.484188 29.031218 -1.036685 0.880585 0.154979 -0.024496 125215.000000 0 0 1
11.595932 -17.770469 18.090788 27.884258 -0.992638 0.864814 0.184286 -0.039292 -877141.000000 0 0 1
10.490032 -17.089669 18.479288 27.268694 -1.020275 0.826201 0.209739 -0.045254 -1182040.000000 0 0 1
10.457032 -15.779969 17.962388 26.096060 -0.985560 0.811628 0.233289 -0.049176 471728.000000 0 0 1
9.270232 -14.934169 18.526588 25.538228 -1.015266 0.759115 0.196098 -0.048427 307428.000000 0 0 1
8.001532 -15.315969 18.051688 24.989335 -1.089366 0.763565 0.149955 -0.041552 -431820.000000 0 1 0
7.052932 -14.382269 18.543488 24.504172 -1.114866 0.712472 0.107680 -0.034833 -198459.000000 0 1 0
5.611932 -14.846469 18.323488 24.241733 -1.209400 0.713821 0.029009 -0.016406 -369898.000000 0 1 0
5.226232 -14.678269 16.948388 23.022010 -1.228740 0.743385 0.004650 -0.016272 1340070.000000 0 1 0
3.830532 -15.019069 16.688388 22.776034 -1.321075 0.748490 -0.018647 -0.004929 1412120.000000 0 1 0
3.482632 -16.501469 16.284888 23.444078 -1.362799 0.802895 -0.016054 -0.006912 -180203.000000 0 1 0
2.086632 -16.653869 16.203688 23.329486 -1.446152 0.802991 -0.020118 0.006028 -447677.000000 0 1 0
1.686132 -17.993269 16.083988 24.192880 -1.477360 0.843539 -0.002755 -0.006111 1841640.000000 0 1 0
0.162632 -18.067369 15.598888 23.870098 -1.561795 0.858609 0.024776 0.000745 1136740.000000 0 1 0
0.156132 -17.718269 14.256588 22.742290 -1.561985 0.893260 0.021904 -0.000060 8532.170000 0 1 0
-1.147468 -17.698769 13.714388 22.419803 1.506054 0.912578 0.034329 -0.004579 -127272.000000 0 1 0
-1.602168 -18.927469 12.977988 23.005308 1.486350 0.971417 0.032413 0.008069 -1215900.000000 0 1 0
-2.978368 -19.045669 12.984688 23.242425 1.415672 0.978023 0.044497 -0.005973 -920659.000000 0 1 0
-3.375768 -20.236969 12.315388 23.929051 1.405506 1.030182 0.055509 -0.013309 60215.500000 0 1 0
-4.892468 -20.456669 12.168888 24.300070 1.336043 1.046301 0.066999 -0.023682 116936.000000 0 1 0
-5.512568 -20.937369 13.356688 25.439397 1.313351 1.018035 0.070525 -0.027880 -399569.000000 0 0 1
-6.901468 -21.026069 13.206088 25.770654 1.253642 1.032765 0.073858 -0.031196 -559557.000000 0 0 1
-7.530368 -21.749769 14.405288 27.152739 1.237486 1.011573 0.070018 -0.023888 -935093.000000 0 0 1
-8.885968 -21.531269 14.514488 27.444969 1.179389 1.013542 0.066123 -0.025933 -1168830.000000 0 0 1
-9.592868 -22.389969 15.374388 28.804611 1.166011 1.007770 0.072311 -0.022817 376688.000000 0 0 1
-11.089368 -21.990469 15.403288 29.048513 1.103730 1.011888 0.078735 -0.025251 225319.000000 0 0 1
-11.245968 -20.705669 16.019388 28.492408 1.073239 0.973712 0.083533 -0.023234 -333181.000000 0 0 1
-12.562268 -20.225269 15.809488 28.579923 1.014994 0.984635 0.071863 -0.022220 128637.000000 0 0 1
-12.927768 -19.117569 16.794988 28.542604 0.976206 0.941695 0.086241 -0.024657 -388345.000000 0 0 1
-13.040568 -19.499169 18.140088 29.653614 0.981335 0.912547 0.083156 -0.031101 27446.900000 0 0 1
-13.448068 -18.330869 18.882588 29.553738 0.937855 0.877698 0.089134 -0.028622 -152175.000000 0 0 1
-14.025468 -18.719369 20.237388 30.930251 0.927776 0.857551 0.091088 -0.038045 67642.100000 0 0 1
-15.320468 -19.279969 20.117188 31.798352 0.899338 0.885828 0.081872 -0.033151 74265.100000 0 0 1
-15.684268 -19.750669 21.393688 33.072270 0.899655 0.867314 0.101911 -0.031756 314204.000000 0 0 1
-17.028868 -20.545469 21.406988 34.210492 0.878717 0.894712 0.113170 -0.036355 -341016.000000 0 0 1
-17.012168 -21.736169 20.662088 34.478932 0.906714 0.928211 0.126179 -0.044119 -29607.800000 0 0 1
-18.201468 -21.904269 19.935088 34.763460 0.877463 0.960086 0.102873 -0.036438 278134.000000 0 0 1
-19.405168 -22.522269 20.732888 36.244528 0.859607 0.961820 0.103039 -0.034102 -125733.000000 0 0 1
-19.923568 -21.545369 21.614388 36.446306 0.824487 0.935958 0.110184 -0.032934 -889215.000000 0 0 1
-20.869768 -22.063769 22.470088 37.779121 0.813201 0.933810 0.083518 -0.028480 -765791.000000 0 0 1
-21.488868 -20.851669 23.142838 37.843817 0.770350 0.912796 0.074408 -0.014720 -450187.000000 0 0 1
-22.427168 -20.127469 22.401888 37.549134 0.731410 0.931536 0.075390 -0.013546 -157338.000000 0 0 1
-22.849968 -19.034369 23.170938 37.700406 0.694550 0.908908 0.067658 -0.013427 440458.000000 0 0 1
-23.720168 -18.066169 22.282288 37.222751 0.650908 0.929019 0.086185 -0.009865 576056.000000 0 0 1
-22.915868 -17.452569 21.304288 35.827390 0.650880 0.933982 0.084293 -0.010240 267732.000000 0 0 1
-23.762168 -16.680769 20.444888 35.508902 0.612059 0.957253 0.101033 -0.019695 487394.000000 0 0 1
-23.082168 -16.068269 19.182488 34.043261 0.608126 0.972212 0.116077 -0.012104 -392978.000000 0 0 1
-22.211368 -15.012969 19.397188 33.090558 0.594377 0.944454 0.120056 -0.009379 -599333.000000 0 0 1
-21.713768 -14.609969 18.169388 31.860094 0.592267 0.963941 0.118523 -0.020823 -318200.000000 0 0 1
-20.454168 -13.714269 18.224488 30.636353 0.590643 0.933699 0.106462 -0.029190 -52588.600000 0 0 1
-19.966968 -13.619169 16.899188 29.491425 0.598601 0.960610 0.113676 -0.019114 -148769.000000 0 0 1
-18.875668 -12.736069 16.779888 28.285384 0.593567 0.935725 0.101580 -0.033740 -492598.000000 0 0 1
-18.078168 -12.803769 15.463788 27.016391 0.616238 0.961384 0.069986 -0.034441 -50415.300000 0 0 1
-17.732368 -11.494169 14.969588 25.896744 0.575111 0.954461 0.065563 -0.034915 977481.000000 0 0 1
-16.574968 -10.849369 15.551688 25.185182 0.579577 0.905244 0.064060 -0.040443 444425.000000 0 0 1
-16.311368 -9.383069 15.071588 24.109240 0.522020 0.895489 0.076904 -0.043054 460819.000000 0 1 0
-17.363968 -8.466969 15.453788 24.738967 0.453692 0.896082 0.103937 -0.040506 723718.000000 0 1 0
-17.195668 -7.197869 14.858288 23.838394 0.396426 0.897850 0.109875 -0.039004 -742562.000000 0 1 0
-17.269268 -5.979369 15.837788 24.182969 0.333324 0.856726 0.114931 -0.034257 641871.000000 0 1 0
-16.347268 -5.877769 16.935188 24.260708 0.345163 0.798126 0.108323 -0.025117 187122.000000 0 1 0
-14.980768 -6.027869 16.648688 23.193478 0.382551 0.770134 0.102133 -0.022131 -718899.000000 0 1 0
-13.999168 -5.937169 17.844588 23.444744 0.401115 0.705737 0.083220 -0.016122 159148.000000 0 1 0
-13.903068 -7.128669 18.629188 24.313779 0.473788 0.697892 0.065909 -0.022952 -16816.800000 0 1 0
-13.362868 -8.251869 17.926988 23.833516 0.553204 0.719439 0.056908 -0.021031 -752298.000000 0 1 0
-13.621668 -9.507569 18.730988 25.035847 0.609365 0.725502 0.066867 -0.023589 611271.000000 0 0 1
-14.998468 -9.885369 18.780688 25.988244 0.582740 0.763152 0.074339 -0.024926 315967.000000 0 0 1
-15.645668 -9.283569 19.884988 26.951518 0.535525 0.740982 0.064510 -0.022810 69501.700000 0 0 1
-17.081768 -9.908269 20.131088 28.199668 0.525621 0.775778 0.073173 -0.014369 2212150.000000 0 0 1
-18.202768 -9.780569 19.209888 28.213828 0.493050 0.821849 0.078316 -0.020983 1225390.000000 0 0 1
-18.482768 -8.422769 18.785888 27.667044 0.427592 0.824398 0.086274 -0.023808 146058.000000 0 0 1
-19.667768 -8.418269 17.742788 27.793792 0.404429 0.878415 0.101801 -0.035029 970243.000000 0 0 1
-20.973968 -8.619069 18.250988 29.108319 0.389903 0.893097 0.116641 -0.036394 140307.000000 0 0 1
-21.921768 -8.771469 17.217488 29.222328 0.380615 0.940741 0.129222 -0.033531 913635.000000 0 0 1
-23.362568 -9.243569 17.656688 30.708497 0.376757 0.958220 0.142917 -0.027928 955281.000000 0 0 1
-24.035268 -8.128769 18.258488 31.259293 0.326126 0.947028 0.149373 -0.023089 -452743.000000 0 0 1
-25.362178 -8.449669 18.499688 32.509621 0.321595 0.965443 0.167652 -0.024484 -865919.000000 0 0 1
-26.205248 -7.363969 19.184788 33.301639 0.273946 0.956858 0.157242 -0.020024 -178462.000000 0 0 1
-26.188368 -7.354169 20.549088 34.090753 0.273767 0.923821 0.152055 -0.025709 29843.300000 0 0 1
-27.096678 -6.462369 21.134288 34.966417 0.234120 0.921763 0.141023 -0.025770 -699155.000000 0 0 1
-27.237908 -6.506569 22.710238 36.055429 0.234485 0.889410 0.137276 -0.020273 1498030.000000 0 0 1
-26.034308 -6.084869 23.422448 35.544646 0.229603 0.851363 0.127099 -0.028701 1700530.000000 0 0 1
-24.828768 -6.830069 23.260528 34.701149 0.268447 0.836170 0.123225 -0.027980 582146.000000 0 0 1
-23.750968 -6.618569 24.398438 34.687140 0.271771 0.790647 0.111910 -0.020905 674508.000000 0 0 1
-23.209168 -5.273069 24.351238 34.050749 0.223405 0.773964 0.094169 -0.022343 342597.000000 0 0 1
-22.226568 -5.105969 25.359308 34.105509 0.225806 0.732426 0.079709 -0.016339 135271.000000 0 0 1
-21.527068 -3.707469 25.275378 33.406657 0.170550 0.712703 0.076105 -0.018744 -359313.000000 0 0 1
-20.545068 -3.442069 26.237398 33.501473 0.165996 0.671046 0.069751 -0.022063 -450963.000000 0 0 1
-20.920368 -3.276569 27.606548 34.792516 0.155359 0.654320 0.062891 -0.026653 -323099.000000 0 0 1
-21.795768 -2.123769 28.019998 35.562427 0.097133 0.663388 0.056964 -0.030742 -145653.000000 0 0 1
-23.130868 -2.093169 27.597538 36.069967 0.090247 0.699582 0.061173 -0.026945 -242251.000000 0 0 1
-23.845168 -0.961369 28.118848 36.880698 0.040295 0.703740 0.048528 -0.018885 242649.000000 0 0 1
-25.133428 -0.643269 27.330078 37.135376 0.025589 0.743716 0.059593 -0.019184 -592991.000000 0 0 1
-25.045178 -0.101369 26.030268 36.122653 0.004047 0.766118 0.058554 -0.021764 444862.000000 0 0 1
-26.313688 0.244631 25.463528 36.617773 -0.009296 0.801838 0.086471 -0.017231 -54904.600000 0 0 1
-27.185028 -0.878969 24.944148 36.905404 0.032322 0.828619 0.081122 -0.007301 -813326.000000 0 0 1
-27.970138 -1.503069 25.919108 38.162652 0.053687 0.824159 0.074937 -0.004928 -53561.900000 0 0 1
-28.463948 -2.829969 25.591488 38.381367 0.099097 0.840932 0.066982 -0.006853 303501.000000 0 0 1
-27.450878 -4.016169 25.609528 37.756168 0.145273 0.825367 0.079419 -0.020724 351447.000000 0 0 1
-26.894858 -4.212569 26.910708 38.278784 0.155369 0.791163 0.059171 -0.016779 422838.000000 0 0 1
-26.074578 -5.398969 27.058308 37.962936 0.204173 0.777377 0.082852 -0.022159 335287.000000 0 0 1
-25.749348 -5.868969 28.519798 38.869687 0.224099 0.747003 0.040405 -0.015880 86137.700000 0 0 1
-26.850298 -6.453469 29.196588 40.187392 0.235876 0.757565 0.061735 -0.016791 -71977.800000 0 0 1
-26.520598 -7.106169 30.350978 40.927028 0.261799 0.735362 0.046344 -0.008459 -968083.000000 0 0 1
-27.697998 -7.484669 31.233688 42.411586 0.263921 0.743000 0.070206 -0.014083 -297442.000000 0 0 1
-28.470958 -8.510869 30.558758 42.624735 0.290476 0.771414 0.089832 -0.015677 -240596.000000 0 0 1
-29.770148 -8.418369 31.037308 43.822884 0.275584 0.783788 0.098269 -0.017756 -687581.000000 0 0 1
-30.917368 -9.035369 30.207498 44.158968 0.284325 0.817479 0.098683 -0.023488 22151.300000 0 0 1
-30.790238 -10.421069 30.006418 44.238248 0.326352 0.825362 0.097649 -0.021580 90302.000000 0 0 1
-31.577838 -10.789869 28.927808 44.163324 0.329254 0.856589 0.094633 -0.027113 -189091.000000 0 0 1
-31.009418 -12.128869 28.385418 43.754147 0.372841 0.864858 0.086937 -0.026900 119041.000000 0 0 1
-29.814898 -11.882869 27.673228 42.378512 0.379260 0.859256 0.097476 -0.033476 -227800.000000 0 0 1
-29.254368 -13.153769 27.291248 42.114747 0.422550 0.865813 0.095470 -0.032445 479754.000000 0 0 1
-27.942108 -12.868169 26.430288 40.557506 0.431576 0.861006 0.098916 -0.029261 1008690.000000 0 0 1
-26.802118 -12.405169 27.154608 40.120001 0.433483 0.827342 0.079393 -0.032548 428039.000000 0 0 1
-26.924798 -11.077069 27.768548 40.233549 0.390302 0.809053 0.086349 -0.039461 -1088220.000000 0 0 1
-27.048118 -9.845569 26.845038 39.359776 0.349094 0.820244 0.102286 -0.036227 -92381.700000 0 0 1
-25.923008 -9.458769 26.086018 37.973030 0.349868 0.813497 0.082381 -0.029201 -24137.700000 0 0 1
-25.529098 -10.318769 25.013888 37.200893 0.384119 0.833350 0.077405 -0.031121 68502.700000 0 0 1
-26.444518 -10.159469 23.766098 36.977760 0.366795 0.872762 0.108495 -0.025170 -159564.000000 0 0 1
-27.743798 -10.660669 23.878788 38.125644 0.366859 0.893975 0.113334 -0.027760 -390461.000000 0 0 1
-28.492068 -10.413569 22.711608 37.895349 0.350407 0.928139 0.143193 -0.026158 -174858.000000 0 0 1
-29.766918 -11.296569 22.557388 39.019452 0.362711 0.954390 0.137748 -0.031042 -208772.000000 0 0 1
-30.917998 -10.801469 23.142878 40.102209 0.336103 0.955626 0.128028 -0.031389 -747759.000000 0 0 1
-30.919038 -10.955869 24.566378 40.982007 0.340536 0.927991 0.133179 -0.029888 -435601.000000 0 0 1
-32.285258 -10.569869 25.200678 42.298158 0.316392 0.932552 0.098611 -0.028463 -179281.000000 0 0 1
-32.583598 -9.249169 25.055748 42.131087 0.276584 0.933892 0.106335 -0.037265 583790.000000 0 0 1
-33.966178 -8.916669 25.289918 43.275723 0.256723 0.946668 0.084647 -0.028634 1133270.000000 0 0 1
-34.516169 -8.997369 26.773258 44.599618 0.254997 0.926917 0.081999 -0.025060 -355111.000000 0 0 1
-34.777249 -10.281269 27.248518 45.361253 0.287445 0.926420 0.086824 -0.034581 7607.420000 0 0 1
-35.661309 -10.062269 28.317808 46.635571 0.275012 0.918246 0.093975 -0.036055 -521395.000000 0 0 1
-36.186248 -11.278769 29.111068 47.792358 0.302144 0.915851 0.076579 -0.020646 1111720.000000 0 0 1
-37.330908 -12.004869 28.539218 48.499490 0.311135 0.941664 0.057963 -0.025339 1294590.000000 0 0 1
36.716130 -11.469969 28.957478 48.147377 -0.302790 0.925501 0.053778 -0.016202 110444.000000 0 0 1
35.537220 -12.013869 28.104088 46.872879 -0.326002 0.927819 0.052458 -0.019266 35243.300000 0 0 1
35.429130 -11.443069 26.831898 45.892459 -0.312408 0.946324 0.049151 -0.014118 186415.000000 0 0 1
34.333880 -12.045769 26.150838 44.808282 -0.337425 0.947621 0.062189 -0.011935 145343.000000 0 0 1
34.289480 -11.447569 24.707928 43.786950 -0.322216 0.971240 0.048046 -0.012229 -385424.000000 0 0 1
33.967670 -10.083269 24.640808 43.158363 -0.288563 0.963147 0.055517 -0.020886 -89032.100000 0 0 1
33.967190 -9.758969 23.294298 42.327671 -0.279770 0.988034 0.052670 -0.016550 -480198.000000 0 0 1
33.553700 -8.355469 22.986388 41.521544 -0.244054 0.984114 0.071572 -0.008843 -302880.000000 0 0 1
32.181870 -8.230569 23.254078 40.548331 -0.250385 0.960036 0.077759 -0.013233 -770585.000000 0 0 1
31.760230 -7.009669 22.732498 39.681408 -0.217223 0.960787 0.098083 -0.008417 697902.000000 0 0 1
30.200990 -6.876269 22.827678 38.477081 -0.223867 0.935669 0.106500 -0.005007 979658.000000 0 0 1
29.517490 -7.800269 21.955488 37.605450 -0.258353 0.947348 0.108189 -0.002308 573463.000000 0 0 1
28.105890 -7.698869 22.090688 36.567911 -0.267365 0.922160 0.094007 -0.017978 247378.000000 0 0 1
15.207632 -17.356169 25.391008 34.310523 -0.851282 0.737673 0.125188 -0.017673 -208945.000000 0 0 1
14.579732 -18.578369 25.418608 34.696254 -0.905412 0.748657 0.115086 -0.012102 350089.000000 0 0 1
15.535432 -19.662369 25.366098 35.656659 -0.902115 0.779310 0.117477 -0.017469 -298001.000000 0 0 1
14.984432 -21.120969 25.382818 36.261770 -0.953751 0.795415 0.102530 -0.024225 419088.000000 0 0 1
14.162232 -21.628969 26.471988 37.001990 -0.991068 0.773570 0.094950 -0.028358 -620500.000000 0 0 1
12.940832 -21.025269 26.448518 36.180812 -1.019065 0.750996 0.095613 -0.019347 -1822720.000000 0 0 1
12.175432 -21.079869 27.832958 36.976690 -1.047021 0.718618 0.094799 -0.020207 252202.000000 0 0 1
12.805032 -20.492269 28.971488 37.725973 -1.012290 0.695169 0.092488 -0.027692 -59665.800000 0 0 1
12.117832 -19.352969 29.482148 37.290432 -1.011372 0.658994 0.094022 -0.026541 103191.000000 0 0 1
12.397632 -17.935069 28.853208 36.164563 -0.965966 0.647107 0.112540 -0.020734 120764.000000 0 0 1
13.502032 -17.253669 29.384718 36.653180 -0.906780 0.640669 0.096036 -0.009045 -400040.000000 0 0 1
13.480332 -16.026369 28.734138 35.555795 -0.871472 0.629805 0.103304 -0.009352 98334.000000 0 0 1
14.340932 -14.993769 29.433578 36.011262 -0.807649 0.614011 0.093944 -0.011079 51016.300000 0 0 1
13.749432 -13.685669 29.300928 35.140985 -0.783074 0.584821 0.129276 -0.014692 -94508.000000 0 0 1
14.589132 -12.666369 29.706658 35.436778 -0.714969 0.576638 0.117756 -0.014014 -409723.000000 0 0 1
14.092132 -11.264369 29.333018 34.436901 -0.674337 0.551403 0.111802 -0.014948 -125737.000000 0 0 1
14.066632 -10.880069 27.983438 33.155978 -0.658351 0.566110 0.145158 -0.026195 376852.000000 0 0 1
15.327532 -10.860769 27.311698 33.148430 -0.616461 0.602500 0.130304 -0.020141 -24635.900000 0 0 1
15.480532 -9.816469 26.292218 32.051376 -0.565129 0.608835 0.126852 -0.022919 2981.760000 0 0 1
15.742732 -8.542069 26.805428 32.238665 -0.497147 0.589051 0.124553 -0.022543 761270.000000 0 0 1
17.132732 -8.268569 27.045638 33.066090 -0.449646 0.612998 0.117349 -0.024078 459183.000000 0 0 1
17.469432 -6.747869 26.982088 32.844298 -0.368612 0.606733 0.104218 -0.018660 418376.000000 0 0 1
18.883032 -6.592669 27.066618 33.654628 -0.335901 0.636390 0.102236 -0.022296 407237.000000 0 0 1
19.199632 -5.263569 26.584418 33.212382 -0.267575 0.642772 0.107575 -0.020575 -1368980.000000 0 0 1
20.676532 -5.018769 26.595698 34.059333 -0.238123 0.674749 0.108288 -0.019118 -1496140.000000 0 0 1
21.338132 -5.877369 25.627618 33.861987 -0.268775 0.712354 0.103970 -0.010649 477111.000000 0 0 1
22.731332 -5.735769 25.451378 34.603254 -0.247169 0.744363 0.099873 -0.013491 555669.000000 0 0 1
23.716632 -5.988869 26.656378 36.178829 -0.247347 0.742479 0.102475 -0.022997 -355530.000000 0 0 1
23.968732 -4.800969 27.292528 36.639207 -0.197685 0.730412 0.106095 -0.025848 223844.000000 0 0 1
24.904632 -4.944069 28.357958 38.063872 -0.195972 0.730247 0.100819 -0.033119 236313.000000 0 0 1
25.607232 -3.655369 28.909968 38.792761 -0.141790 0.729900 0.113076 -0.036094 28269.500000 0 0 1
26.581832 -3.191569 27.977448 38.723604 -0.119494 0.763398 0.111897 -0.031995 315632.000000 0 0 1
26.881032 -1.848969 28.242518 39.033939 -0.068675 0.761883 0.104690 -0.042048 -256523.000000 0 0 1
27.873432 -1.147569 27.275408 39.015292 -0.041147 0.796665 0.105190 -0.040509 -587643.000000 0 0 1
29.206932 -1.411269 27.518548 40.153544 -0.048282 0.815735 0.104365 -0.040211 -836059.000000 0 0 1
30.060432 -0.634869 26.682238 40.199185 -0.021117 0.844974 0.105143 -0.022128 909610.000000 0 0 1
31.568732 -0.728769 27.088778 41.604301 -0.023081 0.861757 0.087764 -0.026827 574168.000000 0 0 1
31.948332 0.195231 28.100688 42.548593 0.006111 0.849395 0.068390 -0.015071 117183.000000 0 0 1
33.317032 0.120531 28.450728 43.811906 0.003618 0.864023 0.079542 -0.026843 224644.000000 0 0 1
33.762732 1.282231 29.412968 44.796081 0.037959 0.854498 0.095205 -0.027265 37964.700000 0 0 1
33.744132 2.563131 28.835738 44.460498 0.075812 0.865092 0.084142 -0.016257 178440.000000 0 0 1
34.070732 3.592931 29.766818 45.384881 0.105067 0.855455 0.079669 -0.014034 -51691.700000 0 0 1
33.990732 4.995231 29.108348 45.029081 0.145914 0.867894 0.088431 -0.007636 -285970.000000 0 0 1
34.238132 6.054031 30.043918 45.951475 0.175012 0.858176 0.091844 -0.003158 -587391.000000 0 0 1
33.099432 6.514231 30.649378 45.578416 0.194324 0.833277 0.087012 -0.000821 -905804.000000 0 0 1
33.430532 7.259731 32.023752 46.859630 0.213839 0.818390 0.088422 -0.007512 218793.000000 0 0 1
33.994132 6.365031 32.970493 47.782508 0.185096 0.809291 0.074384 -0.004767 296474.000000 0 0 1
34.273032 6.982031 -33.444617 48.393511 0.200968 2.333802 0.066810 -0.016740 15377.300000 0 0 1
34.613632 6.001831 -32.290567 47.715890 0.171688 2.314102 0.075056 -0.010577 32083.800000 0 0 1
33.435232 5.377631 -31.814567 46.465044 0.159472 2.324987 0.060973 -0.003949 401398.000000 0 0 1
33.180932 4.105831 -32.358187 46.528318 0.123115 2.339844 0.085451 -0.020263 97785.700000 0 0 1
33.842332 2.977631 -31.458027 46.300941 0.087759 2.317775 0.075885 -0.028537 -6793.180000 0 0 1
33.800932 1.661531 -31.982767 46.563516 0.049117 2.327961 0.084291 -0.028007 160854.000000 0 0 1
33.968732 0.666331 -30.998567 45.991629 0.019613 2.310413 0.065012 -0.028158 -296623.000000 0 0 1
34.196232 -0.681369 -31.621527 46.580763 -0.019923 2.316997 0.067503 -0.049621 -61304.800000 0 0 1
35.415932 -0.734769 -32.380457 47.992938 -0.020744 2.311344 0.082908 -0.041158 917815.000000 0 0 1
36.430332 -1.634869 -31.938827 48.476082 -0.044846 2.290095 0.099226 -0.035523 703099.000000 0 0 1
37.219332 -1.233169 -30.700687 48.263149 -0.033120 2.260243 0.105520 -0.030622 -871994.000000 0 0 1
36.412832 -1.606169 -29.576077 46.938454 -0.044081 2.252483 0.102462 -0.032438 272865.000000 0 0 1
37.001132 -1.285469 -28.352837 46.632816 -0.034727 2.224338 0.129577 -0.033794 -390765.000000 0 0 1
36.032032 -1.229969 -27.139417 45.126136 -0.034122 2.216064 0.133088 -0.033430 281812.000000 0 0 1
35.165632 -0.087769 -27.268597 44.499503 -0.002496 2.230375 0.105504 -0.028853 766043.000000 0 0 1
34.214032 -0.027769 -26.208407 43.098508 -0.000812 2.224467 0.099674 -0.025182 57825.800000 0 0 1
33.547632 1.356531 -26.089377 42.519870 0.040414 2.231384 0.061169 -0.015164 -297524.000000 0 0 1
32.830732 1.692131 -27.218657 42.679920 0.051496 2.262356 0.092916 -0.037883 -54122.400000 0 0 1
32.218332 2.947231 -27.044577 42.167715 0.091223 2.267062 0.071026 -0.016655 163043.000000 0 0 1
31.276032 3.357631 -28.231337 42.266680 0.106945 2.302225 0.092115 -0.022595 -329872.000000 0 0 1
30.545132 4.473931 -27.909587 41.616898 0.145435 2.305856 0.068291 -0.013957 -228771.000000 0 0 1
29.965832 5.000331 -29.088707 42.060757 0.165344 2.334481 0.074666 -0.020109 -395845.000000 0 0 1
28.906132 6.050031 -28.722487 41.196463 0.206321 2.342291 0.085124 -0.017909 -400609.000000 0 0 1
27.698432 5.472831 -28.266797 39.952057 0.195074 2.356776 0.095105 -0.021398 59139.500000 0 0 1
26.847432 6.421231 -27.720317 39.120746 0.234765 2.358285 0.115157 -0.023329 -64433.100000 0 0 1
25.444032 5.891531 -27.292917 37.775815 0.227539 2.378204 0.123212 -0.020936 476776.000000 0 0 1
24.562532 5.664131 -28.380287 37.958412 0.226639 2.415340 0.133702 -0.022574 736186.000000 0 0 1
23.389532 4.945131 -27.987877 36.808230 0.208357 2.434679 0.127958 -0.016340 650394.000000 0 0 1
22.415932 4.500431 -29.094967 37.003310 0.198135 2.475562 0.103238 -0.010678 161761.000000 0 0 1
22.932432 3.358931 -29.730857 37.697516 0.145437 2.479437 0.080277 -0.017088 852090.000000 0 0 1
22.077232 2.947831 -30.846587 38.047415 0.132738 2.516213 0.050013 -0.021990 472459.000000 0 0 1
22.204132 3.757131 -32.180957 39.277901 0.167621 2.531011 0.078622 -0.016174 -63828.800000 0 0 1
23.449832 3.599031 -32.812847 40.491117 0.152290 2.515582 0.079786 -0.024898 -156130.000000 0 0 1
23.554532 4.239331 33.616908 41.266020 0.178073 0.618690 0.090520 -0.031765 354417.000000 0 0 1
24.855832 3.858631 32.842297 41.368078 0.154011 0.653593 0.088960 -0.019792 467604.000000 0 0 1
24.978932 2.518331 32.506215 41.072413 0.100479 0.657640 0.105814 -0.026740 457723.000000 0 0 1
26.338832 2.071831 32.479734 41.868361 0.078499 0.682880 0.099808 -0.030674 379454.000000 0 0 1
26.486732 0.528331 32.467501 41.904233 0.019944 0.684394 0.090533 -0.024439 -629833.000000 0 0 1
26.189432 -0.153569 31.239018 40.765012 -0.005864 0.697704 0.103706 -0.025722 756277.000000 0 0 1
24.807832 -0.147769 30.860858 39.595997 -0.005956 0.677099 0.121232 -0.036968 419736.000000 0 0 1
23.933132 -1.140869 31.659569 39.704215 -0.047633 0.647846 0.114486 -0.039586 -479040.000000 0 0 1
24.247132 -2.529469 31.375708 39.733571 -0.103944 0.660554 0.113691 -0.044505 236657.000000 0 0 1
23.532832 -3.291669 32.334888 40.126977 -0.138974 0.633747 0.111586 -0.031050 231408.000000 0 0 1
23.213132 -4.668569 31.790030 39.639009 -0.198470 0.640180 0.109634 -0.033528 423823.000000 0 0 1
24.368432 -5.456469 32.082164 40.655366 -0.220282 0.661413 0.106688 -0.024239 496454.000000 0 0 1
24.177932 -6.854169 31.911022 40.618535 -0.276241 0.667087 0.103670 -0.025067 612659.000000 0 0 1
25.538232 -7.654569 31.791666 41.491008 -0.291209 0.697843 0.094092 -0.028137 1285270.000000 0 0 1
26.238732 -7.460269 30.533858 40.944391 -0.277013 0.729152 0.085648 -0.032317 80548.400000 0 0 1
27.469332 -8.138069 30.487188 41.836121 -0.288022 0.754332 0.073095 -0.032967 264100.000000 0 0 1
28.144332 -8.032069 29.084628 41.261764 -0.277998 0.788541 0.079195 -0.028532 845091.000000 0 0 1
27.278932 -8.717569 28.138228 40.148425 -0.309314 0.794201 0.064406 -0.022008 697126.000000 0 0 1
27.820232 -8.586869 26.823838 39.588103 -0.299379 0.826338 0.081804 -0.013334 146428.000000 0 0 1
27.125432 -9.486469 25.774828 38.602123 -0.336431 0.839675 0.071817 -0.024441 -200319.000000 0 0 1
25.888332 -8.900169 25.390298 37.337461 -0.331133 0.823004 0.068574 -0.032307 155500.000000 0 0 1
25.321032 -9.658469 24.311008 36.406947 -0.364405 0.839604 0.066327 -0.028814 -235381.000000 0 0 1
24.012732 -9.087469 23.773118 34.990778 -0.361786 0.823837 0.075682 -0.021834 -675047.000000 0 0 1
22.948932 -9.212869 24.656308 34.920824 -0.381757 0.786873 0.071963 -0.019210 -416247.000000 0 0 1
21.744032 -8.767169 24.047188 33.584720 -0.383261 0.772718 0.078675 -0.018360 422503.000000 0 0 1
20.497332 -8.854269 24.965948 33.493839 -0.407761 0.729678 0.097591 -0.017648 91448.900000 0 0 1
20.012032 -10.170669 25.282168 33.809939 -0.470208 0.726094 0.117052 -0.022061 402962.000000 0 0 1
20.615332 -10.685169 26.451268 35.197079 -0.478189 0.720435 0.081061 -0.026584 118012.000000 0 0 1
19.639632 -11.676069 27.170458 35.500416 -0.536377 0.699202 0.092479 -0.029443 552104.000000 0 0 1
19.057632 -12.675869 26.317678 34.878234 -0.586940 0.715815 0.112820 -0.031846 643562.000000 0 0 1
18.059732 -13.491069 26.913238 35.106769 -0.641594 0.697250 0.098777 -0.029003 -338573.000000 0 0 1
18.644932 -14.671069 27.669598 36.448325 -0.666681 0.708796 0.099893 -0.013136 -869487.000000 0 0 1
17.747832 -15.558369 28.259838 36.819381 -0.719755 0.695823 0.084004 -0.012364 -276426.000000 0 0 1
18.311732 -16.768669 28.745648 37.984472 -0.741440 0.712433 0.073624 -0.006776 27259.600000 0 0 1
18.897232 -17.805769 27.720548 37.981306 -0.755669 0.752698 0.084046 -0.013002 171367.000000 0 0 1
20.121032 -17.467969 27.107358 38.010456 -0.714934 0.776807 0.087499 -0.013242 268907.000000 0 0 1
20.430332 -18.438669 26.126548 37.947062 -0.734203 0.811378 0.083292 -0.006271 275260.000000 0 0 1
21.678532 -18.006269 25.302928 37.873773 -0.693125 0.839163 0.087274 -0.020691 1295430.000000 0 0 1
22.974632 -18.049469 25.934578 39.066858 -0.665915 0.844840 0.079083 -0.021556 1355550.000000 0 0 1
24.004932 -17.291269 25.308728 38.932717 -0.624235 0.863129 0.055113 -0.022726 136470.000000 0 0 1
25.262832 -17.038169 26.190638 40.180336 -0.593362 0.860805 0.058917 -0.025678 473714.000000 0 0 1
25.915532 -18.231069 26.654568 41.405950 -0.613058 0.871424 0.055808 -0.026051 159727.000000 0 0 1
26.631732 -18.974469 25.709798 41.596555 -0.619050 0.904504 0.045441 -0.031474 -1038250.000000 0 0 1
27.235532 -20.259869 26.338568 42.964598 -0.639570 0.910907 0.046335 -0.032482 98903.800000 0 0 1
28.341732 -19.902369 27.177548 44.022462 -0.612220 0.905419 0.047431 -0.025452 598641.000000 0 0 1
29.009432 -21.086369 27.771368 45.358913 -0.628539 0.911883 0.045535 -0.020508 -134586.000000 0 0 1
28.266532 -22.116769 28.595668 45.889656 -0.663939 0.898046 0.050410 -0.007074 -566512.000000 0 0 1
27.804132 -21.660369 29.847858 46.185885 -0.661826 0.868130 0.077123 -0.009795 40399.000000 0 0 1
27.091032 -22.713569 30.475898 46.675589 -0.697731 0.859350 0.093468 -0.013142 -183102.000000 0 0 1
26.878232 -22.566169 31.962198 47.468447 -0.698408 0.832085 0.097766 -0.015368 191351.000000 0 0 1
26.352132 -23.767869 32.605533 48.191983 -0.733882 0.827694 0.098738 -0.017274 168301.000000 0 0 1
26.445632 -23.678169 -33.623127 48.893167 -0.730242 2.329093 0.125324 -0.019834 -698981.000000 0 0 1
26.109532 -25.040299 -32.924417 48.915657 -0.764497 2.309169 0.111685 -0.021655 630204.000000 0 0 1
24.803332 -25.618219 -33.004907 48.588294 -0.801558 2.317573 0.135657 -0.029182 456973.000000 0 0 1
24.293432 -25.810279 33.315013 48.643925 -0.815663 0.816364 0.121867 -0.037126 -1310050.000000 0 0 1
22.898332 -26.356349 33.231039 48.200547 -0.855490 0.810091 0.138999 -0.050589 -838194.000000 0 0 1
22.873632 -27.777809 33.204957 48.963036 -0.881919 0.825535 0.140777 -0.037398 74788.200000 0 0 1
21.572232 -28.328329 33.258973 48.723862 -0.919971 0.819480 0.152802 -0.042431 178252.000000 0 0 1
21.577832 -29.844019 33.310537 49.657428 -0.944787 0.835500 0.133145 -0.043502 -165731.000000 0 0 1
22.119832 -30.345649 -33.155017 50.093917 -0.940917 2.294090 0.098839 -0.035026 170674.000000 0 0 1
22.743032 -31.609259 -33.252827 51.206848 -0.947099 2.277568 0.064113 -0.024290 278854.000000 0 0 1
23.757132 -31.896009 -32.092657 51.104749 -0.930612 2.249749 0.046420 -0.010892 -1136560.000000 0 0 1
24.535732 -32.983299 -32.278287 52.266509 -0.931221 2.236447 0.024780 -0.008706 69088.800000 0 0 1
25.149132 -33.434069 -31.040447 52.094387 -0.925888 2.209120 0.019979 0.002415 -378654.000000 0 0 1
26.359032 -32.723879 -30.485907 51.913788 -0.892712 2.198442 0.027807 -0.000251 -927876.000000 0 0 1
26.911832 -33.239689 -29.253507 51.815937 -0.890211 2.170703 0.038852 0.009247 63733.600000 0 0 1
27.789432 -32.316999 -28.672277 51.368671 -0.860582 2.162971 0.046246 0.005780 -340657.000000 0 0 1
28.142732 -32.560249 -27.203047 50.913544 -0.858043 2.134474 0.039167 0.006246 297549.000000 0 0 1
29.188732 -33.511389 -27.018297 52.009457 -0.854231 2.117048 0.038620 0.008012 277592.000000 0 0 1
30.048332 -33.072379 -25.977977 51.686940 -0.833271 2.097403 0.041324 0.002469 328520.000000 0 0 1
-28.157228 -30.709065 8.952783 42.614886 0.828721 1.359134 0.101869 -0.025722 122970.000000 0 0 1
-27.816548 -31.933065 9.639483 43.432714 0.854186 1.346992 0.097334 -0.035480 230007.000000 0 0 1
-26.436098 -32.005165 9.964283 42.690570 0.880405 1.335216 0.084810 -0.038905 -286979.000000 0 0 1
-26.231208 -32.816865 11.304483 43.506485 0.896470 1.307946 0.081724 -0.045487 -192484.000000 0 0 1
-26.397318 33.457131 11.341083 44.100093 -0.902805 1.310707 0.085446 -0.027124 375778.000000 0 0 1
-27.762668 33.025731 11.379983 44.620272 -0.871763 1.312907 0.067626 -0.037711 549224.000000 0 0 1
-27.961588 31.491131 11.197283 43.576609 -0.844696 1.310925 0.079078 -0.027107 106610.000000 0 0 1
-27.352468 31.035231 9.999583 42.559778 -0.848389 1.333625 0.110324 -0.036949 -68110.000000 0 0 1
-27.630828 29.739831 9.712683 41.740345 -0.822143 1.335951 0.129034 -0.033915 -174132.000000 0 0 1
-26.965408 29.214531 8.451783 40.645476 -0.825411 1.361329 0.112113 -0.025643 -908449.000000 0 0 1
-25.591128 29.037531 8.447983 39.616316 -0.848402 1.355901 0.093697 -0.013852 -726958.000000 0 0 1
-25.238328 28.880631 7.058283 38.998505 -0.852599 1.388805 0.090277 -0.005974 -6040.230000 0 0 1
-23.820368 28.373431 6.732683 37.653559 -0.872412 1.391024 0.097840 -0.005675 19816.200000 0 0 1
-23.639968 26.964131 6.862983 36.510450 -0.850994 1.381698 0.103885 -0.011469 209029.000000 0 0 1
-24.007868 26.234531 5.662083 36.009548 -0.829688 1.412903 0.084860 -0.015153 -125558.000000 0 0 1
-24.416268 24.774731 5.804583 35.265204 -0.792685 1.405446 0.102876 -0.004642 -477349.000000 0 0 1
-25.517158 24.561131 6.659083 36.037729 -0.766310 1.384947 0.122756 -0.012438 82005.800000 0 0 1
-25.758368 23.202831 6.996683 35.366912 -0.733250 1.371651 0.130361 -0.020463 -59373.600000 0 0 1
-26.276698 22.311531 5.825583 34.960073 -0.703971 1.403380 0.127603 -0.034315 898175.000000 0 0 1
-27.650348 22.635331 5.446783 36.146471 -0.685996 1.419534 0.134610 -0.040201 1359870.000000 0 0 1
-28.049138 22.032031 4.239783 35.918523 -0.665824 1.452482 0.123256 -0.034164 -20301.900000 0 0 1
-27.738638 22.814631 2.923383 36.034506 -0.688302 1.489580 0.114750 -0.036173 1083500.000000 0 0 1
-26.297808 22.927631 2.800983 35.001378 -0.717041 1.490686 0.111863 -0.035719 1223870.000000 0 0 1
-26.044058 23.706531 1.692283 35.258423 -0.738448 1.522781 0.100886 -0.027842 -113221.000000 0 0 1
-24.649668 24.353531 1.782483 34.696943 -0.779355 1.519401 0.082865 -0.015172 -238173.000000 0 0 1
-24.262968 25.124431 0.698683 34.934464 -0.802839 1.550795 0.066351 -0.021289 -573722.000000 0 0 1
-22.942068 25.525231 0.911683 34.332303 -0.838645 1.544239 0.078997 -0.029379 -777978.000000 0 0 1
-22.246468 26.354731 -0.214117 34.489463 -0.869728 1.577005 0.094549 -0.028983 249868.000000 0 0 1
-21.839668 25.771831 -1.465317 33.812801 -0.867800 1.614146 0.093522 -0.025038 182041.000000 0 0 1
-20.678368 24.999831 -1.219817 32.466512 -0.879724 1.608377 0.089193 -0.037065 -404927.000000 0 0 1
-20.316168 24.126531 -2.432017 31.634647 -0.870926 1.647751 0.104135 -0.047605 -148618.000000 0 0 1
-21.427768 23.360931 -2.833517 31.826265 -0.828533 1.659945 0.109050 -0.043572 20391.600000 0 0 1
-21.025968 22.237131 -3.623217 30.817349 -0.813386 1.688640 0.119540 -0.049465 -7962.790000 0 0 1
-22.130868 21.494631 -4.420717 31.166283 -0.770815 1.713119 0.117300 -0.040526 -35066.100000 0 0 1
-22.627668 22.303431 -5.475017 32.240195 -0.778182 1.741443 0.108299 -0.030121 1118560.000000 0 0 1
-23.968168 21.844431 -5.800217 32.943812 -0.739074 1.747783 0.109867 -0.027741 1282360.000000 0 0 1
-24.470768 22.422331 -7.142917 33.949973 -0.741743 1.782776 0.121540 -0.017294 510017.000000 0 0 1
-23.701068 21.792631 -8.209817 33.227405 -0.743473 1.820462 0.125919 -0.029592 521945.000000 0 0 1
-23.233568 22.730031 -9.122717 33.759102 -0.774443 1.844428 0.131117 -0.033972 -62248.100000 0 0 1
-22.926068 21.956531 -10.466217 33.425073 -0.763800 1.889278 0.135200 -0.037898 -42422.800000 0 0 1
-24.096968 21.599031 -11.157617 34.229730 -0.730788 1.902826 0.092845 -0.031601 -99885.800000 0 0 1
-23.839768 20.903831 -12.319917 34.015953 -0.719875 1.941403 0.090019 -0.029349 -677645.000000 0 0 1
-25.114118 20.597131 -13.070217 35.011302 -0.686902 1.953375 0.067450 -0.040886 -643584.000000 0 0 1
-25.825928 19.478231 -12.607217 34.717747 -0.646192 1.942426 0.073544 -0.035983 -653313.000000 0 0 1
-27.042168 19.451631 -13.287117 35.863523 -0.623567 1.950334 0.081811 -0.039661 -566583.000000 0 0 1
-27.467438 18.006831 -13.511917 35.514476 -0.580281 1.961092 0.148317 -0.048211 -721757.000000 0 0 1
-26.675098 17.408631 -14.437317 34.972237 -0.578213 1.996347 0.134170 -0.046146 -330239.000000 0 0 1
-27.113858 16.091931 -14.655917 34.769346 -0.535622 2.005915 0.131690 -0.062039 -118625.000000 0 0 1
-26.347448 15.412531 -15.852917 34.395481 -0.529297 2.049807 0.139935 -0.052384 122963.000000 0 0 1
-25.019198 15.004631 -15.654917 33.108543 -0.540217 2.063303 0.143959 -0.046787 -47436.400000 0 0 1
-24.537168 14.446831 -16.895717 33.109648 -0.532124 2.106325 0.134762 -0.054243 -223148.000000 0 0 1
-23.748768 13.157931 -16.771017 31.912413 -0.505945 2.124137 0.140935 -0.048211 217459.000000 0 0 1
-22.379368 13.383231 -16.416617 30.813184 -0.538960 2.132677 0.137223 -0.049475 456654.000000 0 0 1
-21.717268 12.137731 -16.517517 29.862897 -0.509649 2.156891 0.132411 -0.044019 -167866.000000 0 0 1
-20.393468 12.148031 -15.732317 28.477605 -0.537239 2.156091 0.133872 -0.048029 -94316.000000 0 0 1
-19.387368 13.026231 -16.195317 28.422544 -0.591612 2.177065 0.129561 -0.036318 151557.000000 0 0 1
-18.276068 13.088731 -15.340817 27.215257 -0.621495 2.169636 0.132020 -0.024531 18118.200000 0 0 1
-17.345368 14.303231 -15.598617 27.363498 -0.689570 2.177365 0.111652 -0.017406 -252281.000000 0 0 1
-16.507368 14.192631 -16.710017 27.443553 -0.710142 2.225453 0.134264 -0.025519 70243.400000 0 0 1
-15.620068 15.298131 -16.660417 27.487976 -0.774986 2.221942 0.109251 -0.014673 704905.000000 0 0 1
-14.644368 15.438631 -17.921917 27.820926 -0.811794 2.270758 0.112700 -0.022372 1367920.000000 0 0 1
-13.729668 14.334131 -18.117617 26.874135 -0.806934 2.310631 0.105310 -0.025835 304763.000000 0 0 1
-12.726868 14.643631 -19.043717 27.185883 -0.855314 2.346894 0.122945 -0.030545 -214664.000000 0 0 1
-11.697368 13.574231 -19.356917 26.377611 -0.859530 2.394752 0.114872 -0.037139 -459159.000000 0 0 1
-12.243868 12.427131 -19.930817 26.487418 -0.792826 2.422591 0.143133 -0.035120 -206954.000000 0 0 1
-11.415168 11.274031 -19.814717 25.495741 -0.779178 2.460964 0.097894 -0.021248 -109552.000000 0 0 1
-11.861868 10.024431 -20.572417 25.776296 -0.701641 2.494954 0.123947 -0.036143 -181712.000000 0 0 1
-11.560568 10.128131 -21.930517 26.780092 -0.719449 2.530308 0.138846 -0.037209 -149677.000000 0 0 1
-12.044468 9.076531 -22.723717 27.273062 -0.645792 2.555653 0.130681 -0.020152 -170668.000000 0 0 1
-11.578768 9.074431 -24.196417 28.317481 -0.664731 2.595325 0.121708 -0.027264 802603.000000 0 0 1
-10.191468 8.731331 -24.414217 27.859579 -0.708388 2.638989 0.127558 -0.025938 777495.000000 0 0 1
-9.964968 8.252731 -25.751317 28.819064 -0.691686 2.675991 0.111882 -0.042439 -106107.000000 0 0 1
-9.803068 9.292031 -26.893247 30.094662 -0.758642 2.676147 0.156941 -0.045456 901727.000000 0 0 1
-8.558368 10.015831 -27.123257 30.153500 -0.863705 2.689434 0.136048 -0.051537 1023840.000000 0 0 1
-8.272968 11.059131 -26.179547 29.599240 -0.928534 2.656146 0.101083 -0.038665 758829.000000 0 0 1
-6.746868 11.399731 -26.374807 29.514480 -1.036395 2.676149 0.074445 -0.039201 814582.000000 0 0 1
-6.450168 12.122931 -27.607557 30.834191 -1.081828 2.680025 0.064711 -0.048041 515088.000000 0 0 1
-5.124568 12.625031 -27.449857 30.645509 -1.185210 2.680849 0.072892 -0.042591 134419.000000 0 0 1
-4.447068 12.854831 -28.855027 31.900402 -1.237738 2.701084 0.083293 -0.045043 -501832.000000 0 0 1
-3.067868 13.038731 -28.753867 31.720737 -1.339711 2.705642 0.099627 -0.056932 -270996.000000 0 0 1
-2.487768 13.003631 -30.052897 32.839915 -1.381767 2.726635 0.104403 -0.056435 853417.000000 0 0 1
-0.938968 12.758031 -30.120787 32.724774 -1.497331 2.739969 0.127870 -0.067045 449683.000000 0 0 1
-0.622368 11.468931 -29.616717 31.765919 -1.516584 2.771635 0.101156 -0.038844 383896.000000 0 0 1
0.737932 11.079131 -29.770367 31.773675 1.504289 2.784596 0.102978 -0.039856 384540.000000 0 0 1
1.175132 10.551731 -31.129387 32.890100 1.459885 2.812905 0.117103 -0.041156 -398615.000000 0 0 1
1.348432 11.575231 -32.081457 34.132449 1.454826 2.793165 0.130367 -0.053361 127980.000000 0 0 1
1.508532 11.014131 -33.388317 35.190431 1.434680 2.820179 0.147563 -0.047119 -145903.000000 0 0 1
1.986132 12.068531 33.319886 35.493788 1.407687 0.351804 0.148326 -0.055855 -332039.000000 0 0 1
3.356332 12.418231 33.284081 35.683434 1.306829 0.368802 0.149336 -0.055295 -137156.000000 0 0 1
3.583232 13.182331 32.140786 34.923395 1.305388 0.401892 0.149064 -0.047606 -693598.000000 0 0 1
5.065432 13.338431 31.882417 34.929370 1.207857 0.420786 0.157488 -0.041484 -802619.000000 0 0 1
5.735232 12.220531 31.377688 34.158360 1.132000 0.406287 0.163721 -0.046127 -1203420.000000 0 0 1
7.100032 12.367531 31.327908 34.420984 1.049649 0.427175 0.136320 -0.031306 -903317.000000 0 0 1
7.888732 11.099731 30.884978 33.753785 0.952916 0.415269 0.121807 -0.029252 -181784.000000 0 0 1
7.764332 10.658031 29.554398 32.362647 0.941200 0.419665 0.116086 -0.031037 -263487.000000 0 0 1
8.641832 9.626531 29.219808 31.955415 0.839248 0.416790 0.103055 -0.022397 -172132.000000 0 0 1
8.071732 8.735831 28.117928 30.530075 0.824890 0.400179 0.104382 -0.030952 477081.000000 0 0 1
7.080832 7.801831 28.563548 30.444754 0.833806 0.353378 0.107554 -0.032234 183035.000000 0 0 1
6.542332 7.081031 27.473848 29.116240 0.824920 0.337481 0.104063 -0.032043 -208522.000000 0 0 1
5.545732 5.994931 27.872408 29.044199 0.824302 0.285024 0.112793 -0.036207 41342.600000 0 0 1
6.209332 4.822431 28.308888 29.380347 0.660335 0.270896 0.093337 -0.031661 -319611.000000 0 0 1
5.449732 4.173731 29.232328 30.027465 0.653574 0.230643 0.106668 -0.032691 -277767.000000 0 0 1
6.196132 2.971031 29.978768 30.756229 0.447112 0.225324 0.115482 -0.024263 418008.000000 0 0 1
6.382032 1.826431 29.120168 29.867212 0.278733 0.224130 0.102069 -0.015737 -567968.000000 0 0 1
7.649932 1.723431 28.556318 29.613426 0.221588 0.267997 0.101003 -0.012736 -687108.000000 0 0 1
7.825632 0.302531 27.896058 28.974508 0.038640 0.273693 0.091617 -0.011879 -34678.400000 0 0 1
7.895832 -0.750869 28.801458 29.873600 -0.094812 0.268723 0.074477 -0.017208 71933.100000 0 0 1
8.116032 -1.992369 28.174208 29.387506 -0.240725 0.288352 0.084517 -0.017662 -159383.000000 0 0 1
8.672932 -3.124469 29.133138 30.556862 -0.345781 0.306460 0.078839 -0.011085 999313.000000 0 0 1
10.074832 -3.079769 29.430638 31.259394 -0.296668 0.343750 0.067329 -0.013060 439539.000000 0 0 1
10.846132 -3.821369 28.535358 30.765372 -0.338745 0.383086 0.084889 -0.009420 1885.970000 0 0 1
12.372632 -3.819369 28.865558 31.636847 -0.299415 0.421679 0.061345 -0.002232 800897.000000 0 0 1
13.162832 -4.834769 28.260688 31.548402 -0.352007 0.460595 0.086270 -0.005443 187524.000000 0 0 1
13.198732 -6.025469 29.057188 32.478193 -0.428262 0.463110 0.096022 -0.001691 -504719.000000 0 0 1
12.579032 -7.289069 28.441118 31.941506 -0.525181 0.472546 0.118815 -0.010138 306286.000000 0 0 1
11.171532 -7.117869 28.378788 31.318091 -0.567284 0.436713 0.113973 -0.005720 -6493.220000 0 0 1
10.432532 -8.339969 28.304908 31.297933 -0.674387 0.440895 0.113848 -0.017442 -236840.000000 0 0 1
8.952332 -7.981369 28.265218 30.704545 -0.728122 0.401298 0.125171 -0.023807 -716154.000000 0 0 1
8.412132 -7.568269 29.507928 31.603172 -0.732641 0.366181 0.136306 -0.026056 -329804.000000 0 0 1
7.121132 -7.098269 29.200808 30.883380 -0.783790 0.331613 0.139415 -0.038121 -94066.300000 0 0 1
6.411532 -6.533969 30.469838 31.815272 -0.794856 0.291857 0.125793 -0.041272 153114.000000 0 0 1
6.068632 -7.460269 31.508388 32.943322 -0.887902 0.296235 0.135608 -0.040288 503228.000000 0 0 1
5.419832 -6.978169 32.725553 33.897364 -0.910435 0.263706 0.143514 -0.037641 39091.600000 0 0 1
6.336132 -6.023069 33.475569 34.598232 -0.760073 0.255443 0.152042 -0.030212 -226169.000000 0 0 1
6.202832 -4.750169 32.959796 33.873107 -0.653541 0.232743 0.140642 -0.025437 -152431.000000 0 0 1
6.553232 -3.705369 -33.790137 34.618607 -0.514610 2.922378 0.138777 -0.015958 3559.500000 0 0 1
6.838032 -2.437269 33.046278 33.834235 -0.342390 0.216239 0.125598 -0.024607 -529799.000000 0 0 1
5.740532 -1.971869 32.345499 32.910079 -0.330872 0.185497 0.126024 -0.035771 -604767.000000 0 0 1
6.005032 -0.850869 31.534198 32.112148 -0.140756 0.190011 0.109732 -0.017635 376929.000000 0 0 1
4.688332 -0.552069 30.721768 31.082347 -0.117214 0.152468 0.136872 -0.025185 1045320.000000 0 0 1
3.683732 -0.190369 31.684922 31.898909 -0.051632 0.115895 0.123749 -0.026264 413591.000000 0 0 1
2.625132 0.562231 31.038128 31.154018 0.210985 0.086281 0.124023 -0.032545 498352.000000 0 0 1
1.552432 1.005831 32.048022 32.101362 0.574902 0.057656 0.111598 -0.035953 -109415.000000 0 0 1
1.966232 1.982731 32.950409 33.068516 0.789576 0.084542 0.100014 -0.023395 -447314.000000 0 0 1
0.996232 2.153331 -33.739347 33.822667 1.137475 3.071386 0.077934 -0.027402 -565756.000000 0 0 1
1.502132 3.054331 -32.610597 32.787747 1.113727 3.037594 0.072382 -0.022206 141769.000000 0 0 1
2.437232 2.403931 -31.735327 31.919429 0.778520 3.034138 0.062600 -0.013663 27001.100000 0 0 1
2.929132 3.496931 -30.923067 31.257709 0.873528 2.995134 0.057423 -0.003972 -835493.000000 0 0 1
3.914832 3.148731 -29.867247 30.286843 0.677362 2.974942 0.062956 0.001097 -458097.000000 0 0 1
3.386332 2.310931 -28.847337 29.137201 0.598836 3.000420 0.060129 -0.013784 -567384.000000 0 0 1
4.409932 2.187731 -27.929407 28.359926 0.460516 2.967127 0.085446 -0.021338 -382981.000000 0 0 1
3.994132 1.477131 -26.617587 26.956093 0.354226 2.982948 0.067898 -0.022997 -56646.300000 0 0 1
3.958832 0.066031 -26.571007 26.864384 0.016678 2.993670 0.085459 -0.019020 247852.000000 0 0 1
3.401132 -0.539169 -25.405157 25.637480 -0.157218 3.006866 0.091664 -0.016364 -192893.000000 0 0 1
4.068632 -1.879969 -25.098197 25.495245 -0.432841 2.964878 0.103644 -0.037467 -132820.000000 0 0 1
5.411832 -1.847769 -24.674017 25.328033 -0.329021 2.913848 0.099727 -0.044359 -216960.000000 0 0 1
5.931932 -3.149469 -24.831017 25.723265 -0.488088 2.877438 0.111274 -0.047997 -1363990.000000 0 0 1
7.345532 -3.362369 -24.406517 25.708762 -0.429275 2.821945 0.124306 -0.051468 -1628370.000000 0 0 1
8.198632 -2.664469 -25.215787 26.648693 -0.314222 2.812171 0.116171 -0.044733 -220389.000000 0 0 1
9.551132 -2.984669 -24.827917 26.768598 -0.302879 2.758469 0.106516 -0.040101 804741.000000 0 0 1
-30.914418 -3.844469 17.378188 35.671874 0.123723 1.061953 0.170416 -0.014468 1039370.000000 0 0 1
-32.275728 -3.634269 17.802088 37.038424 0.112128 1.069414 0.146279 0.002419 491504.000000 0 0 1
-32.801678 -4.876269 18.202088 37.829143 0.147578 1.068812 0.124516 -0.014482 65500.300000 0 0 1
-34.262483 -4.858269 18.721488 39.344817 0.140857 1.074888 0.113699 -0.009929 -158097.000000 0 0 1
-35.184111 -4.785869 17.681288 39.666789 0.135194 1.108790 0.105818 -0.006449 390371.000000 0 0 1
-36.510028 -4.801969 18.251088 41.099188 0.130774 1.110656 0.077911 0.001159 730224.000000 0 0 1
-37.572998 -4.494369 17.149088 41.545406 0.119051 1.145293 0.069029 0.001121 349653.000000 0 0 1
36.422360 -4.640769 17.690588 40.756373 -0.126733 1.121805 0.055885 0.005843 274319.000000 0 0 1
35.341010 -4.606569 16.750688 39.380109 -0.129616 1.131438 0.057033 -0.001359 1232730.000000 0 0 1
34.002640 -5.088969 17.407088 38.536785 -0.148561 1.102126 0.060983 0.002633 683582.000000 0 0 1
33.431400 -4.246069 18.464288 38.426781 -0.126332 1.069565 0.073122 -0.000988 944747.000000 0 0 1
32.314640 -4.863069 19.116188 37.859134 -0.149370 1.041496 0.103611 -0.000580 348844.000000 0 0 1
31.466810 -4.011169 20.078588 37.541967 -0.126789 1.006489 0.115963 -0.008291 196634.000000 0 0 1
30.517150 -3.063469 19.605488 36.401325 -0.100050 1.002030 0.122807 -0.011506 332263.000000 0 0 1
31.043280 -1.869369 19.036288 36.463132 -0.060146 1.021521 0.119031 -0.005922 -179203.000000 0 0 1
30.092890 -0.639169 19.106888 35.651981 -0.021237 1.005190 0.112863 -0.003184 273371.000000 0 0 1
30.618890 0.608431 18.602388 35.832045 0.019868 1.024934 0.104840 -0.006297 864806.000000 0 0 1
29.767190 1.672031 19.135688 35.426767 0.056111 1.000184 0.087775 -0.008964 514009.000000 0 0 1
30.057690 3.040031 18.407588 35.377193 0.100797 1.023566 0.089978 -0.006945 188483.000000 0 0 1
29.695490 2.944031 17.011488 34.349384 0.098818 1.052675 0.108234 -0.008277 220572.000000 0 0 1
28.836890 3.992431 16.583988 33.504244 0.137574 1.052983 0.119602 -0.014889 15383.200000 0 0 1
28.806090 4.176331 15.051688 32.768672 0.143978 1.093554 0.130803 -0.012025 -91970.500000 0 0 1
28.140290 5.362831 14.626188 32.164596 0.188317 1.098728 0.158293 -0.028488 441361.000000 0 0 1
27.697090 5.407931 13.264588 31.182107 0.192827 1.131402 0.126027 -0.023063 -443163.000000 0 0 1
27.122090 6.743431 12.842388 30.757252 0.243691 1.140060 0.149932 -0.015596 -413826.000000 0 0 1
25.830390 6.993531 13.315388 29.890100 0.264409 1.109088 0.080145 -0.014725 -105021.000000 0 0 1
25.284690 8.234131 12.905088 29.557702 0.314826 1.118973 0.120877 -0.040658 -403127.000000 0 0 1
23.982790 8.651731 13.584688 28.888932 0.346217 1.081235 0.107895 -0.048730 1122130.000000 0 0 1
22.695490 8.035731 13.275788 27.493722 0.340294 1.066872 0.122869 -0.035718 1999220.000000 0 0 1
22.606790 6.782131 13.888888 27.385497 0.291461 1.038907 0.121140 -0.033323 -1098980.000000 0 0 1
21.319590 6.078931 13.474288 25.942913 0.277763 1.024668 0.133945 -0.025974 -694536.000000 0 0 1
21.216190 5.940431 12.123688 25.147549 0.273004 1.067744 0.140632 -0.039668 412668.000000 0 0 1
20.096190 5.195931 11.722188 23.838293 0.253012 1.056712 0.133358 -0.030938 -394478.000000 0 1 0
19.864590 4.982131 10.195188 22.877181 0.245736 1.108897 0.147203 -0.038836 -796830.000000 0 1 0
20.850190 4.262631 9.558588 23.329531 0.201662 1.148649 0.147380 -0.038200 -6686.270000 0 1 0
20.630790 4.170231 8.167388 22.577124 0.199449 1.200647 0.176623 -0.036955 -556614.000000 0 1 0
21.854190 3.529831 7.550088 23.389509 0.160134 1.242112 0.172300 -0.028651 -1242850.000000 0 1 0
22.092190 2.164431 7.886088 23.557164 0.097661 1.229442 0.178161 -0.029766 506295.000000 0 1 0
22.857090 1.359731 7.000688 23.943789 0.059418 1.274082 0.159848 -0.018522 -507974.000000 0 1 0
24.380490 1.549731 6.924888 25.392204 0.063479 1.294580 0.141993 -0.022379 -439481.000000 0 0 1
25.099590 1.189331 8.078188 26.394337 0.047349 1.259747 0.146806 -0.005657 362427.000000 0 0 1
25.098990 2.264731 9.048288 26.776105 0.089988 1.226086 0.146085 -0.010952 -769915.000000 0 0 1
25.723390 1.629131 10.284688 27.751066 0.063248 1.191136 0.122526 -0.002995 587620.000000 0 0 1
27.150090 1.430831 10.256588 29.058084 0.052652 1.210054 0.125323 -0.016377 1102730.000000 0 0 1
27.495790 0.792031 11.472888 29.803908 0.028798 1.175647 0.115571 -0.012479 -1149490.000000 0 0 1
28.984390 0.643131 11.548888 31.207135 0.022185 1.191710 0.191517 -0.019734 -838227.000000 0 0 1
29.792890 1.801231 11.691788 32.055555 0.060385 1.197448 0.180353 -0.016684 331145.000000 0 0 1
31.177540 1.602531 11.533888 33.281191 0.051355 1.216896 0.191946 -0.024657 147841.000000 0 0 1
31.960290 2.937231 11.624188 34.135161 0.091645 1.223311 0.173131 -0.025922 843298.000000 0 0 1
33.400960 2.919131 11.652888 35.495566 0.087175 1.236302 0.196850 -0.047676 1791040.000000 0 0 1
33.970910 4.255531 11.939488 36.258566 0.124621 1.235248 0.182257 -0.044043 -1481.840000 0 0 1
35.384780 4.526431 11.407488 37.452663 0.127229 1.261295 0.202729 -0.032164 -203343.000000 0 0 1
36.382370 3.951231 12.222988 38.583552 0.108179 1.248450 0.202987 -0.038679 382262.000000 0 0 1
-37.585168 4.298731 11.843088 39.640669 -0.113878 1.267402 0.200939 -0.027331 721580.000000 0 0 1
-36.549248 3.315531 12.534188 38.780744 -0.090466 1.241680 0.206914 -0.022109 -193192.000000 0 0 1
-36.588538 1.922931 12.180588 38.610691 -0.052507 1.249842 0.190138 -0.023134 876253.000000 0 0 1
37.542580 1.128631 12.510088 39.588147 0.030054 1.249280 0.178345 -0.026022 626470.000000 0 0 1
37.188010 0.888631 14.037588 39.759170 0.023891 1.209951 0.174232 -0.020270 -338192.000000 0 0 1
-37.196318 0.052231 14.688388 39.991468 -0.001404 1.194705 0.142058 -0.015169 23847.800000 0 0 1
-37.599278 -0.199769 16.007388 40.865414 0.005313 1.168307 0.137441 -0.014651 -378528.000000 0 0 1
-36.542408 -0.966469 16.779788 40.222418 0.026442 1.140462 0.121286 -0.002349 -633318.000000 0 0 1
-35.326803 -0.272369 16.901888 39.162878 0.007710 1.124554 0.135406 -0.012106 -479669.000000 0 0 1
-34.350098 -0.914169 17.666888 38.637855 0.026607 1.095904 0.126015 -0.001969 -250469.000000 0 0 1
-34.408552 -0.995569 19.186788 39.409040 0.028926 1.062302 0.110922 -0.006660 482158.000000 0 0 1
-35.411114 -1.905869 19.752388 40.592316 0.053769 1.062598 0.091095 -0.010023 856402.000000 0 0 1
-35.444792 -1.636669 21.125288 41.295154 0.046142 1.033787 0.083123 -0.010895 84487.400000 0 0 1
-36.028988 -2.738169 22.001688 42.304371 0.075853 1.023851 0.071532 -0.005538 430507.000000 0 0 1
-35.220677 -3.953569 21.990988 41.710075 0.111783 1.015454 0.090021 -0.007791 671544.000000 0 0 1
-35.775049 -4.997669 22.796198 42.714137 0.138799 1.007836 0.087758 -0.017411 50668.200000 0 0 1
-35.845892 -4.768869 24.327778 43.583378 0.132261 0.978594 0.094968 -0.019985 -232021.000000 0 0 1
-34.577239 -4.745669 24.908558 42.878236 0.136396 0.950945 0.109519 -0.017647 -815636.000000 0 0 1
-34.590104 -4.574769 26.299038 43.692599 0.131493 0.924905 0.120902 -0.031070 698330.000000 0 0 1
-33.331248 -3.774469 26.822418 42.949515 0.112761 0.896292 0.130868 -0.027666 774452.000000 0 0 1
-33.283238 -2.413369 26.495378 42.609897 0.072383 0.899741 0.127499 -0.019093 4219.900000 0 0 1
-33.004518 -2.137069 25.117498 41.530157 0.064661 0.921280 0.108597 -0.010345 -322067.000000 0 0 1
-32.855858 -0.623169 24.921318 41.242791 0.018964 0.921961 0.102477 -0.009930 100040.000000 0 0 1
-34.074699 0.070831 24.816258 42.153728 -0.002079 0.941336 0.113459 -0.018598 59626.500000 0 0 1
-33.756468 1.428831 24.559388 41.769657 -0.042302 0.942247 0.105224 -0.011566 373044.000000 0 0 1
-35.035776 2.253831 24.214948 42.649139 -0.064241 0.967001 0.135552 -0.010200 340768.000000 0 0 1
-35.745287 1.602331 23.156978 42.620871 -0.044796 0.996404 0.132823 -0.002697 8767.460000 0 0 1
-36.925078 2.310531 22.782498 43.449305 -0.062492 1.018849 0.124484 -0.000371 487145.000000 0 0 1
-36.706968 3.603831 21.909788 42.900209 -0.097865 1.034780 0.129040 -0.000166 -334276.000000 0 0 1
-36.299998 3.404931 20.562188 41.857938 -0.093526 1.057286 0.130961 -0.017335 648835.000000 0 0 1
-37.399738 3.517731 19.646888 42.392394 -0.093782 1.088908 0.141777 -0.020192 754162.000000 0 0 1
-36.893428 2.947031 18.293788 41.285260 -0.079710 1.111735 0.157420 -0.018300 150311.000000 0 0 1
-35.926199 3.733131 17.645388 40.199350 -0.103540 1.116370 0.196622 -0.031088 -199795.000000 0 0 1
-35.348636 2.983031 16.623288 39.175991 -0.084189 1.132582 0.202060 -0.022875 136433.000000 0 0 1
-34.275443 3.784331 15.797788 37.930163 -0.109964 1.141208 0.184688 -0.027684 578278.000000 0 0 1
-34.825562 4.877031 15.058988 38.254128 -0.139137 1.166190 0.205912 -0.032824 736984.000000 0 0 1
-33.734798 5.511931 14.387688 37.086703 -0.161959 1.172393 0.214422 -0.033853 481027.000000 0 0 1
-34.207940 6.713431 13.553488 37.402545 -0.193791 1.199989 0.236164 -0.033547 -281733.000000 0 0 1
-33.270768 7.162531 12.627788 36.300232 -0.212044 1.215497 0.247177 -0.032256 -215216.000000 0 0 1
-33.710568 8.310831 11.999688 36.735062 -0.241715 1.238034 0.219149 -0.026040 -267579.000000 0 0 1
-32.711208 8.929631 11.016888 35.652956 -0.266491 1.256651 0.234506 -0.028215 -206489.000000 0 0 1
-33.070268 10.225831 10.697788 36.230552 -0.299890 1.271058 0.208603 -0.004934 -15614.200000 0 0 1
-32.193608 10.854431 9.793988 35.357733 -0.325192 1.290129 0.203053 -0.016364 -65757.700000 0 0 1
-32.428398 12.386231 9.849588 36.083709 -0.364855 1.294323 0.174205 -0.014501 55368.700000 0 0 1
-31.727538 13.141531 8.880388 35.471084 -0.392687 1.317749 0.163674 -0.014794 -46494.000000 0 0 1
-31.833548 14.548931 9.155188 36.178220 -0.428686 1.314956 0.150238 -0.012364 102726.000000 0 0 1
-31.042708 15.531131 8.239388 35.675668 -0.463900 1.337740 0.139593 -0.011743 925457.000000 0 0 1
-29.616368 15.445331 8.322288 34.423073 -0.480710 1.326612 0.170729 -0.008596 563849.000000 0 0 1
-28.913298 16.461031 7.695588 34.149179 -0.517558 1.343492 0.152719 -0.025689 546127.000000 0 0 1
-27.374458 16.515531 8.011388 32.959157 -0.542856 1.325267 0.157551 -0.012121 899681.000000 0 0 1
-26.924058 16.963531 9.305488 33.155066 -0.562223 1.286309 0.153174 -0.017702 305411.000000 0 0 1
-27.039148 18.370331 9.462888 34.031321 -0.596765 1.289018 0.145696 -0.024822 -329470.000000 0 0 1
-26.812548 18.840831 10.886588 34.531253 -0.612527 1.250058 0.150623 -0.012498 400672.000000 0 0 1
-25.445978 18.799331 11.326888 33.603735 -0.636290 1.226991 0.135102 -0.007275 693132.000000 0 0 1
-25.220058 19.126231 12.686788 34.100126 -0.648839 1.189585 0.138592 -0.017303 -62418.600000 0 0 1
-25.906728 18.239731 13.744688 34.536398 -0.613441 1.161486 0.117429 -0.008340 -1976.210000 0 0 1
-25.158548 17.054431 13.991288 33.459861 -0.595724 1.139387 0.122989 -0.015531 33078.500000 0 0 1
-25.701568 16.263431 15.008388 33.916390 -0.564174 1.112399 0.110625 -0.013394 -374266.000000 0 0 1
-24.670268 15.241631 15.458188 32.861604 -0.553415 1.081049 0.111458 -0.006967 222515.000000 0 0 1
-23.639768 15.781231 16.277688 32.754374 -0.588629 1.050702 0.112161 -0.008372 154198.000000 0 0 1
-22.679468 14.911231 16.875288 31.960576 -0.581614 1.014549 0.096407 -0.024042 167585.000000 0 0 1
-23.067768 13.841931 17.900788 32.313452 -0.540460 0.983667 0.091760 -0.011860 -413568.000000 0 0 1
-23.267268 14.403931 19.176288 33.415102 -0.554319 0.959559 0.101540 -0.012608 -9811.810000 0 0 1
-23.619668 13.383631 20.050988 33.749851 -0.515522 0.934643 0.097921 -0.011947 -499723.000000 0 0 1
-23.102268 13.641231 21.515988 34.390925 -0.533384 0.894858 0.087542 -0.006072 67706.800000 0 0 1
-21.703368 13.483531 21.599088 33.456874 -0.555909 0.869014 0.098865 -0.009608 -371798.000000 0 0 1
-21.011568 14.673131 21.462088 33.427653 -0.609608 0.873632 0.108750 -0.000662 -1130210.000000 0 0 1
-19.586368 14.530631 22.014988 32.854600 -0.638281 0.836489 0.108554 -0.018913 314406.000000 0 0 1
-18.541268 14.077031 21.119488 31.432057 -0.649380 0.834013 0.096008 -0.022672 300081.000000 0 0 1
-18.045268 15.014331 20.246588 30.999777 -0.693973 0.859098 0.089829 -0.018998 -1305100.000000 0 0 1
-16.704968 14.515931 19.643788 29.591327 -0.715398 0.844860 0.079155 -0.008086 627541.000000 0 0 1
-15.638368 14.274731 20.567388 29.518536 -0.739843 0.799923 0.076547 -0.015230 218908.000000 0 0 1
-15.036468 15.495031 20.979088 30.105041 -0.800416 0.799782 0.062487 -0.014013 -714630.000000 0 0 1
-13.871868 15.327131 22.005188 30.192350 -0.835196 0.754180 0.041064 -0.014949 592321.000000 0 0 1
-12.742968 14.622731 21.484288 28.944466 -0.853981 0.734361 0.032661 -0.007048 438124.000000 0 0 1
-11.831868 14.267931 22.537188 29.180332 -0.878465 0.688277 0.041692 -0.013605 -93729.500000 0 0 1
-10.628968 13.521831 21.992788 27.919484 -0.904613 0.663694 0.036608 -0.013652 -898167.000000 0 0 1
-9.980468 12.794531 22.992968 28.142252 -0.908334 0.614561 0.038269 -0.020496 1756040.000000 0 0 1
-8.700368 12.148731 22.666868 27.149125 -0.949311 0.582841 0.043423 -0.001180 1701910.000000 0 0 1
-7.387068 12.922531 22.623498 27.081050 -1.051489 0.581937 0.043684 0.000307 -1014600.000000 0 0 1
-7.353268 13.687631 21.355988 26.410226 -1.077818 0.628984 0.027989 -0.005020 365839.000000 0 0 1
-6.529068 14.891031 21.377288 26.858146 -1.157583 0.650249 0.037486 -0.010377 290130.000000 0 0 1
-7.111268 16.119831 22.169088 28.317619 -1.155326 0.671527 0.051381 -0.011606 266439.000000 0 0 1
-8.252368 16.694531 21.565288 28.493343 -1.111707 0.712311 0.013766 -0.012960 -276769.000000 0 0 1
-7.834868 17.687731 20.654788 28.299492 -1.153817 0.752673 0.023459 -0.012494 -932584.000000 0 0 1
-8.869968 18.030731 19.523588 28.017032 -1.113621 0.799804 0.020304 -0.004298 138097.000000 0 0 1
-10.068068 18.640331 19.828788 29.017387 -1.075568 0.818467 0.010122 -0.000232 -505526.000000 0 0 1
-10.896768 17.911131 20.737788 29.489049 -1.024238 0.790856 0.022146 -0.002472 -662895.000000 0 0 1
-12.361668 18.440731 20.875488 30.473881 -0.980251 0.816153 0.026601 -0.002818 867822.000000 0 0 1
-13.095168 18.360931 19.617788 29.890882 -0.951261 0.854874 0.027902 -0.000900 124864.000000 0 0 1
-14.330668 19.015631 19.719888 30.916602 -0.924979 0.879104 0.020367 -0.000579 -52132.900000 0 0 1
-15.161068 19.091831 18.414388 30.552343 -0.899655 0.923896 0.035675 -0.001722 89351.100000 0 0 1
-15.849468 17.881231 18.074188 29.960313 -0.845560 0.923200 0.056543 -0.003462 -301536.000000 0 0 1
-16.589868 18.132131 16.952088 29.855840 -0.829786 0.966968 0.076128 -0.019398 -1027000.000000 0 0 1
-17.390868 16.919031 16.480888 29.331137 -0.771647 0.974127 0.080091 -0.025252 1017810.000000 0 0 1
-18.571168 16.460631 17.181188 30.183338 -0.725225 0.965230 0.084833 -0.019584 1370400.000000 0 0 1
-19.713768 17.329731 17.187788 31.374708 -0.721129 0.991036 0.103690 -0.024682 314623.000000 0 0 1
36.024200 -9.572769 11.833483 39.107700 -0.259729 1.263391 0.078412 -0.016422 106310.000000 0 0 1
34.700540 -9.996769 11.519483 37.904635 -0.280492 1.262005 0.087383 -0.007638 579895.000000 0 0 1
34.355980 -11.246769 12.177783 38.146056 -0.316365 1.245868 0.075844 -0.012825 207030.000000 0 0 1
32.873290 -11.669069 12.075283 36.913857 -0.341097 1.237541 0.119314 -0.013100 1166430.000000 0 0 1
31.844520 -11.005569 12.842283 36.057180 -0.332753 1.206636 0.130144 -0.000835 2119160.000000 0 0 1
30.447880 -11.348469 12.738183 34.901611 -0.356768 1.197191 0.141157 -0.011323 1379650.000000 0 0 1
29.875790 -12.041169 13.979483 35.113794 -0.383125 1.161330 0.108095 -0.012006 -683322.000000 0 0 1
29.910890 -11.276069 15.151583 35.374871 -0.360513 1.128169 0.124942 -0.015957 987197.000000 0 0 1
28.887390 -11.628069 16.132183 35.070509 -0.382686 1.092809 0.112337 -0.019694 1985450.000000 0 0 1
27.422990 -11.091569 15.841483 33.555862 -0.384347 1.079133 0.111532 -0.038254 820723.000000 0 0 1
27.338690 -9.744069 16.179883 33.228594 -0.342383 1.062229 0.099649 -0.023284 -489079.000000 0 0 1
26.425390 -9.078969 15.385483 31.897366 -0.330935 1.067468 0.130750 -0.025541 -248392.000000 0 0 1
26.250390 -7.653369 15.880283 31.620253 -0.283689 1.044634 0.163447 -0.031581 73050.900000 0 0 1
27.407390 -6.912469 15.574483 32.272461 -0.247059 1.067183 0.133996 -0.021548 12784.100000 0 0 1
27.458590 -5.674669 16.330183 32.447664 -0.203794 1.043409 0.142998 -0.016827 515661.000000 0 0 1
28.746590 -4.832869 16.028683 33.266225 -0.166562 1.068054 0.133122 -0.012747 476290.000000 0 0 1
28.850490 -4.342869 14.744383 32.689572 -0.149408 1.102863 0.151793 -0.006881 385308.000000 0 0 1
29.994190 -3.500269 14.645383 33.561742 -0.116173 1.119234 0.134933 -0.001736 251387.000000 0 0 1
30.295670 -2.891269 13.270583 33.200835 -0.095147 1.159600 0.141992 -0.008235 182148.000000 0 0 1
30.946320 -3.730669 12.284383 33.503711 -0.119974 1.195383 0.128850 -0.002413 434220.000000 0 0 1
31.217330 -2.994569 11.127883 33.276401 -0.095634 1.229820 0.137597 -0.014398 -87728.700000 0 0 1
31.771390 -3.818569 9.949683 33.511175 -0.119615 1.269345 0.172267 -0.020475 -24502.500000 0 0 1
33.040450 -4.405769 10.151483 34.844436 -0.132563 1.275172 0.155871 -0.024943 78150.900000 0 0 1
33.352730 -5.245869 9.075683 34.961289 -0.156006 1.308196 0.161191 -0.034885 -810708.000000 0 0 1
34.712080 -5.899469 8.978783 36.336631 -0.168346 1.321110 0.135639 -0.034395 -424831.000000 0 0 1
35.792510 -4.988069 8.786483 37.191220 -0.138469 1.332290 0.139673 -0.035893 358359.000000 0 0 1
36.999810 -5.708369 8.602483 38.413202 -0.153074 1.344935 0.139554 -0.041049 592473.000000 0 0 1
-37.040398 -4.855269 8.235583 38.254275 0.130337 1.353812 0.157583 -0.043318 452958.000000 0 0 1
-37.138008 -4.372769 6.922383 38.029885 0.117204 1.387751 0.166250 -0.050802 -94917.200000 0 0 1
-36.033628 -3.566669 6.600783 36.806437 0.098660 1.390483 0.173061 -0.040429 -184842.000000 0 0 1
-36.063938 -2.848769 5.219983 36.550941 0.078828 1.427492 0.166365 -0.046467 -151337.000000 0 0 1
-35.751617 -3.778169 4.223483 36.197935 0.105287 1.453852 0.183930 -0.059531 42915.300000 0 0 1
-35.744763 -3.310269 2.917083 36.016043 0.092345 1.489714 0.200681 -0.053432 130413.000000 0 0 1
-35.023871 -4.374269 2.000783 35.352637 0.124251 1.514171 0.241456 -0.057664 540239.000000 0 0 1
-35.761513 -5.613269 1.672383 36.237984 0.155694 1.524630 0.224017 -0.042680 847940.000000 0 0 1
-36.839438 -5.482869 0.720683 37.252187 0.147747 1.551449 0.194487 -0.039381 79236.600000 0 0 1
-36.475598 -5.488869 -0.817917 36.895337 0.149360 1.592967 0.244750 -0.045542 -722525.000000 0 0 1
-35.983850 -6.793469 -1.171117 36.638234 0.186596 1.602766 0.257840 -0.060617 117208.000000 0 0 1
-35.100646 -6.847969 -2.238717 35.832414 0.192675 1.633314 0.222100 -0.052883 515304.000000 0 0 1
-33.638468 -6.322369 -1.989917 34.285254 0.185783 1.628869 0.204996 -0.055889 340387.000000 0 0 1
-32.839298 -6.989569 -1.040517 33.591014 0.209712 1.601777 0.204566 -0.050771 -368305.000000 0 0 1
-31.534678 -6.472869 -1.044417 32.209079 0.202450 1.603228 0.213690 -0.052039 203285.000000 0 0 1
-30.534298 -7.346769 -0.214717 31.406440 0.236119 1.577633 0.189249 -0.048470 -4441.750000 0 0 1
-30.188608 -8.577969 -0.839317 31.394873 0.276849 1.597534 0.184598 -0.037236 474719.000000 0 0 1
-29.421658 -9.313569 0.121783 30.860838 0.306575 1.566850 0.202105 -0.040210 25171.100000 0 0 1
-28.956898 -10.753469 -0.203117 30.889809 0.355577 1.577372 0.159810 -0.026715 -192116.000000 0 0 1
-27.801598 -10.800669 -1.014017 29.843115 0.370546 1.604781 0.161185 -0.027379 45697.800000 0 0 1
-27.302628 -12.112669 -1.106217 29.889362 0.417556 1.607815 0.139645 -0.014522 93892.900000 0 0 1
-28.032878 -13.138169 -2.068017 31.027897 0.438271 1.637496 0.134230 -0.014869 44690.700000 0 0 1
-29.279718 -13.606169 -1.599817 32.326291 0.435008 1.620306 0.162268 -0.025497 207475.000000 0 0 1
-29.594018 -14.836469 -2.172017 33.175960 0.464714 1.636313 0.145749 -0.019351 -216723.000000 0 0 1
-30.867138 -15.511869 -1.643417 34.584666 0.465675 1.618333 0.161051 -0.020993 -275297.000000 0 0 1
-30.677328 -16.032769 -0.351017 34.616056 0.481584 1.580937 0.121033 -0.012675 704003.000000 0 0 1
-31.831468 -16.613469 0.276183 35.907185 0.481029 1.563105 0.158090 -0.015561 455082.000000 0 0 1
-31.993428 -18.172169 -0.036517 36.794136 0.516555 1.571789 0.149508 -0.014182 -74049.900000 0 0 1
-30.851848 -18.892969 0.370183 36.178969 0.549471 1.560564 0.169160 -0.025155 228924.000000 0 0 1
-31.012278 -20.309269 0.206783 37.071155 0.579797 1.565218 0.149045 -0.022151 488752.000000 0 0 1
-31.960998 -21.094469 1.206183 38.313664 0.583378 1.539309 0.135512 -0.026273 335071.000000 0 0 1
-31.368538 -21.254569 2.515983 37.974624 0.595517 1.504493 0.150427 -0.027544 618380.000000 0 0 1
-32.316038 -21.838069 3.413983 39.152048 0.594275 1.483487 0.144491 -0.029668 238851.000000 0 0 1
-31.727648 -22.192569 4.793783 39.014537 0.610371 1.447613 0.146688 -0.033991 -39303.200000 0 0 1
-31.273938 -20.965569 5.292583 38.021385 0.590572 1.431143 0.140687 -0.033395 -225391.000000 0 0 1
-30.429818 -21.112969 6.393483 37.584676 0.606570 1.399856 0.158583 -0.037209 117824.000000 0 0 1
-29.438858 -19.904069 6.589483 36.141937 0.594516 1.387448 0.176040 -0.035998 57620.100000 0 0 1
-28.516438 -20.268069 7.589583 35.799213 0.617905 1.357171 0.173883 -0.048134 -344869.000000 0 0 1
-27.758328 -19.097969 7.849683 34.595877 0.602633 1.341906 0.174216 -0.047911 367567.000000 0 0 1
-26.752598 -19.256569 9.032783 34.177597 0.623893 1.303329 0.170169 -0.042582 377718.000000 0 0 1
-27.437928 -19.354869 10.288083 35.118307 0.614345 1.273480 0.149068 -0.039703 92688.700000 0 0 1
-26.606018 -19.612769 11.391383 34.961472 0.635230 1.238910 0.132559 -0.026951 -212621.000000 0 0 1
-26.113348 -18.360369 12.164083 34.161016 0.612805 1.206726 0.112991 -0.026505 -335416.000000 0 0 1
-25.252998 -17.531369 11.381683 32.781176 0.606842 1.216211 0.112639 -0.029680 218032.000000 0 0 1
-24.847268 -16.366369 12.105683 32.121524 0.582452 1.184380 0.116496 -0.025541 564430.000000 0 0 1
-24.082668 -16.462569 13.493683 32.141415 0.599625 1.137547 0.107998 -0.030963 -50159.900000 0 0 1
-24.956068 -16.833369 14.523883 33.423208 0.593420 1.121263 0.099559 -0.038950 153216.000000 0 0 1
-24.252268 -17.002769 15.753683 33.547655 0.611450 1.081969 0.114180 -0.036951 337738.000000 0 0 1
-25.162968 -17.674069 16.829183 35.053803 0.612324 1.070032 0.109709 -0.014080 -290367.000000 0 0 1
-26.092178 -16.779669 17.328983 35.533825 0.571504 1.061371 0.120905 -0.018925 -96307.800000 0 0 1
-26.966698 -17.451969 18.251283 36.944328 0.574381 1.054088 0.100530 -0.003495 -15270.300000 0 0 1
-27.869578 -16.456469 18.982383 37.521455 0.533391 1.040363 0.104313 -0.002042 -490671.000000 0 0 1
-27.285368 -15.851769 20.098583 37.412871 0.526304 1.003670 0.100845 -0.008662 452953.000000 0 0 1
-28.122028 -14.875469 20.745183 37.980135 0.486547 0.992962 0.117870 -0.015555 408665.000000 0 0 1
-27.306858 -14.224569 21.904683 37.786479 0.480240 0.952440 0.114832 -0.018768 604465.000000 0 0 1
-26.288958 -13.321069 21.483383 36.470480 0.469007 0.940898 0.120364 -0.020361 405954.000000 0 0 1
-25.176058 -13.304269 22.343383 36.194810 0.486147 0.905479 0.112483 -0.022445 491843.000000 0 0 1
-23.857968 -12.683669 21.783083 34.707071 0.488632 0.892295 0.119302 -0.022574 417278.000000 0 0 1
-23.956868 -11.268569 21.614883 34.177702 0.439663 0.886115 0.140128 -0.019667 780951.000000 0 0 1
-22.822968 -10.717169 20.913583 32.758564 0.439015 0.878358 0.128860 -0.024820 171720.000000 0 0 1
-22.575268 -9.226069 21.356883 32.417272 0.387967 0.851558 0.133284 -0.017634 -70798.400000 0 0 1
-22.089768 -9.063969 22.678583 32.930708 0.389375 0.811135 0.120896 -0.018782 700129.000000 0 0 1
-20.695068 -9.374769 22.768483 32.164825 0.425342 0.784320 0.091744 -0.009724 389249.000000 0 0 1
-20.152068 -9.493869 24.225283 32.910541 0.440271 0.743513 0.065807 -0.012729 103284.000000 0 0 1
-20.320568 -10.833769 24.616683 33.708710 0.489809 0.752070 0.074766 -0.011219 45057.300000 0 0 1
-19.850268 -10.904969 25.956283 34.448224 0.502353 0.717447 0.071329 -0.012823 -797879.000000 0 0 1
-19.889468 -12.287069 26.654983 35.454917 0.553382 0.720010 0.075777 -0.034571 282829.000000 0 0 1
-21.141668 -12.569169 27.241383 36.702140 0.536381 0.734406 0.069092 -0.023113 234687.000000 0 0 1
-22.217468 -12.910269 26.354383 36.808212 0.526396 0.772752 0.061643 -0.014299 468351.000000 0 0 1
-23.544568 -13.254869 27.087383 38.259176 0.512746 0.784138 0.060398 -0.016641 163400.000000 0 0 1
-23.491568 -14.346469 27.982083 39.251394 0.548255 0.777180 0.050648 -0.012105 -360267.000000 0 0 1
-22.771268 -14.155969 29.188183 39.634229 0.556193 0.743005 0.047794 -0.012393 -77454.000000 0 0 1
-23.207068 -15.107169 30.355783 41.088540 0.577059 0.739524 0.034344 -0.012924 -867975.000000 0 0 1
-22.935868 -16.486069 30.167783 41.327227 0.623226 0.752513 0.038973 -0.012000 -154299.000000 0 0 1
-23.240968 -17.354469 31.287983 42.664483 0.641398 0.747560 0.044639 -0.006181 566042.000000 0 0 1
-24.724168 -17.564269 31.745283 43.903884 0.617678 0.762570 0.040575 -0.012684 592923.000000 0 0 1
-25.250968 -16.506569 32.564383 44.390509 0.578972 0.747208 0.048723 -0.015545 174648.000000 0 0 1
-26.547088 -16.823469 33.063283 45.617515 0.564847 0.760062 0.053388 -0.019227 277291.000000 0 0 1
-27.261058 -15.716269 -33.818721 46.193856 0.522968 2.392202 0.063423 -0.014613 76448.700000 0 0 1
-26.662188 -15.485569 -32.562621 44.844168 0.526187 2.383470 0.071495 -0.016162 314728.000000 0 0 1
-27.376108 -14.368469 -31.977921 44.480239 0.483333 2.373050 0.076893 -0.020091 115774.000000 0 0 1
-26.846708 -13.888569 -30.591821 43.005786 0.477414 2.362202 0.078497 -0.013064 55432.500000 0 0 1
-27.063568 -14.778969 -29.490221 42.667643 0.499831 2.333891 0.094885 -0.008891 398050.000000 0 0 1
-26.159148 -14.395869 -28.451121 41.243283 0.503088 2.332060 0.113880 -0.007150 103792.000000 0 0 1
-26.199258 -15.349269 -27.219621 40.778781 0.529962 2.301636 0.102683 -0.009142 451872.000000 0 0 1
-27.478788 -15.439869 -26.569321 41.223806 0.511921 2.271184 0.105749 -0.015454 842913.000000 0 0 1
-28.005618 -14.340569 -25.819721 40.701653 0.473249 2.257984 0.120337 -0.022813 -307457.000000 0 0 1
-27.255098 -14.059569 -24.524621 39.267912 0.476248 2.245347 0.107733 -0.033829 115769.000000 0 0 1
-25.929848 -13.558569 -24.738821 38.317112 0.481795 2.272649 0.068208 -0.025262 1066210.000000 0 0 1
-25.003238 -13.715769 -23.658421 37.054084 0.501737 2.263323 0.052647 -0.020921 555922.000000 0 0 1
-24.218368 -15.067369 -23.673321 37.067251 0.556545 2.263550 0.033223 -0.013989 -587422.000000 0 0 1
-23.229768 -15.170569 -24.652021 37.114558 0.578527 2.297239 0.024967 -0.003562 -290323.000000 0 0 1
-23.031268 -16.554869 -24.916521 37.753623 0.623232 2.291584 0.053549 -0.002565 -120894.000000 0 0 1
-22.167668 -16.819669 -26.169621 38.198898 0.649076 2.325521 0.024657 -0.001855 -356477.000000 0 0 1
-22.791668 -16.796269 -27.443821 39.430167 0.635095 2.340623 0.042259 -0.005299 32626.300000 0 0 1
-23.613168 -17.936469 -27.657821 40.549398 0.649614 2.321396 0.053346 -0.002914 176516.000000 0 0 1
-24.443368 -18.008069 -28.966721 41.962361 0.634952 2.332703 0.061635 -0.009905 306976.000000 0 0 1
-23.642268 -18.417569 -30.052921 42.442217 0.661811 2.357586 0.056274 -0.010165 362578.000000 0 0 1
-24.317568 -18.014369 -31.236021 43.491960 0.637585 2.372012 0.050714 -0.010973 -244871.000000 0 0 1
-23.676268 -18.466369 -32.585521 44.310142 0.662397 2.397048 0.049550 -0.012979 -385359.000000 0 0 1
-22.458568 -17.819469 -32.872921 43.618227 0.670727 2.424396 0.044382 -0.011219 833574.000000 0 0 1
-21.235068 -18.422669 -32.382021 42.882609 0.714600 2.426651 0.055143 -0.024605 541461.000000 0 0 1
-20.741768 -19.640769 -33.136821 43.749625 0.758141 2.430148 0.066055 -0.026135 -903052.000000 0 0 1
-20.284368 -19.291269 33.259583 43.471928 0.760310 0.699628 0.067504 -0.024668 -150894.000000 0 0 1
-20.085468 -20.476769 32.473083 43.326957 0.795045 0.723506 0.069266 -0.028459 420670.000000 0 0 1
-21.379168 -21.028869 31.761883 43.681797 0.777138 0.756680 0.068776 -0.021857 629273.000000 0 0 1
-22.232368 -21.722269 32.682283 45.102847 0.773794 0.760318 0.070000 -0.012153 72230.400000 0 0 1
-23.397168 -22.262469 32.084483 45.524269 0.760552 0.788687 0.060025 -0.004385 34268.300000 0 0 1
-23.144468 -23.385669 30.980783 45.192531 0.790582 0.815466 0.061989 0.001237 -436546.000000 0 0 1
-22.474568 -24.509869 31.546783 45.837096 0.828690 0.811740 0.081346 0.005073 -60758.600000 0 0 1
-22.425168 -25.513739 30.608183 45.724172 0.849736 0.837383 0.081801 0.013035 32531.800000 0 0 1
-22.088268 -26.871489 31.246283 46.757873 0.882786 0.838933 0.079314 -0.001750 28108.300000 0 0 1
-23.110868 -27.342209 32.107783 48.089691 0.869069 0.839729 0.084800 0.000484 90459.000000 0 0 1
-22.667368 -28.423409 32.948283 49.064133 0.897588 0.834518 0.098064 -0.011324 -622747.000000 0 0 1
-23.688968 -28.951359 -33.701021 50.349848 0.885036 2.304113 0.081236 -0.009463 1305870.000000 0 0 1
-24.882868 -29.626599 33.339883 51.072892 0.872205 0.859534 0.063552 -0.009536 3546850.000000 0 0 1
-25.987588 -28.770289 32.801083 50.783810 0.836173 0.868599 0.062654 -0.002667 1292910.000000 0 0 1
-26.779538 -28.097429 -33.713421 51.412099 0.809409 2.285970 0.035816 0.002969 -971311.000000 0 0 1
-27.894048 -27.407059 33.466283 51.470544 0.776592 0.862945 0.027978 -0.001950 -116442.000000 0 0 1
-28.813508 -27.098579 -33.149321 51.608417 0.754736 2.268323 0.024390 0.008452 667847.000000 0 0 1
-30.098588 -26.335369 -33.614121 52.243524 0.718813 2.269744 0.027012 0.001407 205924.000000 0 0 1
-31.048868 -27.106489 33.365183 53.028571 0.717711 0.890282 0.021986 0.000007 -1057290.000000 0 0 1
-32.165948 -26.318509 33.171983 53.176053 0.685747 0.897183 0.044043 -0.012911 -687209.000000 0 0 1
