# x y z rho theta phi s1 s2 stress_xx np intf bulk
-0.686306 -10.711048 -14.329579 17.903475 1.506809 2.498725 0.012382 -0.000774 741174.000000 1 0 0
2.161094 -13.394348 -13.117379 18.871792 -1.410831 2.339326 0.007763 0.009199 1942900.000000 1 0 0
2.199794 -11.074648 -14.685779 18.524552 -1.374715 2.486143 0.007510 0.002318 405751.000000 1 0 0
-5.684006 -6.369348 -16.472379 18.553054 0.842196 2.663454 0.028048 -0.002345 -766434.000000 1 0 0
4.535894 -14.057448 -11.480479 18.707955 -1.258675 2.231495 0.004369 0.006094 -59169.800000 1 0 0
14.040894 -10.498348 -7.940679 19.246205 -0.642026 1.996085 0.049750 -0.013376 -751914.000000 1 0 0
6.925594 10.804852 -10.796779 16.771378 1.000795 2.270201 0.033833 -0.018130 166708.000000 1 0 0
5.763894 -4.164548 -12.554179 14.428213 -0.625683 2.626228 0.014552 -0.006710 1940620.000000 1 0 0
13.711894 0.571552 -10.011579 16.987478 0.041659 2.201051 0.032321 -0.001985 1875830.000000 1 0 0
14.056394 5.089752 -10.309879 18.159884 0.347409 2.174540 0.038664 -0.005990 -272092.000000 1 0 0
4.115094 4.304752 -13.405479 14.668734 0.807919 2.723540 0.004212 0.001311 2371270.000000 1 0 0
10.472494 -4.994648 -13.752379 17.992987 -0.445022 2.440781 0.039707 -0.005060 -1105630.000000 1 0 0
2.635894 -7.510748 -12.009179 14.407625 -1.233276 2.556262 0.000401 -0.001670 1331290.000000 1 0 0
-5.575906 -2.077248 -15.124379 16.252770 0.356612 2.766770 0.017117 -0.001344 1378330.000000 1 0 0
10.644294 0.154752 -9.658879 14.374244 0.014537 2.307645 0.008766 0.002723 2559450.000000 1 0 0
-1.605706 -9.544848 -16.869179 19.448692 1.404129 2.620686 0.022342 -0.010451 858767.000000 1 0 0
8.657994 1.690552 -18.043079 20.084111 0.192833 2.686854 0.028814 -0.007696 -1431010.000000 1 0 0
16.561194 -5.840748 -8.827779 19.654952 -0.339057 2.036596 0.097795 -0.014296 -1120370.000000 1 0 0
10.018594 7.611352 -9.944679 16.037504 0.649695 2.239652 0.025584 -0.004499 502882.000000 1 0 0
13.876394 -2.230048 -10.607079 17.607883 -0.159346 2.217307 0.048535 -0.006087 -2489570.000000 1 0 0
7.238694 -1.818548 -13.715579 15.614830 -0.246132 2.643235 0.022497 -0.006480 1643430.000000 1 0 0
-2.884406 6.643952 -13.796579 15.582281 -1.161209 2.658154 0.004187 0.000241 1334720.000000 1 0 0
11.225994 1.794852 -13.995479 18.031025 0.158542 2.459395 0.025806 -0.002117 133421.000000 1 0 0
-2.306406 10.710052 -12.835479 16.875255 -1.358686 2.435048 0.000132 -0.000190 -1971940.000000 1 0 0
2.833494 -0.930048 -15.213579 15.503118 -0.317154 2.948023 0.015304 -0.006155 7765.180000 1 0 0
-9.074206 0.419852 -15.232279 17.735271 -0.046236 2.603854 0.017584 -0.002619 -1503730.000000 1 0 0
2.343494 -1.705848 -17.926679 18.159507 -0.629212 2.981288 0.032501 -0.018247 -490990.000000 1 0 0
0.924294 7.879452 -13.202379 15.402691 1.454026 2.600502 0.000958 -0.002341 -993928.000000 1 0 0
9.344494 -8.928348 -9.850179 16.249954 -0.762628 2.222028 0.021628 -0.003342 864601.000000 1 0 0
3.850994 7.318552 -13.349179 15.703246 1.086412 2.586953 0.000454 -0.003259 1487770.000000 1 0 0
-2.818706 9.115252 -15.419179 18.132402 -1.270894 2.587477 0.002102 0.000519 -474491.000000 1 0 0
5.559394 -7.568348 -15.263879 17.921293 -0.937251 2.590051 0.035916 -0.011378 651820.000000 1 0 0
4.272494 7.382552 -16.228579 18.333659 1.046164 2.657676 -0.000004 -0.001343 353146.000000 1 0 0
-0.320406 5.064452 -13.467379 14.391721 -1.507615 2.781240 0.010203 -0.003414 1508630.000000 1 0 0
8.815894 4.194052 -16.590679 19.249953 0.444050 2.609714 0.019015 -0.007603 -379350.000000 1 0 0
5.295494 0.400252 -14.329079 15.281524 0.075440 2.786670 0.007558 -0.000995 1238090.000000 1 0 0
6.224694 7.903152 -11.495679 15.276035 0.903649 2.422692 0.004322 -0.002850 -430881.000000 1 0 0
2.779294 -8.302048 -15.007279 17.374317 -1.247752 2.613485 0.017476 -0.006482 -413323.000000 1 0 0
3.918094 11.363652 -13.890879 18.369555 1.238769 2.428268 0.018937 -0.016134 114816.000000 1 0 0
0.599294 -4.558048 -13.669579 14.421940 -1.440066 2.817161 0.008940 -0.004461 1772060.000000 1 0 0
8.497294 -0.008548 -11.674879 14.439767 -0.001006 2.512434 0.004068 -0.001452 145297.000000 1 0 0
-0.971806 -5.027848 -16.240079 17.028325 1.379866 2.836136 0.011550 -0.010764 257992.000000 1 0 0
4.433594 0.889352 -11.646579 12.493618 0.197967 2.771247 0.007311 -0.002783 679035.000000 1 0 0
-2.910006 -7.148048 -15.680479 17.476846 1.184180 2.684217 0.009858 -0.001698 3067470.000000 1 0 0
11.520094 -3.764648 -11.387679 16.630225 -0.315850 2.325068 0.022955 -0.004258 598556.000000 1 0 0
6.552694 -6.984148 -12.546679 15.784020 -0.817260 2.489635 0.024241 -0.006356 -1172390.000000 1 0 0
3.410394 -3.903348 -14.553179 15.448687 -0.852698 2.799436 0.022261 -0.008624 2084210.000000 1 0 0
-0.598206 -1.441748 -18.281879 18.348395 1.177497 3.056418 0.028855 -0.014524 1563340.000000 1 0 0
14.922394 3.031252 -8.404279 17.392476 0.200408 2.075118 0.025692 -0.001735 -1404080.000000 1 0 0
6.932294 4.347852 -14.317579 16.491015 0.560171 2.622369 0.001225 0.002481 2369560.000000 1 0 0
10.324094 -9.596448 -13.829679 19.746867 -0.748887 2.346681 0.064139 -0.018050 -1471880.000000 1 0 0
9.207894 -3.090548 -15.499679 18.291442 -0.323826 2.581815 0.047248 -0.016346 -1238850.000000 1 0 0
-5.243206 -2.263948 -18.084679 18.965028 0.407605 2.835706 0.015472 0.006937 285963.000000 1 0 0
5.084394 -9.052748 -11.079779 15.184361 -1.059060 2.388655 -0.000295 0.002114 2432420.000000 1 0 0
-2.382506 3.861152 -17.194079 17.782609 -1.017938 2.883600 0.019776 0.003932 1701590.000000 1 0 0
9.086594 9.541352 -14.532579 19.616305 0.809806 2.405119 0.063393 -0.009804 -301383.000000 1 0 0
9.651994 10.106752 -11.585679 18.153109 0.808410 2.262980 0.040666 -0.014421 -392037.000000 1 0 0
12.065794 -5.921548 -9.681379 16.564335 -0.456238 2.195025 0.028581 -0.006064 840267.000000 1 0 0
7.934294 6.970052 -13.785479 17.365888 0.720793 2.487870 0.009197 0.000645 -1979890.000000 1 0 0
3.926194 -4.092648 -17.378579 18.280585 -0.806153 2.826145 0.048872 -0.023769 -488540.000000 1 0 0
9.347294 -7.316148 -12.365779 17.140899 -0.664104 2.376646 0.030894 -0.008906 -317910.000000 1 0 0
12.064894 -8.599548 -8.822779 17.243994 -0.619248 2.107893 0.040685 -0.011110 -103021.000000 1 0 0
-2.908106 -2.528248 -13.854779 14.380682 0.715638 2.870317 0.010050 -0.007780 -1494180.000000 1 0 0
-0.291006 6.111252 -17.579679 18.613898 -1.523214 2.806678 0.014985 -0.000111 1743040.000000 1 0 0
1.040894 -8.386048 -17.377979 19.323649 -1.447306 2.688989 0.024633 -0.015525 1701390.000000 1 0 0
-0.038306 8.572752 -16.020079 18.169658 -1.566328 2.650237 0.001714 0.002860 88760.000000 1 0 0
1.761094 3.413452 -14.868879 15.356975 1.094488 2.888796 0.010008 -0.004248 2153240.000000 1 0 0
-1.888806 -0.455648 -15.788579 15.907685 0.236713 3.019145 0.017304 -0.007011 2246880.000000 1 0 0
14.179994 -4.270148 -8.510779 17.080391 -0.292501 2.092408 0.046361 -0.002484 -276428.000000 1 0 0
0.560794 0.653952 -14.508679 14.534232 0.861938 3.082286 0.010320 -0.004661 319266.000000 1 0 0
8.820294 2.796452 -12.577679 15.614600 0.307022 2.507328 0.004830 0.003114 1746730.000000 1 0 0
6.025194 0.904152 -17.111879 18.164164 0.148950 2.799540 0.024437 -0.002669 328569.000000 1 0 0
15.284494 1.614852 -12.393979 19.744220 0.105262 2.249426 0.074111 -0.019661 -139579.000000 1 0 0
8.829894 -11.100748 -11.861879 18.490479 -0.898847 2.267265 0.043070 -0.005673 1816380.000000 1 0 0
-4.648606 0.675952 -15.066679 15.781992 -0.144397 2.839364 0.014890 -0.004555 686224.000000 1 0 0
2.489194 5.169252 -17.141579 18.076255 1.122027 2.818609 0.010004 -0.005634 1261100.000000 1 0 0
5.949294 -11.628848 -12.397579 18.009003 -1.097914 2.330091 0.011914 0.006422 245642.000000 1 0 0
12.700194 7.221952 -8.718479 17.013623 0.517048 2.108821 0.021494 -0.005263 841163.000000 1 0 0
-4.941306 3.450352 -15.659579 16.779269 -0.609562 2.774207 0.011944 0.002921 3272290.000000 1 0 0
-0.654906 -4.306048 -19.072679 19.563692 1.419863 2.917076 0.024463 -0.013838 -800003.000000 1 0 0
9.788094 4.436952 -10.219779 14.830280 0.425596 2.331064 0.002455 0.004180 1702170.000000 1 0 0
13.276094 3.677252 -12.797879 18.803259 0.270209 2.319405 0.059734 -0.013913 265075.000000 1 0 0
-6.073006 5.821552 -17.119079 19.074453 -0.764261 2.684835 0.015016 0.007698 -133601.000000 1 0 0
-10.059506 3.128452 -15.415979 18.671724 -0.301513 2.542118 0.033657 -0.009749 -353138.000000 1 0 0
10.687194 13.592552 -8.331579 19.193457 0.904494 2.019818 0.113094 -0.018015 -322599.000000 1 0 0
7.352794 13.311552 -12.333879 19.580234 1.066142 2.252240 0.077262 -0.025988 101108.000000 1 0 0
5.265494 15.044452 -11.226479 19.496020 1.234125 2.184421 0.042130 -0.019039 42179.800000 1 0 0
14.249494 9.657352 -9.618679 19.718811 0.595625 2.080355 0.099739 -0.021772 201505.000000 1 0 0
8.552194 -17.177948 -2.081979 19.301724 -1.108863 1.678872 0.038775 -0.005195 487707.000000 1 0 0
0.793594 -16.089048 -0.014779 16.108615 -1.521511 1.571714 0.020651 -0.010039 3076200.000000 1 0 0
-9.117806 -11.755248 7.618821 16.714266 0.911088 1.097495 0.027317 -0.009594 191129.000000 1 0 0
2.154194 -15.980048 -2.668479 16.343906 -1.436799 1.734801 0.021025 -0.008951 1057010.000000 1 0 0
-1.213206 -11.009148 -9.370179 14.507704 1.461039 2.272967 0.001383 0.001270 999364.000000 1 0 0
-4.724906 -12.636648 -13.097479 18.803021 1.212986 2.341392 0.039850 -0.003377 634569.000000 1 0 0
-8.142206 -17.916248 -1.782279 19.760162 1.144240 1.661115 0.027144 -0.017187 -122752.000000 1 0 0
-11.342906 -7.157548 -8.845379 16.066510 0.562913 2.153816 0.026526 -0.009135 2257290.000000 1 0 0
-13.605006 -11.590348 -4.722679 18.486105 0.705606 1.829132 0.043407 -0.006612 -579928.000000 1 0 0
-5.621906 -13.494348 9.805121 17.602377 1.176052 0.979986 0.021784 -0.005707 621175.000000 1 0 0
0.202694 -14.094048 -3.659279 14.562747 -1.556416 1.824795 0.011221 -0.005201 -2270330.000000 1 0 0
-14.704306 -11.470548 1.983521 18.754318 0.662477 1.464835 0.023686 -0.006627 -236358.000000 1 0 0
-3.913106 -16.575748 -7.591979 18.646876 1.338967 1.990122 0.016478 -0.014711 516216.000000 1 0 0
0.601394 -15.199448 -9.221279 17.788111 -1.531250 2.115770 0.001728 -0.001995 1756480.000000 1 0 0
4.621994 -14.127248 -2.590479 15.088159 -1.254604 1.743341 0.018284 -0.004208 2049500.000000 1 0 0
-3.423206 -18.121748 -2.490179 18.609597 1.384096 1.705010 0.026826 -0.026835 1299700.000000 1 0 0
-0.886706 -13.513248 0.629621 13.556937 1.505273 1.524337 0.012818 -0.007933 4301760.000000 1 0 0
-8.400706 -11.501948 -10.691179 17.809211 0.939976 2.214694 0.040367 -0.006238 1325280.000000 1 0 0
-3.685106 -14.222148 -0.491779 14.700046 1.317262 1.604257 0.005130 -0.005719 3239330.000000 1 0 0
-1.524206 -14.919148 -7.305579 16.681597 1.468985 2.024105 0.006200 -0.006733 -27895.500000 1 0 0
-14.207606 -8.000848 -1.791379 16.403618 0.512874 1.680221 0.025014 -0.006469 875528.000000 1 0 0
-10.680406 -7.455048 -11.653979 17.477530 0.609390 2.300700 0.034293 -0.010345 763321.000000 1 0 0
-9.464406 -14.734648 6.837621 18.799944 0.999837 1.198555 0.020096 -0.001725 -89336.100000 1 0 0
-2.370606 -14.268348 -12.308479 18.992214 1.406156 2.275857 0.030234 -0.005578 520271.000000 1 0 0
2.375294 -17.755148 -4.955679 18.586179 -1.437805 1.840694 0.035380 -0.020254 -265832.000000 1 0 0
-6.612706 -9.794548 -9.268279 15.018724 0.976949 2.235867 0.023583 -0.006419 911995.000000 1 0 0
-10.983906 -15.455448 0.181221 18.961802 0.952937 1.561239 0.023270 -0.010646 1106470.000000 1 0 0
-12.588406 -11.021248 4.116421 17.230230 0.719118 1.329556 0.026146 -0.005977 2210610.000000 1 0 0
-17.012206 -8.852948 -1.469979 19.234103 0.479825 1.647297 0.028051 -0.008230 -193564.000000 1 0 0
-1.206506 -19.145548 -3.876679 19.571314 1.507862 1.770195 0.036527 -0.033027 -557823.000000 1 0 0
3.372494 -14.203148 -8.796079 17.043302 -1.337667 2.113090 0.006640 -0.003447 157450.000000 1 0 0
-4.288606 -8.018748 -13.035379 15.893822 1.079680 2.532476 0.014463 -0.000360 1724130.000000 1 0 0
5.553094 -16.550748 1.215221 17.499739 -1.247080 1.501298 0.030684 -0.004986 2545030.000000 1 0 0
-2.720806 -13.959248 -3.279879 14.595239 1.378299 1.797455 0.003523 -0.006394 -303391.000000 1 0 0
-0.398906 -14.087548 3.648021 14.557685 1.542488 1.317506 0.010068 -0.004734 -4165700.000000 1 0 0
1.326894 -16.148148 7.043721 17.667409 -1.488811 1.160714 0.025910 -0.010770 1323870.000000 1 0 0
-5.516706 -10.269848 -14.673679 18.740883 1.077853 2.470234 0.041377 -0.006312 -602450.000000 1 0 0
-0.284406 -17.240548 -5.930079 18.234123 1.554301 1.902039 0.022350 -0.018932 -236017.000000 1 0 0
-6.473406 -13.457548 -1.370579 14.996302 1.122444 1.662319 0.005049 -0.003476 3154320.000000 1 0 0
-1.742406 -17.815748 -0.075179 17.900908 1.473305 1.574996 0.021131 -0.016712 1792020.000000 1 0 0
-9.439206 -9.885548 -4.938579 14.533143 0.808491 1.917516 0.019540 -0.001965 1228470.000000 1 0 0
-0.746706 -16.755448 4.925421 17.480343 1.526261 1.285159 0.031659 -0.010321 4293100.000000 1 0 0
-6.788206 -9.971248 -6.384079 13.647784 0.973088 2.057567 0.015797 -0.005161 2029060.000000 1 0 0
-5.940006 -14.540948 -8.635279 17.924589 1.182982 2.073454 0.027313 -0.011251 334762.000000 1 0 0
-5.653806 -12.268048 -10.426179 17.063873 1.138951 2.228131 0.032988 -0.005572 79521.300000 1 0 0
-10.705306 -12.214748 -9.093879 18.614572 0.851160 2.081207 0.052730 -0.015887 235702.000000 1 0 0
4.085994 -17.215448 6.812021 18.959711 -1.337764 1.203290 0.039379 -0.008833 895391.000000 1 0 0
-6.663506 -14.492948 -4.193479 16.493427 1.139843 1.827870 0.018980 -0.011863 -397908.000000 1 0 0
-2.764306 -12.197348 -7.047579 14.355663 1.347929 2.083950 0.004976 -0.003530 2205280.000000 1 0 0
-7.002106 -12.837748 4.434921 15.280897 1.071468 1.276333 0.004323 -0.003738 2789200.000000 1 0 0
2.642394 -16.437048 2.312821 16.807973 -1.411402 1.432756 0.025856 -0.010276 2646720.000000 1 0 0
-6.194906 -12.061648 7.325721 15.411892 1.096325 1.075458 0.013377 -0.003210 2316550.000000 1 0 0
-11.221906 -12.778248 -0.985579 17.034852 0.850155 1.628685 0.026791 -0.005124 120019.000000 1 0 0
-14.178506 -8.731348 4.723221 17.308244 0.551968 1.294402 0.023105 -0.009647 108025.000000 1 0 0
-7.996906 -15.470448 4.404621 17.963462 1.093708 1.323071 0.012725 -0.002037 -111167.000000 1 0 0
-16.382306 -9.134048 1.284721 18.800567 0.508626 1.502409 0.018468 -0.003948 -2534180.000000 1 0 0
-6.737106 -17.083548 2.273421 18.504180 1.195160 1.447625 0.016850 -0.008746 1049070.000000 1 0 0
-11.611706 -15.077948 -4.580579 19.574421 0.914547 1.806995 0.060789 -0.009865 153208.000000 1 0 0
-10.080606 -10.083148 -12.694379 19.090201 0.785524 2.298248 0.038386 -0.004096 -972258.000000 1 0 0
-4.319106 -16.067448 -4.652979 17.276220 1.308193 1.843492 0.009636 -0.013708 -762958.000000 1 0 0
-11.797406 -8.368548 0.024521 14.464163 0.616977 1.569101 0.006773 -0.000913 2656390.000000 1 0 0
-9.592706 -11.204248 3.535221 15.167498 0.862733 1.335554 0.010037 0.001314 1070600.000000 1 0 0
-14.103906 -12.779748 -0.532479 19.040107 0.736183 1.598766 0.021909 -0.008688 431689.000000 1 0 0
5.632194 -14.800648 -7.110479 17.359139 -1.207180 1.992823 0.013907 -0.014534 -881395.000000 1 0 0
-7.410206 -10.617248 -1.299779 13.012553 0.961454 1.670850 0.007331 -0.000208 1714560.000000 1 0 0
-11.594106 -8.283648 -6.049679 15.480334 0.620372 1.972294 0.018082 -0.006827 -216746.000000 1 0 0
-14.354406 -6.689548 -9.211879 18.320965 0.436102 2.097637 0.037759 -0.018101 2508180.000000 1 0 0
-3.915706 -16.428748 1.497721 16.955226 1.336817 1.482347 0.016646 -0.014374 1785090.000000 1 0 0
-7.967606 -15.585148 0.056921 17.503795 1.098205 1.567544 0.020377 -0.012777 -263136.000000 1 0 0
1.084094 -18.587848 3.644521 18.972767 -1.512540 1.377503 0.038343 -0.015829 -81462.500000 1 0 0
-14.083106 -8.821548 -4.558579 17.231780 0.559600 1.838528 0.028803 -0.011176 502486.000000 1 0 0
-3.159306 -14.540648 11.176721 18.609964 1.356848 0.926573 0.012648 -0.008449 761748.000000 1 0 0
-10.843606 -12.162748 -3.861179 16.745894 0.842674 1.803465 0.038913 -0.010332 1288690.000000 1 0 0
-9.909606 -10.704648 0.557821 14.597978 0.823947 1.532575 0.009374 0.002146 2034040.000000 1 0 0
0.037994 -13.157148 -11.106179 17.217991 -1.567909 2.271863 0.007186 -0.001110 617536.000000 1 0 0
-5.786506 -12.715748 -6.343579 15.343237 1.143737 1.997030 0.013724 -0.011351 2253260.000000 1 0 0
1.927594 -15.638748 9.922721 18.621129 -1.448157 1.008803 0.021436 -0.016759 302951.000000 1 0 0
-9.009206 -15.653548 -5.670679 18.930293 1.048558 1.875023 0.054075 -0.016448 -1097900.000000 1 0 0
-3.412506 -15.558348 5.772821 16.942044 1.354879 1.223093 0.015664 -0.007406 -24431.300000 1 0 0
-17.451406 -5.512748 -6.573279 19.446079 0.305972 1.915615 0.036412 -0.012985 1000200.000000 1 0 0
18.851294 5.627052 -2.985379 19.898429 0.290077 1.721396 0.022090 -0.006063 -933065.000000 1 0 0
12.960294 -12.431848 -5.903679 18.904325 -0.764590 1.888402 0.044674 -0.004991 -2029350.000000 1 0 0
11.041594 -13.412148 -1.550179 17.441490 -0.882037 1.659793 0.030453 -0.008398 1714590.000000 1 0 0
18.818294 -2.753448 4.465421 19.535855 -0.145287 1.340182 0.098885 -0.026961 -725886.000000 1 0 0
8.789394 -16.817848 4.978021 19.618210 -1.089215 1.314246 0.057474 -0.018548 1324180.000000 1 0 0
18.268094 -1.055448 6.653821 19.470761 -0.057711 1.222035 0.125372 -0.023616 436679.000000 1 0 0
17.996194 -4.071348 -5.069879 19.134851 -0.222489 1.838954 0.091906 -0.008421 -208636.000000 1 0 0
5.411794 -11.703448 14.846921 19.664416 -1.137670 0.715120 -0.002741 0.001374 91640.000000 1 0 0
15.987494 -8.849448 -0.820379 18.291684 -0.505544 1.615661 0.045997 -0.007208 430285.000000 1 0 0
13.887194 -12.529548 -1.332279 18.751498 -0.734050 1.641905 0.038085 -0.005437 42774.900000 1 0 0
11.243494 -1.818548 13.869321 17.946624 -0.160354 0.687540 0.043022 -0.013243 -1525950.000000 1 0 0
17.021094 -6.148048 -1.398479 18.151360 -0.346619 1.647918 0.058519 -0.010505 -1068420.000000 1 0 0
17.734994 3.780952 -0.929179 18.157339 0.210047 1.621992 0.012731 -0.008150 -74706.700000 1 0 0
9.887894 -11.027948 9.516021 17.605134 -0.839851 0.999735 0.024877 0.001006 785576.000000 1 0 0
9.171694 -10.954748 4.331321 14.929394 -0.873760 1.276444 0.008799 -0.007697 848445.000000 1 0 0
14.108994 -9.991448 6.768021 18.566067 -0.616183 1.197661 0.042171 -0.012993 497113.000000 1 0 0
16.256494 -0.491748 -4.663779 16.919404 -0.030240 1.850059 0.024701 -0.000360 337580.000000 1 0 0
15.750694 -0.451748 -1.689179 15.847452 -0.028673 1.677589 0.022511 -0.004293 2091760.000000 1 0 0
12.908294 -5.086448 -0.182679 13.875495 -0.375362 1.583962 0.012158 -0.008408 834058.000000 1 0 0
14.335994 -7.402648 1.153621 16.175622 -0.476656 1.499417 0.034102 -0.008206 2248810.000000 1 0 0
15.567194 2.537952 3.701421 16.201211 0.161610 1.340295 0.036241 -0.010769 951834.000000 1 0 0
15.920594 -6.870348 5.058521 18.062547 -0.407396 1.286944 0.065437 -0.021365 -1814960.000000 1 0 0
13.840994 -11.898248 3.244721 18.538329 -0.710063 1.394862 0.035222 -0.009068 1881930.000000 1 0 0
14.098294 -0.780148 9.267121 16.889347 -0.055280 0.989992 0.072958 -0.014507 538125.000000 1 0 0
14.113794 -2.783448 -1.589879 14.473233 -0.194716 1.680868 0.013856 -0.004526 533900.000000 1 0 0
15.073994 2.001652 9.204521 17.775126 0.132016 1.026482 0.088928 -0.012791 -143695.000000 1 0 0
14.386494 -10.113448 -3.011279 17.841548 -0.612725 1.740387 0.042391 -0.009255 -267721.000000 1 0 0
7.427994 -12.509948 6.154421 15.797177 -1.034973 1.170610 0.000932 -0.002401 278165.000000 1 0 0
12.452794 -4.527648 7.030721 15.000090 -0.348726 1.082964 0.021429 -0.009311 2145960.000000 1 0 0
14.930194 -8.799648 -5.646879 18.227225 -0.532579 1.885784 0.061889 -0.010154 -1212400.000000 1 0 0
14.348794 -4.330348 4.711921 15.711206 -0.293100 1.266200 0.031408 -0.011767 1344780.000000 1 0 0
17.185994 -4.109448 0.905421 17.693663 -0.234709 1.519602 0.043039 -0.016636 -690674.000000 1 0 0
10.296594 -14.331448 1.196021 17.687304 -0.947787 1.503124 0.042600 -0.013077 31293.700000 1 0 0
16.493994 -2.453848 8.582321 18.754451 -0.147689 1.095485 0.108549 -0.020657 1306010.000000 1 0 0
16.147294 -2.492648 3.146821 16.638836 -0.153160 1.380525 0.040655 -0.011962 2354200.000000 1 0 0
7.857194 -15.166848 2.645021 17.284817 -1.092813 1.417167 0.024991 -0.007465 3800810.000000 1 0 0
16.737294 -6.878648 7.909521 19.748755 -0.389934 1.158726 0.096813 -0.023513 46367.300000 1 0 0
10.295894 -8.431548 5.155321 14.271432 -0.686174 1.201206 0.008497 -0.008356 541265.000000 1 0 0
11.066194 -11.678748 2.194921 16.237964 -0.812323 1.435209 0.026526 -0.010916 95962.700000 1 0 0
12.359394 -7.174848 12.040321 18.686958 -0.525971 0.870667 0.054370 -0.020249 -1832730.000000 1 0 0
15.283294 -9.638948 4.242621 18.560394 -0.562677 1.340173 0.043913 -0.017994 -1797490.000000 1 0 0
7.477594 -10.134348 7.783321 14.805388 -0.935119 1.017248 0.000911 0.003428 1560990.000000 1 0 0
15.202494 -3.276848 -4.336179 16.144844 -0.212299 1.842715 0.040034 -0.001812 1134510.000000 1 0 0
11.903894 -8.868648 9.757221 17.763979 -0.640307 0.989306 0.034934 -0.008208 -2088900.000000 1 0 0
17.017494 -6.477648 2.455621 18.373489 -0.363712 1.436745 0.065844 -0.017409 1084150.000000 1 0 0
17.593594 4.026252 2.069521 18.166677 0.224974 1.456630 0.032413 -0.009998 -1252670.000000 1 0 0
14.750094 -4.844548 8.841621 17.866426 -0.317342 1.053107 0.072217 -0.020661 928997.000000 1 0 0
12.935194 -12.552548 5.962321 18.985125 -0.770386 1.251338 0.040690 -0.009943 -802805.000000 1 0 0
18.087394 0.837552 -0.757479 18.122612 0.046273 1.612606 0.019924 -0.011137 -641982.000000 1 0 0
11.771194 -1.975448 10.974621 16.214367 -0.166271 0.827327 0.031071 -0.007878 761911.000000 1 0 0
6.021594 -12.310748 10.623921 17.340179 -1.115880 0.911354 0.001421 -0.000046 -2566040.000000 1 0 0
10.809794 -4.875848 11.042921 16.204062 -0.423734 0.820998 0.031247 -0.010272 466453.000000 1 0 0
17.913794 1.316052 5.106921 18.673956 0.073334 1.293789 0.075747 -0.014622 65436.200000 1 0 0
12.362094 -7.598548 7.155221 16.178890 -0.551133 1.112683 0.023385 -0.008547 -867429.000000 1 0 0
10.681994 -7.832648 14.288421 19.483694 -0.632699 0.747556 0.063798 -0.018745 -695511.000000 1 0 0
14.259994 -0.208848 3.713021 14.736945 -0.014645 1.316098 0.013676 -0.005870 1222730.000000 1 0 0
11.713894 -7.608848 2.647521 14.216865 -0.576064 1.383479 0.007125 -0.005395 1750990.000000 1 0 0
9.238994 6.160452 3.599621 11.673364 0.588087 1.257326 0.009759 -0.000128 2047410.000000 1 0 0
-4.071106 14.779752 -9.948879 18.275535 -1.302010 2.146449 0.005760 -0.000514 558891.000000 1 0 0
8.938894 -6.228348 9.240721 14.285904 -0.608555 0.867360 0.006738 -0.002797 903781.000000 1 0 0
5.838894 -10.525048 -8.434479 14.697270 -1.064305 2.182033 -0.001057 -0.001271 -180407.000000 1 0 0
5.423494 1.103452 0.546421 5.561516 0.200718 1.472387 0.002889 -0.002324 3300630.000000 1 0 0
-0.638106 9.989952 10.857621 14.768014 -1.507008 0.744817 0.001799 0.003224 538201.000000 1 0 0
-6.277406 -5.258348 1.113921 8.264193 0.697288 1.435596 0.006875 -0.000998 2810230.000000 1 0 0
-1.092706 3.899152 -10.818379 11.551395 -1.297563 2.783432 0.006976 -0.004517 1874270.000000 1 0 0
10.925194 5.886052 1.264121 12.474112 0.494172 1.469283 0.006971 0.000187 972474.000000 1 0 0
-10.159606 -1.839248 -13.652979 17.117368 0.179096 2.494118 0.015409 -0.005849 1477420.000000 1 0 0
7.315294 10.955852 -6.075679 14.507173 0.982074 2.002925 0.009178 -0.007921 1085520.000000 1 0 0
-12.432706 -2.960248 -9.591279 15.978983 0.233749 2.214602 0.010358 -0.005594 51203.400000 1 0 0
-3.760906 -8.733548 2.484421 9.828104 1.164169 1.315236 0.007794 0.000662 -778425.000000 1 0 0
8.104294 -6.573048 -5.856679 11.966003 -0.681447 2.082247 -0.001046 -0.006513 771830.000000 1 0 0
14.337594 3.218952 -4.200079 15.282961 0.220849 1.849200 0.011050 -0.000943 1865050.000000 1 0 0
-2.467406 -5.048748 9.777421 11.277230 1.116216 0.521635 -0.001339 -0.001809 2313810.000000 1 0 0
3.526894 -1.870648 -4.558579 6.059616 -0.487667 2.422325 0.001477 -0.005751 -1621860.000000 1 0 0
-4.062306 8.371852 -3.507279 9.944408 -1.119031 1.931239 -0.002996 -0.001388 -472463.000000 1 0 0
5.846794 0.135452 11.788921 13.159863 0.023163 0.460514 0.008478 -0.003625 2416120.000000 1 0 0
7.189794 4.788552 12.372121 15.089491 0.587555 0.609531 0.012235 0.000158 241422.000000 1 0 0
1.342894 -14.408348 12.483621 19.111375 -1.477862 0.858988 0.007353 -0.005380 1395180.000000 1 0 0
2.907094 8.659252 -9.078479 12.878378 1.246898 2.353134 0.003652 -0.004957 1540600.000000 1 0 0
-4.410306 -8.952948 -4.553879 10.970137 1.113079 1.998867 0.009289 -0.002960 1088620.000000 1 0 0
5.779494 -6.590348 -3.983379 9.628216 -0.850855 1.997332 -0.001605 -0.005930 1850230.000000 1 0 0
-3.229306 3.409352 8.560321 9.763769 -0.812512 0.501747 -0.002368 -0.000396 2168170.000000 1 0 0
-3.826506 3.057552 -11.057279 12.093560 -0.674158 2.724601 0.002004 -0.004870 -53888.700000 1 0 0
3.065794 -5.984548 8.478621 10.821318 -1.097369 0.670500 0.000583 0.000199 367207.000000 1 0 0
-5.037306 -8.727248 10.510621 14.560648 1.047316 0.764323 0.006509 -0.005151 1086910.000000 1 0 0
-13.159006 -2.630648 6.560721 14.937296 0.197311 1.116069 0.017816 -0.005928 261677.000000 1 0 0
3.969294 -5.898248 -8.249079 10.889992 -0.978448 2.430259 -0.000099 -0.003040 2622710.000000 1 0 0
2.921194 -0.533948 12.336021 12.688415 -0.180789 0.236231 0.004246 -0.003937 992305.000000 1 0 0
1.472894 -1.402848 -7.494979 7.766087 -0.761046 2.876586 0.004845 -0.006194 -1213330.000000 1 0 0
3.645594 -3.504048 3.444821 6.118455 -0.765603 0.972759 -0.000486 -0.002453 -272352.000000 1 0 0
1.472794 0.420452 -11.727779 11.827371 0.278082 3.011729 0.010664 -0.006342 1079050.000000 1 0 0
4.050594 3.548752 -10.540079 11.836140 0.719456 2.669239 0.001907 -0.002394 196720.000000 1 0 0
2.791394 3.309352 3.305721 5.447153 0.870096 0.918678 -0.002678 0.001246 -104342.000000 1 0 0
-5.260706 0.865652 2.541321 5.906158 -0.163089 1.125990 0.002329 -0.002610 1682290.000000 1 0 0
-9.348806 -9.392748 5.737321 14.440940 0.787743 1.162228 0.015088 -0.000844 -1144410.000000 1 0 0
-3.143106 3.909752 -0.532979 5.044734 -0.893673 1.676644 0.000433 -0.004109 266635.000000 1 0 0
-15.866306 -6.541848 5.066721 17.894332 0.391074 1.283723 0.044660 -0.015102 584849.000000 1 0 0
0.917494 6.708952 -8.015079 10.492536 1.434883 2.440106 0.005284 -0.004122 1111670.000000 1 0 0
-1.723406 6.507552 -9.407179 11.567773 -1.311908 2.520465 0.003493 -0.001233 -757126.000000 1 0 0
2.107694 -0.365448 5.149621 5.576246 -0.171681 0.393709 0.001119 -0.002338 3153360.000000 1 0 0
-3.374706 -0.713848 -6.221779 7.113983 0.208456 2.635374 0.009144 -0.008521 202424.000000 1 0 0
1.960994 -1.147648 -2.459379 3.348304 -0.529495 2.395748 0.004254 -0.003458 1464510.000000 1 0 0
2.500794 -8.548548 -7.598579 11.707692 -1.286197 2.277098 -0.001199 -0.001233 1362610.000000 1 0 0
-2.587306 14.053252 -5.587279 15.342937 -1.388728 1.943527 0.005931 0.004572 1782060.000000 1 0 0
6.919994 -5.033548 -8.200379 11.851968 -0.628874 2.334914 0.001965 -0.005879 4681880.000000 1 0 0
-14.158206 -5.044048 -2.250279 15.197401 0.342244 1.719413 0.010982 -0.002532 -542662.000000 1 0 0
-2.815306 6.860852 -6.807979 10.067066 -1.181405 2.313473 0.000115 -0.001586 -3160490.000000 1 0 0
-5.649306 -1.138548 -8.086979 9.930266 0.198874 2.522451 0.011539 -0.008979 1455230.000000 1 0 0
-5.653206 -10.674548 3.480921 12.570662 1.083753 1.290221 0.004840 -0.001946 -1663290.000000 1 0 0
8.166494 -7.357448 6.655121 12.849681 -0.733329 1.026377 0.003116 -0.004981 386976.000000 1 0 0
8.912094 -5.857848 13.130521 16.915980 -0.581484 0.682149 0.036296 -0.010679 -181723.000000 1 0 0
-4.812506 9.496052 -0.756879 10.672773 -1.101731 1.641773 0.000982 0.000219 1097110.000000 1 0 0
2.816894 6.623152 12.061621 14.045773 1.168663 0.537997 0.001463 0.001976 -374751.000000 1 0 0
6.035294 -2.770648 10.976821 12.829336 -0.430374 0.544081 0.008601 -0.003859 -507796.000000 1 0 0
-9.629006 -6.595748 -1.090879 11.722273 0.600579 1.663992 0.008642 -0.002788 -1174110.000000 1 0 0
0.963694 -13.490148 6.189821 14.873691 -1.499481 1.141579 0.007446 -0.002240 1065900.000000 1 0 0
-0.495206 -3.161748 8.640121 9.213771 1.415434 0.354731 -0.001325 -0.000439 1314210.000000 1 0 0
4.200194 0.774052 3.377321 5.444913 0.182245 0.901708 -0.001752 -0.000895 1292340.000000 1 0 0
-10.154306 5.548452 8.251521 14.212067 -0.500086 0.951331 -0.003288 -0.008183 -586445.000000 1 0 0
9.304194 7.959052 -0.083879 12.244246 0.707636 1.577647 0.005193 -0.002487 552094.000000 1 0 0
4.258294 2.926752 8.176121 9.672016 0.602156 0.563599 -0.000784 -0.001932 3864120.000000 1 0 0
1.326894 2.685752 -9.732379 10.182981 1.111921 2.842993 0.008531 -0.006318 1738390.000000 1 0 0
-1.276906 -10.272948 3.084721 10.801827 1.447133 1.281191 0.008227 -0.002740 -3840980.000000 1 0 0
-9.954706 9.512152 9.032821 16.467212 -0.762668 0.990187 0.010371 -0.014104 623770.000000 1 0 0
9.805994 -1.912648 -7.666579 12.593338 -0.192630 2.225319 0.009291 -0.000914 832224.000000 1 0 0
-5.166006 -1.807748 6.701921 8.652822 0.336614 0.684815 -0.001156 -0.000162 1583420.000000 1 0 0
3.213994 -7.815448 -4.831879 9.734374 -1.180641 2.090212 -0.002577 -0.003790 2668740.000000 1 0 0
-5.106706 4.778752 -13.051679 14.807473 -0.752235 2.649667 0.000416 -0.004250 1326600.000000 1 0 0
-5.719706 9.601452 5.446221 12.432387 -1.033535 1.117349 0.001209 -0.005909 1052800.000000 1 0 0
-0.462406 -1.844348 -9.293279 9.485804 1.325144 2.939775 0.008268 -0.007845 -634337.000000 1 0 0
-16.711606 0.069952 6.380221 17.888262 -0.004186 1.206094 0.042359 -0.014418 -1482320.000000 1 0 0
-5.848406 -2.863648 4.136921 7.714820 0.455330 1.004832 0.001388 0.001200 1413750.000000 1 0 0
1.066394 -5.702248 -5.083879 7.713537 -1.385919 2.290398 0.004496 -0.006280 2226140.000000 1 0 0
-7.085006 1.346952 -8.429079 11.093285 -0.187871 2.433857 0.002783 -0.004233 433978.000000 1 0 0
8.028794 2.054652 4.749521 9.552019 0.250534 1.050397 0.004637 -0.000460 317263.000000 1 0 0
0.522894 -8.064948 -0.526379 8.099005 -1.506052 1.635835 0.002366 -0.000001 1058140.000000 1 0 0
5.429394 5.572852 -3.435979 8.505348 0.798436 1.986658 0.004262 -0.002460 -468715.000000 1 0 0
-0.741806 -0.370248 -1.228179 1.481818 0.462941 2.547814 0.004619 -0.005130 2582750.000000 1 0 0
9.094394 6.412252 -6.307579 12.791033 0.614126 2.086475 0.004009 -0.005028 1813600.000000 1 0 0
-14.927106 -7.107148 2.532921 16.725602 0.444365 1.418772 0.010861 -0.006536 939256.000000 1 0 0
-6.416606 6.898252 8.842721 12.921007 -0.821556 0.817060 -0.003194 -0.004561 -1609690.000000 1 0 0
-9.439506 -3.255148 -9.678079 13.905592 0.332073 2.340587 0.008181 -0.001938 1779680.000000 1 0 0
14.901394 3.489952 -1.220979 15.353243 0.230057 1.650406 0.009208 -0.004553 2530510.000000 1 0 0
12.097294 1.633652 -5.689079 13.467700 0.134231 2.006914 0.009553 0.000748 -469252.000000 1 0 0
1.692394 -9.301948 12.660421 15.801161 -1.390825 0.641442 -0.007104 -0.000173 -77510.500000 1 0 0
-3.703706 6.399652 7.877021 10.803724 -1.046159 0.753787 -0.003533 -0.001600 1411230.000000 1 0 0
-4.100606 13.120352 -12.365379 18.489489 -1.267877 2.303361 0.002114 -0.002148 1099400.000000 1 0 0
-10.254106 7.772252 6.476721 14.404947 -0.648579 1.104459 -0.001121 -0.009857 696774.000000 1 0 0
8.082594 -9.180748 -7.054379 14.120153 -0.848925 2.093929 0.005173 -0.004064 585179.000000 1 0 0
5.827994 -3.729348 -0.278279 6.924665 -0.569244 1.610994 -0.000194 -0.005481 -1223610.000000 1 0 0
-1.549406 -4.472348 4.203621 6.330323 1.237295 0.844580 0.000583 0.000522 -172655.000000 1 0 0
9.871694 -2.034748 -2.507879 10.386529 -0.203273 1.814661 0.001276 -0.004098 -2699590.000000 1 0 0
13.540094 7.109452 1.442921 15.361004 0.483499 1.476724 0.017821 -0.003892 701908.000000 1 0 0
5.438994 -3.719048 -3.225179 7.335922 -0.599754 2.025996 -0.001960 -0.005524 -3051620.000000 1 0 0
-12.103006 -6.044748 1.941221 13.667117 0.463201 1.428278 0.003147 -0.000697 1196510.000000 1 0 0
3.844294 -5.746448 -0.249279 6.918266 -0.981190 1.606836 0.001405 -0.003606 -1806780.000000 1 0 0
-5.233306 3.657252 -8.638379 10.741721 -0.609948 2.505107 0.000557 -0.002935 696413.000000 1 0 0
-1.606506 -9.402748 7.164921 11.930156 1.401575 0.926580 0.004023 -0.003448 1966260.000000 1 0 0
-7.320806 -7.531248 2.590121 10.817700 0.799566 1.329014 0.011395 -0.002682 -4354630.000000 1 0 0
-5.880206 13.030452 -8.543779 16.654299 -1.146890 2.109481 0.006925 -0.003419 1798910.000000 1 0 0
9.329094 -13.860448 -4.124479 17.209164 -0.978372 1.812820 0.023263 -0.003466 43397.700000 1 0 0
-6.446006 -5.189048 -6.714379 10.656459 0.677784 2.252447 0.013935 -0.003930 138930.000000 1 0 0
3.428094 0.452952 -6.179779 7.081431 0.131368 2.631448 0.002887 -0.007373 3108480.000000 1 0 0
-3.745706 5.781852 5.009121 8.517712 -0.995942 0.942110 -0.000738 -0.002229 1600800.000000 1 0 0
-2.581106 -10.888548 -2.837979 11.544554 1.338045 1.819171 0.009054 -0.002766 1536210.000000 1 0 0
-12.563906 -0.491048 1.782021 12.699152 0.039064 1.430006 -0.000183 -0.000673 437401.000000 1 0 0
8.471794 -11.963148 -5.991579 15.836263 -0.954616 1.958805 0.018249 -0.006056 -1431270.000000 1 0 0
6.158594 4.007152 1.007321 7.416214 0.576839 1.434548 0.001923 -0.000847 -1221370.000000 1 0 0
3.447894 -4.794948 -10.864379 12.365849 -0.947387 2.643676 0.002945 -0.004402 1475590.000000 1 0 0
-7.601006 4.289452 8.623121 12.269185 -0.513776 0.791432 -0.002605 -0.003397 95815.100000 1 0 0
8.100994 8.875652 4.074321 12.688711 0.830997 1.243908 0.006872 -0.000525 2595420.000000 1 0 0
0.152594 10.567152 -6.308679 12.308022 1.556357 2.108967 0.001150 -0.000468 1938470.000000 1 0 0
5.389994 8.076052 3.278121 10.247962 0.982283 1.245193 0.004478 -0.002067 1985340.000000 1 0 0
8.055994 6.776352 -3.740379 11.171768 0.699338 1.912196 0.003876 -0.002539 1236120.000000 1 0 0
10.533394 2.526352 -8.173379 13.569781 0.235396 2.217203 0.004751 0.001908 222595.000000 1 0 0
3.403994 -12.504548 -0.271879 12.962439 -1.305016 1.591772 0.005099 -0.002610 -1908810.000000 1 0 0
0.641894 2.063552 5.170921 5.604346 1.269222 0.395867 0.002118 -0.001474 -94410.900000 1 0 0
-4.985406 13.340852 1.433721 14.313915 -1.213170 1.470465 0.006914 0.003276 2894500.000000 1 0 0
8.198194 4.013252 -7.984479 12.127179 0.455236 2.289481 0.000552 0.001194 1395200.000000 1 0 0
-13.919306 -0.640748 -3.604979 14.392829 0.046001 1.823963 0.007178 -0.005866 211573.000000 1 0 0
-8.590706 -0.043748 -0.506479 8.605735 0.005092 1.629684 0.000902 -0.003866 1116800.000000 1 0 0
1.883694 -3.820848 -1.138979 4.409587 -1.112761 1.832054 0.003202 -0.004377 -1853140.000000 1 0 0
8.099494 -5.503148 -0.310679 9.797089 -0.596796 1.602513 -0.001282 -0.005724 1863720.000000 1 0 0
-2.285606 -1.115548 7.490021 7.910048 0.454063 0.327344 0.000347 -0.001070 2596570.000000 1 0 0
-5.957206 8.794352 -11.742779 15.834197 -0.975407 2.406262 -0.002158 0.001406 -646779.000000 1 0 0
-6.247206 9.149652 -8.878679 14.197699 -0.971721 2.246390 0.003913 -0.000496 -237877.000000 1 0 0
-1.661806 13.931452 -8.407679 16.356528 -1.452073 2.110668 0.009315 -0.000747 -1705050.000000 1 0 0
-1.472406 7.187452 9.696321 12.159197 -1.368734 0.647743 -0.002921 -0.001310 1962990.000000 1 0 0
10.046894 2.310552 -3.910879 11.026046 0.226046 1.933384 0.003470 -0.000384 -2491050.000000 1 0 0
-2.990506 -7.562148 -6.908279 10.670217 1.194212 2.275011 0.009752 -0.004577 2857060.000000 1 0 0
-5.520506 -5.089848 -1.592779 7.675903 0.744832 1.779819 0.008771 -0.001768 37032.400000 1 0 0
5.580594 7.347852 -8.727679 12.700643 0.921252 2.328402 -0.001581 -0.001183 -178062.000000 1 0 0
-9.643206 5.120652 -7.468979 13.228687 -0.488148 2.170751 0.000916 -0.004252 1608680.000000 1 0 0
-0.516006 6.147252 -5.247479 8.098827 -1.487052 2.275661 0.005142 -0.004017 -1490680.000000 1 0 0
-8.209906 2.765252 -6.266579 10.692015 -0.324884 2.197032 0.002238 -0.003472 583064.000000 1 0 0
3.631794 1.413852 -2.018379 4.388936 0.371247 2.048655 0.003119 -0.004224 1971850.000000 1 0 0
-6.894306 12.380252 -3.543179 14.606718 -1.062687 1.815812 0.008900 0.003997 1323170.000000 1 0 0
-6.573806 3.069552 -2.326779 7.619119 -0.436849 1.881141 0.001380 -0.004455 -1754970.000000 1 0 0
12.097394 4.087952 -0.778679 12.793147 0.325873 1.631701 0.006985 -0.001859 159048.000000 1 0 0
2.184894 12.335052 -5.534379 13.695131 1.395486 1.986805 0.007794 -0.003729 -426175.000000 1 0 0
-9.266606 -1.486948 -4.257279 10.305602 0.159107 1.996656 0.001284 -0.003122 -1151120.000000 1 0 0
-1.277806 5.652152 3.453621 6.745895 -1.348460 1.033333 0.002764 -0.003033 1282740.000000 1 0 0
11.593094 2.772052 12.126421 17.003946 0.234705 0.776810 0.058670 -0.006037 412836.000000 1 0 0
-7.097806 -2.416548 -5.750579 9.449218 0.328154 2.225063 0.008730 -0.005233 -46480.300000 1 0 0
7.551494 -7.273648 10.814421 15.062626 -0.766659 0.769924 0.007229 0.000757 -1422590.000000 1 0 0
-5.507706 -1.979448 -10.944579 12.411159 0.345021 2.650533 0.012957 -0.006031 1008430.000000 1 0 0
0.866794 -6.174048 4.516821 7.698823 -1.431315 0.943831 -0.003093 0.001252 2486980.000000 1 0 0
-4.715106 -9.447648 7.436421 12.914745 1.107887 0.957204 0.002425 -0.003722 2904540.000000 1 0 0
-8.811306 9.209552 1.667321 12.854374 -0.807494 1.440721 0.002765 -0.005156 479454.000000 1 0 0
-8.108506 7.089452 -9.132579 14.121339 -0.718446 2.274075 0.001587 0.000026 -559071.000000 1 0 0
-1.209506 -10.681748 -0.009679 10.750011 1.458045 1.571697 0.006560 -0.001550 -632994.000000 1 0 0
-4.093406 10.293052 7.744121 13.515706 -1.192286 0.960669 0.002507 -0.005560 2027880.000000 1 0 0
-7.571306 11.943052 1.972021 14.277606 -1.005786 1.432234 0.000483 -0.003924 -161695.000000 1 0 0
-8.114806 -8.330548 -2.904979 11.986952 0.798516 1.815579 0.015845 -0.003770 -320919.000000 1 0 0
5.387194 4.557052 -8.000979 10.667907 0.702112 2.418865 0.003525 0.000490 1959270.000000 1 0 0
-9.018406 -0.166348 -10.139079 13.570566 0.018443 2.414541 0.006168 -0.007631 -1939760.000000 1 0 0
-15.204306 -2.347048 -1.546379 15.461916 0.153158 1.670976 0.010284 -0.005276 1803780.000000 1 0 0
-7.055806 -5.782048 8.747021 12.638309 0.686503 0.806397 0.002809 -0.003228 -2639380.000000 1 0 0
8.155094 3.513852 -0.980679 8.933893 0.406839 1.680789 0.004203 -0.001362 381852.000000 1 0 0
11.870194 7.191352 -5.869779 15.068887 0.544697 1.970917 0.012438 -0.004554 611897.000000 1 0 0
3.701494 13.262352 -9.554179 16.759277 1.298624 2.177403 0.007934 -0.008565 657482.000000 1 0 0
-9.749906 5.379652 -0.544879 11.148911 -0.504197 1.619689 0.001645 -0.005085 794786.000000 1 0 0
11.217794 -1.332348 -5.134379 12.408702 -0.118217 1.997390 0.011256 -0.003382 169952.000000 1 0 0
10.574794 1.772752 -1.064079 10.775025 0.166095 1.669712 0.003362 -0.001813 15671.000000 1 0 0
14.643294 5.196152 4.797421 16.261651 0.340988 1.271326 0.033721 -0.011705 1668730.000000 1 0 0
0.842394 -0.819948 10.303521 10.370366 -0.771897 0.113602 0.002210 -0.002630 1978450.000000 1 0 0
-8.032006 1.321652 -12.510079 14.925213 -0.163087 2.564742 0.006799 -0.005952 290475.000000 1 0 0
3.184594 -11.469148 -7.844179 14.255320 -1.299953 2.153476 -0.002431 -0.000978 -22606.700000 1 0 0
2.814194 5.008952 -6.677679 8.809125 1.058914 2.431101 0.007548 -0.003691 -1734240.000000 1 0 0
6.464594 8.107852 0.541221 10.383696 0.897689 1.518651 0.008269 -0.003950 -367684.000000 1 0 0
-8.979406 -5.457848 6.824721 12.529751 0.546148 0.994787 0.004326 -0.000818 -821120.000000 1 0 0
-0.267606 -6.898548 -11.730479 13.611235 1.532024 2.609650 0.002445 0.000163 3099610.000000 1 0 0
6.520194 -13.408248 -4.600779 15.603244 -1.118183 1.870106 0.012489 -0.004951 2263050.000000 1 0 0
-3.213306 -0.283848 10.138021 10.638862 0.088107 0.308060 -0.003455 0.000118 330556.000000 1 0 0
8.586294 8.560652 6.977721 13.989202 0.783903 1.048590 0.006657 -0.001323 -507719.000000 1 0 0
-7.984006 5.676052 -2.640679 10.145694 -0.618022 1.834104 0.000714 -0.004747 -120029.000000 1 0 0
-5.406606 5.784952 -6.435579 10.203614 -0.819192 2.253271 -0.002247 -0.000705 -919737.000000 1 0 0
3.388394 -13.662348 2.581321 14.310981 -1.327692 1.389430 0.010558 -0.007699 -1472820.000000 1 0 0
-11.144106 -7.119348 6.615821 14.786660 0.568493 1.106920 0.012775 -0.005821 6891.550000 1 0 0
-12.888506 -3.762848 -6.758979 15.031847 0.284059 2.037163 0.008759 -0.004630 534929.000000 1 0 0
6.114394 0.400652 -7.286879 9.520763 0.065432 2.442408 0.003140 -0.001904 1430860.000000 1 0 0
-1.546306 2.249552 -2.424979 3.651311 -0.968588 2.297138 0.004621 -0.007174 2673710.000000 1 0 0
7.598094 0.960052 -4.942179 9.114706 0.125688 2.143874 0.002398 -0.001647 605270.000000 1 0 0
3.669094 -4.449048 10.874921 12.309353 -0.881180 0.487582 0.003481 -0.001667 619059.000000 1 0 0
6.054994 -2.468948 2.091421 6.865325 -0.387173 1.261241 0.002843 -0.005097 -583493.000000 1 0 0
-6.364006 7.666952 1.172821 10.032858 -0.877995 1.453630 -0.001610 -0.004941 2714900.000000 1 0 0
5.961594 -3.297548 7.995321 10.504265 -0.505245 0.705712 0.006612 -0.005810 343989.000000 1 0 0
6.726594 -2.238248 -7.912279 10.623605 -0.321222 2.411006 0.004289 -0.004759 884022.000000 1 0 0
12.097694 -8.106048 -5.778179 15.666830 -0.590341 1.948531 0.030027 -0.009945 -629734.000000 1 0 0
5.724994 -9.484348 9.996521 14.921757 -1.027715 0.836683 -0.004219 0.004823 1790180.000000 1 0 0
-6.674606 7.469452 -4.454179 10.962791 -0.841536 1.989197 -0.000218 -0.001269 -530468.000000 1 0 0
-1.249806 -7.646248 9.621221 12.352936 1.408776 0.677948 -0.002401 0.000935 -309944.000000 1 0 0
10.115594 -9.130748 0.747121 13.647490 -0.734272 1.516025 0.003901 -0.003558 379297.000000 1 0 0
11.023994 6.173052 9.885521 16.042398 0.510462 0.906872 0.012153 -0.007452 2488140.000000 1 0 0
-15.279206 -4.246148 -5.045479 16.641538 0.271064 1.878830 0.022947 -0.011675 2653460.000000 1 0 0
-4.669506 -4.594448 7.814921 10.197364 0.777296 0.697630 0.001087 -0.001149 -1512640.000000 1 0 0
2.925294 10.767352 -11.060179 15.710530 1.305518 2.351807 -0.000032 -0.007239 -1414280.000000 1 0 0
9.942794 -1.294948 1.604721 10.154367 -0.129511 1.412098 0.004839 -0.004555 -452848.000000 1 0 0
-1.520606 -2.710848 0.578221 3.161532 1.059597 1.386868 0.000400 -0.002392 785524.000000 1 0 0
1.518694 2.930652 0.792721 3.394636 1.092687 1.335098 0.002772 -0.003113 180694.000000 1 0 0
-8.890306 -2.427048 4.337321 10.185306 0.266505 1.130905 -0.002284 0.000418 4337460.000000 1 0 0
9.942394 4.938052 -2.682179 11.420579 0.460977 1.807866 0.004366 -0.001552 1725990.000000 1 0 0
2.514794 8.451452 2.509321 9.167765 1.281582 1.293547 0.001126 -0.002818 1864440.000000 1 0 0
-8.136906 -0.126848 2.383421 8.479742 0.015588 1.285885 0.000692 -0.003547 3027580.000000 1 0 0
7.026494 2.080552 13.714421 15.549458 0.287876 0.490734 0.019652 -0.005359 139856.000000 1 0 0
6.817994 4.450052 3.752821 8.965024 0.578266 1.138886 0.001057 0.000813 -150064.000000 1 0 0
-0.366706 3.365952 7.684821 8.397653 -1.462278 0.415002 -0.001721 -0.001172 994860.000000 1 0 0
2.871094 -10.255648 9.211821 14.081163 -1.297832 0.857679 -0.000325 -0.001879 1816100.000000 1 0 0
1.375394 -4.438048 6.805821 8.240581 -1.270273 0.599016 -0.004691 0.000689 -362447.000000 1 0 0
-0.285806 10.781552 -2.116079 10.990966 -1.544294 1.764535 0.005680 -0.004464 3332040.000000 1 0 0
8.686794 5.575552 8.070821 13.102874 0.570619 0.907195 0.008320 -0.003260 -556181.000000 1 0 0
2.575094 11.425552 -2.919179 12.070458 1.349120 1.815063 0.009568 -0.008600 1523850.000000 1 0 0
1.436294 2.459052 -6.667979 7.250643 1.042162 2.737959 0.006566 -0.006818 1520610.000000 1 0 0
-13.661006 -2.357648 3.616221 14.326851 0.170899 1.315628 0.004127 0.002321 1395070.000000 1 0 0
-0.880306 -10.640548 -5.238979 11.892986 1.488253 2.026963 0.005241 -0.002325 -53201.300000 1 0 0
-5.732406 2.810052 0.421921 6.398038 -0.455781 1.504803 0.003861 -0.005095 700208.000000 1 0 0
3.667094 7.345252 -4.946779 9.584932 1.107751 2.113087 0.007486 -0.006678 -1254280.000000 1 0 0
2.875494 9.789452 -6.498179 12.096618 1.285098 2.137898 0.007941 -0.005475 472993.000000 1 0 0
-12.295606 1.577952 -2.585079 12.663116 -0.127637 1.776384 0.003690 -0.004118 792204.000000 1 0 0
-2.580706 9.607152 -5.723279 11.476643 -1.308368 2.092882 -0.001929 -0.000870 1387700.000000 1 0 0
-1.378806 3.287352 1.745021 3.968991 -1.173655 1.115572 0.001283 -0.003339 610040.000000 1 0 0
12.837894 3.872352 9.729021 16.566848 0.292956 0.943129 0.052589 -0.008958 753571.000000 1 0 0
-2.541506 -9.599448 11.631221 15.293592 1.311979 0.706669 0.004328 -0.008712 2024110.000000 1 0 0
-0.382206 -8.912048 -7.461079 11.629204 1.527936 2.267354 0.004711 -0.001365 2509660.000000 1 0 0
2.264994 7.693352 -0.484079 8.034438 1.284477 1.631083 0.004671 -0.003056 1860810.000000 1 0 0
-11.822306 -1.336848 -5.532179 13.120941 0.112600 2.006038 0.007207 -0.001213 -1241020.000000 1 0 0
-6.206006 -7.226048 -10.983479 14.538470 0.861194 2.427178 0.017187 -0.004350 2681050.000000 1 0 0
-4.706006 -2.406648 -1.416479 5.472190 0.472725 1.832628 0.005791 -0.004019 -775836.000000 1 0 0
-10.533606 3.691552 4.592421 12.069579 -0.337080 1.180464 -0.001338 -0.005833 2243940.000000 1 0 0
6.707394 9.405052 -3.600679 12.099959 0.951287 1.872951 0.005705 -0.004464 660911.000000 1 0 0
1.221694 -2.745548 -11.397879 11.787375 -1.152131 2.883805 0.007190 -0.006233 -1024150.000000 1 0 0
1.181394 8.829452 7.533721 11.666699 1.437785 0.868797 -0.003186 0.001739 1139890.000000 1 0 0
10.402594 0.527252 10.593421 14.856396 0.050641 0.776951 0.016223 -0.004251 2047580.000000 1 0 0
-5.315606 -1.025548 -3.880879 6.660979 0.190590 2.192756 0.006755 -0.008129 -623473.000000 1 0 0
11.670994 5.671352 5.481021 14.086089 0.452333 1.171132 0.006892 -0.001773 2801990.000000 1 0 0
9.974594 -3.365448 3.680421 11.151872 -0.325408 1.234464 0.009010 -0.009562 -1402290.000000 1 0 0
7.288594 -1.608548 -3.346779 8.179973 -0.217212 1.992311 -0.000566 -0.002858 -2230020.000000 1 0 0
2.361294 9.295052 10.433121 14.171228 1.322021 0.743331 0.000470 0.004328 4018920.000000 1 0 0
2.581494 -11.039448 6.384621 13.011415 -1.341081 1.057910 -0.002259 -0.000963 1495840.000000 1 0 0
5.945194 -7.517348 -1.223779 9.661961 -0.901652 1.697797 0.000146 -0.005289 1053060.000000 1 0 0
-0.214306 -5.596548 -2.308579 6.057790 1.532522 1.961774 0.004523 -0.001942 563295.000000 1 0 0
7.809494 -4.973748 2.607821 9.619100 -0.567100 1.296252 0.004124 -0.006933 828400.000000 1 0 0
-2.610906 -12.547048 4.630121 13.626565 1.365635 1.224107 0.008542 -0.004303 -1269340.000000 1 0 0
4.956794 -10.282148 -1.043979 11.462210 -1.121589 1.662003 0.003395 -0.004601 940708.000000 1 0 0
1.025194 0.174152 1.089421 1.506051 0.168266 0.762136 -0.002383 -0.001043 -2196940.000000 1 0 0
-1.575406 8.487452 2.410821 8.962745 -1.387269 1.298460 0.000610 -0.002260 495027.000000 1 0 0
-7.522906 0.538252 -3.105079 8.156308 -0.071427 1.961346 0.001927 -0.003536 -490791.000000 1 0 0
4.469894 -6.295948 12.843821 14.986082 -0.953415 0.541280 0.012412 -0.004361 -254410.000000 1 0 0
-5.254206 12.963852 8.408421 16.320836 -1.185732 1.029561 0.014520 -0.010737 1191620.000000 1 0 0
0.571194 6.077352 8.169821 10.198355 1.477084 0.641679 -0.002149 0.002825 151127.000000 1 0 0
7.958894 -0.543048 -0.702879 8.008304 -0.068126 1.658678 0.001140 -0.002759 2327510.000000 1 0 0
2.433894 -9.251148 -2.320079 9.843290 -1.313535 1.808737 -0.001171 -0.002005 3027040.000000 1 0 0
-7.232206 12.128952 4.869521 14.937487 -1.033119 1.238734 0.005360 -0.010671 213822.000000 1 0 0
-14.955406 0.115052 0.153921 14.956641 -0.007693 1.560505 0.006502 -0.004898 -85822.200000 1 0 0
6.909294 -0.410348 3.937521 7.963089 -0.059321 1.053570 0.002365 -0.002650 526756.000000 1 0 0
-4.116506 -5.092948 5.115721 8.309895 0.891030 0.907626 0.002802 0.000703 -410645.000000 1 0 0
2.821294 5.121352 6.782521 8.954917 1.067271 0.711463 -0.000712 0.000629 52487.100000 1 0 0
2.182194 -7.213448 1.791321 7.746266 -1.277032 1.337434 -0.000955 -0.001682 2561810.000000 1 0 0
-2.544906 6.419652 -1.777679 7.130822 -1.193376 1.822749 0.000005 -0.003064 1760320.000000 1 0 0
2.740094 -3.762348 -6.509679 8.002456 -0.941333 2.520873 0.000207 -0.006064 -1404310.000000 1 0 0
-5.152106 0.824552 -12.189079 13.258874 -0.158696 2.737132 0.005081 -0.002221 226597.000000 1 0 0
-7.530806 6.279352 -11.964879 15.469377 -0.695027 2.455072 0.000516 -0.001360 2692320.000000 1 0 0
-1.129406 11.196052 -9.034079 14.430583 -1.470261 2.247257 0.001385 -0.000049 612753.000000 1 0 0
4.607294 5.969552 -0.616779 7.565918 0.913489 1.652408 0.003955 -0.002703 1579350.000000 1 0 0
-2.683406 13.331652 3.493021 14.040470 -1.372169 1.319373 0.005768 -0.000845 1246630.000000 1 0 0
1.534694 -7.890948 10.063521 12.880093 -1.378706 0.674013 -0.003449 -0.001276 325698.000000 1 0 0
12.950994 -0.218048 -1.108879 13.000207 -0.016835 1.656197 0.011505 -0.005426 -24065.400000 1 0 0
-1.046606 3.115952 -5.328579 6.260854 -1.246750 2.588863 0.006057 -0.008430 416430.000000 1 0 0
6.606194 1.211152 7.274221 9.900655 0.181322 0.745541 0.003982 -0.001770 877504.000000 1 0 0
5.580594 -6.004848 6.793421 10.646680 -0.822001 0.878796 -0.000508 -0.002497 1108480.000000 1 0 0
12.280894 -4.774048 2.703821 13.450745 -0.370760 1.368401 0.009790 -0.008884 -2223280.000000 1 0 0
4.386494 -9.115548 13.839321 17.142385 -1.122293 0.631207 0.000697 -0.000608 344699.000000 1 0 0
-2.695106 -4.407848 -1.446679 5.365222 1.022012 1.843816 0.010975 -0.004990 2016070.000000 1 0 0
-9.232606 -5.280548 -7.570579 13.055224 0.519536 2.189389 0.011774 -0.001616 768115.000000 1 0 0
-10.544506 -3.164748 7.862521 13.528543 0.291578 0.950618 -0.000078 -0.003186 -1300060.000000 1 0 0
12.166594 -0.548048 1.670121 12.292911 -0.045015 1.434514 0.007910 -0.006549 1275940.000000 1 0 0
-7.614206 4.652752 4.351721 9.927825 -0.548514 1.117050 -0.000212 -0.006882 1616550.000000 1 0 0
-1.204806 10.576652 6.948321 12.712053 -1.457373 0.992506 -0.000466 0.001654 1582480.000000 1 0 0
7.470894 -9.969848 1.876921 12.599006 -0.927712 1.421266 0.003713 -0.005506 2426150.000000 1 0 0
-4.247306 -1.771848 1.575121 4.864161 0.395220 1.241030 0.003556 0.000253 1796240.000000 1 0 0
6.758694 -14.980548 -0.957779 16.462506 -1.146974 1.629009 0.033931 -0.005057 129068.000000 1 0 0
-10.464806 1.679252 2.397821 10.866536 -0.159110 1.348304 -0.003245 -0.001975 491717.000000 1 0 0
-3.117506 8.281052 -11.375979 14.412063 -1.210744 2.480525 -0.001992 0.001901 -582081.000000 1 0 0
-1.290006 -5.181248 -6.823679 8.664413 1.326782 2.477623 0.005004 -0.006215 230092.000000 1 0 0
12.891094 -0.330648 6.489221 14.436052 -0.025644 1.104574 0.022255 -0.008400 2655950.000000 1 0 0
6.037094 -13.200848 3.752221 14.992934 -1.141867 1.317841 0.007720 -0.002304 1148470.000000 1 0 0
-5.564406 3.432852 -4.891779 8.165574 -0.552775 2.213140 0.001785 -0.004895 2169650.000000 1 0 0
-4.392206 8.077952 3.347521 9.785228 -1.072781 1.221646 -0.000955 -0.002889 1483470.000000 1 0 0
14.005294 6.180452 -3.991279 15.820131 0.415590 1.825844 0.019337 -0.001824 428784.000000 1 0 0
-6.590506 -8.522848 5.331821 12.020900 0.912565 1.111245 0.009410 -0.002040 1533510.000000 1 0 0
1.622994 11.335052 2.700921 11.764883 1.428579 1.339156 0.003742 -0.003797 765807.000000 1 0 0
-7.458306 7.205752 5.919321 11.941003 -0.768177 1.052140 -0.002330 -0.006645 -1738720.000000 1 0 0
-17.315006 -4.090748 5.434021 18.603017 0.232000 1.274370 0.047675 -0.013299 -281537.000000 1 0 0
7.533694 -12.996248 -8.557079 17.288222 -1.045450 2.088592 0.021457 -0.004183 -599443.000000 1 0 0
-2.479206 12.792852 -2.798979 13.328083 -1.379373 1.782378 0.003139 0.001298 1287430.000000 1 0 0
-5.614506 13.939352 -5.831479 16.119378 -1.187895 1.940960 0.007594 0.006300 2706740.000000 1 0 0
-5.726706 2.440252 7.377721 9.653018 -0.402817 0.700854 0.000058 -0.003205 -178005.000000 1 0 0
-7.472806 5.019152 1.457421 9.119144 -0.591448 1.410288 0.002646 -0.004414 2371680.000000 1 0 0
10.849594 -5.633648 -5.027879 13.218595 -0.478929 1.960986 0.008974 -0.005971 3264120.000000 1 0 0
-9.610906 -0.763548 6.779821 11.786369 0.079280 0.957916 -0.003928 -0.001437 604573.000000 1 0 0
-11.238106 -4.595848 -2.538779 12.404123 0.388200 1.776925 0.003934 -0.000333 497809.000000 1 0 0
6.576594 -4.249148 13.495621 15.602520 -0.573630 0.525717 0.022681 -0.010515 -1193560.000000 1 0 0
0.162794 10.170552 -11.574079 15.408632 1.554791 2.420587 0.001959 -0.003160 -1490310.000000 1 0 0
-11.776306 -3.305048 1.461221 12.318275 0.273614 1.451894 0.004363 0.001187 2277920.000000 1 0 0
5.209294 5.938052 5.370421 9.551891 0.850680 0.973709 -0.000717 0.001759 -4347200.000000 1 0 0
-7.211706 0.023752 8.114221 10.855867 -0.003293 0.726581 -0.004353 -0.000907 337938.000000 1 0 0
1.691494 2.045352 9.588521 9.949088 0.879811 0.270045 0.000644 -0.003514 1906500.000000 1 0 0
10.537194 -4.850948 -2.015079 11.773899 -0.431439 1.742791 0.002916 -0.004794 1938020.000000 1 0 0
-9.680406 -2.459848 -1.591979 10.114125 0.248839 1.728855 0.004913 -0.001848 66653.900000 1 0 0
-2.005006 -5.208948 -9.881979 11.349304 1.203361 2.627445 0.012328 -0.005208 -230011.000000 1 0 0
7.630594 -1.479348 6.528121 10.150408 -0.191495 0.872206 0.006831 -0.006845 1703750.000000 1 0 0
1.495394 -11.919448 -2.559879 12.282607 -1.445990 1.780750 0.004673 -0.000038 -4085140.000000 1 0 0
-0.778906 -1.494348 4.894521 5.176496 1.090305 0.331584 0.004397 -0.001982 2294230.000000 1 0 0
7.611794 1.572852 9.938721 12.617109 0.203766 0.663701 0.007849 -0.002180 1243930.000000 1 0 0
-3.911406 10.717752 -7.982979 13.924700 -1.220869 2.181320 0.004460 0.002442 2363500.000000 1 0 0
-9.707306 12.570352 6.361221 17.108789 -0.913214 1.189838 0.010448 -0.009849 1022260.000000 1 0 0
-2.494706 -2.418548 -11.044279 11.577955 0.769899 2.836789 0.014154 -0.008057 -2351440.000000 1 0 0
1.234094 -11.780248 11.099421 16.232510 -1.466418 0.817870 -0.004548 0.000271 1016350.000000 1 0 0
1.314494 3.472252 -1.960279 4.198466 1.208899 2.056582 0.003536 -0.004873 3559280.000000 1 0 0
-1.929906 -9.412948 -11.993579 15.367956 1.368572 2.466146 0.008198 -0.002228 1834070.000000 1 0 0
1.361594 -2.750248 1.561221 3.443140 -1.111092 1.100187 0.004367 -0.004494 2637030.000000 1 0 0
-1.030606 -2.249448 -6.539879 6.992295 1.141178 2.779897 0.008061 -0.010130 1628920.000000 1 0 0
1.677894 5.867752 3.992321 7.292768 1.292277 0.991500 -0.001021 0.000660 -1111590.000000 1 0 0
-11.138106 8.559852 3.670721 14.519045 -0.655249 1.315201 -0.002291 -0.010701 2675200.000000 1 0 0
-16.323906 -1.632848 4.020121 16.890752 0.099696 1.330483 0.031591 -0.009633 83368.600000 1 0 0
-12.318206 0.228152 6.818021 14.081039 -0.018519 1.065349 -0.003791 0.001860 -504639.000000 1 0 0
-5.192006 2.963752 4.642221 7.569080 -0.518695 0.910547 -0.000147 -0.002882 1607730.000000 1 0 0
5.324094 -6.016248 3.847221 8.907431 -0.846357 1.124185 -0.003895 -0.004738 1462020.000000 1 0 0
9.922794 3.490152 6.383221 12.304003 0.338216 1.025359 0.006744 0.002323 136213.000000 1 0 0
-12.188606 5.793152 3.300721 13.893074 -0.443687 1.330922 -0.001600 -0.004585 1246870.000000 1 0 0
-5.052306 12.244752 -1.306779 13.310425 -1.179467 1.669132 0.005486 0.003537 1222310.000000 1 0 0
-1.654706 -12.252048 10.336021 16.114716 1.436553 0.874471 0.015086 -0.005025 1066080.000000 1 0 0
5.154594 6.371152 13.815721 16.063485 0.890560 0.535390 0.011427 -0.001129 2100580.000000 1 0 0
12.959494 -3.780348 -5.995079 14.770934 -0.283829 1.988727 0.012681 -0.001640 1277460.000000 1 0 0
3.577594 -2.483548 6.345121 7.695957 -0.606820 0.601523 -0.001991 -0.001424 -202967.000000 1 0 0
7.344594 -11.807148 -0.617679 13.918812 -1.014324 1.615188 0.012527 -0.001676 -1746940.000000 1 0 0
-6.025506 -6.633948 -4.053179 9.835866 0.833423 1.995534 0.014081 -0.004032 -336397.000000 1 0 0
0.446094 -8.982948 5.079421 10.329224 -1.521177 1.056695 0.005341 -0.004204 2544790.000000 1 0 0
-10.313606 2.443652 -0.453079 10.608826 -0.232645 1.613517 0.001351 -0.002788 -329483.000000 1 0 0
-1.934306 9.002752 -0.397879 9.216799 -1.359157 1.613979 0.000992 -0.002522 886723.000000 1 0 0
-3.569506 2.200052 -6.555979 7.782189 -0.552352 2.572581 0.007686 -0.007887 81587.800000 1 0 0
-12.798806 3.001952 6.452521 14.644323 -0.230385 1.114512 0.002944 -0.006684 906387.000000 1 0 0
11.416994 1.722052 8.015921 14.055895 0.149704 0.963939 0.017245 -0.005485 -2100000.000000 1 0 0
6.025394 2.765552 -3.229679 7.374583 0.430299 2.024110 0.002375 -0.002094 2169000.000000 1 0 0
10.520994 -2.281248 6.486221 12.568471 -0.213523 1.028539 0.013069 -0.008338 4904710.000000 1 0 0
-1.010206 10.929552 4.105521 11.718828 -1.478629 1.212867 0.003629 -0.000358 2288930.000000 1 0 0
-1.438706 -12.369848 7.360021 14.465577 1.455009 1.037011 0.004461 -0.002221 49718.400000 1 0 0
8.019494 8.691152 -7.753679 14.141002 0.825570 2.151141 0.005272 -0.004928 1556720.000000 1 0 0
-4.705706 -6.005448 -8.724079 11.589592 0.906152 2.423028 0.012299 -0.003947 980641.000000 1 0 0
-8.572406 -5.362048 -11.722779 15.480997 0.558959 2.429868 0.015940 -0.003840 3195300.000000 1 0 0
6.033694 -0.689148 -9.969579 11.673598 -0.113724 2.594476 0.006493 -0.000332 -38585.900000 1 0 0
-11.101506 -5.486048 -5.369479 13.497091 0.458974 1.979941 0.002101 -0.003750 407123.000000 1 0 0
3.801394 8.945952 -2.708779 10.090497 1.168986 1.842578 0.011104 -0.007378 2157760.000000 1 0 0
11.719894 -10.412248 -4.005479 16.180689 -0.726383 1.820944 0.021283 -0.008086 -83207.300000 1 0 0
4.006394 -11.287848 3.993721 12.626025 -1.229736 1.248961 -0.002195 -0.003165 15128.600000 1 0 0
-0.996506 0.849352 3.190321 3.448561 -0.705845 0.389454 0.002818 -0.002564 -1243130.000000 1 0 0
-10.508106 -5.202748 4.539721 12.573701 0.459734 1.201404 0.002934 -0.001484 3649650.000000 1 0 0
4.685194 -8.668248 2.780921 10.238315 -1.075276 1.295721 -0.002100 -0.001988 3562970.000000 1 0 0
-3.619006 -5.745448 2.620921 7.278503 1.008688 1.202431 0.003333 0.000600 2140670.000000 1 0 0
10.026694 5.194152 12.433721 16.796167 0.477969 0.737322 0.032571 -0.002429 -127907.000000 1 0 0
1.640694 -12.358548 -5.293679 13.544321 -1.438810 1.972342 0.003100 -0.002145 1049630.000000 1 0 0
9.888494 -10.665948 -1.739379 14.648215 -0.823204 1.689821 0.007963 -0.005408 976973.000000 1 0 0
9.681494 -4.357848 -9.243179 14.076879 -0.422955 2.287127 0.012285 -0.006285 1315120.000000 1 0 0
-7.530506 -3.071248 -13.100479 15.419586 0.387247 2.586023 0.012553 -0.002658 2468750.000000 1 0 0
0.378394 6.268352 -2.482879 6.752785 1.510504 1.947312 0.004142 -0.005815 1392330.000000 1 0 0
-5.901506 -9.640148 0.959421 11.343753 1.021469 1.486118 0.008504 -0.001168 798397.000000 1 0 0
-8.926206 -4.119348 0.629321 9.851002 0.432367 1.506869 0.003678 -0.001453 3755980.000000 1 0 0
1.817794 3.780952 12.016521 12.727794 1.122645 0.335892 -0.000923 -0.000567 1290320.000000 1 0 0
6.610394 4.372252 9.584521 12.436918 0.584362 0.690935 0.000486 0.001931 2360230.000000 1 0 0
-8.358806 9.735552 -3.611779 13.330250 -0.861339 1.845172 0.003124 -0.000919 2863430.000000 1 0 0
16.454694 2.277952 -5.964879 17.650093 0.137563 1.915536 0.048262 -0.002497 -1010570.000000 1 0 0
-10.922606 2.606952 -5.071979 12.321709 -0.234292 1.995038 0.002174 -0.002097 1293850.000000 1 0 0
-13.767306 3.900652 1.498621 14.387483 -0.276091 1.466446 0.001049 0.001148 450358.000000 1 0 0
-17.533106 10.416152 3.317321 20.661816 -0.536059 1.409545 0.040192 -0.018695 -346062.000000 1 0 0
-14.403006 2.758252 -1.185479 14.712577 -0.189214 1.651460 0.006963 -0.002936 1437290.000000 1 0 0
-14.470006 5.057252 5.178321 16.179366 -0.336228 1.245007 0.005570 -0.004137 1696180.000000 1 0 0
-17.620706 7.471152 3.073021 19.384294 -0.401022 1.411593 0.031949 -0.007930 -1967610.000000 1 0 0
-15.155206 12.448052 -3.403479 19.905224 -0.687637 1.742625 0.044664 -0.014305 -970203.000000 1 0 0
-8.686406 12.343152 -9.509679 17.839312 -0.957563 2.133026 0.018087 -0.011885 1130360.000000 1 0 0
-12.447206 8.714152 -9.819079 18.090984 -0.610786 2.144517 0.003665 -0.001824 -929871.000000 1 0 0
-13.934606 -3.555948 -12.157579 18.831483 0.249856 2.272603 0.036440 -0.012666 -405670.000000 1 0 0
-14.837906 5.638452 -7.675779 17.631596 -0.363150 2.021215 0.017613 0.001143 75331.500000 1 0 0
-10.960206 13.364052 -8.168579 19.116738 -0.883903 2.012300 0.023940 -0.015548 839638.000000 1 0 0
-11.058406 13.439352 3.868221 17.828843 -0.882284 1.352093 0.002976 -0.006571 -1744080.000000 1 0 0
-15.277306 3.233852 3.016321 15.904467 -0.208598 1.379988 0.005638 0.001248 935789.000000 1 0 0
-11.117706 9.352652 -12.429479 19.119818 -0.699386 2.278491 0.022142 -0.012174 -137955.000000 1 0 0
-13.264906 11.448152 -8.844079 19.627421 -0.712016 2.038232 0.031243 -0.019949 1741970.000000 1 0 0
-9.011006 14.547552 -3.483479 17.463222 -1.016222 1.771619 0.014327 -0.001338 506706.000000 1 0 0
-16.791206 8.253952 -4.127579 19.160095 -0.456876 1.787924 0.037416 -0.003319 -300766.000000 1 0 0
-17.029406 6.588452 0.351421 18.262855 -0.369151 1.551553 0.026996 0.000238 -392470.000000 1 0 0
-10.534206 2.761252 -12.582579 16.640773 -0.256355 2.428175 0.010449 -0.006900 517596.000000 1 0 0
-16.832006 0.729952 2.339621 17.009500 -0.043340 1.432811 0.027887 -0.006719 1454090.000000 1 0 0
-12.622206 1.147152 -6.985879 14.471992 -0.090635 2.074551 0.007334 -0.005653 1894540.000000 1 0 0
-12.349606 8.882552 -5.412179 16.146337 -0.623534 1.912609 0.012500 -0.003127 -710976.000000 1 0 0
-9.755406 13.804252 1.238721 16.948739 -0.955591 1.497645 0.011969 -0.001645 2426880.000000 1 0 0
-12.374206 11.027352 2.684621 16.790791 -0.727908 1.410221 0.002712 -0.005155 -39257.000000 1 0 0
-12.627806 6.673852 -3.642579 14.740087 -0.486190 1.820504 0.001137 0.001549 250953.000000 1 0 0
-15.913306 3.466652 -9.338779 18.774019 -0.214495 2.091431 0.033269 -0.007828 -582755.000000 1 0 0
-15.141606 5.808252 -4.747579 16.898034 -0.366285 1.855585 0.019934 -0.001324 1384210.000000 1 0 0
-18.030406 5.150752 7.445721 20.175841 -0.278259 1.192819 0.049647 -0.020215 619928.000000 1 0 0
-15.809106 9.939552 -2.038579 18.785056 -0.561272 1.679532 0.021216 -0.005139 -535036.000000 1 0 0
-8.867106 9.789152 -8.323979 15.612229 -0.834781 2.133140 0.004947 -0.004529 231925.000000 1 0 0
-17.038306 4.126152 -1.326379 17.580907 -0.237595 1.646312 0.023013 0.000204 -148827.000000 1 0 0
-10.257806 5.304652 -4.567079 12.418540 -0.477260 1.947399 0.002038 -0.003447 -360899.000000 1 0 0
-18.230806 2.616752 6.042721 19.383606 -0.142561 1.253768 0.064185 -0.019037 865424.000000 1 0 0
-10.420506 10.008852 -5.750379 15.550914 -0.765251 1.949566 0.005472 -0.003108 1002110.000000 1 0 0
-15.358406 0.380452 -5.993779 16.490930 -0.024766 1.942775 0.015228 -0.005297 884053.000000 1 0 0
-16.387106 -4.173448 -8.918879 19.118089 0.249377 2.056143 0.051685 -0.023973 -780578.000000 1 0 0
-10.038406 9.456452 -1.018779 13.828666 -0.755555 1.644535 0.000119 -0.000100 1915770.000000 1 0 0
-17.348106 -3.106648 -3.350379 17.939707 0.177199 1.758657 0.039945 -0.010198 -363776.000000 1 0 0
-12.012506 5.030652 -11.631479 17.461359 -0.396594 2.299800 0.008660 -0.002195 359435.000000 1 0 0
-16.507706 6.972752 5.797821 18.834499 -0.399661 1.257885 0.032827 -0.010513 -388115.000000 1 0 0
-12.168206 5.920052 -8.837679 16.162204 -0.452804 2.149348 0.007435 -0.002543 1904440.000000 1 0 0
-14.558006 8.199452 -0.055579 16.708371 -0.512941 1.574123 0.014828 -0.004654 279430.000000 1 0 0
-15.060906 11.865752 3.751421 19.537147 -0.667289 1.377582 0.016163 -0.013731 1390540.000000 1 0 0
-17.340606 4.042752 -4.157679 18.284605 -0.229047 1.800190 0.030297 -0.003957 -482255.000000 1 0 0
-13.891006 13.275852 -0.882779 19.235062 -0.762758 1.616707 0.023286 -0.010847 -181364.000000 1 0 0
-10.091406 6.801052 -13.140479 17.909857 -0.593024 2.394549 0.002209 -0.006236 -322201.000000 1 0 0
-15.806806 -1.249248 -8.389379 17.938713 0.078868 2.057448 0.018474 -0.011739 -583552.000000 1 0 0
-11.637506 11.771452 -0.132579 16.553435 -0.791120 1.578806 0.014742 -0.003872 1122750.000000 1 0 0
-12.085506 7.217552 -0.843579 14.101920 -0.538363 1.630652 0.001047 -0.001120 1241440.000000 1 0 0
-11.523506 0.109452 -11.715279 16.433227 -0.009498 2.364424 0.010220 -0.008681 -955508.000000 1 0 0
-19.094206 -1.372148 -4.762779 19.727027 0.071739 1.814640 0.045128 -0.019295 -1351110.000000 1 0 0
-18.034306 1.301052 -5.195479 18.812813 -0.072018 1.850600 0.025192 -0.007973 -39417.600000 1 0 0
-13.284506 -0.104348 -9.521579 16.344708 0.007855 2.192657 0.011421 -0.009137 -1694370.000000 1 0 0
-6.174406 11.279652 -13.254879 18.467422 -1.069957 2.371353 -0.006583 -0.001666 -1744370.000000 1 0 0
16.476894 5.862252 6.965921 18.824932 0.341820 1.191748 0.087280 -0.021246 244924.000000 1 0 0
14.799994 10.151252 -5.413279 18.745434 0.601197 1.863747 0.066550 -0.017736 267563.000000 1 0 0
2.352294 16.896952 4.334621 17.601966 1.432471 1.321979 0.015428 -0.012278 3228030.000000 1 0 0
-4.069106 18.196852 -6.013779 19.592054 -1.350800 1.882783 0.019261 -0.003421 1345150.000000 1 0 0
5.334194 14.495852 5.624121 16.438189 1.218194 1.221606 0.018031 -0.009103 -1379490.000000 1 0 0
9.782794 6.058252 15.215121 19.076304 0.554473 0.647503 0.052451 -0.008296 -457339.000000 1 0 0
4.575694 12.780752 -1.124079 13.621606 1.227000 1.653412 0.008074 -0.010185 2048440.000000 1 0 0
3.582094 13.872352 12.842121 19.240416 1.318098 0.840010 0.018313 -0.008795 -1922280.000000 1 0 0
-0.833906 12.413952 9.100921 15.415199 -1.503722 0.939259 0.003710 -0.001579 1762700.000000 1 0 0
-7.924806 13.831952 8.305221 17.975042 -1.050515 1.090500 0.023960 -0.019850 996191.000000 1 0 0
11.409394 12.810652 -4.229579 17.668514 0.843189 1.812529 0.084320 -0.019982 1384880.000000 1 0 0
-5.943206 16.135552 0.881421 17.217858 -1.217886 1.519582 0.012561 0.007570 1813320.000000 1 0 0
3.184394 10.684952 6.726121 13.021108 1.281152 1.027973 0.002778 0.002145 3366510.000000 1 0 0
-1.270106 15.505752 2.431221 15.746503 -1.489067 1.415779 0.012907 -0.003852 -1107620.000000 1 0 0
9.835294 8.948152 9.479821 16.330016 0.738203 0.951435 0.013922 -0.005308 2219690.000000 1 0 0
7.196894 12.318152 6.156221 15.538056 1.042037 1.163419 0.013979 -0.004830 241996.000000 1 0 0
11.865594 13.986552 -1.616379 18.412730 0.867257 1.658695 0.080905 -0.018603 2077550.000000 1 0 0
9.613694 15.833752 -1.331479 18.571581 1.025125 1.642552 0.065854 -0.022478 851242.000000 1 0 0
10.048094 13.794452 2.848221 17.302123 0.941253 1.405427 0.037415 -0.014866 2248970.000000 1 0 0
-6.169006 14.502752 6.194721 16.934019 -1.168614 1.196288 0.005637 -0.009673 333210.000000 1 0 0
-1.097706 18.104252 -6.390679 19.230436 -1.510238 1.909560 0.029410 -0.001091 804128.000000 1 0 0
-3.612506 15.677552 5.387221 16.966378 -1.344324 1.247680 0.005952 -0.005187 3119270.000000 1 0 0
7.055994 12.401652 10.498821 17.714775 1.053516 0.936440 0.013614 -0.002057 1949290.000000 1 0 0
1.404394 14.600652 6.185121 15.918765 1.474904 1.171747 0.002582 -0.003551 238028.000000 1 0 0
17.475394 7.662952 -1.522079 19.142281 0.413249 1.650394 0.025073 -0.005448 1791850.000000 1 0 0
2.005094 16.158652 -3.409479 16.635714 1.447339 1.777208 0.006490 -0.009736 1774470.000000 1 0 0
6.661294 11.250252 0.578321 13.087225 1.036205 1.526592 0.013557 -0.007474 2141910.000000 1 0 0
12.712994 9.347652 3.266721 16.114288 0.634016 1.366659 0.032802 -0.007384 -1445890.000000 1 0 0
5.945994 14.194452 -3.476879 15.777388 1.174107 1.792991 0.014729 -0.012885 -247271.000000 1 0 0
2.960994 16.588352 1.495121 16.916746 1.394158 1.482300 0.010445 -0.016373 -441401.000000 1 0 0
2.871694 18.824152 -2.603079 19.219036 1.419410 1.706657 0.022044 -0.021050 -761107.000000 1 0 0
3.994394 12.022352 10.604021 16.520817 1.250024 0.873877 0.010251 0.001253 2886450.000000 1 0 0
7.955794 11.659752 3.305121 14.497182 0.972028 1.340790 0.013252 -0.005108 1412060.000000 1 0 0
0.576294 12.429152 0.157321 12.443499 1.524463 1.558153 0.008757 -0.007002 -340118.000000 1 0 0
11.947594 9.895852 -4.652179 16.196161 0.691744 1.862140 0.050019 -0.009435 629334.000000 1 0 0
-1.317506 16.376352 9.914921 19.189225 -1.490517 1.027814 0.001693 -0.006571 -338711.000000 1 0 0
8.108694 14.817352 -8.008879 18.693501 1.070072 2.013552 0.057985 -0.008223 2395340.000000 1 0 0
14.510594 7.596752 -1.313479 16.431469 0.482295 1.650819 0.025684 -0.003504 68531.800000 1 0 0
12.542394 8.320652 6.039821 16.218024 0.585739 1.189187 0.023199 -0.008014 -1186230.000000 1 0 0
-3.155606 14.181952 10.117821 17.704686 -1.351854 0.962492 0.010472 -0.012769 2112110.000000 1 0 0
-4.791706 17.208852 -3.202379 18.148285 -1.299231 1.748181 0.023582 0.002056 1305110.000000 1 0 0
-7.291906 16.400652 -1.740179 18.032790 -1.152433 1.667448 0.018025 0.002892 1948250.000000 1 0 0
8.256294 11.321852 -1.913879 14.142618 0.940718 1.706540 0.017985 -0.008353 -163012.000000 1 0 0
8.505594 12.893552 -4.179879 16.001881 0.987648 1.835074 0.045072 -0.012750 2430570.000000 1 0 0
2.464494 14.784852 -7.384079 16.708985 1.405625 2.028537 0.002345 -0.004629 -614956.000000 1 0 0
11.344294 11.478052 9.591621 18.773328 0.791259 1.034545 0.032815 -0.010676 1372890.000000 1 0 0
8.493594 15.722452 1.333221 17.919657 1.075492 1.496328 0.027248 -0.020691 2230010.000000 1 0 0
6.029794 9.999652 7.704421 13.989623 1.028174 0.987565 0.007181 0.006723 2905090.000000 1 0 0
14.413394 11.451552 2.551621 18.584798 0.671383 1.433065 0.050823 -0.011144 1737080.000000 1 0 0
12.084094 12.650152 1.050921 17.525869 0.808280 1.510796 0.055334 -0.013902 2601580.000000 1 0 0
4.936894 15.950152 8.089021 18.552965 1.270628 1.119651 0.015505 -0.006871 649920.000000 1 0 0
11.646394 15.039052 4.924221 19.648397 0.911855 1.317479 0.050902 -0.014978 828813.000000 1 0 0
5.845494 16.838852 1.791921 17.914455 1.236669 1.470602 0.013279 -0.026473 127658.000000 1 0 0
-0.795506 16.201252 -4.225079 16.762001 -1.521734 1.825608 0.013454 -0.002105 2323050.000000 1 0 0
16.000794 6.541452 2.564821 17.475534 0.388087 1.423498 0.017779 -0.013571 22185.000000 1 0 0
7.590394 16.617452 -3.259679 18.557459 1.142325 1.747366 0.036343 -0.024438 -190207.000000 1 0 0
14.892694 8.197952 7.468121 18.568025 0.503202 1.156874 0.068018 -0.021874 -266018.000000 1 0 0
1.999494 12.993752 8.553821 15.684496 1.418113 0.993968 0.002600 0.003378 833726.000000 1 0 0
15.980494 7.412252 -5.856679 18.563899 0.434296 1.891767 0.028531 -0.006296 -752433.000000 1 0 0
-3.068406 17.005052 0.646521 17.291758 -1.392276 1.533399 0.017210 0.000384 2550330.000000 1 0 0
-3.000906 18.517252 4.474921 19.285201 -1.410133 1.336623 0.020999 -0.006817 -592424.000000 1 0 0
-0.911806 19.002552 0.734021 19.038570 -1.522850 1.532232 0.022232 -0.014180 117469.000000 1 0 0
6.805594 16.797552 -6.131379 19.132895 1.185855 1.897014 0.036854 -0.013310 626008.000000 1 0 0
10.946394 10.047752 0.862021 14.883680 0.742620 1.512847 0.025249 -0.005954 -701222.000000 1 0 0
9.004594 8.799152 14.334421 19.078349 0.773859 0.720699 0.043193 -0.014633 2050500.000000 1 0 0
6.324894 12.436252 -8.355279 16.262697 1.100304 2.110369 0.028976 -0.010982 1061900.000000 1 0 0
6.233794 9.105752 13.316421 17.294564 0.970481 0.691991 0.018101 -0.007116 87276.400000 1 0 0
16.619894 9.496652 2.804321 19.346097 0.519127 1.425328 0.037909 -0.010557 -2058110.000000 1 0 0
2.469894 14.707152 -0.757779 14.932345 1.404411 1.621566 0.008033 -0.011282 -71891.100000 1 0 0
9.131594 12.975552 8.145321 17.835279 0.957555 1.096517 0.022088 -0.010493 2091460.000000 1 0 0
7.134294 9.523952 10.501721 15.871041 0.927878 0.847725 0.009777 -0.000328 2138320.000000 1 0 0
4.242894 15.691752 -5.414679 17.133358 1.306721 1.892340 0.023721 -0.014682 159539.000000 1 0 0
0.025494 16.274852 -8.295079 18.266904 1.569230 2.042163 0.012429 0.000040 242904.000000 1 0 0
-2.544106 15.766252 -2.020579 16.097513 -1.410811 1.696649 0.007945 0.002977 936856.000000 1 0 0
13.304494 10.518752 7.633321 18.598959 0.668993 1.147885 0.046222 -0.020084 1341250.000000 1 0 0
-1.118806 15.915552 7.021421 17.431491 -1.500615 1.156221 0.004833 -0.005391 3074260.000000 1 0 0
13.410994 13.266752 6.420821 19.927077 0.779991 1.242727 0.059941 -0.021799 -541973.000000 1 0 0
5.284594 17.328352 4.600621 18.691292 1.274788 1.322104 0.019625 -0.016918 -1474120.000000 1 0 0
10.749994 9.548852 -1.937179 14.508466 0.726294 1.704717 0.024425 -0.003929 1825090.000000 1 0 0
3.147594 12.766552 4.679621 13.956756 1.329067 1.228879 0.001574 -0.000783 -523176.000000 1 0 0
-0.279506 17.984352 3.513421 18.326461 -1.555256 1.377889 0.009711 -0.009674 3112730.000000 1 0 0
-7.826506 15.796252 -5.832279 18.568555 -1.110782 1.890299 0.036587 -0.009520 -437761.000000 1 0 0
-12.421706 -9.204148 8.305821 17.549980 0.637699 1.077801 0.033997 -0.016066 98114.100000 1 0 0
-13.275406 -11.776848 6.869421 19.029438 0.725652 1.201468 0.048963 -0.009928 -603222.000000 1 0 0
-6.411606 -12.234648 12.338821 18.521388 1.088092 0.841704 0.031747 -0.008631 -974098.000000 1 0 0
-1.663906 -10.675148 14.379421 17.985970 1.416173 0.644368 0.005162 -0.006500 1400740.000000 1 0 0
-8.846206 2.905952 10.971921 14.390378 -0.317391 0.703708 -0.003278 -0.001675 2148680.000000 1 0 0
0.450894 10.050652 15.130821 18.170323 1.525964 0.586791 0.003312 0.000044 -600823.000000 1 0 0
1.071894 -6.713648 16.664421 17.997915 -1.412474 0.387363 0.015545 -0.016436 2778000.000000 1 0 0
6.014494 2.365352 17.725321 18.866797 0.374696 0.349634 0.039869 -0.017792 1866860.000000 1 0 0
-5.132306 -2.959048 17.653721 18.621235 0.523001 0.323771 0.028246 -0.013559 -1017810.000000 1 0 0
-4.249506 8.155452 13.029821 15.948227 -1.090440 0.614594 -0.004113 0.004416 -173629.000000 1 0 0
0.116094 -4.821948 18.604621 19.219693 -1.546725 0.253670 0.024799 -0.023773 873188.000000 1 0 0
-11.622406 2.078352 11.146921 16.237417 -0.176952 0.814137 0.011019 -0.007847 757649.000000 1 0 0
-3.359906 -6.051748 14.462221 16.033355 1.063973 0.446397 0.012787 -0.009754 1938540.000000 1 0 0
-7.430406 -2.292448 14.600421 16.542024 0.299257 0.489377 0.013224 -0.004318 601121.000000 1 0 0
-6.068806 -1.090148 10.521321 12.194959 0.177736 0.530093 0.000274 -0.002372 797784.000000 1 0 0
-3.984606 2.450252 11.122921 12.066490 -0.551325 0.398092 -0.003444 0.001932 1298250.000000 1 0 0
-6.383306 6.306152 13.490621 16.202191 -0.779318 0.586935 -0.009538 0.002604 217532.000000 1 0 0
-8.977106 5.425752 12.504121 16.321160 -0.543648 0.697999 -0.007438 -0.003435 386506.000000 1 0 0
-12.281806 -2.376548 15.763321 20.123942 0.191139 0.670821 0.044952 -0.009032 385561.000000 1 0 0
-3.592106 -7.650848 16.940721 18.932161 1.131841 0.462787 0.033799 -0.015992 -1630140.000000 1 0 0
-0.481706 -5.415548 14.488021 15.474591 1.482081 0.359008 0.005837 -0.005424 1440940.000000 1 0 0
-14.275106 -2.297548 13.611621 19.857835 0.159579 0.815570 0.042640 -0.013250 21023.700000 1 0 0
-6.514906 1.473252 12.239321 13.943294 -0.222395 0.499562 0.000102 -0.001832 562357.000000 1 0 0
2.227194 -2.234848 14.591921 14.929136 -0.787114 0.212947 0.005230 -0.004604 698900.000000 1 0 0
-12.490306 4.008652 9.084921 15.956592 -0.310556 0.965079 0.004752 -0.005019 -1300710.000000 1 0 0
-8.966106 -3.042548 12.484721 15.668964 0.327146 0.648848 0.002387 -0.007120 644824.000000 1 0 0
-7.108606 -7.211048 15.157721 18.228769 0.792552 0.588945 0.024412 -0.017321 -1111830.000000 1 0 0
-3.160806 5.991752 19.507921 20.650684 -1.085371 0.334233 0.025737 -0.004935 -510015.000000 1 0 0
0.545594 5.476452 16.146021 17.058229 1.471499 0.328511 0.000935 0.000067 802485.000000 1 0 0
3.366094 1.513852 16.763721 17.165217 0.422634 0.216711 0.017631 -0.003914 1473720.000000 1 0 0
-11.839706 11.281452 7.763021 18.102881 -0.761258 1.127601 0.012392 -0.019010 -372715.000000 1 0 0
0.698594 -9.348548 15.420721 18.046662 -1.496207 0.546225 -0.002094 -0.002253 842092.000000 1 0 0
-2.585406 -3.653448 18.889321 19.412327 0.954947 0.232654 0.034636 -0.022694 2321370.000000 1 0 0
-12.830506 2.402752 13.748921 18.958585 -0.185124 0.759460 0.010664 -0.010045 -696953.000000 1 0 0
-5.403206 -0.668448 15.799421 16.711169 0.123088 0.331851 0.012669 -0.001074 940471.000000 1 0 0
-4.385306 -6.066348 11.688921 13.880287 0.944872 0.569587 0.003483 -0.002448 -259312.000000 1 0 0
2.386694 1.750652 13.946021 14.256668 0.632860 0.209137 0.004604 -0.003376 177952.000000 1 0 0
0.069794 3.252252 14.289921 14.655506 1.549340 0.223829 0.003613 -0.001577 -341876.000000 1 0 0
-13.043306 6.875552 12.155221 19.108910 -0.485117 0.881360 0.018863 -0.015783 137285.000000 1 0 0
0.800994 1.411152 18.218121 18.290240 1.054528 0.088833 0.011838 -0.004041 553237.000000 1 0 0
-1.989506 6.424852 12.395621 14.102775 -1.270503 0.497142 -0.001986 0.000733 1090610.000000 1 0 0
-13.351306 -2.692848 10.910521 17.451312 0.199022 0.895411 0.030118 -0.010813 -224920.000000 1 0 0
-2.537506 3.693052 13.375821 14.106387 -0.968779 0.323243 -0.002618 0.000795 68085.100000 1 0 0
3.419694 6.215852 16.239821 17.721820 1.067833 0.411869 0.006815 -0.001546 358352.000000 1 0 0
-3.804806 12.336052 12.229921 17.782736 -1.271624 0.812423 0.013718 -0.012296 508685.000000 1 0 0
3.766594 -1.438148 17.083921 17.553229 -0.364734 0.231760 0.031688 -0.013980 -115375.000000 1 0 0
-15.897906 0.407152 9.183821 18.364416 -0.025605 1.047096 0.047395 -0.009151 694340.000000 1 0 0
-4.666206 4.588552 15.184121 16.534383 -0.777008 0.406940 0.005024 0.002073 836469.000000 1 0 0
-7.972206 -8.200448 10.373521 15.440640 0.799510 0.834117 0.016521 -0.011348 2681540.000000 1 0 0
-2.641806 -0.531048 14.749421 14.993551 0.198373 0.180703 0.009245 -0.000340 604585.000000 1 0 0
-1.888906 0.889252 17.213521 17.339667 -0.439996 0.120696 0.015240 -0.004000 493761.000000 1 0 0
-0.646806 -2.555048 14.422921 14.661762 1.322857 0.180746 0.008724 -0.004404 346790.000000 1 0 0
5.039294 -8.212848 16.520821 19.125451 -1.020447 0.528006 0.007421 -0.006394 -676170.000000 1 0 0
-4.525806 9.896152 10.649621 15.226003 -1.141864 0.796188 0.000235 -0.005914 -867948.000000 1 0 0
-6.143906 2.049652 15.197221 16.519812 -0.321997 0.402871 0.007587 0.002343 -21937.600000 1 0 0
-4.963706 6.810152 17.341121 19.280327 -0.940957 0.452355 0.016377 0.006728 117214.000000 1 0 0
-4.073406 9.081952 15.778621 18.655813 -1.149177 0.562780 0.007829 0.002780 -165536.000000 1 0 0
-4.709106 -9.913248 18.419221 21.440986 1.127322 0.537354 0.062290 -0.018064 -691567.000000 1 0 0
-6.735106 -4.103548 11.124621 13.636640 0.547213 0.616704 0.006623 -0.003533 91335.200000 1 0 0
-2.372506 -0.911248 19.631721 19.795546 0.366713 0.128742 0.029272 -0.007954 -814023.000000 1 0 0
-5.646906 -4.486948 15.236221 16.857126 0.671431 0.442125 0.013164 -0.009001 1081520.000000 1 0 0
-12.922306 -0.002748 9.725621 16.173241 0.000213 0.925619 0.014522 -0.004036 1986880.000000 1 0 0
-14.410906 8.809452 10.414621 19.843009 -0.548690 1.018256 0.014784 -0.016079 -909756.000000 1 0 0
-8.445606 10.437252 12.903221 18.621429 -0.890483 0.805261 0.019029 -0.014350 -1255130.000000 1 0 0
-10.488806 7.150052 10.710621 16.608904 -0.598327 0.869940 0.009286 -0.006968 -977350.000000 1 0 0
-9.891306 -6.613848 14.672721 18.890994 0.589376 0.681380 0.044495 -0.023698 657113.000000 1 0 0
-0.566906 -13.436548 14.537721 19.804230 1.528630 0.746498 0.014118 -0.008634 482990.000000 1 0 0
3.859594 -5.609848 16.794321 18.122254 -0.968167 0.385199 0.026193 -0.020162 451538.000000 1 0 0
-7.418606 9.261552 10.456221 15.815961 -0.895439 0.848488 0.006632 -0.006920 1745950.000000 1 0 0
-10.276906 -6.690648 11.685321 16.938899 0.577104 0.809513 0.037843 -0.027451 1907230.000000 1 0 0
-10.774106 -3.904448 10.703721 15.681063 0.347671 0.819497 0.013417 -0.008670 -2074250.000000 1 0 0
-10.081806 -10.290848 9.850921 17.452364 0.795659 0.971034 0.034550 -0.017600 1734620.000000 1 0 0
-9.841006 -3.723048 15.199921 18.486322 0.361678 0.605487 0.036659 -0.022011 531897.000000 1 0 0
5.680194 -3.277948 16.053821 17.341704 -0.523399 0.387822 0.030547 -0.017267 -291179.000000 1 0 0
-11.328606 0.389852 15.199621 18.960954 -0.034399 0.640784 0.022239 -0.011217 -580025.000000 1 0 0
-3.146806 3.110852 18.791321 19.305272 -0.779653 0.231263 0.020096 -0.004740 44.999000 1 0 0
0.493494 7.323052 13.831621 15.658364 1.503509 0.487861 -0.004458 -0.000220 1191320.000000 1 0 0
-13.052406 -7.596548 12.223921 19.429285 0.527082 0.890338 0.052603 -0.026467 -891430.000000 1 0 0
-1.460006 -1.164948 12.186821 12.329125 0.673463 0.152082 0.000366 -0.002099 601985.000000 1 0 0
2.015194 -4.884548 13.130321 14.153627 -1.179505 0.382592 0.003015 -0.003536 584224.000000 1 0 0
-14.472506 -4.324448 8.686521 17.424406 0.290360 1.048899 0.036276 -0.017346 -910141.000000 1 0 0
8.187694 1.021452 16.068321 18.063018 0.124113 0.474393 0.061782 -0.018231 1202880.000000 1 0 0
-1.348806 11.291852 13.340721 17.529975 -1.451910 0.705907 0.008367 -0.001913 411770.000000 1 0 0
2.912594 -12.233748 -13.868879 18.721474 -1.337069 2.405058 0.010078 0.008297 -550601.000000 1 0 0
0.865894 -10.543348 -13.976179 17.528421 -1.488853 2.493678 0.003814 0.002145 -1301420.000000 1 0 0
3.309994 -14.362048 -12.461979 19.300917 -1.344283 2.272694 0.011367 0.009961 401123.000000 1 0 0
-5.117706 -10.152048 -16.181779 19.776374 1.103869 2.529135 0.042055 -0.012461 -602900.000000 1 0 0
-1.016306 -12.151048 -14.988479 19.321888 1.487351 2.458660 0.023794 -0.006300 149341.000000 1 0 0
5.695294 -15.024948 -11.934679 20.015544 -1.208475 2.209644 0.013891 0.008089 -642831.000000 1 0 0
1.932294 -11.736748 -16.118079 20.031912 -1.407624 2.505832 0.018944 -0.001657 -731592.000000 1 0 0
1.273994 -14.278548 -14.147779 20.140994 -1.481808 2.349612 0.026825 0.011661 -432538.000000 1 0 0
-0.999106 -10.622048 -15.877279 19.128882 1.477013 2.549933 0.019788 -0.008341 -1110640.000000 1 0 0
-5.947906 -5.643648 -15.056979 17.144707 0.759156 2.642943 0.024941 -0.001455 -3733.220000 1 0 0
-6.609506 -7.684548 -16.556279 19.412579 0.860466 2.592241 0.034837 -0.003567 553739.000000 1 0 0
4.979794 -12.569448 -11.530079 17.768852 -1.193585 2.276925 0.002341 0.010964 -139021.000000 1 0 0
-1.647006 -15.447548 -13.127979 20.339204 1.464578 2.272411 0.026264 -0.001303 -7648.210000 1 0 0
16.005294 -7.340448 -8.814479 19.691283 -0.430004 2.034914 0.085546 -0.008940 795368.000000 1 0 0
19.273494 -3.435848 -4.342379 20.053151 -0.176415 1.789069 0.123141 -0.019746 266955.000000 1 0 0
14.991294 -11.440448 -8.835279 20.825103 -0.651857 2.008942 0.067957 -0.019084 217847.000000 1 0 0
17.854294 -3.402048 -6.501679 19.303408 -0.188288 1.914329 0.095041 -0.003598 517019.000000 1 0 0
9.793194 -9.299448 -15.307479 20.413361 -0.759543 2.418670 0.092084 -0.024893 435621.000000 1 0 0
1.289794 1.919152 -15.149179 15.324632 0.979066 2.990127 0.012133 -0.003791 -206609.000000 1 0 0
4.798194 -4.268948 -13.811679 15.231844 -0.727095 2.706340 0.020153 -0.007207 157471.000000 1 0 0
13.189194 -5.501948 -8.670179 16.715211 -0.395208 2.116126 0.034694 -0.004869 -1133670.000000 1 0 0
2.921294 0.951352 -12.104979 12.488777 0.314830 2.893036 0.007242 -0.004041 -2469220.000000 1 0 0
0.551594 6.318952 -13.045379 14.505700 1.483725 2.689026 0.008550 -0.003293 -149070.000000 1 0 0
3.076294 -0.961548 -16.750979 17.058237 -0.302946 2.951505 0.026552 -0.007613 -323239.000000 1 0 0
13.150894 4.266752 -11.339179 17.880944 0.313731 2.257703 0.034273 -0.009662 660287.000000 1 0 0
-3.944506 9.445252 -16.512079 19.427318 -1.175195 2.586670 0.003083 0.006701 -444671.000000 1 0 0
-0.328506 -5.076448 -17.691279 18.408140 1.506175 2.861600 0.016110 -0.009388 299758.000000 1 0 0
-0.546706 -8.587848 -17.545379 19.542015 1.507222 2.685610 0.020798 -0.010311 -985792.000000 1 0 0
5.593394 -10.091848 -12.190079 16.784799 -1.064697 2.383658 0.008380 0.002327 352751.000000 1 0 0
1.802294 -9.672648 -17.954379 20.473596 -1.386580 2.640281 0.043266 -0.021789 -342930.000000 1 0 0
10.569394 8.983152 -14.882779 20.344685 0.704448 2.391362 0.070414 -0.020880 -92106.900000 1 0 0
11.188594 -3.815448 -12.916979 17.509729 -0.328646 2.400458 0.028957 -0.007076 66457.700000 1 0 0
4.790594 7.558252 -12.108979 15.056704 1.005878 2.505167 -0.005074 -0.000648 -565720.000000 1 0 0
9.636694 -5.795248 -12.665079 16.936794 -0.541429 2.415516 0.025733 -0.008989 -1242040.000000 1 0 0
-3.305306 0.310152 -15.832679 16.176989 -0.093561 2.934905 0.015935 -0.005141 -1126280.000000 1 0 0
-0.766806 10.797152 -12.681979 16.673304 -1.499896 2.435058 -0.000500 -0.003532 -2894740.000000 1 0 0
6.698994 -5.419148 -12.418879 15.115298 -0.680174 2.535026 0.017311 -0.008002 -414500.000000 1 0 0
18.064094 -5.832348 -8.307579 20.720609 -0.312304 1.983332 0.113442 -0.019146 12379.100000 1 0 0
13.041994 4.890452 -13.851379 19.643595 0.358751 2.353409 0.068923 -0.022339 275917.000000 1 0 0
14.196794 0.914352 -11.485179 18.283717 0.064317 2.249988 0.032198 -0.003275 52706.900000 1 0 0
14.906494 6.198452 -11.054879 19.566162 0.394071 2.171229 0.060840 -0.018836 -310915.000000 1 0 0
8.305294 1.547752 -11.757679 14.478137 0.184244 2.518536 -0.000498 0.005191 522892.000000 1 0 0
9.856394 1.340552 -8.962879 13.389502 0.135179 2.304192 0.002826 0.001469 297160.000000 1 0 0
-0.142006 -5.745548 -12.869579 14.094593 1.546085 2.721586 0.007300 -0.003593 360822.000000 1 0 0
10.594194 -5.629248 -9.057379 15.032015 -0.488414 2.217475 0.015849 -0.009409 97098.500000 1 0 0
10.040394 8.557852 -11.260279 17.344746 0.705852 2.277334 0.035424 -0.016387 839277.000000 1 0 0
8.077794 8.318252 -14.599579 18.643813 0.800063 2.470398 0.032042 -0.009801 -34937.200000 1 0 0
8.513894 10.628852 -10.581579 17.246121 0.895435 2.231361 0.056146 -0.016346 -205646.000000 1 0 0
7.099594 1.735652 -17.939479 19.371154 0.239769 2.754717 0.019726 -0.003677 -2389280.000000 1 0 0
12.143494 2.564952 -12.954679 17.940656 0.208161 2.377608 0.037456 -0.005594 -1178540.000000 1 0 0
2.697094 -0.949048 -19.293879 19.504583 -0.338347 2.994471 0.044233 -0.021380 -308283.000000 1 0 0
10.510794 -2.161348 -15.386879 18.759111 -0.202804 2.532618 0.051136 -0.016176 169715.000000 1 0 0
8.257194 -0.794948 -13.030979 15.447317 -0.095978 2.574703 0.010088 -0.004030 410225.000000 1 0 0
0.467794 4.333852 -14.645179 15.280130 1.463273 2.852300 0.008626 -0.002609 165557.000000 1 0 0
4.009094 -7.506148 -15.687779 17.847171 -1.080236 2.644571 0.036520 -0.017027 -185078.000000 1 0 0
11.422094 -5.977448 -14.536579 19.429520 -0.482132 2.416096 0.064729 -0.007564 -1535630.000000 1 0 0
-5.778806 4.314552 -16.776279 18.260709 -0.641332 2.735596 0.018246 0.002364 641727.000000 1 0 0
11.314394 7.910552 -9.130679 16.551786 0.610161 2.155129 0.033522 -0.009999 -1661370.000000 1 0 0
9.356294 6.322052 -13.564879 17.649774 0.594231 2.447381 0.007538 0.002221 -1783560.000000 1 0 0
12.115794 0.706252 -10.012179 15.733244 0.058226 2.260581 0.008467 0.003394 -664362.000000 1 0 0
5.523194 -7.210548 -13.750679 16.479650 -0.917141 2.557846 0.029074 -0.008374 -571659.000000 1 0 0
8.544394 -10.028248 -10.693279 16.968166 -0.865123 2.252603 0.020281 -0.004013 85234.900000 1 0 0
10.133394 4.552152 -15.756479 19.278858 0.422207 2.527494 0.051285 -0.017798 -159048.000000 1 0 0
9.916894 -0.285048 -11.031979 14.836799 -0.028736 2.409168 0.004605 0.000646 -653873.000000 1 0 0
-1.738506 5.562752 -14.020079 15.183189 -1.267887 2.747629 0.007434 -0.001042 -237976.000000 1 0 0
1.297194 -0.697248 -14.874279 14.947008 -0.493200 3.042904 0.010678 -0.006772 -1298310.000000 1 0 0
11.703094 -10.373848 -13.826779 20.874840 -0.725261 2.294768 0.103532 -0.029723 -468607.000000 1 0 0
9.316294 -7.573448 -10.761079 16.123004 -0.682573 2.301557 0.023879 -0.005969 -234458.000000 1 0 0
14.055194 -0.954348 -9.637079 17.068466 -0.067796 2.170761 0.031426 -0.002291 854862.000000 1 0 0
3.890394 11.002552 -12.336179 16.981538 1.230927 2.383933 0.012538 -0.013961 -313191.000000 1 0 0
-1.246406 2.712652 -17.189779 17.447078 -1.140088 2.969641 0.013932 0.002672 474175.000000 1 0 0
6.153094 -0.584248 -17.632179 18.684101 -0.094668 2.804438 0.027530 -0.005236 81260.900000 1 0 0
6.394594 -6.467748 -16.031879 18.432139 -0.791086 2.625550 0.043676 -0.013672 -269493.000000 1 0 0
-1.844406 -5.040948 -19.897779 20.609090 1.220041 2.878098 0.021934 -0.012689 -491926.000000 1 0 0
0.036394 -4.353148 -15.183079 15.794845 -1.562436 2.862363 0.009609 -0.007983 89245.600000 1 0 0
0.437594 0.717352 -12.919779 12.947076 1.023047 3.076645 0.009935 -0.006540 902712.000000 1 0 0
15.504894 0.750052 -13.701879 20.705212 0.048337 2.293960 0.093214 -0.027398 621484.000000 1 0 0
-0.112506 7.036252 -16.350679 17.800736 -1.554808 2.735166 0.006736 0.002780 -9282.330000 1 0 0
-4.766306 -0.733348 -18.323179 18.947147 0.152664 2.884243 0.017544 -0.002040 -191361.000000 1 0 0
10.463594 -8.228548 -13.014879 18.616736 -0.666392 2.344928 0.036272 -0.016753 30530.000000 1 0 0
4.084594 8.773852 -16.976979 19.541806 1.135093 2.623473 0.027600 -0.017061 -193213.000000 1 0 0
9.282894 0.479552 -17.189279 19.541581 0.051614 2.645871 0.032193 -0.002330 -225239.000000 1 0 0
3.453394 4.827652 -18.370879 19.305993 0.949852 2.829078 0.015162 -0.007225 -627235.000000 1 0 0
1.531694 -8.088648 -15.912779 17.916162 -1.383649 2.664166 0.019877 -0.012940 -1032050.000000 1 0 0
4.555594 7.731852 -14.705179 17.227224 1.038357 2.593656 0.002919 -0.008099 224236.000000 1 0 0
-5.673206 -0.510748 -15.136479 16.172790 0.089786 2.781666 0.009649 -0.004132 -572210.000000 1 0 0
2.824394 3.420052 -13.664779 14.366633 0.880500 2.827726 0.007072 -0.000512 -147812.000000 1 0 0
-2.330706 -10.447748 -17.981879 20.926911 1.351308 2.604638 0.028885 -0.009679 -24274.300000 1 0 0
6.115894 -9.029348 -15.560179 19.001380 -0.975444 2.530283 0.035668 -0.007736 -109402.000000 1 0 0
-1.624806 5.266552 -17.229879 18.089923 -1.271547 2.831999 0.017371 -0.002928 921771.000000 1 0 0
10.070794 -12.008348 -11.401579 19.380849 -0.872929 2.199740 0.062058 -0.015235 -177799.000000 1 0 0
10.892594 3.669152 -9.269479 14.765992 0.324911 2.249467 0.005200 0.003337 -1076840.000000 1 0 0
4.857794 -0.529248 -10.987979 12.025554 -0.108520 2.723141 0.008742 -0.005474 -293717.000000 1 0 0
6.184494 9.481052 -11.291279 15.988474 0.992806 2.354932 0.016816 -0.012163 -2609.610000 1 0 0
10.836194 -9.441948 -9.457379 17.205101 -0.716750 2.152783 0.037174 -0.005586 291809.000000 1 0 0
3.251894 -2.306448 -14.509979 15.047724 -0.616916 2.873448 0.016249 -0.005444 -199870.000000 1 0 0
9.383794 -4.441748 -14.716779 18.010228 -0.442095 2.527219 0.044159 -0.012421 -366995.000000 1 0 0
-4.148506 -6.649448 -16.596079 18.353613 1.012998 2.700394 0.020461 -0.005046 -715161.000000 1 0 0
5.956694 -7.677848 -11.213879 14.838552 -0.910969 2.427558 0.009215 -0.004929 647742.000000 1 0 0
5.565294 6.637252 -16.810179 18.910519 0.873020 2.665806 0.001065 -0.001701 -945230.000000 1 0 0
8.926494 1.318252 -19.611679 21.587914 0.146619 2.710372 0.044264 -0.018985 367534.000000 1 0 0
13.026894 5.802752 -9.350679 17.053067 0.419059 2.151160 0.017081 -0.004091 -51453.000000 1 0 0
-1.579906 -0.655548 -17.329979 17.414190 0.393309 3.043209 0.025689 -0.008441 -52238.400000 1 0 0
-0.365106 -0.416748 -19.526179 19.534038 0.851353 3.113225 0.041254 -0.017055 -248059.000000 1 0 0
2.952194 6.467652 -16.320879 17.802164 1.142587 2.730768 -0.000491 -0.003217 -82067.900000 1 0 0
7.570394 3.798152 -15.657979 17.801942 0.465016 2.645745 0.003852 0.003980 63398.600000 1 0 0
3.166794 -9.835148 -14.889079 18.123007 -1.259292 2.534933 0.016926 -0.003881 -48301.100000 1 0 0
9.110394 -10.414248 -13.250679 19.158192 -0.852079 2.334561 0.056372 -0.007003 -268213.000000 1 0 0
3.744194 0.225752 -14.675079 15.146877 0.060221 2.891348 0.010404 -0.003566 -1960930.000000 1 0 0
-1.193806 -2.838948 -18.810979 19.061420 1.172735 2.979312 0.040713 -0.013065 440470.000000 1 0 0
9.100894 10.262452 -13.077679 18.951777 0.845314 2.332355 0.061454 -0.019393 -71395.100000 1 0 0
4.624594 2.077352 -10.584179 11.735719 0.422186 2.694892 0.002114 -0.000722 75530.800000 1 0 0
-0.389206 6.900952 -18.979579 20.198986 -1.514457 2.792345 0.015776 0.003690 37241.700000 1 0 0
0.831294 -1.723048 -17.577779 17.681580 -1.121283 3.033183 0.032546 -0.013868 -2488970.000000 1 0 0
-4.446106 -2.259848 -14.033079 14.893021 0.470246 2.800109 0.013578 -0.008202 -2785990.000000 1 0 0
9.977394 6.062952 -10.393779 15.631328 0.546039 2.298200 0.008789 0.002277 -14285.800000 1 0 0
8.301394 5.456252 -17.414779 20.048899 0.581469 2.623197 0.042138 -0.015891 -170015.000000 1 0 0
11.341794 0.244552 -13.650479 17.749131 0.021559 2.448195 0.025049 0.002481 264152.000000 1 0 0
6.717294 11.910852 -11.958879 18.166046 1.057295 2.289367 0.046650 -0.022495 -328105.000000 1 0 0
-0.899306 0.565052 -15.064379 15.101773 -0.560983 3.071206 0.014138 -0.007129 -1461060.000000 1 0 0
-4.327706 -3.197748 -19.066179 19.810952 0.636360 2.866522 0.022338 0.003432 266608.000000 1 0 0
5.760494 -11.963248 -13.994979 19.291502 -1.122045 2.382481 0.018641 0.006045 -187545.000000 1 0 0
2.189694 -4.696948 -13.935079 14.867498 -1.134557 2.785553 0.009684 -0.006840 -612974.000000 1 0 0
11.818894 1.972352 -15.501879 19.592975 0.165357 2.483558 0.066208 -0.012821 343373.000000 1 0 0
9.720194 2.309352 -13.861379 17.086635 0.233258 2.517068 0.013587 -0.003262 141734.000000 1 0 0
-2.231606 -4.067848 -16.360979 17.006149 1.069031 2.865260 0.009026 -0.007839 -1574250.000000 1 0 0
-2.866306 10.178752 -14.245979 17.741776 -1.296307 2.503045 0.002429 -0.001389 280333.000000 1 0 0
3.549494 5.771652 -13.429479 15.042000 1.019429 2.674317 -0.003182 -0.000115 37415.400000 1 0 0
-5.065406 -2.693248 -16.531879 17.498999 0.488680 2.807575 0.016572 -0.001715 430136.000000 1 0 0
-4.380406 6.051052 -13.714479 15.616982 -0.944204 2.642835 0.000462 0.003553 444935.000000 1 0 0
5.896294 -1.082148 -14.203279 15.416564 -0.181510 2.742207 0.014129 -0.000734 -702388.000000 1 0 0
6.833994 -2.963248 -12.673679 14.700560 -0.409136 2.610240 0.016669 -0.006764 1223110.000000 1 0 0
2.868194 -3.184448 -18.128979 18.628664 -0.837601 2.909454 0.046881 -0.025964 -473720.000000 1 0 0
7.460494 -11.941448 -12.038279 18.525046 -1.012372 2.278168 0.022355 0.003452 -485647.000000 1 0 0
-6.295006 -5.438248 -17.652679 19.514577 0.712508 2.701212 0.047663 -0.004091 655144.000000 1 0 0
0.365894 8.619452 -11.898479 14.697028 1.528372 2.514239 0.003214 -0.003218 68888.200000 1 0 0
0.314894 8.671352 -14.484679 16.884828 1.534498 2.601871 -0.003046 0.000966 116622.000000 1 0 0
7.918094 -2.378248 -15.035179 17.158347 -0.291784 2.638842 0.030216 -0.012538 -1334400.000000 1 0 0
14.372994 1.595852 -8.879179 16.969664 0.110578 2.121443 0.029966 -0.000539 960199.000000 1 0 0
2.585494 10.818152 -14.674579 18.413594 1.336201 2.493013 0.003288 -0.003470 762608.000000 1 0 0
6.101494 1.099552 -15.523479 16.715730 0.178297 2.761620 0.015075 -0.001564 680209.000000 1 0 0
16.731694 -5.428748 -10.406079 20.437890 -0.313742 2.105000 0.123023 -0.019502 547957.000000 1 0 0
4.934794 -4.200348 -11.175779 12.918713 -0.705173 2.616115 0.005051 -0.004462 403153.000000 1 0 0
8.957194 -3.528948 -17.045379 19.576255 -0.375305 2.627455 0.045869 -0.019209 393791.000000 1 0 0
13.271694 -9.559748 -8.950979 18.645285 -0.624228 2.071527 0.060781 -0.011337 -1525770.000000 1 0 0
2.362194 -7.725948 -13.564779 15.788397 -1.274074 2.604425 0.002827 -0.001284 400933.000000 1 0 0
-6.807606 -2.242848 -18.474379 19.816068 0.318262 2.771497 0.017438 -0.001441 11149.200000 1 0 0
-1.461106 -6.469348 -15.770479 17.108340 1.348672 2.743496 0.004934 -0.004971 302611.000000 1 0 0
1.540794 -7.144548 -18.280479 19.687421 -1.358389 2.761246 0.037829 -0.020595 -217493.000000 1 0 0
5.251694 10.719952 -14.513879 18.792295 1.115262 2.453300 0.042125 -0.027175 -56150.300000 1 0 0
5.335894 -3.364248 -17.180179 18.301598 -0.562540 2.789710 0.035503 -0.021433 -711304.000000 1 0 0
3.820194 12.937952 -14.089879 19.506644 1.283684 2.377936 0.027895 -0.021336 107062.000000 1 0 0
8.746394 10.675952 -15.580779 20.814323 0.884421 2.416685 0.078013 -0.026273 937.109000 1 0 0
2.501694 3.890552 -16.193379 16.841033 0.999345 2.863363 0.009401 -0.006135 329617.000000 1 0 0
16.723194 1.956052 -11.705679 20.506444 0.116437 2.178312 0.118858 -0.011072 1022150.000000 1 0 0
10.097194 -3.690848 -10.629379 15.118180 -0.350444 2.350524 0.016743 -0.002527 327498.000000 1 0 0
14.756894 -2.045748 -11.937879 19.090939 -0.137752 2.246333 0.083941 -0.011845 240836.000000 1 0 0
-2.709806 -8.713048 -16.057879 18.469319 1.269274 2.624855 0.017618 -0.001683 -409761.000000 1 0 0
13.899794 8.235752 -8.972479 18.480726 0.534893 2.077737 0.062300 -0.009458 178559.000000 1 0 0
-8.314606 0.021652 -16.586179 18.553557 -0.002604 2.676906 0.014274 -0.001588 -559769.000000 1 0 0
-3.340206 3.699752 -15.891679 16.655047 -0.836426 2.837657 0.008995 0.001207 1296450.000000 1 0 0
15.112494 4.053852 -9.624379 18.369808 0.262075 2.122247 0.033056 -0.007850 784153.000000 1 0 0
5.369994 1.150552 -12.916079 14.035159 0.211065 2.739556 0.006390 -0.000801 357243.000000 1 0 0
7.912194 -7.647948 -12.948979 16.993233 -0.768418 2.437205 0.031993 -0.007386 -3010440.000000 1 0 0
3.314694 -6.105548 -11.844379 13.731505 -1.073422 2.611123 0.004306 -0.004434 -1235060.000000 1 0 0
-3.211006 3.703152 -18.524579 19.162044 -0.856458 2.882930 0.026867 0.000921 -687780.000000 1 0 0
1.022194 5.231652 -17.768979 18.551325 1.377841 2.850142 0.017256 -0.007341 -861192.000000 1 0 0
6.291794 7.067752 -10.121979 13.856199 0.843416 2.389853 -0.001940 -0.000902 265837.000000 1 0 0
9.740094 3.759952 -11.660779 15.651851 0.368404 2.411346 0.009924 0.003658 319467.000000 1 0 0
4.554194 1.457452 -17.488779 18.130699 0.309725 2.874699 0.015072 -0.003401 104418.000000 1 0 0
2.472594 8.134952 -13.219179 15.717438 1.275722 2.570021 -0.002736 -0.002941 -1626210.000000 1 0 0
14.419794 -3.519548 -9.906579 17.845391 -0.239397 2.159320 0.056471 -0.001443 -483202.000000 1 0 0
-1.488806 9.205152 -16.232979 18.720603 -1.410449 2.620184 0.003636 0.002077 -2366530.000000 1 0 0
-5.341306 1.922252 -15.792479 16.781746 -0.345453 2.796520 0.019016 -0.002455 686689.000000 1 0 0
4.571794 4.209352 -11.891579 13.417511 0.744147 2.660032 0.001626 -0.000083 485297.000000 1 0 0
9.283794 3.098052 -17.611979 20.148661 0.322085 2.634380 0.035712 -0.012668 864813.000000 1 0 0
-4.249206 14.382952 -13.321479 20.059583 -1.283534 2.297080 0.018256 -0.006988 -263583.000000 1 0 0
15.527194 -4.919448 -8.026879 18.158345 -0.306823 2.028678 0.065583 -0.002837 -826470.000000 1 0 0
1.042194 9.319852 -16.941179 19.363609 1.459434 2.636021 -0.001238 0.003658 -295678.000000 1 0 0
0.454094 -3.259548 -12.747279 13.165257 -1.432375 2.888935 0.008449 -0.005345 331100.000000 1 0 0
7.541894 3.635752 -13.019679 15.479370 0.449204 2.570108 0.002005 0.001903 -283849.000000 1 0 0
-2.946106 7.587552 -15.059079 17.118012 -1.200433 2.646072 0.003595 0.002250 102515.000000 1 0 0
12.323894 -5.081048 -10.996379 17.280502 -0.391058 2.260549 0.038826 -0.010572 -918666.000000 1 0 0
0.670594 -4.351048 -19.953579 20.433469 -1.417877 2.924438 0.048670 -0.019818 -763838.000000 1 0 0
3.467994 -4.552048 -15.944179 16.940040 -0.919752 2.796998 0.037792 -0.019131 286968.000000 1 0 0
-5.583006 3.875752 -14.275079 15.810417 -0.606826 2.697244 0.004852 -0.000550 426375.000000 1 0 0
12.378294 -7.478548 -9.884279 17.517129 -0.543477 2.170337 0.033197 -0.005314 407466.000000 1 0 0
-1.965006 -1.831648 -14.958279 15.197575 0.750287 2.963901 0.014724 -0.005660 778931.000000 1 0 0
6.953394 5.934152 -14.347379 17.012088 0.706475 2.574309 0.002547 0.002126 -1301760.000000 1 0 0
4.247694 -5.421248 -18.263379 19.518808 -0.906181 2.780981 0.066762 -0.030159 201531.000000 1 0 0
7.434594 7.394452 -12.356479 16.205976 0.782691 2.437910 0.006448 -0.005403 -944451.000000 1 0 0
12.405194 -2.496948 -11.030779 16.786949 -0.198628 2.287767 0.024793 -0.002274 -2245760.000000 1 0 0
7.479494 -0.718348 -10.653379 13.036615 -0.095749 2.527313 0.005857 -0.001121 -329225.000000 1 0 0
5.355894 4.074052 -14.445779 15.936249 0.650293 2.705651 -0.003427 0.005146 679203.000000 1 0 0
14.687994 2.952352 -12.955379 19.806448 0.198361 2.283787 0.068631 -0.023675 -305467.000000 1 0 0
-6.562206 6.668752 -15.829479 18.387692 -0.793451 2.607780 0.011641 0.008638 561747.000000 1 0 0
-11.081006 3.885752 -16.384479 20.157850 -0.337270 2.519754 0.072611 -0.024431 -213560.000000 1 0 0
-4.747106 6.469052 -17.736379 19.466967 -0.937732 2.716744 0.014752 0.009045 -345529.000000 1 0 0
-10.088706 1.573852 -15.588279 18.634738 -0.154754 2.561692 0.050533 -0.016465 -307810.000000 1 0 0
-7.330806 5.809852 -18.159379 20.426898 -0.670167 2.665939 0.027096 0.004043 712417.000000 1 0 0
-8.595206 3.730152 -15.640979 18.232713 -0.409453 2.601872 0.012427 0.000676 -1018130.000000 1 0 0
8.944794 13.361152 -12.166279 20.163037 0.980860 2.218548 0.116285 -0.030904 -688836.000000 1 0 0
14.297494 9.573152 -11.241479 20.553209 0.590009 2.149507 0.108738 -0.015289 394958.000000 1 0 0
8.249494 15.915152 -9.182979 20.141333 1.092583 2.044210 0.086150 -0.015943 -76224.100000 1 0 0
7.099294 13.635152 -13.863879 20.700833 1.090757 2.304636 0.084361 -0.028043 -107636.000000 1 0 0
4.917994 15.857652 -12.552879 20.814095 1.270069 2.218172 0.055597 -0.023774 162203.000000 1 0 0
10.959494 10.980152 -11.458079 19.286311 0.786340 2.206948 0.101320 -0.023907 -614391.000000 1 0 0
15.783894 9.943252 -9.157879 20.781393 0.562159 2.027149 0.114617 -0.017777 987790.000000 1 0 0
13.211894 10.781252 -9.170179 19.361862 0.684437 2.064194 0.109235 -0.022124 -283934.000000 1 0 0
10.414494 12.019452 -8.284979 17.932367 0.856818 2.051059 0.078673 -0.008756 119270.000000 1 0 0
5.310294 16.111352 -10.038079 19.711365 1.252410 2.105113 0.053128 -0.014137 -297746.000000 1 0 0
6.707794 14.379452 -11.364979 19.517322 1.134319 2.192354 0.060158 -0.020792 -475250.000000 1 0 0
10.758094 14.049152 -9.839779 20.246888 0.917293 2.078292 0.125829 -0.020437 -265869.000000 1 0 0
8.594894 -18.669848 -1.483579 20.606709 -1.139359 1.642854 0.073409 -0.001334 69810.600000 1 0 0
7.744494 -17.180748 -3.419679 19.153316 -1.147306 1.750301 0.047072 -0.014352 -486730.000000 1 0 0
4.654694 -18.248348 5.726121 19.683924 -1.321047 1.275625 0.048912 -0.004643 365840.000000 1 0 0
10.103694 -16.766048 -2.384179 19.719769 -1.028447 1.691996 0.058558 -0.013418 505865.000000 1 0 0
-9.619406 -12.373348 -10.258479 18.731501 0.909970 2.150360 0.052921 -0.011492 -707801.000000 1 0 0
-5.051106 -6.986348 -12.069979 14.832637 0.944803 2.521362 0.014109 -0.003690 302290.000000 1 0 0
-10.710706 -9.569348 -5.785679 15.484371 0.729178 1.953733 0.017569 -0.005898 -1444640.000000 1 0 0
-4.567706 -11.465448 -14.146779 18.773700 1.191680 2.424230 0.032814 -0.005801 836592.000000 1 0 0
-3.135906 -15.456348 7.331321 17.391977 1.370625 1.135659 0.020302 -0.006599 458759.000000 1 0 0
-4.691806 -11.929248 -11.673879 17.337805 1.196077 2.309486 0.032860 -0.005242 545368.000000 1 0 0
-14.389906 -12.857848 -4.154379 19.739618 0.729230 1.782841 0.061808 -0.016342 -68444.500000 1 0 0
-3.046706 -12.402748 -3.296179 13.189973 1.329918 1.823374 0.009587 -0.003466 901097.000000 1 0 0
-2.397506 -17.425648 -1.486879 17.652537 1.434070 1.655127 0.015488 -0.020015 -614948.000000 1 0 0
-5.700206 -12.193248 3.738421 13.969375 1.133494 1.299879 0.003910 -0.001849 823456.000000 1 0 0
-8.853706 -10.876048 -12.126079 18.539642 0.887544 2.283739 0.038739 -0.002303 -90483.300000 1 0 0
-9.938106 -12.157848 -7.668479 17.475263 0.885521 2.025080 0.045937 -0.009261 416706.000000 1 0 0
-10.938906 -15.001048 6.283021 19.600191 0.940734 1.244477 0.063128 -0.016562 -562115.000000 1 0 0
-9.438706 -15.713348 0.524721 18.337770 1.029876 1.542178 0.018694 -0.005583 -2516860.000000 1 0 0
-14.676206 -7.698748 -8.027579 18.414771 0.483113 2.021869 0.027427 -0.017743 184126.000000 1 0 0
-2.380206 -16.629248 5.150721 17.570635 1.428628 1.273283 0.018422 -0.008435 2338180.000000 1 0 0
4.545494 -15.807048 6.246421 17.593807 -1.290790 1.207845 0.028401 -0.004014 -345229.000000 1 0 0
4.277894 -14.592848 -10.045879 18.225567 -1.285636 2.154595 0.006951 -0.000037 -210210.000000 1 0 0
-7.546306 -14.131648 -0.367079 16.024512 1.080320 1.593706 0.006077 -0.000176 1141720.000000 1 0 0
3.077194 -14.552048 9.665421 17.738421 -1.362405 0.994543 0.019268 -0.014844 -751209.000000 1 0 0
2.555094 -17.008348 10.430421 20.114823 -1.421686 1.025649 0.043916 -0.021867 -716680.000000 1 0 0
-8.286106 -17.090848 -5.788279 19.856002 1.119361 1.866604 0.057688 -0.018822 128790.000000 1 0 0
-6.488306 -9.209548 -7.771879 13.686344 0.957044 2.174696 0.016563 -0.005522 316994.000000 1 0 0
-5.945806 -13.224148 -4.870079 15.295371 1.148261 1.894840 0.007669 -0.009638 57144.200000 1 0 0
2.225594 -19.355348 -5.094379 20.137911 -1.456313 1.826550 0.036028 -0.025552 -115549.000000 1 0 0
-5.388206 -12.948248 8.337221 16.315611 1.176459 1.034453 0.015960 -0.004313 1109870.000000 1 0 0
2.235994 -17.478448 3.449121 17.955285 -1.443559 1.377500 0.027125 -0.012233 391124.000000 1 0 0
-17.620606 -10.079448 -2.296879 20.429310 0.519597 1.683465 0.057079 -0.011479 443864.000000 1 0 0
-3.414206 -15.339948 2.530121 15.917674 1.351796 1.411169 0.010307 -0.010615 -157738.000000 1 0 0
-10.160606 -10.286948 -14.281779 20.323101 0.791577 2.350033 0.048610 -0.014498 54432.500000 1 0 0
6.126294 -14.494548 -5.675479 16.728254 -1.170908 1.916942 0.008282 -0.013469 310632.000000 1 0 0
-7.135006 -12.424348 -10.933179 18.022407 1.049506 2.222628 0.036366 -0.007636 -2594380.000000 1 0 0
-6.973706 -14.340648 4.026121 16.446776 1.118177 1.323486 0.002103 -0.000600 270701.000000 1 0 0
3.247394 -14.868248 -3.065079 15.524338 -1.355762 1.769539 0.016850 -0.008916 269463.000000 1 0 0
-7.567106 -11.489748 7.942821 15.885963 0.988402 1.047209 0.019425 -0.010603 -571779.000000 1 0 0
-12.681506 -12.184448 -0.988679 17.614167 0.765411 1.626956 0.025002 -0.004288 -1457700.000000 1 0 0
-1.855406 -13.722448 3.984421 14.409154 1.436402 1.290625 0.005811 -0.003743 -4293940.000000 1 0 0
-3.248706 -13.969548 5.228821 15.265744 1.342301 1.221199 0.006691 -0.003623 728375.000000 1 0 0
-14.534106 -10.339448 -4.596379 18.419314 0.618331 1.823003 0.042340 -0.007415 296733.000000 1 0 0
-6.323406 -8.730348 -10.489579 15.041134 0.943946 2.342550 0.026218 -0.004827 317867.000000 1 0 0
1.033094 -19.548948 2.359921 19.717959 -1.517999 1.450825 0.053118 -0.018319 -85180.000000 1 0 0
6.470394 -14.047348 -8.170979 17.491680 -1.139152 2.056844 0.016146 -0.003267 -2854110.000000 1 0 0
-3.982806 -16.819248 -5.999079 18.295869 1.338279 1.904868 0.011044 -0.011492 -46906.800000 1 0 0
-3.541806 -13.681548 -13.221179 19.352745 1.317483 2.322889 0.047762 -0.005353 -492199.000000 1 0 0
-8.157406 -14.726948 -4.681679 17.474107 1.064956 1.842031 0.023205 -0.011460 -823596.000000 1 0 0
-4.286006 -14.300648 10.091821 18.020079 1.279608 0.976372 0.020129 -0.004639 -1104040.000000 1 0 0
-0.200206 -12.099048 -9.986479 15.689386 1.554251 2.260763 0.005408 -0.000170 909635.000000 1 0 0
2.481894 -17.229448 6.929221 18.735736 -1.427731 1.191960 0.033918 -0.014177 -844172.000000 1 0 0
-2.732906 -19.245948 -3.389479 19.732305 1.429740 1.743426 0.027553 -0.022565 -181351.000000 1 0 0
0.753194 -15.476948 -3.120779 15.806407 -1.522169 1.769540 0.013525 -0.006382 -1730390.000000 1 0 0
5.992294 -17.942448 0.505721 18.923393 -1.248470 1.544069 0.030123 -0.003862 -159244.000000 1 0 0
-7.305206 -16.778148 3.776621 18.685159 1.160150 1.367275 0.011788 -0.004628 796545.000000 1 0 0
-5.167606 -13.549748 -9.650579 17.419343 1.206444 2.157976 0.028975 -0.007074 -113884.000000 1 0 0
5.750594 -15.219348 -2.164679 16.412913 -1.209532 1.703070 0.027620 -0.004100 316283.000000 1 0 0
-8.788506 -10.287048 -0.498879 13.539206 0.863795 1.607652 0.006987 0.002330 204323.000000 1 0 0
-7.168706 -18.253248 -3.032879 19.843633 1.196568 1.724237 0.029051 -0.027789 -284768.000000 1 0 0
7.924294 -16.087748 -1.058579 17.964706 -1.113113 1.629756 0.029143 -0.000772 81266.400000 1 0 0
-8.070306 -10.393048 -9.580479 16.276697 0.910544 2.200123 0.036114 -0.009750 -957660.000000 1 0 0
-9.259006 -15.006948 -7.145679 19.026256 1.017984 1.955807 0.060591 -0.016768 112215.000000 1 0 0
-11.459906 -10.632648 -12.093379 19.764425 0.747971 2.229227 0.055740 -0.001533 -463054.000000 1 0 0
6.585094 -16.222148 2.430021 17.675592 -1.185186 1.432881 0.031817 -0.006065 2253580.000000 1 0 0
-2.159806 -11.171248 -6.056479 12.889627 1.379816 2.059942 0.007083 -0.003606 -288668.000000 1 0 0
-12.364806 -15.538348 -3.264979 20.124333 0.898646 1.733757 0.047221 -0.009492 -343361.000000 1 0 0
-0.223606 -19.332148 -2.657679 19.515256 1.559230 1.707406 0.048461 -0.042178 -829444.000000 1 0 0
-5.866806 -15.763448 -4.700979 17.464390 1.214502 1.843333 0.013834 -0.011466 -2188070.000000 1 0 0
1.954394 -16.286348 -1.147279 16.443267 -1.451365 1.640625 0.019417 -0.007501 1123210.000000 1 0 0
-13.155406 -11.944948 5.279221 18.536901 0.737211 1.282004 0.033625 -0.006085 -22909.400000 1 0 0
2.134194 -15.168148 -8.769079 17.650050 -1.431012 2.090739 0.007998 -0.001495 -1377100.000000 1 0 0
-11.636706 -16.846848 -0.252379 20.476644 0.966316 1.583122 0.060508 -0.020469 518013.000000 1 0 0
-7.593306 -16.644248 -1.057979 18.325082 1.142788 1.628562 0.023796 -0.012459 310860.000000 1 0 0
-2.932106 -14.584048 -1.821279 14.986953 1.372392 1.692622 0.004520 -0.006829 312835.000000 1 0 0
-1.748106 -10.500348 -13.132179 16.904654 1.405828 2.460425 0.013244 -0.004392 300981.000000 1 0 0
1.581194 -19.499548 4.844521 20.154452 -1.489885 1.328050 0.051638 -0.021032 -158936.000000 1 0 0
-17.290906 -9.240748 2.615721 19.779001 0.490809 1.438160 0.038649 -0.012589 -302823.000000 1 0 0
-2.641806 -15.710948 -8.095479 17.870362 1.404204 2.040937 0.003753 -0.008948 -180480.000000 1 0 0
-10.387906 -12.199848 0.257921 16.025337 0.865445 1.554701 0.009379 0.003771 828671.000000 1 0 0
-6.825006 -11.550148 -6.562279 14.934863 1.037093 2.025720 0.022867 -0.003794 -53352.700000 1 0 0
-2.263606 -13.681948 -6.680479 15.393129 1.406837 2.019714 0.001387 -0.002847 388855.000000 1 0 0
-14.310206 -14.265448 -0.992679 20.230433 0.783832 1.619885 0.061060 -0.014990 166321.000000 1 0 0
-9.633406 -11.432248 -4.625579 15.649115 0.870584 1.870860 0.022951 -0.003066 1051900.000000 1 0 0
9.632294 -15.036348 -5.129479 18.579139 -1.001057 1.850518 0.026935 -0.007228 -33670.800000 1 0 0
-5.575106 -11.012148 -9.420279 15.527102 1.102146 2.222698 0.027866 -0.006962 -496900.000000 1 0 0
-10.375106 -16.008248 -5.004079 19.721756 0.995751 1.827335 0.059348 -0.012362 -1608890.000000 1 0 0
2.443994 -17.323548 -3.440279 17.830142 -1.430642 1.764961 0.028547 -0.017481 377600.000000 1 0 0
-0.274606 -14.431348 -8.117479 16.559973 1.551770 2.083100 0.002158 -0.005048 -620457.000000 1 0 0
-0.643906 -18.343748 -7.025379 19.653592 1.535709 1.936343 0.018620 -0.014389 125499.000000 1 0 0
-1.709606 -9.937048 -10.457079 14.526465 1.400421 2.374403 0.005741 -0.000245 338944.000000 1 0 0
-5.149606 -17.200748 2.194521 18.088674 1.279906 1.449177 0.020426 -0.014827 -402660.000000 1 0 0
0.259994 -12.879048 -2.637979 13.149008 -1.550612 1.772789 0.004424 -0.002994 -2094150.000000 1 0 0
2.687594 -15.026848 3.001321 15.557547 -1.393815 1.376662 0.019114 -0.005895 -551675.000000 1 0 0
-9.282106 -13.145848 6.862621 17.494753 0.955997 1.167701 0.020861 -0.005567 -947568.000000 1 0 0
-0.887306 -17.717248 -4.501779 18.301754 1.520757 1.819322 0.025846 -0.026501 -15230.900000 1 0 0
-9.539206 -17.592848 -2.554679 20.175013 1.073945 1.697763 0.043705 -0.019289 208889.000000 1 0 0
1.333394 -16.168148 1.415921 16.284710 -1.488512 1.483739 0.024564 -0.014920 -65277.800000 1 0 0
-0.335506 -18.080148 4.129721 18.548825 1.552242 1.346274 0.041865 -0.014513 -408378.000000 1 0 0
-17.378806 -9.208848 0.074021 19.668027 0.487272 1.567033 0.024079 -0.007058 582975.000000 1 0 0
-14.848206 -7.372548 -10.618279 19.686837 0.460866 2.140472 0.059959 -0.023274 849927.000000 1 0 0
2.850594 -12.670248 -8.879179 15.732161 -1.349498 2.170499 0.000047 0.000290 694216.000000 1 0 0
-11.826106 -15.051548 1.502921 19.200642 0.904832 1.492442 0.039965 -0.000395 609075.000000 1 0 0
-2.151806 -15.748348 10.722821 19.173410 1.435000 0.977310 0.026900 -0.004325 416585.000000 1 0 0
-7.049906 -15.828648 1.325121 17.378240 1.151783 1.494471 0.016226 -0.011568 -998936.000000 1 0 0
-12.616606 -15.080048 -5.810379 20.502369 0.874108 1.858134 0.071016 -0.016720 -61626.600000 1 0 0
0.934394 -13.751048 -5.064579 14.683814 -1.502950 1.922938 0.007031 -0.004772 275173.000000 1 0 0
6.047894 -16.300848 -7.367479 18.883178 -1.215522 1.971603 0.036813 -0.023419 54152.100000 1 0 0
-6.577606 -12.856248 5.968821 15.626095 1.097890 1.178861 0.012519 -0.005126 -281218.000000 1 0 0
-2.532306 -13.693548 0.485921 13.934201 1.387935 1.535917 0.009527 -0.007497 2624090.000000 1 0 0
-4.270206 -15.549048 0.183621 16.125796 1.302776 1.559409 0.011830 -0.011410 201817.000000 1 0 0
-17.606706 -7.480848 -1.963779 19.230591 0.401774 1.673092 0.021958 -0.007939 97875.200000 1 0 0
1.267594 -12.665048 -11.983179 17.481614 -1.471043 2.326050 0.004569 0.004653 32803.700000 1 0 0
1.287694 -17.022048 -5.882979 18.055961 -1.495292 1.902674 0.027660 -0.018970 -1307550.000000 1 0 0
-12.749106 -6.444248 -9.174379 16.977552 0.468011 2.141688 0.030849 -0.011495 1065060.000000 1 0 0
-11.670906 -13.549048 -9.078779 20.055199 0.859731 2.040576 0.072903 -0.019213 772169.000000 1 0 0
-4.184406 -9.948548 3.455621 11.332440 1.172654 1.260930 0.007629 -0.001667 -2747630.000000 1 0 0
-6.921006 -14.468148 9.746221 18.767431 1.124609 1.024746 0.025483 -0.003604 165328.000000 1 0 0
-5.209406 -15.895548 -8.214579 18.635603 1.254100 2.027286 0.027842 -0.013292 -813169.000000 1 0 0
-0.263606 -13.574348 2.132821 13.743411 1.551379 1.414978 0.010607 -0.009273 838711.000000 1 0 0
-11.009706 -13.592948 -4.526379 18.068481 0.890013 1.824006 0.052945 -0.007448 -498930.000000 1 0 0
-9.696406 -10.588848 6.713321 15.849690 0.829364 1.133423 0.027239 -0.006239 -352824.000000 1 0 0
-15.436006 -7.957848 -4.832179 18.026303 0.476001 1.842178 0.039625 -0.013012 823490.000000 1 0 0
-14.526806 -7.344448 5.517221 17.187459 0.468101 1.244008 0.035626 -0.011711 257260.000000 1 0 0
-1.670106 -19.387948 0.254221 19.461409 1.484867 1.557733 0.037764 -0.020178 -225754.000000 1 0 0
-15.280306 -12.038248 -1.332879 19.498301 0.667275 1.639208 0.044103 -0.006119 759933.000000 1 0 0
-4.344506 -12.135448 -6.815579 14.580671 1.227011 2.057188 0.008976 -0.004693 -354903.000000 1 0 0
-7.332706 -18.495448 1.863321 19.983047 1.193345 1.477416 0.024402 -0.011752 78019.100000 1 0 0
-2.399106 -11.781748 -8.573779 14.767362 1.369914 2.190249 0.004572 -0.000457 783688.000000 1 0 0
-0.871206 -20.360448 -4.875279 20.954121 1.528033 1.805613 0.041413 -0.025969 -138855.000000 1 0 0
-5.367806 -8.945048 -13.797079 17.297012 1.030313 2.494196 0.031066 -0.005089 598893.000000 1 0 0
-8.283506 -19.269448 -0.900279 20.993776 1.164801 1.613693 0.030393 -0.007690 -247156.000000 1 0 0
-17.118306 -7.341648 5.671321 19.470493 0.405150 1.275234 0.060281 -0.020777 -492834.000000 1 0 0
-3.547606 -14.719348 -4.409979 15.769992 1.334290 1.854219 0.004571 -0.009708 -2734840.000000 1 0 0
-2.974006 -14.818248 -10.911379 18.640906 1.372729 2.196103 0.021839 -0.005296 -237647.000000 1 0 0
0.031894 -16.733148 6.320621 17.887133 -1.568890 1.209635 0.039488 -0.012102 -566992.000000 1 0 0
-11.090806 -11.574548 3.814621 16.478091 0.806738 1.337181 0.020970 -0.003075 -818163.000000 1 0 0
-0.078906 -14.744248 -0.156579 14.745291 1.565445 1.581415 0.014206 -0.007270 1672580.000000 1 0 0
-7.177606 -9.551948 -2.520979 12.211187 0.926382 1.778740 0.013233 -0.000224 -174458.000000 1 0 0
-11.145106 -14.346748 -0.965779 18.192727 0.910339 1.623907 0.029659 -0.011941 25096.600000 1 0 0
0.486094 -14.561248 -10.634779 18.037870 -1.537426 2.201336 0.003019 -0.000961 26874.000000 1 0 0
-1.289306 -14.198648 -3.913479 14.784426 1.480240 1.838692 0.004084 -0.002679 -4701890.000000 1 0 0
-11.392506 -8.183448 -7.669579 15.986884 0.622915 2.071157 0.024936 -0.007830 706855.000000 1 0 0
-0.228506 -17.327048 -0.110179 17.328905 1.557609 1.577154 0.024953 -0.018073 -238888.000000 1 0 0
-12.750306 -9.481148 4.615621 16.545889 0.639394 1.288087 0.025301 -0.010592 -4349.670000 1 0 0
4.018394 -16.766648 1.571121 17.312897 -1.335567 1.479923 0.030153 -0.012432 -397132.000000 1 0 0
-3.696606 -17.982148 -8.265579 20.133116 1.368050 1.993850 0.036495 -0.019868 -53142.300000 1 0 0
-13.291806 -11.139948 2.650821 17.544156 0.697549 1.419121 0.019852 -0.007504 105518.000000 1 0 0
-8.498906 -12.204648 4.171121 15.446135 0.962513 1.297359 0.015427 -0.005897 1430390.000000 1 0 0
-8.235106 -9.532648 -5.949079 13.931256 0.858297 2.012003 0.016755 -0.005195 -1220220.000000 1 0 0
3.784394 -17.450748 -5.640679 18.726118 -1.357242 1.876768 0.013637 -0.006180 -977431.000000 1 0 0
-2.323006 -13.206248 11.361621 17.575204 1.396676 0.867864 0.008457 -0.002114 -116940.000000 1 0 0
0.086094 -16.724548 -9.405879 19.188238 -1.565649 2.083104 0.011059 -0.007974 -170211.000000 1 0 0
-7.069106 -10.639348 -14.704979 19.478306 0.984344 2.426361 0.047270 0.000931 -1055050.000000 1 0 0
-4.570106 -18.852548 -1.622879 19.466335 1.332971 1.654262 0.041239 -0.031443 -361772.000000 1 0 0
-2.563906 -17.258548 1.191921 17.488619 1.423316 1.502589 0.027823 -0.022408 1012520.000000 1 0 0
4.125794 -14.468448 -7.421479 16.776070 -1.293011 2.029052 0.013040 -0.013039 -1496760.000000 1 0 0
-0.970006 -15.850048 -6.145279 17.027313 1.509674 1.940037 0.008339 -0.009994 -322840.000000 1 0 0
-9.373306 -15.440048 8.277321 19.868770 1.025189 1.141095 0.039997 -0.009103 -86605.500000 1 0 0
-7.218506 -12.124848 -1.868179 14.234074 1.033804 1.702423 0.005592 -0.003137 983730.000000 1 0 0
-7.297006 -15.013548 -9.394179 19.154726 1.118389 2.083387 0.049593 -0.018465 29432.900000 1 0 0
-4.986506 -13.276948 -0.694679 14.199478 1.211521 1.619739 0.005117 -0.003683 2675710.000000 1 0 0
-6.395606 -13.844348 -7.298579 16.906774 1.138037 2.017168 0.024125 -0.011987 651263.000000 1 0 0
5.730794 -15.313948 0.239221 16.352866 -1.212709 1.556167 0.026414 -0.002813 732170.000000 1 0 0
-14.434906 -12.684648 1.012921 19.242994 0.720949 1.518134 0.023491 -0.008807 1082320.000000 1 0 0
0.958494 -15.156648 11.114921 18.819781 -1.507641 0.938997 0.023655 -0.013888 304628.000000 1 0 0
-9.298806 -10.708648 2.039621 14.328399 0.855748 1.427963 0.008854 0.002143 408597.000000 1 0 0
-9.359306 -9.036248 -3.565379 13.489341 0.767838 1.838286 0.012686 -0.000802 -973912.000000 1 0 0
-12.200906 -7.453248 -12.310979 18.867253 0.548379 2.281682 0.050496 -0.012162 1371040.000000 1 0 0
-13.315306 -8.465748 -0.528679 15.787520 0.566321 1.604290 0.017922 -0.003669 656795.000000 1 0 0
-11.257806 -9.812948 0.444421 14.940872 0.716934 1.541047 0.008096 0.001282 1154210.000000 1 0 0
-15.764706 -11.884748 3.092221 19.983369 0.645982 1.415432 0.056280 -0.013595 -146454.000000 1 0 0
-10.488106 -12.309148 -2.330279 16.338473 0.865109 1.713910 0.031815 -0.008951 677467.000000 1 0 0
-3.466406 -8.948348 -12.056879 15.409648 1.201217 2.469345 0.013337 -0.000558 -663784.000000 1 0 0
-0.268906 -15.641748 3.902221 16.123397 1.553606 1.326347 0.023343 -0.010617 -559835.000000 1 0 0
-15.647306 -7.725848 1.254721 17.495750 0.458635 1.499019 0.012690 -0.005241 192797.000000 1 0 0
-6.142806 -13.311548 -13.499579 19.929125 1.138450 2.314991 0.043256 -0.004446 164077.000000 1 0 0
-15.292506 -10.262748 1.183921 18.454984 0.591063 1.506600 0.025324 -0.005671 -338223.000000 1 0 0
-9.831006 -8.557648 -12.442879 18.019636 0.716262 2.333001 0.025923 -0.007352 413705.000000 1 0 0
-13.379306 -11.705148 -6.349579 18.876798 0.718756 1.913855 0.054019 -0.009031 92176.600000 1 0 0
-12.242206 -11.398848 -3.946079 17.186533 0.749740 1.802466 0.029183 -0.002825 -1732250.000000 1 0 0
-11.645706 -10.936848 -9.220279 18.445885 0.754019 2.094228 0.049930 -0.022673 297163.000000 1 0 0
-13.114206 -8.516748 -5.747579 16.659894 0.575974 1.923030 0.023542 -0.010467 -2369620.000000 1 0 0
-13.443206 -8.414948 -3.137779 16.167152 0.559291 1.766120 0.021786 -0.005896 648356.000000 1 0 0
-4.243706 -17.055148 -3.388679 17.898890 1.326926 1.761269 0.013265 -0.022317 678394.000000 1 0 0
-15.436906 -8.976948 -1.705679 17.938590 0.526724 1.666025 0.028104 -0.006775 -1965040.000000 1 0 0
-9.344306 -15.218248 3.564821 18.210412 1.020132 1.373767 0.018763 -0.016598 -624486.000000 1 0 0
4.848594 -17.377248 8.182721 19.809961 -1.298697 1.144984 0.045937 -0.013139 -118113.000000 1 0 0
-8.367106 -15.493548 5.937621 18.582622 1.075634 1.245568 0.020090 -0.000071 -3416.770000 1 0 0
1.073394 -15.898648 8.590321 18.102840 -1.503384 1.076368 0.021604 -0.014053 57027.500000 1 0 0
-10.801506 -7.914848 -10.152679 16.804590 0.632372 2.219509 0.033992 -0.011653 1100750.000000 1 0 0
-4.936206 -16.037948 5.539121 17.670987 1.272215 1.251963 0.020877 -0.012124 -436495.000000 1 0 0
-1.307606 -13.141048 -11.932779 17.798545 1.471617 2.305592 0.010695 -0.005715 -749587.000000 1 0 0
-6.375806 -14.422448 -2.599879 15.981780 1.154552 1.734200 0.009427 -0.008577 476109.000000 1 0 0
-17.654006 -6.852648 -7.409279 20.335195 0.370261 1.943739 0.057652 -0.021761 187460.000000 1 0 0
-17.371906 -4.269748 -10.212179 20.598604 0.241007 2.089518 0.083041 -0.028436 898365.000000 1 0 0
-15.290406 -5.401848 -8.983779 18.538737 0.339597 2.076696 0.038482 -0.025758 824955.000000 1 0 0
-16.093306 -5.461548 -5.725979 17.933484 0.327172 1.895776 0.031122 -0.013433 277975.000000 1 0 0
-15.343506 -4.320248 -12.201179 20.073777 0.274463 2.224105 0.081770 -0.030964 -863381.000000 1 0 0
-18.785306 -5.283848 -5.656179 20.317459 0.274191 1.852914 0.057714 -0.020341 676620.000000 1 0 0
-17.326406 -4.336948 -7.684079 19.443728 0.245269 1.977077 0.045617 -0.025170 135871.000000 1 0 0
12.269894 -7.680748 8.726221 16.902400 -0.559306 1.028305 0.036408 -0.010368 357971.000000 1 0 0
16.091394 -3.279148 1.738021 16.513827 -0.201030 1.465355 0.037111 -0.012301 231416.000000 1 0 0
12.037794 -1.976548 12.505921 17.470354 -0.162743 0.772975 0.056033 -0.013502 276340.000000 1 0 0
9.729094 -9.886948 5.344321 14.865018 -0.793445 1.203039 0.005071 -0.005769 -226232.000000 1 0 0
17.046394 -1.909648 7.205021 18.604801 -0.111561 1.173131 0.098564 -0.022637 474149.000000 1 0 0
5.230594 -12.736148 9.331821 16.632843 -1.181110 0.975145 0.002736 0.002556 -721923.000000 1 0 0
15.211594 -9.033848 -2.206179 17.828915 -0.535907 1.694856 0.042592 -0.007184 434695.000000 1 0 0
11.149194 -8.333648 6.493221 15.359561 -0.641878 1.134321 0.009474 -0.006925 -2607590.000000 1 0 0
20.104594 -2.970348 3.537421 20.628403 -0.146684 1.398462 0.139195 -0.030276 124298.000000 1 0 0
13.688694 -8.430348 6.799721 17.455295 -0.552001 1.170653 0.038118 -0.011549 -1113630.000000 1 0 0
8.452394 -10.914448 8.819921 16.381671 -0.911847 1.002257 0.006195 0.001558 -897851.000000 1 0 0
16.721394 0.078652 -0.544779 16.730450 0.004704 1.603364 0.023269 -0.006286 -1190160.000000 1 0 0
12.558794 -12.172548 2.302421 17.640730 -0.769782 1.439906 0.027532 -0.011297 -1189830.000000 1 0 0
10.516694 -11.441048 3.600821 15.951938 -0.827470 1.343105 0.021217 -0.009354 238552.000000 1 0 0
16.385594 3.053852 2.422821 16.842914 0.184260 1.426447 0.023453 -0.009378 -716891.000000 1 0 0
18.457994 -3.167048 0.450721 18.733149 -0.169927 1.546734 0.071498 -0.021283 1429000.000000 1 0 0
13.505994 -11.500948 -0.206579 17.740528 -0.705390 1.582441 0.037172 -0.007636 -527267.000000 1 0 0
17.023494 -7.637648 -0.832979 18.676907 -0.421734 1.615411 0.059359 -0.006785 228396.000000 1 0 0
10.287994 -5.551248 9.705621 15.194020 -0.494812 0.877886 0.022567 -0.009954 -705317.000000 1 0 0
11.448494 -13.163048 5.966721 18.437343 -0.854950 1.241242 0.038812 -0.008479 -361541.000000 1 0 0
13.188394 -1.614148 10.314121 16.820234 -0.121786 0.910695 0.054191 -0.010353 692831.000000 1 0 0
15.483994 -1.992048 -1.313879 15.666799 -0.127949 1.654759 0.018000 -0.008808 -477541.000000 1 0 0
10.623594 -12.356048 8.938821 18.585887 -0.860647 1.069062 0.045253 -0.012128 306946.000000 1 0 0
14.662694 1.310952 3.232121 15.071821 0.089170 1.354670 0.018857 -0.005921 658850.000000 1 0 0
15.053294 -5.597448 5.381521 16.937941 -0.355999 1.247473 0.054985 -0.016247 -799718.000000 1 0 0
14.372094 -3.443948 -2.977479 15.075916 -0.235193 1.769602 0.020534 -0.002822 980040.000000 1 0 0
14.151094 0.748252 9.719221 17.183614 0.052827 0.969624 0.072863 -0.009197 762586.000000 1 0 0
15.573794 -3.376748 4.370221 16.524052 -0.213517 1.303135 0.045648 -0.014282 -490445.000000 1 0 0
18.574994 4.687452 -4.245079 19.622010 0.247192 1.788863 0.033960 -0.011638 503529.000000 1 0 0
18.214594 -5.625548 -5.207379 19.761959 -0.299555 1.837450 0.095626 -0.014342 573027.000000 1 0 0
17.421694 0.010252 5.832421 18.372062 0.000588 1.247745 0.086933 -0.016954 1112210.000000 1 0 0
17.025094 -6.449748 4.027421 18.645996 -0.362131 1.353087 0.079637 -0.026731 -562083.000000 1 0 0
9.801094 -6.556748 14.231921 18.482423 -0.589603 0.691917 0.051020 -0.012408 -1340040.000000 1 0 0
8.690294 -12.178748 5.229821 15.849105 -0.951026 1.234518 0.011276 -0.006123 -1351260.000000 1 0 0
16.784394 -10.202148 -0.446879 19.646867 -0.546161 1.593544 0.046342 -0.006580 227820.000000 1 0 0
14.905094 -8.654148 0.344421 17.238756 -0.526045 1.550816 0.040053 -0.008952 170021.000000 1 0 0
10.067294 -12.816548 1.628821 16.378870 -0.904965 1.471185 0.024313 -0.011732 630578.000000 1 0 0
17.164994 -7.986948 9.007321 20.965690 -0.435508 1.126722 0.114469 -0.022255 623072.000000 1 0 0
19.070294 -0.003248 -1.706879 19.146528 -0.000170 1.660063 0.081095 -0.014247 -511578.000000 1 0 0
13.516994 -1.056748 7.792521 15.638069 -0.078021 1.049154 0.037167 -0.012637 183456.000000 1 0 0
12.831094 -9.752148 -3.029579 16.398772 -0.649896 1.756608 0.022883 -0.007394 -858252.000000 1 0 0
8.963494 -15.155748 1.477121 17.669828 -1.036706 1.487103 0.039966 -0.006946 -156269.000000 1 0 0
11.504594 -8.196648 11.156221 18.000055 -0.619044 0.902324 0.050995 -0.012447 233529.000000 1 0 0
13.937794 -3.906548 -0.468679 14.482502 -0.273273 1.603164 0.019573 -0.008162 -376632.000000 1 0 0
7.422894 -13.046448 10.693921 18.430114 -1.053514 0.951771 0.016530 0.002055 -1148140.000000 1 0 0
15.503394 -6.533448 1.883621 16.928945 -0.398835 1.459299 0.036585 -0.013021 279450.000000 1 0 0
15.852994 -6.121548 -2.479979 17.173848 -0.368505 1.715707 0.062640 -0.011168 -169420.000000 1 0 0
11.260794 -8.471948 3.901121 14.621837 -0.644997 1.300724 0.010880 -0.007846 72551.800000 1 0 0
10.691694 -14.398148 -0.346779 17.937091 -0.932065 1.590131 0.044861 -0.014714 796598.000000 1 0 0
13.659794 -12.731348 4.562921 19.222316 -0.750232 1.331132 0.039670 -0.006737 176981.000000 1 0 0
12.898194 -10.980548 6.359921 18.093768 -0.705263 1.211626 0.031342 -0.009465 256608.000000 1 0 0
10.911194 -10.321248 1.371321 15.081871 -0.757620 1.479745 0.013014 -0.006137 -30000.800000 1 0 0
13.909694 -7.459848 11.936221 19.788943 -0.492269 0.923319 0.067528 -0.025495 -1302940.000000 1 0 0
15.280294 -1.772848 -4.869079 16.135002 -0.115505 1.877346 0.030541 0.000082 374130.000000 1 0 0
13.013194 -11.397848 -7.125579 18.709036 -0.719322 1.961526 0.055378 -0.005588 128311.000000 1 0 0
17.757494 -5.157248 1.961121 18.594940 -0.282651 1.465135 0.097267 -0.020049 796777.000000 1 0 0
10.748594 -9.732848 9.158521 17.150484 -0.735845 1.007461 0.026274 -0.002738 -1308350.000000 1 0 0
16.442294 2.037452 10.072321 19.389478 0.123287 1.024562 0.128947 -0.012904 536235.000000 1 0 0
18.089794 3.935952 0.595021 18.522591 0.214240 1.538667 0.009666 -0.009295 257866.000000 1 0 0
13.328294 -3.820848 5.844121 15.046463 -0.279185 1.171896 0.025656 -0.012777 -528771.000000 1 0 0
12.202094 -6.071448 6.690621 15.182819 -0.461705 1.114451 0.017304 -0.009085 -141777.000000 1 0 0
16.628394 -9.988648 3.528321 19.716126 -0.540933 1.390871 0.050464 -0.019407 -1351800.000000 1 0 0
16.233394 -7.863748 -5.503479 18.858682 -0.451104 1.866933 0.072442 -0.012105 445899.000000 1 0 0
14.006994 -0.309348 5.309721 14.982813 -0.022082 1.208537 0.023915 -0.008513 876990.000000 1 0 0
18.345994 -4.175248 5.071421 19.486598 -0.223772 1.307513 0.114786 -0.029479 -81907.800000 1 0 0
13.664394 -13.422348 7.068621 20.416672 -0.776462 1.217259 0.065226 -0.012861 -266371.000000 1 0 0
14.971794 -13.561448 -0.728879 20.213826 -0.736010 1.606863 0.042383 -0.004633 493363.000000 1 0 0
17.880794 -5.763248 7.929821 20.391662 -0.311802 1.171385 0.118115 -0.030861 -296295.000000 1 0 0
14.302694 3.426252 9.239921 17.369006 0.235122 1.009862 0.064220 -0.016712 -8635.800000 1 0 0
18.824594 3.712652 2.973521 19.416254 0.194724 1.417045 0.067631 -0.017794 -1353400.000000 1 0 0
14.853494 -10.452848 8.109421 19.890978 -0.613225 1.150870 0.049081 -0.016448 -199334.000000 1 0 0
14.919394 -4.703048 10.403421 18.786648 -0.305371 0.983915 0.091231 -0.024118 93234.400000 1 0 0
17.900894 -7.722748 2.004021 19.598442 -0.407293 1.468363 0.106516 -0.024396 82917.300000 1 0 0
18.458494 -5.788548 -2.033979 19.451487 -0.303885 1.675555 0.075607 -0.016787 335505.000000 1 0 0
14.394694 -12.927848 -5.560979 20.131094 -0.731763 1.850674 0.065144 -0.010360 -2087110.000000 1 0 0
15.572894 -1.346548 9.326221 18.201830 -0.086253 1.032844 0.124388 -0.018498 -383540.000000 1 0 0
13.158794 -9.787948 10.105821 19.263577 -0.639543 1.018542 0.043827 -0.025031 -1596850.000000 1 0 0
16.548994 2.140952 4.864521 17.381497 0.128656 1.287140 0.052365 -0.012659 -583538.000000 1 0 0
15.065094 2.382052 -0.070479 15.252416 0.156819 1.575417 0.008850 -0.004433 -1624670.000000 1 0 0
14.936694 -9.563248 -7.008179 19.070268 -0.569492 1.947108 0.060268 -0.012304 569967.000000 1 0 0
16.350494 -0.069348 -3.121279 16.645895 -0.004241 1.759423 0.025522 0.000332 -123962.000000 1 0 0
12.274194 2.801052 13.582821 18.520117 0.224364 0.747473 0.091873 -0.016116 -11758.800000 1 0 0
17.696794 -2.935048 9.522921 20.309531 -0.164356 1.082764 0.119851 -0.027707 14879.400000 1 0 0
7.944694 -18.103348 4.559921 20.288969 -1.157252 1.344111 0.065246 -0.016447 -42717.400000 1 0 0
6.937594 -11.113048 6.608121 14.673013 -1.012719 1.103629 0.004117 -0.000953 -50407.800000 1 0 0
17.954094 2.291052 -1.410379 18.154547 0.126920 1.648562 0.011718 -0.005963 56541.900000 1 0 0
17.685394 -2.187248 3.525021 18.165433 -0.123051 1.375506 0.059224 -0.015705 -758116.000000 1 0 0
12.634094 -13.394248 -1.825079 18.502895 -0.814595 1.669594 0.032951 -0.002046 115090.000000 1 0 0
15.069894 -8.058048 4.396821 17.645562 -0.491030 1.318969 0.042500 -0.014158 -724547.000000 1 0 0
11.849894 -2.873848 14.913321 19.263596 -0.237927 0.685392 0.083991 -0.023585 212424.000000 1 0 0
12.160894 -13.730148 -6.448079 19.441760 -0.845934 1.908860 0.037275 -0.009776 -206143.000000 1 0 0
10.601994 -11.966448 -1.129579 16.027292 -0.845783 1.641333 0.019425 -0.006363 -939234.000000 1 0 0
13.224094 -7.869048 2.209021 15.546007 -0.536775 1.428218 0.023854 -0.006932 -685790.000000 1 0 0
8.786094 -7.722648 9.895821 15.321945 -0.721070 0.868648 0.006867 0.001722 -890221.000000 1 0 0
15.624894 -3.727448 8.180221 18.026291 -0.234181 1.099778 0.092558 -0.025152 -973034.000000 1 0 0
10.383594 -17.020448 5.346521 20.642189 -1.023008 1.308800 0.073300 -0.018111 1567610.000000 1 0 0
15.312894 -6.291548 8.400821 18.564538 -0.389838 1.101207 0.072324 -0.015707 423005.000000 1 0 0
16.705694 -4.954948 -0.357579 17.428700 -0.288337 1.591314 0.043676 -0.011947 -291840.000000 1 0 0
14.055694 -10.390048 3.555521 17.836966 -0.636557 1.370118 0.032724 -0.010762 -54566.900000 1 0 0
14.919794 -9.897748 -4.516379 18.465193 -0.585736 1.817892 0.054526 -0.013086 257925.000000 1 0 0
13.677794 -6.457648 0.078921 15.125789 -0.441101 1.565579 0.022919 -0.009996 -123943.000000 1 0 0
17.830594 -0.769948 -4.910579 18.510448 -0.043154 1.839298 0.081117 -0.004594 576703.000000 1 0 0
14.320594 0.301952 -1.648979 14.418381 0.021082 1.685414 0.011095 -0.003584 -1484890.000000 1 0 0
5.127594 -12.780848 11.838121 18.159940 -1.189261 0.860734 0.000058 0.002127 -441994.000000 1 0 0
12.053894 -7.406648 13.594221 19.620337 -0.550985 0.805343 0.065252 -0.020562 23012.100000 1 0 0
12.050194 -5.684148 11.677121 17.716429 -0.440757 0.851158 0.044754 -0.013777 318678.000000 1 0 0
13.262894 -4.524748 8.375721 16.325759 -0.328777 1.032077 0.041919 -0.016916 -1479880.000000 1 0 0
15.491294 -1.063348 3.245321 15.863259 -0.068534 1.364761 0.031422 -0.006470 -607222.000000 1 0 0
15.275694 -10.224948 5.719621 19.251245 -0.589865 1.269138 0.051485 -0.016894 -244385.000000 1 0 0
13.663094 -7.890548 -5.596779 16.741111 -0.523717 1.911673 0.046818 -0.008850 -2238610.000000 1 0 0
9.694694 -2.101348 13.634021 16.860880 -0.213451 0.628996 0.031379 -0.008662 -694962.000000 1 0 0
9.987194 -9.120448 13.650921 19.216510 -0.740068 0.780766 0.065254 -0.009639 -380450.000000 1 0 0
20.331494 6.250452 -3.181179 21.507154 0.298257 1.719254 0.131307 -0.010541 256378.000000 1 0 0
11.355294 -3.482448 10.542321 15.881142 -0.297574 0.844873 0.026156 -0.007079 735634.000000 1 0 0
10.328094 -13.911248 -2.872979 17.562641 -0.932159 1.735120 0.027465 -0.002161 355086.000000 1 0 0
15.143994 -12.514848 2.509021 19.805483 -0.690627 1.443772 0.044325 -0.009647 517117.000000 1 0 0
11.364594 -0.336648 14.427621 18.369093 -0.029614 0.667407 0.066904 -0.017813 420100.000000 1 0 0
19.237094 -1.812448 5.656721 20.133287 -0.093939 1.285998 0.142809 -0.027991 838875.000000 1 0 0
19.171394 -0.442948 7.882421 20.733333 -0.023101 1.180804 0.157367 -0.026149 485699.000000 1 0 0
18.911094 0.935752 0.627521 18.944626 0.049441 1.537666 0.056363 -0.015418 467746.000000 1 0 0
18.534694 0.906852 3.725121 18.927064 0.048888 1.372689 0.061191 -0.018066 -191457.000000 1 0 0
16.698194 -3.792748 -4.184579 17.627402 -0.223346 1.810475 0.056927 -0.006330 -710727.000000 1 0 0
10.880094 -8.279848 15.819921 20.909381 -0.650510 0.712707 0.094415 -0.018449 -10834.500000 1 0 0
16.578094 -7.429748 6.438021 19.273880 -0.421328 1.230222 0.075265 -0.019641 469509.000000 1 0 0
18.846794 2.315752 5.944321 19.897218 0.122260 1.267412 0.086102 -0.015055 207128.000000 1 0 0
15.424594 1.772352 7.688321 17.325403 0.114403 1.111006 0.078754 -0.014263 -94993.900000 1 0 0
8.678894 -15.593048 3.952121 18.278009 -1.062910 1.352852 0.040870 -0.015960 766845.000000 1 0 0
11.509594 -14.955648 2.061321 18.983972 -0.914880 1.462000 0.053254 -0.011240 543881.000000 1 0 0
8.034094 -16.078048 6.178621 19.005937 -1.107394 1.239691 0.041020 -0.011061 -302947.000000 1 0 0
14.581494 -11.662248 -2.471979 18.834507 -0.674618 1.702423 0.040864 -0.006735 602205.000000 1 0 0
13.697194 -4.721048 3.298921 14.858812 -0.331921 1.346913 0.022715 -0.008279 -3157940.000000 1 0 0
-1.153306 10.227852 -5.512379 11.675846 -1.458509 2.062488 0.000334 -0.000225 -2234760.000000 1 0 0
8.265094 -1.766048 -7.960779 11.610543 -0.210510 2.326294 0.003429 -0.003405 -2506920.000000 1 0 0
3.225494 -10.335948 7.634021 13.248166 -1.268307 0.956685 -0.000914 0.000278 650818.000000 1 0 0
-6.388606 1.379052 8.310221 10.572410 -0.212599 0.666437 -0.002454 -0.001419 -779793.000000 1 0 0
7.438894 -6.170948 -7.248279 12.081196 -0.692502 2.214252 -0.000307 -0.005226 344423.000000 1 0 0
-11.275706 -4.514748 -4.111079 12.822850 0.380848 1.897165 0.005559 -0.002372 202470.000000 1 0 0
2.211094 -3.315748 2.837521 4.892305 -0.982670 0.952072 -0.000469 -0.001398 -428429.000000 1 0 0
-3.564306 -4.300348 8.918821 10.523433 0.878715 0.559501 -0.001899 -0.000279 -1904910.000000 1 0 0
-4.883806 -1.215648 -2.388779 5.570963 0.243956 2.013950 0.005174 -0.004387 -346442.000000 1 0 0
5.049994 -5.200948 -3.594379 8.091468 -0.800123 2.031098 0.000954 -0.005935 137790.000000 1 0 0
2.562394 14.085252 -8.787879 16.798422 1.390844 2.121324 0.013665 -0.010296 70536.100000 1 0 0
5.481994 -5.413848 13.687721 15.707187 -0.779144 0.512685 0.018392 -0.007879 -617062.000000 1 0 0
-4.694106 -0.758648 9.817121 10.908072 0.160232 0.451057 0.000324 0.000271 -3011920.000000 1 0 0
-1.108606 11.953352 -2.761879 12.318263 -1.478316 1.796929 0.000599 -0.002602 82261.700000 1 0 0
3.028194 9.261852 -10.517879 14.337979 1.254799 2.394353 0.004717 -0.005704 -606598.000000 1 0 0
-10.684206 2.584152 1.098521 11.047029 -0.237309 1.471191 -0.000173 -0.002780 116453.000000 1 0 0
5.671894 -8.958448 -0.578779 10.618811 -1.006370 1.625328 0.001137 -0.004741 464800.000000 1 0 0
-6.818106 5.441652 9.331321 12.773868 -0.673592 0.751741 -0.002583 -0.003100 -162925.000000 1 0 0
-5.254506 -1.790648 5.123221 7.554049 0.328441 0.825474 0.003101 -0.001911 837638.000000 1 0 0
6.676094 -3.705348 -7.346679 10.595920 -0.506687 2.336924 0.001942 -0.005467 475976.000000 1 0 0
6.271594 4.839052 11.058521 13.602948 0.657171 0.621596 0.008750 -0.000043 556180.000000 1 0 0
3.859694 -9.797548 3.510021 11.099974 -1.195521 1.249055 -0.004357 -0.000879 809011.000000 1 0 0
-6.625106 6.557452 -5.755479 10.955261 -0.780266 2.123937 -0.002922 -0.002545 -315190.000000 1 0 0
-11.126706 8.483652 5.276421 14.953814 -0.651427 1.210183 0.000812 -0.008461 516558.000000 1 0 0
-9.043706 -5.533048 5.203721 11.810248 0.549060 1.114518 0.005093 -0.000701 216409.000000 1 0 0
3.089894 9.764752 -8.003279 12.998088 1.264332 2.234105 0.007402 -0.005071 673820.000000 1 0 0
-8.014406 -8.609548 6.071921 13.237192 0.821183 1.094263 0.010291 -0.004242 -1355330.000000 1 0 0
-7.714106 -5.762148 -7.504379 12.207600 0.641554 2.232840 0.011053 -0.002262 -1007190.000000 1 0 0
9.191494 -1.472548 7.011721 11.654020 -0.158858 0.925223 0.010256 -0.008504 2459830.000000 1 0 0
-4.108406 -0.611248 -4.788579 6.339016 0.147696 2.427082 0.009539 -0.009085 -946315.000000 1 0 0
9.064594 1.178652 -4.380479 10.136305 0.129303 2.017680 0.001917 -0.001084 -2879530.000000 1 0 0
-2.141706 -10.775248 10.645421 15.297643 1.374592 0.801143 0.010017 -0.006285 431635.000000 1 0 0
-12.944106 0.138252 -2.610079 13.205359 -0.010680 1.769759 0.004813 -0.004999 -617105.000000 1 0 0
-9.764906 -5.072748 -6.073779 12.568889 0.479116 2.075147 0.008416 -0.004296 -1556260.000000 1 0 0
-5.759806 8.314752 -0.151179 10.115993 -0.964972 1.585741 0.000211 -0.001614 1208180.000000 1 0 0
6.289294 9.713652 0.454821 11.580894 0.996202 1.531513 0.011525 -0.007021 172947.000000 1 0 0
-0.534106 -12.104848 -0.042979 12.116702 1.526702 1.574343 0.008260 -0.001484 -850156.000000 1 0 0
6.196894 4.798652 2.392321 8.194617 0.658913 1.274544 0.003515 -0.000891 -92641.600000 1 0 0
3.579094 -7.446448 -8.130579 11.591627 -1.122753 2.348182 -0.000499 -0.003008 713605.000000 1 0 0
-6.446506 -9.917948 4.604921 12.693638 0.994432 1.199553 0.007414 -0.001364 -2359570.000000 1 0 0
-0.213206 6.521652 -9.094579 11.193246 -1.538116 2.519234 0.005428 -0.002160 -3117300.000000 1 0 0
-17.269306 -2.829548 4.443721 18.054970 0.162405 1.322119 0.056302 -0.014576 413504.000000 1 0 0
-8.428306 0.773152 -9.056479 12.395722 -0.091477 2.390016 0.004449 -0.006259 374221.000000 1 0 0
-10.069206 -6.020748 -11.858279 16.681041 0.538901 2.361550 0.016210 -0.002515 787154.000000 1 0 0
2.122994 9.528052 6.429221 11.688702 1.351563 0.988388 -0.001203 0.001548 247158.000000 1 0 0
-11.383206 1.568652 -1.268779 11.560617 -0.136942 1.680768 0.001995 -0.002594 -912042.000000 1 0 0
-6.010306 -5.410448 -3.062179 8.647177 0.732923 1.932774 0.013909 -0.003931 540368.000000 1 0 0
-6.798006 -8.329948 1.327021 10.833370 0.886320 1.447994 0.008893 -0.000881 158769.000000 1 0 0
-0.079006 10.999352 -7.861179 13.519990 -1.563614 2.191304 0.003708 -0.001718 606836.000000 1 0 0
-2.984506 9.215052 -4.232079 10.570475 -1.257584 1.982715 -0.001209 -0.001083 -945697.000000 1 0 0
3.407794 -4.675248 9.337321 10.984378 -0.940936 0.554707 0.001798 -0.002909 -1015790.000000 1 0 0
-8.977506 1.538452 -0.419379 9.118023 -0.169719 1.616807 -0.000544 -0.003285 -919653.000000 1 0 0
2.497894 3.604552 -10.322379 11.215337 0.964795 2.739849 0.005850 -0.003748 -1505880.000000 1 0 0
-13.671906 0.355552 1.062121 13.717709 -0.026000 1.493292 0.003721 -0.003050 -1144970.000000 1 0 0
9.515294 -12.551748 -4.994779 16.523771 -0.922141 1.877878 0.030008 -0.004591 -2228330.000000 1 0 0
-4.777206 9.425852 -8.349579 13.467882 -1.101708 2.239491 0.000336 -0.000225 -747316.000000 1 0 0
-2.400906 7.222252 8.348421 11.296964 -1.249857 0.739216 -0.001614 -0.001212 -99438.900000 1 0 0
-10.783606 -1.193048 -4.395379 11.705934 0.110187 1.955714 0.003827 -0.003013 -4323270.000000 1 0 0
2.821394 -7.121348 9.553521 12.245147 -1.193580 0.675829 0.001212 0.000329 -701974.000000 1 0 0
-16.058106 -6.489948 3.470521 17.664278 0.384082 1.373039 0.031890 -0.010736 -145540.000000 1 0 0
-10.912206 -0.087848 6.178521 12.540259 0.008050 1.055612 -0.007401 -0.001985 -2040140.000000 1 0 0
-8.524706 9.968752 9.498821 16.194883 -0.863324 0.944026 0.009459 -0.010789 -790733.000000 1 0 0
0.245094 -6.063448 -3.758279 7.137937 -1.530397 2.125300 0.003074 -0.003894 443017.000000 1 0 0
4.852194 1.649352 -3.031479 5.954327 0.327666 2.104961 0.001669 -0.002672 1077820.000000 1 0 0
0.231794 5.326952 3.764821 6.527175 1.527310 0.956001 0.001830 -0.000683 -3108840.000000 1 0 0
6.160894 -11.178948 -1.477779 12.849487 -1.067097 1.686058 0.004221 -0.003217 -2530840.000000 1 0 0
6.355694 -13.357648 5.282621 15.707568 -1.126688 1.227800 0.009262 -0.005626 186320.000000 1 0 0
8.253494 -8.155348 -5.814579 12.978413 -0.779417 2.035345 0.001302 -0.006896 387732.000000 1 0 0
-13.117206 -1.393648 -4.681079 13.996995 0.105849 1.911802 0.006086 -0.003808 -3697610.000000 1 0 0
-6.805006 -1.554248 -7.049379 9.920562 0.224546 2.361122 0.008599 -0.005329 64044.300000 1 0 0
-5.808806 12.839052 -4.651079 14.839677 -1.145921 1.889591 0.004514 0.005414 739976.000000 1 0 0
-4.350206 6.926852 -6.703479 10.575547 -1.010028 2.257338 -0.000475 -0.000907 -3944290.000000 1 0 0
-9.289906 -3.847248 -8.231679 12.994777 0.392630 2.256814 0.007532 0.001524 856826.000000 1 0 0
-2.141106 -6.450248 9.061721 11.327172 1.250299 0.643504 -0.002721 0.001648 -83051.000000 1 0 0
7.524094 -5.863148 10.024121 13.837322 -0.661960 0.760594 0.008011 -0.001900 1823090.000000 1 0 0
9.753894 -4.865348 12.220721 16.375472 -0.462696 0.728337 0.031247 -0.009217 -1135580.000000 1 0 0
-6.526906 2.755052 -9.043879 11.488367 -0.399418 2.477085 0.000213 -0.003960 591631.000000 1 0 0
7.325094 5.570352 8.831821 12.754876 0.650154 0.805949 0.002954 -0.001371 -1657410.000000 1 0 0
12.672594 3.482152 11.232921 17.288682 0.268160 0.863571 0.062050 -0.008063 -559837.000000 1 0 0
-7.416806 -7.379448 -3.971479 11.190975 0.782873 1.933585 0.014735 -0.005047 -1105440.000000 1 0 0
2.250394 1.428552 -5.728779 6.318539 0.565616 2.706099 0.006891 -0.005691 471834.000000 1 0 0
12.789494 7.042652 -7.169079 16.265478 0.503349 2.027235 0.015956 -0.003040 89159.700000 1 0 0
0.884594 -7.731448 1.004021 7.846391 -1.456877 1.442485 0.000201 -0.000235 1206240.000000 1 0 0
-10.178806 -6.137348 -8.488479 14.605801 0.542588 2.190964 0.014944 -0.003690 -542081.000000 1 0 0
-6.659106 0.200752 3.025021 7.316745 -0.030138 1.144570 0.000236 -0.002184 1359520.000000 1 0 0
10.769994 -7.763348 1.309721 13.340829 -0.624570 1.472464 0.004069 -0.006502 854195.000000 1 0 0
6.233794 1.109652 10.597921 12.345341 0.176161 0.538546 0.010156 -0.002336 -244084.000000 1 0 0
-12.922306 5.185352 1.967121 14.062128 -0.381602 1.430448 -0.000070 -0.001737 26445.200000 1 0 0
1.935794 7.390552 3.571521 8.433464 1.314623 1.133498 -0.000069 -0.000567 267830.000000 1 0 0
10.194194 -9.351048 -0.860879 13.860188 -0.742287 1.632948 0.002224 -0.006104 819866.000000 1 0 0
6.824994 -11.634248 -9.047079 16.241487 -1.040266 2.161608 0.001665 -0.002675 -20309.100000 1 0 0
10.249294 3.645552 12.048721 16.232983 0.341733 0.734394 0.024255 -0.005581 -820815.000000 1 0 0
-11.100606 -3.171348 -1.885779 11.697738 0.278279 1.732712 0.005020 -0.001165 471317.000000 1 0 0
12.409794 1.163752 6.890621 14.242119 0.093503 1.065782 0.017050 -0.006126 -198244.000000 1 0 0
-9.734706 9.114052 3.019021 13.672781 -0.752482 1.348156 -0.001020 -0.006870 1698430.000000 1 0 0
-6.641406 7.598852 -8.812379 13.398091 -0.852532 2.288603 0.000033 -0.001270 -1151270.000000 1 0 0
8.533794 5.580452 12.138121 15.852478 0.579129 0.698679 0.018535 -0.001179 -3074490.000000 1 0 0
1.245894 4.911852 -2.684879 5.734729 1.322385 2.058025 0.004385 -0.005497 449965.000000 1 0 0
1.371894 0.481052 9.537921 9.648079 0.337252 0.151258 0.001624 -0.002572 462987.000000 1 0 0
2.482094 12.615552 -3.981879 13.459877 1.376529 1.871124 0.009309 -0.006877 457003.000000 1 0 0
1.997194 0.613452 12.912521 13.080455 0.298010 0.160413 0.005140 -0.004835 -246078.000000 1 0 0
-12.170406 -1.838748 0.930121 12.343618 0.149949 1.495372 0.001020 0.000739 20648.100000 1 0 0
3.225194 8.751452 -1.211579 9.405196 1.217708 1.699975 0.008358 -0.005445 -146647.000000 1 0 0
3.744094 -2.813948 -5.790679 7.447718 -0.644505 2.461494 0.002503 -0.005464 -1340320.000000 1 0 0
-7.558106 -7.213748 9.235821 13.945018 0.762091 0.846909 0.005443 -0.007092 -252305.000000 1 0 0
-7.136706 10.787352 -3.494179 13.398090 -0.986323 1.834644 0.009586 0.002466 474513.000000 1 0 0
0.363194 0.482852 2.467721 2.540610 0.925899 0.240117 0.000670 -0.000769 -2194090.000000 1 0 0
-7.138606 4.502252 -1.960479 8.664494 -0.562681 1.799039 0.001993 -0.004896 -1010370.000000 1 0 0
-6.857606 -3.948048 -5.854779 9.843388 0.522374 2.207805 0.008098 -0.004015 43264.100000 1 0 0
3.010894 -6.050548 13.438421 15.042133 -1.109052 0.465972 0.004619 -0.006185 -1632690.000000 1 0 0
-5.550006 -0.612948 -11.726479 12.988017 0.109995 2.697193 0.010763 -0.006118 -889523.000000 1 0 0
11.868994 2.504852 -0.529579 12.141983 0.207990 1.614426 0.005210 -0.001877 -1038690.000000 1 0 0
6.235994 -10.740648 10.774421 16.441937 -1.044766 0.856215 -0.002534 0.002969 194038.000000 1 0 0
-8.150506 6.197052 -10.486979 14.656430 -0.650078 2.368166 0.000507 -0.001113 552791.000000 1 0 0
2.745494 7.840052 11.033621 13.811044 1.233954 0.645335 0.001695 0.004854 453864.000000 1 0 0
-6.134706 -10.226648 -0.465479 11.934640 1.030469 1.609809 0.011467 -0.000334 -215054.000000 1 0 0
11.292294 4.292152 6.216221 13.586017 0.363231 1.095563 0.007467 -0.003444 -77476.100000 1 0 0
-7.984906 10.514752 1.393121 13.276277 -0.921306 1.465670 -0.003172 -0.002675 207233.000000 1 0 0
4.306994 -2.732148 -3.510179 6.191622 -0.565296 2.173563 0.001681 -0.006188 -5018160.000000 1 0 0
6.351494 6.489652 6.191921 10.990766 0.796157 0.972331 0.003023 0.001260 -4921130.000000 1 0 0
-0.465106 10.266052 -10.088379 14.400817 -1.525522 2.346953 0.000050 -0.001509 39905.000000 1 0 0
14.173494 6.517452 -2.437079 15.789378 0.431002 1.725765 0.025226 -0.001086 671931.000000 1 0 0
1.335094 9.481652 -6.171679 11.391831 1.430908 2.143330 0.006491 -0.005269 -269764.000000 1 0 0
0.584494 7.384352 7.249021 10.364294 1.491808 0.796207 -0.002714 0.002227 34428.600000 1 0 0
12.195194 6.453252 1.955721 13.935281 0.486705 1.429988 0.008711 -0.001815 -2179950.000000 1 0 0
-6.850506 6.616452 -3.116079 10.020819 -0.768020 1.887000 -0.002346 -0.002669 -455206.000000 1 0 0
0.965294 9.869352 11.035821 14.836618 1.473299 0.732024 0.001400 0.002220 903302.000000 1 0 0
-3.602406 13.681852 -10.970979 17.903429 -1.313341 2.230378 -0.002424 0.000796 2882.180000 1 0 0
-10.068006 -5.591948 -2.202479 11.725423 0.506993 1.759757 0.002214 -0.001508 -637029.000000 1 0 0
-3.996606 3.811452 -12.480079 13.647432 -0.761689 2.724977 0.001202 -0.004555 -686213.000000 1 0 0
-3.167106 8.474252 2.391321 9.357453 -1.213137 1.312377 -0.001157 -0.001327 -1635610.000000 1 0 0
7.028894 8.871752 7.147421 13.386521 0.900782 1.007558 0.009672 0.002357 -700268.000000 1 0 0
-1.369006 -2.339648 -8.088679 8.530818 1.041380 2.818228 0.009234 -0.009672 -1079220.000000 1 0 0
0.823594 -1.308848 4.868221 5.107932 -1.009146 0.307574 0.001665 -0.002960 142669.000000 1 0 0
2.730894 -8.772248 -6.029679 10.989411 -1.268995 2.151582 -0.003700 -0.002243 398161.000000 1 0 0
5.177894 4.013552 8.953721 11.094517 0.659393 0.631674 0.002276 0.000977 636772.000000 1 0 0
6.334894 -7.529848 -2.778779 10.225023 -0.871372 1.846020 0.000643 -0.005296 981376.000000 1 0 0
1.776094 2.265152 -8.257979 8.745264 0.905829 2.806197 0.006807 -0.006312 179627.000000 1 0 0
-5.567706 10.880052 -0.696379 12.241725 -1.097805 1.627713 0.002258 0.001179 463900.000000 1 0 0
-5.372506 3.320352 -3.338279 7.143715 -0.553569 2.057034 -0.000081 -0.003571 275992.000000 1 0 0
1.995094 13.669352 -6.358879 15.207463 1.425866 2.002195 0.003272 -0.002844 136195.000000 1 0 0
-5.229306 -2.608048 2.624621 6.405950 0.462637 1.148654 -0.001052 -0.000272 1505270.000000 1 0 0
10.494394 -3.299748 -1.727979 11.135823 -0.304642 1.726599 0.002409 -0.003601 -83818.900000 1 0 0
2.412494 -3.233048 7.024621 8.100495 -0.929733 0.521277 -0.002553 -0.000905 -2132760.000000 1 0 0
-2.968306 9.829952 -11.696879 15.564568 -1.277537 2.421139 -0.000852 0.001947 -2273410.000000 1 0 0
0.467194 -2.014148 9.250821 9.479069 -1.342871 0.219893 -0.000485 -0.001989 238.350000 1 0 0
9.445094 2.746452 5.055821 11.059571 0.282977 1.096015 0.006635 -0.002003 -133604.000000 1 0 0
13.464494 2.107952 -5.008479 14.519673 0.155296 1.922976 0.008087 -0.000756 -1391000.000000 1 0 0
-6.568606 3.780152 7.535621 10.687456 -0.522201 0.788246 -0.001898 -0.004674 -205982.000000 1 0 0
10.678094 0.106552 1.911121 10.848291 0.009978 1.393704 0.004949 -0.002165 2557710.000000 1 0 0
15.390994 6.673952 -4.592079 17.392858 0.409155 1.837985 0.022474 -0.004962 -171883.000000 1 0 0
8.148594 -4.771948 -9.258779 13.224827 -0.529776 2.346342 0.006045 -0.004397 661329.000000 1 0 0
4.485594 5.608252 -2.188879 7.507611 0.896165 1.866648 0.004756 -0.004088 -254447.000000 1 0 0
-1.552006 -10.690748 1.539821 10.912006 1.426631 1.429211 0.007669 -0.002357 -771164.000000 1 0 0
-2.874406 12.205152 -12.784979 17.907642 -1.339503 2.365905 -0.000453 -0.003252 -26021.500000 1 0 0
8.323794 4.164952 -9.578479 13.355883 0.463941 2.370534 0.003368 0.004036 -375546.000000 1 0 0
4.041994 7.540552 -8.868379 12.322572 1.078739 2.374146 0.005236 -0.006185 -2242320.000000 1 0 0
-1.680606 -5.072948 -2.484379 5.893334 1.250888 2.005959 0.008018 -0.004602 -1606350.000000 1 0 0
-3.183706 -9.306748 6.941621 12.039005 1.241189 0.956242 0.003673 -0.000606 -100348.000000 1 0 0
0.981194 7.340352 -1.438479 7.544052 1.437913 1.762648 0.005801 -0.005493 787094.000000 1 0 0
0.442194 -0.644448 -2.299479 2.428673 -0.969421 2.813953 0.005036 -0.003879 118788.000000 1 0 0
4.165894 -6.429848 7.373521 10.633270 -0.995899 0.804546 0.003980 -0.002735 -651182.000000 1 0 0
-14.092106 3.821152 6.061921 15.809350 -0.264788 1.177279 0.006851 -0.003713 -548164.000000 1 0 0
4.273394 6.383052 12.497821 14.669723 0.980841 0.551105 0.006317 0.001283 -3297150.000000 1 0 0
8.155794 10.168652 -7.190879 14.887148 0.894805 2.074904 0.024952 -0.010413 79772.700000 1 0 0
12.394794 5.395652 9.473221 16.507146 0.410576 0.959553 0.036394 -0.007600 872878.000000 1 0 0
7.534194 4.142752 0.304721 8.603448 0.502736 1.535370 0.005553 0.000329 -2254840.000000 1 0 0
-10.836206 -7.596048 -0.987379 13.270201 0.611389 1.645271 0.007995 -0.001137 -1185190.000000 1 0 0
10.335594 6.793452 0.123121 12.368938 0.581481 1.560842 0.007055 -0.001864 -591371.000000 1 0 0
14.651794 3.743252 4.151021 15.681772 0.250130 1.302900 0.028281 -0.008589 137378.000000 1 0 0
2.077194 5.575552 8.116221 10.063526 1.214172 0.632590 -0.002538 0.002419 -965330.000000 1 0 0
4.233794 0.101852 11.738021 12.478642 0.024052 0.346259 0.005134 -0.002646 -706590.000000 1 0 0
-1.365606 -1.719048 -0.648079 2.289108 0.899481 1.857836 0.005653 -0.006668 -732379.000000 1 0 0
3.137594 -5.245848 -9.399479 11.212209 -1.031768 2.565001 -0.001552 -0.002415 -84590.400000 1 0 0
-3.948706 -5.414948 -1.429279 6.852502 0.940725 1.780917 0.010082 -0.004140 14554.400000 1 0 0
-1.184406 -8.792648 8.530821 12.308062 1.436898 0.805004 0.001406 -0.001204 -88691.600000 1 0 0
3.798194 8.599952 -5.932179 11.116483 1.154906 2.133693 0.009947 -0.005150 170045.000000 1 0 0
-14.272706 -1.948348 -2.791079 14.672980 0.135670 1.762182 0.007159 -0.006542 -620863.000000 1 0 0
8.857494 -10.514948 -6.496679 15.206123 -0.870748 2.012235 0.002673 -0.005587 717466.000000 1 0 0
14.766994 6.060452 1.665621 16.048909 0.389444 1.466825 0.012322 -0.006390 246095.000000 1 0 0
-5.797106 0.405952 -8.391279 10.207096 -0.069912 2.535890 0.007224 -0.007425 -208294.000000 1 0 0
-8.155906 -4.566648 -13.009079 16.019027 0.510427 2.518541 0.016117 -0.003410 408101.000000 1 0 0
0.853494 -10.485848 11.986521 15.948610 -1.489581 0.720355 -0.005595 -0.001690 -555700.000000 1 0 0
0.192694 11.632852 3.286721 12.089785 1.554233 1.295472 0.004724 -0.001613 -1203750.000000 1 0 0
5.220194 -13.178148 -3.697579 14.648758 -1.193635 1.825973 0.012434 -0.005455 419550.000000 1 0 0
-7.511406 1.558252 -6.931179 10.338792 -0.204550 2.305551 0.001439 -0.003484 236890.000000 1 0 0
1.474794 2.751452 4.025821 5.094383 1.078761 0.659584 0.001819 -0.001866 -1626550.000000 1 0 0
17.233794 5.550652 2.340221 18.256232 0.311588 1.442255 0.022470 -0.012328 16417.600000 1 0 0
2.491694 -8.231648 -3.486279 9.280232 -1.276867 1.955913 -0.002974 -0.003061 626090.000000 1 0 0
-0.280206 -9.445548 -0.474479 9.461608 1.541140 1.620965 0.008446 -0.000360 -653018.000000 1 0 0
0.690194 11.853452 -5.570779 13.115421 1.512635 2.009482 0.005777 -0.002600 -1519650.000000 1 0 0
5.971194 -4.871948 7.840321 10.993710 -0.684366 0.776795 0.002285 -0.002919 -1240040.000000 1 0 0
-6.031206 -1.895548 -9.432779 11.355434 0.304515 2.551132 0.011734 -0.007436 -250771.000000 1 0 0
2.102794 -1.288448 11.171521 11.440486 -0.549729 0.217268 0.003058 -0.003208 -129645.000000 1 0 0
18.051594 2.279152 -5.859979 19.115280 0.125593 1.882373 0.068595 -0.002503 -151998.000000 1 0 0
-8.823306 4.842152 7.774621 12.717779 -0.501915 0.913070 -0.003778 -0.007773 -1754640.000000 1 0 0
11.336794 -7.137548 -4.823879 14.238585 -0.561894 1.916426 0.018722 -0.007740 -84478.300000 1 0 0
10.857894 0.670252 9.059321 14.156779 0.061651 0.876392 0.013274 -0.004576 288675.000000 1 0 0
-8.413406 -7.464048 -1.571179 11.356321 0.725676 1.709594 0.011695 -0.002184 -1301670.000000 1 0 0
10.311294 -10.502148 -3.275879 15.078106 -0.794568 1.789804 0.011800 -0.006657 -53172.000000 1 0 0
7.793094 -13.926648 -3.769279 16.397906 -1.060627 1.802734 0.021066 -0.007079 -1783790.000000 1 0 0
1.658294 -1.196448 -11.532079 11.711971 -0.625006 2.966098 0.010632 -0.006714 132515.000000 1 0 0
-11.819306 -2.680348 -6.289079 13.654039 0.223005 2.049470 0.008752 -0.002533 -14147.800000 1 0 0
2.768194 -12.048348 -6.378879 13.910992 -1.344959 2.047159 0.001758 -0.002256 596117.000000 1 0 0
-5.490006 1.418852 1.100121 5.776121 -0.252909 1.379165 0.001580 -0.002425 612401.000000 1 0 0
-0.030106 6.859452 -3.923879 7.902519 -1.566407 2.090399 0.006977 -0.005838 785005.000000 1 0 0
5.481394 -11.743448 3.549421 13.436988 -1.134091 1.303471 -0.001929 -0.006991 -1873680.000000 1 0 0
-4.330306 -9.333448 1.106421 10.348380 1.136398 1.463674 0.009532 0.000923 -57186.900000 1 0 0
7.037894 -6.131148 -4.822279 10.506060 -0.716652 2.047665 -0.001051 -0.005682 -1290650.000000 1 0 0
-6.931306 -6.147448 2.233721 9.530144 0.725536 1.334211 0.007161 0.000269 149691.000000 1 0 0
-6.388006 -0.853248 7.088921 9.580577 0.132784 0.737836 -0.001333 -0.001266 -1007160.000000 1 0 0
4.250394 -4.989848 3.223421 7.304442 -0.865253 1.113754 -0.002064 -0.002578 -608464.000000 1 0 0
-2.564806 10.568652 -8.798379 13.988785 -1.332718 2.251010 -0.002474 0.001666 -1400310.000000 1 0 0
-2.260406 -4.863448 2.787421 6.044194 1.135724 1.091479 0.002695 0.000727 533901.000000 1 0 0
15.192794 5.147452 6.334121 17.246400 0.326670 1.194722 0.052874 -0.014608 153763.000000 1 0 0
6.808694 0.302552 0.159921 6.817288 0.044407 1.547336 0.001512 -0.003602 3553360.000000 1 0 0
-9.770506 8.923652 0.458321 13.240257 -0.740129 1.536174 -0.001574 -0.006271 -1268010.000000 1 0 0
7.084594 10.505652 -2.578579 12.930942 0.977486 1.771554 0.006961 -0.006168 -845621.000000 1 0 0
1.713894 -4.299548 -5.381079 7.097856 -1.191479 2.431233 0.001465 -0.005900 -190825.000000 1 0 0
0.974994 -8.131648 -7.807179 11.314873 -1.451465 2.332275 0.000489 -0.000905 -73186.200000 1 0 0
-10.485606 0.157452 -10.516279 14.851426 -0.015015 2.357599 0.008011 -0.006538 -5493370.000000 1 0 0
5.734194 -2.367548 0.562321 6.229162 -0.391562 1.480401 -0.001242 -0.003803 157332.000000 1 0 0
-3.463806 5.400352 -1.011979 6.495064 -1.000488 1.727241 -0.001103 -0.003768 863307.000000 1 0 0
-0.427906 4.532352 -5.144079 6.869270 -1.476664 2.417127 0.004015 -0.004498 -1369230.000000 1 0 0
4.129294 -9.641548 10.027021 14.510399 -1.166150 0.807893 -0.004708 0.001747 -846821.000000 1 0 0
7.460094 -13.461848 -0.858679 15.414658 -1.064761 1.626531 0.020661 -0.006903 958766.000000 1 0 0
13.062894 -0.070948 0.463821 13.071318 -0.005431 1.535305 0.006600 -0.004852 -43247.400000 1 0 0
9.233594 2.454552 -0.563879 9.570895 0.259820 1.629746 0.004433 -0.001385 -1078270.000000 1 0 0
-0.706006 -5.754948 4.642721 7.427835 1.448728 0.895609 -0.001304 0.004159 353919.000000 1 0 0
11.472794 -3.650348 3.425221 12.517275 -0.308046 1.293621 0.011215 -0.010566 -3149230.000000 1 0 0
1.771194 -8.104948 11.669421 14.317915 -1.355646 0.618029 -0.004877 0.001110 234545.000000 1 0 0
9.410894 -5.681548 -5.773979 12.417075 -0.543151 2.054435 0.000345 -0.008497 -519126.000000 1 0 0
3.102794 6.355852 -0.201179 7.075638 1.116650 1.599233 0.000981 -0.002296 -33586.100000 1 0 0
6.438794 -1.329648 11.515321 13.260039 -0.203643 0.518784 0.008630 -0.003204 611816.000000 1 0 0
-4.853106 -7.663848 -3.778079 9.826551 1.006289 1.965437 0.013573 -0.005241 -312765.000000 1 0 0
-3.388206 -8.544648 -5.690579 10.810812 1.193285 2.125132 0.009406 -0.001935 -780930.000000 1 0 0
9.709294 5.578652 2.238721 11.419440 0.521510 1.373474 0.006270 0.000323 76373.100000 1 0 0
8.887894 -1.331848 0.361021 8.994376 -0.148743 1.530647 0.000734 -0.003036 965145.000000 1 0 0
-3.943106 9.651152 9.175021 13.887902 -1.182930 0.849114 0.000174 -0.003975 126780.000000 1 0 0
-14.384306 -3.597648 -6.190079 16.067620 0.245081 1.966277 0.017394 -0.008275 -312561.000000 1 0 0
10.647394 6.151452 -5.978079 13.672775 0.523893 2.023307 0.009840 -0.002921 -160613.000000 1 0 0
-1.938406 4.373752 2.732021 5.509180 -1.153619 1.051921 0.002281 -0.004315 557616.000000 1 0 0
6.893994 -3.688348 2.630121 8.249157 -0.491261 1.246296 0.002393 -0.007195 -1834730.000000 1 0 0
8.353594 -11.043048 -1.557579 13.934041 -0.923175 1.682813 0.012354 -0.006045 -2249440.000000 1 0 0
4.562194 0.472652 1.789321 4.923279 0.103234 1.198838 0.003183 -0.002604 439100.000000 1 0 0
-10.816706 2.374452 3.756621 11.694074 -0.216090 1.243756 -0.001636 -0.003791 223321.000000 1 0 0
-0.883006 -3.042548 4.417421 5.436029 1.288337 0.622164 0.000920 -0.001027 287209.000000 1 0 0
8.748394 -8.627148 -8.406379 14.887219 -0.778420 2.170831 0.008473 -0.007047 -537159.000000 1 0 0
12.101694 -4.705448 1.132021 13.033561 -0.370836 1.483832 0.008343 -0.007436 177665.000000 1 0 0
2.786794 4.894752 3.385821 6.571803 1.053224 1.029550 0.001011 -0.001072 -326003.000000 1 0 0
6.120794 7.555652 1.978821 9.923090 0.889930 1.370035 0.003694 -0.001517 -583806.000000 1 0 0
-1.655906 -1.336748 -10.217779 10.437046 0.679153 2.936251 0.011804 -0.006838 900205.000000 1 0 0
-0.868506 -8.694448 5.966221 10.580337 1.471235 0.971699 -0.000571 -0.000594 15332.500000 1 0 0
-4.185706 -0.286048 2.221121 4.747140 0.068233 1.083899 0.002495 -0.002091 524242.000000 1 0 0
-8.526806 6.155552 -7.940479 13.177574 -0.625277 2.217520 -0.001523 -0.003787 -23382.500000 1 0 0
6.355694 11.238452 -9.383979 15.961100 1.056107 2.199291 0.012108 -0.009906 -192181.000000 1 0 0
-10.970906 -5.801148 3.115921 12.795432 0.486402 1.324805 0.008025 0.000510 647702.000000 1 0 0
1.648494 -6.362948 3.085921 7.261374 -1.317293 1.131859 -0.003271 -0.000791 1119510.000000 1 0 0
10.135494 2.237552 7.302021 12.690720 0.217279 0.957724 0.010913 -0.002141 -1818350.000000 1 0 0
-4.013806 -2.450948 -10.650979 11.643073 0.548199 2.725787 0.012505 -0.009329 -2189920.000000 1 0 0
-8.410406 11.766552 5.862121 15.606125 -0.950225 1.185720 0.009199 -0.009992 35358.000000 1 0 0
6.876894 6.017752 -2.950979 9.602774 0.718869 1.883156 0.006206 -0.001580 -2316690.000000 1 0 0
3.951994 -9.900148 -2.250679 10.894804 -1.190992 1.778877 -0.004483 -0.003548 1317710.000000 1 0 0
8.554594 -12.748048 -7.366479 17.028177 -0.979764 2.018177 0.017454 -0.007159 750762.000000 1 0 0
-1.089206 9.418252 3.605621 10.143487 -1.455659 1.207388 0.004262 -0.001413 -121349.000000 1 0 0
0.533694 -13.286648 4.649921 14.086931 -1.530650 1.234400 0.007946 -0.004835 -1462990.000000 1 0 0
-11.096906 -7.075248 -5.164479 14.137621 0.567600 1.944752 0.011367 -0.005201 164457.000000 1 0 0
3.609594 10.355752 -3.412179 11.485370 1.235406 1.872439 0.013762 -0.007625 -733134.000000 1 0 0
11.750394 -8.043448 -7.345179 16.022499 -0.600265 2.047023 0.033240 -0.008078 154178.000000 1 0 0
11.888994 -4.972948 -6.047079 14.235363 -0.396166 2.009529 0.011589 -0.001640 -161120.000000 1 0 0
1.326694 -10.361548 -2.620179 10.769732 -1.443449 1.816554 0.000339 -0.001005 -1144080.000000 1 0 0
2.333694 -12.063548 -3.880279 12.885336 -1.379707 1.876683 0.004917 -0.000249 -2091750.000000 1 0 0
-7.489506 -5.665448 7.248421 11.862951 0.647617 0.913456 0.004386 -0.000640 -3106350.000000 1 0 0
-7.223906 -0.865248 9.440021 11.918367 0.119208 0.656626 -0.002283 -0.001987 145139.000000 1 0 0
16.205694 2.761852 -7.523179 18.079009 0.168803 1.999979 0.057628 -0.001230 -836531.000000 1 0 0
-2.076006 6.319952 -5.491279 8.625876 -1.253416 2.260885 -0.000455 -0.001115 -841262.000000 1 0 0
7.676894 1.307952 8.415421 11.465807 0.168755 0.746665 0.009945 -0.004032 -897638.000000 1 0 0
7.918294 8.373952 -3.749479 12.119449 0.813359 1.885334 0.005560 -0.000769 -93660.000000 1 0 0
8.084294 0.675852 3.953221 9.024441 0.083407 1.117360 0.004143 -0.003504 320314.000000 1 0 0
-7.028306 5.830152 5.260321 10.538441 -0.692486 1.048172 -0.000113 -0.008186 -580282.000000 1 0 0
-6.171706 -2.190348 -4.466779 7.927150 0.341035 2.169387 0.006422 -0.006302 -1215070.000000 1 0 0
-15.181806 -2.338748 3.142121 15.678964 0.152848 1.369026 0.020109 -0.003940 -1203130.000000 1 0 0
0.977594 1.256252 -10.452479 10.572993 0.909501 2.990464 0.009814 -0.006212 694955.000000 1 0 0
1.642394 -9.256548 9.221921 13.169091 -1.395193 0.795021 -0.000761 -0.001081 -738936.000000 1 0 0
-0.272306 -6.839748 -1.225579 6.954017 1.531005 1.747962 0.003873 -0.000360 745007.000000 1 0 0
-0.269506 -10.245548 -8.371679 13.233628 1.544498 2.255710 0.002422 -0.000269 -512172.000000 1 0 0
-4.456306 6.508952 3.782021 8.748074 -0.970452 1.123725 -0.001729 -0.002318 -237162.000000 1 0 0
10.740994 -1.078948 -8.672779 13.847389 -0.100116 2.247609 0.013510 -0.000379 720670.000000 1 0 0
3.072894 -1.022548 6.245521 7.035255 -0.321238 0.478370 -0.001667 -0.001725 408489.000000 1 0 0
2.029994 -12.486448 6.815121 14.369347 -1.409631 1.076648 -0.000384 -0.002775 38447.300000 1 0 0
2.972294 -4.965848 -1.331779 5.938671 -1.031446 1.796975 0.004023 -0.003175 -1665780.000000 1 0 0
-1.167606 9.513452 -1.721479 9.738201 -1.448675 1.748506 0.002418 -0.004325 63570.700000 1 0 0
4.595394 -2.479548 2.725221 5.890045 -0.494802 1.089778 0.001566 -0.002471 -1239700.000000 1 0 0
17.759594 6.733852 -2.773479 19.194794 0.362419 1.715795 0.014149 -0.001850 -310375.000000 1 0 0
-7.123206 3.470952 -5.343479 9.557214 -0.453415 2.164101 0.000585 -0.004706 -106654.000000 1 0 0
-13.638706 -6.133448 2.400721 15.145856 0.422612 1.411618 0.003496 -0.004364 1137500.000000 1 0 0
6.777394 -6.053048 3.114721 9.605933 -0.729003 1.240578 -0.000676 -0.007629 826504.000000 1 0 0
-4.673206 1.969452 3.508021 6.166345 -0.398847 0.965631 0.001866 -0.003882 123362.000000 1 0 0
6.983594 -12.116248 -5.410279 14.994838 -1.047924 1.939932 0.011288 -0.005321 -403947.000000 1 0 0
2.959894 -12.306848 3.363521 13.097051 -1.334771 1.311071 0.002187 -0.006629 -686039.000000 1 0 0
3.287594 11.319952 -6.117179 13.280416 1.288147 2.049486 0.008710 -0.004238 216653.000000 1 0 0
-5.485206 -8.390848 6.504621 11.950059 0.991815 0.995222 0.006384 -0.001701 -33421.300000 1 0 0
-4.111806 6.595552 6.349921 10.036421 -1.013333 0.885777 -0.001271 -0.003379 103366.000000 1 0 0
4.197494 4.326152 -6.974679 9.218497 0.800491 2.428888 0.006634 -0.001600 -2068910.000000 1 0 0
-0.230906 -2.763948 1.567021 3.185637 1.487448 1.056523 0.001374 -0.001591 -496012.000000 1 0 0
-13.213806 -1.056848 6.630721 14.821878 0.079811 1.106985 0.009649 0.001116 -591361.000000 1 0 0
-0.413906 -9.265348 -5.903979 10.994315 1.526153 2.137677 0.003918 -0.001945 365212.000000 1 0 0
2.070594 -1.666248 -3.938379 4.751270 -0.677612 2.547954 0.004110 -0.004492 -863055.000000 1 0 0
11.392494 -1.865648 1.164521 11.602830 -0.162320 1.470262 0.008204 -0.006969 1003080.000000 1 0 0
0.585294 -4.263348 -1.917879 4.711366 -1.434364 1.990046 0.002664 -0.004044 -1442030.000000 1 0 0
1.209594 -7.344248 -11.291579 13.524084 -1.407562 2.558791 -0.001379 -0.001155 -160597.000000 1 0 0
-4.507606 4.004852 -9.984479 11.663926 -0.726406 2.598305 0.000166 -0.002930 -380944.000000 1 0 0
-1.077906 5.803952 -2.070879 6.255899 -1.387169 1.908189 0.000883 -0.003608 -784732.000000 1 0 0
-11.350106 1.667852 -3.888579 12.113121 -0.145902 1.897605 0.002708 -0.003494 400311.000000 1 0 0
-1.685106 -11.307648 4.210721 12.183294 1.422861 1.217903 0.012478 -0.002860 -513077.000000 1 0 0
-3.518306 -5.537548 -9.694679 11.705970 1.004786 2.546653 0.009679 -0.002567 -1767600.000000 1 0 0
-12.880806 -3.805448 -8.319679 15.799167 0.287264 2.125380 0.018409 -0.004865 206492.000000 1 0 0
11.337694 4.524152 0.554221 12.219591 0.379675 1.525426 0.005903 -0.000300 184399.000000 1 0 0
-8.958306 -2.452948 -3.014679 9.765065 0.267267 1.884644 0.004353 -0.003438 -419965.000000 1 0 0
-2.376706 -6.207148 -6.302079 9.159346 1.205119 2.329593 0.005295 -0.004843 -144367.000000 1 0 0
-0.099006 2.682752 -1.846479 3.258289 -1.533908 2.173294 0.003127 -0.005160 336212.000000 1 0 0
8.037894 6.089252 -5.175479 11.334562 0.648327 2.044978 0.004537 -0.001404 -440056.000000 1 0 0
-9.848006 -0.955548 -1.004179 9.945083 0.096727 1.671941 0.002171 -0.001697 592768.000000 1 0 0
6.101994 0.481552 -8.898879 10.800753 0.078754 2.539077 0.002996 -0.001369 183300.000000 1 0 0
-4.265806 2.419352 7.888221 9.288401 -0.515915 0.556224 -0.002790 -0.000028 -2541870.000000 1 0 0
-10.157506 -3.425148 1.480021 10.821139 0.325230 1.433595 0.001204 0.000568 1699340.000000 1 0 0
-1.795506 -8.210848 -7.809379 11.472937 1.355510 2.319484 0.004129 -0.003918 1011430.000000 1 0 0
-9.320506 -9.844248 4.244421 14.205498 0.812720 1.267375 0.009093 -0.001806 -242348.000000 1 0 0
-0.938706 -10.830248 7.227821 13.054380 1.484338 0.984031 0.006882 -0.002904 -124661.000000 1 0 0
9.488694 3.757952 -3.670879 10.845868 0.377092 1.916075 0.003692 -0.000705 -930232.000000 1 0 0
12.918894 -0.787648 3.052321 13.297927 -0.060893 1.339198 0.010348 -0.005652 -228071.000000 1 0 0
6.384594 12.013452 -6.850879 15.232222 1.082304 2.037295 0.014124 -0.005763 564056.000000 1 0 0
-11.787106 -0.121248 -6.518579 13.470058 0.010286 2.075938 0.008072 -0.002340 578395.000000 1 0 0
-7.643506 -6.689748 -11.558079 15.387174 0.718954 2.420599 0.020803 -0.003051 -107259.000000 1 0 0
4.047694 6.039552 6.460721 9.726301 0.980353 0.844303 -0.000257 0.002053 -1888350.000000 1 0 0
-4.253106 -1.506048 -7.351379 8.625536 0.340328 2.591127 0.008082 -0.009915 463535.000000 1 0 0
9.593294 9.188552 0.884321 13.313256 0.763852 1.504323 0.012912 -0.005132 -1148120.000000 1 0 0
-8.990406 3.962852 4.901121 10.979644 -0.415166 1.108078 -0.002261 -0.006175 849748.000000 1 0 0
-7.093606 7.787052 -12.188279 16.109363 -0.831965 2.428888 0.000029 0.000094 -1103000.000000 1 0 0
11.188794 -3.538348 7.287221 13.813493 -0.306289 1.015090 0.017612 -0.008611 399018.000000 1 0 0
11.844194 6.951152 6.482121 15.186221 0.530719 1.129798 0.012710 -0.006300 246504.000000 1 0 0
-9.976506 -0.774548 -14.809879 17.873531 0.077482 2.547386 0.016155 -0.001764 -304692.000000 1 0 0
1.746094 -12.881948 12.180921 17.814833 -1.436072 0.817905 -0.001019 0.001062 123894.000000 1 0 0
2.866894 3.020052 13.009821 13.659986 0.811409 0.309770 0.000287 -0.000479 -547790.000000 1 0 0
-2.554506 -1.426448 11.070421 11.450523 0.509273 0.258381 -0.000358 -0.001493 -65954.400000 1 0 0
2.634094 -10.035648 -8.239879 13.249464 -1.314113 2.241967 -0.005817 0.000872 -1462070.000000 1 0 0
13.832994 3.649752 -7.425979 16.118857 0.257965 2.049582 0.012748 -0.000561 -2430320.000000 1 0 0
7.328594 -1.550148 4.979921 8.995046 -0.208448 0.984080 0.003001 -0.004471 208800.000000 1 0 0
-1.248106 8.722552 10.078821 13.387431 -1.428671 0.718404 -0.002227 -0.000176 -225506.000000 1 0 0
-12.215506 -4.780148 0.926121 13.150137 0.373000 1.500311 0.004861 -0.001381 288254.000000 1 0 0
-4.834806 4.801452 -5.327979 8.649662 -0.781937 2.234420 0.000050 -0.002991 27936.700000 1 0 0
-11.248906 0.349552 2.064421 11.442112 -0.031064 1.389380 -0.001229 0.000388 -1975830.000000 1 0 0
-1.444106 2.269852 -3.990779 4.812898 -1.004175 2.548443 0.005538 -0.007933 943840.000000 1 0 0
3.137594 -9.779448 13.089021 16.637445 -1.260336 0.665318 -0.003840 0.000493 -2068750.000000 1 0 0
8.896794 4.746552 -1.528679 10.198997 0.490097 1.721249 0.004675 -0.003119 -1829220.000000 1 0 0
4.029994 2.343552 3.705021 5.954852 0.526726 0.899265 -0.002629 0.001202 472602.000000 1 0 0
-5.407306 -3.257448 7.385921 9.716057 0.542194 0.707211 -0.000352 -0.001086 -219128.000000 1 0 0
1.709094 -5.676348 7.738721 9.748319 -1.278340 0.653679 -0.004543 0.000934 -1031590.000000 1 0 0
-5.896606 -6.361248 -9.665379 12.986724 0.823286 2.410209 0.014697 -0.003353 -783318.000000 1 0 0
-11.575906 -5.910448 5.570121 14.140766 0.472077 1.165920 0.005476 -0.004910 -1610130.000000 1 0 0
10.536894 6.240752 4.527721 13.056545 0.534721 1.216663 0.005596 -0.000532 -596262.000000 1 0 0
1.586294 -3.757048 0.397621 4.097541 -1.171284 1.473604 0.004222 -0.003414 -948017.000000 1 0 0
8.751094 4.407852 6.967121 12.022960 0.466596 0.952700 0.009102 0.001954 -48742.500000 1 0 0
-8.000206 11.972652 3.518021 14.823096 -0.981728 1.331176 0.002512 -0.006111 32818.500000 1 0 0
-6.263906 13.162852 -7.056379 16.195360 -1.126632 2.021616 0.012831 -0.000130 73725.500000 1 0 0
4.514594 -6.869248 -1.075979 8.290106 -0.989364 1.700954 -0.000700 -0.005771 -1495920.000000 1 0 0
-1.865606 -8.234748 11.005921 13.871621 1.348004 0.654401 -0.000898 -0.003008 114861.000000 1 0 0
11.491894 8.762752 -5.760079 15.557247 0.651463 1.950075 0.037820 -0.009304 177673.000000 1 0 0
-3.343906 -3.098648 -1.996779 4.976993 0.747348 1.983625 0.011016 -0.006195 -1533580.000000 1 0 0
-2.127606 5.978752 4.791121 7.951542 -1.228909 0.924117 -0.000717 -0.001448 1733120.000000 1 0 0
0.419894 -11.419248 -5.602879 12.726657 -1.534042 2.026671 -0.000042 -0.001559 -1557950.000000 1 0 0
-8.922006 6.264552 -1.519279 11.007044 -0.612165 1.709266 0.002885 -0.004763 -1191980.000000 1 0 0
2.906994 -0.028848 3.813021 4.794848 -0.009923 0.651405 -0.000182 -0.002966 -1068750.000000 1 0 0
-10.071506 3.897652 -1.148779 10.860323 -0.369248 1.676772 0.005247 -0.003507 -106829.000000 1 0 0
6.456994 5.438252 13.593921 16.001938 0.699964 0.555727 0.020605 0.001307 232461.000000 1 0 0
-8.835606 -1.548148 5.613221 10.581727 0.173456 1.011649 -0.003685 -0.000398 72717.900000 1 0 0
12.896294 -1.734948 -1.594579 13.109810 -0.133728 1.692731 0.009523 -0.005873 -2118210.000000 1 0 0
5.551494 -5.422548 5.329621 9.414243 -0.773649 0.969001 -0.003610 -0.004898 -9239.470000 1 0 0
-8.997006 -1.283448 3.187221 9.630771 0.141697 1.233495 -0.001260 -0.000559 896616.000000 1 0 0
1.870794 5.463652 5.491721 7.969339 1.240902 0.810541 0.002855 -0.000715 -281880.000000 1 0 0
9.261394 2.982252 -7.358679 12.199073 0.311524 2.218324 0.002337 0.001095 -1090140.000000 1 0 0
2.331994 -2.323848 -1.509279 3.621655 -0.783649 2.000650 0.004380 -0.005187 -136175.000000 1 0 0
-6.234306 0.250752 -3.927379 7.372500 -0.040200 2.132592 0.003431 -0.003644 -2410970.000000 1 0 0
-4.170706 4.177852 5.067821 7.780234 -0.786254 0.861406 -0.000533 -0.002850 758908.000000 1 0 0
-6.482406 1.729852 -12.318479 14.027078 -0.260777 2.642867 0.004418 -0.004598 -399496.000000 1 0 0
-0.110006 3.034952 6.133321 6.844024 -1.534566 0.459764 -0.000220 -0.000945 1147110.000000 1 0 0
-8.855506 9.272152 -2.124179 12.996343 -0.808378 1.734977 0.001145 -0.000751 865727.000000 1 0 0
-1.311306 -3.752748 -6.064479 7.251245 1.234633 2.561362 0.006172 -0.007161 457886.000000 1 0 0
-3.421206 6.944752 -2.977479 8.294553 -1.113061 1.937958 -0.001449 -0.000347 773909.000000 1 0 0
6.988194 -0.344748 -4.253979 8.188409 -0.049293 2.117076 0.001119 -0.001804 -322314.000000 1 0 0
-5.079406 -10.934248 6.947721 13.915063 1.135916 1.048011 0.005833 -0.003804 1434770.000000 1 0 0
9.690494 8.423052 -1.549279 12.932661 0.715540 1.690881 0.009557 -0.002848 -57044.900000 1 0 0
13.683794 4.626652 -4.362779 15.089266 0.326045 1.864116 0.006583 -0.004983 546125.000000 1 0 0
4.750494 1.129052 -6.797179 8.369205 0.233341 2.518651 0.000932 -0.003435 851782.000000 1 0 0
8.958194 -4.643248 3.628321 10.722579 -0.478199 1.225600 0.003734 -0.007878 119807.000000 1 0 0
-8.735706 -3.259248 -0.649079 9.346474 0.357099 1.640299 0.004870 -0.001379 -31223.900000 1 0 0
-8.540106 -4.357048 -10.483079 14.206063 0.471764 2.400794 0.009367 -0.005324 348681.000000 1 0 0
10.520694 -1.049548 10.726921 15.061652 -0.099431 0.778168 0.021490 -0.005193 79854.800000 1 0 0
2.310794 -11.482248 9.982721 15.389493 -1.372200 0.864959 -0.002938 0.000257 -452298.000000 1 0 0
-6.314106 -10.672148 2.047121 12.567951 1.036544 1.407183 0.007284 0.000606 -579109.000000 1 0 0
-3.777406 -1.084348 6.914021 7.952880 0.279545 0.516864 0.002537 0.003130 -900935.000000 1 0 0
4.863394 -7.518048 3.895221 9.764548 -0.996606 1.160463 -0.004204 -0.001905 206735.000000 1 0 0
11.593694 -9.534248 -5.314079 15.923412 -0.688230 1.911051 0.023600 -0.007154 313136.000000 1 0 0
11.363794 1.343052 11.556521 16.263234 0.117641 0.780457 0.036775 -0.005141 -19686.600000 1 0 0
-10.141406 -3.553048 4.453421 11.632078 0.336987 1.177910 -0.000241 0.003154 1957990.000000 1 0 0
1.995494 8.812852 8.930521 12.704430 1.348121 0.791266 -0.000343 0.003600 235051.000000 1 0 0
6.477194 8.858152 4.157521 11.734814 0.939428 1.208642 0.006255 -0.001749 751089.000000 1 0 0
-4.330906 3.538952 0.469121 5.612576 -0.685104 1.487115 0.002645 -0.005601 -1146550.000000 1 0 0
4.890194 6.913152 4.144921 9.427939 0.955138 1.115596 0.001717 -0.000562 -1023780.000000 1 0 0
-8.354606 12.965052 1.111121 15.463719 -0.998372 1.498881 0.003272 -0.000439 820471.000000 1 0 0
8.751594 8.219852 -9.125379 15.080746 0.754077 2.220689 0.011288 -0.005759 -98751.500000 1 0 0
7.122694 2.016952 6.034121 9.550470 0.275948 0.886905 0.001238 0.000481 -1471720.000000 1 0 0
11.675594 -6.112348 3.194721 13.560477 -0.482282 1.332970 0.007699 -0.006218 37601.000000 1 0 0
11.430694 4.733052 -2.075879 12.544792 0.392572 1.737038 0.007256 -0.001662 418473.000000 1 0 0
-4.062206 14.306352 -6.085879 16.068950 -1.294134 1.959226 0.006021 0.004881 -1046950.000000 1 0 0
7.154794 -2.908548 6.997421 10.421834 -0.386112 0.834674 0.006739 -0.007689 -67045.800000 1 0 0
-8.013106 -0.591648 0.863321 8.081166 0.073701 1.463761 0.000796 -0.001595 407126.000000 1 0 0
-3.155006 1.165252 10.775321 11.288021 -0.353794 0.302549 -0.002050 0.001404 -164837.000000 1 0 0
7.026194 -1.214348 -1.804679 7.355196 -0.171141 1.818689 0.002713 -0.003078 -1274500.000000 1 0 0
-7.918206 5.288952 2.962621 9.972368 -0.588889 1.269160 0.000731 -0.005328 879243.000000 1 0 0
9.495794 -2.077548 2.894121 10.142102 -0.215392 1.281417 0.004227 -0.006967 -1597010.000000 1 0 0
0.201694 3.420252 1.602521 3.782443 1.511894 1.133299 0.002960 -0.001928 -2169010.000000 1 0 0
-7.417506 -3.052548 4.160621 9.035940 0.390409 1.092292 -0.001588 0.002914 -612060.000000 1 0 0
-2.289206 8.351152 -6.719879 10.960793 -1.303250 2.230754 0.000668 -0.002619 -451653.000000 1 0 0
4.490794 9.842052 7.283321 13.041471 1.142727 0.978251 0.002842 0.005475 1403830.000000 1 0 0
-11.712106 -3.235848 6.844121 13.945829 0.269558 1.057829 0.011155 -0.006635 -2647070.000000 1 0 0
-4.790506 2.247252 -5.580279 7.690163 -0.438628 2.382758 0.003988 -0.006173 -1029090.000000 1 0 0
-2.835106 2.956852 -1.809279 4.478202 -0.806415 1.986703 0.002335 -0.005198 502834.000000 1 0 0
2.331194 5.199652 11.465221 12.803208 1.149327 0.461252 -0.001489 -0.000581 307900.000000 1 0 0
-0.732906 1.631152 4.519521 4.860440 -1.148509 0.376769 0.003288 -0.002482 112793.000000 1 0 0
5.153794 1.721752 7.688021 9.414440 0.322418 0.615266 -0.000316 -0.001836 -518751.000000 1 0 0
3.490894 -8.166248 1.850621 9.071866 -1.166828 1.365359 -0.001578 -0.002202 1738270.000000 1 0 0
5.005094 6.474052 -4.664879 9.419416 0.912674 2.088908 0.007796 -0.004759 -1246550.000000 1 0 0
-4.185406 2.727552 -7.922679 9.366216 -0.577556 2.579006 0.005027 -0.005961 -629565.000000 1 0 0
-8.739706 -2.068848 -12.901279 15.719593 0.232440 2.533455 0.010245 -0.003639 -153738.000000 1 0 0
-7.882106 8.013452 1.595821 11.352958 -0.793661 1.429765 0.002545 -0.003954 -1503190.000000 1 0 0
7.440294 0.889752 -6.511879 9.927447 0.119020 2.286233 0.002106 -0.001301 367249.000000 1 0 0
8.917494 8.897652 5.491221 13.742031 0.784284 1.159723 0.008705 0.000117 807464.000000 1 0 0
9.395394 -1.022748 -1.324479 9.543253 -0.108429 1.710033 0.001898 -0.002550 -460748.000000 1 0 0
5.473194 0.245252 4.222821 6.917240 0.044780 0.914133 0.000183 -0.000922 -450295.000000 1 0 0
-4.201206 -7.304148 -7.963379 11.593797 1.048826 2.327964 0.012743 -0.005166 299549.000000 1 0 0
-2.272406 7.482552 -0.637079 7.845909 -1.275954 1.652085 0.000252 -0.003837 125908.000000 1 0 0
13.421994 -3.315848 -7.454179 15.706990 -0.242196 2.065280 0.025330 -0.001286 1147430.000000 1 0 0
-4.740706 -5.118948 1.600521 7.158184 0.823742 1.345297 0.005437 0.000786 1328670.000000 1 0 0
-8.926306 1.252652 2.530721 9.362298 -0.139422 1.297082 -0.001396 -0.002380 -510913.000000 1 0 0
-1.140606 11.285052 10.145921 15.218183 -1.470066 0.841028 0.000802 -0.001196 57217.000000 1 0 0
-8.641706 0.304652 7.528521 11.465188 -0.035239 0.854439 -0.007782 -0.001414 -785139.000000 1 0 0
-6.250806 12.843552 -2.159879 14.446262 -1.117855 1.720870 0.006011 0.003578 120390.000000 1 0 0
-13.088506 -0.939048 3.245021 13.517432 0.071623 1.328367 -0.000645 0.001090 282569.000000 1 0 0
-6.821706 12.670752 8.596221 16.762418 -1.076917 1.032322 0.021957 -0.015122 419160.000000 1 0 0
-8.140806 0.748752 -13.985379 16.199512 -0.091717 2.612610 0.008174 -0.004705 -619777.000000 1 0 0
7.298994 2.971952 3.668721 8.692946 0.386674 1.135108 0.002959 -0.000553 -429749.000000 1 0 0
-1.709806 0.743252 -1.960779 2.705645 -0.410057 2.381394 0.005962 -0.006541 1143240.000000 1 0 0
-6.303906 9.614252 -10.434479 15.525831 -0.990436 2.307800 -0.000581 0.000358 -189199.000000 1 0 0
-10.321506 13.557352 5.257121 17.831786 -0.920089 1.271532 0.001850 -0.005214 457976.000000 1 0 0
-5.712406 8.331752 2.477221 10.401264 -0.969787 1.330320 -0.000605 -0.004687 -880159.000000 1 0 0
-2.338106 -10.760048 -1.199379 11.076276 1.356827 1.679293 0.007515 0.000148 543335.000000 1 0 0
-2.077606 -12.569048 8.801521 15.484321 1.406982 0.966218 0.009392 -0.002294 443304.000000 1 0 0
-14.709406 -6.489548 -1.845979 16.182970 0.415498 1.685114 0.020641 -0.006173 167258.000000 1 0 0
-2.509706 -9.394048 3.187821 10.232740 1.309734 1.253992 0.006978 -0.000482 -2187270.000000 1 0 0
4.641794 -2.519648 7.535821 9.202362 -0.497312 0.611303 0.000539 -0.002047 -1601670.000000 1 0 0
-14.876806 -1.370548 -0.351179 14.943932 0.091867 1.594298 0.002358 -0.006461 -67334.200000 1 0 0
5.428994 8.876452 -2.794379 10.773761 1.021878 1.833165 0.008197 -0.003364 519684.000000 1 0 0
-5.544706 -5.684648 8.528821 11.653316 0.797860 0.749721 0.002121 -0.000374 -4961900.000000 1 0 0
3.430994 3.645352 6.965621 8.577889 0.815681 0.623151 0.000632 -0.000415 767055.000000 1 0 0
3.222294 2.360452 9.295421 10.117300 0.632231 0.405855 0.002836 -0.003862 -373314.000000 1 0 0
9.961094 -3.107248 5.228221 11.671018 -0.302373 1.106307 0.010556 -0.008284 -119173.000000 1 0 0
6.413294 10.054052 -5.059979 12.954446 1.002987 1.972077 0.005583 -0.005926 577621.000000 1 0 0
-4.645006 12.000752 -8.557679 15.454061 -1.201495 2.157657 0.000260 -0.000112 -174019.000000 1 0 0
-3.286406 -7.241348 2.170021 8.242972 1.144754 1.304399 0.004963 -0.000504 1061620.000000 1 0 0
-7.378506 -4.058648 1.121821 8.495497 0.502892 1.438361 0.007176 -0.000366 2483880.000000 1 0 0
-2.055406 -3.926848 -10.856479 11.726379 1.088586 2.753987 0.014620 -0.005509 -969848.000000 1 0 0
-5.328706 8.260752 -4.414779 10.776150 -0.997899 1.992900 0.002587 -0.001920 -2657340.000000 1 0 0
-10.977906 -3.305048 -10.159779 15.318580 0.292432 2.295926 0.011052 -0.001769 -130742.000000 1 0 0
4.741194 -11.303148 -7.643979 14.445432 -1.173629 2.128409 0.000486 -0.002587 -2960020.000000 1 0 0
-9.332006 -3.997948 7.307921 12.509022 0.404758 0.946888 0.001741 -0.000779 -1130280.000000 1 0 0
-5.723806 -9.666348 -5.176679 12.369246 1.036178 2.002603 0.012796 -0.004647 1001080.000000 1 0 0
4.890194 4.398952 -9.498079 11.553280 0.732564 2.535905 0.002503 0.000600 293514.000000 1 0 0
-3.335806 -7.194048 -14.088679 16.167029 1.136617 2.628937 0.010945 -0.000722 619317.000000 1 0 0
0.614094 -0.847148 -8.706679 8.769323 -0.943557 3.021993 0.008934 -0.010125 -571534.000000 1 0 0
-7.665106 2.086652 -2.848479 8.439301 -0.265787 1.915083 0.000882 -0.005137 -1251410.000000 1 0 0
-2.392106 7.530452 -12.571079 14.847960 -1.263219 2.580461 -0.000914 -0.000006 -121145.000000 1 0 0
-9.780306 8.862652 7.591721 15.226136 -0.736215 1.048816 0.000597 -0.013492 -283394.000000 1 0 0
-10.665806 -3.184248 -14.307179 18.127169 0.290124 2.480411 0.018847 0.000126 -372572.000000 1 0 0
-3.331006 4.856552 7.894021 9.848719 -0.969611 0.640951 -0.003654 -0.002006 -96039.500000 1 0 0
8.707294 -2.292048 -3.463979 9.647259 -0.257394 1.938061 0.000701 -0.002119 -5244730.000000 1 0 0
1.972394 -8.356848 -1.124979 8.659840 -1.339017 1.701072 0.000170 0.000108 -564771.000000 1 0 0
-13.464106 -2.989648 5.062621 14.691844 0.218501 1.218997 0.019968 -0.005335 408879.000000 1 0 0
7.084994 2.809352 -2.012079 7.882769 0.377504 1.828903 0.002491 -0.003149 1171580.000000 1 0 0
-10.986106 4.345552 8.793221 14.727494 -0.376664 0.930963 -0.000673 -0.006177 -3043730.000000 1 0 0
-1.806206 -2.479748 8.060021 8.624121 0.941274 0.363691 -0.001220 -0.001421 -1026320.000000 1 0 0
3.185494 11.799552 -9.830979 15.685182 1.307115 2.248195 0.005647 -0.009248 549266.000000 1 0 0
3.648494 -4.966348 -7.030179 9.348772 -0.937196 2.421872 -0.000054 -0.005496 -150547.000000 1 0 0
8.455694 -13.602448 -9.741579 18.746299 -1.014624 2.117242 0.028912 -0.002318 565952.000000 1 0 0
-6.240506 -5.900748 -0.414979 8.598544 0.757422 1.619077 0.010502 -0.001400 -133584.000000 1 0 0
-1.079006 -4.198548 9.719321 10.642239 1.319245 0.419537 -0.004146 -0.002051 1532490.000000 1 0 0
2.722394 3.238452 1.744021 4.576091 0.871757 1.179793 -0.001192 -0.000727 -805201.000000 1 0 0
-9.288006 13.303852 7.710521 17.964177 -0.961317 1.127171 0.016531 -0.019949 -538859.000000 1 0 0
4.114894 -11.109748 0.037421 11.847373 -1.216077 1.567638 0.001635 -0.003504 134807.000000 1 0 0
-12.558606 -1.446048 -9.106879 15.580273 0.114639 2.195077 0.011798 -0.004538 -414346.000000 1 0 0
-4.312106 0.903652 -13.539079 14.237890 -0.206572 2.826988 0.007105 -0.004805 388256.000000 1 0 0
3.966694 -3.187648 5.004321 7.137155 -0.676934 0.793767 -0.002989 0.001069 -606728.000000 1 0 0
1.817394 -1.196048 1.198521 2.483929 -0.582057 1.067278 0.001975 -0.002990 365018.000000 1 0 0
8.216994 -8.791048 7.344921 14.097850 -0.819137 1.022779 0.007356 -0.002379 -1323870.000000 1 0 0
-0.089206 2.249052 -6.247279 6.640383 -1.531153 2.795782 0.006116 -0.007563 -946715.000000 1 0 0
-3.771906 -9.910548 -3.364579 11.125046 1.207129 1.878040 0.011093 -0.002194 1152730.000000 1 0 0
-9.415506 2.222352 -5.410979 11.084643 -0.231789 2.080766 0.001088 -0.002431 -1305140.000000 1 0 0
9.007694 -7.468948 5.263521 12.830759 -0.692279 1.148094 0.004357 -0.005978 1253470.000000 1 0 0
-5.393006 -4.276948 4.642921 8.302621 0.670492 0.977362 0.001056 0.000752 -622478.000000 1 0 0
-0.056606 -12.348848 10.403421 16.147087 1.566212 0.870701 0.005741 -0.003213 -1651580.000000 1 0 0
-14.255606 -8.363848 3.201421 16.835242 0.530587 1.379469 0.015506 -0.007512 -1663340.000000 1 0 0
10.834494 -1.276248 -3.563679 11.476710 -0.117255 1.886530 0.007163 -0.002475 -461448.000000 1 0 0
-13.701606 2.873452 2.762621 14.269647 -0.206721 1.375965 0.001294 -0.001343 -75075.500000 1 0 0
-6.288906 6.075152 1.092821 8.812041 -0.768111 1.446462 0.001953 -0.004827 1312710.000000 1 0 0
7.078294 -6.743448 -0.369479 9.783294 -0.761177 1.608572 -0.001632 -0.005564 24695.000000 1 0 0
-7.005706 7.824052 9.997121 14.499591 -0.840525 0.810031 -0.003569 -0.005148 216676.000000 1 0 0
-12.608606 -5.206148 -2.015279 13.789209 0.391581 1.717471 0.001633 -0.002984 -2471850.000000 1 0 0
-9.372806 -5.631648 0.166321 10.935841 0.541044 1.555587 0.006447 -0.002045 -924957.000000 1 0 0
-1.856706 1.792452 2.212421 3.399272 -0.767792 0.862091 0.002348 -0.001615 83974.700000 1 0 0
-7.098506 7.412352 7.493521 12.707659 -0.807023 0.940127 -0.003757 -0.009227 -287220.000000 1 0 0
5.522994 7.258952 -0.382479 9.129191 0.920386 1.612705 0.007182 -0.003820 -2005230.000000 1 0 0
-0.016806 -3.913248 7.290621 8.274476 1.566502 0.492618 -0.003593 0.000745 -1555900.000000 1 0 0
6.497994 0.725352 13.079821 14.622988 0.111167 0.463552 0.013522 -0.005084 468785.000000 1 0 0
5.740994 6.095152 -7.794179 11.439367 0.815311 2.320398 -0.000740 -0.001702 -107537.000000 1 0 0
9.826694 5.341452 9.208821 14.487836 0.497890 0.881979 0.008256 -0.005222 -762935.000000 1 0 0
-1.298206 -4.974148 -8.423779 9.868513 1.315501 2.593657 0.008297 -0.004936 943123.000000 1 0 0
10.092194 -3.436548 -7.986779 13.321069 -0.328201 2.213747 0.012280 -0.007707 647025.000000 1 0 0
8.541794 -5.317448 1.224621 10.135936 -0.556815 1.449681 0.003260 -0.006994 1013680.000000 1 0 0
15.781994 3.235752 -4.934279 16.848992 0.202226 1.868006 0.016985 -0.000658 12135.600000 1 0 0
-7.012206 3.534752 1.063221 7.924389 -0.466911 1.436220 0.001509 -0.005421 569878.000000 1 0 0
-1.829906 3.799252 0.338421 4.230532 -1.121937 1.490716 0.002809 -0.005046 -939330.000000 1 0 0
-2.714206 10.114852 6.904221 12.543740 -1.308634 0.987939 0.000620 -0.002419 -296865.000000 1 0 0
5.525594 -5.727248 -8.668079 11.767292 -0.803317 2.398862 0.003464 -0.004448 815019.000000 1 0 0
-1.200706 -0.837848 6.327921 6.495096 0.609245 0.227375 0.001699 -0.003837 624389.000000 1 0 0
-5.698106 4.954752 -7.810179 10.863557 -0.715731 2.373064 -0.001025 -0.001861 -28052.500000 1 0 0
6.819294 -1.185848 2.592121 7.391082 -0.172174 1.212468 -0.000414 -0.001757 -1527080.000000 1 0 0
8.713594 7.636752 3.240721 12.031166 0.719633 1.298067 0.008536 -0.002292 -146497.000000 1 0 0
-5.280206 -4.854248 -7.719679 10.537445 0.743392 2.392923 0.012951 -0.007574 407639.000000 1 0 0
-2.419006 7.813152 -10.005579 12.923179 -1.270549 2.456302 0.001013 -0.000394 454436.000000 1 0 0
-2.740606 -2.271648 1.509921 3.866674 0.692107 1.169626 0.001904 -0.000759 -539087.000000 1 0 0
5.957994 -2.139448 -9.313179 11.261005 -0.344749 2.544599 0.004546 -0.003490 979425.000000 1 0 0
1.195994 -7.579948 5.241421 9.292928 -1.414303 0.971547 -0.001262 -0.000412 458111.000000 1 0 0
1.579194 11.717752 1.178021 11.882226 1.436834 1.471492 0.004433 -0.005486 533770.000000 1 0 0
-1.147806 6.928352 2.492421 7.451958 -1.406619 1.229759 0.001504 -0.001897 571925.000000 1 0 0
8.844594 7.925652 -6.653179 13.612773 0.730657 2.081447 0.005433 -0.003657 -575564.000000 1 0 0
3.832694 -11.424448 5.539021 13.262289 -1.247113 1.139937 0.002423 -0.005928 -617386.000000 1 0 0
8.048894 -6.930748 12.304221 16.254655 -0.710892 0.712139 0.019849 -0.005780 449804.000000 1 0 0
-8.766906 -0.066048 -3.919579 9.603443 0.007534 1.991215 0.001049 -0.004369 -629269.000000 1 0 0
-3.174506 -5.165448 11.214621 12.748610 1.019736 0.495620 -0.000026 -0.003313 81815.000000 1 0 0
-8.222706 0.149052 -11.475179 14.117891 -0.018125 2.519758 0.006953 -0.007365 -1857330.000000 1 0 0
1.507694 -4.939648 5.329621 7.421464 -1.274555 0.769676 -0.003850 0.000846 -893155.000000 1 0 0
6.676994 3.693552 -7.608679 10.775740 0.505278 2.354762 0.000220 0.000401 -194786.000000 1 0 0
16.282794 4.299952 -1.317079 16.892414 0.258185 1.648844 0.007213 -0.002750 -1017020.000000 1 0 0
7.824594 7.454652 0.098521 10.807673 0.761191 1.561680 0.008562 -0.003785 -2821940.000000 1 0 0
5.469494 -10.295148 14.022921 18.235892 -1.082448 0.693562 -0.003941 -0.000198 51676.700000 1 0 0
-4.984206 -9.313048 9.003921 13.879689 1.079398 0.864906 0.001217 -0.006470 467857.000000 1 0 0
-12.569406 -3.279548 2.844621 13.298018 0.255225 1.355217 0.001758 0.000724 700450.000000 1 0 0
-2.041206 -1.329148 -5.740779 6.236161 0.577189 2.740316 0.010426 -0.010706 -2062170.000000 1 0 0
-2.697106 13.011252 -4.366379 13.986862 -1.366401 1.888280 0.004639 0.003952 268444.000000 1 0 0
4.043494 -0.427148 -4.911279 6.375967 -0.105248 2.450076 0.000408 -0.004127 -79770.200000 1 0 0
-8.814006 3.781852 -7.361079 12.090269 -0.405315 2.225398 0.003318 -0.004518 282275.000000 1 0 0
-4.662106 7.926352 -11.401579 14.647809 -1.039115 2.462879 -0.001520 0.002640 -2053380.000000 1 0 0
-9.986206 -6.573548 7.499121 14.112855 0.582162 1.010582 0.006221 -0.002750 -1487940.000000 1 0 0
8.043194 5.337052 4.213021 10.532171 0.585841 1.159264 0.004443 0.000816 -2446550.000000 1 0 0
-6.579406 -7.624248 4.042121 10.851566 0.858827 1.189104 0.011325 -0.000404 -596482.000000 1 0 0
-4.272306 11.801352 8.055821 14.913777 -1.223455 1.000170 0.006450 -0.006197 -569850.000000 1 0 0
-7.305506 9.841752 -7.903779 14.584246 -0.932243 2.143540 0.004317 -0.003201 -320702.000000 1 0 0
13.091494 5.501152 4.772921 14.981010 0.397805 1.246546 0.013083 -0.001275 -878805.000000 1 0 0
5.366494 4.086552 -3.813779 7.748811 0.650817 2.085384 0.003947 -0.002049 776368.000000 1 0 0
-2.739906 -4.342248 5.187021 7.298451 1.007903 0.780301 0.002397 0.001205 -2896700.000000 1 0 0
12.269994 -2.500048 -5.293379 13.594957 -0.201002 1.970737 0.013662 -0.001154 -976264.000000 1 0 0
-5.376006 9.736652 6.986821 13.134668 -1.066311 1.009909 0.000559 -0.004908 -413084.000000 1 0 0
1.700794 3.818352 -0.477879 4.207241 1.151753 1.684627 0.002930 -0.003803 533438.000000 1 0 0
-0.201606 9.589652 7.709421 12.305984 -1.549776 0.893771 -0.001313 0.001383 -315739.000000 1 0 0
-5.611106 2.020352 5.849121 8.353356 -0.345611 0.795102 0.001081 -0.003773 701721.000000 1 0 0
8.867794 1.025852 10.753921 13.976300 0.115171 0.692833 0.017208 -0.002924 -32038.600000 1 0 0
0.398694 -2.972848 -10.033179 10.471937 -1.437480 2.851095 0.007056 -0.005051 -2237860.000000 1 0 0
1.163394 10.649452 -2.847379 11.084759 1.461983 1.830582 0.008739 -0.006281 778739.000000 1 0 0
2.301694 -4.263548 11.698621 12.662281 -1.075776 0.392658 0.001614 -0.002988 816.069000 1 0 0
6.518894 -2.839048 9.443921 11.821329 -0.410740 0.645352 0.007996 -0.003708 608878.000000 1 0 0
-10.547206 -8.347548 5.817121 14.654829 0.669504 1.162613 0.011681 -0.004618 -1191390.000000 1 0 0
-3.016406 0.736652 -6.795079 7.470908 -0.239527 2.712969 0.009759 -0.008506 725842.000000 1 0 0
11.042894 2.529352 -5.018479 12.390652 0.225164 1.987799 0.007065 -0.001856 -3704760.000000 1 0 0
-2.047106 -4.138748 0.013621 4.617366 1.111462 1.567846 0.003079 -0.002538 1090070.000000 1 0 0
-1.202106 -6.449548 -10.457679 12.345233 1.386525 2.581306 0.009999 -0.000797 1297010.000000 1 0 0
0.222994 6.819652 -6.555579 9.462188 1.538109 2.336187 0.006387 -0.003487 -2718600.000000 1 0 0
2.014694 3.797152 -6.077479 7.443998 1.082985 2.525992 0.005502 -0.004406 -1950370.000000 1 0 0
1.746494 -14.854548 6.278721 16.221288 -1.453761 1.173348 0.012691 -0.006754 -401084.000000 1 0 0
-1.756806 5.340152 -10.482179 11.894523 -1.252968 2.649320 0.002734 -0.001183 146505.000000 1 0 0
13.650994 4.407352 -0.707979 14.362298 0.312295 1.620111 0.009169 -0.004805 -11216.200000 1 0 0
-2.402706 3.216052 -6.140179 7.336061 -0.929155 2.562548 0.007306 -0.005609 -705999.000000 1 0 0
5.699694 7.829552 14.117721 17.120118 0.941543 0.601253 0.017275 -0.006621 423925.000000 1 0 0
15.976494 0.736152 -5.669479 16.968596 0.046045 1.911463 0.023844 -0.000935 16995.200000 1 0 0
6.224794 -8.081648 10.556921 14.680248 -0.914468 0.768255 -0.000385 0.004910 -629098.000000 1 0 0
0.121994 -5.845048 -6.400879 8.668952 -1.549928 2.401444 0.004231 -0.005390 371604.000000 1 0 0
8.662294 5.504852 -7.533279 12.731418 0.566111 2.203972 0.001227 -0.000223 -43367.000000 1 0 0
-15.898706 -0.779648 5.299821 16.776913 0.048999 1.249392 0.028139 -0.014718 -558755.000000 1 0 0
-0.400806 4.001952 -12.249879 12.893246 -1.470976 2.824354 0.006564 -0.004979 418701.000000 1 0 0
-11.399606 3.604252 5.933721 13.347311 -0.306228 1.110110 0.000073 -0.005658 9078.050000 1 0 0
5.279894 -9.539548 -9.575079 14.510768 -1.065290 2.291429 -0.003129 -0.000342 -94290.400000 1 0 0
1.486894 11.009952 -11.595679 16.058943 1.436559 2.377586 0.003867 -0.006084 -3599990.000000 1 0 0
5.952894 2.466652 1.182321 6.551274 0.392826 1.389330 0.003448 -0.001017 -156709.000000 1 0 0
5.670194 4.509952 4.884421 8.737753 0.671917 0.977615 -0.001848 0.001584 -24172.800000 1 0 0
0.462594 -1.606548 -6.244179 6.464113 -1.290438 2.879988 0.004146 -0.007454 485257.000000 1 0 0
12.684994 6.837152 -4.545679 15.110225 0.494355 1.876364 0.015903 -0.007330 -494812.000000 1 0 0
7.453394 3.237552 12.738221 15.109503 0.409783 0.567848 0.016170 -0.001114 -336412.000000 1 0 0
-2.363806 -0.160048 8.767721 9.082187 0.067605 0.263917 -0.005701 -0.000802 888411.000000 1 0 0
2.590294 -15.137748 13.196021 20.248358 -1.401323 0.860962 0.013084 -0.008052 100934.000000 1 0 0
18.832794 4.676552 -1.700179 19.479088 0.243396 1.658190 0.014401 -0.010573 942778.000000 1 0 0
-0.315906 -13.487148 7.153721 15.270190 1.547378 1.083231 0.005400 -0.001609 -1372060.000000 1 0 0
4.392294 1.580352 -0.618379 4.708731 0.345379 1.702503 0.003689 -0.002700 911772.000000 1 0 0
2.692994 -0.475648 -7.253979 7.752333 -0.174821 2.781079 0.002539 -0.004888 -731174.000000 1 0 0
7.345194 -11.337248 0.941521 13.541474 -0.995912 1.501212 0.004398 -0.005402 320388.000000 1 0 0
-11.718006 -7.450748 1.331321 13.949829 0.566355 1.475214 0.008156 0.002462 519857.000000 1 0 0
0.210394 -7.057948 9.770221 12.054713 -1.540996 0.625809 -0.003001 0.001098 -2147050.000000 1 0 0
-4.623406 -7.195848 10.587821 13.610954 0.999704 0.679496 0.004701 -0.003423 -1111410.000000 1 0 0
11.735894 0.754252 -1.630979 11.872665 0.064181 1.708605 0.008475 -0.003350 1317190.000000 1 0 0
6.577694 -9.601348 -7.357479 13.768967 -0.970154 2.134538 -0.001393 -0.004230 -823913.000000 1 0 0
-10.976706 4.847952 3.621621 12.534227 -0.415895 1.277678 -0.000412 -0.007719 -630850.000000 1 0 0
6.074094 -9.130148 2.075321 11.160698 -0.983755 1.383759 -0.001239 -0.003201 2163870.000000 1 0 0
11.621394 -1.175448 5.996821 13.130131 -0.100802 1.096489 0.015162 -0.007571 265559.000000 1 0 0
-6.590506 3.513652 4.127521 8.533285 -0.489806 1.065923 -0.000667 -0.005091 -1749520.000000 1 0 0
9.505594 6.357752 -3.246279 11.887626 0.589508 1.847390 0.004661 -0.002100 -322713.000000 1 0 0
-2.346406 6.542752 10.850621 12.886008 -1.226457 0.569730 -0.004242 -0.001608 62743.700000 1 0 0
1.914294 9.839552 3.014821 10.467590 1.378646 1.278643 0.001391 -0.003509 -128053.000000 1 0 0
2.796494 6.204252 -5.593479 8.809093 1.147329 2.258761 0.006640 -0.004515 -2264290.000000 1 0 0
11.969094 0.032152 -5.469279 13.159531 0.002686 1.999414 0.012448 -0.000646 286288.000000 1 0 0
-2.570606 -12.630648 6.245921 14.323157 1.370017 1.119568 0.006649 -0.002568 400078.000000 1 0 0
10.862594 1.941352 -2.594679 11.335658 0.176852 1.801739 0.007569 -0.000970 309989.000000 1 0 0
-8.910306 5.197752 0.791621 10.345861 -0.528081 1.494206 -0.000493 -0.005287 -51323.300000 1 0 0
1.404194 -10.175948 5.609821 11.704349 -1.433671 1.070947 0.000966 -0.004214 869162.000000 1 0 0
9.266194 -5.629848 -1.408979 10.933561 -0.545966 1.700023 0.002506 -0.007289 496604.000000 1 0 0
-7.843306 8.497252 -4.489679 12.404756 -0.825397 1.941136 0.004453 -0.004008 -1171830.000000 1 0 0
-7.445706 -0.075048 -1.626279 7.621611 0.010079 1.785827 0.002298 -0.004072 -1141790.000000 1 0 0
4.099294 8.799852 2.685221 10.072339 1.134851 1.300939 0.004094 -0.003553 448344.000000 1 0 0
-1.269106 -10.501648 -3.685879 11.201828 1.450531 1.906086 0.008156 -0.001274 -796343.000000 1 0 0
3.091294 7.822652 -3.572579 9.138561 1.194459 1.972443 0.010595 -0.007500 -540707.000000 1 0 0
-4.347506 1.563652 -11.108179 12.030688 -0.345260 2.747435 0.004579 -0.005376 -791864.000000 1 0 0
1.190194 2.755052 10.931121 11.335620 1.163008 0.267948 0.000754 -0.001185 778418.000000 1 0 0
2.049194 5.528852 -7.979679 9.921828 1.215857 2.505217 0.005817 -0.002229 631975.000000 1 0 0
15.523394 6.291852 4.033021 17.228709 0.385079 1.334517 0.028411 -0.016565 28758.200000 1 0 0
-4.481906 9.048952 4.601621 11.097113 -1.110919 1.143218 0.000767 -0.003099 80936.800000 1 0 0
-1.035106 -8.141748 -12.370279 14.845313 1.444339 2.555808 0.006388 -0.000831 -268410.000000 1 0 0
14.301994 -4.182048 -5.253179 15.799761 -0.284479 1.909733 0.033179 0.000176 -129137.000000 1 0 0
-5.874906 -6.214048 -5.606879 10.225753 0.813445 2.151138 0.015014 -0.003993 560885.000000 1 0 0
-8.981506 2.547452 -12.237679 15.392133 -0.276374 2.489904 0.006292 -0.005469 -670788.000000 1 0 0
10.500294 5.547352 13.912621 18.291810 0.486034 0.706570 0.039702 -0.006954 616669.000000 1 0 0
-0.511606 10.934652 5.566121 12.280474 -1.524043 1.100389 -0.000350 0.002205 496384.000000 1 0 0
0.283394 11.155352 -0.709079 11.181457 1.545398 1.634255 0.007090 -0.005011 -215558.000000 1 0 0
-1.463506 -0.607948 3.709621 4.033948 0.393716 0.403734 0.002823 -0.000923 465859.000000 1 0 0
-4.863206 6.876552 8.862321 12.226139 -0.955244 0.759955 -0.002110 -0.004365 -2801970.000000 1 0 0
3.516194 -8.718648 -11.383779 14.763769 -1.187452 2.451303 -0.002385 0.000827 1271440.000000 1 0 0
6.748894 -3.774748 11.993621 14.270362 -0.509966 0.572671 0.017457 -0.005362 -287176.000000 1 0 0
-2.435706 -1.893848 -12.517379 12.892017 0.660892 2.899925 0.010665 -0.007207 960160.000000 1 0 0
-15.954406 -4.954848 5.382021 17.551631 0.301119 1.259136 0.031097 -0.013704 564939.000000 1 0 0
-8.993106 7.257052 5.690821 12.881235 -0.678969 1.113202 -0.002242 -0.007147 -4252080.000000 1 0 0
-12.952806 1.456752 6.014921 14.355368 -0.111995 1.138451 0.001218 -0.001919 373527.000000 1 0 0
-3.648206 3.598952 10.049921 11.281080 -0.778602 0.471550 -0.002915 0.000726 556923.000000 1 0 0
2.102994 -12.290948 -1.111179 12.518974 -1.401336 1.659673 0.008964 -0.001463 -2757010.000000 1 0 0
10.737494 -4.865648 -3.593779 12.324104 -0.425467 1.866701 0.001475 -0.004955 587097.000000 1 0 0
3.167594 -13.442548 1.003321 13.847108 -1.339379 1.498276 0.007859 -0.000909 502316.000000 1 0 0
9.944794 -1.484648 -6.142479 11.782748 -0.148195 2.119183 0.009887 -0.002168 893552.000000 1 0 0
11.932994 -5.386148 -1.438579 13.171045 -0.423989 1.680238 0.013038 -0.005894 226068.000000 1 0 0
1.445694 0.932152 5.855921 6.103339 0.572696 0.285710 0.002038 -0.003488 18898.800000 1 0 0
-10.882806 11.571752 6.569121 17.189947 -0.816070 1.178676 0.005254 -0.012855 -1402230.000000 1 0 0
4.818594 -14.046048 3.180221 15.186314 -1.240320 1.359821 0.009195 -0.005087 -2520860.000000 1 0 0
5.230594 -3.389448 -1.672579 6.453293 -0.574971 1.832972 0.000989 -0.004824 -1572170.000000 1 0 0
2.055294 -2.869948 -7.652079 8.427049 -0.949318 2.709372 0.001701 -0.004922 -703593.000000 1 0 0
-2.901506 14.742252 -8.861179 17.443429 -1.376464 2.103652 0.005117 -0.002998 -2420860.000000 1 0 0
-2.463406 5.988452 -8.108179 10.376536 -1.180536 2.467695 0.003445 -0.002538 -350835.000000 1 0 0
2.597994 -3.519348 -11.315679 12.131775 -0.934888 2.772710 0.003762 -0.003844 -1471230.000000 1 0 0
14.575394 2.809352 -2.656479 15.079504 0.190411 1.747885 0.014093 -0.000643 596862.000000 1 0 0
-3.568106 13.121752 2.164421 13.769403 -1.305293 1.412951 0.003136 0.000996 -283563.000000 1 0 0
7.910394 -4.920348 13.908821 16.740354 -0.556447 0.590152 0.029557 -0.013200 -2135050.000000 1 0 0
-11.621406 7.224652 2.976321 14.003970 -0.556199 1.356629 -0.000106 -0.006973 724326.000000 1 0 0
-2.350506 11.836352 4.000521 12.713311 -1.374763 1.250685 0.002804 -0.000959 600610.000000 1 0 0
1.830594 1.404152 0.610521 2.386514 0.654322 1.312099 -0.001123 -0.002529 -1575390.000000 1 0 0
-6.921206 8.582752 5.242321 12.208548 -0.892160 1.126971 -0.001917 -0.008802 -888616.000000 1 0 0
-1.090106 9.106352 0.986221 9.224240 -1.451655 1.463675 0.001736 -0.002288 565185.000000 1 0 0
4.921494 13.148352 -8.567479 16.446943 1.212635 2.118720 0.020386 -0.012809 -2375530.000000 1 0 0
8.903194 6.959152 7.260121 13.431530 0.663449 0.999732 0.006029 -0.002228 -916063.000000 1 0 0
7.276094 -13.661448 2.817521 15.732614 -1.081410 1.390737 0.021033 -0.005154 446009.000000 1 0 0
4.279394 -13.281048 -1.327379 14.016468 -1.259083 1.665640 0.006677 -0.002173 -2544240.000000 1 0 0
12.289694 -11.791848 -4.578779 17.636595 -0.764728 1.833423 0.032390 -0.004417 -908483.000000 1 0 0
3.057694 -0.046748 -2.063279 3.689010 -0.015288 2.164343 0.002841 -0.003176 609438.000000 1 0 0
-13.570506 -3.321948 -10.628379 17.554385 0.240071 2.221133 0.022959 -0.012442 -563024.000000 1 0 0
-6.670106 13.637752 4.986421 15.979455 -1.115914 1.253444 0.010372 -0.009370 398903.000000 1 0 0
7.351294 -4.156548 -0.571379 8.464330 -0.514603 1.638352 -0.002621 -0.002526 -714580.000000 1 0 0
11.738494 1.989652 -7.232979 13.930791 0.167902 2.116720 0.011127 0.000787 -365955.000000 1 0 0
-7.428506 -4.565848 9.731921 13.066750 0.551114 0.730584 0.005687 -0.005107 253072.000000 1 0 0
0.915994 2.874352 8.458121 8.980020 1.262293 0.342606 0.002723 -0.002381 -1512940.000000 1 0 0
1.492294 8.038552 -8.642579 11.897034 1.387244 2.383936 0.004924 -0.003523 -356072.000000 1 0 0
-8.642506 -2.126048 -5.575279 10.502225 0.241210 2.130419 0.007029 -0.003752 -1229430.000000 1 0 0
6.718394 -0.368048 7.152621 9.819993 -0.054727 0.754851 0.007012 -0.004263 -318207.000000 1 0 0
-10.879106 6.441852 7.156621 14.528236 -0.534613 1.055721 -0.000357 -0.007601 377773.000000 1 0 0
-6.017906 11.110252 4.965321 13.575983 -1.074384 1.196365 0.002526 -0.006183 -92258.500000 1 0 0
6.081194 -1.183448 -6.930279 9.295710 -0.192206 2.412134 0.001771 -0.001724 -550439.000000 1 0 0
4.515994 -5.709648 11.341721 13.476977 -0.901604 0.570627 0.006208 -0.001840 -1413170.000000 1 0 0
-8.857406 -7.449348 2.812721 11.910409 0.699264 1.332388 0.011990 -0.001250 -3461040.000000 1 0 0
-1.410006 12.702052 -9.394379 15.861418 -1.460243 2.204680 0.008767 -0.000069 400311.000000 1 0 0
-4.631206 9.239052 -2.312079 10.590272 -1.106138 1.790890 -0.000700 -0.000709 390091.000000 1 0 0
-3.355106 9.716652 -0.161379 10.280861 -1.238320 1.586494 0.001060 -0.001523 -764232.000000 1 0 0
-3.558806 10.746452 -6.399479 13.004025 -1.251002 2.085314 0.006069 -0.000253 1017590.000000 1 0 0
4.955494 -4.831548 0.368421 6.930838 -0.772735 1.517614 0.001486 -0.005536 -2340400.000000 1 0 0
-2.276406 2.866352 -10.838579 11.439965 -0.899613 2.815906 0.006843 -0.004147 -1789500.000000 1 0 0
-3.705006 12.052052 -2.160179 12.792396 -1.272549 1.740474 0.002240 0.002946 -1012230.000000 1 0 0
-0.170706 0.249852 0.100121 0.318733 -0.971413 1.251265 -0.000168 -0.003356 -1927170.000000 1 0 0
-4.781606 -1.802748 0.074921 5.110702 0.360538 1.556136 0.002612 -0.000744 185442.000000 1 0 0
2.513394 2.468852 -2.410279 4.268703 0.776458 2.170793 0.000798 -0.004719 796396.000000 1 0 0
6.118694 -9.671548 8.466021 14.235546 -1.006716 0.933892 -0.001289 0.004995 -535717.000000 1 0 0
-4.158406 -5.476448 6.621421 9.546049 0.921354 0.804281 0.002401 -0.000477 -1920.210000 1 0 0
-6.293806 5.218952 -12.115979 14.616648 -0.692306 2.547964 -0.001322 -0.001258 330327.000000 1 0 0
-12.943506 2.986552 8.015321 15.514484 -0.226769 1.027881 0.004834 -0.009489 412440.000000 1 0 0
4.809894 -7.553848 -4.824879 10.172274 -1.003794 2.064984 -0.002580 -0.004816 639306.000000 1 0 0
-5.970906 2.391552 -1.035279 6.514833 -0.380967 1.730384 0.001599 -0.004497 -642873.000000 1 0 0
-6.913706 -2.757348 -14.542479 16.336646 0.379492 2.668526 0.014034 -0.001132 205330.000000 1 0 0
2.895894 -6.074748 0.941721 6.795263 -1.125954 1.431764 -0.002591 -0.001872 -186144.000000 1 0 0
4.853894 -7.842548 13.016621 15.953002 -1.016583 0.616451 0.005504 -0.005247 -71611.100000 1 0 0
-10.060706 -1.693948 8.004221 12.967453 0.166808 0.905548 -0.000523 -0.000060 -542736.000000 1 0 0
-4.793306 13.277152 -0.128079 14.116478 -1.224339 1.579869 0.004894 0.005057 332276.000000 1 0 0
6.887094 2.255552 -4.435079 8.496440 0.316495 2.119982 0.001150 -0.000239 -1658050.000000 1 0 0
5.016994 4.616852 0.119321 6.819075 0.743887 1.553297 0.000775 -0.001162 -875801.000000 1 0 0
-6.019106 12.149352 1.915421 13.693255 -1.110814 1.430455 0.003628 0.000422 -1000450.000000 1 0 0
6.587394 -7.219148 6.640221 11.815346 -0.831124 0.973995 0.000009 -0.002943 -1315560.000000 1 0 0
-0.390906 4.948152 7.574821 9.056209 -1.491960 0.580072 -0.003440 0.000173 -579695.000000 1 0 0
-5.818606 -3.527148 -1.452279 6.957447 0.544954 1.781080 0.004385 -0.003126 -811179.000000 1 0 0
2.456294 -6.480248 -5.120179 8.616451 -1.208486 2.207108 -0.001518 -0.003023 -176630.000000 1 0 0
-14.387506 -4.920148 -3.844579 15.684036 0.329507 1.818447 0.014220 -0.011095 391152.000000 1 0 0
-12.364806 -5.203448 -6.351779 14.842824 0.398331 2.013004 0.015073 -0.010577 -121610.000000 1 0 0
-14.755206 -3.862848 -1.339779 15.311196 0.256049 1.658412 0.007282 -0.004265 376334.000000 1 0 0
11.905694 3.034252 8.780621 15.101375 0.249545 0.950293 0.025390 -0.005622 -1575350.000000 1 0 0
8.869694 -6.351048 7.664421 13.332315 -0.621410 0.958344 0.006762 -0.004776 91069.900000 1 0 0
-8.895206 -1.751948 -9.741279 13.307387 0.194465 2.392079 0.005736 -0.004293 -75025.200000 1 0 0
-8.852106 5.124752 -3.865179 10.934463 -0.524783 1.932091 0.000402 -0.003194 -1481780.000000 1 0 0
-4.025106 -6.319948 4.110121 8.546129 1.003693 1.069077 0.004694 0.000523 -974562.000000 1 0 0
-0.036106 -9.379648 3.545121 10.027312 1.566947 1.209437 0.003516 -0.004048 448572.000000 1 0 0
8.048594 -10.301048 3.350121 13.494990 -0.907539 1.319924 0.001530 -0.006465 585357.000000 1 0 0
-0.038606 6.377452 9.601321 11.526437 -1.564743 0.586320 -0.004264 0.001189 1346320.000000 1 0 0
-0.014006 3.538052 -9.639379 10.268186 -1.566838 2.789815 0.005950 -0.004169 231965.000000 1 0 0
4.480894 -3.043548 10.987621 12.250282 -0.596649 0.458024 0.004403 -0.004079 -2073750.000000 1 0 0
8.586194 -9.065348 1.169021 12.540728 -0.812537 1.477443 0.002983 -0.005292 -645045.000000 1 0 0
-0.283606 -0.409248 11.406221 11.417083 0.964788 0.043625 0.003515 -0.001914 -1605350.000000 1 0 0
10.872194 6.131052 11.472321 16.953128 0.513468 0.827514 0.032608 -0.006807 -105098.000000 1 0 0
-6.355306 -2.957848 -11.947379 13.852027 0.435598 2.610986 0.011842 -0.004157 1234790.000000 1 0 0
-1.738806 2.850552 8.378521 9.019352 -1.023064 0.379232 -0.003617 -0.000908 559897.000000 1 0 0
-1.689306 13.538852 -6.831479 15.258551 -1.446663 2.035004 0.009015 0.002694 600381.000000 1 0 0
7.650994 3.144052 9.778621 12.807974 0.389896 0.702113 0.008006 -0.000513 667326.000000 1 0 0
6.454894 8.421752 -7.903579 13.230953 0.916847 2.210996 0.002982 -0.004352 162558.000000 1 0 0
6.662694 -2.963548 -3.840079 8.241378 -0.418519 2.055506 -0.000678 -0.003814 -2315820.000000 1 0 0
1.931194 8.340452 0.966321 8.615476 1.343261 1.458399 0.004316 -0.001721 804263.000000 1 0 0
-17.775906 6.168352 6.257121 19.828842 -0.334005 1.249753 0.045940 -0.016473 -501204.000000 1 0 0
-14.691706 2.926452 -10.237779 18.144489 -0.196617 2.170304 0.027671 -0.008639 -369218.000000 1 0 0
-18.273406 -0.071948 -4.364779 18.787598 0.003937 1.805261 0.045171 -0.013740 -79661.900000 1 0 0
-13.111306 7.688752 0.241021 15.201360 -0.530375 1.554940 0.003173 -0.003857 -2468660.000000 1 0 0
-12.892006 -4.581648 -12.870979 18.784500 0.341466 2.325663 0.040806 -0.001587 390338.000000 1 0 0
-17.321506 -0.813448 -8.672179 19.388217 0.046927 2.034531 0.044489 -0.023972 -303362.000000 1 0 0
-16.738106 -2.261448 -2.113979 17.021964 0.134295 1.695309 0.034307 -0.010462 1265260.000000 1 0 0
-15.383306 4.011252 1.612821 15.979282 -0.255074 1.469692 0.007818 -0.000612 -317817.000000 1 0 0
-13.286606 5.923852 4.477221 15.220757 -0.419399 1.272228 -0.000237 -0.003965 486533.000000 1 0 0
-10.144606 13.985452 2.734321 17.492353 -0.943247 1.413837 0.012259 -0.006614 -603954.000000 1 0 0
-11.808906 2.401052 -6.392679 13.641175 -0.200591 2.058537 0.004336 -0.001575 361685.000000 1 0 0
-16.022406 10.562052 3.794921 19.562103 -0.582819 1.375565 0.020064 -0.012925 -404230.000000 1 0 0
-12.670306 1.023652 -8.600679 15.347841 -0.080616 2.165645 0.008583 -0.006941 440401.000000 1 0 0
-12.389606 14.301952 4.061021 19.353038 -0.856922 1.359386 0.017994 -0.011847 -310860.000000 1 0 0
-10.523106 11.004852 -0.957379 15.256445 -0.807772 1.633590 0.005496 -0.000475 214033.000000 1 0 0
-17.200906 5.536452 8.751521 20.077664 -0.311398 1.119777 0.059129 -0.025169 220308.000000 1 0 0
-11.909906 12.321752 -8.989479 19.351542 -0.802393 2.053906 0.024165 -0.014935 348973.000000 1 0 0
-17.207306 -0.556348 3.199021 17.510987 0.032321 1.387078 0.043825 -0.009562 1024510.000000 1 0 0
-13.056306 14.668852 -1.197479 19.674255 -0.843495 1.631699 0.029328 -0.016062 276766.000000 1 0 0
-16.746306 4.503152 -10.248679 20.143301 -0.262690 2.104573 0.067389 -0.015262 351395.000000 1 0 0
-11.937606 7.467852 -8.963479 16.691891 -0.559012 2.137668 0.004358 -0.002051 -238646.000000 1 0 0
-15.066706 13.225852 -1.989079 20.146594 -0.720425 1.669688 0.047163 -0.021313 828526.000000 1 0 0
-11.960506 10.435852 -5.423579 16.774264 -0.717427 1.900040 0.017015 -0.005355 1463130.000000 1 0 0
-17.761006 2.734752 -0.998379 17.998027 -0.152775 1.626296 0.046949 -0.002478 -39046.800000 1 0 0
-9.611506 15.291752 0.613521 18.071943 -1.009654 1.536841 0.020518 -0.000518 335552.000000 1 0 0
-8.248306 13.161652 -3.673079 15.961051 -1.010981 1.803005 0.006518 0.002137 -1378240.000000 1 0 0
-17.966006 11.554852 2.236721 21.477777 -0.571545 1.466466 0.086428 -0.011594 -132680.000000 1 0 0
-8.131506 15.619152 -7.382679 19.094063 -1.090796 1.967790 0.051447 -0.015081 -355039.000000 1 0 0
-6.406106 15.229352 -5.403879 17.383132 -1.172623 1.886904 0.010911 0.001390 -1534630.000000 1 0 0
-17.479206 5.164552 -0.196979 18.227289 -0.287294 1.581603 0.043889 -0.000154 431576.000000 1 0 0
-5.501706 12.324652 -12.295679 18.257862 -1.150941 2.309656 -0.005312 -0.002221 94824.900000 1 0 0
-11.137406 3.705952 -11.461379 16.405460 -0.321224 2.344280 0.008097 -0.006447 157701.000000 1 0 0
-12.004706 10.916252 1.155921 16.266951 -0.737946 1.499677 0.002525 -0.002662 399099.000000 1 0 0
-12.985806 0.192852 -11.120279 17.097631 -0.014850 2.278906 0.018104 -0.009553 -368505.000000 1 0 0
-13.959106 -2.189248 -13.006879 19.204905 0.155566 2.314840 0.049336 -0.019185 -270905.000000 1 0 0
-18.813106 -2.570348 -3.733379 19.351429 0.135785 1.764939 0.050134 -0.013689 1061140.000000 1 0 0
-18.311106 4.758152 -5.166679 19.612017 -0.254228 1.837387 0.057135 -0.008531 -474885.000000 1 0 0
-8.504106 15.450352 -2.293779 17.784674 -1.067634 1.700132 0.019693 0.002878 803206.000000 1 0 0
-16.261406 9.186652 -5.323779 19.420879 -0.514238 1.848478 0.040469 -0.001871 57615.600000 1 0 0
-18.243306 1.459552 2.002121 18.410785 -0.079835 1.461834 0.066931 -0.010155 739157.000000 1 0 0
-15.639506 -2.773848 -8.793279 18.155169 0.175536 2.076405 0.020429 -0.012633 -793839.000000 1 0 0
-9.764406 10.353452 -7.157879 15.930249 -0.814670 2.036807 0.013519 -0.006648 -324187.000000 1 0 0
-14.119706 11.835052 -7.509279 19.895322 -0.697600 1.957826 0.043395 -0.023077 235422.000000 1 0 0
-11.060706 6.395852 -3.711179 13.304849 -0.524273 1.853481 0.002859 -0.002834 -945373.000000 1 0 0
-13.135606 4.849452 -12.807779 18.976315 -0.353662 2.311673 0.034576 -0.012820 359591.000000 1 0 0
-17.729306 9.042252 2.568421 20.067073 -0.471629 1.442452 0.026563 -0.017642 840943.000000 1 0 0
-13.421006 8.512652 -6.532179 17.183074 -0.565243 1.960757 0.008317 -0.004055 -736906.000000 1 0 0
-15.828206 6.986752 -3.863879 17.727842 -0.415689 1.790515 0.018613 0.003080 -497585.000000 1 0 0
-14.841006 -0.304648 -9.287779 17.510315 0.020525 2.129889 0.025450 -0.017020 -584031.000000 1 0 0
-10.163306 5.768952 -6.060079 13.164276 -0.516274 2.049178 0.000901 -0.003027 538568.000000 1 0 0
-13.028906 11.949052 -0.903379 17.701648 -0.742193 1.621852 0.016067 -0.008693 -295162.000000 1 0 0
-10.636706 3.489552 -13.978979 17.908890 -0.317003 2.466359 0.024639 -0.010461 297029.000000 1 0 0
-11.080606 6.229952 -12.064879 17.525794 -0.512191 2.330087 0.006707 -0.002856 -1145440.000000 1 0 0
-5.764106 11.633452 -14.762979 19.659798 -1.110774 2.420254 0.007289 -0.004612 -243823.000000 1 0 0
-15.769006 13.272752 3.387221 20.887814 -0.699655 1.407915 0.024693 -0.014785 -177947.000000 1 0 0
-15.117206 10.855452 -3.147879 18.875378 -0.622761 1.738351 0.028375 -0.006374 345253.000000 1 0 0
-18.223706 7.655552 -4.528679 20.278557 -0.397702 1.796019 0.044822 -0.005685 -281479.000000 1 0 0
-4.165006 16.253852 -10.512579 19.800235 -1.319947 2.130496 0.016737 -0.007517 2654.800000 1 0 0
-15.791606 4.334252 -4.471879 16.975225 -0.267869 1.837378 0.022345 -0.000314 280024.000000 1 0 0
-18.745706 -1.957248 -6.197879 19.840515 0.104034 1.888499 0.045889 -0.020909 268135.000000 1 0 0
-10.828206 8.455252 -5.776479 14.903323 -0.662957 1.968819 0.004272 -0.000648 647213.000000 1 0 0
-11.224506 13.447952 -6.578979 18.711492 -0.875274 1.930077 0.027935 -0.013345 72081.200000 1 0 0
-9.560406 10.388152 -4.484579 14.813052 -0.826868 1.878368 -0.002632 0.000233 -526823.000000 1 0 0
-11.117306 6.127952 -0.167079 12.695441 -0.503770 1.583957 -0.000275 -0.001659 -198497.000000 1 0 0
-14.704706 8.952152 -1.430379 17.274704 -0.546861 1.653693 0.017628 -0.003631 -167632.000000 1 0 0
-18.487306 3.397052 4.667521 19.367659 -0.181723 1.327405 0.048916 -0.018913 193583.000000 1 0 0
-14.659806 13.412052 0.498221 19.875645 -0.740979 1.545727 0.007950 -0.000834 -35633.400000 1 0 0
-16.915306 2.222252 -9.029579 19.302831 -0.130627 2.057580 0.050513 -0.012857 668142.000000 1 0 0
-9.160506 8.303352 -8.931879 15.252508 -0.736356 2.196417 0.004460 0.000082 -1883610.000000 1 0 0
-17.727006 4.574452 -2.694679 18.504963 -0.252541 1.716935 0.038025 -0.000798 1080990.000000 1 0 0
-13.579606 5.728652 -4.491479 15.407678 -0.399205 1.866600 0.008455 0.000507 -1386490.000000 1 0 0
-12.357906 9.558052 3.294021 15.966364 -0.658332 1.362994 -0.002728 -0.005337 1260950.000000 1 0 0
-17.573206 2.454552 -4.181479 18.229843 -0.138778 1.802232 0.036780 -0.004003 1044440.000000 1 0 0
-11.304906 1.371152 -12.668879 17.034714 -0.120699 2.409399 0.018073 -0.004327 -251595.000000 1 0 0
-11.330706 11.914852 3.489821 16.808553 -0.810522 1.361653 0.000400 -0.006874 -186825.000000 1 0 0
-16.451806 12.907352 -4.203479 21.329109 -0.665252 1.769172 0.065087 -0.018491 -399350.000000 1 0 0
-11.089406 3.994852 -4.456079 12.601207 -0.345768 1.932238 0.000697 -0.002867 -420185.000000 1 0 0
-11.250806 14.863352 -8.787879 20.608898 -0.922862 2.011319 0.051041 -0.015955 415880.000000 1 0 0
-15.562206 6.957952 -0.080279 17.047047 -0.420444 1.575506 0.015001 0.000925 -1560060.000000 1 0 0
-12.820706 8.234852 -4.039079 15.763802 -0.570949 1.829911 0.004244 -0.003340 755027.000000 1 0 0
-19.299406 1.807452 -6.032679 20.300916 -0.093381 1.872516 0.081557 -0.017765 66703.100000 1 0 0
-12.784306 9.917952 -8.824379 18.430245 -0.659804 2.070082 0.016785 -0.012433 916483.000000 1 0 0
-16.561206 10.862252 -0.942079 19.828000 -0.580501 1.618327 0.019327 -0.010785 156108.000000 1 0 0
-10.679306 6.616852 -14.588479 19.252377 -0.554704 2.430654 0.033925 -0.013094 -394623.000000 1 0 0
-13.833506 12.805452 -4.239379 19.321434 -0.746825 1.792009 0.034848 -0.011346 134559.000000 1 0 0
-18.042106 7.641252 -0.357879 19.596796 -0.400619 1.589059 0.058141 -0.004848 516371.000000 1 0 0
-12.822706 6.455952 -2.088779 14.507381 -0.466426 1.715279 -0.000051 -0.000249 608544.000000 1 0 0
-13.806206 8.341052 -10.548079 19.272946 -0.543467 2.149931 0.009026 -0.006671 -942747.000000 1 0 0
-15.046106 1.302052 -0.925979 15.130700 -0.086322 1.632033 0.007839 -0.002829 -793678.000000 1 0 0
-13.454606 2.631152 -2.479779 13.931931 -0.193120 1.749742 0.005165 -0.003230 -505518.000000 1 0 0
-11.311306 9.216052 -10.866379 18.192291 -0.683679 2.210935 0.008677 -0.006109 477633.000000 1 0 0
-15.364206 4.127352 -7.993879 17.804381 -0.262438 2.036424 0.014025 -0.003469 786165.000000 1 0 0
-18.570006 10.562252 4.540621 21.840869 -0.517147 1.361373 0.088198 -0.037147 404767.000000 1 0 0
-15.330506 6.166652 -6.273779 17.675190 -0.382442 1.933655 0.018993 0.000922 555011.000000 1 0 0
-7.733506 11.258452 -13.036479 18.881463 -0.968912 2.332891 0.001424 -0.000345 -1917840.000000 1 0 0
-16.920506 9.057452 -2.749679 19.388185 -0.491483 1.713099 0.039615 -0.006149 234108.000000 1 0 0
-20.656406 -1.024348 -4.761979 21.222932 0.049549 1.797102 0.083328 -0.025526 -79775.900000 1 0 0
-15.492806 4.370252 4.125421 16.617619 -0.274939 1.319917 0.014315 -0.001447 127982.000000 1 0 0
-7.093506 12.448152 -9.383679 17.126814 -1.052845 2.150641 0.012954 -0.005777 -664312.000000 1 0 0
-17.026706 1.568752 5.881921 18.082221 -0.091875 1.239481 0.040523 -0.014381 422353.000000 1 0 0
-10.543506 14.287052 -3.145879 18.032802 -0.935035 1.746147 0.032652 -0.006546 -691599.000000 1 0 0
-9.943106 8.369352 -12.915079 18.322409 -0.699670 2.353049 -0.000487 -0.007991 200606.000000 1 0 0
-13.840006 11.654752 2.773421 18.304941 -0.699893 1.418698 0.010371 -0.006842 -713202.000000 1 0 0
-17.075606 6.511652 1.961121 18.379987 -0.364319 1.463894 0.024326 -0.001357 652040.000000 1 0 0
-9.424306 13.042752 -8.295279 18.103662 -0.945082 2.046777 0.029818 -0.014830 -1487980.000000 1 0 0
-5.653806 9.818452 -12.935479 17.195759 -1.048335 2.422264 -0.004081 0.000253 -494211.000000 1 0 0
-15.931506 1.813652 3.163821 16.343561 -0.113353 1.375984 0.010243 -0.003136 -478363.000000 1 0 0
-18.673306 -4.859548 5.052021 19.945689 0.254593 1.314718 0.076323 -0.013204 403891.000000 1 0 0
-5.416906 14.342052 -9.247479 17.903999 -1.209666 2.113559 0.009041 -0.002028 -679362.000000 1 0 0
-15.479206 -0.919548 -6.867579 16.959217 0.059336 1.987717 0.018755 -0.007416 884554.000000 1 0 0
-9.039706 10.785652 -9.515079 16.987740 -0.873238 2.165320 0.005012 -0.007875 157396.000000 1 0 0
-16.736606 1.146352 -6.099879 17.850396 -0.068387 1.919545 0.019569 -0.005121 -733539.000000 1 0 0
-11.258206 8.498352 -1.371179 14.172132 -0.646603 1.667700 0.000305 -0.003340 -648467.000000 1 0 0
-10.750106 10.809552 -12.890479 19.964359 -0.788155 2.272703 0.026590 -0.011382 -404813.000000 1 0 0
-14.157506 11.667752 -10.191679 20.986704 -0.689287 2.077875 0.057376 -0.022269 413764.000000 1 0 0
-13.244906 5.531152 -7.739979 16.307313 -0.395591 2.065343 0.009176 0.002785 -708368.000000 1 0 0
-8.978306 15.286252 -4.885779 18.388864 -1.039734 1.839718 0.028991 -0.009627 -109114.000000 1 0 0
-8.707906 6.049152 -13.010979 16.784083 -0.607142 2.457824 0.004401 -0.003200 -1083590.000000 1 0 0
-16.561006 7.356152 4.246021 18.612055 -0.418008 1.340637 0.025040 -0.005480 85012.500000 1 0 0
-12.706706 5.304652 -10.208679 17.141087 -0.395474 2.208769 0.009032 -0.003079 419298.000000 1 0 0
-12.482506 8.963452 -13.157079 20.230303 -0.622758 2.278861 0.052603 -0.022995 -1200500.000000 1 0 0
-10.825506 5.061952 -8.557579 14.698541 -0.437389 2.192236 0.003342 -0.000803 34683.200000 1 0 0
-17.531406 -4.622248 -2.734179 18.335515 0.257789 1.720474 0.025571 -0.010014 -124302.000000 1 0 0
-9.065506 13.081652 -10.868879 19.272923 -0.964788 2.169952 0.036576 -0.010961 56760.500000 1 0 0
-15.163306 6.148552 6.091821 17.459692 -0.385229 1.214391 0.021088 -0.007095 -432476.000000 1 0 0
-16.375806 -3.149648 -4.579579 17.293347 0.190015 1.838811 0.021778 -0.008706 -896469.000000 1 0 0
-11.238706 -1.213748 -12.633379 16.952403 0.107580 2.411671 0.010765 -0.003713 31268.500000 1 0 0
-15.489006 6.649052 -8.697879 18.967665 -0.405486 2.047174 0.011637 0.000895 39467.000000 1 0 0
-14.825206 9.197452 1.143621 17.483928 -0.555279 1.505340 0.011787 -0.009714 -219707.000000 1 0 0
-19.636506 5.220752 7.757221 21.749094 -0.259858 1.206097 0.097828 -0.039905 1197130.000000 1 0 0
-16.274306 0.159452 0.971521 16.304059 -0.009797 1.511173 0.023522 -0.004626 -1418440.000000 1 0 0
-17.635006 3.682852 7.055421 19.347760 -0.205879 1.197525 0.048721 -0.016706 860271.000000 1 0 0
-15.464006 3.952352 -1.403679 16.022699 -0.250227 1.658514 0.013304 -0.001284 -1242680.000000 1 0 0
-10.997606 13.133252 0.437421 17.135372 -0.873671 1.545266 0.014046 -0.009189 116645.000000 1 0 0
-13.517406 3.235452 0.091121 13.899523 -0.234935 1.564241 0.004054 -0.000460 -293314.000000 1 0 0
-15.071306 0.162552 -4.382179 15.696312 -0.010785 1.853742 0.014299 -0.004847 -33139.400000 1 0 0
-19.072606 7.033752 3.556921 20.637094 -0.353314 1.397576 0.056889 -0.011012 -164339.000000 1 0 0
-14.138606 1.307552 -6.490579 15.612095 -0.092219 1.999553 0.011675 -0.000443 194012.000000 1 0 0
-14.371206 12.087052 5.197221 19.484340 -0.699281 1.300789 0.016009 -0.013836 487867.000000 1 0 0
17.792294 5.561852 6.091821 19.611481 0.302975 1.254946 0.089000 -0.023420 140147.000000 1 0 0
18.620794 7.547652 -0.373779 20.095788 0.385097 1.589397 0.044001 -0.008995 525502.000000 1 0 0
16.809894 5.112852 8.317521 19.439520 0.295266 1.128665 0.106581 -0.024184 387294.000000 1 0 0
11.574894 12.444452 10.820621 20.147664 0.821585 1.003842 0.037662 -0.012533 482449.000000 1 0 0
-2.324106 16.253852 -0.539479 16.428031 -1.428771 1.603641 0.009590 -0.001018 -121985.000000 1 0 0
15.002594 12.792852 3.164121 19.968639 0.706065 1.411671 0.074269 -0.015324 126958.000000 1 0 0
13.366394 11.673352 6.566921 18.922264 0.717887 1.216375 0.046922 -0.016593 480311.000000 1 0 0
-0.754806 15.803952 8.555321 17.986888 -1.523072 1.075102 0.003177 -0.005453 -462892.000000 1 0 0
0.638894 12.981552 9.344521 16.007777 1.521621 0.947458 0.000550 0.001141 -1211430.000000 1 0 0
0.615894 15.492952 -3.852279 15.976574 1.531064 1.814317 0.007161 -0.006288 626556.000000 1 0 0
5.181494 10.276552 13.493421 17.734932 1.103790 0.706192 0.019607 -0.011355 22761.200000 1 0 0
-1.466606 16.565152 -2.867579 16.875372 -1.482491 1.741552 0.012586 0.002575 -513635.000000 1 0 0
8.497594 10.207352 3.259721 13.675705 0.876552 1.330121 0.011761 -0.004860 227500.000000 1 0 0
12.583194 13.653952 -4.922179 19.209243 0.826186 1.829927 0.113857 -0.027498 526350.000000 1 0 0
2.311994 11.663652 7.736721 14.186012 1.375111 0.993958 0.002790 0.003115 1164030.000000 1 0 0
-0.474806 14.872252 -8.819479 17.297183 -1.538882 2.105841 0.011180 -0.000097 -1443630.000000 1 0 0
2.248394 15.878352 0.260421 16.038864 1.430130 1.554559 0.010128 -0.013238 -964332.000000 1 0 0
1.839894 13.407052 5.218821 14.504149 1.434415 1.202726 0.001432 -0.000066 -973503.000000 1 0 0
17.483594 9.152552 -2.016779 19.837153 0.482265 1.672639 0.020765 -0.003358 390847.000000 1 0 0
-7.364006 14.866952 7.186021 18.080203 -1.110894 1.162057 0.018859 -0.018268 -843257.000000 1 0 0
8.472294 15.775652 -0.244879 17.908403 1.077951 1.584471 0.037391 -0.026422 -481863.000000 1 0 0
15.606394 10.480552 2.022821 18.907493 0.591379 1.463606 0.050981 -0.010210 331327.000000 1 0 0
14.291094 7.513552 8.745121 18.362079 0.484035 1.074400 0.065862 -0.016301 -990047.000000 1 0 0
4.204094 18.267552 -1.943779 18.845586 1.344595 1.674122 0.023980 -0.029617 -1323610.000000 1 0 0
-0.622106 17.536952 -5.029979 18.254654 -1.535337 1.849953 0.020902 -0.002002 502527.000000 1 0 0
1.218394 13.679452 -0.674079 13.750137 1.481963 1.619839 0.006381 -0.008590 640289.000000 1 0 0
10.293094 14.788452 4.088521 18.475987 0.962745 1.347661 0.040603 -0.018600 608394.000000 1 0 0
-1.863306 15.343552 -5.087879 16.272154 -1.449949 1.888803 0.010778 -0.001718 368686.000000 1 0 0
15.231594 8.764952 -6.120779 18.608862 0.522169 1.905953 0.055201 -0.013651 407016.000000 1 0 0
-2.394806 18.442852 0.797921 18.614794 -1.441669 1.527918 0.024009 -0.008967 -943330.000000 1 0 0
-3.808306 19.284752 3.298721 19.932045 -1.375827 1.404533 0.031221 -0.013640 15753.700000 1 0 0
1.822494 17.602252 -2.717079 17.903722 1.467626 1.723146 0.010551 -0.011233 78684.600000 1 0 0
2.824094 12.259452 3.229321 12.988386 1.344386 1.319529 0.002471 -0.001868 731931.000000 1 0 0
-2.649006 16.092552 1.869521 16.415924 -1.407649 1.456664 0.017111 -0.003873 -644770.000000 1 0 0
11.757494 12.770952 -2.634779 17.557845 0.826692 1.721428 0.060595 -0.013201 366534.000000 1 0 0
7.090394 11.721052 4.666421 14.471773 1.026761 1.242480 0.014394 -0.005866 -66888.100000 1 0 0
6.973094 15.757452 1.907421 17.336654 1.154175 1.460551 0.016064 -0.020600 -176780.000000 1 0 0
5.516694 12.291052 10.132521 16.857397 1.148909 0.925954 0.013666 0.003917 -612520.000000 1 0 0
-1.380806 14.111252 3.087721 14.510964 -1.473255 1.356372 0.007159 -0.002379 -1121400.000000 1 0 0
4.489094 16.119852 1.478121 16.798405 1.299196 1.482691 0.008481 -0.021408 -2389590.000000 1 0 0
7.369094 13.318552 11.778521 19.246322 1.065427 0.912224 0.029470 -0.007745 228255.000000 1 0 0
0.396694 17.222552 -9.506479 19.676046 1.547767 2.075045 0.011625 -0.000765 183498.000000 1 0 0
9.793294 9.776452 15.359021 20.673343 0.784538 0.733347 0.057411 -0.021606 6415.580000 1 0 0
13.506594 7.438752 -0.101579 15.419903 0.503419 1.577384 0.015392 -0.000955 793.841000 1 0 0
12.478794 13.572452 -0.199579 18.438318 0.827355 1.581621 0.071630 -0.020101 694683.000000 1 0 0
9.287094 12.551652 3.441721 15.988731 0.933784 1.353839 0.021143 -0.007075 527050.000000 1 0 0
-0.886806 12.778752 0.700321 12.828615 -1.501510 1.516179 0.005389 -0.003355 -388823.000000 1 0 0
16.017394 7.345552 -0.882679 17.643502 0.429981 1.620846 0.022843 -0.004459 -350111.000000 1 0 0
-4.366306 18.575652 -2.432879 19.236381 -1.339932 1.697609 0.030455 -0.000385 65469.000000 1 0 0
11.550494 9.250452 -3.274079 15.156001 0.675272 1.788538 0.031378 -0.007080 11475.200000 1 0 0
14.743394 9.803952 7.727121 19.318217 0.586829 1.159289 0.061294 -0.022007 -162574.000000 1 0 0
4.407394 13.700652 4.643321 15.122612 1.259559 1.258710 0.013074 -0.004161 -1251540.000000 1 0 0
2.162794 15.886652 5.583321 16.977540 1.435489 1.235695 0.009806 -0.005774 218519.000000 1 0 0
6.036394 18.343852 5.518121 20.084437 1.252889 1.292471 0.031057 -0.025230 -606126.000000 1 0 0
10.569294 17.044052 -0.880979 20.074506 1.015717 1.614696 0.099573 -0.036141 -1024480.000000 1 0 0
9.954294 13.498052 -4.475379 17.358409 0.935368 1.831564 0.080316 -0.021094 755833.000000 1 0 0
16.489894 8.013452 2.298521 18.477424 0.452354 1.446077 0.017563 -0.011940 -440000.000000 1 0 0
3.863694 14.068752 -0.481979 14.597610 1.302775 1.603820 0.005031 -0.011627 -954169.000000 1 0 0
5.522794 13.090452 -2.375779 14.405051 1.171559 1.736480 0.008053 -0.010620 -808807.000000 1 0 0
-6.352306 16.942252 -2.952379 18.333255 -1.212079 1.732540 0.022559 0.004171 -430691.000000 1 0 0
18.109794 9.966852 2.543621 20.827212 0.503117 1.448361 0.065896 -0.022265 -847387.000000 1 0 0
7.994394 12.954752 9.314121 17.846254 1.017897 1.021709 0.024648 -0.006645 916194.000000 1 0 0
-2.692706 15.685852 6.749321 17.287277 -1.400789 1.169707 0.006182 -0.004879 676628.000000 1 0 0
11.364194 16.032352 6.123821 20.583546 0.954169 1.268712 0.056391 -0.019534 11374.800000 1 0 0
13.497994 11.933752 1.350621 18.067497 0.723968 1.495972 0.057481 -0.014662 -124403.000000 1 0 0
17.563494 7.692052 -5.651079 19.989464 0.412794 1.857407 0.038894 0.005019 560182.000000 1 0 0
9.445594 9.351652 8.017621 15.522721 0.780401 1.028028 0.011480 -0.001372 -714766.000000 1 0 0
-2.244506 14.176452 -2.082479 14.503321 -1.413773 1.714881 0.007982 -0.001282 410581.000000 1 0 0
10.900194 11.623252 0.738521 15.951790 0.817490 1.524483 0.031209 -0.007857 -57057.700000 1 0 0
11.677794 9.808952 -0.590279 15.262202 0.698640 1.609482 0.026976 -0.003990 -287560.000000 1 0 0
-0.368206 16.076552 11.179621 19.585071 -1.547897 0.963288 0.010572 -0.004452 -203792.000000 1 0 0
2.267294 19.986252 -1.705579 20.186626 1.457837 1.655388 0.032389 -0.025949 -414414.000000 1 0 0
9.169194 14.311752 1.679921 17.079885 1.001004 1.472280 0.027413 -0.019323 -631300.000000 1 0 0
8.439894 11.610752 -5.142279 15.247439 0.942242 1.914796 0.030285 -0.010622 -519750.000000 1 0 0
10.521494 10.219552 10.195021 17.862797 0.770841 0.963389 0.016389 -0.007012 620739.000000 1 0 0
-5.190206 15.705352 5.798421 17.527635 -1.251622 1.233628 0.004328 -0.007222 1371760.000000 1 0 0
14.366294 9.080652 -1.876679 17.098846 0.563675 1.680773 0.038110 -0.004179 -409545.000000 1 0 0
12.182994 9.549752 7.003221 16.990238 0.664821 1.145939 0.025637 -0.009989 -1080950.000000 1 0 0
3.146394 12.962352 9.626121 16.449455 1.332669 0.945677 0.005460 -0.001496 -878232.000000 1 0 0
8.401894 12.709052 -2.632479 15.460975 0.986661 1.741896 0.033003 -0.009333 -1798320.000000 1 0 0
9.308494 16.945552 1.980121 19.435037 1.068477 1.468735 0.030471 -0.025156 -228096.000000 1 0 0
9.627094 14.480252 -7.538179 18.952118 0.984057 1.979858 0.096472 -0.016605 390963.000000 1 0 0
6.335094 11.481652 7.200921 14.960448 1.066604 1.068624 0.008295 0.001699 -974167.000000 1 0 0
5.273394 16.852552 -5.653879 18.541400 1.267535 1.880664 0.044914 -0.012741 -1302970.000000 1 0 0
-4.318906 17.226952 -4.752479 18.384963 -1.325153 1.832264 0.021607 0.001574 252496.000000 1 0 0
-0.173706 18.327152 -0.518779 18.335316 -1.561319 1.599094 0.019421 -0.019295 -528695.000000 1 0 0
6.445494 15.560852 -2.819979 17.077376 1.178098 1.736686 0.026387 -0.015500 580691.000000 1 0 0
-0.804606 20.617752 0.620421 20.642771 -1.531791 1.540737 0.028973 -0.015758 63522.400000 1 0 0
-1.485006 18.813852 4.170821 19.327752 -1.492028 1.353291 0.013615 -0.007326 -1648270.000000 1 0 0
7.168294 13.745552 -4.404179 16.115875 1.090098 1.847600 0.030967 -0.010389 -272982.000000 1 0 0
-1.149906 12.002652 7.612321 14.259501 -1.475283 1.007659 0.000416 0.000902 651019.000000 1 0 0
7.627494 10.986752 10.906121 17.257776 0.963943 0.886724 0.014997 -0.000708 127615.000000 1 0 0
1.352394 15.936252 -7.460879 17.648167 1.486136 2.007281 0.007905 -0.003949 201063.000000 1 0 0
8.794694 7.301052 14.885521 18.767811 0.692866 0.654847 0.043877 -0.007525 542527.000000 1 0 0
11.341794 11.336652 -4.886479 16.764058 0.785171 1.866576 0.071734 -0.013803 -336730.000000 1 0 0
-3.395506 16.979052 4.408021 17.867521 -1.373418 1.321517 0.011713 -0.001987 -683757.000000 1 0 0
3.857094 15.323052 -6.918379 17.249262 1.324201 1.983495 0.026993 -0.010984 -1376150.000000 1 0 0
-4.596506 14.021952 9.413021 17.502799 -1.254027 1.002970 0.022514 -0.012292 85179.800000 1 0 0
6.090794 17.750352 0.519621 18.773459 1.240249 1.543114 0.016554 -0.030612 -126238.000000 1 0 0
9.735294 10.764552 -2.122379 14.668197 0.835564 1.715999 0.037679 -0.008243 -502061.000000 1 0 0
7.245494 18.026752 -2.590979 19.600360 1.188627 1.703375 0.043686 -0.022482 -48828.000000 1 0 0
3.539094 10.442752 10.447521 15.189698 1.244040 0.812338 0.003067 0.003916 1035690.000000 1 0 0
-0.046706 18.530252 2.012121 18.639234 -1.568276 1.462635 0.016293 -0.014753 229700.000000 1 0 0
-1.122406 17.009552 -7.497779 18.622603 -1.504905 1.985170 0.025921 -0.001675 -326620.000000 1 0 0
9.985794 8.720552 13.044521 18.599022 0.717864 0.793499 0.037180 -0.015938 277095.000000 1 0 0
3.625594 11.490652 5.430321 13.216217 1.265158 1.147374 0.004377 -0.001873 623056.000000 1 0 0
13.136294 13.929052 7.833721 20.686901 0.814680 1.182426 0.057935 -0.026954 -105064.000000 1 0 0
-0.753406 17.440452 6.695721 18.696782 -1.527624 1.204541 0.010953 -0.004817 -409149.000000 1 0 0
12.142994 13.665152 5.544021 19.103006 0.844310 1.276343 0.046291 -0.014923 -255494.000000 1 0 0
4.823594 14.435852 -4.562679 15.889585 1.248320 1.862046 0.018615 -0.012424 -906094.000000 1 0 0
3.764194 17.635252 4.725421 18.641375 1.360505 1.314509 0.019166 -0.012323 -1400780.000000 1 0 0
7.012794 11.896752 2.018521 13.956590 1.038154 1.425659 0.015867 -0.005359 632799.000000 1 0 0
6.346194 8.861752 11.732821 16.014490 0.949325 0.748607 0.010304 -0.001729 644349.000000 1 0 0
-5.521806 14.838452 1.758821 15.929954 -1.214546 1.460161 0.010567 0.005401 358651.000000 1 0 0
6.704194 13.835952 6.064421 16.527461 1.119586 1.195090 0.015903 -0.005373 -820544.000000 1 0 0
5.681294 15.849452 4.919121 17.540809 1.226610 1.286545 0.012328 -0.016224 294716.000000 1 0 0
1.157694 17.995752 4.290921 18.536433 1.506553 1.337192 0.015314 -0.012038 1529370.000000 1 0 0
7.163694 18.103452 -7.072579 20.714122 1.193995 1.919242 0.056512 -0.014911 445628.000000 1 0 0
-2.542906 18.677452 -6.161079 19.831099 -1.435480 1.886702 0.026074 0.000910 -1561280.000000 1 0 0
13.525694 9.996652 -4.474679 17.404028 0.636480 1.830823 0.050562 -0.011234 -1692280.000000 1 0 0
-1.567006 17.955452 9.872721 20.550532 -1.483745 1.069672 0.008740 -0.009387 -276401.000000 1 0 0
3.369094 11.813852 -1.583779 12.386535 1.292989 1.699010 0.007684 -0.010278 523606.000000 1 0 0
4.071994 14.050352 -10.904979 18.245879 1.288710 2.211386 0.022351 -0.014909 8871.250000 1 0 0
11.536594 13.505652 2.298121 17.910248 0.863866 1.442128 0.048143 -0.016429 763967.000000 1 0 0
15.812594 6.455852 -7.124779 18.506178 0.387618 1.965998 0.022198 -0.005275 175744.000000 1 0 0
2.450294 16.127752 2.935621 16.574866 1.420019 1.392744 0.008892 -0.011459 -163852.000000 1 0 0
13.458394 10.697052 3.575021 17.559500 0.671577 1.365768 0.040590 -0.008218 -663402.000000 1 0 0
-5.073906 19.435252 -5.823679 20.913842 -1.315429 1.852987 0.022888 -0.009885 120726.000000 1 0 0
5.381794 12.076152 0.052221 13.221190 1.151562 1.566847 0.007022 -0.009062 275110.000000 1 0 0
4.404094 15.483252 9.557321 18.720831 1.293673 1.035009 0.014107 -0.003269 29672.600000 1 0 0
7.637394 9.531452 13.896321 18.500975 0.895273 0.721050 0.023545 -0.014637 -1117110.000000 1 0 0
-5.158906 13.586452 6.970721 16.118217 -1.207903 1.123561 0.007868 -0.006789 -1658900.000000 1 0 0
-4.670206 17.060552 0.554021 17.696898 -1.303599 1.539485 0.020477 0.000052 -259469.000000 1 0 0
-0.695506 16.477252 3.560721 16.871938 -1.528611 1.358153 0.012460 -0.008468 -1630300.000000 1 0 0
7.717694 16.879052 -4.854279 19.184087 1.141942 1.826614 0.048277 -0.020588 242190.000000 1 0 0
3.032094 16.285952 -4.643779 17.204374 1.386725 1.844105 0.008115 -0.012447 -917696.000000 1 0 0
9.382594 14.542352 7.847621 19.002584 0.997809 1.145076 0.023827 -0.011405 -105601.000000 1 0 0
12.785894 10.983352 9.063921 19.138123 0.709708 1.077416 0.040992 -0.019191 557056.000000 1 0 0
3.885594 12.499352 12.101821 17.826545 1.269403 0.824580 0.015600 -0.002452 405813.000000 1 0 0
-3.381306 19.193052 5.870521 20.353611 -1.396412 1.278213 0.026885 -0.005673 125217.000000 1 0 0
-2.740106 15.695752 10.166021 18.900074 -1.397962 1.002873 0.010271 -0.012068 -497068.000000 1 0 0
1.985194 14.308952 7.653221 16.348054 1.432938 1.083609 0.008248 -0.000815 -674807.000000 1 0 0
3.985794 17.239152 7.802121 19.337735 1.343583 1.155494 0.013067 -0.015174 604099.000000 1 0 0
-2.076606 13.404152 9.243421 16.414153 -1.417096 0.972619 0.002138 -0.005296 -715440.000000 1 0 0
5.794994 17.670352 3.142221 18.859927 1.253898 1.403407 0.013252 -0.026815 604916.000000 1 0 0
7.180594 15.433752 -6.869079 18.356085 1.135331 1.954344 0.035510 -0.010030 -301664.000000 1 0 0
10.922694 7.742152 9.461221 16.393927 0.616617 0.955602 0.013165 -0.006753 686376.000000 1 0 0
9.027394 16.175152 -2.774479 18.730379 1.061754 1.719471 0.071501 -0.028675 -622539.000000 1 0 0
14.522294 11.341652 -6.402479 19.506968 0.663037 1.905210 0.090181 -0.015580 353208.000000 1 0 0
10.987494 6.534452 16.192821 20.630839 0.536526 0.668287 0.082815 -0.034539 399629.000000 1 0 0
8.412194 8.560552 10.135621 15.709197 0.794139 0.869507 0.011323 -0.004225 929473.000000 1 0 0
16.386294 9.547352 4.393321 19.466993 0.527559 1.343155 0.053918 -0.018025 -167442.000000 1 0 0
-3.408206 14.277852 4.605221 15.384440 -1.336475 1.266793 0.001634 -0.001715 -578342.000000 1 0 0
4.544694 15.023852 12.398921 20.002590 1.277049 0.902225 0.020356 -0.002329 -1264500.000000 1 0 0
15.948094 10.593152 -4.396079 19.643881 0.586312 1.796496 0.058885 -0.020162 -100507.000000 1 0 0
14.746594 13.846352 5.783921 21.038945 0.753924 1.292295 0.076670 -0.023848 -991464.000000 1 0 0
6.098794 9.667652 9.255721 14.708064 1.008005 0.890150 0.004927 0.003491 704410.000000 1 0 0
10.518994 12.262252 8.470221 18.241620 0.861771 1.087913 0.027978 -0.009870 -281276.000000 1 0 0
7.934194 11.564652 -0.362379 14.029395 0.969479 1.596629 0.013302 -0.006882 369412.000000 1 0 0
7.430594 13.531052 -8.719379 17.729373 1.068605 2.084957 0.047905 -0.012920 -746348.000000 1 0 0
2.612094 15.275952 -2.278579 15.664280 1.401440 1.716778 0.008742 -0.012114 282234.000000 1 0 0
12.141394 13.890552 -7.750879 20.010922 0.852490 1.968533 0.124039 -0.026396 -825829.000000 1 0 0
-8.273406 14.536752 9.667821 19.319243 -1.053379 1.046707 0.044576 -0.034053 250529.000000 1 0 0
11.516994 9.548352 2.270121 15.131610 0.692215 1.420203 0.032133 -0.006762 -1989820.000000 1 0 0
12.077394 8.728852 4.591121 15.592776 0.625827 1.271928 0.023313 -0.007558 520969.000000 1 0 0
14.095694 7.999352 6.082021 17.310956 0.516182 1.211795 0.035356 -0.014266 -2406640.000000 1 0 0
16.266194 7.451852 7.174821 19.276857 0.429585 1.189420 0.089450 -0.025449 -479078.000000 1 0 0
13.592494 8.397952 2.351821 16.149691 0.553432 1.424650 0.028083 -0.008735 -3030790.000000 1 0 0
-4.404406 17.268752 -7.262579 19.244574 -1.321070 1.957765 0.019511 -0.011136 11379.700000 1 0 0
3.169894 19.429452 -4.043879 20.097382 1.409072 1.773394 0.028061 -0.017769 420554.000000 1 0 0
-0.169306 14.873452 6.201121 16.115276 -1.559414 1.175808 0.000583 -0.003208 116628.000000 1 0 0
6.507094 16.292952 8.393721 19.448833 1.190824 1.124553 0.029149 -0.009160 1020710.000000 1 0 0
12.798394 15.191252 -2.261479 19.992181 0.870682 1.684157 0.121959 -0.029668 723636.000000 1 0 0
12.794394 15.678752 3.962321 20.620857 0.886355 1.377443 0.072001 -0.018607 200754.000000 1 0 0
2.793194 18.158952 1.332021 18.420742 1.418173 1.498422 0.014043 -0.019559 -568466.000000 1 0 0
10.318794 14.378352 -1.355779 17.749722 0.948315 1.647254 0.064852 -0.018132 -240435.000000 1 0 0
-6.502606 15.718052 -0.533679 17.018397 -1.178533 1.602160 0.012105 0.003366 -539659.000000 1 0 0
-4.077606 16.009752 -2.416679 16.696687 -1.321404 1.716047 0.016637 0.003586 -670987.000000 1 0 0
-6.948106 17.124252 1.706121 18.558745 -1.185346 1.478736 0.016490 0.006488 -83675.300000 1 0 0
-0.018006 19.289252 -6.697079 20.418776 -1.569863 1.904968 0.034264 -0.007884 714808.000000 1 0 0
4.659794 14.804052 7.007721 17.028851 1.265850 1.146675 0.015155 -0.005507 -1559070.000000 1 0 0
8.637994 12.280052 6.795321 16.480018 0.957781 1.145779 0.019037 -0.006679 -1354120.000000 1 0 0
-7.751906 17.379152 -5.549079 19.822191 -1.151235 1.854531 0.045302 -0.017806 82126.600000 1 0 0
-7.945306 17.762952 -1.200479 19.495935 -1.150193 1.632411 0.040992 -0.002560 -113457.000000 1 0 0
-13.786406 -9.311548 9.177121 18.999723 0.594035 1.066703 0.058514 -0.025024 377102.000000 1 0 0
-12.658206 -12.990448 7.671621 19.693545 0.798351 1.170653 0.063517 -0.015789 -80228.300000 1 0 0
-3.829306 -14.972548 12.552521 19.909962 1.320408 0.888645 0.025725 -0.013079 -22195.800000 1 0 0
-1.863706 -14.147248 15.129421 20.797053 1.439814 0.756156 0.043030 -0.003148 -521996.000000 1 0 0
-7.112006 -13.570048 12.749521 19.931812 1.088058 0.876745 0.043909 -0.016257 -740301.000000 1 0 0
-9.866706 -11.651948 9.000721 17.723791 0.868171 1.038129 0.037384 -0.013770 175391.000000 1 0 0
-10.460206 -10.705048 11.357521 18.788487 0.796966 0.921666 0.063007 -0.024177 196908.000000 1 0 0
-5.867806 -12.292448 10.831921 17.403044 1.125432 0.898971 0.025008 -0.004466 896494.000000 1 0 0
-12.430806 -10.487348 7.369121 17.855346 0.700801 1.145367 0.030850 -0.012650 -205217.000000 1 0 0
-7.433006 -11.011448 12.594721 18.306517 0.977029 0.812079 0.033577 -0.019236 422442.000000 1 0 0
-14.789606 -11.591748 7.400921 20.195908 0.664770 1.195599 0.060724 -0.007314 233478.000000 1 0 0
-11.144106 -9.261548 9.244721 17.188143 0.693402 1.002906 0.032405 -0.015225 -873175.000000 1 0 0
-5.131006 -12.125648 13.284721 18.704074 1.170491 0.780931 0.027246 -0.008730 -594334.000000 1 0 0
3.966494 -12.367248 14.673421 19.595693 -1.260435 0.724534 -0.006910 -0.002679 -505123.000000 1 0 0
6.608794 -12.712448 14.461521 20.357261 -1.091381 0.780749 0.017824 0.004015 114276.000000 1 0 0
6.534494 -8.652748 16.141821 19.445515 -0.923980 0.591500 0.004595 -0.003419 -924918.000000 1 0 0
0.712194 -1.722148 14.559921 14.678703 -1.178664 0.127303 0.006933 -0.003848 -1190800.000000 1 0 0
-0.179306 -6.295048 15.746621 16.959241 1.542320 0.380449 0.010198 -0.007912 -35606.200000 1 0 0
-1.472206 -4.692748 18.372921 19.019819 1.266801 0.261558 0.028498 -0.026121 -43046.700000 1 0 0
-5.279906 12.558652 12.788921 18.685653 -1.172811 0.816982 0.027093 -0.018877 -374048.000000 1 0 0
-3.938106 8.920252 11.748621 15.267929 -1.155051 0.692744 -0.003558 0.004891 -445218.000000 1 0 0
-0.680606 -3.987748 15.144121 15.675132 1.401751 0.261033 0.007140 -0.007569 150358.000000 1 0 0
-4.467306 9.203052 14.198321 17.499866 -1.118884 0.624358 0.001934 0.000068 270836.000000 1 0 0
-13.462106 -2.797748 16.731121 21.656087 0.204907 0.687897 0.058516 -0.006100 -547926.000000 1 0 0
-0.312106 0.792252 17.249721 17.270725 -1.195518 0.049324 0.010978 -0.002791 -1608220.000000 1 0 0
-3.383806 -7.345548 15.393721 17.388901 1.139112 0.483741 0.019712 -0.014002 358478.000000 1 0 0
-7.387806 5.542152 12.550421 15.582304 -0.643613 0.634399 -0.007746 0.000626 -1109580.000000 1 0 0
-9.887006 9.971452 13.391921 19.404285 -0.789650 0.809096 0.025151 -0.019222 -443603.000000 1 0 0
-5.572706 2.192052 11.144421 12.651414 -0.374765 0.493071 -0.000652 -0.000598 -541886.000000 1 0 0
-7.087106 -7.520448 16.733821 19.667358 0.815055 0.553210 0.031570 -0.021872 -106849.000000 1 0 0
-4.753206 3.081252 18.706221 19.545071 -0.575142 0.294038 0.016355 0.003865 -221764.000000 1 0 0
1.072794 -8.325548 16.523621 18.533637 -1.442647 0.470045 0.015935 -0.009751 506909.000000 1 0 0
-15.085806 -3.672848 13.641121 20.667645 0.238818 0.849947 0.078042 -0.028008 -338731.000000 1 0 0
-14.245906 2.239352 13.023621 19.431296 -0.155917 0.836265 0.027933 -0.005961 -800638.000000 1 0 0
-5.535006 0.910352 16.170021 17.115333 -0.163012 0.333910 0.013970 -0.002411 758291.000000 1 0 0
4.336894 5.771552 15.072321 16.712101 0.926383 0.446693 0.009638 -0.000956 -349442.000000 1 0 0
-0.991206 -12.026148 13.922521 18.424096 1.488561 0.714121 0.004485 -0.006018 -290297.000000 1 0 0
-5.818106 -4.057648 16.750621 18.190607 0.608991 0.400570 0.026350 -0.016140 -65597.900000 1 0 0
-12.807906 -1.573148 9.922121 16.277768 0.122214 0.915303 0.011925 -0.002882 -573587.000000 1 0 0
-14.482806 10.403852 10.445421 20.666365 -0.622941 1.040915 0.022866 -0.008220 590596.000000 1 0 0
-3.600706 -3.272048 17.726321 18.381889 0.737614 0.267872 0.028255 -0.017895 -2254440.000000 1 0 0
-7.867006 9.326152 11.986721 17.104046 -0.870063 0.794261 0.002363 -0.002585 -53429.800000 1 0 0
-4.087306 10.555352 16.468021 19.982924 -1.201350 0.602177 -0.000907 0.002580 308060.000000 1 0 0
-12.612806 12.674052 8.202521 19.672209 -0.787820 1.140698 0.023808 -0.020938 684153.000000 1 0 0
-12.469806 3.290752 10.499221 16.630056 -0.258015 0.887516 0.007083 -0.002767 396341.000000 1 0 0
-10.027706 -3.415048 13.634221 17.265846 0.328242 0.660535 0.024906 -0.013739 -2004550.000000 1 0 0
-4.235606 -6.387448 17.667721 19.258458 0.985257 0.409298 0.037704 -0.021607 -723027.000000 1 0 0
0.793594 -3.538748 17.923321 18.286551 -1.350188 0.199647 0.021728 -0.020885 -513872.000000 1 0 0
-5.859706 1.658752 13.693321 14.986482 -0.275860 0.418471 0.002804 0.002397 -719043.000000 1 0 0
-10.561706 8.611352 10.199921 17.021851 -0.684023 0.928263 0.012738 -0.014262 -424032.000000 1 0 0
4.513894 2.498552 17.196421 17.953687 0.505545 0.291475 0.027036 -0.010001 -1006360.000000 1 0 0
0.536394 -5.448848 13.276421 14.361094 -1.472671 0.391149 0.001580 -0.005085 -1347810.000000 1 0 0
-4.027606 5.779452 20.815321 21.975014 -0.962165 0.326325 0.046466 -0.007579 -405411.000000 1 0 0
-10.914606 10.797952 8.964021 17.778584 -0.780026 1.042337 0.019525 -0.018392 425823.000000 1 0 0
0.642294 4.082752 13.060621 13.698950 1.414756 0.306475 0.001248 -0.000267 -2672870.000000 1 0 0
-3.049606 7.174552 13.310921 15.425787 -1.168876 0.529815 -0.003658 0.006508 -1454600.000000 1 0 0
0.656694 8.907252 14.017121 16.620772 1.497204 0.567310 0.001280 0.002366 -130885.000000 1 0 0
-4.194806 -6.580048 13.195521 15.330206 1.003256 0.534049 0.010484 -0.006540 -232345.000000 1 0 0
-5.125106 8.183152 16.545821 19.157110 -1.011263 0.528249 0.016635 0.007406 -226398.000000 1 0 0
1.702694 -10.574148 15.615621 18.935665 -1.411143 0.601183 0.000327 -0.004989 -950647.000000 1 0 0
-14.990406 -1.019548 14.282821 20.730430 0.067909 0.810718 0.036836 -0.003017 61619.600000 1 0 0
-13.274706 -5.367848 8.624521 16.715681 0.384265 1.028675 0.031837 -0.017944 -1404290.000000 1 0 0
-14.037406 -1.910548 12.104421 18.633732 0.135273 0.863742 0.032012 -0.012645 338378.000000 1 0 0
9.417994 1.565252 16.968821 19.470221 0.164693 0.512489 0.082673 -0.022410 -13876.500000 1 0 0
4.935194 -6.689548 16.558521 18.528109 -0.935183 0.465277 0.022890 -0.024630 -787632.000000 1 0 0
-6.015706 -2.676048 10.948721 12.775932 0.418558 0.541415 0.002954 -0.003572 267484.000000 1 0 0
0.745094 -6.167648 18.103921 19.140193 -1.450572 0.330566 0.030430 -0.023100 -200310.000000 1 0 0
-8.690706 11.825952 12.179321 19.071376 -0.937040 0.878096 0.032432 -0.018391 281098.000000 1 0 0
-6.576806 -5.742248 14.858321 17.233615 0.717756 0.531257 0.022450 -0.011594 -345961.000000 1 0 0
-4.467406 -8.979248 17.173721 19.887718 1.109130 0.528560 0.044919 -0.018402 71896.800000 1 0 0
2.494794 -6.132248 16.157821 17.461490 -1.184414 0.388864 0.017106 -0.017232 -526320.000000 1 0 0
2.112994 5.313152 16.095921 17.081364 1.192282 0.341334 0.004478 0.001464 -2383140.000000 1 0 0
0.993994 -8.706648 13.986121 16.504706 -1.457124 0.559723 -0.003262 -0.003702 -354138.000000 1 0 0
-9.788006 -2.714848 11.159821 15.090297 0.270563 0.738415 0.000721 -0.007169 -175217.000000 1 0 0
-1.227506 10.074352 12.324421 15.965296 -1.449549 0.688892 -0.002185 -0.000611 -791088.000000 1 0 0
-12.195406 -3.714748 11.325721 17.052837 0.295674 0.844434 0.022149 -0.013896 -2010820.000000 1 0 0
-1.886206 6.841352 19.927521 21.153438 -1.301773 0.342117 0.024285 -0.005076 -770600.000000 1 0 0
0.488294 -13.161848 15.726221 20.513086 -1.533714 0.697199 0.009944 -0.015353 -552551.000000 1 0 0
4.073394 -8.696848 15.368821 18.122593 -1.132767 0.558506 0.005402 -0.003463 -1117700.000000 1 0 0
4.482594 -4.321248 16.086821 17.249714 -0.767074 0.369287 0.027700 -0.014307 -986956.000000 1 0 0
8.244894 1.762252 14.654521 16.906767 0.210570 0.522079 0.027580 -0.006324 -43884.100000 1 0 0
-6.359606 -0.104348 11.778621 13.386239 0.016407 0.495134 0.000275 -0.000424 317541.000000 1 0 0
-3.547406 -11.051148 18.442821 21.791044 1.260188 0.561704 0.076156 -0.020667 221610.000000 1 0 0
3.220894 -1.495748 13.577621 14.034358 -0.434755 0.255821 0.004526 -0.003971 638015.000000 1 0 0
-2.593206 8.444052 15.919921 18.206334 -1.272834 0.506564 0.003734 -0.002640 -874286.000000 1 0 0
-3.197006 4.186652 14.745421 15.658108 -0.918636 0.343114 0.004611 0.000929 -747953.000000 1 0 0
-4.734406 -9.111248 19.799821 22.303864 1.091575 0.478405 0.075285 -0.026225 20283.900000 1 0 0
-5.783206 -3.032348 19.121921 20.206149 0.482927 0.329075 0.038116 -0.021137 -1158530.000000 1 0 0
-6.583006 -8.724548 10.960921 15.478873 0.924397 0.783962 0.015919 -0.010788 -51729.400000 1 0 0
-11.651106 2.453452 12.696821 17.406234 -0.207544 0.753292 0.009868 -0.008137 -607098.000000 1 0 0
-11.634806 -7.511048 11.499521 18.000654 0.573253 0.877808 0.045481 -0.029128 -420486.000000 1 0 0
-11.186206 -7.453648 15.245021 20.324831 0.587766 0.722630 0.079400 -0.041169 1041570.000000 1 0 0
0.235094 5.816652 17.680121 18.613849 1.530401 0.318082 0.005598 -0.001831 -201490.000000 1 0 0
-2.208306 -0.192448 13.228421 13.412858 0.086928 0.166027 0.002802 0.001411 486176.000000 1 0 0
-6.133206 -10.625248 18.242721 21.984290 1.047288 0.592034 0.078351 -0.024447 -285564.000000 1 0 0
0.316494 2.642152 19.168221 19.352050 1.451578 0.137944 0.021731 -0.009349 -310297.000000 1 0 0
-0.898706 10.796552 14.783621 18.328356 -1.487748 0.632422 0.009842 -0.001667 -646826.000000 1 0 0
-12.810406 -2.543448 14.247921 19.328189 0.195997 0.741942 0.040641 -0.014443 103649.000000 1 0 0
-13.680406 8.275052 11.710321 19.818214 -0.544003 0.938639 0.019930 -0.023281 286663.000000 1 0 0
-18.017206 -0.639748 6.901121 19.304261 0.035493 1.205215 0.086869 -0.027087 -1303840.000000 1 0 0
-2.202406 -7.955048 17.649521 19.484326 1.300705 0.437457 0.030435 -0.018614 -1557070.000000 1 0 0
5.750794 2.673952 14.549521 15.871679 0.435234 0.411062 0.017039 -0.003870 -559262.000000 1 0 0
-14.232106 -7.340648 11.185521 19.533403 0.476192 0.961079 0.072758 -0.024592 38096.700000 1 0 0
3.069794 7.733552 16.248921 18.255380 1.192926 0.473255 0.010116 -0.010048 -412704.000000 1 0 0
1.033594 2.071552 14.681221 14.862634 1.107992 0.156403 0.007892 -0.004616 -2573670.000000 1 0 0
-14.450206 0.475352 9.849621 17.494269 -0.032884 0.972761 0.030209 -0.004227 -715419.000000 1 0 0
-9.648906 -5.280248 15.525121 19.026608 0.500720 0.616393 0.039034 -0.015480 36369.700000 1 0 0
-2.546306 -0.265248 18.157221 18.336813 0.103795 0.140072 0.022592 -0.006783 276876.000000 1 0 0
6.761594 3.818152 17.690021 19.319272 0.514046 0.413632 0.049518 -0.008766 55672.800000 1 0 0
-4.171006 -0.863548 14.779521 15.381068 0.204152 0.280596 0.009764 -0.000353 -1496000.000000 1 0 0
4.609194 -8.829448 17.936721 20.516573 -1.089684 0.506897 0.015622 -0.003678 -382419.000000 1 0 0
1.970694 6.945152 13.363321 15.188717 1.294313 0.495315 0.002721 0.001793 -1332760.000000 1 0 0
-3.807606 -0.764048 20.290721 20.659017 0.198034 0.189106 0.039629 -0.014061 -1360850.000000 1 0 0
-10.612706 1.358352 16.252421 19.458053 -0.127301 0.582201 0.018822 -0.009734 -423814.000000 1 0 0
-3.982106 6.982052 18.547121 20.213904 -1.052475 0.408940 0.020718 0.001455 -818069.000000 1 0 0
-12.629806 1.147852 14.697521 19.412540 -0.090635 0.711911 0.025524 -0.009026 -319459.000000 1 0 0
-15.869806 -5.147948 8.676021 18.804932 0.313677 1.091258 0.068441 -0.028441 -562469.000000 1 0 0
-2.314606 0.743152 15.650621 15.838296 -0.310674 0.154097 0.013493 -0.000063 302010.000000 1 0 0
-13.281606 -8.989148 12.990521 20.638786 0.594993 0.889986 0.059417 -0.038976 690067.000000 1 0 0
6.217594 -3.093548 14.534721 16.108588 -0.461684 0.445730 0.027031 -0.012436 944083.000000 1 0 0
-15.743706 0.247852 7.590921 17.479926 -0.015742 1.121574 0.042540 -0.016155 -321736.000000 1 0 0
-14.168306 5.728252 12.212621 19.562768 -0.384208 0.896588 0.042236 -0.023462 -154535.000000 1 0 0
0.296294 9.420352 16.619421 19.105914 1.539354 0.515883 0.006659 -0.005542 -537425.000000 1 0 0
-10.260306 -5.418648 10.743121 15.812978 0.485888 0.823870 0.020536 -0.019117 16881.200000 1 0 0
-3.140506 -10.932748 15.028321 18.847764 1.291071 0.647900 0.028144 -0.010680 252624.000000 1 0 0
-3.553806 2.756852 12.604121 13.382587 -0.659776 0.342762 0.002513 0.001974 -1505060.000000 1 0 0
-12.356406 -7.828448 7.482221 16.430125 0.564727 1.097979 0.029932 -0.014075 1281660.000000 1 0 0
-8.174706 -1.836448 13.209521 15.642564 0.220981 0.565240 0.011052 -0.002866 -23495.900000 1 0 0
-9.760806 6.368352 9.550121 15.067649 -0.578089 0.884319 -0.002236 -0.006349 -733654.000000 1 0 0
-17.594506 -3.584348 6.933121 19.247919 0.200970 1.202313 0.071199 -0.027203 550545.000000 1 0 0
-1.383806 0.010752 20.511521 20.558150 -0.007769 0.067365 0.034261 -0.010330 -755623.000000 1 0 0
-2.771706 2.529452 20.261821 20.606355 -0.739731 0.183121 0.033412 -0.003993 -604259.000000 1 0 0
-3.920706 11.294352 11.043021 16.275215 -1.236673 0.825054 0.007872 -0.008903 -478989.000000 1 0 0
-4.083806 -4.687548 14.914921 16.158758 0.854121 0.394929 0.013292 -0.009408 488946.000000 1 0 0
0.035094 -14.423848 13.460321 19.728884 -1.568363 0.819941 0.018155 -0.006356 584284.000000 1 0 0
-12.171306 0.373552 8.385821 14.785203 -0.030682 0.967723 0.003090 -0.002010 -718641.000000 1 0 0
-7.726606 2.196352 15.413921 17.381409 -0.276953 0.480411 0.007934 0.002423 -508162.000000 1 0 0
3.741094 -2.179948 18.517921 19.017396 -0.527604 0.229695 0.042326 -0.012142 -147515.000000 1 0 0
-2.068206 4.881252 12.459621 13.540541 -1.170024 0.402278 -0.004109 0.002873 -340727.000000 1 0 0
-10.149306 -6.224848 13.155321 17.743157 0.550162 0.735596 0.022587 -0.026769 95823.200000 1 0 0
2.333094 -3.801648 14.213521 14.896981 -1.020360 0.304086 0.006800 -0.006496 -756263.000000 1 0 0
6.827194 1.224352 16.911121 18.278283 0.177448 0.389226 0.042264 -0.015946 20982.200000 1 0 0
-1.882406 -5.763748 13.863321 15.131289 1.255123 0.412298 0.005587 -0.005915 -1098000.000000 1 0 0
-12.763606 3.784352 14.554421 19.724658 -0.288239 0.740873 0.006561 -0.003852 114963.000000 1 0 0
-13.158106 -6.384948 13.315521 19.778939 0.451777 0.832245 0.057320 -0.041307 -323019.000000 1 0 0
-9.577506 6.791652 11.965221 16.763701 -0.616824 0.775948 0.001928 -0.002746 -391289.000000 1 0 0
-1.010806 -2.547248 12.863521 13.152200 1.193032 0.209904 0.003162 -0.002425 420578.000000 1 0 0
0.005294 6.701952 15.232121 16.641325 1.570006 0.414497 0.000375 0.000416 410471.000000 1 0 0
-16.657706 -0.901748 9.729121 19.311865 0.054081 1.042816 0.074642 -0.014753 112358.000000 1 0 0
-1.292506 2.751152 13.703621 14.036689 -1.131595 0.218279 -0.000891 0.000793 -1884650.000000 1 0 0
-11.084306 -3.361548 16.106821 19.839142 0.294455 0.623447 0.036909 -0.018708 -1120560.000000 1 0 0
-5.205206 -1.456248 17.142521 17.974450 0.272793 0.305436 0.026861 -0.003895 299791.000000 1 0 0
-11.905706 6.526752 11.108821 17.542812 -0.501463 0.885063 0.014334 -0.009643 -1499040.000000 1 0 0
-2.726706 4.674152 18.739321 19.504993 -1.042703 0.281122 0.019299 -0.000588 128358.000000 1 0 0
5.169194 -1.877648 16.475821 17.369479 -0.348419 0.322172 0.032550 -0.014423 -587316.000000 1 0 0
-7.890906 -4.165848 12.187321 15.104684 0.485741 0.631984 0.010603 -0.010397 -2038570.000000 1 0 0
-11.794306 -0.896748 16.005021 19.901520 0.075886 0.636450 0.048508 -0.011636 456778.000000 1 0 0
1.941094 1.984752 17.311821 17.533004 0.796518 0.159008 0.009350 -0.005738 -1720260.000000 1 0 0
-8.940706 -7.556248 11.436521 16.365425 0.701672 0.797047 0.022309 -0.018939 518235.000000 1 0 0
-7.199106 6.984552 14.701921 17.797685 -0.770272 0.598719 -0.000129 0.000039 -252651.000000 1 0 0
-5.525306 3.382652 15.738021 17.019302 -0.549350 0.390508 0.006835 0.001720 -311793.000000 1 0 0
-9.413906 4.234452 11.562521 15.499810 -0.422694 0.728794 -0.004198 -0.004324 -518861.000000 1 0 0
-10.401806 -0.004548 13.950521 17.401570 0.000437 0.640693 0.018061 -0.009381 -427640.000000 1 0 0
8.439194 -0.570748 15.882321 17.994273 -0.067528 0.489364 0.052991 -0.014593 408704.000000 1 0 0
-8.607206 -7.515148 14.736321 18.647268 0.717766 0.659552 0.044511 -0.016901 -2002200.000000 1 0 0
-0.141106 4.153852 15.612521 16.156274 -1.536839 0.260178 0.002405 -0.003051 -79013.200000 1 0 0
-8.052106 3.173052 9.616721 12.937774 -0.375379 0.732798 -0.005227 -0.001132 -810811.000000 1 0 0
-1.858206 -9.752948 13.069321 16.412802 1.382525 0.649662 0.005387 -0.005748 208748.000000 1 0 0
-6.094606 10.168252 10.544821 15.866027 -1.030836 0.843816 0.015396 -0.008979 -1140920.000000 1 0 0
-8.533806 -2.904148 15.570921 17.992040 0.328017 0.524781 0.022707 -0.014220 -928581.000000 1 0 0
4.216494 5.900752 17.597921 19.033773 0.950359 0.390909 0.024681 -0.005534 136891.000000 1 0 0
-6.826106 -1.023448 15.236521 16.727066 0.148823 0.425360 0.009887 -0.000191 -941656.000000 1 0 0
-0.825106 -9.919248 15.473221 18.398175 1.487805 0.571632 -0.002808 -0.005811 117011.000000 1 0 0
-4.423706 5.666252 16.351021 17.861452 -0.907928 0.414206 0.008671 0.005871 146359.000000 1 0 0
3.734494 0.105252 17.389621 17.786412 0.028176 0.211623 0.030257 -0.010328 -641762.000000 1 0 0
1.337494 0.217852 19.154721 19.202596 0.161463 0.070628 0.016296 -0.010750 -557153.000000 1 0 0
-6.402506 6.274152 17.885121 20.005865 -0.775273 0.464616 0.020028 0.002542 214037.000000 1 0 0
-12.140106 0.596152 10.977721 16.378276 -0.049067 0.836236 0.015282 -0.005777 -503175.000000 1 0 0
-5.376306 5.203152 13.905021 15.790094 -0.769033 0.493634 -0.003026 0.004115 -1383740.000000 1 0 0
-8.701106 -9.462948 9.805021 16.167717 0.827316 0.919200 0.027722 -0.017443 -207410.000000 1 0 0
6.869994 -3.792148 17.043421 18.763139 -0.504368 0.431484 0.043354 -0.015437 116500.000000 1 0 0
-16.702206 1.733952 9.572221 19.328676 -0.103445 1.052692 0.065118 -0.016071 126935.000000 1 0 0
-4.163006 -9.538148 11.555821 15.551331 1.159260 0.733141 0.009225 -0.010657 647283.000000 1 0 0
-11.041006 -3.819948 9.192021 14.865701 0.333088 0.904171 0.008900 -0.006289 -1200690.000000 1 0 0
3.759694 -5.339448 18.361221 19.487931 -0.957300 0.341706 0.031115 -0.026292 -259653.000000 1 0 0
2.631994 -1.989448 16.098721 16.433323 -0.647248 0.202142 0.013719 -0.007596 -796972.000000 1 0 0
-3.340306 -4.400948 20.089821 20.835712 0.921562 0.268382 0.046575 -0.028975 -973829.000000 1 0 0
-6.207506 -3.322448 14.340221 15.975410 0.491433 0.456404 0.007039 -0.004186 390487.000000 1 0 0
-9.615406 5.100152 13.932221 17.679773 -0.487682 0.663191 0.006701 -0.005335 246233.000000 1 0 0
-5.739306 -5.223748 11.671121 14.015786 0.738406 0.586808 0.003289 -0.003037 -482792.000000 1 0 0
6.030294 1.783452 19.201421 20.204943 0.287552 0.316493 0.078859 -0.031361 373326.000000 1 0 0
-2.856106 11.774752 13.414021 18.075898 -1.332830 0.734607 0.009283 -0.013377 -872795.000000 1 0 0
3.388694 1.316552 15.128721 15.559394 0.370565 0.235830 0.006826 -0.002985 -523006.000000 1 0 0
-5.554406 7.322252 12.698821 15.675677 -0.921836 0.626479 -0.012063 -0.003528 -1299780.000000 1 0 0
-1.829506 -1.828248 15.205421 15.423826 0.785054 0.168486 0.009776 -0.003716 47934.600000 1 0 0
-7.421306 10.616852 14.138521 19.175273 -0.960734 0.741686 0.043210 -0.013442 417295.000000 1 0 0
-10.132506 2.014752 10.562121 14.774482 -0.196280 0.774330 -0.001660 -0.001578 -399849.000000 1 0 0
-13.423806 5.288552 9.036521 17.024279 -0.375296 1.011250 0.015634 -0.010499 -729340.000000 1 0 0
0.554194 -4.783348 20.118121 20.686381 -1.455452 0.234934 0.041998 -0.032045 -91993.000000 1 0 0
-14.310906 -3.253448 7.512521 16.487114 0.223541 1.097683 0.030480 -0.009698 891370.000000 1 0 0
-2.380306 2.329352 17.633321 17.945076 -0.774579 0.186672 0.013297 -0.003653 -97902.900000 1 0 0
-6.261206 -8.321148 14.373021 17.749027 0.925732 0.626999 0.014855 -0.015305 -290439.000000 1 0 0
-7.951906 2.031952 12.012421 14.548536 -0.250177 0.599392 -0.005815 -0.002563 -1214510.000000 1 0 0
-14.439306 -3.562548 10.111721 17.984221 0.241895 0.973686 0.032793 -0.017332 449851.000000 1 0 0
-0.527006 7.011352 12.674521 14.494146 -1.495773 0.506479 -0.004402 0.000705 -1219850.000000 1 0 0
-1.810906 -2.421848 19.534221 19.766905 0.928745 0.153587 0.029121 -0.011354 174913.000000 1 0 0
-12.949206 10.284452 7.182021 18.028680 -0.671203 1.161061 0.011674 -0.019848 541928.000000 1 0 0
-19.620806 1.953552 6.630221 20.802698 -0.099238 1.246418 0.104459 -0.033934 1675460.000000 1 0 0
-16.427606 8.341752 6.679621 19.597663 -0.469859 1.222989 0.039669 -0.010744 539386.000000 1 0 0
-12.400706 7.033152 13.586021 19.693215 -0.515920 0.809468 0.029007 -0.017423 -128296.000000 1 0 0
-15.921806 8.245052 10.347621 20.701644 -0.477823 1.047376 0.049863 -0.020002 -116291.000000 1 0 0
1.682494 11.072452 15.077121 18.781628 1.419997 0.638889 0.005907 -0.005053 -781963.000000 1 0 0
2.128194 14.428852 12.567421 19.252559 1.424356 0.859566 0.007995 -0.004491 -1600600.000000 1 0 0
-3.111906 13.626452 11.597421 18.162167 -1.346274 0.878186 -0.001170 -0.013310 218898.000000 1 0 0
8.948494 4.924252 15.923421 18.917693 0.503065 0.570333 0.052671 -0.003312 -144768.000000 1 0 0
-0.369606 12.466852 12.841721 17.901642 -1.541158 0.770807 0.007847 -0.004301 -242766.000000 1 0 0
3.842194 13.668352 14.387921 20.213821 1.296767 0.778758 0.021959 -0.005816 -11368.000000 1 0 0
-2.911306 -4.112248 -13.612779 14.515304 0.954748 2.787099 0.008862 -0.007186 -76831.400000 1 0 0
5.719294 -11.514248 16.458621 20.884790 -1.109781 0.663133 0.005081 0.000802 392184.000000 1 0 0
7.822794 -13.481648 7.378721 17.245187 -1.045022 1.128660 -0.002066 0.001044 -266795.000000 1 0 0
-0.175406 15.474252 1.302421 15.529956 -1.559461 1.486833 0.012952 -0.006353 -3067910.000000 1 0 0
-13.612706 8.333852 9.105321 18.375683 -0.549350 1.052375 0.006492 -0.003848 609090.000000 1 0 0
-15.361706 -9.767348 5.050421 18.891529 0.566345 1.300167 0.034659 -0.012969 -1039400.000000 1 0 0
9.809794 -11.170648 11.104821 18.556198 -0.850170 0.929240 0.037231 -0.000044 -286834.000000 1 0 0
-5.845306 -10.189048 -16.791579 20.492473 1.049951 2.531164 0.056408 -0.010856 27857.300000 1 0 0
-1.945206 -12.349548 -14.975479 19.507951 1.414568 2.445979 0.034036 -0.006314 102604.000000 1 0 0
5.312494 -15.889248 -11.840179 20.515376 -1.248135 2.186015 0.024386 0.000652 323500.000000 1 0 0
1.268294 -12.415848 -16.098179 20.369419 -1.468998 2.482113 0.030718 -0.005676 227380.000000 1 0 0
0.371294 -14.388248 -13.872879 19.990406 -1.544997 2.337794 0.034219 0.009776 8414.510000 1 0 0
-6.850206 -5.539348 -14.778679 17.205205 0.679987 2.604042 0.033881 0.000761 -163437.000000 1 0 0
-6.680606 -7.808148 -17.495479 20.290132 0.863063 2.610522 0.047151 -0.006098 128441.000000 1 0 0
-2.197806 -16.193348 -13.334979 21.092097 1.435898 2.255220 0.026473 -0.004212 242952.000000 1 0 0
16.453494 -7.891848 -8.183879 19.999365 -0.447232 1.992381 0.110940 -0.032661 -194832.000000 1 0 0
19.062194 -2.868048 -3.610679 19.611984 -0.149337 1.755958 0.120971 -0.024182 153163.000000 1 0 0
15.923094 -11.301048 -8.714079 21.382090 -0.617224 1.990556 0.088655 -0.023333 205487.000000 1 0 0
18.578094 -2.845748 -6.764579 19.975069 -0.151996 1.916279 0.184262 -0.001417 -309790.000000 1 0 0
9.001794 -9.761848 -15.557279 20.453726 -0.825883 2.435046 0.082311 -0.016550 271818.000000 1 0 0
-4.740006 9.808252 -16.140679 19.472827 -1.120624 2.547903 0.001063 0.007021 456405.000000 1 0 0
2.600994 -9.468348 -18.426479 20.879414 -1.302705 2.651988 0.058733 -0.014237 388797.000000 1 0 0
11.136994 9.740652 -14.963379 21.043185 0.718615 2.361829 0.105951 -0.024455 323639.000000 1 0 0
18.685294 -6.141848 -8.956179 21.611933 -0.317574 1.998090 0.115392 -0.022370 256000.000000 1 0 0
12.117894 4.986852 -14.049479 19.211973 0.390405 2.391004 0.061720 -0.015728 164327.000000 1 0 0
15.851494 6.188252 -10.957679 20.239443 0.372194 2.142900 0.063316 -0.021671 151101.000000 1 0 0
3.326594 -0.265048 -19.097979 19.387348 -0.079508 2.968602 0.047294 -0.018753 113359.000000 1 0 0
10.396294 -1.339048 -14.925179 18.238337 -0.128095 2.529315 0.033858 -0.004411 51092.400000 1 0 0
12.183094 -6.211248 -14.018179 19.583583 -0.471477 2.368584 0.058984 -0.001637 -118985.000000 1 0 0
9.955094 6.867752 -13.068679 17.806186 0.603897 2.394902 0.032729 -0.005049 513708.000000 1 0 0
10.791294 5.096352 -16.172979 20.099504 0.441215 2.505875 0.080537 -0.032984 508799.000000 1 0 0
12.148994 -10.254548 -14.657179 21.623753 -0.701039 2.315600 0.117852 -0.023722 329149.000000 1 0 0
-1.404306 2.162952 -17.948379 18.132698 -0.994945 2.998888 0.014812 -0.000786 365129.000000 1 0 0
6.726894 -1.194948 -17.184679 18.493031 -0.175804 2.763178 0.036424 0.002770 114576.000000 1 0 0
6.839694 -5.882048 -15.430879 17.874337 -0.710264 2.612565 0.028763 -0.019804 332992.000000 1 0 0
-2.499806 -4.449348 -20.248379 20.881633 1.058911 2.894690 0.037448 -0.022788 255991.000000 1 0 0
15.968994 -0.040248 -13.451879 20.879737 -0.002520 2.270845 0.095339 -0.017134 21103.800000 1 0 0
-3.878606 -0.502348 -18.570279 18.977650 0.128801 2.934021 0.018333 -0.006397 152235.000000 1 0 0
4.775294 8.955452 -17.603379 20.319510 1.080921 2.618601 0.045196 -0.022136 256416.000000 1 0 0
9.964294 0.083052 -17.719279 20.328967 0.008335 2.629308 0.051531 -0.001159 -75529.100000 1 0 0
4.320094 4.604452 -18.052279 19.124564 0.817250 2.805139 0.015266 -0.013268 415604.000000 1 0 0
-2.244806 -11.381448 -17.829279 21.271100 1.376062 2.564757 0.042553 -0.020558 185791.000000 1 0 0
5.595894 -9.601748 -16.111979 19.573029 -1.043120 2.537772 0.036503 -0.012410 -36936.600000 1 0 0
10.128494 -12.054848 -10.454479 18.899785 -0.872019 2.156941 0.037580 -0.013067 144317.000000 1 0 0
6.309494 7.217152 -16.921279 19.448051 0.852399 2.626152 0.030726 -0.009403 567074.000000 1 0 0
8.209294 1.544952 -20.191979 21.851668 0.186020 2.749333 0.051963 -0.026860 10477.300000 1 0 0
-0.681506 -0.644348 -20.392579 20.414135 0.757380 3.095633 0.046129 -0.009553 120244.000000 1 0 0
-0.556406 6.382152 -19.757679 20.770347 -1.483835 2.828042 0.021833 -0.002998 41432.900000 1 0 0
8.725494 5.732752 -18.218679 20.998070 0.581289 2.621224 0.066995 -0.023719 -45131.000000 1 0 0
12.141394 -0.073548 -13.247979 17.970192 -0.006058 2.399742 0.025298 -0.000836 -18068.300000 1 0 0
-4.043306 -2.684748 -19.813479 20.399268 0.586153 2.901365 0.006565 -0.006715 357541.000000 1 0 0
5.451894 -11.286048 -14.585479 19.231075 -1.120788 2.431702 0.019661 -0.003142 31325.900000 1 0 0
11.277794 2.322752 -16.199679 19.874944 0.203118 2.523664 0.051699 -0.006952 -455529.000000 1 0 0
-2.955206 -4.395948 -16.881879 17.693373 0.978934 2.837556 0.014528 -0.012488 336526.000000 1 0 0
-6.932106 -4.813248 -17.327079 19.273016 0.606918 2.688353 0.038900 -0.012459 61902.400000 1 0 0
2.826794 10.493752 -15.534179 18.958384 1.307664 2.531130 0.000082 -0.009914 372214.000000 1 0 0
17.050294 -6.109648 -10.986879 21.183763 -0.344077 2.116063 0.124996 -0.022377 42983.700000 1 0 0
9.734594 -3.599048 -17.586979 20.421001 -0.354131 2.608462 0.050061 -0.027600 80500.600000 1 0 0
-7.029006 -1.579448 -19.117379 20.429777 0.221033 2.781206 0.006085 0.008645 529990.000000 1 0 0
1.428994 -7.287648 -19.212979 20.598311 -1.377169 2.772750 0.052647 -0.026282 284473.000000 1 0 0
5.694994 10.108752 -13.937279 18.134706 1.057744 2.447355 0.035234 -0.024183 400741.000000 1 0 0
6.055294 -3.963448 -17.340779 18.790373 -0.579562 2.746223 0.051290 -0.041275 465529.000000 1 0 0
3.619794 13.161552 -14.991279 20.274807 1.302404 2.402981 0.048574 -0.021737 147841.000000 1 0 0
8.682394 11.570452 -15.267379 21.032170 0.927043 2.383147 0.089885 -0.034162 346770.000000 1 0 0
17.238494 1.174452 -11.543879 20.779946 0.068024 2.159796 0.137940 -0.011231 58711.400000 1 0 0
15.093594 -2.857748 -12.298179 19.678122 -0.187120 2.245886 0.103922 -0.014105 209771.000000 1 0 0
-8.810106 0.155552 -17.385579 19.491037 -0.017654 2.672498 0.037421 -0.009274 473062.000000 1 0 0
-3.330806 4.551752 -18.934579 19.756796 -0.939069 2.852080 0.033863 -0.002953 170374.000000 1 0 0
4.460794 2.371852 -17.248879 17.973541 0.488693 2.856664 0.014484 -0.000667 513240.000000 1 0 0
-4.848906 14.185052 -14.031079 20.532870 -1.241416 2.323134 0.013765 -0.007768 304364.000000 1 0 0
0.874294 9.235052 -17.872379 20.136348 1.476406 2.662835 0.001655 -0.007596 435587.000000 1 0 0
1.334594 -4.976648 -19.688679 20.351714 -1.308790 2.885635 0.047976 -0.017550 578499.000000 1 0 0
3.842394 -6.216448 -17.938179 19.369731 -1.017173 2.754720 0.057580 -0.032119 123451.000000 1 0 0
-6.757706 7.577552 -16.025479 18.971080 -0.842527 2.576861 0.013167 0.008140 216886.000000 1 0 0
-11.940706 3.483952 -16.428279 20.605988 -0.283890 2.493535 0.108545 -0.034847 185351.000000 1 0 0
-4.011406 6.589952 -17.147579 18.803146 -1.023993 2.718815 0.006667 0.008884 506831.000000 1 0 0
-8.084306 5.468052 -17.692579 20.206013 -0.594696 2.637493 0.031288 -0.004995 330309.000000 1 0 0
-8.374106 4.495252 -15.123079 17.861704 -0.492655 2.580504 0.004226 -0.011303 605760.000000 1 0 0
9.481794 13.340152 -12.949679 20.870032 0.952878 2.240166 0.128171 -0.045372 579632.000000 1 0 0
15.014494 10.000152 -11.695479 21.499355 0.587564 2.145984 0.174827 -0.030842 51902.100000 1 0 0
8.787894 15.655052 -9.921279 20.511935 1.059284 2.075654 0.107577 -0.020651 -6959.540000 1 0 0
7.696494 14.205652 -14.333279 21.598135 1.074277 2.296464 0.119398 -0.034742 204074.000000 1 0 0
4.514794 15.309852 -13.216079 20.722926 1.284030 2.262372 0.035759 -0.018998 153646.000000 1 0 0
10.904894 11.670652 -10.807979 19.285570 0.819305 2.165687 0.109469 -0.036963 339069.000000 1 0 0
16.049994 10.833952 -9.353579 21.505028 0.593758 2.020777 0.129222 -0.035792 364059.000000 1 0 0
12.468194 10.418752 -8.703179 18.432351 0.696090 2.062546 0.093532 -0.042929 330770.000000 1 0 0
10.102394 11.808052 -7.412979 17.217453 0.863088 2.015899 0.072378 -0.015992 -83961.300000 1 0 0
5.781294 16.843152 -10.419179 20.631878 1.240154 2.100183 0.069236 -0.006950 163566.000000 1 0 0
11.445794 14.698452 -9.928279 21.109747 0.909174 2.060447 0.165288 -0.026703 37075.700000 1 0 0
8.802394 -19.408148 -2.044279 21.408817 -1.145001 1.666430 0.068489 -0.010347 281903.000000 1 0 0
8.229394 -16.993848 -4.214979 19.346314 -1.119822 1.790428 0.051273 -0.010900 113990.000000 1 0 0
3.992094 -18.455948 5.077721 19.553570 -1.357774 1.308103 0.062940 -0.028798 115470.000000 1 0 0
10.657394 -17.536748 -2.427079 20.664179 -1.024721 1.688522 0.066376 -0.020664 520277.000000 1 0 0
-3.453906 -14.664348 7.748521 16.941433 1.339481 1.095760 0.032487 -0.035767 -112422.000000 1 0 0
-15.327006 -12.706748 -4.115479 20.330168 0.692201 1.774637 0.067846 -0.019129 184114.000000 1 0 0
-9.128206 -12.643848 -7.566379 17.333238 0.945491 2.022528 0.040848 -0.011114 144508.000000 1 0 0
-11.652606 -15.216348 6.871821 20.360315 0.917263 1.226525 0.074810 -0.013958 463952.000000 1 0 0
-14.331606 -8.545848 -8.284579 18.629566 0.537690 2.031636 0.038428 -0.015002 -114056.000000 1 0 0
4.147894 -15.474248 5.450321 16.922275 -1.308902 1.242871 0.017116 -0.012358 -10958.200000 1 0 0
2.771994 -13.903148 9.042321 16.815024 -1.373998 1.003027 0.011439 -0.010072 485067.000000 1 0 0
3.465394 -17.027148 10.701521 20.407236 -1.370017 1.018788 0.040753 -0.022554 270395.000000 1 0 0
-8.589006 -17.796448 -5.228979 20.440813 1.121145 1.829483 0.056783 -0.011688 -47958.500000 1 0 0
2.141794 -19.831948 -4.276879 20.400616 -1.463216 1.782008 0.052358 -0.027537 158804.000000 1 0 0
-17.812306 -10.806748 -1.716579 20.904801 0.545332 1.653003 0.017721 -0.006298 45511.100000 1 0 0
-4.111606 -14.724148 2.722221 15.527921 1.298490 1.394574 0.007675 -0.005188 135255.000000 1 0 0
-10.902306 -9.956348 -14.774679 20.887324 0.740078 2.356541 0.057532 -0.006660 191794.000000 1 0 0
1.436394 -20.391848 2.531221 20.598490 -1.500473 1.447601 0.070284 -0.018076 171212.000000 1 0 0
6.907694 -18.097848 0.304721 19.373724 -1.206177 1.555067 0.050303 -0.012009 112245.000000 1 0 0
-6.738106 -17.489148 -3.397879 19.047781 1.203049 1.750143 -0.004781 -0.059539 -136370.000000 1 0 0
-8.880106 -15.584648 -7.797779 19.558704 1.052880 1.980880 0.070490 -0.018821 -308791.000000 1 0 0
-12.218506 -10.686848 -12.662679 20.587474 0.718629 2.233267 0.083511 -0.008255 491267.000000 1 0 0
-13.152806 -15.015748 -3.172279 20.212184 0.851438 1.728397 0.058815 -0.022289 194267.000000 1 0 0
0.021594 -20.233848 -2.486379 20.386053 -1.569729 1.693065 0.062986 -0.040196 402132.000000 1 0 0
-12.356606 -16.805248 -0.870979 20.877277 0.936781 1.612527 0.067279 -0.014654 190015.000000 1 0 0
0.903094 -19.769948 5.452421 20.527916 -1.525148 1.301960 0.075872 -0.033850 151215.000000 1 0 0
-18.206806 -8.996648 2.551521 20.467969 0.458946 1.445812 0.066476 -0.010956 138491.000000 1 0 0
-14.728906 -14.774648 -0.308679 20.864472 0.786949 1.585591 0.072106 -0.022380 -288758.000000 1 0 0
10.563194 -15.214748 -5.194179 19.236661 -0.963924 1.844205 0.037138 -0.007689 -93310.200000 1 0 0
0.003294 -19.036548 -6.965679 20.270937 -1.570623 1.921575 0.032946 -0.023979 118630.000000 1 0 0
-9.722106 -18.397048 -3.026179 21.026852 1.084641 1.715218 0.038588 0.028979 378608.000000 1 0 0
-14.785806 -6.825948 -11.392779 19.874835 0.432504 2.181234 0.070104 -0.024766 24133.200000 1 0 0
-11.637906 -15.476948 2.331221 19.504138 0.926048 1.450985 0.052772 -0.015597 82490.400000 1 0 0
-2.202306 -16.034648 9.818421 18.930438 1.434304 1.025516 0.028049 -0.026161 401425.000000 1 0 0
-12.103906 -14.944448 -6.598579 20.331806 0.890032 1.901327 0.050661 -0.005022 271257.000000 1 0 0
5.355194 -16.947848 -7.304179 19.216105 -1.264744 1.960708 0.030133 -0.020527 -315766.000000 1 0 0
-17.468506 -7.330348 -2.891579 19.163610 0.397315 1.722264 0.015893 -0.012683 -84177.100000 1 0 0
-12.559006 -13.308948 -9.315479 20.533750 0.814381 2.041672 0.099381 -0.036184 153959.000000 1 0 0
-7.800406 -14.125848 9.856221 18.908491 1.066259 1.022471 0.041412 -0.005388 634959.000000 1 0 0
-15.830706 -8.148448 -5.675079 18.687295 0.475357 1.879356 0.052463 -0.010709 99270.000000 1 0 0
-0.943906 -19.600248 0.828821 19.640459 1.522676 1.528584 0.041912 -0.019135 59966.100000 1 0 0
-14.865006 -11.478948 -1.978779 18.885186 0.657566 1.675768 0.025868 0.001119 149780.000000 1 0 0
-6.959106 -19.124248 2.469521 20.500355 1.221802 1.450041 0.036842 -0.022559 -22131.800000 1 0 0
-1.114006 -21.203348 -4.510579 21.706412 1.518305 1.780121 0.033304 -0.025848 122614.000000 1 0 0
-9.066606 -19.474248 -0.402779 21.485156 1.135071 1.589544 0.048123 -0.029179 117805.000000 1 0 0
-17.774706 -7.617848 5.042521 19.984965 0.404897 1.315724 0.065921 -0.020344 95124.500000 1 0 0
-2.869906 -15.730648 -10.668179 19.222375 1.390341 2.159144 0.025756 -0.004614 44685.900000 1 0 0
-3.290406 -18.523348 -7.598879 20.290002 1.394995 1.954668 0.020880 -0.008405 178014.000000 1 0 0
4.054794 -18.140348 -6.235579 19.606020 -1.350888 1.894462 0.019312 0.030058 381575.000000 1 0 0
0.717394 -17.308248 -9.810079 19.907982 -1.529372 2.086068 0.018247 -0.000917 -52823.700000 1 0 0
-7.637706 -9.882548 -14.784879 19.354379 0.912832 2.440137 0.040957 -0.012621 502734.000000 1 0 0
-4.938806 -19.597948 -2.082179 20.317649 1.323930 1.673458 0.046787 -0.025913 418588.000000 1 0 0
-9.920106 -16.213448 8.349921 20.760674 1.021713 1.156879 0.049505 -0.011374 209259.000000 1 0 0
-7.270706 -15.153948 -10.333379 19.730282 1.123447 2.122022 0.046865 -0.012501 353827.000000 1 0 0
-12.718606 -8.237448 -12.171079 19.435886 0.574735 2.247488 0.061383 -0.019562 399472.000000 1 0 0
-15.819206 -12.830948 3.156621 20.611763 0.681472 1.417045 0.070899 -0.013744 51612.700000 1 0 0
-6.348206 -14.151648 -13.106379 20.306306 1.149120 2.272388 0.036484 -0.002360 540685.000000 1 0 0
-14.187906 -11.741348 -6.847079 19.647861 0.691322 1.926756 0.066743 -0.014821 296252.000000 1 0 0
-11.906906 -10.608248 -8.367979 18.009232 0.727783 2.054035 0.047122 -0.011187 213642.000000 1 0 0
-9.521706 -14.340848 3.246821 17.517553 0.984672 1.384372 0.012963 -0.019883 391013.000000 1 0 0
5.221894 -18.249748 8.227421 20.688449 -1.292108 1.161807 0.054293 -0.017077 296198.000000 1 0 0
-5.016906 -16.941648 5.257321 18.434430 1.282895 1.281591 0.019077 0.004592 452243.000000 1 0 0
-17.384206 -7.636148 -6.944579 20.217531 0.413885 1.921430 0.024195 -0.025063 49056.000000 1 0 0
-17.169606 -4.989248 -10.798579 20.887731 0.282798 2.114118 0.096925 -0.018776 -223007.000000 1 0 0
-15.871606 -4.186548 -12.979479 20.926107 0.257902 2.239861 0.090815 -0.034579 255529.000000 1 0 0
-19.565806 -5.662448 -6.043379 21.246330 0.281709 1.859222 0.082772 -0.021726 -177577.000000 1 0 0
5.590994 -13.409948 8.767421 16.969195 -1.175782 1.027843 0.020765 -0.001881 242583.000000 1 0 0
19.925994 -3.663748 2.913021 20.468365 -0.181837 1.427993 0.105508 -0.024263 110574.000000 1 0 0
18.367694 -2.225448 0.538421 18.509854 -0.120573 1.541704 0.062689 -0.027243 245735.000000 1 0 0
14.213594 -11.323748 0.402021 18.177325 -0.672716 1.548678 0.034825 -0.003661 32704.900000 1 0 0
11.353594 -14.060448 5.669621 18.940562 -0.891508 1.266798 0.040310 0.010603 505992.000000 1 0 0
10.196694 -12.628548 8.135121 18.155798 -0.891540 1.106188 0.034792 -0.025637 79854.200000 1 0 0
19.213894 4.001752 -4.400579 20.113498 0.205338 1.791368 0.093332 -0.006239 -90332.900000 1 0 0
19.040494 -5.863048 -4.802479 20.493402 -0.298712 1.807339 0.106600 -0.019847 -25119.800000 1 0 0
17.718894 -10.049448 -0.370179 20.373700 -0.515922 1.588967 0.063527 -0.012404 263248.000000 1 0 0
17.892294 -8.551148 8.772521 21.684405 -0.445831 1.154305 0.152362 -0.032879 -94299.400000 1 0 0
19.917994 0.376152 -1.906579 20.012571 0.018883 1.666210 0.121572 -0.016776 -106628.000000 1 0 0
7.595894 -13.603748 11.443621 19.331736 -1.061551 0.937307 0.023227 0.006912 419887.000000 1 0 0
16.032294 -6.553648 -3.306779 17.632910 -0.388051 1.759448 0.060669 -0.007764 294799.000000 1 0 0
14.460894 -6.868948 12.435821 20.271890 -0.443450 0.910373 0.089629 -0.029287 447779.000000 1 0 0
16.673594 1.273952 10.588021 19.792369 0.076257 1.006342 0.160916 -0.031524 397315.000000 1 0 0
16.678694 -9.763548 2.606721 19.501300 -0.529608 1.436726 0.036906 -0.020938 246481.000000 1 0 0
16.142594 -6.927748 -5.638579 18.449135 -0.405389 1.881395 0.076212 -0.011737 179657.000000 1 0 0
17.993194 -4.123448 5.952021 19.395473 -0.225277 1.258887 0.115858 -0.029241 78252.900000 1 0 0
13.476994 -13.183548 7.968921 20.467999 -0.774392 1.170886 0.067475 -0.021143 282515.000000 1 0 0
15.350894 -14.133148 -1.386079 20.912126 -0.744120 1.637126 0.050649 -0.006748 158579.000000 1 0 0
18.770494 -6.094848 7.897821 21.256862 -0.313964 1.190127 0.173264 -0.042247 417203.000000 1 0 0
19.453194 3.335052 2.369521 19.878731 0.169789 1.451313 0.076727 -0.023092 15778.800000 1 0 0
15.676394 -10.031648 8.328421 20.389847 -0.569257 1.150031 0.082108 -0.039652 272435.000000 1 0 0
14.197094 -4.269948 10.843021 18.367390 -0.292156 0.939315 0.080129 -0.019086 -113470.000000 1 0 0
18.822794 -7.500148 1.948421 20.355494 -0.379179 1.474930 0.113935 -0.027500 14108.100000 1 0 0
18.998294 -5.222548 -1.494879 19.759677 -0.268269 1.646522 0.086343 -0.021003 255763.000000 1 0 0
14.893794 -13.349648 -6.250479 20.954873 -0.730780 1.873689 0.087509 -0.018908 642211.000000 1 0 0
13.952094 -9.267248 10.151521 19.585612 -0.586306 1.025917 0.051591 -0.028650 380865.000000 1 0 0
14.227194 2.099652 0.276821 14.383956 0.146523 1.551550 0.002988 -0.006912 -254071.000000 1 0 0
13.177794 2.525352 13.683021 19.163943 0.189341 0.775604 0.092930 -0.018518 -145522.000000 1 0 0
18.290494 -2.308948 9.920521 20.935380 -0.125573 1.077123 0.142339 -0.022440 337054.000000 1 0 0
7.701594 -18.607148 5.327821 20.830895 -1.178361 1.312157 0.070238 -0.022771 350379.000000 1 0 0
12.765794 -2.661348 15.049421 19.913145 -0.205531 0.713993 0.090609 -0.013548 259637.000000 1 0 0
11.244094 -13.570048 -6.638879 18.832168 -0.878860 1.931068 0.031064 -0.014030 20655.000000 1 0 0
10.894894 -16.959948 4.548221 20.664580 -0.999790 1.348882 0.070920 -0.023347 480413.000000 1 0 0
18.255094 -0.119748 -5.457779 19.053874 -0.006560 1.861305 0.099834 -0.009720 -53937.900000 1 0 0
4.305294 -13.130048 11.515121 17.986988 -1.253947 0.876049 -0.004173 -0.011790 59005.600000 1 0 0
9.329594 -2.808948 14.152221 17.181876 -0.292447 0.602941 0.039790 -0.012796 317447.000000 1 0 0
9.135994 -9.363148 13.996021 19.157858 -0.797677 0.751650 0.052540 -0.009467 417280.000000 1 0 0
21.019494 5.758252 -2.748879 21.966632 0.267388 1.696264 0.166512 -0.008937 460461.000000 1 0 0
14.918294 -13.379148 2.185721 20.157740 -0.731060 1.462152 0.046174 -0.006848 322045.000000 1 0 0
11.236694 -0.253748 15.365321 19.037352 -0.022578 0.631548 0.068122 -0.017260 -43155.300000 1 0 0
19.924094 0.023452 7.538321 21.302496 0.001177 1.209090 0.195296 -0.032644 195177.000000 1 0 0
19.816794 1.210752 0.545821 19.861247 0.061021 1.543311 0.084640 -0.017697 191097.000000 1 0 0
17.946994 0.410452 3.167721 18.229029 0.022866 1.396136 0.054500 -0.013998 2641.030000 1 0 0
10.196994 -7.934848 16.382821 20.864739 -0.661279 0.667791 0.069007 -0.014841 151466.000000 1 0 0
19.059294 3.104152 5.458621 20.067112 0.161451 1.295307 0.078351 -0.013865 144336.000000 1 0 0
15.883394 2.492552 7.272021 17.645886 0.155659 1.146029 0.083824 -0.015350 170068.000000 1 0 0
11.680294 -15.875348 1.895021 19.800178 -0.936478 1.474942 0.044894 -0.009322 278370.000000 1 0 0
7.199694 -15.697848 5.930021 18.259879 -1.140779 1.240042 0.007140 -0.024514 295342.000000 1 0 0
6.188994 6.682152 7.107921 11.553239 0.823694 0.908116 0.004216 0.001384 -723193.000000 1 0 0
18.474494 2.759952 -6.561779 19.798515 0.148296 1.908613 0.090465 -0.002214 235545.000000 1 0 0
14.000994 4.509752 -7.058979 16.315479 0.311609 2.018232 0.013016 -0.006830 277727.000000 1 0 0
-10.627806 -3.930948 -13.721079 17.795242 0.354269 2.451290 0.015972 -0.008954 -161500.000000 1 0 0
7.860994 -13.959748 -10.390479 19.095336 -1.057937 2.146157 0.025740 -0.003127 204076.000000 1 0 0
2.321794 -15.982748 13.537121 21.073505 -1.426537 0.873201 0.017014 -0.015955 614476.000000 1 0 0
-9.462306 -8.017348 2.350121 12.622844 0.702921 1.383524 0.009344 0.001301 427403.000000 1 0 0
-13.876906 3.020152 -9.758379 17.231245 -0.214297 2.172829 0.021878 -0.005747 343101.000000 1 0 0
-13.264006 -5.404448 -13.166179 19.454825 0.386914 2.314144 0.056729 -0.006871 -1061.920000 1 0 0
-17.949106 -1.493648 -8.457979 19.898211 0.083024 2.009827 0.078807 -0.038928 357332.000000 1 0 0
-12.787606 14.459252 4.909121 19.917136 -0.846673 1.321753 0.029582 -0.026692 321620.000000 1 0 0
-17.599406 6.280052 9.188221 20.823102 -0.342749 1.113804 0.074300 -0.030555 322925.000000 1 0 0
-13.064906 15.273652 -0.464879 20.104535 -0.863182 1.593921 0.035210 -0.023492 192053.000000 1 0 0
-16.182306 4.963152 -10.859279 20.110292 -0.297594 2.141217 0.047009 -0.006562 67634.400000 1 0 0
-18.279106 2.592052 -0.215079 18.463226 -0.140865 1.582446 0.074154 -0.005916 -30718.600000 1 0 0
-10.108606 15.293152 -0.195979 18.333107 -0.986735 1.581486 0.021341 -0.003819 50103.500000 1 0 0
-18.855206 11.889052 2.253221 22.404137 -0.562577 1.470054 0.145494 -0.039135 168329.000000 1 0 0
-8.614006 16.304152 -7.830379 20.033505 -1.084741 1.972367 0.068466 -0.021368 222690.000000 1 0 0
-14.844906 -1.868648 -13.129079 19.905673 0.125219 2.291036 0.064629 -0.031661 216065.000000 1 0 0
-19.042506 5.159152 -4.711879 20.283878 -0.264577 1.805235 0.089485 -0.008550 -18913.500000 1 0 0
-16.797806 9.960352 -5.196879 20.208475 -0.535224 1.830882 0.046038 0.014800 111470.000000 1 0 0
-19.097206 1.045052 2.042321 19.234513 -0.054668 1.464416 0.089538 -0.016950 564861.000000 1 0 0
-14.820506 11.204452 -7.392579 19.995934 -0.647336 1.949487 0.048542 -0.017832 132617.000000 1 0 0
-13.445606 3.953852 -12.743579 18.942441 -0.286001 2.308719 0.072787 -0.035886 -127805.000000 1 0 0
-14.219006 9.026252 -6.487679 18.048361 -0.565617 1.938486 0.022060 -0.009726 84966.900000 1 0 0
-6.479306 12.033352 -15.243579 20.473145 -1.076867 2.410679 0.021286 -0.006036 106572.000000 1 0 0
-15.175406 13.905452 3.000121 20.800367 -0.741756 1.426057 0.034071 -0.022726 113978.000000 1 0 0
-18.847706 8.347052 -4.715379 21.145782 -0.416907 1.795681 0.090941 -0.009779 234513.000000 1 0 0
-4.798706 16.400452 -11.204979 20.434137 -1.286146 2.151182 0.014587 0.000537 -23842.700000 1 0 0
-19.476006 -2.195248 -6.756979 20.731394 0.112242 1.902791 0.061130 -0.026764 -156109.000000 1 0 0
-12.023406 13.919252 -6.373879 19.466232 -0.858347 1.904381 0.057385 -0.010688 171563.000000 1 0 0
-19.182006 3.099252 4.092021 19.856973 -0.160186 1.363234 0.076677 -0.023295 91028.100000 1 0 0
-15.104606 12.607652 0.738221 19.688753 -0.695538 1.533293 0.012373 -0.007564 105297.000000 1 0 0
-17.441106 2.322052 -8.244679 19.430874 -0.132358 2.008994 0.037991 -0.019605 183097.000000 1 0 0
-16.908606 13.568752 -3.697179 21.992752 -0.676249 1.739707 0.070863 0.017179 226121.000000 1 0 0
-10.614806 15.005252 -9.479179 20.680583 -0.955117 2.046947 0.050153 -0.015320 199350.000000 1 0 0
-19.452406 1.469052 -6.907079 20.694491 -0.075377 1.911090 0.090791 -0.029077 225128.000000 1 0 0
-17.237906 10.419852 -0.443079 20.147334 -0.543702 1.592790 0.041496 -0.007691 157383.000000 1 0 0
-11.591306 6.882352 -14.602779 19.873759 -0.535812 2.396134 0.044196 -0.018364 362311.000000 1 0 0
-13.863606 12.369152 -5.082779 19.262143 -0.728491 1.837833 0.041335 -0.013929 473187.000000 1 0 0
-18.156006 7.333152 -1.249279 19.620815 -0.383861 1.634511 0.031138 -0.001984 36278.400000 1 0 0
-14.179906 8.857952 -11.252079 20.152973 -0.558372 2.163172 0.002490 0.015820 399017.000000 1 0 0
-18.209306 10.920052 5.343321 21.894690 -0.540196 1.324260 0.070386 -0.044250 59446.500000 1 0 0
-8.184306 11.942952 -13.516879 19.807145 -0.970016 2.321871 0.008064 -0.005573 467471.000000 1 0 0
-21.200306 -1.731948 -5.087479 21.870873 0.081513 1.805561 0.095215 -0.034140 359816.000000 1 0 0
-11.040406 13.674052 -3.674779 17.954784 -0.891560 1.776921 0.023801 0.011164 649445.000000 1 0 0
-19.078906 -4.751648 4.199721 20.105235 0.244087 1.360360 0.095366 -0.018626 76741.400000 1 0 0
-11.438506 11.438252 -13.072679 20.798268 -0.785387 2.250479 0.047934 -0.011818 133702.000000 1 0 0
-14.981106 11.204352 -10.289279 21.350417 -0.642155 2.073646 0.034717 -0.021112 298867.000000 1 0 0
-12.593406 9.177852 -14.075879 20.998981 -0.629783 2.305426 0.070804 -0.026413 415125.000000 1 0 0
-18.388906 -4.772248 -2.353879 19.143327 0.253916 1.694069 0.037089 -0.009943 -369596.000000 1 0 0
-9.682106 12.556152 -11.364979 19.508021 -0.913925 2.192696 0.035517 -0.010453 130002.000000 1 0 0
-15.356206 7.541152 -8.399579 19.058724 -0.456488 2.027198 -0.000102 0.003866 -17999.100000 1 0 0
-14.740606 8.785552 1.995521 17.275807 -0.537481 1.455028 0.015623 -0.005752 28022.500000 1 0 0
-20.049106 6.057852 7.579721 22.273671 -0.293429 1.223561 0.104953 -0.042136 337643.000000 1 0 0
-19.021706 6.107352 3.761321 20.329107 -0.310676 1.384703 0.052914 -0.007695 258097.000000 1 0 0
-14.971206 12.599152 5.726521 20.387954 -0.699573 1.286088 0.037674 -0.020899 -2475.020000 1 0 0
17.868694 6.178152 5.372921 19.655229 0.332886 1.293914 0.072786 -0.031255 272156.000000 1 0 0
18.364894 7.843652 0.491921 19.975840 0.403648 1.546168 0.049740 -0.007035 -96578.300000 1 0 0
16.176894 5.271852 9.007921 19.251674 0.315035 1.083880 0.080797 -0.005150 101879.000000 1 0 0
12.452094 12.806452 10.863721 20.906465 0.799426 1.024373 0.069076 -0.022162 133678.000000 1 0 0
14.523994 13.591452 2.975521 20.112873 0.752242 1.422310 0.052296 0.006329 -107939.000000 1 0 0
5.346794 10.809752 14.262121 18.677447 1.111456 0.701924 0.023858 -0.002527 233479.000000 1 0 0
12.275694 14.552452 -4.947079 19.670793 0.870060 1.825020 0.082362 0.014125 369992.000000 1 0 0
18.172194 9.289752 -2.656779 20.581219 0.472573 1.700245 0.048853 -0.009152 -33993.200000 1 0 0
14.827594 7.611252 9.523021 19.195745 0.474244 1.051694 0.087748 -0.018039 111735.000000 1 0 0
4.635694 19.008852 -1.535479 19.626100 1.331595 1.649113 0.018108 -0.028610 390270.000000 1 0 0
-4.753806 19.341452 3.371121 20.200368 -1.329790 1.403128 0.030896 -0.006211 401087.000000 1 0 0
8.288894 13.504852 11.925721 19.832035 1.020312 0.925624 0.075254 0.000341 135193.000000 1 0 0
0.560594 16.822052 -10.352179 19.760144 1.537484 2.122210 0.011174 0.002681 32095.300000 1 0 0
10.675294 9.526852 15.608721 21.174394 0.728612 0.741952 0.077187 -0.026488 346288.000000 1 0 0
-1.277306 12.087852 1.222521 12.216474 -1.465518 1.470557 0.002855 -0.002014 476132.000000 1 0 0
-4.878606 19.374952 -2.467979 20.131579 -1.324125 1.693698 0.033198 0.004268 -44223.800000 1 0 0
5.582194 18.624252 6.304021 20.439284 1.279590 1.257258 0.032019 -0.013895 188705.000000 1 0 0
10.961194 17.411352 -1.664579 20.641554 1.008937 1.651526 0.104503 -0.030663 379837.000000 1 0 0
18.559494 10.196452 3.348321 21.439069 0.502377 1.413976 0.080060 -0.022703 326002.000000 1 0 0
11.543494 16.917452 5.828921 21.293866 0.972020 1.293520 0.058717 -0.014218 -301695.000000 1 0 0
18.071394 7.045252 -6.126679 20.340773 0.371732 1.876749 0.047730 -0.001675 302910.000000 1 0 0
-0.133206 15.194252 11.442021 19.021116 -1.562030 0.925365 0.002916 0.006003 352623.000000 1 0 0
1.335694 19.908152 -1.536579 20.011988 1.503804 1.647655 0.029526 -0.026509 110183.000000 1 0 0
14.406694 9.709052 -1.165279 17.411961 0.593012 1.637770 0.046342 -0.012567 92659.700000 1 0 0
10.138094 17.237852 1.621421 20.063735 1.039151 1.489895 0.061840 -0.037648 311818.000000 1 0 0
0.477694 17.690752 -0.248179 17.698940 1.543800 1.584819 0.013511 -0.004948 11527.900000 1 0 0
-0.136906 20.969052 1.197621 21.003670 -1.564267 1.513746 0.031618 -0.016898 219119.000000 1 0 0
6.184694 17.352552 -0.337979 18.424867 1.228419 1.589141 0.016849 -0.035716 -45875.400000 1 0 0
6.507694 18.399952 -3.058679 19.755096 1.230847 1.726252 0.030747 -0.036498 20749.400000 1 0 0
10.308194 9.558952 12.735321 18.968943 0.747703 0.834730 0.043942 -0.011664 179962.000000 1 0 0
12.849194 14.834652 7.837221 21.132693 0.856995 1.190864 0.069852 -0.024208 295575.000000 1 0 0
-0.113006 17.876052 7.245821 19.289062 -1.564475 1.185705 0.014168 0.001637 235318.000000 1 0 0
6.894594 18.056152 -7.982379 20.911203 1.206041 1.962461 0.059069 -0.015518 149313.000000 1 0 0
-0.845906 18.483152 9.550221 20.821844 -1.525062 1.094306 0.014709 -0.010913 35588.400000 1 0 0
15.911694 7.004152 -7.894179 19.093407 0.414665 1.997037 0.057065 -0.001263 -347871.000000 1 0 0
-5.469306 19.727352 -6.636679 21.520391 -1.300344 1.884297 0.029687 -0.010452 332272.000000 1 0 0
3.826594 16.131352 9.943221 19.332123 1.337887 1.030562 0.017999 0.000732 217270.000000 1 0 0
8.644994 15.060652 7.548021 18.934935 1.049705 1.160774 0.017458 -0.004765 154605.000000 1 0 0
-2.649106 19.316352 6.463121 20.540476 -1.434503 1.250705 0.025297 -0.005910 -25360.300000 1 0 0
4.371894 18.073552 8.041621 20.259180 1.333461 1.162619 0.022954 -0.017913 103196.000000 1 0 0
14.424394 12.177452 -5.961679 19.796340 0.701133 1.876695 0.060504 -0.012225 27220.700000 1 0 0
11.846494 6.542552 15.787021 20.793615 0.504590 0.708676 0.099669 -0.036462 272369.000000 1 0 0
16.959294 8.992152 4.909021 19.813503 0.487530 1.320427 0.069582 -0.030068 36403.400000 1 0 0
5.446094 14.783752 12.578421 20.160256 1.217839 0.897045 0.026751 -0.013982 222773.000000 1 0 0
15.759294 10.456552 -3.475079 19.229430 0.585819 1.752511 0.062922 -0.028259 76030.400000 1 0 0
15.389794 13.157052 5.666921 21.025407 0.707344 1.297894 0.088868 -0.030908 470637.000000 1 0 0
12.809994 13.435152 -8.249079 20.313703 0.809214 1.988962 0.186711 -0.054931 361702.000000 1 0 0
-8.494906 15.444652 9.497421 20.022530 -1.067936 1.076586 0.046914 -0.028321 172788.000000 1 0 0
-3.636006 17.092252 -7.792779 19.133557 -1.361192 1.990274 0.002084 0.019739 -145716.000000 1 0 0
2.354994 19.663352 -4.472679 20.302666 1.451598 1.792918 0.027146 -0.019031 174931.000000 1 0 0
6.559994 17.118852 8.860321 20.361579 1.204854 1.120593 0.025264 -0.000414 426582.000000 1 0 0
13.284694 15.710552 -1.631879 20.638981 0.868868 1.649947 0.123666 -0.034270 223551.000000 1 0 0
13.436094 16.195752 4.434921 21.505802 0.878262 1.363086 0.105482 -0.034363 366194.000000 1 0 0
3.282994 18.457752 0.574921 18.756257 1.394772 1.540139 0.034225 -0.019618 91923.000000 1 0 0
-7.774906 17.208452 1.245921 18.924384 -1.146440 1.504912 0.024021 0.005760 294164.000000 1 0 0
0.149194 19.859752 -5.956179 20.734224 1.563284 1.862165 0.036163 -0.001224 238518.000000 1 0 0
-7.416806 17.893852 -6.273779 20.360728 -1.177862 1.884025 0.052481 -0.021671 153899.000000 1 0 0
-7.391006 18.534452 -1.193779 19.989447 -1.191350 1.630552 0.041950 -0.006542 83331.000000 1 0 0
-14.552306 -9.173848 8.632221 19.246931 0.562477 1.105712 0.067901 -0.031286 384767.000000 1 0 0
-13.245006 -13.730148 7.776721 20.601567 0.803381 1.183721 0.070104 -0.013588 50699.000000 1 0 0
-3.321106 -15.671248 12.947621 20.597540 1.361963 0.891044 0.032121 -0.008225 123990.000000 1 0 0
-1.626206 -14.916748 15.633321 21.669210 1.462206 0.764898 0.041663 0.000055 507273.000000 1 0 0
-8.056806 -13.480348 12.706821 20.201367 1.032091 0.890520 0.059023 -0.022621 174002.000000 1 0 0
-10.073306 -10.141748 12.017421 18.674715 0.788784 0.871717 0.069931 -0.034060 153026.000000 1 0 0
-7.166606 -10.470248 13.328621 18.402133 0.970567 0.760781 0.033148 -0.009759 306753.000000 1 0 0
-14.921506 -11.448848 8.330721 20.570085 0.654464 1.153826 0.059561 0.003705 237990.000000 1 0 0
-4.589606 -12.905348 13.323421 19.108272 1.229109 0.799229 0.030305 -0.005162 369761.000000 1 0 0
4.006494 -13.271048 14.383521 19.976446 -1.277600 0.766959 -0.003336 0.029576 496770.000000 1 0 0
6.731994 -13.459748 15.035021 21.272903 -1.107023 0.785876 0.024720 0.006575 264462.000000 1 0 0
6.912994 -8.965548 16.955021 20.387331 -0.913951 0.588733 0.034232 -0.004849 345222.000000 1 0 0
-5.491206 13.481452 12.868121 19.429139 -1.183999 0.846898 0.033527 -0.025198 451092.000000 1 0 0
-13.571306 -2.130048 17.398121 22.167816 0.155682 0.668363 0.062610 -0.004980 377019.000000 1 0 0
-10.183806 10.742352 13.861121 20.279021 -0.812083 0.818222 0.015160 0.026661 233135.000000 1 0 0
-7.296406 -8.423148 16.943121 20.279456 0.856954 0.581787 0.044491 -0.023196 139848.000000 1 0 0
-5.232706 2.485552 18.142521 19.044953 -0.443451 0.309074 0.028847 -0.003561 682421.000000 1 0 0
-15.956306 -3.523048 13.990921 21.511891 0.217307 0.862711 0.100982 -0.035434 165552.000000 1 0 0
-14.583306 3.112252 12.859821 19.690961 -0.210258 0.859149 0.040939 0.006353 342193.000000 1 0 0
-14.510406 10.821552 9.592621 20.486001 -0.640794 1.083484 -0.002187 -0.003106 -178621.000000 1 0 0
-3.990506 11.164652 15.745621 19.710357 -1.227524 0.645415 -0.006121 -0.005082 186749.000000 1 0 0
-13.216006 12.931152 7.515121 19.958821 -0.774504 1.184747 0.026919 -0.039113 78672.400000 1 0 0
-4.098206 -6.387548 18.607721 20.095854 1.000354 0.387257 0.047166 -0.024153 257147.000000 1 0 0
0.360794 -2.696148 17.851721 18.057777 -1.437768 0.151213 0.012816 -0.022140 -82456.900000 1 0 0
-4.449206 6.546352 21.185021 22.615377 -0.973861 0.357562 0.052059 -0.006745 136758.000000 1 0 0
2.284794 -10.392948 16.344321 19.503089 -1.354398 0.577120 0.008169 -0.012037 212305.000000 1 0 0
-14.633406 -0.214548 13.926421 20.202174 0.014660 0.810201 0.015926 -0.006832 -85115.400000 1 0 0
-13.333806 -6.050748 9.282321 17.336765 0.426001 1.005800 0.031402 -0.008286 386410.000000 1 0 0
10.221594 1.558452 16.462221 19.440022 0.151301 0.560817 0.081169 -0.015321 295737.000000 1 0 0
-8.055206 12.048552 11.509221 18.507191 -0.981483 0.899657 0.039296 -0.029701 185369.000000 1 0 0
-2.120406 7.748252 20.085921 21.632747 -1.303674 0.380454 0.038074 -0.009973 516526.000000 1 0 0
1.373494 -13.190848 15.382621 20.310342 -1.467045 0.711507 0.001441 -0.020148 420563.000000 1 0 0
-3.221006 -11.325148 17.593821 21.170177 1.293701 0.589774 0.057885 -0.029970 486145.000000 1 0 0
-2.191706 8.711052 16.738421 18.996335 -1.324312 0.492530 0.008760 -0.006134 412073.000000 1 0 0
-4.800906 -9.565148 20.631721 23.242390 1.105617 0.478522 0.106110 -0.030623 257951.000000 1 0 0
-6.703506 -3.254548 19.200221 20.595572 0.451980 0.370214 0.037262 -0.018656 -13286.000000 1 0 0
-11.000406 -8.225448 15.766821 20.910753 0.642053 0.716658 0.104271 -0.035568 241360.000000 1 0 0
0.070494 6.737652 17.845221 19.074927 1.560334 0.361032 0.002286 0.001248 295933.000000 1 0 0
-6.380106 -11.046348 19.057721 22.933039 1.047028 0.589865 0.106735 -0.029024 341340.000000 1 0 0
0.632994 3.462152 18.807621 19.134100 1.389961 0.184994 0.016097 -0.005576 133582.000000 1 0 0
-18.533106 -0.204648 7.569721 20.020454 0.011042 1.183054 0.090788 -0.026743 233759.000000 1 0 0
-1.848506 -8.818148 17.470121 19.656598 1.364163 0.476150 0.025803 -0.016510 303750.000000 1 0 0
5.136194 3.293652 14.174321 15.431785 0.570209 0.406489 0.021631 -0.010078 185997.000000 1 0 0
-14.749706 -8.135748 11.137021 20.193501 0.504061 0.986617 0.107268 0.010243 122202.000000 1 0 0
3.641894 8.257552 16.797321 19.068312 1.155420 0.493031 0.021899 -0.008184 259237.000000 1 0 0
6.202094 4.363452 17.149621 18.751405 0.613101 0.416333 0.059593 -0.045673 307592.000000 1 0 0
4.503494 -9.773548 17.947021 20.926043 -1.139011 0.540133 -0.007603 -0.002259 391401.000000 1 0 0
-4.412906 -0.264548 19.755221 20.243826 0.059877 0.220153 0.034319 -0.016678 666014.000000 1 0 0
-11.152106 2.099852 16.500921 20.026464 -0.186113 0.602439 0.038949 -0.018852 178419.000000 1 0 0
-16.459606 -4.515548 9.069221 19.327690 0.267754 1.082372 0.060896 -0.024377 30757.600000 1 0 0
-12.914506 -8.967648 13.866421 20.963798 0.606948 0.848051 0.072843 -0.045903 -24633.500000 1 0 0
-14.807306 6.089852 12.815321 20.507927 -0.390187 0.895798 0.049965 -0.026770 296977.000000 1 0 0
1.040194 9.299352 17.197621 19.578511 1.459403 0.498308 0.005450 -0.007324 168263.000000 1 0 0
-3.822606 -10.295548 14.851521 18.471013 1.215285 0.636729 0.031151 -0.018574 735354.000000 1 0 0
-17.105406 -2.804948 7.169121 18.757904 0.162534 1.178629 0.044465 -0.025736 -30948.600000 1 0 0
-0.822406 -0.484548 21.096221 21.117805 0.532428 0.045216 0.043146 -0.016214 381791.000000 1 0 0
-1.862706 2.788452 20.357121 20.631469 -0.981866 0.163261 0.024774 -0.007518 44946.700000 1 0 0
-8.009906 2.067952 16.311621 18.289451 -0.252657 0.469357 0.004779 0.012153 576236.000000 1 0 0
2.900594 -2.347848 18.927621 19.291985 -0.680469 0.194661 0.030396 -0.007311 97397.500000 1 0 0
-12.150806 4.417952 14.200121 19.204266 -0.348733 0.738580 0.000938 -0.009001 132452.000000 1 0 0
-13.274806 -5.499848 12.990721 19.370794 0.392779 0.835733 0.052450 -0.035433 -15561.300000 1 0 0
-17.603106 -0.809048 9.729121 20.129076 0.045928 1.066334 0.098858 -0.030169 196339.000000 1 0 0
-7.810006 7.638552 14.383421 18.061740 -0.774300 0.649564 0.015090 -0.011877 196192.000000 1 0 0
-9.469606 0.176952 13.977021 16.883775 -0.018684 0.595555 0.010737 -0.005797 249349.000000 1 0 0
7.869694 -0.975748 15.238721 17.178556 -0.123359 0.479820 0.044201 -0.012636 87323.400000 1 0 0
3.735594 6.034052 18.406221 19.726972 1.016461 0.368001 0.019468 -0.012166 62747.900000 1 0 0
1.968494 0.566552 19.773421 19.879238 0.280236 0.103225 0.032905 -0.017735 272518.000000 1 0 0
-7.193306 6.604752 17.475321 20.018822 -0.742769 0.509590 0.023833 -0.005651 734359.000000 1 0 0
7.522394 -3.106048 17.121521 18.957332 -0.391583 0.443720 0.040738 0.001459 300385.000000 1 0 0
-16.290906 2.541752 9.287921 18.924048 -0.154775 1.057789 0.049988 -0.014407 169781.000000 1 0 0
4.179394 -6.025348 18.867021 20.241952 -0.964355 0.370697 0.044014 -0.036467 155220.000000 1 0 0
-3.890206 -3.852848 20.637421 21.351377 0.780573 0.259332 0.048063 -0.021840 446733.000000 1 0 0
-9.677806 5.892752 14.452321 18.364478 -0.546933 0.664911 0.008888 -0.006667 11060.500000 1 0 0
6.820794 1.964952 19.695921 20.935939 0.280488 0.345900 0.109561 -0.029398 3567.590000 1 0 0
-7.447206 11.487252 14.518221 19.954863 -0.995616 0.756048 0.047729 -0.018510 232225.000000 1 0 0
-14.338406 5.032752 9.063021 17.693412 -0.337564 1.033022 0.023635 -0.015687 290099.000000 1 0 0
1.450894 -5.083848 20.208421 20.888535 -1.292794 0.255881 0.057151 -0.036702 355550.000000 1 0 0
-5.908506 -8.151048 13.507521 16.846458 0.943569 0.640492 0.006811 -0.010612 13012.400000 1 0 0
-12.723206 9.911352 6.338021 17.328744 -0.661803 1.196356 -0.008787 -0.022112 -88147.600000 1 0 0
-19.905906 2.327652 7.455621 21.383390 -0.116404 1.214651 0.106462 -0.036586 88845.500000 1 0 0
-15.765106 8.942652 6.359421 19.208119 -0.515985 1.233349 0.019514 -0.018785 81585.900000 1 0 0
-12.128106 7.924052 13.771621 19.988474 -0.578735 0.810718 0.002717 -0.024327 243089.000000 1 0 0
-16.528106 8.941452 10.571021 21.560945 -0.495895 1.058379 0.076194 -0.036871 348115.000000 1 0 0
2.421994 10.645152 14.661121 18.279326 1.347084 0.640059 0.009104 -0.036258 465324.000000 1 0 0
1.955894 15.336652 12.788421 20.064449 1.443950 0.879720 0.011321 -0.007084 708227.000000 1 0 0
8.908094 5.000352 16.869521 19.721521 0.511498 0.544500 0.064932 -0.013454 113337.000000 1 0 0
-0.044806 13.045452 13.521521 18.788756 -1.567362 0.767483 0.003355 0.009397 359108.000000 1 0 0
3.226294 13.069352 14.793221 20.001408 1.328776 0.738307 0.002552 0.003055 183759.000000 1 0 0
-3.720206 -4.587048 -13.461879 14.700447 0.889369 2.728158 0.009946 -0.008331 112084.000000 1 0 0
5.305294 -12.199648 16.969921 21.562833 -1.160593 0.664867 -0.020001 0.019566 194206.000000 1 0 0
8.592694 -13.914848 7.029421 17.800847 -1.017594 1.164845 0.010981 0.000872 154298.000000 1 0 0
-0.531706 15.194852 0.467321 15.211332 -1.535818 1.540070 0.011968 -0.003714 -324345.000000 1 0 0
-14.151606 7.730552 8.607121 18.278729 -0.499972 1.080506 0.012803 -0.004534 142444.000000 1 0 0
-16.228006 -9.632448 4.684621 19.444226 0.535678 1.327476 0.052354 -0.014137 117973.000000 1 0 0
9.409494 -10.411448 11.512021 18.151128 -0.835905 0.883782 0.030676 0.004365 121347.000000 1 0 0
-26.692576 6.012952 31.005009 41.351660 -0.221568 0.723054 0.059695 -0.031640 260740.000000 0 0 1
-25.569106 5.244352 30.557999 40.187980 -0.202299 0.706904 0.064667 -0.030424 560759.000000 0 0 1
-24.439306 5.527552 31.371700 40.149932 -0.222432 0.673948 0.049137 -0.019923 -707052.000000 0 0 1
-23.255406 4.725652 30.937309 38.990547 -0.200477 0.654329 0.059327 -0.026038 -1033280.000000 0 0 1
-23.220406 3.448952 31.519108 39.300594 -0.147453 0.640159 0.055170 -0.018651 771733.000000 0 0 1
-21.976406 2.865852 31.089089 38.179929 -0.129674 0.619311 0.064841 -0.015267 726305.000000 0 0 1
-21.749406 1.482152 31.730454 38.497469 -0.068042 0.601970 0.058873 -0.016389 136916.000000 0 0 1
-22.612506 0.429352 31.297087 38.613695 -0.018985 0.625761 0.057172 -0.009587 378677.000000 0 0 1
-22.538306 -0.681948 32.205103 39.314234 0.030248 0.610831 0.058574 -0.010152 -568729.000000 0 0 1
-23.176306 -1.966548 31.828312 39.421440 0.084649 0.631088 0.068784 -0.028284 -1010690.000000 0 0 1
-22.380606 -2.901048 31.122379 38.443596 0.128905 0.627395 0.129323 -0.044747 19625.900000 0 0 1
-22.765306 -4.310348 31.178949 38.845400 0.187123 0.639085 0.131472 -0.049984 -331830.000000 0 0 1
-24.225706 -4.653048 30.807479 39.466903 0.189760 0.675187 0.084952 -0.040246 673135.000000 0 0 1
-25.364856 -4.330848 31.623698 40.769970 0.169111 0.683034 0.050055 -0.035623 720933.000000 0 0 1
-25.340276 -4.757748 32.956249 41.843519 0.185594 0.663881 0.038561 -0.039107 -718125.000000 0 0 1
-26.446546 -4.196648 -33.539589 42.917779 0.157372 2.467838 0.039368 -0.033144 -149693.000000 0 0 1
-26.331586 -4.699948 -32.222339 41.877453 0.176631 2.448766 0.044061 -0.036609 544333.000000 0 0 1
-27.320856 -4.222048 -31.294619 41.756533 0.153323 2.418034 0.058416 -0.027592 170268.000000 0 0 1
-27.335486 -4.977548 -29.938249 40.844872 0.180118 2.393481 0.052165 -0.022694 -286688.000000 0 0 1
-27.858126 -6.292648 -29.903669 41.350962 0.222154 2.379174 0.051466 -0.017654 487349.000000 0 0 1
-27.623326 -6.794948 -28.591519 40.332300 0.241197 2.358732 0.035559 -0.014028 -50991.100000 0 0 1
-27.714846 -8.351148 -28.516039 40.632732 0.292671 2.348717 0.043334 -0.006417 -223004.000000 0 0 1
-29.063426 -8.734348 -28.501529 41.633025 0.291940 2.324837 0.053681 -0.002401 -535012.000000 0 0 1
-29.275296 -10.098048 -28.646789 42.185923 0.332155 2.317278 0.053386 0.005993 674012.000000 0 0 1
-30.664566 -10.404148 -27.993739 42.804338 0.327101 2.283647 0.098277 0.003726 548669.000000 0 0 1
-30.649116 -11.060848 -26.731689 42.146102 0.346340 2.257850 0.122141 -0.002952 -890138.000000 0 0 1
-31.895456 -11.470248 -26.305189 42.905125 0.345219 2.230777 0.136204 -0.013542 -675489.000000 0 0 1
-31.742996 -12.052848 -24.841679 42.071344 0.362886 2.202432 0.145427 -0.013843 11269.200000 0 0 1
-31.287386 -11.154548 -23.809579 40.868332 0.342471 2.192711 0.158715 -0.016457 359782.000000 0 0 1
-31.245966 -11.947948 -22.600879 40.371570 0.365228 2.164967 0.173219 -0.025820 -187414.000000 0 0 1
-30.743416 -11.160648 -21.342579 39.054109 0.348231 2.148961 0.190517 -0.036448 90622.400000 0 0 1
-30.688926 -11.961148 -20.142579 38.608325 0.371643 2.119657 0.192080 -0.039680 -192240.000000 0 0 1
-29.667976 -12.912048 -20.004879 38.040833 0.410494 2.124545 0.177447 -0.037198 -308735.000000 0 0 1
-29.179956 -13.135348 -18.562179 36.994077 0.422978 2.096430 0.163183 -0.038103 233599.000000 0 0 1
-28.537766 -11.959748 -18.043979 35.819337 0.396850 2.098730 0.149502 -0.043618 112936.000000 0 0 1
-28.199896 -12.197848 -16.704279 34.972198 0.408248 2.068768 0.142616 -0.043614 713.522000 0 0 1
-27.826966 -10.904048 -15.948379 33.876085 0.373462 2.060978 0.135330 -0.034695 89590.600000 0 0 1
-26.534806 -10.452148 -16.326179 32.861642 0.375240 2.090722 0.104261 -0.038437 298301.000000 0 0 1
-26.411486 -9.170548 -15.673879 32.052084 0.334194 2.081754 0.093695 -0.039505 -311430.000000 0 0 1
-24.960306 -8.694648 -15.541179 30.661736 0.335194 2.102334 0.082486 -0.039251 -261347.000000 0 0 1
-24.126106 -9.248448 -14.562879 29.659404 0.366060 2.084038 0.077091 -0.036726 1468770.000000 0 0 1
-22.913806 -8.422748 -14.445379 28.366427 0.352253 2.105100 0.112411 -0.059642 1340820.000000 0 0 1
-21.723706 -8.968948 -13.632979 27.170196 0.391547 2.096431 0.099048 -0.041599 -213146.000000 0 0 1
-20.991106 -10.042248 -14.185079 27.252335 0.446223 2.118243 0.086210 -0.030377 219043.000000 0 0 1
-19.896106 -10.239848 -13.318079 26.039984 0.475311 2.107665 0.116666 -0.032440 -209795.000000 0 0 1
-18.881406 -11.325248 -13.713679 25.939039 0.540279 2.127851 0.116175 -0.023707 -169912.000000 0 0 1
-18.188606 -11.159248 -14.937679 26.047812 0.550308 2.181534 0.132789 -0.030428 -95946.800000 0 0 1
-18.936006 -11.232048 -16.110379 27.281414 0.535374 2.202507 0.115070 -0.035381 -532122.000000 0 0 1
-18.149006 -10.809848 -17.390379 27.361735 0.537190 2.259547 0.132113 -0.039509 113114.000000 0 0 1
-18.932706 -10.911948 -18.561579 28.671418 0.522852 2.274951 0.093263 -0.031279 801636.000000 0 0 1
-18.161906 -10.483948 -19.679279 28.758339 0.523523 2.324437 0.096239 -0.037374 376631.000000 0 0 1
-19.047706 -10.737148 -20.919679 30.261105 0.513299 2.334091 0.108824 -0.037197 493042.000000 0 0 1
-20.237806 -9.968748 -21.053279 30.857500 0.457694 2.321665 0.093867 -0.042620 651868.000000 0 0 1
-21.173206 -10.752648 -21.822079 32.251004 0.469902 2.313976 0.085973 -0.035423 877929.000000 0 0 1
-22.358806 -9.872148 -22.350879 33.120044 0.415790 2.311550 0.057367 -0.028367 404432.000000 0 0 1
-21.887106 -8.936648 -23.301979 33.194749 0.387647 2.348967 0.059797 -0.035611 -205714.000000 0 0 1
-22.890006 -8.404948 -24.085279 34.273842 0.351905 2.350025 0.048342 -0.030677 -909884.000000 0 0 1
-22.339906 -7.529348 -25.191279 34.501638 0.325079 2.389334 0.064365 -0.032468 -269549.000000 0 0 1
-21.572306 -8.407548 -25.978699 34.798622 0.371629 2.413649 0.079887 -0.036322 -307381.000000 0 0 1
-20.746006 -7.700048 -26.822729 34.772781 0.355398 2.451790 0.073555 -0.040340 -428625.000000 0 0 1
-19.683306 -8.538748 -27.556199 34.924016 0.409306 2.480030 0.111215 -0.047765 -129716.000000 0 0 1
-20.183806 -9.243448 -28.669889 36.260032 0.429457 2.482707 0.115241 -0.045935 272669.000000 0 0 1
-19.260606 -10.219548 -29.128369 36.385052 0.487822 2.499023 0.097653 -0.042596 -107189.000000 0 0 1
-19.841206 -11.295748 -30.078539 37.762229 0.517546 2.492321 0.107898 -0.032767 -310164.000000 0 0 1
-20.168606 -10.796348 -31.374119 38.828716 0.491491 2.511569 0.112184 -0.026028 264606.000000 0 0 1
-20.284306 -11.871448 -32.296659 39.943192 0.529505 2.512505 0.093547 -0.026626 -38505.800000 0 0 1
-20.914706 -11.560748 -33.652079 41.273942 0.504957 2.524103 0.091271 -0.035058 -288646.000000 0 0 1
-20.083906 -10.775448 32.966890 40.078540 0.492436 0.604903 0.088370 -0.037107 -409550.000000 0 0 1
-20.444906 -10.742048 31.641494 39.173587 0.483772 0.630513 0.088717 -0.035840 -468466.000000 0 0 1
-19.955506 -11.802848 30.685719 38.459626 0.534115 0.647045 0.089041 -0.028731 -316726.000000 0 0 1
-18.564906 -11.601448 30.437889 37.492858 0.558537 0.623514 0.088194 -0.031044 646029.000000 0 0 1
-17.910406 -12.650348 29.737349 36.947583 0.614950 0.635370 0.081706 -0.028188 58642.700000 0 0 1
-18.029906 -14.152648 30.254329 37.956546 0.665499 0.648355 0.073095 -0.015484 -2149750.000000 0 0 1
-19.237406 -14.721648 29.954749 38.523911 0.653197 0.680016 0.065375 -0.019307 -1039030.000000 0 0 1
-19.403606 -16.061348 30.492179 39.550472 0.691435 0.690435 0.057193 -0.021470 -246276.000000 0 0 1
-19.646506 -16.131548 32.025724 40.888373 0.687469 0.670924 0.041502 -0.028422 286829.000000 0 0 1
-18.514306 -15.713848 32.819394 40.826672 0.703763 0.637021 0.070222 -0.027172 594524.000000 0 0 1
-18.899606 -15.466948 -33.269899 41.271150 0.685845 2.508378 0.066639 -0.024447 228992.000000 0 0 1
-17.727606 -14.849648 -32.483189 39.874022 0.697284 2.522914 0.077298 -0.021087 -88424.700000 0 0 1
-17.449606 -13.509548 -32.824719 39.553241 0.658812 2.549701 0.086607 -0.018318 522335.000000 0 0 1
-16.185706 -13.088948 -32.273329 38.403977 0.680007 2.568751 0.093083 -0.010139 804743.000000 0 0 1
-16.237906 -12.650948 -30.752459 37.005808 0.661866 2.551730 0.106538 -0.016746 -262196.000000 0 0 1
-16.346506 -13.874948 -30.072689 36.933577 0.703798 2.522210 0.103946 -0.026221 -116318.000000 0 0 1
-16.489806 -13.635048 -28.727469 35.820326 0.690916 2.501412 0.082943 -0.024348 -298627.000000 0 0 1
-16.686606 -14.987148 -27.914489 35.808884 0.731794 2.464729 0.092957 -0.023533 -338909.000000 0 0 1
-15.541506 -15.637348 -27.463839 35.218284 0.788472 2.465171 0.111855 -0.043255 -477466.000000 0 0 1
-14.733506 -16.281048 -28.445669 35.934730 0.835254 2.484207 0.120944 -0.045419 -78365.700000 0 0 1
-13.439706 -16.838348 -27.819909 35.186688 0.897178 2.482646 0.149077 -0.041938 -145187.000000 0 0 1
-12.694806 -15.833948 -27.133469 33.883583 0.894992 2.499401 0.137615 -0.039844 -249121.000000 0 0 1
-11.688206 -16.383648 -26.301979 33.118457 0.951129 2.488451 0.176710 -0.045492 298034.000000 0 0 1
-10.254106 -16.027848 -26.764359 32.838537 1.001648 2.523576 0.133169 -0.042432 -378176.000000 0 0 1
-9.973106 -14.673348 -26.821789 32.158644 0.973842 2.557198 0.135039 -0.042913 -810163.000000 0 0 1
-8.770406 -14.494548 -27.493919 32.294389 1.026648 2.589355 0.159999 -0.049565 -397774.000000 0 0 1
-8.418106 -13.018348 -27.690809 31.735198 0.996791 2.631211 0.122800 -0.047335 176093.000000 0 0 1
-9.371006 -12.323648 -28.498219 32.432030 0.920667 2.643941 0.148908 -0.045581 495791.000000 0 0 1
-8.909606 -11.021448 -28.907289 32.194484 0.890962 2.685762 0.125134 -0.040465 613541.000000 0 0 1
-7.829806 -11.012748 -30.079419 32.975111 0.952741 2.719383 0.119277 -0.029131 1066510.000000 0 0 1
-6.483306 -11.308048 -29.657689 32.395736 1.050214 2.727499 0.096540 -0.033063 976619.000000 0 0 1
-5.533906 -10.979048 -30.643379 33.017879 1.103920 2.760031 0.088834 -0.027395 9948.630000 0 0 1
-5.176006 -9.436448 -30.739849 32.569555 1.069096 2.804807 0.085908 -0.033401 -1250170.000000 0 0 1
-4.029606 -9.135448 -31.477389 33.023025 1.155372 2.834430 0.118200 -0.047527 -217717.000000 0 0 1
-4.018306 -7.805348 -31.915959 33.101340 1.095367 2.873166 0.138550 -0.049601 626512.000000 0 0 1
-2.604406 -7.293348 -32.365189 33.278842 1.227816 2.906727 0.130234 -0.055975 676750.000000 0 0 1
-2.064706 -7.782948 -33.578349 34.530317 1.311483 2.906235 0.139759 -0.061801 177010.000000 0 0 1
-0.774506 -7.285348 33.502659 34.294377 1.464884 0.215292 0.176794 -0.051542 557224.000000 0 0 1
-0.192206 -7.967448 32.243002 33.213376 1.546677 0.242321 0.164988 -0.052003 -139223.000000 0 0 1
-0.748706 -7.460748 31.018709 31.912123 1.470778 0.237182 0.165181 -0.048133 202098.000000 0 0 1
-0.159306 -8.047148 29.868229 30.933688 1.551002 0.263222 0.136797 -0.045817 -21716.500000 0 0 1
-0.505006 -7.364048 28.561419 29.499811 1.502326 0.252904 0.118555 -0.044731 71161.900000 0 0 1
0.245994 -6.149248 28.402869 29.061946 -1.530814 0.213376 0.135089 -0.046767 217640.000000 0 0 1
0.031194 -5.488748 27.169519 27.718407 -1.565113 0.199339 0.128157 -0.041078 240220.000000 0 0 1
-1.302406 -4.731848 26.956859 27.399980 1.302205 0.180089 0.096379 -0.026089 681985.000000 0 0 1
-2.525906 -5.460348 26.999969 27.662139 1.137521 0.219244 0.069076 -0.015095 -286758.000000 0 0 1
-3.568306 -4.588248 26.666649 27.292764 0.909798 0.214611 0.063806 -0.016004 1499570.000000 0 0 1
-4.988006 -5.208148 27.154669 28.095926 0.806985 0.259578 0.055830 -0.009262 1959350.000000 0 0 1
-5.513806 -6.334548 26.393469 27.697360 0.854558 0.308060 0.055173 -0.006817 -675939.000000 0 0 1
-6.841206 -6.580748 26.709889 28.346543 0.765995 0.341472 0.055658 -0.012562 -366106.000000 0 0 1
-7.126606 -8.033048 26.571099 28.659059 0.845120 0.384077 0.058610 -0.018728 4948.290000 0 0 1
-6.474006 -8.758248 27.576989 29.649789 0.934250 0.376137 0.055090 -0.019811 -84632.200000 0 0 1
-6.579506 -10.167948 27.475039 30.025903 0.996474 0.415178 0.059350 -0.023476 14411.400000 0 0 1
-5.958106 -10.870948 28.701829 31.264541 1.069431 0.407710 0.058801 -0.019072 -164627.000000 0 0 1
-6.038106 -12.261748 28.581179 31.681114 1.113220 0.446064 0.079323 -0.026888 194567.000000 0 0 1
-5.645006 -12.886348 29.797079 32.951327 1.157915 0.441117 0.090873 -0.027025 -66396.600000 0 0 1
-5.499506 -14.419548 29.564859 33.350394 1.206433 0.481088 0.141214 -0.051578 1155640.000000 0 0 1
-6.789306 -15.044848 29.308899 33.637088 1.146886 0.512896 0.159441 -0.053590 978285.000000 0 0 1
-6.837806 -16.431648 29.149729 34.153497 1.176457 0.548147 0.193461 -0.054997 42936.900000 0 0 1
-6.877906 -17.195648 30.477349 35.663212 1.190308 0.546040 0.202016 -0.047435 213783.000000 0 0 1
-8.217406 -17.280548 30.926159 36.367161 1.126916 0.554076 0.191602 -0.051785 16997.100000 0 0 1
-8.271806 -17.796848 32.225345 37.730935 1.135711 0.547011 0.206377 -0.049097 767885.000000 0 0 1
-9.669206 -17.701348 32.997059 38.673468 1.070843 0.548664 0.203159 -0.032949 1420360.000000 0 0 1
-10.726706 -18.469248 32.491386 38.882715 1.044624 0.581526 0.227957 -0.043123 91414.600000 0 0 1
-11.397006 -17.988148 31.336044 37.886843 1.006048 0.596876 0.196042 -0.058208 -317657.000000 0 0 1
-12.313406 -19.113648 30.756069 38.247710 0.998495 0.636589 0.174554 -0.054176 232823.000000 0 0 1
-13.428606 -19.449048 31.567283 39.434582 0.966508 0.642672 0.165735 -0.049620 172654.000000 0 0 1
-13.633306 -20.860248 31.644515 40.278931 0.991926 0.667075 0.163856 -0.048761 -24075.400000 0 0 1
-12.699506 -21.724248 32.539829 41.134668 1.041794 0.658263 0.195667 -0.049682 652326.000000 0 0 1
-11.320706 -21.904348 32.179972 40.540220 1.093780 0.653799 0.208227 -0.059254 1065540.000000 0 0 1
-10.493706 -22.410648 33.242680 41.441896 1.132873 0.639907 0.226605 -0.070497 385573.000000 0 0 1
-10.713406 -23.884748 -33.696819 42.670059 1.149152 2.481127 0.211843 -0.048406 -543510.000000 0 0 1
-10.322806 -24.813048 32.740400 42.357779 1.176554 0.687320 0.212644 -0.049337 34208.000000 0 0 1
-10.203206 -26.085818 33.217519 43.450879 1.197951 0.700555 0.204912 -0.052218 -1033470.000000 0 0 1
-9.656606 -27.123978 32.200306 43.195138 1.228771 0.729570 0.176894 -0.047009 -84864.200000 0 0 1
-8.299206 -26.986078 31.851759 42.563597 1.272440 0.725250 0.201041 -0.059102 -466313.000000 0 0 1
-7.419406 -27.408208 32.839082 43.412703 1.306432 0.712944 0.184292 -0.058854 -1322520.000000 0 0 1
-5.949706 -27.140868 32.514488 42.769354 1.354994 0.707131 0.181674 -0.068937 -280701.000000 0 0 1
-5.533406 -25.829768 32.887212 42.182511 1.359760 0.676704 0.193152 -0.069474 212005.000000 0 0 1
-4.260506 -25.554518 32.311288 41.415030 1.405594 0.675839 0.261723 -0.054729 229146.000000 0 0 1
-3.655406 -24.246448 32.826982 40.973930 1.421163 0.641553 0.256182 -0.060973 -114295.000000 0 0 1
-2.750506 -24.416648 -33.494189 41.540326 1.458620 2.508675 0.198379 -0.065931 289708.000000 0 0 1
-2.298606 -23.157048 -33.131559 40.487439 1.471859 2.529273 0.186741 -0.062282 -179960.000000 0 0 1
36.009911 -15.797748 2.240821 39.386594 -0.413422 1.513873 0.243203 -0.060492 -76688.100000 0 0 1
36.891391 -15.964548 3.332121 40.335401 -0.408412 1.488092 0.194623 -0.057030 107727.000000 0 0 1
36.254131 -16.401248 4.488221 40.043814 -0.424845 1.458478 0.177812 -0.049934 -670129.000000 0 0 1
37.150201 -16.386648 5.681221 40.999219 -0.415421 1.431780 0.152503 -0.030772 -297748.000000 0 0 1
-37.956706 -17.427248 5.691121 42.152217 0.430424 1.435369 0.147710 -0.038731 374017.000000 0 0 1
-36.950106 -17.232848 6.684521 41.315424 0.436393 1.408290 0.147234 -0.031832 249324.000000 0 0 1
-35.677395 -18.074548 6.563321 40.529533 0.468922 1.408141 0.120338 -0.028297 -365640.000000 0 0 1
-35.820779 -19.436548 6.885421 41.331788 0.497148 1.403427 0.111936 -0.030167 583234.000000 0 0 1
-34.594920 -20.137148 7.129821 40.658918 0.527142 1.394528 0.090665 -0.013964 565566.000000 0 0 1
-34.869427 -21.664348 7.091521 41.659460 0.555934 1.399737 0.072831 -0.015102 25893.800000 0 0 1
-35.105774 -22.142048 5.776121 41.905242 0.562705 1.432518 0.085521 -0.020153 409176.000000 0 0 1
-35.709892 -23.431248 5.869821 43.112349 0.580690 1.434220 0.079707 -0.026381 -215912.000000 0 0 1
-35.193540 -24.312848 4.767421 43.039844 0.604547 1.459801 0.088728 -0.024499 231005.000000 0 0 1
-35.798555 -24.104948 3.471521 43.297073 0.592615 1.490531 0.081779 -0.021398 241229.000000 0 0 1
-35.107537 -24.838248 2.492921 43.077749 0.615735 1.512894 0.096970 -0.016488 -52381.700000 0 0 1
-35.734312 -24.550448 1.151521 43.370400 0.601966 1.544242 0.081937 -0.018946 -332907.000000 0 0 1
-36.985116 -25.179128 0.913121 44.751772 0.597717 1.550391 0.074819 -0.014279 154070.000000 0 0 1
-37.559826 -24.676948 -0.288979 44.941916 0.581283 1.577226 0.075169 -0.011716 -180490.000000 0 0 1
37.742161 -23.320548 -0.196379 44.366172 -0.553471 1.575223 0.091034 -0.017322 -976088.000000 0 0 1
36.409291 -23.612948 0.136321 43.396156 -0.575349 1.567655 0.060546 -0.003558 -185079.000000 0 0 1
35.637331 -22.382248 0.307021 42.084185 -0.560794 1.563501 0.082374 -0.019499 -63826.600000 0 0 1
34.158981 -22.723048 0.174221 41.026860 -0.586997 1.566550 0.057427 -0.010658 -596435.000000 0 0 1
33.799701 -22.735448 -1.175479 40.751713 -0.592135 1.599645 0.066891 -0.019693 7660.450000 0 0 1
32.406151 -22.857248 -1.373979 39.679973 -0.614299 1.605430 0.071312 -0.013926 34783.300000 0 0 1
32.028751 -22.814948 -2.898379 39.430487 -0.618951 1.644369 0.081547 -0.004683 -248630.000000 0 0 1
32.223351 -21.477348 -3.360779 38.870499 -0.587898 1.657365 0.118699 -0.020766 293634.000000 0 0 1
31.906411 -21.272448 -4.734479 38.638729 -0.588035 1.693637 0.128025 -0.043142 -1030.290000 0 0 1
32.055561 -19.752848 -5.070479 37.992680 -0.552251 1.704655 0.154870 -0.053804 475495.000000 0 0 1
31.018191 -19.064348 -4.370379 36.669848 -0.551099 1.690262 0.192872 -0.056321 505466.000000 0 0 1
31.164981 -17.659848 -4.429079 36.093531 -0.515542 1.693818 0.209577 -0.058128 -223547.000000 0 0 1
30.282691 -17.044948 -3.358179 34.912018 -0.512664 1.667135 0.217726 -0.044051 -277497.000000 0 0 1
30.777791 -17.079948 -2.014179 35.256970 -0.506631 1.627956 0.213643 -0.037442 -53369.200000 0 0 1
31.085791 -18.293048 -1.342379 36.093822 -0.531898 1.607996 0.183314 -0.026964 -407645.000000 0 0 1
29.982191 -19.305248 -1.052579 35.675374 -0.572068 1.600305 0.158719 -0.021771 -98914.100000 0 0 1
29.163891 -19.083948 0.128821 34.853209 -0.579440 1.567100 0.145707 -0.007796 498955.000000 0 0 1
28.280191 -20.193348 0.188521 34.750195 -0.620091 1.565371 0.122496 -0.008738 -744706.000000 0 0 1
27.079991 -19.958648 1.097321 33.658248 -0.635146 1.538189 0.113302 -0.007719 -1115070.000000 0 0 1
26.353391 -21.165548 1.442021 33.831362 -0.676655 1.528160 0.100916 0.000977 1144460.000000 0 0 1
25.455991 -20.861548 2.593221 33.014186 -0.686527 1.492167 0.092292 0.000357 1799710.000000 0 0 1
24.107991 -20.091848 2.235621 31.462288 -0.694784 1.499679 0.065928 -0.004351 274857.000000 0 0 1
24.305591 -18.753248 1.896521 30.757810 -0.657158 1.509097 0.103805 -0.023261 146216.000000 0 0 1
23.977691 -17.942948 2.974121 30.095256 -0.642424 1.471811 0.137284 -0.022071 -207929.000000 0 0 1
23.565991 -16.494848 2.627721 28.884959 -0.610688 1.479698 0.122587 -0.000184 474734.000000 0 0 1
22.300791 -16.247748 2.005621 27.664727 -0.629646 1.498235 0.094810 -0.008300 374350.000000 0 0 1
22.216891 -14.924948 1.529221 26.808261 -0.591537 1.513722 0.111836 -0.022274 300752.000000 0 0 1
20.820291 -14.493648 1.005321 25.388206 -0.608125 1.531188 0.077298 -0.015506 393037.000000 0 0 1
19.811691 -14.345448 2.006121 24.542198 -0.626711 1.488963 0.078126 -0.015088 879415.000000 0 1 0
18.747391 -13.456048 1.660221 23.136254 -0.622543 1.498976 0.092226 -0.021807 346498.000000 0 1 0
19.035391 -11.986948 2.143021 22.597026 -0.561986 1.475817 0.094557 -0.026110 -673305.000000 0 1 0
20.025691 -11.428948 1.351221 23.097077 -0.518608 1.512261 0.105445 -0.027211 -15266.100000 0 1 0
20.191491 -10.091148 1.763021 22.641462 -0.463465 1.492851 0.129777 -0.030032 -219432.000000 0 1 0
20.996491 -9.209448 0.790321 22.941037 -0.413349 1.536339 0.132719 -0.032998 288219.000000 0 1 0
20.291391 -8.896548 -0.433179 22.160252 -0.413199 1.590345 0.135415 -0.030002 682892.000000 0 1 0
21.219191 -8.332448 -1.273379 22.832110 -0.374184 1.626597 0.119359 -0.023225 -701080.000000 0 1 0
20.699691 -8.228248 -2.704079 22.438657 -0.378354 1.691600 0.123741 -0.022055 -567551.000000 0 1 0
21.599591 -7.683748 -3.623179 23.210121 -0.341776 1.727541 0.153444 -0.029628 301814.000000 0 1 0
22.630691 -8.536348 -4.116379 24.534914 -0.360700 1.739370 0.142825 -0.033301 -506414.000000 0 1 0
22.251191 -9.684748 -5.081579 24.793795 -0.410517 1.777213 0.117633 -0.035998 -454855.000000 0 1 0
21.777491 -9.326048 -6.356879 24.528436 -0.404614 1.832952 0.128384 -0.043005 1179840.000000 0 1 0
20.422091 -8.824348 -6.375079 23.142440 -0.407867 1.849876 0.128028 -0.028561 77210.500000 0 1 0
19.841191 -8.891448 -7.732479 23.076437 -0.421298 1.912488 0.137782 -0.025987 -545947.000000 0 1 0
19.892891 -10.177448 -8.339079 23.850530 -0.472894 1.927982 0.140206 -0.025801 1017510.000000 0 1 0
21.135491 -10.439148 -9.011979 25.236889 -0.458768 1.935953 0.148843 -0.031994 395529.000000 0 0 1
21.154391 -11.810648 -9.669379 26.086329 -0.509199 1.950525 0.131629 -0.029084 831436.000000 0 0 1
20.037991 -12.003048 -10.595079 25.648586 -0.539695 1.996637 0.159511 -0.035264 1051780.000000 0 0 1
19.975491 -13.298048 -11.093079 26.436995 -0.587346 2.003806 0.144396 -0.032845 97419.800000 0 0 1
18.671891 -13.680148 -11.849479 26.003771 -0.632311 2.043936 0.148246 -0.031296 159214.000000 0 0 1
18.443191 -15.058448 -12.122379 26.718163 -0.684708 2.041724 0.138577 -0.033866 458377.000000 0 0 1
17.432891 -15.266648 -13.117079 26.627692 -0.719248 2.085883 0.140690 -0.031656 95204.400000 0 0 1
17.328491 -16.712848 -13.564779 27.633297 -0.767315 2.083902 0.122479 -0.031742 -306990.000000 0 0 1
16.516491 -17.551448 -12.754979 27.267880 -0.815768 2.057557 0.116335 -0.027274 442490.000000 0 0 1
16.688591 -18.941348 -13.039379 28.413186 -0.848541 2.047576 0.106016 -0.034497 -556991.000000 0 0 1
15.663691 -19.671648 -12.196479 27.947792 -0.898342 2.022392 0.091895 -0.037395 -66495.100000 0 0 1
14.338491 -19.500148 -12.658079 27.314375 -0.936769 2.052649 0.083971 -0.037285 6137.340000 0 0 1
13.387291 -20.152848 -11.841879 26.936721 -0.984442 2.025970 0.074418 -0.030645 -721583.000000 0 0 1
11.950191 -19.873148 -12.204879 26.205117 -1.029404 2.055272 0.062897 -0.031582 -582797.000000 0 0 1
11.077391 -20.583648 -11.336279 25.978960 -1.077085 2.022350 0.074504 -0.041095 -834467.000000 0 0 1
9.769691 -20.658248 -11.786179 25.712334 -1.129047 2.046975 0.060260 -0.029526 -305107.000000 0 0 1
8.790391 -21.223148 -10.710979 25.345967 -1.178118 2.007099 0.046846 -0.024828 6926.730000 0 0 1
8.946391 -22.623548 -10.569179 26.524901 -1.194222 1.980636 0.072763 -0.032923 804716.000000 0 0 1
7.970091 -23.158648 -9.624779 26.315047 -1.239341 1.945237 0.069779 -0.037430 758569.000000 0 0 1
8.145391 -24.690848 -9.499079 27.680641 -1.252143 1.921083 0.071532 -0.029583 366184.000000 0 0 1
9.425291 -24.974248 -8.956579 28.156163 -1.209923 1.894525 0.069460 -0.029762 -115022.000000 0 0 1
9.940091 -26.134188 -9.582979 29.557312 -1.207345 1.900980 0.061904 -0.026548 -296333.000000 0 0 1
11.426391 -26.355158 -9.305979 30.195331 -1.161703 1.884089 0.042529 -0.023147 -350476.000000 0 0 1
11.602391 -26.963278 -8.080379 30.445466 -1.164442 1.839420 0.052593 -0.028155 18893.600000 0 0 1
12.980791 -27.165828 -7.807379 31.103671 -1.125037 1.824521 0.067174 -0.020949 282998.000000 0 0 1
13.388191 -27.314108 -6.293679 31.063074 -1.115054 1.774818 0.063198 -0.026125 134111.000000 0 0 1
12.933591 -28.467668 -5.598379 31.765197 -1.144351 1.747964 0.061917 -0.027867 655973.000000 0 0 1
11.537691 -28.753568 -5.419279 31.452418 -1.189203 1.743961 0.067258 -0.032485 748702.000000 0 0 1
11.333691 -29.868388 -4.356879 32.242140 -1.208126 1.706341 0.088042 -0.045934 17737.400000 0 0 1
11.475791 -31.252628 -4.803379 33.637672 -1.218886 1.714084 0.079985 -0.041291 407602.000000 0 0 1
10.462491 -31.718228 -5.738779 33.888690 -1.252177 1.740958 0.086298 -0.043968 772463.000000 0 0 1
10.536891 -33.230468 -5.913979 35.359090 -1.263740 1.738841 0.086382 -0.041637 -137203.000000 0 0 1
9.867191 33.532752 -4.944779 35.302376 1.284618 1.711328 0.088846 -0.039439 -271394.000000 0 0 1
10.084491 32.134560 -5.134179 34.068852 1.266709 1.722073 0.088033 -0.034763 58901.500000 0 0 1
9.530591 31.216472 -3.990079 32.881925 1.274478 1.692442 0.065955 -0.027128 880962.000000 0 0 1
8.130791 31.034322 -4.233379 32.359857 1.314562 1.701994 0.059465 -0.024324 -179494.000000 0 0 1
7.695591 30.024372 -3.413879 31.182360 1.319886 1.680497 0.050263 -0.021273 -299287.000000 0 0 1
6.337391 29.422772 -3.788879 30.335089 1.358647 1.696024 0.058006 -0.024315 -312937.000000 0 0 1
6.159691 28.730742 -5.023679 29.809976 1.359600 1.740128 0.072951 -0.030888 -68529.000000 0 0 1
5.852591 29.599132 -6.129679 30.788543 1.375586 1.771225 0.064358 -0.032662 -58631.600000 0 0 1
6.007291 28.898522 -7.485279 30.450640 1.365840 1.819159 0.069830 -0.026011 59525.500000 0 0 1
5.057691 27.873652 -7.680579 29.351524 1.391299 1.835554 0.074623 -0.029133 -71977.200000 0 0 1
5.551091 26.610102 -7.300779 28.146287 1.365137 1.833184 0.081340 -0.027528 -382488.000000 0 0 1
4.636591 25.433272 -7.713779 26.978726 1.390472 1.860764 0.082655 -0.031566 -637392.000000 0 0 1
3.346191 25.522082 -7.158279 26.717309 1.440430 1.842037 0.077752 -0.024495 72004.200000 0 0 1
2.352391 26.168462 -7.970479 27.456341 1.481143 1.865333 0.092654 -0.030940 219933.000000 0 0 1
1.861591 25.403972 -9.204179 27.084021 1.497648 1.917541 0.103559 -0.029236 -1172400.000000 0 0 1
2.792991 25.365372 -10.248179 27.499601 1.461128 1.952677 0.098722 -0.028287 -326182.000000 0 0 1
2.451691 24.707222 -11.452979 27.342793 1.471890 2.002993 0.104453 -0.028840 -504993.000000 0 0 1
2.176291 23.206562 -11.449379 25.968616 1.477291 2.027390 0.102803 -0.023999 -759933.000000 0 0 1
1.079991 22.849322 -10.697379 25.252560 1.523566 2.008229 0.112881 -0.021821 -973190.000000 0 0 1
1.098591 21.536452 -10.106479 23.815259 1.519830 2.009062 0.076459 -0.016596 -492987.000000 0 1 0
-0.150309 21.074352 -9.359479 23.059721 -1.563664 1.988738 0.076948 -0.011020 247371.000000 0 1 0
-1.329009 20.826752 -10.111979 23.189911 -1.507070 2.022002 0.081961 -0.023573 -24141.600000 0 1 0
-2.403709 20.346952 -9.354679 22.523017 -1.453205 1.999111 0.061863 -0.012585 308365.000000 0 1 0
-3.724809 20.206052 -10.179579 22.929949 -1.388502 2.030790 0.055767 -0.019573 -298857.000000 0 1 0
-4.777209 19.850752 -9.355779 22.458955 -1.334631 2.000468 0.053167 -0.015320 -925879.000000 0 1 0
-5.781809 19.351152 -10.182079 22.617938 -1.280456 2.037760 0.062870 -0.014424 -362419.000000 0 1 0
-6.774109 18.306852 -9.574179 21.741533 -1.216389 2.026800 0.057516 -0.014673 131486.000000 0 1 0
-7.713209 18.735452 -8.625379 22.020625 -1.180253 1.973270 0.074123 -0.016020 -707089.000000 0 1 0
-8.975609 18.799952 -9.217679 22.780811 -1.125369 1.987365 0.082891 -0.020707 -582904.000000 0 1 0
-10.087209 19.142152 -8.212679 23.143506 -1.085812 1.933559 0.097214 -0.025991 -91455.500000 0 1 0
-10.386909 18.111952 -7.329179 22.127981 -1.050102 1.908390 0.090213 -0.018920 -992319.000000 0 1 0
-11.441909 18.444552 -6.508479 22.660077 -1.015554 1.862122 0.114391 -0.017945 -727404.000000 0 1 0
-12.083709 17.196452 -5.942979 21.841542 -0.958270 1.846366 0.089320 -0.017019 189371.000000 0 1 0
-12.952609 17.471152 -4.811579 22.274706 -0.932841 1.788523 0.097062 -0.020435 250316.000000 0 1 0
-13.456809 16.329352 -4.164679 21.565667 -0.881540 1.765133 0.085153 -0.016800 -372220.000000 0 1 0
-14.596009 16.697652 -3.220079 22.410354 -0.852456 1.714983 0.071806 -0.021761 -475225.000000 0 1 0
-15.802909 16.910852 -3.921279 23.475205 -0.819253 1.738622 0.119849 -0.046346 433880.000000 0 1 0
-16.877109 17.001052 -2.952479 24.136895 -0.789057 1.693426 0.127356 -0.045289 1437400.000000 0 1 0
-18.329409 16.959852 -3.556879 25.224100 -0.746608 1.712279 0.145433 -0.057721 661517.000000 0 0 1
-18.541809 18.108652 -4.391679 26.287046 -0.773580 1.738650 0.146068 -0.054964 -334530.000000 0 0 1
-19.886309 18.416752 -4.634379 27.497627 -0.747050 1.740142 0.126584 -0.053979 -243969.000000 0 0 1
-20.178709 19.427052 -5.798079 28.604342 -0.766422 1.774910 0.111918 -0.031496 -403355.000000 0 0 1
-19.616009 20.649952 -5.538779 29.015279 -0.811070 1.762867 0.122180 -0.052643 -212605.000000 0 0 1
-19.682309 21.531952 -6.700879 29.931923 -0.830247 1.796580 0.101397 -0.021271 -150246.000000 0 0 1
-19.269009 22.960492 -6.504479 30.672254 -0.872591 1.784483 0.110243 -0.029529 -559994.000000 0 0 1
-17.894909 23.106322 -6.346479 29.906649 -0.911824 1.784632 0.106553 -0.035178 -570067.000000 0 0 1
-17.602409 23.848252 -5.174679 30.089221 -0.934954 1.743633 0.130580 -0.049011 1216350.000000 0 0 1
-16.047509 24.081792 -4.950179 29.359147 -0.982996 1.740213 0.107509 -0.050225 950979.000000 0 0 1
-15.849709 24.755402 -3.713479 29.628249 -1.001304 1.696463 0.111434 -0.053393 675565.000000 0 0 1
-14.613909 25.485302 -3.591279 29.596693 -1.050147 1.692437 0.144460 -0.072736 561788.000000 0 0 1
-14.318009 26.739862 -4.497179 30.663500 -1.079188 1.717990 0.146417 -0.061408 -209417.000000 0 0 1
-15.252709 27.781412 -4.283579 31.981260 -1.068701 1.705140 0.174927 -0.058579 324768.000000 0 0 1
-14.935609 28.935942 -5.141079 32.966526 -1.094304 1.727384 0.130229 -0.058222 82228.900000 0 0 1
-15.895309 30.104942 -4.860579 34.388859 -1.085003 1.712613 0.126620 -0.049416 -294115.000000 0 0 1
-17.231109 29.774092 -5.130579 34.781180 -1.046165 1.718847 0.145383 -0.046773 -549303.000000 0 0 1
-18.028609 30.933272 -5.063679 36.159907 -1.043103 1.711294 0.168318 -0.039248 49144.200000 0 0 1
13.367994 -8.906748 18.196589 24.272397 -0.587731 0.723214 0.172201 -0.024156 -197797.000000 0 1 0
14.331294 -9.839948 18.579689 25.444359 -0.601680 0.752169 0.164841 -0.026968 -229961.000000 0 0 1
14.314994 -11.079448 17.822789 25.403248 -0.658669 0.793163 0.168710 -0.023200 -105878.000000 0 0 1
15.155794 -12.153548 18.537189 26.852080 -0.675903 0.808831 0.202071 -0.038026 -1109730.000000 0 0 1
16.527394 -11.851448 18.510789 27.500197 -0.622097 0.832384 0.183830 -0.023463 -118257.000000 0 0 1
17.227194 -12.796048 19.303289 28.864026 -0.638866 0.838248 0.174942 -0.031214 -143241.000000 0 0 1
17.469794 -14.166248 18.724889 29.265983 -0.681352 0.876536 0.163816 -0.040485 -1783550.000000 0 0 1
16.315294 -14.891548 18.492289 28.808189 -0.739807 0.873809 0.184835 -0.047522 -593988.000000 0 0 1
16.373294 -16.022248 17.614989 28.897837 -0.774562 0.915290 0.192504 -0.057085 -372371.000000 0 0 1
15.672694 -15.944648 16.210689 27.616147 -0.793999 0.943448 0.183363 -0.063852 619354.000000 0 0 1
14.246194 -16.087848 16.255689 26.944764 -0.846036 0.923168 0.214151 -0.065143 753534.000000 0 0 1
13.607494 -16.031948 15.000189 25.830078 -0.867015 0.951177 0.229427 -0.066768 -238435.000000 0 0 1
13.352694 -17.376548 14.378089 26.210080 -0.915603 0.990142 0.173611 -0.048609 -4312.780000 0 0 1
14.418594 -18.070648 13.718989 26.882240 -0.897336 1.035220 0.167533 -0.048763 768613.000000 0 0 1
13.849494 -19.179148 13.041289 27.013393 -0.945384 1.066980 0.141241 -0.043903 -358861.000000 0 0 1
15.004094 -19.952448 12.471689 27.906380 -0.926021 1.107486 0.135786 -0.040623 -507387.000000 0 0 1
15.793194 -20.683548 13.415089 29.277956 -0.918671 1.094830 0.116838 -0.034871 221771.000000 0 0 1
16.408394 -21.802748 12.826389 30.151475 -0.925644 1.131394 0.087415 -0.036066 -576330.000000 0 0 1
17.192394 -22.672948 13.766289 31.609361 -0.922018 1.120188 0.093729 -0.035611 37669.500000 0 0 1
18.481994 -22.164048 14.148989 32.140675 -0.875740 1.114952 0.068329 -0.035612 805968.000000 0 0 1
19.079594 -22.995048 15.164489 33.507683 -0.878191 1.101154 0.074942 -0.039876 -568850.000000 0 0 1
20.453594 -22.472148 15.515189 34.118441 -0.832388 1.098711 0.054871 -0.028955 -631901.000000 0 0 1
21.514794 -22.957248 14.725589 34.738517 -0.817822 1.133051 0.042352 -0.031493 -501039.000000 0 0 1
22.691794 -22.235648 14.976589 35.123208 -0.775246 1.130286 0.047491 -0.020963 154356.000000 0 0 1
23.878694 -22.913648 14.198389 36.011408 -0.764777 1.165518 0.047197 -0.022982 295473.000000 0 0 1
24.316694 -24.044748 14.948289 37.321614 -0.779775 1.158705 0.049371 -0.025049 44212.400000 0 0 1
25.483794 -24.632148 14.418389 38.262990 -0.768406 1.184432 0.059385 -0.030719 -214783.000000 0 0 1
25.984594 -25.809528 15.202289 39.654009 -0.782018 1.177350 0.074692 -0.023640 -252499.000000 0 0 1
26.641394 -25.467418 16.411889 40.344806 -0.762873 1.151858 0.086951 -0.024998 198359.000000 0 0 1
27.127794 -26.674178 17.010489 41.674761 -0.776967 1.150345 0.125789 -0.024435 18944.100000 0 0 1
27.545794 -26.446348 18.430689 42.401301 -0.765038 1.121121 0.108742 -0.015011 -490593.000000 0 0 1
26.483794 -26.013278 19.219189 41.802622 -0.776436 1.093071 0.114439 -0.013288 -399430.000000 0 0 1
26.793994 -25.615028 20.541689 42.379343 -0.762906 1.064765 0.106881 -0.010735 -545157.000000 0 0 1
25.527694 -25.320208 21.338389 41.810321 -0.781318 1.035191 0.101244 -0.013324 -513813.000000 0 0 1
24.943694 -26.513598 21.726489 42.393385 -0.815898 1.032706 0.105797 -0.012476 -666653.000000 0 0 1
23.854394 -26.318938 22.573639 42.086670 -0.834479 1.004677 0.108358 -0.010834 -250791.000000 0 0 1
23.086294 -27.682558 22.720159 42.608762 -0.875685 1.008385 0.119189 -0.011499 329933.000000 0 0 1
23.938594 -28.610308 23.417129 44.045067 -0.874067 1.010234 0.120963 -0.014962 773293.000000 0 0 1
23.685794 -29.968668 22.997579 44.587291 -0.901966 1.028869 0.138890 -0.023434 63351.800000 0 0 1
24.752094 -31.012288 23.450939 46.090939 -0.897192 1.037009 0.120141 -0.014400 152139.000000 0 0 1
24.692394 -31.238798 24.839229 46.931483 -0.901912 1.013061 0.104974 -0.017551 -43018.100000 0 0 1
25.895194 -31.670238 25.412819 48.159904 -0.885385 1.014934 0.085522 -0.017349 -664442.000000 0 0 1
25.664994 -32.043158 26.930519 49.098969 -0.895476 0.990234 0.076809 -0.033902 155778.000000 0 0 1
25.175794 -33.301478 27.332119 49.898434 -0.923469 0.991118 0.087556 -0.029937 225404.000000 0 0 1
24.012894 -33.747968 26.636399 49.244717 -0.952370 0.999291 0.097047 -0.023391 -257710.000000 0 0 1
23.427794 32.486646 27.345559 48.497662 0.946015 0.971752 0.134307 -0.038682 -233727.000000 0 0 1
22.680494 32.808342 28.500209 49.020954 0.965931 0.950362 0.110259 -0.036460 141571.000000 0 0 1
22.130594 31.612162 29.051869 48.302205 0.960026 0.925468 0.114795 -0.043691 134414.000000 0 0 1
21.609094 31.927122 30.469129 49.139209 0.975794 0.901980 0.098373 -0.051850 333281.000000 0 0 1
22.704594 32.361316 31.280969 50.410835 0.959000 0.901390 0.087352 -0.041913 593997.000000 0 0 1
22.312694 32.639359 32.606464 51.248078 0.971153 0.881172 0.073110 -0.038006 526195.000000 0 0 1
23.532394 32.540780 33.599549 52.360343 0.944691 0.874086 0.059750 -0.029660 580601.000000 0 0 1
24.091994 31.277492 33.644989 51.871870 0.914451 0.865030 0.067604 -0.028868 166509.000000 0 0 1
25.254794 31.177292 -32.953639 51.920809 0.889965 2.258404 0.051865 -0.021535 112046.000000 0 0 1
25.641294 29.743922 -32.603739 51.040970 0.859338 2.263702 0.070005 -0.015746 -136293.000000 0 0 1
26.134794 29.022412 33.671879 51.566687 0.837703 0.859287 0.074756 -0.021270 282494.000000 0 0 1
25.550794 27.745982 33.620779 50.527609 0.826563 0.842775 0.089798 -0.031290 -133473.000000 0 0 1
25.912894 26.985342 32.306511 49.430733 0.805669 0.858503 0.120926 -0.032393 -319242.000000 0 0 1
27.209894 26.458232 32.321532 49.850755 0.771393 0.865360 0.103488 -0.031193 -136328.000000 0 0 1
27.504294 25.713032 31.206949 48.903168 0.751751 0.878719 0.127022 -0.045006 90339.700000 0 0 1
28.894394 25.031652 31.370790 49.452968 0.713890 0.883621 0.084599 -0.029848 141034.000000 0 0 1
28.908394 23.885162 32.168025 49.406254 0.690535 0.861774 0.099757 -0.029135 9925.220000 0 0 1
29.895794 23.992822 33.147726 50.677270 0.676293 0.857811 0.104464 -0.040213 -1474020.000000 0 0 1
29.596194 23.192712 -33.008649 50.034063 0.664684 2.291247 0.099251 -0.042115 -914274.000000 0 0 1
28.533694 23.747082 -32.284629 49.197488 0.694097 2.286601 0.089475 -0.038075 1489590.000000 0 0 1
27.182994 23.475082 -32.755719 48.609996 0.712334 2.310200 0.077401 -0.028256 653322.000000 0 0 1
26.658494 22.035352 -32.824569 47.683166 0.690739 2.330062 0.055064 -0.023554 -901669.000000 0 0 1
26.324894 21.444952 -31.593019 46.378927 0.683596 2.320188 0.032204 -0.036751 325166.000000 0 0 1
25.843794 20.121252 -31.692179 45.575878 0.661538 2.339733 0.047328 -0.029809 -99147.700000 0 0 1
25.789594 19.250952 -30.409509 44.276862 0.641233 2.327879 0.060720 -0.033436 21029.700000 0 0 1
24.678294 19.558752 -29.577139 43.201506 0.670181 2.324895 0.049127 -0.022023 439629.000000 0 0 1
24.648394 18.777152 -28.371229 42.012514 0.651011 2.312173 0.058117 -0.020527 415943.000000 0 0 1
23.197694 18.797952 -27.775399 40.779514 0.681012 2.320076 0.053744 -0.014215 574498.000000 0 0 1
23.005994 17.980752 -26.620769 39.512637 0.663401 2.310038 0.060567 -0.014534 63109.600000 0 0 1
23.618794 18.543452 -25.490479 39.388723 0.665598 2.274639 0.079194 -0.006026 -177784.000000 0 0 1
23.457394 17.568852 -24.258579 38.044612 0.642841 2.262221 0.106926 -0.018706 -53685.300000 0 0 1
24.334594 16.483452 -24.336379 38.159350 0.595374 2.262379 0.105408 -0.031681 -41677.300000 0 0 1
24.355194 15.740252 -23.108779 37.080273 0.573755 2.243636 0.141302 -0.037017 -492142.000000 0 0 1
25.408594 14.640052 -23.111079 37.336975 0.522724 2.238248 0.153839 -0.042417 -234550.000000 0 0 1
26.736494 15.149052 -22.983879 38.374374 0.515503 2.212971 0.177104 -0.052578 311710.000000 0 0 1
27.728094 14.151652 -23.007179 38.709775 0.471911 2.207254 0.177331 -0.058092 97688.300000 0 0 1
27.914094 13.213152 -21.736579 37.765896 0.442102 2.184086 0.162424 -0.048135 -880940.000000 0 0 1
26.815294 12.363252 -21.659079 36.620017 0.432007 2.203658 0.156526 -0.039105 -355742.000000 0 0 1
26.447294 12.062752 -20.287379 35.447808 0.427920 2.180125 0.130932 -0.044282 -570745.000000 0 0 1
25.009094 11.577452 -20.175179 34.154502 0.433554 2.202727 0.137054 -0.028884 -762804.000000 0 0 1
24.085794 12.595452 -20.311279 33.931091 0.481832 2.212553 0.157743 -0.032050 305523.000000 0 0 1
22.735594 12.125152 -20.515679 32.936600 0.489940 2.243220 0.123506 -0.032884 959349.000000 0 0 1
21.654994 13.200752 -20.448079 32.577945 0.547444 2.249348 0.121920 -0.032481 -648837.000000 0 0 1
21.861794 14.199752 -21.408079 33.732430 0.576040 2.258344 0.116477 -0.030100 -123615.000000 0 0 1
20.926094 15.226652 -21.366579 33.560140 0.629036 2.260963 0.095312 -0.022769 -334383.000000 0 0 1
19.653094 15.082852 -22.241979 33.293275 0.654579 2.302398 0.063787 -0.002336 -35213.300000 0 0 1
18.677994 14.278252 -21.615579 31.936956 0.652680 2.314231 0.049667 -0.008748 -458505.000000 0 0 1
17.658994 14.022252 -22.532579 31.877590 0.671107 2.355827 0.053908 -0.017577 -545628.000000 0 0 1
16.476994 13.206852 -22.004979 30.498055 0.675675 2.376792 0.040726 -0.009500 724142.000000 0 0 1
15.352594 13.392752 -22.884979 30.639683 0.717324 2.414194 0.053558 -0.015300 689032.000000 0 0 1
14.133594 12.737952 -22.530179 29.489368 0.733507 2.440302 0.076790 -0.019169 140087.000000 0 0 1
13.015494 13.057852 -23.511079 29.877774 0.787023 2.476579 0.084713 -0.024603 -686542.000000 0 0 1
12.587694 14.406452 -23.421279 30.241564 0.852673 2.456678 0.091111 -0.017072 -228665.000000 0 0 1
12.092494 14.822452 -24.640179 31.194100 0.886482 2.481440 0.085814 -0.030829 -851372.000000 0 0 1
11.884194 16.348952 -24.759279 31.961605 0.942238 2.456969 0.092618 -0.039946 531423.000000 0 0 1
13.069694 17.169852 -24.551579 32.686400 0.920166 2.420561 0.077507 -0.024422 1681900.000000 0 0 1
14.172294 17.003752 -25.500919 33.768008 0.875971 2.426725 0.096179 -0.039290 570295.000000 0 0 1
13.967294 17.306052 -27.007759 34.985765 0.891756 2.452722 0.133409 -0.045929 -454502.000000 0 0 1
15.178594 17.487452 -27.691779 36.097580 0.855961 2.445162 0.130773 -0.046623 25266.900000 0 0 1
14.854694 17.283852 -29.050999 36.923624 0.860839 2.476381 0.178318 -0.047546 -503004.000000 0 0 1
16.008194 17.419252 -30.028699 38.228463 0.827586 2.474310 0.156068 -0.061873 -21347.900000 0 0 1
17.033994 16.440752 -29.896309 38.134558 0.767678 2.471830 0.108792 -0.054126 849319.000000 0 0 1
18.284094 16.903852 -30.408059 39.302650 0.746193 2.455441 0.090595 -0.042813 129690.000000 0 0 1
19.452394 15.944252 -30.367239 39.430749 0.686611 2.449859 0.085220 -0.038552 -570917.000000 0 0 1
20.677094 16.450952 -30.798459 40.579811 0.672060 2.432511 0.070837 -0.037290 1775.230000 0 0 1
21.766094 15.528452 -30.776749 40.768909 0.619679 2.426309 0.080184 -0.035164 161087.000000 0 0 1
22.990894 16.261952 -31.344919 42.137112 0.615623 2.409652 0.084572 -0.028944 -427317.000000 0 0 1
22.915894 16.573152 -32.721139 43.249052 0.626138 2.428855 0.094617 -0.036321 783441.000000 0 0 1
24.148294 17.190652 -33.142599 44.464485 0.618654 2.411890 0.084874 -0.035248 658647.000000 0 0 1
24.146894 17.945752 32.931697 44.605147 0.639129 0.740259 0.057353 -0.019929 336873.000000 0 0 1
25.330094 18.732752 32.820007 45.493763 0.636776 0.764949 0.053165 -0.014379 322377.000000 0 0 1
25.369594 19.265152 31.477402 44.783805 0.649477 0.791366 0.081463 -0.020939 -568763.000000 0 0 1
26.469494 20.272252 31.172409 45.643371 0.653582 0.818995 0.102779 -0.023392 217776.000000 0 0 1
27.746294 19.624552 31.252249 46.170151 0.615599 0.827263 0.072110 -0.016522 -95088.300000 0 0 1
28.754394 20.570452 31.006699 47.025248 0.620977 0.850825 0.061365 -0.024080 -1118980.000000 0 0 1
30.083994 20.013752 31.431203 47.890682 0.587030 0.854877 0.100075 -0.019787 -1131770.000000 0 0 1
30.157094 20.036652 32.839863 48.881226 0.586438 0.834120 0.080753 -0.028671 194287.000000 0 0 1
31.484194 19.910852 33.314229 49.975337 0.563909 0.841140 0.077738 -0.022125 47578.800000 0 0 1
31.580094 19.530152 -32.618149 49.423403 0.553863 2.291580 0.063126 -0.002148 -451042.000000 0 0 1
30.858494 20.397752 -31.801399 48.781594 0.584076 2.280902 0.048490 -0.020283 -6244.460000 0 0 1
30.559994 19.883152 -30.509029 47.540023 0.576816 2.267580 0.074239 -0.032553 -358862.000000 0 0 1
31.660794 19.984852 -29.451849 47.636242 0.563058 2.237330 0.095172 -0.045073 49841.100000 0 0 1
32.798894 19.180052 -29.739739 48.250325 0.529151 2.234913 0.100863 -0.049004 370845.000000 0 0 1
33.792394 19.272652 -28.716029 48.352573 0.518314 2.206680 0.124843 -0.060627 793418.000000 0 0 1
35.214694 18.721452 -29.066319 49.349957 0.488636 2.200597 0.093199 -0.046164 1001570.000000 0 0 1
36.061294 19.615552 -29.853139 50.758218 0.498187 2.199558 0.097166 -0.049187 381672.000000 0 0 1
37.095794 20.091052 -29.022349 51.205908 0.496371 2.173385 0.073179 -0.029092 -839283.000000 0 0 1
-37.941404 20.914052 -29.774099 52.568476 -0.503779 2.172912 0.064333 -0.032165 -649621.000000 0 0 1
-37.189004 20.166652 -30.682809 52.260411 -0.496893 2.198285 0.047872 -0.031342 8963.000000 0 0 1
-36.025804 20.936852 -30.978099 51.921604 -0.526453 2.210094 0.057702 -0.032591 -248968.000000 0 0 1
-35.218204 20.337352 -32.117949 51.821737 -0.523686 2.239256 0.059679 -0.034509 -437475.000000 0 0 1
-34.477104 19.203052 -31.733319 50.640215 -0.508186 2.248034 0.078304 -0.026495 150465.000000 0 0 1
-33.840204 18.605952 -32.833659 50.689151 -0.502703 2.275418 0.093289 -0.023286 -352802.000000 0 0 1
-33.010704 17.371552 -32.570849 49.521082 -0.484419 2.288580 0.081463 -0.007849 -275693.000000 0 0 1
-33.838204 16.291252 -32.235859 49.493227 -0.448694 2.280117 0.080273 -0.000723 506033.000000 0 0 1
-33.177904 15.067652 -32.590439 48.887055 -0.426297 2.300498 0.065547 0.010639 536514.000000 0 0 1
-34.170304 13.896552 -32.406609 49.101040 -0.386256 2.291613 0.080820 0.005933 64169.100000 0 0 1
-33.593804 12.703352 -32.933579 48.729246 -0.361526 2.312911 0.101790 0.001297 611.738000 0 0 1
-34.539504 11.705852 -32.854229 49.085687 -0.326763 2.304095 0.103363 -0.006967 -383821.000000 0 0 1
-33.911204 10.297752 -33.054639 48.462590 -0.294819 2.321379 0.114801 -0.005768 22486.900000 0 0 1
-33.468804 10.051452 33.045921 48.096002 -0.291753 0.813330 0.102447 -0.008398 42563.800000 0 0 1
-33.509804 8.665352 32.741756 47.644704 -0.253048 0.813159 0.136558 -0.024879 -467954.000000 0 0 1
-32.475204 8.213252 31.723971 46.135742 -0.247714 0.812587 0.140259 -0.025509 -27062.300000 0 0 1
-31.223104 7.995452 32.338004 45.656937 -0.250688 0.783734 0.092612 -0.008474 -476604.000000 0 0 1
-30.218504 7.526352 31.507059 44.300098 -0.244098 0.779566 0.082040 -0.016360 -352731.000000 0 0 1
22.140094 -3.927348 -31.289379 38.530936 -0.175560 2.518467 0.111407 -0.049017 692086.000000 0 0 1
23.307994 -3.863948 -32.132209 39.883224 -0.164284 2.507581 0.101929 -0.048760 472384.000000 0 0 1
24.364694 -3.049848 -31.730799 40.122107 -0.124527 2.483002 0.092774 -0.040266 -277156.000000 0 0 1
24.282194 -1.514248 -32.103279 40.280745 -0.062280 2.493089 0.093387 -0.033986 75679.200000 0 0 1
25.344794 -0.642448 -31.678869 40.574894 -0.025343 2.466662 0.089342 -0.022963 495610.000000 0 0 1
25.076094 0.737252 -31.972089 40.639494 0.029392 2.476281 0.079213 -0.028674 -408270.000000 0 0 1
26.214294 1.622252 -31.502999 41.015361 0.061805 2.446631 0.072781 -0.017096 402739.000000 0 0 1
27.494494 1.429352 -32.102269 42.291204 0.051940 2.432690 0.077624 -0.020874 342426.000000 0 0 1
28.485594 2.258152 -31.513549 42.539770 0.079108 2.405060 0.078813 -0.021224 136659.000000 0 0 1
29.928394 1.922152 -31.938929 43.812083 0.064137 2.387654 0.079995 -0.024777 -248281.000000 0 0 1
30.310494 2.255052 -33.217029 45.024241 0.074262 2.400541 0.075989 -0.022477 -26666.600000 0 0 1
29.931794 1.328952 33.205678 44.724662 0.044370 0.734081 0.064473 -0.024731 -584534.000000 0 0 1
30.256594 1.811952 31.824302 43.949184 0.059815 0.761045 0.057485 -0.033656 -238065.000000 0 0 1
29.503294 2.916452 31.377964 43.168584 0.098532 0.757042 0.054971 -0.019022 570603.000000 0 0 1
30.110394 4.151452 31.800947 43.990574 0.137011 0.762801 0.079347 -0.022251 812129.000000 0 0 1
29.195994 5.327852 31.245149 43.093519 0.180500 0.759683 0.079963 -0.019563 578621.000000 0 0 1
29.847994 6.574952 31.344736 43.779278 0.216819 0.772781 0.117229 -0.021591 375777.000000 0 0 1
29.085694 7.609352 30.709299 42.976049 0.255883 0.774790 0.107498 -0.027068 -74058.900000 0 0 1
29.546894 9.038352 31.051839 43.805564 0.296859 0.782921 0.097048 -0.023854 -33191.000000 0 0 1
30.678694 9.365252 30.281209 44.111697 0.296284 0.814178 0.102727 -0.024662 -102659.000000 0 0 1
31.147194 10.648952 30.661559 44.985320 0.329433 0.820863 0.094317 -0.019173 -1086140.000000 0 0 1
32.520894 11.084552 30.220779 45.757745 0.328495 0.849376 0.112253 -0.019791 -1474150.000000 0 0 1
33.510994 10.444752 30.989059 46.823085 0.302139 0.847535 0.118143 -0.016619 852951.000000 0 0 1
34.855494 10.596752 30.486119 47.503684 0.295140 0.874001 0.124444 -0.028157 1344910.000000 0 0 1
35.541994 12.039052 30.568839 48.400681 0.326597 0.887209 0.111101 -0.018339 -494190.000000 0 0 1
35.958894 12.380452 31.858838 49.611522 0.331583 0.873476 0.106253 -0.016304 101282.000000 0 0 1
36.537894 13.704752 31.973398 50.449341 0.358844 0.884376 0.101904 -0.006782 -125674.000000 0 0 1
35.638194 14.928152 31.817918 50.053076 0.396676 0.881903 0.094921 -0.008262 -640395.000000 0 0 1
35.116694 15.080752 30.489689 48.890003 0.405631 0.897408 0.106114 -0.022634 139794.000000 0 0 1
34.288494 16.223452 30.353669 48.582367 0.441934 0.895937 0.102142 -0.023727 348851.000000 0 0 1
32.782794 15.914252 30.593309 47.580726 0.451936 0.872417 0.097095 -0.020802 -318915.000000 0 0 1
32.197494 15.279352 29.523449 46.279274 0.443082 0.878975 0.117593 -0.022184 391242.000000 0 0 1
30.907494 14.777552 29.900029 45.471539 0.445992 0.853228 0.102889 -0.025283 727115.000000 0 0 1
30.029294 14.209452 28.753029 43.936359 0.441968 0.857375 0.102931 -0.019724 -13933.600000 0 0 1
30.286894 12.910252 28.286079 43.405907 0.402942 0.861020 0.116007 -0.022752 153854.000000 0 0 1
29.173094 12.388652 27.578619 42.013430 0.401583 0.854728 0.120740 -0.033772 261289.000000 0 0 1
28.937194 10.874652 27.648109 41.473330 0.359474 0.841094 0.115980 -0.023727 -169799.000000 0 0 1
29.818294 10.136052 26.819549 41.366150 0.327673 0.865387 0.117658 -0.023767 267450.000000 0 0 1
29.362194 8.815052 26.539679 40.548713 0.291657 0.857257 0.106950 -0.019360 51932.500000 0 0 1
30.552894 7.956652 26.090369 40.957233 0.254763 0.880177 0.111855 -0.026113 177504.000000 0 0 1
31.165294 8.241052 24.864689 40.711708 0.258513 0.913789 0.118332 -0.030949 143413.000000 0 0 1
32.363994 7.544552 24.610769 41.352609 0.229025 0.933351 0.129951 -0.027030 490090.000000 0 0 1
33.065094 7.830252 23.208619 41.149158 0.232530 0.971560 0.142604 -0.032470 198648.000000 0 0 1
33.596494 9.117152 23.099309 41.778283 0.264990 0.984953 0.138239 -0.041103 -207930.000000 0 0 1
32.709394 10.111352 22.628089 41.038692 0.299809 0.986774 0.155981 -0.042169 -109218.000000 0 0 1
32.407394 9.985852 21.131489 39.956179 0.298903 1.013532 0.142849 -0.021935 131571.000000 0 0 1
33.496894 10.347752 20.283289 40.503452 0.299617 1.046298 0.150766 -0.033410 310710.000000 0 0 1
33.108794 10.313252 18.922989 39.504871 0.301970 1.071277 0.158988 -0.036911 -668591.000000 0 0 1
34.190594 10.815652 17.951789 40.102889 0.306374 1.106668 0.174882 -0.069309 223861.000000 0 0 1
35.384094 10.065852 17.767289 40.853788 0.277153 1.120870 0.177491 -0.055477 408284.000000 0 0 1
36.325594 10.243752 18.838089 42.182423 0.274861 1.107850 0.167930 -0.051880 -1590660.000000 0 0 1
37.672294 9.871852 18.309089 43.033451 0.256283 1.131324 0.168415 -0.045854 -1700820.000000 0 0 1
37.741694 8.465952 18.163789 42.732084 0.220660 1.131766 0.143759 -0.038001 395708.000000 0 0 1
-37.343004 8.037452 17.214889 41.898126 -0.211999 1.147383 0.155304 -0.038015 -59824.100000 0 0 1
-37.312304 6.545452 17.079889 41.554465 -0.173656 1.147219 0.159869 -0.035869 768984.000000 0 0 1
37.522194 6.114152 16.439589 41.419294 0.161528 1.162652 0.138564 -0.034080 1015330.000000 0 0 1
37.767494 4.865852 15.773889 41.217419 0.128131 1.178080 0.165670 -0.039768 837423.000000 0 0 1
36.453894 3.977452 15.707189 39.892634 0.108679 1.166103 0.137167 -0.034039 959895.000000 0 0 1
36.396294 3.199552 16.935189 40.270683 0.087683 1.136763 0.136944 -0.025654 524862.000000 0 0 1
35.069894 2.719452 17.130789 39.124887 0.077389 1.117592 0.119938 -0.023112 334730.000000 0 0 1
35.104094 2.027452 18.518289 39.740847 0.057691 1.086059 0.125168 -0.039226 -291246.000000 0 0 1
35.799894 0.827652 18.399389 40.259842 0.023115 1.096159 0.143460 -0.033113 48885.400000 0 0 1
35.765594 0.100952 19.647989 40.807246 0.002823 1.068451 0.138318 -0.029287 -27741.200000 0 0 1
36.098394 -1.381548 19.520489 41.061566 -0.038253 1.075383 0.126523 -0.026452 15293.900000 0 0 1
35.660294 -2.136948 20.651789 41.264021 -0.059854 1.046644 0.143161 -0.018937 379406.000000 0 0 1
36.242794 -3.450248 20.582989 41.822287 -0.094912 1.056234 0.103019 -0.013861 93706.100000 0 0 1
35.694194 -4.367248 21.700989 42.000967 -0.121747 1.027830 0.103785 -0.018244 -51033.700000 0 0 1
36.024994 -3.877948 22.999749 42.916513 -0.107233 1.005201 0.099211 -0.027058 223437.000000 0 0 1
35.528994 -4.612048 24.069609 43.161631 -0.129089 0.979230 0.101930 -0.026313 -24278.100000 0 0 1
35.828194 -3.864448 25.359219 44.064537 -0.107445 0.957579 0.103691 -0.032167 182138.000000 0 0 1
34.940794 -4.269348 26.387269 43.992890 -0.121585 0.927536 0.098930 -0.043126 262985.000000 0 0 1
35.206494 -3.605448 27.583469 44.870304 -0.102053 0.908743 0.102823 -0.039830 27186.300000 0 0 1
34.232194 -4.091548 28.683539 44.847845 -0.118959 0.876852 0.094722 -0.043597 203855.000000 0 0 1
34.395594 -5.461048 28.984019 45.309527 -0.157457 0.876702 0.099267 -0.048447 84300.200000 0 0 1
33.309994 -5.814948 29.816229 45.081890 -0.172829 0.848140 0.100220 -0.056116 -464114.000000 0 0 1
33.290594 -7.328748 30.246059 45.571902 -0.216688 0.845042 0.101730 -0.045900 -144428.000000 0 0 1
34.273994 -7.751548 31.156459 46.962943 -0.222422 0.845407 0.088312 -0.047673 -508212.000000 0 0 1
35.356294 -8.391248 30.543449 47.469809 -0.233023 0.871827 0.092052 -0.034250 -729759.000000 0 0 1
36.647994 -8.335048 31.333170 48.931748 -0.223631 0.875850 0.098177 -0.031025 -559841.000000 0 0 1
36.586694 -9.045148 32.559908 49.805105 -0.242365 0.858272 0.092828 -0.028308 257653.000000 0 0 1
37.810594 -9.089048 33.301899 51.198323 -0.235908 0.862621 0.071081 -0.016461 469197.000000 0 0 1
37.634794 -9.372348 -32.614299 50.674561 -0.244069 2.269993 0.090295 -0.018221 -146571.000000 0 0 1
37.116294 -8.284648 -31.801849 49.574310 -0.219608 2.267246 0.094732 -0.030587 765897.000000 0 0 1
37.913494 -7.078548 -31.688649 49.917024 -0.184578 2.258580 0.098033 -0.028047 169896.000000 0 0 1
37.356794 -6.123048 -30.607959 48.681299 -0.162463 2.250730 0.108109 -0.025688 -164430.000000 0 0 1
37.649494 -6.352548 -29.251909 48.098996 -0.167154 2.224538 0.104869 -0.017531 426881.000000 0 0 1
36.981694 -5.390748 -28.375219 46.923969 -0.144749 2.220193 0.115930 -0.031377 345671.000000 0 0 1
37.708194 -5.139648 -27.017609 46.671994 -0.135466 2.188154 0.124572 -0.038043 -351230.000000 0 0 1
-37.124404 -4.499148 -27.160699 46.218690 0.120603 2.198955 0.131982 -0.033879 -583318.000000 0 0 1
-36.377204 -4.592448 -25.951749 44.920873 0.125581 2.186731 0.134229 -0.028268 614848.000000 0 0 1
-34.973804 -3.889248 -26.083629 43.802385 0.110750 2.208665 0.169893 -0.019241 -221730.000000 0 0 1
-34.446304 -3.611948 -24.801479 42.599382 0.104476 2.192232 0.179435 -0.035800 716484.000000 0 0 1
-33.146404 -4.187948 -24.664379 41.527757 0.125681 2.206725 0.201216 -0.031622 307799.000000 0 0 1
-31.927304 -3.452848 -25.229759 40.838898 0.107729 2.236722 0.180542 -0.018139 -775697.000000 0 0 1
-31.893204 -3.632148 -26.645819 41.717725 0.113396 2.263626 0.172937 -0.019441 -93451.800000 0 0 1
-30.932004 -2.840548 -27.302699 41.355712 0.091575 2.291870 0.166527 -0.009132 -168126.000000 0 0 1
-30.668704 -3.322748 -28.730219 42.154899 0.107922 2.320660 0.132598 -0.022209 -550928.000000 0 0 1
-31.718004 -3.194448 -29.632839 43.524033 0.100376 2.319703 0.158467 -0.029172 -410943.000000 0 0 1
-31.580004 -4.115648 -30.705239 44.238523 0.129594 2.337943 0.113061 -0.016530 -45422.400000 0 0 1
-32.907804 -4.268648 -31.535569 45.778128 0.128995 2.330737 0.099303 -0.022117 43030.600000 0 0 1
-33.874004 -5.084048 -30.905199 46.134878 0.148975 2.304854 0.112511 -0.018536 560933.000000 0 0 1
-34.689904 -4.480348 -29.882519 46.004651 0.128443 2.277794 0.135005 -0.028943 446479.000000 0 0 1
-35.787604 -3.422048 -30.323469 47.031646 0.095331 2.271487 0.164415 -0.033964 41194.100000 0 0 1
-35.290704 -2.270948 -31.026379 47.044948 0.064261 2.290956 0.179787 -0.037515 15807.900000 0 0 1
-34.832404 -1.224148 -30.180239 46.104682 0.035129 2.284453 0.182755 -0.029790 153380.000000 0 0 1
-34.542204 0.044852 -31.030379 46.433288 -0.001298 2.302689 0.179507 -0.030583 562446.000000 0 0 1
-35.760104 0.573552 -31.554529 47.694887 -0.016037 2.293735 0.197240 -0.033693 450618.000000 0 0 1
-35.580304 1.914752 -31.927479 47.843372 -0.053763 2.301419 0.203698 -0.033551 -631601.000000 0 0 1
-36.905304 2.585252 -32.173299 49.028626 -0.069937 2.286587 0.179799 -0.036065 -619880.000000 0 0 1
-37.534704 2.274052 -33.411549 50.302653 -0.060511 2.297233 0.179147 -0.035130 -761956.000000 0 0 1
37.299494 2.891952 -33.543509 50.247215 0.077378 2.301736 0.148978 -0.035456 -1238780.000000 0 0 1
36.606494 2.474752 32.548028 49.046242 0.067501 0.845150 0.115066 -0.032120 126261.000000 0 0 1
37.265694 2.922152 31.313618 48.762829 0.078254 0.873482 0.137653 -0.035928 723775.000000 0 0 1
-38.022304 1.878552 30.705619 48.908686 -0.049366 0.892053 0.138072 -0.038400 -88304.200000 0 0 1
-37.752304 2.037552 29.203639 47.772801 -0.053919 0.913091 0.145302 -0.038969 -119599.000000 0 0 1
-36.841504 3.086552 28.968849 46.968259 -0.083584 0.906157 0.153151 -0.040186 129398.000000 0 0 1
-36.500904 3.274852 27.560239 45.854197 -0.089480 0.925994 0.145007 -0.040946 3410.960000 0 0 1
-35.400304 4.339252 27.398579 44.974356 -0.121968 0.915739 0.126121 -0.036180 -396713.000000 0 0 1
-34.985004 4.431852 26.089129 43.866097 -0.126007 0.933848 0.121897 -0.025129 74394.900000 0 0 1
-34.469404 5.742452 25.864599 43.475200 -0.165080 0.933621 0.123676 -0.030314 -316740.000000 0 0 1
-33.562904 5.961052 24.634009 42.057544 -0.175775 0.945026 0.096689 -0.022190 -153728.000000 0 0 1
-32.394804 5.152952 24.809569 41.127739 -0.157746 0.923249 0.086945 -0.018796 549335.000000 0 0 1
-31.393004 5.431452 23.819939 39.779528 -0.171319 0.928796 0.084916 -0.019218 234990.000000 0 0 1
-31.666804 5.181552 22.325469 39.090427 -0.162190 0.962922 0.108309 -0.025934 -520958.000000 0 0 1
-31.876004 3.811252 22.142289 38.998541 -0.119000 0.966999 0.080229 -0.020086 -470652.000000 0 0 1
-32.638404 3.631552 21.022589 38.992343 -0.110810 1.001373 0.114635 -0.031821 -607960.000000 0 0 1
-32.791604 2.189752 20.521089 38.745314 -0.066679 1.012620 0.092701 -0.020990 -489916.000000 0 0 1
-31.738104 1.641652 19.801489 37.444642 -0.051679 1.013586 0.100944 -0.018043 -528366.000000 0 0 1
-31.438104 2.231952 18.549389 36.570696 -0.070876 1.038840 0.113178 -0.024210 276019.000000 0 0 1
-30.067104 1.712152 18.011589 35.091018 -0.056883 1.031792 0.125407 -0.031583 91820.600000 0 0 1
-30.059104 0.293752 17.859289 34.965557 -0.009772 1.034718 0.141710 -0.034872 -333440.000000 0 0 1
-28.879404 -0.290848 17.395289 33.714991 0.010071 1.028679 0.161045 -0.038981 -434938.000000 0 0 1
-28.564204 -0.168548 15.898489 32.691040 0.005901 1.062917 0.175356 -0.026650 -288388.000000 0 0 1
-28.326304 1.166552 15.436289 32.280324 -0.041159 1.072198 0.185215 -0.034477 195647.000000 0 0 1
-28.493904 1.208552 13.987989 31.765185 -0.042389 1.114801 0.205613 -0.037104 -201026.000000 0 0 1
-27.873104 2.432652 13.281289 30.971282 -0.087055 1.127604 0.203358 -0.039180 115202.000000 0 0 1
-26.460204 2.379752 13.201689 29.666314 -0.089696 1.109615 0.186074 -0.051729 242886.000000 0 0 1
-25.938004 3.644852 12.810589 29.157780 -0.139608 1.115917 0.185821 -0.052658 51137.200000 0 0 1
-24.422104 3.685352 12.522389 27.691717 -0.149772 1.101558 0.176053 -0.055394 -319646.000000 0 0 1
-23.649004 3.877152 13.665489 27.587194 -0.162500 1.052551 0.146674 -0.045733 -384290.000000 0 0 1
-22.303304 4.073152 13.303289 26.286982 -0.180635 1.040164 0.159475 -0.045678 18658.500000 0 0 1
-21.456204 4.545652 14.528689 26.308068 -0.208770 0.985733 0.127455 -0.046472 -31065.800000 0 0 1
-21.860504 5.828152 14.982089 27.135069 -0.260546 0.985879 0.121032 -0.039991 258555.000000 0 0 1
-21.188504 6.230752 16.158789 27.365698 -0.286001 0.939148 0.098064 -0.027515 -355993.000000 0 0 1
-21.294404 7.740952 16.507089 28.033158 -0.348669 0.941171 0.098008 -0.036990 -90026.300000 0 0 1
-20.538804 8.582652 15.600389 27.182283 -0.395820 0.959515 0.108038 -0.044928 623907.000000 0 0 1
-20.585404 10.009352 15.782089 27.803242 -0.452575 0.967166 0.104187 -0.033538 -328329.000000 0 0 1
-19.891304 10.667952 16.979889 28.245102 -0.492274 0.925842 0.100001 -0.031166 -418850.000000 0 0 1
-20.388804 10.240352 18.222389 29.199719 -0.465449 0.896868 0.101340 -0.042131 197771.000000 0 0 1
-20.187804 11.163152 19.252189 30.046799 -0.505117 0.875334 0.123606 -0.030446 -254305.000000 0 0 1
-12.997006 -32.977248 -19.941879 40.670624 1.195369 2.083261 0.153083 -0.052669 -959631.000000 0 0 1
-14.047606 -33.295748 -19.152579 40.899430 1.171551 2.058145 0.171426 -0.044220 -641739.000000 0 0 1
-15.285706 -32.776348 -19.642379 41.155375 1.134418 2.068346 0.143368 -0.058516 987809.000000 0 0 1
-16.507506 -33.239548 -18.767679 41.588353 1.109854 2.038987 0.130858 -0.051796 -462154.000000 0 0 1
-16.815206 32.916552 -19.011079 41.565270 -1.098512 2.045842 0.119102 -0.055731 140258.000000 0 0 1
-17.547106 32.297252 -17.919979 40.891797 -1.073111 2.024424 0.127055 -0.056889 1582410.000000 0 0 1
-19.030006 32.764052 -17.562079 41.761835 -1.044599 2.004825 0.108298 -0.052714 315097.000000 0 0 1
-19.112306 -33.426948 -17.026979 42.101771 1.051398 1.987146 0.122283 -0.042575 254547.000000 0 0 1
-20.380806 -33.044948 -16.499479 42.185053 1.018144 1.972646 0.094390 -0.039038 207810.000000 0 0 1
-20.807006 -33.698848 -15.208879 42.424685 1.017652 1.937448 0.101199 -0.033859 -479834.000000 0 0 1
-20.728706 32.384852 -15.192279 41.343237 -1.001431 1.947080 0.105775 -0.038207 213036.000000 0 0 1
-21.276006 31.891452 -13.941179 40.793255 -0.982467 1.919577 0.111097 -0.034035 7313.320000 0 0 1
-21.296406 30.339452 -13.860079 39.574247 -0.958771 1.928613 0.108409 -0.036888 390160.000000 0 0 1
-20.028806 29.766252 -13.568079 38.357211 -0.978512 1.932352 0.124074 -0.045092 109395.000000 0 0 1
-20.118706 28.391652 -13.453179 37.307322 -0.954313 1.939712 0.117158 -0.049369 24627.100000 0 0 1
-18.922406 27.688152 -12.779379 35.888769 -0.971290 1.934869 0.117337 -0.046556 36336.300000 0 0 1
-17.687006 27.769552 -13.441879 35.562091 -1.003671 1.958413 0.164217 -0.051227 -79293.800000 0 0 1
-16.738706 26.760952 -13.100779 34.175477 -1.011845 1.964205 0.171913 -0.059033 1134940.000000 0 0 1
-15.335506 27.111352 -13.720179 34.035958 -1.056018 1.985707 0.144165 -0.057941 305998.000000 0 0 1
-15.370906 27.170152 -15.122879 34.686934 -1.055958 2.021925 0.130587 -0.051041 -461582.000000 0 0 1
-14.092106 27.364252 -15.674879 34.541158 -1.095235 2.041825 0.172419 -0.050900 -153634.000000 0 0 1
-14.018306 27.542452 -17.252679 35.394272 -1.099998 2.079955 0.191728 -0.068746 -21670.900000 0 0 1
-14.131106 26.312252 -17.980779 34.861600 -1.077947 2.112710 0.175610 -0.063912 139596.000000 0 0 1
-14.506806 26.592152 -19.304279 35.919983 -1.071392 2.138176 0.157350 -0.059705 -169062.000000 0 0 1
-13.796206 25.720652 -20.354179 35.583421 -1.078465 2.179754 0.143202 -0.039180 244910.000000 0 0 1
-12.443806 26.097752 -20.574879 35.486147 -1.125868 2.189280 0.109579 -0.034378 284548.000000 0 0 1
-11.710306 25.205552 -21.371079 35.059580 -1.135874 2.226308 0.092931 -0.033791 -120513.000000 0 0 1
-10.365506 25.748952 -21.833479 35.315054 -1.188085 2.237309 0.113706 -0.033976 -137986.000000 0 0 1
-10.599906 26.231952 -23.093779 36.521171 -1.186774 2.255366 0.090016 -0.029654 762304.000000 0 0 1
-9.345306 26.433552 -23.741479 36.738607 -1.230972 2.273426 0.096035 -0.031032 247269.000000 0 0 1
-9.523406 27.119752 -25.089779 38.153286 -1.233087 2.288431 0.083625 -0.023128 -357110.000000 0 0 1
-10.221406 26.284552 -25.971439 38.338890 -1.199917 2.315043 0.076758 -0.017660 -239667.000000 0 0 1
-10.433206 26.927152 -27.135919 39.626776 -1.201146 2.325108 0.080813 -0.021317 -1050310.000000 0 0 1
-11.638306 26.409352 -27.838709 40.098600 -1.155712 2.338183 0.046168 -0.010724 -1021650.000000 0 0 1
-11.890306 26.846952 -29.180149 41.395885 -1.153869 2.353085 0.047816 -0.005562 1833570.000000 0 0 1
-13.210506 26.394452 -29.686179 41.862319 -1.106746 2.359072 0.053769 -0.006004 1930460.000000 0 0 1
-13.537806 26.769052 -31.163059 43.254949 -1.102578 2.375248 0.048095 -0.008092 -107082.000000 0 0 1
-12.750706 26.264252 -32.209769 43.472528 -1.118834 2.405239 0.062994 -0.010206 -156015.000000 0 0 1
-12.941706 24.860152 -32.312739 42.774151 -1.090820 2.427102 0.073416 -0.006197 181247.000000 0 0 1
-12.249806 24.263852 -33.550229 43.178816 -1.103270 2.460693 0.063357 -0.005138 -21873.300000 0 0 1
-12.934606 24.630752 32.688071 42.924212 -1.087239 0.705126 0.064647 -0.004451 83755.000000 0 0 1
-12.471906 23.838852 31.588478 41.493026 -1.088781 0.705487 0.064650 -0.009621 -552636.000000 0 0 1
-13.381906 23.771752 30.347039 40.805813 -1.058078 0.732217 0.078249 -0.001958 -31211.200000 0 0 1
-14.523006 22.940552 30.521339 40.850199 -1.006414 0.727028 0.090105 -0.014027 -8398.650000 0 0 1
-15.167506 22.627252 29.345149 40.039774 -0.980269 0.748222 0.107578 -0.009838 353060.000000 0 0 1
-16.383006 21.654152 29.412809 40.030220 -0.923100 0.745476 0.110065 -0.014787 763644.000000 0 0 1
-15.938706 20.280252 29.539869 39.216512 -0.904698 0.717806 0.107644 -0.024744 627071.000000 0 0 1
-17.059406 19.475552 29.857959 39.519845 -0.851434 0.714352 0.099532 -0.025261 265895.000000 0 0 1
-16.565406 18.035052 30.082039 38.789236 -0.827847 0.683249 0.093067 -0.031178 94373.700000 0 0 1
-16.018606 17.454952 28.925329 37.389112 -0.828282 0.686247 0.114190 -0.037683 243233.000000 0 0 1
-15.403206 16.186152 29.090749 36.681357 -0.810178 0.654970 0.098351 -0.054462 187256.000000 0 0 1
-14.938606 15.684652 27.683399 35.150261 -0.809755 0.663936 0.106928 -0.045921 340280.000000 0 0 1
-13.949206 16.456652 27.006519 34.565211 -0.867678 0.674017 0.088180 -0.040127 288446.000000 0 0 1
-13.435306 15.756252 25.863979 33.131742 -0.864739 0.675106 0.058307 -0.029668 -23312.000000 0 0 1
-12.340006 16.489152 25.079979 32.452630 -0.928338 0.687527 0.055810 -0.023535 -158753.000000 0 0 1
-12.756406 17.480952 24.165319 32.438745 -0.940394 0.730333 0.057614 -0.023127 -120500.000000 0 0 1
-13.222606 18.714152 24.745689 33.725449 -0.955684 0.746987 0.061222 -0.022468 490703.000000 0 0 1
-12.094406 19.574152 25.417359 34.285043 -1.017336 0.735710 0.060292 -0.020380 464260.000000 0 0 1
-11.671106 19.297552 26.756289 34.992988 -1.026857 0.700347 0.066009 -0.024731 357310.000000 0 0 1
-12.683706 19.499552 27.757129 36.215565 -0.994097 0.697513 0.100605 -0.025576 373677.000000 0 0 1
-12.230206 19.100252 29.175859 36.954408 -1.001259 0.660787 0.104817 -0.023616 -550545.000000 0 0 1
-11.149806 19.835252 29.607309 37.340971 -1.058695 0.655258 0.081792 -0.027679 -711052.000000 0 0 1
-11.137606 19.949952 31.016519 38.523646 -1.061620 0.634903 0.085990 -0.032254 -184524.000000 0 0 1
-10.020106 20.816252 31.647865 39.182984 -1.122172 0.630566 0.057401 -0.022947 813140.000000 0 0 1
-8.784906 20.088052 31.773632 38.603990 -1.158537 0.604008 0.072379 -0.027881 513617.000000 0 0 1
-7.724806 20.901252 32.198780 39.157329 -1.216781 0.605368 0.079666 -0.021328 321916.000000 0 0 1
-6.459406 20.135452 32.706353 38.946962 -1.260370 0.573943 0.072969 -0.013540 -338877.000000 0 0 1
-6.641606 19.380252 -33.526429 39.290286 -1.240640 2.593079 0.072884 -0.019856 -286031.000000 0 0 1
-5.476306 18.836452 -32.972809 38.366756 -1.287866 2.604913 0.071796 -0.018933 -118958.000000 0 0 1
-4.728906 17.814152 33.515079 38.248752 -1.311323 0.502794 0.050031 -0.017874 -481647.000000 0 0 1
-5.340006 16.534452 33.537879 37.771591 -1.258408 0.478009 0.050940 -0.015329 250102.000000 0 0 1
-4.890806 15.624952 32.491918 36.383840 -1.267445 0.466759 0.057035 -0.017761 -182225.000000 0 0 1
-5.606806 14.288252 32.382820 35.836259 -1.196853 0.442619 0.057265 -0.028132 -172960.000000 0 0 1
-5.053606 13.391652 33.350169 36.291997 -1.209950 0.405412 0.061607 -0.022420 225768.000000 0 0 1
-5.617706 12.073852 33.118995 35.695999 -1.135309 0.382306 0.071744 -0.023595 26656.000000 0 0 1
-4.806806 10.860752 33.581839 35.620236 -1.154126 0.339941 0.094957 -0.037948 -66641.900000 0 0 1
-4.702706 10.678552 -32.443319 34.477759 -1.155964 2.796348 0.102956 -0.043978 -271952.000000 0 0 1
-3.779206 9.651652 -32.212069 33.838649 -1.197586 2.830277 0.130389 -0.040986 25594.500000 0 0 1
-3.872706 9.278952 -30.722549 32.326024 -1.175411 2.825305 0.140318 -0.043021 259252.000000 0 0 1
-5.052206 8.618952 -30.306929 31.911143 -1.040605 2.823165 0.145588 -0.041665 -97289.600000 0 0 1
-5.185306 8.729952 -28.918619 30.649404 -1.034824 2.803924 0.176245 -0.047131 -808516.000000 0 0 1
-6.346306 7.973252 -28.365559 30.140559 -0.898530 2.796693 0.172068 -0.050546 -1103280.000000 0 0 1
-6.171406 6.555752 -28.501739 29.890020 -0.815588 2.835618 0.185229 -0.042904 241374.000000 0 0 1
-7.177306 5.669852 -27.984719 29.441560 -0.668595 2.825694 0.189342 -0.061892 -174347.000000 0 0 1
-6.904206 5.241652 -26.547059 27.926499 -0.649361 2.825974 0.179995 -0.062768 -165843.000000 0 0 1
-6.862006 6.274652 -25.542329 27.182144 -0.740717 2.792470 0.147771 -0.040927 389251.000000 0 0 1
-5.590506 6.841752 -25.261409 26.761953 -0.885705 2.805135 0.138782 -0.043077 4206.130000 0 0 1
-5.765206 7.913552 -24.147579 26.057004 -0.941183 2.756387 0.094576 -0.020566 149948.000000 0 0 1
-6.143706 7.378952 -22.882679 24.815541 -0.876492 2.744297 0.084054 -0.013797 624684.000000 0 1 0
-7.472206 7.798752 -22.541379 24.995363 -0.806778 2.694765 0.095941 -0.010027 582655.000000 0 1 0
-7.612906 7.963752 -21.070379 23.776849 -0.807918 2.659814 0.074239 -0.004134 281542.000000 0 1 0
-6.814006 9.041352 -20.521379 23.437229 -0.924964 2.637450 0.048968 0.002100 179048.000000 0 1 0
-6.837806 9.158252 -19.079079 22.240513 -0.929457 2.601872 0.036762 0.000110 -321307.000000 0 1 0
-8.138106 9.542752 -18.350279 22.226687 -0.864676 2.542055 0.046701 0.004720 -514262.000000 0 1 0
-8.156006 9.402552 -16.948279 21.027900 -0.856273 2.508143 0.041152 0.005939 -430314.000000 0 1 0
-9.299706 9.889852 -16.302279 21.214571 -0.816142 2.447207 0.040162 0.006206 27874.500000 0 1 0
-9.717006 11.441152 -16.498079 22.304860 -0.866707 2.403366 0.067523 -0.003839 -163159.000000 0 1 0
-8.750606 12.331252 -15.949779 21.977906 -0.953638 2.382875 0.040680 -0.007579 409968.000000 0 1 0
-9.152106 13.677652 -16.162179 23.066323 -0.981091 2.347151 0.067705 -0.011833 336911.000000 0 1 0
-7.939406 14.623852 -15.905979 23.019370 -1.073414 2.333644 0.067384 -0.013288 178438.000000 0 1 0
-7.405206 14.679052 -14.590879 21.981933 -1.103576 2.296640 0.062096 -0.011340 15695.000000 0 1 0
-8.217106 15.248952 -13.610179 22.029261 -1.076543 2.236767 0.058519 -0.020397 -867983.000000 0 1 0
-7.358406 15.856952 -12.494079 21.486998 -1.136321 2.191333 0.036724 -0.019140 369269.000000 0 1 0
-6.691806 17.158952 -12.657679 22.347858 -1.198950 2.172919 0.051129 -0.024833 660806.000000 0 1 0
-5.819006 17.297552 -13.785279 22.871381 -1.246283 2.217715 0.055578 -0.020411 -119045.000000 0 1 0
-5.842406 18.739552 -14.347479 24.313672 -1.268578 2.201978 0.109318 -0.018803 348269.000000 0 1 0
-5.349806 19.710852 -13.398079 24.426351 -1.305767 2.151377 0.105690 -0.024175 66572.900000 0 1 0
-5.598006 21.055452 -13.801579 25.790566 -1.310938 2.135471 0.126105 -0.024146 -63342.100000 0 0 1
-5.180606 22.125552 -12.738979 26.051110 -1.340794 2.081739 0.126612 -0.022473 -820489.000000 0 0 1
-5.429606 23.513352 -13.068679 27.443555 -1.343858 2.067127 0.122816 -0.028669 958489.000000 0 0 1
-6.791106 24.006452 -13.073779 28.166515 -1.295113 2.053483 0.132271 -0.033144 822793.000000 0 0 1
-7.491006 23.904252 -11.730879 27.661199 -1.267114 2.008755 0.092982 -0.031226 -881670.000000 0 0 1
-7.922206 22.599552 -11.418479 26.530789 -1.233634 2.015717 0.098100 -0.024768 -489823.000000 0 0 1
-8.258406 22.383952 -10.045179 25.887221 -1.217346 1.969296 0.100984 -0.023346 -302537.000000 0 0 1
-7.363706 22.746652 -8.851179 25.494660 -1.257716 1.925356 0.096616 -0.023036 -201673.000000 0 0 1
-7.196706 24.134752 -8.728279 26.654487 -1.281002 1.904410 0.092329 -0.019917 -286269.000000 0 0 1
-6.469006 24.516452 -7.592379 26.467880 -1.312812 1.861736 0.087451 -0.022444 12261.900000 0 0 1
-6.735606 26.000352 -7.262879 27.823301 -1.317311 1.834891 0.086863 -0.021991 442471.000000 0 0 1
-5.993206 27.064952 -7.913479 28.827995 -1.352875 1.848873 0.088169 -0.030262 116558.000000 0 0 1
-6.095606 27.037852 -9.345479 29.249612 -1.349056 1.896006 0.089457 -0.031092 -78384.700000 0 0 1
-5.564306 28.253352 -10.123279 30.523666 -1.376342 1.908852 0.091442 -0.028275 219509.000000 0 0 1
-6.424506 29.371952 -9.974279 31.677627 -1.355458 1.891114 0.089108 -0.023889 129880.000000 0 0 1
-7.418806 29.321352 -11.010479 32.187125 -1.322980 1.919923 0.096252 -0.022717 394505.000000 0 0 1
-8.517506 30.421152 -10.793379 33.383999 -1.297800 1.900022 0.094338 -0.025341 294132.000000 0 0 1
-9.462706 30.089052 -9.800679 33.029489 -1.266100 1.872058 0.105461 -0.030736 -334486.000000 0 0 1
-10.292706 31.166352 -9.523079 34.175581 -1.251823 1.853186 0.094557 -0.032384 488628.000000 0 0 1
-11.593606 30.886952 -8.689079 34.116207 -1.211713 1.828324 0.117016 -0.044188 822904.000000 0 0 1
-12.363706 29.805552 -9.186779 33.550396 -1.177586 1.848159 0.118193 -0.046832 -832772.000000 0 0 1
-13.560906 29.705552 -8.512179 33.745743 -1.142541 1.825795 0.134339 -0.040371 -222021.000000 0 0 1
-14.576906 28.612552 -8.989279 33.346236 -1.099611 1.843747 0.137511 -0.046740 424744.000000 0 0 1
-14.355706 27.338952 -8.513079 32.030877 -1.087270 1.839806 0.134410 -0.045647 327364.000000 0 0 1
-15.267806 26.453752 -9.196579 31.898024 -1.047347 1.863260 0.144902 -0.040571 360320.000000 0 0 1
-15.363306 25.024452 -8.606979 30.599583 -1.020196 1.855922 0.141147 -0.036029 343882.000000 0 0 1
-14.282106 24.153252 -8.939879 29.449611 -1.036790 1.879229 0.138660 -0.028245 398243.000000 0 0 1
-14.618506 22.837052 -8.537179 28.427365 -1.001396 1.875820 0.133108 -0.025707 -105548.000000 0 0 1
-13.764206 21.714752 -9.100679 27.272810 -1.005848 1.911012 0.140556 -0.018207 -239780.000000 0 0 1
-13.905606 21.548952 -10.513579 27.717477 -0.997730 1.959849 0.134768 -0.005362 424232.000000 0 0 1
-13.128806 20.436752 -11.016379 26.671839 -0.999774 1.996579 0.125120 -0.005006 251835.000000 0 0 1
-13.302906 20.139852 -12.525879 27.193356 -0.987057 2.049493 0.124490 -0.000686 334510.000000 0 0 1
-14.610906 19.651152 -12.790679 27.626940 -0.931459 2.052149 0.146255 -0.000372 173097.000000 0 0 1
-14.620906 19.162252 -14.106179 27.927533 -0.919023 2.100293 0.133879 0.003790 1413370.000000 0 0 1
-16.091906 18.793752 -14.613379 28.735090 -0.862692 2.104302 0.123805 -0.005715 1591870.000000 0 0 1
-16.938006 19.958252 -14.683979 30.014115 -0.867074 2.082010 0.116860 -0.012560 -62697.000000 0 0 1
-18.185006 19.456152 -15.110479 30.619649 -0.819155 2.086894 0.118557 -0.015520 49650.000000 0 0 1
-19.219106 20.498152 -15.642279 32.159434 -0.817591 2.078759 0.109581 -0.028703 214958.000000 0 0 1
-19.632006 21.386352 -14.605279 32.497783 -0.828142 2.036917 0.107785 -0.035434 142638.000000 0 0 1
-20.137906 22.533952 -15.284579 33.866394 -0.841490 2.039040 0.107856 -0.032579 -226879.000000 0 0 1
-20.692206 23.590952 -14.336079 34.499617 -0.850764 1.999336 0.103950 -0.028930 -1098700.000000 0 0 1
-22.054906 23.562452 -14.135179 35.233667 -0.818434 1.983605 0.120389 -0.027017 -869389.000000 0 0 1
-22.462906 24.520852 -13.155379 35.761968 -0.829171 1.947502 0.112769 -0.041846 100246.000000 0 0 1
-26.488676 -0.182048 3.503821 26.720028 0.006873 1.439287 0.246470 -0.066666 -248273.000000 0 0 1
-27.223736 0.418252 4.527521 27.600819 -0.015362 1.406016 0.267200 -0.067138 -58759.800000 0 0 1
-28.473716 -0.194248 4.759221 28.869369 0.006822 1.405187 0.257607 -0.061634 -121894.000000 0 0 1
-29.063096 0.429852 6.015821 29.682292 -0.014789 1.366709 0.248638 -0.049117 -402559.000000 0 0 1
-29.427496 1.758752 5.641521 30.014955 -0.059695 1.381715 0.289714 -0.057984 222292.000000 0 0 1
-29.852076 2.581152 6.758321 30.716180 -0.086250 1.348956 0.289258 -0.049559 583058.000000 0 0 1
-28.698816 3.130652 7.701521 29.878696 -0.108657 1.310094 0.304524 -0.050750 439537.000000 0 0 1
-28.026206 2.140252 8.418021 29.341302 -0.076218 1.279807 0.270366 -0.057399 246597.000000 0 0 1
-26.969566 2.675152 9.196921 28.619876 -0.098868 1.243644 0.259559 -0.068624 -196782.000000 0 0 1
-26.042066 1.639552 9.841921 27.888004 -0.062875 1.210118 0.230331 -0.061354 -769494.000000 0 0 1
-25.096256 1.152152 8.935821 26.664554 -0.045877 1.229064 0.255635 -0.066884 -112256.000000 0 0 1
-25.314686 -0.159948 8.352821 26.657617 0.006318 1.252091 0.221206 -0.060997 -467765.000000 0 0 1
-24.044206 -0.735848 7.707221 25.259980 0.030594 1.260736 0.199870 -0.064788 -1276240.000000 0 0 1
-23.064306 -0.914448 8.610421 24.636108 0.039627 1.213755 0.212932 -0.090706 -1136260.000000 0 1 0
-22.057806 -1.716948 8.024521 23.534818 0.077682 1.222854 0.221671 -0.070187 48061.200000 0 1 0
-20.880306 -1.993548 8.999321 22.824312 0.095187 1.165505 0.183638 -0.050645 235551.000000 0 1 0
-20.019806 -0.908848 9.298721 22.092643 0.045366 1.136363 0.149380 -0.050773 920294.000000 0 1 0
-20.510206 -0.214148 10.454721 23.022068 0.010441 1.099415 0.169382 -0.058504 -496524.000000 0 1 0
-19.992706 1.263252 10.396321 22.569617 -0.063102 1.092088 0.127628 -0.043165 -217862.000000 0 1 0
-20.623106 2.225452 9.572021 22.844884 -0.107495 1.138452 0.148566 -0.044193 300093.000000 0 1 0
-22.014206 2.385152 9.754521 24.196382 -0.107925 1.155851 0.179117 -0.048203 -242061.000000 0 1 0
-22.705706 3.606652 9.147421 24.743329 -0.157527 1.192118 0.167861 -0.060036 -263868.000000 0 1 0
-22.331806 4.760452 9.909521 24.891165 -0.210026 1.161336 0.141305 -0.058362 515312.000000 0 1 0
-22.827406 5.991552 9.443121 25.419711 -0.256682 1.190185 0.131289 -0.053919 -360826.000000 0 0 1
-22.973506 7.072052 10.548121 26.249929 -0.298629 1.157277 0.135392 -0.060787 876847.000000 0 0 1
-24.047306 6.820052 11.494021 27.511790 -0.276353 1.139790 0.139766 -0.056004 1064440.000000 0 0 1
-23.789606 7.634952 12.603821 27.983820 -0.310552 1.103587 0.131339 -0.051620 209985.000000 0 0 1
-24.611006 7.216152 13.856021 29.150708 -0.285214 1.075464 0.153106 -0.048162 1136040.000000 0 0 1
-26.034926 7.326952 13.713221 30.324150 -0.274332 1.101542 0.138161 -0.045289 787989.000000 0 0 1
-26.866026 6.896852 14.746221 31.413388 -0.251287 1.082157 0.134217 -0.042347 133476.000000 0 0 1
-28.369466 6.954352 14.405621 32.568567 -0.240395 1.112616 0.147932 -0.039048 123006.000000 0 0 1
-28.805256 6.006252 13.413821 32.338034 -0.205567 1.143073 0.175641 -0.027265 800282.000000 0 0 1
-30.125416 6.231852 12.893721 33.356030 -0.203986 1.173910 0.216666 -0.023219 569053.000000 0 0 1
-30.632676 5.200952 11.859421 33.257430 -0.168181 1.206176 0.249115 -0.030130 -24785.000000 0 0 1
-31.081216 3.983952 12.509521 33.740213 -0.127484 1.190969 0.223466 -0.031097 435323.000000 0 0 1
-31.593446 3.028852 11.598021 33.791033 -0.095578 1.220445 0.220156 -0.021210 279959.000000 0 0 1
-32.866976 2.172952 11.864021 35.010211 -0.066017 1.225077 0.184375 -0.010066 130645.000000 0 0 1
-32.732586 1.079252 12.735521 35.139444 -0.032960 1.199925 0.174592 -0.013774 -407421.000000 0 0 1
-33.929856 0.490352 13.186121 36.405348 -0.014451 1.200166 0.147368 -0.015774 -146681.000000 0 0 1
-33.776216 -0.714348 14.092821 36.605337 0.021146 1.175595 0.129884 -0.024074 -28478.300000 0 0 1
-33.595466 -1.936848 13.454921 36.241435 0.057588 1.190433 0.153003 -0.020070 187926.000000 0 0 1
-33.462516 -2.963348 14.473221 36.578622 0.088327 1.163994 0.144665 -0.013661 -230273.000000 0 0 1
-33.551296 -4.430248 13.925821 36.595698 0.131285 1.180425 0.159325 -0.013645 208429.000000 0 0 1
-34.770951 -4.756248 13.271221 37.520211 0.135944 1.209263 0.144932 -0.024011 376498.000000 0 0 1
-34.750680 -6.063748 12.690921 37.489176 0.172754 1.225450 0.164234 -0.025067 -26432.400000 0 0 1
-36.016516 -6.355048 11.789021 38.425995 0.174650 1.258969 0.164024 -0.026761 1199170.000000 0 0 1
-37.256926 -6.541148 12.474521 39.830627 0.173797 1.252247 0.139048 -0.029776 598299.000000 0 0 1
-37.848876 -5.334648 12.966321 40.362376 0.140024 1.243750 0.140914 -0.036018 -8319.770000 0 0 1
36.725861 -5.117948 12.501321 39.131385 -0.138464 1.245626 0.146068 -0.036507 911180.000000 0 0 1
35.857421 -6.110948 13.022121 38.635139 -0.168802 1.227010 0.133960 -0.031687 604133.000000 0 0 1
34.512311 -6.003848 12.557221 37.213298 -0.172239 1.226601 0.147060 -0.030189 786044.000000 0 0 1
33.384721 -6.911248 13.088821 36.518792 -0.204135 1.204229 0.125792 -0.020658 147465.000000 0 0 1
32.897901 -6.649648 14.414421 36.527595 -0.199443 1.165145 0.130859 -0.013580 -221116.000000 0 0 1
31.820891 -7.496348 14.645321 35.822475 -0.231361 1.149624 0.126255 -0.013716 -246229.000000 0 0 1
31.282751 -7.466848 16.102821 35.967557 -0.234305 1.106600 0.120853 -0.002432 47236.100000 0 0 1
32.251851 -8.020748 16.947621 37.305980 -0.243746 1.099225 0.097493 0.004752 -154634.000000 0 0 1
31.894181 -7.863848 18.266021 37.586253 -0.241739 1.063317 0.083964 0.000880 -403213.000000 0 0 1
32.769041 -8.519948 19.358421 39.001898 -0.254368 1.051412 0.090038 -0.005879 -112834.000000 0 0 1
33.852741 -7.760948 19.838321 39.997492 -0.225362 1.051823 0.089482 0.003509 -76582.300000 0 0 1
35.078651 -8.319248 19.394521 40.937380 -0.232858 1.077240 0.055233 0.018151 210934.000000 0 0 1
36.342511 -7.563848 19.897321 42.117612 -0.205197 1.078759 0.051968 -0.002034 287446.000000 0 0 1
36.515901 -7.834148 21.306521 42.997125 -0.211337 1.052347 0.055009 -0.008863 -378645.000000 0 0 1
37.872191 -7.981448 21.615021 44.330751 -0.207707 1.061474 0.054682 -0.013423 -404809.000000 0 0 1
-38.022066 -8.444848 23.070721 45.268655 0.218556 1.036030 0.058635 -0.012013 -174713.000000 0 0 1
37.638731 -7.592348 24.089521 45.327947 -0.199045 1.010485 0.060266 -0.010622 94067.000000 0 0 1
37.333871 -8.291748 25.256321 45.830696 -0.218550 0.987140 0.073027 -0.025432 86615.300000 0 0 1
37.031701 -7.484748 26.572721 46.189586 -0.199431 0.957829 0.088104 -0.025060 794488.000000 0 0 1
-37.848216 -6.947448 27.202421 47.124582 0.181540 0.955446 0.067314 -0.040891 682268.000000 0 0 1
37.876941 -6.216748 28.345221 47.715429 -0.162680 0.934716 0.074325 -0.050574 15032.700000 0 0 1
-36.861536 -5.772448 28.998221 47.254533 0.155337 0.910108 0.092013 -0.042517 179164.000000 0 0 1
-36.385066 -6.749148 29.893321 47.571364 0.183408 0.891316 0.085548 -0.037033 -61408.400000 0 0 1
-34.978205 -6.686248 30.023921 46.579143 0.188876 0.870324 0.086057 -0.046017 118583.000000 0 0 1
-34.432542 -7.526448 31.173021 47.053211 0.215201 0.846637 0.075712 -0.029408 -202085.000000 0 0 1
-34.559203 -8.902348 30.992021 47.266222 0.252116 0.855699 0.067718 -0.022729 122078.000000 0 0 1
-33.970689 -9.490748 32.101321 47.692524 0.272434 0.832418 0.059344 -0.011770 -415681.000000 0 0 1
-34.228278 -11.005248 32.141421 48.226149 0.311086 0.841329 0.061895 -0.010979 -494483.000000 0 0 1
-35.591845 -11.253448 32.300121 49.363118 0.306234 0.857491 0.055394 -0.014431 -399170.000000 0 0 1
-35.847057 -12.643548 32.465121 49.988548 0.339085 0.863934 0.054842 -0.019772 1070350.000000 0 0 1
-37.371996 -12.875348 32.802921 51.366062 0.331783 0.878105 0.066070 -0.019964 977758.000000 0 0 1
-37.674966 -14.253748 32.890921 52.003703 0.361691 0.886055 0.066800 -0.031505 405022.000000 0 0 1
36.986981 -14.481748 33.056221 51.676605 -0.373189 0.876721 0.052261 -0.026610 116654.000000 0 0 1
36.700921 -15.951048 33.112821 51.940855 -0.409993 0.879534 0.047239 -0.016780 -293980.000000 0 0 1
37.006261 -16.630548 -33.114547 52.369950 -0.422353 2.255340 0.062809 -0.021535 177458.000000 0 0 1
36.812361 -18.041648 -33.211947 52.760633 -0.455694 2.251685 0.066576 -0.034917 -497659.000000 0 0 1
37.208371 -18.693948 -31.917647 52.465824 -0.465576 2.224778 0.093806 -0.028207 71435.300000 0 0 1
36.356821 -18.539448 -30.794147 51.125425 -0.471560 2.217207 0.110441 -0.023069 -229361.000000 0 0 1
36.964111 -19.117548 -29.685047 51.117787 -0.477307 2.190407 0.107753 -0.021085 -644384.000000 0 0 1
35.984831 -19.166148 -28.479747 49.732738 -0.489400 2.180538 0.118614 -0.014944 652245.000000 0 0 1
34.806331 -19.946348 -28.610847 49.273908 -0.520380 2.190322 0.111498 -0.017208 499584.000000 0 0 1
33.830011 -19.370548 -29.464247 48.865423 -0.520017 2.218012 0.099081 -0.015029 -1520830.000000 0 0 1
32.553391 -20.198248 -29.577047 48.399320 -0.555332 2.228252 0.082006 -0.010732 -693175.000000 0 0 1
31.630171 -19.585648 -30.417747 48.055225 -0.554423 2.256186 0.060728 -0.002247 -1083930.000000 0 0 1
30.419291 -20.238148 -30.398547 47.528808 -0.587060 2.264750 0.053648 0.003477 -645157.000000 0 0 1
29.306891 -19.614448 -31.288247 47.144192 -0.589808 2.296512 0.033643 0.014512 235962.000000 0 0 1
29.580791 -19.596348 -32.682247 48.240743 -0.585091 2.315131 0.031880 0.013471 538183.000000 0 0 1
28.422391 -19.303648 -33.489547 47.979296 -0.596609 2.343397 0.062392 0.005254 656167.000000 0 0 1
28.725191 -19.461648 32.388421 47.464746 -0.595473 0.819799 0.065559 -0.004953 -44750.900000 0 0 1
29.466091 -18.414248 31.837721 47.127227 -0.558549 0.829059 0.062814 -0.008251 127260.000000 0 0 1
29.804391 -18.598048 30.439321 46.483775 -0.557883 0.856829 0.059343 -0.017432 -103910.000000 0 0 1
28.813391 -17.935348 29.487321 44.959874 -0.556775 0.855477 0.061885 -0.007025 -205394.000000 0 0 1
28.874891 -16.479248 29.598821 44.513090 -0.518606 0.843374 0.072745 -0.020164 1089610.000000 0 0 1
27.784891 -15.847148 28.872021 43.089742 -0.518334 0.836528 0.076156 -0.017112 777489.000000 0 0 1
27.373391 -14.523348 29.540221 42.811854 -0.487799 0.809306 0.090069 -0.028149 38214.400000 0 0 1
28.450691 -13.589548 29.441421 43.138323 -0.445610 0.819634 0.092646 -0.026259 516030.000000 0 0 1
28.266391 -12.385048 30.138321 43.135793 -0.412960 0.797239 0.112749 -0.034961 -289442.000000 0 0 1
29.530691 -11.525148 30.334221 43.875457 -0.372096 0.807411 0.114105 -0.032855 -68260.500000 0 0 1
29.998691 -10.763248 29.234921 43.248694 -0.344485 0.828513 0.109461 -0.043150 -37897.300000 0 0 1
31.404651 -10.650948 29.335721 44.275042 -0.326978 0.846539 0.111132 -0.032981 50686.200000 0 0 1
31.922831 -10.186648 27.956421 43.639390 -0.308888 0.875486 0.114659 -0.033777 -199913.000000 0 0 1
31.755211 -8.774848 27.742721 43.070291 -0.269600 0.870915 0.108538 -0.034736 8039.660000 0 0 1
32.345081 -8.492948 26.490721 42.662545 -0.256777 0.900860 0.123648 -0.036597 137351.000000 0 0 1
32.485521 -6.997948 26.332721 42.399204 -0.212175 0.900694 0.123842 -0.033927 474699.000000 0 0 1
31.194321 -6.397448 26.283221 41.289474 -0.202279 0.880767 0.131305 -0.032855 111182.000000 0 0 1
31.217701 -4.987648 26.040421 40.957600 -0.158431 0.881765 0.120312 -0.036119 -1015690.000000 0 0 1
29.889891 -4.320448 25.900021 39.785461 -0.143551 0.861906 0.108602 -0.031605 -1234500.000000 0 0 1
29.191491 -4.714548 24.785121 38.583317 -0.160122 0.873198 0.122384 -0.026324 -479406.000000 0 0 1
27.860691 -4.266448 24.885521 37.599333 -0.151955 0.847498 0.117557 -0.024854 -158528.000000 0 0 1
26.923891 -4.649548 23.719221 36.181703 -0.171006 0.855874 0.124240 -0.009840 -144708.000000 0 0 1
27.189691 -3.932748 22.513221 35.518881 -0.143645 0.884291 0.142231 -0.001728 592973.000000 0 0 1
26.351191 -4.413848 21.429521 34.250426 -0.165960 0.894804 0.140862 -0.002022 383344.000000 0 0 1
26.632291 -3.673748 20.126521 33.583511 -0.137078 0.928173 0.155850 -0.003397 -9115.190000 0 0 1
25.982691 -2.434448 20.032621 32.898825 -0.093422 0.916103 0.140358 -0.002330 221174.000000 0 0 1
26.586291 -1.627848 18.975621 32.704051 -0.061153 0.951795 0.151555 -0.002638 422716.000000 0 0 1
25.563891 -0.600648 18.392021 31.498249 -0.023492 0.947264 0.132453 -0.010483 320127.000000 0 0 1
24.651591 -1.314748 17.566321 30.298599 -0.053283 0.952346 0.123438 -0.005580 -452968.000000 0 0 1
23.540991 -0.557048 17.198521 29.159521 -0.023658 0.939975 0.145840 -0.009069 -228234.000000 0 0 1
22.415991 -1.468248 16.660921 27.968173 -0.065407 0.932647 0.147779 -0.018603 -26012.100000 0 0 1
22.670191 -2.036748 15.361221 27.460025 -0.089602 0.977131 0.189467 -0.040322 625226.000000 0 0 1
21.570091 -2.891448 15.015621 26.440464 -0.133255 0.966840 0.205416 -0.047330 289601.000000 0 0 1
21.529991 -3.189848 13.465821 25.593827 -0.147088 1.016747 0.223659 -0.059035 141127.000000 0 0 1
20.516291 -4.156448 13.148621 24.720042 -0.199887 1.009952 0.237594 -0.060017 837997.000000 0 1 0
20.512691 -4.463148 11.776921 24.070439 -0.214241 1.059545 0.225622 -0.062661 -597630.000000 0 1 0
19.343691 -5.359648 11.435821 23.101563 -0.270294 1.052934 0.201660 -0.063226 -569998.000000 0 1 0
19.491091 -6.645648 11.930921 23.799457 -0.328597 1.045683 0.223139 -0.070781 207656.000000 0 1 0
18.252391 -7.277648 12.084721 23.068472 -0.379405 1.019416 0.194667 -0.048465 -484948.000000 0 1 0
18.346991 -8.796248 12.410521 23.832899 -0.447063 1.023090 0.211252 -0.064875 -141092.000000 0 1 0
19.010891 -9.481648 11.349221 24.085689 -0.462646 1.080143 0.194002 -0.070696 589080.000000 0 1 0
18.894091 -10.894148 11.482421 24.647822 -0.523029 1.086191 0.210225 -0.065882 -48305.700000 0 1 0
19.470791 -11.585448 10.238721 24.862938 -0.536747 1.146361 0.199368 -0.062304 116324.000000 0 1 0
18.625391 -11.337548 9.126821 23.637767 -0.546803 1.174384 0.161529 -0.046688 555489.000000 0 1 0
19.192491 -11.735948 7.917421 23.848894 -0.548823 1.232392 0.170095 -0.061036 74303.100000 0 1 0
18.465591 -10.916248 6.798821 22.502588 -0.533899 1.263865 0.132151 -0.040984 94127.000000 0 1 0
18.854791 -9.583148 6.598921 22.155939 -0.470234 1.268367 0.114736 -0.040627 265957.000000 0 1 0
19.757991 -9.387248 5.538121 22.564783 -0.443539 1.322831 0.126490 -0.035482 -164966.000000 0 1 0
20.016291 -7.915948 5.238521 22.153019 -0.376600 1.332065 0.130311 -0.035214 -385263.000000 0 1 0
20.870191 -7.784948 4.125721 22.653738 -0.357032 1.387653 0.149269 -0.031570 543034.000000 0 1 0
21.367291 -6.459448 4.109121 22.697367 -0.293571 1.388753 0.175731 -0.030730 -115946.000000 0 1 0
22.280491 -6.133348 2.930321 23.294313 -0.268625 1.444667 0.208668 -0.038858 -95389.300000 0 1 0
21.532591 -5.844848 1.759521 22.381033 -0.265055 1.492099 0.178558 -0.053150 1326850.000000 0 1 0
22.420691 -5.497548 0.672221 23.094638 -0.240456 1.541685 0.217787 -0.045451 549752.000000 0 1 0
-25.232886 -14.346448 -0.585379 29.032082 0.516982 1.590961 0.153613 -0.029738 -591598.000000 0 0 1
-24.019706 -13.670548 -0.661679 27.645398 0.517418 1.594733 0.111101 -0.014885 110232.000000 0 0 1
-22.924306 -14.377348 -0.052679 27.059836 0.560155 1.572743 0.129089 -0.008603 615792.000000 0 0 1
-22.625306 -14.151448 1.436821 26.725127 0.558937 1.517007 0.154711 -0.030137 26747.500000 0 0 1
-23.649006 -14.756948 2.237821 27.965172 0.557879 1.490689 0.150549 -0.012839 614834.000000 0 0 1
-23.476406 -14.350748 3.622721 27.752653 0.548675 1.439887 0.158345 -0.006199 358696.000000 0 0 1
-24.431306 -15.162848 4.560321 29.113523 0.555452 1.413509 0.182015 -0.004574 177305.000000 0 0 1
-24.139006 -16.559248 4.574121 29.628077 0.601265 1.415792 0.220947 -0.039620 142529.000000 0 0 1
-24.956516 -17.209048 5.514621 30.812175 0.603686 1.390851 0.225916 -0.036545 -154757.000000 0 0 1
-24.857406 -18.737748 5.366521 31.587868 0.645935 1.400076 0.170431 -0.028282 106508.000000 0 0 1
-25.411426 -19.473348 6.460521 32.660224 0.653866 1.371673 0.169732 -0.041967 29152.000000 0 0 1
-25.594286 -20.842748 6.191521 33.583070 0.683431 1.385371 0.161030 -0.053072 241326.000000 0 0 1
-26.080056 -21.792748 7.321221 34.766270 0.696080 1.358624 0.140287 -0.039582 154349.000000 0 0 1
-25.010446 -22.054748 8.183421 34.335153 0.722680 1.330141 0.134525 -0.030197 -421383.000000 0 0 1
-25.443826 -22.673748 9.351621 35.340345 0.727893 1.302991 0.116327 -0.023853 114119.000000 0 0 1
-24.362906 -22.874448 10.444621 35.012593 0.753898 1.267874 0.127702 -0.035130 113543.000000 0 0 1
-23.856506 -21.649648 10.952021 34.026268 0.736940 1.243093 0.109928 -0.032371 -62857.700000 0 0 1
-23.000006 -21.927648 12.035021 33.980344 0.761534 1.208764 0.122398 -0.033631 -20914.900000 0 0 1
-23.557306 -21.182548 13.309121 34.362476 0.732369 1.173078 0.087761 -0.020918 1384010.000000 0 0 1
-24.750106 -21.800348 13.892421 35.788578 0.722116 1.172140 0.078121 -0.018344 1364140.000000 0 0 1
-25.283636 -21.022248 15.024521 36.151534 0.693630 1.142196 0.071753 -0.009005 732686.000000 0 0 1
-26.706946 -21.429548 15.546921 37.605761 0.676200 1.144591 0.065756 -0.007565 -44916.800000 0 0 1
-27.762556 -21.112548 14.706721 37.852171 0.650167 1.171760 0.077550 -0.009760 -392257.000000 0 0 1
-28.147146 -22.114648 13.795721 38.361979 0.665948 1.202936 0.071908 -0.017301 -476288.000000 0 0 1
-29.222096 -23.063748 14.320821 39.886756 0.668156 1.203560 0.055620 -0.016673 -565070.000000 0 0 1
-28.807096 -23.892948 15.443421 40.487295 0.692420 1.179444 0.040939 -0.009879 -58123.100000 0 0 1
-29.689426 -24.955348 15.785921 41.873939 0.698980 1.184255 0.044633 -0.008803 -208103.000000 0 0 1
-29.680676 -26.197948 14.860521 42.286051 0.723152 1.211700 0.057045 -0.013558 5788.270000 0 0 1
-30.328946 -26.194438 13.609221 42.322624 0.712381 1.243421 0.073625 -0.024288 742319.000000 0 0 1
-31.745916 -26.462668 13.736721 43.551964 0.694882 1.249908 0.098655 -0.037957 886205.000000 0 0 1
-32.333496 -26.636388 12.286421 43.656710 0.689087 1.285510 0.139080 -0.044521 -311037.000000 0 0 1
-31.837666 -27.775558 11.619421 43.819283 0.717362 1.302419 0.114355 -0.042236 148956.000000 0 0 1
-32.733106 -28.305568 10.648321 44.565101 0.712988 1.329524 0.114214 -0.029599 312505.000000 0 0 1
-32.159356 -29.569548 9.869321 44.788234 0.743468 1.348618 0.102098 -0.027544 35153.900000 0 0 1
-32.136246 -30.777938 10.659821 45.756438 0.763812 1.335667 0.101671 -0.022105 139431.000000 0 0 1
-31.806556 -31.937498 9.922921 46.153279 0.787452 1.354105 0.117632 -0.031363 -357139.000000 0 0 1
-31.718466 -33.251268 10.724921 47.188260 0.808986 1.341513 0.116165 -0.032554 -88595.200000 0 0 1
-32.976276 33.711072 11.059621 48.437448 -0.796416 1.340436 0.098188 -0.019870 -247296.000000 0 0 1
-32.859166 32.450354 11.705521 47.642098 -0.779139 1.322558 0.126353 -0.029636 -476891.000000 0 0 1
-34.177093 31.906765 12.322221 48.352378 -0.751056 1.313112 0.119291 -0.022545 367304.000000 0 0 1
-35.306988 31.698333 11.508921 48.824410 -0.731594 1.332836 0.081429 -0.031456 190594.000000 0 0 1
-35.924858 32.927695 11.137121 49.988639 -0.741895 1.346118 0.104501 -0.028043 -310725.000000 0 0 1
-37.418866 32.772888 10.681021 50.875514 -0.719305 1.359278 0.104391 -0.010087 542605.000000 0 0 1
-37.618066 32.078512 9.448421 50.333115 -0.706084 1.381958 0.087977 -0.011401 937759.000000 0 0 1
37.007681 32.031954 9.280621 49.817110 0.713452 1.383408 0.069941 -0.009577 923412.000000 0 0 1
36.521031 31.517872 7.910821 48.884998 0.711996 1.408256 0.071018 -0.013776 -173759.000000 0 0 1
36.635981 30.077002 7.798221 48.037833 0.687397 1.407740 0.106981 -0.027096 -14973.500000 0 0 1
36.560201 29.662902 6.434921 47.517831 0.681620 1.434958 0.118311 -0.021427 -87408.600000 0 0 1
36.770451 28.147302 6.211921 46.721779 0.653339 1.437446 0.127479 -0.018831 -123548.000000 0 0 1
35.728331 27.304172 6.644721 45.455294 0.652538 1.424089 0.134287 -0.028688 -164575.000000 0 0 1
36.029741 26.544202 7.779521 45.423098 0.634954 1.398680 0.125963 -0.038062 9401.730000 0 0 1
34.917991 25.510422 8.060121 43.988785 0.630957 1.386524 0.122729 -0.036513 80829.400000 0 0 1
34.951271 24.423972 7.172421 43.238471 0.609921 1.404145 0.135307 -0.040285 120889.000000 0 0 1
34.024241 23.403602 7.551521 41.980984 0.602526 1.389932 0.130353 -0.037840 -874798.000000 0 0 1
34.294511 21.963652 7.146021 41.347081 0.569627 1.397094 0.120110 -0.037645 591233.000000 0 0 1
35.435211 21.297052 7.727221 42.058632 0.541165 1.386022 0.128416 -0.033417 1905860.000000 0 0 1
36.714311 21.818052 7.227721 43.315216 0.536192 1.403149 0.113347 -0.030342 1645460.000000 0 0 1
37.894671 20.776452 7.054521 43.788506 0.501513 1.408987 0.088810 -0.025121 545605.000000 0 0 1
37.611951 19.895752 5.962921 42.965756 0.486557 1.431564 0.117019 -0.035542 104880.000000 0 0 1
-37.772026 18.686352 6.172721 42.591175 -0.459410 1.425355 0.137815 -0.043388 -263057.000000 0 0 1
37.700851 17.589252 5.330221 41.942188 0.436530 1.443367 0.141904 -0.045420 20207.700000 0 0 1
-37.909486 17.671452 3.972121 42.014130 -0.436202 1.476112 0.158775 -0.042838 637730.000000 0 0 1
37.395801 16.700752 3.238921 41.083471 0.420018 1.491877 0.154184 -0.042003 37407.200000 0 0 1
-37.898706 16.383852 1.893121 41.331906 -0.408043 1.524977 0.187666 -0.037902 1203090.000000 0 0 1
-36.750556 15.518652 2.028321 39.944287 -0.399556 1.519996 0.187403 -0.053132 830549.000000 0 0 1
-35.535604 16.209452 2.241421 39.122238 -0.427954 1.513472 0.206938 -0.058471 -67992.900000 0 0 1
-34.251036 15.353352 2.169521 37.597416 -0.421406 1.513060 0.223265 -0.057222 160675.000000 0 0 1
-34.085568 14.527752 3.351721 37.203704 -0.402899 1.480583 0.229048 -0.060512 545992.000000 0 0 1
-32.753026 14.020452 3.419421 35.791427 -0.404465 1.475113 0.227967 -0.065980 404009.000000 0 0 1
-32.425516 13.131552 4.727921 35.301629 -0.384789 1.436463 0.235732 -0.050246 -214030.000000 0 0 1
-32.884966 11.821752 4.695721 35.259391 -0.345102 1.437223 0.264980 -0.049452 49663.200000 0 0 1
-32.580636 11.123152 5.865921 34.923222 -0.328996 1.402030 0.224253 -0.032451 -23352.900000 0 0 1
-32.795336 9.598152 5.634921 34.632513 -0.284717 1.407364 0.260013 -0.046266 839.920000 0 0 1
-34.165089 9.276952 5.571021 35.837849 -0.265140 1.414713 0.258053 -0.018586 70522.700000 0 0 1
-34.392166 7.839452 5.570821 35.711513 -0.224114 1.414162 0.294587 -0.031483 -10909.600000 0 0 1
-35.874899 7.454252 5.775721 37.093574 -0.204869 1.414453 0.252567 -0.017261 53923.400000 0 0 1
-36.346276 7.582452 7.100821 37.801680 -0.205667 1.381830 0.225324 -0.008979 -721105.000000 0 0 1
-37.486416 6.819352 7.244621 38.784269 -0.179947 1.382900 0.159874 -0.013200 -729288.000000 0 0 1
-37.799786 6.161152 8.638521 39.260765 -0.161573 1.348952 0.148708 -0.019477 -300690.000000 0 0 1
37.673101 7.072452 9.523721 39.496625 0.185572 1.327269 0.153395 -0.018759 154832.000000 0 0 1
-37.485626 7.742352 10.386621 39.661040 -0.203678 1.305822 0.167599 -0.025389 -174958.000000 0 0 1
37.837491 8.654652 11.407621 40.456304 0.224864 1.284945 0.136147 -0.024255 -380289.000000 0 0 1
37.268331 7.931452 12.445821 40.084097 0.209692 1.255085 0.114933 -0.026250 422763.000000 0 0 1
36.816281 8.852452 13.454121 40.184796 0.235970 1.229397 0.136280 -0.038263 -244880.000000 0 0 1
36.071371 8.329652 14.713121 39.837204 0.226943 1.192507 0.155447 -0.049949 -989874.000000 0 0 1
34.729651 8.019852 14.560421 38.502890 0.226944 1.182984 0.155302 -0.054240 -420584.000000 0 0 1
34.189631 7.614252 15.834021 38.439874 0.219130 1.146240 0.149922 -0.045651 630052.000000 0 0 1
32.665021 7.317752 15.919121 37.067121 0.220385 1.126893 0.167199 -0.035948 192970.000000 0 0 1
31.801141 8.463152 15.927021 36.559643 0.260099 1.120042 0.159146 -0.041838 927395.000000 0 0 1
30.450791 8.170352 16.298121 35.491324 0.262139 1.093686 0.160381 -0.035481 505205.000000 0 0 1
30.100991 7.628052 17.664821 35.725379 0.248190 1.053581 0.157845 -0.050759 -852999.000000 0 0 1
30.281091 8.512252 18.749221 36.618795 0.274036 1.033272 0.193769 -0.053210 336556.000000 0 0 1
29.525691 8.021952 19.876821 36.485698 0.265290 0.994665 0.182085 -0.040569 -196237.000000 0 0 1
29.906691 6.776452 20.770521 37.037076 0.222824 0.975440 0.172590 -0.036348 -202585.000000 0 0 1
29.132691 6.714552 21.948021 37.087929 0.226526 0.937527 0.140286 -0.024941 142067.000000 0 0 1
29.257791 5.343752 22.497321 37.292137 0.180653 0.923198 0.140594 -0.028137 -151873.000000 0 0 1
28.227991 5.162552 23.634221 37.175903 0.180889 0.881829 0.137858 -0.024997 694111.000000 0 0 1
26.894191 4.879252 23.226021 35.868547 0.179472 0.866455 0.103652 -0.015184 261897.000000 0 0 1
26.030791 5.983652 23.342121 35.471971 0.225943 0.852578 0.124363 -0.009337 640161.000000 0 0 1
24.579991 5.778052 22.781321 34.008093 0.230880 0.836750 0.112435 -0.020437 295973.000000 0 0 1
24.436391 5.841252 21.366221 32.981401 0.234636 0.866069 0.122830 -0.008791 -302826.000000 0 0 1
23.157991 5.587852 20.871721 31.672470 0.236767 0.851326 0.113803 -0.010812 -1266350.000000 0 0 1
22.452391 4.237452 21.093421 31.096595 0.186536 0.825324 0.113851 -0.012660 392033.000000 0 0 1
21.146991 4.199352 20.474621 29.732808 0.196029 0.811211 0.107344 -0.018255 1621730.000000 0 0 1
20.110491 4.758052 21.314921 29.688327 0.232323 0.769934 0.125430 -0.026806 608095.000000 0 0 1
18.668891 4.545252 20.732321 28.266870 0.238820 0.747413 0.177366 -0.041361 557573.000000 0 0 1
17.998391 3.323652 20.965721 27.830742 0.182607 0.717686 0.166489 -0.041421 346545.000000 0 0 1
16.969291 3.125052 19.994021 26.409916 0.182119 0.711987 0.190908 -0.051325 -21601.300000 0 0 1
15.943791 2.066852 20.425821 25.994047 0.128915 0.666827 0.222288 -0.054760 -677051.000000 0 0 1
16.210691 0.672752 20.359521 26.033616 0.041477 0.672852 0.159362 -0.040596 -45044.700000 0 0 1
15.300091 0.044852 21.239221 26.176312 0.002931 0.624269 0.198241 -0.046527 89830.900000 0 0 1
15.542891 -1.521548 21.161921 26.300636 -0.097583 0.635767 0.157029 -0.024551 231153.000000 0 0 1
15.009591 -1.954048 19.923521 25.021047 -0.129459 0.649691 0.173256 -0.025681 104675.000000 0 0 1
15.078291 -3.341848 19.928321 25.212314 -0.218107 0.659302 0.130723 -0.015869 -98688.200000 0 0 1
14.620191 -4.094348 18.670121 24.064228 -0.273053 0.682742 0.142629 -0.021185 -495299.000000 0 1 0
13.248091 -4.286548 18.559821 23.202443 -0.312929 0.643654 0.141733 -0.024456 -765948.000000 0 1 0
12.847891 -5.116048 17.486121 22.293646 -0.378955 0.669142 0.140559 -0.024867 -312847.000000 0 1 0
11.342691 -5.069248 17.252621 21.260452 -0.420288 0.624101 0.121767 -0.019456 -597403.000000 0 1 0
10.618591 -5.873348 18.107421 21.797463 -0.505235 0.590410 0.118242 -0.015316 -983406.000000 0 1 0
9.255791 -5.803948 17.824421 20.906111 -0.560080 0.549867 0.092006 -0.029483 -172858.000000 0 1 0
8.253791 -6.614148 18.707021 21.490106 -0.675562 0.514590 0.086476 -0.034827 268851.000000 0 1 0
8.214891 -7.983048 18.498021 21.757534 -0.771086 0.554452 0.081018 -0.035234 588360.000000 0 1 0
9.229791 -8.686948 19.248021 23.046440 -0.755109 0.582329 0.120247 -0.033417 697507.000000 0 1 0
9.131691 -10.174848 18.891621 23.319705 -0.839377 0.626450 0.135201 -0.038045 179347.000000 0 1 0
9.316291 -10.318548 17.518121 22.364040 -0.836399 0.670813 0.105297 -0.027184 135679.000000 0 1 0
9.924191 -11.532348 17.040321 22.844193 -0.860208 0.728856 0.133591 -0.038279 394703.000000 0 1 0
9.818291 -11.767048 15.523921 21.814087 -0.875436 0.778957 0.122495 -0.035881 21947.600000 0 1 0
10.365791 -12.973348 15.107521 22.449823 -0.896661 0.832612 0.106855 -0.033188 -174728.000000 0 1 0
9.844091 -13.343848 13.855921 21.609048 -0.935198 0.874723 0.070675 -0.013747 -767434.000000 0 1 0
10.609891 -14.540848 13.226521 22.337120 -0.940440 0.937094 0.096640 -0.020092 -45285.000000 0 1 0
11.918991 -14.256348 12.809521 22.569662 -0.874458 0.967263 0.071712 -0.023020 -517358.000000 0 1 0
11.991891 -13.376048 11.708221 21.443100 -0.839907 0.993198 0.025093 -0.020293 -772431.000000 0 1 0
13.450091 -13.060948 11.295521 21.887944 -0.770721 1.028550 0.083020 -0.027442 446509.000000 0 1 0
14.240991 -14.102248 10.710221 22.724173 -0.780503 1.080016 0.097043 -0.028409 1001690.000000 0 1 0
15.544091 -13.523748 10.459321 23.106448 -0.716005 1.101052 0.113507 -0.044784 1047210.000000 0 1 0
16.624391 -14.455848 9.865421 24.138526 -0.715739 1.149767 0.111493 -0.050040 547176.000000 0 1 0
17.311691 -15.299448 10.826321 25.514251 -0.723772 1.132581 0.109715 -0.038335 373383.000000 0 0 1
16.637391 -16.516048 11.010321 25.899996 -0.781738 1.131714 0.157531 -0.035976 83143.500000 0 0 1
17.168091 -17.314948 12.223821 27.275861 -0.789657 1.106096 0.137776 -0.036943 -476574.000000 0 0 1
18.455091 -17.856748 12.081321 28.379784 -0.768922 1.131059 0.165325 -0.048819 -91885.800000 0 0 1
18.898491 -18.526648 13.250521 29.596722 -0.775463 1.106602 0.131011 -0.043854 127329.000000 0 0 1
20.251991 -19.261148 13.130221 30.879405 -0.760327 1.131603 0.084430 -0.042561 761612.000000 0 0 1
21.370391 -18.396748 12.901421 31.009363 -0.710761 1.141700 0.087912 -0.042332 529496.000000 0 0 1
22.578691 -19.075648 12.552821 32.113096 -0.701498 1.169194 0.077277 -0.043271 729764.000000 0 0 1
23.309491 -18.399148 11.349421 31.791042 -0.668208 1.205741 0.115277 -0.046843 -153151.000000 0 0 1
22.781891 -18.629348 10.037021 31.093552 -0.685457 1.242109 0.112706 -0.033999 1109530.000000 0 0 1
21.496391 -18.050948 9.669121 29.688777 -0.698496 1.239063 0.124445 -0.039853 1047590.000000 0 0 1
21.459191 -16.454448 9.732321 28.739586 -0.654153 1.225327 0.180731 -0.059066 -219448.000000 0 0 1
22.244691 -15.762548 8.770421 28.639212 -0.616473 1.259557 0.172622 -0.042368 19526.800000 0 0 1
21.911591 -14.393148 8.677121 27.614724 -0.581192 1.251161 0.190437 -0.054786 49439.700000 0 0 1
-36.083236 24.872252 8.033821 44.555259 -0.603510 1.389493 0.143279 -0.031283 -862813.000000 0 0 1
-35.206308 24.277952 8.877921 43.677461 -0.603706 1.366109 0.143050 -0.035817 -942881.000000 0 0 1
-34.066245 25.081552 9.015121 43.253505 -0.634648 1.360832 0.174415 -0.041170 -536613.000000 0 0 1
-32.925566 24.229052 9.602221 41.992172 -0.634399 1.340088 0.184318 -0.040479 -250061.000000 0 0 1
-32.377166 23.281752 8.675521 40.811586 -0.623416 1.356587 0.187278 -0.042713 8714.710000 0 0 1
-31.847736 22.180652 9.420621 39.937548 -0.608346 1.332668 0.176296 -0.042217 298298.000000 0 0 1
-31.142716 21.136252 8.496921 38.585070 -0.596280 1.348764 0.154800 -0.052639 489822.000000 0 0 1
-32.103666 20.517052 7.639221 38.858107 -0.568666 1.372915 0.164774 -0.058934 597849.000000 0 0 1
-31.471196 19.824152 6.584121 37.772792 -0.562125 1.395593 0.174833 -0.059367 338419.000000 0 0 1
-32.463996 18.918452 5.736021 38.009483 -0.527640 1.419307 0.170702 -0.051600 290919.000000 0 0 1
-32.965436 17.785852 6.444121 38.007673 -0.494770 1.400425 0.183875 -0.058942 214617.000000 0 0 1
-33.955847 17.213852 5.609221 38.480900 -0.469191 1.424509 0.153169 -0.057812 14582.700000 0 0 1
-34.685749 15.979552 6.218521 38.692600 -0.431712 1.409380 0.144556 -0.047752 413709.000000 0 0 1
-35.578256 16.321252 7.303521 39.818802 -0.430100 1.386333 0.110438 -0.033925 479466.000000 0 0 1
-36.381496 15.256852 7.786121 40.212044 -0.397082 1.375939 0.120870 -0.033619 -267961.000000 0 0 1
-37.222366 15.792452 8.912021 41.404471 -0.401255 1.353856 0.093919 -0.026377 -391106.000000 0 0 1
37.798511 16.681152 8.520221 42.185097 0.415610 1.367425 0.115578 -0.033952 -139143.000000 0 0 1
37.340681 17.216352 9.735721 42.255337 0.432015 1.338305 0.117155 -0.025138 -235922.000000 0 0 1
36.255651 18.255152 9.453321 41.678388 0.466453 1.341989 0.082061 -0.023315 14360.100000 0 0 1
34.939071 17.770652 9.235121 40.271853 0.470518 1.339418 0.107393 -0.031676 664741.000000 0 0 1
34.050221 18.924052 9.246221 40.037855 0.507261 1.337756 0.111667 -0.028710 199395.000000 0 0 1
32.595841 18.694452 8.821121 38.597714 0.520723 1.340219 0.115440 -0.040161 -776291.000000 0 0 1
31.959921 19.985052 8.858321 38.720907 0.558827 1.339979 0.116634 -0.038015 376282.000000 0 0 1
30.560991 19.880052 8.589521 37.456248 0.576730 1.339416 0.093737 -0.034378 410051.000000 0 0 1
30.148491 19.566752 7.151721 36.646096 0.575681 1.374379 0.081923 -0.031565 -1123990.000000 0 0 1
30.235591 18.211552 6.729821 35.932465 0.542125 1.382393 0.092811 -0.034464 119098.000000 0 0 1
29.979091 17.962552 5.346021 35.355043 0.539808 1.419005 0.080662 -0.037458 -918385.000000 0 0 1
28.561891 18.170652 4.862921 34.199447 0.566602 1.428120 0.108102 -0.036698 -1943950.000000 0 0 1
27.563991 17.349152 5.472821 33.026026 0.561767 1.404316 0.103185 -0.031457 989811.000000 0 0 1
26.224891 17.702552 5.100721 32.049065 0.593769 1.410963 0.150732 -0.027673 692505.000000 0 0 1
25.722691 19.112252 5.480221 32.511041 0.639013 1.401423 0.152784 -0.016641 -1474990.000000 0 0 1
26.337991 20.170152 4.786021 33.517619 0.653549 1.427515 0.136780 -0.032561 -270502.000000 0 0 1
25.960091 21.491152 5.116921 34.087810 0.691496 1.420117 0.156020 -0.023594 -342719.000000 0 0 1
26.989291 22.553852 4.693121 35.484129 0.696109 1.438148 0.111373 -0.017082 -104483.000000 0 0 1
28.144691 22.576552 5.495321 36.496888 0.676057 1.419652 0.105799 -0.029866 -153528.000000 0 0 1
28.917991 23.719452 5.326421 37.778742 0.686956 1.429335 0.073666 -0.013125 281222.000000 0 0 1
30.354291 23.722552 6.007321 38.990131 0.663372 1.416107 0.067433 -0.018726 638876.000000 0 0 1
31.321771 22.807652 5.589121 39.146910 0.629385 1.427534 0.068187 -0.022587 -43834.300000 0 0 1
31.673991 22.688852 4.248321 39.192779 0.621598 1.462187 0.064961 -0.025671 -681194.000000 0 0 1
32.505601 23.827352 3.628421 40.466310 0.632547 1.481011 0.077416 -0.027491 -1084170.000000 0 0 1
31.710581 24.951452 3.358021 40.489655 0.666671 1.487766 0.058600 -0.020595 103536.000000 0 0 1
32.380821 25.863352 2.484921 41.516326 0.673963 1.510906 0.093949 -0.011686 -744392.000000 0 0 1
31.829291 27.259752 2.640121 41.990095 0.708219 1.507880 0.075043 -0.004066 -526495.000000 0 0 1
30.590791 27.616252 2.148321 41.268258 0.734340 1.518715 0.095850 -0.003957 -541271.000000 0 0 1
29.482791 27.044952 2.835221 40.108638 0.742298 1.500049 0.080344 -0.006831 -353410.000000 0 0 1
28.119091 27.572452 2.330421 39.450655 0.775583 1.511690 0.050428 0.001367 28049.300000 0 0 1
27.883791 28.913952 2.712621 40.260163 0.803534 1.503368 0.047223 -0.000743 730132.000000 0 0 1
26.679591 29.500952 2.168721 39.834785 0.835576 1.516327 0.044272 0.005464 933139.000000 0 0 1
26.639691 30.971752 2.634721 40.937321 0.860451 1.506392 0.047102 -0.003601 199136.000000 0 0 1
26.133391 31.047252 3.947421 40.773375 0.871123 1.473831 0.038395 -0.011144 175742.000000 0 0 1
27.219291 31.244852 4.831621 41.719002 0.854145 1.454722 0.037235 -0.013150 252530.000000 0 0 1
26.791091 30.977952 6.306721 41.438759 0.857748 1.418009 0.038300 -0.024513 97424.600000 0 0 1
26.301591 29.689552 6.653721 40.218344 0.845833 1.404592 0.051641 -0.030544 -302961.000000 0 0 1
27.084091 28.557052 6.405521 39.875856 0.811864 1.409461 0.076959 -0.037564 -102952.000000 0 0 1
26.366091 27.189952 6.833121 38.485786 0.800780 1.392301 0.102251 -0.038718 -519211.000000 0 0 1
25.328691 26.838052 6.027221 37.391857 0.814323 1.408899 0.068037 -0.038096 -946997.000000 0 0 1
24.876791 25.532852 6.275921 36.196249 0.798412 1.396530 0.079704 -0.041905 487020.000000 0 0 1
23.589591 25.274552 5.392721 34.990759 0.819867 1.416061 0.092561 -0.027442 452322.000000 0 0 1
23.753491 25.092252 4.015321 34.784655 0.812799 1.455105 0.099602 -0.028279 42554.100000 0 0 1
24.191591 26.211152 3.265121 35.817852 0.825445 1.479511 0.080186 -0.027886 -189788.000000 0 0 1
24.508791 25.825752 1.844921 35.651844 0.811556 1.519025 0.088205 -0.019547 147064.000000 0 0 1
25.575991 24.878852 1.826021 35.727061 0.771582 1.519664 0.066925 -0.002335 281706.000000 0 0 1
25.804491 24.506252 0.462521 35.589915 0.759599 1.557800 0.069168 -0.010108 116507.000000 0 0 1
27.210891 23.919852 0.208221 36.230308 0.721122 1.565049 0.085481 -0.012013 -691485.000000 0 0 1
28.306991 24.818652 0.228821 37.647092 0.719830 1.564718 0.106727 -0.014777 1331440.000000 0 0 1
29.595791 24.335252 -0.207079 38.316552 0.688164 1.576201 0.099451 -0.001433 909412.000000 0 0 1
30.229391 23.196852 0.502821 38.107254 0.654520 1.557601 0.076856 -0.005347 -1376140.000000 0 0 1
29.505391 21.961652 0.386221 36.783575 0.639860 1.560296 0.063662 -0.009108 110123.000000 0 0 1
29.676891 21.013852 1.418621 36.391102 0.616134 1.531804 0.061188 -0.008590 639586.000000 0 0 1
28.286891 20.422452 1.888421 34.939818 0.625323 1.516722 0.069221 -0.023714 748966.000000 0 0 1
27.794291 19.548852 0.906621 33.992678 0.612964 1.544122 0.085242 -0.031685 275224.000000 0 0 1
26.513491 19.066752 1.287621 32.682781 0.623452 1.531389 0.118489 -0.038633 59923.200000 0 0 1
25.870591 18.100552 0.279721 31.575238 0.610496 1.561937 0.105037 -0.030627 -865118.000000 0 0 1
24.617891 17.639952 0.653621 30.292502 0.621747 1.549218 0.127807 -0.031731 -339951.000000 0 0 1
24.021391 16.933952 -0.442679 29.393569 0.614042 1.585857 0.138937 -0.043384 1042170.000000 0 0 1
22.588591 16.341952 -0.167079 27.880670 0.626298 1.576789 0.123855 -0.027883 423524.000000 0 0 1
22.010291 15.658652 -1.281979 27.042369 0.618352 1.618220 0.135797 -0.029095 29653.400000 0 0 1
20.672791 15.285452 -1.025279 25.730536 0.636682 1.610654 0.150249 -0.031597 398169.000000 0 0 1
19.660691 16.385152 -1.559779 25.640766 0.694776 1.631666 0.174634 -0.035206 -114160.000000 0 0 1
19.614191 17.587952 -0.826879 26.357850 0.730986 1.602173 0.145883 -0.032768 -183330.000000 0 0 1
18.523191 18.337552 -1.262779 26.095383 0.780362 1.619206 0.129569 -0.041480 -249945.000000 0 0 1
18.528991 19.799652 -0.817679 27.129657 0.818538 1.600941 0.134110 -0.038253 -88003.700000 0 0 1
17.980491 20.023652 0.490321 26.916261 0.839108 1.552579 0.129308 -0.031177 107367.000000 0 0 1
18.076891 21.316452 1.105421 27.971182 0.867450 1.531266 0.137411 -0.038996 -333091.000000 0 0 1
17.019891 22.367152 0.676421 28.114475 0.920335 1.546734 0.117086 -0.046519 84573.300000 0 0 1
15.788591 22.005352 1.282721 27.113843 0.948429 1.523470 0.108759 -0.044441 -354161.000000 0 0 1
14.782991 22.878352 0.870121 27.252760 0.997128 1.538863 0.089496 -0.043660 -966864.000000 0 0 1
13.401291 22.618752 1.414421 26.328751 1.035920 1.517049 0.082670 -0.046828 -611967.000000 0 0 1
13.267491 23.101652 2.739421 26.780908 1.049481 1.468327 0.073763 -0.030001 1132510.000000 0 0 1
11.882191 23.075852 3.180821 26.149551 1.095285 1.448855 0.061012 -0.033499 1423870.000000 0 0 1
11.565191 23.408052 4.647121 26.519545 1.111905 1.394653 0.088956 -0.032807 -3096.950000 0 0 1
12.070191 22.440152 5.563221 26.080631 1.077303 1.355836 0.093058 -0.046145 128889.000000 0 0 1
11.336891 22.448452 6.785121 26.047955 1.103142 1.307271 0.085154 -0.033980 -751646.000000 0 0 1
11.830891 21.360852 7.739221 25.615454 1.064996 1.263869 0.090999 -0.038738 1074300.000000 0 0 1
13.180991 21.442152 8.252521 26.487893 1.019621 1.253964 0.112726 -0.045412 1490880.000000 0 0 1
14.210991 21.270652 7.263621 26.592350 0.981800 1.294133 0.107243 -0.039319 569236.000000 0 0 1
15.685891 21.275452 7.827721 27.567467 0.935488 1.282887 0.114088 -0.041793 735871.000000 0 0 1
16.047291 20.034752 8.415621 27.013506 0.895463 1.253990 0.121414 -0.042308 872569.000000 0 0 1
17.389691 19.961852 8.939021 27.942494 0.854153 1.245164 0.115768 -0.050817 902605.000000 0 0 1
17.651591 20.766852 10.247621 29.117942 0.866309 1.211159 0.088877 -0.038788 -686910.000000 0 0 1
17.021391 20.311852 11.419821 28.856739 0.873309 1.163921 0.100164 -0.056837 9790.370000 0 0 1
17.051191 21.216952 12.496321 29.950963 0.893828 1.140406 0.101524 -0.050410 357060.000000 0 0 1
18.076591 20.887252 13.662121 30.817105 0.857409 1.111487 0.118591 -0.032486 1172700.000000 0 0 1
19.445691 21.202452 13.375921 31.726867 0.828590 1.135592 0.114044 -0.036963 246299.000000 0 0 1
20.229091 20.711152 14.446421 32.355324 0.797172 1.107954 0.102941 -0.042288 157824.000000 0 0 1
21.658891 21.305552 14.409021 33.625198 0.777174 1.127944 0.112358 -0.047529 217798.000000 0 0 1
22.508991 20.780452 13.389221 33.432814 0.745490 1.158754 0.125570 -0.047022 430693.000000 0 0 1
23.810691 21.375952 13.535821 34.743327 0.731568 1.170605 0.159710 -0.054399 568973.000000 0 0 1
24.763791 20.679752 12.530021 34.610676 0.695768 1.200354 0.166482 -0.052058 -182969.000000 0 0 1
24.412291 20.951552 11.178221 34.057012 0.709257 1.236377 0.175038 -0.043889 524085.000000 0 0 1
25.198491 20.214752 10.222021 33.883474 0.676094 1.264340 0.183156 -0.062026 -11720.300000 0 0 1
25.094491 20.896952 8.803021 33.821727 0.694382 1.307487 0.161679 -0.051944 173738.000000 0 0 1
25.636091 22.189952 8.520621 34.960036 0.713467 1.324592 0.127784 -0.035172 89437.200000 0 0 1
27.026891 22.379352 8.639721 36.137695 0.691606 1.329380 0.119409 -0.045514 -236740.000000 0 0 1
27.435991 23.804152 9.129421 37.452871 0.714638 1.324558 0.148780 -0.047460 157262.000000 0 0 1
28.791091 24.117852 8.848721 38.586235 0.697301 1.339414 0.137475 -0.042270 522968.000000 0 0 1
29.248791 25.237952 9.644621 39.817894 0.711919 1.326145 0.138616 -0.034245 -17059.300000 0 0 1
30.445691 26.027752 9.133421 41.082884 0.707327 1.346606 0.133444 -0.043517 -95831.700000 0 0 1
30.163091 26.752952 7.932621 41.090862 0.725554 1.376526 0.122259 -0.045942 579555.000000 0 0 1
31.391911 27.193152 7.338321 42.175473 0.713851 1.395911 0.136514 -0.040080 543037.000000 0 0 1
31.324401 28.160952 6.110121 42.562787 0.732268 1.426743 0.156705 -0.020503 -91245.400000 0 0 1
31.178591 29.550752 6.340721 43.422991 0.758600 1.424250 0.145946 -0.025605 34030.200000 0 0 1
31.118231 30.297752 5.149721 43.735771 0.772040 1.452776 0.141679 -0.015548 95734.200000 0 0 1
31.335471 31.831552 5.194921 44.968285 0.793251 1.455014 0.090843 -0.008126 572862.000000 0 0 1
30.221691 32.418252 5.877721 44.708402 0.820450 1.438947 0.096067 -0.021126 499893.000000 0 0 1
30.407591 -33.698548 6.122721 45.800671 -0.836689 1.436713 0.070897 -0.012779 327170.000000 0 0 1
29.078291 -33.039048 6.593021 44.503861 -0.849074 1.422104 0.081854 -0.026424 -615390.000000 0 0 1
28.104891 -33.065448 5.660721 43.763598 -0.866315 1.441085 0.064332 -0.023494 -1600360.000000 0 0 1
27.009291 -32.345548 6.149521 42.585830 -0.875061 1.425887 0.055610 -0.028076 16098.700000 0 0 1
25.736191 -32.474548 5.277721 41.770829 -0.900643 1.444108 0.061275 -0.020099 335617.000000 0 0 1
26.050591 -31.729048 4.122821 41.259707 -0.883361 1.470706 0.033806 -0.004501 172602.000000 0 0 1
25.017891 -31.912348 3.180521 40.674421 -0.905915 1.492522 0.049205 -0.010014 60592.600000 0 0 1
25.410891 -31.246648 1.818921 40.315938 -0.888037 1.525664 0.054785 0.003504 -50835.400000 0 0 1
25.482891 -29.816248 1.960121 39.271217 -0.863600 1.520863 0.065477 0.004557 -78914.700000 0 0 1
26.030291 -29.195548 0.824521 39.123342 -0.842650 1.549720 0.046899 0.012232 -559143.000000 0 0 1
26.272591 -27.708748 0.947021 38.195819 -0.811997 1.546000 0.071900 -0.002963 1008050.000000 0 0 1
25.089091 -26.860848 1.098521 36.771924 -0.819490 1.540918 0.066419 -0.005635 896684.000000 0 0 1
24.327591 -26.822848 -0.113379 36.212011 -0.834142 1.573927 0.071411 0.002484 71465.000000 0 0 1
23.190191 -25.765548 -0.035279 34.664819 -0.837956 1.571814 0.066377 0.010341 277973.000000 0 0 1
23.642491 -24.377048 0.046821 33.958946 -0.800694 1.569418 0.078020 -0.008242 -153365.000000 0 0 1
23.796291 -23.816748 1.371021 33.695410 -0.785828 1.530096 0.074405 -0.007150 -327736.000000 0 0 1
22.529191 -23.645648 2.205521 32.734469 -0.809572 1.503369 0.074872 -0.011863 -220400.000000 0 0 1
22.718091 -22.961248 3.411221 32.480255 -0.790721 1.465578 0.075872 -0.019632 -114710.000000 0 0 1
21.475091 -22.692348 4.025521 31.501222 -0.812951 1.442657 0.067559 -0.014520 133338.000000 0 0 1
21.632891 -21.926548 5.330021 31.259632 -0.792140 1.399451 0.059291 -0.015180 -169133.000000 0 0 1
21.802991 -20.507548 5.316821 30.400634 -0.754790 1.395000 0.095707 -0.011579 80533.300000 0 0 1
20.654191 -19.808248 4.869521 29.028857 -0.764494 1.402252 0.058870 -0.004335 -443440.000000 0 0 1
20.579691 -18.332148 5.340721 28.073379 -0.727702 1.379388 0.071215 -0.002203 372256.000000 0 0 1
19.909491 -18.052848 6.596721 27.673270 -0.736530 1.330100 0.111828 -0.019425 308052.000000 0 0 1
18.497891 -18.165648 6.568921 26.745345 -0.776336 1.322648 0.078732 -0.009148 173299.000000 0 0 1
19.722894 -26.115418 -12.145279 34.907240 -0.923963 1.926159 0.139832 -0.050803 -90279.300000 0 0 1
19.805594 -24.706048 -12.347279 33.986845 -0.895050 1.942599 0.165634 -0.053747 -425770.000000 0 0 1
18.713394 -24.159248 -13.037079 33.223874 -0.911746 1.974037 0.124075 -0.050677 -193701.000000 0 0 1
18.748994 -22.588148 -13.243379 32.204600 -0.878007 1.994595 0.120656 -0.047521 -20580.900000 0 0 1
18.716894 -21.684848 -12.189079 31.130827 -0.858728 1.973105 0.133951 -0.056737 -82508.800000 0 0 1
19.907494 -21.609548 -11.419079 31.522631 -0.826372 1.941477 0.127690 -0.057711 -401059.000000 0 0 1
19.832594 -22.313448 -10.017179 31.489135 -0.844194 1.894537 0.130817 -0.048217 549030.000000 0 0 1
18.971194 -21.658548 -9.041079 30.178469 -0.851445 1.875056 0.128812 -0.048994 1894610.000000 0 0 1
17.554394 -21.758848 -9.320779 29.470004 -0.891941 1.892602 0.119789 -0.029673 985001.000000 0 0 1
16.548994 -21.288248 -8.229379 28.191867 -0.910003 1.867015 0.104524 -0.033978 -508877.000000 0 0 1
16.412994 -19.885048 -8.127279 27.034315 -0.880762 1.876148 0.092871 -0.038291 601878.000000 0 0 1
15.320294 -19.465948 -7.308979 25.827422 -0.904014 1.857710 0.091847 -0.040179 1493550.000000 0 0 1
13.874394 -19.616648 -7.956679 25.310481 -0.955204 1.890582 0.074027 -0.027086 429237.000000 0 0 1
13.469694 -20.889248 -7.810679 26.053791 -0.998075 1.875269 0.077642 -0.033915 -976820.000000 0 0 1
12.156894 -20.962948 -8.288679 25.611276 -1.045270 1.900364 0.072578 -0.031369 -364479.000000 0 0 1
11.482894 -22.328748 -7.985979 26.347784 -1.095802 1.878739 0.071064 -0.032654 -129074.000000 0 0 1
11.334494 -22.437048 -6.605279 25.990798 -1.103022 1.827754 0.074044 -0.036234 232052.000000 0 0 1
10.740794 -23.662148 -6.231779 26.722593 -1.144685 1.806166 0.063188 -0.031762 290269.000000 0 0 1
11.443494 -24.123248 -4.901579 27.146089 -1.127857 1.752355 0.082195 -0.034414 696335.000000 0 0 1
10.766994 -25.254908 -4.278279 27.785648 -1.167797 1.725386 0.076700 -0.031262 130852.000000 0 0 1
11.505794 -25.611208 -3.167379 28.255080 -1.148568 1.683132 0.070753 -0.032284 -320768.000000 0 0 1
10.613994 -26.455508 -2.266179 28.595215 -1.189254 1.650130 0.086211 -0.033712 761068.000000 0 0 1
9.524094 -25.746338 -1.650279 27.501013 -1.216487 1.630840 0.065176 -0.027188 348167.000000 0 0 1
8.984394 -26.667998 -0.697079 28.149376 -1.245841 1.595562 0.070890 -0.030212 256420.000000 0 0 1
8.030094 -26.134878 0.389821 27.343486 -1.272696 1.556539 0.074162 -0.024466 215847.000000 0 0 1
6.795494 -25.571308 -0.010879 26.458848 -1.311053 1.571207 0.076532 -0.029148 27925.800000 0 0 1
6.104794 -25.096928 1.157521 25.854674 -1.332182 1.526011 0.077226 -0.024915 808505.000000 0 0 1
4.668394 -24.573448 0.826321 25.026607 -1.383056 1.537773 0.080833 -0.030848 159966.000000 0 0 1
3.678994 -25.512128 0.644721 25.784091 -1.427578 1.545789 0.078172 -0.033232 -1066220.000000 0 0 1
2.414394 -24.915548 0.709221 25.042301 -1.474195 1.542472 0.092216 -0.035056 -1032580.000000 0 0 1
1.307094 -25.904738 0.436021 25.941358 -1.520381 1.553988 0.111146 -0.032233 -513755.000000 0 0 1
1.040494 -26.992228 1.359621 27.046471 -1.532268 1.520505 0.116295 -0.028351 -16912.200000 0 0 1
1.768894 -28.214388 1.155921 28.293406 -1.508184 1.529930 0.095477 -0.030921 30159.800000 0 0 1
1.205494 -29.370228 1.960621 29.460271 -1.529775 1.504196 0.143716 -0.029158 -12950.300000 0 0 1
1.555794 -29.319818 3.309621 29.547011 -1.517783 1.458549 0.124358 -0.023446 151775.000000 0 0 1
0.880494 -30.342898 4.040921 30.623452 -1.541786 1.438455 0.160511 -0.033493 170074.000000 0 0 1
1.059694 -30.131778 5.571621 30.660887 -1.535642 1.388064 0.165223 -0.038526 64616.300000 0 0 1
2.429094 -30.300938 5.899621 30.965350 -1.490802 1.379101 0.094393 -0.019060 -169242.000000 0 0 1
2.670594 -30.238608 7.260421 31.212485 -1.482708 1.336033 0.106796 -0.020081 -579326.000000 0 0 1
4.102094 -30.482638 7.694021 31.705147 -1.437028 1.325675 0.103798 -0.022974 -558013.000000 0 0 1
4.380994 -31.832118 7.531021 33.002926 -1.434027 1.340576 0.108812 -0.020523 48544.300000 0 0 1
5.733094 -32.174418 7.793921 33.597720 -1.394459 1.336686 0.076912 -0.012522 243650.000000 0 0 1
5.857194 -33.698088 7.764021 35.073464 -1.398702 1.347583 0.078064 -0.011540 36856.300000 0 0 1
6.039794 33.305124 6.441421 34.455802 1.391399 1.382743 0.062736 0.000803 -62474.400000 0 0 1
5.855794 31.933535 6.428221 33.096268 1.389437 1.375326 0.051621 -0.007351 -172187.000000 0 0 1
5.848094 31.459532 4.936021 32.376946 1.387002 1.417745 0.058160 -0.012131 -186702.000000 0 0 1
7.159994 31.603246 4.458521 32.709464 1.347999 1.434064 0.059617 -0.007791 -282083.000000 0 0 1
7.826894 30.369892 4.279621 31.652895 1.318566 1.435176 0.051395 -0.010539 -817947.000000 0 0 1
9.114794 30.552472 3.531221 32.078069 1.280870 1.460491 0.040631 -0.009742 111644.000000 0 0 1
10.265994 30.755232 4.398121 32.720305 1.248629 1.435973 0.037878 -0.006827 861052.000000 0 0 1
11.463594 30.852932 3.652121 33.115787 1.215048 1.460288 0.032778 -0.015121 8981.790000 0 0 1
12.714794 31.368732 4.354121 34.126554 1.185701 1.442860 0.043676 -0.018239 -227466.000000 0 0 1
13.224094 30.451252 5.292021 33.617865 1.161099 1.412722 0.049967 -0.022836 -22391.000000 0 0 1
14.394194 30.912802 5.942521 34.613692 1.135014 1.398260 0.078593 -0.025330 -302107.000000 0 0 1
15.176894 29.899552 6.703421 34.194402 1.101090 1.373480 0.064107 -0.024965 -830092.000000 0 0 1
14.652194 29.630232 7.987221 34.006368 1.111557 1.333707 0.062660 -0.018790 190798.000000 0 0 1
15.413394 28.658372 8.749121 33.696025 1.077343 1.308138 0.051597 -0.029080 418292.000000 0 0 1
15.044594 28.645262 10.250621 33.940625 1.087190 1.263989 0.023342 -0.003627 -36074.300000 0 0 1
15.512594 29.843872 10.862421 35.345288 1.091441 1.258418 0.008892 -0.014452 41089.700000 0 0 1
14.968194 30.060142 12.171421 35.718376 1.108797 1.223070 -0.003784 -0.006987 -430746.000000 0 0 1
15.753694 31.096332 12.989721 37.200720 1.101875 1.214101 -0.004926 -0.004069 212058.000000 0 0 1
16.903894 30.492212 13.559521 37.408250 1.064606 1.199875 -0.004480 -0.007433 613604.000000 0 0 1
17.775994 31.453782 14.227621 38.829776 1.056399 1.195649 0.008977 -0.004644 747135.000000 0 0 1
18.914394 30.847552 15.079421 39.200952 1.020759 1.175946 0.017221 -0.007989 605123.000000 0 0 1
20.131494 30.376242 14.520021 39.227848 0.985518 1.191630 0.031757 -0.017754 394976.000000 0 0 1
20.385094 29.026312 14.741721 38.410899 0.958530 1.176899 0.017984 -0.011760 -104402.000000 0 0 1
21.723294 28.581312 14.112221 38.573924 0.920893 1.196252 0.063110 -0.025760 1147970.000000 0 0 1
22.864594 29.027722 14.917821 39.848960 0.903612 1.187091 0.100600 -0.028061 976359.000000 0 0 1
24.091094 28.675092 14.300321 40.089161 0.872054 1.206049 0.117124 -0.032125 1361020.000000 0 0 1
25.393494 28.937782 15.191121 41.388342 0.850541 1.194973 0.166454 -0.045754 1012600.000000 0 0 1
25.453694 27.976722 16.229521 41.158047 0.832584 1.165466 0.142628 -0.036845 761141.000000 0 0 1
26.567994 28.263592 17.129221 42.403999 0.816312 1.154962 0.129141 -0.035773 982991.000000 0 0 1
27.479794 26.991922 17.164821 42.170297 0.776442 1.151590 0.085331 -0.022563 -158127.000000 0 0 1
26.889994 25.835662 17.788521 41.315671 0.765404 1.125693 0.090044 -0.024295 208562.000000 0 0 1
26.982494 25.880312 19.210121 42.034203 0.764551 1.096164 0.110499 -0.020593 217405.000000 0 0 1
26.366894 24.613672 19.854021 41.173147 0.751022 1.067623 0.107496 -0.021137 644059.000000 0 0 1
27.331394 23.563062 19.825521 41.173708 0.711491 1.068420 0.088142 -0.026338 308806.000000 0 0 1
26.625894 22.377252 19.841521 40.042047 0.698913 1.052366 0.087631 -0.025264 152383.000000 0 0 1
27.593994 21.173152 19.777621 40.011062 0.654488 1.053763 0.056017 -0.025097 -99109.200000 0 0 1
26.916494 19.955352 19.813921 38.926921 0.637961 1.036770 0.040996 -0.012027 -344123.000000 0 0 1
27.731494 18.839552 19.984621 39.030110 0.596736 1.033249 0.050668 -0.022464 -91183.500000 0 0 1
28.341394 18.488652 21.369821 40.021670 0.578029 1.007524 0.112313 -0.012937 161960.000000 0 0 1
27.340594 18.008052 22.236321 39.575901 0.582436 0.974158 0.070033 -0.005731 96148.200000 0 0 1
27.959494 17.658852 23.418521 40.521543 0.563322 0.954609 0.121168 -0.006647 510054.000000 0 0 1
26.942394 16.829752 24.297121 39.993539 0.558353 0.917854 0.101046 0.002787 465382.000000 0 0 1
26.652694 15.598352 23.689721 38.921428 0.529499 0.916432 0.091377 -0.013629 -260674.000000 0 0 1
25.711894 14.916252 24.435621 38.479808 0.525681 0.882756 0.090563 -0.016299 -526011.000000 0 0 1
25.021894 13.732752 23.716721 37.110194 0.501944 0.877483 0.089328 -0.017379 19511.600000 0 0 1
24.001294 13.155952 24.527221 36.752221 0.501410 0.840129 0.071183 -0.020264 -1316.250000 0 0 1
23.448094 12.086452 23.851021 35.563557 0.475936 0.835699 0.089048 -0.017292 -867936.000000 0 0 1
22.119994 11.704452 24.459921 34.993943 0.486683 0.796832 0.103600 -0.024753 -93677.100000 0 0 1
20.995094 12.596652 24.368421 34.544023 0.540405 0.787765 0.124108 -0.025608 98940.500000 0 0 1
19.843694 11.824452 24.211921 33.463517 0.537384 0.761891 0.134796 -0.030062 -986115.000000 0 0 1
18.561194 12.632452 24.169621 32.988897 0.597576 0.748575 0.120073 -0.035634 -555852.000000 0 0 1
18.204994 13.086252 25.477521 33.937823 0.623250 0.721658 0.138988 -0.028370 388120.000000 0 0 1
16.901994 13.651452 25.485221 33.489342 0.679408 0.705951 0.143501 -0.026670 341304.000000 0 0 1
16.536894 14.169852 26.916421 34.622930 0.708465 0.680249 0.132793 -0.019619 -302083.000000 0 0 1
16.128894 13.178552 27.773221 34.715519 0.685067 0.643462 0.135134 -0.020571 -103811.000000 0 0 1
16.337994 13.372452 29.175621 36.013461 0.685913 0.626421 0.119367 -0.026902 493921.000000 0 0 1
17.822894 13.238152 29.654821 37.044738 0.638852 0.642644 0.120170 -0.026753 384776.000000 0 0 1
18.597594 14.377952 29.378921 37.626015 0.658127 0.674829 0.140443 -0.040107 533504.000000 0 0 1
19.979994 14.065152 29.585221 38.370743 0.613380 0.690330 0.125706 -0.029702 -104418.000000 0 0 1
20.970594 15.147452 29.333521 39.110952 0.625548 0.722722 0.130753 -0.023657 -802509.000000 0 0 1
20.842894 15.631352 28.011421 38.254478 0.643476 0.749193 0.146424 -0.028241 232374.000000 0 0 1
21.169294 14.805352 26.881221 37.281865 0.610309 0.765513 0.130891 -0.022825 -411818.000000 0 0 1
20.998994 15.582852 25.554721 36.562641 0.638411 0.796896 0.119961 -0.029171 72158.400000 0 0 1
22.046794 16.499952 25.273121 37.377000 0.642480 0.828248 0.106815 -0.017948 146748.000000 0 0 1
22.079694 16.895852 23.953421 36.698080 0.653172 0.859633 0.089588 -0.017803 142536.000000 0 0 1
23.280994 17.795752 23.565521 37.603553 0.652647 0.893507 0.081633 -0.014721 -295365.000000 0 0 1
23.146894 18.215652 22.207421 36.888456 0.666738 0.924774 0.085819 -0.021763 573322.000000 0 0 1
24.341094 18.872452 21.751421 37.706532 0.659518 0.955916 0.066533 -0.022592 297231.000000 0 0 1
24.581294 20.247452 22.453621 38.966195 0.689022 0.956684 0.080046 -0.027100 -96936.100000 0 0 1
23.572894 21.208852 22.134121 38.670609 0.732657 0.961396 0.092677 -0.019640 267048.000000 0 0 1
23.689794 22.409452 22.891321 39.842219 0.757632 0.958743 0.112983 -0.023761 -410662.000000 0 0 1
22.766294 23.482402 22.384421 39.633188 0.800881 0.970618 0.120611 -0.030911 -449436.000000 0 0 1
23.121794 24.181652 21.231221 39.624921 0.807800 1.005336 0.128442 -0.029513 -32582.600000 0 0 1
22.140194 25.120112 20.887221 39.464974 0.848368 1.013069 0.131877 -0.030743 -180506.000000 0 0 1
22.604994 25.966092 19.688321 39.659219 0.854488 1.051306 0.132817 -0.032793 12952.400000 0 0 1
22.740594 25.263122 18.478821 38.688845 0.837898 1.072845 0.126215 -0.034227 120762.000000 0 0 1
22.902294 26.152342 17.364321 38.858457 0.851555 1.107543 0.109868 -0.042958 -65213.400000 0 0 1
22.634894 25.414532 16.075321 37.638448 0.843183 1.129515 0.076514 -0.023677 -37711.400000 0 0 1
21.256394 25.294302 15.780521 36.615035 0.871924 1.125213 0.062024 -0.017942 -135636.000000 0 0 1
21.065294 24.805222 14.487221 35.621976 0.866751 1.151965 0.075000 -0.014518 -753396.000000 0 0 1
19.601894 24.772812 14.128521 34.605513 0.901403 1.150234 0.059510 -0.014433 -1452510.000000 0 0 1
18.986794 26.015492 13.888421 35.074098 0.940332 1.163668 0.034574 -0.010082 502639.000000 0 0 1
17.743994 26.335392 14.516421 34.916023 0.977892 1.142026 0.047947 0.000364 189197.000000 0 0 1
16.496394 25.576892 14.077021 33.533131 0.997963 1.137578 0.038048 -0.011590 -1499960.000000 0 0 1
16.406394 24.124942 14.145721 32.423510 0.973579 1.119336 0.034037 -0.010059 -277798.000000 0 0 1
16.334794 23.529022 15.463921 32.551086 0.963946 1.075757 0.048353 -0.011717 23591.700000 0 0 1
15.359694 24.068012 16.567221 33.010031 1.002776 1.045020 0.089266 -0.028911 249823.000000 0 0 1
15.721994 25.362982 17.018721 34.352566 1.015888 1.052486 0.061503 -0.028371 -307960.000000 0 0 1
14.640794 25.962422 17.684921 34.657706 1.057327 1.035293 0.053441 -0.035963 -239008.000000 0 0 1
14.878394 27.209852 18.504121 36.112949 1.070412 1.032824 0.060501 -0.038251 -540585.000000 0 0 1
15.024894 28.426742 17.733221 36.719126 1.084572 1.066785 0.041458 -0.022573 204126.000000 0 0 1
15.501394 29.513992 18.511321 38.131849 1.087175 1.063912 0.026775 -0.013925 -439675.000000 0 0 1
15.714794 30.806472 17.591721 38.800284 1.099091 1.100230 -0.011914 -0.009749 -314640.000000 0 0 1
14.496094 31.274132 17.081221 38.470458 1.136759 1.110729 0.003663 -0.011195 -221866.000000 0 0 1
14.733894 32.489870 16.390321 39.259673 1.145042 1.140121 -0.006233 -0.008053 -817692.000000 0 0 1
13.450094 33.204297 16.041021 39.252321 1.185926 1.149806 0.025380 -0.012210 -849107.000000 0 0 1
13.587194 -33.004468 15.559321 38.935835 -1.180264 1.159700 0.055907 -0.026108 -86409.200000 0 0 1
14.008294 -31.872608 16.337521 38.457900 -1.156701 1.132038 0.039668 -0.021493 -16135.800000 0 0 1
13.339894 -31.639958 17.769021 38.662357 -1.171796 1.093257 0.038441 -0.015689 -168156.000000 0 0 1
13.753094 -32.539988 18.744721 39.992036 -1.170916 1.082965 0.034351 -0.013368 102880.000000 0 0 1
13.568294 -32.189018 20.094921 40.299347 -1.171878 1.048766 0.038698 -0.027474 114996.000000 0 0 1
14.658894 -32.808128 21.074121 41.657833 -1.150601 1.040387 0.071414 -0.020289 -437328.000000 0 0 1
15.868794 -32.175028 20.991521 41.565551 -1.112602 1.041389 0.077302 -0.020327 -2013220.000000 0 0 1
16.717194 -32.639438 21.917221 42.721916 -1.097454 1.032096 0.073501 -0.018535 -1159390.000000 0 0 1
18.142994 -32.110028 21.796121 42.840320 -1.056490 1.037034 0.110731 -0.023350 -311268.000000 0 0 1
18.359794 -30.779088 22.214221 42.165222 -1.032953 1.015921 0.117248 -0.026736 -15561.300000 0 0 1
19.593494 -30.293588 21.722021 42.112381 -0.996683 1.028843 0.108482 -0.023912 61433.500000 0 0 1
-4.689406 13.312052 18.308289 23.116978 -1.232103 0.656744 0.031321 0.004467 -495471.000000 0 1 0
-4.567006 14.463752 17.480589 23.143652 -1.264949 0.714672 0.037948 -0.007401 700554.000000 0 1 0
-5.804906 15.083152 17.064789 23.503306 -1.203409 0.758223 0.040194 -0.012177 387915.000000 0 1 0
-5.695106 16.610852 16.835989 24.327046 -1.240501 0.806445 0.058641 -0.027628 -134595.000000 0 1 0
-5.292506 17.263452 18.035689 25.521039 -1.273320 0.785975 0.058251 -0.014935 302183.000000 0 0 1
-4.997506 18.607352 17.930789 26.319608 -1.308411 0.821299 0.064869 -0.024304 -268534.000000 0 0 1
-4.330606 19.151352 19.228389 27.481982 -1.348411 0.795857 0.070433 -0.023434 -151025.000000 0 0 1
-5.256806 19.197252 20.284189 28.418599 -1.303517 0.775938 0.053045 -0.016941 124546.000000 0 0 1
-4.696306 19.916652 21.361489 29.581100 -1.339228 0.763915 0.065770 -0.009222 590561.000000 0 0 1
-5.698306 20.101052 22.591819 30.771956 -1.294561 0.746354 0.052105 -0.006204 646628.000000 0 0 1
-6.074806 18.883352 23.246319 30.559378 -1.259551 0.706416 0.042382 -0.011493 -115424.000000 0 0 1
-6.738906 19.075252 24.480329 31.757906 -1.231202 0.690634 0.028509 -0.010920 -202379.000000 0 0 1
-5.909706 19.651452 25.626569 32.830248 -1.278673 0.675206 0.026454 -0.002466 -564937.000000 0 0 1
-5.511506 21.042952 25.512489 33.527147 -1.314634 0.706020 0.037954 -0.010646 278011.000000 0 0 1
-4.602606 21.475552 26.522609 34.435913 -1.359672 0.691639 0.052021 -0.017901 701722.000000 0 0 1
-3.108206 21.177752 26.200019 33.831924 -1.425069 0.685003 0.078624 -0.017046 -19760.900000 0 0 1
-2.607606 19.873152 26.450969 33.187279 -1.440329 0.648449 0.087122 -0.018088 1393600.000000 0 0 1
-1.159806 19.877952 26.291559 32.980664 -1.512516 0.648185 0.089263 -0.015583 1564980.000000 0 0 1
-0.459206 18.703552 26.995859 32.845245 -1.546249 0.606039 0.100645 -0.013965 -99337.200000 0 0 1
-0.671306 17.490552 26.290139 31.583879 -1.532434 0.587388 0.100658 -0.008912 181770.000000 0 0 1
0.112494 16.431352 26.848769 31.477903 1.563950 0.549204 0.101590 -0.020270 805431.000000 0 0 1
1.549794 16.184252 26.273489 30.897056 1.475328 0.554135 0.109241 -0.018149 444226.000000 0 0 1
1.630094 15.859952 24.872799 29.544058 1.468375 0.570023 0.082649 -0.008366 -267823.000000 0 0 1
1.344594 14.504552 24.591569 28.582078 1.478359 0.534773 0.094775 -0.012828 -16648.800000 0 0 1
1.359794 14.178952 23.114439 27.150856 1.475186 0.552274 0.093075 -0.019239 41737.100000 0 0 1
2.688094 14.168552 22.660999 26.860651 1.383302 0.566750 0.065930 -0.018162 -315548.000000 0 0 1
2.715894 13.734852 21.324389 25.509837 1.375577 0.580975 0.056212 -0.019886 -139258.000000 0 0 1
4.168394 13.526352 20.899189 25.241113 1.271863 0.595297 0.046369 -0.019879 -286096.000000 0 0 1
4.678794 14.554252 20.111589 25.262489 1.259758 0.649965 0.049999 -0.013810 319446.000000 0 0 1
6.092294 14.466652 19.923589 25.364334 1.172211 0.667299 0.052146 -0.020033 408304.000000 0 0 1
6.509094 15.564352 18.902089 25.335870 1.174695 0.728670 0.063104 -0.021326 -188862.000000 0 0 1
6.415494 15.082952 17.550889 24.014322 1.168632 0.751229 0.061848 -0.035066 147458.000000 0 1 0
6.701794 16.045952 16.584389 24.029743 1.175157 0.809085 0.069682 -0.032497 -229823.000000 0 1 0
6.571794 15.448052 15.160589 22.620217 1.168576 0.836287 0.069182 -0.033197 -519025.000000 0 1 0
7.681994 14.781052 14.653389 22.185903 1.091498 0.849336 0.059339 -0.034489 -366093.000000 0 1 0
8.047394 13.589852 15.339489 22.016914 1.036160 0.799990 0.060402 -0.032872 -21744.300000 0 1 0
9.222194 12.846552 14.628489 21.542410 0.948175 0.824321 0.069511 -0.037532 1252570.000000 0 1 0
10.492994 13.526552 14.785989 22.620698 0.911028 0.858401 0.075999 -0.040114 1281250.000000 0 1 0
11.504994 12.752352 14.104089 22.224146 0.836775 0.883268 0.093312 -0.030604 680227.000000 0 1 0
12.899194 13.420452 13.958189 23.266473 0.805200 0.927386 0.099804 -0.029579 -75460.800000 0 1 0
13.690694 13.182952 15.094489 24.270741 0.766507 0.899603 0.106512 -0.041244 37525.800000 0 1 0
14.941594 13.840052 15.147389 25.381915 0.747144 0.931316 0.105238 -0.032469 25427.100000 0 0 1
16.106394 13.121152 14.465089 25.314409 0.683613 0.962565 0.107121 -0.028422 -520416.000000 0 0 1
17.352894 13.787952 14.617089 26.549761 0.671416 0.987768 0.104014 -0.039263 24933.700000 0 0 1
18.285194 13.197852 13.774589 26.424816 0.625193 1.022452 0.118998 -0.035212 -947779.000000 0 0 1
19.623494 13.920952 13.708289 27.691002 0.617008 1.052910 0.107169 -0.040108 -360741.000000 0 0 1
20.486594 13.674252 14.792889 28.731781 0.588561 1.029950 0.088224 -0.030008 -197653.000000 0 0 1
21.823294 13.892552 14.386889 29.601380 0.566892 1.063265 0.124422 -0.054793 391368.000000 0 0 1
22.833494 13.647752 15.578789 30.827394 0.538732 1.041003 0.130359 -0.036315 163941.000000 0 0 1
22.937094 12.270552 15.963089 30.520434 0.491227 1.020395 0.141267 -0.029611 484435.000000 0 0 1
23.943094 12.008252 16.938589 31.692044 0.464873 1.006910 0.115743 -0.031688 46761.100000 0 0 1
24.241194 10.501252 17.012189 31.421749 0.408794 0.998678 0.140891 -0.024695 -68421.400000 0 0 1
23.147794 9.782652 17.557189 30.655758 0.399851 0.960975 0.106333 -0.008785 447955.000000 0 0 1
23.314994 8.413852 17.332589 30.245668 0.346332 0.960561 0.097876 -0.008458 733713.000000 0 0 1
22.010994 7.595352 17.704689 29.251140 0.332277 0.920698 0.140718 -0.010843 679548.000000 0 0 1
22.013594 6.270252 17.236689 28.653408 0.277487 0.925346 0.158975 -0.022204 443883.000000 0 0 1
20.849994 5.570952 17.654989 27.882904 0.261093 0.885137 0.170767 -0.022319 -201561.000000 0 0 1
20.689794 4.115752 17.201089 27.219192 0.196363 0.886733 0.188462 -0.015830 -367892.000000 0 0 1
20.079594 4.002252 15.911089 25.930114 0.196741 0.910167 0.210210 -0.028055 481004.000000 0 0 1
20.051794 2.673852 15.416689 25.434193 0.132565 0.919598 0.185048 -0.029467 -100059.000000 0 0 1
19.025294 1.658552 15.986089 24.905173 0.086956 0.873851 0.208152 -0.037293 -261374.000000 0 1 0
19.329594 1.298152 17.311689 25.981011 0.067058 0.841533 0.205677 -0.036167 345820.000000 0 0 1
18.370894 0.414852 17.897989 25.651507 0.022578 0.798564 0.181908 -0.034268 -88817.800000 0 0 1
18.856394 -0.372348 19.094889 26.838722 -0.019744 0.779211 0.181676 -0.031765 -432775.000000 0 0 1
19.715194 -1.439748 18.775689 27.263313 -0.072898 0.811130 0.182205 -0.027107 71363.400000 0 0 1
19.310594 -2.671548 19.394189 27.498559 -0.137474 0.787978 0.123904 -0.014449 -711.582000 0 0 1
19.337594 -3.832948 18.332589 26.920584 -0.195676 0.821686 0.122120 -0.006795 -76676.300000 0 0 1
18.375794 -3.699848 17.318289 25.520223 -0.198687 0.824927 0.145638 -0.025034 280164.000000 0 0 1
18.455094 -4.827048 16.487889 25.213912 -0.255825 0.858042 0.168782 -0.028945 -185357.000000 0 0 1
17.796494 -4.799848 15.072989 23.810685 -0.263439 0.885329 0.147727 -0.036986 258876.000000 0 1 0
16.363194 -4.818148 15.128689 22.800129 -0.286358 0.845262 0.139656 -0.037500 718652.000000 0 1 0
15.742894 -4.551548 13.911289 21.496028 -0.281443 0.866948 0.133054 -0.040010 -229166.000000 0 1 0
16.059994 -3.257148 13.127189 20.996559 -0.200097 0.895400 0.129565 -0.040151 -985604.000000 0 1 0
15.309794 -2.138148 13.472789 20.505548 -0.138761 0.853922 0.128312 -0.032423 175131.000000 0 1 0
15.794794 -0.920148 12.941889 20.440515 -0.058191 0.885182 0.140480 -0.029692 476886.000000 0 1 0
14.727694 0.174352 13.281089 19.832364 0.011838 0.837035 0.136296 -0.020804 293967.000000 0 1 0
15.106494 1.476052 12.771389 19.836664 0.097401 0.871306 0.141901 -0.018428 464437.000000 0 1 0
16.017494 2.194652 13.596689 21.124548 0.136168 0.871546 0.171782 -0.026831 -164312.000000 0 1 0
16.174994 3.638752 13.100689 21.130522 0.221278 0.902068 0.152293 -0.022967 516788.000000 0 1 0
15.053894 4.518452 13.303189 20.591526 0.291596 0.868396 0.113644 -0.016386 752633.000000 0 1 0
15.248894 5.702752 12.571089 20.568967 0.357874 0.913261 0.144029 -0.024772 -236678.000000 0 1 0
14.014394 6.584952 12.707389 20.031039 0.439255 0.883584 0.095518 -0.027375 -419279.000000 0 1 0
14.168294 7.633552 11.769589 19.938277 0.494186 0.939364 0.078648 -0.039356 581867.000000 0 1 0
13.211294 8.681752 11.974889 19.832021 0.581383 0.922517 0.056563 -0.031001 -186637.000000 0 1 0
13.532094 9.716552 13.074389 21.177077 0.622729 0.905383 0.056747 -0.036256 -155875.000000 0 1 0
13.094094 9.275752 14.334989 21.517127 0.616336 0.841677 0.071339 -0.038360 573474.000000 0 1 0
13.875894 9.824252 15.416589 22.950546 0.616081 0.834254 0.115794 -0.045683 192508.000000 0 1 0
13.655094 9.260852 16.823189 23.563629 0.595943 0.775677 0.112259 -0.048564 496499.000000 0 1 0
12.357294 9.623452 17.303189 23.339106 0.661659 0.735669 0.105409 -0.053319 438768.000000 0 1 0
11.859894 8.816952 18.397189 23.597717 0.639280 0.676742 0.131969 -0.043339 261495.000000 0 1 0
12.595194 8.860152 19.806589 25.088686 0.613041 0.660863 0.161989 -0.044265 -93732.700000 0 0 1
13.894294 8.323552 19.724189 25.522079 0.539730 0.687510 0.191857 -0.057354 -643285.000000 0 0 1
14.615394 8.665152 20.865789 26.908655 0.535167 0.683400 0.167970 -0.043560 -454918.000000 0 0 1
16.103694 8.367052 20.591489 27.447147 0.479183 0.722397 0.158610 -0.040247 -159206.000000 0 0 1
16.598694 9.414852 19.731889 27.450018 0.515956 0.768679 0.162350 -0.039612 -1319960.000000 0 0 1
17.809494 9.082352 19.226089 27.736432 0.471594 0.804917 0.132474 -0.025987 -763945.000000 0 0 1
18.742294 10.231252 18.657389 28.355779 0.499683 0.852670 0.146737 -0.031596 458387.000000 0 0 1
19.498294 10.981752 19.563389 29.723871 0.512933 0.852410 0.129402 -0.032802 -241594.000000 0 0 1
20.428794 11.745352 18.864189 30.185203 0.521790 0.895731 0.114843 -0.032765 -520909.000000 0 0 1
21.377494 12.565752 19.728489 31.687673 0.531403 0.898746 0.106189 -0.025858 -913013.000000 0 0 1
20.740594 13.554252 20.548289 32.188851 0.578841 0.878422 0.102375 -0.027762 -101988.000000 0 0 1
21.439594 14.228452 21.581689 33.583840 0.585913 0.872882 0.090046 -0.017294 -493625.000000 0 0 1
22.638994 15.046452 21.076789 34.396959 0.586588 0.911259 0.058430 -0.023123 635322.000000 0 0 1
23.822694 14.262052 20.745389 34.659746 0.539445 0.929114 0.032902 -0.013149 857929.000000 0 0 1
24.887194 15.131152 20.375589 35.545587 0.546273 0.960361 0.022096 -0.024062 16663.800000 0 0 1
26.254594 14.441952 20.367089 36.231091 0.502900 0.973820 0.027884 -0.024982 -313030.000000 0 0 1
26.435494 13.545552 19.253089 35.397722 0.473518 0.995710 0.056798 -0.040683 -220853.000000 0 0 1
27.682394 12.931852 19.395289 36.190122 0.437025 1.005190 0.110681 -0.046158 -210701.000000 0 0 1
28.220394 11.964652 18.264289 35.680916 0.400999 1.033426 0.163718 -0.053180 181199.000000 0 0 1
28.749494 12.718852 17.170189 35.820636 0.416518 1.070896 0.174830 -0.067831 188998.000000 0 0 1
29.168494 11.934452 16.025089 35.355843 0.388374 1.100387 0.219719 -0.077268 45063.200000 0 0 1
27.987094 11.677952 15.061889 33.860190 0.395298 1.109816 0.215247 -0.074811 196722.000000 0 0 1
27.530794 12.867252 14.396889 33.627090 0.437210 1.128370 0.239584 -0.071765 -80166.800000 0 0 1
26.452494 12.553252 13.563089 32.268807 0.443088 1.137003 0.238498 -0.067412 -323682.000000 0 0 1
26.054494 13.758652 12.690389 32.080884 0.485852 1.164103 0.219351 -0.069805 -370116.000000 0 0 1
25.306294 14.709552 13.350589 32.171690 0.526527 1.142876 0.189841 -0.070057 -129493.000000 0 0 1
25.012394 15.759352 12.418789 32.065609 0.562231 1.173103 0.176759 -0.062860 21863.900000 0 0 1
24.068594 16.902952 12.842589 32.092664 0.612256 1.159092 0.161831 -0.061775 -848648.000000 0 0 1
22.719894 16.593652 12.863789 30.935738 0.630811 1.141949 0.176032 -0.074373 -722290.000000 0 0 1
21.902394 17.740252 13.029589 31.051595 0.680790 1.137780 0.138041 -0.065915 -1260220.000000 0 0 1
21.135994 18.096652 11.732489 30.197191 0.708083 1.171762 0.156262 -0.053759 -631911.000000 0 0 1
19.993294 17.355152 11.488089 28.860167 0.714879 1.161395 0.138079 -0.050224 29318.900000 0 0 1
18.917694 17.428452 12.438589 28.571814 0.744447 1.120375 0.125813 -0.045618 -226146.000000 0 0 1
17.520794 16.986452 11.913489 27.156011 0.769914 1.116639 0.116374 -0.025014 215816.000000 0 0 1
17.388694 15.665452 11.519589 26.085896 0.733311 1.113413 0.115725 -0.029481 976642.000000 0 0 1
16.073694 15.423352 10.954589 24.824311 0.764753 1.113767 0.111312 -0.028815 996171.000000 0 1 0
15.928094 14.107752 10.150989 23.574889 0.724867 1.125656 0.110672 -0.034242 -191982.000000 0 1 0
16.035594 12.993252 11.007689 23.390897 0.680975 1.080829 0.099973 -0.023565 445205.000000 0 1 0
16.450094 11.934952 10.136489 22.711166 0.627652 1.108146 0.103916 -0.018064 -4696.140000 0 1 0
16.626294 10.550552 10.858589 22.486812 0.565452 1.066848 0.109214 -0.030242 -437298.000000 0 1 0
17.183894 9.495452 10.062789 22.061494 0.504821 1.097161 0.104619 -0.033637 470304.000000 0 1 0
17.833994 8.479952 10.800189 22.507887 0.443851 1.070324 0.108459 -0.033361 1566030.000000 0 1 0
19.230694 8.711252 11.544289 24.061922 0.425335 1.070399 0.133684 -0.035843 929848.000000 0 1 0
19.052694 9.752952 12.533389 24.803448 0.473117 1.041057 0.125800 -0.038304 -304285.000000 0 1 0
20.170194 9.942452 13.350689 26.152054 0.457974 1.035027 0.145851 -0.032239 -725167.000000 0 0 1
19.774094 10.045952 14.855389 26.694915 0.470056 0.980644 0.115411 -0.024955 237835.000000 0 0 1
19.316394 8.916252 15.610189 26.387508 0.432450 0.937785 0.126774 -0.022505 305586.000000 0 0 1
18.268894 8.156652 15.051289 25.036468 0.419921 0.925826 0.148286 -0.035723 -380177.000000 0 0 1
17.887594 6.848052 15.751989 24.798931 0.365625 0.882544 0.182680 -0.040498 -686826.000000 0 1 0
17.032794 7.019752 16.810489 24.939637 0.390921 0.831122 0.193622 -0.043513 -400510.000000 0 1 0
16.368794 5.785252 17.017689 24.310662 0.339729 0.795386 0.181085 -0.026559 130760.000000 0 1 0
14.888494 5.898252 17.510189 23.728955 0.377193 0.740806 0.162391 -0.036145 707357.000000 0 1 0
14.180794 4.662252 17.771489 23.208992 0.317640 0.698643 0.150519 -0.035672 654603.000000 0 1 0
13.744694 4.031052 16.578189 21.908955 0.285281 0.712568 0.144941 -0.037009 -488220.000000 0 1 0
13.306494 2.606352 16.913089 21.677371 0.193422 0.675781 0.131315 -0.030683 858942.000000 0 1 0
14.497394 1.807152 17.156689 22.534245 0.124014 0.705387 0.152059 -0.020714 1256900.000000 0 1 0
14.330294 0.438352 16.873489 22.141908 0.030580 0.704306 0.149987 -0.024599 -147778.000000 0 1 0
13.467594 -0.492348 17.738189 22.276935 -0.036542 0.649712 0.133964 -0.031524 -588355.000000 0 1 0
12.085294 -0.367748 17.629889 21.377618 -0.030420 0.601144 0.123309 -0.020322 -848485.000000 0 1 0
11.509394 -1.470748 18.228989 21.608454 -0.127098 0.566835 0.122354 -0.025456 -133662.000000 0 1 0
-26.837246 14.186352 28.148449 41.398376 -0.486270 0.823114 0.054119 -0.015601 211372.000000 0 0 1
-25.699356 14.210152 29.013209 41.281371 -0.505096 0.791448 0.055569 -0.012861 684420.000000 0 0 1
-25.201256 12.921352 29.317539 40.762516 -0.473777 0.768106 0.049141 -0.010473 50923.500000 0 0 1
-23.894906 12.972052 30.134159 40.587045 -0.497360 0.734065 0.047170 -0.016314 -172415.000000 0 0 1
-24.200106 13.160152 31.488616 41.837395 -0.498075 0.718730 0.044957 -0.022709 81192.700000 0 0 1
-23.105106 12.892952 32.350835 41.792950 -0.508974 0.685545 0.033104 -0.010540 -245809.000000 0 0 1
-23.396806 12.961652 -33.525609 42.888010 -0.505903 2.468185 0.048362 -0.000089 -610205.000000 0 0 1
-24.052806 11.899352 -32.999359 42.533396 -0.459413 2.458851 0.031575 -0.003011 -141989.000000 0 0 1
-24.645006 12.319752 -31.757789 42.044141 -0.463558 2.426975 0.035927 0.002319 121335.000000 0 0 1
-25.591076 11.328052 -31.023869 41.781675 -0.416730 2.407626 0.035116 -0.002069 43122.800000 0 0 1
-25.013496 10.262752 -30.251619 40.572892 -0.389344 2.412249 0.036378 -0.008206 147301.000000 0 0 1
-24.689206 9.093952 -31.030059 40.683184 -0.352917 2.438312 0.036059 -0.008994 -135642.000000 0 0 1
-23.979306 8.099552 -30.099699 39.326858 -0.325741 2.442416 0.052098 -0.011123 -237150.000000 0 0 1
-24.783006 7.328752 -29.226709 39.014209 -0.287523 2.417544 0.050048 -0.010256 265135.000000 0 0 1
-23.993806 6.524952 -28.324659 37.690371 -0.265522 2.421143 0.056740 -0.001543 -93581.500000 0 0 1
-24.727806 5.685752 -27.294309 37.266225 -0.226005 2.392657 0.056956 -0.005063 -524919.000000 0 0 1
-25.572036 4.684752 -27.782379 38.049133 -0.181189 2.389369 0.065252 -0.012196 -294967.000000 0 0 1
-25.978626 4.003852 -26.643909 37.427500 -0.152918 2.362969 0.100251 -0.013660 -698514.000000 0 0 1
-26.847856 2.824152 -27.094629 38.247904 -0.104806 2.358018 0.126022 -0.015989 304305.000000 0 0 1
-28.182556 3.102852 -27.492939 39.493618 -0.109657 2.340798 0.136753 -0.019566 328757.000000 0 0 1
-28.269536 3.530352 -28.857409 40.550957 -0.124239 2.362617 0.138477 -0.023906 -693796.000000 0 0 1
-29.659486 3.352952 -29.495149 41.962975 -0.112570 2.350242 0.144990 -0.032644 -1139880.000000 0 0 1
-30.711036 3.967752 -28.849819 42.322841 -0.128485 2.320826 0.137558 -0.026266 -935634.000000 0 0 1
-31.811166 3.919752 -29.716289 43.707809 -0.122601 2.318402 0.137883 -0.031499 -416982.000000 0 0 1
-32.095556 5.241452 -30.434939 44.540802 -0.161879 2.323076 0.136972 -0.043705 -234389.000000 0 0 1
-31.070376 5.596652 -31.387199 44.517941 -0.178217 2.353284 0.140335 -0.046917 764403.000000 0 0 1
-31.154236 6.936952 -31.833339 45.078479 -0.219091 2.354879 0.124218 -0.038700 -258208.000000 0 0 1
-30.762736 8.071652 -30.849449 44.307855 -0.256600 2.340959 0.101961 -0.030845 -303489.000000 0 0 1
-29.396986 8.346152 -30.627979 43.265623 -0.276632 2.357325 0.045858 -0.031943 124276.000000 0 0 1
-28.884466 7.840152 -29.386619 41.944651 -0.265046 2.347041 0.037743 -0.028606 -285873.000000 0 0 1
-29.209336 8.650052 -28.110179 41.451066 -0.287912 2.316043 0.029180 -0.018443 -92173.300000 0 0 1
-30.531016 8.792952 -27.630029 42.105552 -0.280412 2.286580 0.047165 -0.023322 80800.600000 0 0 1
-31.123436 7.623652 -27.050299 41.934557 -0.240219 2.271898 0.055483 -0.016842 962568.000000 0 0 1
-32.610316 8.008552 -26.607259 42.842921 -0.240818 2.240868 0.059173 -0.012297 1032870.000000 0 0 1
-32.735526 8.900752 -25.510409 42.445483 -0.265481 2.215568 0.042135 -0.010624 -165680.000000 0 0 1
-32.280546 8.302352 -24.324379 41.263036 -0.251738 2.201231 0.056705 -0.005928 -292876.000000 0 0 1
-31.790726 9.349652 -23.312379 40.515840 -0.286035 2.183876 0.054521 -0.008610 416177.000000 0 0 1
-32.798616 10.239452 -22.777879 41.224112 -0.302604 2.156202 0.071968 -0.004913 396054.000000 0 0 1
-32.209436 11.160352 -21.897379 40.515385 -0.333547 2.141793 0.086028 -0.011541 -792257.000000 0 0 1
-33.103256 11.950952 -20.982179 40.974415 -0.346459 2.108401 0.074607 -0.014630 -714347.000000 0 0 1
-33.577406 11.208352 -19.890279 40.604096 -0.322176 2.082724 0.082461 -0.021983 536638.000000 0 0 1
-34.345497 12.041052 -18.999479 41.055820 -0.337197 2.051916 0.065591 -0.015932 357342.000000 0 0 1
-33.408806 12.830552 -18.071079 40.091586 -0.366679 2.038396 0.071049 -0.022806 -220321.000000 0 0 1
-32.785556 12.219552 -16.995579 38.898070 -0.356763 2.022975 0.123451 -0.022423 455614.000000 0 0 1
-33.639526 11.726952 -15.913179 39.017540 -0.335433 1.990891 0.130359 -0.027012 364929.000000 0 0 1
-34.224970 12.801252 -14.928579 39.472562 -0.357922 1.958649 0.106163 -0.019952 302509.000000 0 0 1
-35.132564 13.654752 -15.636879 40.807613 -0.370696 1.964039 0.069062 -0.020496 490517.000000 0 0 1
-35.878471 14.529952 -14.783979 41.436098 -0.384789 1.935626 0.041110 -0.011891 229968.000000 0 0 1
-36.561056 15.667052 -15.503579 42.691080 -0.404846 1.942451 0.022321 -0.015481 -294670.000000 0 0 1
-37.399126 15.317452 -16.560779 43.675833 -0.388727 1.959701 0.029831 -0.021543 215078.000000 0 0 1
37.896631 16.466052 -16.953979 44.662321 0.409889 1.960164 0.030792 -0.022711 -81278.400000 0 0 1
37.273721 16.376552 -18.366279 44.663653 0.413970 1.994581 0.048214 -0.018866 57192.100000 0 0 1
36.258731 15.412452 -18.464279 43.510560 0.401929 2.009055 0.081337 -0.026134 1267040.000000 0 0 1
34.892911 15.911452 -18.367679 42.521302 0.427839 2.017466 0.123152 -0.035671 794593.000000 0 0 1
33.931441 14.779252 -18.704379 41.468334 0.410783 2.038740 0.147180 -0.043463 -526931.000000 0 0 1
33.892871 14.382352 -20.070979 41.933554 0.401318 2.069899 0.154653 -0.042972 163320.000000 0 0 1
32.984821 13.298952 -20.201079 40.901639 0.383248 2.087359 0.113471 -0.038272 13153.600000 0 0 1
33.395061 11.888052 -19.708879 40.558547 0.341994 2.078231 0.113907 -0.021869 -122995.000000 0 0 1
33.494691 11.757052 -18.269179 39.923495 0.337576 2.046096 0.129456 -0.020352 238493.000000 0 0 1
34.118631 10.513952 -17.907979 39.941455 0.298925 2.035721 0.123437 -0.023715 222159.000000 0 0 1
34.161871 10.346852 -16.359779 39.264910 0.294094 2.000555 0.097300 -0.013483 84236.400000 0 0 1
32.916291 9.898552 -15.852579 37.851919 0.292116 2.002925 0.113212 -0.019094 219642.000000 0 0 1
32.926291 9.819652 -14.435179 37.268493 0.289833 1.968529 0.085216 -0.012324 102476.000000 0 0 1
32.155671 10.971852 -13.737179 36.648039 0.328823 1.955021 0.101267 -0.013326 76990.500000 0 0 1
30.743391 10.903652 -13.851679 35.438887 0.340826 1.972363 0.102596 -0.011904 182367.000000 0 0 1
30.173891 11.926152 -13.074079 34.980399 0.376403 1.953850 0.123274 -0.011415 392016.000000 0 0 1
28.621191 11.852452 -13.002379 33.596354 0.392615 1.968191 0.142201 -0.003097 -437137.000000 0 0 1
28.126291 10.844352 -12.159279 32.504404 0.367996 1.954202 0.132813 -0.015397 35334.500000 0 0 1
26.756091 10.528952 -12.282379 31.266660 0.374904 1.974500 0.148531 -0.003444 -10905.100000 0 0 1
26.203291 10.061852 -13.669179 31.220182 0.366631 2.023982 0.118631 -0.022625 -1013400.000000 0 0 1
26.647391 8.839452 -14.285079 31.500521 0.320297 2.041470 0.116868 -0.016753 -59366.700000 0 0 1
27.994291 8.731352 -14.675979 32.791785 0.302336 2.034821 0.121163 -0.021992 -347119.000000 0 0 1
28.752391 7.792852 -13.745779 32.808154 0.264675 2.003112 0.116823 -0.021197 -540069.000000 0 0 1
28.317891 6.437852 -13.804379 32.154467 0.223543 2.014530 0.130689 -0.032357 258080.000000 0 0 1
27.739691 5.959452 -12.630879 31.057119 0.211618 1.989633 0.144100 -0.030423 -120636.000000 0 0 1
27.380791 4.446652 -12.669779 30.495962 0.160995 1.999242 0.156241 -0.032087 -129096.000000 0 0 1
26.784991 4.104652 -11.430179 29.409741 0.152062 1.969965 0.195168 -0.029505 533067.000000 0 0 1
26.069891 2.882352 -11.673879 28.709347 0.110115 1.989551 0.220948 -0.040440 152443.000000 0 0 1
25.492491 2.233052 -10.364279 27.609272 0.087373 1.955615 0.274636 -0.028411 -146596.000000 0 0 1
26.486291 1.563152 -9.610279 28.219222 0.058949 1.918307 0.291341 -0.028966 388659.000000 0 0 1
26.033591 0.844752 -8.454779 27.385119 0.032437 1.884660 0.323496 -0.016462 208726.000000 0 0 1
27.183091 0.135252 -7.625979 28.232858 0.004976 1.844304 0.384761 -0.011426 369806.000000 0 0 1
26.779191 -0.955248 -6.753579 27.634189 -0.035656 1.817689 0.339397 -0.022215 398512.000000 0 0 1
26.949491 -2.298748 -7.296679 28.014297 -0.085092 1.834298 0.263180 -0.026003 -272385.000000 0 0 1
27.342491 -3.300748 -6.205079 28.231361 -0.120137 1.792399 0.234858 -0.034914 781820.000000 0 0 1
28.782991 -3.315648 -6.140479 29.616880 -0.114689 1.779642 0.229965 -0.043806 1034640.000000 0 0 1
29.151591 -4.361148 -5.259079 29.941489 -0.148501 1.747357 0.237477 -0.069760 -1016400.000000 0 0 1
30.627091 -4.598648 -5.036279 31.377227 -0.149036 1.732001 0.200491 -0.058941 -806247.000000 0 0 1
31.327551 -5.029048 -6.202879 32.329282 -0.159173 1.763859 0.160374 -0.042913 1236140.000000 0 0 1
32.688351 -5.407548 -5.885579 33.651299 -0.163943 1.746600 0.197554 -0.042793 900828.000000 0 0 1
33.493041 -5.825748 -7.125279 34.734604 -0.172216 1.777398 0.210274 -0.053312 -94975.400000 0 0 1
33.018961 -7.017748 -7.765779 34.638243 -0.209421 1.796915 0.225807 -0.060329 67031.900000 0 0 1
33.566061 -7.085648 -9.070079 35.484548 -0.208041 1.829271 0.234287 -0.042976 -459225.000000 0 0 1
32.488871 -7.564648 -10.093179 34.851440 -0.228762 1.864611 0.190848 -0.045973 667621.000000 0 0 1
31.328411 -6.740448 -10.158979 33.617076 -0.211924 1.877793 0.148737 -0.059318 25233.100000 0 0 1
30.373791 -7.225548 -9.239379 32.559819 -0.233547 1.858516 0.150949 -0.055211 -859086.000000 0 0 1
29.181391 -6.210948 -9.112379 31.195591 -0.209710 1.867223 0.143819 -0.054965 -277029.000000 0 0 1
28.200091 -6.469848 -10.053979 30.629831 -0.225524 1.905238 0.124972 -0.053520 -337220.000000 0 0 1
27.143091 -5.535448 -9.897179 29.416708 -0.201177 1.913938 0.172850 -0.049362 692729.000000 0 0 1
25.716491 -6.167548 -9.948779 28.255172 -0.235383 1.930615 0.216716 -0.049947 -515314.000000 0 0 1
25.486491 -7.105148 -8.931179 27.925084 -0.271878 1.896343 0.197493 -0.060602 1334890.000000 0 0 1
24.119591 -7.515648 -8.705279 26.721181 -0.302064 1.902635 0.185179 -0.051556 420122.000000 0 0 1
23.163091 -6.531448 -8.041979 25.374436 -0.274841 1.893290 0.206477 -0.040760 -899154.000000 0 0 1
22.834491 -5.458048 -8.901879 25.108718 -0.234624 1.933211 0.228692 -0.038826 125285.000000 0 0 1
22.534091 -4.251748 -8.306179 24.389654 -0.186488 1.918310 0.239278 -0.036063 -239657.000000 0 1 0
22.655091 -3.063048 -9.304279 24.682079 -0.134389 1.957314 0.268489 -0.025336 -27725.400000 0 1 0
23.914991 -3.035848 -9.940579 26.076009 -0.126268 1.961907 0.254830 -0.032216 364574.000000 0 0 1
23.972391 -2.048848 -10.944179 26.431957 -0.085260 1.997696 0.266329 -0.032316 583994.000000 0 0 1
25.333391 -1.879748 -11.717579 27.975271 -0.074065 2.002980 0.208265 -0.028985 331331.000000 0 0 1
26.446791 -1.501148 -10.955579 28.665500 -0.056700 1.962958 0.206651 -0.031921 135332.000000 0 0 1
27.603091 -1.670748 -11.757179 30.049181 -0.060454 1.972802 0.159171 -0.029668 -391486.000000 0 0 1
28.792291 -0.877848 -11.222679 30.914643 -0.030480 1.942305 0.119243 -0.014893 312647.000000 0 0 1
30.022291 -1.127948 -11.944079 32.330655 -0.037553 1.949197 0.091166 -0.017861 997306.000000 0 0 1
31.059591 -0.186248 -11.751479 33.208886 -0.005996 1.932497 0.104344 -0.014990 69540.300000 0 0 1
30.982491 1.137252 -12.438879 33.405595 0.036690 1.952346 0.102395 -0.013585 -638682.000000 0 0 1
31.449821 1.062352 -13.746379 34.339231 0.033766 1.982653 0.104186 -0.019279 216545.000000 0 0 1
31.246491 2.254052 -14.427479 34.490232 0.072013 2.002376 0.107149 -0.025041 -119453.000000 0 0 1
31.609611 2.224552 -15.904379 35.455118 0.070260 2.035970 0.112227 -0.017081 -176008.000000 0 0 1
30.693491 1.467952 -16.658079 34.953353 0.047790 2.067557 0.106831 -0.019439 42090.600000 0 0 1
30.962491 1.649152 -18.008579 35.856721 0.053213 2.096980 0.095363 -0.018431 -10601.500000 0 0 1
29.823391 1.125852 -18.929279 35.341474 0.037733 2.136027 0.078342 -0.016962 192522.000000 0 0 1
29.758691 -0.264148 -19.038679 35.328752 -0.008876 2.139928 0.083448 -0.018380 63522.600000 0 0 1
29.020491 -0.727848 -20.143779 35.333985 -0.025075 2.177420 0.066050 -0.021140 -167414.000000 0 0 1
28.798991 -2.243448 -20.111279 35.197706 -0.077743 2.178983 0.079831 -0.018451 -869801.000000 0 0 1
27.652091 -2.715748 -19.512979 33.952463 -0.097897 2.183052 0.087491 -0.021328 -518916.000000 0 0 1
27.442391 -4.119448 -19.652579 34.004096 -0.149000 2.187008 0.090878 -0.029226 205886.000000 0 0 1
28.269391 -4.884548 -18.544579 34.160191 -0.171096 2.144648 0.078828 -0.023565 -201150.000000 0 0 1
29.636391 -4.972448 -18.782179 35.437426 -0.166234 2.129408 0.084431 -0.028220 -492655.000000 0 0 1
30.342891 -5.175348 -17.561379 35.438359 -0.168936 2.089261 0.080363 -0.020574 -168227.000000 0 0 1
31.857281 -4.967348 -17.618079 36.741769 -0.154680 2.070894 0.100619 -0.024971 -566848.000000 0 0 1
32.561071 -5.947448 -18.280879 37.812511 -0.180664 2.075401 0.079143 -0.024377 767506.000000 0 0 1
33.927501 -5.586248 -18.547779 39.067910 -0.163188 2.065485 0.105460 -0.018461 434982.000000 0 0 1
34.787471 -6.645048 -19.151479 40.262935 -0.188745 2.066511 0.104057 -0.015104 -555665.000000 0 0 1
34.957741 -7.730748 -18.290979 40.204080 -0.217643 2.043116 0.111547 -0.026845 31711.000000 0 0 1
35.725871 -8.717248 -18.931979 41.361191 -0.239327 2.046229 0.106070 -0.022959 -352712.000000 0 0 1
36.586011 -9.512048 -17.945879 41.845786 -0.254360 2.014024 0.120929 -0.025579 -957734.000000 0 0 1
35.782521 -10.199848 -17.023779 40.917414 -0.277686 1.999896 0.117505 -0.027603 585785.000000 0 0 1
36.550831 -10.983748 -16.080379 41.414787 -0.291921 1.969557 0.117520 -0.039827 41151.800000 0 0 1
37.763851 -10.418848 -15.305779 42.058622 -0.269198 1.943264 0.131659 -0.042987 87232.300000 0 0 1
-37.639916 -11.244148 -14.316379 41.810918 0.290291 1.920275 0.125781 -0.041592 602784.000000 0 0 1
-37.132376 -12.539848 -14.667479 41.847295 0.325681 1.928901 0.101714 -0.035815 -535277.000000 0 0 1
-35.631694 -12.528548 -15.001879 40.640356 0.338111 1.948877 0.123935 -0.040135 -222773.000000 0 0 1
-35.408829 -11.836948 -16.257479 40.721053 0.322615 1.981484 0.146642 -0.039853 1362650.000000 0 0 1
-34.026844 -11.970548 -16.718579 39.757151 0.338275 2.004812 0.175767 -0.044323 1323020.000000 0 0 1
-33.764446 -11.131048 -17.975979 39.838096 0.318448 2.038935 0.220338 -0.045797 259885.000000 0 0 1
-34.173149 -9.771548 -17.828779 39.763710 0.278510 2.035735 0.211316 -0.039160 1065100.000000 0 0 1
-35.501111 -9.485448 -18.317179 41.058759 0.261088 2.033223 0.194160 -0.036646 690990.000000 0 0 1
-35.878939 -7.994448 -18.161679 41.000684 0.219236 2.029694 0.232138 -0.032294 -957960.000000 0 0 1
-37.166996 -7.608248 -18.472579 42.196057 0.201915 2.023924 0.209624 -0.028645 -851279.000000 0 0 1
-37.321106 -6.207148 -18.389879 42.066392 0.164809 2.023238 0.188860 -0.029408 -68545.700000 0 0 1
26.126994 27.052552 -26.770399 46.163997 0.802801 2.189400 0.091865 0.000851 276035.000000 0 0 1
26.702694 26.335252 -25.647639 45.435457 0.778470 2.170606 0.098005 -0.011316 726135.000000 0 0 1
27.817194 25.561452 -26.086149 45.909381 0.743164 2.175125 0.090689 -0.012370 159237.000000 0 0 1
28.442594 24.565152 -25.086679 45.185941 0.712380 2.159385 0.084957 -0.026498 -83951.800000 0 0 1
29.088794 25.200852 -24.001279 45.357494 0.713905 2.128404 0.091645 -0.020849 387240.000000 0 0 1
29.604894 24.233552 -23.075979 44.679028 0.685959 2.113535 0.092196 -0.022699 -56144.000000 0 0 1
30.143294 24.895652 -21.800179 44.762254 0.690341 2.079473 0.085526 -0.017404 -67144.600000 0 0 1
29.144394 25.344952 -20.917879 43.924024 0.715783 2.067157 0.105485 -0.020291 -204463.000000 0 0 1
29.707394 26.149752 -19.932879 44.313186 0.721792 2.037358 0.084452 -0.016609 -30482.000000 0 0 1
28.800694 27.259752 -19.321979 44.112503 0.757918 2.024187 0.104895 -0.010996 18099.400000 0 0 1
27.818394 26.750852 -18.434079 42.770157 0.765838 2.016401 0.127623 -0.010443 69411.600000 0 0 1
26.911194 27.782852 -18.114279 42.710962 0.801334 2.008779 0.118828 -0.011583 304837.000000 0 0 1
25.865894 27.368952 -17.011379 41.321798 0.813625 1.995094 0.105834 -0.003569 783695.000000 0 0 1
24.935394 26.423452 -17.560679 40.352820 0.814364 2.021033 0.120560 -0.010444 1022610.000000 0 0 1
23.770894 26.222452 -16.744479 39.154182 0.834397 2.012693 0.097940 0.004498 1069200.000000 0 0 1
22.706194 25.157052 -17.150179 37.981273 0.836559 2.039290 0.114193 -0.009410 811913.000000 0 0 1
21.837394 25.605152 -18.214279 38.265592 0.864649 2.066893 0.101824 -0.016511 189646.000000 0 0 1
20.801194 24.678452 -18.432479 37.168157 0.870445 2.089692 0.109405 -0.013350 141402.000000 0 0 1
20.007894 24.893252 -19.713579 37.531520 0.893774 2.123810 0.091540 -0.013260 183257.000000 0 0 1
19.328894 26.157752 -19.735179 38.043546 0.934414 2.116187 0.078332 -0.003064 -89784.700000 0 0 1
18.355794 26.261352 -20.748679 38.171998 0.960765 2.145466 0.079795 -0.006651 -112477.000000 0 0 1
17.293494 27.344152 -20.497579 38.300369 1.006866 2.135517 0.077955 -0.009351 -533949.000000 0 0 1
16.355894 26.991152 -19.539679 37.119221 1.025997 2.125161 0.088295 -0.008986 -599724.000000 0 0 1
15.426394 28.048552 -19.434179 37.448394 1.067962 2.116429 0.081978 -0.023389 100609.000000 0 0 1
14.760094 28.127252 -18.044579 36.532307 1.087536 2.087406 0.075603 -0.019329 307396.000000 0 0 1
13.807694 27.101952 -17.769679 35.226832 1.099600 2.099525 0.078735 -0.018879 -48384.500000 0 0 1
13.301294 27.215652 -16.477879 34.483860 1.116200 2.068994 0.093912 -0.020524 -439109.000000 0 0 1
12.358594 26.035452 -16.270379 33.095390 1.127606 2.084746 0.110627 -0.022424 -569185.000000 0 0 1
13.019194 24.784952 -16.188079 32.339560 1.087125 2.095049 0.104570 -0.019255 -164089.000000 0 0 1
12.163294 23.667452 -16.182379 31.144235 1.096071 2.117173 0.110180 -0.013370 -151827.000000 0 0 1
13.031194 22.405452 -16.085479 30.505064 1.044010 2.126222 0.102200 -0.017489 326175.000000 0 0 1
13.802894 22.235652 -17.259679 31.350289 1.015255 2.153811 0.086403 -0.012973 -289808.000000 0 0 1
14.676694 21.101052 -17.258679 30.960002 0.963068 2.162108 0.091532 -0.007367 217431.000000 0 0 1
14.066094 19.691952 -17.632779 29.942325 0.950533 2.200483 0.099848 -0.011336 299676.000000 0 0 1
13.242794 19.105152 -16.615679 28.573750 0.964680 2.191369 0.103743 -0.019165 23480.600000 0 0 1
13.043694 17.713752 -16.856079 27.713577 0.936082 2.224618 0.094030 -0.019664 -101215.000000 0 0 1
14.315594 16.830852 -16.953879 27.850454 0.865979 2.225277 0.128785 -0.020864 119237.000000 0 0 1
14.995294 16.688052 -15.714279 27.391394 0.838775 2.181805 0.153071 -0.024858 -436042.000000 0 0 1
15.838594 15.617552 -15.740879 27.249665 0.778371 2.186648 0.152474 -0.027329 -1534560.000000 0 0 1
16.270794 15.109352 -14.326079 26.424757 0.748403 2.143785 0.220873 -0.033482 -1080070.000000 0 0 1
17.210694 15.808252 -13.557779 27.017072 0.742950 2.096501 0.184019 -0.033755 1128800.000000 0 0 1
18.502694 16.126452 -14.115679 28.313681 0.716886 2.092717 0.146720 -0.030747 84320.300000 0 0 1
19.294894 14.953452 -14.754879 28.523764 0.659307 2.114470 0.138906 -0.031407 -1441900.000000 0 0 1
19.992394 14.008652 -13.974979 28.128956 0.611195 2.090725 0.180263 -0.035564 392123.000000 0 0 1
21.175194 14.518652 -13.377679 28.950689 0.601026 2.051141 0.173738 -0.036872 -464790.000000 0 0 1
21.892594 13.334452 -12.740479 28.625392 0.547073 2.032056 0.191149 -0.048829 -300898.000000 0 0 1
21.308094 12.999052 -11.471579 27.470117 0.547778 2.001601 0.273725 -0.046797 845087.000000 0 0 1
21.994694 11.911952 -10.785979 27.239649 0.496358 1.977916 0.281150 -0.018519 116502.000000 0 0 1
21.854894 10.508752 -11.448979 26.816960 0.448204 2.011892 0.237338 -0.017544 -734553.000000 0 0 1
22.754094 10.204052 -12.461779 27.877722 0.421563 2.034223 0.206252 -0.012532 -30270.900000 0 0 1
22.657394 8.901652 -13.041479 27.616608 0.374354 2.062619 0.187506 -0.022754 -208750.000000 0 0 1
22.934194 7.634552 -12.179079 27.066466 0.321351 2.037527 0.215636 -0.003465 496476.000000 0 0 1
21.833194 7.421052 -11.266779 25.665164 0.327647 2.025272 0.210563 -0.023477 1066460.000000 0 0 1
22.032894 6.295952 -10.460179 25.189338 0.278335 1.999027 0.222433 -0.015168 -337077.000000 0 0 1
22.272294 4.843652 -11.065179 25.336815 0.214140 2.022749 0.242386 -0.023713 -179678.000000 0 0 1
21.206894 4.200252 -11.738579 24.600177 0.195530 2.068233 0.208863 -0.036004 357506.000000 0 1 0
20.867594 4.622852 -13.038379 25.036504 0.218012 2.118555 0.176100 -0.049095 -293209.000000 0 0 1
19.875394 3.750952 -13.827379 24.500966 0.186530 2.170455 0.167337 -0.053548 -180687.000000 0 1 0
20.417194 2.526052 -14.268579 25.036675 0.123096 2.177189 0.187904 -0.068641 134488.000000 0 0 1
20.256594 1.410752 -13.411279 24.334794 0.069532 2.154497 0.219913 -0.073245 -260808.000000 0 1 0
21.145694 0.213252 -13.875279 25.292473 0.010085 2.151477 0.231294 -0.066939 -417570.000000 0 0 1
22.462694 0.442652 -13.416779 26.168273 0.019704 2.109137 0.270310 -0.045802 453674.000000 0 0 1
23.463394 0.318152 -14.445879 27.555680 0.013559 2.122623 0.195099 -0.046215 509085.000000 0 0 1
23.756894 -1.022048 -15.227179 28.236529 -0.042995 2.140369 0.159105 -0.029922 -255575.000000 0 0 1
22.670094 -1.288848 -16.110679 27.841484 -0.056791 2.187878 0.172042 -0.032651 589799.000000 0 0 1
23.099294 -2.238548 -17.075179 28.812327 -0.096608 2.205122 0.123496 -0.025087 327905.000000 0 0 1
21.893994 -2.941548 -17.753779 28.340719 -0.133554 2.247775 0.132142 -0.031461 153159.000000 0 0 1
21.165294 -3.804548 -16.895079 27.347540 -0.177855 2.236727 0.160664 -0.031744 330090.000000 0 0 1
20.220094 -4.509048 -17.685579 27.239005 -0.219408 2.277426 0.124175 -0.023483 -163397.000000 0 0 1
19.568394 -5.711948 -16.969479 26.523793 -0.284006 2.265013 0.128148 -0.025012 -1060050.000000 0 0 1
20.422094 -6.714248 -16.717879 27.232894 -0.317641 2.231770 0.139259 -0.022624 -739757.000000 0 0 1
19.919594 -7.697148 -15.800979 26.565151 -0.368737 2.207814 0.146823 -0.020954 35338.300000 0 0 1
20.963594 -8.724048 -15.274279 27.365761 -0.394353 2.162954 0.193006 -0.023194 -66919.100000 0 0 1
21.452294 -9.524648 -16.301179 28.577058 -0.417847 2.177824 0.151212 -0.029732 225075.000000 0 0 1
22.520794 -10.304948 -15.797679 29.375922 -0.429135 2.138594 0.126322 -0.035092 -268670.000000 0 0 1
23.125194 -11.274248 -16.829579 30.742771 -0.453623 2.150089 0.097051 -0.032095 157820.000000 0 0 1
23.990094 -10.626148 -17.781379 31.695695 -0.416967 2.166393 0.071004 -0.018522 369804.000000 0 0 1
24.413694 -11.628248 -18.711379 32.884043 -0.444509 2.176099 0.062478 -0.014543 -1119320.000000 0 0 1
23.647494 -11.558448 -20.028279 33.074668 -0.454632 2.221250 0.078969 -0.016076 523110.000000 0 0 1
22.252694 -11.834348 -19.977879 32.161309 -0.488776 2.241041 0.091950 -0.030191 370697.000000 0 0 1
21.847994 -13.164648 -19.663579 32.207129 -0.542297 2.227532 0.074009 -0.012712 -1449900.000000 0 0 1
20.356694 -13.381248 -19.687279 31.321586 -0.581517 2.250488 0.074720 -0.012955 -847152.000000 0 0 1
19.761594 -13.256148 -20.975479 31.720920 -0.590861 2.293281 0.079468 -0.006055 118530.000000 0 0 1
18.352894 -13.337448 -20.809879 30.785829 -0.628436 2.313058 0.103103 0.002112 432996.000000 0 0 1
17.549694 -12.919548 -22.085479 31.027002 -0.634591 2.362875 0.106980 -0.005044 57328.600000 0 0 1
17.640594 -13.743948 -23.217779 32.235879 -0.661872 2.374954 0.085491 0.003745 301892.000000 0 0 1
17.159194 -13.076148 -24.367179 32.545092 -0.651168 2.416926 0.106482 -0.010119 -177353.000000 0 0 1
17.228194 -13.997848 -25.575099 33.864969 -0.682314 2.426768 0.094558 -0.009969 -756297.000000 0 0 1
16.320894 -15.040348 -25.541769 33.837341 -0.744589 2.426206 0.098134 -0.002401 -122268.000000 0 0 1
16.210794 -15.746548 -26.767289 35.031862 -0.770872 2.440417 0.109796 -0.006171 -170957.000000 0 0 1
17.142394 -16.977748 -26.903259 36.137113 -0.780573 2.410548 0.098074 -0.010916 -437817.000000 0 0 1
18.524094 -16.697348 -26.901309 36.682747 -0.733580 2.394033 0.080574 -0.002891 -230391.000000 0 0 1
19.284494 -17.882548 -27.042979 37.722671 -0.747696 2.370127 0.088550 -0.007009 -219968.000000 0 0 1
20.747294 -17.470548 -27.253449 38.450237 -0.699869 2.358589 0.059152 0.004934 -217819.000000 0 0 1
21.320994 -16.903748 -26.052299 37.670197 -0.670349 2.334483 0.060299 0.003623 1180480.000000 0 0 1
22.683494 -16.499448 -26.398169 38.517996 -0.628864 2.325876 0.054706 0.007643 1368340.000000 0 0 1
23.553794 -16.093048 -25.189029 38.055940 -0.599393 2.294140 0.070553 0.005343 -79595.900000 0 0 1
23.347994 -14.791948 -24.634479 37.024156 -0.564719 2.298775 0.083241 -0.010470 -158584.000000 0 0 1
22.076994 -14.433348 -24.129579 35.748451 -0.579023 2.311737 0.084205 -0.005683 211118.000000 0 0 1
22.198194 -13.104448 -23.367179 34.792405 -0.533285 2.307186 0.088283 -0.006325 133656.000000 0 0 1
22.408294 -11.950348 -24.125579 35.028360 -0.489932 2.330552 0.094310 -0.013346 140741.000000 0 0 1
22.049794 -10.792348 -23.418079 33.927490 -0.455175 2.332616 0.106055 -0.024135 -41809.500000 0 0 1
22.330894 -9.519248 -24.269079 34.325983 -0.402956 2.356069 0.104690 -0.026656 -384500.000000 0 0 1
21.904794 -8.376148 -23.673479 33.322867 -0.365233 2.360902 0.120708 -0.031932 -161783.000000 0 0 1
21.639194 -7.337348 -24.576579 33.557408 -0.326911 2.392599 0.101673 -0.028801 -516300.000000 0 0 1
20.895894 -6.192448 -23.903779 32.347727 -0.288103 2.402326 0.107728 -0.040179 373590.000000 0 0 1
19.580394 -6.654448 -23.561479 31.349909 -0.327606 2.421227 0.123179 -0.044689 776746.000000 0 0 1
18.767994 -5.743848 -22.770779 30.062231 -0.296993 2.430202 0.108645 -0.040378 169627.000000 0 0 1
19.278494 -5.256148 -21.356279 29.246847 -0.266174 2.389423 0.100858 -0.031335 -424976.000000 0 0 1
19.385794 -6.225448 -20.294879 28.747997 -0.310732 2.354571 0.112533 -0.039333 40116.500000 0 0 1
20.156594 -7.366648 -20.503579 29.680844 -0.350390 2.333394 0.102083 -0.031999 -823226.000000 0 0 1
19.844594 -8.460748 -19.471979 29.061145 -0.403014 2.305052 0.122617 -0.036544 -1318860.000000 0 0 1
18.507494 -8.756548 -19.445479 28.237052 -0.441926 2.330424 0.158961 -0.043373 -1213400.000000 0 0 1
18.267694 -9.914448 -18.611979 27.900012 -0.497245 2.301100 0.154159 -0.041499 -829747.000000 0 0 1
16.806294 -10.302948 -18.574079 27.085027 -0.549953 2.326456 0.171557 -0.037957 -621405.000000 0 0 1
16.125694 -9.426948 -17.630379 25.685319 -0.529013 2.327322 0.171027 -0.031567 380059.000000 0 0 1
14.851294 -9.141948 -18.180979 25.192938 -0.551786 2.377008 0.158580 -0.044815 203216.000000 0 0 1
14.005794 -8.067048 -17.428779 23.769768 -0.522570 2.393861 0.178541 -0.031690 1206910.000000 0 1 0
12.642194 -7.971948 -17.888379 23.310322 -0.562604 2.445575 0.157243 -0.041125 474260.000000 0 1 0
12.092894 -6.762948 -17.547279 22.358053 -0.509917 2.473219 0.158659 -0.038806 475471.000000 0 1 0
10.526094 -6.838048 -17.602279 21.619384 -0.576114 2.522128 0.143696 -0.039099 803530.000000 0 1 0
10.042694 -6.447148 -18.895379 22.348529 -0.570712 2.578272 0.125873 -0.050674 -109104.000000 0 1 0
8.642694 -6.265748 -18.842379 21.656200 -0.627293 2.626138 0.115130 -0.059294 101417.000000 0 1 0
8.022194 -5.864548 -20.193079 22.505754 -0.631256 2.684276 0.116668 -0.071239 -39236.000000 0 1 0
7.936594 -6.789448 -21.248479 23.676655 -0.707656 2.684738 0.117229 -0.056002 418483.000000 0 1 0
7.105694 -6.279348 -22.306779 24.238678 -0.723740 2.739635 0.118997 -0.057635 266261.000000 0 1 0
7.069794 -7.182948 -23.549079 25.615149 -0.793337 2.737201 0.111252 -0.048592 -113161.000000 0 0 1
6.681594 -8.501848 -23.170479 25.569439 -0.904713 2.704955 0.112953 -0.040151 137691.000000 0 0 1
6.528894 -9.263248 -24.333779 26.843380 -0.956845 2.705738 0.096730 -0.027245 -286881.000000 0 0 1
5.882594 -10.631748 -24.124979 27.012101 -1.065420 2.675025 0.103875 -0.030008 75889.400000 0 0 1
6.650294 -11.566048 -23.388879 26.926558 -1.048974 2.623202 0.092670 -0.031856 10610.200000 0 0 1
6.011794 -12.809248 -23.475179 27.409899 -1.131982 2.599147 0.121181 -0.035821 -624993.000000 0 0 1
6.682894 -13.918048 -22.657379 27.417694 -1.123146 2.543441 0.123784 -0.030678 -490720.000000 0 0 1
7.842894 -14.520648 -23.198479 28.469802 -1.075570 2.523258 0.082928 -0.019712 312294.000000 0 0 1
9.080594 -13.826848 -23.208879 28.500719 -0.989700 2.522363 0.102574 -0.021369 225777.000000 0 0 1
9.696494 -13.509548 -21.794679 27.414192 -0.948256 2.489828 0.104459 -0.019707 -636124.000000 0 0 1
10.085694 -14.560248 -20.914179 27.406659 -0.964995 2.438902 0.098512 -0.011398 247617.000000 0 0 1
8.996394 -15.297148 -20.377179 27.021607 -1.039166 2.425089 0.094688 -0.010681 -182710.000000 0 0 1
9.106094 -15.773248 -18.919679 26.261580 -1.047226 2.375221 0.107659 -0.003468 263705.000000 0 0 1
10.075094 -16.813548 -18.771079 27.139571 -1.030947 2.334567 0.108551 -0.001486 75064.200000 0 0 1
10.547494 -17.040348 -17.417179 26.551482 -1.016544 2.286274 0.102488 -0.004918 -58267.500000 0 0 1
9.603794 -17.891648 -16.480579 26.152503 -1.078163 2.252571 0.080124 -0.011541 -59907.800000 0 0 1
9.361094 -19.249848 -16.912779 27.280558 -1.118173 2.239485 0.107477 -0.020733 133386.000000 0 0 1
8.546194 -19.455248 -18.039979 27.874450 -1.156897 2.274685 0.112755 -0.013930 238094.000000 0 0 1
6.998494 -19.251548 -18.019579 27.281977 -1.222120 2.292273 0.117346 -0.014915 489434.000000 0 0 1
6.585794 -17.915748 -18.027579 26.255291 -1.218531 2.327635 0.121475 -0.013553 -176883.000000 0 0 1
5.184994 -17.788148 -18.163379 25.946305 -1.287169 2.346246 0.106165 -0.005637 188083.000000 0 0 1
4.695594 -16.345348 -17.919879 24.705082 -1.291055 2.382342 0.077628 0.008865 -54228.700000 0 1 0
4.638194 -15.994248 -16.556279 23.482743 -1.288547 2.353276 0.029309 0.011986 83921.600000 0 1 0
4.619494 -14.617848 -16.348579 22.411989 -1.264710 2.388324 0.024860 0.019596 143839.000000 0 1 0
10.888194 29.429652 -17.813579 36.082970 1.216440 2.087117 0.100412 -0.039182 -781695.000000 0 0 1
9.835794 29.305852 -18.682379 36.119345 1.246984 2.114420 0.132438 -0.046235 -921945.000000 0 0 1
8.971494 28.275552 -18.301779 34.856128 1.263555 2.123589 0.104331 -0.045719 530526.000000 0 0 1
7.938694 27.843452 -19.425379 34.865829 1.293047 2.161742 0.110989 -0.040847 564406.000000 0 0 1
7.162294 28.933952 -19.873379 35.824896 1.328135 2.158843 0.107820 -0.047088 -604531.000000 0 0 1
6.370394 28.548952 -20.937279 35.972131 1.351254 2.192034 0.099849 -0.043057 -348524.000000 0 0 1
5.392494 29.655752 -21.339579 36.931291 1.390925 2.186849 0.082074 -0.047447 -56270.600000 0 0 1
4.277794 29.834352 -20.481579 36.440131 1.428382 2.167672 0.084696 -0.047508 -22468.600000 0 0 1
3.284494 30.694352 -20.992879 37.331382 1.464196 2.168008 0.096261 -0.066673 -974951.000000 0 0 1
1.924694 30.292652 -20.430779 36.589150 1.507345 2.163232 0.113883 -0.056243 -753795.000000 0 0 1
1.313994 29.140052 -20.977479 35.929428 1.525734 2.194262 0.121705 -0.061824 49609.200000 0 0 1
0.741494 29.234452 -22.255979 36.749579 1.545438 2.221331 0.165100 -0.080562 -747848.000000 0 0 1
-0.034606 27.991052 -22.614479 35.984925 -1.569560 2.250346 0.158742 -0.065440 469175.000000 0 0 1
-1.151906 27.690052 -21.764679 35.238716 -1.529220 2.236529 0.167905 -0.059656 478508.000000 0 0 1
-1.919606 26.572652 -22.120079 34.627859 -1.498682 2.263726 0.176717 -0.062554 833285.000000 0 0 1
-3.017106 26.083752 -21.084079 33.674967 -1.455638 2.247345 0.148807 -0.057020 -126788.000000 0 0 1
-4.204806 26.762952 -21.049479 34.307675 -1.414957 2.231345 0.146245 -0.050129 -1088020.000000 0 0 1
-5.054806 26.242252 -20.086779 33.431804 -1.380506 2.215333 0.140905 -0.047732 117047.000000 0 0 1
-6.315406 27.126052 -19.804479 34.174909 -1.342054 2.188916 0.151309 -0.058969 935911.000000 0 0 1
-7.278306 26.326552 -19.082879 33.319924 -1.301071 2.180612 0.133215 -0.046821 223156.000000 0 0 1
-8.329106 27.102052 -18.523479 33.867602 -1.272634 2.149499 0.132803 -0.057947 340486.000000 0 0 1
-9.562106 26.277952 -18.121979 33.322226 -1.221807 2.145803 0.167017 -0.055811 139677.000000 0 0 1
-9.342806 25.564852 -16.919179 32.048530 -1.220420 2.126950 0.164092 -0.058757 -12069.300000 0 0 1
-10.591306 25.040352 -16.500279 31.803368 -1.170647 2.116268 0.136501 -0.053263 298674.000000 0 0 1
-10.675606 24.273152 -15.180779 30.555041 -1.156448 2.090743 0.129837 -0.038219 -223728.000000 0 0 1
-10.003206 23.047252 -15.175879 29.352125 -1.161302 2.114172 0.144083 -0.039512 -301370.000000 0 0 1
-10.144506 22.395052 -13.930579 28.257926 -1.145467 2.086307 0.145044 -0.033188 -308653.000000 0 0 1
-9.559006 20.973252 -14.000579 26.967909 -1.143153 2.116661 0.146690 -0.017759 -15570.900000 0 0 1
-10.189606 19.874952 -14.703079 26.739901 -1.097052 2.152987 0.119270 -0.008365 -148922.000000 0 0 1
-10.495306 20.067552 -16.123079 27.799492 -1.088919 2.189497 0.138475 -0.012970 262642.000000 0 0 1
-9.294906 20.020952 -17.110879 27.928766 -1.136148 2.230220 0.146020 -0.023427 215666.000000 0 0 1
-8.899806 18.698952 -17.366279 27.026746 -1.126571 2.268630 0.132191 -0.021664 -627048.000000 0 0 1
-7.836806 18.690952 -18.260379 27.280188 -1.173778 2.304149 0.140853 -0.028413 -508707.000000 0 0 1
-7.283206 17.302652 -18.605579 26.430937 -1.172378 2.351715 0.131492 -0.027494 109688.000000 0 0 1
-8.198306 16.330952 -19.133379 26.457483 -1.105542 2.379184 0.124039 -0.029737 190575.000000 0 0 1
-7.618806 15.506152 -20.166679 26.555261 -1.114100 2.433222 0.112950 -0.026464 135281.000000 0 0 1
-6.372906 14.630952 -19.850179 25.469753 -1.160001 2.464445 0.082356 -0.018289 150023.000000 0 0 1
-6.617106 13.486052 -19.031679 24.245917 -1.114646 2.473402 0.060686 -0.012594 355026.000000 0 1 0
-5.435106 12.838252 -18.550179 23.204961 -1.170322 2.497102 0.055149 -0.004515 565718.000000 0 1 0
-4.637406 13.449452 -17.408879 22.482490 -1.238759 2.456453 0.036407 0.012074 -248961.000000 0 1 0
-3.706206 14.451952 -17.718479 23.163320 -1.319756 2.441740 0.046034 -0.007708 -310162.000000 0 1 0
-3.249706 14.994252 -16.463079 22.503803 -1.357367 2.391416 0.031503 0.001101 -128529.000000 0 1 0
-2.400706 16.262952 -16.513479 23.301115 -1.424237 2.358449 0.060220 -0.008869 28062.300000 0 1 0
-3.171006 17.418152 -16.789779 24.399672 -1.390717 2.329684 0.077114 -0.016000 -113756.000000 0 1 0
-2.378206 18.585152 -16.810579 25.172590 -1.443525 2.302063 0.090533 -0.022181 79875.500000 0 0 1
-3.044806 19.896452 -17.345579 26.570825 -1.418942 2.282078 0.106096 -0.023713 288070.000000 0 0 1
-3.561706 19.814352 -18.671879 27.457847 -1.392942 2.318586 0.117693 -0.020385 -56676.900000 0 0 1
-3.841006 21.107252 -19.308679 28.863376 -1.390790 2.303616 0.151969 -0.022193 318858.000000 0 0 1
-2.608006 22.025452 -19.619179 29.611390 -1.452936 2.295021 0.123785 -0.032410 -474990.000000 0 0 1
-1.598806 21.438052 -20.405779 29.640210 -1.496356 2.330145 0.154914 -0.033613 122060.000000 0 0 1
-0.499906 22.358652 -20.466979 30.315944 -1.548442 2.311927 0.138919 -0.038281 79900.300000 0 0 1
0.539194 22.354652 -19.362079 29.578899 1.546681 2.284438 0.128828 -0.039390 -1136140.000000 0 0 1
0.048894 22.537352 -18.063079 28.882684 1.568627 2.246434 0.116187 -0.035936 -604814.000000 0 0 1
1.003794 22.152952 -17.081679 27.991867 1.525515 2.227156 0.116153 -0.033956 76771.400000 0 0 1
0.541094 22.083952 -15.610879 27.049829 1.546300 2.185989 0.116217 -0.033278 -679662.000000 0 0 1
-0.307906 21.074452 -15.227179 26.001813 -1.556187 2.196441 0.105462 -0.022057 -472133.000000 0 0 1
-0.158006 20.954252 -13.848279 25.117334 -1.563256 2.154770 0.109875 -0.020495 -8578.280000 0 0 1
-1.159106 19.970852 -13.225479 23.981071 -1.512821 2.154954 0.080774 -0.017024 -84781.900000 0 1 0
-1.023506 18.593052 -13.584979 23.049963 -1.515804 2.201076 0.054098 -0.012080 95885.200000 0 1 0
-1.783606 17.737352 -12.734279 21.907915 -1.470577 2.191077 0.041772 -0.010134 73155.100000 0 1 0
-1.448606 16.256352 -12.935279 20.825198 -1.481921 2.240988 0.021481 -0.003929 1332280.000000 0 1 0
-0.096706 15.874252 -12.494379 20.201751 -1.564704 2.237603 0.018098 0.000670 1716710.000000 0 1 0
0.149194 14.494052 -12.388679 19.067752 1.560503 2.278011 0.014402 0.000161 95671.500000 0 1 0
0.553994 13.740252 -13.729679 19.432074 1.530499 2.355404 0.013245 -0.007242 -245743.000000 0 1 0
-0.422306 13.496252 -14.727879 19.980930 -1.539516 2.399560 0.018022 -0.012481 91761.100000 0 1 0
0.107494 12.636652 -15.710279 20.162078 1.562290 2.464184 0.017615 -0.009632 -234765.000000 0 1 0
-0.527206 12.784652 -17.097179 21.355065 -1.529582 2.499117 0.011691 0.003719 -371772.000000 0 1 0
-0.327706 14.026352 -17.682179 22.572226 -1.547437 2.470850 0.025889 0.001779 -213879.000000 0 1 0
-0.621106 13.999352 -19.062379 23.658866 -1.526459 2.507683 0.039229 -0.002395 -373219.000000 0 1 0
-0.938506 15.333452 -19.719979 24.997462 -1.509666 2.479779 0.047640 -0.003931 -249864.000000 0 1 0
0.084494 16.295052 -19.667579 25.541134 1.565611 2.449693 0.061416 -0.016561 -419564.000000 0 0 1
-0.382906 17.599552 -19.967479 26.619374 -1.549043 2.419026 0.114080 -0.026558 -47996.000000 0 0 1
0.747494 18.606152 -20.280279 27.532478 1.530643 2.398818 0.139861 -0.035321 67005.500000 0 0 1
1.304094 18.276452 -21.541479 28.280111 1.499563 2.436757 0.153900 -0.045972 -111317.000000 0 0 1
1.986894 19.421352 -22.050279 29.450831 1.468846 2.416918 0.149036 -0.038444 -177118.000000 0 0 1
2.639994 19.123952 -23.383979 30.323350 1.433617 2.451448 0.166079 -0.055559 5700.660000 0 0 1
3.793094 18.308052 -23.221879 29.813218 1.366505 2.463726 0.148722 -0.048204 25096.400000 0 0 1
4.325594 17.991452 -24.477279 30.684528 1.334850 2.494280 0.152919 -0.061121 427112.000000 0 0 1
5.371194 16.833552 -24.586679 30.277433 1.261931 2.518446 0.113347 -0.051884 678823.000000 0 0 1
6.638294 17.099952 -23.896579 30.125102 1.200499 2.486916 0.110689 -0.045765 1428730.000000 0 0 1
7.616194 16.096052 -24.077079 29.946536 1.128841 2.504792 0.113110 -0.044781 181398.000000 0 0 1
8.070594 15.877752 -25.550969 31.146260 1.100534 2.532827 0.101179 -0.047432 -2001660.000000 0 0 1
9.013294 16.853052 -25.921559 32.205466 1.079685 2.506271 0.092691 -0.041973 -92454.200000 0 0 1
9.147694 16.988852 -27.330049 33.454939 1.076862 2.526849 0.105651 -0.047523 -15933.800000 0 0 1
9.584894 15.710852 -28.126169 33.612236 1.022997 2.562179 0.128023 -0.058717 -18953.700000 0 0 1
10.852894 15.188652 -27.731289 33.429102 0.950379 2.549107 0.111903 -0.056388 428865.000000 0 0 1
11.116294 13.860852 -28.201159 33.331675 0.894842 2.579378 0.098891 -0.051386 -375758.000000 0 0 1
10.477894 12.688352 -27.448559 32.003186 0.880527 2.601541 0.092186 -0.043673 1082090.000000 0 0 1
9.027094 12.815852 -27.363219 31.535381 0.957144 2.621351 0.108993 -0.042618 1025760.000000 0 0 1
8.511994 11.739552 -26.598139 30.294094 0.943442 2.642459 0.113713 -0.041795 -498895.000000 0 0 1
6.996994 11.850652 -26.576159 29.928049 1.037442 2.663778 0.107919 -0.043894 -1384210.000000 0 0 1
6.540594 12.735952 -25.610769 29.341018 1.096365 2.631841 0.132565 -0.041196 585250.000000 0 0 1
5.101694 12.739552 -25.488069 28.947627 1.189893 2.647689 0.133990 -0.048402 858232.000000 0 0 1
4.472294 13.721952 -26.419109 30.104197 1.255730 2.641606 0.151355 -0.034846 -967271.000000 0 0 1
4.448794 13.174952 -27.763919 31.051672 1.245147 2.677258 0.152668 -0.046316 59638.300000 0 0 1
4.371794 14.213252 -28.696129 32.320225 1.272395 2.663489 0.157180 -0.059258 -90256.000000 0 0 1
4.185594 13.583352 -30.127549 33.312098 1.271887 2.700774 0.180232 -0.053756 366817.000000 0 0 1
5.347294 12.882452 -30.572789 33.604264 1.177355 2.713572 0.160896 -0.048814 259618.000000 0 0 1
5.368594 12.699352 -31.950699 34.798599 1.170837 2.734209 0.159833 -0.054824 -890173.000000 0 0 1
6.575494 11.927152 -32.443059 35.185880 1.066952 2.744134 0.156271 -0.049243 1331670.000000 0 0 1
7.936394 12.440252 -32.235419 35.452341 1.002931 2.712301 0.179239 -0.049606 1952980.000000 0 0 1
8.418594 12.621452 -30.880509 34.406098 0.982558 2.684932 0.168990 -0.049725 -604584.000000 0 0 1
8.583094 11.291852 -30.065329 33.243036 0.920854 2.700791 0.158548 -0.040046 -876203.000000 0 0 1
9.764494 10.599452 -30.299589 33.552329 0.826377 2.697625 0.128024 -0.039206 -581283.000000 0 0 1
9.715294 9.334352 -29.648519 32.566113 0.765404 2.715071 0.114559 -0.034012 527347.000000 0 0 1
10.886094 8.332152 -29.962479 32.949688 0.653281 2.712492 0.078038 -0.025797 1694640.000000 0 0 1
12.162794 8.638652 -29.319329 32.896549 0.617574 2.670909 0.064590 -0.026145 813474.000000 0 0 1
12.985694 7.547952 -29.439069 33.049336 0.526520 2.669814 0.029340 -0.016326 -759380.000000 0 0 1
14.179994 7.545952 -28.468599 32.687532 0.489039 2.627891 0.033220 0.000581 496898.000000 0 0 1
14.937494 6.329452 -28.230059 32.559590 0.400794 2.620002 0.019427 0.007340 1240130.000000 0 0 1
15.850894 5.864952 -29.266279 33.795911 0.354387 2.617885 0.015125 0.005576 -96157.900000 0 0 1
16.563394 4.502752 -28.934739 33.642828 0.265435 2.606177 0.032374 0.002733 474937.000000 0 0 1
17.308994 4.599052 -27.710439 32.994257 0.259702 2.567815 0.021274 0.001968 396813.000000 0 0 1
18.233894 3.563652 -27.500779 33.188361 0.193008 2.547447 0.037564 -0.002061 -20664.400000 0 0 1
19.096994 3.749052 -26.223649 32.656245 0.193851 2.503144 0.059177 0.004424 358940.000000 0 0 1
20.038394 4.830552 -26.309189 33.422221 0.236552 2.477014 0.083791 -0.000076 346512.000000 0 0 1
20.460494 5.232652 -25.044079 32.760011 0.250378 2.441017 0.097748 -0.007006 -487460.000000 0 0 1
21.386494 6.424252 -25.071379 33.574204 0.291813 2.413951 0.102904 -0.013360 -725260.000000 0 0 1
20.863694 7.608552 -25.594789 33.886236 0.349692 2.426931 0.104075 -0.010522 15096.600000 0 0 1
21.830794 8.438852 -26.214619 35.142624 0.368864 2.412756 0.100544 -0.027681 -486254.000000 0 0 1
21.767394 8.164752 -27.719889 36.178375 0.358850 2.443704 0.150586 -0.041747 161396.000000 0 0 1
20.597694 8.527352 -28.434099 36.131409 0.392513 2.476668 0.111840 -0.024070 670352.000000 0 0 1
19.485394 7.639252 -28.271089 35.175179 0.373634 2.504322 0.107586 -0.012815 -1108650.000000 0 0 1
18.195994 8.139552 -28.807389 35.031588 0.420628 2.536283 0.064320 0.002812 -1899410.000000 0 0 1
18.170194 8.152352 -30.205319 36.179802 0.421744 2.558687 0.062015 -0.001841 119312.000000 0 0 1
17.246194 9.020452 -30.815809 36.447412 0.481909 2.578273 0.043121 0.000747 -465662.000000 0 0 1
17.031394 8.819552 -32.365389 37.621420 0.477818 2.606638 0.019391 0.010321 -190770.000000 0 0 1
16.326294 7.631352 -32.550989 37.206885 0.437251 2.635953 0.021625 0.013729 523304.000000 0 0 1
14.971694 7.903652 -32.918369 37.016731 0.485723 2.666573 0.025533 0.005040 850288.000000 0 0 1
14.095294 6.625452 -33.293799 36.756645 0.439399 2.704037 0.036659 -0.004574 470186.000000 0 0 1
13.983094 5.656652 -32.259839 35.612102 0.384410 2.704219 0.031825 0.003172 240891.000000 0 0 1
13.083794 4.621252 -32.626109 35.454261 0.339527 2.739467 0.036327 -0.013534 105816.000000 0 0 1
12.902194 3.461452 -31.575369 34.284868 0.262112 2.741362 0.050310 -0.017550 748793.000000 0 0 1
14.044094 2.586152 -31.385809 34.481789 0.182105 2.714597 0.043239 -0.020169 816017.000000 0 0 1
13.887794 1.656152 -30.340969 33.409401 0.118692 2.709656 0.063239 -0.019470 -25110.700000 0 0 1
13.171194 0.321152 -30.781429 33.482531 0.024378 2.737166 0.074486 -0.025179 163524.000000 0 0 1
13.881294 -0.612548 -31.596619 34.516835 -0.044099 2.727290 0.077558 -0.027091 -268588.000000 0 0 1
14.844394 -1.327648 -30.895539 34.302376 -0.089200 2.692133 0.088434 -0.031521 -298103.000000 0 0 1
15.208894 -2.645748 -31.553149 35.127079 -0.172237 2.686584 0.095655 -0.037185 -127899.000000 0 0 1
14.213094 -3.638348 -31.436539 34.691578 -0.250604 2.704939 0.104694 -0.039412 46537.100000 0 0 1
14.360794 -4.736048 -32.357809 35.716808 -0.318558 2.704426 0.120337 -0.046815 -676269.000000 0 0 1
13.504894 -5.953648 -32.122339 35.350711 -0.415220 2.710898 0.122529 -0.045205 -434152.000000 0 0 1
13.708494 -6.558248 -30.806569 34.350810 -0.446225 2.683330 0.138839 -0.035054 127344.000000 0 0 1
13.291394 -7.879048 -30.737929 34.402919 -0.535104 2.675806 0.160798 -0.045504 -107213.000000 0 0 1
13.531094 -8.574548 -29.348999 33.436165 -0.564825 2.641967 0.138602 -0.040564 -423308.000000 0 0 1
14.897594 -8.710548 -29.065029 33.802187 -0.529090 2.605785 0.142092 -0.035652 -169330.000000 0 0 1
15.135794 -9.274448 -27.710929 32.909014 -0.549741 2.571863 0.150101 -0.038989 -24650.100000 0 0 1
14.855294 -10.776948 -27.641939 33.179800 -0.627611 2.555477 0.132127 -0.027978 -64904.900000 0 0 1
13.521394 -11.069248 -28.021079 33.023283 -0.686008 2.583988 0.106481 -0.031537 153414.000000 0 0 1
13.373794 -12.389648 -28.564339 33.886328 -0.747217 2.573532 0.091560 -0.030187 161427.000000 0 0 1
-10.167606 -2.720848 -17.493879 20.416147 0.261473 2.599954 0.032227 -0.008997 284916.000000 0 1 0
-10.880506 -2.442148 -18.679579 21.754912 0.220793 2.603402 0.050080 -0.013416 -137839.000000 0 1 0
-11.808806 -3.385948 -19.098779 22.708499 0.279239 2.570001 0.050046 -0.016558 -722378.000000 0 1 0
-12.689006 -3.024848 -20.276479 24.110085 0.234016 2.569917 0.068446 -0.026293 -312007.000000 0 1 0
-13.807306 -2.278348 -19.829079 24.269836 0.163537 2.527030 0.075209 -0.021959 117874.000000 0 1 0
-14.607906 -1.879548 -20.953379 25.611867 0.127963 2.528917 0.078803 -0.017311 370010.000000 0 0 1
-15.582606 -0.751748 -20.582279 25.826594 0.048205 2.493011 0.101166 -0.016244 -104638.000000 0 0 1
-14.930606 0.501152 -20.589379 25.438095 -0.033553 2.513912 0.110337 -0.021393 -137808.000000 0 0 1
-15.735206 1.485752 -19.987979 25.481827 -0.094143 2.472527 0.120983 -0.023943 -284922.000000 0 0 1
-15.582506 2.904952 -20.675879 26.052739 -0.184308 2.487526 0.157050 -0.031701 -329904.000000 0 0 1
-14.427006 3.590952 -20.297979 25.160314 -0.243948 2.509420 0.168061 -0.030931 -309236.000000 0 0 1
-14.215906 4.813752 -20.962379 25.781496 -0.326499 2.520217 0.183549 -0.037848 229145.000000 0 0 1
-12.778306 5.380152 -20.753279 24.958561 -0.398510 2.552616 0.161952 -0.033441 275870.000000 0 1 0
-12.557206 5.868752 -19.440079 23.875560 -0.437197 2.522189 0.156119 -0.041116 797666.000000 0 1 0
-11.207606 6.333652 -19.302779 23.201786 -0.514378 2.553413 0.121742 -0.022361 598620.000000 0 1 0
-10.998606 7.114752 -17.945579 22.217850 -0.574177 2.511054 0.103887 -0.020431 -149897.000000 0 1 0
-11.756306 8.282752 -17.920379 22.977265 -0.613764 2.465331 0.117061 -0.030125 -525270.000000 0 1 0
-12.924506 8.171652 -17.169179 22.991291 -0.563803 2.413987 0.147038 -0.031196 -549928.000000 0 1 0
-13.765006 9.440652 -16.975679 23.807037 -0.601162 2.364639 0.161099 -0.037359 -407363.000000 0 1 0
-13.144506 10.428752 -16.215679 23.334206 -0.670699 2.339121 0.116897 -0.029923 -124002.000000 0 1 0
-13.683806 11.731052 -16.406379 24.372801 -0.708714 2.309247 0.114792 -0.028176 -279033.000000 0 1 0
-12.962906 12.861552 -15.655379 24.053011 -0.781473 2.279526 0.115843 -0.024856 -476233.000000 0 1 0
-13.073606 12.852452 -14.274779 23.235189 -0.776868 2.232371 0.127682 -0.026417 229505.000000 0 1 0
-12.512306 14.023752 -13.666079 23.237580 -0.842295 2.199507 0.115163 -0.026707 -652518.000000 0 1 0
-12.883906 14.133152 -12.159079 22.662397 -0.831604 2.137117 0.092419 -0.028974 707779.000000 0 1 0
-14.153806 14.604852 -11.728179 23.477268 -0.801081 2.093881 0.086510 -0.025360 1027370.000000 0 1 0
-15.345906 14.017952 -12.257379 24.129715 -0.740205 2.103633 0.079935 -0.018452 -576051.000000 0 1 0
-16.585006 14.346352 -11.447979 24.737350 -0.713149 2.051926 0.039409 -0.009598 -423306.000000 0 1 0
-17.715506 13.635852 -11.922579 25.336210 -0.655998 2.060738 0.034494 -0.010422 1238330.000000 0 0 1
-18.896406 13.943852 -11.107579 25.978520 -0.635719 2.012597 0.121765 -0.018244 1174740.000000 0 0 1
-20.243106 13.391652 -11.617979 26.909053 -0.584446 2.017228 0.111510 -0.036347 -118788.000000 0 0 1
-20.313806 11.976252 -11.466979 26.221612 -0.532709 2.023402 0.119813 -0.038043 364707.000000 0 0 1
-21.413506 11.444952 -12.184779 27.166045 -0.490845 2.035916 0.166888 -0.041574 -26693.400000 0 0 1
-21.723606 10.023052 -11.787279 26.670519 -0.432285 2.028578 0.160889 -0.034895 29756.800000 0 0 1
-20.855906 9.089352 -12.426179 25.922868 -0.410997 2.070713 0.120225 -0.031961 507570.000000 0 0 1
-20.888006 7.995952 -11.484779 25.142478 -0.365592 2.045177 0.089433 -0.031431 -476424.000000 0 0 1
-19.887806 6.844352 -11.704479 24.069998 -0.331452 2.078610 0.091930 -0.030166 -387008.000000 0 1 0
-20.200706 5.918152 -12.716579 24.592772 -0.284993 2.114239 0.110712 -0.033257 -342066.000000 0 1 0
-19.259706 4.930952 -12.879279 23.688107 -0.250640 2.145639 0.131171 -0.033815 -840611.000000 0 1 0
-19.773906 3.595852 -13.576279 24.253925 -0.179883 2.164888 0.174237 -0.056054 -698839.000000 0 1 0
-20.630706 2.839252 -12.774879 24.431229 -0.136763 2.121036 0.168734 -0.057847 572153.000000 0 1 0
-21.589906 2.312352 -13.722479 25.686134 -0.106697 2.134401 0.171911 -0.050796 -127409.000000 0 0 1
-22.426606 1.147052 -13.273979 26.085761 -0.051102 2.104655 0.221951 -0.053557 -732643.000000 0 0 1
-23.477806 0.903452 -14.152079 27.428178 -0.038462 2.112934 0.151427 -0.038471 -119481.000000 0 0 1
-23.987006 -0.428648 -14.008279 27.781147 0.017868 2.099294 0.144091 -0.048322 436946.000000 0 0 1
-25.268646 -0.690048 -14.860679 29.322695 0.027302 2.102263 0.123012 -0.028834 1435280.000000 0 0 1
-26.501526 -0.074848 -14.442379 30.181432 0.002824 2.069763 0.135370 -0.039353 1081370.000000 0 0 1
-27.637116 -0.348148 -15.228579 31.556949 0.012596 2.074388 0.122035 -0.016217 369142.000000 0 0 1
-29.024826 -0.030648 -14.632079 32.504449 0.001056 2.037737 0.123757 -0.025455 -20228.000000 0 0 1
-29.284606 -0.842048 -13.539879 32.274224 0.028746 2.003720 0.142797 -0.019082 -524912.000000 0 0 1
-30.497616 -0.656048 -12.885679 33.114585 0.021508 1.970477 0.180866 -0.031555 -615515.000000 0 0 1
-30.546616 -0.864348 -11.348979 32.598193 0.028288 1.926391 0.185456 -0.034761 -176282.000000 0 0 1
-30.648966 -2.186948 -10.851679 32.586820 0.071234 1.910288 0.202561 -0.023749 1596440.000000 0 0 1
-29.515426 -3.061348 -11.224579 31.725753 0.103351 1.932427 0.193585 -0.033268 1040050.000000 0 0 1
-29.749776 -4.550448 -10.746979 31.957055 0.151781 1.913776 0.204695 -0.038591 -663168.000000 0 0 1
-30.689326 -5.231848 -11.498179 33.187575 0.168854 1.924591 0.203512 -0.032550 -85505.700000 0 0 1
-31.151426 -6.446048 -10.874079 33.618574 0.204046 1.900174 0.206579 -0.038119 149097.000000 0 0 1
-30.423526 -7.677448 -11.488279 33.414289 0.247191 1.921771 0.206986 -0.042046 1029390.000000 0 0 1
-29.066266 -7.821148 -11.023879 32.055329 0.262854 1.921865 0.146440 -0.044950 727700.000000 0 0 1
-28.363086 -8.634148 -11.940979 31.962481 0.295502 1.953676 0.131339 -0.044595 -604801.000000 0 0 1
-26.909656 -8.835648 -11.526279 30.578643 0.317254 1.957285 0.125144 -0.051040 -1078370.000000 0 0 1
-26.102576 -7.719748 -11.706279 29.630660 0.287550 1.976944 0.106381 -0.042413 369506.000000 0 0 1
-24.776406 -7.886348 -11.206479 28.313424 0.308161 1.977736 0.118136 -0.045344 396291.000000 0 0 1
-24.531006 -7.860248 -9.605879 27.492302 0.310085 1.927730 0.125631 -0.046116 -682149.000000 0 0 1
-24.720106 -6.578048 -9.011879 27.121363 0.260074 1.909516 0.129910 -0.043070 -492535.000000 0 0 1
-26.011066 -6.173748 -8.711679 28.117327 0.233039 1.885814 0.136399 -0.057726 -1150940.000000 0 0 1
-26.225936 -4.718948 -8.200779 27.880477 0.178029 1.869353 0.142291 -0.049889 -274408.000000 0 0 1
-25.928766 -4.520348 -6.818979 27.188839 0.172602 1.824304 0.141034 -0.046665 339847.000000 0 0 1
-26.285106 -3.203448 -6.436479 27.250636 0.121275 1.809245 0.190318 -0.053621 -24116.400000 0 0 1
-25.950786 -2.930548 -4.917079 26.574595 0.112451 1.756898 0.178672 -0.046382 -512605.000000 0 0 1
-24.599206 -3.086848 -4.618879 25.218716 0.124833 1.754989 0.144464 -0.043648 -392549.000000 0 0 1
-24.243106 -2.874748 -3.282479 24.632642 0.118029 1.704451 0.114038 -0.029413 -176127.000000 0 1 0
-22.832906 -3.330348 -2.872279 23.252587 0.144836 1.694638 0.090882 -0.021832 -102102.000000 0 1 0
-22.675806 -4.709448 -2.923779 23.343513 0.204775 1.696376 0.106878 -0.020358 1025060.000000 0 1 0
-21.349506 -5.080648 -2.507679 22.088523 0.233629 1.684570 0.082171 -0.017193 509821.000000 0 1 0
-21.321506 -6.562848 -2.237379 22.420604 0.298601 1.670754 0.099440 -0.014160 191163.000000 0 1 0
-22.139806 -6.999848 -1.142079 23.248081 0.306221 1.619942 0.113921 -0.007602 892131.000000 0 1 0
-22.974006 -8.103848 -1.496579 24.407316 0.339114 1.632152 0.129116 -0.016163 87673.300000 0 1 0
-23.128706 -9.076348 -0.327379 24.848025 0.373962 1.583972 0.125405 -0.022777 -393723.000000 0 1 0
-21.924506 -9.659648 0.084121 23.958294 0.414998 1.567285 0.090410 -0.013789 -164428.000000 0 1 0
-21.965306 -10.348748 1.324721 24.317199 0.440295 1.516293 0.053412 -0.017130 -432704.000000 0 1 0
-20.622706 -10.889848 1.819321 23.392194 0.485836 1.492943 0.069409 -0.014589 -453745.000000 0 1 0
-20.105806 -11.903448 0.989021 23.386186 0.534546 1.528493 0.075608 -0.006982 -204087.000000 0 1 0
-19.010406 -12.527148 1.565321 22.820500 0.582650 1.502150 0.058340 -0.015834 -567938.000000 0 1 0
-18.297906 -13.543848 0.643521 22.774181 0.637190 1.542536 0.056043 -0.010270 -154869.000000 0 1 0
-19.077606 -14.727548 0.474621 24.105622 0.657421 1.551106 0.088401 -0.003776 352910.000000 0 1 0
-18.471006 -15.860748 -0.106979 24.346516 0.709514 1.575190 0.083904 -0.023642 -212693.000000 0 1 0
-17.418306 -16.624848 0.716621 24.089345 0.762095 1.541043 0.094730 -0.019147 -641205.000000 0 1 0
-16.175906 -16.000448 0.750321 22.764825 0.779945 1.537831 0.089909 -0.015527 -404800.000000 0 1 0
-15.184406 -16.711448 1.481821 22.628179 0.833238 1.505264 0.100672 -0.017369 355665.000000 0 1 0
-15.219806 -16.563948 3.051021 22.700564 0.827663 1.435985 0.110802 -0.025218 -248634.000000 0 1 0
-15.075706 -15.181948 3.496221 21.679300 0.788909 1.408819 0.084703 -0.020005 -60244.300000 0 1 0
-14.343106 -14.902148 4.649821 21.199518 0.804511 1.349662 0.069940 -0.023891 -368162.000000 0 1 0
-14.924906 -15.315448 6.008221 22.212936 0.798312 1.296902 0.121460 -0.026355 -876280.000000 0 1 0
-15.952006 -14.503948 6.508921 22.521036 0.737888 1.277598 0.111983 -0.025360 91937.400000 0 1 0
-16.287406 -14.693448 7.892221 23.312318 0.733994 1.225428 0.131513 -0.026474 -481766.000000 0 1 0
-17.108506 -15.880148 8.294521 24.772549 0.748180 1.229375 0.109314 -0.017372 -507674.000000 0 1 0
-16.507206 -17.116748 7.889121 25.054125 0.803524 1.250463 0.121721 -0.013054 7855.040000 0 0 1
-17.148506 -18.212248 8.496321 26.418644 0.815472 1.243374 0.120549 -0.027364 -95347.300000 0 0 1
-16.818806 -18.512848 9.977321 26.928512 0.833308 1.191237 0.140405 -0.028017 -360274.000000 0 0 1
-15.506706 -18.983848 10.092021 26.508363 0.885873 1.180231 0.101783 -0.024976 -406036.000000 0 0 1
-15.335206 -19.346248 11.458221 27.216479 0.900540 1.136245 0.114273 -0.029263 584660.000000 0 0 1
-13.990506 -20.079548 11.812221 27.174457 0.962252 1.121112 0.108749 -0.023357 1252830.000000 0 0 1
-12.818306 -19.248648 11.716921 25.925001 0.983302 1.101841 0.098240 -0.030764 1130300.000000 0 0 1
-11.665006 -20.103448 11.958321 26.138524 1.045026 1.095617 0.100970 -0.029592 862270.000000 0 0 1
-10.373806 -19.381748 12.363421 25.221463 1.079359 1.058484 0.110414 -0.029762 -7913.700000 0 0 1
-9.544306 -18.967548 11.309821 24.057717 1.104599 1.081379 0.096081 -0.020866 333712.000000 0 1 0
-8.400006 -18.233548 11.741021 23.256697 1.139089 1.041594 0.080620 -0.018418 593396.000000 0 1 0
-7.470106 -17.559248 10.713121 21.883799 1.168568 1.059228 0.057691 -0.015117 64513.200000 0 1 0
-6.571206 -18.409048 10.073221 21.989625 1.227939 1.094951 0.053042 -0.018852 -492318.000000 0 1 0
-5.785306 -17.685148 9.159821 20.739734 1.254641 1.113353 0.040179 -0.005413 -788545.000000 0 1 0
-4.690106 -18.488248 8.505421 20.884315 1.322357 1.151340 0.044539 -0.012299 -1392740.000000 0 1 0
-3.552306 -18.488348 9.276221 20.987763 1.380972 1.112989 0.054326 -0.012624 -1275700.000000 0 1 0
-2.530506 -19.059248 8.501121 21.022071 1.438798 1.154484 0.058973 -0.015868 30777.900000 0 1 0
-1.153106 -19.159048 9.190321 21.280526 1.510683 1.124236 0.060079 -0.019479 656177.000000 0 1 0
-0.097706 -19.684048 8.383821 21.395321 1.565833 1.168152 0.073495 -0.016553 387405.000000 0 1 0
1.093094 -19.900648 9.147321 21.929527 -1.515924 1.140518 0.088128 -0.023640 873462.000000 0 1 0
2.294794 -20.300848 8.221521 22.022351 -1.458235 1.188204 0.077834 -0.037703 419085.000000 0 1 0
2.610594 -21.621848 7.881221 23.161027 -1.450639 1.223582 0.110324 -0.033373 -210928.000000 0 1 0
2.894594 -22.477848 8.965821 24.372490 -1.442726 1.194083 0.121084 -0.043079 -350811.000000 0 1 0
2.790094 -23.904148 8.542121 25.537438 -1.454602 1.229728 0.144613 -0.041482 84723.100000 0 0 1
2.800894 -24.829348 9.606721 26.769958 -1.458465 1.203748 0.137630 -0.047553 29434.100000 0 0 1
2.405694 -26.075308 9.109521 27.725303 -1.478797 1.236014 0.150227 -0.049246 -885937.000000 0 0 1
2.182894 -27.220198 10.123721 29.123769 -1.490774 1.215775 0.166497 -0.056282 1178850.000000 0 0 1
1.022694 -27.089718 10.985421 29.250269 -1.533062 1.185788 0.176110 -0.061701 707046.000000 0 0 1
-0.247606 -27.095988 10.374621 29.015283 1.561658 1.205146 0.168473 -0.050724 -380490.000000 0 0 1
-1.407206 -27.127918 11.395021 29.457608 1.518970 1.173607 0.157272 -0.056857 155582.000000 0 0 1
-1.431106 -28.343718 12.165121 30.877251 1.520348 1.165835 0.173402 -0.067023 -291847.000000 0 0 1
-2.023506 -28.044038 13.407621 31.150072 1.498767 1.125838 0.139857 -0.069562 -301769.000000 0 0 1
-1.865906 -29.269108 14.323921 32.639501 1.507132 1.116475 0.123811 -0.060702 21382.500000 0 0 1
-2.147506 -28.904798 15.626321 32.928423 1.496637 1.076339 0.133724 -0.064515 38194.600000 0 0 1
-1.711206 -29.935098 16.487921 34.218268 1.513695 1.068037 0.142243 -0.061881 109452.000000 0 0 1
-1.807606 -29.543118 18.033521 34.659359 1.509687 1.023585 0.137987 -0.055499 -724950.000000 0 0 1
-3.140306 -29.501868 18.406321 34.914387 1.464751 1.015513 0.146571 -0.051163 -673370.000000 0 0 1
-3.147906 -29.190938 19.799121 35.412221 1.463373 0.977491 0.131045 -0.048824 -701512.000000 0 0 1
-4.568906 -29.065228 20.301421 35.746470 1.414877 0.966810 0.134992 -0.046071 -1134960.000000 0 0 1
-5.242706 -27.953608 19.782621 34.644513 1.385400 0.963052 0.109332 -0.040376 -77315.300000 0 0 1
-6.445306 -27.719598 20.499921 35.073706 1.342338 0.946556 0.105521 -0.040625 160600.000000 0 0 1
-6.250206 -26.804428 21.751121 35.080674 1.341712 0.902014 0.161299 -0.051040 -674084.000000 0 0 1
-5.413706 -27.326288 22.756221 35.970541 1.375215 0.885845 0.179575 -0.052572 -96093.500000 0 0 1
-4.936906 -26.338398 23.623421 35.723246 1.385505 0.848259 0.209494 -0.057016 -117997.000000 0 0 1
-3.788406 -26.816518 24.527421 36.538638 1.430454 0.834871 0.234545 -0.055332 -34360.900000 0 0 1
-4.212606 -27.963478 25.276421 37.928876 1.421274 0.841405 0.217726 -0.053359 164011.000000 0 0 1
-3.649706 -29.217468 24.876121 38.546105 1.446525 0.869302 0.205222 -0.041148 57544.800000 0 0 1
-4.052406 -30.464918 25.702321 40.064230 1.438554 0.874308 0.191757 -0.029535 -118412.000000 0 0 1
-3.492006 -30.406688 26.972721 40.795692 1.456454 0.848425 0.191061 -0.048696 105238.000000 0 0 1
-3.884606 -31.538908 27.765221 42.198346 1.448245 0.852677 0.166200 -0.050800 -45587.300000 0 0 1
-3.317106 -31.430748 29.226921 43.047741 1.465649 0.824476 0.195578 -0.050281 744678.000000 0 0 1
-1.905106 -31.617388 29.374121 43.198700 1.510614 0.823065 0.192526 -0.047277 893662.000000 0 0 1
-1.395406 -31.189918 30.629821 43.737216 1.526087 0.794958 0.193954 -0.063988 -125489.000000 0 0 1
-29.389646 2.646252 -9.293979 30.937550 -0.089798 1.875920 0.212959 -0.038982 -500326.000000 0 0 1
-30.075346 2.465052 -10.459879 31.937627 -0.081780 1.904463 0.194146 -0.042240 -532490.000000 0 0 1
-30.652866 3.637152 -10.904379 32.737327 -0.118104 1.910372 0.184908 -0.040591 -420565.000000 0 0 1
-31.412886 3.423552 -12.225779 33.881556 -0.108557 1.939963 0.176136 -0.044560 261258.000000 0 0 1
-32.527316 2.539052 -11.989279 34.759400 -0.077901 1.922952 0.193015 -0.046875 670412.000000 0 0 1
-33.146106 2.347052 -13.280179 35.784580 -0.070691 1.951005 0.187245 -0.042671 140897.000000 0 0 1
-34.487196 1.564652 -13.303679 36.997334 -0.045338 1.938619 0.198522 -0.036262 232463.000000 0 0 1
-34.420466 0.230252 -12.919179 36.765836 -0.006689 1.929853 0.202659 -0.032826 -42555.300000 0 0 1
-35.748780 -0.227048 -12.904179 38.007166 0.006351 1.917202 0.206572 -0.033209 78617.200000 0 0 1
-35.890702 -1.679848 -12.333679 37.987946 0.046770 1.901463 0.210461 -0.031570 21210.600000 0 0 1
-35.490858 -2.680648 -13.266879 37.984168 0.075388 1.927592 0.208158 -0.023282 199998.000000 0 0 1
-35.379370 -3.946948 -12.588279 37.759013 0.111101 1.910688 0.217567 -0.029322 50369.500000 0 0 1
-35.283286 -5.089048 -13.618879 38.161271 0.143246 1.935719 0.217379 -0.034182 -10380.700000 0 0 1
-35.244836 -6.406948 -13.104779 38.144236 0.179820 1.921500 0.210654 -0.046456 178422.000000 0 0 1
-35.374843 -7.432148 -14.081479 38.793098 0.207085 1.942270 0.208472 -0.035454 -814088.000000 0 0 1
-35.078289 -8.842348 -13.551579 38.630542 0.246930 1.929221 0.191910 -0.041641 1276550.000000 0 0 1
-33.673516 -9.136048 -13.282579 37.333631 0.264935 1.934545 0.186351 -0.040609 1846710.000000 0 0 1
-32.854686 -9.220448 -14.451679 37.058037 0.273605 1.971400 0.186678 -0.039133 -470403.000000 0 0 1
-31.698906 -10.216648 -14.261979 36.229886 0.311791 1.975398 0.165522 -0.037443 -15831.100000 0 0 1
-32.154946 -11.581748 -14.328479 37.059180 0.345720 1.967779 0.137063 -0.033495 190569.000000 0 0 1
-31.108746 -12.450148 -13.967779 36.302330 0.380691 1.965747 0.145593 -0.034444 -98928.200000 0 0 1
-31.418726 -13.914848 -14.342779 37.235396 0.416920 1.966212 0.141194 -0.027828 -126325.000000 0 0 1
-31.512446 -14.174648 -15.724579 37.963368 0.422697 1.997864 0.151279 -0.031429 73471.400000 0 0 1
-31.721396 -15.503848 -16.136379 38.820085 0.454608 1.999477 0.157805 -0.034018 -705567.000000 0 0 1
-30.611636 -16.477748 -15.799379 38.186501 0.493804 1.997357 0.122323 -0.018976 -799687.000000 0 0 1
-29.394206 -16.038248 -16.314279 37.247825 0.499479 2.024161 0.135895 -0.029259 -385618.000000 0 0 1
-28.387566 -17.049548 -16.462179 36.980324 0.540860 2.032150 0.133288 -0.022975 173404.000000 0 0 1
-27.030366 -16.501748 -16.862179 35.878705 0.548097 2.060061 0.143812 -0.033582 -389428.000000 0 0 1
-26.983036 -16.026848 -18.208479 36.283506 0.535967 2.096520 0.136707 -0.033450 1576200.000000 0 0 1
-25.600316 -15.641348 -18.533779 35.263706 0.548456 2.124189 0.101090 -0.028912 1653880.000000 0 0 1
-25.495776 -15.136748 -19.991079 35.760299 0.535772 2.164012 0.106541 -0.036351 -118297.000000 0 0 1
-25.818276 -16.057748 -20.942279 36.919016 0.556405 2.173958 0.111799 -0.037991 -398439.000000 0 0 1
-27.183946 -16.123748 -21.230079 38.074381 0.535356 2.162282 0.125357 -0.048411 -728607.000000 0 0 1
-27.594846 -17.498448 -21.795479 39.277400 0.565131 2.159053 0.133119 -0.043378 -194352.000000 0 0 1
-27.244846 -17.639748 -23.190179 39.890184 0.574582 2.191184 0.127842 -0.037009 102340.000000 0 0 1
-27.786666 -18.823048 -23.706379 41.090125 0.595406 2.185769 0.131929 -0.041833 -500734.000000 0 0 1
-27.128766 -19.132248 -25.060779 41.593936 0.614233 2.217439 0.110894 -0.040662 -265102.000000 0 0 1
-25.756636 -19.361948 -25.120929 40.857685 0.644605 2.232979 0.100109 -0.037183 -594148.000000 0 0 1
-25.399846 -20.641848 -24.497579 40.882386 0.682423 2.213324 0.103218 -0.033739 794296.000000 0 0 1
-23.833006 -20.775648 -24.257879 39.850777 0.716968 2.225240 0.094959 -0.016941 1624640.000000 0 0 1
-23.194606 -20.765348 -25.531409 40.262170 0.730194 2.257678 0.090630 -0.023844 -231621.000000 0 0 1
-21.807806 -21.016748 -25.556899 39.628768 0.766928 2.271699 0.069431 -0.020815 278362.000000 0 0 1
-21.238406 -20.893948 -27.058159 40.246378 0.777223 2.308125 0.056373 -0.014818 -191201.000000 0 0 1
-21.697206 -21.990448 -27.836009 41.583554 0.792110 2.304196 0.086246 -0.014743 49898.600000 0 0 1
-22.244406 -21.706548 -29.116969 42.588564 0.773161 2.323590 0.102205 -0.013965 -51657.300000 0 0 1
-21.230006 -21.765848 -30.280759 42.911417 0.797860 2.354147 0.090245 -0.022626 116787.000000 0 0 1
-20.791706 -23.029648 -30.747919 43.681739 0.836423 2.351681 0.085278 -0.025435 -24849.900000 0 0 1
-20.292506 -22.900648 -32.052699 44.312538 0.845708 2.379413 0.077990 -0.020392 -13504.900000 0 0 1
-19.570606 -24.211148 -32.482719 44.992392 0.890996 2.377427 0.095709 -0.023053 -262473.000000 0 0 1
-19.097906 -24.237048 33.610309 45.626937 0.903438 0.742718 0.091079 -0.026049 105032.000000 0 0 1
-20.072306 -24.235648 32.551500 45.275427 0.879087 0.768483 0.094372 -0.017234 -69409.200000 0 0 1
-19.432906 -24.111348 31.137509 43.915139 0.892429 0.782663 0.090001 -0.018990 -130116.000000 0 0 1
-18.838306 -22.850548 30.905159 42.803717 0.881345 0.764078 0.070879 -0.022205 -57435.600000 0 0 1
-18.170706 -22.783748 29.662499 41.582900 0.897564 0.776552 0.068673 -0.026370 61645.000000 0 0 1
-17.213306 -21.622448 29.436489 40.377408 0.898447 0.753887 0.047029 -0.024306 197004.000000 0 0 1
-18.003506 -20.439148 29.411499 40.086423 0.848671 0.747042 0.043619 -0.022710 322147.000000 0 0 1
-17.211706 -19.256848 29.255089 39.024726 0.841419 0.723255 0.049681 -0.025380 160836.000000 0 0 1
-16.617606 -18.657648 30.563859 39.476602 0.843166 0.685303 0.064419 -0.030327 -53725.300000 0 0 1
-16.172706 -17.361048 30.335679 38.512541 0.820821 0.663757 0.077886 -0.032623 -316309.000000 0 0 1
-15.469006 -16.873848 31.441447 38.891921 0.828807 0.629314 0.080522 -0.034951 -439928.000000 0 0 1
-14.751906 -15.586148 31.087949 37.775750 0.812889 0.604194 0.092421 -0.032932 146464.000000 0 0 1
-13.553606 -15.768648 30.309719 36.756354 0.860796 0.601281 0.109464 -0.043881 688472.000000 0 0 1
-13.083106 -14.456548 29.934329 35.724270 0.835228 0.577323 0.082849 -0.036536 381246.000000 0 0 1
-11.571606 -14.439148 29.556589 34.870948 0.895199 0.559352 0.114833 -0.043262 617424.000000 0 0 1
-11.058406 -13.113948 29.242579 33.902690 0.870231 0.530519 0.128802 -0.039886 276607.000000 0 0 1
-9.805806 -12.911248 29.883629 33.998315 0.921257 0.497090 0.118316 -0.037602 319785.000000 0 0 1
-9.446406 -11.384548 29.837909 33.303804 0.878173 0.460274 0.090949 -0.024947 -270552.000000 0 0 1
-10.199406 -10.685548 30.794689 34.154380 0.808671 0.447268 0.079514 -0.018392 248123.000000 0 0 1
-9.941906 -9.277248 30.606809 33.491575 0.750829 0.418090 0.041181 -0.009206 288810.000000 0 0 1
-10.732106 -8.410348 31.671233 34.481575 0.664699 0.406533 0.030836 -0.011811 -309377.000000 0 0 1
-11.982006 -7.986448 31.252219 34.410071 0.587913 0.431764 0.064439 -0.026062 -512483.000000 0 0 1
-12.820206 -7.406448 32.255065 35.490877 0.523874 0.430333 0.060174 -0.023712 182472.000000 0 0 1
-12.500206 -5.929048 32.744177 35.547009 0.442890 0.399768 0.041540 -0.023141 -357083.000000 0 0 1
-12.812406 -4.941948 31.831058 34.666942 0.368132 0.407293 0.048288 -0.032233 126447.000000 0 0 1
-12.901206 -3.633648 32.397412 35.060474 0.274540 0.392270 0.059188 -0.036447 -417577.000000 0 0 1
-12.411706 -2.504148 31.484745 33.935385 0.199084 0.382364 0.065818 -0.035926 1019890.000000 0 0 1
-10.972506 -2.405448 31.498180 33.441253 0.215811 0.342566 0.069385 -0.035505 926447.000000 0 0 1
-10.420806 -1.411348 30.679979 32.432178 0.134617 0.330213 0.070167 -0.028338 762305.000000 0 0 1
-8.872906 -1.219148 30.861569 32.134891 0.136546 0.282449 0.088886 -0.030693 888237.000000 0 0 1
-8.484806 -0.770448 32.153823 33.263401 0.090555 0.259015 0.107842 -0.049062 923528.000000 0 0 1
-7.172506 -0.164248 32.185874 32.975783 0.022896 0.219319 0.126942 -0.044252 958060.000000 0 0 1
-6.763006 0.519352 33.537459 34.216504 -0.076643 0.199557 0.152014 -0.057979 -274788.000000 0 0 1
-7.546706 1.636352 -33.564559 34.441400 -0.213525 2.915461 0.147037 -0.057506 93281.300000 0 0 1
-7.013206 2.822952 33.236643 34.085606 -0.382676 0.223655 0.158125 -0.053156 135099.000000 0 0 1
-7.966206 4.035052 33.317139 34.493098 -0.468851 0.261871 0.152443 -0.048291 140498.000000 0 0 1
-9.126406 3.846352 32.501266 33.976727 -0.398863 0.295782 0.118591 -0.034056 405144.000000 0 0 1
-9.907906 5.018252 32.718822 34.552435 -0.468826 0.327242 0.104249 -0.015400 -575167.000000 0 0 1
-11.223006 4.990352 31.926653 34.207757 -0.418399 0.367256 0.093478 -0.007852 49018.700000 0 0 1
-11.924906 6.205152 32.358831 35.039995 -0.479797 0.393735 0.094902 -0.002199 567032.000000 0 0 1
-13.126606 6.496352 31.665349 34.888461 -0.459559 0.433225 0.066093 0.002280 199801.000000 0 0 1
-13.683906 7.903752 31.878621 35.580402 -0.523782 0.460208 0.088379 -0.012813 298153.000000 0 0 1
-14.473606 8.071852 33.083141 37.001814 -0.508732 0.464390 0.076427 -0.015140 448618.000000 0 0 1
-15.143706 9.304552 33.216259 37.672621 -0.550953 0.491326 0.089258 -0.011159 -74863.600000 0 0 1
-15.955506 9.241252 -32.918459 37.730675 -0.524977 2.631008 0.073568 -0.006255 -281333.000000 0 0 1
-15.118106 9.282852 -31.801219 36.414915 -0.550666 2.632736 0.076782 -0.010506 141815.000000 0 0 1
-15.868906 9.660052 -30.633389 35.826573 -0.546822 2.596437 0.077965 -0.013567 220839.000000 0 0 1
-14.903406 10.122352 -29.443799 34.518268 -0.596627 2.592487 0.084106 -0.026401 697920.000000 0 0 1
-14.117306 11.247252 -29.697269 34.752364 -0.672725 2.595460 0.105758 -0.030039 -831612.000000 0 0 1
-12.970806 10.972152 -30.424149 34.846216 -0.702116 2.632316 0.097044 -0.037558 -1206530.000000 0 0 1
-12.236206 12.299452 -30.663799 35.231660 -0.787976 2.626705 0.098866 -0.034116 -213816.000000 0 0 1
-12.935006 13.047652 -31.635069 36.583237 -0.789734 2.615433 0.095135 -0.030643 354695.000000 0 0 1
-12.336806 14.336252 -31.763349 36.968030 -0.860219 2.604522 0.096484 -0.038201 -59590.900000 0 0 1
-12.712306 15.427452 -30.712589 36.645220 -0.881588 2.564599 0.105206 -0.036867 763244.000000 0 0 1
-14.068106 15.865952 -30.901589 37.477303 -0.845386 2.540188 0.100508 -0.029879 976998.000000 0 0 1
-14.443206 16.857952 -29.941749 37.273383 -0.862391 2.503614 0.075652 -0.021350 56218.300000 0 0 1
-15.877106 17.419452 -30.046469 38.187827 -0.831687 2.476416 0.067700 -0.030983 -94629.500000 0 0 1
-15.933706 18.263552 -31.184839 39.496006 -0.853423 2.480903 0.077908 -0.034429 99250.400000 0 0 1
-17.185106 18.822552 -31.533649 40.546114 -0.830842 2.461832 0.073003 -0.033484 440159.000000 0 0 1
-17.762406 20.024352 -30.643189 40.687624 -0.845188 2.423608 0.038245 -0.026996 -52132.700000 0 0 1
-17.094306 21.245152 -30.918119 41.225015 -0.893244 2.418835 0.046993 -0.024172 145888.000000 0 0 1
-17.510606 22.418852 -30.203999 41.491057 -0.907708 2.386144 0.024334 -0.017244 641770.000000 0 0 1
-18.910306 23.025152 -30.626499 42.728676 -0.883208 2.369951 0.033273 -0.013408 783653.000000 0 0 1
-19.997706 22.429852 -29.941469 42.420491 -0.842660 2.354384 0.034195 -0.021824 -198093.000000 0 0 1
-21.047906 22.291752 -30.856599 43.497888 -0.814090 2.359417 0.062787 -0.023714 -1403630.000000 0 0 1
-22.206906 21.413952 -30.357209 43.281222 -0.767222 2.348148 0.073102 -0.032865 -335079.000000 0 0 1
-23.106306 22.071352 -29.435549 43.445339 -0.762494 2.315196 0.130213 -0.031286 713009.000000 0 0 1
-23.919506 23.127352 -29.930129 44.752987 -0.768562 2.303370 0.134659 -0.023255 -138490.000000 0 0 1
-25.224036 22.597552 -30.622029 45.657530 -0.730531 2.305934 0.150694 -0.039691 15989.800000 0 0 1
-24.918906 21.830052 -31.767369 45.898462 -0.719421 2.335222 0.139802 -0.037015 190274.000000 0 0 1
-26.125966 21.410652 -32.364039 46.780478 -0.686528 2.334814 0.161575 -0.036825 72776.500000 0 0 1
-25.824246 20.704152 -33.703529 47.238559 -0.675797 2.365242 0.145948 -0.021426 -70367.100000 0 0 1
-25.560506 19.352252 -33.490179 46.362067 -0.648039 2.378008 0.146014 -0.026440 113077.000000 0 0 1
-25.715756 18.693752 32.674657 45.589359 -0.628577 0.771714 0.117444 -0.037779 -96114.100000 0 0 1
-25.074096 17.280552 32.581960 44.597218 -0.603427 0.751621 0.088392 -0.013018 -416430.000000 0 0 1
-25.747056 16.257852 33.271404 45.102272 -0.563221 0.741157 0.101032 -0.010744 170604.000000 0 0 1
-26.167546 15.330652 32.285523 44.295873 -0.529961 0.754140 0.087370 -0.011680 -616364.000000 0 0 1
-26.996256 14.140152 32.856281 44.813803 -0.482492 0.747820 0.075211 -0.000545 -2062200.000000 0 0 1
-28.262856 14.564652 33.162256 45.941847 -0.475835 0.764352 0.083337 0.000242 -1163500.000000 0 0 1
-29.210216 13.660252 32.586978 45.844851 -0.437437 0.780147 0.080285 0.013779 -17693.300000 0 0 1
-29.455916 12.282152 33.252183 46.089152 -0.395047 0.764866 0.075999 0.009553 -1092690.000000 0 0 1
-28.402416 11.358352 33.324359 45.235189 -0.380427 0.742632 0.067935 0.003822 -588754.000000 0 0 1
-28.815276 10.040452 33.593019 45.383056 -0.335286 0.737413 0.079889 -0.001310 -533114.000000 0 0 1
-27.628866 9.065152 -33.652229 44.474754 -0.317037 2.428984 0.066819 -0.007249 51858.200000 0 0 1
-26.724506 8.805552 32.708304 43.145917 -0.318291 0.710424 0.050743 -0.008833 53514.500000 0 0 1
-25.772946 9.826652 32.579944 42.687944 -0.364263 0.702527 0.041120 -0.006709 -664010.000000 0 0 1
-24.500206 9.450152 31.767813 41.216009 -0.368133 0.690757 0.033316 -0.006508 18870.300000 0 0 1
-24.740906 9.304352 30.430429 40.307498 -0.359710 0.715208 0.035371 -0.009309 -97380.300000 0 0 1
-23.617206 8.831152 29.738739 38.989156 -0.357831 0.703251 0.046937 -0.014453 57739.400000 0 0 1
-23.892006 8.771152 28.220929 38.002393 -0.351841 0.733838 0.072953 -0.025026 -35546.800000 0 0 1
-24.301006 10.010452 27.732599 38.207919 -0.390753 0.758551 0.041901 -0.022439 145832.000000 0 0 1
-24.246406 10.107952 26.322639 37.187904 -0.394977 0.784378 0.055500 -0.021130 -729196.000000 0 0 1
-24.445506 11.529752 25.713879 37.305784 -0.440712 0.810311 0.056345 -0.020629 503361.000000 0 0 1
-25.721066 12.148252 25.853179 38.438784 -0.441249 0.833106 0.052152 -0.015740 693531.000000 0 0 1
-26.742146 11.550552 25.021529 38.400971 -0.407720 0.861123 0.061799 -0.014813 486034.000000 0 0 1
-28.147376 12.162052 25.282179 39.741400 -0.407856 0.881276 0.061746 -0.017204 269329.000000 0 0 1
-28.158976 13.489952 24.752889 39.844852 -0.446759 0.900483 0.069968 -0.018787 -409243.000000 0 0 1
-29.328566 14.150252 25.125409 41.130045 -0.449528 0.913628 0.068666 -0.024883 -308692.000000 0 0 1
-29.302856 15.525352 24.484689 41.221280 -0.487221 0.934797 0.079504 -0.023380 -409420.000000 0 0 1
-28.352736 16.410252 24.957869 41.183361 -0.524677 0.919751 0.087807 -0.026062 -397962.000000 0 0 1
-28.219166 17.573652 24.173119 41.103458 -0.556984 0.942083 0.062040 -0.026815 -350633.000000 0 0 1
-24.250006 -8.521548 31.291419 40.494845 0.337925 0.687672 0.109819 -0.030117 496203.000000 0 0 1
-23.159206 -7.924948 30.561339 39.155448 0.329704 0.675310 0.116764 -0.042898 745449.000000 0 0 1
-23.202506 -8.439548 29.224299 38.257573 0.348858 0.701488 0.110688 -0.038736 88000.200000 0 0 1
-21.819006 -8.287148 28.561509 36.885033 0.362984 0.685127 0.136613 -0.041346 -438553.000000 0 0 1
-21.523806 -7.009448 28.096029 36.080375 0.314829 0.678195 0.139996 -0.043919 221678.000000 0 0 1
-20.223106 -6.537048 28.379449 35.455608 0.312645 0.642797 0.128852 -0.043097 -251348.000000 0 0 1
-18.986906 -6.976748 27.576979 34.200400 0.352136 0.632867 0.117982 -0.040125 -391590.000000 0 0 1
-18.580506 -8.343148 27.775389 34.442932 0.422044 0.632727 0.116099 -0.043213 147356.000000 0 0 1
-18.050706 -8.671448 28.991929 35.235691 0.447840 0.604476 0.106513 -0.040931 -1024790.000000 0 0 1
-16.595906 -8.428848 29.420269 34.814104 0.469937 0.564105 0.093564 -0.035434 198569.000000 0 0 1
-15.542206 -9.194748 28.863959 34.047492 0.534219 0.559057 0.084381 -0.028550 -497591.000000 0 0 1
-14.271806 -8.684848 29.065879 33.525160 0.546669 0.521672 0.080198 -0.038318 -675645.000000 0 0 1
-13.102406 -9.506148 28.551779 32.821395 0.627653 0.515769 0.068591 -0.030921 -445246.000000 0 0 1
-12.835006 -9.308148 27.163989 31.452524 0.627450 0.528329 0.081999 -0.032459 462592.000000 0 0 1
-11.712306 -10.122748 26.795509 30.945879 0.712728 0.523884 0.105552 -0.031378 484622.000000 0 0 1
-11.252906 -10.051748 25.315359 29.470883 0.729078 0.537492 0.093141 -0.030487 170043.000000 0 0 1
-12.141906 -10.671448 24.391719 29.261949 0.721031 0.585267 0.085624 -0.036175 86455.800000 0 0 1
-11.680906 -10.525548 23.066839 27.916121 0.733417 0.598306 0.097891 -0.047067 20181.100000 0 0 1
-12.800706 -10.820548 22.050789 27.698008 0.701764 0.649949 0.123158 -0.057053 -428951.000000 0 0 1
-13.078706 -12.203548 21.973689 28.334116 0.750796 0.683257 0.119657 -0.048509 454267.000000 0 0 1
-14.423306 -12.412848 21.579889 28.771551 0.710622 0.722670 0.114336 -0.043317 -377313.000000 0 0 1
-15.515506 -12.367348 22.604119 30.077042 0.672968 0.720402 0.106232 -0.040042 -1171200.000000 0 0 1
-16.762306 -12.785148 22.108789 30.548870 0.651600 0.761620 0.075943 -0.029666 -101786.000000 0 0 1
-17.778906 -12.734048 23.099739 31.809486 0.621545 0.758032 0.072086 -0.025070 -210415.000000 0 0 1
-19.067506 -13.351648 22.531939 32.396367 0.610881 0.801669 0.085252 -0.025822 -896243.000000 0 0 1
-18.976006 -14.744548 22.186289 32.706604 0.660565 0.825292 0.080075 -0.019403 1285670.000000 0 0 1
-20.232806 -15.491548 22.258589 33.834883 0.653451 0.852824 0.062226 -0.016145 1186510.000000 0 0 1
-21.028506 -15.500248 23.588959 35.197937 0.635198 0.836345 0.062830 -0.014685 -637473.000000 0 0 1
-20.461606 -16.257848 24.618149 35.903318 0.671411 0.815260 0.053989 -0.013874 -204350.000000 0 0 1
-21.172406 -16.131548 25.816449 37.080813 0.651082 0.800677 0.049888 -0.014428 -504496.000000 0 0 1
-20.790406 -17.015248 26.984909 38.078143 0.685871 0.783182 0.048235 -0.015064 -227273.000000 0 0 1
-21.094606 -18.409848 26.858879 38.798251 0.717542 0.806166 0.053533 -0.009457 96153.100000 0 0 1
-20.787506 -19.078848 28.039049 39.778275 0.742565 0.788537 0.044133 -0.013325 -430699.000000 0 0 1
-20.676006 -20.641648 27.861649 40.371356 0.784567 0.809122 0.052966 -0.009502 359758.000000 0 0 1
-21.958606 -21.206448 27.543109 41.115893 0.767975 0.836736 0.054641 -0.005236 644963.000000 0 0 1
-21.816906 -22.559148 27.126529 41.481817 0.802123 0.858019 0.069352 -0.001639 -12591.700000 0 0 1
-23.139906 -23.203148 26.704409 42.272530 0.786763 0.887026 0.073009 0.006689 -200907.000000 0 0 1
-24.023706 -23.598948 27.703619 43.606643 0.776479 0.882390 0.063321 0.012211 67597.200000 0 0 1
-25.280006 -24.009648 27.189809 44.213433 0.759631 0.908452 0.051244 0.013651 289711.000000 0 0 1
-26.069196 -24.973748 28.093519 45.744255 0.763940 0.909497 0.037649 0.010972 -20201.700000 0 0 1
-26.665366 -24.361548 29.251319 46.477591 0.740280 0.890062 0.031717 0.012773 282532.000000 0 0 1
-27.356806 -25.365448 29.985559 47.863708 0.747645 0.893770 0.015097 0.019446 -36384.500000 0 0 1
-28.469616 -24.799448 30.899969 48.788726 0.716608 0.884932 0.038447 0.004186 305260.000000 0 0 1
-29.560926 -24.337548 30.102229 48.706353 0.688788 0.904556 0.041726 -0.001414 -362224.000000 0 0 1
-30.490106 -23.653548 30.848269 49.403974 0.659796 0.896422 0.057195 -0.021018 -648873.000000 0 0 1
-31.712446 -23.155348 30.036939 49.437507 0.630686 0.917794 0.066472 -0.030783 -233430.000000 0 0 1
-32.673526 -24.198548 29.924629 50.483784 0.637468 0.936318 0.070971 -0.034399 737901.000000 0 0 1
-33.716766 -23.903948 28.971839 50.473622 0.616716 0.959414 0.071653 -0.035122 -314985.000000 0 0 1
-35.117522 -24.154348 29.449619 51.806881 0.602501 0.966176 0.080312 -0.033087 -1100930.000000 0 0 1
-35.326843 -25.541958 29.355639 52.555980 0.626008 0.978148 0.084293 -0.038104 361162.000000 0 0 1
-36.482646 -26.005578 30.071209 53.958792 0.619279 0.979666 0.088726 -0.030097 553969.000000 0 0 1
-36.557856 -27.514108 30.315919 54.886774 0.645175 0.985633 0.093204 -0.034965 345628.000000 0 0 1
-35.420111 -27.954508 31.058719 54.778489 0.668137 0.967952 0.082219 -0.035406 260696.000000 0 0 1
-35.269864 -29.348668 31.227409 55.501880 0.694020 0.973224 0.086031 -0.043061 429683.000000 0 0 1
-34.106042 -29.726868 32.198325 55.530541 0.716902 0.952275 0.074798 -0.034200 439430.000000 0 0 1
-34.478166 -29.544688 33.538499 56.448768 0.708492 0.934600 0.080528 -0.033910 319020.000000 0 0 1
-33.444026 -30.070348 -33.057769 55.817066 0.732331 2.204647 0.064608 -0.030311 463424.000000 0 0 1
-33.851996 -29.740768 -31.594709 55.033595 0.720839 2.182299 0.068860 -0.033922 283512.000000 0 0 1
-33.863926 -28.360718 -31.183529 54.069477 0.697187 2.185517 0.064792 -0.020276 -445952.000000 0 0 1
-32.602686 -27.830288 -30.879719 52.830078 0.706592 2.195073 0.055240 -0.021423 -316015.000000 0 0 1
-32.714126 -26.308408 -30.755389 52.040757 0.677291 2.203078 0.047267 -0.018034 45711.100000 0 0 1
-33.497956 -25.768768 -29.694899 51.652004 0.655716 2.183282 0.045090 -0.022451 51267.700000 0 0 1
-33.626206 -24.376648 -29.664459 51.038445 0.627262 2.191021 0.043744 -0.015024 -86310.300000 0 0 1
-32.373146 -23.762448 -28.996679 49.532635 0.633193 2.196177 0.050327 -0.022040 -143733.000000 0 0 1
-32.388276 -22.314148 -28.959279 48.842210 0.603276 2.205470 0.046846 -0.016666 71937.600000 0 0 1
-31.264906 -21.840548 -28.243329 47.457239 0.609762 2.208226 0.081915 -0.023748 29649.600000 0 0 1
-31.114566 -20.320848 -28.358389 46.746672 0.578550 2.222623 0.096107 -0.033435 -143993.000000 0 0 1
-30.712556 -19.869848 -29.610329 47.062125 0.574236 2.251288 0.103309 -0.020172 122047.000000 0 0 1
-30.349436 -18.519948 -29.605959 46.266506 0.547903 2.265165 0.082204 -0.022939 24075.100000 0 0 1
-29.677336 -18.187248 -30.994659 46.606751 0.549802 2.298324 0.095664 -0.021775 563749.000000 0 0 1
-30.577136 -17.989848 -32.089189 47.836304 0.531804 2.306100 0.083182 -0.027869 549612.000000 0 0 1
-31.404156 -16.819548 -32.055989 47.923947 0.491708 2.303515 0.077067 -0.024255 95376.600000 0 0 1
-31.936136 -16.262748 -33.401819 48.990564 0.471002 2.321018 0.079584 -0.038142 -109408.000000 0 0 1
-32.923586 -16.996048 33.348439 49.849238 0.476545 0.837953 0.093352 -0.042730 755747.000000 0 0 1
-34.248914 -16.449548 33.512069 50.661963 0.447759 0.848001 0.091610 -0.033420 1116320.000000 0 0 1
-35.327222 -17.149748 32.634880 51.060375 0.451943 0.877413 0.101959 -0.039953 148572.000000 0 0 1
-35.464217 -18.502148 32.994776 51.852632 0.480867 0.881080 0.080777 -0.037907 -226465.000000 0 0 1
-36.384346 -19.194648 32.223410 52.255175 0.485446 0.906310 0.091126 -0.040787 -530321.000000 0 0 1
-36.637596 -20.638748 32.698895 53.268087 0.513013 0.909861 0.079440 -0.038412 859712.000000 0 0 1
-35.442456 -21.442048 32.570607 52.695100 0.544075 0.904479 0.086398 -0.041487 901833.000000 0 0 1
-35.788985 -22.779648 32.882269 53.675017 0.566825 0.911428 0.091600 -0.042327 318569.000000 0 0 1
-34.478620 -23.614448 33.125350 53.326412 0.600520 0.900548 0.086115 -0.036014 1162880.000000 0 0 1
-33.543796 -23.308848 -33.236969 52.661037 0.607280 2.253830 0.057556 -0.035741 325414.000000 0 0 1
-32.833406 -22.148648 -33.502569 51.875017 0.593459 2.272909 0.057240 -0.035300 -1936630.000000 0 0 1
-31.483466 -22.009648 -32.824869 50.528263 0.610112 2.277899 0.062075 -0.022173 -885402.000000 0 0 1
-30.649676 -23.094648 -33.240069 50.770736 0.645740 2.284594 0.058001 -0.020861 -137208.000000 0 0 1
-29.415156 -23.081648 -32.554509 49.576305 0.665333 2.287171 0.061343 -0.017582 32855.600000 0 0 1
-29.282226 -23.614348 -31.128369 48.826853 0.678655 2.262079 0.065836 -0.007554 -513997.000000 0 0 1
-29.283136 -24.997238 -30.961919 49.406522 0.706603 2.248078 0.058067 -0.013214 -131002.000000 0 0 1
-29.086296 -25.349858 -29.589779 48.622865 0.716867 2.225037 0.057587 -0.016300 -49370.100000 0 0 1
-28.532806 -26.788948 -29.346249 48.918004 0.753886 2.214181 0.061609 -0.016988 63836.600000 0 0 1
-29.477816 -27.767778 -29.706589 50.224223 0.755535 2.203689 0.047627 -0.009715 101858.000000 0 0 1
-29.251206 -28.982898 -28.990969 50.359882 0.780791 2.184227 0.063709 -0.016304 195538.000000 0 0 1
-29.903596 -30.219078 -29.661849 51.838625 0.790645 2.179977 0.049381 -0.000443 32397.600000 0 0 1
-29.231656 -30.498938 -30.842209 52.305992 0.806612 2.201421 0.058885 -0.018558 147131.000000 0 0 1
-29.770166 -31.647098 -31.421659 53.620167 0.815949 2.196915 0.068016 -0.010137 -110995.000000 0 0 1
-29.121396 -31.880638 -32.777489 54.210650 0.830599 2.220100 0.065406 -0.026700 -760500.000000 0 0 1
-27.782686 -32.241108 -32.740009 53.696135 0.859540 2.226513 0.068542 -0.026852 -843768.000000 0 0 1
-27.334426 -32.667968 33.369779 54.110158 0.874054 0.906252 0.082671 -0.031224 991110.000000 0 0 1
-25.796836 -32.966458 33.206099 53.431350 0.906807 0.900176 0.097807 -0.033354 944924.000000 0 0 1
-25.530476 -33.577828 31.937680 52.908328 0.920712 0.922735 0.101042 -0.026368 -99449.200000 0 0 1
-24.692506 32.797095 31.927176 52.006863 -0.925450 0.909801 0.097466 -0.013365 -319565.000000 0 0 1
-24.686406 32.057138 30.557199 50.703265 -0.914570 0.923957 0.112254 -0.022070 802809.000000 0 0 1
-25.985726 31.520212 30.217789 50.812365 -0.881345 0.933912 0.114342 -0.043519 1095820.000000 0 0 1
-25.888306 30.585172 29.172859 49.565238 -0.868377 0.941501 0.124520 -0.037605 106987.000000 0 0 1
-27.257396 29.885602 28.952749 49.743105 -0.831359 0.949554 0.126453 -0.029768 83191.600000 0 0 1
-27.598416 29.171672 30.103209 50.188267 -0.813104 0.927538 0.136100 -0.032935 522744.000000 0 0 1
-28.785696 28.408112 29.857119 50.270117 -0.778796 0.934857 0.132549 -0.028824 384351.000000 0 0 1
-28.921626 27.267102 30.852989 50.317613 -0.755961 0.910736 0.109099 -0.049873 297899.000000 0 0 1
-28.066976 26.109072 30.626559 49.065516 -0.749274 0.896693 0.121864 -0.040422 647036.000000 0 0 1
-28.705956 24.867222 30.885739 48.952421 -0.713866 0.888040 0.124980 -0.037433 896536.000000 0 0 1
-29.879166 24.321202 29.987299 48.821343 -0.683211 0.909393 0.135762 -0.040289 1137120.000000 0 0 1
-29.384126 24.001032 28.665769 47.552105 -0.684903 0.923755 0.119682 -0.035125 552703.000000 0 0 1
-30.471526 23.459442 27.926309 47.526183 -0.656104 0.942709 0.122242 -0.028504 708230.000000 0 0 1
-29.936636 23.303742 26.475999 46.262783 -0.661453 0.961494 0.118407 -0.042210 636108.000000 0 0 1
-28.880676 22.324252 26.426059 45.064423 -0.658048 0.944181 0.108674 -0.038451 341705.000000 0 0 1
-28.227666 22.210152 25.178379 43.863912 -0.666654 0.959400 0.091721 -0.028697 -351249.000000 0 0 1
-26.826256 21.621652 25.365099 42.784718 -0.678382 0.936198 0.074289 -0.026217 -522622.000000 0 0 1
-26.905306 20.372052 25.913719 42.549228 -0.648078 0.915960 0.089310 -0.034035 181729.000000 0 0 1
-25.612466 19.861252 26.117939 41.624686 -0.659593 0.892506 0.074516 -0.020140 -481344.000000 0 0 1
-25.579496 18.807952 27.211659 41.815357 -0.634010 0.862215 0.087912 -0.026886 -63927.600000 0 0 1
-24.315806 18.316252 27.609249 41.097617 -0.645588 0.834164 0.087682 -0.017347 237931.000000 0 0 1
-24.483006 17.546852 28.791619 41.668536 -0.621843 0.807969 0.080901 -0.019905 -130099.000000 0 0 1
-23.399906 16.493952 28.982819 40.738309 -0.613989 0.779253 0.074474 -0.026948 -1002220.000000 0 0 1
-22.195306 16.822152 29.582219 40.629104 -0.648547 0.755244 0.092461 -0.028914 -267426.000000 0 0 1
-21.358906 15.641552 29.496129 39.634362 -0.632089 0.731451 0.079181 -0.026810 95125.000000 0 0 1
-20.019206 15.901152 30.209179 39.575368 -0.671252 0.702340 0.071203 -0.034965 -331486.000000 0 0 1
-20.090306 15.759752 31.609220 40.634135 -0.665184 0.679482 0.055459 -0.021954 687697.000000 0 0 1
-18.963306 16.332252 32.295543 40.857699 -0.710992 0.659270 0.055394 -0.031021 -422306.000000 0 0 1
-19.116106 16.266352 -33.575759 41.920774 -0.705030 2.499649 0.050976 -0.031995 -252603.000000 0 0 1
-20.072206 17.124952 -33.003139 42.253575 -0.706330 2.467179 0.055206 -0.034168 479288.000000 0 0 1
-21.390406 16.594552 -33.174189 42.818868 -0.659806 2.457126 0.057478 -0.019381 -392565.000000 0 0 1
-22.475406 17.317552 -32.375839 43.049233 -0.656500 2.421987 0.067168 -0.033242 -332912.000000 0 0 1
-22.561706 16.908452 -31.015189 41.915013 -0.643137 2.403799 0.067758 -0.032533 -271992.000000 0 0 1
-23.648406 17.572952 -30.465489 42.381621 -0.639066 2.372925 0.071210 -0.029111 -621684.000000 0 0 1
-23.694906 17.548452 -28.888769 41.279023 -0.637458 2.345972 0.083331 -0.027497 142665.000000 0 0 1
-24.296106 16.423552 -28.215649 40.695905 -0.594419 2.336895 0.077200 -0.030324 -668970.000000 0 0 1
-25.661836 16.623152 -28.043559 41.488555 -0.574811 2.313029 0.093039 -0.024566 -446315.000000 0 0 1
-26.323476 15.454152 -27.237629 40.910202 -0.530870 2.299349 0.085835 -0.021007 90639.000000 0 0 1
-26.350026 14.140152 -27.811859 40.838307 -0.492519 2.319956 0.057270 -0.008103 230516.000000 0 0 1
-27.232146 13.406052 -26.967069 40.602153 -0.457459 2.297190 0.035667 -0.010961 192897.000000 0 0 1
-27.141436 11.872152 -27.082989 40.138434 -0.412342 2.311408 0.053832 -0.009473 177414.000000 0 0 1
-26.068806 11.278152 -26.362369 38.752469 -0.408316 2.318935 0.048392 -0.011978 -64921.800000 0 0 1
-25.474836 10.254352 -27.088469 38.573361 -0.382684 2.349361 0.036786 -0.003106 343783.000000 0 0 1
-24.204906 9.657352 -26.398679 37.094908 -0.379630 2.362644 0.073783 -0.011929 295808.000000 0 0 1
-24.578606 8.738752 -25.402959 36.411317 -0.341604 2.342932 0.054790 -0.017873 -277476.000000 0 0 1
-23.509406 8.247552 -24.621879 35.027864 -0.337404 2.350295 0.104978 -0.011214 -167927.000000 0 0 1
-23.907206 7.247652 -23.443779 34.259214 -0.294351 2.324448 0.099009 0.000436 13138.100000 0 0 1
-24.282006 5.974252 -23.930679 34.611919 -0.241245 2.334221 0.105199 -0.020742 178657.000000 0 0 1
-24.473606 5.127752 -22.876279 33.890639 -0.206534 2.311765 0.111723 -0.011665 -417505.000000 0 0 1
36.732041 24.739752 -9.864979 45.371973 0.592732 1.789971 0.062063 -0.005319 -282792.000000 0 0 1
37.783511 24.224352 -9.122179 45.799859 0.570118 1.771312 0.070388 -0.003944 -367275.000000 0 0 1
-37.584406 23.174752 -9.786579 45.226473 -0.552540 1.788912 0.092115 -0.014509 223782.000000 0 0 1
-36.614386 22.377552 -8.891279 43.822631 -0.548591 1.775107 0.124209 -0.021379 -4827.050000 0 0 1
-37.250626 21.675952 -7.848579 43.807034 -0.527001 1.750931 0.092723 -0.012015 241057.000000 0 0 1
-36.281146 21.006852 -7.023879 42.508167 -0.524837 1.736794 0.137530 -0.013525 -50628.900000 0 0 1
-36.878646 20.191252 -5.838479 42.447721 -0.500926 1.708779 0.111255 -0.001248 -118658.000000 0 0 1
-37.517406 18.995952 -6.160379 42.501203 -0.468694 1.716255 0.082665 0.002778 272063.000000 0 0 1
37.995491 18.357352 -5.003879 42.493393 0.450073 1.688827 0.086436 -0.003848 -148136.000000 0 0 1
37.110011 17.149252 -5.320079 41.225635 0.432886 1.700205 0.072884 0.007484 949724.000000 0 0 1
35.834601 17.336952 -5.978879 40.254633 0.450608 1.719874 0.075368 0.008434 1072170.000000 0 0 1
35.398831 16.201552 -6.779579 39.516202 0.429227 1.743214 0.090669 -0.000457 155581.000000 0 0 1
34.299441 16.488452 -7.808979 38.849721 0.448106 1.773180 0.077690 -0.000014 -19079.100000 0 0 1
33.970251 15.310952 -8.536879 38.226712 0.423450 1.796018 0.096624 -0.005613 267295.000000 0 0 1
33.342651 15.634452 -9.793879 38.106279 0.438462 1.830728 0.065930 -0.002557 -342517.000000 0 0 1
32.995731 14.368152 -10.627379 37.524701 0.410693 1.857936 0.069184 -0.011803 1624930.000000 0 0 1
31.694061 13.711952 -10.398779 36.064743 0.408320 1.863285 0.074622 -0.007445 1904610.000000 0 0 1
31.458161 13.267252 -9.045379 35.319325 0.399109 1.829785 0.096002 -0.012208 -431195.000000 0 0 1
30.486091 12.084152 -9.063379 34.023129 0.377384 1.840441 0.104937 -0.004999 -199050.000000 0 0 1
31.122901 10.950952 -9.580279 34.356077 0.338332 1.853395 0.103253 -0.007736 -331727.000000 0 0 1
30.273191 9.891852 -9.635979 33.274118 0.315816 1.864599 0.153778 -0.009971 -827661.000000 0 0 1
30.868091 8.577352 -10.210379 33.625315 0.271034 1.879319 0.151356 -0.008585 -369371.000000 0 0 1
32.001501 8.116152 -9.536279 34.364351 0.248381 1.851992 0.130494 -0.022182 82291.200000 0 0 1
31.900581 6.709352 -9.285279 33.895116 0.207299 1.848285 0.155476 -0.026265 -303199.000000 0 0 1
32.993561 6.296252 -8.262579 34.590288 0.188566 1.811998 0.151697 -0.020407 -998294.000000 0 0 1
34.244301 6.611152 -8.732079 35.953145 0.190712 1.816124 0.111962 -0.021140 -1143220.000000 0 0 1
35.175471 6.462352 -7.688279 36.581216 0.181691 1.782545 0.114293 -0.015726 362063.000000 0 0 1
36.678891 6.642152 -8.071579 38.139344 0.179148 1.784043 0.127983 -0.020377 557627.000000 0 0 1
37.069321 5.628452 -9.002079 38.559713 0.150685 1.806429 0.158576 -0.024243 -559001.000000 0 0 1
-37.631296 5.765152 -9.282579 39.185683 -0.152019 1.809957 0.162738 -0.022668 -1128170.000000 0 0 1
-37.296276 5.030052 -10.564979 39.088776 -0.134058 1.844482 0.168979 -0.035854 429855.000000 0 0 1
-35.930471 5.079752 -11.011279 37.921642 -0.140446 1.865409 0.185948 -0.041934 975997.000000 0 0 1
-35.663419 6.189952 -11.914179 38.106990 -0.171854 1.888779 0.172824 -0.038789 -65620.200000 0 0 1
-34.961786 7.406952 -11.198879 37.451359 -0.208772 1.874467 0.167083 -0.019816 -408297.000000 0 0 1
-35.749483 8.043952 -10.226079 38.043441 -0.221323 1.842943 0.177548 -0.016375 -5350.470000 0 0 1
-36.527016 9.095852 -10.731879 39.142441 -0.244053 1.848528 0.154482 -0.021364 -260533.000000 0 0 1
-37.049506 9.961852 -9.574879 39.542164 -0.262667 1.815371 0.116013 -0.015620 7838.010000 0 0 1
-36.088206 10.687352 -8.830679 38.659527 -0.287917 1.801253 0.137133 -0.008050 214881.000000 0 0 1
-36.744206 11.483952 -7.840179 39.287228 -0.302919 1.771706 0.110814 -0.010733 138986.000000 0 0 1
-35.759985 12.171252 -6.873979 38.394889 -0.328061 1.750801 0.146293 -0.013494 -133309.000000 0 0 1
-34.953370 13.091152 -7.519579 38.074406 -0.358360 1.769600 0.139505 -0.016970 -317602.000000 0 0 1
-34.273145 13.998652 -6.658679 37.615805 -0.387764 1.748752 0.176941 -0.020397 167741.000000 0 0 1
-33.518916 15.052652 -7.499979 37.501330 -0.422088 1.772146 0.140384 -0.017552 -211877.000000 0 0 1
-34.420111 15.831652 -8.230179 38.770106 -0.431100 1.784705 0.112370 -0.013709 -261627.000000 0 0 1
-33.823856 17.030752 -8.598579 38.833431 -0.466454 1.794069 0.099787 -0.007973 -182005.000000 0 0 1
-34.439644 17.772652 -9.786179 39.971559 -0.476407 1.818139 0.074296 -0.014377 -360844.000000 0 0 1
-34.059292 17.309052 -11.045679 39.769909 -0.470189 1.852237 0.058746 -0.013538 -167137.000000 0 0 1
-34.798652 17.860152 -12.126579 40.951009 -0.474185 1.871428 0.057369 -0.004522 -253802.000000 0 0 1
-34.023022 18.060952 -13.443179 40.798077 -0.488018 1.906576 0.019856 -0.011553 -161384.000000 0 0 1
-33.267636 19.269252 -13.356479 40.699327 -0.524999 1.905167 0.026443 -0.019292 76190.800000 0 0 1
-33.058026 19.867952 -14.655979 41.259742 -0.541156 1.933938 0.006281 -0.014085 -302807.000000 0 0 1
-32.197936 21.157652 -14.581279 41.194260 -0.581359 1.932602 0.023383 -0.015627 389228.000000 0 0 1
-30.851076 20.877752 -14.136479 39.843563 -0.594935 1.933496 0.038824 -0.012214 998400.000000 0 0 1
-30.061026 22.023452 -13.891479 39.770227 -0.632288 1.927613 0.053684 -0.013258 228901.000000 0 0 1
-29.380256 22.604552 -15.153679 40.047462 -0.655789 1.958856 0.048492 -0.013627 -536648.000000 0 0 1
-30.373436 23.153552 -16.014979 41.413913 -0.651324 1.967853 0.051866 0.004675 276495.000000 0 0 1
-29.905066 23.677952 -17.230479 41.855081 -0.669703 1.995082 0.060308 0.006404 220248.000000 0 0 1
-29.157446 25.047752 -17.145379 42.089317 -0.709726 1.990355 0.084490 0.003292 637790.000000 0 0 1
-30.103166 26.102652 -17.015079 43.325073 -0.714342 1.974395 0.101502 -0.006820 791265.000000 0 0 1
-29.471066 27.383952 -17.237679 43.767136 -0.748705 1.975613 0.104289 -0.011938 392692.000000 0 0 1
-30.407736 28.558052 -16.847079 44.989075 -0.754040 1.954622 0.107876 -0.017123 -7652.880000 0 0 1
-30.496046 28.729452 -15.447079 44.654255 -0.755579 1.924022 0.098577 -0.024086 -452311.000000 0 0 1
-29.473246 29.453252 -14.892979 44.248922 -0.785059 1.914071 0.100483 -0.022494 -867486.000000 0 0 1
-29.551936 29.741452 -13.411679 44.019814 -0.788594 1.880392 0.115960 -0.029127 -248152.000000 0 0 1
-30.575836 30.670152 -13.110179 45.248390 -0.786938 1.864749 0.108450 -0.026864 -45014.700000 0 0 1
-30.345516 31.585552 -12.091179 45.438905 -0.805418 1.840139 0.112173 -0.031058 1027520.000000 0 0 1
-29.039606 32.510352 -12.241079 45.277652 -0.841728 1.844559 0.110228 -0.034432 1317720.000000 0 0 1
-29.216116 33.420152 -13.281379 46.334469 -0.852416 1.861516 0.101841 -0.036533 367638.000000 0 0 1
-28.143786 -33.120848 -13.265179 45.442582 0.866459 1.867020 0.112852 -0.035714 171496.000000 0 0 1
-28.266326 -31.995448 -14.313579 45.028574 0.847201 1.894287 0.101207 -0.028036 -13178.600000 0 0 1
-27.869976 -32.456248 -15.651479 45.553402 0.861277 1.921528 0.085424 -0.023369 4565.940000 0 0 1
-28.407846 -31.725148 -16.705779 45.744659 0.840508 1.944640 0.087242 -0.014713 -162670.000000 0 0 1
-27.758646 -32.116648 -18.059779 46.132171 0.858055 1.973035 0.080110 -0.015045 24024.100000 0 0 1
-28.016836 -33.426648 -18.562979 47.401141 0.873217 1.973182 0.081161 -0.011056 -173165.000000 0 0 1
-27.381326 33.023952 -17.857679 46.467356 -0.878541 1.965252 0.070412 -0.027627 -710484.000000 0 0 1
-27.569366 31.716752 -18.606079 45.958769 -0.855240 1.987603 0.081779 -0.032899 361533.000000 0 0 1
-28.886216 31.243252 -18.812179 46.523675 -0.824577 1.987072 0.101841 -0.027503 28906.200000 0 0 1
-29.715126 32.006952 -19.657779 47.894279 -0.822512 1.993734 0.088228 -0.030871 -801422.000000 0 0 1
-31.184476 31.551652 -19.602179 48.499729 -0.791251 1.986869 0.083231 -0.032750 -232477.000000 0 0 1
-31.436436 30.228052 -20.059179 48.003701 -0.765805 2.001893 0.087685 -0.027720 -166757.000000 0 0 1
-32.816656 30.131552 -20.287379 48.953254 -0.742768 1.998106 0.094428 -0.029081 -394882.000000 0 0 1
-33.204616 28.774952 -20.882979 48.648157 -0.714050 2.014476 0.098311 -0.027505 -1040180.000000 0 0 1
-34.516352 28.560352 -21.276679 49.596062 -0.691253 2.014181 0.096553 -0.025092 -696721.000000 0 0 1
-34.623025 27.264452 -21.796579 49.164978 -0.667051 2.030113 0.105101 -0.021415 -280902.000000 0 0 1
-36.058326 26.728152 -21.855779 49.922661 -0.637876 2.023939 0.110763 -0.025583 256446.000000 0 0 1
-36.947386 27.356352 -22.808979 51.319868 -0.637338 2.031354 0.105168 -0.024208 53976.900000 0 0 1
37.960921 26.598452 -22.993579 51.741800 0.611182 2.031290 0.103682 -0.019492 -92220.200000 0 0 1
36.928181 27.007252 -24.069379 51.695427 0.631455 2.055109 0.098720 -0.022035 -12448.900000 0 0 1
37.475411 26.945852 -25.325979 52.648747 0.623382 2.072633 0.128245 -0.033798 -519245.000000 0 0 1
36.566341 27.276252 -26.326839 52.670615 0.640897 2.094209 0.108876 -0.031303 -296785.000000 0 0 1
37.236791 27.457552 -27.688489 53.917976 0.635373 2.110090 0.103118 -0.033829 -67032.100000 0 0 1
37.755801 26.281952 -28.241019 53.979595 0.608106 2.121374 0.097321 -0.026119 56321.600000 0 0 1
-37.589216 26.543752 -29.465669 54.641977 -0.614844 2.140342 0.072374 -0.019766 -1315060.000000 0 0 1
-37.060606 25.240452 -30.083349 53.996082 -0.597900 2.161733 0.056545 -0.015847 91057.300000 0 0 1
-35.991626 24.726152 -29.333819 52.604683 -0.601946 2.162321 0.071941 -0.013975 -106797.000000 0 0 1
-34.754114 25.389752 -29.498079 52.178776 -0.630939 2.171626 0.059082 -0.006531 -868246.000000 0 0 1
-33.562536 24.736952 -28.796899 50.671708 -0.635155 2.175239 0.071513 -0.013292 -756292.000000 0 0 1
-33.233986 23.452452 -29.220679 50.083565 -0.614526 2.193752 0.082432 -0.016152 55290.500000 0 0 1
-33.492126 22.406352 -28.291329 49.235825 -0.589619 2.182922 0.059114 -0.008307 -67066.900000 0 0 1
-33.157036 20.982652 -28.809259 48.678888 -0.564208 2.204114 0.061033 -0.017318 170914.000000 0 0 1
-31.758716 20.721552 -28.760259 47.593605 -0.578108 2.219669 0.109389 -0.025526 348183.000000 0 0 1
-31.558676 19.374652 -29.210059 47.165186 -0.550595 2.238665 0.094348 -0.025135 175646.000000 0 0 1
-30.076966 18.886052 -29.143049 45.941530 -0.560699 2.257965 0.116550 -0.026675 -52391.000000 0 0 1
-29.365626 19.501252 -30.195899 46.415850 -0.586213 2.279107 0.133427 -0.030415 -184246.000000 0 0 1
-28.102476 18.971752 -30.511229 45.613722 -0.593813 2.303531 0.133349 -0.032917 -123650.000000 0 0 1
-28.134026 17.526652 -31.120949 45.466696 -0.557138 2.324684 0.120916 -0.029379 -520975.000000 0 0 1
-28.544236 16.417652 -30.377729 44.800883 -0.521958 2.315918 0.090171 -0.012149 -99272.500000 0 0 1
-28.576856 15.209552 -31.171829 44.940518 -0.489100 2.337304 0.060826 -0.002786 -9951.110000 0 0 1
-29.127526 13.954452 -30.455539 44.392335 -0.446773 2.326848 0.064179 0.004113 772967.000000 0 0 1
-30.540356 14.111152 -30.224719 45.225785 -0.432829 2.302727 0.063023 0.000805 1117780.000000 0 0 1
-31.293766 12.905552 -29.964439 45.207529 -0.391150 2.295375 0.056826 0.002595 375652.000000 0 0 1
-30.953696 12.212652 -28.622579 43.892280 -0.375796 2.281160 0.045318 -0.015828 -449165.000000 0 0 1
-31.355776 12.874352 -27.442609 43.612274 -0.389602 2.251372 0.036130 -0.016283 112087.000000 0 0 1
-31.305846 11.948652 -26.361189 42.634946 -0.364610 2.237374 0.039037 -0.002376 -5813.700000 0 0 1
-31.061376 12.565152 -24.975979 41.791048 -0.384402 2.211350 0.034968 -0.018834 418926.000000 0 0 1
-29.683656 12.757852 -24.691079 40.663640 -0.405924 2.223332 0.030137 -0.022116 87770.000000 0 0 1
-29.640076 13.463752 -23.457579 40.125612 -0.426376 2.195188 0.031601 -0.011836 -406947.000000 0 0 1
-28.261196 13.536052 -22.800279 38.752712 -0.446676 2.199817 0.046877 -0.006900 -1401670.000000 0 0 1
-27.293736 14.154152 -23.557679 38.733091 -0.478406 2.224594 0.071498 -0.007187 168013.000000 0 0 1
-25.982976 14.013752 -22.986579 37.415012 -0.494625 2.232381 0.068003 -0.014126 838964.000000 0 0 1
-25.675636 14.979052 -21.775079 36.847854 -0.528121 2.203027 0.072942 -0.017070 -1158040.000000 0 0 1
-25.747696 16.353952 -22.012679 37.615870 -0.565873 2.195919 0.091577 -0.020307 200006.000000 0 0 1
-26.241466 17.050452 -20.897479 37.630268 -0.576201 2.159564 0.091465 -0.015943 700291.000000 0 0 1
-27.805616 17.199252 -20.857279 38.781344 -0.553950 2.138642 0.087790 -0.020651 685386.000000 0 0 1
-28.484936 15.970352 -20.618579 38.620843 -0.510990 2.133969 0.082520 -0.018654 -254352.000000 0 0 1
-29.619116 16.138752 -19.818279 39.121804 -0.498901 2.102009 0.065380 -0.012314 -493445.000000 0 0 1
-30.648126 14.961152 -19.990679 39.531898 -0.454130 2.100972 0.052421 -0.016736 300244.000000 0 0 1
-31.341646 14.738252 -21.190679 40.602460 -0.439562 2.119881 0.043444 -0.012026 148441.000000 0 0 1
-32.158826 15.808052 -21.610979 41.846374 -0.456874 2.113480 0.042164 -0.015082 -627537.000000 0 0 1
-32.648096 15.723052 -23.051179 42.947286 -0.448813 2.137355 0.032574 -0.008287 -399672.000000 0 0 1
-33.815986 14.983652 -23.270979 43.698618 -0.417096 2.132387 0.044676 -0.010652 160668.000000 0 0 1
-34.411824 15.279952 -24.541279 44.943575 -0.417880 2.148434 0.040907 -0.016278 -20811.400000 0 0 1
-35.610787 14.394852 -24.943479 45.798658 -0.384145 2.146748 0.044695 -0.021865 -170684.000000 0 0 1
-35.512726 13.027652 -25.344659 45.532683 -0.351602 2.161115 0.056218 -0.020113 -104617.000000 0 0 1
-35.236599 12.124952 -24.266179 44.468864 -0.331410 2.148008 0.058436 -0.018965 -154596.000000 0 0 1
-35.335985 10.648952 -24.764579 44.444532 -0.292707 2.161809 0.065056 -0.025015 871564.000000 0 0 1
-36.678546 10.223352 -25.113379 45.612657 -0.271829 2.153854 0.070200 -0.017195 876546.000000 0 0 1
-36.734776 8.953052 -25.730289 45.734546 -0.239061 2.168325 0.074492 -0.009698 -233770.000000 0 0 1
37.953821 8.382652 -26.151689 46.847329 0.217375 2.163050 0.099731 -0.013622 -178225.000000 0 0 1
37.149841 8.002252 -25.051279 45.516077 0.212163 2.153619 0.087250 -0.013437 -51939.300000 0 0 1
36.092831 7.207952 -25.551049 44.805168 0.197113 2.177631 0.109835 -0.013182 123552.000000 0 0 1
35.337051 6.366452 -24.468179 43.450324 0.178251 2.168965 0.116570 -0.024539 97365.600000 0 0 1
36.117171 5.370052 -23.885979 43.632872 0.147603 2.150087 0.093612 -0.023411 -30128.700000 0 0 1
35.354261 4.691452 -22.926479 42.397605 0.131928 2.142124 0.100934 -0.018491 314716.000000 0 0 1
36.179241 3.585452 -22.208579 42.602980 0.098780 2.119160 0.067088 -0.014404 183092.000000 0 0 1
36.728861 2.562052 -22.978479 43.400274 0.069643 2.128754 0.081618 -0.019125 153664.000000 0 0 1
37.637731 1.761152 -22.253779 43.759926 0.046758 2.104287 0.109286 -0.019905 183337.000000 0 0 1
-37.744196 0.594652 -23.065279 44.237824 -0.015753 2.119279 0.125324 -0.013292 -198650.000000 0 0 1
37.440111 -0.388348 -23.495779 44.203669 -0.010372 2.131208 0.111661 -0.021477 -355957.000000 0 0 1
-37.906776 -1.339848 -24.267479 45.029207 0.035331 2.139960 0.126596 -0.021262 299276.000000 0 0 1
-23.765006 28.569652 26.857439 45.851091 -0.876948 0.944987 0.091691 -0.034232 -1197520.000000 0 0 1
-24.931306 29.214352 26.418799 46.615462 -0.864336 0.968254 0.079407 -0.041986 341936.000000 0 0 1
-25.348506 28.874052 25.126729 45.908715 -0.850327 0.991638 0.076702 -0.036997 -116614.000000 0 0 1
-25.999696 27.485252 24.904589 45.295274 -0.813166 0.988639 0.066603 -0.032117 -472551.000000 0 0 1
-27.299056 27.229352 25.400859 46.172283 -0.784120 0.988274 0.085240 -0.031678 -85366.900000 0 0 1
-27.443216 26.816052 26.777529 46.789601 -0.773840 0.961493 0.095322 -0.029743 -798355.000000 0 0 1
-26.735976 25.489952 27.253949 45.905640 -0.761544 0.935153 0.090092 -0.028129 233127.000000 0 0 1
-25.354256 25.575452 27.528559 45.329500 -0.789741 0.918140 0.084544 -0.024856 -55709.900000 0 0 1
-25.027526 26.041152 28.810609 46.201405 -0.805244 0.897473 0.083538 -0.019127 777097.000000 0 0 1
-23.625506 25.634252 29.458769 45.640974 -0.826154 0.869190 0.084426 -0.007643 873285.000000 0 0 1
-22.554006 26.344852 28.833269 45.100907 -0.862768 0.877201 0.087554 -0.020196 359107.000000 0 0 1
-21.324506 26.189652 29.526119 44.860050 -0.887436 0.852394 0.107605 -0.019588 416045.000000 0 0 1
-20.534706 24.891952 29.255139 43.556246 -0.881024 0.834345 0.107402 -0.009850 -593793.000000 0 0 1
-20.050206 24.742152 27.909419 42.345254 -0.889766 0.851186 0.100357 -0.013548 71065.100000 0 0 1
-20.884906 23.976652 27.070769 41.759857 -0.854207 0.865514 0.102795 -0.014090 -23876.200000 0 0 1
-20.586306 22.463052 27.020709 40.724727 -0.828966 0.845314 0.106293 -0.005793 128172.000000 0 0 1
-21.026906 21.855752 28.227319 41.431705 -0.804724 0.821263 0.078730 -0.006613 91948.600000 0 0 1
-20.650006 20.475352 28.316909 40.589532 -0.781151 0.798697 0.086065 -0.011557 -101265.000000 0 0 1
-21.103806 19.924252 29.642529 41.485250 -0.756656 0.774842 0.083569 -0.016061 245612.000000 0 0 1
-20.259606 20.327952 30.735529 42.051754 -0.787082 0.751160 0.077623 -0.026871 252383.000000 0 0 1
-20.685306 19.749352 31.899850 42.842960 -0.762255 0.730897 0.062561 -0.023024 -24846.500000 0 0 1
-19.945706 20.283652 33.194997 43.716879 -0.793798 0.708533 0.066278 -0.023576 -170933.000000 0 0 1
-20.138506 21.677952 33.467919 44.672079 -0.822196 0.723957 0.044843 -0.014401 313966.000000 0 0 1
-19.371106 22.572352 32.641319 44.161143 -0.861573 0.739002 0.079030 -0.003246 -63613.300000 0 0 1
-17.900406 22.769652 33.081524 43.968953 -0.904557 0.719123 0.076552 -0.003115 18746.200000 0 0 1
-17.092406 21.640252 32.763559 42.824078 -0.902279 0.699641 0.091434 -0.028346 -640300.000000 0 0 1
-15.812806 21.843452 33.286616 42.839001 -0.944200 0.680884 0.080963 -0.022531 -495083.000000 0 0 1
-14.843206 20.620552 33.074308 41.706567 -0.946888 0.655039 0.086832 -0.030706 735678.000000 0 0 1
-13.460606 20.738652 33.380089 41.539258 -0.995083 0.637512 0.076073 -0.025147 555554.000000 0 0 1
-13.210506 20.673852 -32.660659 40.849043 -1.002196 2.497334 0.083069 -0.033148 -394451.000000 0 0 1
-11.717306 20.574252 -32.320759 40.065279 -1.053095 2.509347 0.085474 -0.026208 31507.900000 0 0 1
-10.900406 21.739352 -32.240199 40.383768 -1.106018 2.495339 0.082743 -0.024905 477599.000000 0 0 1
-9.637406 21.355352 -31.703889 39.421659 -1.146872 2.505167 0.081027 -0.024232 437758.000000 0 0 1
-8.511506 22.436052 -31.769659 39.813734 -1.208202 2.494695 0.085225 -0.021348 291192.000000 0 0 1
-8.534406 23.513852 -30.863569 39.727789 -1.222630 2.460486 0.078778 -0.021750 -118915.000000 0 0 1
-8.266906 23.202052 -29.523889 38.449148 -1.228520 2.446303 0.066862 -0.021653 -11052.700000 0 0 1
-7.678606 24.381452 -28.686199 38.422834 -1.265693 2.413722 0.079004 -0.025088 767005.000000 0 0 1
-6.423706 24.896952 -29.151079 38.870395 -1.318292 2.418792 0.091429 -0.021024 594583.000000 0 0 1
-6.003406 25.920152 -28.280659 38.828995 -1.343198 2.386691 0.117454 -0.019157 -199978.000000 0 0 1
-4.771206 26.686752 -28.770179 39.530625 -1.393880 2.385897 0.117763 -0.028655 -549076.000000 0 0 1
-3.568406 26.290452 -28.177279 38.702460 -1.435891 2.386268 0.109230 -0.016734 156612.000000 0 0 1
-2.414706 26.418952 -29.031849 39.327345 -1.479649 2.401210 0.128985 -0.017895 994066.000000 0 0 1
-1.573906 27.694952 -28.686619 39.905008 -1.514027 2.372976 0.139744 -0.027844 -276933.000000 0 0 1
-0.723306 27.579152 -27.582719 39.012039 -1.544576 2.356087 0.149961 -0.045425 -195293.000000 0 0 1
0.205894 28.637152 -27.595849 39.770086 1.563607 2.337666 0.148622 -0.040208 -1402850.000000 0 0 1
0.851094 28.721252 -26.194269 38.881543 1.541172 2.309993 0.154575 -0.055064 -113871.000000 0 0 1
1.789094 27.720552 -25.850249 37.945556 1.506345 2.320259 0.188669 -0.060820 -339885.000000 0 0 1
2.934794 27.785652 -26.627609 38.596438 1.465564 2.332145 0.166168 -0.055314 -1291420.000000 0 0 1
4.269494 28.049752 -25.861929 38.390839 1.419744 2.309931 0.160668 -0.064371 274760.000000 0 0 1
4.653694 26.956952 -25.038779 37.084695 1.399847 2.312003 0.153341 -0.054279 -416061.000000 0 0 1
5.851294 27.086452 -24.356079 36.893524 1.358043 2.291844 0.107025 -0.045853 -606868.000000 0 0 1
6.365394 25.886452 -23.569079 35.582694 1.329683 2.294781 0.118407 -0.038590 36607.700000 0 0 1
7.574194 26.198052 -22.897879 35.609257 1.289357 2.269247 0.110368 -0.044185 -53322.800000 0 0 1
8.210494 25.000852 -22.410179 34.564012 1.253485 2.276234 0.106260 -0.039635 -706150.000000 0 0 1
9.668194 25.127152 -22.083779 34.821560 1.203487 2.257768 0.100128 -0.017211 -2071310.000000 0 0 1
9.875194 25.839452 -20.838479 34.632917 1.205750 2.216419 0.107589 -0.023657 970629.000000 0 0 1
11.279694 26.071252 -20.577679 35.076809 1.162465 2.197708 0.122012 -0.030026 1045930.000000 0 0 1
12.059894 24.823552 -20.165679 34.180468 1.118553 2.201826 0.084144 -0.013753 -899716.000000 0 0 1
12.220894 23.877552 -21.176879 34.175253 1.097741 2.239100 0.071925 -0.012501 -224302.000000 0 0 1
12.903694 22.701752 -20.816079 33.394371 1.053936 2.243804 0.060158 -0.001736 -254978.000000 0 0 1
12.888794 21.387352 -21.641479 33.043811 1.028441 2.284890 0.072347 -0.007076 -704628.000000 0 0 1
11.654494 20.722452 -21.517379 32.066257 1.058476 2.306392 0.071772 -0.017198 -194653.000000 0 0 1
11.550894 19.511052 -22.311579 31.810546 1.036267 2.348141 0.094002 -0.014759 -308648.000000 0 0 1
11.038794 19.811352 -23.739479 32.831501 1.062446 2.379033 0.101791 -0.017905 477162.000000 0 0 1
9.671894 20.246552 -23.761179 32.681218 1.125143 2.384825 0.093210 -0.027974 629244.000000 0 0 1
9.155694 20.244452 -25.072979 33.501027 1.146067 2.416479 0.093973 -0.037145 -822339.000000 0 0 1
7.658594 20.026452 -25.164339 33.059897 1.205533 2.435918 0.106677 -0.045693 -334892.000000 0 0 1
6.704794 21.051552 -24.873879 33.269084 1.262460 2.415324 0.121093 -0.047072 467025.000000 0 0 1
6.624994 21.496252 -23.526479 32.549571 1.271840 2.378626 0.122826 -0.046443 714558.000000 0 0 1
5.130294 21.828452 -23.099279 32.192824 1.339958 2.371044 0.141635 -0.046477 1389780.000000 0 0 1
4.534094 23.051252 -23.606079 33.304132 1.376580 2.358597 0.139184 -0.046867 811012.000000 0 0 1
3.109994 22.996152 -23.464679 33.001306 1.436372 2.361748 0.159948 -0.045324 618831.000000 0 0 1
2.419194 24.210552 -24.113979 34.256201 1.471204 2.351712 0.153818 -0.038579 296441.000000 0 0 1
1.006794 24.113552 -24.258079 34.218875 1.529068 2.358747 0.180835 -0.055334 355375.000000 0 0 1
0.671994 24.725352 -25.495139 35.521778 1.543625 2.371337 0.176250 -0.044383 288977.000000 0 0 1
-0.843506 24.673752 -25.835249 35.734656 -1.536623 2.378895 0.183478 -0.043957 363913.000000 0 0 1
-1.350506 23.352152 -26.126639 35.067765 -1.513028 2.411381 0.188064 -0.047630 -841736.000000 0 0 1
-2.661106 23.577252 -26.525109 35.588618 -1.458404 2.411819 0.178447 -0.033180 -962347.000000 0 0 1
-3.273406 22.343652 -27.085379 35.264312 -1.425328 2.446615 0.173084 -0.037087 -460882.000000 0 0 1
-2.651306 21.844652 -28.249469 35.808529 -1.450016 2.479819 0.202022 -0.048899 -92579.200000 0 0 1
-3.261906 20.644952 -28.677159 35.485680 -1.414092 2.511772 0.154539 -0.038542 -50398.800000 0 0 1
-4.365206 20.888052 -29.741649 36.605074 -1.364780 2.519225 0.135545 -0.031949 -46619.100000 0 0 1
-4.017306 21.260352 -31.083519 37.872503 -1.384041 2.533503 0.127307 -0.035521 139685.000000 0 0 1
-3.387406 22.554452 -31.266199 38.700814 -1.421723 2.511368 0.145011 -0.035425 135230.000000 0 0 1
-2.961206 22.735652 -32.726149 39.958471 -1.441280 2.530469 0.118179 -0.025513 132806.000000 0 0 1
-1.923706 21.820752 -33.079319 39.674768 -1.482864 2.556683 0.112090 -0.025761 230677.000000 0 0 1
-1.258406 22.211152 33.189508 39.955754 -1.514200 0.590511 0.105348 -0.020737 -354236.000000 0 0 1
-0.162306 21.279352 32.689681 39.005799 -1.563169 0.577056 0.106482 -0.021071 -60102.100000 0 0 1
-0.745806 20.044552 32.249342 37.978419 -1.533606 0.556424 0.095975 -0.020994 614234.000000 0 0 1
0.233994 19.216052 31.626472 37.007366 1.558620 0.546017 0.104059 -0.024490 336313.000000 0 0 1
-0.286606 17.760352 31.349442 36.031927 -1.554660 0.515500 0.096703 -0.022214 373174.000000 0 0 1
-1.287006 17.705152 30.335699 35.148021 -1.498233 0.529452 0.092778 -0.017221 23187.200000 0 0 1
-1.641506 16.378852 30.145709 34.347126 -1.470909 0.499801 0.079590 -0.015898 -568020.000000 0 0 1
-2.845106 16.255552 29.173909 33.517973 -1.397528 0.514790 0.080878 -0.014615 322036.000000 0 0 1
-4.030306 16.799052 29.763139 34.413601 -1.335334 0.525914 0.059198 -0.021420 241568.000000 0 0 1
-4.246606 18.126152 29.324339 34.734822 -1.340666 0.565661 0.056572 -0.018619 -226521.000000 0 0 1
-5.740306 18.537952 29.316709 35.157875 -1.270509 0.584734 0.041124 -0.019908 -183593.000000 0 0 1
-6.554706 17.981052 28.363149 34.216233 -1.221233 0.593589 0.028046 -0.012536 -771734.000000 0 0 1
-7.885406 18.297852 28.723469 34.957527 -1.163899 0.606466 0.045741 -0.021583 -316039.000000 0 0 1
-8.847206 17.585552 27.730549 34.007470 -1.104676 0.617333 0.038816 -0.025336 -202147.000000 0 0 1
-9.058706 16.206352 27.961339 33.564005 -1.061100 0.586152 0.040254 -0.036542 -364455.000000 0 0 1
-10.063406 15.972552 28.893769 34.514409 -1.008578 0.578743 0.055266 -0.033917 -800650.000000 0 0 1
-10.582406 14.465752 28.959159 34.056984 -0.939209 0.554213 0.047647 -0.032220 273754.000000 0 0 1
-9.612706 13.467452 29.288199 33.638891 -0.950886 0.514244 0.052658 -0.028289 382192.000000 0 0 1
-8.970506 13.554752 30.557519 34.611605 -0.986172 0.488859 0.049446 -0.026630 -19154.100000 0 0 1
-9.882506 13.217352 31.780512 35.810100 -0.928774 0.478963 0.087793 -0.034018 -57840.700000 0 0 1
-10.226406 11.862452 31.858040 35.499744 -0.859330 0.456919 0.086545 -0.019143 151580.000000 0 0 1
-10.551506 11.616252 33.168989 36.694051 -0.833393 0.441917 0.084513 -0.012475 -247232.000000 0 0 1
-10.900606 10.086552 33.233225 36.400673 -0.746629 0.420258 0.088977 -0.018099 -296447.000000 0 0 1
-9.761306 9.275052 33.388729 36.001623 -0.759860 0.383334 0.090880 -0.025237 45331.700000 0 0 1
-9.833606 8.430552 -32.876139 35.335740 -0.708729 2.766281 0.139529 -0.038467 570620.000000 0 0 1
-8.817806 8.837252 -31.738349 34.105330 -0.786500 2.766839 0.130917 -0.046707 721233.000000 0 0 1
-9.411106 9.943152 -31.013539 33.900956 -0.812881 2.725878 0.121311 -0.041831 414481.000000 0 0 1
-8.513806 10.685352 -30.206979 33.153027 -0.898026 2.716833 0.125793 -0.042953 -141854.000000 0 0 1
-7.658606 11.720052 -30.952179 33.971330 -0.991991 2.716806 0.088522 -0.034811 -31374.800000 0 0 1
-8.433406 12.733352 -31.586819 35.085435 -0.985817 2.691215 0.076704 -0.030680 -358578.000000 0 0 1
-7.631306 13.817852 -31.843699 35.541399 -1.066205 2.681386 0.057050 -0.023994 -603908.000000 0 0 1
-8.313506 15.183852 -31.993419 36.376402 -1.069857 2.645628 0.065107 -0.020392 -184251.000000 0 0 1
-8.810606 15.386352 -33.298999 37.725190 -1.050749 2.652315 0.073007 -0.030675 -35462.900000 0 0 1
-8.965006 16.744352 -33.577549 38.577149 -1.079228 2.626810 0.092713 -0.027541 -859644.000000 0 0 1
-9.466106 17.025852 32.364203 37.774707 -1.063370 0.541825 0.094129 -0.036051 1897440.000000 0 0 1
-10.771606 16.417952 32.032586 37.572107 -0.990154 0.549926 0.077196 -0.037301 2446040.000000 0 0 1
-11.888306 17.035052 32.735651 38.770448 -0.961499 0.565454 0.088595 -0.045944 -720577.000000 0 0 1
-13.221406 16.540652 32.249747 38.580370 -0.896465 0.581006 0.107049 -0.052954 -985041.000000 0 0 1
-13.454806 15.203852 32.653938 38.450859 -0.846353 0.556256 0.104424 -0.054164 118245.000000 0 0 1
-14.800306 14.917052 32.978873 39.104649 -0.789327 0.567311 0.097385 -0.042349 -110614.000000 0 0 1
-15.115606 13.398952 33.026929 38.714228 -0.725268 0.548907 0.100592 -0.032074 -159060.000000 0 0 1
-15.038106 12.655252 31.823248 37.403464 -0.699565 0.553271 0.091092 -0.039485 378425.000000 0 0 1
-13.748406 12.250252 31.362692 36.369022 -0.727838 0.530911 0.080278 -0.021396 -34413.300000 0 0 1
-13.580106 11.823352 29.880009 34.885898 -0.716354 0.542333 0.089239 -0.010655 -106349.000000 0 0 1
-14.381606 10.754252 29.379949 34.433500 -0.642078 0.548635 0.082900 -0.001523 52933.000000 0 0 1
-14.176606 10.194652 28.048339 33.039619 -0.623442 0.556838 0.069050 0.000585 -124811.000000 0 0 1
-15.015606 8.916252 27.858159 32.879249 -0.535847 0.559940 0.089283 0.002474 356543.000000 0 0 1
-14.455906 7.710852 28.396559 32.784066 -0.490013 0.523310 0.059845 0.001078 185146.000000 0 0 1
-15.351406 6.674652 28.116149 32.722079 -0.410134 0.537012 0.080217 0.003928 156125.000000 0 0 1
-14.583306 5.376352 28.272549 32.263214 -0.353205 0.502650 0.075949 0.001845 141666.000000 0 0 1
-13.653606 4.987752 27.285909 30.916330 -0.350245 0.489490 0.073215 -0.006705 -65522.000000 0 0 1
-14.210506 4.505052 26.065849 30.027695 -0.307000 0.519515 0.076369 -0.003726 -412700.000000 0 0 1
-13.217806 4.282052 24.933879 28.543733 -0.313292 0.508383 0.069733 -0.000128 -507321.000000 0 0 1
-12.469706 3.086252 24.916749 28.033246 -0.242624 0.476014 0.062625 -0.002141 223843.000000 0 0 1
-11.854906 2.793452 23.663189 26.613693 -0.231415 0.475343 0.057603 0.002493 210648.000000 0 0 1
-10.851206 1.595052 23.735239 26.146786 -0.145948 0.432862 0.054283 -0.003603 430431.000000 0 0 1
-9.515506 1.929552 24.069229 25.953724 -0.200067 0.383421 0.054986 -0.008010 40602.400000 0 0 1
-8.790106 0.797052 24.485359 26.027563 -0.090429 0.345969 0.047880 -0.003890 810945.000000 0 0 1
-7.244006 1.066952 24.355749 25.432588 -0.146236 0.292038 0.067561 -0.010285 338347.000000 0 0 1
-6.816606 1.171252 23.030339 24.046506 -0.170162 0.291751 0.066988 -0.010794 809683.000000 0 1 0
-5.401106 1.173952 22.775459 23.436545 -0.214025 0.238080 0.059660 -0.013089 1027570.000000 0 1 0
-4.631506 2.498852 23.108139 23.699814 -0.494772 0.223920 0.072804 -0.016704 -405983.000000 0 1 0
-4.553906 2.839152 24.459949 25.041724 -0.557487 0.215976 0.075319 -0.017081 141916.000000 0 0 1
-4.244906 4.188252 24.759149 25.467158 -0.778680 0.236350 0.065749 -0.024008 -94712.100000 0 0 1
5.217194 -23.644948 13.032521 27.498169 -1.353629 1.077035 0.148628 -0.042009 265527.000000 0 0 1
4.647294 -24.859748 13.490321 28.663447 -1.385989 1.080774 0.181519 -0.056072 430142.000000 0 0 1
3.260394 -24.842548 13.099321 28.273213 -1.440300 1.089067 0.181726 -0.059060 1161310.000000 0 0 1
2.454794 -26.054998 13.717321 29.547485 -1.476858 1.088012 0.169947 -0.056674 160801.000000 0 0 1
2.307294 -25.943628 15.113721 30.113452 -1.482095 1.045011 0.193584 -0.057041 -80319.700000 0 0 1
1.991194 -27.219418 15.673621 31.472591 -1.497773 1.049496 0.200391 -0.058805 -17652.200000 0 0 1
1.768194 -27.246798 17.259221 32.301629 -1.505992 1.007100 0.181686 -0.065422 18299.500000 0 0 1
2.873794 -27.122898 18.126821 32.748923 -1.465236 0.984225 0.205958 -0.054674 150695.000000 0 0 1
2.460194 -26.558808 19.373021 32.965691 -1.478428 0.942618 0.198138 -0.061176 -35652.600000 0 0 1
3.660294 -25.896318 20.006621 32.928436 -1.430382 0.917788 0.171168 -0.053892 -223475.000000 0 0 1
3.156394 -24.937048 20.938921 32.714792 -1.444891 0.876240 0.157286 -0.040611 686551.000000 0 0 1
4.190794 -24.145048 21.540021 32.626961 -1.398941 0.849724 0.126555 -0.045952 497673.000000 0 0 1
3.603794 -22.876948 22.273921 32.132066 -1.414551 0.804878 0.136682 -0.049051 6299.560000 0 0 1
3.041194 -21.843348 21.518121 30.812502 -1.432458 0.797697 0.143172 -0.044393 173797.000000 0 0 1
3.971794 -21.125248 20.744521 29.872837 -1.384954 0.803172 0.126956 -0.032144 -113093.000000 0 0 1
3.266794 -19.971048 20.033321 28.475404 -1.408656 0.790443 0.088792 -0.032938 -155359.000000 0 0 1
2.912194 -18.933948 20.883521 28.338961 -1.418184 0.742295 0.055086 -0.037102 -232620.000000 0 0 1
2.036694 -18.105048 20.189421 27.194735 -1.458774 0.734148 0.041930 -0.036762 -628884.000000 0 0 1
1.831094 -16.791548 20.899521 26.871899 -1.462177 0.679724 0.061501 -0.040252 64752.200000 0 0 1
2.899294 -15.853748 20.892921 26.386765 -1.389918 0.657053 0.017019 -0.009115 -173366.000000 0 0 1
2.501994 -14.626848 21.459921 26.090858 -1.401381 0.604991 0.040101 -0.003028 452368.000000 0 0 1
3.554394 -13.478048 21.329121 25.479853 -1.312950 0.578841 -0.016486 0.020392 -285472.000000 0 0 1
3.926694 -13.093148 19.953221 24.186370 -1.279427 0.600633 -0.037293 0.015421 -221696.000000 0 1 0
2.868294 -12.887048 19.037221 23.167195 -1.351794 0.606353 -0.018167 0.020095 413219.000000 0 1 0
1.888194 -11.667348 19.265721 22.602219 -1.410352 0.550273 0.001992 0.001361 104999.000000 0 1 0
2.387094 -10.360448 19.143321 21.897576 -1.344344 0.506967 0.005198 0.002890 -356848.000000 0 1 0
1.807694 -9.488848 20.133421 22.330711 -1.382545 0.447337 0.017754 -0.013286 1285360.000000 0 1 0
0.294294 -9.054948 19.994721 21.951482 -1.538307 0.425434 0.037390 -0.025110 911017.000000 0 1 0
-0.119006 -8.296148 21.074621 22.649059 1.556453 0.375060 0.053956 -0.034314 -103012.000000 0 1 0
-1.344906 -7.652948 20.708221 22.118020 1.396836 0.358967 0.062409 -0.044282 272973.000000 0 1 0
-1.800006 -6.914048 21.970921 23.103365 1.316109 0.314395 0.063475 -0.038734 -327540.000000 0 1 0
-2.206106 -7.854348 22.944321 24.351582 1.296974 0.341627 0.062697 -0.032495 -25255.400000 0 1 0
-2.181506 -7.201248 24.187021 25.330395 1.276650 0.301603 0.065347 -0.026439 -61872.800000 0 0 1
-2.620906 -8.205048 25.317121 26.742262 1.261614 0.327939 0.062496 -0.025358 474281.000000 0 0 1
-1.657806 -9.244548 25.470421 27.146866 1.393354 0.353273 0.067373 -0.028160 330046.000000 0 0 1
-1.985706 -10.040748 26.621921 28.521682 1.375551 0.367043 0.075910 -0.039797 87768.500000 0 0 1
-0.932106 -11.138848 26.941821 29.168553 1.487310 0.393273 0.091961 -0.043554 297158.000000 0 0 1
0.221494 -10.639548 27.592321 29.573387 -1.549981 0.368102 0.094754 -0.040587 197396.000000 0 0 1
1.294494 -11.556848 27.682421 30.025870 -1.459250 0.397705 0.119108 -0.055392 447930.000000 0 0 1
2.556894 -11.041048 28.386421 30.565198 -1.343227 0.379859 0.155277 -0.065859 195098.000000 0 0 1
2.133694 -10.797548 29.750221 31.720898 -1.375701 0.354343 0.153276 -0.070928 757947.000000 0 0 1
3.218094 -10.386148 30.594421 32.469167 -1.270332 0.341478 0.201445 -0.068071 295875.000000 0 0 1
2.784394 -10.020448 31.976621 33.625385 -1.299763 0.314450 0.189819 -0.073199 -563030.000000 0 0 1
2.138894 -11.035848 32.729921 34.606539 -1.379357 0.330831 0.190570 -0.072249 85167.100000 0 0 1
2.048194 -10.879948 -33.314247 35.105661 -1.384720 2.820752 0.164491 -0.072466 44852.500000 0 0 1
3.409194 -11.090248 -32.573247 34.577921 -1.272560 2.799410 0.148986 -0.050852 668718.000000 0 0 1
4.365194 -10.040248 -32.875647 34.650680 -1.160680 2.820127 0.141050 -0.062561 410927.000000 0 0 1
4.859394 -9.328648 -31.747047 33.444168 -1.090560 2.821655 0.154105 -0.058670 -160264.000000 0 0 1
3.954094 -8.270748 -31.048847 32.373925 -1.124837 2.854494 0.145593 -0.043923 -120864.000000 0 0 1
3.875494 -7.109948 -31.862247 32.875121 -1.071738 2.892718 0.183801 -0.050310 155240.000000 0 0 1
3.220694 -6.045348 -31.199247 31.942325 -1.081289 2.925473 0.160572 -0.022797 22004.400000 0 0 1
3.320794 -4.800848 -32.041647 32.569049 -0.965656 2.961386 0.164191 -0.027658 78112.900000 0 0 1
2.546794 -4.852848 -33.198947 33.648274 -1.087503 2.977987 0.170213 -0.041604 -244382.000000 0 0 1
2.801694 -3.725448 33.412921 33.736504 -0.925990 0.138614 0.169609 -0.018917 169998.000000 0 0 1
2.161394 -3.759848 31.998221 32.290776 -1.049066 0.134713 0.188372 -0.027424 739212.000000 0 0 1
0.739094 -3.692948 32.023021 32.243728 -1.373270 0.117071 0.178257 -0.030880 328522.000000 0 0 1
0.168094 -4.061248 30.726321 30.994012 -1.529430 0.131524 0.162740 -0.032631 749619.000000 0 0 1
-1.375806 -4.221248 30.809421 31.127676 1.255729 0.143120 0.139062 -0.033490 494513.000000 0 0 1
-2.155006 -3.103848 30.414121 30.647947 0.963905 0.123605 0.135165 -0.031084 -387141.000000 0 0 1
-3.501406 -3.492548 30.365921 30.766002 0.784132 0.161445 0.100445 -0.027794 -244460.000000 0 0 1
-4.491106 -2.412448 29.917721 30.348970 0.492933 0.168781 0.069540 -0.011991 -41753.400000 0 0 1
-4.148306 -1.971248 28.582521 28.949176 0.443606 0.159325 0.083989 -0.020824 236731.000000 0 0 1
-5.041606 -1.006248 27.983721 28.452047 0.197000 0.181690 0.077064 -0.020827 329370.000000 0 0 1
-5.056606 0.353952 28.606821 29.052448 -0.069884 0.175374 0.088042 -0.022330 866769.000000 0 0 1
-6.379306 0.668052 29.100321 29.798834 -0.104341 0.216948 0.086247 -0.018001 838593.000000 0 0 1
-6.481706 2.023052 29.308321 30.084596 -0.302536 0.227661 0.100119 -0.022689 535611.000000 0 0 1
-7.976606 2.425352 29.518221 30.673017 -0.295176 0.275272 0.087090 -0.024117 1066480.000000 0 0 1
-8.909006 2.232552 28.437921 29.884277 -0.245539 0.312391 0.072586 -0.018808 380711.000000 0 0 1
-10.211906 2.581852 28.827821 30.691892 -0.247638 0.350314 0.078233 -0.009708 -355428.000000 0 0 1
-11.308106 2.037752 27.908821 30.181584 -0.178289 0.390557 0.073067 -0.002392 -201387.000000 0 0 1
-11.755506 0.716652 28.226021 30.584535 -0.060888 0.395289 0.064601 -0.005532 235199.000000 0 0 1
-12.439306 0.124952 27.120621 29.837561 -0.010045 0.430056 0.058708 -0.000726 -652322.000000 0 0 1
-12.731806 -1.381648 27.413121 30.257016 0.108096 0.437039 0.060455 -0.010108 612559.000000 0 0 1
-11.594406 -2.189048 27.756021 30.159889 0.186606 0.401960 0.060669 -0.014297 1407160.000000 0 0 1
-10.354906 -2.160948 27.027421 29.023702 0.205736 0.373053 0.041000 -0.005257 368703.000000 0 0 1
-10.329506 -2.808848 25.611521 27.758572 0.265505 0.395893 0.048587 -0.004481 -721830.000000 0 0 1
-11.147006 -2.177048 24.660821 27.150532 0.192876 0.431595 0.042420 -0.002240 194228.000000 0 0 1
-11.130806 -2.850548 23.417721 26.084672 0.250707 0.456144 0.045415 -0.000531 -254760.000000 0 0 1
-10.003706 -2.465448 22.427721 24.681071 0.241638 0.430634 0.041830 -0.004412 -503419.000000 0 1 0
-8.760106 -2.894048 22.856221 24.647958 0.319078 0.383644 0.058840 -0.007441 -775670.000000 0 1 0
-7.761306 -2.497448 21.939521 23.405506 0.311319 0.355807 0.048826 -0.011620 352557.000000 0 1 0
-6.264606 -2.541248 22.356621 23.356407 0.385369 0.293648 0.060915 -0.017742 850103.000000 0 1 0
-5.600706 -3.838748 22.476021 23.479255 0.600863 0.293381 0.057357 -0.017813 354282.000000 0 1 0
-6.057306 -4.654648 23.536521 24.745192 0.655196 0.313839 0.063209 -0.016845 -213035.000000 0 1 0
-5.919406 -6.170148 23.284121 24.804443 0.806136 0.351934 0.074126 -0.015850 210962.000000 0 1 0
-6.704806 -6.682848 22.188421 24.123452 0.783758 0.403261 0.070363 -0.021926 312110.000000 0 1 0
-6.155106 -6.375848 20.928321 22.727327 0.803012 0.400557 0.054036 -0.020074 -41705.300000 0 1 0
-7.218206 -6.540248 19.808721 22.074029 0.736162 0.457008 0.057890 -0.022346 -305560.000000 0 1 0
-8.215706 -5.590248 19.926621 22.266992 0.597474 0.462600 0.051317 -0.018454 -765523.000000 0 1 0
-8.974006 -5.329048 18.797821 21.500921 0.535872 0.506846 0.049582 -0.024107 -2022.680000 0 1 0
-9.686506 -3.974848 19.027121 21.717715 0.389396 0.503062 0.044924 -0.016637 163101.000000 0 1 0
-8.839206 -2.888848 18.608921 20.803100 0.315879 0.463426 0.039790 -0.019981 96468.100000 0 1 0
-9.491306 -1.663148 18.593821 20.942329 0.173467 0.478127 0.035335 -0.024029 -313854.000000 0 1 0
-8.508906 -0.541648 18.225721 20.121426 0.063571 0.437564 0.019788 -0.013382 -12834.100000 0 1 0
-7.605806 -0.188648 19.266521 20.714312 0.024798 0.376093 0.029262 0.001370 348534.000000 0 1 0
-8.164906 0.638852 20.325021 21.913017 -0.078085 0.383042 0.058042 0.000551 -110642.000000 0 1 0
-8.103806 2.152652 20.091521 21.770962 -0.259639 0.395358 0.055214 -0.006159 212041.000000 0 1 0
-8.882206 2.603352 18.989821 21.125443 -0.285112 0.453527 0.036681 -0.018356 237260.000000 0 1 0
-8.677906 3.999652 18.805721 21.094037 -0.431882 0.470110 0.032210 -0.012912 179997.000000 0 1 0
-9.551706 4.592252 17.675221 20.609156 -0.448152 0.540135 0.025412 -0.006024 816138.000000 0 1 0
-10.930706 4.879852 17.971621 21.593343 -0.419885 0.587596 0.033823 0.002320 578191.000000 0 1 0
-11.512006 5.565352 16.907021 21.197801 -0.450311 0.647518 0.026171 0.010066 -441541.000000 0 1 0
-11.440806 7.133652 16.923421 21.637542 -0.557539 0.672716 0.032096 0.007451 -243227.000000 0 1 0
-10.098906 7.579252 16.803921 21.019151 -0.643822 0.644405 0.021387 0.003946 136060.000000 0 1 0
-10.087406 8.997852 16.710621 21.493300 -0.728371 0.680147 0.015946 -0.005120 258763.000000 0 1 0
-8.738806 9.734452 16.921921 21.388728 -0.839243 0.658092 0.021221 0.001166 249504.000000 0 1 0
-8.650406 10.235652 18.235521 22.630341 -0.869139 0.633772 0.037725 0.019959 128635.000000 0 1 0
-7.832406 11.403552 18.399821 23.020447 -0.968958 0.644697 0.054111 0.009995 234956.000000 0 1 0
-8.576506 12.658952 17.875521 23.523175 -0.975328 0.707620 0.056634 0.001535 215867.000000 0 1 0
-8.462306 12.852252 16.486021 22.551716 -0.988518 0.750963 0.054877 -0.015790 -288680.000000 0 1 0
-9.266806 13.914952 15.994321 23.136938 -0.983283 0.807524 0.069972 -0.031500 -117353.000000 0 1 0
-8.921506 14.535052 14.618821 22.462656 -1.020297 0.862151 0.077649 -0.028961 489797.000000 0 1 0
-7.737306 15.324352 14.500121 22.471208 -1.103234 0.869412 0.075364 -0.017458 154545.000000 0 1 0
-7.667406 15.840652 13.205221 22.002119 -1.120003 0.927071 0.061630 -0.027490 -668956.000000 0 1 0
-6.496606 16.786552 13.196621 22.319163 -1.201536 0.938165 0.027948 -0.022271 -347178.000000 0 1 0
-5.196606 16.261752 13.404821 21.705725 -1.261493 0.905146 0.022503 -0.025952 -143805.000000 0 1 0
-4.381506 17.411052 13.594321 22.519944 -1.324264 0.922716 0.023056 -0.021148 -476431.000000 0 1 0
-2.868506 17.215452 13.472921 22.048122 -1.405689 0.913386 0.022584 -0.021307 -271785.000000 0 1 0
-2.167706 16.589552 14.585721 22.195843 -1.440865 0.853781 0.028102 -0.024775 249191.000000 0 1 0
-2.469806 15.232252 14.865321 21.426600 -1.410052 0.804073 0.028084 -0.019028 -587029.000000 0 1 0
-1.618406 14.644152 16.006321 21.754832 -1.460727 0.744009 0.023003 -0.004689 -217732.000000 0 1 0
-0.327206 14.296852 15.535821 21.115605 -1.547914 0.744022 0.020437 -0.013778 -403001.000000 0 1 0
0.515994 13.888052 16.576821 21.631810 1.533660 0.697708 0.026751 0.004913 430715.000000 0 1 0
1.469694 15.014252 17.086621 22.793428 1.473221 0.723295 0.024888 -0.003409 -120442.000000 0 1 0
0.788594 15.878952 17.917221 23.953910 1.521174 0.725772 0.022728 -0.011739 -708319.000000 0 1 0
1.644894 16.853052 18.391421 24.999508 1.473502 0.744139 0.044728 -0.015744 -623048.000000 0 1 0
0.894694 18.064452 19.021421 26.247654 1.521309 0.760211 0.057508 -0.019054 261148.000000 0 0 1
0.289494 19.033852 18.197121 26.334512 1.555588 0.807926 0.054543 -0.020197 223003.000000 0 0 1
-0.746006 18.571352 17.338621 25.418092 -1.530648 0.820115 0.055983 -0.018568 -420564.000000 0 0 1
-1.604306 19.647552 16.648321 25.802455 -1.489323 0.869482 0.055388 -0.018148 216706.000000 0 0 1
-2.305206 20.598752 17.479521 27.113764 -1.459350 0.870200 0.052954 -0.024856 309973.000000 0 0 1
-3.091906 21.514252 16.747621 27.439127 -1.428059 0.914287 0.063483 -0.028816 -347010.000000 0 0 1
-3.812206 22.579152 17.617021 28.891356 -1.403536 0.915029 0.060851 -0.018725 -413629.000000 0 0 1
-4.913606 22.138852 18.328621 29.158371 -1.352392 0.891059 0.075135 -0.022488 -649707.000000 0 0 1
-5.517306 23.140252 19.095921 30.505182 -1.336737 0.894397 0.081680 -0.008566 116553.000000 0 0 1
-6.738906 22.556052 19.859421 30.799106 -1.280475 0.870028 0.066824 -0.016905 618627.000000 0 0 1
-7.957506 22.511652 19.094621 30.572879 -1.231021 0.896227 0.062051 -0.021836 184505.000000 0 0 1
-8.951706 21.873552 19.878821 30.882889 -1.182343 0.871494 0.035285 -0.019315 582346.000000 0 0 1
-10.381706 22.168252 19.314821 31.181301 -1.132817 0.902772 0.050415 -0.020332 461186.000000 0 0 1
-10.885806 23.464752 19.628921 32.471370 -1.136426 0.921659 0.064864 -0.019325 265626.000000 0 0 1
-12.108106 23.671252 18.931821 32.639673 -1.097982 0.952037 0.053228 -0.022038 289305.000000 0 0 1
-12.697506 25.105652 19.110721 34.010882 -1.102549 0.974115 0.060027 -0.024351 -191378.000000 0 0 1
-13.302106 25.357252 20.349421 35.128837 -1.087672 0.952952 0.068211 -0.021536 -67089.500000 0 0 1
-13.829506 26.653752 20.449421 36.329830 -1.092177 0.972927 0.068937 -0.019071 -33238.700000 0 0 1
-14.852706 26.795352 21.622921 37.498593 -1.064657 0.956195 0.088755 -0.024896 -384475.000000 0 0 1
-16.140106 26.344952 21.376821 37.570307 -1.021131 0.965529 0.082087 -0.028783 -384360.000000 0 0 1
-17.033206 26.682052 22.415621 38.788169 -1.002635 0.954645 0.073551 -0.022187 511322.000000 0 0 1
-18.469006 26.106452 22.403621 39.045784 -0.955088 0.959685 0.087118 -0.019509 258102.000000 0 0 1
-18.416706 24.755952 22.880021 38.412597 -0.931191 0.932736 0.101043 -0.023229 -373038.000000 0 0 1
-19.728206 24.299952 22.956321 38.816008 -0.888864 0.937985 0.100643 -0.014159 -423867.000000 0 0 1
29.141994 24.127252 23.200669 44.380751 0.691535 1.020706 0.097811 -0.023908 -150875.000000 0 0 1
28.857394 23.592352 24.452109 44.578625 0.685351 0.990207 0.096075 -0.022786 235481.000000 0 0 1
28.755794 22.176552 24.365169 43.730499 0.656933 0.979827 0.094737 -0.026825 -382233.000000 0 0 1
28.246994 21.461352 25.622659 43.760746 0.649728 0.945279 0.113989 -0.033384 -403592.000000 0 0 1
26.897594 21.711752 25.914769 43.202499 0.679116 0.927490 0.112712 -0.019656 -118721.000000 0 0 1
26.505994 21.043552 27.074229 43.340658 0.671021 0.896069 0.115104 -0.022468 -907.657000 0 0 1
25.044494 21.392952 27.435459 42.867114 0.706926 0.876283 0.134292 -0.022955 -164784.000000 0 0 1
24.875894 22.701852 27.953379 43.767288 0.739735 0.878012 0.140932 -0.035457 -141207.000000 0 0 1
23.772994 22.840652 28.802519 43.777114 0.765399 0.852722 0.175978 -0.031179 -438410.000000 0 0 1
23.569594 24.246352 29.451399 44.841902 0.799551 0.854252 0.169176 -0.028179 -464208.000000 0 0 1
22.981094 25.167752 28.539649 44.452873 0.830782 0.873666 0.181417 -0.041552 73764.100000 0 0 1
22.534094 26.301952 29.233209 45.322826 0.862399 0.869773 0.165924 -0.044968 -848098.000000 0 0 1
21.218294 26.265952 29.962989 45.143071 0.891302 0.844996 0.180689 -0.045442 -1409090.000000 0 0 1
20.097494 26.391452 29.067189 44.105775 0.919966 0.851263 0.176922 -0.046243 1794070.000000 0 0 1
18.820794 26.574152 29.771549 44.122023 0.954564 0.830164 0.162704 -0.041307 1723270.000000 0 0 1
18.250994 25.424352 30.701439 43.841473 0.948187 0.795002 0.151307 -0.027626 -651081.000000 0 0 1
18.922694 25.234852 31.898421 44.859506 0.927383 0.779772 0.135690 -0.028897 18114.700000 0 0 1
18.149894 24.384552 32.738896 44.675052 0.930941 0.748335 0.156780 -0.028942 356097.000000 0 0 1
18.884594 24.117552 -33.343599 45.277807 0.906493 2.398563 0.185384 -0.040231 -5916.070000 0 0 1
18.790194 25.269052 -32.530379 45.274959 0.931401 2.372450 0.154741 -0.045126 198313.000000 0 0 1
18.794894 24.888352 -31.167149 44.091601 0.923996 2.355864 0.105884 -0.029229 -150786.000000 0 0 1
18.715594 26.116152 -30.227809 44.114026 0.948997 2.325702 0.074536 -0.018296 -352749.000000 0 0 1
17.516294 26.855152 -30.181789 44.033625 0.992840 2.325985 0.110356 -0.028201 -42956.900000 0 0 1
17.570394 28.098752 -29.520849 44.381743 1.011975 2.298501 0.092078 -0.024130 -293356.000000 0 0 1
17.207094 28.041052 -27.988679 43.194338 1.020408 2.275714 0.106952 -0.026412 -87225.700000 0 0 1
18.063694 27.251852 -27.192009 42.524885 0.985446 2.264563 0.082755 -0.011861 -40533.900000 0 0 1
17.795094 27.509452 -25.835739 41.724342 0.996623 2.238521 0.084180 -0.014420 -218426.000000 0 0 1
18.506594 26.673552 -24.768479 40.834421 0.964231 2.222521 0.085290 -0.016498 674685.000000 0 0 1
19.910494 26.972352 -24.743179 41.667258 0.934902 2.206604 0.085732 -0.008923 546601.000000 0 0 1
20.635294 26.103652 -23.857779 40.943981 0.901867 2.192835 0.090395 -0.008790 -284357.000000 0 0 1
22.082294 26.578652 -23.764379 41.938027 0.877538 2.173236 0.090083 -0.007389 -454880.000000 0 0 1
22.831994 25.839852 -22.802879 41.339680 0.847118 2.155075 0.096712 -0.006659 9716.520000 0 0 1
24.212994 25.981252 -23.098279 42.365375 0.820612 2.147443 0.108416 -0.003253 131930.000000 0 0 1
25.000294 25.727252 -21.793579 41.974590 0.799728 2.116721 0.124024 -0.010689 -140916.000000 0 0 1
25.094394 24.310652 -21.425579 40.985263 0.769536 2.120885 0.152142 -0.018377 -38298.300000 0 0 1
25.714794 24.265252 -20.172079 40.705845 0.756404 2.089273 0.148450 -0.021366 -584127.000000 0 0 1
25.162094 23.209652 -19.217079 39.257038 0.745057 2.082335 0.132975 -0.021591 -600235.000000 0 0 1
25.499394 21.840952 -19.488079 38.820503 0.708272 2.096712 0.144835 -0.023434 112400.000000 0 0 1
25.105694 21.045852 -18.398279 37.572868 0.697656 2.082507 0.156779 -0.023494 -807658.000000 0 0 1
25.086994 19.516152 -18.707779 36.881139 0.661144 2.102781 0.171724 -0.031806 820741.000000 0 0 1
24.172094 19.026952 -19.749679 36.556324 0.666853 2.141535 0.143892 -0.032020 1252520.000000 0 0 1
22.798594 19.312952 -19.499879 35.679283 0.702815 2.149014 0.138385 -0.035077 207202.000000 0 0 1
21.786494 19.060552 -20.684979 35.578425 0.718762 2.191234 0.107790 -0.015598 493131.000000 0 0 1
21.822094 19.914352 -21.806179 36.719131 0.739721 2.206650 0.100763 -0.014652 -175711.000000 0 0 1
21.694294 21.266452 -21.484379 37.208640 0.775440 2.186341 0.108704 -0.012241 -252087.000000 0 0 1
21.269594 22.119752 -22.641079 38.135253 0.804989 2.206451 0.112415 -0.015568 41629.900000 0 0 1
19.878894 22.120152 -22.848979 37.503965 0.838712 2.225900 0.112297 -0.010350 -262353.000000 0 0 1
19.467894 22.819952 -24.042079 38.441782 0.864500 2.246460 0.108660 -0.014133 -69449.300000 0 0 1
17.942094 22.891652 -24.183479 37.825747 0.906022 2.264435 0.099526 -0.016959 25964.100000 0 0 1
17.231394 23.777852 -23.330679 37.505036 0.943696 2.242177 0.092075 -0.026926 -451201.000000 0 0 1
15.851394 23.747852 -23.505479 36.982897 0.982226 2.259552 0.092034 -0.024605 -97429.200000 0 0 1
15.070994 24.958352 -22.826979 37.028707 1.027554 2.235044 0.086064 -0.023722 163933.000000 0 0 1
15.177194 26.144652 -23.550579 38.321271 1.044832 2.232620 0.082357 -0.015025 -178888.000000 0 0 1
14.265694 27.104352 -23.130379 38.381901 1.086311 2.217599 0.095655 -0.017585 -162146.000000 0 0 1
14.469394 28.458552 -23.847479 39.849150 1.100422 2.212354 0.091967 -0.023214 81463.300000 0 0 1
14.201394 28.445552 -25.246899 40.598459 1.107750 2.241923 0.094612 -0.037733 -334.076000 0 0 1
13.751994 29.700652 -25.786739 41.667757 1.137168 2.238094 0.117931 -0.046194 146492.000000 0 0 1
14.761694 30.890452 -25.756369 42.842948 1.125007 2.215775 0.118453 -0.041255 -1008530.000000 0 0 1
15.748794 30.752452 -26.663849 43.642853 1.097504 2.228064 0.103587 -0.023666 -1121580.000000 0 0 1
16.515294 31.963852 -26.669469 44.785079 1.093889 2.208683 0.099182 -0.034507 6629.920000 0 0 1
17.943894 31.916752 -27.239279 45.635958 1.058628 2.210406 0.093255 -0.015508 -42481.800000 0 0 1
18.773294 31.176852 -26.353979 44.932893 1.028794 2.197550 0.052967 -0.014570 1356620.000000 0 0 1
20.136794 30.965552 -26.838429 45.658046 0.994213 2.199150 0.067325 -0.011994 1074640.000000 0 0 1
21.038394 30.489452 -25.691569 45.080787 0.966798 2.177181 0.037195 -0.003608 -997184.000000 0 0 1
21.388894 31.462552 -24.698779 45.358644 0.973742 2.146615 0.042226 0.001482 1089620.000000 0 0 1
22.449294 32.396052 -25.037579 46.694275 0.964808 2.136728 0.046558 -0.015547 -243511.000000 0 0 1
23.849994 31.886052 -25.335829 47.195834 0.928592 2.137464 0.046998 -0.008262 -1057780.000000 0 0 1
23.967394 31.260252 -26.585479 47.522910 0.916689 2.164488 0.043616 -0.003028 -219305.000000 0 0 1
25.155994 31.690752 -27.187279 48.747060 0.899850 2.162434 0.045442 0.004503 -694321.000000 0 0 1
25.373294 31.108552 -28.601309 49.290779 0.886593 2.189840 0.047923 0.005503 277708.000000 0 0 1
24.488394 31.494052 -29.665509 49.715180 0.909891 2.210190 0.070416 -0.013516 -12393.500000 0 0 1
23.251594 30.833352 -29.686429 48.709509 0.924673 2.226174 0.054932 -0.012930 -106469.000000 0 0 1
22.222194 31.536252 -30.630489 49.260409 0.956953 2.241845 0.055141 -0.011096 -578686.000000 0 0 1
22.007094 32.807952 -30.196189 49.724076 0.979948 2.223423 0.080934 -0.025845 188898.000000 0 0 1
21.024394 33.516552 -30.927009 50.218167 1.010556 2.234265 0.084325 -0.032475 747299.000000 0 0 1
19.526194 33.399852 -30.440259 49.228363 1.041763 2.237435 0.074984 -0.037961 708706.000000 0 0 1
18.924094 32.080652 -30.442599 48.104484 1.037843 2.256016 0.095367 -0.031026 379518.000000 0 0 1
18.782894 31.382752 -31.673119 48.382442 1.031473 2.284504 0.103796 -0.028627 -461764.000000 0 0 1
17.950994 31.950352 -32.872989 49.231053 1.058908 2.301950 0.118020 -0.043222 -84803.900000 0 0 1
18.684994 32.982252 -33.496479 50.586283 1.055361 2.294501 0.110819 -0.035806 49582.200000 0 0 1
18.540194 33.136752 32.494016 49.976436 1.060685 0.862966 0.101636 -0.029958 152308.000000 0 0 1
17.150194 33.570452 31.930418 49.402995 1.098489 0.868037 0.107599 -0.037426 -325525.000000 0 0 1
16.118094 32.614952 32.119191 48.530098 1.111805 0.847525 0.114418 -0.028110 96116.100000 0 0 1
14.814794 33.151352 31.937372 48.357894 1.150537 0.849395 0.094342 -0.026025 517640.000000 0 0 1
14.340894 -33.574848 30.673209 47.684142 -1.167121 0.872050 0.076807 -0.020793 -1124530.000000 0 0 1
14.994094 -32.361448 30.397669 46.862612 -1.136911 0.864980 0.088061 -0.013129 397579.000000 0 0 1
14.278094 -31.662448 29.353019 45.474985 -1.147155 0.869150 0.073776 -0.017481 495354.000000 0 0 1
14.830294 -30.163848 29.154369 44.494635 -1.113845 0.856305 0.079289 -0.017493 217308.000000 0 0 1
14.299494 -29.261648 30.091979 44.342381 -1.116248 0.824903 0.082915 -0.012428 884937.000000 0 0 1
14.935494 -27.966648 29.818919 43.524364 -1.080284 0.816043 0.098387 -0.031406 -148162.000000 0 0 1
14.446094 -26.945748 30.892189 43.463666 -1.078674 0.780220 0.100614 -0.032491 411811.000000 0 0 1
13.062594 -26.630548 30.796589 42.758009 -1.114768 0.766629 0.074013 -0.027829 306604.000000 0 0 1
12.807794 -25.721748 29.701489 41.325856 -1.108801 0.768845 0.076588 -0.032406 -615709.000000 0 0 1
13.083094 -24.220748 29.888709 40.634307 -1.075539 0.744313 0.096588 -0.036252 149712.000000 0 0 1
12.040494 -23.658148 30.663739 40.557938 -1.100025 0.713543 0.091797 -0.041284 403898.000000 0 0 1
12.579694 -22.563048 31.338362 40.613209 -1.062186 0.689397 0.099535 -0.040101 464532.000000 0 0 1
11.662494 -22.001348 32.490711 40.935551 -1.083375 0.653922 0.099852 -0.036962 -83011.400000 0 0 1
11.471694 -22.826248 33.658199 42.255316 -1.105098 0.649240 0.101763 -0.040192 586159.000000 0 0 1
12.670494 -23.104048 -33.041049 42.261677 -1.069175 2.468377 0.111108 -0.037476 402756.000000 0 0 1
13.331494 -21.992248 -32.187269 41.199612 -1.025837 2.467465 0.118852 -0.032718 -171162.000000 0 0 1
13.594694 -20.838348 -32.961679 41.297999 -0.992744 2.495002 0.106101 -0.032654 -91314.700000 0 0 1
14.446294 -19.912248 -32.339569 40.633001 -0.943162 2.491279 0.111121 -0.037532 -311987.000000 0 0 1
15.012994 -18.825048 -33.272199 41.070813 -0.897581 2.515149 0.093277 -0.027021 -962956.000000 0 0 1
15.938794 -19.335748 33.238292 41.625717 -0.881403 0.645991 0.107505 -0.019279 -33254.300000 0 0 1
16.048694 -18.424348 32.149319 40.380637 -0.854203 0.649879 0.084266 -0.014637 106571.000000 0 0 1
16.914394 -17.116348 32.241175 40.231324 -0.791333 0.641173 0.082054 -0.016287 -924046.000000 0 0 1
16.418694 -16.069948 33.082967 40.277778 -0.774664 0.606987 0.080888 -0.016133 565203.000000 0 0 1
17.126594 -14.840148 32.900714 39.950058 -0.713994 0.603162 0.097004 -0.019873 274618.000000 0 0 1
18.632594 -14.715248 33.266194 40.869937 -0.668465 0.619872 0.089757 -0.016116 164793.000000 0 0 1
19.422094 -15.449448 32.324675 40.752764 -0.671965 0.654767 0.096625 -0.018171 5318.230000 0 0 1
20.803294 -15.341048 32.665250 41.655052 -0.635410 0.669415 0.097956 -0.017310 198144.000000 0 0 1
21.545994 -16.138848 31.575987 41.493797 -0.642888 0.705973 0.111641 -0.022455 -609493.000000 0 0 1
21.528094 -15.622948 30.281849 40.305405 -0.627767 0.720752 0.098032 -0.020591 263427.000000 0 0 1
22.490794 -16.245048 29.453429 40.462845 -0.625535 0.755523 0.084158 -0.025793 -341246.000000 0 0 1
22.987194 -15.468548 28.262839 39.578720 -0.592320 0.775470 0.077884 -0.021598 -413771.000000 0 0 1
23.847194 -14.391348 28.538809 39.878104 -0.542976 0.773240 0.065440 -0.023706 197322.000000 0 0 1
24.388094 -13.878248 27.359669 39.191024 -0.517358 0.798041 0.064632 -0.028530 -63170.500000 0 0 1
25.002494 -12.467248 27.516249 39.213530 -0.462559 0.793011 0.060739 -0.023689 476479.000000 0 0 1
24.015594 -11.411948 27.580759 38.310306 -0.443603 0.767094 0.064123 -0.027858 529477.000000 0 0 1
24.581694 -10.151648 27.746469 38.434127 -0.391642 0.764219 0.071416 -0.035058 7945.010000 0 0 1
23.526694 -9.019048 27.691679 37.438985 -0.366074 0.738249 0.084638 -0.032786 -198906.000000 0 0 1
22.611194 -9.077948 28.733429 37.673401 -0.381782 0.703322 0.088743 -0.041719 -387302.000000 0 0 1
21.745894 -7.957448 28.760069 36.923521 -0.350794 0.677872 0.089393 -0.038929 579791.000000 0 0 1
20.610294 -8.066948 29.846419 37.157349 -0.373074 0.638075 0.076952 -0.030590 526978.000000 0 0 1
21.073394 -7.489748 31.059759 38.273919 -0.341489 0.624061 0.097277 -0.038488 288062.000000 0 0 1
21.478794 -8.487848 31.941196 39.416013 -0.376339 0.626029 0.112929 -0.038161 -386833.000000 0 0 1
21.434094 -7.921248 33.431839 40.495115 -0.353995 0.599572 0.129318 -0.038443 998343.000000 0 0 1
20.093194 -7.663648 -33.494939 39.804257 -0.364374 2.570834 0.112140 -0.045557 1050100.000000 0 0 1
20.077994 -6.859748 -32.353299 38.690024 -0.329221 2.561147 0.125598 -0.048187 443533.000000 0 0 1
18.662294 -6.790848 -31.692489 37.400678 -0.348987 2.581823 0.125903 -0.046463 590857.000000 0 0 1
18.764194 -6.061748 -30.487829 36.309055 -0.312466 2.567482 0.128046 -0.044237 80624.900000 0 0 1
17.514494 -5.713148 -29.955239 35.166943 -0.315313 2.590210 0.123361 -0.038056 -61202.300000 0 0 1
17.686694 -4.744848 -28.797179 34.126386 -0.262101 2.575194 0.108717 -0.035453 178158.000000 0 0 1
18.463494 -5.301648 -27.689749 33.700598 -0.279619 2.535078 0.101348 -0.026906 435591.000000 0 0 1
17.936594 -6.359548 -26.892739 32.945177 -0.340729 2.525751 0.118016 -0.035858 467110.000000 0 0 1
16.515994 -6.329048 -26.224879 31.631933 -0.365947 2.548227 0.118580 -0.041308 730000.000000 0 0 1
16.429994 -5.206548 -25.338319 30.644465 -0.306882 2.544277 0.100250 -0.046745 384733.000000 0 0 1
15.074094 -4.993048 -24.933479 29.560738 -0.319860 2.574500 0.115662 -0.046876 502809.000000 0 0 1
14.717894 -3.895848 -23.902979 28.339838 -0.258767 2.574453 0.098744 -0.039026 1507.590000 0 0 1
14.890594 -2.576048 -24.432279 28.728071 -0.171303 2.587669 0.074868 -0.043077 16819.400000 0 0 1
14.546694 -1.598948 -23.456079 27.646891 -0.109479 2.583783 0.086237 -0.041826 -157153.000000 0 0 1
15.071394 -0.177948 -23.757779 28.135576 -0.011806 2.576247 0.071838 -0.041328 -291091.000000 0 0 1
14.512294 0.422052 -24.883179 28.808981 0.029074 2.613421 0.079320 -0.039891 -100527.000000 0 0 1
14.976294 1.748052 -25.064279 29.250011 0.116195 2.600018 0.058652 -0.011831 -215590.000000 0 0 1
14.342494 2.479052 -26.264169 30.027644 0.171156 2.635543 0.044178 -0.005177 59678.200000 0 0 1
13.050994 3.048052 -26.139469 29.375005 0.229437 2.667822 0.076036 -0.027208 272324.000000 0 0 1
12.679894 3.627052 -27.379989 30.390772 0.278608 2.692706 0.086466 -0.026265 75622.300000 0 0 1
11.287994 4.302052 -27.325519 29.876587 0.364123 2.725346 0.096429 -0.031918 116664.000000 0 0 1
11.363894 5.457052 -26.576359 29.414628 0.447690 2.698682 0.068023 -0.031329 -564705.000000 0 0 1
10.178394 6.166052 -26.592109 29.133489 0.544672 2.720806 0.070213 -0.041130 -638414.000000 0 0 1
9.180594 5.301852 -30.844319 32.615410 0.523716 2.810531 0.091241 -0.032885 -119111.000000 0 0 1
9.043994 4.290552 -29.891719 31.523285 0.442966 2.818451 0.091076 -0.019610 323839.000000 0 0 1
8.512594 3.115052 -30.458469 31.778706 0.350799 2.852333 0.079377 -0.011444 -177009.000000 0 0 1
8.350994 2.035152 -29.381319 30.612789 0.239042 2.856988 0.089600 -0.015747 -572585.000000 0 0 1
9.586794 1.605752 -28.910469 30.500824 0.165956 2.817244 0.105572 -0.028626 -276494.000000 0 0 1
9.488194 0.667652 -27.845259 29.424990 0.070251 2.812430 0.119492 -0.037322 -57745.500000 0 0 1
10.862494 0.399552 -27.222379 29.312307 0.036766 2.761692 0.108956 -0.048471 -34882.800000 0 0 1
11.795894 -0.425448 -27.877459 30.273368 -0.036052 2.741070 0.076426 -0.030571 50497.800000 0 0 1
12.786594 -0.918348 -27.014419 29.901826 -0.071698 2.698516 0.090443 -0.038117 -64926.700000 0 0 1
13.375294 -2.294048 -27.457539 30.628052 -0.169861 2.682564 0.084961 -0.035196 -52859.400000 0 0 1
12.348394 -3.261048 -27.487579 30.309805 -0.258192 2.706634 0.098229 -0.038555 14282.500000 0 0 1
12.732194 -4.553948 -27.802089 30.916070 -0.343493 2.688908 0.117007 -0.039726 -335915.000000 0 0 1
11.841494 -5.562548 -27.053149 30.050554 -0.439157 2.691150 0.100250 -0.044626 -68733.200000 0 0 1
11.922294 -5.518348 -25.681069 28.846327 -0.433496 2.668738 0.120795 -0.039180 -105911.000000 0 0 1
11.200194 -6.538448 -25.053879 28.211567 -0.528408 2.663929 0.122786 -0.043290 -236257.000000 0 0 1
11.080994 -6.342248 -23.519979 26.761950 -0.519843 2.644262 0.126589 -0.049895 470613.000000 0 0 1
12.329494 -6.323148 -22.807179 26.686439 -0.473873 2.595645 0.138045 -0.049132 634747.000000 0 0 1
12.149194 -6.251448 -21.406279 25.395123 -0.475225 2.573500 0.141687 -0.058892 620032.000000 0 0 1
13.542994 -6.181048 -20.691779 25.490542 -0.428165 2.517927 0.150028 -0.055493 692594.000000 0 0 1
14.193994 -4.948848 -20.757479 25.628763 -0.335479 2.514827 0.130408 -0.055135 -1227360.000000 0 0 1
15.429994 -5.015048 -20.165179 25.881844 -0.314250 2.464064 0.135090 -0.044739 -813083.000000 0 0 1
15.960194 -3.639848 -19.720679 25.629699 -0.224223 2.448770 0.134302 -0.034948 44816.900000 0 0 1
16.762394 -2.918448 -20.665779 26.768818 -0.172379 2.452793 0.115312 -0.030082 351406.000000 0 0 1
17.300194 -1.778848 -19.984179 26.492044 -0.102462 2.425454 0.130309 -0.022054 -83618.600000 0 0 1
18.425694 -1.147148 -20.815679 27.822916 -0.062178 2.416064 0.095884 -0.020250 54227.200000 0 0 1
19.654594 -1.856348 -20.750279 28.641284 -0.094169 2.381088 0.115237 -0.028982 247621.000000 0 0 1
20.602694 -1.183948 -21.575779 29.856104 -0.057403 2.378438 0.109948 -0.017106 -150115.000000 0 0 1
21.931394 -1.916048 -21.727179 30.931013 -0.087144 2.349616 0.083188 -0.020184 -1241810.000000 0 0 1
22.793894 -1.874048 -20.601379 30.781333 -0.082033 2.304038 0.091388 -0.023017 -113673.000000 0 0 1
23.952894 -2.606148 -20.891279 31.890103 -0.108377 2.285114 0.075608 -0.021545 -48272.500000 0 0 1
25.122094 -1.876548 -21.604379 33.187200 -0.074559 2.279678 0.076863 -0.021617 -968816.000000 0 0 1
24.869394 -1.447548 -22.912179 33.845976 -0.058140 2.314413 0.079990 -0.022405 -176125.000000 0 0 1
25.910894 -0.752548 -23.537279 35.013487 -0.029036 2.308019 0.087267 -0.024764 420426.000000 0 0 1
27.054094 -1.589948 -24.265979 36.377048 -0.058702 2.301063 0.089566 -0.025351 22965.800000 0 0 1
28.094894 -1.930048 -23.386979 36.605996 -0.068590 2.263843 0.094677 -0.021731 954174.000000 0 0 1
29.239794 -2.611648 -23.987279 37.910101 -0.089082 2.255884 0.080279 -0.015848 1282100.000000 0 0 1
30.221794 -1.699148 -24.757379 39.104625 -0.056163 2.256356 0.080157 -0.021693 -1026020.000000 0 0 1
29.799294 -1.271248 -26.056099 39.604725 -0.042634 2.288828 0.074595 -0.021405 -100806.000000 0 0 1
30.486794 -0.234648 -26.682629 40.514964 -0.007697 2.289736 0.077603 -0.020805 -876983.000000 0 0 1
30.004094 0.040752 -28.154779 41.145338 0.001358 2.324407 0.067645 -0.020365 127978.000000 0 0 1
28.695794 0.520152 -28.388669 40.368746 0.018124 2.350732 0.073690 -0.024020 260428.000000 0 0 1
28.300094 1.762852 -27.758019 39.680103 0.062211 2.345557 0.069759 -0.021729 -732935.000000 0 0 1
26.791994 2.041552 -27.886739 38.725303 0.076053 2.374767 0.085435 -0.023041 -159543.000000 0 0 1
26.017594 1.407952 -26.881539 37.436809 0.054063 2.371794 0.088079 -0.017824 179151.000000 0 0 1
24.652494 1.699752 -27.113129 36.684552 0.068840 2.402512 0.087351 -0.020253 -11002.600000 0 0 1
23.668694 1.288652 -25.987579 35.174166 0.054392 2.402123 0.088738 -0.015646 41734.400000 0 0 1
23.742094 2.168552 -24.860879 34.444926 0.091085 2.377134 0.098861 -0.018084 319750.000000 0 0 1
22.933894 1.663852 -23.810979 33.101278 0.072423 2.373644 0.079837 -0.010995 -240837.000000 0 0 1
23.138694 2.365752 -22.474079 32.343162 0.101888 2.339026 0.086150 -0.017557 -410209.000000 0 0 1
22.506194 3.633352 -22.417479 31.973010 0.160057 2.347788 0.101594 -0.017015 490873.000000 0 0 1
22.593294 4.105652 -21.116679 31.196593 0.179758 2.314326 0.100091 -0.029134 -107394.000000 0 0 1
22.057794 5.494252 -20.868279 30.858032 0.244117 2.313480 0.112895 -0.022030 -159918.000000 0 0 1
22.980094 6.409452 -21.407479 32.053797 0.272001 2.302127 0.094053 -0.016639 343417.000000 0 0 1
22.768494 7.758352 -21.024779 31.947420 0.328410 2.289096 0.090716 -0.016797 -301674.000000 0 0 1
23.002294 8.132152 -19.541079 31.258458 0.339822 2.246114 0.109569 -0.024140 65473.500000 0 0 1
24.406594 8.138352 -19.287279 32.154529 0.321855 2.214086 0.092897 -0.021563 659271.000000 0 0 1
24.871594 8.218852 -17.948679 31.753752 0.319155 2.171528 0.110784 -0.038737 -69494.600000 0 0 1
24.631594 9.496252 -17.072479 31.438253 0.367972 2.144859 0.111330 -0.043240 -110589.000000 0 0 1
23.243294 9.716852 -16.908279 30.340696 0.395969 2.161903 0.118287 -0.052881 85233.900000 0 0 1
22.950694 10.959952 -16.337079 30.228381 0.445521 2.141774 0.092687 -0.050874 1106240.000000 0 0 1
21.377194 11.147852 -16.232579 29.064680 0.480686 2.163371 0.100233 -0.045322 1580040.000000 0 0 1
20.658394 11.236152 -17.505579 29.316644 0.498150 2.210703 0.105742 -0.055410 573242.000000 0 0 1
20.071494 9.964152 -17.772379 28.600815 0.460790 2.241317 0.108120 -0.050924 -538082.000000 0 0 1
19.322294 9.948152 -19.106879 28.937684 0.475460 2.291983 0.114433 -0.035013 -392628.000000 0 0 1
20.071494 10.065252 -20.267579 30.248122 0.464823 2.305065 0.110077 -0.032315 31185.900000 0 0 1
19.170794 10.147652 -21.379679 30.456277 0.486834 2.348969 0.093298 -0.023592 283702.000000 0 0 1
19.807394 10.233952 -22.805079 31.892605 0.476897 2.367504 0.098999 -0.019099 -179139.000000 0 0 1
20.422094 11.473352 -23.079379 32.884000 0.511866 2.348777 0.080105 -0.024423 91998.500000 0 0 1
20.772694 11.627352 -24.436479 34.115123 0.510292 2.369274 0.103784 -0.024226 -69350.000000 0 0 1
21.576594 12.901852 -24.727879 35.262943 0.538915 2.347935 0.106746 -0.035323 -150006.000000 0 0 1
21.955794 13.109052 -26.058709 36.509731 0.538259 2.365630 0.127146 -0.038135 413813.000000 0 0 1
22.418294 14.460952 -26.328969 37.482177 0.572889 2.349616 0.112933 -0.026728 563063.000000 0 0 1
21.206994 15.243152 -26.957689 37.534081 0.623219 2.372036 0.077580 -0.023113 796759.000000 0 0 1
20.058394 15.154452 -26.120259 36.252786 0.647022 2.375324 0.079146 -0.026197 88765.600000 0 0 1
18.923194 15.605252 -26.872739 36.383447 0.689599 2.401785 0.089799 -0.032215 623192.000000 0 0 1
17.574994 15.256052 -26.198199 35.042448 0.714883 2.415257 0.092928 -0.042707 55905.400000 0 0 1
17.298894 13.879952 -25.993319 34.169539 0.676179 2.435212 0.086370 -0.028377 54545.300000 0 0 1
15.925594 13.538752 -25.940739 33.314325 0.704567 2.463334 0.064731 -0.033006 47618.700000 0 0 1
15.759194 12.001552 -25.922769 32.624828 0.650858 2.489098 0.051051 -0.026620 -400392.000000 0 0 1
14.418094 11.599052 -25.972149 31.889998 0.677466 2.522541 0.045781 -0.028417 -238593.000000 0 0 1
14.323494 10.190652 -25.737549 31.167824 0.618379 2.542368 0.048585 -0.030824 -389077.000000 0 0 1
12.886494 9.665552 -25.661609 30.298561 0.643535 2.581034 0.095834 -0.042098 -189495.000000 0 0 1
12.190394 10.094052 -24.507479 29.173826 0.691602 2.568172 0.122570 -0.049219 16901.000000 0 0 1
11.048794 9.311152 -24.209879 28.193823 0.700258 2.603513 0.122953 -0.048607 -31298.400000 0 0 1
10.244194 9.909152 -23.050479 27.100911 0.768775 2.587812 0.117467 -0.048196 -534596.000000 0 0 1
9.435494 10.961552 -23.486079 27.582242 0.860077 2.589622 0.116610 -0.055271 -52295.600000 0 0 1
8.750594 11.716952 -22.450479 26.793355 0.929326 2.564243 0.120082 -0.043569 784892.000000 0 0 1
9.683694 12.516752 -21.468679 26.671093 0.912325 2.506374 0.116694 -0.042382 259241.000000 0 0 1
10.421594 11.696252 -20.565879 25.852801 0.842965 2.490627 0.145966 -0.046731 92635.800000 0 0 1
11.328794 12.566752 -19.861179 26.090827 0.837159 2.436008 0.180940 -0.048843 293190.000000 0 0 1
12.460394 11.686652 -19.245179 25.733561 0.753366 2.415634 0.180851 -0.045268 -207951.000000 0 0 1
13.315294 11.064952 -20.159279 26.573045 0.693357 2.432014 0.152844 -0.039292 -61982.000000 0 0 1
12.899394 9.776352 -20.720079 26.292453 0.648533 2.478451 0.147833 -0.050338 -194606.000000 0 0 1
14.095794 8.879452 -21.185679 26.951235 0.562141 2.475229 0.148936 -0.040686 412372.000000 0 0 1
14.874894 8.358852 -20.112079 26.374772 0.511967 2.438042 0.178317 -0.061397 641579.000000 0 0 1
15.940194 7.598152 -20.690679 27.201579 0.444807 2.435099 0.133844 -0.056594 310680.000000 0 0 1
16.527394 6.528452 -19.706579 26.535348 0.376195 2.407821 0.212024 -0.065754 148246.000000 0 0 1
17.511294 6.980652 -18.798879 26.622786 0.379331 2.354800 0.159854 -0.049492 53630.300000 0 0 1
17.517994 6.270552 -17.527179 25.561728 0.343739 2.326335 0.172662 -0.077130 -476713.000000 0 0 1
18.763294 6.617752 -16.704579 25.978814 0.339075 2.269215 0.229386 -0.057911 642519.000000 0 0 1
19.954994 6.102852 -17.353479 27.140188 0.296798 2.264516 0.171436 -0.069754 1309170.000000 0 0 1
21.144394 6.475052 -16.623879 27.665231 0.297163 2.215416 0.164494 -0.075770 164376.000000 0 0 1
22.193694 5.389552 -16.643879 28.259972 0.238230 2.200563 0.160099 -0.065166 -935984.000000 0 0 1
23.200094 5.458152 -15.665279 28.520812 0.231062 2.152272 0.129858 -0.063986 490556.000000 0 0 1
23.875394 4.294152 -15.180979 28.617063 0.177954 2.129971 0.202837 -0.074309 -85116.400000 0 0 1
24.848094 3.577052 -16.111279 29.829455 0.142975 2.141368 0.087864 -0.019984 -597448.000000 0 0 1
25.654994 2.683052 -15.358479 30.020998 0.104203 2.107832 0.093970 -0.023763 21804.000000 0 0 1
26.685994 2.203552 -16.182479 31.286907 0.082386 2.114406 0.076012 -0.026720 453247.000000 0 0 1
27.577394 1.030652 -15.533379 31.667977 0.037356 2.083468 0.090866 -0.039791 500753.000000 0 0 1
26.936194 -0.207548 -15.575679 31.115967 -0.007705 2.095052 0.115140 -0.040623 1426.780000 0 0 1
27.873894 -1.261748 -15.618979 31.976530 -0.045235 2.081110 0.111339 -0.028963 -146681.000000 0 0 1
27.220394 -2.655548 -15.823479 31.597219 -0.097250 2.095304 0.096417 -0.027588 -349023.000000 0 0 1
26.632494 -3.095948 -14.665779 30.560754 -0.115728 2.071325 0.111504 -0.028886 53549.200000 0 0 1
26.264894 -4.466648 -14.717979 30.437058 -0.168450 2.075507 0.098202 -0.028888 -432496.000000 0 0 1
25.520494 -5.104848 -13.467979 29.304292 -0.197424 2.048331 0.116068 -0.032647 1454210.000000 0 0 1
24.148194 -4.799048 -13.170479 27.921813 -0.196177 2.062004 0.166239 -0.030198 890839.000000 0 0 1
23.187194 -5.084048 -14.152779 27.636835 -0.215845 2.108422 0.179088 -0.043451 -866055.000000 0 0 1
21.754294 -4.781748 -13.678579 26.138438 -0.216366 2.121530 0.195667 -0.045079 -490596.000000 0 0 1
21.112094 -5.877148 -13.094979 25.529196 -0.271504 2.109404 0.205726 -0.046327 101978.000000 0 0 1
21.436094 -6.157648 -11.771879 25.219038 -0.279725 2.056449 0.237497 -0.041216 -445069.000000 0 0 1
20.809394 -7.492748 -11.373479 24.870226 -0.345614 2.045768 0.187298 -0.034440 -238865.000000 0 1 0
19.422594 -7.572248 -11.190479 23.660154 -0.371742 2.063452 0.186654 -0.026917 84850.900000 0 1 0
18.983294 -8.840548 -11.724779 23.999816 -0.435834 2.081208 0.165695 -0.038050 1421170.000000 0 1 0
17.436994 -9.113748 -11.456179 22.767371 -0.481617 2.098076 0.147873 -0.042788 1409080.000000 0 1 0
16.485894 -8.268548 -12.038879 22.024718 -0.464889 2.149104 0.132384 -0.029517 -365339.000000 0 1 0
15.268994 -8.928948 -12.298779 21.543636 -0.529151 2.178371 0.128062 -0.021094 17701.500000 0 1 0
14.175694 -7.834848 -12.450279 20.429013 -0.504911 2.226152 0.098465 -0.019467 -582244.000000 0 1 0
14.179394 -7.016448 -13.667579 20.906661 -0.459506 2.283316 0.086867 -0.023032 -773427.000000 0 1 0
15.258794 -6.173848 -13.848479 21.511103 -0.384474 2.270228 0.085068 -0.014864 -760291.000000 0 1 0
15.005894 -5.058248 -14.862679 21.717780 -0.325122 2.324516 0.076926 -0.015627 -57493.700000 0 1 0
14.075194 -4.108648 -14.373379 20.532562 -0.284016 2.346234 0.088780 -0.017476 61340.000000 0 1 0
13.926194 -2.967148 -15.211679 20.835979 -0.209923 2.389218 0.080595 -0.025768 -714472.000000 0 1 0
15.088794 -2.011148 -15.418679 21.666843 -0.132507 2.362606 0.119880 -0.028044 -1021680.000000 0 1 0
16.076794 -2.576948 -16.268479 23.016676 -0.158938 2.355779 0.121053 -0.027918 863208.000000 0 1 0
17.348894 -1.911548 -16.134379 23.768810 -0.109740 2.316930 0.154434 -0.034407 897379.000000 0 1 0
18.302394 -2.499348 -15.091279 23.853114 -0.135719 2.255799 0.175844 -0.037663 -398114.000000 0 1 0
17.783294 -2.285748 -13.781279 22.614018 -0.127833 2.226116 0.156052 -0.026276 22197.400000 0 1 0
18.758994 -2.714348 -12.912079 22.934457 -0.143699 2.168807 0.173542 -0.025821 -433098.000000 0 1 0
18.280194 -2.662748 -11.448479 21.733002 -0.144646 2.125602 0.169462 -0.019205 -118979.000000 0 1 0
18.137894 -1.402748 -10.883079 21.198875 -0.077184 2.109915 0.161466 -0.015819 626217.000000 0 1 0
17.645494 -1.646448 -9.572079 20.141969 -0.093038 2.066022 0.139309 -0.012332 -737857.000000 0 1 0
17.522394 -0.329648 -8.720079 19.575054 -0.018811 2.032494 0.119580 -0.008999 625954.000000 0 1 0
18.766694 0.124052 -8.107579 20.443508 0.006610 1.978590 0.144881 -0.010589 1625180.000000 0 1 0
19.686294 0.758652 -8.986479 21.653695 0.038518 1.998749 0.168879 -0.006241 -170557.000000 0 1 0
19.229094 2.064052 -9.752279 21.659300 0.106931 2.037851 0.171938 -0.013610 -1025200.000000 0 1 0
18.999394 3.160252 -8.895079 21.215244 0.164825 2.003446 0.134223 -0.001588 268695.000000 0 1 0
18.479494 4.151152 -9.686879 21.273443 0.220968 2.043563 0.134301 -0.014152 -764555.000000 0 1 0
18.472394 5.494152 -8.976879 21.260277 0.289093 2.006708 0.113589 -0.002433 -276127.000000 0 1 0
17.815794 6.459052 -9.728379 21.301718 0.347808 2.045072 0.093656 -0.007478 241244.000000 0 1 0
18.272194 7.681052 -9.240579 21.869154 0.397941 2.007042 0.121366 -0.006669 -304745.000000 0 1 0
-27.588986 -28.915608 5.616921 40.358573 0.808872 1.431168 0.118949 -0.009106 -17653.200000 0 0 1
-27.748376 -27.810138 6.425821 39.807881 0.786510 1.408666 0.120153 -0.009499 -304065.000000 0 0 1
-27.292306 -26.666188 5.803021 38.595733 0.773795 1.419870 0.142273 -0.024802 -739290.000000 0 0 1
-27.481296 -25.279808 6.471021 37.896761 0.743697 1.399202 0.106973 -0.022421 1335660.000000 0 0 1
-28.836506 -24.720848 6.505321 38.535486 0.708703 1.401170 0.090426 -0.026787 1349510.000000 0 0 1
-29.806476 -25.404428 7.275121 39.833885 0.705835 1.387129 0.094983 -0.019396 -131569.000000 0 0 1
-29.715786 -25.257508 8.779821 39.975679 0.704476 1.349362 0.112510 -0.018507 -951336.000000 0 0 1
-28.580866 -25.790378 9.336721 39.612926 0.734120 1.332859 0.101446 -0.025633 -1117780.000000 0 0 1
-28.852576 -26.142018 10.675621 40.371341 0.736150 1.303178 0.088417 -0.028866 -422989.000000 0 0 1
-27.762106 -26.994578 11.351221 40.352101 0.771382 1.285643 0.062333 -0.023017 671022.000000 0 0 1
-26.549976 -26.329968 11.725521 39.187451 0.781238 1.266925 0.052176 -0.011178 242278.000000 0 0 1
-26.677676 -25.460238 12.753221 39.020082 0.762052 1.237841 0.067025 -0.011831 -268991.000000 0 0 1
-25.345646 -25.135748 13.521921 38.171324 0.781240 1.208692 0.076884 -0.017981 579148.000000 0 0 1
-24.865806 -26.205608 14.295221 38.850941 0.811626 1.193992 0.055197 -0.017663 651229.000000 0 0 1
-23.642006 -25.853978 14.984421 38.103878 0.830058 1.166631 0.061774 -0.016543 724508.000000 0 0 1
-22.861606 -27.026748 15.546521 38.662546 0.868694 1.156978 0.057298 -0.021022 -728431.000000 0 0 1
-23.581006 -27.780998 16.453021 39.981866 0.866989 1.146684 0.048166 -0.010179 -237926.000000 0 0 1
-22.876106 -28.879348 16.993421 40.572273 0.900875 1.138625 0.053802 -0.007216 -604468.000000 0 0 1
-23.758606 -29.844718 17.732821 42.066989 0.898454 1.135656 0.065118 -0.019814 -921349.000000 0 0 1
-24.694606 -30.390658 16.871721 42.638840 0.888436 1.163978 0.038148 -0.016212 -314609.000000 0 0 1
-25.330336 -31.462468 17.552621 44.040974 0.892955 1.160859 0.057638 -0.018648 -365981.000000 0 0 1
-26.328076 -32.237518 16.710421 44.851570 0.885961 1.189018 0.056947 -0.022468 -102556.000000 0 0 1
-25.639196 -32.896318 15.657421 44.549871 0.908747 1.211668 0.059413 -0.020649 201367.000000 0 0 1
-26.450026 33.647162 15.057121 45.370169 -0.904589 1.232508 0.064853 -0.024808 -592002.000000 0 0 1
-25.672796 32.781473 14.032921 43.939052 -0.906415 1.245729 0.081478 -0.031561 396558.000000 0 0 1
-24.581706 31.969573 14.481721 42.848969 -0.915303 1.226036 0.070710 -0.025244 669558.000000 0 0 1
-23.363206 32.690651 14.506521 42.719518 -0.950289 1.224330 0.066990 -0.029430 -18118.100000 0 0 1
-22.088306 31.790651 14.421421 41.310000 -0.963565 1.214183 0.063830 -0.039908 254693.000000 0 0 1
-21.892706 31.247832 13.162821 40.360593 -0.959658 1.238589 0.049324 -0.029077 -552254.000000 0 0 1
-20.864506 30.329582 13.169421 39.097887 -0.968220 1.227246 0.063048 -0.032797 -456443.000000 0 0 1
-20.694206 29.634072 11.796921 38.020991 -0.961196 1.255315 0.060348 -0.031007 142314.000000 0 0 1
-20.300106 30.583692 10.804121 38.264677 -0.984812 1.284551 0.049145 -0.020269 142744.000000 0 0 1
-20.846106 30.219172 9.521221 37.926404 -0.966928 1.317037 0.069901 -0.026967 111180.000000 0 0 1
-20.126406 30.971132 8.397021 37.878664 -0.994531 1.347257 0.060048 -0.017790 459706.000000 0 0 1
-18.962406 30.261952 7.979321 36.592733 -1.011041 1.350973 0.063657 -0.026307 -141098.000000 0 0 1
-18.265306 30.906062 6.949221 36.566347 -1.037025 1.379589 0.092181 -0.021901 397438.000000 0 0 1
-17.322106 29.902982 6.192121 35.108205 -1.045754 1.393496 0.105357 -0.026264 97756.100000 0 0 1
-18.033906 28.782162 5.626621 34.428091 -1.011072 1.406629 0.100675 -0.013247 152074.000000 0 0 1
-18.260006 27.735132 6.539821 33.844270 -0.988559 1.376340 0.070803 -0.013930 -258127.000000 0 0 1
-19.384806 26.773622 6.104821 33.613485 -0.944127 1.388165 0.060488 -0.007593 -79483.100000 0 0 1
-19.155306 25.961382 4.985521 32.646202 -0.935124 1.417483 0.067504 -0.017961 594012.000000 0 0 1
-20.335606 25.191752 4.759321 32.723270 -0.891661 1.424837 0.055716 -0.017355 212430.000000 0 0 1
-20.180806 24.413082 3.431721 31.859696 -0.880022 1.462873 0.083597 -0.035734 -1006420.000000 0 0 1
-20.295006 25.052382 2.179621 32.315010 -0.889925 1.503296 0.097677 -0.043913 116842.000000 0 0 1
-19.318806 25.968322 1.714421 32.411560 -0.931187 1.517876 0.095067 -0.040291 593296.000000 0 0 1
-17.794606 25.581602 1.683121 31.207359 -0.963028 1.516837 0.093827 -0.048884 206366.000000 0 0 1
-17.559306 24.400922 0.951121 30.077215 -0.947026 1.539168 0.141406 -0.056814 100457.000000 0 0 1
-17.391506 24.629942 -0.447479 30.154581 -0.955980 1.585636 0.129666 -0.056015 -178697.000000 0 0 1
-16.853406 23.375432 -1.170479 28.841257 -0.946123 1.611391 0.147824 -0.068434 -50548.500000 0 0 1
-17.884506 22.397152 -1.187379 28.686196 -0.896960 1.612200 0.160858 -0.079460 178315.000000 0 0 1
-17.703006 21.137152 -1.812579 27.630799 -0.873586 1.636443 0.169739 -0.069121 -324461.000000 0 0 1
-16.517406 20.252052 -1.348179 26.168452 -0.886620 1.622338 0.165431 -0.062701 149974.000000 0 0 1
-16.613106 19.630452 -0.106179 25.716944 -0.868459 1.574925 0.163586 -0.059474 183157.000000 0 0 1
-15.442206 18.855452 0.114321 24.372174 -0.884590 1.566106 0.144775 -0.051330 380747.000000 0 1 0
-15.731506 17.734252 1.120521 23.732668 -0.845171 1.523564 0.102244 -0.044132 203682.000000 0 1 0
-16.605506 16.805452 0.494521 23.630713 -0.791383 1.549868 0.100012 -0.038085 269213.000000 0 1 0
-17.097706 15.835452 1.418221 23.347472 -0.747089 1.510015 0.114266 -0.061153 302531.000000 0 1 0
-17.767306 14.614952 0.671221 23.015745 -0.688356 1.541629 0.100967 -0.054797 -389110.000000 0 1 0
-18.983406 14.865652 0.035821 24.111379 -0.664342 1.569311 0.176056 -0.065847 -76698.000000 0 1 0
-19.628106 13.600452 -0.300579 23.881482 -0.605950 1.583383 0.190837 -0.058679 102363.000000 0 1 0
-20.912506 13.804752 -1.165979 25.085127 -0.583456 1.617294 0.195162 -0.051227 49164.900000 0 0 1
-21.638006 12.582252 -1.467179 25.073273 -0.526697 1.629345 0.192411 -0.058218 1103150.000000 0 0 1
-22.358906 12.013252 -0.344879 25.384205 -0.493034 1.584383 0.199908 -0.061952 666922.000000 0 0 1
-23.777306 12.702052 -0.075779 26.957525 -0.490639 1.573607 0.240038 -0.061741 628908.000000 0 0 1
-23.805506 14.098152 0.245021 27.668033 -0.534681 1.561940 0.248750 -0.069543 476773.000000 0 0 1
-25.149066 14.576352 0.204421 29.068666 -0.525283 1.563764 0.233641 -0.059994 492735.000000 0 0 1
-25.324726 16.036252 0.688721 29.982953 -0.564492 1.547824 0.228778 -0.062210 -102237.000000 0 0 1
-25.067116 16.190352 2.093021 29.914354 -0.573474 1.500772 0.225127 -0.060087 -131317.000000 0 0 1
-25.118006 17.512352 2.657821 30.735333 -0.608846 1.484214 0.198537 -0.054560 530712.000000 0 0 1
-26.496236 18.253352 2.677321 32.286273 -0.603240 1.487777 0.223135 -0.051070 -125469.000000 0 0 1
-27.469376 17.654852 3.503321 32.841037 -0.571234 1.463918 0.223948 -0.057562 620891.000000 0 0 1
-28.657206 18.443652 3.763321 34.286533 -0.571860 1.460814 0.209407 -0.056934 425626.000000 0 0 1
-29.664186 18.218752 2.645321 34.912528 -0.550771 1.494954 0.188813 -0.059104 -957360.000000 0 0 1
-30.764196 19.150052 2.782721 36.344240 -0.556784 1.494156 0.166559 -0.055347 478127.000000 0 0 1
-31.484266 19.031352 1.563221 36.822480 -0.543701 1.528331 0.153499 -0.044399 -402087.000000 0 0 1
-32.844886 19.749152 1.510921 38.354901 -0.541364 1.531393 0.153436 -0.044889 -198754.000000 0 0 1
-33.831046 19.044252 2.271121 38.889346 -0.512710 1.512364 0.184083 -0.039036 -116581.000000 0 0 1
-35.040816 19.754252 2.271721 40.289577 -0.513338 1.514382 0.172864 -0.037335 -89462.200000 0 0 1
-35.413668 20.323652 3.671321 40.995821 -0.521002 1.481123 0.156402 -0.046460 -448824.000000 0 0 1
-34.460118 21.261152 4.081621 40.696388 -0.552810 1.470333 0.164875 -0.045803 -13799.000000 0 0 1
-34.783345 21.907552 5.273221 41.444285 -0.562064 1.443214 0.161690 -0.046541 -88783.300000 0 0 1
-33.661596 22.868092 5.747021 41.098430 -0.596734 1.430501 0.169708 -0.050336 -58860.400000 0 0 1
-33.682036 24.136072 5.126421 41.752961 -0.621771 1.447706 0.160710 -0.043361 362230.000000 0 0 1
-32.570176 24.909862 5.544821 41.377079 -0.652910 1.436385 0.161513 -0.049173 42388.200000 0 0 1
-32.855706 26.412732 5.512321 42.514886 -0.677115 1.440774 0.166435 -0.045169 -156658.000000 0 0 1
-33.829026 26.852502 6.445421 43.669249 -0.670931 1.422659 0.161984 -0.037795 1847.740000 0 0 1
-34.299126 28.082082 6.087921 44.744789 -0.686064 1.434314 0.151904 -0.034402 -434717.000000 0 0 1
-35.371897 28.594802 7.051221 46.027747 -0.679845 1.416996 0.142939 -0.033837 -715568.000000 0 0 1
-34.852889 28.873742 8.377921 46.028322 -0.691847 1.387759 0.145322 -0.040490 1124330.000000 0 0 1
-35.853657 29.325442 9.344721 47.252408 -0.685573 1.371722 0.148869 -0.037390 683487.000000 0 0 1
-37.083386 28.437592 9.631121 47.714072 -0.654202 1.367549 0.146464 -0.035338 -306925.000000 0 0 1
-36.749536 27.199112 10.172321 46.837978 -0.637149 1.351871 0.148546 -0.042429 395526.000000 0 0 1
-37.751986 26.752522 11.096921 47.582051 -0.616500 1.335412 0.158802 -0.038012 308079.000000 0 0 1
-37.372016 25.396982 11.788221 46.697285 -0.596884 1.315596 0.158326 -0.031772 157203.000000 0 0 1
-36.216306 25.743282 12.540821 46.169358 -0.617951 1.295714 0.168078 -0.038538 282407.000000 0 0 1
-35.613916 24.611102 13.170921 45.249647 -0.604696 1.275449 0.151650 -0.029229 -45079.800000 0 0 1
-34.405551 25.122732 13.989021 44.839562 -0.630704 1.253521 0.173243 -0.027856 -80701.400000 0 0 1
-34.704664 25.917182 15.097521 45.869916 -0.641445 1.235406 0.160517 -0.026336 630828.000000 0 0 1
-33.461346 26.248472 15.731321 45.344442 -0.665182 1.216501 0.191084 -0.021219 752829.000000 0 0 1
-33.658296 27.338792 16.748421 46.484407 -0.682163 1.202205 0.183376 -0.020825 -20668.900000 0 0 1
-33.697116 28.551242 16.024321 46.983486 -0.702919 1.222749 0.191705 -0.024082 360.096000 0 0 1
-33.848876 29.629492 16.950521 48.072584 -0.719026 1.210445 0.162843 -0.020739 32309.900000 0 0 1
-33.587376 30.956552 16.265921 48.487113 -0.744660 1.228693 0.137498 -0.017800 -287140.000000 0 0 1
-32.264616 31.163882 15.866121 47.580740 -0.768046 1.230828 0.131389 -0.010658 -600770.000000 0 0 1
-31.894196 32.420042 15.313821 47.987623 -0.793574 1.245995 0.105112 -0.003922 1683190.000000 0 0 1
-30.331166 32.517110 14.898621 46.896812 -0.820165 1.247505 0.135165 -0.013742 2216100.000000 0 0 1
-29.883486 31.699032 13.776721 45.690802 -0.814871 1.264509 0.121149 -0.011967 272091.000000 0 0 1
-29.681456 30.341292 14.067321 44.715460 -0.796391 1.250765 0.137229 -0.017885 -10947.300000 0 0 1
-30.887196 29.494422 13.584421 44.816027 -0.762336 1.262836 0.167061 -0.021995 289852.000000 0 0 1
-30.817106 29.291082 12.189621 44.229497 -0.760016 1.291583 0.172855 -0.034157 -62612.900000 0 0 1
-31.849796 28.452662 11.701021 44.281795 -0.729123 1.303381 0.162973 -0.036879 250351.000000 0 0 1
-31.960876 28.339952 10.195721 43.915865 -0.725422 1.336494 0.169082 -0.034785 108331.000000 0 0 1
-30.888736 27.568562 9.711321 42.525867 -0.728663 1.340401 0.154768 -0.030406 -269787.000000 0 0 1
-30.783916 27.612522 8.342321 42.186434 -0.731143 1.371735 0.151650 -0.036448 592353.000000 0 0 1
-29.602696 26.712072 7.830021 40.634513 -0.734113 1.376890 0.170273 -0.040246 817375.000000 0 0 1
-29.130576 27.008622 6.506821 40.254128 -0.747618 1.408440 0.179329 -0.048419 174479.000000 0 0 1
-28.015026 26.218022 6.104321 38.852144 -0.752275 1.413026 0.150502 -0.036746 318946.000000 0 0 1
-27.495566 26.502732 4.693121 38.476309 -0.767014 1.448518 0.153279 -0.032524 -265767.000000 0 0 1
-26.987866 27.811142 4.480821 39.011310 -0.800421 1.455683 0.120599 -0.020009 103329.000000 0 0 1
-26.833806 28.019772 3.086521 38.918985 -0.807015 1.491407 0.115392 -0.017117 -81849.600000 0 0 1
-25.827166 29.175782 2.807421 39.065975 -0.846204 1.498871 0.097985 -0.015703 436656.000000 0 0 1
-24.492206 28.762552 3.069621 37.902178 -0.865414 1.489720 0.078516 -0.009718 110281.000000 0 0 1
-23.577606 29.830812 2.837621 38.129161 -0.901950 1.496306 0.079756 0.002587 548508.000000 0 0 1
-22.094406 29.390722 2.897021 36.883195 -0.926178 1.492170 0.057962 -0.003644 669238.000000 0 0 1
-21.138106 30.348902 2.412821 37.063420 -0.962421 1.505650 0.081142 -0.005519 661482.000000 0 0 1
-19.812706 29.893192 2.696821 35.964136 -0.985487 1.495739 0.098453 -0.020981 317366.000000 0 0 1
-18.696106 30.837882 2.304221 36.136253 -1.025779 1.506988 0.102283 -0.021212 -339805.000000 0 0 1
-18.581406 32.031959 3.129821 37.163299 -1.045145 1.486478 0.122814 -0.020121 799819.000000 0 0 1
-17.492806 32.863274 2.630021 37.321710 -1.081651 1.500269 0.131193 -0.020619 867793.000000 0 0 1
-17.100506 -33.522618 3.604421 37.804565 1.099087 1.475308 0.147022 -0.026780 -336703.000000 0 0 1
-18.130906 -32.588268 3.634021 37.469069 1.063081 1.473656 0.165799 -0.027853 -233189.000000 0 0 1
-17.862606 -31.489858 4.521721 36.484652 1.054806 1.446542 0.153389 -0.049131 9438.630000 0 0 1
-18.992106 -30.442998 4.655621 36.182193 1.013019 1.441767 0.179344 -0.039041 41446.500000 0 0 1
-19.286806 -29.641258 3.505221 35.536906 0.993947 1.472000 0.203520 -0.044766 244054.000000 0 0 1
-20.347706 -28.757628 3.832821 35.436152 0.955015 1.462423 0.212616 -0.055502 -59865.000000 0 0 1
-20.672806 -27.665138 2.817821 34.650612 0.929057 1.489385 0.193081 -0.067541 88415.500000 0 0 1
-19.799906 -26.545228 2.848521 33.238525 0.929929 1.484992 0.213238 -0.068051 160556.000000 0 0 1
-20.175606 -25.646678 1.827721 32.682530 0.904233 1.514844 0.182071 -0.068026 912226.000000 0 0 1
-19.059406 -24.526648 1.620921 31.103775 0.910182 1.518659 0.138831 -0.049220 1169220.000000 0 0 1
-17.800306 -25.034448 1.213021 30.741599 0.952704 1.531327 0.196978 -0.051863 50325.000000 0 0 1
-16.905206 -23.940648 0.961121 29.323445 0.955968 1.538014 0.161958 -0.038763 578483.000000 0 0 1
-15.577006 -24.369148 0.277521 28.923616 1.002044 1.561201 0.130305 -0.033386 29215.600000 0 0 1
-15.596906 -24.584848 -1.110779 29.136096 1.005458 1.608929 0.115051 -0.028564 145566.000000 0 0 1
-15.398306 -23.428748 -1.913179 28.101145 0.989348 1.638931 0.113543 -0.033530 -165118.000000 0 0 1
-15.611106 -23.552248 -3.440479 28.464925 0.985455 1.691960 0.067491 -0.019103 247065.000000 0 0 1
-14.472106 -24.078148 -4.102279 28.390628 1.029607 1.715798 0.099983 -0.015644 96352.700000 0 0 1
-14.694006 -24.104848 -5.487679 28.758862 1.023357 1.762791 0.068485 -0.014132 42290.600000 0 0 1
-13.414706 -24.536448 -6.253879 28.654889 1.070470 1.790815 0.110033 -0.023561 315093.000000 0 0 1
-13.178206 -25.888678 -6.299079 29.724858 1.099948 1.784328 0.088213 -0.025902 -365520.000000 0 0 1
-12.116306 -26.230658 -7.138279 29.762516 1.138079 1.812999 0.111939 -0.032967 -292978.000000 0 0 1
24.922794 13.055352 27.588519 39.404495 0.482531 0.795208 0.088756 -0.018905 799806.000000 0 0 1
25.888494 12.009752 27.935489 39.935445 0.434355 0.796076 0.097501 -0.027368 1127390.000000 0 0 1
25.247794 10.976752 28.726539 39.788870 0.410109 0.764145 0.104778 -0.031620 171985.000000 0 0 1
25.075194 11.320252 30.267279 40.902587 0.424061 0.737749 0.120278 -0.039146 205052.000000 0 0 1
24.148894 12.357252 30.535459 40.844644 0.472972 0.726355 0.120062 -0.031399 103828.000000 0 0 1
24.345794 12.898552 31.815594 42.087080 0.487207 0.713697 0.109719 -0.034964 -540644.000000 0 0 1
23.289494 13.956052 32.208242 42.125322 0.539862 0.700405 0.103629 -0.034735 437490.000000 0 0 1
22.056194 13.256452 32.430605 41.399919 0.541177 0.670760 0.119966 -0.030359 542913.000000 0 0 1
21.257994 13.840652 33.442549 41.974635 0.577134 0.648928 0.105287 -0.027925 459234.000000 0 0 1
20.129794 12.997952 -33.271159 41.001529 0.573351 2.517445 0.096783 -0.025080 174945.000000 0 0 1
19.051794 12.725852 33.291279 40.413208 0.588898 0.602763 0.091735 -0.018332 -64159.500000 0 0 1
17.891094 12.429752 -33.348739 39.833759 0.607191 2.562936 0.068340 -0.019954 278580.000000 0 0 1
16.553494 12.476052 33.304999 39.228726 0.645853 0.556716 0.059171 -0.015482 29752.800000 0 0 1
16.363894 11.313352 32.575783 38.170022 0.604904 0.548248 0.057726 -0.010619 -1866330.000000 0 0 1
15.064594 11.204852 32.227661 37.297625 0.639513 0.527502 0.075585 -0.009014 -1547470.000000 0 0 1
14.865194 10.230852 31.062289 35.923670 0.602791 0.526294 0.090820 -0.009287 -50659.200000 0 0 1
15.154694 8.876052 31.462134 36.032137 0.529836 0.509130 0.062174 -0.012577 499811.000000 0 0 1
15.970594 8.230652 30.445359 35.351426 0.475862 0.533131 0.071876 -0.024658 509143.000000 0 0 1
16.272994 6.753952 30.757679 35.446593 0.393405 0.520202 0.093179 -0.026935 -56765.900000 0 0 1
15.134494 5.917052 30.776679 34.803281 0.372693 0.485795 0.088101 -0.019498 156504.000000 0 0 1
15.510294 4.568452 31.123879 35.073292 0.286443 0.479132 0.099519 -0.030835 121726.000000 0 0 1
14.275094 3.670952 31.264919 34.565146 0.251704 0.440540 0.080804 -0.022657 113601.000000 0 0 1
14.712394 2.348752 31.549067 34.890038 0.158309 0.441193 0.081638 -0.029295 301379.000000 0 0 1
13.621894 1.581952 32.025202 34.837797 0.115615 0.404585 0.083614 -0.032651 -253089.000000 0 0 1
14.033994 0.227552 32.708727 35.593055 0.016213 0.405352 0.046457 -0.037431 -184825.000000 0 0 1
14.488894 -0.704348 31.781766 34.935723 -0.048575 0.428184 0.037917 -0.035677 70164.400000 0 0 1
14.965994 -1.894348 32.382838 35.724189 -0.125907 0.435953 0.103142 -0.043075 -227589.000000 0 0 1
15.514294 -2.867648 31.319594 35.068984 -0.182776 0.466639 0.114026 -0.046008 -527314.000000 0 0 1
15.770494 -4.215048 31.803274 35.748053 -0.261170 0.474217 0.120808 -0.048276 1127840.000000 0 0 1
16.979794 -4.558848 32.541807 36.987372 -0.262301 0.495337 0.083834 -0.044573 1164830.000000 0 0 1
18.343994 -4.459548 31.807390 36.987832 -0.238480 0.535640 0.101335 -0.046509 27768.900000 0 0 1
18.743994 -3.131248 31.644205 36.912026 -0.165525 0.540819 0.114358 -0.045048 1344700.000000 0 0 1
20.049294 -3.000348 30.993639 37.034874 -0.148546 0.579243 0.132923 -0.053591 1455690.000000 0 0 1
20.494394 -1.526748 30.691849 36.936983 -0.074359 0.590029 0.117698 -0.050836 -132805.000000 0 0 1
20.712594 -0.702648 31.882415 38.026223 -0.033911 0.576396 0.121418 -0.048907 154808.000000 0 0 1
20.328394 0.663652 31.812679 37.758847 0.032635 0.568847 0.111349 -0.039130 -94741.900000 0 0 1
21.314494 1.642852 31.110089 37.747109 0.076925 0.602059 0.126683 -0.033456 -32531.100000 0 0 1
21.548594 1.373752 29.734719 36.747552 0.063665 0.628072 0.124890 -0.037751 329871.000000 0 0 1
22.428494 2.375352 29.188799 36.887201 0.105514 0.657866 0.089877 -0.027887 535031.000000 0 0 1
21.820294 3.878752 29.033149 36.525247 0.175921 0.651988 0.080268 -0.016780 -17742.100000 0 0 1
21.605194 4.616852 30.246759 37.456189 0.210525 0.630855 0.096090 -0.021511 218291.000000 0 0 1
20.785194 5.756652 30.065049 37.000952 0.270187 0.622286 0.099648 -0.023448 -122289.000000 0 0 1
20.306094 6.300852 31.420963 37.938306 0.300874 0.594887 0.105142 -0.025507 -196140.000000 0 0 1
19.398094 5.415652 32.029775 37.835457 0.272253 0.561318 0.099269 -0.012374 -39176.600000 0 0 1
19.210794 5.804052 33.352979 38.925092 0.293405 0.541667 0.089538 -0.014751 281408.000000 0 0 1
18.022394 4.975352 -33.463159 38.332021 0.269356 2.632079 0.089751 -0.010657 227643.000000 0 0 1
18.331294 3.600452 -33.289389 38.173066 0.193941 2.630202 0.091392 -0.004957 -36195.400000 0 0 1
17.233794 2.808352 -32.919749 37.263928 0.161536 2.653911 0.074517 -0.004320 -74066.800000 0 0 1
17.526794 1.323652 -33.254389 37.613760 0.075379 2.655364 0.074213 -0.027846 -335847.000000 0 0 1
18.454894 0.717052 -32.419369 37.311027 0.038835 2.623762 0.072124 -0.024415 -187763.000000 0 0 1
18.512794 -0.694748 -32.669819 37.556934 -0.037510 2.625744 0.089907 -0.026977 127023.000000 0 0 1
19.580694 -1.288448 -31.695589 37.278332 -0.065707 2.587240 0.103389 -0.030856 127592.000000 0 0 1
19.195594 -1.321048 -30.319119 35.909121 -0.068712 2.576108 0.091725 -0.035425 342257.000000 0 0 1
18.916694 -0.099948 -29.617579 35.143311 -0.005284 2.573197 0.064852 -0.020492 -93958.000000 0 0 1
18.691894 -0.396948 -28.108159 33.758155 -0.021233 2.554642 0.073484 -0.017710 16625.800000 0 0 1
17.447094 -1.021348 -27.869449 32.896055 -0.058473 2.581484 0.093295 -0.023229 44887.500000 0 0 1
17.097594 -1.271348 -26.506199 31.567747 -0.074222 2.567455 0.082447 -0.023829 -50524.400000 0 0 1
17.986094 -2.215748 -25.608059 31.371672 -0.122575 2.525737 0.094820 -0.026728 510548.000000 0 0 1
19.248094 -1.625948 -25.194479 31.747356 -0.084273 2.487488 0.095143 -0.016182 236828.000000 0 0 1
20.198394 -2.589348 -24.968479 32.219633 -0.127500 2.457426 0.075511 -0.015296 -439081.000000 0 0 1
21.061194 -2.967548 -26.189739 33.738445 -0.139980 2.459505 0.097514 -0.032997 -1017990.000000 0 0 1
22.126294 -2.122448 -26.433599 34.537122 -0.095632 2.442409 0.099220 -0.020142 -701978.000000 0 0 1
22.579594 -2.248848 -27.781589 35.870769 -0.099269 2.456706 0.108426 -0.027713 976997.000000 0 0 1
24.016294 -1.663248 -28.090479 36.994915 -0.069145 2.433043 0.094020 -0.029045 794085.000000 0 0 1
25.047694 -2.536248 -27.698329 37.430161 -0.100913 2.403867 0.089066 -0.032828 -144252.000000 0 0 1
26.267794 -1.991248 -28.200999 38.590911 -0.075661 2.390243 0.067893 -0.028286 100878.000000 0 0 1
27.520594 -2.812948 -27.916249 39.301561 -0.101859 2.360733 0.075781 -0.022611 -433524.000000 0 0 1
27.438894 -4.019148 -28.658329 39.879146 -0.145442 2.372626 0.099757 -0.033955 766654.000000 0 0 1
28.642394 -4.797948 -28.594949 40.756326 -0.165971 2.348447 0.095979 -0.035217 497944.000000 0 0 1
28.592094 -5.912348 -27.538669 40.135296 -0.203909 2.326974 0.089496 -0.025833 -146193.000000 0 0 1
28.709794 -5.447048 -26.232839 39.269383 -0.187499 2.302345 0.079652 -0.016310 269528.000000 0 0 1
28.907094 -6.579048 -25.377779 39.024808 -0.223781 2.278774 0.058741 -0.013581 -79989.900000 0 0 1
28.999494 -6.250748 -23.862679 38.071905 -0.212299 2.248209 0.049034 -0.007100 371610.000000 0 0 1
30.304494 -5.874748 -23.434779 38.756469 -0.191482 2.220145 0.055632 -0.008051 548668.000000 0 0 1
30.260394 -5.474748 -22.060979 37.846414 -0.178985 2.193099 0.059364 -0.017072 -131913.000000 0 0 1
31.700094 -5.154048 -21.615879 38.713129 -0.161177 2.163204 0.068337 -0.017575 -214246.000000 0 0 1
32.257894 -4.086448 -22.336879 39.448789 -0.126009 2.172715 0.087631 -0.026339 540565.000000 0 0 1
33.558294 -3.741248 -21.830279 40.208421 -0.111027 2.144716 0.102675 -0.022874 838716.000000 0 0 1
34.116394 -2.508848 -22.616979 41.009150 -0.073406 2.154970 0.098291 -0.024081 61187.600000 0 0 1
33.384294 -1.335948 -22.255779 40.144931 -0.039996 2.158421 0.093695 -0.020026 308602.000000 0 0 1
33.912894 -0.154548 -22.834179 40.884080 -0.004557 2.163385 0.080819 -0.019965 -177584.000000 0 0 1
33.015994 1.040652 -22.519279 39.978203 0.031509 2.169157 0.085444 -0.013923 466825.000000 0 0 1
31.828094 0.967452 -23.326279 39.472507 0.030387 2.203032 0.078475 -0.014671 557656.000000 0 0 1
30.802894 1.789052 -22.818979 38.376096 0.058015 2.207582 0.074625 -0.010599 -200287.000000 0 0 1
29.474794 1.679452 -23.591079 37.790515 0.056918 2.244979 0.071917 -0.009671 355795.000000 0 0 1
28.453194 2.583852 -23.088179 36.733153 0.090562 2.250468 0.071865 -0.009080 430077.000000 0 0 1
27.453294 2.713152 -24.049079 36.597851 0.098508 2.287784 0.097430 -0.016047 -489175.000000 0 0 1
26.380694 3.757352 -23.675879 35.645560 0.141477 2.297223 0.089755 -0.011181 -128902.000000 0 0 1
26.935994 5.047952 -23.415979 36.046326 0.185257 2.277865 0.073555 -0.008345 650256.000000 0 0 1
25.857094 5.951952 -23.168479 35.224898 0.226245 2.288598 0.092507 -0.016080 439257.000000 0 0 1
26.258694 7.360952 -22.564479 35.395739 0.273309 2.262034 0.111644 -0.014252 -140635.000000 0 0 1
27.097094 8.056652 -23.455579 36.733177 0.289001 2.263395 0.112203 -0.017470 73852.200000 0 0 1
27.232594 9.400752 -23.062479 36.903472 0.332394 2.245852 0.132275 -0.023308 -202407.000000 0 0 1
28.275494 10.134652 -23.931079 38.404573 0.344161 2.243536 0.171566 -0.027892 -282176.000000 0 0 1
27.942394 10.448652 -25.279229 39.102316 0.357837 2.273770 0.179620 -0.042015 258424.000000 0 0 1
26.903494 11.396052 -25.470599 38.761055 0.400676 2.287786 0.176085 -0.041442 189232.000000 0 0 1
26.558594 11.672952 -26.989149 39.623615 0.414102 2.320112 0.158910 -0.034283 -173301.000000 0 0 1
26.033594 10.608452 -27.777009 39.520241 0.386947 2.350200 0.136009 -0.033180 315892.000000 0 0 1
26.987294 9.716952 -28.307019 40.299138 0.345606 2.349592 0.139719 -0.045321 512916.000000 0 0 1
28.091494 10.163852 -29.347859 41.877592 0.347159 2.347316 0.142858 -0.041134 -489650.000000 0 0 1
29.239394 10.776952 -28.806059 42.436704 0.353127 2.316924 0.142785 -0.040039 575882.000000 0 0 1
30.240194 11.175752 -29.735409 43.858423 0.353998 2.315816 0.156913 -0.036920 819419.000000 0 0 1
30.997694 9.990052 -30.444299 44.581537 0.311773 2.322508 0.123604 -0.032997 -411272.000000 0 0 1
30.129394 9.438552 -31.433059 44.552259 0.303584 2.353970 0.112457 -0.031812 505068.000000 0 0 1
30.650494 8.177252 -31.769409 44.895607 0.260718 2.356933 0.102583 -0.022918 -561879.000000 0 0 1
29.620194 7.418152 -32.525859 44.612962 0.245395 2.387755 0.095670 -0.035738 -248508.000000 0 0 1
28.535594 6.944452 -31.737929 43.241203 0.238721 2.394951 0.102292 -0.038200 -51292.700000 0 0 1
27.501594 6.429552 -32.574759 43.113707 0.229663 2.427297 0.078526 -0.029785 -374460.000000 0 0 1
26.269294 6.256752 -31.683679 41.630256 0.233821 2.435763 0.111387 -0.023835 -1255290.000000 0 0 1
25.764894 7.506252 -31.305039 41.233227 0.283490 2.432908 0.126165 -0.024382 -212063.000000 0 0 1
24.610294 7.500052 -30.508059 39.908132 0.295811 2.440995 0.127879 -0.031868 679392.000000 0 0 1
23.243294 7.216752 -31.246309 39.606364 0.301050 2.479848 0.132969 -0.033640 236479.000000 0 0 1
22.896294 8.318152 -32.062929 40.267398 0.348471 2.491868 0.125907 -0.031671 -203520.000000 0 0 1
21.574794 8.184952 -32.520699 39.875569 0.362601 2.524483 0.110649 -0.025286 -178305.000000 0 0 1
21.140894 9.334252 -33.462219 40.666765 0.415785 2.537186 0.115309 -0.019165 -80070.600000 0 0 1
21.704994 9.262252 32.636912 40.274856 0.403338 0.626039 0.108246 -0.019448 12813.700000 0 0 1
21.460894 10.385552 31.853542 39.787910 0.450708 0.642528 0.111704 -0.028107 283487.000000 0 0 1
20.225194 10.305452 30.891669 38.334788 0.471247 0.633705 0.094903 -0.026299 486078.000000 0 0 1
20.198494 9.201652 29.969389 37.293616 0.427469 0.637466 0.092634 -0.028862 15972.700000 0 0 1
21.126794 9.272252 28.880369 36.964737 0.413573 0.674058 0.108970 -0.026673 -285512.000000 0 0 1
20.654994 9.971652 27.559229 35.854898 0.449770 0.694096 0.104062 -0.028149 -922134.000000 0 0 1
19.576894 9.381152 26.960699 34.614160 0.446866 0.677899 0.117045 -0.014809 -1170930.000000 0 0 1
18.413694 10.077852 27.282469 34.423252 0.500769 0.655802 0.120161 -0.028693 -23944.300000 0 0 1
17.077894 9.588952 26.595619 33.029220 0.511617 0.634759 0.124066 -0.027936 391078.000000 0 0 1
17.034694 9.683552 25.161759 31.891473 0.516906 0.661648 0.133262 -0.024420 276065.000000 0 0 1
15.797694 9.305052 24.585959 30.669537 0.532302 0.640761 0.153363 -0.024948 282360.000000 0 0 1
15.550694 7.796552 24.460429 30.015377 0.464738 0.618188 0.156701 -0.031522 -108497.000000 0 0 1
15.612994 7.091152 25.691919 30.888909 0.426327 0.588540 0.133443 -0.028736 45376.600000 0 0 1
15.541194 5.711852 25.614859 30.500409 0.352205 0.573844 0.134903 -0.035117 -153425.000000 0 0 1
16.017694 5.015852 26.897379 31.704799 0.303472 0.557899 0.089829 -0.030477 -209273.000000 0 0 1
17.398894 5.182852 27.142309 32.654071 0.289514 0.589520 0.103933 -0.023948 167127.000000 0 0 1
17.876394 4.293052 28.183979 33.650147 0.235689 0.577997 0.102238 -0.028604 -94025.300000 0 0 1
18.253394 2.753152 27.866089 33.425815 0.149701 0.585077 0.104405 -0.031514 -326343.000000 0 0 1
17.136094 1.931852 27.598069 32.542759 0.112262 0.558491 0.094277 -0.040148 189339.000000 0 0 1
16.515094 1.340452 28.703439 33.142609 0.080988 0.523533 0.088736 -0.041218 -133558.000000 0 0 1
16.794694 -0.176448 28.945039 33.465028 -0.010506 0.525778 0.097821 -0.041437 -112634.000000 0 0 1
16.172294 -1.006048 27.970709 32.325157 -0.062128 0.525063 0.099076 -0.037830 475875.000000 0 0 1
16.797394 -1.047448 26.661739 31.529318 -0.062277 0.563076 0.116101 -0.033998 -1081150.000000 0 0 1
17.921294 -2.060548 26.429489 31.999008 -0.114475 0.598916 0.101244 -0.032701 605159.000000 0 0 1
19.204894 -1.784348 26.999089 33.180757 -0.092645 0.620312 0.109270 -0.041205 499403.000000 0 0 1
19.869094 -0.610148 26.587659 33.197240 -0.030699 0.642000 0.109634 -0.033071 -1372120.000000 0 0 1
21.342094 -0.564748 26.990939 34.413873 -0.026456 0.669223 0.085036 -0.021217 -635311.000000 0 0 1
22.150894 -1.344448 26.188399 34.326402 -0.060621 0.702974 0.069405 -0.022552 -1114050.000000 0 0 1
23.498394 -1.102948 26.445689 35.394427 -0.046903 0.727001 0.071308 -0.027529 -763555.000000 0 0 1
24.442094 -1.542148 25.358969 35.254382 -0.063010 0.767982 0.081552 -0.015947 -447986.000000 0 0 1
24.416694 -0.708648 24.210899 34.392510 -0.029015 0.789841 0.094747 -0.001161 120499.000000 0 0 1
24.290894 -1.581348 23.017039 33.501227 -0.065009 0.813374 0.099524 0.004630 -167449.000000 0 0 1
23.882594 -0.723248 21.767189 32.322003 -0.030274 0.831933 0.110241 -0.006735 -343244.000000 0 0 1
22.561394 -0.252448 21.765589 31.349977 -0.011189 0.803381 0.076276 0.000095 -629246.000000 0 0 1
22.275794 0.752852 20.856289 30.524786 0.033784 0.818582 0.088544 0.003437 70703.500000 0 0 1
-31.553276 -26.934048 -9.451079 42.548503 0.706583 1.794790 0.090535 0.000538 190051.000000 0 0 1
-31.870716 -25.741448 -8.755979 41.893101 0.679408 1.781356 0.084390 0.003401 -241170.000000 0 0 1
-32.363056 -25.943348 -7.460779 42.143659 0.675737 1.748766 0.107299 -0.002774 -853684.000000 0 0 1
-32.514816 -24.629648 -6.687479 41.334674 0.648277 1.733299 0.144744 -0.015786 373978.000000 0 0 1
-31.312686 -23.945148 -6.358079 39.928431 0.652850 1.730714 0.143423 -0.013273 176660.000000 0 0 1
-30.416396 -24.766848 -5.552679 39.615479 0.683376 1.711424 0.158756 -0.019755 -198328.000000 0 0 1
-29.122436 -23.988848 -5.210179 38.088412 0.689040 1.708018 0.146500 -0.032341 -340451.000000 0 0 1
-29.147986 -22.837348 -4.351479 37.283843 0.664597 1.687775 0.163329 -0.033319 338605.000000 0 0 1
-29.931746 -21.708948 -4.828279 37.289411 0.627493 1.700642 0.163763 -0.028730 152731.000000 0 0 1
-29.902816 -20.419348 -3.967779 36.426247 0.599128 1.679939 0.163833 -0.035834 -12584.200000 0 0 1
-28.691966 -19.691448 -3.952679 35.022932 0.601476 1.683897 0.181833 -0.038461 79848.900000 0 0 1
-28.771426 -18.662448 -2.965379 34.422020 0.575422 1.657051 0.193431 -0.034682 -193598.000000 0 0 1
-27.665266 -17.619848 -3.017479 32.938294 0.567107 1.662535 0.184011 -0.029715 -99869.500000 0 0 1
-27.915496 -16.752148 -4.106079 32.814163 0.540495 1.696257 0.167179 -0.039906 -94580.700000 0 0 1
-27.058706 -15.662148 -4.031279 31.523447 0.524701 1.699029 0.133776 -0.033973 -506233.000000 0 0 1
-27.241746 -14.737248 -5.241379 31.412916 0.495892 1.738435 0.140363 -0.041392 -95449.900000 0 0 1
-28.507216 -14.110348 -5.278379 32.243210 0.459619 1.735242 0.114910 -0.023113 105446.000000 0 0 1
-28.717496 -13.262848 -6.412679 32.275691 0.432655 1.770812 0.128635 -0.046023 -563079.000000 0 0 1
-30.096456 -12.636048 -6.362479 33.255790 0.397502 1.763303 0.117562 -0.036183 -134816.000000 0 0 1
-31.197196 -13.485648 -6.693679 34.640051 0.408013 1.765255 0.111651 -0.033954 1183170.000000 0 0 1
-32.429486 -12.737648 -6.751779 35.489517 0.374267 1.762210 0.130856 -0.032768 521538.000000 0 0 1
-33.596836 -13.463148 -7.423679 36.947460 0.381133 1.773099 0.096265 -0.028280 -736803.000000 0 0 1
-34.196080 -14.512548 -6.660179 37.740482 0.401356 1.748198 0.088585 -0.022819 289471.000000 0 0 1
-34.754733 -15.501248 -7.478479 38.782829 0.419538 1.764841 0.090724 -0.019706 -832110.000000 0 0 1
-35.751869 -16.414948 -6.732679 39.912099 0.430425 1.740294 0.094007 -0.031444 546382.000000 0 0 1
-37.148956 -16.134948 -6.799779 41.068461 0.409748 1.737134 0.096958 -0.037514 645127.000000 0 0 1
-37.484846 -15.051548 -5.958979 40.831021 0.381831 1.717262 0.127732 -0.040117 -709524.000000 0 0 1
37.044901 -14.949748 -5.784479 40.364339 -0.383569 1.714598 0.192065 -0.049670 -1096140.000000 0 0 1
36.298761 -14.461648 -6.889179 39.676190 -0.379132 1.745316 0.218051 -0.053755 -21193.300000 0 0 1
34.955291 -14.840548 -6.832779 38.584985 -0.401496 1.748819 0.234316 -0.056495 9532.540000 0 0 1
34.065391 -14.073548 -5.778779 37.308309 -0.391777 1.726315 0.272934 -0.066275 -843166.000000 0 0 1
34.154731 -14.615348 -4.499179 37.421874 -0.404338 1.691316 0.246189 -0.063372 347302.000000 0 0 1
33.212471 -14.008948 -3.646179 36.230008 -0.399155 1.671607 0.301014 -0.053854 -628366.000000 0 0 1
33.271671 -14.650848 -2.216479 36.422029 -0.414792 1.631689 0.284602 -0.048453 461059.000000 0 0 1
34.469871 -14.517548 -1.422979 37.429348 -0.398619 1.608823 0.297383 -0.036809 1594870.000000 0 0 1
35.731771 -15.056848 -1.844979 38.818450 -0.398805 1.618343 0.234649 -0.038678 196197.000000 0 0 1
35.818771 -16.530448 -2.247979 39.513206 -0.432378 1.627719 0.189393 -0.031617 -1102040.000000 0 0 1
35.768361 -17.287448 -1.059079 39.741076 -0.450212 1.597449 0.152261 -0.022813 225954.000000 0 0 1
35.480021 -18.703648 -1.274079 40.128314 -0.485139 1.602552 0.117986 -0.025581 145897.000000 0 0 1
36.561331 -19.593248 -1.972979 41.527327 -0.491954 1.618325 0.087274 -0.036246 -3542.480000 0 0 1
36.677581 -19.257948 -3.295179 41.556849 -0.483494 1.650173 0.063127 -0.035081 -338236.000000 0 0 1
37.443991 -20.056248 -4.127579 42.677189 -0.491746 1.667664 0.091201 -0.032876 -455148.000000 0 0 1
37.663121 -19.541748 -5.557979 42.793478 -0.478619 1.701043 0.123755 -0.040167 -769649.000000 0 0 1
36.497771 -19.476348 -6.311679 41.847971 -0.490189 1.722198 0.104097 -0.049300 -348264.000000 0 0 1
36.611711 -18.467948 -7.300079 41.650614 -0.467183 1.746976 0.133138 -0.052962 -48384.400000 0 0 1
35.392781 -18.341748 -8.237479 40.705340 -0.478128 1.774572 0.138710 -0.056056 -89184.200000 0 0 1
35.398901 -19.445448 -9.098979 41.400472 -0.502324 1.792385 0.141837 -0.055744 -157236.000000 0 0 1
34.416311 -19.395248 -10.073979 40.769390 -0.513185 1.820479 0.142814 -0.066752 -783312.000000 0 0 1
34.213931 -20.694148 -10.868079 41.436167 -0.543975 1.836186 0.136382 -0.047112 79407.000000 0 0 1
33.478851 -21.642448 -10.088679 41.121898 -0.573877 1.818663 0.128645 -0.053778 371195.000000 0 0 1
33.234031 -22.789248 -10.920479 41.750539 -0.601078 1.835440 0.098044 -0.050259 -252579.000000 0 0 1
32.760741 -23.950448 -10.040179 41.805446 -0.631276 1.813332 0.101075 -0.042510 -26743.600000 0 0 1
31.443481 -23.710948 -9.585079 40.531164 -0.646108 1.809545 0.106371 -0.043514 -1696.530000 0 0 1
30.847391 -24.997748 -9.358679 40.792570 -0.681031 1.802279 0.063972 -0.031666 786300.000000 0 0 1
29.358691 -24.805148 -8.877379 39.446622 -0.701526 1.797789 0.049712 -0.032359 780628.000000 0 0 1
28.483891 -24.403948 -9.904479 38.794116 -0.708407 1.828963 0.059113 -0.035367 -547988.000000 0 0 1
27.219891 -24.092248 -9.373179 37.539517 -0.724520 1.823155 0.085100 -0.042395 -282192.000000 0 0 1
26.366591 -23.436148 -10.484879 36.801941 -0.726625 1.859699 0.162654 -0.062136 -522318.000000 0 0 1
25.963691 -24.329548 -11.566879 37.414340 -0.752917 1.885102 0.131916 -0.055376 363395.000000 0 0 1
25.243191 -23.660548 -12.599879 36.821151 -0.753047 1.920044 0.143178 -0.045654 -292135.000000 0 0 1
24.281591 -24.636648 -13.244779 37.040306 -0.792656 1.936469 0.139481 -0.061137 -488752.000000 0 0 1
24.964691 -25.711748 -13.821079 38.410311 -0.800139 1.938879 0.148252 -0.052882 60610.600000 0 0 1
24.230191 -26.910248 -13.714379 38.721413 -0.837756 1.932834 0.148914 -0.035339 -32977.000000 0 0 1
24.887191 -28.197948 -14.341979 40.251570 -0.847684 1.935110 0.134878 -0.038369 -96824.000000 0 0 1
24.882091 -28.126348 -15.770279 40.729739 -0.846525 1.968382 0.149229 -0.030419 553034.000000 0 0 1
25.412791 -29.368548 -16.279979 42.111273 -0.857483 1.967732 0.138351 -0.024657 -5510.020000 0 0 1
25.333591 -29.517048 -17.785179 42.771013 -0.861521 1.999644 0.138401 -0.025398 -238402.000000 0 0 1
24.023891 -29.818848 -18.194179 42.395037 -0.892613 2.014357 0.143103 -0.025096 -49071.200000 0 0 1
23.842191 -29.887348 -19.580679 42.954704 -0.897438 2.044117 0.135966 -0.020378 304270.000000 0 0 1
22.374491 -29.554848 -19.961179 42.101729 -0.922799 2.064758 0.109553 -0.014882 331198.000000 0 0 1
22.363891 -29.458048 -21.401379 42.731010 -0.921447 2.095365 0.089719 -0.014214 445802.000000 0 0 1
21.002291 -29.390148 -21.812679 42.197986 -0.950337 2.114037 0.092224 -0.023923 176524.000000 0 0 1
20.861991 -29.660248 -23.317879 43.112370 -0.957815 2.142259 0.084432 -0.024228 -483425.000000 0 0 1
21.493391 -28.722648 -24.122779 43.230369 -0.928379 2.162777 0.093197 -0.023688 223402.000000 0 0 1
21.330791 -28.945748 -25.514459 44.089076 -0.935717 2.187933 0.086498 -0.024097 -396452.000000 0 0 1
21.921091 -27.799748 -26.338409 44.125639 -0.903085 2.210423 0.091360 -0.031713 304172.000000 0 0 1
21.040691 -26.671248 -26.523529 43.099463 -0.902866 2.233693 0.114217 -0.039592 410358.000000 0 0 1
20.004191 -26.879348 -27.471099 43.328147 -0.931004 2.257543 0.117211 -0.043285 53906.500000 0 0 1
19.164391 -25.590348 -27.674269 42.284808 -0.928005 2.284282 0.108473 -0.039046 211132.000000 0 0 1
18.076491 -25.387248 -26.778499 41.089657 -0.952042 2.280632 0.084217 -0.022803 197828.000000 0 0 1
17.489391 -24.126648 -27.084019 40.268077 -0.943554 2.308503 0.075255 -0.012951 -32709.900000 0 0 1
16.321691 -23.721248 -26.189289 38.922668 -0.968127 2.308857 0.072129 -0.006908 -510287.000000 0 0 1
15.112991 -24.404948 -26.350079 38.965763 -1.016336 2.313438 0.125714 -0.023300 -395607.000000 0 0 1
14.001791 -23.887048 -25.645609 37.740409 -1.040611 2.317913 0.100396 -0.016607 257420.000000 0 0 1
13.959691 -24.138048 -24.074379 36.838758 -1.046465 2.283005 0.083290 -0.007675 -301193.000000 0 0 1
14.919491 -23.361748 -23.366779 36.254225 -1.002456 2.271199 0.049879 -0.003342 6885.700000 0 0 1
15.002791 -23.783748 -21.965879 35.682632 -1.008037 2.233931 0.070020 -0.014602 203783.000000 0 0 1
16.355391 -23.298048 -21.398179 35.611514 -0.958725 2.215396 0.047969 -0.020416 143209.000000 0 0 1
16.406391 -21.921948 -21.073179 34.551705 -0.928320 2.226734 0.039559 -0.012136 506346.000000 0 0 1
17.720991 -21.506148 -20.687779 34.706370 -0.881594 2.209407 0.059719 -0.013113 206684.000000 0 0 1
17.833091 -20.256448 -19.762879 33.450175 -0.848935 2.202865 0.075647 0.001575 -46622.800000 0 0 1
17.078891 -20.333148 -18.559679 32.397332 -0.872164 2.180808 0.064729 -0.009022 437015.000000 0 0 1
15.786991 -19.789148 -18.777579 31.518835 -0.897423 2.209005 0.073048 -0.011929 -174322.000000 0 0 1
14.793791 -19.784548 -17.613879 30.340292 -0.928740 2.190193 0.071242 -0.016833 -107829.000000 0 0 1
14.737191 -18.632048 -16.790879 29.090748 -0.901592 2.186079 0.089901 -0.020411 498008.000000 0 0 1
13.687291 -18.722148 -15.822379 28.075050 -0.939518 2.169503 0.097594 -0.028077 223500.000000 0 0 1
13.643591 -17.499248 -14.874879 26.713916 -0.908577 2.161350 0.105344 -0.025943 -303915.000000 0 0 1
12.509891 -16.689948 -15.119879 25.761648 -0.927586 2.198039 0.106914 -0.033680 -20193.800000 0 0 1
12.597591 -15.377148 -14.612179 24.671274 -0.884433 2.204676 0.097113 -0.030411 333718.000000 0 1 0
11.185591 -14.742648 -14.414079 23.456956 -0.921736 2.232536 0.100490 -0.024527 483434.000000 0 1 0
10.584891 -14.178148 -15.537879 23.547516 -0.929498 2.291418 0.123902 -0.016514 -109217.000000 0 1 0
9.258591 -13.763548 -15.328579 22.585883 -0.978636 2.316760 0.119335 -0.013378 254224.000000 0 1 0
8.481891 -13.050848 -16.500379 22.683245 -0.994484 2.385359 0.099256 -0.005591 341409.000000 0 1 0
9.011891 -11.809948 -16.945479 22.535268 -0.918979 2.421817 0.090703 -0.008918 524453.000000 0 1 0
10.270591 -11.881048 -17.627679 23.608884 -0.857972 2.413815 0.128366 -0.015111 338449.000000 0 1 0
10.433891 -10.597748 -18.497479 23.734681 -0.793189 2.464414 0.123042 -0.021763 -179157.000000 0 1 0
9.650291 -10.523248 -19.664179 24.301169 -0.828644 2.513563 0.135944 -0.022235 22324.200000 0 1 0
9.837291 -9.333148 -20.346279 24.450992 -0.759106 2.553725 0.132648 -0.037852 -14735.200000 0 1 0
9.623591 -9.477248 -21.822579 25.664308 -0.777737 2.587368 0.140206 -0.033672 450923.000000 0 0 1
10.721191 -10.183348 -22.425779 26.861870 -0.759675 2.558666 0.123471 -0.027727 -24858.500000 0 0 1
10.573291 -10.367348 -23.813679 28.042248 -0.775564 2.585278 0.106815 -0.026736 -129154.000000 0 0 1
11.747891 -11.061548 -24.518979 29.352191 -0.755317 2.559542 0.124998 -0.018358 -167402.000000 0 0 1
11.790491 -12.468248 -24.240679 29.699889 -0.813330 2.525578 0.110227 -0.013948 103801.000000 0 0 1
12.857991 -13.067648 -24.969879 30.977189 -0.793485 2.508283 0.088046 -0.016266 157097.000000 0 0 1
12.953591 -14.594048 -24.813679 31.567395 -0.844878 2.475196 0.077524 -0.008988 317983.000000 0 0 1
11.809191 -15.307248 -25.275149 31.821408 -0.913691 2.488620 0.080151 -0.007717 260889.000000 0 0 1
11.809991 -16.552048 -24.579779 31.900027 -0.951063 2.450461 0.072121 -0.008428 216927.000000 0 0 1
10.651791 -17.432448 -25.085579 32.351772 -1.022304 2.458145 0.078352 -0.016472 72713.000000 0 0 1
10.902591 -18.045248 -26.339329 33.738075 -1.027308 2.466582 0.082921 -0.028019 -143905.000000 0 0 1
9.725391 -18.462748 -26.990129 34.116321 -1.085973 2.483435 0.098198 -0.027596 -21898.900000 0 0 1
9.951691 -19.422848 -28.202169 35.660139 -1.097302 2.483009 0.103043 -0.031781 502696.000000 0 0 1
10.769691 -20.581048 -27.824189 36.245707 -1.088697 2.445970 0.091022 -0.030561 646262.000000 0 0 1
10.640491 -21.587648 -28.796379 37.529696 -1.112847 2.445410 0.098920 -0.032844 -133087.000000 0 0 1
11.694391 -22.693548 -28.683329 38.399079 -1.094970 2.414304 0.079747 -0.022892 -236618.000000 0 0 1
11.769291 -23.550948 -29.812459 39.773686 -1.107359 2.418182 0.088650 -0.022371 430926.000000 0 0 1
12.519191 -24.755648 -29.493959 40.490318 -1.102591 2.386809 0.116357 -0.024172 141755.000000 0 0 1
11.739691 -25.748248 -28.588049 40.225231 -1.143013 2.361288 0.103800 -0.028596 101565.000000 0 0 1
11.530591 -25.217748 -27.317129 38.924477 -1.141937 2.348715 0.112540 -0.026442 -548173.000000 0 0 1
10.708391 -25.990448 -26.479239 38.617653 -1.179977 2.326330 0.101671 -0.014523 340159.000000 0 0 1
9.781991 -25.063848 -25.635369 37.162562 -1.198695 2.332033 0.087992 -0.011891 199575.000000 0 0 1
10.564391 -24.114348 -24.945679 36.268375 -1.157886 2.329261 0.084435 -0.010048 -248462.000000 0 0 1
9.847491 -22.948048 -24.677479 35.107890 -1.165440 2.350268 0.084464 -0.008974 -155534.000000 0 0 1
10.776891 -21.730748 -24.513179 34.485689 -1.110411 2.361462 0.102484 -0.009089 39494.200000 0 0 1
11.399091 -21.687648 -23.263079 33.785562 -1.086877 2.330285 0.098758 -0.010655 -742327.000000 0 0 1
12.294691 -20.675048 -23.133279 33.373128 -1.034310 2.336675 0.086826 -0.018572 -724404.000000 0 0 1
12.837391 -20.459848 -21.703779 32.472419 -1.010442 2.302819 0.060718 -0.002911 -64926.200000 0 0 1
11.952691 -19.803848 -20.803879 31.110458 -1.027768 2.303269 0.066149 0.000227 96852.800000 0 0 1
11.698791 -18.399548 -20.988479 30.264192 -1.004455 2.337144 0.067685 -0.004671 -573057.000000 0 0 1
12.858991 -17.602848 -20.439479 29.882875 -0.939888 2.324010 0.068749 -0.008319 47211.000000 0 0 1
14.003791 -17.652448 -21.293579 31.002122 -0.900151 2.327932 0.057562 0.001587 -219089.000000 0 0 1
14.780991 -16.496648 -21.161979 30.634073 -0.840196 2.333389 0.067738 -0.009921 -185048.000000 0 0 1
15.894891 -16.524648 -22.229379 31.935198 -0.804821 2.340716 0.054122 0.007662 -559849.000000 0 0 1
17.081691 -17.160448 -21.828679 32.599944 -0.787698 2.304456 0.049532 0.014547 -69536.400000 0 0 1
17.960391 -17.037448 -22.945379 33.754121 -0.759033 2.318259 0.059471 0.012141 127185.000000 0 0 1
19.450891 -17.176948 -22.542179 34.373457 -0.723395 2.286041 0.059384 0.004143 198204.000000 0 0 1
19.889291 -18.537248 -22.309279 35.169836 -0.750228 2.257938 0.058821 -0.004298 -589476.000000 0 0 1
21.236391 -18.595848 -21.979679 35.775636 -0.719203 2.232391 0.041254 -0.015383 -498254.000000 0 0 1
21.666591 -20.065148 -21.702179 36.647454 -0.747042 2.204568 0.067489 -0.024729 -48522.100000 0 0 1
21.183391 -20.529948 -20.433679 35.885235 -0.769734 2.176593 0.072208 -0.027658 130454.000000 0 0 1
21.613291 -21.839848 -20.177279 36.759161 -0.790612 2.151850 0.103740 -0.030654 -56095.300000 0 0 1
-17.253006 12.583452 28.001189 35.214714 -0.630153 0.651532 0.112251 -0.045495 -79440.800000 0 0 1
-18.380106 13.425752 27.909679 36.014293 -0.630871 0.684143 0.106976 -0.044530 -145143.000000 0 0 1
-18.617206 13.636952 26.525499 35.159194 -0.632201 0.715996 0.110332 -0.037449 184258.000000 0 0 1
-20.038306 14.151752 26.168979 35.869503 -0.614898 0.753117 0.134176 -0.039785 263710.000000 0 0 1
-20.138806 15.489552 26.496019 36.708810 -0.655638 0.764413 0.128942 -0.036132 -374763.000000 0 0 1
-21.040806 16.118152 25.641709 36.878281 -0.653689 0.801950 0.121663 -0.033439 -841945.000000 0 0 1
-21.017106 17.689352 25.762469 37.660811 -0.699635 0.817474 0.108740 -0.020883 171973.000000 0 0 1
-19.791006 18.198852 25.282349 36.906358 -0.743513 0.816137 0.102163 -0.013210 287652.000000 0 0 1
-18.752206 18.177652 26.246549 37.026390 -0.769841 0.782915 0.106764 -0.006990 211047.000000 0 0 1
-17.434806 18.949052 25.891389 36.515792 -0.826993 0.782651 0.107875 -0.007798 541479.000000 0 0 1
-17.474306 20.380352 26.029109 37.392842 -0.862016 0.800847 0.114500 -0.009319 -202591.000000 0 0 1
-16.393306 21.024052 25.402969 36.824748 -0.908531 0.809536 0.125689 -0.016166 -218864.000000 0 0 1
-16.462006 22.500052 25.071539 37.494427 -0.939148 0.838373 0.117250 -0.011062 -99686.300000 0 0 1
-16.301706 23.288152 26.198519 38.658065 -0.960070 0.826168 0.124177 -0.011456 -22467.800000 0 0 1
-16.280806 24.618052 25.822409 39.216195 -0.986493 0.852022 0.116263 -0.016164 102945.000000 0 0 1
-15.723706 25.536452 26.968479 40.331677 -1.018887 0.838381 0.094441 -0.009171 42704.400000 0 0 1
-14.345206 25.797952 26.867189 39.914472 -1.063313 0.832378 0.097077 -0.015513 -263383.000000 0 0 1
-13.938806 26.822652 27.733049 41.022761 -1.091540 0.828420 0.110246 -0.008683 406085.000000 0 0 1
-12.408006 26.916052 27.976829 40.757029 -1.138842 0.814229 0.117330 -0.014991 530275.000000 0 0 1
-11.665806 27.445852 26.906459 40.166196 -1.168885 0.836752 0.110262 -0.014594 -1334290.000000 0 0 1
-10.317306 27.260152 27.057399 39.770158 -1.208982 0.822564 0.088586 -0.003152 -1162350.000000 0 0 1
-9.452906 27.869252 25.946549 39.233608 -1.243786 0.848200 0.097093 -0.011367 -156702.000000 0 0 1
-8.059506 27.732552 26.099509 38.926012 -1.287971 0.835927 0.085386 -0.012651 332752.000000 0 0 1
-7.368606 28.289252 24.975169 38.449150 -1.315985 0.863786 0.105288 -0.016113 -833395.000000 0 0 1
-5.871806 28.135352 24.999979 38.092979 -1.365051 0.854907 0.097090 -0.021528 -1558300.000000 0 0 1
-5.203306 28.829352 26.001779 39.170121 -1.392232 0.844886 0.112964 -0.024370 611772.000000 0 0 1
-3.777706 28.769252 25.917459 38.905727 -1.440233 0.841748 0.111027 -0.015936 1060930.000000 0 0 1
-3.022806 29.667652 24.877299 38.835382 -1.469258 0.875539 0.123355 -0.012431 -233814.000000 0 0 1
-3.348506 29.249852 23.568369 37.712522 -1.456813 0.895731 0.137246 -0.013354 -378.841000 0 0 1
-2.609306 29.930552 22.557649 37.569854 -1.483837 0.926772 0.136964 -0.026813 -517015.000000 0 0 1
-3.024906 29.450152 21.157889 36.388429 -1.468442 0.950292 0.142008 -0.021467 219018.000000 0 0 1
-4.345306 29.673752 20.696889 36.438639 -1.425394 0.966731 0.144204 -0.016915 -465832.000000 0 0 1
-5.182906 28.729452 21.264389 36.116729 -1.392312 0.941262 0.144639 -0.013368 -1497950.000000 0 0 1
-6.660806 28.908352 20.889089 36.282408 -1.344337 0.957292 0.126154 -0.017232 -489529.000000 0 0 1
-6.888106 28.852952 19.497489 35.497759 -1.336451 0.989318 0.103085 -0.018339 -353663.000000 0 0 1
-7.756006 27.875852 19.038889 34.636657 -1.299426 0.988822 0.070801 -0.024025 -1237520.000000 0 0 1
-7.219906 26.405952 18.880989 33.254971 -1.303900 0.967009 0.060846 -0.023269 -491989.000000 0 0 1
-6.216006 26.221652 17.935989 32.371491 -1.338037 0.983554 0.068547 -0.023376 338034.000000 0 0 1
-4.924106 26.554352 18.490589 32.730449 -1.387444 0.970441 0.096478 -0.020159 -271365.000000 0 0 1
-3.841506 26.746852 17.441689 32.161526 -1.428147 0.997606 0.093330 -0.021312 -321291.000000 0 0 1
-3.369306 25.581452 16.803989 30.791832 -1.439841 0.993538 0.092543 -0.025964 -155953.000000 0 0 1
-2.645606 25.958852 15.643589 30.423397 -1.469232 1.030726 0.095246 -0.031598 12561.600000 0 0 1
-1.969506 24.747552 14.979289 28.994816 -1.491380 1.027898 0.085713 -0.026675 -584189.000000 0 0 1
-0.912206 24.232852 15.696989 28.886998 -1.533171 0.996323 0.094013 -0.028582 -785482.000000 0 0 1
-0.353806 23.124152 15.081489 27.609833 -1.555497 0.992932 0.080021 -0.037947 311545.000000 0 0 1
1.074694 22.734452 15.599689 27.592763 1.523560 0.969934 0.074141 -0.040120 723109.000000 0 0 1
2.114594 23.543952 15.089889 28.044499 1.481222 1.002651 0.078040 -0.043024 -27340.100000 0 0 1
3.354694 23.071252 15.567889 28.033833 1.426402 0.982043 0.077038 -0.040799 749334.000000 0 0 1
4.584794 24.048952 15.442389 28.945462 1.382413 1.008064 0.111837 -0.059175 799427.000000 0 0 1
5.829094 23.406552 15.540389 28.694053 1.326724 0.998470 0.107236 -0.053730 274971.000000 0 0 1
6.958894 24.296852 15.568989 29.684282 1.291852 1.018685 0.125103 -0.054900 458787.000000 0 0 1
8.309594 23.551152 15.749589 29.525508 1.231601 1.008154 0.148906 -0.058598 219128.000000 0 0 1
8.704194 22.673752 14.685689 28.381886 1.204256 1.026949 0.127384 -0.052708 -98260.800000 0 0 1
9.005594 23.337452 13.510189 28.429959 1.202516 1.075594 0.129727 -0.053705 -647477.000000 0 0 1
9.356494 22.371952 12.338589 27.208252 1.174679 1.100122 0.099338 -0.045713 -426327.000000 0 0 1
10.598494 21.776152 12.539989 27.272333 1.117844 1.093019 0.090653 -0.036302 -586865.000000 0 0 1
10.996294 20.790152 11.681789 26.260485 1.084283 1.109798 0.081250 -0.048187 -929992.000000 0 0 1
12.434294 20.374452 11.865689 26.655666 1.022846 1.109458 0.126764 -0.043888 -867569.000000 0 0 1
12.756394 19.787852 13.089989 26.937566 0.998186 1.063360 0.118858 -0.041236 -743715.000000 0 0 1
13.990594 19.170252 12.930489 27.026520 0.940344 1.071922 0.102251 -0.035791 -868594.000000 0 0 1
14.492294 18.725652 14.308889 27.666241 0.912157 1.027224 0.128998 -0.037987 -233239.000000 0 0 1
15.638194 17.904052 14.261489 27.721800 0.852848 1.030430 0.124405 -0.043387 143682.000000 0 0 1
16.194294 17.660852 15.528389 28.553313 0.828690 0.995792 0.127939 -0.046592 101885.000000 0 0 1
17.439894 16.760652 15.526289 28.742564 0.765540 1.000140 0.112032 -0.041669 -23510.400000 0 0 1
18.187194 16.690252 16.721889 29.815433 0.742504 0.975388 0.108121 -0.047515 -223430.000000 0 0 1
19.432594 16.095652 16.526789 30.163396 0.691749 0.990934 0.105565 -0.044936 119029.000000 0 0 1
20.294894 15.721452 17.791489 31.234337 0.659092 0.964761 0.112604 -0.045161 -12623.400000 0 0 1
20.755294 16.717152 18.612089 32.506233 0.678049 0.961159 0.128039 -0.037737 -202162.000000 0 0 1
19.822394 17.649652 19.137489 32.721262 0.727480 0.946084 0.114689 -0.031547 -485886.000000 0 0 1
20.282394 18.601952 20.256689 34.172233 0.742209 0.936287 0.099030 -0.026716 588828.000000 0 0 1
19.218594 19.300652 20.969589 34.374309 0.787528 0.914689 0.134551 -0.029335 1262250.000000 0 0 1
19.830694 20.372652 21.682289 35.755041 0.798878 0.919256 0.122926 -0.021313 568845.000000 0 0 1
18.668994 21.235752 22.214789 35.958105 0.849632 0.904859 0.146399 -0.027621 612389.000000 0 0 1
17.879994 20.736552 23.292479 35.947716 0.859236 0.865901 0.161683 -0.025985 305263.000000 0 0 1
17.370594 21.739952 24.134519 36.835282 0.896655 0.856347 0.142851 -0.032949 -114458.000000 0 0 1
16.747194 21.255352 25.414609 37.123588 0.903474 0.816749 0.166588 -0.031007 19680.900000 0 0 1
15.562494 20.509552 25.266249 36.072375 0.921692 0.794794 0.170455 -0.031049 23168.800000 0 0 1
14.759494 20.465752 26.454179 36.558353 0.945996 0.761770 0.162511 -0.024522 958535.000000 0 0 1
13.620394 19.367752 26.392779 35.457068 0.957892 0.731222 0.166911 -0.020544 517043.000000 0 0 1
14.050994 18.031452 26.375819 34.903402 0.908837 0.714104 0.149294 -0.028517 -253438.000000 0 0 1
14.541694 17.589252 25.104819 33.927784 0.879963 0.737802 0.169404 -0.036479 117682.000000 0 0 1
13.540394 17.383452 23.914599 32.518221 0.909039 0.744508 0.174666 -0.031316 -218017.000000 0 0 1
13.012794 18.546852 23.320499 32.514061 0.958986 0.770958 0.166517 -0.032492 -246252.000000 0 0 1
13.851394 19.320152 22.465049 32.707916 0.948791 0.813666 0.170036 -0.036807 82883.800000 0 0 1
14.553494 18.538452 21.267089 31.745353 0.905242 0.836685 0.182857 -0.043653 373389.000000 0 0 1
13.617694 17.978052 20.336989 30.368487 0.922537 0.837026 0.139926 -0.033893 120563.000000 0 0 1
14.233894 17.030152 19.518389 29.556679 0.874601 0.849483 0.126060 -0.039225 -174170.000000 0 0 1
13.294794 16.322252 18.517389 28.036782 0.887264 0.849355 0.135792 -0.037503 30747.800000 0 0 1
12.701694 17.091852 17.481689 27.551295 0.931698 0.883416 0.148370 -0.044333 172836.000000 0 0 1
11.953294 16.196752 16.674589 26.139202 0.935016 0.879009 0.117239 -0.043066 20320.000000 0 0 1
11.280094 16.843452 15.458089 25.493036 0.980695 0.919315 0.107022 -0.034301 321336.000000 0 0 1
10.300394 17.841952 15.758189 25.937499 1.047225 0.917831 0.102950 -0.039024 359606.000000 0 0 1
9.826494 18.375452 14.539289 25.408820 1.079727 0.961593 0.100899 -0.023879 -342684.000000 0 0 1
8.776994 19.477352 14.716989 25.942101 1.147422 0.967571 0.098884 -0.030374 -1684130.000000 0 0 1
7.531094 19.002852 14.945089 25.321560 1.193472 0.939475 0.066589 -0.030944 -1333380.000000 0 0 1
6.582894 20.070752 15.042089 25.931332 1.253868 0.951977 0.076365 -0.035833 144235.000000 0 0 1
5.281994 19.717452 15.769089 25.794215 1.309058 0.913041 0.059522 -0.039443 -117593.000000 0 0 1
4.251894 19.279552 14.901089 24.735039 1.353732 0.924256 0.042678 -0.034809 450731.000000 0 1 0
3.038694 19.079752 15.658889 24.869085 1.412860 0.889690 0.031982 -0.027570 413975.000000 0 1 0
1.856794 18.573852 14.856989 23.857195 1.471159 0.898548 0.026948 -0.023343 -655200.000000 0 1 0
1.304694 19.564752 14.029589 24.110394 1.504209 0.949746 0.030435 -0.029201 -95167.500000 0 1 0
0.243494 18.939252 13.309889 23.149680 1.557940 0.958254 0.023817 -0.031608 61347.000000 0 1 0
-0.580806 19.981652 12.474889 23.563247 -1.541738 1.012878 0.025975 -0.030479 1055890.000000 0 1 0
-1.669206 20.624752 13.211889 24.550369 -1.490040 1.002551 0.036715 -0.029560 852000.000000 0 1 0
-2.751706 20.901352 12.348889 24.432221 -1.439897 1.040911 0.032592 -0.030225 152655.000000 0 1 0
-3.929806 21.675052 12.955389 25.555691 -1.391439 1.039157 0.038147 -0.023147 -139246.000000 0 0 1
-4.673706 20.932252 13.896289 25.556008 -1.351122 0.995888 0.046325 -0.029571 -231555.000000 0 0 1
-5.732606 21.791252 14.279589 26.676358 -1.313556 1.005945 0.055166 -0.022837 -229020.000000 0 0 1
-6.774706 21.077752 15.153689 26.829136 -1.259810 0.970579 0.055467 -0.030484 -624477.000000 0 0 1
-7.540106 20.007752 14.591689 25.885917 -1.210397 0.971947 0.059977 -0.032742 189686.000000 0 0 1
-8.251206 19.360052 15.630489 26.214618 -1.167912 0.931973 0.052223 -0.018522 518452.000000 0 0 1
-9.529706 19.985652 16.288489 27.487387 -1.125858 0.936538 0.047966 -0.012738 692422.000000 0 0 1
-10.668406 20.129752 15.430289 27.515734 -1.083452 0.975468 0.044806 -0.024874 136793.000000 0 0 1
-11.822006 19.678152 16.090689 28.033904 -1.029812 0.959448 0.034200 -0.013838 451415.000000 0 0 1
-13.096506 19.553252 15.182289 28.006250 -0.980637 0.997858 0.035682 -0.020351 491466.000000 0 0 1
-13.738606 20.760152 14.828489 28.976150 -0.986186 1.033578 0.019219 -0.001547 -250648.000000 0 0 1
-14.757106 20.482352 13.896989 28.817099 -0.946458 1.067577 0.024650 -0.014390 -324697.000000 0 0 1
-15.653806 21.752952 13.786189 30.137876 -0.947025 1.095685 0.021181 -0.014071 -912272.000000 0 0 1
-16.712206 21.641752 14.637889 31.015013 -0.913225 1.079282 0.015887 -0.020621 -1175270.000000 0 0 1
-17.637806 22.694152 14.481089 32.184137 -0.910116 1.104093 0.045755 -0.028846 -123817.000000 0 0 1
-18.930006 22.494652 15.273589 33.130605 -0.871238 1.091662 0.114004 -0.023706 -929029.000000 0 0 1
-19.781506 21.424552 14.874589 32.734887 -0.825251 1.099103 0.105456 -0.027955 31525.900000 0 0 1
-20.840206 21.114652 15.755289 33.591247 -0.791940 1.082605 0.125893 -0.022017 76898.200000 0 0 1
-21.986206 22.123152 15.607189 34.877091 -0.788503 1.106838 0.139490 -0.027169 -1356570.000000 0 0 1
-22.826406 22.037352 14.468289 34.871494 -0.767812 1.142960 0.164694 -0.034080 248370.000000 0 0 1
-23.622106 23.231252 14.276489 36.076490 -0.777056 1.163936 0.189856 -0.043485 304586.000000 0 0 1
-23.048406 24.458952 13.460989 36.203143 -0.815081 1.189829 0.165337 -0.040753 -577043.000000 0 0 1
-21.928306 25.003752 14.093589 36.120181 -0.850834 1.169963 0.118460 -0.040189 -357314.000000 0 0 1
-21.501806 26.143052 13.420489 36.412860 -0.882505 1.193332 0.098910 -0.036440 -657521.000000 0 0 1
-20.092206 26.598652 13.791889 36.074939 -0.923858 1.178499 0.069389 -0.028463 -309525.000000 0 0 1
-19.082006 25.830752 13.146989 34.701499 -0.934546 1.182233 0.065803 -0.023326 -761657.000000 0 0 1
-17.862706 26.459752 13.365289 34.609618 -0.976985 1.174318 0.028725 -0.025361 -636336.000000 0 0 1
-16.761406 25.910552 12.435789 33.270862 -0.996607 1.187722 0.035427 -0.028176 -69953.000000 0 0 1
-15.479806 26.458352 12.604589 33.144297 -1.041432 1.180682 0.023572 -0.021333 -360164.000000 0 0 1
-14.520906 25.855652 11.798389 31.915097 -1.059080 1.192131 0.023124 -0.010313 250924.000000 0 0 1
-13.115606 26.521852 11.989489 31.924530 -1.111542 1.185798 0.026097 -0.005826 327723.000000 0 0 1
-12.032906 25.597252 11.824189 30.656509 -1.131365 1.174831 0.025627 -0.005058 880702.000000 0 0 1
-10.722806 26.138852 11.987389 30.690644 -1.181507 1.169526 0.037879 -0.010574 604707.000000 0 0 1
-10.195106 27.054052 10.874489 30.888775 -1.210412 1.211033 0.055056 -0.014908 -856411.000000 0 0 1
-9.191706 27.910152 11.380589 31.511614 -1.252651 1.201290 0.073806 -0.017824 -19466.800000 0 0 1
-8.881006 28.959452 10.480789 32.052598 -1.273231 1.237683 0.080828 -0.019685 -301458.000000 0 0 1
-7.743606 29.719052 11.185589 32.684903 -1.315903 1.221513 0.078128 -0.019334 -518409.000000 0 0 1
-6.490206 29.195652 10.887189 31.828285 -1.352053 1.221688 0.083288 -0.019499 -1021900.000000 0 0 1
-5.489306 29.739952 11.678589 32.418924 -1.388274 1.202271 0.146792 -0.034018 -321038.000000 0 0 1
-4.035406 29.337352 11.386889 31.727369 -1.434102 1.203709 0.148321 -0.039342 -29705.200000 0 0 1
-3.596906 29.857852 10.135289 31.735676 -1.450906 1.245736 0.141505 -0.037082 413299.000000 0 0 1
-2.315606 29.366852 9.733289 31.024360 -1.492108 1.251677 0.154692 -0.038271 531820.000000 0 0 1
-1.872506 29.984152 8.427889 31.202323 -1.508427 1.297295 0.156249 -0.042855 -71413.000000 0 0 1
-2.652406 29.656152 7.308689 30.658433 -1.481595 1.330088 0.154474 -0.039744 -169647.000000 0 0 1
-2.306806 30.448352 6.233989 31.165463 -1.495179 1.369409 0.167325 -0.035567 156690.000000 0 0 1
12.300694 33.631252 -26.613709 44.616787 1.220158 2.209924 0.184970 -0.057164 -102735.000000 0 0 1
12.807094 33.744952 -25.292199 44.073107 1.208063 2.182019 0.162852 -0.051375 62166.800000 0 0 1
13.938494 -32.924748 -25.164299 43.721420 -1.170329 2.184085 0.160756 -0.045662 -88242.500000 0 0 1
14.452694 -32.855548 -23.688979 43.006222 -1.156385 2.154151 0.124130 -0.041328 -401510.000000 0 0 1
13.810694 -32.038248 -22.697679 41.621740 -1.163796 2.147582 0.133727 -0.041728 118129.000000 0 0 1
14.391494 -32.040148 -21.418279 41.139140 -1.148632 2.118385 0.098672 -0.033779 496032.000000 0 0 1
15.832594 -31.453448 -21.199179 41.102258 -1.104460 2.112699 0.055726 -0.021127 1081230.000000 0 0 1
16.861494 -32.315748 -21.683379 42.412103 -1.089882 2.107440 0.076750 -0.023531 -304941.000000 0 0 1
18.147194 -31.961548 -21.287779 42.473883 -1.054403 2.095778 0.062865 -0.023612 99729.700000 0 0 1
19.229894 -33.006348 -21.720279 43.942899 -1.043260 2.087808 0.038222 -0.018606 162659.000000 0 0 1
20.568994 -32.864048 -21.319479 44.245331 -1.011564 2.073558 0.051950 -0.007493 57665.500000 0 0 1
21.151394 33.353752 -21.513579 44.974307 1.005642 2.069574 0.045316 0.004414 184408.000000 0 0 1
22.657694 33.260952 -21.138779 45.458882 0.972793 2.054441 0.090990 0.008328 470651.000000 0 0 1
23.503394 -33.374248 -21.921779 46.333728 -0.957232 2.063634 0.082196 -0.002493 1024250.000000 0 0 1
24.869694 -33.619948 -21.517379 47.029780 -0.933900 2.046008 0.092210 0.000489 1065070.000000 0 0 1
25.862194 -33.030048 -22.571879 47.637452 -0.906514 2.064427 0.119908 -0.005662 107786.000000 0 0 1
25.949794 -31.588648 -22.748579 46.783890 -0.883088 2.078587 0.126967 -0.015313 551037.000000 0 0 1
24.853094 -31.084648 -23.547179 46.242851 -0.896342 2.105059 0.098299 -0.015070 734127.000000 0 0 1
24.773894 -29.544048 -23.404279 45.103845 -0.872993 2.116357 0.102916 -0.033840 -208063.000000 0 0 1
25.833994 -28.866948 -24.017779 45.580145 -0.840788 2.125787 0.103202 -0.039116 -226718.000000 0 0 1
25.609694 -27.518048 -23.693979 44.435392 -0.821303 2.133202 0.116915 -0.031655 392191.000000 0 0 1
26.285694 -26.502048 -24.597979 44.702984 -0.789497 2.153464 0.100595 -0.038200 437998.000000 0 0 1
25.565494 -26.485948 -25.831979 44.971002 -0.803080 2.182685 0.087989 -0.036281 -268319.000000 0 0 1
26.311694 -25.797348 -26.774159 45.548480 -0.775528 2.199154 0.072342 -0.031901 -971285.000000 0 0 1
25.583794 -25.485748 -28.110729 45.763161 -0.783478 2.232251 0.067883 -0.022459 281524.000000 0 0 1
24.563594 -24.538648 -28.139419 44.691636 -0.784890 2.251880 0.077863 -0.027387 -218736.000000 0 0 1
23.404894 -24.758748 -27.354949 43.692996 -0.813500 2.247302 0.085157 -0.022206 -790179.000000 0 0 1
22.613994 -23.478348 -27.166659 42.434101 -0.804149 2.265566 0.086211 -0.017281 -15333.900000 0 0 1
22.082594 -22.907648 -28.412309 42.657480 -0.803735 2.299706 0.098598 -0.024152 257213.000000 0 0 1
21.558494 -21.634348 -28.180489 41.556632 -0.787154 2.316001 0.082535 -0.009184 -243390.000000 0 0 1
20.769594 -21.114848 -29.410349 41.739447 -0.793641 2.352680 0.109923 -0.020157 589917.000000 0 0 1
19.528694 -21.823848 -29.527379 41.587454 -0.840843 2.360304 0.103997 -0.031954 628371.000000 0 0 1
18.651994 -21.269748 -30.512169 41.608791 -0.850877 2.393975 0.084102 -0.042980 922539.000000 0 0 1
17.246494 -21.974948 -30.351009 41.249529 -0.905377 2.397629 0.097152 -0.045329 528794.000000 0 0 1
17.240494 -23.294948 -30.837409 42.318259 -0.933664 2.387221 0.094466 -0.032308 -370238.000000 0 0 1
16.026594 -23.959748 -30.698159 42.110547 -0.981252 2.387641 0.104139 -0.037767 -816152.000000 0 0 1
16.129894 -25.368348 -31.272509 43.378524 -1.004449 2.375927 0.126907 -0.037644 796918.000000 0 0 1
15.135094 -26.310548 -30.755459 43.211275 -1.048776 2.362777 0.130844 -0.032459 893051.000000 0 0 1
15.605594 -27.635148 -30.989519 44.357483 -1.056737 2.344279 0.170920 -0.041022 -39848.500000 0 0 1
15.019994 -28.697448 -30.089469 44.209952 -1.088611 2.319383 0.153389 -0.043779 -242347.000000 0 0 1
15.412394 -28.874048 -28.722659 43.545880 -1.080491 2.291077 0.185685 -0.056368 -54251.200000 0 0 1
15.060794 -27.763348 -27.889849 42.136382 -1.073752 2.294140 0.156758 -0.048737 -50454.300000 0 0 1
15.954694 -27.725448 -26.634229 41.624931 -1.048622 2.265116 0.129056 -0.029797 -171961.000000 0 0 1
15.886194 -28.876048 -25.802239 41.856336 -1.067837 2.235019 0.113921 -0.025329 183852.000000 0 0 1
16.623994 -28.796548 -24.575779 41.346914 -1.047242 2.207291 0.112321 -0.030871 -823446.000000 0 0 1
16.164394 -27.703748 -23.500279 39.762399 -1.042618 2.203116 0.093798 -0.026723 481807.000000 0 0 1
15.051594 -28.092048 -22.721479 39.140507 -1.078924 2.190152 0.101304 -0.029954 1146780.000000 0 0 1
13.790294 -28.279548 -23.420779 39.222926 -1.117084 2.210702 0.109511 -0.022425 420449.000000 0 0 1
12.544594 -28.124648 -22.511879 38.146394 -1.151244 2.202034 0.077131 -0.012279 98373.000000 0 0 1
12.459494 -26.826848 -21.976279 36.849364 -1.135998 2.209782 0.060541 -0.012451 115178.000000 0 0 1
11.201194 -26.596248 -21.379579 35.915367 -1.172185 2.208406 0.062615 -0.013286 -62517.200000 0 0 1
10.845094 -25.064048 -21.148779 34.541184 -1.162426 2.229734 0.079213 -0.012781 195662.000000 0 0 1
11.613994 -24.401648 -20.160979 33.716322 -1.126572 2.211749 0.075156 -0.013574 326042.000000 0 0 1
11.103994 -23.077248 -20.136179 32.577964 -1.122329 2.237110 0.086402 -0.021578 34747.100000 0 0 1
11.443094 -22.207848 -18.911179 31.333139 -1.095005 2.218745 0.086671 -0.022664 -54861.400000 0 0 1
10.882394 -22.706448 -17.702679 30.779768 -1.123874 2.183572 0.100616 -0.032257 266643.000000 0 0 1
11.181494 -21.858248 -16.604079 29.639572 -1.097955 2.165423 0.095755 -0.034617 -266556.000000 0 0 1
10.348194 -22.232748 -15.382679 28.948351 -1.135170 2.131029 0.080929 -0.029293 -175781.000000 0 0 1
10.834194 -23.306448 -14.637479 29.577459 -1.135655 2.088500 0.068151 -0.021985 58172.800000 0 0 1
9.906494 -23.765448 -13.653979 29.143889 -1.175854 2.058391 0.057543 -0.018218 249202.000000 0 0 1
10.136594 -25.269448 -13.266679 30.286966 -1.189307 2.024205 0.067619 -0.019601 3966.230000 0 0 1
11.419394 -25.570848 -12.774279 30.780725 -1.150791 1.998749 0.047997 -0.023147 -398090.000000 0 0 1
11.636294 -27.001748 -12.923779 32.117313 -1.163900 1.984926 0.050970 -0.029234 -496947.000000 0 0 1
12.999194 -27.494648 -12.365079 32.830320 -1.129153 1.956958 0.047114 -0.029738 776331.000000 0 0 1
14.181394 -27.039548 -13.045079 33.202759 -1.087766 1.974570 0.057210 -0.031738 598571.000000 0 0 1
14.370794 -27.649048 -14.308679 34.288888 -1.091468 2.001266 0.062439 -0.032572 -1253330.000000 0 0 1
15.524994 -27.073948 -15.134779 34.685525 -1.050143 2.022326 0.049315 -0.033469 -777996.000000 0 0 1
16.740394 -27.562448 -14.655979 35.422127 -1.024981 1.997368 0.098767 -0.035954 -1007500.000000 0 0 1
17.782194 -27.026848 -15.407779 35.833735 -0.988856 2.015267 0.124951 -0.046243 -869490.000000 0 0 1
19.101094 -27.749848 -15.231879 36.971827 -0.967945 1.995429 0.117050 -0.050022 -432325.000000 0 0 1
19.151494 -29.022448 -15.787379 38.188003 -0.987503 1.996994 0.100013 -0.035420 -1151640.000000 0 0 1
20.491594 -29.335248 -15.744479 39.094128 -0.961057 1.985297 0.115484 -0.031374 -765593.000000 0 0 1
20.805894 -30.414048 -16.791079 40.494936 -0.970829 1.998351 0.112170 -0.032982 -7499.240000 0 0 1
20.613794 -31.757748 -16.373079 41.249979 -0.995058 1.978959 0.082417 -0.014296 -101586.000000 0 0 1
21.328694 -32.607948 -17.230979 42.603968 -0.991548 1.987169 0.077465 -0.012789 -27721.700000 0 0 1
21.131494 33.433552 -16.846479 42.990072 1.007147 1.973459 0.055584 0.002257 -554753.000000 0 0 1
22.204194 32.859052 -16.166479 42.826377 0.976538 1.957879 0.077551 -0.003904 -333897.000000 0 0 1
21.938194 31.557152 -15.663679 41.502879 0.963306 1.957796 0.075230 -0.007712 -190776.000000 0 0 1
22.956094 31.069152 -14.614479 41.302027 0.934456 1.932474 0.058933 -0.015656 -42780.800000 0 0 1
24.268794 30.762352 -15.090279 41.988250 0.902853 1.938414 0.073796 -0.013989 371070.000000 0 0 1
25.120394 30.368652 -14.036879 41.836864 0.879700 1.912948 0.088754 -0.015422 -15773.300000 0 0 1
24.705094 29.170752 -13.147979 40.424544 0.868097 1.902070 0.089431 -0.012307 -1094110.000000 0 0 1
24.857794 27.910052 -13.873579 39.866742 0.843177 1.926232 0.101347 -0.004371 -14317.300000 0 0 1
24.628794 26.739452 -13.105179 38.643518 0.826464 1.916788 0.064022 -0.003035 340818.000000 0 0 1
23.150794 26.486752 -12.678879 37.393331 0.852504 1.916722 0.060375 -0.006678 378401.000000 0 0 1
22.282394 26.208952 -13.837279 37.079435 0.866196 1.953230 0.078341 -0.008681 -959915.000000 0 0 1
20.953094 26.136852 -13.566879 36.141767 0.895039 1.955603 0.073179 -0.013002 -1219280.000000 0 0 1
20.295794 27.578952 -13.560979 36.829580 0.936370 1.947878 0.066426 -0.020930 -462489.000000 0 0 1
20.281994 28.275552 -14.865079 37.839618 0.948555 1.974519 0.072095 -0.018870 151082.000000 0 0 1
19.620494 27.663852 -16.001779 37.500792 0.953891 2.011643 0.077949 -0.014742 180580.000000 0 0 1
19.755594 28.515952 -17.267879 38.750776 0.964925 2.032656 0.071200 -0.005385 39154.400000 0 0 1
18.995694 29.678652 -17.084579 39.160459 1.001451 2.022247 0.064508 -0.008413 -43678.600000 0 0 1
19.206994 30.558052 -18.231179 40.436110 1.009655 2.038529 0.065424 -0.003384 -129272.000000 0 0 1
18.064694 31.569852 -18.467279 40.792513 1.051059 2.040601 0.056564 -0.001607 7788.960000 0 0 1
17.961894 32.632752 -17.545179 41.174742 1.067627 2.010990 0.061867 -0.022228 -536286.000000 0 0 1
16.986894 33.507852 -17.973279 41.645761 1.101602 2.017035 0.058430 -0.023442 -509345.000000 0 0 1
16.935394 -32.696048 -17.253279 40.663433 -1.092881 2.008979 0.065415 -0.015155 660347.000000 0 0 1
15.846094 -31.899148 -17.752879 39.797224 -1.109747 2.033181 0.051434 -0.020067 406012.000000 0 0 1
15.405394 -30.935548 -16.813079 38.431939 -1.108763 2.023587 0.062283 -0.021438 499063.000000 0 0 1
14.161894 -30.211048 -17.417079 37.638030 -1.132447 2.051894 0.046104 -0.023784 250333.000000 0 0 1
12.962994 -30.946048 -17.501979 37.841992 -1.174112 2.051611 0.039120 -0.018904 -30682.800000 0 0 1
11.931194 -30.043048 -17.902479 36.951818 -1.192761 2.076567 0.025587 -0.010696 -459455.000000 0 0 1
10.658194 -30.662148 -18.424379 37.325891 -1.236260 2.087030 0.045415 -0.024693 -1502600.000000 0 0 1
9.942694 -31.060048 -17.274479 36.905167 -1.260992 2.057910 0.047122 -0.020196 301152.000000 0 0 1
8.742194 -31.823748 -17.371779 37.295517 -1.302703 2.055320 0.068638 -0.022963 636705.000000 0 0 1
7.497594 -31.165148 -18.024279 36.774380 -1.334707 2.083037 0.068345 -0.014466 -421109.000000 0 0 1
7.707994 -30.752248 -19.326279 37.129759 -1.325208 2.118240 0.064059 -0.012629 -189156.000000 0 0 1
7.539094 -31.811048 -20.242379 38.451718 -1.338094 2.125200 0.075216 -0.030427 -1409540.000000 0 0 1
7.669494 -31.346648 -21.718579 38.898974 -1.330843 2.163171 0.084848 -0.012731 482232.000000 0 0 1
9.026094 -30.957048 -22.007079 39.039989 -1.287093 2.169662 0.086115 -0.015771 1759720.000000 0 0 1
10.034594 -32.015548 -22.004679 40.123488 -1.267066 2.151275 0.100619 -0.025348 42336.900000 0 0 1
9.948994 -33.103848 -23.138479 41.596111 -1.278845 2.160681 0.130416 -0.043551 -128828.000000 0 0 1
8.826094 33.588552 -22.804479 41.546781 1.313835 2.151828 0.129499 -0.056052 97589.400000 0 0 1
8.435794 32.824652 -23.910579 41.476935 1.319244 2.185209 0.134405 -0.064204 -280067.000000 0 0 1
7.203994 31.926252 -23.663879 40.387650 1.348868 2.196810 0.129122 -0.066906 437906.000000 0 0 1
5.934394 32.556352 -23.600879 40.646458 1.390495 2.190308 0.125840 -0.063600 324036.000000 0 0 1
5.631894 33.160452 -22.332779 40.374333 1.402564 2.156929 0.092067 -0.055270 -1264080.000000 0 0 1
4.399494 -33.474048 -22.438879 40.538509 -1.440115 2.157381 0.090543 -0.047437 -1348170.000000 0 0 1
3.223294 33.322552 -22.426079 40.295299 1.474366 2.161016 0.090538 -0.054705 254018.000000 0 0 1
2.056094 -33.322548 -22.565479 40.296657 -1.509172 2.165163 0.101492 -0.050818 1892870.000000 0 0 1
0.648994 33.621552 -22.119079 40.250262 1.551496 2.152608 0.085693 -0.057106 968885.000000 0 0 1
0.561794 33.556852 -20.715479 39.439941 1.554056 2.123795 0.079098 -0.054845 -252235.000000 0 0 1
-0.678406 33.026852 -20.321179 38.783804 -1.550258 2.122290 0.098710 -0.063084 -205574.000000 0 0 1
-0.851406 33.080652 -18.783279 38.050834 -1.545065 2.087063 0.120848 -0.050593 -193475.000000 0 0 1
0.028194 32.288952 -18.050079 36.991655 1.569923 2.080536 0.115731 -0.061707 -494757.000000 0 0 1
-0.384606 32.228352 -16.734779 36.316214 -1.558863 2.049701 0.092412 -0.046345 155320.000000 0 0 1
0.440294 31.228152 -15.892679 35.042382 1.556698 2.041515 0.042092 -0.045478 -137961.000000 0 0 1
1.674294 31.699052 -15.478379 35.315908 1.518027 2.024484 0.050864 -0.038548 -733205.000000 0 0 1
2.439494 30.799652 -14.695379 34.212919 1.491756 2.014765 0.071974 -0.025156 -24480.000000 0 0 1
3.403194 31.577252 -13.765079 34.614765 1.463437 1.979767 0.103407 -0.035764 320830.000000 0 0 1
4.412894 32.311752 -14.487879 35.685033 1.435064 1.988862 0.089657 -0.035524 265510.000000 0 0 1
5.227294 33.100852 -13.666479 36.190657 1.414170 1.958026 0.105498 -0.046026 84036.900000 0 0 1
6.553594 33.476052 -14.391379 37.023066 1.377472 1.970032 0.080182 -0.055541 353594.000000 0 0 1
7.500194 32.434452 -14.420779 36.279546 1.343549 1.979577 0.081307 -0.038323 -463870.000000 0 0 1
8.540794 32.632752 -15.355279 37.062464 1.314814 1.997979 0.076677 -0.015667 40219.500000 0 0 1
9.430194 31.383952 -15.219679 36.131975 1.278901 2.005592 0.075893 -0.030388 -31622.700000 0 0 1
10.210094 31.272852 -14.026379 35.762782 1.255223 1.973825 0.076378 -0.028082 393076.000000 0 0 1
11.200294 30.231352 -14.075479 35.178123 1.215989 1.982444 0.099301 -0.029467 330793.000000 0 0 1
10.773994 28.742152 -13.718579 33.621268 1.212157 1.991095 0.098745 -0.027249 -60209.800000 0 0 1
9.913094 28.164952 -14.689479 33.276339 1.232372 2.027998 0.114072 -0.031394 35788.900000 0 0 1
9.527194 26.902952 -14.198979 31.877064 1.230445 2.032450 0.103881 -0.021130 -71933.600000 0 0 1
8.488194 26.163552 -15.074879 31.366110 1.257082 2.072147 0.106316 -0.018911 -22879.900000 0 0 1
9.076294 25.583052 -16.234179 31.629420 1.229872 2.109778 0.112241 -0.020722 -246220.000000 0 0 1
8.241294 24.712552 -16.993879 31.103393 1.248908 2.148817 0.098439 -0.018237 -282468.000000 0 0 1
8.959894 23.797452 -17.998979 31.153838 1.210706 2.186760 0.105412 -0.018036 -679304.000000 0 0 1
8.272094 22.797552 -18.658679 30.599056 1.222720 2.226579 0.108215 -0.024793 -469522.000000 0 0 1
9.189294 21.980152 -19.402579 30.725075 1.174808 2.254270 0.097683 -0.024619 329302.000000 0 0 1
8.616694 20.919652 -20.411179 30.471224 1.180078 2.304804 0.084970 -0.036671 -31494.200000 0 0 1
7.776694 19.930852 -19.806479 29.154973 1.198781 2.317675 0.103426 -0.040132 115987.000000 0 0 1
7.302394 19.095452 -20.838179 29.192310 1.205540 2.365740 0.103047 -0.041957 55348.400000 0 0 1
25.992794 -12.511748 -9.355879 30.326583 -0.448620 1.884416 0.131438 -0.037246 10754.600000 0 0 1
26.362894 -11.725748 -8.232379 30.004456 -0.418506 1.848733 0.145540 -0.049099 412686.000000 0 0 1
25.346194 -11.851848 -7.279779 28.911780 -0.437392 1.825329 0.113459 -0.035972 -348759.000000 0 0 1
25.806894 -11.271348 -5.926879 28.777890 -0.411787 1.778233 0.110218 -0.044227 -272075.000000 0 0 1
25.690794 -9.822648 -5.755879 28.100381 -0.365191 1.777089 0.140797 -0.064322 364489.000000 0 0 1
26.479894 -9.062048 -6.624579 28.760920 -0.329730 1.803216 0.091857 -0.064556 -1401490.000000 0 0 1
26.817894 -7.626948 -6.126679 28.546558 -0.277082 1.787100 0.139187 -0.063097 -128094.000000 0 0 1
27.482394 -7.419548 -4.895679 28.884240 -0.263688 1.741112 0.173828 -0.074044 1067840.000000 0 0 1
28.744594 -8.087048 -4.777379 30.240294 -0.274252 1.729442 0.175522 -0.081676 244680.000000 0 0 1
29.482894 -8.059348 -3.372579 30.750096 -0.266838 1.680694 0.194699 -0.091144 -277703.000000 0 0 1
30.005794 -6.815148 -3.097879 30.925568 -0.223339 1.671137 0.209517 -0.073503 -386571.000000 0 0 1
30.737994 -6.970848 -1.955979 31.579152 -0.223011 1.632775 0.259397 -0.071246 -879590.000000 0 0 1
31.542594 -5.718448 -1.629179 32.098132 -0.179345 1.621574 0.240214 -0.073168 -879731.000000 0 0 1
30.772294 -4.572548 -1.418079 31.142466 -0.147514 1.616347 0.260550 -0.064469 -356553.000000 0 0 1
31.483494 -3.443848 -0.972679 31.686220 -0.108953 1.601498 0.241012 -0.040880 -358724.000000 0 0 1
32.102894 -3.582248 0.455721 32.305355 -0.111127 1.556689 0.212577 -0.048360 235965.000000 0 0 1
31.244894 -3.378248 1.582321 31.466803 -0.107703 1.520490 0.257926 -0.072902 352748.000000 0 0 1
32.063194 -3.259648 2.726021 32.343545 -0.101315 1.486413 0.180971 -0.056420 31077.800000 0 0 1
31.383894 -3.659148 4.065121 31.856920 -0.116069 1.442842 0.192526 -0.056208 -108174.000000 0 0 1
31.177694 -5.026848 4.049721 31.838939 -0.159856 1.443257 0.175465 -0.051341 26264.000000 0 0 1
31.233794 -5.636248 5.341921 32.184674 -0.178532 1.404047 0.159097 -0.042024 -4633.410000 0 0 1
32.026794 -6.952948 5.379421 33.211401 -0.213780 1.408104 0.121052 -0.030759 1059970.000000 0 0 1
33.466494 -6.865048 5.358921 34.581109 -0.202325 1.415203 0.138565 -0.052902 908311.000000 0 0 1
33.926294 -8.185148 5.173621 35.281105 -0.236739 1.423626 0.138985 -0.048798 859150.000000 0 0 1
35.471394 -8.396948 5.396521 36.849029 -0.232446 1.423818 0.223359 -0.067902 1009130.000000 0 0 1
36.344094 -8.017848 4.365421 37.473136 -0.217131 1.454037 0.234496 -0.069952 -412212.000000 0 0 1
37.657594 -7.893048 4.848721 38.780210 -0.206609 1.445437 0.248959 -0.069273 134106.000000 0 0 1
-37.326704 -7.884448 3.721021 38.331362 0.208168 1.473568 0.262410 -0.063176 43294.100000 0 0 1
-37.091704 -9.115048 3.072321 38.318634 0.240969 1.490532 0.330296 -0.082109 302600.000000 0 0 1
-36.076804 -8.914648 2.098421 37.221097 0.242249 1.514389 0.352782 -0.086874 130777.000000 0 0 1
-35.595204 -10.255248 1.441721 37.071110 0.280511 1.531896 0.347504 -0.071531 259994.000000 0 0 1
-34.689704 -11.052048 2.202121 36.474274 0.308430 1.510385 0.328871 -0.074086 231113.000000 0 0 1
-34.238004 -12.124648 1.412621 36.348913 0.340348 1.531924 0.330328 -0.069464 -138528.000000 0 0 1
-33.312704 -13.158048 2.117321 35.879709 0.376176 1.511750 0.201799 -0.072633 203462.000000 0 0 1
-32.041104 -12.724048 2.563521 34.570296 0.378018 1.496574 0.225597 -0.055394 348428.000000 0 0 1
-31.036004 -12.980248 1.607021 33.679413 0.396124 1.523063 0.241023 -0.035109 234601.000000 0 0 1
-29.604704 -13.201248 2.202621 32.489429 0.419454 1.502949 0.237803 -0.038973 586485.000000 0 0 1
-28.997504 -12.094048 2.865721 31.548908 0.395136 1.479837 0.222838 -0.049774 1093790.000000 0 0 1
-27.657804 -12.484148 3.254021 30.518793 0.424000 1.463970 0.205439 -0.029445 849312.000000 0 0 1
-26.976404 -11.365648 4.048821 29.551603 0.398748 1.433356 0.195344 -0.033312 -546384.000000 0 0 1
-25.669104 -11.733648 4.359921 28.558542 0.428752 1.417531 0.166210 -0.016992 -608435.000000 0 0 1
-24.884504 -10.626848 4.743921 27.471316 0.403603 1.397240 0.164213 -0.020618 -1028520.000000 0 0 1
-23.501604 -10.980648 5.193321 26.455067 0.437089 1.373206 0.141972 -0.007513 -1129670.000000 0 0 1
-23.557804 -11.949948 6.218821 27.137522 0.469439 1.339582 0.144435 -0.012539 35931.400000 0 0 1
-22.296804 -12.413448 6.677221 26.378522 0.508001 1.314881 0.117619 -0.007215 209725.000000 0 0 1
-21.793604 -11.899248 8.053721 26.103940 0.499765 1.257154 0.130818 -0.021563 -525316.000000 0 0 1
-21.587104 -10.506148 8.262221 25.389890 0.452940 1.239347 0.115539 -0.009494 525989.000000 0 0 1
-22.758604 -9.747348 8.523821 26.184353 0.404656 1.239223 0.153291 -0.026962 -259247.000000 0 0 1
-23.328804 -9.855448 9.998121 27.227291 0.399716 1.194789 0.120511 -0.010490 -402872.000000 0 0 1
-23.747304 -11.151448 10.380521 28.214260 0.439023 1.194028 0.108264 -0.018326 913921.000000 0 0 1
-25.028304 -11.530848 9.855421 29.266120 0.431727 1.227331 0.110573 -0.023043 976437.000000 0 0 1
-26.320704 -11.112048 10.659221 30.493869 0.399479 1.213702 0.126276 -0.025625 312532.000000 0 0 1
-26.476004 -11.723948 11.902421 31.306507 0.416862 1.180795 0.101767 -0.029328 436724.000000 0 0 1
-27.628504 -11.276948 12.619521 32.399940 0.387524 1.170716 0.111295 -0.037433 350109.000000 0 0 1
-27.793204 -11.854948 14.008021 33.305054 0.403175 1.136693 0.098730 -0.036609 -14013.000000 0 0 1
-28.173904 -13.269448 14.073121 34.174550 0.440166 1.146367 0.096979 -0.036934 383906.000000 0 0 1
-28.482204 -13.628048 15.387421 35.124526 0.446281 1.117332 0.086428 -0.030740 -454673.000000 0 0 1
-28.304404 -15.139048 15.666621 35.717966 0.491149 1.116734 0.088349 -0.021034 22834.300000 0 0 1
-29.349204 -15.985448 15.188921 36.709857 0.498737 1.144220 0.098137 -0.029243 143483.000000 0 0 1
-28.891204 -17.276948 14.978421 36.844914 0.538948 1.152148 0.083487 -0.023859 -18100.600000 0 0 1
-29.800004 -18.329048 15.678321 38.338023 0.551426 1.149494 0.073141 -0.006543 118151.000000 0 0 1
-29.793604 -18.220048 17.100421 38.885131 0.548863 1.115456 0.066063 0.005917 82108.300000 0 0 1
-30.450104 -19.285648 17.812121 40.204685 0.564583 1.111814 0.071447 0.017387 224752.000000 0 0 1
-29.575004 -20.553148 18.008621 40.266899 0.607329 1.107129 0.036305 0.024663 306078.000000 0 0 1
-28.315704 -20.321548 18.612321 39.511554 0.622492 1.080304 0.043705 0.022863 -114818.000000 0 0 1
-27.714704 -21.479348 19.101621 39.929176 0.659320 1.071979 0.033605 0.023635 229268.000000 0 0 1
-26.334204 -21.169048 19.766621 39.145092 0.677091 1.041463 0.032750 0.016695 594258.000000 0 0 1
-25.350704 -20.858148 18.768221 37.814900 0.688480 1.051444 0.035856 -0.000449 149150.000000 0 0 1
-24.098604 -20.793148 19.431821 37.292002 0.711899 1.022690 0.057256 -0.006852 -289773.000000 0 0 1
-22.910204 -20.638748 18.501621 35.960330 0.733287 1.030371 0.071987 -0.022312 -464644.000000 0 0 1
-22.600804 -21.682748 17.586821 35.919830 0.764670 1.059150 0.070056 -0.019911 946659.000000 0 0 1
-21.323904 -21.406448 16.965921 34.652379 0.787330 1.059162 0.083892 -0.021843 881477.000000 0 0 1
-21.043504 -22.366248 15.726321 34.502105 0.815860 1.097517 0.081523 -0.011103 -108833.000000 0 0 1
-21.060704 -23.804048 16.045221 35.603863 0.846469 1.103292 0.074983 -0.020240 473371.000000 0 0 1
-20.075304 -24.334548 16.946221 35.810089 0.881013 1.077849 0.098623 -0.031048 765644.000000 0 0 1
-18.620404 -24.634548 16.439021 34.983165 0.923552 1.081605 0.101448 -0.029021 619900.000000 0 0 1
-17.900104 -23.430948 16.399921 33.739894 0.918426 1.063210 0.111154 -0.036962 -452125.000000 0 0 1
-16.651604 -23.685548 15.800221 32.983755 0.958041 1.071247 0.120381 -0.037715 196677.000000 0 0 1
-15.705904 -22.473548 15.542321 31.516655 0.960835 1.055094 0.112931 -0.033990 117182.000000 0 0 1
-16.154004 -21.613648 14.537321 30.650209 0.928962 1.076630 0.126248 -0.029823 104569.000000 0 0 1
-17.166404 -20.655448 14.906121 30.716859 0.877387 1.064119 0.103699 -0.023923 265528.000000 0 0 1
-16.890504 -19.495348 15.976021 30.341242 0.856866 1.016265 0.118118 -0.026449 -704474.000000 0 0 1
-16.031004 -18.626648 15.348621 28.974562 0.860152 1.012517 0.129140 -0.028840 -391739.000000 0 0 1
-16.057604 -17.420948 16.127121 28.660427 0.826099 0.973152 0.125461 -0.035224 57531.200000 0 0 1
-15.419804 -16.175648 15.427321 27.155555 0.809316 0.966590 0.122147 -0.029476 489048.000000 0 0 1
-16.325104 -15.508848 14.543921 26.805951 0.759763 0.997311 0.119656 -0.023366 405723.000000 0 0 1
-16.384804 -16.039048 13.211921 26.462572 0.774735 1.048042 0.151293 -0.027211 -106775.000000 0 0 1
-17.305404 -15.186948 12.323421 26.114883 0.720292 1.079360 0.125795 -0.018443 -330972.000000 0 0 1
-18.661504 -15.289748 12.631221 27.231891 0.686411 1.088472 0.114463 -0.019696 -260796.000000 0 0 1
-19.494004 -14.427048 11.863321 26.998042 0.637120 1.115850 0.145576 -0.025091 314116.000000 0 0 1
-20.995604 -14.833448 11.826421 28.296834 0.615077 1.139618 0.101833 -0.025693 188728.000000 0 0 1
-21.334304 -15.950948 11.054921 28.840883 0.642006 1.177422 0.114787 -0.035475 135992.000000 0 0 1
-21.447904 -15.636148 9.671721 28.249671 0.629944 1.221363 0.141328 -0.037615 -161519.000000 0 0 1
-22.322504 -16.743748 9.008021 29.322205 0.643555 1.258538 0.143516 -0.023719 254444.000000 0 0 1
-21.648604 -17.966348 8.842521 29.489691 0.692713 1.266260 0.147160 -0.013214 389106.000000 0 0 1
-22.549404 -18.960648 8.305121 30.609750 0.699158 1.296029 0.140044 -0.032346 471924.000000 0 0 1
-22.018204 -20.400148 8.409921 31.172008 0.747271 1.297621 0.158465 -0.032373 -67206.200000 0 0 1
-20.875204 -20.666248 7.648021 30.353915 0.780368 1.316090 0.181947 -0.029164 -376723.000000 0 0 1
-20.349204 -21.979048 7.851221 30.964663 0.823884 1.314444 0.171829 -0.034210 31729.800000 0 0 1
-19.021504 -22.169848 7.079421 30.057245 0.861682 1.333031 0.171706 -0.049591 225531.000000 0 0 1
-17.954504 -21.556748 7.787021 29.115207 0.876317 1.300045 0.130877 -0.039952 -310087.000000 0 0 1
-16.722604 -21.723348 7.133421 28.327284 0.914744 1.316234 0.148618 -0.043124 -83691.900000 0 0 1
-15.486804 -21.554948 8.031221 27.730081 0.947775 1.276965 0.122065 -0.023927 -317918.000000 0 0 1
-14.256304 -21.815248 7.424721 27.097486 0.991963 1.293246 0.125520 -0.020894 -602439.000000 0 0 1
-13.184104 -21.501548 8.270421 26.543116 1.020749 1.253936 0.108444 -0.021083 440237.000000 0 0 1
-11.807604 -21.984648 7.716021 26.120514 1.077923 1.270921 0.105255 -0.023967 461449.000000 0 0 1
-11.690304 -23.324848 7.590921 27.172299 1.106193 1.287666 0.095639 -0.012619 915912.000000 0 0 1
-10.371904 -23.791648 7.166221 26.925334 1.159690 1.301398 0.112046 -0.021253 1545050.000000 0 0 1
-10.162904 -25.306738 7.121321 28.185614 1.188921 1.315370 0.129287 -0.017885 133126.000000 0 0 1
-10.992904 -25.947988 6.170921 28.848263 1.170068 1.355221 0.139913 -0.024242 -274158.000000 0 0 1
-10.893904 -27.383738 6.196121 30.115414 1.192167 1.363571 0.144603 -0.021049 431512.000000 0 0 1
-9.817904 -28.093588 5.298221 30.227671 1.234593 1.394609 0.164967 -0.029995 399986.000000 0 0 1
-8.481904 -27.661478 5.571921 29.464324 1.273266 1.380543 0.165108 -0.036782 -134739.000000 0 0 1
-7.462904 -28.500308 5.171021 29.911569 1.314693 1.397046 0.187841 -0.033141 -254716.000000 0 0 1
-7.404904 -29.906508 5.763921 31.344132 1.328076 1.385852 0.212260 -0.045720 -929071.000000 0 0 1
-7.297904 -29.832498 7.196821 31.544121 1.330879 1.340618 0.198668 -0.037372 95405.400000 0 0 1
-7.181904 -31.083158 7.741621 32.827963 1.343727 1.332730 0.228259 -0.041449 -139230.000000 0 0 1
-7.664904 -31.170218 9.222621 33.397455 1.329676 1.291013 0.169954 -0.046256 371838.000000 0 0 1
-6.849904 -30.507008 10.238121 32.900119 1.349924 1.254354 0.167949 -0.047805 542291.000000 0 0 1
-7.249904 -30.882128 11.546721 33.757869 1.340211 1.221704 0.138689 -0.044245 -218065.000000 0 0 1
-6.324904 -30.312398 12.633321 33.443186 1.365090 1.183426 0.118231 -0.039051 -23312.800000 0 0 1
-6.550904 -28.916408 12.960621 32.358163 1.348011 1.158694 0.121711 -0.033501 65843.800000 0 0 1
-5.480904 -28.422358 13.742121 32.042419 1.380297 1.127552 0.110539 -0.039649 -437932.000000 0 0 1
-5.905904 -27.603278 15.006221 31.968849 1.360018 1.082184 0.101614 -0.035205 -87075.000000 0 0 1
-6.652904 -28.116808 16.084921 33.068727 1.338453 1.062821 0.090082 -0.029351 -262627.000000 0 0 1
-6.042904 -29.192988 16.769321 34.204640 1.366681 1.058403 0.076301 -0.037011 -207865.000000 0 0 1
-6.982904 -30.385818 16.980921 35.502262 1.344910 1.072072 0.068226 -0.030527 -11031.400000 0 0 1
-7.408904 -30.973708 15.759121 35.533257 1.336008 1.111293 0.084146 -0.030699 118317.000000 0 0 1
-7.900904 -32.293668 15.870221 36.839777 1.330852 1.125428 0.086037 -0.033413 244533.000000 0 0 1
-6.851904 -33.415618 15.521921 37.476421 1.368549 1.143756 0.105352 -0.038587 290763.000000 0 0 1
-6.618904 -33.470118 14.169121 36.943507 1.375560 1.177176 0.092601 -0.039236 249368.000000 0 0 1
-5.497904 33.210316 13.889821 36.415369 -1.406736 1.179456 0.134930 -0.049402 587438.000000 0 0 1
-4.399904 -33.720838 12.951021 36.389326 1.441049 1.206918 0.170299 -0.059635 155007.000000 0 0 1
-4.772904 33.697832 11.601221 35.957097 -1.430094 1.242278 0.160135 -0.049828 -94669.400000 0 0 1
-3.833904 -33.167028 10.779921 35.085001 1.455713 1.258493 0.186991 -0.053071 -534800.000000 0 0 1
-4.311904 -32.912868 9.297721 34.471684 1.440529 1.297694 0.191306 -0.056940 -626539.000000 0 0 1
-4.469904 33.443549 8.458521 34.785019 -1.437929 1.325168 0.198529 -0.054259 537008.000000 0 0 1
-5.342904 32.357674 8.841221 33.966643 -1.407153 1.307472 0.200501 -0.054302 661292.000000 0 0 1
-6.837904 32.611562 9.185821 34.563713 -1.364113 1.301799 0.177824 -0.045039 -128274.000000 0 0 1
-7.575904 33.041457 8.102021 34.853621 -1.345407 1.336192 0.176698 -0.038385 -122293.000000 0 0 1
-8.978904 32.920964 8.365921 35.134018 -1.304531 1.330372 0.128579 -0.038099 863552.000000 0 0 1
-9.845904 33.297831 7.130421 35.447570 -1.283296 1.368260 0.133773 -0.046396 10276.300000 0 0 1
-9.962904 -32.851978 6.853921 35.006973 1.276345 1.373736 0.152230 -0.043311 -221749.000000 0 0 1
-10.701904 -32.876088 5.667121 35.035470 1.256092 1.408329 0.142385 -0.040799 13006.800000 0 0 1
-11.188604 -31.453598 5.200621 33.786982 1.229037 1.416258 0.128370 -0.042515 705901.000000 0 0 1
-12.262404 -30.952368 6.012521 33.831436 1.193596 1.392127 0.123017 -0.039858 892769.000000 0 0 1
-13.332804 -30.380168 5.239021 33.588177 1.157240 1.414179 0.123561 -0.037371 831376.000000 0 0 1
-14.391404 -29.615848 6.074421 33.482974 1.118463 1.388368 0.109830 -0.035954 -359147.000000 0 0 1
-15.333304 -30.299558 6.803221 34.633181 1.102315 1.373074 0.121146 -0.042248 -459736.000000 0 0 1
-16.134504 -29.488058 7.610621 34.464320 1.070141 1.348135 0.115688 -0.045496 -151261.000000 0 0 1
35.414371 -12.400248 -12.881079 39.671980 -0.336806 1.901480 0.163230 -0.048147 123772.000000 0 0 1
34.387421 -12.408848 -11.883779 38.440843 -0.346312 1.885090 0.192655 -0.056594 327482.000000 0 0 1
34.258371 -13.745648 -11.392479 38.631171 -0.381570 1.870151 0.189084 -0.055904 141207.000000 0 0 1
35.291971 -14.281948 -10.333679 39.449742 -0.384534 1.835834 0.171218 -0.049179 835993.000000 0 0 1
36.552811 -14.623248 -10.930479 40.858570 -0.380556 1.841614 0.176250 -0.050027 497203.000000 0 0 1
37.429291 -14.950748 -9.856979 41.492610 -0.380023 1.810649 0.138277 -0.038323 -144076.000000 0 0 1
-37.163906 -15.252248 -10.225879 41.453053 0.389444 1.820055 0.097486 -0.036261 37782.600000 0 0 1
-36.488936 -14.105848 -10.777679 40.578021 0.368883 1.839627 0.100094 -0.042017 1160280.000000 0 0 1
-35.091119 -14.366148 -11.022079 39.487455 0.388580 1.853683 0.085710 -0.037967 969058.000000 0 0 1
-34.301333 -13.139048 -11.481879 38.484407 0.365807 1.873761 0.093839 -0.047489 -237258.000000 0 0 1
-34.309154 -12.120448 -10.421179 37.850024 0.339586 1.849727 0.115311 -0.042892 182639.000000 0 0 1
-33.601156 -10.996748 -10.863479 36.986232 0.316286 1.868909 0.127181 -0.037293 -254470.000000 0 0 1
-33.892826 -9.688148 -10.045979 36.653862 0.278422 1.848426 0.144861 -0.039666 -382717.000000 0 0 1
-33.433326 -9.720848 -8.746979 35.899747 0.282952 1.816924 0.158446 -0.041244 62692.400000 0 0 1
-33.692246 -8.485948 -8.050379 35.664932 0.246735 1.798481 0.209964 -0.057102 -157858.000000 0 0 1
-33.241246 -8.311748 -6.595879 34.893714 0.245019 1.760968 0.190510 -0.051863 144898.000000 0 0 1
-31.844686 -8.021348 -6.464879 33.469699 0.246756 1.765174 0.161891 -0.055632 687046.000000 0 0 1
-31.463156 -7.651548 -5.163379 32.789280 0.238560 1.728926 0.194743 -0.048224 -391852.000000 0 0 1
-31.230646 -8.754348 -4.115779 32.694518 0.273299 1.697017 0.159217 -0.040762 -194223.000000 0 0 1
-32.344406 -9.609048 -3.857279 33.961346 0.288781 1.684620 0.176162 -0.041755 587539.000000 0 0 1
-32.075846 -10.308448 -2.669579 33.797199 0.310952 1.649867 0.182310 -0.050804 -108616.000000 0 0 1
-32.759636 -11.671548 -2.722779 34.883124 0.342257 1.648930 0.193046 -0.050150 54561.000000 0 0 1
-34.164058 -11.559848 -2.845879 36.178889 0.326270 1.649539 0.224484 -0.058778 280025.000000 0 0 1
-34.825370 -12.788248 -2.664679 37.194707 0.351924 1.642499 0.227544 -0.060231 340566.000000 0 0 1
-36.375396 -12.807448 -2.541179 38.647869 0.338536 1.636596 0.233706 -0.054966 225712.000000 0 0 1
-36.898656 -12.105048 -1.478779 38.861676 0.316999 1.608858 0.267909 -0.073415 1076530.000000 0 0 1
37.716861 -12.103048 -1.512679 39.640050 -0.310512 1.608966 0.325713 -0.068538 1082390.000000 0 0 1
37.008831 -11.232248 -0.443879 38.678340 -0.294666 1.582273 0.302399 -0.084418 35476.400000 0 0 1
37.271351 -11.759048 0.848821 39.091550 -0.305614 1.549081 0.320069 -0.078605 1018050.000000 0 0 1
36.178241 -11.569848 1.801621 38.025943 -0.309523 1.523400 0.335952 -0.068024 722853.000000 0 0 1
36.539101 -11.886148 3.228821 38.559197 -0.314503 1.486961 0.296543 -0.070347 775168.000000 0 0 1
35.467451 -11.991048 4.207021 37.675248 -0.326022 1.458898 0.261558 -0.065378 643821.000000 0 0 1
36.081301 -11.923248 5.472721 38.392379 -0.319158 1.427762 0.246763 -0.062485 111302.000000 0 0 1
35.166881 -12.023848 6.712721 37.766957 -0.329448 1.392106 0.194229 -0.049179 451332.000000 0 0 1
34.290551 -10.927548 7.009421 36.665858 -0.308501 1.378442 0.179558 -0.037445 311648.000000 0 0 1
33.664921 -11.100348 8.244221 36.393843 -0.318504 1.342285 0.159548 -0.031342 -239501.000000 0 0 1
32.844251 -9.991148 8.866521 35.456777 -0.295304 1.318048 0.141135 -0.040109 -231533.000000 0 0 1
31.710521 -9.581748 8.118021 34.106734 -0.293440 1.330472 0.141027 -0.035847 377181.000000 0 0 1
30.984591 -8.595948 8.792121 33.335215 -0.270621 1.303890 0.146380 -0.025744 53798.000000 0 0 1
29.439591 -8.682848 8.698921 31.902235 -0.286806 1.294625 0.128380 -0.014638 225728.000000 0 0 1
28.832491 -8.040748 7.610221 30.884974 -0.271968 1.321827 0.159353 -0.019849 -93385.700000 0 0 1
28.075191 -8.922048 6.840421 30.242530 -0.307698 1.342636 0.178972 -0.027690 -149204.000000 0 0 1
27.437691 -8.329748 5.566421 29.209530 -0.294745 1.379055 0.181883 -0.028776 -68528.700000 0 0 1
26.640191 -7.226348 5.902421 28.226910 -0.264883 1.360135 0.205942 -0.035986 -45468.800000 0 0 1
25.866091 -6.669948 4.870521 27.152621 -0.252367 1.390444 0.257552 -0.051878 -274358.000000 0 0 1
26.418591 -5.446348 4.110021 27.285471 -0.203308 1.419590 0.263805 -0.058288 -405848.000000 0 0 1
27.325691 -5.850248 3.127021 28.119336 -0.210909 1.459360 0.249385 -0.055586 -85285.700000 0 0 1
27.845291 -4.716048 2.481821 28.350675 -0.167774 1.483144 0.256471 -0.066303 -236078.000000 0 0 1
28.367791 -4.931948 1.080021 28.813575 -0.172137 1.533304 0.243273 -0.077218 -54269.900000 0 0 1
27.376591 -5.405748 0.169421 27.905708 -0.194951 1.564725 0.251603 -0.077608 274966.000000 0 0 1
27.668791 -4.988048 -1.130779 28.137542 -0.178361 1.610995 0.247600 -0.086579 -790786.000000 0 0 1
26.694991 -5.389548 -2.218679 27.323841 -0.199216 1.652085 0.244031 -0.069150 -7546.330000 0 0 1
25.368591 -4.896748 -2.134879 25.924916 -0.190679 1.653238 0.279163 -0.066483 512463.000000 0 0 1
24.522191 -5.393248 -3.161879 25.306569 -0.216487 1.696067 0.263322 -0.060045 411108.000000 0 0 1
23.086691 -4.798848 -3.131779 23.787229 -0.204944 1.702838 0.212056 -0.047676 84096.600000 0 1 0
22.904991 -3.426548 -3.479379 23.419776 -0.148497 1.719914 0.231027 -0.050628 119469.000000 0 1 0
23.207991 -2.865948 -4.766579 23.865137 -0.122868 1.771878 0.251952 -0.046180 -107090.000000 0 1 0
22.177091 -1.794448 -5.201379 22.849458 -0.080739 1.800446 0.201730 -0.027122 -1771.410000 0 1 0
22.231891 -0.594948 -4.513679 22.693264 -0.026755 1.771031 0.222164 -0.015241 529254.000000 0 1 0
21.196691 0.293852 -4.952179 21.769477 0.013862 1.800288 0.199367 -0.011975 -328233.000000 0 1 0
21.271891 1.640152 -4.226079 21.749556 0.076952 1.766347 0.188858 -0.004032 -327389.000000 0 1 0
22.252991 2.573752 -4.608779 22.870519 0.115147 1.773702 0.236707 -0.010715 -741942.000000 0 1 0
23.424691 2.315052 -3.946479 23.867348 0.098510 1.736910 0.283283 -0.005284 -1547180.000000 0 1 0
24.424991 3.457052 -3.924579 24.978665 0.140604 1.728567 0.307420 -0.015498 -619121.000000 0 1 0
23.905091 4.522152 -3.261079 24.546647 0.186962 1.704043 0.256508 -0.008640 213766.000000 0 1 0
24.829391 5.566552 -3.010479 25.623195 0.220545 1.688559 0.247232 -0.008347 -49816.900000 0 0 1
24.238291 6.994152 -3.234179 25.433694 0.280927 1.698303 0.214300 -0.007968 -294851.000000 0 0 1
23.404491 7.396152 -2.199679 24.643698 0.306083 1.660175 0.233713 -0.017907 483334.000000 0 1 0
22.612691 8.545152 -2.521879 24.304594 0.361304 1.674745 0.203380 -0.015622 -21495.600000 0 1 0
21.582691 8.944252 -1.453879 23.407818 0.392873 1.632947 0.147508 -0.016708 -364517.000000 0 1 0
22.186691 9.329952 -0.229079 24.069685 0.398070 1.580314 0.126275 -0.026807 504436.000000 0 1 0
21.256291 9.928352 0.652021 23.469708 0.436965 1.543011 0.094553 -0.025902 -251853.000000 0 1 0
21.847491 10.213952 2.026521 24.202158 0.437321 1.486965 0.121542 -0.032609 -343845.000000 0 1 0
22.730491 11.299052 2.146921 25.474557 0.461315 1.486419 0.138608 -0.036687 288993.000000 0 0 1
22.183191 12.565552 1.737321 25.553969 0.515381 1.502758 0.134064 -0.029442 -570591.000000 0 0 1
21.149091 13.144852 2.702621 25.047461 0.556102 1.462686 0.124144 -0.020581 -427073.000000 0 0 1
19.887291 12.487952 2.545621 23.620615 0.560708 1.462815 0.150326 -0.032098 583050.000000 0 1 0
18.828991 13.216052 3.189621 23.224310 0.611999 1.433021 0.133151 -0.034127 423502.000000 0 1 0
18.686091 13.214252 4.737121 23.371494 0.615522 1.366694 0.123928 -0.028581 -445292.000000 0 1 0
18.339791 11.919752 5.190421 22.480411 0.576333 1.337808 0.096874 -0.025929 255341.000000 0 1 0
18.376591 11.784252 6.616821 22.811181 0.570210 1.276497 0.099100 -0.029534 -76202.000000 0 1 0
18.574891 10.395352 7.175721 22.462878 0.510218 1.245649 0.095860 -0.036066 317117.000000 0 1 0
19.847991 9.860152 6.807321 23.184153 0.461071 1.272785 0.104408 -0.044788 803840.000000 0 1 0
19.899591 8.555052 7.209621 22.828956 0.406023 1.249486 0.120906 -0.043413 -69475.600000 0 1 0
20.809291 7.705252 6.337821 23.077380 0.354626 1.292588 0.131938 -0.049281 98219.700000 0 1 0
20.208691 7.498952 5.064721 22.142196 0.355326 1.340017 0.096655 -0.049447 785916.000000 0 1 0
21.107191 6.782552 4.271221 22.577862 0.310917 1.380472 0.109878 -0.046548 -110205.000000 0 1 0
20.599491 6.680552 2.812321 21.837535 0.313605 1.441654 0.099662 -0.034774 -67258.400000 0 1 0
21.283491 5.641652 2.092621 22.117737 0.259113 1.476042 0.090980 -0.041006 502667.000000 0 1 0
21.162891 5.782952 0.699521 21.949939 0.266747 1.538922 0.097418 -0.021682 -438738.000000 0 1 0
22.046091 4.834552 -0.135879 22.570367 0.215876 1.576817 0.176993 -0.028986 7759.100000 0 1 0
21.790491 3.475752 0.167721 22.066592 0.158175 1.563196 0.140566 -0.024934 247510.000000 0 1 0
22.893591 2.782152 -0.319979 23.064242 0.120932 1.584670 0.200244 -0.031067 -320472.000000 0 1 0
22.825791 1.253652 -0.069379 22.860297 0.054867 1.573831 0.235484 -0.033219 166833.000000 0 1 0
21.994591 0.559752 -1.036079 22.026094 0.025444 1.617852 0.151625 -0.030512 652219.000000 0 1 0
22.387191 -0.771948 -1.359679 22.441723 -0.034468 1.631421 0.216559 -0.042412 -1143740.000000 0 1 0
22.119091 -1.784748 -0.232079 22.192191 -0.080514 1.581254 0.232403 -0.041541 467514.000000 0 1 0
23.138091 -1.919948 0.762721 23.230135 -0.082788 1.537957 0.235953 -0.040934 1318660.000000 0 1 0
24.449991 -2.324148 0.329421 24.562415 -0.094772 1.557384 0.264757 -0.059720 231915.000000 0 1 0
25.552091 -2.086348 1.369921 25.673700 -0.081470 1.517412 0.275569 -0.051823 -568587.000000 0 0 1
25.772391 -0.694048 1.633621 25.833439 -0.026923 1.507517 0.273341 -0.045386 136184.000000 0 0 1
26.507191 -0.574048 2.816021 26.662533 -0.021653 1.464982 0.266569 -0.045914 -405139.000000 0 0 1
26.563491 0.846052 3.534321 26.810936 0.031839 1.438588 0.241276 -0.040489 294180.000000 0 0 1
27.117091 1.964452 2.819621 27.333970 0.072317 1.467458 0.286846 -0.033281 149022.000000 0 0 1
28.517091 1.958252 2.622921 28.704336 0.068562 1.479292 0.265937 -0.032271 141545.000000 0 0 1
28.975191 3.069752 1.668321 29.185071 0.105550 1.513602 0.304987 -0.035382 -100324.000000 0 0 1
28.672091 2.816952 0.301321 28.811713 0.097933 1.560338 0.365701 -0.033056 -126122.000000 0 0 1
29.037191 3.843852 -0.550479 29.295677 0.131612 1.589588 0.348714 -0.023819 -553587.000000 0 0 1
30.408591 3.630752 -1.161879 30.646610 0.118836 1.608718 0.300542 -0.016075 138737.000000 0 0 1
31.542991 3.814852 -0.293179 31.774193 0.120357 1.580023 0.237316 -0.014379 546093.000000 0 0 1
32.801721 3.554652 -0.880579 33.005512 0.107947 1.597479 0.181232 -0.008632 316062.000000 0 0 1
33.909911 4.019552 0.105721 34.147475 0.117986 1.567700 0.095422 0.000774 -99544.600000 0 0 1
34.010491 3.313852 1.305421 34.196480 0.097130 1.532613 0.120752 -0.007112 -518117.000000 0 0 1
33.205991 3.763352 2.317521 33.498829 0.112852 1.501559 0.119763 -0.001214 -511826.000000 0 0 1
33.239791 2.796152 3.565021 33.547154 0.083923 1.464326 0.153584 -0.017445 135552.000000 0 0 1
32.519491 1.555852 3.359721 32.729584 0.047807 1.467964 0.191750 -0.022859 454641.000000 0 0 1
32.853861 0.538552 4.327921 33.142075 0.016391 1.439835 0.169780 -0.029122 557198.000000 0 0 1
34.150051 -0.278848 3.983221 34.382696 -0.008165 1.454686 0.154937 -0.033598 57157.900000 0 0 1
35.331151 0.411952 4.244421 35.587568 0.011659 1.451245 0.141407 -0.030777 -266738.000000 0 0 1
36.410951 -0.527048 4.298721 36.667617 -0.014474 1.453291 0.111237 -0.034026 -878422.000000 0 0 1
37.734571 0.140052 4.625721 38.017295 0.003711 1.448820 0.165796 -0.050594 -493109.000000 0 0 1
-37.731266 0.799852 3.524021 37.903917 -0.021195 1.477689 0.132994 -0.039227 -348285.000000 0 0 1
-36.844256 0.006652 2.812521 36.951449 -0.000181 1.494609 0.155577 -0.038716 -804907.000000 0 0 1
-36.349046 0.707752 1.557221 36.389271 -0.019469 1.527990 0.161458 -0.040035 -246778.000000 0 0 1
-35.373654 1.661152 1.890421 35.463059 -0.046926 1.517464 0.194722 -0.074401 -28998.000000 0 0 1
-34.848955 2.441152 0.819521 34.943962 -0.069935 1.547342 0.261623 -0.054236 -112303.000000 0 0 1
-33.917046 3.521052 1.428521 34.129233 -0.103443 1.528928 0.293666 -0.059397 -946332.000000 0 0 1
-32.838096 2.961552 2.066721 33.036082 -0.089943 1.508196 0.291299 -0.075604 -561302.000000 0 0 1
-32.058706 3.894352 2.827421 32.417911 -0.120883 1.483468 0.306541 -0.058652 -157413.000000 0 0 1
-32.397836 4.000552 4.292221 32.924875 -0.122860 1.440060 0.310962 -0.061006 -822320.000000 0 0 1
-33.602196 4.639352 4.588921 34.229949 -0.137200 1.436330 0.296933 -0.031219 -517161.000000 0 0 1
-34.750665 3.894252 4.827421 35.299829 -0.111597 1.433612 0.270930 -0.033078 -514685.000000 0 0 1
-34.803940 2.919152 6.054421 35.447027 -0.083678 1.399153 0.218724 -0.022380 -877087.000000 0 0 1
-34.940149 3.611452 7.292821 35.875366 -0.102995 1.366087 0.217186 -0.021476 320417.000000 0 0 1
-34.994716 2.894452 8.523621 36.133919 -0.082523 1.332662 0.173600 -0.021578 422524.000000 0 0 1
-36.112456 1.784252 8.682821 37.184465 -0.049368 1.335114 0.160563 -0.021763 346130.000000 0 0 1
-35.870147 0.636052 7.893721 36.733947 -0.017730 1.354218 0.158297 -0.029778 94641.200000 0 0 1
-36.766046 -0.384748 8.257721 37.683951 0.010464 1.349873 0.153773 -0.030155 -137101.000000 0 0 1
-36.409526 -1.113748 9.578021 37.664739 0.030580 1.313676 0.165330 -0.028755 -719494.000000 0 0 1
-35.278396 -1.889048 9.457521 36.572920 0.053496 1.309230 0.163974 -0.032867 -473668.000000 0 0 1
-34.846405 -2.535748 10.631121 36.520168 0.072641 1.275417 0.151284 -0.024082 -62065.600000 0 0 1
-33.631136 -3.449448 10.393621 35.369187 0.102210 1.272533 0.179935 -0.016208 -65028.400000 0 0 1
-34.008559 -4.572848 9.647321 35.644970 0.133660 1.296728 0.192450 -0.033102 531327.000000 0 0 1
-32.875736 -5.180748 9.028021 34.484190 0.156300 1.305908 0.218688 -0.051326 521093.000000 0 0 1
-33.258256 -6.229748 7.917421 34.750639 0.185169 1.340942 0.231937 -0.039792 203673.000000 0 0 1
-33.926186 -7.388148 8.377621 35.717718 0.214423 1.334040 0.233422 -0.046350 -8285.430000 0 0 1
-34.354795 -8.205648 7.313921 36.070460 0.234457 1.366613 0.246784 -0.061045 -3380.640000 0 0 1
-35.473508 -9.200448 7.668821 37.441005 0.253770 1.364512 0.247453 -0.068988 -138854.000000 0 0 1
-36.707036 -8.609448 8.003321 38.543252 0.230381 1.361629 0.225234 -0.068069 -316779.000000 0 0 1
-37.521016 -9.572948 8.586521 39.663539 0.249806 1.352585 0.227572 -0.071313 -397738.000000 0 0 1
8.940394 -23.668648 10.719721 27.478136 -1.209633 1.170036 0.138925 -0.044659 -24599.300000 0 0 1
8.383494 -24.474748 9.668721 27.618480 -1.240786 1.213138 0.132631 -0.040119 689735.000000 0 0 1
7.036694 -24.881548 9.946721 27.704580 -1.295186 1.203570 0.133584 -0.044351 782206.000000 0 0 1
6.447594 -25.745698 8.848421 27.976901 -1.325409 1.248995 0.118357 -0.034169 -143183.000000 0 0 1
5.980894 -25.061468 7.685921 26.887203 -1.336529 1.280895 0.110915 -0.032742 -91459.600000 0 0 1
5.740994 -25.973838 6.650821 27.419568 -1.353264 1.325795 0.098359 -0.027913 -439262.000000 0 0 1
5.082594 -25.493818 5.316821 26.533679 -1.374011 1.369050 0.093048 -0.025691 890315.000000 0 0 1
3.653494 -25.421278 5.378721 26.239665 -1.428056 1.364349 0.108079 -0.033082 488315.000000 0 0 1
2.995194 -26.671108 5.091521 27.317445 -1.458964 1.383316 0.112881 -0.026132 -346423.000000 0 0 1
1.475394 -26.467288 5.098321 26.994203 -1.515110 1.380788 0.136245 -0.036479 -219237.000000 0 0 1
0.807094 -26.072258 6.317621 26.838897 -1.539850 1.333176 0.135413 -0.044910 972674.000000 0 0 1
-0.626806 -26.064798 6.338621 26.831785 1.546753 1.332306 0.159036 -0.045893 1431290.000000 0 0 1
-1.356906 -27.447598 6.326921 28.200031 1.521400 1.344511 0.187011 -0.043558 -365331.000000 0 0 1
-1.210206 -28.209898 7.498721 29.214616 1.527923 1.311214 0.170849 -0.049145 169213.000000 0 0 1
-2.038906 -29.380948 7.544221 30.402509 1.501512 1.320032 0.198737 -0.051233 230453.000000 0 0 1
-2.011506 -30.048818 8.942521 31.415702 1.503955 1.282154 0.185638 -0.050847 152123.000000 0 0 1
-0.751406 -30.639828 9.209521 32.002796 1.546277 1.278896 0.178386 -0.043382 167595.000000 0 0 1
-0.539506 -30.918618 10.600021 32.689639 1.553349 1.240564 0.172775 -0.041454 -416534.000000 0 0 1
0.937994 -30.881968 10.982721 32.790181 -1.540432 1.229255 0.169497 -0.043189 -780895.000000 0 0 1
1.665194 -31.986148 10.513321 33.710777 -1.518783 1.253638 0.175726 -0.036217 372709.000000 0 0 1
3.059494 -31.895158 10.821121 33.819496 -1.475165 1.245102 0.171422 -0.031729 705234.000000 0 0 1
3.471094 -32.537668 12.137321 34.900758 -1.464519 1.215608 0.193845 -0.031917 -179837.000000 0 0 1
2.969894 -31.792418 13.277421 34.581325 -1.477651 1.176728 0.207564 -0.044503 186914.000000 0 0 1
3.586394 -32.232628 14.454321 35.506787 -1.459986 1.151535 0.199486 -0.051671 -391321.000000 0 0 1
3.323894 -31.371668 15.667421 35.223542 -1.465238 1.109846 0.226706 -0.062593 -356168.000000 0 0 1
3.927294 -30.138478 15.794621 34.252322 -1.441218 1.091533 0.231658 -0.061972 363341.000000 0 0 1
5.314994 -30.148408 16.149421 34.611840 -1.396295 1.085369 0.204303 -0.051611 408354.000000 0 0 1
5.884394 -28.816018 15.625221 33.303701 -1.369360 1.082441 0.208373 -0.042034 -334307.000000 0 0 1
6.138494 -28.652698 14.215321 32.568905 -1.359749 1.119126 0.184039 -0.031004 411886.000000 0 0 1
5.016694 -28.714918 13.324321 32.050761 -1.397835 1.142056 0.185672 -0.031306 4643.620000 0 0 1
5.486094 -28.690668 11.822321 31.512203 -1.381862 1.186220 0.150402 -0.022675 267557.000000 0 0 1
5.977794 -29.902038 11.233821 32.497148 -1.373485 1.217826 0.127677 -0.022626 -52004.100000 0 0 1
7.293094 -30.282678 11.536421 33.216243 -1.334463 1.216093 0.125303 -0.014479 -476251.000000 0 0 1
7.658494 -31.598408 10.917721 34.297355 -1.333012 1.246834 0.115710 -0.017437 59598.100000 0 0 1
7.127794 -32.701798 11.709021 35.458627 -1.356189 1.234263 0.112305 -0.035476 285905.000000 0 0 1
7.544594 33.554142 11.274721 36.192826 1.349626 1.254006 0.116655 -0.028585 62728.100000 0 0 1
7.076294 32.395428 12.209821 35.335781 1.355739 1.217985 0.111426 -0.025139 120518.000000 0 0 1
5.840694 31.735434 12.008821 34.430557 1.388790 1.214523 0.156673 -0.030527 -129397.000000 0 0 1
5.684494 30.713582 12.993821 33.830119 1.387786 1.176574 0.157285 -0.018448 -117240.000000 0 0 1
4.712194 30.999522 14.115021 34.386173 1.419943 1.147810 0.178626 -0.048237 -227482.000000 0 0 1
5.371494 31.681699 15.162221 35.531337 1.402848 1.129924 0.152327 -0.050004 312123.000000 0 0 1
4.669394 31.510482 16.381821 35.820075 1.423682 1.095799 0.193940 -0.060520 118736.000000 0 0 1
5.376794 32.236267 17.597221 37.118041 1.405524 1.076868 0.235601 -0.055650 183502.000000 0 0 1
5.166194 33.634442 17.662121 38.339480 1.418389 1.092038 0.268754 -0.051842 11311.600000 0 0 1
5.555694 -33.470398 18.959621 38.866445 -1.406308 1.061212 0.226262 -0.041771 -244854.000000 0 0 1
5.074294 -32.074268 19.323921 37.787843 -1.413892 1.034007 0.214143 -0.054158 291040.000000 0 0 1
3.657194 -31.996938 19.283021 37.536836 -1.456992 1.031294 0.238571 -0.060365 -213007.000000 0 0 1
3.218294 -30.690468 19.501921 36.504619 -1.466315 1.007198 0.203782 -0.048293 -764273.000000 0 0 1
1.762794 -30.506748 19.036021 36.001934 -1.513077 1.013669 0.210074 -0.047060 16216.200000 0 0 1
0.744994 -31.275178 19.636521 36.936225 -1.546980 1.010269 0.225593 -0.050148 6140.740000 0 0 1
0.472994 -30.988758 20.993721 37.433450 -1.555534 0.975411 0.181552 -0.042492 -772207.000000 0 0 1
-0.439106 -32.059408 21.624321 38.673114 1.557101 0.977428 0.197460 -0.032908 733486.000000 0 0 1
-1.838906 -31.750648 21.549921 38.417240 1.512944 0.975271 0.184876 -0.035807 665135.000000 0 0 1
-2.596106 -32.849728 22.096921 39.675160 1.491930 0.980092 0.179768 -0.025258 -152967.000000 0 0 1
-3.934006 -32.423678 22.649521 39.746347 1.450055 0.964471 0.178700 -0.010210 -989514.000000 0 0 1
-4.960806 -32.332788 21.741521 39.277379 1.418554 0.984190 0.161910 -0.023431 -216253.000000 0 0 1
-6.139806 -31.756148 22.313321 39.294204 1.379811 0.966901 0.143818 -0.008988 375518.000000 0 0 1
-7.379606 -31.604438 21.427021 38.889797 1.341407 0.987273 0.113949 -0.022136 36043.400000 0 0 1
-8.065406 -32.822878 21.148321 39.870335 1.329845 1.011692 0.093195 -0.013505 950140.000000 0 0 1
-9.210306 -32.529908 20.309021 39.439587 1.294884 1.029859 0.084270 -0.020255 1008690.000000 0 0 1
-10.409606 -33.509228 20.283821 40.529763 1.269599 1.046658 0.085088 -0.019180 554022.000000 0 0 1
-11.100506 -33.656768 21.527921 41.466259 1.252216 1.024920 0.092457 -0.014320 408996.000000 0 0 1
-12.510706 -33.522438 21.395921 41.690012 1.213601 1.031870 0.089096 -0.019738 386151.000000 0 0 1
-13.248706 -33.570798 22.762421 42.669128 1.194911 1.008106 0.095097 -0.019257 -264891.000000 0 0 1
-13.146306 -32.514648 23.673521 42.313867 1.186572 0.977045 0.101176 -0.024481 1431780.000000 0 0 1
-11.793506 -32.334538 24.197521 42.072903 1.221056 0.958029 0.099895 -0.022190 1152860.000000 0 0 1
-11.753406 -31.118498 25.058421 41.646464 1.209662 0.925176 0.105112 -0.040280 -340690.000000 0 0 1
-12.417806 -31.148778 26.257821 42.590157 1.191445 0.906477 0.116564 -0.037564 892000.000000 0 0 1
-13.631306 -30.341678 26.292221 42.399420 1.148558 0.901916 0.127075 -0.044283 934578.000000 0 0 1
-14.306506 -30.344098 27.655321 43.477088 1.130227 0.881377 0.123775 -0.043345 -301833.000000 0 0 1
-13.602106 -29.532398 28.581221 43.290484 1.139177 0.849685 0.108269 -0.037832 63388.000000 0 0 1
-14.409506 -29.071878 29.632021 43.941605 1.110634 0.830712 0.121626 -0.039041 -314770.000000 0 0 1
-13.658506 -28.582898 30.916721 44.264890 1.125020 0.797570 0.098526 -0.034189 -754859.000000 0 0 1
-14.513106 -28.209108 31.939521 45.016853 1.095630 0.782006 0.093358 -0.033711 -397112.000000 0 0 1
-13.988506 -27.808748 33.155821 45.478712 1.104731 0.753877 0.084284 -0.024347 24284.400000 0 0 1
-13.196406 -29.023088 -33.490247 46.239393 1.144052 2.380785 0.087888 -0.022208 735891.000000 0 0 1
-11.858306 -29.196268 33.472221 45.972069 1.184992 0.755252 0.101955 -0.031104 149943.000000 0 0 1
-11.358406 -30.332508 -33.254547 46.421324 1.212496 2.369373 0.106862 -0.026101 311595.000000 0 0 1
-9.839106 -30.649098 -33.374847 46.368693 1.260164 2.374269 0.118551 -0.033346 -144085.000000 0 0 1
-9.047406 -29.807398 -32.624347 45.107478 1.276105 2.379305 0.148024 -0.042689 557591.000000 0 0 1
-7.726606 -30.392148 -32.579247 45.219359 1.321840 2.375278 0.159415 -0.052146 1213090.000000 0 0 1
-6.709806 -29.835808 -31.522247 43.918664 1.349586 2.371350 0.182333 -0.047188 356366.000000 0 0 1
-7.151806 -30.138918 -30.234747 43.285594 1.337811 2.344088 0.192150 -0.056774 -77554.500000 0 0 1
-6.480206 -29.394128 -29.243147 41.966290 1.353808 2.341757 0.187397 -0.059888 74334.200000 0 0 1
-7.081106 -29.627618 -27.852047 41.275590 1.336194 2.311466 0.193265 -0.062692 204789.000000 0 0 1
-6.543306 -30.788748 -27.185247 41.590859 1.361389 2.283174 0.172150 -0.058125 536806.000000 0 0 1
-7.372606 -31.120258 -26.062147 41.256046 1.338178 2.254563 0.187468 -0.057434 598009.000000 0 0 1
-6.586206 -32.049358 -25.130947 41.256563 1.368116 2.225770 0.175599 -0.063121 574431.000000 0 0 1
-5.652406 -31.404138 -24.269347 40.089535 1.392714 2.221038 0.155638 -0.065936 319082.000000 0 0 1
-4.767506 -32.317448 -23.639047 40.323084 1.424332 2.197207 0.166453 -0.075252 127491.000000 0 0 1
-3.961206 -31.646508 -22.502447 39.032714 1.446274 2.185238 0.185366 -0.089774 -143713.000000 0 0 1
-4.752906 -31.350068 -21.379447 38.242616 1.420335 2.164033 0.193127 -0.076846 -25711.100000 0 0 1
-5.146706 -30.004728 -21.199747 37.097191 1.400920 2.179086 0.175066 -0.059086 152831.000000 0 0 1
-6.124106 -29.770018 -19.982447 36.373848 1.367913 2.152398 0.206739 -0.081049 442648.000000 0 0 1
-7.517606 -29.935018 -20.076847 36.819825 1.324754 2.147511 0.236305 -0.090211 558371.000000 0 0 1
-8.395906 -28.875738 -20.483847 36.385265 1.287838 2.168772 0.225412 -0.085441 596285.000000 0 0 1
-8.305206 -28.547318 -22.010347 36.991637 1.287683 2.208073 0.236790 -0.096418 -235941.000000 0 0 1
-7.109706 -27.835108 -22.370147 36.411051 1.320721 2.232394 0.233913 -0.066264 245583.000000 0 0 1
-7.033706 -27.784218 -23.773947 37.237567 1.322851 2.263266 0.263744 -0.071860 -374219.000000 0 0 1
-5.601306 -27.832978 -24.369247 37.415365 1.372202 2.280115 0.252688 -0.068072 835898.000000 0 0 1
-4.786306 -26.613968 -24.147347 36.253364 1.392857 2.299726 0.241258 -0.069078 770519.000000 0 0 1
-4.302806 -26.414358 -22.819047 35.170177 1.409318 2.276827 0.180336 -0.056888 -2619720.000000 0 0 1
-2.869106 -26.777498 -22.588747 35.149931 1.464057 2.268735 0.152111 -0.048763 -1017900.000000 0 0 1
-1.987406 -25.720938 -23.013947 34.571060 1.493682 2.299228 0.149216 -0.050939 379335.000000 0 0 1
-1.864606 -24.683148 -22.097747 33.181998 1.495398 2.299571 0.145800 -0.060052 -969994.000000 0 0 1
-1.200906 -23.443448 -22.783747 32.712942 1.519615 2.341270 0.137274 -0.051957 191174.000000 0 0 1
-1.938506 -22.773448 -23.807047 33.002473 1.485880 2.376577 0.207707 -0.059378 918707.000000 0 0 1
-3.206406 -22.205348 -23.397247 32.415886 1.427390 2.377172 0.208313 -0.064081 698288.000000 0 0 1
-4.246906 -22.040648 -24.516647 33.239921 1.380444 2.400256 0.179384 -0.069846 -264190.000000 0 0 1
-4.032506 -20.918648 -25.322047 33.091646 1.380361 2.442163 0.179443 -0.057526 106911.000000 0 0 1
-4.802506 -20.889648 -26.520647 34.099651 1.344824 2.461858 0.240221 -0.060933 -183209.000000 0 0 1
-4.166106 -21.525348 -27.719247 35.341954 1.379616 2.472389 0.201419 -0.050789 -178611.000000 0 0 1
-4.986706 -21.484548 -28.884447 36.342321 1.342728 2.489455 0.215272 -0.048535 107066.000000 0 0 1
-4.424406 -22.226648 -29.914147 37.529394 1.374306 2.493250 0.231242 -0.041746 -374306.000000 0 0 1
-5.408006 -22.408148 -31.049647 38.671077 1.333984 2.502968 0.264044 -0.065200 -555083.000000 0 0 1
-5.825106 -21.235348 -31.733447 38.624908 1.303070 2.534973 0.277918 -0.069177 142504.000000 0 0 1
-6.621606 -21.628148 -32.851047 39.885007 1.273701 2.538603 0.280037 -0.064084 197953.000000 0 0 1
-6.295406 -20.724748 33.361821 39.776355 1.275891 0.575840 0.246736 -0.053948 750185.000000 0 0 1
-5.024006 -21.027748 32.763421 39.253644 1.336270 0.583282 0.255691 -0.062588 529428.000000 0 0 1
-4.931206 -20.448648 31.483121 37.863583 1.334164 0.589015 0.252634 -0.057538 161846.000000 0 0 1
-3.546106 -20.620448 30.816821 37.248546 1.400492 0.596460 0.196491 -0.060726 -923402.000000 0 0 1
-3.117406 -21.971348 30.755321 37.925560 1.429852 0.625041 0.253700 -0.062894 1535390.000000 0 0 1
-1.764206 -22.221048 30.276221 37.597034 1.491569 0.634645 0.224515 -0.049393 1156370.000000 0 0 1
-0.555906 -21.619348 30.975321 37.777980 1.545089 0.609507 0.151732 -0.052728 -1122510.000000 0 0 1
-0.426306 -20.204648 30.829821 36.863090 1.549700 0.580236 0.113581 -0.053188 -98759.200000 0 0 1
0.394994 -19.639048 31.824421 37.398422 -1.550686 0.552993 0.116104 -0.047867 173363.000000 0 0 1
-0.448406 -19.380248 33.121221 38.377212 1.547663 0.529531 0.110158 -0.047654 223239.000000 0 0 1
-1.357806 -18.326848 32.947521 37.726067 1.496843 0.508788 0.122680 -0.045262 -304720.000000 0 0 1
-2.291406 -18.349448 -33.405147 38.181889 1.446563 2.636015 0.132619 -0.053398 507865.000000 0 0 1
-3.436406 -17.270848 -33.477147 37.826055 1.374390 2.657352 0.149349 -0.057204 456906.000000 0 0 1
-3.010106 -15.926248 -33.302747 37.037536 1.383997 2.688647 0.127271 -0.047469 316690.000000 0 0 1
-4.037806 -15.004948 -32.875447 36.362719 1.307925 2.700060 0.161257 -0.050307 341898.000000 0 0 1
-3.699606 -13.523148 -33.166147 36.007720 1.303755 2.741653 0.136070 -0.059291 398280.000000 0 0 1
-2.515806 -13.056648 -32.483047 35.099198 1.380445 2.753055 0.136053 -0.051880 668846.000000 0 0 1
-2.236706 -11.681748 -32.655847 34.754430 1.381616 2.792305 0.130678 -0.046618 -170785.000000 0 0 1
-1.740806 -11.252548 33.325921 35.217428 1.417310 0.329233 0.134602 -0.048263 -472396.000000 0 0 1
-2.583406 -11.606448 32.225421 34.349110 1.351783 0.353481 0.127881 -0.041999 -72693.100000 0 0 1
-2.105006 -11.306048 30.949621 33.017220 1.386720 0.355771 0.127824 -0.036102 -607158.000000 0 0 1
-1.088906 -12.277548 30.400121 32.803830 1.482337 0.385196 0.118273 -0.046705 -481427.000000 0 0 1
-1.623206 -13.485648 29.894221 32.835377 1.451007 0.426481 0.129462 -0.054228 712742.000000 0 0 1
-0.619106 -14.547648 29.703221 33.080186 1.528265 0.455785 0.119306 -0.055204 590188.000000 0 0 1
-1.053606 -16.013748 29.823921 33.867632 1.505097 0.493664 0.103357 -0.046392 -2600.290000 0 0 1
-1.923106 -16.446048 28.793021 33.214589 1.454391 0.521890 0.125015 -0.046316 256072.000000 0 0 1
-2.038006 -17.857948 29.021121 34.136275 1.457165 0.554517 0.157027 -0.038522 -135429.000000 0 0 1
-2.599206 -18.797348 27.869421 33.716477 1.433392 0.597790 0.168097 -0.047670 -970969.000000 0 0 1
-3.977706 -18.816848 27.776521 33.785071 1.362473 0.605612 0.200061 -0.055107 -870693.000000 0 0 1
-4.587206 -19.631748 26.811021 33.545176 1.341252 0.644748 0.210224 -0.059155 199852.000000 0 0 1
-4.141206 -19.459848 25.326421 32.206566 1.361117 0.665878 0.197211 -0.066568 -760800.000000 0 0 1
-4.913306 -20.253448 24.478521 32.148728 1.332803 0.705303 0.234742 -0.066797 -145140.000000 0 0 1
-4.260006 -21.471148 24.150821 32.594785 1.374934 0.736325 0.233077 -0.068640 50677.200000 0 0 1
-31.222736 -32.959848 -0.729779 45.406425 0.812457 1.586869 0.111264 -0.016371 -16581.600000 0 0 1
-30.625306 -31.725948 -0.484279 44.098523 0.803049 1.581778 0.105877 -0.022083 -267073.000000 0 0 1
-30.777086 -31.324348 0.906421 43.923404 0.794210 1.550158 0.086578 0.002674 165341.000000 0 0 1
-30.300406 -29.889448 1.226321 42.579310 0.778571 1.541991 0.091046 -0.006453 -469401.000000 0 0 1
-28.943936 -29.686548 1.020321 41.473891 0.798063 1.546192 0.126745 -0.011875 -1109160.000000 0 0 1
-28.653466 -28.307248 1.311021 40.299382 0.779320 1.538259 0.124639 -0.010670 128895.000000 0 0 1
-27.132456 -28.094248 1.390121 39.081830 0.802812 1.535219 0.163766 -0.025207 79989.100000 0 0 1
-26.509636 -28.859648 2.443721 39.263366 0.827815 1.508517 0.140154 -0.005944 1334810.000000 0 0 1
-25.080036 -28.599948 2.471021 38.119171 0.850877 1.505927 0.167440 -0.008280 1428340.000000 0 0 1
-24.231206 -29.552848 3.329121 38.361507 0.884022 1.483904 0.156461 -0.020541 -80638.000000 0 0 1
-24.422206 -29.199248 4.729221 38.358908 0.874252 1.447193 0.129258 -0.010121 144385.000000 0 0 1
-23.604606 -29.946648 5.637521 38.545568 0.903278 1.424014 0.119404 -0.011932 189934.000000 0 0 1
-24.094906 -29.857348 7.096621 39.017788 0.891801 1.387897 0.100879 -0.000916 87974.600000 0 0 1
-23.781606 -28.586948 7.680621 37.970651 0.876902 1.367113 0.113593 -0.029002 -70612.700000 0 0 1
-24.247206 -28.581448 9.008721 38.548453 0.867258 1.334916 0.067668 -0.016920 32830.600000 0 0 1
-23.936206 -27.300948 9.798521 37.607111 0.850974 1.307205 0.081718 -0.026721 963836.000000 0 0 1
-22.603806 -27.342948 10.345021 36.953868 0.879999 1.287060 0.084479 -0.038762 460054.000000 0 0 1
-22.324306 -26.289748 11.206721 36.264530 0.866788 1.256626 0.099485 -0.034021 305099.000000 0 0 1
-20.924906 -26.327948 11.864321 35.661950 0.899247 1.231643 0.085866 -0.035825 71266.600000 0 0 1
-20.647306 -27.268948 12.855821 36.540100 0.922720 1.211273 0.073481 -0.025111 63244.400000 0 0 1
-19.323206 -27.250748 13.381921 35.987017 0.953996 1.189791 0.082419 -0.039257 534528.000000 0 0 1
-19.156806 -28.371948 14.392721 37.136250 0.976908 1.172807 0.091757 -0.040983 40824.700000 0 0 1
-19.035606 -29.692348 13.943721 37.926471 1.000707 1.194314 0.083767 -0.035653 -102848.000000 0 0 1
-18.664106 -30.559748 15.020821 38.831329 1.022516 1.173613 0.092385 -0.034003 59410.500000 0 0 1
-18.409906 -31.972548 14.477121 39.632758 1.048358 1.196861 0.075325 -0.041436 44819.100000 0 0 1
-18.210606 -32.906048 15.483921 40.671686 1.065337 1.180238 0.085099 -0.034034 42739.400000 0 0 1
-18.391406 33.315552 14.930921 40.879117 -1.066391 1.196900 0.057580 -0.031797 102214.000000 0 0 1
-18.065906 32.108252 15.790421 40.083091 -1.058288 1.165880 0.065731 -0.028210 454286.000000 0 0 1
-19.212306 31.926752 16.624821 40.802143 -1.029082 1.151137 0.074267 -0.038868 657293.000000 0 0 1
-19.145806 30.706552 17.434021 40.167142 -1.013270 1.121827 0.046089 -0.020233 306692.000000 0 0 1
-19.903906 30.793052 18.819221 41.213355 -0.996973 1.096594 0.051530 -0.035134 548618.000000 0 0 1
-19.245706 31.643652 19.756921 41.976825 -1.024368 1.080755 0.052983 -0.030247 830096.000000 0 0 1
-20.198206 31.887352 20.800221 43.097795 -1.006162 1.067143 0.062194 -0.022656 484902.000000 0 0 1
-19.619406 32.891752 21.772621 44.054914 -1.032966 1.053864 0.054208 -0.020982 -563274.000000 0 0 1
-18.508506 32.546652 22.517821 43.690979 -1.053728 1.029336 0.042779 -0.026081 -443755.000000 0 0 1
-18.332906 33.257852 23.762321 44.797634 -1.067005 1.011680 0.047814 -0.029599 -348377.000000 0 0 1
-19.092106 32.636452 24.947821 45.299451 -1.041484 0.987556 0.057090 -0.031974 -1526030.000000 0 0 1
-20.447906 32.705252 24.797021 45.854581 -1.012040 0.999438 0.058698 -0.037582 -1673120.000000 0 0 1
-21.082306 31.498252 25.083921 45.451145 -0.980961 0.986170 0.069966 -0.035270 18985.700000 0 0 1
-22.579506 31.753452 24.748321 46.158371 -0.952667 1.004914 0.129850 -0.052289 -45218.100000 0 0 1
-22.830306 31.608652 23.398121 45.473089 -0.945273 1.030315 0.117782 -0.034600 1833560.000000 0 0 1
-24.253906 31.762252 23.067621 46.143339 -0.918643 1.047299 0.100510 -0.042790 1723850.000000 0 0 1
-24.535706 31.487952 21.584021 45.380193 -0.908862 1.075120 0.083945 -0.042157 -338907.000000 0 0 1
-24.004306 32.467752 20.802421 45.421386 -0.934161 1.095066 0.076721 -0.037400 -29428.600000 0 0 1
-23.944306 31.957952 19.501721 44.440495 -0.927779 1.116503 0.048293 -0.022534 -120175.000000 0 0 1
-23.550806 33.038252 18.517721 44.599020 -0.951508 1.142629 0.046677 -0.012833 602211.000000 0 0 1
-22.163806 33.392152 18.573321 44.172824 -0.984821 1.136834 0.040613 -0.014179 619252.000000 0 0 1
-21.690406 -33.174148 17.589221 43.363332 0.991730 1.153135 0.062087 -0.007038 167713.000000 0 0 1
-20.460406 -32.414248 18.105521 42.392471 1.007739 1.129521 0.063226 -0.016111 -46527.800000 0 0 1
-20.797306 -31.595148 19.194421 42.417062 0.988648 1.101211 0.066964 -0.025139 -86481.800000 0 0 1
-19.677806 -30.916648 19.608721 41.563892 1.003985 1.079496 0.055532 -0.033177 -808633.000000 0 0 1
-20.168506 -30.006648 20.751121 41.686648 0.979018 1.049750 0.061538 -0.026357 56989.700000 0 0 1
-20.843506 -28.908248 20.139721 40.935888 0.946100 1.056431 0.082277 -0.029778 356226.000000 0 0 1
-21.449906 -28.093648 21.111921 41.171164 0.918702 1.032372 0.094230 -0.023512 -198318.000000 0 0 1
-22.418506 -27.051648 20.556521 40.705671 0.878781 1.041410 0.085089 -0.029827 -840232.000000 0 0 1
-21.636906 -26.018048 20.071621 39.344180 0.877075 1.035432 0.082560 -0.023179 -107230.000000 0 0 1
-22.196806 -24.750848 19.861421 38.726977 0.839746 1.032286 0.061747 -0.007837 -30403.800000 0 0 1
-23.361806 -24.546948 18.803021 38.754100 0.810131 1.064218 0.044609 -0.007520 284849.000000 0 0 1
-24.610706 -24.991748 19.260621 40.015570 0.793080 1.068627 0.043079 -0.005291 -289290.000000 0 0 1
-25.515876 -25.078048 18.170721 40.126594 0.776745 1.100854 0.025758 -0.000046 -117132.000000 0 0 1
-26.996246 -25.220048 18.634121 41.377272 0.751395 1.103643 0.021014 -0.000639 302485.000000 0 0 1
-27.422816 -26.500648 19.084221 42.643906 0.768298 1.106800 0.013136 -0.001850 -56291.200000 0 0 1
-27.393106 -27.486448 18.042921 42.795258 0.787099 1.135576 0.023687 -0.008125 -1052130.000000 0 0 1
-28.002196 -28.821348 18.445721 44.215809 0.799813 1.140462 0.045248 -0.016344 1352330.000000 0 0 1
-29.444656 -28.845748 18.580221 45.213821 0.775124 1.147310 0.047779 -0.008015 1315140.000000 0 0 1
-30.228156 -28.890448 17.387521 45.284935 0.762774 1.176717 0.049795 -0.007753 293699.000000 0 0 1
-31.716106 -28.528548 17.686921 46.180262 0.732537 1.177757 0.041899 -0.007589 507450.000000 0 0 1
-32.049826 -27.162248 17.401621 45.473020 0.703041 1.178101 0.049068 -0.008616 707025.000000 0 0 1
-33.439056 -26.937048 17.671321 46.433292 0.678120 1.180379 0.079903 0.000322 296824.000000 0 0 1
-34.095183 -25.758348 17.047121 46.006286 0.647001 1.191207 0.096278 -0.017679 -532394.000000 0 0 1
-34.239845 -25.825048 15.643221 45.650964 0.646209 1.221039 0.106162 -0.036747 254225.000000 0 0 1
-35.099234 -24.818048 15.149321 45.578435 0.615463 1.231971 0.116840 -0.032036 -211717.000000 0 0 1
-34.426499 -23.543948 14.597421 44.188076 0.599832 1.234125 0.111458 -0.031065 -98726.500000 0 0 1
-33.630396 -22.776848 15.474621 43.465530 0.595307 1.206790 0.096557 -0.009908 161531.000000 0 0 1
-33.470646 -21.396348 15.107621 42.500919 0.568786 1.207384 0.100266 -0.003927 -152394.000000 0 0 1
-34.604228 -20.416748 15.475021 43.055459 0.533040 1.203149 0.115135 -0.010628 -72534.200000 0 0 1
-34.630231 -20.059548 16.853721 43.424490 0.525022 1.172210 0.117160 -0.004544 8697.110000 0 0 1
-35.707150 -19.227448 17.172321 44.040708 0.493953 1.170252 0.134740 -0.008035 -554959.000000 0 0 1
-36.002076 -19.014148 18.600421 44.762294 0.485906 1.142262 0.102234 -0.003683 -42847.000000 0 0 1
-37.097936 -19.702548 19.197121 46.184161 0.488213 1.142123 0.103726 0.001463 397905.000000 0 0 1
-37.244336 -19.385148 20.566921 46.753853 0.479902 1.115311 0.107447 -0.000112 1010710.000000 0 0 1
37.376731 -19.546748 21.261421 47.234981 -0.481851 1.103896 0.104987 -0.007738 1352680.000000 0 0 1
36.885641 -20.891048 21.438121 47.503467 -0.515327 1.102579 0.111217 -0.016233 228891.000000 0 0 1
37.575131 -21.663848 22.405221 48.818098 -0.522996 1.093980 0.084253 -0.002766 -358495.000000 0 0 1
37.012281 -23.065248 22.543021 49.092794 -0.557288 1.093711 0.092382 0.000940 380915.000000 0 0 1
35.772471 -23.089648 23.256721 48.514705 -0.573176 1.070854 0.105176 -0.018098 438404.000000 0 0 1
35.419581 -24.355648 23.646221 49.060045 -0.602377 1.067877 0.099484 -0.030538 -165608.000000 0 0 1
34.362691 -24.249548 24.775221 48.812362 -0.614537 1.038445 0.116620 -0.036193 -458869.000000 0 0 1
33.135461 -23.700948 24.410621 47.492864 -0.620904 1.030972 0.110370 -0.032933 -514676.000000 0 0 1
32.431451 -23.398748 25.589421 47.477562 -0.624999 1.001572 0.076102 -0.022130 -722153.000000 0 0 1
31.063891 -24.050348 25.732521 46.963254 -0.658824 0.990910 0.077647 -0.015030 -875832.000000 0 0 1
30.097391 -23.414848 24.933321 45.560713 -0.661163 0.991716 0.090150 -0.018038 -176565.000000 0 0 1
29.018291 -24.267248 24.570121 45.107110 -0.696471 0.994758 0.090751 -0.010966 -333643.000000 0 0 1
27.899091 -23.411348 24.004221 43.619412 -0.698158 0.988060 0.091485 -0.015737 -752939.000000 0 0 1
28.031591 -22.895548 22.692821 42.719320 -0.684887 1.010771 0.084904 -0.016193 -642289.000000 0 0 1
29.020691 -21.953148 22.509121 42.787869 -0.647626 1.016832 0.101938 -0.012884 -583487.000000 0 0 1
28.869591 -21.116448 21.227721 41.592954 -0.631518 1.035183 0.101052 -0.022721 251290.000000 0 0 1
27.861591 -20.126748 21.373021 40.474192 -0.625591 1.014476 0.094734 -0.024874 106021.000000 0 0 1
27.595591 -19.516048 20.106321 39.327559 -0.615553 1.034155 0.074760 -0.024497 741318.000000 0 0 1
26.470591 -18.377248 20.139821 38.000366 -0.606858 1.012207 0.077924 -0.016742 594897.000000 0 0 1
26.756291 -17.107948 20.681021 37.898359 -0.568887 0.993576 0.080162 -0.024979 -103910.000000 0 0 1
26.968991 -17.168148 22.054021 38.838790 -0.566889 0.966923 0.078330 -0.025684 -188079.000000 0 0 1
27.139391 -15.783848 22.699221 38.741851 -0.526769 0.944794 0.082206 -0.023552 -526239.000000 0 0 1
25.963991 -15.016648 22.733221 37.635460 -0.524359 0.922239 0.059183 -0.022900 -337524.000000 0 0 1
26.033591 -13.838848 23.519121 37.714859 -0.488589 0.897452 0.061251 -0.022797 76643.300000 0 0 1
24.721191 -13.055448 23.345321 36.422328 -0.485880 0.875046 0.065031 -0.020805 628654.000000 0 0 1
23.586491 -13.637548 23.983621 36.297649 -0.524231 0.848981 0.070600 -0.020421 677127.000000 0 0 1
22.393891 -12.858548 23.938421 35.211882 -0.521232 0.823253 0.071853 -0.023052 767244.000000 0 0 1
21.123591 -13.645448 24.352521 35.006423 -0.573545 0.801460 0.071062 -0.014139 130089.000000 0 0 1
20.570091 -14.540948 23.432721 34.404363 -0.615340 0.821536 0.088590 -0.022062 405146.000000 0 0 1
19.249991 -14.961648 23.773421 34.052733 -0.660701 0.798006 0.114304 -0.028474 501973.000000 0 0 1
18.814091 -16.085748 22.775821 33.637172 -0.707380 0.826978 0.130830 -0.033191 177069.000000 0 0 1
19.548691 -17.325248 22.839921 34.698379 -0.725173 0.852316 0.114796 -0.023040 340163.000000 0 0 1
19.041591 -18.279748 21.929721 34.316818 -0.764988 0.877551 0.133064 -0.021751 -426003.000000 0 0 1
19.280091 -19.718048 22.308721 35.471148 -0.796628 0.890626 0.104140 -0.019191 -173813.000000 0 0 1
18.613191 -20.231248 23.462821 36.142195 -0.827029 0.864289 0.114416 -0.025279 191679.000000 0 0 1
18.979991 -21.527048 23.918721 37.359859 -0.848195 0.876005 0.121214 -0.024582 -347401.000000 0 0 1
18.733191 -22.738848 22.937921 37.338129 -0.881686 0.909260 0.103268 -0.027636 194010.000000 0 0 1
19.659591 -22.880548 21.851821 37.249444 -0.860970 0.943899 0.104456 -0.017883 15997.900000 0 0 1
20.707991 -23.751648 22.167821 38.527574 -0.853750 0.957733 0.104282 -0.017714 -317651.000000 0 0 1
21.691391 -23.969048 21.012621 38.555959 -0.835239 0.994419 0.083313 -0.006615 -323673.000000 0 0 1
21.045491 -24.697148 20.000921 38.116908 -0.865060 1.018403 0.075149 -0.014856 179183.000000 0 0 1
21.925091 -25.040448 18.976721 38.312525 -0.851634 1.052600 0.081565 -0.018960 -26548.800000 0 0 1
21.154891 -25.624148 17.731421 37.663373 -0.880649 1.080614 0.072541 -0.023501 306218.000000 0 0 1
20.553391 -26.867648 18.059321 38.346466 -0.917773 1.080427 0.085362 -0.031737 -94481.800000 0 0 1
19.712591 -27.318048 17.049221 37.756297 -0.945723 1.102284 0.090075 -0.037091 -333378.000000 0 0 1
18.922391 -28.580148 17.491921 38.481801 -0.985975 1.098929 0.087296 -0.031545 13931.500000 0 0 1
17.864791 -28.273348 18.369921 38.157397 -1.007279 1.068517 0.094862 -0.033757 -230251.000000 0 0 1
17.235391 -29.422348 18.875421 38.974540 -1.040889 1.065232 0.097055 -0.032837 492762.000000 0 0 1
15.877291 -29.138848 19.605021 38.542414 -1.071889 1.037168 0.086534 -0.025228 380004.000000 0 0 1
14.890291 -28.669248 18.728221 37.341569 -1.091764 1.045421 0.091960 -0.029804 -77480.400000 0 0 1
13.665591 -28.355448 19.393921 36.971665 -1.121702 1.018596 0.067216 -0.028848 -14090.400000 0 0 1
12.682691 -27.870948 18.368021 35.707486 -1.143750 1.030486 0.088428 -0.040236 -693059.000000 0 0 1
12.304491 -28.829048 17.409521 35.855347 -1.167395 1.063806 0.084918 -0.037529 -342784.000000 0 0 1
11.438991 -28.333348 16.463121 34.708262 -1.187080 1.076595 0.138203 -0.040800 -609385.000000 0 0 1
11.145691 -29.350048 15.314421 34.931121 -1.207867 1.116959 0.126242 -0.035359 -182791.000000 0 0 1
10.239291 -30.337348 15.740421 35.678546 -1.245288 1.113891 0.147202 -0.042511 -23095.200000 0 0 1
9.843991 -31.106948 14.610421 35.749277 -1.264311 1.149777 0.116142 -0.022342 46400.300000 0 0 1
8.991291 -32.344848 14.839921 36.704983 -1.299660 1.154580 0.128711 -0.028167 -305865.000000 0 0 1
9.668691 -33.324748 15.532321 38.016778 -1.288414 1.149915 0.120462 -0.028713 -291066.000000 0 0 1
8.877691 33.005852 15.754321 37.635067 1.308042 1.138885 0.139500 -0.023962 205258.000000 0 0 1
9.608391 31.945452 16.610521 37.265835 1.278629 1.108806 0.153444 -0.027463 53700.000000 0 0 1
10.540191 31.221952 15.837121 36.561186 1.245220 1.122792 0.093620 -0.028127 -396775.000000 0 0 1
11.135891 30.265852 16.653921 36.295770 1.218233 1.094108 0.139888 -0.029945 -223428.000000 0 0 1
12.286591 29.439952 15.999521 35.688314 1.175428 1.105920 0.028848 -0.044824 -96364.900000 0 0 1
11.955191 28.528552 14.967421 34.363186 1.173967 1.120130 0.108662 -0.031990 199700.000000 0 0 1
13.150891 27.825952 14.582921 34.057174 1.129298 1.128308 0.062341 -0.041441 517804.000000 0 0 1
12.996491 26.535652 13.757821 32.593362 1.115362 1.135030 0.051237 -0.038140 -331106.000000 0 0 1
12.459591 25.381552 14.402421 31.731598 1.114462 1.099678 0.085082 -0.035682 193696.000000 0 0 1
12.791291 24.195352 13.794321 30.648254 1.084479 1.103936 0.085918 -0.032335 -271725.000000 0 0 1
-9.702406 -9.028148 18.894489 23.079122 0.749416 0.611682 0.109633 -0.046751 35966.800000 0 1 0
-9.661606 -9.462948 17.574989 22.175984 0.775011 0.655860 0.092557 -0.041633 140205.000000 0 1 0
-9.474606 -10.879848 17.449989 22.641585 0.854327 0.690849 0.100220 -0.037211 31960.300000 0 1 0
-9.669006 -11.325748 15.992289 21.852129 0.864147 0.749776 0.094959 -0.031347 264454.000000 0 1 0
-11.014806 -11.143348 15.579489 22.095715 0.791199 0.788245 0.115666 -0.042001 304910.000000 0 1 0
-11.396406 -11.617048 14.287989 21.655958 0.794985 0.850281 0.114456 -0.039605 -71659.800000 0 1 0
-11.318606 -13.163348 14.015489 22.311847 0.860607 0.891606 0.086840 -0.038421 -437200.000000 0 1 0
-10.045506 -13.768748 13.877789 21.979164 0.940488 0.887431 0.087105 -0.027906 -144552.000000 0 1 0
-9.945906 -15.135148 14.249089 23.044095 0.989418 0.904167 0.098341 -0.028937 22670.800000 0 1 0
-9.976606 -15.438748 15.769389 24.219026 0.997093 0.861743 0.128807 -0.036203 -103946.000000 0 1 0
-11.273606 -15.244148 16.278289 24.989217 0.934025 0.861352 0.169926 -0.040036 -291792.000000 0 1 0
-11.232006 -15.177248 17.677689 25.865180 0.933690 0.818311 0.175438 -0.041310 -447900.000000 0 0 1
-12.499006 -14.694848 18.380189 26.645733 0.865971 0.809586 0.136920 -0.043141 -640392.000000 0 0 1
-12.773206 -13.329648 18.067989 25.831890 0.806712 0.796176 0.141639 -0.043175 604958.000000 0 0 1
-13.895006 -13.196648 17.163489 25.725631 0.759626 0.840387 0.159321 -0.060841 983726.000000 0 0 1
-15.275606 -13.144148 17.882489 26.942461 0.710539 0.845003 0.118103 -0.048033 28099.700000 0 0 1
-15.872506 -14.419148 18.132989 28.082977 0.737456 0.868866 0.133421 -0.038440 398019.000000 0 0 1
-16.869906 -14.378748 19.165089 29.302607 0.705846 0.857883 0.120314 -0.037887 354533.000000 0 0 1
-17.360906 -15.779748 19.528189 30.524608 0.737724 0.876620 0.103047 -0.030999 108852.000000 0 0 1
-18.359706 -16.357548 18.694989 30.889332 0.727792 0.920748 0.082690 -0.025908 206978.000000 0 0 1
-18.901606 -17.543748 19.233989 32.171418 0.748158 0.929968 0.090018 -0.029438 827967.000000 0 0 1
-20.247206 -17.935248 18.498789 32.769310 0.724922 0.970950 0.080134 -0.029828 754399.000000 0 0 1
-19.989806 -18.309548 17.177089 32.091810 0.741555 1.005995 0.085981 -0.033627 132049.000000 0 0 1
-20.504806 -17.306648 16.320089 31.405612 0.701017 1.024349 0.075357 -0.030220 -248975.000000 0 0 1
-20.016506 -17.477948 14.842489 30.437455 0.717796 1.061413 0.094099 -0.037004 -52439.800000 0 0 1
-20.394106 -18.626448 14.135289 31.026933 0.740128 1.097771 0.095930 -0.028570 -64157.200000 0 0 1
-19.927706 -18.528348 12.838889 30.087377 0.749026 1.129933 0.114792 -0.033612 -87125.000000 0 0 1
-20.046706 -19.752348 11.896589 30.554125 0.778002 1.170858 0.139813 -0.036285 -108587.000000 0 0 1
-19.296606 -20.852448 12.396989 30.997886 0.824130 1.159356 0.137426 -0.033161 182456.000000 0 0 1
-19.067806 -21.929048 11.492389 31.249630 0.855077 1.194196 0.122744 -0.026384 -177145.000000 0 0 1
-18.300406 -23.149848 12.054389 31.876773 0.901863 1.182993 0.105713 -0.018937 40601.300000 0 0 1
-18.456406 -24.352448 11.372689 32.603968 0.922267 1.214492 0.118040 -0.043779 -111800.000000 0 0 1
-17.771806 -24.427348 10.119189 31.857973 0.941827 1.247563 0.110147 -0.032347 -173530.000000 0 0 1
-18.292006 -25.547968 9.213089 32.744117 0.949421 1.285579 0.124542 -0.039289 638511.000000 0 0 1
-19.555606 -25.259308 8.599489 33.081802 0.911990 1.307830 0.115715 -0.042661 169752.000000 0 0 1
-19.817406 -26.129038 7.532289 33.648055 0.921913 1.345028 0.140364 -0.050981 944246.000000 0 0 1
-21.223106 -25.797078 6.897489 34.109894 0.882370 1.367179 0.142739 -0.052360 834439.000000 0 0 1
-21.306606 -24.586948 6.227589 33.125102 0.856754 1.381669 0.170115 -0.057381 -44351.100000 0 0 1
-22.489806 -24.461148 5.455989 33.673535 0.827361 1.408053 0.179635 -0.057062 158546.000000 0 0 1
-22.558706 -23.068648 4.760089 32.614663 0.796574 1.424324 0.182769 -0.057800 -290176.000000 0 0 1
-23.562106 -23.027448 3.777589 33.161822 0.773923 1.456635 0.190703 -0.062485 57219.900000 0 0 1
-23.389006 -21.871048 2.977889 32.159854 0.751872 1.478067 0.182037 -0.050596 -10880.200000 0 0 1
-23.709006 -22.104848 1.492189 32.449467 0.750398 1.524795 0.162166 -0.050833 -132186.000000 0 0 1
-22.820506 -23.053948 0.968389 32.453009 0.790487 1.540952 0.173300 -0.063166 14771.400000 0 0 1
-22.949006 -23.090748 -0.416211 32.557838 0.788477 1.583580 0.156715 -0.059183 -36331.900000 0 0 1
-21.996606 -24.058148 -1.222611 32.621158 0.830131 1.608284 0.166900 -0.056701 -218549.000000 0 0 1
-20.680006 -23.522848 -1.207511 31.343981 0.849623 1.609330 0.160691 -0.056291 733961.000000 0 0 1
-19.709806 -24.061648 -2.135411 31.176904 0.884494 1.639343 0.140582 -0.044603 843083.000000 0 0 1
-19.488906 -25.577728 -2.231511 32.233791 0.919692 1.640081 0.156424 -0.037708 -973339.000000 0 0 1
-20.568606 -26.204528 -2.861711 33.435524 0.905315 1.656490 0.216959 -0.048214 -440681.000000 0 0 1
-20.261206 -27.520798 -3.149611 34.319541 0.936177 1.662699 0.201124 -0.034999 -124774.000000 0 0 1
-21.476306 -28.282388 -3.698611 35.704411 0.921336 1.674572 0.206335 -0.046662 -190429.000000 0 0 1
-21.832906 -27.828068 -4.959311 35.716550 0.905539 1.710098 0.180268 -0.037292 -94740.500000 0 0 1
-22.645306 -28.734688 -5.701211 37.026964 0.903364 1.725386 0.190848 -0.058711 85723.400000 0 0 1
-23.146706 -28.268288 -7.076111 37.214748 0.884683 1.762104 0.161198 -0.022574 -91193.900000 0 0 1
-22.099006 -27.925538 -7.958811 36.490334 0.901349 1.790671 0.164110 -0.019273 9049.670000 0 0 1
-22.438806 -27.946828 -9.350811 37.040018 0.894283 1.826009 0.144926 -0.013407 921551.000000 0 0 1
-23.601306 -26.997648 -9.914411 37.204707 0.852420 1.840538 0.132511 -0.001733 856343.000000 0 0 1
-23.119506 -25.692828 -10.169911 36.028601 0.838068 1.856959 0.136061 -0.007174 115027.000000 0 0 1
-22.908806 -24.858748 -9.030511 34.990297 0.826197 1.831837 0.129472 -0.007927 -198847.000000 0 0 1
-22.581606 -23.416148 -9.422511 33.867812 0.803539 1.852731 0.115198 -0.017775 296921.000000 0 0 1
-23.658906 -22.738148 -10.070211 34.324574 0.765556 1.868559 0.115155 -0.021536 307779.000000 0 0 1
-23.371906 -21.378848 -10.167011 33.266639 0.740891 1.881388 0.116923 -0.017620 190212.000000 0 0 1
-24.635406 -20.497248 -10.333311 33.672211 0.693965 1.882709 0.141548 -0.013581 -29698.400000 0 0 1
-25.311306 -20.789948 -11.569111 34.737998 0.687636 1.910321 0.129913 -0.002614 331123.000000 0 0 1
-26.545566 -20.138048 -11.786711 35.343099 0.648996 1.910804 0.111093 -0.002484 72704.300000 0 0 1
-26.466286 -18.585248 -11.907611 34.462545 0.612217 1.923593 0.115933 -0.018182 -1190420.000000 0 0 1
-25.507306 -18.118848 -12.801611 33.805275 0.617632 1.959173 0.141553 -0.009082 -120129.000000 0 0 1
-25.341176 -16.660448 -12.875711 32.947378 0.581592 1.972293 0.130824 -0.026799 -176387.000000 0 0 1
-24.756406 -15.932548 -11.665811 31.667285 0.571844 1.948070 0.132774 -0.025030 -610934.000000 0 0 1
-25.610546 -16.024248 -10.578111 32.008953 0.559095 1.907602 0.151052 -0.027509 147633.000000 0 0 1
-24.871706 -16.016048 -9.390711 31.037091 0.572108 1.878178 0.158836 -0.032978 -143776.000000 0 0 1
-25.819756 -16.401048 -8.267611 31.686079 0.565910 1.834774 0.154353 -0.044998 -197759.000000 0 0 1
-26.190196 -17.741048 -8.521711 32.761116 0.595392 1.833939 0.132929 -0.033626 -52983.400000 0 0 1
-26.769166 -18.206048 -7.300511 33.186532 0.597254 1.792595 0.143362 -0.035449 65993.900000 0 0 1
-27.117726 -19.703548 -7.285011 34.302657 0.628352 1.784801 0.147674 -0.033188 745794.000000 0 0 1
-28.133546 -20.081748 -8.258111 35.538282 0.619928 1.805312 0.141920 -0.031043 733819.000000 0 0 1
-28.501386 -21.465248 -8.197811 36.609972 0.645501 1.796634 0.142738 -0.019165 -30746.400000 0 0 1
-27.388436 -22.490248 -8.513911 36.447557 0.687510 1.806568 0.118446 -0.013117 35066.600000 0 0 1
-27.843176 -23.828648 -8.496111 37.619554 0.707861 1.798605 0.140130 -0.011994 -476911.000000 0 0 1
-26.787636 -24.724748 -8.692311 37.475951 0.745373 1.804872 0.116747 -0.000710 -283973.000000 0 0 1
-27.057136 -26.189648 -8.303511 38.560791 0.769108 1.787832 0.147379 -0.012943 -39835.900000 0 0 1
-26.950856 -26.399088 -6.947511 38.360506 0.775056 1.752912 0.172585 -0.037321 201920.000000 0 0 1
-27.445406 -27.707388 -6.732511 39.576210 0.790148 1.741743 0.171993 -0.034732 -7335.380000 0 0 1
-27.641356 -28.171618 -5.247311 39.814808 0.794899 1.702974 0.201248 -0.047329 -84814.400000 0 0 1
-28.791166 -27.677228 -4.566911 40.197225 0.765674 1.684655 0.162919 -0.047542 276010.000000 0 0 1
-28.781826 -27.921848 -3.222511 40.229439 0.770233 1.650986 0.166627 -0.050805 -71569.000000 0 0 1
-29.180226 -29.383058 -2.879911 41.510765 0.788862 1.640230 0.139875 -0.027908 -464082.000000 0 0 1
-28.236886 -30.309578 -3.396711 41.563565 0.820786 1.652611 0.199575 -0.055448 -52824.800000 0 0 1
-28.067876 -31.401478 -2.567611 42.195393 0.841395 1.631684 0.182316 -0.057922 15201.300000 0 0 1
-27.028256 -31.229068 -1.424011 41.325648 0.857381 1.605261 0.202361 -0.058488 -385866.000000 0 0 1
-25.774506 -30.819798 -1.911211 40.222355 0.874312 1.618330 0.226246 -0.071280 -280926.000000 0 0 1
-24.885006 -30.708518 -0.785911 39.533458 0.889769 1.590677 0.271343 -0.050499 194257.000000 0 0 1
-23.797006 -29.676948 -1.098111 38.055547 0.894917 1.599656 0.273762 -0.044809 -173957.000000 0 0 1
-24.179606 -28.315638 -0.897211 37.245587 0.864024 1.594888 0.236743 -0.062276 -224112.000000 0 0 1
-24.832406 -27.680638 -1.955311 37.238279 0.839584 1.623329 0.266085 -0.073855 -126418.000000 0 0 1
-25.312436 -26.247368 -1.619511 36.500227 0.803529 1.615181 0.165641 -0.053326 -98353.000000 0 0 1
-26.543966 -26.255168 -0.936811 37.346936 0.779928 1.595883 0.186387 -0.056762 -297901.000000 0 0 1
-27.011666 -24.928948 -0.717011 36.764068 0.745322 1.590301 0.178052 -0.086914 68489.400000 0 0 1
-26.594916 -24.169148 0.584289 35.941323 0.737649 1.554539 0.186070 -0.067014 -274839.000000 0 0 1
-27.182426 -24.722048 1.754989 36.785105 0.738032 1.523069 0.151353 -0.067257 -176822.000000 0 0 1
-26.847186 -24.049048 2.967989 36.165413 0.730476 1.488637 0.162092 -0.056958 -86837.300000 0 0 1
-27.486776 -22.680048 3.272989 35.785750 0.689875 1.479208 0.170549 -0.059964 -34852.300000 0 0 1
-27.309556 -21.696248 2.258689 34.951978 0.671351 1.506129 0.166183 -0.062227 474206.000000 0 0 1
-28.351076 -20.728548 2.372789 35.200659 0.631320 1.503338 0.131810 -0.057915 649899.000000 0 0 1
-27.883866 -19.573348 1.416789 34.097408 0.612040 1.529233 0.139708 -0.041172 772367.000000 0 0 1
-26.595776 -19.124448 1.818089 32.808311 0.623416 1.515352 0.127908 -0.038242 161490.000000 0 0 1
-26.082226 -18.148548 0.928689 31.788596 0.607915 1.541578 0.106930 -0.037110 1229670.000000 0 0 1
-24.601306 -17.643948 1.187389 30.297576 0.622174 1.531595 0.140202 -0.032743 754509.000000 0 0 1
-23.599606 -18.603048 1.074889 30.069423 0.667552 1.535042 0.154430 -0.044606 -917735.000000 0 0 1
-22.417206 -18.065848 1.579389 28.834016 0.678323 1.515994 0.155538 -0.032498 -93773.200000 0 0 1
-21.213406 -19.046648 1.408089 28.544109 0.731631 1.521446 0.137163 -0.046161 -56896.700000 0 0 1
-20.802506 -19.211548 0.062889 28.316635 0.745659 1.568575 0.089169 -0.031504 49657.500000 0 0 1
-19.704506 -20.087948 0.042489 28.138853 0.795034 1.569286 0.118017 -0.031064 -102832.000000 0 0 1
-19.226606 -20.422648 -1.382811 28.083075 0.815555 1.620056 0.108963 -0.035822 206014.000000 0 0 1
-18.468906 -19.455248 -2.109811 26.908335 0.811401 1.649284 0.112785 -0.037173 290937.000000 0 0 1
-18.216606 -19.876248 -3.489011 27.186085 0.828939 1.699489 0.118657 -0.032409 -65159.500000 0 0 1
-17.462206 -18.783248 -4.266511 25.998888 0.821829 1.735646 0.127641 -0.020589 -598752.000000 0 0 1
-16.089406 -18.882548 -4.061911 25.137994 0.865097 1.733092 0.155770 -0.032122 -588192.000000 0 0 1
-15.415206 -18.264648 -5.145711 24.447992 0.869801 1.782858 0.145732 -0.023839 -691788.000000 0 1 0
-13.896706 -18.188548 -5.106011 23.452358 0.918373 1.790273 0.150688 -0.030032 -776201.000000 0 1 0
-13.286606 -19.293148 -5.681211 24.104681 0.967715 1.808724 0.127248 -0.027183 99295.400000 0 1 0
-11.922706 -19.030048 -5.990511 23.241770 1.011105 1.831487 0.116324 -0.034810 136793.000000 0 1 0
-10.949306 -20.170948 -5.925211 23.703641 1.073478 1.823446 0.119980 -0.043677 -153932.000000 0 1 0
-11.149406 -21.106148 -6.961011 24.864321 1.084802 1.854549 0.115735 -0.037267 19536.400000 0 1 0
-10.011306 -21.946848 -7.060411 25.134435 1.142830 1.855534 0.123455 -0.031359 285899.000000 0 0 1
-10.173006 -23.198548 -7.895911 26.533151 1.157531 1.872960 0.125019 -0.027722 -249755.000000 0 0 1
-10.444706 -22.899448 -9.295511 26.830638 1.142872 1.924582 0.122961 -0.025485 86432.100000 0 0 1
-10.311206 -24.014348 -10.154411 28.037867 1.165224 1.941389 0.150596 -0.024568 -154314.000000 0 0 1
-10.892106 -23.699748 -11.560611 28.530051 1.139998 1.988003 0.194768 -0.039772 -395428.000000 0 0 1
-10.158706 -22.802848 -12.357511 27.854574 1.151690 2.030457 0.165654 -0.029155 -371050.000000 0 0 1
-10.929306 -22.365648 -13.447511 28.293242 1.116258 2.066091 0.166794 -0.033395 -562132.000000 0 0 1
-10.517906 -21.057848 -14.090911 27.433795 1.107567 2.110210 0.125331 -0.018357 -400235.000000 0 0 1
-10.749106 -19.918548 -13.271111 26.237650 1.075932 2.101110 0.132607 -0.022051 34276.500000 0 0 1
-10.667406 -18.702548 -13.965011 25.663211 1.052447 2.146189 0.114652 -0.006748 -3240.140000 0 0 1
-10.539306 -17.413948 -13.058511 24.183616 1.026546 2.141202 0.117971 -0.008917 -4317.910000 0 1 0
-11.728806 -17.139948 -12.318811 24.147378 0.970688 2.106157 0.144720 -0.019460 120525.000000 0 1 0
-11.686006 -16.001348 -11.468511 22.893943 0.940014 2.095482 0.149423 -0.023941 -13592.500000 0 1 0
-11.505906 -14.668048 -12.207011 22.283372 0.905628 2.150538 0.153964 -0.013227 -147662.000000 0 1 0
-12.610006 -14.442648 -13.046011 23.190532 0.853038 2.168272 0.143897 0.006113 6546.030000 0 1 0
-12.226106 -13.664248 -14.184211 23.181484 0.840889 2.229228 0.150910 -0.016059 104874.000000 0 1 0
-13.404306 -12.899848 -14.842011 23.798463 0.766223 2.244205 0.147998 -0.015369 166208.000000 0 1 0
-13.691706 -11.685348 -14.164011 22.904790 0.706500 2.237484 0.130759 -0.017499 -105045.000000 0 1 0
-14.723906 -10.981648 -14.810311 23.595240 0.640832 2.249369 0.130253 -0.022335 -358245.000000 0 1 0
-14.921906 -9.500948 -14.308811 22.752437 0.566977 2.250923 0.117910 -0.030273 979522.000000 0 1 0
-13.744106 -8.656548 -14.451611 21.741328 0.562070 2.297898 0.090488 -0.022586 1074440.000000 0 1 0
-13.687806 -7.965448 -15.687411 22.291238 0.527032 2.351455 0.087323 -0.023246 420206.000000 0 1 0
-12.437006 -7.023648 -15.747111 21.259875 0.514088 2.404903 0.067349 -0.006072 1088170.000000 0 1 0
-11.173806 -7.705048 -15.833811 20.855007 0.603687 2.432930 0.064101 -0.010105 940288.000000 0 1 0
-10.111706 -6.753848 -15.713411 19.868879 0.588872 2.483002 0.036668 0.003813 489250.000000 0 1 0
11.666094 21.439352 15.907689 29.134140 1.072460 0.993196 0.148344 -0.038537 396952.000000 0 0 1
12.751194 21.737852 16.811389 30.294388 1.040296 0.982513 0.149579 -0.047372 641381.000000 0 0 1
13.273694 20.526052 17.310489 29.952675 0.996762 0.954609 0.149245 -0.045684 839851.000000 0 0 1
14.532694 20.626052 18.274689 31.154413 0.957003 0.943961 0.161068 -0.047020 459897.000000 0 0 1
15.764394 20.843652 17.670289 31.546997 0.923265 0.976259 0.144328 -0.033751 -872247.000000 0 0 1
16.790594 20.509152 18.570789 32.363923 0.884764 0.959644 0.146133 -0.043606 -20186.400000 0 0 1
18.185794 20.887552 18.023389 33.043236 0.854434 0.993872 0.114897 -0.031771 -488897.000000 0 0 1
18.441394 22.275952 18.118589 34.126035 0.879296 1.011097 0.117816 -0.035259 1296680.000000 0 0 1
19.685794 22.710152 17.491389 34.773986 0.856614 1.043728 0.107798 -0.032566 1206590.000000 0 0 1
21.040094 22.521452 18.176189 35.780933 0.819391 1.037952 0.097134 -0.034064 -350807.000000 0 0 1
21.548294 21.167852 18.051889 35.189169 0.776492 1.032125 0.111449 -0.031199 -206632.000000 0 0 1
22.734394 21.149952 18.793089 36.295362 0.749309 1.026540 0.123258 -0.034284 -36879.800000 0 0 1
23.716594 19.973552 18.492189 36.102363 0.699934 1.033034 0.102703 -0.039502 299082.000000 0 0 1
24.157794 19.706552 17.157789 35.585627 0.684267 1.067683 0.107306 -0.049955 196059.000000 0 0 1
23.471194 18.673152 16.488689 34.226603 0.672038 1.068145 0.084972 -0.037770 -17309.700000 0 0 1
24.095394 17.271652 16.834089 34.092294 0.621914 1.054365 0.085239 -0.047764 -308075.000000 0 0 1
25.278594 17.098752 16.131289 34.519459 0.594719 1.084551 0.108833 -0.053675 -689564.000000 0 0 1
25.910794 15.909552 16.576289 34.630282 0.550659 1.071663 0.085277 -0.039265 145612.000000 0 0 1
27.363394 15.791852 16.039489 35.431668 0.523423 1.101019 0.235189 -0.069064 240384.000000 0 0 1
28.360394 16.601652 16.681889 36.853930 0.529601 1.101063 0.193737 -0.060352 1015260.000000 0 0 1
29.385994 15.935052 17.426989 37.698308 0.496887 1.090237 0.187534 -0.063202 242289.000000 0 0 1
30.426894 15.091252 16.709689 37.851756 0.460430 1.113581 0.165242 -0.067616 -967586.000000 0 0 1
31.310094 15.891752 15.928289 38.556194 0.469677 1.144920 0.215549 -0.062627 59966.300000 0 0 1
32.266594 15.129452 15.228189 38.754756 0.438451 1.166973 0.214013 -0.068846 128532.000000 0 0 1
31.903194 14.782652 13.765589 37.760190 0.433908 1.197644 0.192896 -0.070712 -529622.000000 0 0 1
32.230494 15.765252 12.814889 38.099465 0.454923 1.227754 0.186050 -0.055337 5472.090000 0 0 1
31.603294 15.606752 11.539889 37.087840 0.458702 1.254393 0.197216 -0.058691 130880.000000 0 0 1
30.100894 15.962752 11.461789 35.947821 0.487599 1.246286 0.191748 -0.063536 -240290.000000 0 0 1
29.746394 17.288652 11.227789 36.191279 0.526482 1.255356 0.196430 -0.057937 -12740.800000 0 0 1
30.100494 18.276352 12.214189 37.272660 0.545681 1.236930 0.206940 -0.066974 -558890.000000 0 0 1
29.404394 18.204352 13.573589 37.151838 0.554348 1.196783 0.209717 -0.073108 172111.000000 0 0 1
28.249994 19.052452 13.565389 36.675303 0.593353 1.191919 0.224368 -0.057705 511188.000000 0 0 1
27.589494 19.129052 14.828889 36.701454 0.606246 1.154866 0.191723 -0.060630 -169113.000000 0 0 1
28.188994 20.047752 15.902589 38.071302 0.618197 1.139878 0.159399 -0.058020 -244928.000000 0 0 1
27.946294 21.417152 15.845289 38.610399 0.653895 1.147916 0.138893 -0.048492 473625.000000 0 0 1
26.616594 21.810252 16.202789 38.034990 0.686473 1.130733 0.120515 -0.046416 429421.000000 0 0 1
26.299894 23.273352 15.966389 38.577958 0.724422 1.144091 0.120486 -0.036762 -120352.000000 0 0 1
26.200294 23.690652 14.616589 38.227569 0.735138 1.178450 0.154760 -0.048170 87328.400000 0 0 1
25.887294 25.018052 14.449389 38.792264 0.768324 1.189115 0.147089 -0.046031 -441069.000000 0 0 1
25.670694 25.400752 12.952389 38.365962 0.780113 1.226429 0.143904 -0.040889 41998.400000 0 0 1
24.475694 24.864652 12.425589 37.036546 0.793281 1.228665 0.130107 -0.029839 173718.000000 0 0 1
24.120694 25.350252 11.137589 36.721778 0.810247 1.262646 0.112008 -0.042135 356925.000000 0 0 1
23.232594 24.251352 10.444489 35.170567 0.806850 1.269282 0.119872 -0.041935 736953.000000 0 0 1
21.847794 24.198352 10.820889 34.350807 0.836402 1.250328 0.098007 -0.033963 645892.000000 0 0 1
21.236994 22.890452 10.890689 33.069469 0.822851 1.235205 0.118958 -0.036451 359582.000000 0 0 1
20.956294 22.226552 9.541189 32.003439 0.814805 1.268063 0.144225 -0.043036 886567.000000 0 0 1
19.771194 22.645752 8.776589 31.317067 0.853064 1.286742 0.123451 -0.036495 1096910.000000 0 0 1
20.212994 23.149852 7.577789 31.652861 0.853022 1.329045 0.113234 -0.034407 -625626.000000 0 0 1
19.255494 23.347352 6.435789 30.940140 0.881151 1.361259 0.115523 -0.034515 -1312840.000000 0 0 1
18.751294 22.108652 5.988489 29.601782 0.867381 1.367089 0.112680 -0.024308 319951.000000 0 0 1
18.082894 22.207152 4.721889 29.024901 0.887407 1.407386 0.133979 -0.041287 571512.000000 0 0 1
16.629294 22.792452 4.738689 28.609167 0.940482 1.404394 0.100959 -0.031792 39324.300000 0 0 1
16.580894 24.221952 4.822789 29.747072 0.970522 1.407951 0.107471 -0.037275 -285762.000000 0 0 1
15.326694 24.671952 5.247889 29.515302 1.014920 1.392044 0.106475 -0.039327 -332430.000000 0 0 1
15.201394 26.182152 5.124189 30.705777 1.044763 1.403132 0.092833 -0.039982 -125563.000000 0 0 1
14.693294 26.513952 3.864989 30.558479 1.064756 1.443978 0.085669 -0.035878 237512.000000 0 0 1
14.722994 27.926652 3.662089 31.781682 1.085624 1.455313 0.077085 -0.034357 -157138.000000 0 0 1
14.318894 28.284552 2.163289 31.776192 1.102166 1.502665 0.082859 -0.031206 -206919.000000 0 0 1
15.163394 27.917052 1.098689 31.788322 1.073221 1.536227 0.103079 -0.036613 -273290.000000 0 0 1
14.898094 26.596052 0.565889 30.489726 1.060185 1.552235 0.090422 -0.033586 -120508.000000 0 0 1
15.944894 26.000352 -0.378111 30.502473 1.020686 1.583193 0.098864 -0.036305 -166591.000000 0 0 1
15.955494 26.818352 -1.523511 31.242965 1.034101 1.619579 0.094002 -0.023529 -11862.600000 0 0 1
17.042294 26.540852 -2.389211 31.631707 0.999984 1.646400 0.097066 -0.017872 193794.000000 0 0 1
16.836194 27.162852 -3.782811 32.180547 1.015928 1.688618 0.110103 -0.024940 637989.000000 0 0 1
15.713294 26.655452 -4.530811 31.272175 1.038136 1.716191 0.133596 -0.030574 291729.000000 0 0 1
15.846294 27.003852 -5.921711 31.865023 1.040127 1.757720 0.116496 -0.025536 804710.000000 0 0 1
14.622994 26.672152 -6.862811 31.182267 1.069298 1.792700 0.135450 -0.043213 867920.000000 0 0 1
14.475994 25.293852 -7.135011 30.004028 1.050984 1.810898 0.144576 -0.040517 -257366.000000 0 0 1
13.212494 25.138452 -7.734711 29.433612 1.086888 1.836704 0.123223 -0.046070 84979.700000 0 0 1
12.926394 23.636952 -8.073211 28.124258 1.070358 1.861947 0.147311 -0.038979 -144311.000000 0 0 1
13.520094 23.278852 -9.290211 28.478165 1.044623 1.903101 0.143330 -0.036810 74123.500000 0 0 1
13.408294 21.899452 -9.498511 27.378642 1.021406 1.925094 0.147240 -0.030897 -320601.000000 0 0 1
13.614794 21.568652 -11.056811 27.799684 1.007729 1.979839 0.147943 -0.029407 319688.000000 0 0 1
12.761194 20.469452 -11.414311 26.685821 1.013329 2.012776 0.163812 -0.029393 295870.000000 0 0 1
12.950594 19.970952 -12.753411 27.003820 0.995496 2.062674 0.149949 -0.030757 -239863.000000 0 0 1
14.235194 19.212852 -13.107111 27.268494 0.933132 2.072213 0.153638 -0.027197 279032.000000 0 0 1
15.386994 20.050152 -13.032811 28.436285 0.916236 2.046896 0.124065 -0.024070 80400.500000 0 0 1
16.551394 19.452552 -13.591111 28.932140 0.865803 2.059813 0.112862 -0.019843 186918.000000 0 0 1
17.829694 20.188352 -13.180711 29.986641 0.847359 2.025897 0.129248 -0.017431 -492532.000000 0 0 1
18.035794 21.403752 -13.907511 31.254269 0.870587 2.031948 0.113934 -0.022705 13375.500000 0 0 1
17.284794 22.559052 -13.549011 31.484133 0.917006 2.015670 0.100490 -0.026274 97945.600000 0 0 1
17.874994 23.859452 -14.210911 33.026335 0.927821 2.015611 0.106903 -0.028814 184097.000000 0 0 1
17.818894 23.906052 -15.621811 33.660857 0.930264 2.053408 0.107958 -0.018585 -402932.000000 0 0 1
16.571694 24.271852 -16.145111 33.532200 0.971739 2.073140 0.090530 -0.016519 -705.749000 0 0 1
16.668994 24.316752 -17.696511 34.384972 0.969872 2.111405 0.097643 -0.005530 233339.000000 0 0 1
16.940794 23.072852 -18.342711 33.997089 0.937464 2.140684 0.114750 -0.007716 -170462.000000 0 0 1
16.695594 23.129352 -19.749911 34.695371 0.945565 2.176375 0.115748 -0.007503 -96555.500000 0 0 1
17.147694 21.842652 -20.492911 34.512378 0.905235 2.206550 0.105750 -0.005309 50308.800000 0 0 1
16.159894 20.842352 -20.393311 33.338160 0.911274 2.229018 0.085012 -0.000446 4735.620000 0 0 1
16.334194 19.893652 -21.455911 33.509989 0.883336 2.265664 0.093987 0.005038 -421158.000000 0 0 1
15.281294 18.795352 -21.575411 32.438889 0.888157 2.298437 0.083912 -0.002343 -1008330.000000 0 0 1
15.357794 17.808552 -20.575611 31.246794 0.859157 2.289603 0.087361 -0.005825 126049.000000 0 0 1
14.691894 16.585952 -20.885411 30.449071 0.845880 2.326654 0.070460 -0.016416 1332900.000000 0 0 1
13.114594 16.579952 -21.042111 29.827132 0.901573 2.353881 0.082410 -0.023224 769994.000000 0 0 1
12.383794 16.614052 -19.840611 28.688585 0.930258 2.334478 0.064100 -0.017316 1523460.000000 0 0 1
10.955094 16.708852 -20.129411 28.361823 0.990462 2.359920 0.082452 -0.022955 2151060.000000 0 0 1
9.938094 16.412052 -18.957911 26.972644 1.026316 2.350202 0.106616 -0.038192 38477.000000 0 0 1
9.590194 15.071752 -18.730111 25.883326 1.004111 2.379853 0.127909 -0.055655 707608.000000 0 0 1
8.170794 14.866552 -18.762411 25.294353 1.068253 2.406491 0.140457 -0.038319 1199240.000000 0 0 1
7.399194 15.192852 -17.425111 24.273552 1.117588 2.371526 0.138097 -0.040325 1357.420000 0 1 0
7.414394 16.573352 -17.155911 24.979482 1.150133 2.327874 0.150034 -0.039689 -398978.000000 0 1 0
6.645794 16.830752 -16.023611 24.170165 1.194729 2.295549 0.128396 -0.039434 -187318.000000 0 1 0
6.666294 18.379352 -15.736211 25.097179 1.222848 2.248507 0.105968 -0.027929 263694.000000 0 0 1
7.892294 18.935352 -15.217611 25.542348 1.175890 2.209032 0.112513 -0.026139 433845.000000 0 0 1
8.418294 19.726052 -16.283211 26.928196 1.167436 2.220173 0.123819 -0.024924 -246083.000000 0 0 1
9.706794 20.471852 -15.895911 27.676679 1.128039 2.182598 0.120583 -0.017612 -166150.000000 0 0 1
9.629394 21.607652 -15.044811 28.035017 1.151568 2.137251 0.121245 -0.020148 -172186.000000 0 0 1
9.259194 21.394352 -13.691811 27.035470 1.162349 2.101846 0.129146 -0.031703 -217313.000000 0 0 1
8.864594 22.702252 -12.943211 27.595289 1.198531 2.058996 0.133231 -0.025777 744396.000000 0 0 1
7.589594 23.323052 -13.270111 27.886601 1.256192 2.066738 0.111818 -0.021509 936018.000000 0 0 1
7.128094 24.171652 -12.248311 28.019629 1.284030 2.023205 0.105757 -0.020452 296177.000000 0 0 1
6.486594 23.507352 -10.987911 26.747069 1.301557 1.994137 0.081111 -0.020868 -348066.000000 0 0 1
7.415394 23.154252 -10.011211 26.293189 1.260857 1.961407 0.087204 -0.017873 -210375.000000 0 0 1
6.723594 22.765852 -8.853211 25.335155 1.283623 1.927774 0.093857 -0.032293 388914.000000 0 0 1
7.644994 22.760152 -7.578011 25.177305 1.246743 1.876523 0.088403 -0.036949 321708.000000 0 0 1
8.053594 24.059752 -7.157011 26.361996 1.247787 1.845737 0.084182 -0.034515 102450.000000 0 0 1
8.875994 23.918252 -6.026611 26.214234 1.215452 1.802770 0.090334 -0.041887 -147846.000000 0 0 1
9.220694 25.259452 -5.398511 27.426356 1.220787 1.768927 0.068261 -0.035485 186150.000000 0 0 1
9.960894 26.071552 -6.298611 28.611496 1.205851 1.792757 0.090418 -0.037657 -26156.800000 0 0 1
10.016294 27.344852 -5.648611 29.664353 1.219679 1.762384 0.076572 -0.035968 143744.000000 0 0 1
10.303794 28.495652 -6.587411 31.009101 1.223832 1.784862 0.078158 -0.029179 451904.000000 0 0 1
11.617394 28.596852 -7.118311 31.676713 1.184916 1.797449 0.097616 -0.036071 74278.900000 0 0 1
11.741394 29.686952 -7.993711 32.910102 1.194169 1.816146 0.097999 -0.033207 920114.000000 0 0 1
13.126594 29.788252 -8.771811 33.713381 1.155734 1.834013 0.096050 -0.037199 1182020.000000 0 0 1
14.240494 30.008052 -7.940511 34.151523 1.127711 1.805452 0.086157 -0.026198 -468377.000000 0 0 1
15.370794 30.236552 -8.748111 35.029128 1.100490 1.823206 0.075931 -0.025090 51967.600000 0 0 1
16.718094 30.535452 -8.070811 35.735787 1.069876 1.798608 0.073874 -0.019781 -67923.300000 0 0 1
17.385694 29.404352 -7.564811 34.987206 1.036826 1.788734 0.077177 -0.018282 -929203.000000 0 0 1
18.581394 29.888152 -7.057011 35.893888 1.014575 1.768693 0.060603 -0.008942 -205060.000000 0 0 1
19.693094 28.843452 -6.716111 35.564994 0.971736 1.760778 0.060305 -0.012336 -14381.700000 0 0 1
19.485094 28.013252 -5.643011 34.586915 0.963052 1.734683 0.087757 -0.010972 -971209.000000 0 0 1
20.598694 27.317952 -5.236611 34.612119 0.924718 1.722674 0.079353 -0.011969 -865544.000000 0 0 1
20.900094 26.033652 -6.088311 33.935711 0.894344 1.751180 0.092179 -0.014439 -46685.400000 0 0 1
21.363494 26.353952 -7.409511 34.725070 0.889603 1.785826 0.070804 -0.009556 268688.000000 0 0 1
21.374694 25.175352 -8.203411 34.028985 0.866864 1.814266 0.075305 -0.023267 -1143090.000000 0 0 1
21.888994 25.552852 -9.598111 34.988570 0.862474 1.848680 0.079374 -0.022722 -543828.000000 0 0 1
23.275794 25.625152 -9.736111 35.961129 0.833404 1.844958 0.082728 -0.013686 -9080.540000 0 0 1
24.001094 24.369952 -9.640811 35.537196 0.793024 1.845527 0.085396 -0.013219 -429571.000000 0 0 1
25.512494 24.517352 -9.401011 36.611021 0.765510 1.830486 0.034626 -0.002497 245818.000000 0 0 1
26.228594 25.089752 -10.519711 37.790198 0.763210 1.852894 0.046699 -0.003575 908233.000000 0 0 1
27.606994 25.362652 -10.269111 38.869845 0.743053 1.838163 0.040216 0.008557 1021870.000000 0 0 1
28.592494 25.452852 -11.469911 39.961697 0.727371 1.861914 0.059854 0.003457 239662.000000 0 0 1
28.408194 26.616852 -12.283711 40.821218 0.752855 1.876448 0.054662 0.003439 -162345.000000 0 0 1
29.377394 26.618652 -13.303011 41.815715 0.736171 1.894557 0.066699 0.007128 -48940.100000 0 0 1
29.386894 27.672352 -14.436811 42.869221 0.755359 1.914274 0.088856 -0.006314 -4207.720000 0 0 1
29.889194 28.929652 -13.999511 43.889349 0.769086 1.895442 0.079754 -0.016653 139786.000000 0 0 1
30.032094 29.877252 -15.068011 44.962449 0.782814 1.912534 0.100741 -0.009446 -233623.000000 0 0 1
30.343094 31.352752 -14.647811 46.024523 0.801762 1.894691 0.090162 -0.012855 -312278.000000 0 0 1
31.647894 31.697052 -14.286211 47.014765 0.786174 1.879545 0.093719 -0.018860 -207520.000000 0 0 1
31.949694 33.120752 -14.277211 48.183045 0.803393 1.871625 0.102249 -0.020844 -185981.000000 0 0 1
17.048694 -31.533748 -27.638639 45.265104 -1.075161 2.227608 0.105221 -0.051595 121732.000000 0 0 1
18.141294 -32.334548 -27.184399 45.974135 -1.059509 2.203463 0.086763 -0.040022 41294.400000 0 0 1
18.565994 -31.936348 -25.928119 45.131960 -1.044208 2.182784 0.088674 -0.046452 -567698.000000 0 0 1
19.838294 -32.727848 -25.577579 46.031321 -1.025860 2.159948 0.023598 -0.032399 -277388.000000 0 0 1
21.068994 -32.321648 -26.132829 46.599530 -0.993119 2.166143 0.058970 -0.037876 324499.000000 0 0 1
21.253094 -32.621748 -27.519199 47.677864 -0.993367 2.186080 0.071237 -0.033906 365819.000000 0 0 1
22.736194 -32.191248 -27.891639 48.282031 -0.955865 2.186682 0.079625 -0.029799 1088950.000000 0 0 1
23.048594 -30.805948 -27.878529 47.512698 -0.928457 2.197848 0.082244 -0.045438 -14130.600000 0 0 1
24.378794 -30.586848 -27.462779 47.792103 -0.897866 2.182948 0.054822 -0.032092 -384379.000000 0 0 1
25.004994 -29.361748 -28.122329 47.730780 -0.865364 2.200848 0.042822 -0.019811 -344417.000000 0 0 1
25.389794 -29.608648 -29.411649 48.850371 -0.861957 2.216895 0.040702 -0.024612 -33316.800000 0 0 1
26.067194 -28.506948 -30.015289 48.918936 -0.830074 2.231373 0.038344 -0.029480 294627.000000 0 0 1
26.407694 -28.706148 -31.542809 50.163314 -0.827078 2.250808 0.047686 -0.026182 707031.000000 0 0 1
27.536294 -29.549848 -31.848459 51.437004 -0.820656 2.238487 0.049316 -0.038799 484753.000000 0 0 1
27.471694 -30.007148 -33.161539 52.486289 -0.829481 2.254687 0.047200 -0.040609 -467672.000000 0 0 1
28.594394 -30.973148 -33.516179 53.854522 -0.825311 2.242533 0.035778 -0.040377 659564.000000 0 0 1
29.827894 -30.255248 33.664109 54.206600 -0.792511 0.900736 0.043595 -0.042093 344077.000000 0 0 1
30.947094 -31.127348 33.656799 55.311974 -0.788302 0.916640 0.053252 -0.033007 -266591.000000 0 0 1
32.228294 -30.325148 33.528229 55.519543 -0.754983 0.922412 0.068910 -0.039331 -889318.000000 0 0 1
32.264594 -29.527148 32.376144 54.415726 -0.741126 0.933558 0.078133 -0.032792 -842891.000000 0 0 1
33.481094 -28.916048 32.123710 54.672243 -0.712367 0.942745 0.082111 -0.038702 -695375.000000 0 0 1
33.544194 -27.868148 30.930829 53.465529 -0.693235 0.953884 0.077138 -0.032790 78669.700000 0 0 1
34.816294 -27.228948 30.928119 53.945699 -0.663715 0.960245 0.101012 -0.036811 434359.000000 0 0 1
34.895494 -26.192348 29.967959 52.932156 -0.643881 0.968959 0.092117 -0.031319 -193825.000000 0 0 1
35.673294 -26.463148 28.648199 52.854530 -0.638245 0.997958 0.094150 -0.025046 -89380.000000 0 0 1
35.100394 -27.396848 27.715249 52.447688 -0.662755 1.014039 0.071844 -0.024865 -66444.900000 0 0 1
33.949494 -26.973648 27.055889 51.109362 -0.671392 1.012936 0.078559 -0.022226 -429490.000000 0 0 1
33.169594 -28.127348 26.353109 50.851313 -0.703324 1.026006 0.066367 -0.015175 165360.000000 0 0 1
31.943594 -27.695548 25.794669 49.525766 -0.714289 1.022970 0.077298 -0.008891 137690.000000 0 0 1
31.478694 -28.567748 24.764119 49.196402 -0.736958 1.043299 0.070008 -0.003968 -275464.000000 0 0 1
30.153694 -28.102448 24.154979 47.775054 -0.750202 1.040721 0.067998 0.005029 -278507.000000 0 0 1
29.076094 -28.303748 25.032869 47.677730 -0.771939 1.018030 0.070145 -0.001917 -473034.000000 0 0 1
27.840894 -27.901448 24.513469 46.416768 -0.786484 1.014415 0.083723 0.002598 25341.700000 0 0 1
26.713194 -27.899748 25.564289 46.319796 -0.807121 0.986145 0.095504 -0.004146 -7237.360000 0 0 1
26.702994 -26.798548 26.460709 46.166884 -0.787184 0.960447 0.087325 -0.012548 201435.000000 0 0 1
25.527894 -26.777148 27.253559 45.950468 -0.809278 0.935884 0.094821 -0.021281 43803.000000 0 0 1
25.365494 -25.471148 28.093059 45.622446 -0.787476 0.907430 0.095713 -0.018495 -249232.000000 0 0 1
24.378794 -25.460048 29.112429 45.717318 -0.807090 0.880466 0.100052 -0.015340 293349.000000 0 0 1
24.065194 -24.321848 29.862399 45.414190 -0.790702 0.853225 0.091691 -0.018321 -339873.000000 0 0 1
23.379494 -23.068048 29.260799 43.987838 -0.778693 0.843032 0.093748 -0.016737 -213279.000000 0 0 1
24.163094 -22.379748 28.254709 43.393972 -0.747101 0.861736 0.103858 -0.018345 311509.000000 0 0 1
23.938994 -21.005548 27.927739 42.358790 -0.720222 0.850890 0.108685 -0.016514 -156524.000000 0 0 1
24.650094 -19.927748 28.805559 42.831092 -0.679857 0.833163 0.102016 -0.011656 71569.200000 0 0 1
24.093794 -19.662548 30.057259 43.250035 -0.684471 0.802425 0.085662 -0.007745 -329363.000000 0 0 1
24.997194 -18.893348 30.765739 43.912970 -0.647215 0.794548 0.077545 -0.014683 -321560.000000 0 0 1
24.607994 -18.548448 32.228654 44.590183 -0.645901 0.762987 0.089277 -0.010604 -66674.100000 0 0 1
24.810894 -19.676348 33.076848 45.791014 -0.670490 0.763611 0.069932 -0.003195 159989.000000 0 0 1
24.365194 -19.429048 -33.018469 45.402311 -0.673160 2.385092 0.086407 -0.001226 -165280.000000 0 0 1
24.441294 -20.697548 -32.188909 45.408052 -0.702649 2.358707 0.042154 0.005284 318442.000000 0 0 1
25.658794 -20.998648 -31.517839 45.745941 -0.685848 2.330871 0.023367 0.016398 125880.000000 0 0 1
25.439094 -22.090848 -30.651259 45.548356 -0.715069 2.308971 0.032658 -0.000189 110622.000000 0 0 1
26.638594 -22.511948 -29.776449 45.858908 -0.701635 2.277467 0.037650 0.003912 216801.000000 0 0 1
27.711794 -23.074848 -30.512849 47.237973 -0.694348 2.273049 0.035404 0.008735 14979.600000 0 0 1
28.774694 -23.403648 -29.612899 47.461959 -0.682823 2.244557 0.054706 -0.011145 -126949.000000 0 0 1
29.878694 -24.223548 -30.270369 48.947031 -0.681249 2.237541 0.055887 -0.016947 -735055.000000 0 0 1
30.692294 -23.460048 -31.127429 49.611567 -0.652630 2.249035 0.058108 -0.013845 -235788.000000 0 0 1
30.252694 -23.318448 -32.445919 50.116995 -0.656674 2.274969 0.048453 -0.008846 -213167.000000 0 0 1
30.472794 -24.494348 -33.369159 51.401022 -0.677060 2.277319 0.047855 -0.010174 33139.000000 0 0 1
29.565594 -25.513548 -33.004549 51.130869 -0.711963 2.272463 0.048874 -0.021655 -140896.000000 0 0 1
29.802094 -26.757548 -33.685719 52.334108 -0.731621 2.270076 0.049679 -0.030725 33491.700000 0 0 1
29.537194 -26.893648 32.175081 51.292786 -0.738587 0.892737 0.046954 -0.032037 -61658.200000 0 0 1
30.441394 -26.181348 31.372474 50.954622 -0.710304 0.907529 0.039156 -0.029039 -199141.000000 0 0 1
30.018894 -26.169148 30.068049 49.900359 -0.716990 0.924089 0.048145 -0.023011 -279387.000000 0 0 1
31.012794 -25.461948 29.100339 49.567468 -0.687424 0.943343 0.059072 -0.018148 -67369.300000 0 0 1
31.138994 -24.012448 29.164709 48.957275 -0.656892 0.932638 0.051847 -0.020264 72386.200000 0 0 1
31.624294 -23.440748 30.359359 49.711722 -0.637862 0.913842 0.054429 -0.010671 -1015940.000000 0 0 1
32.268594 -21.998848 30.182779 49.357994 -0.598367 0.912832 0.054128 -0.008893 1013070.000000 0 0 1
33.623394 -21.833448 29.758789 49.928124 -0.575920 0.932245 0.069757 -0.022442 762634.000000 0 0 1
34.571694 -22.448748 30.622699 51.350735 -0.575910 0.931858 0.069811 -0.024069 -647400.000000 0 0 1
36.010994 -21.922148 30.417799 51.986678 -0.546838 0.945784 0.077731 -0.032539 -14415.200000 0 0 1
36.499794 -22.295848 29.152259 51.760931 -0.548358 0.972531 0.089329 -0.038334 1266990.000000 0 0 1
37.796994 -21.715748 28.832699 52.263859 -0.521486 0.986424 0.082580 -0.040316 1215430.000000 0 0 1
-37.655904 -22.004648 27.438319 51.527012 0.528841 1.009241 0.101509 -0.037766 -78844.400000 0 0 1
-37.295204 -23.348048 27.219649 51.739471 0.559342 1.016799 0.103393 -0.034544 118148.000000 0 0 1
-37.177804 -23.581348 25.836249 51.046849 0.565249 1.040107 0.086076 -0.023313 31573.600000 0 0 1
-36.924104 -25.076948 25.543639 51.426844 0.596594 1.051006 0.077575 -0.027354 481906.000000 0 0 1
37.950794 -25.858248 25.748479 52.648798 -0.598108 1.059783 0.084500 -0.020053 596533.000000 0 0 1
-37.856804 -27.158148 25.438689 53.083232 0.622303 1.071027 0.072901 -0.016639 136163.000000 0 0 1
-36.808904 -27.999348 26.224959 53.165848 0.650294 1.054955 0.064510 -0.022454 -680239.000000 0 0 1
-36.514104 -29.256048 25.619689 53.343833 0.675488 1.069829 0.062720 -0.018631 -175983.000000 0 0 1
-35.442104 -29.897248 26.239359 53.277501 0.700739 1.055832 0.060863 -0.030758 1263740.000000 0 0 1
-34.000204 -29.238448 25.995739 51.833186 0.710242 1.045434 0.064876 -0.031857 196511.000000 0 0 1
-33.745904 -29.285948 24.575259 50.994079 0.714759 1.067947 0.069219 -0.030683 67336.400000 0 0 1
-32.443704 -28.781348 24.369139 49.747511 0.725651 1.058871 0.044999 -0.023537 41736.000000 0 0 1
-31.929504 -28.866548 22.886209 48.749865 0.735060 1.082115 0.049470 -0.025995 -180637.000000 0 0 1
-31.578104 -30.136448 22.477689 49.098153 0.762042 1.095265 0.066422 -0.027376 378937.000000 0 0 1
-30.899504 -30.144548 21.225189 48.103864 0.773031 1.113820 0.064301 -0.023144 -477663.000000 0 0 1
-30.753904 -31.638248 20.713989 48.742699 0.799571 1.131872 0.091091 -0.018694 182119.000000 0 0 1
-29.708904 -32.365148 21.329389 48.837123 0.828164 1.118819 0.084551 -0.032253 637662.000000 0 0 1
-28.399604 -32.105448 20.808789 47.647696 0.846570 1.118845 0.117832 -0.030686 146637.000000 0 0 1
-27.546904 -33.384748 20.682089 47.970013 0.880916 1.125034 0.119804 -0.021973 -502038.000000 0 0 1
-27.966804 33.156552 19.760489 47.665249 -0.870101 1.143328 0.102425 -0.021190 470131.000000 0 0 1
-29.141004 32.377752 20.034889 47.946988 -0.837964 1.139713 0.110993 -0.017235 459783.000000 0 0 1
-29.051704 31.342152 21.175789 47.694297 -0.823305 1.110750 0.118475 -0.016734 -243689.000000 0 0 1
-28.589104 30.054352 20.730489 46.371910 -0.810379 1.107333 0.111875 -0.018943 8478.900000 0 0 1
-28.109104 29.256052 21.810389 46.062255 -0.805389 1.077538 0.117520 -0.024073 294840.000000 0 0 1
-27.217904 28.020552 21.280389 44.483936 -0.799928 1.071983 0.097313 -0.020055 95069.000000 0 0 1
-25.976404 28.515152 20.865889 43.855133 -0.831954 1.074933 0.086524 -0.016748 -685431.000000 0 0 1
-25.085104 27.494652 20.524389 42.502574 -0.831193 1.066836 0.075956 -0.016532 -792163.000000 0 0 1
-23.633904 27.930052 20.582689 41.979713 -0.868523 1.058361 0.055298 -0.017198 -843433.000000 0 0 1
-23.153704 27.957852 21.921289 42.406112 -0.879116 1.027527 0.061950 -0.021154 912849.000000 0 0 1
-21.859604 28.568652 21.988689 42.160557 -0.917663 1.022134 0.075738 -0.021835 629655.000000 0 0 1
-21.189504 28.585952 23.410299 42.593354 -0.932915 0.988883 0.070815 -0.019999 -338947.000000 0 0 1
-21.083304 27.330552 24.057839 42.074272 -0.913727 0.962105 0.077335 -0.028254 322441.000000 0 0 1
-20.737904 27.435252 25.417129 42.764285 -0.923539 0.934334 0.081789 -0.028419 -235970.000000 0 0 1
-19.289604 27.754552 25.864959 42.560546 -0.963429 0.917608 0.100653 -0.024052 -122996.000000 0 0 1
-18.744504 29.024752 25.464839 42.921447 -0.997372 0.935657 0.071253 -0.022950 -254891.000000 0 0 1
-17.543504 29.381452 26.069769 43.019496 -1.032516 0.919775 0.080678 -0.019155 -645537.000000 0 0 1
-17.558504 29.839952 27.586889 44.269179 -1.038933 0.898017 0.065444 -0.011714 -546841.000000 0 0 1
-17.604804 28.727652 28.404349 44.068289 -1.021006 0.870358 0.076460 -0.011007 329484.000000 0 0 1
-17.490104 29.036852 29.776239 45.118365 -1.028657 0.850033 0.073390 -0.009398 -199195.000000 0 0 1
-17.340204 27.778152 30.706619 44.891033 -1.012744 0.817529 0.067077 0.002249 302822.000000 0 0 1
-15.978504 27.349752 30.737089 44.137174 -1.042054 0.800429 0.071435 0.002479 370774.000000 0 0 1
-15.735404 26.157352 31.439034 43.820347 -1.029225 0.770657 0.085319 -0.001406 -279337.000000 0 0 1
-16.060504 26.107452 32.959177 45.009401 -1.019298 0.749142 0.084458 -0.001680 206360.000000 0 0 1
-17.445904 26.049852 33.270470 45.715189 -0.980688 0.755721 0.077253 0.001790 166749.000000 0 0 1
-17.873904 26.756052 -33.006959 46.095792 -0.981849 2.368926 0.073945 0.001164 -190969.000000 0 0 1
-19.255104 26.295752 -32.541019 46.055874 -0.938751 2.355415 0.065431 0.001161 -514028.000000 0 0 1
-20.315104 26.522752 -33.425589 47.259177 -0.917165 2.356443 0.063466 0.001110 -1249100.000000 0 0 1
-21.397104 25.814152 -32.998099 47.043395 -0.878686 2.348212 0.070063 -0.005206 -739040.000000 0 0 1
-22.613304 25.906352 33.420989 47.952717 -0.853165 0.799651 0.107934 -0.023332 366810.000000 0 0 1
-22.771104 24.937152 32.395433 46.795820 -0.830769 0.806164 0.100731 -0.016011 81784.400000 0 0 1
-22.946104 23.589852 32.813801 46.473114 -0.799231 0.786847 0.082542 -0.013998 -472453.000000 0 0 1
-23.235604 22.596652 31.650253 45.301660 -0.771458 0.797280 0.086519 -0.017722 385595.000000 0 0 1
-24.593004 22.545452 31.213429 45.687978 -0.741988 0.818678 0.106659 -0.026208 194308.000000 0 0 1
-24.777304 21.932952 29.990129 44.658448 -0.724580 0.834505 0.103634 -0.020305 632901.000000 0 0 1
-26.253204 21.750052 29.512759 45.092110 -0.691863 0.857276 0.101134 -0.027754 716908.000000 0 0 1
-26.970104 20.712452 30.137819 45.438753 -0.654908 0.845627 0.116938 -0.035678 -544012.000000 0 0 1
-28.238404 20.513652 29.606569 45.768616 -0.628255 0.867317 0.128483 -0.039498 -381736.000000 0 0 1
-28.850204 19.089652 29.960889 45.764658 -0.584544 0.857046 0.144561 -0.039758 -300025.000000 0 0 1
-29.365704 19.091252 31.252919 46.942149 -0.576460 0.842264 0.148197 -0.039884 -49066.100000 0 0 1
-29.508404 17.812752 31.869616 46.943715 -0.543099 0.824547 0.123299 -0.022030 122594.000000 0 0 1
-30.564204 16.828852 31.290041 46.866272 -0.503309 0.839755 0.098297 -0.018552 666565.000000 0 0 1
-31.932504 17.260752 31.338623 47.955475 -0.495550 0.858605 0.096013 -0.022972 837190.000000 0 0 1
-32.725604 16.224452 30.777369 47.764468 -0.460260 0.870614 0.099581 -0.005325 -1335540.000000 0 0 1
-34.209804 16.398352 30.731799 48.822741 -0.446989 0.889943 0.080524 -0.009189 -1601550.000000 0 0 1
-34.757704 16.432752 32.019783 50.033986 -0.441636 0.876349 0.086823 -0.007321 -414882.000000 0 0 1
-36.141704 16.303252 31.931133 50.907917 -0.423762 0.892801 0.093118 -0.011295 -698879.000000 0 0 1
-36.802304 16.694752 33.285318 52.354911 -0.425871 0.881800 0.094509 -0.011374 -431019.000000 0 0 1
37.852594 16.758052 33.304139 53.130187 0.416782 0.893305 0.076203 -0.015828 -361676.000000 0 0 1
37.491694 17.405552 -32.885929 52.821063 0.434642 2.242846 0.082736 -0.023322 268198.000000 0 0 1
35.975994 17.710252 -32.710979 51.748751 0.457452 2.255071 0.079950 -0.027473 47801.400000 0 0 1
35.265894 16.511052 -32.666209 50.826954 0.437875 2.268807 0.084487 -0.015823 -731020.000000 0 0 1
34.057794 16.767052 -32.003349 49.651603 0.457478 2.271242 0.092650 -0.017388 -623423.000000 0 0 1
33.131294 15.545952 -32.113099 48.688914 0.438724 2.291025 0.101308 -0.008809 -421519.000000 0 0 1
32.598494 15.366052 -33.382749 49.124182 0.440485 2.317957 0.103827 -0.020835 226459.000000 0 0 1
31.682694 14.238652 -33.409369 48.194587 0.422367 2.336741 0.100262 -0.025361 616540.000000 0 0 1
32.291694 12.788552 -33.437029 48.211362 0.377081 2.337203 0.098378 -0.017742 29364.000000 0 0 1
33.012394 12.326352 -32.335359 47.826065 0.357355 2.313257 0.090581 -0.012794 -85537.700000 0 0 1
33.859894 11.263552 -32.706719 48.405469 0.321137 2.312686 0.099018 -0.010982 52353.500000 0 0 1
18.971594 -20.622148 9.778421 29.678475 -0.827061 1.235045 0.065925 -0.030080 72291.700000 0 0 1
18.563694 -21.827648 10.416221 30.488598 -0.866031 1.222132 0.047979 -0.032223 -87070.700000 0 0 1
19.672294 -22.508748 10.935721 31.831319 -0.852542 1.220100 0.044719 -0.030173 -458417.000000 0 0 1
19.354194 -23.904748 11.532221 32.848347 -0.890206 1.212078 0.051181 -0.030739 -416667.000000 0 0 1
18.814194 -24.909948 10.672121 32.990507 -0.923919 1.241380 0.045502 -0.028707 819436.000000 0 0 1
17.527794 -25.313318 11.175721 32.754914 -0.965167 1.222611 0.055102 -0.021758 652177.000000 0 0 1
16.677994 -26.187808 10.235321 32.691261 -1.003713 1.252351 0.074202 -0.023995 46612.100000 0 0 1
16.204894 -25.462188 9.109521 31.526259 -1.004020 1.277666 0.062819 -0.028810 257755.000000 0 0 1
15.379394 -26.246898 8.266621 31.523998 -1.040771 1.305461 0.073400 -0.016827 -17439.900000 0 0 1
15.115494 -25.626568 6.835821 30.527489 -1.037883 1.344958 0.070144 -0.015351 -114030.000000 0 0 1
14.371994 -24.447248 7.015421 29.213666 -1.039338 1.328284 0.074130 -0.024346 19811.200000 0 0 1
13.961994 -23.951148 5.753621 28.314288 -1.043018 1.366166 0.086918 -0.010346 33579.400000 0 0 1
13.451794 -22.492648 5.787621 26.839645 -1.031810 1.353452 0.125861 -0.023993 -207203.000000 0 0 1
12.516394 -22.228848 4.789121 25.956068 -1.057974 1.385224 0.109955 -0.017682 -288247.000000 0 0 1
11.783394 -21.069948 5.087421 24.671298 -1.060878 1.363098 0.131345 -0.021665 192554.000000 0 1 0
10.956794 -20.527748 3.840421 23.583651 -1.080511 1.407225 0.120310 -0.023494 383636.000000 0 1 0
11.696394 -20.006748 2.742321 23.336579 -1.041761 1.453012 0.105832 -0.022389 -271780.000000 0 1 0
10.850894 -19.557148 1.718621 22.431620 -1.064252 1.494105 0.081530 -0.003617 -179057.000000 0 1 0
11.557194 -19.028148 0.471321 22.267943 -1.024973 1.549629 0.065520 -0.005317 -357879.000000 0 1 0
12.311794 -17.888448 0.702921 21.727194 -0.967997 1.538439 0.066754 -0.008559 -114267.000000 0 1 0
13.073694 -17.659548 -0.491479 21.977777 -0.933520 1.593161 0.076485 -0.009497 289295.000000 0 1 0
14.278494 -16.690048 -0.250479 21.965788 -0.863112 1.582200 0.070426 -0.001431 346183.000000 0 1 0
15.355394 -17.309348 0.434621 23.142829 -0.845145 1.552015 0.079524 -0.007632 -747866.000000 0 1 0
16.501594 -16.571948 0.184121 23.387303 -0.787525 1.562924 0.085624 -0.014341 -826145.000000 0 1 0
17.726794 -17.156448 0.893721 24.685657 -0.769049 1.534584 0.078369 -0.016255 -225291.000000 0 1 0
18.286294 -18.307748 0.246521 25.877074 -0.785984 1.561270 0.079166 -0.020281 562939.000000 0 0 1
19.406594 -18.792448 1.004721 27.032970 -0.769322 1.533621 0.072897 -0.014989 690198.000000 0 0 1
19.785794 -20.188448 0.523621 28.272341 -0.795471 1.552275 0.052680 -0.009081 -348236.000000 0 0 1
18.943194 -21.092648 1.138821 28.373250 -0.839035 1.530648 0.057375 -0.005975 -129714.000000 0 0 1
18.827294 -22.156748 0.231821 29.076489 -0.866458 1.562823 0.054988 -0.008083 579028.000000 0 0 1
17.780494 -23.282448 0.651421 29.302606 -0.918593 1.548564 0.058378 -0.008377 758745.000000 0 0 1
18.289794 -23.991248 1.730221 30.217383 -0.919436 1.513506 0.051341 0.001299 359908.000000 0 0 1
17.217394 -24.790348 2.220721 30.264362 -0.963758 1.497353 0.048243 0.001077 246071.000000 0 0 1
17.494594 -25.489378 3.566421 31.120549 -0.969291 1.455944 0.045386 -0.007718 261591.000000 0 0 1
18.387994 -26.591398 3.575221 32.526958 -0.965797 1.460658 0.038022 -0.003223 903088.000000 0 0 1
19.750294 -26.211088 3.855021 33.044764 -0.925053 1.453870 0.045122 0.003765 1051020.000000 0 0 1
20.809494 -27.364328 3.860921 34.594049 -0.920634 1.458957 0.054215 0.001223 323321.000000 0 0 1
21.252494 -27.824928 2.614221 35.110244 -0.918526 1.496270 0.062821 0.008398 -242264.000000 0 0 1
22.156294 -28.910948 2.656721 36.521260 -0.916905 1.497988 0.079950 0.002165 -295611.000000 0 0 1
21.644294 -30.256018 3.021421 37.323331 -0.949828 1.489755 0.071725 0.002667 -413312.000000 0 0 1
21.435894 -30.440828 4.397721 37.489752 -0.957269 1.453221 0.098458 -0.000237 -361013.000000 0 0 1
20.840594 -31.636948 4.668121 38.170908 -0.988300 1.448194 0.083135 -0.016095 -258015.000000 0 0 1
20.655594 -32.061798 6.140821 38.630585 -0.998479 1.411156 0.095011 -0.022642 -387982.000000 0 0 1
21.844994 -32.471308 6.736921 39.711153 -0.978596 1.400324 0.081476 -0.032831 -161842.000000 0 0 1
21.533794 -33.157478 7.976221 40.332899 -0.994815 1.371724 0.068064 -0.029830 817850.000000 0 0 1
22.695194 33.365963 8.412621 41.220522 0.973490 1.365264 0.088083 -0.034728 375282.000000 0 0 1
23.721094 -33.485708 9.066221 42.025936 -0.954459 1.353358 0.091139 -0.030484 -848767.000000 0 0 1
24.887094 33.248551 9.168921 42.531196 0.928245 1.353509 0.120137 -0.039821 127738.000000 0 0 1
25.878094 -33.593548 10.200721 43.614870 -0.914411 1.334728 0.115852 -0.034256 -125911.000000 0 0 1
26.878594 -32.803658 9.629721 43.488738 -0.884351 1.347515 0.093293 -0.016867 -254339.000000 0 0 1
27.413394 -31.848638 10.524121 43.319592 -0.860100 1.325399 0.092621 -0.021779 -28281.600000 0 0 1
28.122894 -30.813198 9.658221 42.820924 -0.831014 1.343290 0.080475 -0.025035 146992.000000 0 0 1
27.178594 -29.842908 9.198621 41.399152 -0.832089 1.346733 0.066725 -0.029742 307045.000000 0 0 1
27.669894 -29.088198 8.133521 40.962183 -0.810382 1.370906 0.074949 -0.030261 -270625.000000 0 0 1
27.117494 -27.694448 8.012821 39.579619 -0.795924 1.366939 0.068739 -0.026252 -216417.000000 0 0 1
27.660494 -26.842708 8.993521 39.579254 -0.770395 1.341566 0.058794 -0.031157 -11073.200000 0 0 1
27.117394 -25.559838 8.933921 38.320664 -0.755839 1.335495 0.066268 -0.025288 -347912.000000 0 0 1
27.800694 -24.570948 9.879421 38.395482 -0.723806 1.310562 0.083922 -0.045097 -310867.000000 0 0 1
29.140494 -24.400648 9.497321 39.176002 -0.697101 1.325930 0.103081 -0.036099 -871460.000000 0 0 1
29.753094 -23.608548 10.431021 39.388023 -0.670754 1.302772 0.071768 -0.040714 -477552.000000 0 0 1
31.233894 -23.318348 10.136621 40.274714 -0.641304 1.316373 0.073077 -0.040978 -68118.600000 0 0 1
31.455394 -22.420048 9.085421 39.681800 -0.619236 1.339790 0.086445 -0.036422 -432682.000000 0 0 1
32.827894 -22.227748 8.866021 40.624496 -0.595191 1.350782 0.098534 -0.041652 -21750.200000 0 0 1
33.026794 -21.430348 7.556621 40.089044 -0.575586 1.381166 0.092965 -0.019529 -34624.700000 0 0 1
32.524594 -20.107148 7.480221 38.962807 -0.553704 1.377613 0.096786 -0.015907 -152395.000000 0 0 1
32.933894 -19.428248 6.317921 38.755829 -0.532972 1.407047 0.090426 -0.011562 129657.000000 0 0 1
32.480094 -17.936848 6.246821 37.625919 -0.504562 1.404000 0.105424 -0.005686 15820.800000 0 0 1
33.007294 -17.256148 7.320221 37.958421 -0.481719 1.376732 0.116159 -0.011065 -3303.420000 0 0 1
32.589094 -15.867448 7.355121 36.985440 -0.453108 1.370596 0.124263 -0.007281 53222.000000 0 0 1
33.182394 -15.036648 8.527321 37.415067 -0.425472 1.340864 0.121903 -0.033278 682290.000000 0 0 1
34.587394 -14.853848 8.359721 38.559169 -0.405641 1.352259 0.123619 -0.038106 -9995.680000 0 0 1
35.259494 -14.621948 9.539721 39.345134 -0.393110 1.325893 0.108719 -0.050026 569502.000000 0 0 1
36.813494 -14.710448 9.472321 40.759728 -0.380156 1.336258 0.112383 -0.056900 950619.000000 0 0 1
37.537594 -13.628348 8.822821 40.897983 -0.348261 1.353359 0.154887 -0.043756 -354421.000000 0 0 1
-37.146504 -13.851348 8.952621 40.643228 0.356915 1.348702 0.141537 -0.043894 -217359.000000 0 0 1
-36.352204 -12.946148 8.003521 39.409920 0.342126 1.366290 0.173405 -0.056771 -217764.000000 0 0 1
-36.895904 -13.074048 6.693121 39.711917 0.340544 1.401446 0.223647 -0.070914 396640.000000 0 0 1
-36.145904 -12.375148 5.672621 38.624465 0.329858 1.423397 0.239622 -0.062253 290519.000000 0 0 1
-34.919104 -13.160148 5.160021 37.671728 0.360414 1.433391 0.225785 -0.050839 -857957.000000 0 0 1
-33.918604 -13.328448 6.058821 36.943586 0.374417 1.406050 0.202907 -0.053732 -958376.000000 0 0 1
-32.939604 -14.245248 5.615921 36.324691 0.408177 1.415570 0.187776 -0.027865 215006.000000 0 0 1
-32.115404 -14.858948 6.748121 36.023945 0.433343 1.382360 0.139072 -0.020310 517900.000000 0 0 1
-32.968504 -15.777248 7.442121 37.299182 0.446345 1.369923 0.116322 -0.032330 937292.000000 0 0 1
-32.331704 -16.106748 8.689321 37.151995 0.462184 1.334724 0.100234 -0.036697 921111.000000 0 0 1
-33.347304 -17.001748 9.504421 38.619116 0.471488 1.322135 0.059533 -0.023998 132500.000000 0 0 1
-34.370904 -16.166348 10.057221 39.291952 0.439647 1.311954 0.075737 -0.019037 1215570.000000 0 0 1
-35.464404 -16.721648 10.809521 40.671651 0.440593 1.301788 0.087463 -0.021241 773620.000000 0 0 1
-36.200104 -17.979148 10.225221 41.692354 0.460972 1.323015 0.094977 -0.029088 -927046.000000 0 0 1
-35.518904 -19.196348 10.416221 41.696402 0.495485 1.318311 0.106658 -0.023476 -272270.000000 0 0 1
-35.550504 -19.686948 11.763221 42.305882 0.505736 1.289031 0.110603 -0.036736 696045.000000 0 0 1
-36.858704 -20.463648 12.176421 43.881547 0.506820 1.289622 0.092920 -0.046837 663162.000000 0 0 1
-36.816204 -21.765548 11.667621 44.331764 0.533920 1.304470 0.131421 -0.053127 265586.000000 0 0 1
37.887294 -22.179248 11.572021 45.401297 -0.529616 1.313070 0.128197 -0.051206 277312.000000 0 0 1
37.628894 -23.687248 11.588721 45.949078 -0.561826 1.315835 0.124445 -0.050669 -378346.000000 0 0 1
38.020094 -24.293748 12.808921 46.901836 -0.568583 1.294182 0.136608 -0.049406 205782.000000 0 0 1
37.652194 -25.680418 12.960721 47.383033 -0.598572 1.293734 0.118585 -0.048614 1564440.000000 0 0 1
36.117294 -25.996898 13.299821 46.445483 -0.623885 1.280378 0.114860 -0.052785 1168660.000000 0 0 1
35.188594 -25.650568 12.315521 45.253296 -0.629890 1.295173 0.113170 -0.051215 -79560.500000 0 0 1
33.959994 -25.131818 12.789121 44.141263 -0.637097 1.276850 0.108954 -0.018952 52986.000000 0 0 1
33.877494 -23.685748 13.282521 43.418022 -0.610161 1.259890 0.116245 -0.027892 -617938.000000 0 0 1
34.731094 -23.375348 14.353521 44.256969 -0.592401 1.240501 0.117766 -0.037369 -203673.000000 0 0 1
34.891594 -22.039148 14.690821 43.806022 -0.563364 1.228808 0.113693 -0.042470 261539.000000 0 0 1
36.281394 -21.700648 15.304321 44.960871 -0.539036 1.223463 0.089847 -0.038137 260824.000000 0 0 1
36.552294 -20.418848 15.867221 44.774638 -0.509437 1.208546 0.106023 -0.011386 11438.500000 0 0 1
35.896294 -20.187048 17.091021 44.588830 -0.512292 1.177427 0.106798 -0.022937 -155094.000000 0 0 1
36.108594 -18.821348 17.737921 44.415172 -0.480497 1.159971 0.101566 -0.007357 -245363.000000 0 0 1
35.500194 -17.777148 16.945521 43.167597 -0.464257 1.167392 0.084241 -0.019909 284357.000000 0 0 1
35.347594 -16.496748 17.610521 42.798663 -0.436655 1.146726 0.086285 -0.019930 -77309.200000 0 0 1
36.630194 -15.721348 17.981821 43.729598 -0.405415 1.147021 0.072321 -0.023243 142585.000000 0 0 1
37.381894 -16.251448 19.083421 45.007694 -0.410092 1.132935 0.098764 -0.015695 398157.000000 0 0 1
-37.644904 -15.358148 19.434321 45.063337 0.387362 1.124900 0.106605 -0.015561 -198711.000000 0 0 1
-37.084004 -15.430148 20.861421 45.260487 0.394297 1.091766 0.105983 -0.007015 -765015.000000 0 0 1
-36.225804 -16.467148 21.081321 45.032188 0.426647 1.083613 0.106161 -0.002672 -230531.000000 0 0 1
-35.637004 -16.287148 22.383421 45.125212 0.428684 1.051777 0.098117 -0.005665 208056.000000 0 0 1
-34.493904 -17.276848 22.699021 44.761193 0.464341 1.038964 0.098028 0.005243 -473147.000000 0 0 1
-34.963204 -18.563448 23.086421 45.825867 0.488094 1.042821 0.095090 0.001945 1395300.000000 0 0 1
-33.944104 -19.449648 23.656121 45.717645 0.520323 1.026940 0.067310 0.011819 1234150.000000 0 0 1
-32.785904 -20.046248 22.772421 44.669349 0.548781 1.035844 0.061121 0.019087 423826.000000 0 0 1
-31.683504 -19.193448 22.552821 43.368913 0.544664 1.023919 0.071729 0.033362 -309479.000000 0 0 1
-30.558104 -20.004048 22.309321 42.797961 0.579619 1.022457 0.057655 0.034709 -786602.000000 0 0 1
-29.367804 -19.091848 22.075921 41.404261 0.576442 1.008441 0.058862 0.030156 -702380.000000 0 0 1
-29.027404 -18.377248 23.265221 41.491974 0.564403 0.975546 0.043274 0.025594 730751.000000 0 0 1
-27.814804 -17.615348 23.170721 40.259733 0.564552 0.957543 0.055382 0.014755 397410.000000 0 0 1
-27.377304 -17.021548 24.541621 40.515935 0.556251 0.920116 0.053462 -0.005237 -1661910.000000 0 0 1
-26.257604 -16.273548 24.368721 39.346216 0.554826 0.902893 0.057729 -0.010625 -1001780.000000 0 0 1
-25.810304 -15.748648 25.598621 39.616677 0.547863 0.868257 0.066251 -0.019247 202291.000000 0 0 1
-24.790004 -16.595248 26.433321 39.858086 0.589915 0.845729 0.048662 -0.008174 -692229.000000 0 0 1
-25.236704 -17.840848 26.838021 40.932462 0.615369 0.855732 0.061551 -0.012083 -476702.000000 0 0 1
-24.348504 -18.556148 27.655121 41.255133 0.651204 0.836124 0.044676 -0.012878 -702870.000000 0 0 1
-24.965604 -19.879448 28.174621 42.570918 0.672465 0.847542 0.035710 -0.002858 707594.000000 0 0 1
-26.113204 -19.716448 29.038521 43.747839 0.646717 0.844948 0.044625 -0.012477 685418.000000 0 0 1
-26.488104 -20.890648 29.725721 44.962844 0.667801 0.848489 0.038452 -0.011376 -386956.000000 0 0 1
-27.652404 -20.726648 30.716621 46.235919 0.643208 0.844179 0.057577 -0.018593 -674123.000000 0 0 1
-27.446404 -19.995048 31.875821 46.574403 0.629607 0.817007 0.063993 -0.026985 197422.000000 0 0 1
-28.557804 -20.108248 32.755621 47.883405 0.613489 0.817468 0.079885 -0.029693 1766770.000000 0 0 1
-29.897204 -19.299848 32.401521 48.126765 0.573234 0.832196 0.067557 -0.036552 1233240.000000 0 0 1
-30.700004 -19.703748 31.292321 48.061807 0.570600 0.861783 0.085928 -0.041697 992710.000000 0 0 1
-32.069204 -19.345948 31.487021 48.929868 0.542810 0.871717 0.103559 -0.047219 153019.000000 0 0 1
-33.057204 -19.912948 30.515421 49.198528 0.542167 0.901734 0.096886 -0.029584 -704246.000000 0 0 1
-33.207604 -19.223948 29.311121 48.285059 0.524762 0.918462 0.089915 -0.043220 223671.000000 0 0 1
-34.446004 -19.570548 28.730421 48.938437 0.516672 0.943358 0.092620 -0.041605 -99643.800000 0 0 1
-34.888504 -18.710948 27.533521 48.222423 0.492270 0.963110 0.087682 -0.029299 -413075.000000 0 0 1
-35.998404 -19.313448 26.922521 48.925622 0.492426 0.988103 0.075990 -0.029891 -186659.000000 0 0 1
-36.578904 -18.304248 26.144921 48.545016 0.463971 1.002057 0.094466 -0.026807 -778311.000000 0 0 1
-37.797504 -18.726748 25.337421 49.206984 0.460000 1.029888 0.076767 -0.025816 -117177.000000 0 0 1
37.134994 -19.071348 26.160821 49.265735 -0.474443 1.010999 0.072918 -0.025227 648478.000000 0 0 1
36.132794 -19.598048 25.276821 48.255362 -0.496981 1.019474 0.102245 -0.026763 553504.000000 0 0 1
34.771694 -19.973348 25.932321 47.754482 -0.521394 0.996750 0.087502 -0.023202 407008.000000 0 0 1
34.104794 -18.859748 26.483821 47.119209 -0.505139 0.973922 0.086941 -0.034522 573817.000000 0 0 1
32.791694 -19.097448 26.974121 46.557608 -0.527368 0.952840 0.079412 -0.022899 317791.000000 0 0 1
-30.233576 -4.952148 33.361069 45.294082 0.162355 0.742850 0.061913 -0.025504 -618039.000000 0 0 1
-31.396626 -4.901348 32.595827 45.522075 0.154861 0.772677 0.081453 -0.027189 -219093.000000 0 0 1
-31.371956 -3.827048 31.655455 44.731575 0.121390 0.784593 0.078962 -0.030123 261217.000000 0 0 1
-32.324246 -3.893848 30.390879 44.537899 0.119884 0.819810 0.079178 -0.034351 402114.000000 0 0 1
-32.088666 -4.990948 29.517859 43.885032 0.154300 0.833055 0.068310 -0.034447 1141050.000000 0 0 1
-30.832436 -4.871548 28.778129 42.456470 0.156705 0.825994 0.066479 -0.031804 1108920.000000 0 0 1
-30.699656 -5.897548 27.644189 41.730698 0.189793 0.846722 0.071062 -0.030798 347363.000000 0 0 1
-31.409286 -5.698448 26.387519 41.416382 0.179473 0.880031 0.064366 -0.038759 110500.000000 0 0 1
-30.788596 -6.413848 25.389739 40.419228 0.205382 0.891610 0.087372 -0.034657 33867.300000 0 0 1
-31.441556 -5.998048 24.043059 40.032696 0.188503 0.926563 0.090821 -0.029420 165949.000000 0 0 1
-31.156476 -4.672548 23.624049 39.378349 0.148861 0.927389 0.110319 -0.038065 -14143.200000 0 0 1
-31.865556 -4.341248 22.456489 39.224406 0.135403 0.961229 0.118638 -0.031927 -167869.000000 0 0 1
-31.203676 -3.085948 21.883589 38.237206 0.098576 0.961475 0.112935 -0.029633 -350938.000000 0 0 1
-29.963246 -3.401848 21.327789 36.935664 0.113050 0.955218 0.128138 -0.030428 -791659.000000 0 0 1
-29.369476 -2.275248 20.803489 36.062835 0.077315 0.955907 0.134613 -0.030834 -922348.000000 0 0 1
-27.935266 -2.560448 20.415089 34.694536 0.091401 0.941688 0.137823 -0.034880 -816604.000000 0 0 1
-27.758116 -3.152448 19.138589 33.863499 0.113084 0.970159 0.160328 -0.032211 168427.000000 0 0 1
-26.427856 -3.011548 18.653089 32.487517 0.113464 0.959216 0.153313 -0.029640 203530.000000 0 0 1
-26.266936 -3.594148 17.220089 31.613309 0.135987 0.994753 0.157748 -0.032691 -373628.000000 0 0 1
-27.010816 -2.974248 16.237589 31.655800 0.109671 1.032188 0.161797 -0.030231 -250040.000000 0 0 1
-26.630696 -3.368448 14.960789 30.730533 0.125819 1.062330 0.165351 -0.031868 -435138.000000 0 0 1
-27.829876 -3.687048 14.072589 31.402772 0.131718 1.106122 0.182834 -0.025642 -82803.400000 0 0 1
-28.456066 -2.528048 13.549689 31.618552 0.088608 1.127924 0.183511 -0.030317 798618.000000 0 0 1
-29.783386 -2.764348 13.039489 32.630047 0.092550 1.159698 0.182113 -0.029653 821548.000000 0 0 1
-30.179606 -1.555348 12.213789 32.594545 0.051491 1.186703 0.192017 -0.027194 -50850.100000 0 0 1
-29.508406 -1.486748 10.927189 31.501745 0.050341 1.216558 0.218578 -0.034371 530343.000000 0 0 1
-29.846176 -0.269648 10.212789 31.546284 0.009034 1.241117 0.213861 -0.029655 484165.000000 0 0 1
-31.272686 -0.264748 9.581989 32.708799 0.008466 1.273487 0.214763 -0.024441 429027.000000 0 0 1
-31.251936 -0.790148 8.330289 32.352768 0.025278 1.310380 0.220380 -0.033804 518284.000000 0 0 1
-32.575296 -0.822548 7.789989 33.503887 0.025245 1.336139 0.214306 -0.042003 417127.000000 0 0 1
-32.829476 -1.687648 6.524089 33.513973 0.051361 1.374878 0.250828 -0.048628 39528.600000 0 0 1
-32.320796 -1.327948 5.235489 32.769005 0.041063 1.410339 0.260564 -0.061923 853933.000000 0 0 1
-33.146986 -0.285148 4.688989 33.478211 0.008602 1.430273 0.237080 -0.046131 512387.000000 0 0 1
-32.657096 -0.031948 3.236389 32.817087 0.000978 1.472017 0.243657 -0.043617 173675.000000 0 0 1
-33.110826 -1.003148 2.291389 33.205174 0.030287 1.501734 0.208538 -0.061949 170452.000000 0 0 1
-32.686506 -0.682148 1.018589 32.709487 0.020866 1.539651 0.221229 -0.069836 -257279.000000 0 0 1
-33.206226 -1.683548 -0.063811 33.248938 0.050656 1.572716 0.188783 -0.066366 49653.100000 0 0 1
-34.549887 -1.379848 -0.350411 34.579206 0.039917 1.580930 0.203926 -0.060938 -526.094000 0 0 1
-35.155760 -2.244648 -1.330111 35.252449 0.063762 1.608536 0.206749 -0.070011 342702.000000 0 0 1
-36.696726 -2.062748 -1.326511 36.778585 0.056152 1.606872 0.195742 -0.053235 20103.000000 0 0 1
-37.397646 -2.617348 -0.231811 37.489841 0.069873 1.576980 0.204630 -0.057150 -27417.500000 0 0 1
37.385321 -2.019448 -0.141911 37.440092 -0.053965 1.574587 0.158671 -0.039552 -330054.000000 0 0 1
36.314171 -2.925248 0.455289 36.434645 -0.080380 1.558300 0.183685 -0.049750 -327320.000000 0 0 1
36.577981 -3.061748 1.855089 36.752746 -0.083510 1.520300 0.183315 -0.054131 286093.000000 0 0 1
35.878621 -4.192648 2.332489 36.197987 -0.116329 1.506315 0.176599 -0.050710 -101258.000000 0 0 1
35.903551 -4.368648 3.882089 36.376100 -0.121082 1.463872 0.160844 -0.043243 280695.000000 0 0 1
35.119511 -3.420948 4.619389 35.586819 -0.097102 1.440623 0.163664 -0.047303 369180.000000 0 0 1
34.939921 -3.838848 5.971089 35.653734 -0.109431 1.402529 0.159527 -0.050136 2639.360000 0 0 1
34.324601 -2.687548 6.832589 35.101074 -0.078139 1.374891 0.153490 -0.046010 -156773.000000 0 0 1
32.960341 -2.431748 6.599189 33.702326 -0.073645 1.373715 0.173945 -0.049841 -312791.000000 0 0 1
32.599911 -1.517148 7.582789 33.504546 -0.046505 1.342497 0.175446 -0.042621 123457.000000 0 0 1
31.076391 -1.349748 7.819189 32.073409 -0.043406 1.324524 0.173735 -0.046430 -865238.000000 0 0 1
30.289891 -0.764648 6.837789 31.061512 -0.025239 1.348841 0.222545 -0.047623 809225.000000 0 0 1
28.914191 -0.705248 7.272089 29.822996 -0.024386 1.324471 0.201716 -0.034935 1160230.000000 0 0 1
28.103391 -2.047548 7.094189 29.057194 -0.072729 1.324158 0.259344 -0.049773 -789445.000000 0 0 1
28.448691 -3.063848 7.951889 29.697604 -0.107284 1.299727 0.204609 -0.053625 -38989.600000 0 0 1
27.692391 -4.192848 7.688189 29.044048 -0.150267 1.302895 0.226613 -0.058764 -369792.000000 0 0 1
27.817791 -5.328348 8.731489 29.638820 -0.189252 1.271763 0.187868 -0.038195 -229276.000000 0 0 1
27.198391 -5.146948 9.996189 29.430721 -0.187026 1.224250 0.180065 -0.035386 331134.000000 0 0 1
27.308391 -6.329348 10.716589 30.010900 -0.227752 1.205646 0.167852 -0.028135 -1006160.000000 0 0 1
26.294891 -6.507748 11.805389 29.548930 -0.242616 1.159803 0.151651 -0.031543 -1004240.000000 0 0 1
25.109991 -6.975448 11.236189 28.379930 -0.270964 1.163727 0.186559 -0.038969 -752345.000000 0 0 1
24.033391 -6.775248 12.110889 27.752144 -0.274779 1.119209 0.196098 -0.047593 183265.000000 0 0 1
22.929291 -7.862748 12.148389 27.113807 -0.330347 1.106211 0.191241 -0.045768 18611.300000 0 0 1
23.402891 -9.037848 12.726389 28.130748 -0.368541 1.101340 0.168852 -0.045343 98836.000000 0 0 1
22.468791 -10.078648 12.915289 27.807021 -0.421658 1.087770 0.228649 -0.070076 -125357.000000 0 0 1
23.046291 -11.074648 13.990689 29.146504 -0.447958 1.070127 0.168015 -0.063965 13113.200000 0 0 1
22.939791 -10.711048 15.325589 29.594496 -0.436835 1.026457 0.133890 -0.047621 219742.000000 0 0 1
23.452791 -11.775448 16.073089 30.773995 -0.465319 1.021257 0.130341 -0.045745 -195846.000000 0 0 1
23.149691 -11.615148 17.517089 31.267687 -0.465039 0.976133 0.132599 -0.036131 774742.000000 0 0 1
21.756991 -11.740148 17.861789 30.499856 -0.494826 0.945133 0.122589 -0.029716 809075.000000 0 0 1
21.504991 -12.075848 19.225789 31.271739 -0.511658 0.908667 0.132452 -0.022350 35788.700000 0 0 1
21.749691 -11.015648 20.337289 31.748998 -0.468813 0.875563 0.120316 -0.021537 383830.000000 0 0 1
20.726591 -10.006048 20.500889 30.822054 -0.449764 0.843119 0.103833 -0.022620 625029.000000 0 0 1
20.842391 -8.868548 19.612389 29.961679 -0.402299 0.857166 0.122814 -0.015680 -835202.000000 0 0 1
21.730791 -7.729348 20.137989 30.618764 -0.341732 0.853034 0.129207 -0.006132 1086050.000000 0 0 1
23.134791 -7.991048 20.301289 31.799650 -0.332582 0.878363 0.147085 -0.012754 1223220.000000 0 0 1
23.922991 -8.188248 19.126389 31.704505 -0.329777 0.923201 0.159617 -0.011091 -28367.100000 0 0 1
25.387191 -8.629248 19.422889 33.109243 -0.327654 0.943905 0.189699 -0.010929 495258.000000 0 0 1
25.448291 -9.925948 19.907889 33.800355 -0.371894 0.940995 0.144949 -0.021900 397367.000000 0 0 1
26.787391 -10.401648 19.796689 34.895092 -0.370383 0.967548 0.120902 -0.026886 548961.000000 0 0 1
26.855791 -11.915548 19.970089 35.524896 -0.417591 0.973821 0.093126 -0.026421 342925.000000 0 0 1
26.159191 -12.683048 18.953489 34.704434 -0.451447 0.993047 0.108997 -0.036246 376676.000000 0 0 1
26.185791 -14.040848 19.359189 35.462928 -0.492187 0.993334 0.090070 -0.031345 126927.000000 0 0 1
25.153291 -14.874948 18.560389 34.618494 -0.534051 1.004938 0.110032 -0.031335 -262707.000000 0 0 1
25.408491 -14.887348 17.165389 34.086289 -0.530002 1.043051 0.122789 -0.040271 18831.800000 0 0 1
24.438991 -15.554648 16.399889 33.289153 -0.566804 1.055664 0.110047 -0.046063 -443692.000000 0 0 1
24.384991 -17.093248 16.552589 34.070443 -0.611379 1.063479 0.083790 -0.033040 340995.000000 0 0 1
25.450491 -17.787448 15.882089 34.876375 -0.609990 1.097995 0.114131 -0.043040 568000.000000 0 0 1
25.131591 -19.176948 15.949589 35.408213 -0.651808 1.103528 0.091969 -0.023759 -732379.000000 0 0 1
26.298391 -20.032248 15.588089 36.549758 -0.650966 1.130188 0.091348 -0.014587 -802935.000000 0 0 1
26.740191 -19.942548 14.237189 36.269003 -0.640801 1.167400 0.099499 -0.027724 -69123.400000 0 0 1
27.662891 -20.929648 13.900189 37.369787 -0.647710 1.189673 0.100356 -0.035250 -372695.000000 0 0 1
27.950091 -20.889548 12.377989 37.024254 -0.641827 1.229912 0.080884 -0.050134 -206783.000000 0 0 1
26.808491 -21.104448 11.579389 36.030198 -0.666906 1.243610 0.087435 -0.041403 304019.000000 0 0 1
27.171791 -20.799348 10.286789 35.731458 -0.653332 1.278772 0.116305 -0.032867 -409487.000000 0 0 1
25.936191 -20.544448 9.424189 34.403135 -0.669915 1.293315 0.074511 -0.035242 -36299.900000 0 0 1
25.347991 -21.761548 8.984489 34.594893 -0.709415 1.308079 0.057402 -0.032840 879520.000000 0 0 1
24.094991 -22.104848 9.649489 34.092602 -0.742348 1.283837 0.041103 -0.019412 914522.000000 0 0 1
23.342191 -23.146948 8.779889 34.025366 -0.781198 1.309804 0.045876 -0.018989 -383591.000000 0 0 1
23.776391 -24.542048 8.804889 35.286753 -0.801243 1.318608 0.044363 -0.016104 42038.000000 0 0 1
23.291091 -25.417968 7.782589 35.342845 -0.829035 1.348774 0.049353 -0.007915 670319.000000 0 0 1
21.759091 -25.740798 7.741689 34.582951 -0.869028 1.345025 0.048113 0.005737 1098220.000000 0 0 1
20.901491 -24.653848 7.342389 33.145063 -0.867582 1.347420 0.050954 -0.003936 -94979.700000 0 0 1
19.542991 -25.018668 7.399189 32.597703 -0.907664 1.341816 0.051963 -0.018996 -9515.000000 0 0 1
18.612891 -23.795248 7.351389 31.091743 -0.906997 1.332094 0.060686 -0.018257 -180828.000000 0 0 1
18.496491 -23.229948 6.058489 30.306038 -0.898356 1.369530 0.058337 -0.014740 -98845.700000 0 0 1
17.605691 -22.161048 6.071989 28.947218 -0.899453 1.359466 0.074526 -0.009746 -317114.000000 0 0 1
17.171891 -21.574548 4.718289 27.974939 -0.898540 1.401325 0.081394 -0.001424 -16475.900000 0 0 1
16.152991 -20.602248 4.851189 26.625285 -0.905863 1.387571 0.117385 -0.008041 55897.600000 0 0 1
15.928691 -20.074648 3.599289 25.877975 -0.900048 1.431257 0.135078 -0.014750 -224759.000000 0 0 1
15.039391 -18.864848 3.574289 24.389369 -0.897754 1.423716 0.136251 -0.014265 -564306.000000 0 1 0
15.687391 -17.752848 4.092089 24.041694 -0.847085 1.399756 0.109242 -0.009501 -135855.000000 0 1 0
14.994091 -16.537948 4.030389 22.684147 -0.834321 1.392174 0.080284 -0.007509 18968.600000 0 1 0
16.000691 -15.364248 4.178589 22.573055 -0.765109 1.384608 0.080120 -0.016465 -467453.000000 0 1 0
16.419991 -15.116548 5.521689 22.991633 -0.744090 1.328265 0.104727 -0.024540 98050.900000 0 1 0
17.401191 -14.103948 5.461989 23.055501 -0.681120 1.331616 0.096875 -0.033056 -166867.000000 0 1 0
18.843691 -14.566148 5.256289 24.390283 -0.658059 1.353585 0.124514 -0.038414 -1044910.000000 0 1 0
19.773291 -13.538948 5.132389 24.507704 -0.600390 1.359815 0.150032 -0.036860 90171.400000 0 1 0
21.092691 -13.999348 4.900289 25.785581 -0.585950 1.379594 0.161226 -0.022595 -12407.200000 0 0 1
22.160091 -12.945548 4.681089 26.087726 -0.528708 1.390383 0.149943 -0.021421 -293193.000000 0 0 1
22.360691 -12.144748 5.809889 26.100770 -0.497553 1.346321 0.183580 -0.038441 514085.000000 0 0 1
23.492191 -11.275348 5.826489 26.701395 -0.447489 1.350817 0.186084 -0.042601 252464.000000 0 0 1
23.905191 -10.665548 7.164489 27.139307 -0.419656 1.303640 0.212873 -0.046237 -54568.100000 0 0 1
24.687491 -11.425948 8.056589 28.371343 -0.433467 1.282865 0.217299 -0.029516 411687.000000 0 0 1
24.559691 -10.858748 9.385589 28.446091 -0.416296 1.234553 0.239470 -0.059559 225863.000000 0 0 1
25.113891 -11.815648 10.543989 29.689944 -0.439756 1.207736 0.203314 -0.051124 -54237.500000 0 0 1
24.320191 -12.941148 10.724289 29.562736 -0.489009 1.199564 0.214206 -0.056031 -107978.000000 0 0 1
24.709491 -13.687348 11.868489 30.639247 -0.505856 1.173028 0.215913 -0.063141 -115634.000000 0 0 1
23.713891 -14.796948 12.279189 30.529932 -0.557864 1.156876 0.176491 -0.066281 1049830.000000 0 0 1
22.588091 -14.208648 13.004389 29.685378 -0.561494 1.117341 0.166407 -0.063563 1466810.000000 0 0 1
21.496491 -15.120448 13.223889 29.421052 -0.612998 1.104624 0.131242 -0.063279 1317560.000000 0 0 1
20.148691 -14.562848 13.784789 28.426514 -0.625844 1.064516 0.118939 -0.059674 290104.000000 0 0 1
20.222091 -14.101248 15.109789 28.915115 -0.608924 1.020949 0.120105 -0.060038 217789.000000 0 0 1
19.805391 -12.737248 15.249389 28.054141 -0.571524 0.996112 0.149776 -0.069487 -376680.000000 0 0 1
18.313291 -12.378348 15.359289 26.916684 -0.594383 0.963532 0.171246 -0.066383 -691789.000000 0 0 1
17.667491 -12.648548 14.075989 25.889370 -0.621332 0.995960 0.186520 -0.085766 -67288.200000 0 0 1
16.286691 -12.726548 14.332489 25.152367 -0.663301 0.964501 0.224920 -0.073606 -314207.000000 0 0 1
15.524591 -11.416148 14.090189 23.872050 -0.634065 0.939443 0.182048 -0.066865 -724400.000000 0 1 0
15.888791 -10.463948 15.029689 24.245400 -0.582379 0.902183 0.158817 -0.054859 -21824.800000 0 1 0
15.359391 -9.220148 14.719189 23.185697 -0.540636 0.882996 0.145606 -0.048582 -817860.000000 0 1 0
15.756491 -8.047648 15.716189 23.664958 -0.472212 0.844491 0.159217 -0.044801 892161.000000 0 1 0
17.177791 -7.768748 15.658189 24.507322 -0.424728 0.877704 0.152611 -0.055085 764291.000000 0 1 0
17.826291 -8.545848 16.579389 25.800858 -0.447029 0.872922 0.159065 -0.048413 -438363.000000 0 0 1
19.328091 -8.707348 16.173389 26.664049 -0.423272 0.919068 0.125796 -0.040075 692032.000000 0 0 1
20.113891 -7.535548 16.327289 26.980242 -0.358459 0.920833 0.110529 -0.034136 -15753.300000 0 0 1
21.335591 -7.572548 15.644589 27.519158 -0.341056 0.966117 0.109548 -0.024113 -612931.000000 0 0 1
22.289591 -6.439548 15.800389 28.070374 -0.281246 0.972924 0.108397 -0.003293 -507299.000000 0 0 1
22.943891 -6.275448 17.040289 29.260465 -0.266983 0.949161 0.147473 -0.011804 468571.000000 0 0 1
23.344091 -4.882848 17.305989 29.466693 -0.206196 0.943069 0.149067 -0.012467 20392.600000 0 0 1
-5.066506 -32.828148 -6.388779 33.825631 1.417670 1.760812 0.094293 -0.035696 -145719.000000 0 0 1
-5.897806 -31.745148 -6.730179 32.982327 1.387105 1.776294 0.082811 -0.031175 7721.080000 0 0 1
-5.536606 -30.691748 -5.923779 31.744741 1.392322 1.758503 0.102242 -0.041828 -576399.000000 0 0 1
-6.379006 -29.385548 -6.056379 30.673798 1.357033 1.769547 0.094951 -0.040431 -309175.000000 0 0 1
-7.657906 -29.417248 -5.517279 30.894310 1.316128 1.750345 0.085189 -0.039791 -589140.000000 0 0 1
-8.631106 -29.959348 -6.382579 31.824454 1.290298 1.772722 0.083531 -0.030966 60374.900000 0 0 1
-10.084806 -29.749748 -5.825379 31.948175 1.243965 1.754161 0.114793 -0.032679 982374.000000 0 0 1
-11.088206 -30.311948 -6.677279 32.959803 1.220113 1.774797 0.089067 -0.031576 399038.000000 0 0 1
-12.369106 -29.842848 -6.287879 32.910907 1.177874 1.763036 0.088758 -0.026726 430048.000000 0 0 1
-13.602806 -30.319448 -7.081079 33.977154 1.149066 1.780742 0.101550 -0.033118 192652.000000 0 0 1
-13.751006 -29.716348 -8.346379 33.790732 1.137397 1.820382 0.130184 -0.053256 81392.900000 0 0 1
-14.969106 -30.116848 -8.940679 34.799920 1.109524 1.830627 0.121986 -0.045063 198618.000000 0 0 1
-15.262306 -29.419748 -10.292179 34.704301 1.092240 1.871893 0.151654 -0.039474 -95380.000000 0 0 1
-15.768406 -28.098648 -10.149679 33.781543 1.059410 1.875961 0.162369 -0.044172 727481.000000 0 0 1
-14.699206 -27.150448 -9.993579 32.451273 1.074581 1.883841 0.156114 -0.045652 393154.000000 0 0 1
-15.172606 -25.708048 -9.611779 31.360772 1.037622 1.882300 0.146037 -0.031083 217494.000000 0 0 1
-15.972406 -25.095448 -10.624879 31.587772 1.003994 1.913846 0.166230 -0.044099 417080.000000 0 0 1
-16.361906 -23.798948 -10.238179 30.641838 0.968505 1.911472 0.113883 -0.018120 -420448.000000 0 0 1
-17.030006 -23.015748 -11.341079 30.795549 0.933772 1.947944 0.151000 -0.027585 -339013.000000 0 0 1
-18.309006 -23.556148 -11.579679 32.003137 0.910082 1.941026 0.162845 -0.036970 -577453.000000 0 0 1
-19.041206 -22.819848 -12.550979 32.262053 0.875420 1.970377 0.183977 -0.035392 1252690.000000 0 0 1
-20.519906 -23.422048 -12.622179 33.600272 0.851347 1.955902 0.155031 -0.031468 984538.000000 0 0 1
-20.658206 -24.796448 -12.964879 34.780935 0.876189 1.952776 0.184742 -0.030976 -291077.000000 0 0 1
-20.366006 -25.579248 -11.850879 34.778089 0.898381 1.918518 0.179490 -0.032513 -1032530.000000 0 0 1
-20.077306 -27.034148 -12.373179 35.875325 0.932006 1.922922 0.176531 -0.036323 -150891.000000 0 0 1
-19.134006 -27.353848 -13.323979 35.942616 0.960406 1.950560 0.164079 -0.045847 -998130.000000 0 0 1
-17.783606 -27.114548 -13.059379 34.957156 0.990306 1.953664 0.176304 -0.049532 -472865.000000 0 0 1
-16.918706 -28.250548 -13.662079 35.650926 1.031200 1.964074 0.154567 -0.042580 -233782.000000 0 0 1
-17.001806 -28.375648 -15.083179 36.355758 1.030988 1.998604 0.161153 -0.059130 -160668.000000 0 0 1
-16.509606 -29.559048 -15.631779 37.291513 1.061428 2.003336 0.179096 -0.054560 5474.630000 0 0 1
-17.323906 -30.852748 -15.245279 38.528280 1.059165 1.977616 0.148952 -0.052264 19663.100000 0 0 1
-17.167206 -31.240848 -13.929879 38.271989 1.068328 1.943324 0.159020 -0.045431 161812.000000 0 0 1
-17.543206 -32.612648 -13.714779 39.489797 1.077270 1.925486 0.132129 -0.041752 -585584.000000 0 0 1
-17.950606 -32.832448 -12.253979 39.374534 1.070464 1.887268 0.167076 -0.046578 1238550.000000 0 0 1
-19.281006 -32.465648 -11.779579 39.554191 1.034882 1.873193 0.188431 -0.044868 1439650.000000 0 0 1
-19.709006 -31.122148 -11.759979 38.669499 1.006266 1.879806 0.184152 -0.046191 -270230.000000 0 0 1
-18.987006 -30.237648 -10.743579 37.286006 1.010096 1.863080 0.196105 -0.043026 -455319.000000 0 0 1
-19.336006 -30.544748 -9.447779 37.364734 1.006437 1.826424 0.204476 -0.046988 35336.700000 0 0 1
-18.962106 -29.562248 -8.543679 36.145296 1.000469 1.809425 0.192237 -0.038234 -209418.000000 0 0 1
-19.141206 -29.869148 -7.010879 36.162193 1.000891 1.765905 0.218923 -0.046512 -15904.300000 0 0 1
-18.397506 -31.012848 -6.618379 36.661532 1.035375 1.752318 0.210869 -0.041020 126021.000000 0 0 1
-18.397406 -31.087748 -5.202279 36.496251 1.036436 1.713826 0.231752 -0.053509 -722153.000000 0 0 1
-17.558506 -32.286148 -4.698479 37.050941 1.072695 1.697950 0.206354 -0.039969 -42587.900000 0 0 1
-16.193406 -31.972148 -4.600379 36.133200 1.101974 1.698460 0.196302 -0.031902 -259958.000000 0 0 1
-15.975806 -31.563948 -3.201179 35.521216 1.102248 1.661039 0.176187 -0.038948 -396427.000000 0 0 1
-14.730706 -30.682448 -3.036479 34.170551 1.123193 1.659776 0.162653 -0.041282 267367.000000 0 0 1
-13.482506 -31.340148 -3.171379 34.264275 1.164530 1.663485 0.092935 -0.044297 535549.000000 0 0 1
-12.463006 -30.839648 -2.290479 33.341517 1.186741 1.639548 0.097170 -0.029025 141666.000000 0 0 1
-11.143306 -31.563848 -2.469379 33.564082 1.231416 1.644435 0.096054 -0.038556 -1443010.000000 0 0 1
-11.235706 -32.711248 -1.675079 34.627630 1.239940 1.619189 0.102018 -0.032062 208571.000000 0 0 1
-9.990706 -33.356548 -1.450379 34.850784 1.279787 1.612425 0.123446 -0.038398 -60386.200000 0 0 1
-8.938606 -32.554548 -0.702179 33.766705 1.302827 1.591593 0.141885 -0.043422 -1246070.000000 0 0 1
-9.487206 -32.183848 0.543121 33.557446 1.284134 1.554611 0.150813 -0.044282 552884.000000 0 0 1
-8.487706 -31.633448 1.438021 32.783900 1.308656 1.526919 0.152631 -0.039514 1292910.000000 0 0 1
-7.409506 -32.562948 2.054521 33.458443 1.347062 1.509353 0.170858 -0.044767 264176.000000 0 0 1
-8.105606 -33.541248 2.817921 34.621624 1.333682 1.489314 0.177500 -0.057759 294215.000000 0 0 1
-7.248006 32.888152 3.215721 33.830533 -1.353880 1.475599 0.178101 -0.048415 109923.000000 0 0 1
-6.597006 33.211752 4.579021 34.168822 -1.374714 1.436380 0.189288 -0.045516 569939.000000 0 0 1
-5.443706 -33.472748 4.309221 34.185204 1.409577 1.444405 0.195626 -0.044080 191676.000000 0 0 1
-4.731006 -33.117848 5.480921 33.900071 1.428903 1.408405 0.206002 -0.045354 416553.000000 0 0 1
-3.396506 -32.357048 5.211221 32.949532 1.466210 1.411972 0.212681 -0.044284 335057.000000 0 0 1
-3.542706 -31.113448 4.554621 31.643988 1.457420 1.426361 0.218944 -0.042870 23209.800000 0 0 1
-3.624506 -31.250148 3.150421 31.616989 1.455329 1.470987 0.217168 -0.047017 -117343.000000 0 0 1
-3.655106 -29.906748 2.373021 30.222585 1.449183 1.492197 0.200698 -0.042047 104510.000000 0 0 1
-2.370606 -29.352548 2.191221 29.529533 1.490208 1.496524 0.173900 -0.042391 -115710.000000 0 0 1
-2.449306 -28.065948 1.515321 28.213343 1.483747 1.517061 0.171786 -0.041330 121996.000000 0 0 1
-2.872706 -26.939448 2.445021 27.202287 1.464562 1.480792 0.188137 -0.038410 31966.200000 0 0 1
-3.001606 -25.716348 1.770221 25.951375 1.454602 1.502530 0.172941 -0.045505 -358707.000000 0 0 1
-2.967306 -24.482648 2.468821 24.785077 1.450184 1.471022 0.137064 -0.037624 -75586.500000 0 1 0
-4.228806 -23.991648 3.207621 24.571748 1.396327 1.439882 0.129396 -0.035285 -73808.600000 0 1 0
-4.367306 -24.696548 4.419021 25.466068 1.395767 1.396388 0.169176 -0.035118 778877.000000 0 0 1
-5.443606 -24.199748 5.271621 25.358443 1.349534 1.361385 0.145330 -0.031380 883183.000000 0 0 1
-6.076806 -25.286548 6.223521 26.740780 1.334951 1.335907 0.158314 -0.035341 -28943.000000 0 0 1
-5.223206 -25.752448 7.238921 27.255687 1.370687 1.301977 0.161348 -0.038203 -237943.000000 0 0 1
-5.884206 -26.607348 8.117021 28.433447 1.353150 1.281295 0.155378 -0.040887 82208.400000 0 0 1
-4.965506 -27.205948 9.221421 29.152264 1.390268 1.248949 0.148543 -0.040981 271694.000000 0 0 1
-4.519906 -26.274048 10.184821 28.539197 1.400435 1.205880 0.137466 -0.052513 626724.000000 0 0 1
-5.610906 -25.776348 10.996321 28.580089 1.356463 1.175854 0.126636 -0.053912 656932.000000 0 0 1
-5.211006 -24.630148 11.958221 27.871093 1.362301 1.127350 0.105874 -0.050746 58131.400000 0 0 1
-4.241106 -25.084848 12.878221 28.514648 1.403310 1.102199 0.087718 -0.051838 -316700.000000 0 0 1
-3.605606 -23.980048 13.463521 27.736429 1.421556 1.063965 0.090734 -0.052318 -450509.000000 0 0 1
-2.666906 -24.484148 14.522121 28.591570 1.462300 1.038032 0.094468 -0.052623 -471775.000000 0 0 1
-3.307006 -24.822748 15.767921 29.592777 1.438351 1.008855 0.088127 -0.052861 152985.000000 0 0 1
-2.707206 -25.876148 16.514021 30.815855 1.466554 1.005230 0.112210 -0.038233 -35104.900000 0 0 1
-3.332306 -25.980248 17.897721 31.723902 1.443230 0.971367 0.136319 -0.044396 -201047.000000 0 0 1
-2.854006 -25.010748 18.758021 31.393411 1.457177 0.930398 0.132271 -0.032437 -41308.800000 0 0 1
-3.482706 -25.113648 20.011421 32.299869 1.432997 0.902626 0.162986 -0.043556 -321319.000000 0 0 1
-2.843106 -24.139148 20.949221 32.088185 1.453557 0.859437 0.144933 -0.052324 -850977.000000 0 0 1
-1.819406 -24.635148 21.764521 32.922563 1.497076 0.848536 0.110962 -0.063707 134576.000000 0 0 1
-1.063806 -23.712348 22.567721 32.752239 1.525963 0.810628 0.117785 -0.064477 721788.000000 0 0 1
-0.459506 -22.440948 21.895421 31.356287 1.550323 0.797807 0.114206 -0.070055 -8382.080000 0 0 1
-1.419206 -21.415348 21.608921 30.456145 1.504623 0.781995 0.152580 -0.066761 253632.000000 0 0 1
-0.708206 -20.284548 21.138921 29.305604 1.535897 0.765080 0.164241 -0.059149 154959.000000 0 0 1
-1.620006 -19.197148 20.458821 28.101927 1.486608 0.755364 0.152254 -0.039084 313374.000000 0 0 1
-2.398906 -18.314348 21.280021 28.178172 1.440553 0.714844 0.155116 -0.065113 634605.000000 0 0 1
-3.614106 -18.845348 21.788521 29.033576 1.381320 0.722039 0.198563 -0.079213 1210300.000000 0 0 1
-4.926806 -18.735748 20.870121 28.475667 1.313655 0.748206 0.178577 -0.069329 1078580.000000 0 0 1
-5.012006 -19.646948 19.782821 28.328127 1.321020 0.797713 0.165814 -0.066037 -187767.000000 0 0 1
-5.627706 -20.886048 20.062521 29.502590 1.307599 0.822999 0.167873 -0.060445 49588.800000 0 0 1
-5.771106 -21.737248 18.774021 29.296373 1.311289 0.875216 0.125437 -0.056091 165206.000000 0 0 1
-6.440506 -22.975148 18.913021 30.447330 1.297486 0.900559 0.112356 -0.060061 -18129.000000 0 0 1
-6.454006 -23.556248 17.618821 30.116007 1.303376 0.945877 0.092683 -0.055030 -13358.900000 0 0 1
-7.039206 -24.958748 17.497121 31.283203 1.295903 0.977239 0.081559 -0.051119 414242.000000 0 0 1
-8.451106 -25.017448 17.684721 31.781178 1.245024 0.980686 0.111658 -0.050469 -122779.000000 0 0 1
-8.822506 -26.282648 17.276321 32.666274 1.246937 1.013524 0.117345 -0.049396 355605.000000 0 0 1
-10.356606 -26.542448 17.389021 33.378719 1.198775 1.022820 0.108648 -0.049333 458139.000000 0 0 1
-11.121706 -25.800548 16.453721 32.558955 1.163800 1.041007 0.126497 -0.049931 809027.000000 0 0 1
-12.551506 -25.824048 16.625021 33.178504 1.118379 1.045952 0.126443 -0.045723 1293300.000000 0 0 1
-13.117806 -24.872848 17.710121 33.232271 1.085474 1.008749 0.124151 -0.045870 -428928.000000 0 0 1
-13.031006 -23.492348 17.352921 31.981579 1.064358 0.997278 0.114658 -0.039545 72993.200000 0 0 1
-13.352606 -22.639048 18.463521 32.120402 1.037907 0.958409 0.122300 -0.038164 -556369.000000 0 0 1
-12.106506 -22.094148 19.115121 31.624464 1.069528 0.921732 0.126539 -0.041040 -109397.000000 0 0 1
-11.437406 -23.046148 19.979721 32.574967 1.110127 0.910506 0.139518 -0.044223 704674.000000 0 0 1
-10.015206 -22.952848 19.953721 32.020128 1.159361 0.898017 0.152583 -0.052548 583283.000000 0 0 1
-9.302906 -23.841048 20.963621 33.081914 1.198762 0.884485 0.160084 -0.060005 -30599.600000 0 0 1
-9.249406 -23.290748 22.259421 33.518537 1.192768 0.844516 0.173224 -0.062121 19854.300000 0 0 1
-8.322706 -24.005448 23.026621 34.289273 1.237064 0.834511 0.177256 -0.068069 -64272.800000 0 0 1
-8.200606 -23.455848 24.536021 34.920525 1.234461 0.791717 0.206958 -0.068546 41887.700000 0 0 1
-7.085306 -24.079648 25.113721 35.506760 1.284628 0.785133 0.220302 -0.064508 -217519.000000 0 0 1
-6.809906 -23.590148 26.445821 36.086720 1.289761 0.748309 0.231651 -0.070464 -63631.500000 0 0 1
-5.587506 -24.120548 27.220921 36.796734 1.343162 0.738076 0.228736 -0.068765 19751.900000 0 0 1
-4.415106 -23.934648 26.460821 35.951851 1.388382 0.743643 0.224417 -0.060081 -28511.000000 0 0 1
-3.283506 -23.765048 27.321021 36.359278 1.433500 0.720588 0.195331 -0.055507 607868.000000 0 0 1
-1.981606 -23.414848 26.540521 35.448288 1.486367 0.724681 0.165689 -0.050192 -229359.000000 0 0 1
-1.868106 -22.057748 26.111121 34.231925 1.486306 0.703209 0.166173 -0.051937 -18833.300000 0 0 1
-0.579506 -21.622948 25.710821 33.599614 1.544002 0.699426 0.155764 -0.059013 100089.000000 0 0 1
0.430194 -21.370748 26.816421 34.293066 -1.550669 0.672964 0.123000 -0.041565 -508553.000000 0 0 1
1.014194 -22.556448 27.371021 35.482316 -1.525864 0.689760 0.114561 -0.042751 422082.000000 0 0 1
1.958894 -22.240148 28.400321 36.125333 -1.482944 0.666224 0.091469 -0.052419 83766.200000 0 0 1
2.475994 -23.401148 29.252721 37.542855 -1.465382 0.677436 0.107087 -0.056368 -392276.000000 0 0 1
3.367994 -24.301248 28.608921 37.687722 -1.433080 0.708860 0.091098 -0.054894 686541.000000 0 0 1
4.265194 -24.976748 29.482121 38.874481 -1.401661 0.709953 0.104893 -0.046299 -115210.000000 0 0 1
5.542994 -24.248048 29.971221 38.948257 -1.346062 0.692717 0.082418 -0.054036 11607.700000 0 0 1
6.567194 -24.039748 29.002021 38.238132 -1.304122 0.709852 0.092630 -0.048458 914700.000000 0 0 1
7.467894 -25.158148 28.827521 38.983687 -1.282243 0.738504 0.082256 -0.043238 93002.700000 0 0 1
8.840294 -24.857448 28.198921 38.616352 -1.229106 0.752134 0.078612 -0.038913 -21992.100000 0 0 1
8.688694 -24.258948 26.897421 37.248640 -1.226867 0.763956 0.080443 -0.048787 79309.100000 0 0 1
9.898194 -24.113048 26.162021 36.930538 -1.181279 0.783551 0.080304 -0.035915 93741.600000 0 0 1
9.839894 -22.909848 25.195721 35.447271 -1.165116 0.780169 0.098238 -0.033479 -168060.000000 0 0 1
8.797594 -23.016148 24.271521 34.586810 -1.205697 0.792936 0.084535 -0.029154 -208973.000000 0 0 1
8.639494 -21.784148 23.577821 33.243099 -1.193228 0.782356 0.087610 -0.025092 11689.500000 0 0 1
7.771594 -21.869748 22.340321 32.214492 -1.229356 0.804479 0.085013 -0.018551 -4496.550000 0 0 1
8.478494 -22.670748 21.392221 32.302860 -1.212917 0.846993 0.085897 -0.016784 518800.000000 0 0 1
7.851394 -22.716048 20.121521 31.345475 -1.238018 0.873787 0.096388 -0.012127 316284.000000 0 0 1
8.724294 -23.582248 19.157121 31.610615 -1.216459 0.919731 0.139745 -0.031467 434926.000000 0 0 1
10.007594 -23.105448 18.847521 31.452229 -1.162062 0.928241 0.131389 -0.027835 -101013.000000 0 0 1
10.828394 -24.053748 18.176021 32.034429 -1.147797 0.967463 0.144499 -0.030847 42132.300000 0 0 1
12.139494 -23.450448 17.670321 31.773119 -1.093116 0.981062 0.137883 -0.031918 -334632.000000 0 0 1
11.940994 -22.510948 16.646821 30.437588 -1.083084 0.992120 0.136934 -0.026179 616946.000000 0 0 1
13.159594 -22.089848 15.998621 30.283530 -1.033522 1.014206 0.128052 -0.031687 755847.000000 0 0 1
-12.416406 22.452152 11.255021 28.016812 -1.065640 1.157398 0.042917 -0.018801 -144359.000000 0 0 1
-13.498106 21.709652 10.742421 27.729181 -1.014533 1.172981 0.039294 -0.027110 178278.000000 0 0 1
-13.070806 20.418452 10.328421 26.352143 -1.001379 1.168059 0.058800 -0.030714 80093.500000 0 0 1
-14.073506 19.731452 9.375921 25.986567 -0.951231 1.201672 0.065027 -0.034805 -159273.000000 0 0 1
-14.288406 20.340552 8.096421 26.142851 -0.958422 1.255920 0.068036 -0.036584 425616.000000 0 0 1
-15.275706 19.850752 7.182621 26.057429 -0.914914 1.291535 0.078872 -0.033639 1229250.000000 0 0 1
-16.817306 19.918852 7.449721 27.112373 -0.869626 1.292444 0.069978 -0.031842 444116.000000 0 0 1
-17.228006 19.111452 8.482421 27.092494 -0.837181 1.252350 0.062737 -0.030711 -1142570.000000 0 0 1
-18.604806 19.146852 8.490121 28.014691 -0.799755 1.262895 0.084273 -0.028634 -1024370.000000 0 0 1
-19.293106 18.006352 9.312221 27.985177 -0.750914 1.231572 0.088359 -0.027412 21370.800000 0 0 1
-19.114906 16.727852 8.737821 26.861686 -0.718898 1.239479 0.093690 -0.032962 87610.800000 0 0 1
-19.704306 15.700952 9.540921 26.940838 -0.672804 1.208798 0.109956 -0.039292 -413428.000000 0 0 1
-18.818306 15.025852 10.587621 26.305942 -0.673807 1.156572 0.098934 -0.030098 329895.000000 0 0 1
-17.656106 14.434252 9.970021 24.889496 -0.685334 1.158656 0.066448 -0.015542 427114.000000 0 1 0
-16.921806 13.537352 10.795721 24.210638 -0.674738 1.108608 0.075595 -0.027896 -25065.600000 0 1 0
-17.605006 12.425952 11.642921 24.492818 -0.614621 1.075422 0.077332 -0.023979 -309598.000000 0 1 0
-18.443606 11.522952 10.921021 24.335442 -0.558432 1.105408 0.070919 -0.026045 -254866.000000 0 1 0
-19.199006 10.774652 11.780221 24.969353 -0.511408 1.079480 0.093334 -0.029099 -453001.000000 0 1 0
-20.173106 9.826352 11.043121 25.009237 -0.453276 1.113458 0.099733 -0.039773 329213.000000 0 0 1
-19.494106 8.758952 10.308921 23.727901 -0.422282 1.121353 0.076419 -0.037065 447988.000000 0 1 0
-18.971806 9.002552 9.046621 22.865186 -0.443059 1.164020 0.079716 -0.035762 -803361.000000 0 1 0
-19.960706 9.290852 7.928621 23.401127 -0.435633 1.225141 0.086072 -0.033597 -345457.000000 0 1 0
-20.971606 8.316652 7.769221 23.860758 -0.377544 1.239143 0.094105 -0.026917 294618.000000 0 1 0
-21.732506 8.625752 6.629721 24.303469 -0.377836 1.294505 0.115944 -0.026910 -181498.000000 0 1 0
-21.832606 7.450252 5.596421 23.737921 -0.328853 1.332797 0.123289 -0.031944 -523352.000000 0 1 0
-22.602406 6.413452 6.094321 24.272245 -0.276483 1.316999 0.157197 -0.041546 340791.000000 0 1 0
-22.390206 5.303852 5.278721 23.607564 -0.232595 1.345287 0.160394 -0.042079 125494.000000 0 1 0
-23.469306 4.203052 5.483721 24.465183 -0.177209 1.344732 0.181130 -0.046945 54830.800000 0 1 0
-24.763206 4.468152 5.030221 25.660941 -0.178514 1.373492 0.245833 -0.051052 -69883.200000 0 0 1
-25.652886 3.397552 5.032921 26.361795 -0.131677 1.378700 0.259849 -0.055126 -305763.000000 0 0 1
-26.874486 3.564252 4.123421 27.421607 -0.131856 1.419853 0.274575 -0.057245 -324765.000000 0 0 1
-26.587596 3.582652 2.724521 26.965880 -0.133942 1.469588 0.281621 -0.049200 264161.000000 0 0 1
-27.763876 3.281652 2.012421 28.029483 -0.117653 1.498938 0.287354 -0.049965 -149216.000000 0 0 1
-27.631206 3.304852 0.485921 27.832386 -0.119040 1.553337 0.303606 -0.055928 -445978.000000 0 0 1
-27.253206 4.602952 0.021821 27.639191 -0.167317 1.570007 0.310108 -0.055040 294051.000000 0 0 1
-27.341366 4.805252 -1.366779 27.794043 -0.173974 1.619991 0.341832 -0.048170 334246.000000 0 0 1
-28.814526 5.140652 -1.772479 29.323112 -0.176547 1.631280 0.319549 -0.059677 753379.000000 0 0 1
-29.568736 3.916252 -1.863579 29.885116 -0.131679 1.633195 0.267928 -0.063044 8926.510000 0 0 1
-30.957876 4.095152 -1.771679 31.277775 -0.131518 1.627470 0.235961 -0.029086 -123083.000000 0 0 1
-31.841176 2.842752 -1.962079 32.027980 -0.089043 1.632096 0.184461 -0.024452 -197692.000000 0 0 1
-32.146096 2.522952 -3.294179 32.412782 -0.078323 1.672604 0.168416 -0.043595 357522.000000 0 0 1
-32.808586 1.291652 -3.386979 33.008231 -0.039349 1.673587 0.163698 -0.050083 -300027.000000 0 0 1
-32.856976 0.781852 -4.811479 33.216600 -0.023791 1.716159 0.173969 -0.063026 -549294.000000 0 0 1
-31.586596 0.536052 -5.362579 32.043060 -0.016969 1.738943 0.197677 -0.065440 17445.000000 0 0 1
-31.571856 -0.292848 -6.507979 32.236961 0.009275 1.774073 0.206577 -0.063515 -258432.000000 0 0 1
-31.927886 0.482952 -7.823779 32.876050 -0.015125 1.811080 0.194101 -0.053322 -105403.000000 0 0 1
-33.315006 0.740252 -7.955279 34.259657 -0.022216 1.805141 0.210305 -0.053301 370839.000000 0 0 1
-33.628086 1.652352 -8.996779 34.849971 -0.049097 1.831911 0.226065 -0.045056 556365.000000 0 0 1
-35.134816 2.005452 -9.234479 36.383413 -0.057017 1.827414 0.228201 -0.040724 746921.000000 0 0 1
-35.779244 2.592352 -8.141779 36.785367 -0.072328 1.793976 0.171063 -0.038145 -553832.000000 0 0 1
-37.115906 2.298052 -7.936179 38.024393 -0.061837 1.781055 0.165510 -0.030059 -666164.000000 0 0 1
-37.732066 2.908952 -6.673979 38.428022 -0.076943 1.745356 0.162908 -0.020978 -746838.000000 0 0 1
36.966321 2.641852 -6.572579 37.638903 0.071345 1.746318 0.161025 -0.016929 -374049.000000 0 0 1
36.343771 3.541252 -5.641179 36.949060 0.097131 1.724070 0.149924 -0.020990 76790.000000 0 0 1
34.895371 3.105652 -5.354379 35.440109 0.088765 1.722460 0.172199 -0.022009 -108682.000000 0 0 1
34.912721 2.146652 -4.392879 35.253419 0.061409 1.695730 0.170525 -0.018466 -305151.000000 0 0 1
33.787001 1.305052 -4.416979 34.099476 0.038607 1.700693 0.213521 -0.026706 -251977.000000 0 0 1
33.712981 0.125552 -3.422879 33.886530 0.003724 1.671979 0.277148 -0.034821 -130768.000000 0 0 1
34.579421 -0.938648 -3.768379 34.796811 -0.027138 1.679306 0.170415 -0.033783 55512.800000 0 0 1
34.378051 -2.067548 -2.974979 34.568420 -0.060069 1.656964 0.195248 -0.038224 1092.230000 0 0 1
35.292521 -3.280448 -3.259679 35.594225 -0.092684 1.662504 0.141054 -0.029082 132580.000000 0 0 1
34.811331 -4.380548 -2.496879 35.174598 -0.125179 1.641841 0.143674 -0.043901 239946.000000 0 0 1
35.549441 -5.573948 -2.696879 36.084689 -0.155528 1.645604 0.192144 -0.044835 -119315.000000 0 0 1
35.272321 -6.702448 -1.698779 35.943640 -0.187781 1.618076 0.241628 -0.060361 -396422.000000 0 0 1
35.654371 -6.575348 -0.366479 36.257464 -0.182370 1.580904 0.219851 -0.077086 -12551.800000 0 0 1
35.351501 -7.729548 0.351921 36.188373 -0.215261 1.561071 0.261419 -0.081261 -535364.000000 0 0 1
34.295241 -7.627848 1.419621 35.161953 -0.218855 1.530412 0.257505 -0.069431 361134.000000 0 0 1
32.960391 -7.623248 0.858021 33.841357 -0.227289 1.545439 0.219336 -0.061189 674408.000000 0 0 1
31.904051 -7.352448 1.721521 32.785524 -0.226500 1.518264 0.276094 -0.072780 -880119.000000 0 0 1
31.346221 -8.657548 2.425721 32.610164 -0.269473 1.496342 0.228860 -0.056298 -5686.660000 0 0 1
30.413491 -9.383548 1.608321 31.868764 -0.299266 1.520308 0.209231 -0.048169 1416730.000000 0 0 1
29.108691 -8.752248 1.539821 30.434993 -0.292076 1.520181 0.215910 -0.046631 366337.000000 0 0 1
27.931291 -9.797948 1.381221 29.632154 -0.337376 1.524167 0.175671 -0.035205 1170530.000000 0 0 1
26.586291 -9.452648 1.805321 28.274416 -0.341607 1.506903 0.137773 -0.042528 1625840.000000 0 0 1
25.953991 -8.445548 1.051021 27.313761 -0.314598 1.532307 0.166528 -0.054069 -760508.000000 0 0 1
25.423891 -8.813648 -0.317179 26.910132 -0.333703 1.582583 0.135948 -0.043241 -514997.000000 0 0 1
26.471491 -9.333748 -1.133979 28.091717 -0.338986 1.611174 0.143303 -0.061181 703584.000000 0 0 1
26.012591 -9.791648 -2.422979 27.899858 -0.360015 1.657751 0.135892 -0.068051 -193546.000000 0 0 1
25.247191 -11.143248 -2.418579 27.702746 -0.415651 1.658212 0.112800 -0.047283 -721915.000000 0 0 1
23.904991 -11.008048 -2.096779 26.401178 -0.431544 1.650300 0.093841 -0.025876 -533917.000000 0 0 1
23.297291 -12.296748 -1.913479 26.412784 -0.485654 1.643305 0.084247 -0.020491 -470821.000000 0 0 1
21.816691 -12.196148 -1.584879 25.044478 -0.509748 1.634121 0.079899 -0.021927 -437119.000000 0 0 1
20.959691 -11.773548 -2.631079 24.183624 -0.511799 1.679808 0.092409 -0.019166 99284.600000 0 1 0
19.600091 -11.752748 -2.272979 22.966434 -0.540145 1.669928 0.098610 -0.025080 -285981.000000 0 1 0
18.717991 -11.272248 -3.419079 22.115987 -0.542046 1.726017 0.093006 -0.018899 -357833.000000 0 1 0
18.782191 -12.225048 -4.520579 22.861718 -0.576997 1.769844 0.097131 -0.017731 213293.000000 0 1 0
18.305091 -11.726248 -5.724879 22.480113 -0.569739 1.828297 0.108461 -0.016004 -246595.000000 0 1 0
18.415391 -12.749648 -6.825479 23.415109 -0.605564 1.866590 0.112177 -0.017526 196192.000000 0 1 0
17.404891 -13.755748 -6.915079 23.237236 -0.668822 1.872960 0.100952 -0.022507 587289.000000 0 1 0
17.753391 -14.669848 -7.911179 24.351059 -0.690580 1.901681 0.114067 -0.021866 -412733.000000 0 1 0
16.627291 -15.630448 -8.245679 24.264561 -0.754506 1.917526 0.106832 -0.027917 -488509.000000 0 1 0
15.681991 -15.178748 -9.174879 23.674831 -0.769093 1.968755 0.126159 -0.016932 18492.100000 0 1 0
14.903391 -16.217048 -9.702079 24.067282 -0.827585 1.985723 0.116267 -0.017580 -241386.000000 0 1 0
14.288391 -15.859448 -11.061679 24.042482 -0.837463 2.048892 0.116744 -0.030727 93384.200000 0 1 0
13.144991 -15.021548 -11.222179 22.899236 -0.851923 2.082964 0.087703 -0.026671 415648.000000 0 1 0
13.339191 -13.662748 -10.858579 21.966189 -0.797380 2.087862 0.080926 -0.019691 -143038.000000 0 1 0
13.534791 -12.750648 -12.119279 22.195642 -0.755575 2.148403 0.100684 -0.014146 -670802.000000 0 1 0
14.715891 -12.929848 -12.814879 23.408536 -0.720883 2.150104 0.127015 -0.021580 -548604.000000 0 1 0
14.699591 -12.253848 -14.076479 23.756726 -0.694906 2.204987 0.155706 -0.021139 916272.000000 0 1 0
16.135491 -11.744148 -14.518679 24.679366 -0.629171 2.199742 0.163793 -0.038304 751010.000000 0 1 0
16.991591 -12.729348 -15.015179 26.003963 -0.642961 2.186360 0.156989 -0.032597 -114766.000000 0 0 1
18.081191 -12.152848 -15.698079 26.852390 -0.591773 2.195191 0.146898 -0.032576 -145740.000000 0 0 1
19.274091 -13.077048 -16.016179 28.266902 -0.596135 2.173177 0.122901 -0.023861 -15768.100000 0 0 1
20.237891 -13.125248 -14.964579 28.386317 -0.575354 2.126070 0.117360 -0.037825 -189638.000000 0 0 1
21.091091 -14.196648 -15.186179 29.614168 -0.592451 2.109241 0.081392 -0.029674 -77157.800000 0 0 1
22.318991 -14.136348 -14.225179 30.005490 -0.564601 2.064722 0.087766 -0.034988 169472.000000 0 0 1
23.090491 -12.954748 -14.205279 30.046401 -0.511282 2.063237 0.102597 -0.036842 -170995.000000 0 0 1
24.031691 -12.949448 -13.164579 30.307037 -0.494242 2.020139 0.114322 -0.034245 -225875.000000 0 0 1
24.945791 -11.759148 -13.086179 30.525696 -0.440497 2.013843 0.115795 -0.036320 -637753.000000 0 0 1
24.333791 -10.581048 -12.577079 29.364517 -0.410167 2.013417 0.125560 -0.038787 626769.000000 0 0 1
25.209891 -9.437848 -12.428979 29.649470 -0.358219 2.003357 0.148466 -0.048183 45278.200000 0 0 1
26.410491 -9.436248 -11.493279 30.309277 -0.343156 1.959728 0.161965 -0.043461 202297.000000 0 0 1
27.590291 -10.049548 -12.033379 31.733575 -0.349306 1.959728 0.144982 -0.045889 665162.000000 0 0 1
28.646791 -10.075948 -11.098979 32.331884 -0.338216 1.921206 0.161130 -0.048722 -88416.100000 0 0 1
29.915791 -10.780248 -11.598579 33.848121 -0.345868 1.920549 0.174500 -0.055493 -109335.000000 0 0 1
30.528691 -10.147848 -12.689379 34.583235 -0.320914 1.946495 0.156162 -0.044863 -895488.000000 0 0 1
31.786341 -10.654848 -12.937579 35.934360 -0.323432 1.939100 0.166139 -0.046564 -1093470.000000 0 0 1
32.437431 -10.014348 -14.124479 36.769213 -0.299445 1.965071 0.130036 -0.039969 -259668.000000 0 0 1
31.869581 -10.436048 -15.345379 36.879018 -0.316456 1.999949 0.119169 -0.029779 398730.000000 0 0 1
32.348551 -9.461548 -16.259179 37.420723 -0.284550 2.020276 0.082314 -0.023886 3968.180000 0 0 1
32.158961 -9.917448 -17.732379 38.039345 -0.299135 2.055740 0.056095 -0.015467 -66236.200000 0 0 1
30.833391 -9.918748 -18.197579 37.151466 -0.311234 2.082681 0.058435 -0.008278 14700.100000 0 0 1
30.367291 -8.680748 -18.716579 36.712914 -0.278433 2.105759 0.042295 -0.005022 224351.000000 0 0 1
28.859591 -8.493748 -19.052079 35.609008 -0.286231 2.135346 0.032315 -0.006889 501376.000000 0 0 1
28.467091 -9.211748 -20.239479 36.122958 -0.312959 2.165537 0.017275 0.006036 129419.000000 0 0 1
27.103991 -9.079548 -20.579179 35.221685 -0.323240 2.194784 0.029542 0.009028 -2431.350000 0 0 1
26.800291 -9.547048 -22.065879 36.004232 -0.342213 2.230483 0.048924 -0.003804 -37467.400000 0 0 1
26.737791 -10.991548 -22.228779 36.467002 -0.390027 2.226300 0.043192 -0.002191 77017.100000 0 0 1
26.283591 -11.358448 -23.523379 37.056590 -0.407911 2.258541 0.064554 -0.013915 -1102600.000000 0 0 1
26.567991 -12.830248 -23.933679 37.990715 -0.449892 2.252334 0.065180 -0.004621 672159.000000 0 0 1
27.803891 -13.194348 -24.564079 39.376911 -0.443081 2.244416 0.055511 0.002017 445861.000000 0 0 1
28.919691 -12.876548 -23.748679 39.574661 -0.418898 2.214420 0.030640 0.009257 12950.500000 0 0 1
30.306491 -13.284048 -24.388279 41.106417 -0.413101 2.205944 0.049935 0.015092 936422.000000 0 0 1
30.731791 -12.598548 -25.583929 41.924978 -0.389056 2.227149 0.070735 -0.003798 107824.000000 0 0 1
32.042521 -13.032748 -25.872589 43.196835 -0.386297 2.212981 0.061157 0.000004 96702.600000 0 0 1
32.690311 -12.493448 -27.171729 44.306270 -0.365047 2.230991 0.082947 -0.008102 76999.900000 0 0 1
32.315701 -13.237548 -28.288369 44.941840 -0.388782 2.251634 0.089773 -0.009658 164586.000000 0 0 1
33.282621 -13.124848 -29.313829 46.252514 -0.375622 2.257224 0.090657 -0.018074 64220.700000 0 0 1
33.121041 -14.037148 -30.561589 47.202284 -0.400865 2.275043 0.088979 -0.021564 -110748.000000 0 0 1
33.459651 -15.408048 -30.344259 47.725572 -0.431548 2.259850 0.112542 -0.010413 -58570.100000 0 0 1
33.601021 -16.162848 -31.570029 48.856248 -0.448351 2.273367 0.090223 -0.018258 -210932.000000 0 0 1
32.322691 -16.624548 -32.284169 48.614808 -0.475046 2.297060 0.079814 -0.012859 -370905.000000 0 0 1
31.787941 -15.619248 -33.078409 48.462514 -0.456710 2.322051 0.070609 -0.013434 -816818.000000 0 0 1
30.579791 -16.031648 -33.610619 48.185175 -0.482864 2.342741 0.053244 -0.008317 -267351.000000 0 0 1
29.799591 -14.990248 32.884129 46.841104 -0.466073 0.792544 0.080160 -0.005963 177070.000000 0 0 1
29.256791 -13.845148 33.519469 46.596166 -0.442002 0.767914 0.096898 -0.011825 594686.000000 0 0 1
30.194391 -12.820448 -33.587559 46.948794 -0.401529 2.368005 0.100678 -0.020939 282427.000000 0 0 1
29.357191 -11.613248 -33.046319 45.703079 -0.376694 2.379026 0.110672 -0.029049 884011.000000 0 0 1
28.454591 -11.122548 33.349779 45.228117 -0.372626 0.741630 0.113158 -0.027106 356905.000000 0 0 1
27.890191 -9.832048 33.572309 44.739600 -0.338924 0.722139 0.103666 -0.034250 120153.000000 0 0 1
22.008694 -29.284648 8.932221 37.706204 -0.926308 1.331633 0.057337 -0.018998 43239.300000 0 0 1
22.401494 -28.860748 7.633321 37.323415 -0.910742 1.364825 0.064437 -0.018535 -727201.000000 0 0 1
23.596994 -29.489948 7.379521 38.482886 -0.895951 1.377840 0.074850 -0.018994 -783766.000000 0 0 1
24.251594 -29.167448 6.018021 38.406984 -0.877164 1.413457 0.073537 -0.016397 -53182.900000 0 0 1
24.544094 -27.834748 5.748821 37.553091 -0.848140 1.417107 0.083280 -0.011945 180651.000000 0 0 1
25.116594 -27.621148 4.446521 37.597110 -0.832853 1.452251 0.076866 -0.006988 35204.600000 0 0 1
25.398594 -26.148548 4.138921 36.687406 -0.799946 1.457740 0.074804 -0.012556 -18165.600000 0 0 1
26.411294 -25.584448 4.920621 37.098961 -0.769497 1.437769 0.065174 -0.018472 -125941.000000 0 0 1
26.177694 -24.207448 4.942421 35.995829 -0.746314 1.433056 0.066745 -0.019395 -205128.000000 0 0 1
27.077994 -23.481848 5.929021 36.328614 -0.714391 1.406858 0.074452 -0.016484 272971.000000 0 0 1
28.363394 -23.297748 5.326621 37.089622 -0.687655 1.426683 0.065846 -0.017926 512705.000000 0 0 1
29.337894 -22.552448 6.054221 37.496380 -0.655371 1.408625 0.071562 -0.020692 345052.000000 0 0 1
29.074594 -21.032748 6.325421 36.437885 -0.626263 1.396318 0.087528 -0.015792 -319582.000000 0 0 1
29.168094 -20.302248 5.152721 35.909741 -0.608065 1.426808 0.080142 0.000031 -68434.400000 0 0 1
28.269094 -19.214748 5.107221 34.560554 -0.596977 1.422477 0.097540 0.000804 -350314.000000 0 0 1
28.402094 -18.265648 3.908621 33.993972 -0.571516 1.455562 0.106413 -0.001656 195733.000000 0 0 1
29.571094 -17.463648 4.036221 34.579180 -0.533453 1.453806 0.137360 0.012649 371415.000000 0 0 1
29.799394 -16.646948 2.893221 34.256320 -0.509448 1.486238 0.141914 0.025223 95542.200000 0 0 1
30.936694 -15.642648 3.153621 34.809722 -0.468145 1.480076 0.157741 0.004620 -1708.320000 0 0 1
30.517894 -14.609348 4.038421 34.074679 -0.446474 1.452000 0.163785 0.002012 858918.000000 0 0 1
31.564694 -13.666548 4.359021 34.671393 -0.408601 1.444739 0.178600 -0.012841 589397.000000 0 0 1
30.994494 -12.618248 5.276621 33.878039 -0.386623 1.414406 0.169984 -0.015129 149483.000000 0 0 1
30.856394 -12.963848 6.684921 34.130141 -0.397743 1.373656 0.144575 -0.021953 1300470.000000 0 0 1
29.559494 -12.569448 7.217021 32.921727 -0.402062 1.349784 0.143019 -0.006035 1308240.000000 0 0 1
29.480394 -12.585248 8.794921 33.239024 -0.403481 1.303011 0.142912 -0.004225 116321.000000 0 0 1
30.083194 -13.703848 9.353821 34.355319 -0.427445 1.295048 0.096631 0.002059 -109748.000000 0 0 1
29.562794 -13.864948 10.628621 34.338945 -0.438541 1.256107 0.159536 -0.015473 -167486.000000 0 0 1
30.222894 -14.963848 11.490921 35.628378 -0.459733 1.242404 0.147880 -0.027380 677112.000000 0 0 1
31.522594 -14.538548 11.990821 36.726327 -0.432137 1.238207 0.110852 -0.019845 1082570.000000 0 0 1
32.023494 -15.567848 12.830521 37.848174 -0.452497 1.224943 0.121489 -0.021077 -82784.800000 0 0 1
33.079094 -15.069548 13.822121 38.889185 -0.427469 1.207429 0.103839 -0.022402 551106.000000 0 0 1
34.251594 -14.550448 13.173521 39.476941 -0.401710 1.230569 0.084878 -0.026731 -216706.000000 0 0 1
35.319894 -14.529348 14.018621 40.683148 -0.390265 1.219004 0.055637 -0.025940 -256068.000000 0 0 1
36.731294 -14.187648 13.450721 41.610085 -0.368601 1.241628 0.093799 -0.024959 488227.000000 0 0 1
37.072094 -12.821948 13.243021 41.401933 -0.332987 1.245210 0.120913 -0.030876 175120.000000 0 0 1
-37.746104 -12.766948 12.558321 41.778879 0.326153 1.265485 0.134033 -0.030391 46711.800000 0 0 1
-37.181404 -11.307348 12.445321 40.806849 0.295226 1.260878 0.155152 -0.039573 733264.000000 0 0 1
-35.977104 -11.345848 11.651021 39.481978 0.305491 1.271239 0.156018 -0.040222 428665.000000 0 0 1
-35.215604 -10.201348 11.627321 38.462980 0.281965 1.263693 0.158463 -0.056198 -686031.000000 0 0 1
-33.915604 -10.329548 10.817921 37.067441 0.295641 1.274642 0.176871 -0.045787 166299.000000 0 0 1
-32.920004 -11.064848 11.554121 36.601301 0.324250 1.249628 0.159276 -0.043992 446834.000000 0 0 1
-33.004604 -12.521348 11.346321 37.078660 0.362607 1.259801 0.146901 -0.041686 -205748.000000 0 0 1
-31.900504 -13.451548 11.984321 36.636187 0.399048 1.237545 0.107289 -0.034612 971373.000000 0 0 1
-30.696104 -13.330448 11.214221 35.294623 0.409698 1.247460 0.130021 -0.039272 287457.000000 0 0 1
-29.752104 -14.328948 11.556921 34.986695 0.448829 1.234150 0.126201 -0.032103 -431478.000000 0 0 1
-28.466604 -14.327348 10.761721 33.636811 0.466287 1.245131 0.124150 -0.023063 -602824.000000 0 0 1
-28.698704 -14.691648 9.387421 33.579514 0.473144 1.287463 0.125681 -0.026130 36168.300000 0 0 1
-27.457504 -14.697148 8.744721 32.347965 0.491463 1.297057 0.103162 -0.020073 -180060.000000 0 0 1
-27.601204 -14.483948 7.229421 31.998058 0.483257 1.342896 0.147651 -0.019418 -14635.300000 0 0 1
-28.263804 -15.530848 6.581721 32.914570 0.502456 1.369475 0.152898 -0.005254 118320.000000 0 0 1
-28.268904 -15.336348 5.207521 32.579944 0.497080 1.410270 0.175399 -0.006270 -331033.000000 0 0 1
-28.789004 -16.554948 4.448121 33.506101 0.521867 1.437648 0.147242 -0.004398 66599.600000 0 0 1
-30.198304 -16.628648 4.516721 34.768524 0.503341 1.440520 0.105150 -0.012773 68830.100000 0 0 1
-30.681904 -17.666248 3.659821 35.593115 0.522426 1.467790 0.114345 -0.015385 315615.000000 0 0 1
-32.219404 -17.890448 3.747921 37.043286 0.506880 1.469446 0.139595 -0.033330 -169779.000000 0 0 1
-32.980104 -16.933948 3.096821 37.202636 0.474357 1.487458 0.178927 -0.031468 -1112130.000000 0 0 1
-34.307304 -17.221948 3.420821 38.539442 0.465239 1.481918 0.172382 -0.034127 -351461.000000 0 0 1
-35.269504 -16.203248 2.712021 38.908074 0.430654 1.501036 0.159967 -0.036433 105830.000000 0 0 1
-35.468604 -16.357148 1.323221 39.081058 0.432106 1.536931 0.159744 -0.036206 637641.000000 0 0 1
-36.418404 -15.388948 0.781421 39.544032 0.399802 1.551034 0.196310 -0.035550 566221.000000 0 0 1
-36.982304 -15.935348 -0.494179 40.272451 0.406850 1.583068 0.156761 -0.035040 -1272950.000000 0 0 1
-35.921304 -16.048148 -1.349879 39.366296 0.420155 1.605093 0.168272 -0.028458 -292278.000000 0 0 1
-36.210604 -16.979148 -2.378279 40.064392 0.438459 1.630193 0.134841 -0.016449 -233238.000000 0 0 1
-34.987604 -17.538648 -3.107879 39.260610 0.464673 1.650039 0.116140 -0.017988 -307894.000000 0 0 1
-35.406804 -18.486248 -4.020179 40.144053 0.481179 1.671108 0.107445 -0.019675 21282.400000 0 0 1
-34.339404 -19.298448 -4.444779 39.640646 0.512003 1.683159 0.103777 -0.021935 -251279.000000 0 0 1
-34.677504 -20.307148 -5.592179 40.573168 0.529764 1.709066 0.100691 -0.025257 -86719.100000 0 0 1
-35.443104 -21.432748 -5.148579 41.738282 0.543874 1.694465 0.120580 -0.027596 153934.000000 0 0 1
-35.834504 -22.244748 -6.192279 42.629623 0.555547 1.716570 0.123124 -0.022315 40493.900000 0 0 1
-36.658204 -23.465048 -5.721179 43.899479 0.569387 1.701493 0.132359 -0.021485 102422.000000 0 0 1
-35.821104 -24.355348 -4.993879 43.603593 0.597119 1.685577 0.167344 -0.023284 319066.000000 0 0 1
-36.470104 -25.624148 -4.796179 44.829329 0.612473 1.677989 0.135255 -0.014696 724528.000000 0 0 1
-35.491404 -26.688648 -4.189879 44.603573 0.644764 1.664871 0.120827 -0.015947 -147696.000000 0 0 1
-34.450204 -27.163148 -5.031879 44.158498 0.667674 1.684995 0.123118 -0.018186 483780.000000 0 0 1
-33.686904 -28.248848 -4.501579 44.193542 0.697821 1.672834 0.115970 -0.021915 -14672.600000 0 0 1
-32.720104 -27.912348 -3.383279 43.141059 0.706270 1.649301 0.123935 -0.032984 -1075430.000000 0 0 1
-33.360804 -27.571048 -2.139479 43.332243 0.690662 1.620190 0.087948 -0.027267 10521.200000 0 0 1
-32.434704 -27.390448 -1.099779 42.467119 0.701280 1.596696 0.104602 -0.036302 -99878.300000 0 0 1
-33.135704 -27.330448 0.275321 42.953510 0.689683 1.564387 0.078742 -0.018981 -34763.200000 0 0 1
-33.560304 -28.607648 0.599221 44.102728 0.705900 1.557209 0.076144 -0.001115 -370062.000000 0 0 1
-34.293304 -28.569548 1.785721 44.670332 0.694597 1.530810 0.077669 0.003340 -354530.000000 0 0 1
-34.667904 -29.957748 2.200421 45.871255 0.712643 1.522808 0.074753 0.003562 -636757.000000 0 0 1
-35.578304 -29.807448 3.274721 46.529813 0.697368 1.500359 0.064491 0.005847 253214.000000 0 0 1
-36.162404 -31.029648 3.756021 47.798182 0.709157 1.492134 0.051682 0.013155 383172.000000 0 0 1
-37.273204 -31.635148 2.865721 48.972305 0.703760 1.512246 0.042038 0.019506 -95103.900000 0 0 1
38.021794 -32.687048 3.470721 50.260778 -0.710094 1.501687 0.068504 0.016061 420021.000000 0 0 1
36.963394 -33.069148 2.599821 49.665079 -0.729849 1.518425 0.070515 0.011769 -101347.000000 0 0 1
35.870494 33.480852 3.166221 49.169957 0.750955 1.506358 0.075574 0.006000 373004.000000 0 0 1
34.886194 -33.483048 4.059921 48.524674 -0.764878 1.487031 0.078291 0.004477 961052.000000 0 0 1
34.130994 -32.272148 3.807721 47.126585 -0.757412 1.489910 0.072270 0.007035 256626.000000 0 0 1
33.089794 -32.389348 2.660621 46.379772 -0.774701 1.513399 0.061824 0.003296 -316788.000000 0 0 1
33.693394 -32.743148 1.428321 47.004240 -0.771096 1.540405 0.068076 0.007109 -258901.000000 0 0 1
32.805094 -32.601548 0.336821 46.250930 -0.782286 1.563514 0.060620 0.004777 -724315.000000 0 0 1
33.304194 -33.392448 -0.935679 47.170970 -0.786721 1.590634 0.062723 -0.001458 742621.000000 0 0 1
34.390594 -32.848848 -1.685979 47.587838 -0.762473 1.606233 0.053037 0.004756 132642.000000 0 0 1
35.603394 -32.751548 -0.968879 48.385992 -0.743701 1.590822 0.052082 0.013343 -407907.000000 0 0 1
36.855094 -32.565148 -1.893779 49.217611 -0.723680 1.609284 0.043577 0.011730 266913.000000 0 0 1
37.149094 -33.674548 -2.759479 50.215984 -0.736378 1.625776 0.049374 0.005323 -62385.600000 0 0 1
38.012194 -33.231748 -3.774479 50.631242 -0.718399 1.645414 0.057825 0.006563 -768337.000000 0 0 1
-37.327504 33.060852 -4.381679 50.055585 -0.724856 1.658445 0.054208 -0.001836 19887.400000 0 0 1
-36.253104 32.602552 -3.556779 48.886241 -0.732430 1.643617 0.079148 0.003650 307398.000000 0 0 1
-35.628804 31.444152 -4.106379 47.697051 -0.723089 1.656996 0.101165 -0.009274 401041.000000 0 0 1
-34.316304 31.001252 -3.412679 46.371680 -0.734689 1.644457 0.118435 -0.017346 125705.000000 0 0 1
-33.157304 31.794452 -3.679979 46.085097 -0.764419 1.650733 0.113406 -0.027654 1709410.000000 0 0 1
-31.877604 31.132552 -3.430479 44.689882 -0.773574 1.647634 0.163817 -0.039594 1697170.000000 0 0 1
-31.449604 31.067052 -1.958779 44.250154 -0.779279 1.615077 0.154610 -0.022242 188066.000000 0 0 1
-32.405504 30.282052 -1.202079 44.368506 -0.751538 1.597893 0.132671 -0.010781 597534.000000 0 0 1
-31.885604 30.050952 0.104621 43.815093 -0.755785 1.568409 0.142425 -0.022554 -61178.300000 0 0 1
-33.008904 29.509652 1.023721 44.288320 -0.729485 1.547679 0.140727 -0.026894 279413.000000 0 0 1
-33.444904 28.265652 0.503121 43.792257 -0.701666 1.559307 0.146455 -0.032094 -183242.000000 0 0 1
-34.606404 28.298852 -0.287079 44.704704 -0.685462 1.577218 0.128820 -0.019253 -440696.000000 0 0 1
-34.836204 26.976552 -0.972779 44.070872 -0.658924 1.592871 0.133154 -0.009095 149862.000000 0 0 1
-34.984704 25.884952 -0.091379 43.519749 -0.637001 1.572896 0.127445 -0.022129 -170693.000000 0 0 1
-35.274804 24.746452 -0.831479 43.097448 -0.611754 1.590091 0.133015 -0.016708 -108771.000000 0 0 1
-35.189704 23.393152 0.004421 42.255826 -0.586690 1.570692 0.146032 -0.024340 63326.100000 0 0 1
-33.954904 23.081152 0.618921 41.061638 -0.597012 1.555723 0.164442 -0.033166 -110935.000000 0 0 1
-33.609104 23.669052 1.855721 41.148992 -0.613569 1.525683 0.164495 -0.038691 -1119640.000000 0 0 1
-32.140304 23.454852 2.205421 39.849631 -0.630424 1.515424 0.140997 -0.045133 -87865.200000 0 0 1
-31.193504 24.308952 1.573621 39.578227 -0.661988 1.531026 0.157573 -0.039371 -21205.300000 0 0 1
-31.150204 25.674652 1.917721 40.412876 -0.689336 1.523325 0.142769 -0.042045 -334945.000000 0 0 1
-30.507404 26.635052 0.884321 40.508143 -0.717735 1.548964 0.129035 -0.032309 30700.200000 0 0 1
-29.209704 26.287852 0.496221 39.300180 -0.732798 1.558170 0.126084 -0.031057 -213788.000000 0 0 1
-28.580804 27.293652 -0.378979 39.521505 -0.762366 1.580386 0.116696 -0.022090 1298040.000000 0 0 1
-27.389304 26.767852 -1.267179 38.318371 -0.773924 1.603872 0.113572 -0.023142 640276.000000 0 0 1
-27.858304 25.876852 -2.273179 38.090207 -0.748540 1.630511 0.122674 -0.027080 1462100.000000 0 0 1
-26.730904 25.397952 -3.116879 37.004217 -0.759833 1.655127 0.120987 -0.006618 2520370.000000 0 0 1
-25.658604 24.419752 -2.468279 35.507473 -0.760665 1.640367 0.108359 -0.017667 697035.000000 0 0 1
-26.246604 23.225452 -2.043579 35.106723 -0.724406 1.629040 0.081518 -0.015471 44529.200000 0 0 1
-25.282804 22.557552 -1.212779 33.904780 -0.728494 1.606574 0.096988 -0.039248 -75778.900000 0 0 1
-25.724504 21.149752 -0.722379 33.310418 -0.688110 1.592484 0.127394 -0.051356 -432547.000000 0 0 1
-26.755904 21.122552 0.259021 34.089700 -0.668277 1.563198 0.125580 -0.048025 1031210.000000 0 0 1
-28.083404 21.581852 -0.094179 35.418396 -0.655231 1.573455 0.120217 -0.055562 717820.000000 0 0 1
-28.721704 20.629052 -1.143879 35.380821 -0.622862 1.603132 0.139555 -0.053509 -1361320.000000 0 0 1
-29.029204 19.332252 -0.674579 34.883889 -0.587512 1.590135 0.173339 -0.059715 335876.000000 0 0 1
-29.869004 18.754452 -1.684879 35.309002 -0.560675 1.618533 0.171884 -0.053971 220013.000000 0 0 1
-30.178804 17.285252 -1.501479 34.810840 -0.520150 1.613942 0.170245 -0.048057 -318651.000000 0 0 1
-31.064804 16.907852 -0.502779 35.371603 -0.498439 1.585011 0.177060 -0.045978 -123240.000000 0 0 1
-31.245804 15.485352 -0.392879 34.874786 -0.460120 1.582062 0.185002 -0.054474 -106178.000000 0 0 1
-30.119904 14.740152 0.348121 33.535084 -0.455118 1.560415 0.238758 -0.052348 -258277.000000 0 0 1
-30.119704 14.987252 1.699921 33.685368 -0.461717 1.520310 0.259784 -0.049739 769197.000000 0 0 1
-28.865504 14.515052 2.229721 32.386350 -0.465926 1.501894 0.294083 -0.057999 754357.000000 0 0 1
-28.672304 12.991152 2.476921 31.575404 -0.425421 1.492271 0.320304 -0.057730 -300155.000000 0 0 1
-28.524104 12.319452 1.254921 31.096112 -0.407697 1.530429 0.306638 -0.060697 172080.000000 0 0 1
-28.282404 10.937152 1.379121 30.354862 -0.368999 1.525347 0.370631 -0.064155 -82703.400000 0 0 1
-28.008004 10.325452 0.046721 29.850719 -0.353201 1.569231 0.341862 -0.048940 -361334.000000 0 0 1
-29.182604 10.022152 -0.653979 30.862527 -0.330809 1.591988 0.322357 -0.044955 7453.060000 0 0 1
-28.947404 9.254252 -1.872879 30.448334 -0.309423 1.632345 0.327835 -0.048654 -78462.800000 0 0 1
-30.264204 8.853652 -2.565179 31.636835 -0.284604 1.651967 0.294067 -0.044401 -66381.700000 0 0 1
-30.104804 7.955752 -3.685279 31.355613 -0.258362 1.688600 0.309367 -0.040006 -21728.900000 0 0 1
-31.335504 7.424452 -4.114579 32.464843 -0.232644 1.697878 0.275673 -0.034816 -123001.000000 0 0 1
-11.837706 18.136852 -19.890779 29.406118 -0.992534 2.313682 0.164768 -0.018353 457117.000000 0 0 1
-12.138606 17.073852 -20.801479 29.522258 -0.952761 2.352660 0.152931 -0.034732 572539.000000 0 0 1
-10.898406 16.437852 -21.175279 28.937358 -0.985332 2.391701 0.152353 -0.035584 465575.000000 0 0 1
-11.028206 15.425852 -22.325079 29.291422 -0.950129 2.437457 0.136519 -0.028539 -116354.000000 0 0 1
-9.946606 14.514352 -22.303179 28.408329 -0.970008 2.473643 0.174300 -0.047145 -50133.000000 0 0 1
-10.077406 13.376152 -23.180279 28.597218 -0.925132 2.515935 0.164226 -0.046394 -44845.900000 0 0 1
-9.110306 12.208652 -22.880379 27.487463 -0.929721 2.554209 0.157071 -0.041812 -380334.000000 0 0 1
-7.766106 12.476552 -23.140579 27.412828 -1.014028 2.575777 0.122097 -0.033956 -727229.000000 0 0 1
-6.973806 11.371052 -22.771979 26.391245 -1.020659 2.611700 0.114544 -0.022632 -827320.000000 0 0 1
-5.489506 11.617852 -22.818779 26.187895 -1.129385 2.628740 0.080076 -0.012607 -607096.000000 0 0 1
-4.839106 11.377752 -24.062479 27.053153 -1.168661 2.666941 0.074391 -0.023972 645474.000000 0 0 1
-3.415706 11.236252 -23.940479 26.665838 -1.275683 2.685535 0.058497 -0.014858 771055.000000 0 0 1
-2.771306 10.834752 -25.290449 27.652826 -1.320386 2.725240 0.093761 -0.032781 -183575.000000 0 0 1
-2.490306 9.444252 -25.377999 27.192616 -1.312980 2.774203 0.096778 -0.043350 129056.000000 0 0 1
-2.206306 9.034352 -26.708759 28.281533 -1.331272 2.806527 0.111940 -0.046756 -416263.000000 0 0 1
-2.043506 7.506552 -26.808739 27.914740 -1.305007 2.859156 0.115390 -0.029064 314890.000000 0 0 1
-0.858406 6.883752 -26.313489 27.212545 -1.446736 2.883826 0.102474 -0.036013 422415.000000 0 0 1
-0.780606 6.862952 -24.875379 25.816544 -1.457541 2.870744 0.110064 -0.049234 279304.000000 0 0 1
0.237494 5.825652 -24.261479 24.952234 1.530052 2.905746 0.042610 -0.037439 609188.000000 0 1 0
1.628794 6.119852 -24.314379 25.125576 1.310677 2.886795 0.060505 -0.012344 332172.000000 0 0 1
2.357294 5.515552 -23.267779 24.028477 1.166903 2.889297 0.051035 -0.004544 46810.200000 0 1 0
2.238494 5.981852 -21.813179 22.729016 1.212715 2.856751 0.036630 -0.011950 -184403.000000 0 1 0
2.952994 7.205952 -21.577379 22.939686 1.181871 2.795229 0.055295 -0.025110 513603.000000 0 1 0
2.371794 7.950352 -20.511379 22.125781 1.280876 2.757224 0.048653 -0.020723 -79632.100000 0 1 0
3.100594 9.292652 -20.352779 22.587666 1.248751 2.692997 0.039053 -0.029875 -150942.000000 0 1 0
2.582894 10.124252 -19.287279 21.935609 1.321005 2.645120 0.049579 -0.035532 167087.000000 0 1 0
3.038194 11.474152 -19.388379 22.733148 1.311951 2.592251 0.060102 -0.030585 486407.000000 0 1 0
4.378794 11.774652 -18.644679 22.482000 1.214761 2.548679 0.069574 -0.037875 573046.000000 0 1 0
5.482494 11.093552 -19.195779 22.838620 1.111795 2.568995 0.072940 -0.031077 -25258.200000 0 1 0
6.673894 11.189252 -18.412979 22.556108 1.032987 2.525805 0.080565 -0.012837 977031.000000 0 1 0
7.740994 10.091352 -18.778279 22.679994 0.916446 2.546268 0.112987 -0.030964 307100.000000 0 1 0
7.316294 8.712452 -18.807579 21.980901 0.872282 2.597568 0.084101 -0.026130 239149.000000 0 1 0
6.742194 8.259952 -20.047779 22.706770 0.886225 2.652796 0.061024 -0.019561 247074.000000 0 1 0
6.442194 6.724152 -20.091279 22.144425 0.806810 2.707576 0.072093 -0.025196 -599503.000000 0 1 0
7.618294 6.030152 -20.302379 22.507504 0.669558 2.695239 0.067933 -0.019637 -563360.000000 0 1 0
7.441994 4.663252 -20.565579 22.362295 0.559759 2.737995 0.057502 -0.016229 -226367.000000 0 1 0
7.661094 4.305552 -22.064879 23.750558 0.512011 2.762567 0.083588 -0.030417 122586.000000 0 1 0
6.688994 4.855952 -22.955479 24.398298 0.627938 2.795968 0.072759 -0.023354 241011.000000 0 1 0
7.048794 4.602652 -24.265279 25.684113 0.578460 2.807653 0.081707 -0.031860 -142797.000000 0 0 1
6.108494 5.380452 -25.199759 26.481896 0.722114 2.829146 0.074139 -0.030054 -68160.400000 0 0 1
6.161594 6.857252 -25.251599 26.881786 0.838782 2.791547 0.071816 -0.038676 144199.000000 0 0 1
5.852394 7.489052 -23.981779 25.796553 0.907463 2.764260 0.090207 -0.043540 -1208180.000000 0 0 1
5.909094 9.040552 -24.059479 26.372476 0.991880 2.719650 0.106342 -0.046954 70959.800000 0 0 1
4.777094 9.624052 -24.679679 26.917087 1.110057 2.730983 0.100077 -0.054882 -492340.000000 0 0 1
3.651394 9.520152 -23.853479 25.941365 1.204556 2.737642 0.094195 -0.055987 -1856650.000000 0 0 1
2.406194 9.602152 -24.714179 26.622955 1.325263 2.760620 0.117879 -0.040298 -887428.000000 0 0 1
2.081394 10.876352 -25.143199 27.473764 1.381714 2.726729 0.136395 -0.043462 43334.800000 0 0 1
1.155394 10.845852 -26.224699 28.402505 1.464668 2.747443 0.156077 -0.052305 64245.500000 0 0 1
0.730194 12.222752 -26.734939 29.405540 1.511127 2.712108 0.143844 -0.048988 -58160.100000 0 0 1
0.031994 12.950852 -25.774969 28.845704 1.568326 2.675979 0.131601 -0.040148 -123606.000000 0 0 1
-0.457706 14.160852 -26.293309 29.867663 -1.538486 2.647347 0.133770 -0.043276 36858.900000 0 0 1
-0.916106 15.149652 -25.184929 29.404623 -1.510399 2.599238 0.133957 -0.052260 -179170.000000 0 0 1
-2.101906 14.732652 -24.560679 28.717521 -1.429083 2.596831 0.118636 -0.039816 -257439.000000 0 0 1
-2.378006 15.532052 -23.409579 28.194112 -1.418873 2.550443 0.108311 -0.039290 -802742.000000 0 0 1
-3.662506 15.071652 -22.728579 27.516485 -1.332411 2.542768 0.094847 -0.040230 -489447.000000 0 0 1
-4.880706 15.614652 -23.131379 28.331949 -1.267846 2.526018 0.099552 -0.033253 -442608.000000 0 0 1
-5.362106 15.077552 -24.369779 29.154260 -1.229110 2.560550 0.110736 -0.041172 -883729.000000 0 0 1
-6.858306 15.280952 -24.593479 29.755387 -1.148929 2.543697 0.099760 -0.039391 -299855.000000 0 0 1
-7.410006 16.588552 -24.677279 30.644026 -1.150695 2.506958 0.101620 -0.036641 521197.000000 0 0 1
-8.825506 16.446052 -24.872879 31.096982 -1.078273 2.497839 0.117422 -0.037523 1029470.000000 0 0 1
-9.592506 17.769952 -25.311829 32.380180 -1.075805 2.468195 0.119715 -0.033969 413114.000000 0 0 1
-10.072206 18.581452 -24.245979 32.165000 -1.074072 2.424622 0.121664 -0.037951 237905.000000 0 0 1
-11.049606 19.529552 -24.664979 33.344541 -1.055912 2.403422 0.105007 -0.023111 594467.000000 0 0 1
-11.482906 20.583052 -23.586579 33.344353 -1.061922 2.356558 0.098944 -0.027393 -398875.000000 0 0 1
-10.621806 21.676452 -23.613079 33.767867 -1.115168 2.345181 0.119442 -0.017208 -219170.000000 0 0 1
-10.970706 22.841952 -24.288179 35.100239 -1.123043 2.335005 0.099615 -0.018867 -445712.000000 0 0 1
-10.897906 22.884252 -25.843429 36.198566 -1.126354 2.365899 0.084698 -0.018009 -58191.600000 0 0 1
-11.822106 22.129652 -26.620949 36.580850 -1.080149 2.385801 0.094036 -0.014694 220532.000000 0 0 1
-12.091706 22.580752 -27.913239 37.884675 -1.079164 2.399114 0.095794 -0.007572 150602.000000 0 0 1
-12.772606 21.543052 -28.840909 38.197390 -1.035623 2.426525 0.104784 -0.007775 629788.000000 0 0 1
-11.815606 20.538552 -29.259309 37.650336 -1.048745 2.460893 0.112221 -0.016688 561324.000000 0 0 1
-11.743606 19.386052 -28.417309 36.349343 -1.026141 2.468317 0.118182 -0.017521 13274.200000 0 0 1
-10.604306 18.444852 -28.894429 35.882473 -1.049022 2.506896 0.099838 -0.019404 -795088.000000 0 0 1
-9.342206 18.989052 -28.630039 35.602529 -1.113586 2.505053 0.089564 -0.027062 -337716.000000 0 0 1
-8.258006 18.348952 -29.290139 35.535770 -1.147898 2.539662 0.084643 -0.027827 648870.000000 0 0 1
-7.842306 16.930652 -28.674459 34.210720 -1.137018 2.564719 0.106983 -0.036601 -801820.000000 0 0 1
-8.891506 16.010152 -28.761659 34.097168 -1.063842 2.574601 0.071580 -0.029138 -318629.000000 0 0 1
-8.579306 14.866752 -28.077489 32.908513 -1.047400 2.592883 0.091835 -0.039634 -91793.600000 0 0 1
-9.749106 13.845052 -28.051729 32.766294 -0.957285 2.598502 0.080495 -0.030606 264384.000000 0 0 1
-10.627306 14.199652 -26.992309 32.297902 -0.928307 2.560256 0.097203 -0.035041 -42261.000000 0 0 1
-11.745806 13.339452 -26.839119 32.190732 -0.848842 2.556667 0.136043 -0.044222 585830.000000 0 0 1
-12.871506 13.902552 -25.926409 32.111296 -0.823888 2.510515 0.133461 -0.040102 305499.000000 0 0 1
-13.514406 15.040452 -26.479979 33.317318 -0.838790 2.489443 0.125085 -0.034464 -793972.000000 0 0 1
-14.587706 15.393252 -25.677499 33.302963 -0.812260 2.451249 0.107994 -0.031278 -777600.000000 0 0 1
-15.362206 16.556752 -26.251089 34.630089 -0.822805 2.431103 0.086605 -0.020985 -590713.000000 0 0 1
-14.792506 17.831252 -26.184009 34.962467 -0.878275 2.417224 0.087161 -0.018159 -560376.000000 0 0 1
-15.657406 18.890052 -26.497799 36.112626 -0.878698 2.394628 0.066999 -0.011301 -164437.000000 0 0 1
-15.109406 20.340052 -26.301679 36.521092 -0.931893 2.374855 0.069490 -0.013828 -42229.900000 0 0 1
-16.158306 21.280752 -26.496829 37.630350 -0.921375 2.352000 0.037095 -0.004684 136634.000000 0 0 1
-15.862206 22.658152 -26.767829 38.490494 -0.960026 2.339828 0.044165 -0.005552 -354800.000000 0 0 1
-15.402206 23.378952 -25.477829 37.853971 -0.988255 2.309129 0.019755 -0.003259 -91701.800000 0 0 1
-14.729206 24.549952 -25.825839 38.556758 -1.030400 2.304754 0.040957 -0.012844 -17796.600000 0 0 1
-14.222506 25.199152 -24.670879 38.025376 -1.056962 2.276803 0.045161 -0.015743 -186004.000000 0 0 1
-13.731906 26.615452 -24.970979 38.993555 -1.094480 2.265799 0.063917 -0.017899 101801.000000 0 0 1
-14.718506 27.621152 -25.233319 40.203020 -1.081199 2.249324 0.074359 -0.018968 259499.000000 0 0 1
-15.379906 28.072852 -24.045979 40.035430 -1.069600 2.215070 0.068858 -0.020691 617728.000000 0 0 1
-16.637706 28.970752 -24.340779 41.335109 -1.049493 2.200450 0.063360 -0.017312 1382360.000000 0 0 1
-17.833306 28.245552 -24.703079 41.546120 -1.007632 2.207557 0.046709 -0.010756 296059.000000 0 0 1
-18.854106 29.148752 -25.081479 42.827651 -0.996657 2.196463 0.044448 -0.010959 -765518.000000 0 0 1
-20.176606 28.428452 -25.183509 43.005598 -0.953568 2.196400 0.056742 0.010172 -1058060.000000 0 0 1
-20.450206 27.881652 -23.907379 42.037605 -0.937962 2.175738 0.057247 0.008159 -882419.000000 0 0 1
-21.559006 27.088952 -24.095479 42.180495 -0.898585 2.178821 0.045042 -0.007502 -950015.000000 0 0 1
-22.213906 26.569252 -22.840579 41.485839 -0.874442 2.153835 0.049862 -0.007205 -190638.000000 0 0 1
-22.972806 27.500252 -22.100179 42.100256 -0.874859 2.123443 0.051275 -0.002184 -292209.000000 0 0 1
-23.536706 26.900852 -21.002679 41.457748 -0.851999 2.102038 0.043785 -0.004181 -261909.000000 0 0 1
-24.684906 27.668352 -20.288179 42.266920 -0.842323 2.071453 0.037976 -0.002610 307455.000000 0 0 1
-25.977326 27.482452 -20.825779 43.171978 -0.813545 2.074179 0.062988 -0.015113 -410246.000000 0 0 1
-26.881856 28.431052 -20.367979 44.111376 -0.813399 2.050752 0.074755 -0.013443 -259843.000000 0 0 1
-28.328506 28.018052 -20.693179 44.896806 -0.779888 2.049811 0.079736 -0.010122 -162504.000000 0 0 1
-28.562856 27.975452 -22.085479 45.675278 -0.775009 2.075482 0.080602 -0.013614 665069.000000 0 0 1
-29.950376 27.696052 -22.340379 46.510094 -0.746312 2.071832 0.093198 -0.014059 708433.000000 0 0 1
-30.212416 27.123952 -23.728879 47.027211 -0.731584 2.099689 0.093087 -0.015731 65786.300000 0 0 1
-29.737486 25.789852 -23.831279 46.014828 -0.714424 2.115196 0.101847 0.008958 126214.000000 0 0 1
-30.003676 25.408952 -25.183159 46.690759 -0.702669 2.140474 0.131850 0.005347 9558.320000 0 0 1
-30.457616 23.982152 -25.430909 46.363144 -0.667007 2.151384 0.106612 -0.002316 369001.000000 0 0 1
-29.409246 23.026052 -25.272959 45.097952 -0.664260 2.165667 0.124374 -0.015345 245738.000000 0 0 1
-29.755386 21.874252 -25.988659 45.158347 -0.633920 2.184013 0.114964 -0.019452 180363.000000 0 0 1
-28.711636 20.714352 -26.007579 43.929906 -0.624985 2.204365 0.122816 -0.020585 146979.000000 0 0 1
-28.671186 19.987652 -24.830479 42.873020 -0.608800 2.188498 0.105963 -0.011755 -14994.100000 0 0 1
-27.880476 18.826752 -24.949279 41.883578 -0.593933 2.208910 0.100683 -0.020218 -294373.000000 0 0 1
-28.635646 17.489052 -24.868879 41.765157 -0.548282 2.208617 0.089594 -0.013538 -401982.000000 0 0 1
-29.416986 17.374952 -26.017249 42.943513 -0.533511 2.221628 0.082949 -0.016477 -187760.000000 0 0 1
-30.076486 16.134752 -25.963159 42.883690 -0.492386 2.221105 0.064054 -0.019877 111900.000000 0 0 1
-31.001876 15.858252 -27.203569 44.188626 -0.472825 2.233974 0.048620 -0.016365 -578915.000000 0 0 1
-32.208866 16.510052 -27.243829 45.301425 -0.473671 2.216036 0.046073 -0.011794 -1187610.000000 0 0 1
-32.850846 16.059752 -28.382849 46.289090 -0.454703 2.230857 0.050902 -0.006971 76795.100000 0 0 1
-34.116699 16.859952 -28.795259 47.721841 -0.458985 2.218552 0.056002 -0.010484 479932.000000 0 0 1
-35.277316 16.655752 -27.982089 48.009379 -0.441110 2.193023 0.032615 -0.009949 200894.000000 0 0 1
-36.363926 17.341152 -28.576639 49.393066 -0.444979 2.187753 0.047035 -0.006598 -278777.000000 0 0 1
-37.662306 16.662252 -28.097289 49.855166 -0.416526 2.169507 0.049993 -0.017951 -445268.000000 0 0 1
37.807491 17.349652 -26.991709 49.587994 0.430226 2.146374 0.064867 -0.032341 34738.200000 0 0 1
36.665021 16.652352 -26.534789 48.225715 0.426321 2.153425 0.081342 -0.030502 42964.300000 0 0 1
35.946551 17.415452 -25.384629 47.326862 0.451156 2.136924 0.088782 -0.029443 -107469.000000 0 0 1
35.265031 18.554552 -25.808799 47.476182 0.484345 2.145535 0.091838 -0.044253 -200412.000000 0 0 1
35.127221 19.400752 -24.728379 47.136011 0.504607 2.123062 0.107814 -0.034846 51071.800000 0 0 1
34.159631 20.609652 -25.017179 47.090311 0.542867 2.130883 0.115353 -0.045818 327930.000000 0 0 1
32.871281 20.201252 -25.399639 46.192568 0.551054 2.152998 0.125597 -0.055588 151358.000000 0 0 1
31.854731 21.157652 -25.075479 45.729091 0.586287 2.151184 0.137149 -0.043135 1467620.000000 0 0 1
30.544291 21.104052 -25.968569 45.306746 0.604615 2.181168 0.103192 -0.042140 975582.000000 0 0 1
29.808091 19.951152 -25.692059 44.120887 0.589837 2.192364 0.133697 -0.060405 -1188530.000000 0 0 1
28.513291 19.970452 -26.174809 43.553959 0.610988 2.215516 0.127238 -0.053222 -981717.000000 0 0 1
28.035791 18.494752 -26.236369 42.619344 0.583153 2.233940 0.137285 -0.039403 10209.700000 0 0 1
28.790291 17.595252 -27.101359 43.277678 0.548579 2.247492 0.134897 -0.040131 -39530.800000 0 0 1
29.834791 17.043252 -26.355949 43.303848 0.519015 2.225127 0.151858 -0.039094 -357629.000000 0 0 1
30.774091 16.162352 -27.248709 44.167391 0.483599 2.235647 0.118022 -0.029081 -17404.700000 0 0 1
30.309491 14.918452 -27.795039 43.746881 0.457391 2.259272 0.127669 -0.036132 -63759.700000 0 0 1
29.770791 13.982252 -26.902389 42.491668 0.439085 2.256376 0.139078 -0.033738 -61741.600000 0 0 1
30.835891 13.215552 -26.055239 42.477976 0.404896 2.231132 0.132185 -0.027597 25197.900000 0 0 1
31.582101 14.091252 -25.246809 42.818148 0.419671 2.201395 0.124375 -0.039089 92876.400000 0 0 1
32.302201 13.310752 -24.280879 42.546085 0.390868 2.178149 0.103065 -0.032730 14.695300 0 0 1
-15.564906 -30.846848 -23.493679 41.782141 1.103486 2.167949 0.115180 -0.014271 186587.000000 0 0 1
-14.778706 -29.841048 -24.164079 41.143663 1.110958 2.198527 0.110441 -0.029868 509756.000000 0 0 1
-15.274606 -29.621948 -25.496819 41.962617 1.094706 2.223842 0.093361 -0.023257 391261.000000 0 0 1
-14.424406 -28.553448 -26.258639 41.386943 1.103020 2.258115 0.110119 -0.029429 39581.300000 0 0 1
-14.705206 -27.300448 -25.716929 40.285457 1.076714 2.263172 0.098768 -0.015518 -7524.560000 0 0 1
-14.116606 -26.222148 -26.393759 39.793343 1.076944 2.295977 0.099688 -0.016018 -553003.000000 0 0 1
-14.486206 -24.827248 -25.856619 38.662736 1.042612 2.303354 0.058037 -0.013028 -156240.000000 0 0 1
-13.946006 -24.493048 -24.569279 37.390507 1.053191 2.287761 0.101933 -0.035547 79549.800000 0 0 1
-14.376006 -23.225848 -24.193079 36.488555 1.016548 2.295658 0.075014 -0.035028 -227672.000000 0 0 1
-13.893306 -22.840248 -22.774079 35.119220 1.024310 2.276381 0.097448 -0.033426 629248.000000 0 0 1
-12.474306 -22.640748 -22.838279 34.493460 1.067211 2.294420 0.132803 -0.051252 312124.000000 0 0 1
-12.146606 -21.990248 -21.642979 33.159156 1.066140 2.281939 0.099502 -0.041463 -55062.600000 0 0 1
-10.659706 -21.594848 -21.574079 32.332765 1.112264 2.301309 0.114109 -0.052387 -207538.000000 0 0 1
-10.386206 -20.607048 -22.526579 32.248573 1.103944 2.344137 0.136629 -0.058270 -266175.000000 0 0 1
-8.991506 -20.546348 -22.688179 31.902243 1.158285 2.361969 0.173468 -0.061642 -371846.000000 0 0 1
-8.598606 -19.488348 -23.731879 31.889400 1.155270 2.410123 0.211818 -0.054952 -283427.000000 0 0 1
-8.803106 -18.231748 -23.092779 30.711037 1.120967 2.421792 0.147305 -0.053656 -302925.000000 0 0 1
-8.613606 -17.143048 -23.943479 30.681729 1.105187 2.466073 0.145513 -0.050207 229296.000000 0 0 1
-7.248706 -16.702148 -24.566279 30.577893 1.161329 2.503780 0.183750 -0.057118 351574.000000 0 0 1
-6.717806 -17.465048 -25.643709 31.745183 1.203599 2.511204 0.199145 -0.059784 18487.900000 0 0 1
-5.621806 -16.755148 -26.191849 31.596719 1.247073 2.548010 0.163121 -0.063669 266925.000000 0 0 1
-5.039006 -17.374648 -27.497519 32.914792 1.288520 2.559684 0.159437 -0.044216 -107914.000000 0 0 1
-6.060806 -17.349948 -28.470109 33.886593 1.234721 2.568372 0.201135 -0.040599 8822.990000 0 0 1
-5.843906 -18.204448 -29.597439 35.235800 1.260173 2.568046 0.192038 -0.044637 225508.000000 0 0 1
-7.150206 -18.329148 -30.471649 36.271263 1.198853 2.568272 0.214707 -0.047310 857802.000000 0 0 1
-7.475706 -17.302648 -31.478549 36.690147 1.162965 2.602075 0.175102 -0.035370 69368.200000 0 0 1
-7.377206 -15.937748 -31.050759 35.673304 1.137286 2.626851 0.142028 -0.025883 -229887.000000 0 0 1
-8.088706 -14.959348 -32.021989 36.257648 1.075112 2.653393 0.112352 -0.026740 -30269.500000 0 0 1
-7.322606 -14.655548 -33.156199 36.982958 1.107431 2.682661 0.130448 -0.042177 128292.000000 0 0 1
-7.963306 -13.720948 33.350799 36.931754 1.044931 0.444005 0.117296 -0.026263 107372.000000 0 0 1
-8.162306 -12.246148 -33.631539 36.710650 0.982895 2.729101 0.081619 -0.019938 -523801.000000 0 0 1
-6.952006 -11.567248 -33.635129 36.241600 1.029636 2.760021 0.080114 -0.024120 -608647.000000 0 0 1
-6.747106 -10.765848 32.629560 35.015926 1.010966 0.371320 0.061776 -0.024940 -514062.000000 0 0 1
-5.497606 -9.917948 32.697578 34.608105 1.064651 0.333827 0.086914 -0.038803 -537950.000000 0 0 1
-5.422606 -9.084648 31.513388 33.241978 1.032661 0.323905 0.062936 -0.027447 217453.000000 0 0 1
-4.233406 -8.312648 31.551921 32.902060 1.099758 0.287468 0.075413 -0.040171 -397108.000000 0 0 1
-4.381906 -7.103848 30.530819 31.651171 1.018090 0.266862 0.066457 -0.031559 359573.000000 0 0 1
-5.413906 -6.173248 30.798489 31.874226 0.850838 0.260542 0.047063 -0.024166 152848.000000 0 0 1
-6.695806 -6.595348 30.372969 31.793862 0.777840 0.300092 0.047103 -0.019285 -845326.000000 0 0 1
-7.751106 -5.532848 30.325719 31.785866 0.619937 0.304280 0.036258 -0.013685 25777.300000 0 0 1
-8.893306 -5.983948 29.578679 31.461036 0.592278 0.347671 0.052489 -0.014829 -25320.200000 0 0 1
-9.939106 -5.060448 29.555079 31.589502 0.470937 0.360847 0.047333 -0.019733 -280947.000000 0 0 1
-11.144906 -5.580448 28.757349 31.342231 0.464221 0.408979 0.052189 -0.018501 -470366.000000 0 0 1
-10.937306 -5.562548 27.375879 30.000089 0.470492 0.421377 0.053762 -0.015749 441611.000000 0 0 1
-11.970906 -6.255048 26.665819 29.891372 0.481502 0.468845 0.048795 -0.021330 187392.000000 0 0 1
-11.793206 -6.107748 25.151679 28.442771 0.477868 0.485824 0.045303 -0.018574 227083.000000 0 0 1
-10.570406 -6.723048 24.763409 27.751744 0.566489 0.468340 0.049206 -0.015875 694906.000000 0 0 1
-9.858706 -6.279648 23.588609 26.325853 0.567157 0.460063 0.056662 -0.017994 366104.000000 0 0 1
-10.566906 -6.565148 22.190589 25.439790 0.555929 0.510953 0.069681 -0.030564 109735.000000 0 0 1
-11.606306 -5.625948 22.031389 25.529194 0.451359 0.529642 0.048287 -0.023343 -227922.000000 0 0 1
-12.285906 -5.770448 20.785589 24.825033 0.439099 0.578501 0.057196 -0.028491 -227942.000000 0 1 0
-13.445006 -4.774648 20.678189 25.122758 0.341233 0.603973 0.059006 -0.021894 -328860.000000 0 0 1
-13.060606 -3.452248 20.334589 24.412967 0.258415 0.586393 0.042398 -0.018154 -183030.000000 0 1 0
-14.109706 -2.498148 20.389789 24.921237 0.175236 0.612577 0.058150 -0.012536 100404.000000 0 1 0
-13.832806 -1.029948 19.896789 24.254681 0.074320 0.608812 0.033650 -0.005725 -487823.000000 0 1 0
-12.913806 -0.240948 20.579389 24.296825 0.018656 0.560482 0.038907 0.001632 -316151.000000 0 1 0
-13.038906 1.153052 20.253289 24.115105 -0.088202 0.573773 0.041348 -0.009071 -342491.000000 0 1 0
-12.835006 1.595052 18.757289 22.784149 -0.123640 0.603665 0.051261 -0.021071 -103704.000000 0 1 0
-13.718606 1.092052 17.791189 22.492646 -0.079436 0.658391 0.063010 -0.012834 -568025.000000 0 1 0
-15.061006 1.482052 17.859889 23.409528 -0.098087 0.702959 0.058364 -0.011331 -624322.000000 0 1 0
-15.982406 0.660052 16.975989 23.325033 -0.041275 0.755686 0.093738 -0.010717 -254011.000000 0 1 0
-16.155206 -0.650948 17.478389 23.809840 0.040272 0.746482 0.070298 -0.011027 170569.000000 0 1 0
-17.162206 -1.314948 16.749089 24.016711 0.076469 0.799043 0.089336 -0.005800 36607.800000 0 1 0
-17.172106 -2.799748 17.065889 24.371385 0.161618 0.795059 0.085606 -0.003953 172658.000000 0 1 0
-17.688206 -2.966848 18.399389 25.694597 0.166183 0.772626 0.095237 -0.005421 101369.000000 0 0 1
-17.687406 -4.330848 18.713489 26.111209 0.240130 0.771760 0.115372 -0.016446 -218287.000000 0 0 1
-18.596806 -4.809248 19.838489 27.614049 0.253062 0.769268 0.111973 -0.014834 -394183.000000 0 0 1
-18.105206 -4.413748 21.083289 28.138670 0.239119 0.723846 0.103726 -0.006632 3540.150000 0 0 1
-18.899406 -4.741748 22.206589 29.543262 0.245820 0.720216 0.101291 -0.018586 -522886.000000 0 0 1
-18.930006 -6.197348 22.657119 30.167819 0.316385 0.721167 0.115914 -0.019546 -246846.000000 0 0 1
-17.746906 -6.666948 23.223979 29.979227 0.359356 0.684605 0.067609 -0.025859 469561.000000 0 0 1
-16.708606 -7.077948 22.296879 28.747620 0.400693 0.683119 0.077723 -0.014612 1457850.000000 0 0 1
-15.291606 -7.376648 22.946109 28.544213 0.449468 0.637007 0.092748 -0.020442 983834.000000 0 0 1
-15.120706 -8.665948 23.544439 29.292917 0.520419 0.637210 0.098683 -0.036257 11501.000000 0 0 1
-15.317006 -8.629348 24.939569 30.513250 0.513060 0.614025 0.091034 -0.032819 123763.000000 0 0 1
-16.596206 -9.382248 25.356319 31.723864 0.514533 0.644697 0.073792 -0.018396 -211710.000000 0 0 1
-16.477506 -10.826648 25.243849 32.030867 0.581320 0.663064 0.071450 -0.031036 297471.000000 0 0 1
-15.643206 -11.423248 26.263439 32.633858 0.630732 0.635473 0.060701 -0.026557 329676.000000 0 0 1
-15.735806 -12.936748 26.198779 33.186610 0.688085 0.660903 0.049875 -0.031612 -35785.000000 0 0 1
-16.894806 -13.497848 26.783259 34.423384 0.674091 0.679234 0.054262 -0.029978 130546.000000 0 0 1
-17.194306 -14.860948 26.475149 34.891624 0.712735 0.709355 0.066805 -0.024457 -122779.000000 0 0 1
-16.334106 -15.912048 27.201509 35.495329 0.772310 0.697671 0.057429 -0.023272 626510.000000 0 0 1
-14.964806 -15.975748 26.783689 34.590981 0.818060 0.685193 0.083939 -0.039331 601960.000000 0 0 1
-14.274806 -16.982548 27.472599 35.311765 0.871810 0.679318 0.098719 -0.040562 122369.000000 0 0 1
-12.836706 -17.117048 26.890939 34.364181 0.927336 0.672080 0.111322 -0.052088 494517.000000 0 0 1
-11.973706 -18.041148 27.574409 35.059958 0.984858 0.665687 0.156859 -0.058175 399128.000000 0 0 1
-10.786206 -18.241648 26.820049 34.182086 1.036802 0.668709 0.159694 -0.064911 218784.000000 0 0 1
-9.669306 -18.894948 27.702019 34.898659 1.097801 0.653790 0.215580 -0.078067 36808.300000 0 0 1
-9.880306 -20.271148 28.003629 35.954737 1.117273 0.677954 0.218358 -0.065319 346990.000000 0 0 1
-8.790606 -20.860748 28.709969 36.561016 1.171983 0.667678 0.241819 -0.065303 240449.000000 0 0 1
-9.176406 -22.106048 29.530979 38.012662 1.177334 0.681113 0.232259 -0.069914 -111275.000000 0 0 1
-9.313206 -23.228548 28.668619 38.055104 1.189482 0.717663 0.268744 -0.071840 92873.600000 0 0 1
-9.596206 -24.369148 29.426509 39.393679 1.195659 0.727280 0.218222 -0.063180 -210420.000000 0 0 1
-9.708706 -25.650148 28.524509 39.570654 1.208956 0.765768 0.206674 -0.055026 583957.000000 0 0 1
-10.984606 -25.710148 27.872459 39.478440 1.167023 0.786938 0.182593 -0.055344 609515.000000 0 0 1
-11.205906 -26.986548 27.310189 39.996156 1.177221 0.819180 0.159725 -0.055372 439830.000000 0 0 1
-12.536506 -27.054448 26.464109 39.867985 1.136871 0.844917 0.136440 -0.047417 480590.000000 0 0 1
-12.694106 -26.471348 25.191749 38.684581 1.123649 0.861620 0.152078 -0.058548 121341.000000 0 0 1
-12.674306 -25.077748 25.177309 37.728350 1.102838 0.840177 0.130149 -0.041553 -332527.000000 0 0 1
-12.921706 -24.404348 23.794359 36.451532 1.083841 0.859565 0.130859 -0.056865 23410.300000 0 0 1
-14.276706 -24.399548 23.404749 36.700743 1.041389 0.879263 0.103288 -0.039857 38504.600000 0 0 1
-14.324806 -24.008748 22.050089 35.606551 1.032844 0.902983 0.117747 -0.046459 -567981.000000 0 0 1
-15.663106 -24.077848 21.340489 35.783965 0.994056 0.931825 0.109408 -0.045580 -678467.000000 0 0 1
-16.045306 -25.415048 21.065589 36.703345 1.007657 0.959485 0.120192 -0.046804 723116.000000 0 0 1
-17.317506 -25.516148 20.411089 36.980838 0.974517 0.986111 0.113703 -0.046420 706153.000000 0 0 1
-17.711606 -26.943948 20.038589 37.963435 0.989271 1.014742 0.099415 -0.047913 214736.000000 0 0 1
-16.887706 -27.328448 18.938889 37.292361 1.017280 1.038110 0.092945 -0.045479 209170.000000 0 0 1
-16.757506 -28.708948 18.836989 38.207982 1.042446 1.055248 0.102886 -0.036240 -95021.600000 0 0 1
-15.651106 -29.024548 17.811389 37.478355 1.076254 1.075554 0.106976 -0.041174 -222732.000000 0 0 1
-16.024006 -28.953848 16.464089 36.961606 1.065321 1.109133 0.105393 -0.051074 395206.000000 0 0 1
-14.900606 -28.991548 15.561789 36.120731 1.096040 1.125387 0.103423 -0.053508 262118.000000 0 0 1
-15.273806 -28.412548 14.228989 35.256576 1.077544 1.155366 0.102053 -0.047164 -230332.000000 0 0 1
-15.197306 -27.007648 14.187089 34.082909 1.058252 1.141477 0.111212 -0.051543 -174005.000000 0 0 1
-15.390206 -26.401348 12.897989 33.169983 1.043021 1.171419 0.115502 -0.048159 120347.000000 0 0 1
-14.361206 -26.662448 11.773589 32.492273 1.076724 1.200008 0.109381 -0.043131 372224.000000 0 0 1
-14.729606 -25.863448 10.650289 31.611832 1.053094 1.227165 0.103093 -0.035679 91815.400000 0 0 1
-13.756706 -26.125848 9.673689 31.070680 1.086131 1.254189 0.107935 -0.029671 56188.200000 0 0 1
-14.157906 -25.498248 8.337089 30.333381 1.063931 1.292364 0.123199 -0.026449 381286.000000 0 0 1
-15.222506 -26.112648 7.607489 31.168397 1.043004 1.324229 0.110841 -0.039613 264755.000000 0 0 1
-15.440106 -25.517248 6.374289 30.498498 1.026646 1.360241 0.111938 -0.039755 -620665.000000 0 0 1
-16.399406 -26.121448 5.424089 31.315992 1.010176 1.396713 0.112862 -0.049691 -521406.000000 0 0 1
-15.873006 -27.270748 4.804989 31.917612 1.043678 1.419678 0.107105 -0.032513 108390.000000 0 0 1
-16.586406 -27.459548 3.571889 32.278384 1.027418 1.459910 0.156286 -0.034916 -162804.000000 0 0 1
-16.108406 -28.585148 2.733289 32.925102 1.057630 1.487685 0.153088 -0.034151 -529549.000000 0 0 1
-14.809306 -28.312848 2.271289 32.032666 1.088872 1.499831 0.100086 -0.015877 -89916.200000 0 0 1
-14.190606 -29.422548 1.618689 32.705960 1.121406 1.521284 0.088886 -0.020175 510301.000000 0 0 1
-12.770806 -29.151848 1.032989 31.843222 1.157900 1.538351 0.081384 -0.021682 274354.000000 0 0 1
-12.610806 -28.504848 -0.217411 31.170596 1.154273 1.577771 0.091865 -0.016782 2184.680000 0 0 1
-12.801606 -27.079648 -0.172111 29.953599 1.129194 1.576542 0.082642 -0.018761 -317411.000000 0 0 1
-12.481506 -26.338548 -1.548011 29.187385 1.128256 1.623858 0.089484 -0.025547 -957654.000000 0 0 1
-11.140706 -26.420948 -1.845311 28.733030 1.171756 1.635063 0.102304 -0.028885 -1337000.000000 0 0 1
-10.863606 -25.906448 -3.094211 28.261920 1.173730 1.680500 0.117335 -0.026038 -1536820.000000 0 0 1
-9.500806 -26.266848 -3.503711 28.151175 1.223734 1.695580 0.109363 -0.032278 -1406900.000000 0 0 1
-8.852706 -25.472348 -4.517311 27.342587 1.236313 1.736769 0.115443 -0.034226 -439299.000000 0 0 1
-7.699206 -26.145648 -4.921911 27.696532 1.284417 1.749454 0.131430 -0.024780 -375156.000000 0 0 1
-6.735206 -25.250148 -5.746111 26.757257 1.310126 1.787232 0.096772 -0.025283 -35447.800000 0 0 1
-6.917906 -25.048248 -7.153011 26.952509 1.301330 1.839408 0.110192 -0.021637 -231746.000000 0 0 1
-6.341306 -23.816948 -7.542711 25.775021 1.310581 1.867779 0.088802 -0.021836 -248039.000000 0 0 1
-6.472506 -23.483048 -9.037111 25.981075 1.301849 1.926057 0.100686 -0.028280 -81073.400000 0 0 1
-5.578906 -24.242648 -9.842611 26.752704 1.344607 1.947558 0.069450 -0.029683 -9779.390000 0 0 1
-5.642706 -24.201548 -11.278011 27.290083 1.341734 1.996832 0.059314 -0.011916 -180788.000000 0 0 1
-6.893306 -24.853148 -11.931011 28.417348 1.300236 2.004076 0.093661 -0.019950 185847.000000 0 0 1
-6.923706 -24.838348 -13.360911 29.041267 1.298946 2.048866 0.110163 -0.026511 -70969.000000 0 0 1
-7.932506 -25.703048 -13.833911 30.248115 1.271449 2.045807 0.163015 -0.032806 -726022.000000 0 0 1
-8.389406 -25.477648 -15.287111 30.873751 1.252694 2.088803 0.155705 -0.038217 -394806.000000 0 0 1
-7.554206 -25.894748 -16.318011 31.525886 1.286946 2.114848 0.141022 -0.051828 863956.000000 0 0 1
-6.263206 -25.222648 -16.328611 30.692561 1.327403 2.131764 0.132683 -0.039633 661725.000000 0 0 1
-5.154206 -25.979548 -17.090211 31.521074 1.374945 2.143830 0.141789 -0.033507 -96797.800000 0 0 1
-5.248306 -25.946348 -18.525011 32.309964 1.371214 2.181389 0.206180 -0.050216 1144890.000000 0 0 1
-4.022106 -26.522748 -19.055011 32.904817 1.420296 2.188414 0.197102 -0.054895 1227230.000000 0 0 1
-27.000556 14.613352 -4.141179 30.979501 -0.496081 1.704872 0.190204 -0.051571 -114874.000000 0 0 1
-26.560316 13.277952 -4.065079 29.971308 -0.463581 1.706848 0.205691 -0.048227 -285139.000000 0 0 1
-25.161636 13.259852 -4.159279 28.744238 -0.485003 1.716006 0.234505 -0.040940 -300990.000000 0 0 1
-24.638106 11.805252 -3.908779 27.598529 -0.446826 1.712904 0.243915 -0.048900 -10858.000000 0 0 1
-24.865406 10.856752 -4.953179 27.580636 -0.411672 1.751365 0.227437 -0.023725 -14583.800000 0 0 1
-26.183626 10.360552 -4.977779 28.595482 -0.376784 1.745763 0.243205 -0.037199 -161708.000000 0 0 1
-26.482426 9.490652 -6.205379 28.807952 -0.344117 1.787903 0.261284 -0.031255 -44705.800000 0 0 1
-26.506376 10.262852 -7.364679 29.362435 -0.369410 1.824323 0.285823 -0.031765 42954.500000 0 0 1
-26.919866 9.632752 -8.531579 29.837174 -0.343634 1.860781 0.272312 -0.036003 -160651.000000 0 0 1
-27.118766 10.503852 -9.805479 30.690484 -0.369535 1.895994 0.266312 -0.036490 599936.000000 0 0 1
-25.937446 11.185252 -10.272779 30.056463 -0.407144 1.919610 0.222183 -0.034855 866406.000000 0 0 1
-26.187936 11.759552 -11.538979 30.939346 -0.422059 1.952988 0.222344 -0.038830 -124662.000000 0 0 1
-25.250226 12.936352 -11.860879 30.750668 -0.473460 1.966775 0.160890 -0.024988 -124229.000000 0 0 1
-25.409196 14.148352 -11.134579 31.141323 -0.508064 1.936439 0.154329 -0.031847 41556.800000 0 0 1
-24.599906 15.168752 -11.685879 31.173806 -0.552549 1.955044 0.126850 -0.029152 -155441.000000 0 0 1
-24.732206 16.541952 -11.061379 31.743855 -0.589507 1.926721 0.130107 -0.035646 -264881.000000 0 0 1
-23.961706 16.804352 -9.909279 30.898923 -0.611598 1.897265 0.119345 -0.025595 -123246.000000 0 0 1
-24.100506 18.147852 -9.389679 31.596598 -0.645423 1.872528 0.086330 -0.015908 -46113.000000 0 0 1
-22.942306 18.562452 -8.457179 30.699152 -0.680261 1.849891 0.090776 -0.018920 -142394.000000 0 0 1
-22.922606 17.920452 -7.179179 29.968802 -0.663532 1.812704 0.118986 -0.034076 652295.000000 0 0 1
-24.031706 18.253052 -6.315779 30.831573 -0.649579 1.777105 0.123780 -0.037900 221513.000000 0 0 1
-24.164606 17.389252 -5.053279 30.196853 -0.623770 1.738932 0.135590 -0.028026 108584.000000 0 0 1
-23.111406 17.517252 -4.116179 29.290513 -0.648569 1.711792 0.130064 -0.041141 520254.000000 0 0 1
-23.596206 17.011852 -2.902279 29.233667 -0.624653 1.670239 0.139830 -0.045396 -175691.000000 0 0 1
-22.392606 16.850652 -1.981279 28.094461 -0.645105 1.641377 0.151170 -0.059212 -493690.000000 0 0 1
-21.859306 18.012252 -1.440179 28.360970 -0.689210 1.621598 0.146164 -0.053527 -194504.000000 0 0 1
-20.865606 17.689652 -0.506779 27.359717 -0.703210 1.589320 0.204298 -0.075717 -144650.000000 0 0 1
-20.132606 18.877852 0.081721 27.598946 -0.753245 1.567835 0.160672 -0.065988 -55579.900000 0 0 1
-21.051406 19.653452 0.828721 28.811572 -0.751068 1.542029 0.139031 -0.053656 280817.000000 0 0 1
-20.869606 21.045252 0.684421 29.646442 -0.789589 1.547708 0.160857 -0.055113 415455.000000 0 0 1
-21.973006 21.694152 1.559521 30.917331 -0.779012 1.520333 0.120122 -0.037020 492349.000000 0 0 1
-21.554306 21.589852 2.908421 30.645860 -0.786222 1.475749 0.127228 -0.034326 -75959.400000 0 0 1
-22.629906 21.698852 3.778721 31.578973 -0.764398 1.450850 0.104436 -0.023946 -335111.000000 0 0 1
-22.187506 21.287852 5.229621 31.189854 -0.764708 1.402330 0.119627 -0.027831 -125492.000000 0 0 1
-21.322906 22.233952 5.784421 31.344449 -0.806311 1.385189 0.102046 -0.021597 -97179.600000 0 0 1
-20.823206 21.801352 7.066121 30.965060 -0.808342 1.340571 0.095786 -0.021863 -37426.600000 0 0 1
-21.855206 21.835852 8.199621 31.963859 -0.784955 1.311368 0.111130 -0.038895 -265571.000000 0 0 1
-22.870606 20.847752 8.268021 32.032071 -0.739161 1.309724 0.143844 -0.046270 502308.000000 0 0 1
-23.291906 20.423952 9.550521 32.417020 -0.719888 1.271744 0.172939 -0.047209 79370.900000 0 0 1
-23.989506 21.412852 10.555021 33.843982 -0.728707 1.253633 0.181412 -0.042953 -255683.000000 0 0 1
-25.278416 21.731952 10.104221 34.833480 -0.710101 1.276494 0.202422 -0.040926 -72767.600000 0 0 1
-26.123006 22.355852 11.055421 36.116726 -0.707847 1.259700 0.206498 -0.043606 853019.000000 0 0 1
-27.525176 22.647552 10.377221 37.124569 -0.688486 1.287498 0.202055 -0.042389 604064.000000 0 0 1
-28.480086 23.198652 11.232821 38.411835 -0.683554 1.274028 0.189381 -0.031658 -110691.000000 0 0 1
-28.556026 24.621952 11.177521 39.327142 -0.711553 1.282605 0.174085 -0.030596 -50385.500000 0 0 1
-29.008796 25.258852 12.484221 40.439778 -0.716407 1.256958 0.170297 -0.025642 353537.000000 0 0 1
-27.957416 25.248952 13.455421 40.002188 -0.734537 1.227740 0.156157 -0.028626 275726.000000 0 0 1
-28.333406 25.780152 14.704021 41.031773 -0.738250 1.204289 0.137452 -0.016232 -233860.000000 0 0 1
-27.211756 25.957552 15.726221 40.762583 -0.761814 1.174721 0.130670 -0.021327 -31713.600000 0 0 1
-26.611676 24.822552 16.307521 39.878260 -0.750627 1.149512 0.139576 -0.022082 342751.000000 0 0 1
-25.543746 25.158452 17.180721 39.756859 -0.777799 1.123927 0.117992 -0.014371 351046.000000 0 0 1
-25.034186 23.972452 18.058221 39.083094 -0.763736 1.090495 0.121276 -0.009094 -322244.000000 0 0 1
-23.805906 24.124252 18.697721 38.707951 -0.792040 1.066666 0.115586 -0.022025 53636.200000 0 0 1
-23.344206 22.895452 19.286921 37.962337 -0.775693 1.037872 0.123575 -0.023917 1122760.000000 0 0 1
-21.848406 22.848252 19.793121 37.298299 -0.807764 1.011404 0.099235 -0.022661 728278.000000 0 0 1
-20.809306 22.961052 18.844521 36.267797 -0.834518 1.024421 0.104532 -0.025922 379882.000000 0 0 1
-19.534006 22.553052 19.309721 35.539877 -0.857009 0.996403 0.088135 -0.025842 195141.000000 0 0 1
-19.266006 20.974852 19.330421 34.420758 -0.827838 0.974488 0.093091 -0.015919 -581141.000000 0 0 1
-19.905506 20.235252 20.351421 34.926708 -0.793613 0.948762 0.109832 -0.009628 -476148.000000 0 0 1
-19.340506 20.313552 21.591421 35.396116 -0.809932 0.914743 0.105891 -0.007140 -437809.000000 0 0 1
-20.286006 20.185852 22.820921 36.603075 -0.782923 0.897623 0.109304 -0.005763 305522.000000 0 0 1
-21.311506 21.187752 22.872921 37.766012 -0.782486 0.920216 0.100172 -0.012913 533156.000000 0 0 1
-22.159006 20.909852 23.995521 38.781806 -0.756403 0.903669 0.091504 -0.008242 670338.000000 0 0 1
-23.298906 21.993152 24.126021 40.107389 -0.756576 0.925374 0.092596 -0.013734 234375.000000 0 0 1
-22.745606 23.339852 24.226621 40.608379 -0.798292 0.931549 0.093656 -0.020828 941039.000000 0 0 1
-23.749306 24.374652 24.376521 41.861294 -0.798392 0.949221 0.087108 -0.022484 387905.000000 0 0 1
-24.563306 24.741452 23.104521 41.824805 -0.789011 0.985541 0.076985 -0.025746 61325.500000 0 0 1
-25.647076 23.848752 22.926021 41.858547 -0.749081 0.991181 0.067636 -0.023625 -245220.000000 0 0 1
-26.270916 24.202452 21.733921 41.812475 -0.744440 1.024185 0.069759 -0.025220 -493265.000000 0 0 1
-27.203956 23.142452 21.156621 41.511817 -0.704901 1.036015 0.083541 -0.022770 -121622.000000 0 0 1
-28.377956 23.059652 21.943821 42.644897 -0.682371 1.030289 0.083193 -0.023887 -434349.000000 0 0 1
-29.319456 22.235352 21.370321 42.552697 -0.648844 1.044646 0.094583 -0.025244 418914.000000 0 0 1
-30.760016 22.313652 22.029921 43.924880 -0.627577 1.045423 0.100813 -0.024074 676052.000000 0 0 1
-31.458106 23.428052 21.554621 44.755868 -0.640125 1.068312 0.126814 -0.025911 1298990.000000 0 0 1
-32.867736 23.546852 21.857421 45.961823 -0.621656 1.075200 0.131314 -0.032675 1671720.000000 0 0 1
-33.902016 22.757152 21.006521 45.918499 -0.591178 1.095644 0.145614 -0.036416 -663647.000000 0 0 1
-34.013464 21.435852 21.422121 45.555667 -0.562342 1.081233 0.133237 -0.035968 402078.000000 0 0 1
-34.733541 20.596852 20.527721 45.299410 -0.535254 1.100493 0.121690 -0.021820 -51233.300000 0 0 1
-36.244476 20.781452 20.336321 46.466082 -0.520608 1.117802 0.156430 -0.030670 -540748.000000 0 0 1
-36.867966 19.861152 19.479921 46.186357 -0.494134 1.135402 0.135056 -0.018529 544526.000000 0 0 1
37.768521 20.027952 19.449621 46.966666 0.487578 1.143826 0.169868 -0.041041 1038410.000000 0 0 1
36.984201 19.106752 18.434721 45.527332 0.476854 1.153910 0.172514 -0.034466 290916.000000 0 0 1
37.095391 17.688152 18.682621 45.143981 0.444939 1.144122 0.175585 -0.034139 192389.000000 0 0 1
36.442321 16.957652 17.659121 43.902725 0.435528 1.156842 0.193984 -0.051363 -38478.600000 0 0 1
36.888941 15.532052 17.701321 43.765001 0.398519 1.154405 0.196439 -0.067759 -38133.300000 0 0 1
36.257901 14.837052 16.655021 42.569510 0.388420 1.168815 0.226214 -0.070399 -149698.000000 0 0 1
36.822441 13.592052 16.433321 42.552204 0.353609 1.174297 0.203875 -0.062409 159728.000000 0 0 1
35.973331 12.682252 15.466521 41.159851 0.338941 1.185572 0.189984 -0.073012 149581.000000 0 0 1
35.907871 13.084152 14.120621 40.742633 0.349429 1.216873 0.183059 -0.065771 -106013.000000 0 0 1
35.150971 12.167352 13.393121 39.534932 0.333237 1.225190 0.182561 -0.055718 -453048.000000 0 0 1
34.933431 12.507052 11.885321 38.961927 0.343806 1.260806 0.198452 -0.057609 -538271.000000 0 0 1
36.103011 12.440052 11.112821 39.770304 0.331830 1.287601 0.165405 -0.044868 -64832.800000 0 0 1
35.864911 12.230652 9.690721 39.112539 0.328653 1.320424 0.158011 -0.040604 47858.800000 0 0 1
37.202221 12.278052 8.900521 40.174308 0.318780 1.347395 0.100077 -0.010427 28654.300000 0 0 1
38.001601 11.111652 9.128321 40.631474 0.284469 1.344201 0.153952 -0.026349 68227.000000 0 0 1
-36.791356 11.137652 8.515121 39.372052 -0.293955 1.352801 0.194352 -0.034741 -59949.100000 0 0 1
-36.652916 11.093452 6.976621 38.925239 -0.293897 1.390591 0.164020 -0.042500 -752056.000000 0 0 1
-37.181246 12.228552 6.343021 39.651185 -0.317747 1.410136 0.157945 -0.055105 -95879.800000 0 0 1
-36.976566 12.226852 4.988421 39.263809 -0.319347 1.443403 0.196648 -0.063302 -522195.000000 0 0 1
-37.982146 13.126052 4.315121 40.417285 -0.332736 1.463828 0.181170 -0.079274 -388402.000000 0 0 1
36.794021 12.514352 4.241821 39.094782 0.327845 1.462081 0.161304 -0.072028 255476.000000 0 0 1
35.668981 13.373252 4.313921 38.337057 0.358706 1.458031 0.160715 -0.060676 274221.000000 0 0 1
35.308161 13.983952 5.637221 38.392647 0.377100 1.423433 0.127462 -0.041787 -1357830.000000 0 0 1
34.504691 15.168352 5.600821 38.105403 0.414174 1.423280 0.112953 -0.037121 224752.000000 0 0 1
34.018391 15.566952 6.868321 38.036229 0.429159 1.389227 0.103929 -0.031786 185822.000000 0 0 1
32.820951 14.700652 7.332421 36.702702 0.421110 1.369664 0.162715 -0.042380 -805613.000000 0 0 1
33.106441 13.381952 7.788421 36.548222 0.384130 1.356050 0.184210 -0.044703 -277969.000000 0 0 1
31.961121 12.619152 8.041421 35.290518 0.376040 1.340913 0.197951 -0.045312 -407441.000000 0 0 1
31.860331 11.353352 7.100921 34.560127 0.342318 1.363857 0.195171 -0.041419 -368931.000000 0 0 1
31.752711 11.716552 5.739321 34.328589 0.353495 1.402820 0.155585 -0.042072 329771.000000 0 0 1
31.957371 10.598452 4.900421 34.023739 0.320229 1.426264 0.162931 -0.043961 -319988.000000 0 0 1
31.498351 10.842652 3.449121 33.490381 0.331525 1.467625 0.143607 -0.052214 -75220.500000 0 0 1
30.090991 10.816252 3.336021 32.149464 0.345070 1.466843 0.129920 -0.044094 156562.000000 0 0 1
29.631791 11.071552 1.964621 31.693564 0.357576 1.508769 0.149362 -0.053824 -102010.000000 0 0 1
28.129691 10.846652 1.767721 30.200235 0.368026 1.512230 0.171574 -0.038063 -238955.000000 0 0 1
27.917991 9.449952 1.611221 29.517992 0.326384 1.516185 0.184096 -0.038391 -472363.000000 0 0 1
26.569491 9.094052 1.602121 28.128391 0.329776 1.513808 0.185956 -0.039285 -598008.000000 0 0 1
26.390891 7.540052 1.498121 27.487740 0.278293 1.516268 0.213418 -0.041854 94410.900000 0 0 1
26.785191 6.865552 2.702521 27.782834 0.250917 1.473369 0.226258 -0.034128 45261.900000 0 0 1
28.168591 6.612252 2.707821 29.060689 0.230564 1.477483 0.243443 -0.042624 -580042.000000 0 0 1
28.654691 5.988052 4.026421 29.549283 0.206008 1.434110 0.236118 -0.049742 -335607.000000 0 0 1
30.051291 5.799452 4.000321 30.866102 0.190641 1.440828 0.256425 -0.054296 98687.200000 0 0 1
30.508891 5.434952 5.275121 31.434981 0.176294 1.402188 0.236735 -0.035187 92277.800000 0 0 1
32.041991 5.586152 5.442321 32.977464 0.172604 1.405006 0.185478 -0.040471 70556.500000 0 0 1
32.427161 6.904552 5.682121 33.637480 0.209792 1.401060 0.185033 -0.047929 -174236.000000 0 0 1
33.771051 6.928252 6.110021 35.011668 0.202346 1.395384 0.168303 -0.037818 9045.440000 0 0 1
34.183191 8.202852 6.863421 35.817368 0.235514 1.377981 0.127890 -0.033558 363878.000000 0 0 1
33.504391 8.410552 8.119021 35.485209 0.245946 1.339951 0.143293 -0.041006 590036.000000 0 0 1
34.378711 9.191652 8.887921 36.679386 0.261254 1.326046 0.174809 -0.045244 -22193.800000 0 0 1
34.248661 8.943152 10.375221 36.886257 0.255421 1.285673 0.174971 -0.045080 733627.000000 0 0 1
33.028311 9.556352 10.879021 36.063087 0.281647 1.264356 0.193663 -0.047720 1286690.000000 0 0 1
32.913901 9.352352 12.268221 36.349699 0.276849 1.226531 0.202371 -0.050832 -922068.000000 0 0 1
31.543631 9.736252 12.825821 35.416055 0.299383 1.200226 0.179092 -0.051128 -611578.000000 0 0 1
31.231041 11.158352 12.986521 35.616519 0.343149 1.197571 0.239592 -0.078883 539481.000000 0 0 1
30.874591 11.782652 11.743721 35.071159 0.364570 1.229346 0.230898 -0.073002 122392.000000 0 0 1
29.396391 11.724452 11.230321 33.581701 0.379506 1.229809 0.197409 -0.057963 258373.000000 0 0 1
29.210891 12.587752 10.108921 33.375409 0.406880 1.263078 0.184491 -0.041964 -289122.000000 0 0 1
27.993291 12.378152 9.463421 32.037467 0.416334 1.270937 0.176892 -0.040924 -565726.000000 0 0 1
27.687491 13.491352 8.407721 31.926533 0.453414 1.304307 0.176437 -0.039987 -151751.000000 0 0 1
27.186191 14.636752 9.022621 32.167237 0.493885 1.286491 0.166435 -0.031463 167936.000000 0 0 1
27.471191 15.792652 8.279721 32.750999 0.521744 1.315215 0.149413 -0.031003 -1031100.000000 0 0 1
26.788491 16.970852 8.907021 32.938853 0.564697 1.296977 0.168930 -0.040976 215536.000000 0 0 1
25.451191 17.323352 8.626021 31.972955 0.597621 1.297620 0.193434 -0.043658 772350.000000 0 0 1
24.417391 16.330952 8.913221 30.697792 0.589495 1.276200 0.207558 -0.041118 -162423.000000 0 0 1
23.057091 17.030052 9.009021 30.046873 0.636167 1.266280 0.189911 -0.056332 -684608.000000 0 0 1
22.650391 17.511952 7.730621 29.655879 0.658148 1.307072 0.189552 -0.048893 665599.000000 0 0 1
21.657191 18.552852 7.950621 29.604976 0.708348 1.298902 0.203094 -0.049188 691272.000000 0 0 1
21.137891 19.301852 6.683421 29.394558 0.740027 1.341421 0.179576 -0.039716 -39369.900000 0 0 1
22.090491 20.160752 6.107421 30.524519 0.739757 1.369354 0.134184 -0.024033 -149830.000000 0 0 1
21.793591 20.522652 4.774621 30.313971 0.755373 1.412632 0.157220 -0.032918 24053.800000 0 0 1
19.259094 17.041852 33.332479 42.099781 0.724394 0.657129 0.121828 -0.031224 -38841.600000 0 0 1
18.917294 17.774552 32.173170 41.338983 0.754264 0.678880 0.131274 -0.029663 37376.700000 0 0 1
18.190094 16.905252 31.349810 39.993470 0.748804 0.669917 0.154378 -0.043747 -272644.000000 0 0 1
17.614394 17.626152 30.103379 39.078914 0.785732 0.691449 0.164269 -0.042013 239766.000000 0 0 1
18.575994 17.997052 29.115559 38.944540 0.769570 0.726331 0.165685 -0.026371 136778.000000 0 0 1
17.953794 18.337452 27.921699 37.923899 0.795969 0.743275 0.171845 -0.026371 -531590.000000 0 0 1
18.944094 18.525152 26.811079 37.694746 0.774218 0.779495 0.158796 -0.025299 -530827.000000 0 0 1
19.710694 19.693752 26.964029 38.773885 0.784968 0.801796 0.172741 -0.025439 190322.000000 0 0 1
20.604294 19.931852 25.898579 38.633561 0.768811 0.836096 0.143364 -0.024383 -83576.600000 0 0 1
21.439894 21.244252 26.012889 39.845422 0.780815 0.859462 0.146688 -0.018630 121964.000000 0 0 1
20.748394 22.476752 25.673919 39.935577 0.825362 0.872540 0.156957 -0.028456 658701.000000 0 0 1
21.520694 23.680252 25.968209 41.209737 0.833139 0.889053 0.160184 -0.025535 263525.000000 0 0 1
20.695494 24.999952 25.968949 41.565458 0.879320 0.895956 0.173758 -0.027392 2771.410000 0 0 1
20.315794 25.298752 24.643979 40.744128 0.894207 0.921222 0.170006 -0.034779 59932.600000 0 0 1
19.598594 26.516752 24.759409 41.234346 0.934306 0.926725 0.170534 -0.043856 -58911.000000 0 0 1
19.673294 27.264952 23.393999 40.959678 0.945747 0.962894 0.141798 -0.039296 340699.000000 0 0 1
20.897994 27.926652 23.105579 41.838879 0.928373 0.985734 0.149162 -0.043164 86003.000000 0 0 1
20.807994 28.656052 21.930789 41.654548 0.942748 1.016327 0.127161 -0.042801 -569522.000000 0 0 1
22.019794 29.489252 21.577689 42.662442 0.929407 1.040514 0.144193 -0.041766 -1513370.000000 0 0 1
23.097794 28.794252 21.060789 42.499104 0.894736 1.052319 0.144214 -0.036844 -1124860.000000 0 0 1
24.100894 29.734352 20.824589 43.573481 0.889661 1.072512 0.158088 -0.047310 -421881.000000 0 0 1
24.260194 30.155652 19.324789 43.259309 0.893318 1.107701 0.165703 -0.038456 -713945.000000 0 0 1
23.167894 30.901952 18.902989 43.000057 0.927473 1.115639 0.135343 -0.032972 -157376.000000 0 0 1
23.171394 30.876252 17.480489 42.377162 0.927001 1.145602 0.141571 -0.023510 -344975.000000 0 0 1
22.531494 32.130852 16.926189 42.738223 0.959237 1.163593 0.172456 -0.027983 -635967.000000 0 0 1
23.310194 33.326452 17.076889 44.109383 0.960439 1.173259 0.172915 -0.034073 516740.000000 0 0 1
23.734094 -33.605148 15.814689 44.076270 -0.955879 1.203811 0.158488 -0.034221 56849.600000 0 0 1
24.811194 33.109052 14.989089 44.005425 0.927693 1.223221 0.126813 -0.029852 -308022.000000 0 0 1
24.419494 32.009052 14.138289 42.670625 0.919094 1.233078 0.159423 -0.042001 69565.500000 0 0 1
23.688194 32.471952 13.014389 42.248461 0.940547 1.257660 0.123105 -0.028304 -55923.300000 0 0 1
23.005894 31.526352 12.052289 40.846538 0.940391 1.271275 0.107182 -0.040367 222120.000000 0 0 1
23.962294 30.944152 11.164989 40.698759 0.911879 1.292901 0.122031 -0.051443 208756.000000 0 0 1
23.405294 29.754352 10.692889 39.337858 0.904269 1.295511 0.108180 -0.044079 -1311960.000000 0 0 1
24.264394 28.895152 9.757089 38.972957 0.872289 1.317749 0.109126 -0.041458 1215610.000000 0 0 1
25.490794 28.329152 10.314789 39.480581 0.838087 1.306467 0.134228 -0.047384 881711.000000 0 0 1
26.477294 29.304252 10.531789 40.874256 0.836034 1.310193 0.122767 -0.045231 -180428.000000 0 0 1
27.855994 28.621552 10.973689 41.419457 0.798952 1.302654 0.142155 -0.050196 1137320.000000 0 0 1
27.949994 27.855152 12.134689 41.283923 0.783699 1.272458 0.148963 -0.041926 435969.000000 0 0 1
29.270294 27.845752 12.702889 42.349727 0.760462 1.266154 0.116625 -0.029680 819488.000000 0 0 1
29.407194 26.737352 13.733089 42.050764 0.737881 1.238110 0.109172 -0.039362 -554168.000000 0 0 1
30.634994 26.972952 14.335789 43.261505 0.721915 1.233036 0.091120 -0.046484 -503879.000000 0 0 1
30.775894 26.103452 15.458689 43.214776 0.703436 1.204974 0.112072 -0.044999 -244826.000000 0 0 1
32.067494 26.345352 16.237989 44.565390 0.687749 1.197847 0.108843 -0.052318 331508.000000 0 0 1
33.286594 26.033552 15.541289 45.025268 0.663733 1.218378 0.138462 -0.040259 516002.000000 0 0 1
34.347594 26.064652 16.443589 46.146667 0.649141 1.206456 0.094902 -0.038588 107243.000000 0 0 1
35.827194 26.047752 15.985289 47.091428 0.628643 1.224462 0.115294 -0.039937 486198.000000 0 0 1
36.286094 27.279752 15.555489 47.987901 0.644650 1.240679 0.133825 -0.038818 -1354680.000000 0 0 1
37.619494 27.315452 15.231889 48.922087 0.628028 1.254183 0.167342 -0.036365 -753983.000000 0 0 1
37.988994 28.417152 14.239789 49.532512 0.642243 1.279198 0.139120 -0.041854 182355.000000 0 0 1
37.654494 29.684352 14.841189 50.192455 0.667587 1.270623 0.138306 -0.039417 14921.400000 0 0 1
37.999394 30.770052 13.989589 50.857237 0.680659 1.292128 0.103888 -0.017074 392953.000000 0 0 1
37.135694 32.042052 14.296489 51.089553 0.711900 1.287177 0.076200 -0.023024 -189069.000000 0 0 1
37.127994 33.071152 13.337789 51.478982 0.727672 1.308714 0.035835 -0.021813 876292.000000 0 0 1
36.040494 -33.473348 13.434489 50.988898 -0.748485 1.304170 0.034671 -0.015133 1501520.000000 0 0 1
34.643594 33.620152 12.831489 49.951379 0.770407 1.311004 0.095784 -0.018201 792862.000000 0 0 1
34.081194 32.547852 13.621889 49.055543 0.762389 1.289415 0.090811 -0.030549 303722.000000 0 0 1
32.915494 31.983052 13.019989 47.706031 0.771031 1.294368 0.119793 -0.029949 -95517.000000 0 0 1
32.386994 30.831152 13.883189 46.821151 0.760792 1.269755 0.145440 -0.038114 -141214.000000 0 0 1
31.635894 31.325452 14.982889 46.974468 0.780468 1.246166 0.146236 -0.025145 270153.000000 0 0 1
30.952294 30.297452 15.676489 46.062266 0.774707 1.223526 0.131515 -0.029962 -360207.000000 0 0 1
29.958494 30.751752 16.712589 46.070513 0.798464 1.199567 0.128126 -0.027584 -323259.000000 0 0 1
29.531194 29.852852 17.760889 45.593128 0.790815 1.170651 0.107869 -0.028957 -29215.200000 0 0 1
30.400494 29.863652 18.865989 46.604219 0.776490 1.154022 0.101427 -0.031075 -138900.000000 0 0 1
30.234994 28.767852 19.917189 46.243254 0.760538 1.125523 0.098176 -0.025252 -19366.400000 0 0 1
29.027494 28.752552 20.644089 45.776446 0.780640 1.102938 0.111894 -0.031451 -73627.000000 0 0 1
29.107294 27.842952 21.787689 45.794845 0.763201 1.074960 0.081440 -0.021980 333260.000000 0 0 1
27.807094 27.889352 22.639709 45.426939 0.786875 1.049071 0.093932 -0.022248 201693.000000 0 0 1
26.686494 27.231052 22.094289 44.066503 0.795498 1.045597 0.135373 -0.032180 -178511.000000 0 0 1
25.620994 26.999652 22.981729 43.744444 0.811592 1.017654 0.153234 -0.042743 13025.900000 0 0 1
25.806994 25.907952 24.083289 43.786158 0.787350 0.988407 0.130969 -0.035511 -462894.000000 0 0 1
26.469194 26.284152 25.294349 45.069712 0.781890 0.974929 0.099979 -0.027118 224584.000000 0 0 1
26.256494 25.329552 26.302959 44.975941 0.767431 0.946135 0.122834 -0.023634 -777035.000000 0 0 1
27.477194 25.004752 27.161459 46.021502 0.738323 0.939501 0.101742 -0.023609 -99508.800000 0 0 1
28.004994 26.095752 27.941669 47.392033 0.750122 0.940250 0.135535 -0.035807 -126534.000000 0 0 1
28.940794 26.902952 27.330689 48.044822 0.748922 0.965680 0.093927 -0.019164 -940869.000000 0 0 1
29.230294 28.063452 28.321269 49.437452 0.765035 0.960792 0.057329 -0.018284 -755776.000000 0 0 1
29.880694 27.637652 29.431409 50.228512 0.746421 0.944744 0.053732 -0.001734 -225529.000000 0 0 1
30.500094 28.670852 30.191399 51.611956 0.754493 0.945954 0.044483 -0.013704 714749.000000 0 0 1
32.054894 28.736152 30.090349 52.523439 0.730860 0.960764 0.023403 -0.014297 412495.000000 0 0 1
32.500494 28.909252 28.743529 52.136526 0.726985 0.986859 0.009936 -0.006542 555501.000000 0 0 1
33.929894 29.043752 28.703409 53.091081 0.707963 0.999593 0.021697 -0.012021 836560.000000 0 0 1
34.462694 29.681152 27.377879 53.086686 0.710992 1.028948 0.012527 -0.009771 -398514.000000 0 0 1
34.127494 31.020652 27.164939 53.524766 0.737745 1.038491 0.012836 -0.004804 190290.000000 0 0 1
34.624594 31.442152 25.897109 53.461497 0.737265 1.065111 0.025182 -0.009337 -216625.000000 0 0 1
34.164494 32.888352 25.669589 53.923873 0.766369 1.074657 0.022766 -0.010739 -57184.300000 0 0 1
35.006694 -33.655448 26.310819 55.230580 -0.765721 1.074262 0.047065 -0.016729 490646.000000 0 0 1
34.508694 -32.358048 26.248779 54.100754 -0.753246 1.064224 0.053469 -0.014255 -251637.000000 0 0 1
35.681494 -31.459448 26.678899 54.540164 -0.722598 1.059669 0.047991 -0.016267 41432.300000 0 0 1
35.712394 -31.204848 28.057539 55.103022 -0.718140 1.036561 0.061963 -0.023624 460418.000000 0 0 1
36.954594 -30.641148 28.441309 55.798118 -0.692268 1.035939 0.069715 -0.037942 42327.500000 0 0 1
36.943594 -30.191148 29.913709 56.313093 -0.685155 1.010776 0.084619 -0.037963 -147960.000000 0 0 1
36.750394 -31.037048 31.031599 57.243776 -0.701314 0.997867 0.089225 -0.040849 863943.000000 0 0 1
35.522494 -31.788548 31.033159 56.880720 -0.729982 0.993712 0.070198 -0.037303 306973.000000 0 0 1
35.352094 -32.616448 32.400260 57.994655 -0.745171 0.978007 0.077215 -0.035586 -367361.000000 0 0 1
34.905494 -31.923048 33.579849 58.009316 -0.740799 0.953454 0.088052 -0.046124 117808.000000 0 0 1
34.806494 -32.710748 -32.654379 57.860120 -0.754368 2.170463 0.094389 -0.041586 68229.400000 0 0 1
33.940594 33.479552 -32.634349 57.774086 0.778560 2.171062 0.080831 -0.043408 -257634.000000 0 0 1
34.413094 32.455952 -33.478029 57.951948 0.756138 2.186687 0.085894 -0.042955 -186471.000000 0 0 1
33.690394 31.294652 -33.284759 56.765069 0.748549 2.197354 0.085515 -0.034442 -163713.000000 0 0 1
34.135994 30.303252 33.065112 56.363594 0.725990 0.943893 0.063890 -0.027269 578009.000000 0 0 1
35.391494 29.623952 33.117839 56.806052 0.696919 0.948382 0.048431 -0.025892 502319.000000 0 0 1
35.679894 28.709652 32.066588 55.906752 0.677567 0.959936 0.039197 -0.021695 -1296110.000000 0 0 1
36.997094 28.015852 32.050883 56.399751 0.648122 0.966382 0.039797 -0.016733 -1149620.000000 0 0 1
37.058894 26.890952 32.953409 56.412871 0.627719 0.946968 0.035194 -0.010839 26392.300000 0 0 1
-37.858004 26.162552 32.592827 56.391488 -0.604708 0.954552 0.037995 -0.015527 -198166.000000 0 0 1
-37.736204 24.919652 33.389349 56.212621 -0.583627 0.934795 0.038359 -0.017369 -101544.000000 0 0 1
37.576594 23.878652 32.839806 55.323080 0.566090 0.935271 0.030227 -0.015135 46890.800000 0 0 1
37.705394 22.709852 33.619169 55.386664 0.542107 0.918528 0.042677 -0.026025 -77000.100000 0 0 1
37.321994 21.485852 32.806817 54.137420 0.522352 0.919785 0.033226 -0.032020 -290260.000000 0 0 1
-37.771004 21.140252 31.855774 53.743365 -0.510256 0.936341 0.054747 -0.031078 -30969.600000 0 0 1
37.902394 20.031952 31.128179 52.979562 0.486198 0.942768 0.050584 -0.028076 121105.000000 0 0 1
-36.947604 19.521052 30.299889 51.616665 -0.486065 0.943426 0.063287 -0.043058 201280.000000 0 0 1
-36.522404 20.543052 29.377899 51.175813 -0.512373 0.959343 0.067932 -0.037315 63798.100000 0 0 1
-35.300404 20.251252 28.714389 49.807106 -0.520844 0.956343 0.064488 -0.037478 215118.000000 0 0 1
-35.387304 19.184852 27.571229 48.790290 -0.496788 0.970246 0.074985 -0.033413 -388273.000000 0 0 1
-35.647204 17.856952 27.967459 48.700848 -0.464396 0.959084 0.061720 -0.027587 26844.100000 0 0 1
-36.308804 17.171652 26.923269 48.353462 -0.441761 0.980266 0.083910 -0.037630 -320941.000000 0 0 1
-36.962904 15.984352 27.596889 48.819504 -0.408158 0.970019 0.101207 -0.040575 -589147.000000 0 0 1
-36.154404 14.840052 27.777169 47.947254 -0.389494 0.952893 0.079634 -0.031236 -64988.200000 0 0 1
-36.615204 14.066252 28.869579 48.703030 -0.366781 0.936305 0.076284 -0.029442 -152800.000000 0 0 1
-35.890704 12.705652 29.068059 47.901234 -0.340242 0.918726 0.084764 -0.020877 654234.000000 0 0 1
-34.570204 12.937552 29.580139 47.301837 -0.358104 0.895218 0.091312 -0.015076 680380.000000 0 0 1
-33.947804 11.743052 30.045789 46.830568 -0.333031 0.874234 0.099752 -0.009724 581996.000000 0 0 1
-32.426604 12.044752 30.306439 45.989574 -0.355652 0.851328 0.106591 -0.007765 -259921.000000 0 0 1
-31.749904 12.119552 29.104339 44.743742 -0.364649 0.862597 0.095074 -0.011113 -721440.000000 0 0 1
-30.417404 12.545052 29.138159 43.950302 -0.391176 0.846004 0.063636 -0.005662 -130899.000000 0 0 1
-29.390204 11.482252 29.542339 43.224715 -0.372449 0.818305 0.073686 -0.005935 -628167.000000 0 0 1
-29.009904 10.617652 28.464209 42.006193 -0.350858 0.826276 0.076811 -0.018925 -73427.500000 0 0 1
-27.970504 9.730252 28.830389 41.330596 -0.334781 0.798816 0.063360 -0.014931 -300263.000000 0 0 1
-27.827704 8.484752 27.965499 40.353949 -0.295949 0.805147 0.046660 -0.018759 -52143.900000 0 0 1
-28.708204 7.426352 28.241469 40.949874 -0.253135 0.809778 0.053269 -0.027140 -75204.700000 0 0 1
-30.042104 7.585852 27.805709 41.632086 -0.247337 0.839424 0.069996 -0.027921 -406810.000000 0 0 1
-30.802704 6.269252 27.869919 42.010028 -0.200787 0.845428 0.082110 -0.035602 -144785.000000 0 0 1
-31.348804 6.006752 29.181569 43.248035 -0.189316 0.830172 0.092395 -0.032422 273613.000000 0 0 1
-32.128804 4.814352 29.210489 43.688564 -0.148739 0.838462 0.118878 -0.036587 358149.000000 0 0 1
-32.907504 4.589652 30.572159 45.151142 -0.138577 0.826972 0.121861 -0.035936 13590.300000 0 0 1
-34.180804 5.158952 30.635679 46.189684 -0.149801 0.845633 0.137967 -0.032883 -698748.000000 0 0 1
-34.911104 4.637452 31.729917 47.403362 -0.132063 0.837449 0.153361 -0.038096 740551.000000 0 0 1
-36.401004 5.109152 31.712097 48.546818 -0.139446 0.858958 0.154795 -0.038931 338392.000000 0 0 1
-36.525704 6.452652 31.828354 48.875432 -0.174856 0.861614 0.159132 -0.034029 488089.000000 0 0 1
-37.890104 6.892452 31.861852 49.983432 -0.179939 0.879614 0.158055 -0.031742 731104.000000 0 0 1
37.938394 8.318352 32.346319 50.545039 0.215844 0.876363 0.137561 -0.023885 -97358.900000 0 0 1
38.022494 8.425252 -33.661159 51.475902 0.218063 2.283552 0.136858 -0.021064 173629.000000 0 0 1
37.963994 9.762452 -33.323909 51.449521 0.251697 2.275359 0.133717 -0.018523 -48603.600000 0 0 1
37.783194 9.951152 -31.755569 50.348896 0.257527 2.253265 0.118586 -0.013251 241449.000000 0 0 1
36.599594 9.318852 -31.279639 49.038628 0.249319 2.262509 0.124018 -0.014354 324981.000000 0 0 1
36.364994 9.542852 -29.875159 48.020869 0.256632 2.242255 0.099849 -0.009872 -584582.000000 0 0 1
35.138994 8.896352 -29.293519 46.604766 0.247966 2.250486 0.114515 -0.011348 -788071.000000 0 0 1
35.188194 7.455852 -29.294919 46.389557 0.208797 2.254280 0.114869 -0.020617 1374430.000000 0 0 1
33.957794 6.809752 -28.832229 45.064419 0.197911 2.265035 0.124303 -0.017459 1053040.000000 0 0 1
36.876831 5.550852 -19.245779 41.965612 0.149402 2.047225 0.111368 -0.027903 -730657.000000 0 0 1
36.307091 6.685652 -18.650779 41.361266 0.182102 2.038596 0.098661 -0.031046 241842.000000 0 0 1
36.987341 7.913052 -18.855679 42.263653 0.210762 2.033249 0.082345 -0.022931 -229824.000000 0 0 1
-37.623146 8.189552 -18.374479 42.663701 -0.214330 2.016044 0.095636 -0.026462 888348.000000 0 0 1
-36.563126 7.542952 -19.117479 41.943251 -0.203445 2.044060 0.108015 -0.039831 694046.000000 0 0 1
-36.117956 8.284752 -20.255179 42.230512 -0.225480 2.071034 0.098655 -0.027525 -435954.000000 0 0 1
-34.988674 7.583152 -21.023079 41.517242 -0.213431 2.101766 0.089715 -0.022148 -242758.000000 0 0 1
-35.393678 6.430352 -21.715379 42.019276 -0.179721 2.113900 0.085161 -0.013029 242842.000000 0 0 1
-36.226626 6.641152 -22.856279 43.346082 -0.181309 2.126213 0.066943 -0.009307 272625.000000 0 0 1
-36.227366 5.410352 -23.788279 43.675808 -0.148249 2.146775 0.092893 -0.009112 -525058.000000 0 0 1
-35.021940 5.268452 -24.454579 43.038579 -0.149313 2.175115 0.104939 -0.007463 -653667.000000 0 0 1
-34.801337 4.083952 -25.172959 43.144984 -0.116816 2.193767 0.107986 -0.012714 -158042.000000 0 0 1
-33.450616 4.208652 -25.882719 42.503784 -0.125159 2.225534 0.112622 -0.006818 -272531.000000 0 0 1
-32.308966 4.297252 -25.067379 41.118234 -0.132229 2.226404 0.110174 -0.007391 -40773.000000 0 0 1
-31.160886 4.121652 -25.912629 40.736387 -0.131507 2.260236 0.117314 -0.009051 19329.300000 0 0 1
-29.879996 4.362852 -25.114079 39.275509 -0.144988 2.264558 0.110423 -0.016764 -627061.000000 0 0 1
-29.567346 5.731452 -24.906679 39.082223 -0.191469 2.261772 0.084971 -0.011115 948511.000000 0 0 1
-28.231676 5.877452 -24.377979 37.760533 -0.205255 2.272597 0.077727 -0.007028 1085120.000000 0 0 1
-27.602936 7.276252 -24.527179 37.635734 -0.257741 2.280619 0.054790 -0.011641 37819.600000 0 0 1
-28.332526 8.185152 -23.705879 37.837778 -0.281239 2.247868 0.059539 -0.013952 239106.000000 0 0 1
-27.993616 9.514152 -24.006179 38.084883 -0.327621 2.252779 0.039075 -0.016808 699290.000000 0 0 1
-26.650676 10.080052 -23.412679 36.878443 -0.361598 2.258625 0.063502 -0.010114 422749.000000 0 0 1
-26.753536 10.393952 -22.028379 36.180595 -0.370560 2.225400 0.054148 -0.011937 486237.000000 0 0 1
-25.479646 10.348152 -21.388879 34.839357 -0.385783 2.231824 0.078834 -0.018724 235701.000000 0 0 1
-25.550006 10.659052 -19.852679 34.066803 -0.395232 2.192914 0.105656 -0.031401 -705984.000000 0 0 1
-25.770216 12.031352 -19.454979 34.457999 -0.436794 2.170745 0.102917 -0.035536 1496510.000000 0 0 1
-27.097796 12.633452 -19.348379 35.612560 -0.436258 2.145162 0.092011 -0.019268 1048850.000000 0 0 1
-28.186116 11.986852 -18.466079 35.765037 -0.402104 2.113341 0.097284 -0.027208 -355203.000000 0 0 1
-27.727856 11.789252 -17.134779 34.661522 -0.402021 2.087878 0.115575 -0.041716 -25920.900000 0 0 1
-28.555226 10.964252 -16.367379 34.691597 -0.366608 2.062124 0.134366 -0.042435 -996989.000000 0 0 1
-28.038706 10.734852 -14.939579 33.535013 -0.365642 2.032520 0.171541 -0.048413 735015.000000 0 0 1
-27.005136 9.734852 -14.777079 32.286325 -0.345982 2.046190 0.185554 -0.043750 1039090.000000 0 0 1
-25.716986 10.092152 -15.252779 31.557284 -0.373965 2.075258 0.155492 -0.037863 -233162.000000 0 0 1
-24.773806 8.843152 -15.188279 30.374770 -0.342858 2.094429 0.110055 -0.028580 814932.000000 0 0 1
-23.364506 9.053652 -15.331879 29.375760 -0.369681 2.119900 0.087217 -0.021018 717838.000000 0 0 1
-22.693006 7.803352 -15.281679 28.449860 -0.331200 2.137844 0.097174 -0.023332 786879.000000 0 0 1
-21.135406 7.973652 -15.189579 27.221459 -0.360755 2.162770 0.152846 -0.040257 450536.000000 0 0 1
-20.588006 8.525052 -16.360279 27.644190 -0.392584 2.204106 0.159140 -0.047117 -414790.000000 0 0 1
-19.227606 8.730652 -16.130579 26.572932 -0.426232 2.223115 0.169095 -0.045750 -825810.000000 0 0 1
-18.418206 9.330352 -17.307179 26.941125 -0.468900 2.268432 0.116705 -0.033741 7907.270000 0 0 1
-18.263106 8.464952 -18.448679 27.304766 -0.434024 2.312653 0.177866 -0.052277 358068.000000 0 0 1
-17.331506 7.406952 -18.225479 26.218546 -0.403876 2.339407 0.196848 -0.051742 -335010.000000 0 0 1
-16.991106 6.741152 -19.623479 26.818310 -0.377698 2.391638 0.181476 -0.047959 492318.000000 0 0 1
-17.994106 5.875052 -20.188879 27.674807 -0.315587 2.388393 0.178407 -0.042224 1075050.000000 0 0 1
-19.133306 6.532952 -20.775379 28.989295 -0.329032 2.369793 0.150802 -0.033141 521583.000000 0 0 1
-20.176906 5.568452 -21.368979 29.912347 -0.269278 2.366543 0.126742 -0.016589 -185688.000000 0 0 1
-20.878006 4.766252 -20.460779 29.618437 -0.224444 2.333408 0.125118 -0.018132 280839.000000 0 0 1
-21.701706 3.850352 -21.186379 30.572078 -0.175594 2.336435 0.095038 0.008502 7278.140000 0 0 1
-22.643706 2.970152 -20.302579 30.557388 -0.130424 2.297498 0.103638 -0.001688 -103694.000000 0 0 1
-23.467106 2.054452 -20.947579 31.523435 -0.087323 2.297632 0.117605 -0.001328 127866.000000 0 0 1
-24.095506 1.260452 -19.955479 31.311393 -0.052263 2.261816 0.128456 -0.008010 -244227.000000 0 0 1
-24.510906 -0.195148 -20.401179 31.890919 0.007962 2.264927 0.138701 -0.000846 49259.000000 0 0 1
-23.364006 -0.974548 -20.621779 31.178267 0.041687 2.293500 0.127878 -0.013145 125582.000000 0 0 1
-23.664906 -2.325348 -20.800879 31.592904 0.097947 2.289492 0.127055 -0.022754 -100610.000000 0 0 1
-24.229306 -2.735348 -22.183479 32.964347 0.112418 2.308991 0.124983 -0.016034 69444.300000 0 0 1
-23.261706 -2.646348 -23.221279 32.974808 0.113277 2.352110 0.098860 -0.012768 418400.000000 0 0 1
-22.398006 -3.795048 -23.271179 32.521083 0.167843 2.368239 0.083178 -0.022125 600586.000000 0 0 1
-21.425406 -3.704148 -24.507279 32.762410 0.171194 2.415886 0.084944 -0.019779 130800.000000 0 0 1
-22.119506 -3.804648 -25.715609 34.132689 0.170337 2.424016 0.086771 -0.024909 29999.700000 0 0 1
-21.292106 -3.999548 -26.838769 34.491589 0.185678 2.462472 0.086940 -0.023499 -494617.000000 0 0 1
-22.085706 -4.116548 -28.117769 35.990740 0.184275 2.467462 0.094315 -0.025368 -91218.700000 0 0 1
-23.096206 -5.120948 -28.008789 36.662667 0.218193 2.440223 0.091645 -0.033577 419045.000000 0 0 1
-23.670406 -5.485348 -29.249479 38.025113 0.227719 2.448408 0.053308 -0.025450 -351986.000000 0 0 1
-23.010706 -6.741148 -29.867559 38.301525 0.284983 2.465144 0.068526 -0.034555 -814168.000000 0 0 1
-21.824306 -6.347848 -30.465179 38.009508 0.283052 2.500620 0.082384 -0.041505 -717151.000000 0 0 1
-21.187706 -7.443248 -31.062909 38.330473 0.337833 2.515626 0.097355 -0.040300 -875941.000000 0 0 1
-19.868406 -7.081848 -31.714219 38.088028 0.342398 2.554683 0.118407 -0.047652 -884902.000000 0 0 1
-19.962306 -6.453048 -32.986759 39.092989 0.312659 2.575126 0.121073 -0.056851 362981.000000 0 0 1
-20.128706 -7.408248 33.370489 39.669087 0.352658 0.571258 0.116677 -0.052641 -564475.000000 0 0 1
-19.866606 -6.730748 31.946732 38.217518 0.326660 0.580992 0.112906 -0.047743 224541.000000 0 0 1
-18.521106 -6.556148 31.546561 37.164499 0.340218 0.557017 0.128217 -0.050037 -115782.000000 0 0 1
-17.794106 -5.562948 32.169712 37.181541 0.303002 0.525234 0.111738 -0.048275 -1133540.000000 0 0 1
-16.420506 -5.385448 31.555464 35.977540 0.316917 0.501031 0.104486 -0.047392 -866222.000000 0 0 1
-16.485606 -5.111748 30.167489 34.756044 0.300673 0.519680 0.101393 -0.043075 -454511.000000 0 0 1
-15.298806 -4.802748 29.498229 33.574773 0.304187 0.497909 0.068163 -0.031364 -420725.000000 0 0 1
-15.432706 -4.854148 27.937359 32.283544 0.304739 0.524899 0.074385 -0.023227 173962.000000 0 0 1
-16.515806 -4.108448 27.402379 32.257427 0.243810 0.555777 0.081071 -0.033621 131341.000000 0 0 1
-16.855706 -4.288848 26.060979 31.331832 0.249158 0.588502 0.084317 -0.023695 -144628.000000 0 0 1
-15.876506 -3.749948 25.002299 29.853652 0.231944 0.578113 0.082595 -0.017361 -53815.600000 0 0 1
-15.767206 -2.347548 25.062459 29.702569 0.147802 0.566507 0.072695 -0.004746 367438.000000 0 0 1
-14.849806 -1.794748 24.095799 28.360984 0.120277 0.555549 0.072570 -0.004342 416118.000000 0 0 1
-14.761306 -0.301248 24.215559 28.361597 0.020405 0.547526 0.063634 0.002199 324244.000000 0 0 1
-15.839806 0.421652 23.610559 28.434763 -0.026613 0.591076 0.055302 0.004103 456857.000000 0 0 1
-15.713306 1.766252 24.021749 28.758860 -0.111935 0.582151 0.051460 0.003788 -100257.000000 0 0 1
-16.482106 2.802452 23.170339 28.572332 -0.168419 0.625046 0.050453 0.005177 109544.000000 0 0 1
-15.763606 3.198152 21.999289 27.252306 -0.200165 0.631327 0.055595 0.000618 171559.000000 0 0 1
-16.462106 4.198852 21.353589 27.287489 -0.249737 0.672059 0.064748 -0.003042 -183661.000000 0 0 1
-15.614706 4.970952 20.307889 26.094822 -0.308206 0.678947 0.059838 -0.000250 256498.000000 0 0 1
-14.689906 5.911152 20.852989 26.183625 -0.382570 0.649455 0.071394 -0.010544 105585.000000 0 0 1
-13.480506 5.756652 20.127289 24.899214 -0.403593 0.629452 0.058992 -0.007079 229887.000000 0 1 0
-12.476506 6.927052 20.449989 24.936906 -0.506833 0.609264 0.056413 -0.007505 141586.000000 0 1 0
-12.741706 8.194252 19.923389 25.028749 -0.571513 0.650105 0.063924 -0.012007 1050220.000000 0 0 1
-11.681406 9.144852 20.271289 25.119887 -0.664199 0.631773 0.055115 -0.012584 1148560.000000 0 0 1
-12.292106 10.566752 20.337889 26.007342 -0.710062 0.672919 0.053888 -0.010739 142826.000000 0 0 1
-12.765006 11.037252 19.106889 25.491950 -0.712937 0.723450 0.057299 -0.016025 197066.000000 0 0 1
-13.433006 12.275252 19.261189 26.497563 -0.740394 0.756993 0.039519 -0.014814 -274170.000000 0 0 1
-13.756906 13.003552 17.915389 26.063499 -0.757254 0.812928 0.043736 -0.015819 -342962.000000 0 0 1
-12.710806 13.591552 17.174489 25.323071 -0.818871 0.825465 0.039846 -0.020176 71330.800000 0 0 1
-12.456406 15.025252 17.470989 26.194574 -0.878602 0.840662 0.063301 -0.031107 248069.000000 0 0 1
-13.559506 16.024952 16.933489 26.970397 -0.868542 0.892003 0.059746 -0.019113 296659.000000 0 0 1
-13.651706 16.406752 15.518789 26.389077 -0.876799 0.942118 0.056055 -0.037060 -4221.520000 0 0 1
-14.194706 15.494752 14.596489 25.585826 -0.829158 0.963693 0.081312 -0.041024 -306357.000000 0 0 1
-14.737906 16.130852 13.326789 25.593233 -0.830492 1.023108 0.076163 -0.042070 516312.000000 0 0 1
-15.759606 17.130152 13.598989 26.958112 -0.827045 1.042053 0.061759 -0.030856 436503.000000 0 0 1
-16.353706 17.453752 12.347489 26.917237 -0.817925 1.094242 0.065109 -0.024693 -121125.000000 0 0 1
-17.578706 18.371752 12.471189 28.320712 -0.807454 1.114801 0.063045 -0.022602 -142740.000000 0 0 1
-18.767806 17.722352 12.837689 28.829127 -0.756756 1.109284 0.081310 -0.026788 -278451.000000 0 0 1
-19.890306 18.564552 12.958389 30.136136 -0.750936 1.126309 0.101553 -0.032372 1049480.000000 0 0 1
-21.269206 17.814952 13.139089 30.698327 -0.697247 1.128510 0.121364 -0.026330 953201.000000 0 0 1
-21.678106 17.222352 11.944889 30.153442 -0.671353 1.163491 0.132009 -0.031443 -603979.000000 0 0 1
-22.940206 16.637352 12.106789 30.816049 -0.627471 1.167043 0.174452 -0.039580 -255371.000000 0 0 1
-23.428206 15.858552 10.879489 30.310688 -0.595054 1.203672 0.166068 -0.030748 285710.000000 0 0 1
-22.719906 14.628352 10.609989 29.030237 -0.572044 1.196647 0.135966 -0.030860 583851.000000 0 0 1
-23.324506 14.072352 9.452389 28.834204 -0.542864 1.236803 0.157265 -0.032206 78619.500000 0 0 1
-22.796306 12.619052 9.241989 27.646454 -0.505570 1.229942 0.165629 -0.037836 -629310.000000 0 0 1
-23.214706 11.610352 10.127089 27.861816 -0.463751 1.198800 0.167684 -0.034587 865101.000000 0 0 1
-24.597006 11.221252 10.078889 28.853305 -0.428001 1.213957 0.197207 -0.027015 697878.000000 0 0 1
-25.195346 10.694252 8.746789 28.734627 -0.401408 1.261489 0.226562 -0.031955 -741963.000000 0 0 1
-25.421446 11.746952 7.800989 29.070539 -0.432861 1.299120 0.226946 -0.035572 1357710.000000 0 0 1
-26.703926 11.509952 7.147889 29.944465 -0.406959 1.329764 0.295541 -0.052833 935247.000000 0 0 1
-27.175256 12.700952 6.194289 30.629691 -0.437206 1.367160 0.290521 -0.053130 -30851.300000 0 0 1
-26.386036 12.962452 5.041889 29.827315 -0.456633 1.400945 0.282218 -0.053498 712733.000000 0 0 1
-25.042246 13.414152 5.112189 28.864997 -0.491768 1.392750 0.267680 -0.053956 57144.000000 0 0 1
-24.910706 14.897952 5.583789 29.557925 -0.538988 1.380744 0.241499 -0.050994 -125714.000000 0 0 1
-23.559506 15.329452 5.762789 28.692371 -0.576846 1.368573 0.199027 -0.052933 766185.000000 0 0 1
-23.496006 16.674252 6.166989 29.463957 -0.617182 1.359931 0.188768 -0.053967 -29361.500000 0 0 1
-22.025006 17.086552 6.376289 28.595598 -0.659797 1.345924 0.153175 -0.043777 156339.000000 0 0 1
-21.391106 17.502052 5.185689 28.121035 -0.685736 1.385329 0.153767 -0.057222 -60802.100000 0 0 1
-20.025306 17.785952 5.298189 27.302450 -0.726243 1.375502 0.140395 -0.048287 25573.200000 0 0 1
-19.369506 18.554252 4.061889 27.128158 -0.763904 1.420502 0.124047 -0.038241 162357.000000 0 0 1
-18.010506 18.917652 4.192689 26.454386 -0.809958 1.411638 0.111760 -0.043196 117231.000000 0 0 1
-17.655906 19.912452 3.261189 26.811791 -0.845391 1.448862 0.121835 -0.041349 -69939.400000 0 0 1
-17.850306 21.324452 3.800089 28.067888 -0.873850 1.434990 0.123147 -0.049214 -258579.000000 0 0 1
-16.944506 21.769952 4.774389 27.997176 -0.909401 1.399428 0.092055 -0.047717 -133328.000000 0 0 1
-17.049906 23.188052 4.918289 29.198880 -0.936777 1.401548 0.069644 -0.042033 -228927.000000 0 0 1
-16.315606 23.755352 6.161289 29.469938 -0.968972 1.360172 0.062962 -0.022515 -352297.000000 0 0 1
-16.874806 23.330452 7.413889 29.732723 -0.944606 1.318786 0.070318 -0.029360 -65459.600000 0 0 1
-16.094606 23.446452 8.551589 29.696837 -0.969228 1.278697 0.064863 -0.031993 -389141.000000 0 0 1
-16.772506 22.616552 9.666389 29.770194 -0.932691 1.240102 0.048799 -0.030776 327738.000000 0 0 1
-17.951506 23.234652 10.135389 31.061741 -0.912976 1.238412 0.050794 -0.032005 -397321.000000 0 0 1
-18.698006 22.332252 10.894089 31.097043 -0.873742 1.212878 0.053151 -0.027426 741359.000000 0 0 1
-19.870606 23.059352 11.722889 32.619025 -0.859540 1.203184 0.088404 -0.031806 1239500.000000 0 0 1
-21.000706 23.531652 10.980089 33.396566 -0.842171 1.235786 0.130201 -0.035117 508916.000000 0 0 1
-20.711706 24.714352 10.181689 33.814801 -0.873285 1.264949 0.072863 -0.036308 -793409.000000 0 0 1
-21.917706 25.416752 9.585889 34.903959 -0.859186 1.292585 0.095864 -0.029382 -343009.000000 0 0 1
-22.838506 25.934352 10.528589 36.125326 -0.848788 1.275058 0.127464 -0.043942 -172707.000000 0 0 1
-23.899006 26.535852 9.805789 37.033329 -0.837633 1.302818 0.132535 -0.034344 -99049.800000 0 0 1
-24.734406 27.332052 10.825389 38.419018 -0.835248 1.285156 0.130985 -0.040730 -378231.000000 0 0 1
-23.958506 28.311452 11.459489 38.818400 -0.868485 1.271123 0.132465 -0.038802 2660.910000 0 0 1
-24.737506 29.197452 12.203089 40.166538 -0.867902 1.262105 0.125489 -0.040988 -158497.000000 0 0 1
10.645794 -32.095048 27.472519 43.567928 -1.250520 0.888512 0.067483 -0.034025 -22309.000000 0 0 1
12.004194 -32.344648 27.175139 43.917708 -1.215419 0.903615 0.051854 -0.031428 298448.000000 0 0 1
12.161894 -32.215148 25.804169 43.030019 -1.209817 0.927697 0.061653 -0.025414 75543.700000 0 0 1
13.665494 -32.396048 25.483589 43.424221 -1.171617 0.943631 0.006026 -0.011722 196701.000000 0 0 1
14.038594 33.726752 25.559549 44.585496 1.176365 0.960305 0.032679 -0.033749 -839975.000000 0 0 1
15.410394 33.532452 25.549009 44.884935 1.140015 0.965250 0.056081 -0.023055 -666455.000000 0 0 1
15.903294 32.127352 25.219579 43.830453 1.111150 0.957716 0.092384 -0.018349 -111590.000000 0 0 1
15.992594 31.865052 23.837249 42.887749 1.105642 0.981465 0.071521 -0.027030 545756.000000 0 0 1
16.986494 30.857452 23.622469 42.411606 1.067583 0.980050 0.094745 -0.033448 -23353.500000 0 0 1
16.968894 30.306552 22.160589 41.200997 1.060378 1.002893 0.099563 -0.038309 -458838.000000 0 0 1
15.839394 29.532852 21.850789 40.006658 1.078508 0.993001 0.072629 -0.025117 -281044.000000 0 0 1
15.944994 28.119352 22.021789 39.113935 1.054959 0.972765 0.086887 -0.022784 -93741.100000 0 0 1
15.368094 27.617852 23.360219 39.301703 1.063011 0.934300 0.122608 -0.041848 -334097.000000 0 0 1
16.140594 28.009052 24.451279 40.532589 1.048013 0.923227 0.132612 -0.040733 275492.000000 0 0 1
15.542194 27.583152 25.678979 40.765181 1.057673 0.889341 0.134478 -0.041498 475622.000000 0 0 1
16.451794 28.029352 26.889869 42.182592 1.040029 0.879594 0.142509 -0.044663 551137.000000 0 0 1
16.437294 29.432452 27.097759 43.252079 1.061470 0.893732 0.124397 -0.046416 467263.000000 0 0 1
17.432094 29.746852 28.076129 44.463716 1.040724 0.887389 0.151646 -0.048468 314472.000000 0 0 1
17.582794 31.247652 28.479149 45.788997 1.058261 0.899547 0.140268 -0.049268 -499842.000000 0 0 1
18.306294 32.002952 27.618789 46.066330 1.051205 0.927865 0.126398 -0.040468 -728228.000000 0 0 1
18.562194 33.265852 28.224159 47.410706 1.061835 0.933143 0.116273 -0.023171 562307.000000 0 0 1
19.455494 -33.363548 27.245289 47.264663 -1.042869 0.956430 0.093285 -0.021820 331555.000000 0 0 1
18.700594 -33.028248 26.097789 46.061610 -1.055601 0.968442 0.101622 -0.022892 -88815.400000 0 0 1
18.757794 -31.693748 25.685969 44.901197 -1.036395 0.961787 0.095183 -0.024929 9941.760000 0 0 1
20.130494 -30.996148 25.454009 44.876548 -0.994807 0.967693 0.115581 -0.025373 154987.000000 0 0 1
20.824394 -30.668448 26.632589 45.645414 -0.974292 0.947805 0.098811 -0.022761 -157643.000000 0 0 1
21.732794 -29.622648 26.377169 45.227985 -0.937839 0.948128 0.105056 -0.021919 -91703.800000 0 0 1
22.041094 -28.743048 27.580859 45.526656 -0.916609 0.920003 0.099488 -0.016840 475593.000000 0 0 1
20.786494 -28.181448 27.978819 44.822836 -0.935282 0.896678 0.101951 -0.018242 786750.000000 0 0 1
20.955994 -27.365148 29.058609 45.082233 -0.917265 0.870337 0.106083 -0.018703 19812.100000 0 0 1
19.594694 -26.762648 29.436559 44.347518 -0.938807 0.844948 0.121893 -0.022492 110941.000000 0 0 1
18.956694 -25.932448 28.485219 42.933155 -0.939565 0.845338 0.120725 -0.028813 721060.000000 0 0 1
17.677394 -25.440548 28.872009 42.347428 -0.963534 0.820591 0.118317 -0.030600 358581.000000 0 0 1
16.830194 -24.721448 27.802269 40.833461 -0.973077 0.821847 0.114987 -0.032963 -863488.000000 0 0 1
16.256194 -25.557448 26.872609 40.491778 -1.004280 0.845101 0.104530 -0.026875 107753.000000 0 0 1
15.450994 -24.980148 25.863729 39.136600 -1.016862 0.848835 0.114840 -0.033937 -2157040.000000 0 0 1
14.089894 -24.560148 26.259029 38.616869 -1.049948 0.823049 0.075582 -0.032594 -1890690.000000 0 0 1
13.149294 -25.568948 26.604559 39.172408 -1.095800 0.824171 0.071192 -0.026078 382218.000000 0 0 1
12.788694 -26.439648 25.543209 38.923787 -1.120279 0.854976 0.055938 -0.030659 -1046700.000000 0 0 1
11.864594 -27.600748 25.999869 39.731135 -1.164812 0.857414 0.065392 -0.030271 -115622.000000 0 0 1
10.515894 -27.250448 26.145849 39.201739 -1.202506 0.840680 0.057682 -0.042419 -1002440.000000 0 0 1
9.758094 -28.365548 26.304039 39.896456 -1.239466 0.850899 0.044265 -0.034804 -1305200.000000 0 0 1
8.323394 -28.064348 26.723859 39.636488 -1.282478 0.830883 0.060071 -0.045593 -252843.000000 0 0 1
7.340394 -27.936448 25.678519 38.648581 -1.313851 0.844092 0.095907 -0.040960 457047.000000 0 0 1
7.499994 -26.806248 24.793509 37.276573 -1.297987 0.843138 0.099344 -0.044066 -821386.000000 0 0 1
6.348894 -26.653448 23.781979 36.280811 -1.336953 0.855955 0.119195 -0.042569 -755413.000000 0 0 1
6.280994 -27.568348 22.681339 36.247867 -1.346787 0.894731 0.121780 -0.041290 -117788.000000 0 0 1
5.755894 -28.879648 22.883629 37.293764 -1.374068 0.910179 0.125394 -0.038471 631305.000000 0 0 1
4.301494 -28.867748 23.501489 37.472252 -1.422878 0.892881 0.153121 -0.039256 -51837.700000 0 0 1
3.321994 -28.705948 22.470009 36.605579 -1.455584 0.909879 0.160363 -0.032617 1517620.000000 0 0 1
1.968194 -28.556848 22.996049 36.717647 -1.501983 0.894006 0.180456 -0.034137 1295500.000000 0 0 1
1.589894 -27.139248 23.352239 35.838438 -1.512280 0.861108 0.150862 -0.042258 -960333.000000 0 0 1
2.284594 -26.544848 24.393789 36.123472 -1.484942 0.829440 0.122036 -0.046468 -503938.000000 0 0 1
1.932994 -25.252048 24.782519 35.434103 -1.494397 0.796242 0.109724 -0.038114 -689137.000000 0 0 1
2.877994 -24.497748 25.711329 35.629972 -1.453852 0.764656 0.102086 -0.037818 -1419960.000000 0 0 1
4.125594 -24.370648 25.127899 35.247132 -1.403101 0.777163 0.113965 -0.045412 -779099.000000 0 0 1
5.165394 -23.776248 25.855439 35.503450 -1.356870 0.755029 0.092942 -0.038559 241426.000000 0 0 1
4.931994 -22.263648 26.116619 34.670915 -1.352790 0.717774 0.070386 -0.025688 -685088.000000 0 0 1
4.965294 -21.499348 24.916129 33.281971 -1.343825 0.724792 0.081100 -0.035151 267892.000000 0 0 1
4.350094 -20.215448 25.068489 32.496412 -1.358842 0.689721 0.083569 -0.046143 67824.500000 0 0 1
4.315694 -19.194648 23.916719 30.968842 -1.349636 0.688369 0.093057 -0.047401 -217454.000000 0 0 1
5.508094 -18.469248 23.791949 30.618769 -1.280964 0.680850 0.068485 -0.028239 -241379.000000 0 0 1
5.541194 -17.748648 22.609589 29.273074 -1.268181 0.688235 0.067937 -0.025596 -359843.000000 0 0 1
6.927094 -17.235448 22.224389 28.964957 -1.188645 0.696199 0.077806 -0.023175 -653109.000000 0 0 1
7.743994 -18.218448 21.520889 29.240895 -1.168872 0.743674 0.090603 -0.020762 779798.000000 0 0 1
8.952994 -17.612648 21.027689 28.853512 -1.100509 0.754267 0.076999 -0.018062 251420.000000 0 0 1
10.059594 -17.630848 22.071189 29.986324 -1.052299 0.743592 0.104501 -0.016262 -1327500.000000 0 0 1
10.120494 -16.541148 22.913829 30.017953 -1.021718 0.702332 0.113395 -0.008863 -175252.000000 0 0 1
11.236394 -16.573548 23.752149 31.066117 -0.975008 0.700426 0.116036 -0.012763 -392478.000000 0 0 1
11.239294 -15.534248 24.921979 31.444230 -0.944461 0.655772 0.142479 -0.030010 -202539.000000 0 0 1
11.367594 -14.171248 24.625979 30.602047 -0.894740 0.635598 0.172067 -0.030954 203666.000000 0 0 1
11.543494 -13.492548 25.866729 31.374970 -0.863091 0.601587 0.158084 -0.039969 -184156.000000 0 0 1
11.642094 -11.919548 25.846709 30.751688 -0.797173 0.572596 0.165429 -0.048810 101951.000000 0 0 1
10.391794 -11.401448 25.467129 29.775108 -0.831694 0.544636 0.185274 -0.036106 25927.600000 0 0 1
10.571794 -10.057948 25.065279 29.003333 -0.760495 0.527197 0.175377 -0.036243 213454.000000 0 0 1
9.252194 -9.517548 24.474899 27.842548 -0.799535 0.496938 0.169086 -0.029002 123073.000000 0 0 1
8.173894 -9.415448 25.377189 28.274810 -0.855867 0.456685 0.160151 -0.045092 262626.000000 0 0 1
7.056794 -8.842148 24.695239 27.163150 -0.897224 0.429570 0.160816 -0.040319 142323.000000 0 0 1
5.661294 -9.253948 25.177989 27.415633 -1.021767 0.406828 0.120562 -0.041797 -1282900.000000 0 0 1
5.239394 -8.341648 26.176619 27.968727 -1.009971 0.359921 0.128966 -0.040095 123214.000000 0 0 1
3.894594 -8.494948 26.585419 28.180073 -1.140929 0.338023 0.120696 -0.045098 596195.000000 0 0 1
2.751194 -8.418748 25.542149 27.034159 -1.254943 0.333782 0.098074 -0.045115 -866395.000000 0 0 1
2.658794 -7.177348 24.833409 25.986183 -1.216027 0.298975 0.112532 -0.044349 -36230.600000 0 0 1
1.530694 -7.083048 23.989809 25.060397 -1.357963 0.293353 0.085265 -0.044256 24026.300000 0 0 1
1.615394 -5.722948 23.239479 23.988226 -1.295688 0.250507 0.066184 -0.041418 3319.350000 0 1 0
1.281094 -4.618148 24.049599 24.522473 -1.300196 0.196701 0.073285 -0.036780 166592.000000 0 1 0
1.935094 -3.431048 23.654849 23.980587 -1.057272 0.165011 0.081018 -0.028523 -478867.000000 0 1 0
1.145994 -2.722248 22.493179 22.686274 -1.172341 0.130565 0.063336 -0.031139 1423890.000000 0 1 0
-0.041906 -1.977948 22.846519 22.932018 1.549613 0.086379 0.056294 -0.031319 1858460.000000 0 1 0
-1.155206 -2.652048 23.526739 23.703909 1.159990 0.122341 0.059957 -0.024933 905042.000000 0 1 0
-2.138506 -1.546948 24.006039 24.150697 0.626244 0.109506 0.064208 -0.022557 -32960.200000 0 1 0
-1.457706 -0.826948 25.006059 25.062157 0.516024 0.066921 0.081893 -0.023822 314418.000000 0 0 1
-2.112306 0.354052 25.458459 25.548392 -0.166070 0.083931 0.068274 -0.014948 -380174.000000 0 0 1
-1.512706 0.893052 26.744319 26.801948 -0.533306 0.065589 0.095123 -0.025156 -461735.000000 0 0 1
-1.855906 0.073052 27.867949 27.929774 -0.039341 0.066550 0.122219 -0.033463 94276.300000 0 0 1
-1.119506 -1.138948 28.142559 28.187836 0.794006 0.056687 0.130651 -0.033281 -908641.000000 0 0 1
0.265094 -0.909948 28.749299 28.764917 -1.287314 0.032955 0.139892 -0.034007 -285873.000000 0 0 1
1.292294 -0.270948 27.994389 28.025510 -0.206671 0.047131 0.116251 -0.036704 451710.000000 0 0 1
1.886294 -1.123948 26.976549 27.065763 -0.537363 0.081216 0.103955 -0.035040 6082.040000 0 0 1
3.087094 -1.982948 27.445959 27.690122 -0.570968 0.132896 0.123215 -0.040114 -409725.000000 0 0 1
2.686794 -3.138848 28.094649 28.396840 -0.862840 0.146018 0.147341 -0.047456 -90647.000000 0 0 1
3.752094 -4.010648 28.388879 28.915254 -0.818693 0.191100 0.162289 -0.045172 177123.000000 0 0 1
4.364394 -4.911048 27.273069 28.053281 -0.844266 0.236397 0.163235 -0.045925 539233.000000 0 0 1
5.348394 -4.204748 26.507069 27.366218 -0.666251 0.251238 0.156501 -0.040204 72909.100000 0 0 1
5.691794 -4.753648 25.261679 26.327668 -0.695825 0.285536 0.147993 -0.038265 -49922.600000 0 0 1
6.923694 -3.951348 24.730089 25.983225 -0.518596 0.311838 0.149359 -0.040088 1069940.000000 0 0 1
8.206494 -3.981248 25.411919 26.999305 -0.451684 0.344613 0.148915 -0.034032 1316640.000000 0 0 1
8.849194 -5.266148 25.505929 27.506235 -0.536808 0.383721 0.161308 -0.031729 -413858.000000 0 0 1
9.673794 -5.610148 24.283489 26.734694 -0.525533 0.431562 0.138466 -0.038437 -549585.000000 0 0 1
8.862194 -5.684348 23.115419 25.400253 -0.570317 0.427399 0.138821 -0.029889 -447848.000000 0 0 1
9.506094 -5.526148 21.924789 24.527545 -0.526576 0.464860 0.137561 -0.023792 -404108.000000 0 1 0
9.526694 -4.027848 21.429289 23.794871 -0.400002 0.449684 0.141031 -0.030911 -73674.800000 0 1 0
8.288794 -3.679748 20.875689 22.760471 -0.417805 0.409825 0.118343 -0.038445 -419828.000000 0 1 0
8.294594 -2.364948 20.383289 22.133046 -0.277749 0.400301 0.101680 -0.032172 298865.000000 0 1 0
6.868494 -1.764948 20.249089 21.454996 -0.251521 0.336871 0.103374 -0.025317 538625.000000 0 1 0
6.227094 -1.426948 21.512789 22.441322 -0.225262 0.288668 0.114207 -0.024561 347781.000000 0 1 0
4.976594 -0.807948 21.276789 21.865978 -0.160945 0.232669 0.061788 -0.015517 48187.000000 0 1 0
4.315194 -0.489948 22.656309 23.068794 -0.113056 0.189390 0.057796 -0.027293 -406340.000000 0 1 0
3.086094 0.160052 22.555449 22.766156 0.051816 0.136159 0.061131 -0.022175 -429117.000000 0 1 0
2.484294 0.521052 23.804399 23.939353 0.206742 0.106232 0.083383 -0.024831 197896.000000 0 1 0
1.022194 0.980052 23.626709 23.669109 0.764354 0.059865 0.076427 -0.027512 -324531.000000 0 1 0
0.922394 2.373052 23.271609 23.410467 1.200073 0.108971 0.072590 -0.015090 1158180.000000 0 1 0
-0.490806 2.672052 23.327149 23.484817 -1.389140 0.115941 0.038333 -0.002879 1079900.000000 0 1 0
-0.901106 4.029052 22.683609 23.056265 -1.350765 0.180037 0.036713 -0.008427 -123519.000000 0 1 0
-0.613006 5.167052 23.479019 24.048670 -1.452711 0.218090 0.046519 -0.010638 -94244.500000 0 1 0
-1.430506 6.277052 23.154639 24.032999 -1.346728 0.271193 0.050782 -0.015051 -32017.800000 0 1 0
-1.185906 7.547052 23.979419 25.166980 -1.414936 0.308425 0.067210 -0.017557 -85924.500000 0 0 1
-0.136206 8.333052 23.487959 24.922731 -1.554452 0.340969 0.051936 -0.016975 -232384.000000 0 1 0
-0.241106 9.669052 23.937919 25.818068 -1.545866 0.383991 0.080053 -0.020708 -282922.000000 0 0 1
0.784994 10.603052 23.208079 25.527551 1.496896 0.429585 0.084416 -0.027703 1506170.000000 0 0 1
2.190394 10.415052 23.423299 25.727846 1.363507 0.426484 0.063091 -0.026030 286236.000000 0 0 1
2.697794 10.602052 24.679519 26.995560 1.321625 0.417251 0.091978 -0.030907 -571477.000000 0 0 1
4.086494 11.307052 24.754869 27.520036 1.223992 0.452123 0.080566 -0.029445 991358.000000 0 0 1
5.256994 10.676052 24.205219 26.972332 1.113239 0.456935 0.060258 -0.026172 615823.000000 0 0 1
5.206494 10.302052 22.807389 25.562019 1.102851 0.468520 0.069024 -0.032132 -1729130.000000 0 0 1
6.508794 9.868052 22.188589 25.141128 0.987714 0.489514 0.083532 -0.031307 -1116110.000000 0 0 1
7.276694 10.889052 21.690089 25.337357 0.981693 0.543214 0.070071 -0.032497 243192.000000 0 0 1
8.516194 10.341052 21.195289 25.073954 0.881870 0.563649 0.094212 -0.042090 512620.000000 0 0 1
9.397694 11.420052 20.560789 25.327461 0.882240 0.623571 0.076422 -0.040205 -700804.000000 0 0 1
8.984894 11.839052 19.303489 24.362187 0.921611 0.656137 0.074289 -0.044096 -214366.000000 0 1 0
9.545594 12.994052 18.693789 24.686463 0.937216 0.711706 0.084826 -0.044262 1360730.000000 0 1 0
11.059594 12.876052 18.205189 24.890484 0.861142 0.750407 0.099035 -0.046373 1326080.000000 0 1 0
12.053694 12.726052 19.177289 25.980999 0.812525 0.740506 0.119548 -0.048564 351891.000000 0 0 1
13.348994 12.588052 18.596789 26.124610 0.756069 0.778668 0.121942 -0.050792 206712.000000 0 0 1
14.529594 12.393052 19.520389 27.308284 0.706206 0.774436 0.153046 -0.042858 -352448.000000 0 0 1
15.025494 13.583052 20.100089 28.535562 0.735021 0.789237 0.159757 -0.043722 60401.800000 0 0 1
16.257594 13.323052 20.753489 29.538455 0.686517 0.791763 0.162193 -0.044676 153650.000000 0 0 1
17.062494 14.594052 21.094089 30.807071 0.707580 0.816583 0.161254 -0.037327 -243074.000000 0 0 1
16.523494 15.514052 21.984689 31.575911 0.753900 0.800638 0.178242 -0.033186 -198589.000000 0 0 1
17.445094 16.534052 22.308219 32.792724 0.758593 0.822652 0.175821 -0.026951 -132087.000000 0 0 1
-22.271106 12.842152 -24.455779 35.482505 -0.523057 2.331229 0.068306 -0.007464 167186.000000 0 0 1
-22.061106 12.653252 -25.868959 36.276718 -0.520747 2.364708 0.077384 -0.012534 -57356.400000 0 0 1
-22.927706 13.454852 -26.635869 37.632197 -0.530685 2.357168 0.068379 -0.014591 -80050.000000 0 0 1
-22.588106 13.466652 -28.158999 38.529242 -0.537608 2.390359 0.074214 -0.014593 564318.000000 0 0 1
-21.271606 13.972852 -28.372199 38.114348 -0.581195 2.410427 0.082452 -0.016679 134973.000000 0 0 1
-21.026606 14.201252 -29.724349 39.081078 -0.594021 2.435005 0.083315 -0.025622 -643960.000000 0 0 1
-19.625806 14.770852 -29.925849 38.715718 -0.645178 2.454296 0.085585 -0.028070 -458079.000000 0 0 1
-18.718006 13.722952 -29.732839 37.719026 -0.632624 2.478791 0.083825 -0.038519 -873970.000000 0 0 1
-17.373806 14.065452 -29.942789 37.366518 -0.680554 2.500306 0.073420 -0.023827 1074150.000000 0 0 1
-16.344306 13.414952 -28.868959 35.784271 -0.687279 2.509427 0.108518 -0.034052 956606.000000 0 0 1
-16.687006 13.700452 -27.514419 34.974302 -0.687430 2.476248 0.108594 -0.023552 -425038.000000 0 0 1
-17.656506 12.950052 -26.832169 34.632663 -0.632821 2.457139 0.129331 -0.021335 -88565.800000 0 0 1
-18.363606 13.739152 -25.739799 34.474970 -0.642331 2.413767 0.126529 -0.029768 -397517.000000 0 0 1
-17.521206 13.953352 -24.656679 33.311267 -0.672523 2.404150 0.171745 -0.043174 -93279.300000 0 0 1
-18.215906 14.454852 -23.526179 33.079345 -0.670783 2.362006 0.144824 -0.042309 214046.000000 0 0 1
-17.259906 14.890352 -22.367779 31.936570 -0.711829 2.346728 0.163686 -0.038003 516840.000000 0 0 1
-16.410306 15.949452 -22.803079 32.305783 -0.771158 2.354421 0.137489 -0.031821 -67044.100000 0 0 1
-15.719306 16.642752 -21.816479 31.623354 -0.813925 2.332127 0.139342 -0.028617 -497719.000000 0 0 1
-15.514706 18.132152 -22.246379 32.624874 -0.863033 2.321132 0.119848 -0.025533 1013440.000000 0 0 1
-16.643206 19.045852 -22.215079 33.663787 -0.852618 2.291496 0.086579 -0.016586 1121030.000000 0 0 1
-17.761306 18.762652 -23.042179 34.618537 -0.812807 2.299097 0.066166 -0.017072 267367.000000 0 0 1
-19.042706 19.581752 -22.840379 35.605513 -0.799353 2.267228 0.048758 -0.011214 74956.100000 0 0 1
-18.884106 20.882652 -23.402579 36.611137 -0.835613 2.264280 0.046083 -0.004661 320147.000000 0 0 1
-20.078506 21.662952 -23.278479 37.607413 -0.823338 2.238248 0.053645 -0.016319 474377.000000 0 0 1
-19.914506 23.179652 -23.621379 38.624518 -0.861021 2.228833 0.044342 -0.015232 -2996.760000 0 0 1
-19.361006 23.956652 -22.583779 38.194199 -0.891095 2.203452 0.045582 -0.012846 489342.000000 0 0 1
-18.495206 25.010752 -23.060779 38.722214 -0.934055 2.208739 0.046997 -0.002683 178366.000000 0 0 1
-17.341106 25.404552 -22.105679 37.878309 -0.971845 2.193948 0.056600 -0.014065 768036.000000 0 0 1
-16.250306 24.440652 -21.957779 36.654631 -0.984026 2.213104 0.075504 -0.025699 753055.000000 0 0 1
-16.542006 23.168152 -21.390579 35.608399 -0.950738 2.215194 0.080604 -0.008411 -794215.000000 0 0 1
-15.347206 22.183252 -21.346779 34.399395 -0.965570 2.240249 0.113334 -0.021215 128268.000000 0 0 1
-14.450006 22.542252 -20.329879 33.619336 -1.000761 2.220195 0.141515 -0.036273 -367173.000000 0 0 1
-13.372206 21.633952 -20.202079 32.480267 -1.017165 2.242065 0.141799 -0.034432 618510.000000 0 0 1
-12.428006 22.087952 -18.969979 31.657433 -1.058285 2.213331 0.139127 -0.038365 295637.000000 0 0 1
-12.873906 22.018652 -17.673679 31.030911 -1.041716 2.176756 0.152410 -0.037813 -220304.000000 0 0 1
-13.888706 22.976652 -17.386679 31.986236 -1.027096 2.145478 0.147125 -0.043140 224887.000000 0 0 1
-14.525306 22.850652 -15.957279 31.428833 -1.004566 2.103341 0.150462 -0.045511 -285794.000000 0 0 1
-13.741006 23.288852 -14.925679 30.886272 -1.037744 2.075155 0.144271 -0.056791 -127403.000000 0 0 1
-14.517606 23.359752 -13.706179 30.729436 -1.014733 2.033118 0.141198 -0.040275 456199.000000 0 0 1
-13.633706 23.804252 -12.523879 30.155727 -1.050660 1.999076 0.168160 -0.034625 -80320.600000 0 0 1
-13.361906 25.195452 -12.553579 31.159969 -1.083180 1.985452 0.154760 -0.053486 -75474.100000 0 0 1
-12.394106 25.623852 -11.627179 30.747145 -1.120278 1.958599 0.120507 -0.045797 -192560.000000 0 0 1
-11.953406 27.091452 -11.838779 31.890239 -1.155264 1.951135 0.129040 -0.042069 -524766.000000 0 0 1
-11.097106 27.140652 -12.920879 32.042314 -1.182663 1.985856 0.134339 -0.039798 -411074.000000 0 0 1
-10.961706 28.486352 -13.387479 33.329504 -1.203457 1.984137 0.115967 -0.020368 -291987.000000 0 0 1
-9.965006 28.808052 -14.567579 33.784901 -1.237769 2.016603 0.155566 -0.042647 700383.000000 0 0 1
-8.576806 28.721452 -14.313079 33.216677 -1.280606 2.016287 0.137681 -0.042002 -143414.000000 0 0 1
-8.149706 27.403852 -14.316779 31.974349 -1.281733 2.035053 0.140629 -0.041784 201882.000000 0 0 1
-6.670106 27.307252 -14.864379 31.798209 -1.331226 2.057211 0.155977 -0.048325 473427.000000 0 0 1
-5.732606 27.915452 -14.068179 31.781266 -1.368256 2.029355 0.138697 -0.045956 -1099900.000000 0 0 1
-4.517806 28.046152 -14.771679 32.018740 -1.411084 2.050307 0.142344 -0.048164 227096.000000 0 0 1
-3.470106 28.893452 -13.994179 32.291024 -1.451269 2.019033 0.123572 -0.041703 -115169.000000 0 0 1
-3.579906 30.325352 -14.105679 33.636481 -1.453290 2.003533 0.117210 -0.039661 -587712.000000 0 0 1
-4.573906 30.911752 -13.329979 33.972715 -1.423896 1.974006 0.120239 -0.038352 -221633.000000 0 0 1
-4.720906 32.410952 -13.602379 35.465215 -1.426156 1.964424 0.123252 -0.045290 -352279.000000 0 0 1
-3.668506 33.196452 -13.162679 35.898725 -1.460734 1.946214 0.102342 -0.043541 -629757.000000 0 0 1
-3.800806 -32.975048 -13.486579 35.828588 1.456040 1.956725 0.129873 -0.037248 301746.000000 0 0 1
-2.840606 -32.115348 -12.625779 34.624773 1.482576 1.944049 0.112986 -0.041348 285551.000000 0 0 1
-3.170206 -31.923448 -11.282479 34.006633 1.471814 1.908979 0.104418 -0.043211 -120772.000000 0 0 1
-2.039106 -31.442548 -10.608179 33.246432 1.506035 1.895552 0.080001 -0.038500 18068.400000 0 0 1
-2.380306 -31.471348 -9.078179 32.840904 1.495306 1.850873 0.075514 -0.033610 155106.000000 0 0 1
-1.523906 -30.584348 -8.394679 31.752091 1.521011 1.838359 0.096296 -0.041029 -170972.000000 0 0 1
-1.617806 -30.775048 -6.981479 31.598448 1.518276 1.793578 0.087409 -0.045203 -155131.000000 0 0 1
-0.753706 -29.937948 -6.036279 30.549721 1.545626 1.769694 0.105324 -0.039238 -183333.000000 0 0 1
-0.842606 -30.395048 -4.749779 30.775467 1.543082 1.725752 0.112255 -0.035767 199664.000000 0 0 1
0.052994 -29.716948 -3.854279 29.965902 -1.569013 1.699776 0.097585 -0.033474 -57940.600000 0 0 1
0.014794 -30.282948 -2.398479 30.377786 -1.570308 1.649834 0.111830 -0.024192 -385696.000000 0 0 1
0.461194 -31.662048 -2.205179 31.742098 -1.556231 1.640324 0.118579 -0.029710 987174.000000 0 0 1
1.845994 -31.945448 -2.491079 32.095558 -1.513075 1.648489 0.099866 -0.030825 1359580.000000 0 0 1
2.944294 -31.186948 -1.661979 31.369679 -1.476667 1.623802 0.102336 -0.031733 -907824.000000 0 0 1
3.178294 -31.660248 -0.353379 31.821341 -1.470744 1.581902 0.090633 -0.024026 689796.000000 0 0 1
4.549194 -31.741648 0.049221 32.066023 -1.428446 1.569261 0.077432 -0.017404 1043670.000000 0 0 1
5.301994 -30.380548 0.334021 30.841537 -1.398017 1.559966 0.058844 -0.024132 -368644.000000 0 0 1
5.548894 -29.683448 -0.850179 30.209603 -1.385994 1.598943 0.064994 -0.033967 39399.100000 0 0 1
5.225194 -28.302248 -0.661579 28.788150 -1.388231 1.593779 0.089392 -0.028131 -150017.000000 0 0 1
4.702194 -27.645048 -1.998979 28.113257 -1.402317 1.641961 0.083164 -0.027829 512082.000000 0 0 1
3.412094 -28.052048 -2.458479 28.365541 -1.449757 1.657577 0.090923 -0.030290 634124.000000 0 0 1
2.762394 -27.140348 -3.342179 27.484532 -1.469364 1.692700 0.086066 -0.029602 108777.000000 0 0 1
3.141094 -27.215848 -4.825879 27.818303 -1.455891 1.745157 0.081912 -0.034643 280033.000000 0 0 1
2.535594 -28.363748 -5.503679 29.003826 -1.481638 1.761711 0.086597 -0.040142 472904.000000 0 0 1
3.115494 -28.248748 -6.798879 29.221958 -1.460952 1.805612 0.097561 -0.052736 -29896.700000 0 0 1
2.352194 -28.937648 -7.931279 30.096935 -1.489690 1.837470 0.083827 -0.045419 -999294.000000 0 0 1
1.165294 -28.306448 -8.224079 29.499973 -1.529652 1.853323 0.081425 -0.040873 -1160800.000000 0 0 1
0.789194 -28.458648 -9.561679 30.032369 -1.543072 1.894815 0.095786 -0.036893 1030310.000000 0 0 1
-0.619006 -27.797848 -9.872179 29.505312 1.548532 1.911966 0.079847 -0.039421 263375.000000 0 0 1
-0.573806 -26.388948 -9.753379 28.139550 1.549056 1.924748 0.080792 -0.035263 1026090.000000 0 0 1
-1.868606 -25.714548 -9.708579 27.549704 1.498257 1.930933 0.084549 -0.029377 1334640.000000 0 0 1
-2.742706 -26.087248 -8.478979 27.567373 1.466045 1.883438 0.089146 -0.034101 -562761.000000 0 0 1
-2.396806 -25.749148 -7.130479 26.825492 1.477981 1.839840 0.106750 -0.043055 -6492.130000 0 0 1
-1.328606 -26.531348 -6.577179 27.366712 1.520761 1.813507 0.098338 -0.037221 447429.000000 0 0 1
-1.138706 -26.280048 -5.041179 26.783410 1.527494 1.760146 0.114049 -0.034621 -121859.000000 0 0 1
-2.272006 -26.569548 -4.250279 27.003107 1.485492 1.728853 0.129164 -0.035235 -153623.000000 0 0 1
-2.044206 -26.579648 -2.870279 26.812217 1.494039 1.678053 0.133864 -0.032493 -196783.000000 0 0 1
-3.281706 -26.994548 -2.065379 27.271616 1.449821 1.646603 0.143267 -0.033829 -135289.000000 0 0 1
-4.317006 -26.063148 -1.999679 26.493829 1.406650 1.646345 0.135265 -0.027385 -74054.000000 0 0 1
-5.078506 -25.983348 -0.788079 26.486727 1.377777 1.600554 0.145694 -0.041920 430001.000000 0 0 1
-6.244406 -24.960148 -0.892079 25.744852 1.325653 1.605454 0.132031 -0.032128 -33557.700000 0 0 1
-5.895706 -23.600348 -0.880879 24.341564 1.325992 1.606993 0.109899 -0.040143 -234277.000000 0 1 0
-6.830806 -22.830748 -0.177579 23.831377 1.280080 1.578248 0.120398 -0.043540 -240654.000000 0 1 0
-6.190906 -21.498948 0.147921 22.373064 1.290419 1.564185 0.090603 -0.045980 52486.400000 0 1 0
-5.210106 -21.646048 1.171421 22.295041 1.334594 1.518230 0.080814 -0.040648 95516.900000 0 1 0
-4.611506 -20.384648 1.409921 20.947261 1.348317 1.503437 0.045049 -0.031558 -931835.000000 0 1 0
-3.653706 -20.399148 2.580421 20.883807 1.393565 1.446919 0.044469 -0.017588 -718356.000000 0 1 0
-4.188106 -20.320548 3.892221 21.109578 1.367540 1.385354 0.042581 -0.007686 212510.000000 0 1 0
-3.136306 -20.188748 4.853521 20.999491 1.416679 1.337562 0.067199 -0.015418 412160.000000 0 1 0
-2.298906 -21.438748 5.205921 22.181220 1.463973 1.333887 0.089344 -0.028427 -67429.500000 0 1 0
-1.257906 -21.591848 4.273221 22.046557 1.512604 1.375735 0.088167 -0.030499 -303619.000000 0 1 0
-0.398406 -22.660148 4.636921 23.133138 1.553216 1.368984 0.103796 -0.035491 -738856.000000 0 1 0
0.572994 -23.026348 3.519121 23.300756 -1.545917 1.419186 0.109300 -0.037838 10872.800000 0 1 0
1.786494 -22.338248 3.351321 22.658779 -1.490992 1.422348 0.082832 -0.034995 419229.000000 0 1 0
2.748094 -22.670948 4.385521 23.254176 -1.450168 1.381069 0.100966 -0.037249 -80203.600000 0 1 0
3.980594 -21.742948 4.549821 22.567716 -1.389726 1.367797 0.095078 -0.034221 366383.000000 0 1 0
4.887794 -21.845448 3.456421 22.650849 -1.350677 1.417602 0.068585 -0.019388 206818.000000 0 1 0
6.188694 -21.447348 3.882821 22.657559 -1.289874 1.398576 0.075448 -0.006843 572368.000000 0 1 0
7.003594 -20.759648 2.765321 22.083032 -1.245421 1.445243 0.085012 -0.005935 -91964.400000 0 1 0
7.488994 -21.698248 1.859721 23.029493 -1.238455 1.489954 0.085809 -0.010581 -207743.000000 0 1 0
7.284794 -21.243848 0.506021 22.463868 -1.240449 1.548268 0.072096 -0.025865 33148.600000 0 1 0
8.133794 -22.071448 -0.481079 23.527407 -1.217718 1.591245 0.075913 -0.019487 229117.000000 0 1 0
9.483594 -21.666448 -0.485179 23.656055 -1.158211 1.591307 0.077453 -0.013951 -549625.000000 0 1 0
10.320194 -22.486848 -1.248279 24.773432 -1.140530 1.621205 0.075330 -0.017129 161367.000000 0 1 0
11.621994 -21.781948 -1.699979 24.746998 -1.080662 1.639545 0.074032 -0.019684 122491.000000 0 1 0
11.542294 -20.778448 -2.664679 23.917963 -1.063745 1.682437 0.071180 -0.017349 -435742.000000 0 1 0
12.708494 -20.810748 -3.430079 24.624348 -1.022568 1.710547 0.073106 -0.019793 -267395.000000 0 1 0
12.812694 -19.599048 -4.302479 23.807544 -0.991796 1.752514 0.063732 -0.029376 -94707.900000 0 1 0
12.815594 -18.391648 -3.604579 22.704298 -0.962211 1.730233 0.077645 -0.030438 265742.000000 0 1 0
13.155794 -17.329048 -4.510879 22.219785 -0.921449 1.775229 0.092648 -0.031621 -530859.000000 0 1 0
13.565094 -16.001248 -3.849679 21.327722 -0.867609 1.752292 0.086863 -0.020271 1381080.000000 0 1 0
14.926194 -15.966948 -3.343779 22.111435 -0.819074 1.722603 0.082264 -0.018650 1528470.000000 0 1 0
15.895794 -15.647748 -4.345479 22.724688 -0.777535 1.763204 0.086811 -0.025536 373089.000000 0 1 0
17.247594 -15.045348 -3.855279 23.210023 -0.717308 1.737674 0.087692 -0.026914 415528.000000 0 1 0
18.042194 -15.940048 -3.131379 24.277797 -0.723617 1.700138 0.105847 -0.034483 204625.000000 0 1 0
19.399894 -15.529848 -3.076379 25.039891 -0.675053 1.693967 0.075393 -0.017822 -21165.300000 0 0 1
20.159094 -16.652148 -2.337179 26.251581 -0.690417 1.659944 0.074253 -0.024569 72695.700000 0 0 1
21.554194 -16.576548 -2.625279 27.317710 -0.655591 1.667047 0.071126 -0.013611 605929.000000 0 0 1
22.230094 -17.570548 -1.794479 28.392277 -0.668857 1.634042 0.075895 -0.009504 1384760.000000 0 0 1
23.797094 -17.477548 -1.957579 29.590513 -0.633468 1.637000 0.090498 -0.014818 1271660.000000 0 0 1
24.501794 -16.278648 -1.584179 29.459156 -0.586422 1.624598 0.101863 -0.015792 806124.000000 0 0 1
25.815694 -16.445948 -1.081179 30.628225 -0.567219 1.606104 0.165194 -0.015736 676981.000000 0 0 1
26.553794 -15.179948 -0.562879 30.591692 -0.519326 1.589197 0.156047 -0.012904 322602.000000 0 0 1
25.792594 -14.672348 0.508921 29.678185 -0.517207 1.553648 0.118789 -0.012380 -55930.700000 0 0 1
26.527194 -13.775448 1.261321 29.917318 -0.478964 1.528624 0.101985 -0.001206 -256345.000000 0 0 1
25.726694 -12.910848 2.271321 28.874066 -0.465124 1.492052 0.112724 -0.007275 -143895.000000 0 0 1
25.356594 -13.605248 3.493721 28.987337 -0.492463 1.449977 0.129143 0.000536 1094790.000000 0 0 1
26.497094 -14.082548 4.279721 30.310562 -0.488510 1.429127 0.139378 0.010573 918825.000000 0 0 1
26.197094 -14.661948 5.668021 30.551381 -0.510243 1.384191 0.132929 0.004437 -59592.100000 0 0 1
25.499794 -15.850848 5.594021 30.541479 -0.556156 1.386595 0.146863 -0.017757 -209548.000000 0 0 1
24.979294 -16.425048 6.767821 30.652092 -0.581662 1.348167 0.132358 -0.023471 15181.200000 0 0 1
24.438494 -17.871048 6.591721 30.984918 -0.631403 1.356418 0.118417 -0.017711 -52295.800000 0 0 1
25.400394 -18.835548 6.256221 32.235046 -0.638068 1.375475 0.101094 -0.019823 -379502.000000 0 0 1
24.793394 -20.119448 6.093621 32.505950 -0.681704 1.382219 0.078928 -0.017105 -200816.000000 0 0 1
2.347694 23.451752 -2.804779 23.735271 1.471021 1.689242 0.044152 -0.025803 137313.000000 0 1 0
3.568994 24.139652 -2.648779 24.545397 1.424012 1.678920 0.056425 -0.032529 -360304.000000 0 1 0
4.057994 24.636252 -3.843179 25.262269 1.407546 1.723521 0.078896 -0.036664 -274327.000000 0 0 1
5.267694 25.550552 -3.618579 26.337680 1.367478 1.708624 0.064582 -0.028122 -3868.750000 0 0 1
6.375994 24.890452 -3.042679 25.873650 1.320026 1.688667 0.048987 -0.042468 -173007.000000 0 0 1
6.895194 25.567752 -1.937479 26.551976 1.307380 1.643831 0.043907 -0.035282 -259228.000000 0 0 1
7.958194 24.843452 -1.099779 26.110141 1.260791 1.612930 0.030072 -0.040036 153514.000000 0 0 1
9.231194 24.890952 -1.710779 26.602654 1.215655 1.635149 0.038188 -0.041792 -344553.000000 0 0 1
10.045394 23.811052 -1.342379 25.878139 1.171572 1.622693 0.034878 -0.046628 120521.000000 0 0 1
11.264894 23.689752 -2.280579 26.330651 1.126926 1.657518 0.070019 -0.046071 -397264.000000 0 0 1
12.325394 24.649652 -2.180179 27.645503 1.107130 1.649740 0.079130 -0.039581 450698.000000 0 0 1
13.348494 24.576052 -3.143779 28.143346 1.073227 1.682736 0.098632 -0.042435 577591.000000 0 0 1
14.223894 23.249452 -3.125579 27.434019 1.021749 1.684975 0.116070 -0.045899 -955865.000000 0 0 1
13.666594 22.070952 -3.581079 26.205473 1.016370 1.707879 0.139642 -0.049047 -246686.000000 0 0 1
13.100394 22.057952 -4.892979 26.117327 1.034868 1.759256 0.168561 -0.052686 180771.000000 0 0 1
12.086094 20.910552 -5.173579 24.700015 1.046718 1.781815 0.171030 -0.049327 793110.000000 0 1 0
10.767894 21.133452 -4.682879 24.176428 1.099563 1.765725 0.130030 -0.049026 355234.000000 0 1 0
9.852094 20.074352 -4.800279 22.871074 1.114552 1.782253 0.108154 -0.039325 89085.300000 0 1 0
8.378494 20.502252 -4.747579 22.651291 1.182845 1.781956 0.079971 -0.032200 -225294.000000 0 1 0
7.910394 21.041452 -3.516479 22.752640 1.211199 1.725971 0.070643 -0.030566 -685890.000000 0 1 0
6.523994 21.113952 -3.619779 22.393397 1.271113 1.733154 0.060938 -0.031800 -230683.000000 0 1 0
5.790094 21.770252 -2.377579 22.652195 1.310850 1.675950 0.038324 -0.035571 105263.000000 0 1 0
5.687894 20.968652 -1.204679 21.759773 1.305913 1.626187 0.031326 -0.040419 -183462.000000 0 1 0
4.959094 21.716952 -0.278579 22.277706 1.346294 1.583301 0.038525 -0.033329 -105365.000000 0 1 0
4.587994 20.998052 1.048721 21.519007 1.355681 1.522042 0.019923 -0.030204 -80097.500000 0 1 0
3.799794 21.775452 1.961221 22.191330 1.398037 1.482303 0.028425 -0.024061 188789.000000 0 1 0
3.476094 20.932152 3.035721 21.434874 1.406233 1.428693 0.034542 -0.019606 -694200.000000 0 1 0
2.545094 21.400552 4.108021 21.939393 1.452426 1.382440 0.027794 -0.022351 -887592.000000 0 1 0
1.228794 21.488952 3.630621 21.828110 1.513676 1.403692 0.018666 -0.019396 -501840.000000 0 1 0
0.359094 22.081352 4.552821 22.548686 1.554535 1.367488 0.034458 -0.021018 -77961.800000 0 1 0
-1.058306 22.266452 3.996921 22.647081 -1.523303 1.393380 0.050591 -0.016494 3426.350000 0 1 0
-2.061406 22.652952 4.926821 23.274002 -1.480047 1.357495 0.062032 -0.023930 551014.000000 0 1 0
-3.322106 22.495452 4.263821 23.135728 -1.424177 1.385441 0.072518 -0.030102 621172.000000 0 1 0
-4.606206 22.600952 5.106921 23.624157 -1.369744 1.352903 0.076237 -0.044125 155429.000000 0 1 0
-4.999206 23.857252 5.569521 25.003601 -1.364238 1.346163 0.103567 -0.035349 745695.000000 0 0 1
-6.328806 23.928252 6.125621 25.497809 -1.312226 1.328182 0.105855 -0.030217 943605.000000 0 0 1
-6.774606 25.331952 6.588821 27.037301 -1.309478 1.324624 0.121748 -0.034456 -77669.800000 0 0 1
-6.086206 25.735952 7.766421 27.562627 -1.338576 1.285154 0.099207 -0.040408 -269526.000000 0 0 1
-6.451806 26.923552 8.382521 28.926979 -1.335597 1.276797 0.136747 -0.024597 -401353.000000 0 0 1
-6.351006 28.208652 7.549221 29.884010 -1.349345 1.315412 0.169935 -0.031641 661589.000000 0 0 1
-7.508206 28.303152 6.696221 30.037992 -1.311491 1.345982 0.135863 -0.045450 276099.000000 0 0 1
-7.495406 29.495652 5.909921 31.001641 -1.321945 1.378990 0.155746 -0.046099 -920822.000000 0 0 1
-8.810306 29.649952 5.119621 31.352060 -1.281962 1.406767 0.133683 -0.047893 548936.000000 0 0 1
-9.846606 30.201752 5.940221 32.316988 -1.255635 1.385934 0.116137 -0.030329 51701.500000 0 0 1
-10.567706 29.237352 6.679621 31.798058 -1.223962 1.359156 0.096285 -0.031435 -505233.000000 0 0 1
-11.794106 29.783752 7.457121 32.890446 -1.193750 1.342081 0.071469 -0.030847 -77670.300000 0 0 1
-11.451006 30.515452 8.658921 33.723808 -1.211804 1.311128 0.085829 -0.029329 94134.700000 0 0 1
-12.577306 30.863052 9.444021 34.639661 -1.183824 1.294664 0.104261 -0.023107 50595.800000 0 0 1
-12.173006 31.320752 10.829221 35.305008 -1.200107 1.259037 0.094082 -0.033106 -95110.100000 0 0 1
-11.512006 32.553652 10.922721 36.215637 -1.230890 1.264424 0.085433 -0.035267 25620.500000 0 0 1
-10.927106 32.783452 12.157121 36.632662 -1.249065 1.232516 0.085402 -0.038170 -279828.000000 0 0 1
-10.467906 -33.259948 12.325721 36.982761 1.265881 1.231013 0.087497 -0.041605 -358034.000000 0 0 1
-11.387606 -32.319348 12.778021 36.571788 1.232033 1.213870 0.079860 -0.037759 -462876.000000 0 0 1
-10.801506 -31.069948 12.949121 35.351011 1.236215 1.195765 0.084184 -0.036267 256920.000000 0 0 1
-11.781906 -30.034848 13.599421 35.012136 1.196968 1.171880 0.075488 -0.030322 152749.000000 0 0 1
-12.132506 -30.226848 14.944921 35.835886 1.189099 1.140613 0.062923 -0.035569 -322647.000000 0 0 1
-11.083106 -30.074548 15.886021 35.772606 1.217718 1.110645 0.092415 -0.036725 -221007.000000 0 0 1
-11.308906 -30.460348 17.365321 36.841262 1.215303 1.079970 0.101332 -0.043043 -186900.000000 0 0 1
-12.049706 -29.557248 18.182321 36.734495 1.183692 1.053001 0.103281 -0.047990 301370.000000 0 0 1
-12.392406 -30.161148 19.407321 37.946155 1.180952 1.033932 0.100256 -0.049793 -108398.000000 0 0 1
-12.467006 -29.210648 20.601021 37.856179 1.167405 0.995371 0.127353 -0.057845 329698.000000 0 0 1
-11.194206 -28.816848 21.112021 37.435791 1.200277 0.971632 0.136260 -0.056989 400114.000000 0 0 1
-11.229506 -27.798448 22.079021 37.233570 1.186879 0.936033 0.146464 -0.059747 -928941.000000 0 0 1
-9.925506 -27.583148 22.787121 37.129485 1.225383 0.910032 0.165295 -0.063323 -871071.000000 0 0 1
-9.671606 -28.640948 23.710821 38.419356 1.245135 0.905670 0.153655 -0.043844 716920.000000 0 0 1
-8.388406 -28.387248 24.323821 38.312524 1.283474 0.882944 0.169454 -0.046292 912899.000000 0 0 1
-7.985706 -29.555548 25.301721 39.717490 1.306904 0.880141 0.169661 -0.047338 36205.600000 0 0 1
-7.829506 -30.881748 24.814721 40.382594 1.322496 0.909056 0.162269 -0.019431 258151.000000 0 0 1
-7.916506 -31.848748 25.812721 41.752969 1.327168 0.904314 0.156889 -0.018302 -328993.000000 0 0 1
-8.080906 -33.239348 25.275221 42.532248 1.332310 0.934451 0.131372 -0.012135 -799890.000000 0 0 1
-6.920606 33.605952 24.887421 42.386773 -1.367702 0.943262 0.137754 -0.010212 -201267.000000 0 0 1
-7.148606 32.237052 24.491821 41.111791 -1.352576 0.932613 0.117772 -0.007702 225249.000000 0 0 1
-7.933306 32.018952 23.135721 40.291590 -1.327918 0.959161 0.114204 -0.001703 309780.000000 0 0 1
-8.631606 30.817352 23.267321 39.567436 -1.297705 0.942160 0.109320 -0.002101 274219.000000 0 0 1
-9.677306 30.577152 22.330721 39.080348 -1.264282 0.962579 0.100882 -0.005162 590120.000000 0 0 1
-10.506506 29.278952 22.518821 38.402356 -1.226267 0.944199 0.095719 -0.013344 329351.000000 0 0 1
-9.650006 28.152852 22.360421 37.224912 -1.240575 0.926440 0.085017 -0.010435 418638.000000 0 0 1
-10.352206 26.940252 22.479221 36.582246 -1.203927 0.909064 0.074119 -0.012622 -372727.000000 0 0 1
-9.516606 25.750152 22.090021 35.236418 -1.216790 0.893217 0.077162 -0.020123 218613.000000 0 0 1
-8.346006 25.555352 22.880421 35.302202 -1.255131 0.865670 0.068321 -0.031361 394794.000000 0 0 1
-7.697706 24.324052 22.675321 34.133332 -1.264303 0.844218 0.065324 -0.034639 80298.800000 0 0 1
-6.374306 24.174052 23.475121 34.294283 -1.312981 0.816851 0.067132 -0.027651 438050.000000 0 0 1
-5.332106 24.861152 22.778621 34.137572 -1.359522 0.840273 0.078482 -0.024984 -163565.000000 0 0 1
-4.143506 24.832852 23.562121 34.482064 -1.405464 0.818503 0.108826 -0.019127 -335711.000000 0 0 1
-3.107706 25.634152 22.801221 34.447979 -1.450152 0.847442 0.113509 -0.012574 -714403.000000 0 0 1
-2.694006 24.811352 21.693921 33.067916 -1.462640 0.855235 0.100625 -0.018325 157999.000000 0 0 1
-1.851906 25.535352 20.782821 32.975891 -1.498400 0.888930 0.113115 -0.020038 268225.000000 0 0 1
-1.281306 24.533652 19.757621 31.526265 -1.518617 0.893481 0.086169 -0.019980 138687.000000 0 0 1
-0.215806 23.673952 20.145121 31.085824 -1.561681 0.865777 0.088993 -0.022985 162836.000000 0 0 1
0.073294 22.668252 19.119021 29.654544 1.567563 0.870133 0.079661 -0.024558 393633.000000 0 0 1
1.302294 21.787852 19.516221 29.279504 1.511096 0.841227 0.072941 -0.012732 907191.000000 0 0 1
2.578694 22.350752 19.202921 29.579688 1.455930 0.864274 0.071323 -0.025516 134624.000000 0 0 1
3.587994 21.414152 19.509021 29.189750 1.404786 0.838806 0.072587 -0.018882 1046690.000000 0 0 1
5.054594 21.896452 19.175321 29.541436 1.343930 0.864397 0.060702 -0.016740 134451.000000 0 0 1
5.971394 20.917852 19.111421 28.956182 1.292724 0.849962 0.065891 -0.016753 -1554500.000000 0 0 1
7.198494 21.354652 18.633221 29.241005 1.245666 0.879899 0.096983 -0.029010 68533.700000 0 0 1
8.235294 20.200952 18.333021 28.495581 1.183697 0.871912 0.101728 -0.022302 431609.000000 0 0 1
8.741594 19.476952 19.464221 28.889842 1.148926 0.831539 0.107400 -0.023144 -272894.000000 0 0 1
9.531094 18.423152 19.071221 28.177397 1.093371 0.827353 0.107063 -0.025341 -222012.000000 0 0 1
10.099194 17.549352 20.247621 28.634588 1.048606 0.785403 0.127582 -0.026460 424932.000000 0 0 1
9.101594 16.688952 20.779021 28.162525 1.071518 0.740954 0.098238 -0.023384 413543.000000 0 0 1
9.707994 15.943052 21.816921 28.712438 1.023846 0.707726 0.087883 -0.023522 -20683.300000 0 0 1
8.787894 14.871152 22.362221 28.256807 1.037068 0.657713 0.069871 -0.019164 -616233.000000 0 0 1
7.774994 15.385152 23.176721 28.884491 1.102872 0.639502 0.063117 -0.001015 -105219.000000 0 0 1
6.749594 14.476552 23.562121 28.465788 1.134517 0.595738 0.069055 -0.005489 459376.000000 0 0 1
7.238094 13.360052 24.557021 28.877816 1.074293 0.554096 0.079723 -0.014244 -380547.000000 0 0 1
7.542494 13.962252 25.797721 30.287887 1.075504 0.551479 0.100822 -0.022540 -68545.800000 0 0 1
7.967594 13.004752 26.789221 30.826425 1.021114 0.517549 0.126136 -0.031510 -515278.000000 0 0 1
9.060094 13.617352 27.718321 32.184202 0.983717 0.533092 0.109959 -0.026422 -56710.600000 0 0 1
10.348894 13.573952 27.146921 32.067227 0.919401 0.561302 0.145401 -0.025975 -113905.000000 0 0 1
10.592894 14.847452 26.480121 32.153585 0.951101 0.603153 0.130219 -0.017465 -1272480.000000 0 0 1
11.790894 14.793352 25.580621 31.815666 0.897863 0.636761 0.152416 -0.028421 -949050.000000 0 0 1
11.602994 14.120552 24.349721 30.445498 0.882957 0.643867 0.139959 -0.029770 -166918.000000 0 0 1
12.779894 13.945352 23.591521 30.238359 0.828979 0.675834 0.180259 -0.034527 -182113.000000 0 0 1
12.758494 12.734552 22.625421 28.928492 0.784459 0.672743 0.148102 -0.037857 -211500.000000 0 0 1
12.653294 11.457252 23.287421 28.873490 0.735832 0.632532 0.142449 -0.032932 1743210.000000 0 0 1
11.317694 11.050352 23.755621 28.539972 0.773447 0.587438 0.137638 -0.033553 1363930.000000 0 0 1
11.271094 9.600152 24.206721 28.375444 0.705509 0.548923 0.132867 -0.030587 -60667.800000 0 0 1
11.336894 8.638652 23.186821 27.217276 0.651134 0.551164 0.148871 -0.029533 228182.000000 0 0 1
11.253594 7.305452 23.715521 27.247732 0.575789 0.514850 0.161719 -0.035079 -36701.600000 0 0 1
11.710094 6.171652 22.769121 26.337206 0.485042 0.526596 0.164540 -0.049925 -857321.000000 0 0 1
13.075994 5.994552 22.595021 26.785280 0.429850 0.566916 0.179335 -0.045581 -475112.000000 0 0 1
13.352094 4.870252 21.756521 25.987381 0.349759 0.578661 0.197898 -0.054829 -253061.000000 0 0 1
13.216794 3.471952 22.385421 26.226802 0.256888 0.548069 0.180339 -0.059940 -166659.000000 0 0 1
14.193694 3.236652 23.394321 27.554149 0.224201 0.556648 0.168791 -0.048154 338902.000000 0 0 1
13.932594 2.006752 24.010521 27.832523 0.143049 0.530254 0.171969 -0.044147 -1193980.000000 0 0 1
15.079294 1.507452 24.850121 29.106460 0.099637 0.547619 0.127519 -0.023415 15843.900000 0 0 1
16.141694 0.936552 24.043221 28.974262 0.057956 0.592024 0.130261 -0.029552 843832.000000 0 0 1
17.342394 1.699152 24.161321 29.789514 0.097665 0.624821 0.106525 -0.025918 -509217.000000 0 0 1
18.431394 1.124552 23.281821 29.715721 0.060937 0.670542 0.096788 -0.027691 -731229.000000 0 0 1
18.741094 -0.153648 23.754321 30.257560 -0.008198 0.667986 0.088784 -0.022454 480113.000000 0 0 1
19.734094 -0.806848 22.917621 30.253972 -0.040863 0.711309 0.077735 -0.009958 468510.000000 0 0 1
19.967394 -2.306848 23.244521 30.729889 -0.115021 0.712983 0.062666 -0.006692 940326.000000 0 0 1
18.786394 -3.122548 22.993521 29.856003 -0.164708 0.691724 0.063660 0.003149 879963.000000 0 0 1
18.921194 -4.500648 23.353221 30.391452 -0.233523 0.694437 0.080252 0.002082 -214586.000000 0 0 1
17.774894 -5.479448 23.002221 29.581639 -0.299026 0.679981 0.094931 -0.002904 -43798.600000 0 0 1
17.689594 -5.643448 21.572421 28.462951 -0.308820 0.710689 0.101740 -0.004201 -419825.000000 0 0 1
16.698694 -6.533348 21.226021 27.786237 -0.372940 0.701455 0.120074 -0.013262 -669389.000000 0 0 1
17.091994 -8.057248 21.195121 28.395222 -0.440511 0.728111 0.128473 -0.018774 -102189.000000 0 0 1
16.995994 -8.723648 22.389521 29.432235 -0.474213 0.706384 0.109517 -0.007544 -92047.000000 0 0 1
17.536194 -9.989248 22.340721 30.106660 -0.517794 0.734669 0.101098 -0.007776 -232028.000000 0 0 1
17.324594 -10.980348 23.510821 31.200453 -0.564903 0.717364 0.123948 -0.028361 372098.000000 0 0 1
16.067694 -11.648248 23.418721 30.696725 -0.627274 0.703000 0.145636 -0.034264 276002.000000 0 0 1
15.802394 -12.677448 24.339421 31.667661 -0.676111 0.694163 0.167425 -0.028360 41815.600000 0 0 1
14.802694 -13.681948 23.772721 31.168216 -0.746073 0.703283 0.182761 -0.038108 -82858.300000 0 0 1
15.357594 -14.343348 22.671921 30.912834 -0.751263 0.747465 0.181401 -0.047505 446820.000000 0 0 1
14.374794 -15.234948 22.157721 30.491030 -0.814440 0.757296 0.189168 -0.040297 91382.700000 0 0 1
14.821594 -16.271048 21.097221 30.488020 -0.831982 0.806563 0.159424 -0.041208 140428.000000 0 0 1
15.709794 -17.321548 21.511421 31.773808 -0.834154 0.827094 0.178216 -0.042766 513106.000000 0 0 1
15.876394 -18.220148 20.441621 31.652702 -0.854029 0.868713 0.164050 -0.031987 -352150.000000 0 0 1
-25.464526 -32.507548 24.866439 48.202931 0.906296 1.028774 0.093052 -0.039310 -898163.000000 0 0 1
-26.266806 -33.660448 24.806509 49.379487 0.908155 1.044465 0.108537 -0.027511 -471549.000000 0 0 1
-27.394576 -33.462548 25.608549 50.259355 0.884778 1.036160 0.082454 -0.047855 -672165.000000 0 0 1
-27.248596 -33.632548 27.105389 51.071875 0.889876 1.011334 0.092437 -0.045509 -728414.000000 0 0 1
-28.368586 -33.290048 27.890109 51.873521 0.865047 1.003142 0.109854 -0.040023 16389.900000 0 0 1
-28.137776 -33.373448 29.260019 52.551596 0.870311 0.980284 0.090662 -0.033254 323012.000000 0 0 1
-29.333576 -32.803748 30.098419 53.314720 0.841187 0.970918 0.072462 -0.038665 241702.000000 0 0 1
-29.495626 -31.404148 29.954259 52.473518 0.816727 0.963261 0.045446 -0.029591 124413.000000 0 0 1
-30.255326 -30.829148 30.992309 53.163374 0.794792 0.948425 0.042182 -0.007912 -198412.000000 0 0 1
-30.261876 -29.283648 30.797399 52.170806 0.768971 0.939343 0.023081 -0.020906 -73987.900000 0 0 1
-31.008426 -28.949348 29.640639 51.750891 0.751070 0.960932 0.020106 -0.006822 236031.000000 0 0 1
-31.269156 -27.577248 29.579949 51.119841 0.722742 0.953737 0.027127 -0.013248 -296848.000000 0 0 1
-32.019376 -27.163448 28.300709 50.636188 0.703532 0.977734 0.024158 -0.024996 1929.210000 0 0 1
-31.254096 -27.194148 27.100509 49.505331 0.716047 0.991511 0.038913 -0.018776 143547.000000 0 0 1
-30.279276 -26.191048 27.007249 48.292826 0.713128 0.977328 0.039236 -0.014723 -114168.000000 0 0 1
-29.289636 -26.254348 25.817329 47.050059 0.730806 0.989963 0.025645 0.008388 115663.000000 0 0 1
-29.823946 -25.826648 24.538889 46.461173 0.713693 1.014365 0.019792 0.002621 355699.000000 0 0 1
-28.859176 -25.880748 23.507309 45.334962 0.731041 1.025671 0.017035 0.016687 -233559.000000 0 0 1
-29.462886 -26.217548 22.138589 45.227631 0.727179 1.059289 0.017317 0.018657 82913.000000 0 0 1
-30.197486 -25.157348 21.496089 44.798015 0.694597 1.070319 0.024400 0.010744 499346.000000 0 0 1
-30.697866 -25.646448 20.242989 44.831662 0.695985 1.102313 0.021234 0.022569 185299.000000 0 0 1
-31.206436 -24.512548 19.243989 44.102583 0.665835 1.119263 0.039709 0.023398 -149227.000000 0 0 1
-32.389666 -23.897948 19.675289 44.803118 0.635664 1.116144 0.076215 0.008584 -143374.000000 0 0 1
-32.831996 -22.810748 18.908889 44.224612 0.607209 1.128999 0.088886 0.006163 79274.100000 0 0 1
-34.193679 -22.250448 19.424189 45.183949 0.576880 1.126424 0.111877 0.004796 241241.000000 0 0 1
-35.198210 -23.220848 19.212989 46.338545 0.583176 1.143269 0.087502 -0.005253 -626236.000000 0 0 1
-36.491526 -22.707448 19.260889 47.098212 0.556631 1.149491 0.083297 -0.021487 -38022.200000 0 0 1
-37.390996 -23.439148 18.165089 47.722644 0.559940 1.180309 0.087362 -0.024221 311451.000000 0 0 1
-37.831066 -24.758448 18.497689 48.850126 0.579495 1.182446 0.069800 -0.022631 157272.000000 0 0 1
37.631111 -25.392348 17.339589 48.595609 -0.593592 1.205941 0.080592 -0.016764 -6301.170000 0 0 1
36.979411 -26.768448 17.675389 48.953509 -0.626570 1.201387 0.085879 -0.007864 784769.000000 0 0 1
35.709891 -26.821748 18.342289 48.280866 -0.644206 1.181099 0.087265 -0.013123 711258.000000 0 0 1
35.875971 -26.398048 19.679589 48.695261 -0.634360 1.154760 0.101074 -0.009548 -712693.000000 0 0 1
34.699051 -26.562648 20.652889 48.333634 -0.653357 1.129294 0.085512 -0.009684 -364773.000000 0 0 1
33.581251 -25.821648 20.247389 46.951195 -0.655507 1.124926 0.083633 -0.017760 -787529.000000 0 0 1
32.686901 -25.604448 21.288889 46.660883 -0.664490 1.097023 0.094883 -0.015392 -133077.000000 0 0 1
31.568541 -24.599748 20.879289 45.140504 -0.661959 1.089938 0.115626 -0.009323 169797.000000 0 0 1
32.092081 -23.369348 20.440489 44.652454 -0.629400 1.095313 0.099314 -0.010810 560812.000000 0 0 1
33.004551 -22.689848 21.340689 45.382316 -0.602271 1.081231 0.107963 -0.019782 191734.000000 0 0 1
33.546871 -21.366248 20.781089 44.874968 -0.567116 1.089319 0.105186 -0.026424 -353427.000000 0 0 1
32.657891 -20.317148 20.493189 43.580903 -0.556526 1.081241 0.101146 -0.030181 -263720.000000 0 0 1
33.361681 -19.122348 20.232589 43.451393 -0.520468 1.086442 0.095667 -0.025000 -432393.000000 0 0 1
32.694661 -17.792948 20.737089 42.609350 -0.498391 1.062512 0.075608 -0.017694 -383107.000000 0 0 1
32.439821 -17.621648 22.111489 43.032341 -0.497616 1.031148 0.081303 -0.037712 787634.000000 0 0 1
31.326841 -18.407548 22.582109 42.780374 -0.531250 1.014716 0.092485 -0.032329 144370.000000 0 0 1
30.978291 -18.063548 24.033919 43.169150 -0.527903 0.980342 0.082999 -0.028727 -60692.700000 0 0 1
30.513591 -16.700148 24.161759 42.352860 -0.500769 0.963698 0.090224 -0.031356 361140.000000 0 0 1
30.674791 -16.266048 25.494219 43.075310 -0.487573 0.937441 0.092621 -0.031586 -43289.700000 0 0 1
30.364191 -14.757848 25.694189 42.426047 -0.452408 0.920248 0.084632 -0.036319 257436.000000 0 0 1
29.018191 -14.302548 25.731549 41.336798 -0.457937 0.898882 0.106903 -0.030437 371380.000000 0 0 1
28.848691 -12.900448 26.055679 40.958112 -0.420503 0.881293 0.098652 -0.037393 -177010.000000 0 0 1
29.423891 -11.778348 25.144319 40.456540 -0.380764 0.900122 0.117493 -0.038184 -75851.000000 0 0 1
28.875391 -11.716248 23.787759 39.203522 -0.385455 0.918798 0.113207 -0.031071 125968.000000 0 0 1
29.710591 -11.086848 22.867259 39.096661 -0.357158 0.946051 0.119188 -0.023626 164054.000000 0 0 1
30.821091 -12.000548 22.249289 39.862058 -0.371302 0.978633 0.113854 -0.023493 123966.000000 0 0 1
30.280491 -12.913748 21.334389 39.227913 -0.403116 0.995769 0.105855 -0.025808 222658.000000 0 0 1
30.609591 -14.218748 21.753389 40.153826 -0.434862 0.998277 0.099521 -0.023563 -535760.000000 0 0 1
30.087791 -15.274248 20.811089 39.644410 -0.469754 1.018147 0.094584 -0.019590 -661396.000000 0 0 1
30.752691 -15.266848 19.564889 39.516952 -0.460795 1.052845 0.092807 -0.025712 -58314.600000 0 0 1
30.224791 -16.110148 18.569789 38.960389 -0.489706 1.073976 0.103122 -0.037989 -506883.000000 0 0 1
30.502191 -15.587348 17.166789 38.315111 -0.472428 1.106222 0.114176 -0.042721 -209148.000000 0 0 1
30.089191 -16.472048 16.106789 37.896127 -0.500876 1.131807 0.106478 -0.049132 -615.809000 0 0 1
28.696891 -16.615848 15.964089 36.802854 -0.524844 1.122120 0.125681 -0.051720 -393901.000000 0 0 1
27.949091 -15.511248 15.157289 35.376460 -0.506660 1.128012 0.134003 -0.046879 -477340.000000 0 0 1
27.973791 -15.591748 13.728189 34.843920 -0.508484 1.165827 0.144054 -0.054795 177217.000000 0 0 1
27.026091 -16.540948 13.259889 34.348758 -0.549223 1.174465 0.147351 -0.064514 -188762.000000 0 0 1
27.366191 -17.065548 11.802589 34.343011 -0.557592 1.219976 0.142902 -0.043646 -496523.000000 0 0 1
27.249891 -16.119548 10.739489 33.432514 -0.534180 1.243769 0.144538 -0.036538 -273466.000000 0 0 1
27.382591 -16.693448 9.411489 33.422352 -0.547476 1.285343 0.120820 -0.037274 -168339.000000 0 0 1
28.801891 -17.138448 9.016689 34.707002 -0.536769 1.307987 0.124081 -0.029606 -87871.100000 0 0 1
29.301491 -18.236748 9.766389 35.868352 -0.556715 1.295030 0.124882 -0.029953 -272870.000000 0 0 1
30.689091 -18.418648 9.574289 37.050424 -0.540544 1.309418 0.132353 -0.015070 27821.000000 0 0 1
31.327891 -19.364148 10.608089 38.326734 -0.553631 1.290354 0.116148 -0.031406 -195399.000000 0 0 1
31.307701 -18.706948 11.922889 38.370266 -0.538593 1.254833 0.111764 -0.043168 204428.000000 0 0 1
31.519011 -19.712548 12.868289 39.339871 -0.558900 1.237557 0.091690 -0.035260 -157832.000000 0 0 1
31.633151 -19.206348 14.288089 39.669756 -0.545667 1.202340 0.092711 -0.029227 88138.500000 0 0 1
31.793111 -20.241248 15.237189 40.653191 -0.566937 1.186605 0.103149 -0.032374 -32180.000000 0 0 1
31.614341 -19.669848 16.509489 40.729997 -0.556570 1.153446 0.116829 -0.041069 -43797.700000 0 0 1
31.202511 -20.820348 17.462489 41.376589 -0.588417 1.135104 0.119248 -0.033590 809179.000000 0 0 1
29.848191 -21.226048 17.197589 40.462534 -0.618159 1.131807 0.071216 -0.022806 650206.000000 0 0 1
29.460891 -22.352648 17.932789 41.099512 -0.649060 1.119285 0.101440 -0.028127 340451.000000 0 0 1
28.037191 -22.914948 17.669589 40.291355 -0.685204 1.116817 0.089261 -0.012971 1118070.000000 0 0 1
26.973891 -22.034948 18.167189 39.283285 -0.684961 1.090022 0.102001 -0.008103 385671.000000 0 0 1
25.782391 -22.754348 18.081389 38.851366 -0.723092 1.086711 0.118172 -0.021406 -184378.000000 0 0 1
24.575291 -22.163748 18.858089 38.089423 -0.733848 1.052846 0.094258 -0.018878 68009.800000 0 0 1
23.881491 -21.041048 18.380689 36.754606 -0.722252 1.047091 0.088288 -0.023448 -117974.000000 0 0 1
22.747191 -20.721548 19.157389 36.246693 -0.738832 1.013931 0.085867 -0.024021 30012.700000 0 0 1
22.892891 -20.030148 20.550089 36.709637 -0.718802 0.976651 0.075846 -0.014414 -307365.000000 0 0 1
23.411491 -20.963748 21.516689 38.086015 -0.730294 0.970424 0.081019 -0.014669 131618.000000 0 0 1
23.767791 -20.347848 22.757559 38.689136 -0.708031 0.941946 0.073131 -0.014947 244076.000000 0 0 1
24.307391 -21.399148 23.746869 40.158269 -0.721855 0.938087 0.075027 -0.010891 575790.000000 0 0 1
23.202691 -22.147848 24.276809 40.227546 -0.762143 0.922929 0.091839 -0.017575 834531.000000 0 0 1
23.611891 -23.319448 25.030399 41.567282 -0.779167 0.924585 0.096926 -0.012944 -428185.000000 0 0 1
22.480891 -24.044248 25.731879 41.780927 -0.818988 0.907299 0.103431 -0.017446 -322976.000000 0 0 1
21.599391 -24.824848 24.927249 41.281648 -0.854765 0.922494 0.116088 -0.020624 750031.000000 0 0 1
20.509191 -25.267348 25.751259 41.499315 -0.888969 0.901387 0.115772 -0.017033 48679.500000 0 0 1
19.803691 -26.473348 25.212119 41.577341 -0.928537 0.919283 0.114690 -0.020251 -393983.000000 0 0 1
19.109091 -26.136348 24.042659 40.327602 -0.939481 0.932057 0.120465 -0.025946 365031.000000 0 0 1
18.379591 -27.170248 23.367179 40.274766 -0.976044 0.951829 0.105768 -0.032995 -217509.000000 0 0 1
17.450091 -26.659148 22.304389 38.893465 -0.991220 0.960056 0.105872 -0.035650 324759.000000 0 0 1
16.232991 -26.025348 22.739449 38.182604 -1.013105 0.932853 0.092384 -0.032923 453538.000000 0 0 1
15.512491 -25.556748 21.669389 36.923531 -1.025259 0.943606 0.078897 -0.029136 -182711.000000 0 0 1
14.208091 -24.770748 21.964689 36.026481 -1.050027 0.915137 0.065183 -0.026142 108075.000000 0 0 1
13.161491 -25.654148 22.298749 36.449888 -1.096775 0.912507 0.058981 -0.026798 -318153.000000 0 0 1
11.934191 -24.953148 22.175089 35.451644 -1.124688 0.895021 0.078147 -0.024920 597699.000000 0 0 1
10.690991 -25.892848 22.339809 35.830210 -1.179224 0.897597 0.077620 -0.029744 405906.000000 0 0 1
10.471891 -26.633348 21.168889 35.596595 -1.196177 0.933918 0.100574 -0.039780 1116240.000000 0 0 1
9.057591 -26.885548 20.996389 35.294773 -1.245844 0.933672 0.117899 -0.046237 1096830.000000 0 0 1
8.761891 -27.746248 19.746089 35.164372 -1.264920 0.974554 0.145206 -0.044856 12480.700000 0 0 1
9.236891 -29.097748 19.783589 36.378421 -1.263414 0.995805 0.139164 -0.042836 132857.000000 0 0 1
9.004791 -29.870448 18.595189 36.319567 -1.277999 1.033299 0.141159 -0.046418 -187179.000000 0 0 1
9.621291 -31.310748 18.717389 37.726288 -1.272670 1.051653 0.120467 -0.030037 -28073.700000 0 0 1
9.146091 -32.193948 19.747689 38.859651 -1.293996 1.037726 0.118789 -0.040539 547194.000000 0 0 1
9.994591 -33.362748 19.788589 40.056873 -1.279731 1.054098 0.088130 -0.033950 216444.000000 0 0 1
9.479391 33.024352 20.703789 40.113757 1.291269 1.028474 0.109172 -0.044740 -257359.000000 0 0 1
8.526291 32.208452 20.087989 38.905132 1.312010 1.028233 0.108276 -0.047325 -324167.000000 0 0 1
8.312991 31.019652 20.796089 38.259664 1.308958 0.996134 0.115121 -0.052275 9938.590000 0 0 1
7.257491 30.007352 20.295089 36.945946 1.333496 0.989248 0.125835 -0.051699 776546.000000 0 0 1
5.907791 30.343052 20.647389 37.174150 1.378502 0.981924 0.177020 -0.061586 818598.000000 0 0 1
4.982391 29.389152 20.064389 35.932244 1.402861 0.978346 0.192815 -0.050712 867292.000000 0 0 1
3.500791 29.616452 20.448789 36.159960 1.453138 0.969746 0.190544 -0.044243 48687.800000 0 0 1
3.222091 29.258652 21.777589 36.615761 1.461114 0.933829 0.139495 -0.034615 -561266.000000 0 0 1
1.873691 29.037552 22.056089 36.512480 1.506359 0.922198 0.136309 -0.024753 -448856.000000 0 0 1
1.610691 28.278752 23.436359 36.763365 1.513900 0.879557 0.127985 -0.016499 -101176.000000 0 0 1
1.718091 29.177752 24.535729 38.161434 1.511981 0.872458 0.141246 -0.025482 93330.900000 0 0 1
1.361191 28.747652 25.845959 38.681958 1.523482 0.839056 0.133559 -0.033851 697361.000000 0 0 1
2.504691 28.023052 26.704999 38.790744 1.481654 0.811464 0.098893 -0.029119 736184.000000 0 0 1
2.865191 26.752952 26.152119 37.521501 1.464105 0.799605 0.102884 -0.033324 5872.990000 0 0 1
3.676291 26.013152 27.011879 37.680774 1.430402 0.771507 0.062615 -0.017399 -157482.000000 0 0 1
4.267291 24.697052 26.482979 36.462341 1.399700 0.757857 0.062296 -0.002582 6266.620000 0 0 1
3.271791 23.746252 26.171299 35.489801 1.433877 0.741537 0.077902 -0.007071 169777.000000 0 0 1
3.842891 22.475752 26.227889 34.753840 1.401454 0.715636 0.070740 -0.001658 681099.000000 0 0 1
2.721591 21.434452 25.843509 33.685749 1.444499 0.696341 0.071604 -0.002971 625655.000000 0 0 1
3.055191 20.038452 25.952669 32.930453 1.419495 0.663071 0.089359 -0.001713 442338.000000 0 0 1
4.024291 19.623052 24.955969 32.000929 1.368521 0.676368 0.090609 0.000496 531223.000000 0 0 1
4.603691 18.195152 25.162599 31.391303 1.322980 0.640865 0.095809 -0.011436 527102.000000 0 0 1
5.729791 18.147052 26.041319 32.253624 1.264960 0.631078 0.074037 -0.011624 205128.000000 0 0 1
6.910391 17.724052 25.417839 31.748418 1.199038 0.642498 0.073566 -0.004920 -719567.000000 0 0 1
8.099091 17.471952 26.373299 32.656014 1.136733 0.630710 0.075102 -0.013293 168070.000000 0 0 1
8.645491 18.585552 27.088449 33.969859 1.135397 0.647779 0.085489 -0.009122 103974.000000 0 0 1
9.179591 19.597852 26.279149 34.043125 1.132749 0.688914 0.077699 -0.012606 -596812.000000 0 0 1
9.481491 20.893352 27.131329 35.532236 1.144783 0.701973 0.075204 -0.011145 1252690.000000 0 0 1
10.677891 20.830552 27.971329 36.473613 1.097114 0.696812 0.099953 -0.025846 1136960.000000 0 0 1
10.774991 21.834352 28.920609 37.805303 1.112372 0.699773 0.145446 -0.045261 -276470.000000 0 0 1
11.800091 21.625852 30.035599 38.846580 1.071301 0.686948 0.193861 -0.047281 -220675.000000 0 0 1
13.127091 21.564952 29.582039 38.890419 1.023987 0.706481 0.182499 -0.043901 -68278.900000 0 0 1
14.060391 21.464852 30.654649 39.976767 0.990884 0.696937 0.175098 -0.037013 412050.000000 0 0 1
15.545291 21.296552 30.286179 40.155346 0.940255 0.716323 0.133241 -0.036620 175324.000000 0 0 1
16.091291 22.358152 29.535519 40.387665 0.946967 0.750570 0.112068 -0.044567 169360.000000 0 0 1
17.436491 22.125252 29.151959 40.538804 0.903365 0.768272 0.202287 -0.028374 395796.000000 0 0 1
-8.942806 16.773752 4.442621 19.520999 -1.080987 1.341203 0.031514 -0.012924 75060.800000 0 1 0
-8.860806 18.114852 4.817121 20.733220 -1.115870 1.336315 0.045257 -0.017437 653091.000000 0 1 0
-7.473906 18.457852 4.944821 20.518353 -1.186058 1.327405 0.045185 -0.011974 745051.000000 0 1 0
-7.325106 19.994652 5.354821 21.957172 -1.219628 1.324436 0.056074 -0.017075 -91813.600000 0 1 0
-7.567406 20.962352 4.323621 22.701972 -1.224356 1.379174 0.070908 -0.028350 286623.000000 0 1 0
-8.929206 21.227652 4.012521 23.376147 -1.172624 1.398292 0.077042 -0.028457 304298.000000 0 1 0
-9.022106 22.498552 3.163721 24.445702 -1.189421 1.441014 0.117108 -0.039206 -93347.100000 0 1 0
-8.451906 22.592052 1.887321 24.194989 -1.212806 1.492712 0.100791 -0.036535 -252123.000000 0 1 0
-8.807006 21.490552 1.015521 23.247332 -1.181863 1.527099 0.107414 -0.037322 -477659.000000 0 1 0
-8.033706 21.374752 -0.354479 22.837384 -1.211280 1.586319 0.072487 -0.017341 169542.000000 0 1 0
-6.754706 20.814552 -0.327179 21.885581 -1.257000 1.585746 0.056514 -0.010503 -165191.000000 0 1 0
-5.703106 21.712252 -0.008379 22.448772 -1.313931 1.571170 0.064588 -0.018535 204014.000000 0 1 0
-4.287606 21.369252 -0.522379 21.801407 -1.372782 1.594759 0.061024 -0.018250 186383.000000 0 1 0
-4.093006 21.628752 -1.894479 22.093996 -1.383769 1.656648 0.057304 -0.018197 104253.000000 0 1 0
-2.759606 21.407352 -2.309079 21.707648 -1.442594 1.677370 0.046402 -0.013234 -6493.490000 0 1 0
-2.640506 21.703052 -3.803379 22.191449 -1.449726 1.743036 0.044847 -0.010411 415192.000000 0 1 0
-1.317006 21.755352 -4.333079 22.221733 -1.510333 1.767046 0.056631 -0.019075 353519.000000 0 1 0
-1.249506 22.225952 -5.661379 22.969663 -1.514637 1.819835 0.062612 -0.020071 88299.100000 0 1 0
0.130694 22.791552 -6.076779 23.588115 1.565062 1.831355 0.065194 -0.022678 311254.000000 0 1 0
1.196894 21.871152 -5.928979 22.692127 1.516126 1.835143 0.055052 -0.019770 -376086.000000 0 1 0
2.390294 22.410952 -6.438779 23.439755 1.464541 1.849069 0.045448 -0.009940 -38655.500000 0 1 0
3.413694 21.294052 -6.744179 22.595882 1.411837 1.873885 0.049159 -0.016744 -38074.300000 0 1 0
2.994794 20.548352 -7.853279 22.200845 1.426072 1.932361 0.043287 -0.016109 -540922.000000 0 1 0
3.752594 19.416652 -7.999679 21.332679 1.379883 1.955189 0.034791 -0.015700 -131313.000000 0 1 0
3.362394 18.617152 -9.259779 21.062942 1.392115 2.025977 0.032495 -0.012277 -111475.000000 0 1 0
3.891694 19.186252 -10.475879 22.203639 1.370674 2.062138 0.040276 -0.014682 162470.000000 0 1 0
3.163294 18.738252 -11.593279 22.260562 1.403558 2.118583 0.046177 -0.013464 284249.000000 0 1 0
3.855294 19.138052 -12.956579 23.430776 1.372010 2.156724 0.042601 -0.008746 241377.000000 0 1 0
3.986894 20.546852 -13.077879 24.679938 1.379139 2.129278 0.082989 -0.016856 -97812.500000 0 1 0
4.276394 20.921352 -14.406379 25.759159 1.369170 2.164304 0.091244 -0.026387 -17925.700000 0 0 1
4.572594 22.425852 -14.674379 27.187586 1.369655 2.140931 0.096886 -0.027320 57243.400000 0 0 1
3.456794 23.284552 -14.634879 27.718215 1.423414 2.127026 0.117934 -0.033871 -235952.000000 0 0 1
3.834094 24.603752 -15.003379 29.071399 1.416206 2.113073 0.109937 -0.033965 244627.000000 0 0 1
2.658394 25.427752 -15.606179 29.953137 1.466628 2.118842 0.109169 -0.027962 272730.000000 0 0 1
1.605994 25.800852 -14.758279 29.766927 1.508631 2.089546 0.127229 -0.034547 -179472.000000 0 0 1
1.709894 27.145152 -14.314479 30.735766 1.507889 2.055252 0.112666 -0.033935 -921747.000000 0 0 1
0.901994 27.483352 -13.063779 30.443563 1.537988 2.014309 0.125122 -0.036515 604010.000000 0 0 1
-0.534806 27.525352 -13.128179 30.500493 -1.551369 2.015760 0.111909 -0.041886 1028810.000000 0 0 1
-1.228906 26.330052 -13.462079 29.597456 -1.524157 2.042988 0.098957 -0.042729 -777401.000000 0 0 1
-1.085406 25.186752 -12.444479 28.114331 -1.527729 2.029335 0.123748 -0.039678 -840662.000000 0 0 1
-1.819706 25.407052 -11.279479 27.857786 -1.499296 1.987660 0.111571 -0.036915 -261632.000000 0 0 1
-2.101206 24.199952 -10.658779 26.526634 -1.484187 1.984294 0.113833 -0.029477 191107.000000 0 0 1
-3.146506 24.200452 -9.502979 26.189100 -1.441503 1.942132 0.099491 -0.024840 214005.000000 0 0 1
-2.699506 24.517852 -8.182179 25.987698 -1.461134 1.891093 0.111489 -0.027753 -3677.990000 0 0 1
-2.281406 25.875352 -7.979279 27.173655 -1.482855 1.868829 0.112623 -0.034341 102391.000000 0 0 1
-2.242306 26.229252 -6.449879 27.103552 -1.485515 1.811073 0.112235 -0.034192 324034.000000 0 0 1
-1.233406 25.522852 -5.744079 26.190298 -1.522508 1.791915 0.104257 -0.033457 -60380.400000 0 0 1
-0.977606 26.051352 -4.466179 26.449488 -1.533288 1.740466 0.108648 -0.036633 -358484.000000 0 0 1
-1.858706 25.532352 -3.331679 25.815806 -1.498126 1.700213 0.099667 -0.033945 -601547.000000 0 0 1
-3.106806 26.158652 -3.308079 26.549401 -1.452582 1.695722 0.102233 -0.034743 -87484.000000 0 0 1
-3.999906 25.718552 -2.261479 26.125800 -1.416506 1.657466 0.100981 -0.031451 83387.200000 0 0 1
-5.087506 24.781852 -2.743379 25.446985 -1.368318 1.678814 0.087675 -0.031835 -1122560.000000 0 0 1
-6.152606 25.398652 -3.378679 26.350741 -1.333133 1.699370 0.090307 -0.036434 7863.820000 0 0 1
-7.243906 24.486452 -3.616779 25.790339 -1.283167 1.711498 0.064396 -0.029169 449740.000000 0 0 1
-8.541006 25.170652 -4.031779 26.884303 -1.243664 1.721332 0.062606 -0.031196 -297136.000000 0 0 1
-9.275706 25.711752 -2.906579 27.487836 -1.224570 1.676735 0.102828 -0.051300 -529765.000000 0 0 1
-10.465906 26.324452 -3.335679 28.524353 -1.192383 1.688006 0.121182 -0.055334 26681.900000 0 0 1
-11.348406 26.700552 -2.086379 29.087089 -1.168904 1.642587 0.139872 -0.054803 103488.000000 0 0 1
-11.961506 25.547152 -1.499679 28.248604 -1.132900 1.623910 0.137935 -0.051042 -390403.000000 0 0 1
-11.068706 24.818852 -0.711979 27.184528 -1.151291 1.596990 0.155477 -0.063280 -636365.000000 0 0 1
-11.471306 23.450752 -0.153979 26.106557 -1.115854 1.576694 0.117243 -0.050073 170158.000000 0 0 1
-12.496306 23.542652 0.865221 26.667635 -1.082818 1.538346 0.136233 -0.058216 511840.000000 0 0 1
-13.166306 22.284252 0.873221 25.897915 -1.037143 1.537072 0.133320 -0.048133 422382.000000 0 0 1
-14.080806 21.903452 2.086221 26.122454 -0.999458 1.490848 0.124720 -0.052813 418908.000000 0 0 1
-13.396606 21.794952 3.319121 25.797394 -1.019663 1.441778 0.124061 -0.047096 6539.820000 0 0 1
-13.245906 23.014352 4.046421 26.860528 -1.048549 1.419575 0.121537 -0.058365 -177027.000000 0 0 1
-12.908306 22.675352 5.551921 26.676202 -1.053282 1.361141 0.109581 -0.049462 -357729.000000 0 0 1
-11.585206 22.282952 5.832621 25.783064 -1.091345 1.342602 0.106669 -0.038793 -158095.000000 0 0 1
-11.540006 21.618052 7.096721 25.512259 -1.080465 1.288909 0.074030 -0.040657 -876578.000000 0 0 1
-10.152506 21.303252 7.621621 24.799013 -1.126067 1.258404 0.055386 -0.029212 -705727.000000 0 1 0
-9.482306 22.532852 7.980621 25.716412 -1.172470 1.255254 0.061577 -0.027369 -281161.000000 0 0 1
-8.385306 22.328052 8.814921 25.427507 -1.211543 1.216779 0.063379 -0.026429 -481989.000000 0 0 1
-8.716806 22.114152 10.311121 25.910184 -1.195323 1.161508 0.060497 -0.033651 -625291.000000 0 0 1
-9.262206 20.915952 10.651621 25.233361 -1.153921 1.135009 0.071816 -0.031623 -349728.000000 0 0 1
-9.027206 20.520352 11.978321 25.417621 -1.156361 1.080077 0.057967 -0.024600 -10407.800000 0 0 1
-10.084006 19.496352 12.476321 25.247841 -1.093464 1.053935 0.061340 -0.029233 -65609.800000 0 0 1
-10.231206 18.287852 11.720321 24.010186 -1.060724 1.060840 0.081181 -0.046998 -223538.000000 0 1 0
-10.952906 17.346852 12.443521 23.994179 -1.007604 1.025577 0.083387 -0.043932 -410750.000000 0 1 0
-11.086306 16.037052 11.619521 22.695957 -0.965938 1.033326 0.083519 -0.054513 -106432.000000 0 1 0
-11.622306 14.947252 12.372321 22.617972 -0.909892 0.992005 0.078133 -0.044333 106867.000000 0 1 0
-12.057006 13.907752 11.516921 21.712587 -0.856557 1.011693 0.062665 -0.027842 88222.400000 0 1 0
-12.381506 12.639252 12.323021 21.561754 -0.795699 0.962437 0.054190 -0.032898 -29922.600000 0 1 0
-13.579906 12.738852 13.043421 22.733742 -0.753453 0.959723 0.087263 -0.023801 -50226.100000 0 1 0
-14.037206 11.536852 13.637021 22.718064 -0.687939 0.926955 0.060842 -0.011412 -344394.000000 0 1 0
-15.014806 11.779552 14.752521 24.121342 -0.665236 0.912720 0.079340 -0.024365 -445257.000000 0 1 0
-16.134006 12.540952 14.353121 24.971858 -0.660745 0.958471 0.103371 -0.031344 -78464.300000 0 1 0
-16.939706 12.844152 15.493121 26.305184 -0.648746 0.941005 0.099894 -0.025842 310420.000000 0 0 1
-18.242006 13.642852 15.211921 27.391618 -0.642144 0.982013 0.090791 -0.027328 -166463.000000 0 0 1
-19.222506 12.893652 14.585621 27.358570 -0.590830 1.008503 0.118071 -0.031858 -651627.000000 0 0 1
-20.199306 13.767352 14.068221 28.204021 -0.598253 1.048580 0.151857 -0.040924 329721.000000 0 0 1
-21.406206 13.075752 13.358421 28.419155 -0.548351 1.081449 0.128793 -0.035136 251887.000000 0 0 1
-22.413106 12.500152 14.155121 29.308166 -0.508748 1.066747 0.131336 -0.024750 240267.000000 0 0 1
-23.530006 12.194852 13.337521 29.669261 -0.478155 1.104546 0.122056 -0.022621 189177.000000 0 0 1
-24.624206 11.301652 13.976921 30.486607 -0.430284 1.094534 0.132853 -0.035213 109930.000000 0 0 1
-25.220496 11.984152 15.055421 31.723162 -0.443591 1.076301 0.113218 -0.028988 295720.000000 0 0 1
-26.104006 11.082752 15.745821 32.437284 -0.401499 1.063949 0.101961 -0.030253 314261.000000 0 0 1
-26.855646 11.762152 16.964021 33.872584 -0.412811 1.046252 0.094772 -0.027346 -238665.000000 0 0 1
-27.847866 12.605852 16.445321 34.711090 -0.425071 1.077221 0.103884 -0.013696 25359.900000 0 0 1
-28.451066 13.382152 17.525321 35.995584 -0.439653 1.062289 0.091061 -0.015003 14125.400000 0 0 1
-29.603236 14.245252 17.040821 37.009031 -0.448500 1.092294 0.080091 -0.011240 -69102.200000 0 0 1
-29.153276 15.532652 16.603021 36.970760 -0.489536 1.105055 0.082685 -0.005662 277091.000000 0 0 1
-30.293946 16.294552 16.256521 38.046157 -0.493492 1.129310 0.090865 -0.000689 232066.000000 0 0 1
-29.947326 17.777252 16.092321 38.364513 -0.535713 1.137948 0.103085 0.002694 365285.000000 0 0 1
-29.383636 18.333952 17.333221 38.729477 -0.557845 1.106777 0.099452 -0.002205 909732.000000 0 0 1
-30.372906 18.512452 18.378821 40.037550 -0.547379 1.093882 0.103018 -0.017027 513861.000000 0 0 1
-29.688676 18.845752 19.838721 40.375174 -0.565601 1.057146 0.079119 -0.015964 1048970.000000 0 0 1
-28.991236 17.785652 20.509421 39.717220 -0.550275 1.028171 0.074847 -0.017157 902696.000000 0 0 1
-27.917326 17.110752 19.801721 38.265691 -0.549857 1.026893 0.092880 -0.011036 501005.000000 0 0 1
-27.409566 15.868652 20.650321 37.809181 -0.524795 0.993009 0.080944 -0.013182 820179.000000 0 0 1
-28.390766 14.796552 20.593621 38.066662 -0.480444 0.999184 0.052439 -0.017641 860659.000000 0 0 1
-27.923096 13.586852 21.199721 37.599601 -0.452855 0.971782 0.055461 -0.014579 -700966.000000 0 0 1
-29.084996 12.765852 21.705821 38.471374 -0.413598 0.971324 0.064728 -0.024599 -455292.000000 0 0 1
-29.814666 12.361352 20.536721 38.255382 -0.393034 1.004118 0.078193 -0.022861 -392115.000000 0 0 1
-30.907226 11.544352 20.820721 39.013217 -0.357469 1.007846 0.108315 -0.027118 -520727.000000 0 0 1
-31.773566 11.335252 19.572921 39.001881 -0.342676 1.045065 0.123933 -0.034189 -429293.000000 0 0 1
-31.078176 10.800152 18.460821 37.726625 -0.334460 1.059473 0.142775 -0.036505 136587.000000 0 0 1
-30.591126 9.519052 18.489621 36.990478 -0.301673 1.047373 0.160259 -0.039979 115695.000000 0 0 1
-29.667096 9.208952 17.246121 35.529848 -0.300979 1.063978 0.163002 -0.042220 -169536.000000 0 0 1
-30.345666 8.907752 16.087421 35.482568 -0.285522 1.100232 0.170333 -0.035507 -88895.800000 0 0 1
-31.026046 9.957652 15.406421 36.043421 -0.310560 1.129137 0.159927 -0.035040 -98143.000000 0 0 1
-30.220846 11.071552 14.697021 35.381934 -0.351170 1.142434 0.138050 -0.023855 -223627.000000 0 0 1
-29.824236 10.721252 13.375921 34.399790 -0.345096 1.171427 0.148956 -0.031337 481361.000000 0 0 1
-28.826526 11.566052 12.803021 33.595528 -0.381566 1.179818 0.134693 -0.026208 239928.000000 0 0 1
-28.432126 11.324052 11.336121 32.636293 -0.379026 1.216056 0.178250 -0.018949 -350166.000000 0 0 1
-27.659226 10.146552 11.148821 31.500500 -0.351599 1.209032 0.197602 -0.027067 361637.000000 0 0 1
-28.361706 8.923652 10.968021 31.690936 -0.304831 1.217392 0.209018 -0.021613 -671448.000000 0 0 1
-27.424736 7.797952 10.587621 30.414173 -0.277029 1.215237 0.227807 -0.033147 -484798.000000 0 0 1
-26.816276 8.123352 9.328521 29.531726 -0.294139 1.249411 0.223876 -0.030366 267950.000000 0 0 1
-26.664546 6.914152 8.600621 28.857828 -0.253713 1.268164 0.266397 -0.055495 -548130.000000 0 0 1
-25.876106 7.118152 7.314521 27.816240 -0.268446 1.304709 0.273048 -0.049434 -267971.000000 0 0 1
-26.432336 8.040952 6.351421 28.349001 -0.295314 1.344834 0.272135 -0.047461 386774.000000 0 0 1
-25.642956 7.967552 5.174421 27.346256 -0.301254 1.380430 0.271793 -0.050229 -37918.500000 0 0 1
-26.292436 8.684852 3.921921 27.966057 -0.319034 1.430094 0.264576 -0.053862 365477.000000 0 0 1
-27.199636 7.914752 3.077621 28.494478 -0.283168 1.462578 0.311723 -0.052878 705382.000000 0 0 1
-26.721316 6.735052 2.444121 27.665202 -0.246905 1.482335 0.310426 -0.053165 -787461.000000 0 0 1
-25.645876 6.945152 1.383221 26.605627 -0.264466 1.518783 0.293557 -0.044781 -102676.000000 0 0 1
-24.391506 7.325452 1.968521 25.543745 -0.291758 1.493655 0.238896 -0.037767 134531.000000 0 0 1
-23.494806 7.505252 0.899721 24.680847 -0.309198 1.534334 0.237127 -0.027658 -726152.000000 0 1 0
-22.216406 8.069652 1.528321 23.685940 -0.348412 1.506227 0.162687 -0.034130 -528894.000000 0 1 0
-22.440706 9.403452 1.942021 24.408639 -0.396808 1.491149 0.177820 -0.046277 695735.000000 0 1 0
-21.421506 9.888352 2.820421 23.761633 -0.432466 1.451819 0.142560 -0.042265 -525.954000 0 1 0
-21.806906 11.278752 3.428321 24.789207 -0.477321 1.432053 0.151638 -0.056260 -19255.700000 0 1 0
-21.322506 12.337352 2.565621 24.767760 -0.524541 1.467023 0.196124 -0.052494 449341.000000 0 1 0
-21.463906 13.648352 3.210621 25.637568 -0.566381 1.445236 0.191795 -0.055277 -374618.000000 0 0 1
-20.164406 14.125052 3.854121 24.919362 -0.611058 1.415509 0.138251 -0.046593 -432012.000000 0 1 0
-19.617906 13.286152 4.821821 24.179207 -0.595291 1.370030 0.123218 -0.055477 -246469.000000 0 1 0
-18.778406 14.042852 5.648421 24.119181 -0.642104 1.334413 0.109712 -0.047381 -326540.000000 0 1 0
-18.237006 13.225152 6.877521 23.554051 -0.627428 1.274491 0.079272 -0.045209 -107948.000000 0 1 0
-17.097006 12.464052 6.576721 22.156567 -0.629938 1.269426 0.065036 -0.031931 -306683.000000 0 1 0
-16.678606 11.780252 7.728421 21.832974 -0.614948 1.208974 0.051344 -0.026259 -269268.000000 0 1 0
11.433294 -32.447048 -14.419579 37.302217 -1.232014 1.967696 0.046289 -0.020199 94599.700000 0 0 1
12.610894 -32.379348 -13.633679 37.327390 -1.199397 1.944693 0.027426 -0.020577 190183.000000 0 0 1
13.090794 -31.063348 -13.470379 36.300848 -1.171960 1.950964 0.031097 -0.030668 -1070380.000000 0 0 1
14.419694 -30.963148 -12.794379 36.473830 -1.134959 1.929203 0.051607 -0.027330 -1427630.000000 0 0 1
15.539794 -31.265648 -13.582379 37.463408 -1.109532 1.941800 0.064206 -0.032615 -827651.000000 0 0 1
16.641894 -30.873748 -12.805379 37.337899 -1.076414 1.920862 0.068174 -0.023281 59336.100000 0 0 1
17.947894 -31.459648 -13.457779 38.638687 -1.052347 1.926551 0.088820 -0.028018 394286.000000 0 0 1
18.027494 -32.862748 -13.150679 39.722677 -1.069052 1.908225 0.088024 -0.034658 443090.000000 0 0 1
19.039994 -33.536048 -13.943979 41.007590 -1.054430 1.917749 0.080602 -0.013956 718137.000000 0 0 1
18.975994 32.460452 -13.547679 39.966347 1.041786 1.916626 0.072480 -0.023600 167556.000000 0 0 1
19.699994 32.141052 -12.353179 39.670367 1.020929 1.887458 0.058147 -0.029633 196573.000000 0 0 1
19.626894 30.718552 -12.061979 38.397079 1.002245 1.890345 0.050288 -0.025530 95346.100000 0 0 1
20.378394 30.429452 -10.747879 38.167360 0.980701 1.856256 0.038283 -0.026531 349387.000000 0 0 1
21.752094 30.093152 -10.818179 38.675371 0.944915 1.854296 0.045312 -0.028247 308460.000000 0 0 1
22.256694 29.844752 -9.515779 38.426809 0.930021 1.821034 0.034466 -0.020781 -464761.000000 0 0 1
23.505094 29.007452 -9.365079 38.491900 0.889799 1.816563 0.047278 -0.014691 130161.000000 0 0 1
24.701994 29.547352 -9.945279 39.776162 0.874478 1.823509 0.049297 -0.024131 1137380.000000 0 0 1
25.860394 28.849452 -9.459679 39.881529 0.839979 1.810273 0.056263 -0.017091 474395.000000 0 0 1
27.108094 28.993252 -10.340779 41.016937 0.818988 1.825656 0.039341 -0.015588 -153005.000000 0 0 1
27.816994 30.210852 -10.187079 42.311432 0.826628 1.813949 0.053953 -0.026685 388509.000000 0 0 1
28.664594 30.495152 -11.320679 43.356326 0.816331 1.834966 0.055022 -0.017966 214372.000000 0 0 1
29.283494 31.913252 -11.198679 44.736887 0.828344 1.823810 0.050457 -0.024664 -546538.000000 0 0 1
28.513194 33.040652 -11.480779 45.127543 0.858819 1.828031 0.068704 -0.015437 -310901.000000 0 0 1
29.215194 -33.232448 -11.270179 45.661144 -0.849640 1.820196 0.058412 -0.020435 -30307.200000 0 0 1
28.342094 -32.007748 -11.441179 44.256873 -0.846064 1.832284 0.058664 -0.015724 244324.000000 0 0 1
27.166594 -31.884848 -10.646979 43.220661 -0.865130 1.819698 0.083171 -0.027125 667450.000000 0 0 1
26.055894 -31.165048 -11.179479 42.132536 -0.874450 1.839354 0.088214 -0.032452 640753.000000 0 0 1
26.261094 -29.624048 -11.071879 41.107369 -0.845502 1.843504 0.078160 -0.021474 -695771.000000 0 0 1
27.357294 -29.101948 -11.757479 41.636321 -0.816289 1.857076 0.060735 -0.017828 -344555.000000 0 0 1
27.656394 -27.842048 -11.230379 40.818833 -0.788743 1.849519 0.041389 -0.021834 -241418.000000 0 0 1
28.549794 -26.897448 -12.060579 41.036825 -0.755607 1.869097 0.079162 -0.022903 154965.000000 0 0 1
29.876294 -27.357948 -12.201379 42.307492 -0.741426 1.863349 0.060356 -0.005673 -11026.800000 0 0 1
30.020394 -28.050348 -13.470779 43.237807 -0.751486 1.887621 0.094096 -0.018571 -207379.000000 0 0 1
31.457494 -28.624948 -13.515079 44.627558 -0.738289 1.878469 0.088899 -0.011317 73395.900000 0 0 1
31.713594 -29.742748 -12.681579 45.290237 -0.753340 1.854598 0.086342 -0.008098 19595.700000 0 0 1
32.734694 -30.533748 -13.273179 46.690976 -0.750625 1.859049 0.082191 -0.009968 80483.300000 0 0 1
33.348794 -31.549148 -12.263779 47.517271 -0.757675 1.831842 0.080955 -0.010454 318972.000000 0 0 1
34.349494 -32.359048 -12.875979 48.916117 -0.755569 1.837161 0.076782 -0.017738 413308.000000 0 0 1
35.106494 -33.267448 -12.074779 49.849667 -0.758508 1.815454 0.078904 -0.016573 231304.000000 0 0 1
34.320994 33.052852 -11.410679 48.996175 0.766578 1.805844 0.068510 -0.018335 572913.000000 0 0 1
33.557194 33.378652 -10.204579 48.418520 0.782731 1.783146 0.051978 -0.023199 340936.000000 0 0 1
32.881694 32.318052 -9.643279 47.102601 0.776754 1.776983 0.044419 -0.020694 -161968.000000 0 0 1
32.062994 32.538952 -8.339979 46.436776 0.792766 1.751375 0.044053 -0.020234 1007250.000000 0 0 1
30.894394 33.354152 -8.562179 46.263094 0.823665 1.756945 0.034938 -0.024881 345843.000000 0 0 1
30.169194 -33.747548 -7.421079 45.871011 -0.841324 1.733292 0.032561 -0.023793 541056.000000 0 0 1
29.211394 -32.552448 -7.631779 44.398327 -0.839440 1.743548 0.020247 -0.023830 97058.500000 0 0 1
29.885394 -31.283048 -7.593679 43.925275 -0.808243 1.744546 0.011646 -0.025705 130115.000000 0 0 1
29.191094 -30.194748 -8.192979 42.789808 -0.802297 1.763456 0.002074 -0.001108 668120.000000 0 0 1
28.032694 -29.550348 -7.326279 41.385134 -0.811748 1.748761 0.009797 -0.004136 698256.000000 0 0 1
27.369794 -28.501848 -7.950879 40.307288 -0.805657 1.769355 0.019104 -0.013141 -58645.600000 0 0 1
26.303194 -27.940048 -7.209879 39.044675 -0.815565 1.756519 0.029865 -0.014332 153677.000000 0 0 1
25.355194 -27.040248 -8.022179 37.926458 -0.817547 1.783926 0.088519 -0.024944 -135591.000000 0 0 1
24.420394 -27.802448 -8.757379 38.026615 -0.850070 1.803178 0.116572 -0.032499 188361.000000 0 0 1
23.599294 -27.024248 -9.613479 37.143716 -0.852951 1.832595 0.146651 -0.045509 162279.000000 0 0 1
22.509394 -27.869048 -10.304179 37.276437 -0.891387 1.850870 0.136095 -0.046492 -134167.000000 0 0 1
23.034094 -28.741548 -11.308879 38.529687 -0.895189 1.868694 0.147633 -0.044057 377670.000000 0 0 1
22.068194 -29.615948 -11.913279 38.807677 -0.930409 1.882817 0.120036 -0.041752 210754.000000 0 0 1
21.646794 -30.827448 -11.074279 39.262640 -0.958601 1.856733 0.109021 -0.045123 -209953.000000 0 0 1
22.526694 -31.918048 -11.037679 40.596109 -0.956211 1.846153 0.085208 -0.037536 -630568.000000 0 0 1
21.958994 -33.144248 -10.714879 41.177023 -0.985664 1.834041 0.065110 -0.033402 -574067.000000 0 0 1
23.010694 33.294252 -10.690679 41.860361 0.966047 1.829046 0.056134 -0.024280 -360524.000000 0 0 1
23.929194 33.410252 -9.626979 42.208174 0.949265 1.800905 0.056356 -0.025105 154235.000000 0 0 1
25.088194 32.599752 -9.836279 42.295551 0.914880 1.805506 0.065940 -0.024833 1049440.000000 0 0 1
26.350094 33.090952 -9.018879 43.251343 0.898320 1.780860 0.058800 -0.025118 212402.000000 0 0 1
26.328094 32.921452 -7.575579 42.829661 0.896223 1.748609 0.038509 -0.027928 -35152.400000 0 0 1
26.536794 31.563952 -7.171979 41.855964 0.871708 1.742995 0.046990 -0.025770 -350560.000000 0 0 1
26.520694 31.408352 -5.678479 41.497914 0.869572 1.708065 0.043645 -0.015049 -857999.000000 0 0 1
27.657494 31.870052 -5.006379 42.493540 0.856047 1.688886 0.049878 -0.020648 96550.300000 0 0 1
28.670794 30.885452 -4.744879 42.408011 0.822567 1.682917 0.058536 -0.010795 260144.000000 0 0 1
28.336894 29.733352 -3.774579 41.246808 0.809441 1.662437 0.058730 0.002766 -659823.000000 0 0 1
27.987594 30.099452 -2.439379 41.173207 0.821739 1.630078 0.054666 0.005811 115619.000000 0 0 1
27.782994 29.007052 -1.530879 40.195116 0.806949 1.608892 0.049259 0.011421 188816.000000 0 0 1
26.467694 28.207152 -1.684579 38.717180 0.817202 1.614320 0.061685 0.008481 -541866.000000 0 0 1
25.311594 28.821652 -1.249979 38.378729 0.850149 1.603372 0.069821 -0.001800 -1003330.000000 0 0 1
24.236794 27.930852 -1.186779 36.999501 0.856091 1.602877 0.079712 -0.007544 140765.000000 0 0 1
22.851994 28.452352 -0.746479 36.500783 0.894127 1.591249 0.081735 -0.014566 262745.000000 0 0 1
22.791794 28.484252 0.666921 36.486480 0.895961 1.552517 0.092193 -0.015189 492875.000000 0 0 1
21.668794 29.289152 1.070721 36.449108 0.933840 1.541416 0.079868 -0.018449 315307.000000 0 0 1
20.811494 28.630352 2.168521 35.461497 0.942242 1.509607 0.088101 -0.037243 -534363.000000 0 0 1
20.243394 27.481052 1.591621 34.169232 0.935906 1.524199 0.109499 -0.036334 -72398.200000 0 0 1
19.603394 26.743452 2.624721 33.262508 0.938254 1.491805 0.125773 -0.045536 108188.000000 0 0 1
18.930194 25.409752 2.126721 31.757372 0.930505 1.503778 0.141179 -0.041160 73929.500000 0 0 1
19.798994 24.406952 1.645421 31.470730 0.889261 1.518488 0.150343 -0.042324 -60375.700000 0 0 1
20.598794 23.758952 2.628421 31.554820 0.856521 1.487403 0.132183 -0.028752 324910.000000 0 0 1
21.830494 23.071952 1.936421 31.821928 0.813039 1.509907 0.152574 -0.032962 249964.000000 0 0 1
21.453494 22.077552 1.033221 30.801594 0.799733 1.537246 0.167300 -0.033060 323723.000000 0 0 1
22.594294 21.320752 0.658621 31.072662 0.756406 1.549599 0.126959 -0.038694 179056.000000 0 0 1
22.401094 20.396552 -0.544679 30.300577 0.738595 1.588773 0.147090 -0.036229 -265553.000000 0 0 1
22.282994 21.157952 -1.778079 30.779088 0.759506 1.628598 0.125714 -0.029040 200699.000000 0 0 1
22.092394 20.255852 -2.862879 30.109292 0.742058 1.666023 0.161086 -0.019366 -101289.000000 0 0 1
22.203794 20.922852 -4.214579 30.798325 0.755705 1.708071 0.143911 -0.038750 752671.000000 0 0 1
23.487794 21.540552 -4.446479 32.178300 0.742180 1.709422 0.132202 -0.025523 1017630.000000 0 0 1
23.404894 22.428552 -5.553579 32.888770 0.764099 1.740469 0.101624 -0.021939 -552814.000000 0 0 1
24.552494 23.436752 -5.622679 34.405244 0.762153 1.734958 0.088676 -0.009515 -339178.000000 0 0 1
24.568194 24.533252 -4.650079 35.029984 0.784687 1.703935 0.077505 -0.003595 14934.100000 0 0 1
24.749994 24.246352 -3.263179 34.800806 0.775119 1.664702 0.090082 -0.008107 -359550.000000 0 0 1
23.476094 23.997752 -2.440179 33.659672 0.796386 1.643356 0.101603 -0.022068 -819700.000000 0 0 1
22.569394 25.071952 -2.434079 33.821665 0.837879 1.642827 0.109995 -0.022651 1400350.000000 0 0 1
21.426394 25.057452 -1.520679 33.004222 0.863354 1.616888 0.122605 -0.021635 920035.000000 0 0 1
20.338794 24.019152 -1.786379 31.524234 0.868178 1.627494 0.148000 -0.037669 -1292360.000000 0 0 1
19.711794 24.272752 -2.978679 31.410091 0.888723 1.665771 0.123260 -0.027046 -168347.000000 0 0 1
18.837994 23.236752 -3.368679 30.102568 0.889566 1.682938 0.131464 -0.036150 170582.000000 0 0 1
18.127094 23.500052 -4.725679 30.052887 0.913762 1.728697 0.127531 -0.041475 116891.000000 0 0 1
17.309894 22.476452 -5.256179 28.852222 0.914533 1.753995 0.140487 -0.050281 179919.000000 0 0 1
16.742194 22.979052 -6.453079 29.154418 0.941142 1.793986 0.135964 -0.051741 -167961.000000 0 0 1
16.170394 21.906552 -7.404279 28.217051 0.934920 1.836309 0.153213 -0.045501 -345208.000000 0 0 1
17.123594 20.919152 -7.843779 28.148770 0.884840 1.853189 0.165774 -0.046530 440129.000000 0 0 1
16.586594 20.068852 -8.830479 27.492749 0.880114 1.897785 0.230394 -0.054798 -578461.000000 0 0 1
17.225194 18.679552 -9.074779 26.981189 0.825882 1.913821 0.203039 -0.053287 -348911.000000 0 0 1
18.473294 18.815852 -9.708279 28.098924 0.794584 1.923572 0.180409 -0.050471 -174668.000000 0 0 1
18.923194 17.597552 -10.170879 27.770629 0.749116 1.945768 0.183067 -0.047223 -437794.000000 0 0 1
20.438094 17.588452 -10.396979 28.899247 0.710600 1.938814 0.150264 -0.043321 -470921.000000 0 0 1
20.952494 18.351052 -11.461579 30.118697 0.719306 1.961184 0.157299 -0.043079 734975.000000 0 0 1
22.350394 18.141052 -11.661979 31.058648 0.681814 1.955714 0.148515 -0.029856 499064.000000 0 0 1
22.897894 18.418252 -13.107679 32.176960 0.677397 1.990360 0.146595 -0.033049 -33375.700000 0 0 1
22.467294 17.584052 -14.187379 31.863143 0.664072 2.032261 0.131681 -0.030518 -69029.500000 0 0 1
23.071694 17.910352 -15.351179 32.996097 0.660116 2.054705 0.136236 -0.029392 -423889.000000 0 0 1
22.812494 16.887152 -16.462479 32.811568 0.637238 2.096391 0.120710 -0.030734 -93181.900000 0 0 1
23.617494 15.727152 -16.489879 32.818370 0.587479 2.097237 0.135115 -0.028828 -85675.000000 0 0 1
23.621694 15.005852 -17.708579 33.117273 0.565941 2.134977 0.134425 -0.041498 -190385.000000 0 0 1
24.386694 15.581652 -18.908079 34.568977 0.568561 2.149533 0.146219 -0.036249 -226664.000000 0 0 1
25.749894 15.817752 -18.610979 35.491222 0.550856 2.122786 0.160332 -0.031250 -14549.800000 0 0 1
26.424694 16.346952 -19.700579 36.791304 0.554001 2.135859 0.181540 -0.039275 -1000270.000000 0 0 1
27.917894 16.451052 -19.469679 37.803628 0.532489 2.111829 0.161584 -0.040969 -748925.000000 0 0 1
28.412494 17.455252 -18.576979 38.171452 0.550905 2.079072 0.143598 -0.036383 148842.000000 0 0 1
29.742294 17.162952 -18.172279 38.851032 0.523378 2.057531 0.110899 -0.044176 379299.000000 0 0 1
30.289794 18.316152 -17.250279 39.376708 0.543866 2.024262 0.115031 -0.034405 133641.000000 0 0 1
29.598894 18.325352 -16.008479 38.316895 0.554362 2.001810 0.106029 -0.027733 387188.000000 0 0 1
28.550594 19.302152 -16.019779 38.004510 0.594483 2.005921 0.114687 -0.021596 747779.000000 0 0 1
27.531194 19.193852 -14.804679 36.681727 0.608822 1.986243 0.110830 -0.025216 209636.000000 0 0 1
28.075494 19.390652 -13.512179 36.698906 0.604431 1.947858 0.085666 -0.021251 -230057.000000 0 0 1
27.188594 19.260752 -12.440379 35.566265 0.616350 1.928133 0.098325 -0.022301 -295885.000000 0 0 1
27.845594 19.708552 -11.105479 35.876674 0.615928 1.885512 0.075914 -0.013768 -138575.000000 0 0 1
27.740694 21.113852 -10.854879 36.512590 0.650577 1.872651 0.091337 -0.016913 6517.980000 0 0 1
28.329294 21.522952 -9.630879 36.858380 0.649707 1.835159 0.080972 -0.011022 -221221.000000 0 0 1
27.488894 21.341552 -8.371179 35.793543 0.660165 1.806857 0.096277 -0.016991 -494470.000000 0 0 1
27.470594 19.988352 -7.948279 34.890441 0.629028 1.800621 0.099678 -0.030974 82994.500000 0 0 1
26.619194 19.809752 -6.832979 33.877682 0.639773 1.773885 0.115903 -0.039349 274650.000000 0 0 1
25.180894 19.337152 -7.182779 32.551423 0.654878 1.793287 0.170855 -0.038971 328218.000000 0 0 1
24.257294 20.283752 -7.698079 32.543929 0.696423 1.809604 0.126390 -0.033209 381703.000000 0 0 1
23.074494 19.679452 -8.166979 31.407206 0.706156 1.833855 0.085046 -0.034299 -531132.000000 0 0 1
21.908394 20.583252 -8.462679 31.229231 0.754222 1.845213 0.132958 -0.040053 -1221550.000000 0 0 1
22.124194 21.386152 -9.612679 32.237417 0.768437 1.873586 0.130510 -0.033620 297644.000000 0 0 1
21.046894 21.383652 -10.535779 31.799920 0.793335 1.908493 0.145091 -0.039183 998035.000000 0 0 1
19.657994 21.969352 -10.070579 31.152940 0.840866 1.899971 0.145124 -0.036905 87949.100000 0 0 1
19.471094 23.364352 -10.096279 32.046080 0.876038 1.891311 0.115197 -0.038621 208946.000000 0 0 1
18.103094 23.720252 -10.194079 31.532389 0.918906 1.900000 0.112813 -0.036042 134789.000000 0 0 1
17.854194 25.141052 -9.760379 32.343619 0.953283 1.877346 0.086137 -0.034331 -379480.000000 0 0 1
18.270494 26.006752 -10.742379 33.549378 0.958375 1.896733 0.117968 -0.027565 54255.700000 0 0 1
18.381094 27.326152 -10.195479 34.475077 0.978659 1.871021 0.110621 -0.038614 -113281.000000 0 0 1
21.120894 29.249952 33.432989 49.187565 0.945403 0.823437 0.085219 -0.015603 -683324.000000 0 0 1
19.758394 29.406252 33.302709 48.622959 0.979172 0.816306 0.110835 -0.022096 -824663.000000 0 0 1
19.004294 28.205652 33.544879 47.770083 0.977888 0.792292 0.110502 -0.028509 -425037.000000 0 0 1
17.507494 28.389352 33.465419 47.248300 1.018193 0.783726 0.138852 -0.041020 -636902.000000 0 0 1
16.944094 28.481552 32.150439 46.173064 1.034124 0.800563 0.153519 -0.042837 -64471.500000 0 0 1
15.615894 28.977852 32.195210 46.044583 1.076522 0.796493 0.161878 -0.040979 321271.000000 0 0 1
14.975794 28.856952 30.763349 44.759152 1.092091 0.813019 0.166795 -0.047398 -15030.600000 0 0 1
14.440294 27.586952 30.499429 43.586433 1.088568 0.795755 0.166156 -0.056017 -91962.700000 0 0 1
13.037294 27.618352 30.342809 43.051486 1.129756 0.788651 0.161018 -0.037063 -73987.700000 0 0 1
12.380194 26.195252 30.259649 41.893994 1.129298 0.763687 0.141991 -0.041413 64060.500000 0 0 1
12.450894 25.366752 29.049959 40.526497 1.114507 0.771574 0.140470 -0.030089 -224432.000000 0 0 1
13.761594 24.905052 28.893719 40.552312 1.065988 0.777735 0.137404 -0.030719 -381950.000000 0 0 1
13.883894 24.074252 27.573899 39.149099 1.047677 0.789317 0.156007 -0.030828 -330835.000000 0 0 1
13.809594 24.794852 26.392419 38.756281 1.062630 0.821690 0.129650 -0.033476 147170.000000 0 0 1
13.652994 24.052152 25.157559 37.387337 1.054510 0.832688 0.139329 -0.038215 -76522.200000 0 0 1
12.368994 23.205352 24.935369 36.238832 1.081080 0.811951 0.134192 -0.029036 -64065.500000 0 0 1
12.260894 22.973252 23.540239 35.103314 1.080551 0.835781 0.152064 -0.035924 -261353.000000 0 0 1
11.237894 22.071652 23.255659 33.974604 1.099852 0.816877 0.137162 -0.031389 -298655.000000 0 0 1
11.217394 21.690752 21.766189 32.712163 1.093522 0.842787 0.161120 -0.046005 -110962.000000 0 0 1
10.953694 22.883452 20.999989 32.933802 1.124355 0.879362 0.156792 -0.046959 27764.200000 0 0 1
11.266494 22.734952 19.651589 32.093564 1.110708 0.911802 0.164689 -0.039638 -694201.000000 0 0 1
10.764894 23.848552 18.719789 32.172455 1.146791 0.949785 0.130205 -0.047621 326538.000000 0 0 1
9.362794 24.073852 18.660589 31.865809 1.199878 0.945177 0.135087 -0.053696 277575.000000 0 0 1
8.836194 24.806352 19.756289 32.920273 1.228603 0.927139 0.139545 -0.055562 43034.100000 0 0 1
7.416294 25.419352 19.577189 32.930399 1.286918 0.934150 0.131028 -0.053976 434647.000000 0 0 1
7.449994 26.431852 18.608389 33.172539 1.296067 0.975254 0.115231 -0.054020 -363821.000000 0 0 1
6.203594 26.671752 18.016189 32.778804 1.342269 0.988876 0.127624 -0.063318 -458380.000000 0 0 1
6.324094 27.960952 17.132489 33.396574 1.348363 1.032119 0.149162 -0.066763 35616.900000 0 0 1
6.928894 27.644952 15.896589 32.633640 1.325217 1.062004 0.131852 -0.051736 -336545.000000 0 0 1
8.168594 28.312552 15.802189 33.437040 1.289909 1.078563 0.131673 -0.051319 -285069.000000 0 0 1
8.964294 28.083052 14.498689 32.851611 1.261813 1.113706 0.102218 -0.041110 -335867.000000 0 0 1
8.271494 28.352652 13.243589 32.367933 1.286938 1.149266 0.140366 -0.043967 -277833.000000 0 0 1
7.519794 27.208652 12.909289 31.040421 1.301152 1.141879 0.121977 -0.045431 107032.000000 0 0 1
6.647094 27.464752 11.627689 30.556498 1.333340 1.180426 0.117456 -0.047966 -230536.000000 0 0 1
7.292494 27.708652 10.423889 30.489462 1.313448 1.221874 0.089126 -0.036196 -468070.000000 0 0 1
7.722794 29.045752 10.235589 31.750032 1.310925 1.242553 0.110473 -0.041629 -33363.000000 0 0 1
7.692594 29.437152 8.729089 31.653102 1.315190 1.291402 0.088926 -0.021919 -214954.000000 0 0 1
6.436394 29.351452 8.102589 31.122128 1.354926 1.307414 0.076668 -0.019645 -387447.000000 0 0 1
6.244194 28.116852 7.409189 29.739593 1.352263 1.319009 0.074343 -0.015619 -868854.000000 0 0 1
4.795294 28.001852 7.007089 29.260858 1.401192 1.328977 0.092865 -0.025637 -851646.000000 0 0 1
4.376594 28.836052 5.955889 29.768189 1.420171 1.369361 0.077799 -0.020298 177354.000000 0 0 1
2.970294 29.046152 6.074189 29.822765 1.468889 1.365685 0.097061 -0.019355 415337.000000 0 0 1
2.349494 30.008852 5.076589 30.525777 1.492662 1.403715 0.123259 -0.026260 -362360.000000 0 0 1
2.163094 29.437352 3.797389 29.759987 1.497447 1.442847 0.101437 -0.024754 -652145.000000 0 0 1
1.276494 30.144252 3.042289 30.324262 1.528475 1.470302 0.114302 -0.027054 -939410.000000 0 0 1
0.275594 29.243452 2.370689 29.340681 1.561372 1.489909 0.135271 -0.040717 -326151.000000 0 0 1
0.903694 28.492952 1.316189 28.537647 1.539091 1.524659 0.129115 -0.045323 323169.000000 0 0 1
0.040194 27.472352 0.800989 27.484055 1.569333 1.541648 0.131549 -0.049308 114899.000000 0 0 1
-0.387806 27.842352 -0.598111 27.851475 -1.556869 1.592273 0.127317 -0.045339 355112.000000 0 0 1
-1.334606 28.925152 -0.764811 28.966023 -1.524689 1.597203 0.142322 -0.051417 326078.000000 0 0 1
-1.319706 29.387152 -2.123411 29.493307 -1.525919 1.642855 0.131189 -0.043380 -378689.000000 0 0 1
-2.475206 30.397452 -2.416811 30.593671 -1.489547 1.649876 0.164082 -0.039470 848410.000000 0 0 1
-3.765406 29.851352 -2.720611 30.210647 -1.445320 1.660973 0.131734 -0.046410 495482.000000 0 0 1
-3.728606 29.125952 -3.969611 29.630751 -1.443472 1.705170 0.102302 -0.042434 -294328.000000 0 0 1
-5.116506 28.772952 -4.620511 29.587337 -1.394812 1.727603 0.108366 -0.036356 768079.000000 0 0 1
-5.725506 29.927452 -5.177111 30.906897 -1.381768 1.739096 0.112507 -0.041176 -116315.000000 0 0 1
-6.583706 29.705452 -6.263111 31.064218 -1.352689 1.773806 0.096509 -0.036259 -193285.000000 0 0 1
-7.037806 31.023452 -6.916211 32.554865 -1.347718 1.784876 0.102356 -0.033371 -49220.200000 0 0 1
-8.037606 31.631752 -6.102611 33.202601 -1.321963 1.755646 0.091152 -0.035074 10060.700000 0 0 1
-8.333906 32.914552 -6.552511 34.579721 -1.322810 1.761439 0.084925 -0.039391 -472399.000000 0 0 1
-9.434106 33.677852 -5.809411 35.453481 -1.297669 1.735399 0.085500 -0.043324 207708.000000 0 0 1
-10.711606 33.134152 -6.078511 35.349099 -1.258121 1.743612 0.091462 -0.041253 -256831.000000 0 0 1
-11.752206 -33.686548 -5.414111 36.086154 1.235129 1.721398 0.093798 -0.044501 795188.000000 0 0 1
-13.173406 33.217052 -5.678711 36.182301 -1.193237 1.728395 0.130161 -0.043952 789870.000000 0 0 1
-13.731006 33.462052 -6.981611 36.837377 -1.181403 1.761475 0.120106 -0.040633 -306384.000000 0 0 1
-15.075106 33.083952 -7.030511 37.030187 -1.143244 1.761815 0.139633 -0.049155 -917078.000000 0 0 1
-15.588806 33.047052 -8.475911 37.509460 -1.130031 1.798732 0.176305 -0.049062 107512.000000 0 0 1
-16.946506 32.671352 -8.591811 37.794451 -1.092304 1.800131 0.219346 -0.047395 72200.600000 0 0 1
-17.807406 -33.715548 -8.551611 39.076489 1.084871 1.791425 0.211089 -0.043972 422805.000000 0 0 1
-19.342906 33.472752 -8.843611 39.658323 -1.046808 1.795682 0.195361 -0.041747 1433420.000000 0 0 1
-20.110006 32.967252 -7.762711 39.389234 -1.023057 1.769172 0.189727 -0.040787 100491.000000 0 0 1
-20.601006 -33.452448 -6.989311 39.903862 1.018819 1.746858 0.176978 -0.036592 -623296.000000 0 0 1
-21.495506 33.430052 -5.902111 40.180344 -0.999358 1.718220 0.197239 -0.044963 -415520.000000 0 0 1
-21.311706 -33.396948 -4.678511 39.892774 1.002808 1.688344 0.182268 -0.049137 -259445.000000 0 0 1
-22.168206 33.652252 -3.687011 40.466004 -0.988299 1.662037 0.189929 -0.044956 748688.000000 0 0 1
-23.603806 -33.167348 -3.681111 40.874971 0.952289 1.660976 0.226323 -0.058209 969421.000000 0 0 1
-24.499206 -33.672348 -4.652811 41.900917 0.941801 1.682069 0.232247 -0.069404 -572659.000000 0 0 1
-25.531086 -32.812748 -4.960111 41.870222 0.909562 1.689539 0.239702 -0.082863 -701265.000000 0 0 1
-26.034266 -32.949548 -6.370111 42.473922 0.902106 1.721341 0.268949 -0.063100 -224695.000000 0 0 1
-25.123656 -32.484848 -7.362311 41.721303 0.912489 1.748189 0.271738 -0.042864 -8881.570000 0 0 1
-25.358246 -32.781248 -8.737911 42.355661 0.912387 1.778587 0.225425 -0.042145 -282175.000000 0 0 1
-26.547246 -32.029848 -9.347611 42.638543 0.878723 1.791821 0.189597 -0.027564 -347014.000000 0 0 1
-27.833586 -32.414348 -8.911211 43.644108 0.861284 1.776421 0.213204 -0.021766 232076.000000 0 0 1
-28.939626 -31.810348 -9.560411 44.054531 0.832618 1.789550 0.133587 -0.016078 310243.000000 0 0 1
-29.189636 -30.277448 -9.278411 43.067942 0.803689 1.787935 0.103843 0.000891 42656.500000 0 0 1
-28.277806 -29.279948 -9.858411 41.882430 0.802807 1.808409 0.110313 0.000643 513546.000000 0 0 1
-28.420046 -29.099648 -11.254511 42.203704 0.797213 1.840734 0.106903 -0.002291 -320129.000000 0 0 1
-27.456496 -28.106048 -11.889211 41.050731 0.797088 1.864629 0.133658 -0.008145 -889743.000000 0 0 1
-26.150706 -28.581848 -11.951611 40.541615 0.829788 1.870041 0.130363 -0.017567 -502144.000000 0 0 1
-25.456326 -27.731648 -12.904811 39.794510 0.828151 1.901053 0.110045 -0.026868 460592.000000 0 0 1
-24.038406 -28.236848 -13.334811 39.407890 0.865540 1.915990 0.124148 -0.030841 466212.000000 0 0 1
-23.980506 -29.466448 -14.071711 40.513570 0.887683 1.925522 0.139712 -0.041133 -51010.900000 0 0 1
-24.180006 -30.690548 -13.339411 41.285861 0.903499 1.899798 0.137972 -0.039756 -59772.700000 0 0 1
-24.446806 -31.926348 -14.261011 42.665144 0.917307 1.911610 0.146725 -0.032765 -118463.000000 0 0 1
-24.689806 -33.105648 -13.474111 43.441019 0.929996 1.886168 0.143724 -0.034678 158791.000000 0 0 1
-24.769406 33.259552 -14.344011 43.880200 -0.930676 1.903808 0.146987 -0.031931 -608548.000000 0 0 1
-25.259216 32.039352 -13.595711 43.004551 -0.903180 1.892461 0.131985 -0.038618 -388121.000000 0 0 1
-24.451206 31.466852 -12.575511 41.787172 -0.910209 1.876477 0.138153 -0.040896 110166.000000 0 0 1
-24.275506 32.296952 -11.456311 41.995719 -0.926250 1.847096 0.186922 -0.038683 87457.500000 0 0 1
-23.346006 31.838152 -10.286911 40.798584 -0.938088 1.825686 0.183018 -0.040111 -22183.000000 0 0 1
-23.966106 30.932852 -9.430811 40.251159 -0.911625 1.807294 0.166890 -0.040307 -245706.000000 0 0 1
-23.233306 30.602852 -8.297811 39.308711 -0.921441 1.783490 0.165390 -0.038181 -21399.200000 0 0 1
-23.959906 29.519452 -7.410811 38.734936 -0.888983 1.763304 0.162877 -0.034033 319231.000000 0 0 1
-24.401306 28.403252 -8.177511 38.328060 -0.861041 1.785805 0.161865 -0.004963 214680.000000 0 0 1
-25.082606 27.366652 -7.465411 37.865593 -0.828918 1.769252 0.150069 -0.005998 -474469.000000 0 0 1
-24.205206 26.344352 -6.826011 36.421303 -0.827691 1.759329 0.150500 -0.010319 -327709.000000 0 0 1
-23.615506 26.912352 -5.643711 36.246632 -0.850554 1.727135 0.162724 -0.015521 389525.000000 0 0 1
-22.683306 26.049352 -4.979511 34.898376 -0.854360 1.713971 0.129543 -0.018318 1012860.000000 0 0 1
-21.303806 26.797052 -4.726011 34.558202 -0.899108 1.707981 0.106923 -0.036621 689645.000000 0 0 1
-20.525006 26.745952 -5.901211 34.226395 -0.916248 1.744079 0.124246 -0.039165 -205883.000000 0 0 1
-19.264206 27.372052 -5.826511 33.974801 -0.957531 1.743143 0.120118 -0.045974 198283.000000 0 0 1
-18.385706 27.075452 -7.085211 33.486034 -0.974267 1.783995 0.127214 -0.043535 -201302.000000 0 0 1
-18.652606 27.702852 -8.357211 34.426889 -0.978209 1.815998 0.130521 -0.044220 40097.800000 0 0 1
-18.505906 29.136652 -8.310711 35.503253 -1.004937 1.807072 0.154491 -0.043269 -70647.400000 0 0 1
-18.612706 29.879552 -9.669111 36.506330 -1.013691 1.838856 0.163891 -0.035487 -387006.000000 0 0 1
-17.438006 29.776852 -10.414311 36.044457 -1.041015 1.863905 0.147672 -0.037481 -155485.000000 0 0 1
-17.503106 30.594352 -11.544911 37.089865 -1.051142 1.887324 0.149222 -0.046100 -310236.000000 0 0 1
-16.039706 30.891652 -11.925311 36.793741 -1.091888 1.900870 0.143711 -0.041242 85844.100000 0 0 1
-15.737006 31.554852 -13.102211 37.616884 -1.108174 1.926560 0.143638 -0.039060 -278203.000000 0 0 1
-15.843706 30.716352 -14.234611 37.378355 -1.094583 1.961485 0.141207 -0.039797 -216086.000000 0 0 1
-15.341506 31.331652 -15.516611 38.181140 -1.115464 1.989301 0.172700 -0.045647 156656.000000 0 0 1
-13.937206 31.492152 -15.669811 37.835755 -1.154146 1.997809 0.179867 -0.052463 317730.000000 0 0 1
-13.534406 31.930352 -16.969211 38.609347 -1.169881 2.025850 0.184239 -0.060192 -189185.000000 0 0 1
-12.014406 32.081952 -17.102911 38.289779 -1.212472 2.033837 0.193257 -0.060464 -143349.000000 0 0 1
-11.315606 30.809052 -17.281311 37.092915 -1.218809 2.055439 0.194680 -0.067973 358168.000000 0 0 1
-9.993206 31.034452 -17.739911 37.117460 -1.259277 2.069104 0.187245 -0.060736 312930.000000 0 0 1
-9.878106 31.065252 -19.260211 37.862681 -1.262927 2.104454 0.181167 -0.065644 -438171.000000 0 0 1
-10.133006 29.753452 -19.726611 37.109095 -1.242551 2.131266 0.166164 -0.059305 14325.300000 0 0 1
-10.350806 29.675852 -21.104811 37.857739 -1.235195 2.162140 0.163460 -0.067077 63452.400000 0 0 1
-11.796406 29.509352 -21.616311 38.434645 -1.190504 2.168103 0.145664 -0.055389 -165289.000000 0 0 1
-12.679806 30.595252 -21.458211 39.462663 -1.177906 2.145707 0.147072 -0.045815 116840.000000 0 0 1
-13.962206 30.014152 -21.229111 39.325153 -1.135385 2.141038 0.131557 -0.045918 40809.900000 0 0 1
-15.132106 30.997952 -21.180811 40.478147 -1.116662 2.121475 0.167872 -0.053281 -105974.000000 0 0 1
-15.462906 31.397952 -22.519211 41.617877 -1.113182 2.142535 0.119887 -0.043752 516103.000000 0 0 1
-16.448006 32.487652 -22.495911 42.802459 -1.102133 2.124187 0.103800 -0.035912 901268.000000 0 0 1
-16.933706 32.716752 -23.950611 43.940506 -1.093180 2.147268 0.081331 -0.019264 251298.000000 0 0 1
-15.893006 33.067652 -24.866511 44.321559 -1.122772 2.166447 0.102549 -0.024810 160687.000000 0 0 1
-16.307906 33.093552 -26.207111 45.254212 -1.112940 2.188431 0.113288 -0.018772 103526.000000 0 0 1
-16.946206 -33.116348 -26.782111 45.838280 1.097819 2.194781 0.092347 -0.013364 -828555.000000 0 0 1
-18.247906 -32.935348 -26.369211 45.968017 1.064847 2.181742 0.093604 -0.014408 -1279730.000000 0 0 1
-18.702406 -31.871548 -27.144011 45.851641 1.040135 2.204330 0.091258 -0.007753 -101496.000000 0 0 1
-20.159206 -31.472748 -26.816611 46.000632 1.001108 2.193166 0.094497 -0.018429 -134532.000000 0 0 1
-21.102806 -32.447748 -27.105411 47.253446 0.994166 2.181712 0.095390 -0.018632 -1269150.000000 0 0 1
-22.392706 -31.903848 -27.132611 47.491762 0.958809 2.178900 0.086122 -0.020621 48883.400000 0 0 1
-23.422806 -33.070748 -27.250311 48.835251 0.954546 2.162776 0.063513 -0.014112 -50008.100000 0 0 1
-23.554706 33.655452 -26.102311 48.670774 -0.960152 2.136848 0.096980 -0.022017 -336557.000000 0 0 1
-24.648006 32.771152 -25.968211 48.536796 -0.925937 2.135329 0.072335 -0.015581 110950.000000 0 0 1
-24.681006 31.552152 -26.934911 48.271936 -0.906986 2.162749 0.084576 -0.017262 -62222.600000 0 0 1
-23.542106 30.736552 -26.772411 47.071524 -0.917177 2.175794 0.081399 -0.048450 -122321.000000 0 0 1
-23.819706 29.710552 -25.831711 46.014917 -0.895004 2.166845 0.070685 -0.030833 147101.000000 0 0 1
32.900261 10.011952 -26.041059 43.137027 0.295408 2.218908 0.094092 -0.024837 65016.800000 0 0 1
32.431721 8.663552 -26.052349 42.492335 0.261037 2.230784 0.074559 -0.018380 -220580.000000 0 0 1
31.033091 8.570352 -26.063349 41.422238 0.269452 2.251335 0.092279 -0.026590 -251526.000000 0 0 1
30.558991 7.197752 -25.567159 40.488754 0.231320 2.254235 0.078772 -0.017472 -100680.000000 0 0 1
30.731691 6.978952 -24.181079 39.722376 0.223306 2.225283 0.064211 -0.011552 26910.800000 0 0 1
30.370291 5.674452 -23.870579 39.043034 0.184712 2.228614 0.067272 -0.011294 -16291.000000 0 0 1
30.599891 5.461552 -22.360479 38.290637 0.176623 2.194404 0.082549 -0.008084 244587.000000 0 0 1
31.908241 5.235652 -21.868679 39.035714 0.162635 2.165451 0.099221 -0.013480 276376.000000 0 0 1
31.856551 5.197052 -20.426579 38.198093 0.161715 2.135013 0.088345 -0.016463 818366.000000 0 0 1
33.200991 4.779352 -19.702679 38.901717 0.142970 2.101886 0.090338 -0.017683 583750.000000 0 0 1
33.457021 3.357052 -19.726479 38.984305 0.100005 2.101350 0.101079 -0.014609 525915.000000 0 0 1
34.526371 3.008652 -18.841779 39.447876 0.086921 2.068760 0.110009 -0.021932 21739.000000 0 0 1
35.047521 1.573352 -19.006879 39.900697 0.044862 2.067300 0.120501 -0.027457 -94318.600000 0 0 1
34.050131 0.681352 -18.571879 38.791627 0.020008 2.070038 0.117836 -0.023628 203472.000000 0 0 1
34.461011 -0.656648 -18.814179 39.267872 -0.019053 2.070453 0.112539 -0.020703 179034.000000 0 0 1
33.393231 -1.688148 -18.336779 38.133911 -0.050511 2.072423 0.110793 -0.021921 283377.000000 0 0 1
33.197271 -1.994548 -16.961979 37.332904 -0.060010 2.042432 0.118056 -0.014447 88238.600000 0 0 1
31.907391 -1.586648 -16.556479 35.982163 -0.049686 2.048938 0.111209 -0.021546 -94330.500000 0 0 1
31.606391 -1.989948 -15.103679 35.086250 -0.062877 2.015813 0.120025 -0.018373 -179188.000000 0 0 1
31.365611 -3.364048 -14.941079 34.904931 -0.106844 2.013131 0.108528 -0.029880 224038.000000 0 0 1
30.435091 -3.609348 -13.914679 33.659181 -0.118040 1.996980 0.099928 -0.026118 -229127.000000 0 0 1
30.359291 -5.065248 -13.418779 33.576881 -0.165321 1.981924 0.108780 -0.033788 -114810.000000 0 0 1
29.553591 -5.851748 -14.252079 33.328358 -0.195476 2.012661 0.094418 -0.035599 184763.000000 0 0 1
29.161991 -7.038048 -13.637479 32.953553 -0.236815 1.997464 0.106715 -0.039757 -223298.000000 0 0 1
28.472891 -8.058548 -14.584679 32.990280 -0.275812 2.028724 0.077916 -0.029169 -372823.000000 0 0 1
27.262391 -7.504548 -15.024379 32.020121 -0.268618 2.059200 0.084732 -0.027952 -704927.000000 0 0 1
26.663091 -8.361948 -15.924379 32.162532 -0.303900 2.088772 0.076567 -0.024573 764114.000000 0 0 1
25.190991 -7.937848 -16.298679 31.036147 -0.305258 2.123689 0.067310 -0.028145 685585.000000 0 0 1
25.210191 -6.856148 -17.203479 31.281307 -0.265537 2.153113 0.056175 -0.022376 386572.000000 0 0 1
23.942691 -6.629048 -17.827879 30.578260 -0.270105 2.193243 0.090942 -0.023655 732380.000000 0 0 1
23.688691 -7.234848 -19.222779 31.353028 -0.296416 2.230785 0.045924 -0.008922 -124750.000000 0 0 1
24.462091 -6.443448 -20.097179 32.308026 -0.257555 2.242153 0.047070 -0.012238 310042.000000 0 0 1
24.247391 -6.857248 -21.466279 33.102250 -0.275607 2.276388 0.055839 -0.019648 -104571.000000 0 0 1
24.702391 -5.750048 -22.488879 33.897210 -0.228700 2.296208 0.059218 -0.024185 49424.100000 0 0 1
24.670991 -6.118348 -23.849779 34.855472 -0.243093 2.324368 0.083938 -0.032246 95343.300000 0 0 1
24.811591 -4.937348 -24.653479 35.324021 -0.196428 2.343291 0.077500 -0.033166 -100337.000000 0 0 1
24.720291 -5.170848 -26.176359 36.373510 -0.206201 2.374101 0.096118 -0.030784 -20527.400000 0 0 1
23.460191 -5.572648 -26.660989 35.947786 -0.233214 2.406336 0.116884 -0.034322 -131244.000000 0 0 1
23.558491 -5.773548 -28.072279 37.099720 -0.240336 2.429002 0.124683 -0.036409 217973.000000 0 0 1
22.287591 -6.495348 -28.550949 36.797866 -0.283579 2.458915 0.113720 -0.039331 140644.000000 0 0 1
22.256191 -7.884748 -28.222239 36.796767 -0.340476 2.444912 0.092794 -0.032129 881103.000000 0 0 1
20.979291 -8.506448 -28.460599 36.366138 -0.385212 2.469648 0.106273 -0.035557 531259.000000 0 0 1
20.934391 -9.973148 -27.859349 36.247148 -0.444590 2.447437 0.125396 -0.027724 422079.000000 0 0 1
19.630391 -10.539548 -27.638559 35.501046 -0.492730 2.463113 0.136278 -0.030453 1026230.000000 0 0 1
19.642391 -11.853248 -27.068699 35.482918 -0.542954 2.438530 0.132096 -0.030910 -200901.000000 0 0 1
19.952191 -13.000348 -28.110059 36.841205 -0.577482 2.438747 0.113907 -0.015338 13046.400000 0 0 1
18.789591 -13.327448 -28.826589 36.900431 -0.616940 2.467381 0.102362 -0.016284 422148.000000 0 0 1
19.108191 -14.409648 -29.643249 38.098335 -0.646125 2.462387 0.085679 -0.018824 666963.000000 0 0 1
17.935691 -14.691048 -30.667869 38.445209 -0.686277 2.494273 0.080586 -0.021478 679889.000000 0 0 1
16.851891 -15.391748 -30.088199 37.764955 -0.740144 2.492649 0.102630 -0.022576 140478.000000 0 0 1
15.771491 -15.496948 -31.005219 38.081740 -0.776618 2.522104 0.097789 -0.027512 637916.000000 0 0 1
14.523191 -15.987148 -30.162879 37.098669 -0.833344 2.520159 0.112552 -0.036587 635533.000000 0 0 1
14.789591 -17.319148 -29.798439 37.505091 -0.864017 2.489008 0.094166 -0.033604 116441.000000 0 0 1
13.771891 -17.693548 -28.896559 36.575097 -0.909393 2.481705 0.088509 -0.024282 -44891.500000 0 0 1
13.983291 -19.038348 -28.165549 36.759887 -0.937302 2.443708 0.089634 -0.021868 427751.000000 0 0 1
14.961591 -18.959048 -27.108499 36.306548 -0.902704 2.413817 0.086877 -0.018457 91865.000000 0 0 1
14.823891 -20.059748 -26.214899 36.185110 -0.934381 2.381056 0.073826 -0.014174 251928.000000 0 0 1
15.954691 -20.077148 -25.138459 35.910809 -0.899314 2.346229 0.053578 -0.006481 -455098.000000 0 0 1
17.174691 -20.535448 -25.624899 37.058199 -0.874284 2.334328 0.069874 -0.011206 -127242.000000 0 0 1
18.108691 -20.452848 -24.526479 36.712285 -0.846113 2.302412 0.072036 -0.004967 -104402.000000 0 0 1
19.547591 -20.905548 -24.800479 37.871018 -0.818954 2.284803 0.053782 0.004693 -358239.000000 0 0 1
19.874791 -22.275248 -25.041379 38.964916 -0.842287 2.268768 0.083127 -0.015554 196277.000000 0 0 1
19.568691 -23.150548 -23.949079 38.632110 -0.869049 2.239446 0.077274 -0.024631 -467098.000000 0 0 1
20.359591 -24.477448 -23.965379 39.849690 -0.876982 2.216042 0.079899 -0.022291 -637549.000000 0 0 1
21.671591 -24.328848 -23.514379 40.180552 -0.843100 2.195945 0.096161 -0.024828 -262671.000000 0 0 1
22.184591 -25.547068 -22.931979 40.874007 -0.855727 2.166439 0.120145 -0.039419 -96184.600000 0 0 1
21.938191 -25.738488 -21.435179 40.040241 -0.864940 2.135708 0.133127 -0.042337 -609255.000000 0 0 1
20.588791 -25.980898 -21.129279 39.310963 -0.900671 2.138255 0.103208 -0.037797 -135689.000000 0 0 1
20.498891 -26.157268 -19.688079 38.626774 -0.906087 2.105633 0.106826 -0.041960 777173.000000 0 0 1
19.119991 -26.745838 -19.216179 38.081169 -0.950155 2.099728 0.086320 -0.036382 -328525.000000 0 0 1
18.993791 -28.084548 -19.590679 39.157383 -0.976149 2.094749 0.088790 -0.031457 -218939.000000 0 0 1
17.936091 -28.788158 -18.979979 38.867737 -1.013610 2.080962 0.079646 -0.024353 527812.000000 0 0 1
16.529691 -28.340278 -19.528379 38.180619 -1.042778 2.107695 0.081679 -0.021680 -283991.000000 0 0 1
15.924891 -27.372658 -18.675779 36.764783 -1.043881 2.103635 0.077893 -0.025751 126452.000000 0 0 1
14.657291 -27.006768 -19.206979 36.236856 -1.073554 2.129444 0.056419 -0.011244 497229.000000 0 0 1
13.768491 -26.077008 -18.329179 34.720894 -1.085006 2.126923 0.051171 -0.015574 -138626.000000 0 0 1
13.030791 -26.805188 -17.340679 34.482152 -1.118307 2.097734 0.038786 -0.019244 233910.000000 0 0 1
12.073591 -26.003568 -16.657379 33.157585 -1.136110 2.097134 0.059379 -0.025692 -689823.000000 0 0 1
10.702691 -25.947198 -17.302379 32.972367 -1.179578 2.123222 0.065689 -0.017123 -1579820.000000 0 0 1
10.023691 -27.141228 -16.976579 33.545862 -1.217018 2.101419 0.063129 -0.006037 -826346.000000 0 0 1
8.667991 -26.864878 -16.761479 32.829909 -1.258690 2.106627 0.063433 0.000033 -317285.000000 0 0 1
7.811291 -27.486948 -17.878079 33.707185 -1.293914 2.129861 0.071762 0.001751 -377699.000000 0 0 1
7.925291 -26.794428 -19.104279 33.848561 -1.283214 2.170508 0.085370 -0.001164 -141261.000000 0 0 1
7.377191 -27.597978 -20.118479 34.940300 -1.309594 2.184374 0.085312 -0.002382 -106637.000000 0 0 1
7.406691 -26.960648 -21.530979 35.289073 -1.302688 2.227023 0.084560 -0.006209 31916.600000 0 0 1
6.484391 -25.875118 -21.636179 34.346664 -1.325250 2.252266 0.104292 -0.013550 294278.000000 0 0 1
6.446891 -25.362668 -22.950779 34.807551 -1.321880 2.290766 0.091128 -0.010917 65210.400000 0 0 1
5.146591 -24.623648 -23.370079 34.336162 -1.364752 2.319413 0.070962 -0.017387 -43878.400000 0 0 1
4.009491 -25.451578 -23.473379 34.854819 -1.414546 2.309678 0.056821 -0.007872 -470360.000000 0 0 1
2.910091 -24.679548 -23.900879 34.478990 -1.453423 2.336718 0.059163 -0.013631 67881.400000 0 0 1
1.851691 -25.719768 -24.363279 35.475409 -1.498925 2.327826 0.031223 -0.012417 -167664.000000 0 0 1
2.274991 -26.356588 -25.545669 36.775352 -1.484694 2.338717 0.038892 -0.015227 173079.000000 0 0 1
1.296191 -27.197228 -26.138919 37.744038 -1.523173 2.335788 0.059858 -0.025511 -105908.000000 0 0 1
1.898291 -28.084938 -27.223459 39.159724 -1.503308 2.339481 0.063404 -0.029291 -652126.000000 0 0 1
2.471291 -27.426978 -28.307149 39.492292 -1.480935 2.369965 0.056758 -0.025958 47602.600000 0 0 1
2.919891 -28.236338 -29.419359 40.881723 -1.467754 2.374053 0.080342 -0.035073 -426024.000000 0 0 1
4.230591 -28.978448 -29.162449 41.329128 -1.425830 2.354087 0.099743 -0.029765 -887896.000000 0 0 1
4.328491 -29.995658 -28.172739 41.378480 -1.427482 2.319726 0.079692 -0.035714 -381970.000000 0 0 1
5.335091 -30.886718 -28.585049 42.421193 -1.399753 2.310188 0.100043 -0.032930 -30193.100000 0 0 1
5.770091 -32.067898 -27.617049 42.712357 -1.392768 2.273892 0.130660 -0.049944 -331467.000000 0 0 1
4.701891 -32.896348 -27.282439 42.995453 -1.428827 2.258213 0.103821 -0.056748 -13706.600000 0 0 1
5.102991 33.512804 -26.474059 43.011909 1.419687 2.233823 0.104151 -0.056244 -318556.000000 0 0 1
3.818591 32.740508 -26.180919 42.094691 1.454689 2.242031 0.137133 -0.055932 -112855.000000 0 0 1
3.279691 32.166088 -27.370939 42.362505 1.469186 2.273276 0.119990 -0.050685 1319840.000000 0 0 1
1.839791 32.217366 -27.266849 42.247184 1.513753 2.272359 0.056728 -0.043208 1090620.000000 0 0 1
0.987291 32.395486 -28.549469 43.191601 1.540330 2.292941 0.083940 -0.035881 152511.000000 0 0 1
0.959391 31.252272 -29.386649 42.909207 1.540108 2.325203 0.120934 -0.032914 241308.000000 0 0 1
0.140691 31.616525 -30.489519 43.923060 1.566346 2.338045 0.120043 -0.028929 166689.000000 0 0 1
-0.058809 30.424872 -31.475189 43.776293 -1.568863 2.373160 0.106151 -0.029618 -24079.500000 0 0 1
0.974491 30.197802 -32.421099 44.316865 1.538537 2.391425 0.127935 -0.026098 99813.300000 0 0 1
0.489291 29.663912 -33.674829 44.879630 1.554303 2.419367 0.156090 -0.040187 -301327.000000 0 0 1
1.516091 29.239932 32.701565 43.893786 1.518993 0.730238 0.131360 -0.032102 -622467.000000 0 0 1
2.523791 30.151232 32.352367 44.296072 1.487287 0.751938 0.131928 -0.031133 442129.000000 0 0 1
3.684391 29.693372 31.661476 43.562829 1.447346 0.757145 0.118501 -0.034010 304665.000000 0 0 1
3.517591 28.829932 30.409189 42.050650 1.449385 0.762435 0.116298 -0.025237 -777092.000000 0 0 1
3.012091 27.517552 30.698329 41.336131 1.461770 0.733776 0.120252 -0.034416 -570236.000000 0 0 1
4.022291 26.577972 30.695379 40.801638 1.420597 0.719239 0.107357 -0.031888 -1018130.000000 0 0 1
3.694791 25.178692 31.134009 40.211248 1.425093 0.685249 0.098306 -0.036124 -162054.000000 0 0 1
3.016891 24.410132 30.143789 38.905066 1.447828 0.684392 0.105596 -0.025725 161124.000000 0 0 1
3.022591 23.051502 30.395549 38.267443 1.440417 0.652954 0.085652 -0.012881 -477037.000000 0 0 1
2.078791 22.193652 29.549249 37.014019 1.477403 0.646286 0.084382 -0.007779 -1045.090000 0 0 1
0.733891 22.571332 29.811879 37.399889 1.538293 0.648300 0.088092 -0.016056 -164644.000000 0 0 1
-0.152209 22.065352 28.857579 36.327163 -1.563898 0.652810 0.103615 -0.013011 -325035.000000 0 0 1
-1.472609 21.553352 29.432999 36.510505 -1.502578 0.633177 0.098166 -0.011987 -377926.000000 0 0 1
-2.341409 22.555332 29.945799 37.562961 -1.467359 0.648127 0.103512 -0.014906 1388750.000000 0 0 1
-3.641809 22.030952 30.294979 37.635241 -1.406974 0.635183 0.074817 -0.011712 656400.000000 0 0 1
-4.773209 22.994222 30.610449 38.581308 -1.366120 0.654420 0.063895 -0.021404 -341022.000000 0 0 1
-4.745309 23.695762 31.816870 39.953977 -1.373151 0.649580 0.078187 -0.017626 484191.000000 0 0 1
-5.938509 24.470262 31.978481 40.702369 -1.332716 0.667024 0.062218 -0.021808 378469.000000 0 0 1
-6.048709 25.124452 33.377869 42.212641 -1.334542 0.658832 0.092112 -0.019009 208248.000000 0 0 1
-7.198909 25.941602 33.570379 43.032096 -1.300103 0.675932 0.074794 -0.013190 175776.000000 0 0 1
-7.406709 26.276002 -32.466209 42.418656 -1.296044 2.442421 0.070513 -0.011175 518092.000000 0 0 1
-8.814109 26.910512 -32.234839 42.906282 -1.254274 2.420803 0.112806 -0.007818 340004.000000 0 0 1
-8.936009 28.280082 -32.704899 44.150036 -1.264742 2.405008 0.092439 -0.017894 90784.400000 0 0 1
-10.057509 28.983192 -32.169709 44.452998 -1.236786 2.379915 0.072476 -0.025451 135242.000000 0 0 1
-10.111109 29.237132 -30.683349 43.571921 -1.237840 2.352092 0.069080 -0.013184 -9064.380000 0 0 1
-9.245309 30.320672 -30.295559 43.847916 -1.274834 2.333562 0.092419 -0.013551 454044.000000 0 0 1
-9.267009 30.491602 -28.901589 43.022286 -1.275747 2.307408 0.104374 -0.015342 -93889.500000 0 0 1
-8.488509 31.722859 -28.374639 43.399478 -1.309338 2.283394 0.094637 -0.026770 -1752020.000000 0 0 1
-7.152109 31.564520 -28.539049 43.150306 -1.347972 2.293463 0.087234 -0.028950 -2193200.000000 0 0 1
-6.517609 32.695549 -28.020949 43.550565 -1.374033 2.269743 0.113492 -0.025011 311021.000000 0 0 1
-4.990709 32.545835 -28.341159 43.443755 -1.418638 2.281496 0.125190 -0.029528 800786.000000 0 0 1
-4.156009 33.659392 -27.932739 43.937057 -1.447946 2.259769 0.143167 -0.032267 352550.000000 0 0 1
-4.039909 -32.738978 -28.816829 43.801498 1.448019 2.288818 0.144689 -0.039205 -274876.000000 0 0 1
-3.019509 -32.898178 -29.952979 44.593593 1.479269 2.307281 0.123750 -0.035588 -300780.000000 0 0 1
-3.461809 -33.738938 -31.043589 45.978305 1.468548 2.312004 0.110740 -0.020289 403569.000000 0 0 1
-4.509809 -33.276568 -31.891329 46.311178 1.436092 2.330396 0.123510 -0.029761 339742.000000 0 0 1
-4.005209 -32.336248 -33.006369 46.379899 1.447563 2.362644 0.098152 -0.035355 -110213.000000 0 0 1
-3.550509 -31.061328 -32.569189 45.146033 1.456984 2.376645 0.118531 -0.041291 217334.000000 0 0 1
-3.045209 -30.257828 -33.562269 45.290566 1.470492 2.405419 0.112850 -0.065733 -190547.000000 0 0 1
35.104271 17.869152 13.023089 41.487555 0.470846 1.251495 0.106367 -0.040944 303379.000000 0 0 1
36.405971 17.306552 13.019589 42.360608 0.443756 1.258388 0.099876 -0.047986 5113.350000 0 0 1
36.493481 15.999852 13.508389 42.074291 0.413191 1.243947 0.115094 -0.027754 -781712.000000 0 0 1
37.938631 15.630552 13.847489 43.305967 0.390805 1.245321 0.084254 -0.036175 -411545.000000 0 0 1
-37.264576 15.334352 12.788489 42.276902 -0.390380 1.263489 0.086348 -0.021296 -440412.000000 0 0 1
-37.568406 14.077952 12.253489 41.949039 -0.358533 1.274370 0.128470 -0.035616 -583864.000000 0 0 1
-36.362546 13.107152 12.000489 40.472756 -0.345961 1.269762 0.150491 -0.023878 399427.000000 0 0 1
-35.835190 12.567952 13.219089 40.210180 -0.337312 1.235817 0.118437 -0.015975 -35726.000000 0 0 1
-36.552166 11.496352 13.826889 40.735854 -0.304723 1.224488 0.115150 -0.017052 -58456.100000 0 0 1
-35.831547 10.966252 15.114289 40.405448 -0.296998 1.187407 0.144731 -0.033270 145454.000000 0 0 1
-35.831488 11.882652 16.153589 41.061313 -0.320213 1.166468 0.147279 -0.027268 -19787.100000 0 0 1
-35.211545 11.427452 17.315589 40.868927 -0.313813 1.133286 0.135509 -0.023427 -317991.000000 0 0 1
-35.262119 12.349452 18.529389 41.704487 -0.336870 1.110401 0.132589 -0.028203 -868180.000000 0 0 1
-36.560366 12.558752 18.955589 43.054581 -0.330879 1.114898 0.156573 -0.043191 -755815.000000 0 0 1
-36.642826 13.418752 20.143989 43.915144 -0.351037 1.094262 0.173252 -0.040576 134064.000000 0 0 1
37.982401 13.199352 20.678289 45.215896 0.334457 1.095813 0.191576 -0.060603 100954.000000 0 0 1
37.906051 11.892552 21.203389 45.032046 0.304012 1.080541 0.159904 -0.051303 371779.000000 0 0 1
36.685671 11.787152 21.934389 44.338390 0.310883 1.053302 0.199848 -0.060958 399778.000000 0 0 1
36.681811 10.462852 22.710719 44.393730 0.277854 1.033780 0.169105 -0.057501 -119059.000000 0 0 1
37.690441 10.351252 23.693959 45.706908 0.268030 1.025830 0.152551 -0.044847 -133961.000000 0 0 1
37.524511 11.170152 24.801349 46.346177 0.289323 1.006132 0.159431 -0.038174 -813862.000000 0 0 1
-37.275056 11.252052 25.712699 46.660276 -0.293167 0.987160 0.130067 -0.035607 1399000.000000 0 0 1
-36.281346 12.287052 25.395029 45.958843 -0.326537 0.985363 0.118088 -0.042649 1375140.000000 0 0 1
-35.374252 12.007652 24.305459 44.567665 -0.327242 0.993977 0.107624 -0.048987 -118586.000000 0 0 1
-34.485767 13.175352 23.874719 43.964306 -0.364939 0.996734 0.105174 -0.045383 1084050.000000 0 0 1
-33.351906 13.496752 24.735909 43.662079 -0.384532 0.968507 0.071932 -0.041712 892048.000000 0 0 1
-33.774946 14.109152 25.946819 44.867054 -0.395705 0.954147 0.061515 -0.035230 -375536.000000 0 0 1
-32.676726 14.772652 26.831799 44.787779 -0.424586 0.928435 0.065462 -0.028599 77959.200000 0 0 1
-32.193076 16.006252 26.348409 44.573904 -0.461401 0.938353 0.074256 -0.031963 -224501.000000 0 0 1
-31.581436 16.747852 27.387389 45.032729 -0.487598 0.917048 0.082090 -0.032253 407199.000000 0 0 1
-30.978536 18.158452 26.903449 44.868638 -0.530183 0.927789 0.092619 -0.027631 869548.000000 0 0 1
-32.046116 19.011452 26.471719 45.707119 -0.535444 0.953099 0.085712 -0.054931 708599.000000 0 0 1
-31.505366 20.178352 25.929439 45.520213 -0.569649 0.964747 0.093104 -0.057324 148535.000000 0 0 1
-32.625246 21.108152 25.351819 46.396934 -0.574255 0.992723 0.101862 -0.044642 -107311.000000 0 0 1
-33.327126 21.635352 26.461839 47.739027 -0.575800 0.983272 0.112871 -0.053525 574636.000000 0 0 1
-34.526329 22.335952 26.104959 48.707608 -0.574211 1.005161 0.118712 -0.051644 133995.000000 0 0 1
-34.433361 23.671652 25.291619 48.843315 -0.602262 1.026506 0.124836 -0.047027 -767055.000000 0 0 1
-35.697974 24.202052 25.009839 49.855559 -0.595785 1.045296 0.126454 -0.041301 -238727.000000 0 0 1
-35.601522 25.566052 24.621699 50.272452 -0.622782 1.058976 0.128354 -0.043818 -323906.000000 0 0 1
-36.724426 26.032852 23.721869 50.883395 -0.616654 1.085805 0.126264 -0.037584 -417794.000000 0 0 1
-36.597086 25.623852 22.377039 49.966593 -0.610834 1.106448 0.137781 -0.041360 954389.000000 0 0 1
-37.715066 26.102652 21.587389 50.693096 -0.605405 1.130901 0.146395 -0.037223 671547.000000 0 0 1
-37.279136 26.171652 20.102689 49.787624 -0.612097 1.155164 0.185499 -0.044733 206702.000000 0 0 1
-37.087296 24.879552 19.576589 48.761691 -0.590885 1.157670 0.173914 -0.045282 25992.700000 0 0 1
-36.589166 24.992052 18.278489 47.931961 -0.599256 1.179548 0.175044 -0.051100 -75995.100000 0 0 1
-36.692056 23.719552 17.453389 47.048325 -0.573875 1.190746 0.171267 -0.040978 851639.000000 0 0 1
38.017851 23.405452 17.072389 47.797893 0.551843 1.205551 0.159130 -0.042965 360886.000000 0 0 1
37.999461 22.385752 16.112889 46.954298 0.532372 1.220516 0.132837 -0.033743 90265.500000 0 0 1
36.727881 22.148852 15.279389 45.529865 0.542661 1.228564 0.129221 -0.024898 73953.400000 0 0 1
35.627891 21.527752 15.892789 44.557507 0.543530 1.206084 0.138073 -0.032240 -296404.000000 0 0 1
34.558421 21.396752 14.987089 43.321106 0.554380 1.217541 0.124213 -0.029539 -717631.000000 0 0 1
33.347281 20.678252 15.560889 42.211047 0.555059 1.193245 0.127844 -0.043319 488262.000000 0 0 1
32.445401 21.214252 16.576189 42.160628 0.579073 1.166722 0.124351 -0.040664 586739.000000 0 0 1
31.837321 22.409952 16.250789 42.188968 0.613332 1.175382 0.120191 -0.029687 -384566.000000 0 0 1
30.839791 22.894152 17.309589 42.129049 0.638592 1.147388 0.099998 -0.032103 250749.000000 0 0 1
31.586401 23.470452 18.347189 43.418684 0.639042 1.134523 0.053878 -0.022902 391972.000000 0 0 1
30.730291 24.091852 19.310189 43.562042 0.664894 1.111542 0.046512 -0.015070 742516.000000 0 0 1
31.612021 24.760352 20.421389 45.049173 0.664448 1.100317 0.042122 -0.016945 119878.000000 0 0 1
32.367391 25.798252 19.909889 45.930398 0.672936 1.122446 0.068195 -0.027252 -1131800.000000 0 0 1
33.383541 26.003452 20.808389 47.155374 0.661761 1.113780 0.069938 -0.031628 -1016210.000000 0 0 1
34.356221 27.116452 20.303789 48.248271 0.668166 1.136448 0.091203 -0.033783 -496009.000000 0 0 1
35.338061 27.415052 21.255789 49.519412 0.659806 1.127143 0.084166 -0.024147 -240347.000000 0 0 1
34.966581 28.188452 22.419659 50.198523 0.678482 1.107812 0.033723 -0.007156 -1327740.000000 0 0 1
35.958461 28.290152 23.534279 51.451004 0.666606 1.095714 0.024704 -0.015826 -541363.000000 0 0 1
37.122081 29.049152 23.291339 52.577453 0.663998 1.111864 0.074998 -0.017975 72596.300000 0 0 1
37.746481 29.434052 24.510309 53.776532 0.662291 1.097547 0.070912 -0.021075 40112.700000 0 0 1
-37.089966 30.366052 24.345649 53.763122 -0.686048 1.100857 0.074338 -0.026041 69257.200000 0 0 1
-35.898386 29.702352 23.971939 52.398260 -0.691227 1.095620 0.102522 -0.028348 216203.000000 0 0 1
-34.819157 30.630252 24.008149 52.220468 -0.721483 1.093087 0.115985 -0.026808 -52580.900000 0 0 1
-33.408426 30.087852 23.795529 50.868742 -0.733150 1.084016 0.151607 -0.033516 -572546.000000 0 0 1
-33.054046 29.792252 22.454039 49.843075 -0.733544 1.103477 0.141741 -0.027650 36288.900000 0 0 1
-33.418326 28.538852 21.902289 49.101536 -0.706805 1.108437 0.145001 -0.026013 -366271.000000 0 0 1
-32.623546 27.295652 22.349769 48.050604 -0.696713 1.087015 0.137738 -0.027374 -134309.000000 0 0 1
-31.240416 27.345852 22.071189 47.020172 -0.719020 1.082187 0.116165 -0.026295 813243.000000 0 0 1
-30.337396 26.616652 22.937709 46.421356 -0.720162 1.053974 0.111400 -0.039176 455420.000000 0 0 1
-30.199376 27.007952 24.445059 47.317995 -0.729669 1.027907 0.140295 -0.041773 -814686.000000 0 0 1
-31.318356 26.587352 25.207629 48.199079 -0.703877 1.020441 0.124078 -0.033926 347823.000000 0 0 1
-31.135326 27.057452 26.552199 49.056432 -0.715437 0.998864 0.141822 -0.036459 136989.000000 0 0 1
-32.455486 27.212352 27.363909 50.424738 -0.697751 0.997186 0.132817 -0.034968 239203.000000 0 0 1
-33.230796 26.077352 27.659369 50.491136 -0.665363 0.991056 0.118654 -0.042235 411011.000000 0 0 1
-34.393692 26.487252 28.383319 51.866303 -0.656254 0.991733 0.105287 -0.039391 19663.900000 0 0 1
-34.989671 25.224352 28.977089 51.963609 -0.624621 0.979254 0.100193 -0.038883 -508926.000000 0 0 1
-34.346416 24.656552 30.063389 51.878986 -0.622624 0.952693 0.108088 -0.041262 -455184.000000 0 0 1
-35.012841 23.528252 30.466279 52.035294 -0.591678 0.945309 0.091458 -0.042912 -613679.000000 0 0 1
-34.236751 22.702552 31.481984 51.755930 -0.585533 0.916907 0.121088 -0.052562 -611391.000000 0 0 1
-33.077186 22.203352 30.855829 50.390190 -0.591175 0.911782 0.122000 -0.044283 -318323.000000 0 0 1
-32.463566 21.119852 31.427377 49.875959 -0.576776 0.889101 0.123047 -0.044512 -33425.800000 0 0 1
-31.576016 21.364052 32.685212 50.217433 -0.594842 0.862061 0.131033 -0.045583 -1044330.000000 0 0 1
-32.259816 21.820152 -33.610589 51.444013 -0.594703 2.282788 0.164249 -0.042172 -90697.200000 0 0 1
-31.612316 21.627852 -32.356559 50.140298 -0.600015 2.272239 0.142906 -0.033237 312674.000000 0 0 1
-30.175106 22.144452 -32.009999 49.249912 -0.633094 2.278315 0.150030 -0.028985 415104.000000 0 0 1
-30.013356 23.513252 -31.789529 49.641200 -0.664553 2.265797 0.146416 -0.029779 14259.800000 0 0 1
-29.653726 23.663752 -30.442519 48.642200 -0.673522 2.247012 0.158999 -0.020719 -169737.000000 0 0 1
-30.158506 24.959252 -29.806999 49.203221 -0.691347 2.221559 0.133182 -0.009966 -487831.000000 0 0 1
-29.740126 26.121152 -30.500849 49.970906 -0.720704 2.227327 0.134324 -0.009546 -114765.000000 0 0 1
-30.689866 26.681752 -31.373199 51.362062 -0.715649 2.227898 0.116291 -0.012112 -278679.000000 0 0 1
-30.342316 28.129552 -31.815689 52.193543 -0.747573 2.226316 0.114079 -0.004027 103182.000000 0 0 1
-30.656406 29.160052 -30.886529 52.384173 -0.760388 2.201379 0.088492 -0.019128 364964.000000 0 0 1
-29.943266 30.328452 -31.363689 52.915926 -0.791789 2.205213 0.097736 -0.032428 105124.000000 0 0 1
-30.189136 31.699252 -30.630949 53.427348 -0.809794 2.181348 0.087545 -0.024399 -253357.000000 0 0 1
-29.818676 31.852052 -29.264679 52.536921 -0.818358 2.161602 0.091089 -0.023183 156708.000000 0 0 1
-30.132776 33.171252 -28.864469 53.305476 -0.833359 2.143007 0.057442 -0.024479 -480517.000000 0 0 1
-29.867926 33.415952 -27.350279 52.504825 -0.841405 2.118713 0.013339 -0.020921 -88983.300000 0 0 1
-28.493496 33.458252 -27.022149 51.590023 -0.865366 2.122086 0.068825 -0.014896 156851.000000 0 0 1
-27.771056 -32.836448 -27.263869 50.919372 0.868781 2.135816 0.056389 -0.002104 -175486.000000 0 0 1
-28.030056 -31.755048 -26.217799 49.814056 0.847624 2.125055 0.047471 -0.006043 113850.000000 0 0 1
-29.358006 -31.223548 -26.152579 50.207170 0.816182 2.118693 0.023784 -0.014815 289446.000000 0 0 1
-29.543986 -30.394748 -25.029179 49.225478 0.799591 2.104192 0.027829 -0.014249 878929.000000 0 0 1
-31.072116 -30.075348 -24.850379 49.875288 0.769099 2.092376 0.007014 -0.009511 922136.000000 0 0 1
-31.614546 -29.314148 -25.904749 50.297663 0.747661 2.111838 0.011745 -0.013466 -39661.100000 0 0 1
-33.023956 -29.320748 -25.938059 51.215924 0.726069 2.101854 0.009114 -0.010317 -239818.000000 0 0 1
-33.589226 -28.548548 -27.103119 51.747800 0.704454 2.122048 0.025885 -0.018231 538842.000000 0 0 1
-35.019560 -28.661048 -27.108109 52.751065 0.685878 2.110507 0.056245 -0.019008 692801.000000 0 0 1
-35.570408 -27.917948 -28.206599 53.294259 0.665444 2.128526 0.062639 -0.028807 763572.000000 0 0 1
-37.108446 -28.104748 -28.432129 54.546307 0.648200 2.119108 0.058480 -0.031556 975008.000000 0 0 1
-37.935236 -27.491048 -27.422569 54.284779 0.627101 2.100365 0.059800 -0.023170 448577.000000 0 0 1
36.768751 -27.747748 -27.825979 53.816017 -0.646474 2.114206 0.071955 -0.026093 543582.000000 0 0 1
35.777131 -27.033648 -26.866719 52.274677 -0.647083 2.110583 0.076070 -0.022182 -137629.000000 0 0 1
35.613201 -27.712148 -25.673869 51.917346 -0.661270 2.088072 0.069658 -0.022147 377215.000000 0 0 1
34.659831 -27.009348 -24.877779 50.494679 -0.661972 2.085964 0.085193 -0.011960 248565.000000 0 0 1
34.295951 -27.645548 -23.576179 49.963234 -0.678442 2.062208 0.068066 -0.002812 85867.300000 0 0 1
33.685121 -28.932348 -23.629379 50.300255 -0.709642 2.059823 0.098722 -0.012992 -101741.000000 0 0 1
33.149671 -29.441148 -22.431579 49.687600 -0.726217 2.039189 0.109487 -0.004641 -836325.000000 0 0 1
33.805361 -29.490648 -21.086179 49.569423 -0.717336 2.010186 0.089483 -0.000828 -1501480.000000 0 0 1
34.959891 -30.249248 -21.010879 50.780587 -0.713284 1.997375 0.058056 -0.001541 -332006.000000 0 0 1
35.778001 -30.043948 -19.877379 50.772181 -0.698503 1.973059 0.022454 0.010651 512612.000000 0 0 1
36.769491 -28.832048 -19.966779 50.812939 -0.664989 1.974630 0.019956 0.003745 -83709.400000 0 0 1
36.161101 -27.558748 -19.806579 49.592443 -0.651207 1.981644 0.023536 0.017558 192027.000000 0 0 1
36.836791 -26.630648 -20.636879 49.920150 -0.625954 1.996979 0.011205 0.010324 -309683.000000 0 0 1
36.152151 -25.270548 -20.635179 48.696912 -0.610058 2.008375 0.021252 0.013601 -563346.000000 0 0 1
34.946651 -25.409248 -21.323279 48.182782 -0.628675 2.029236 0.038396 0.008624 -768009.000000 0 0 1
33.926761 -24.798048 -20.563379 46.784836 -0.631183 2.025873 0.055716 -0.001497 550173.000000 0 0 1
32.565871 -24.659248 -21.374479 46.102959 -0.648100 2.052878 0.087835 -0.012751 953481.000000 0 0 1
31.943951 -25.947848 -21.444679 46.406692 -0.682192 2.051162 0.111302 -0.018516 -343336.000000 0 0 1
30.740091 -25.883548 -22.147179 45.884734 -0.699839 2.074497 0.117350 -0.025864 -158950.000000 0 0 1
30.124291 -27.254548 -22.502179 46.439545 -0.735426 2.076642 0.127740 -0.027669 22648.800000 0 0 1
29.907691 -28.024648 -21.343479 46.210334 -0.752905 2.050906 0.135145 -0.024890 314559.000000 0 0 1
29.166691 -29.237548 -21.642779 46.625529 -0.786611 2.053508 0.132456 -0.022692 171182.000000 0 0 1
28.644291 -29.765548 -20.282479 46.020237 -0.804592 2.027208 0.154205 -0.015510 176788.000000 0 0 1
29.552091 -30.357148 -19.336979 46.570391 -0.798835 1.998981 0.148399 -0.014020 508236.000000 0 0 1
30.184791 -31.615148 -19.757279 47.968628 -0.808539 1.995312 0.155881 -0.001705 325895.000000 0 0 1
30.851591 -32.337448 -18.600779 48.409918 -0.808908 1.965175 0.129152 -0.001415 -42456.700000 0 0 1
29.986791 -32.828748 -17.580879 47.812359 -0.830610 1.947337 0.134019 -0.006658 -104262.000000 0 0 1
29.780091 -31.925348 -16.548279 46.689691 -0.820150 1.933102 0.121528 -0.012088 254798.000000 0 0 1
28.812091 -32.541348 -15.480779 46.138167 -0.846107 1.912965 0.106442 -0.010404 151102.000000 0 0 1
27.449991 -32.627048 -15.844779 45.487177 -0.871359 1.926591 0.131376 -0.017583 130493.000000 0 0 1
26.841791 -33.360448 -14.771179 45.294470 -0.893257 1.902987 0.109226 -0.016022 394927.000000 0 0 1
25.297491 -33.323748 -14.581479 44.306374 -0.921469 1.906153 0.121805 -0.013585 365867.000000 0 0 1
24.833291 -32.095148 -14.177779 42.986048 -0.912274 1.906912 0.115267 -0.011739 438997.000000 0 0 1
23.412191 -32.012248 -14.250879 42.142642 -0.939338 1.915755 0.102889 -0.023180 313705.000000 0 0 1
-0.055306 -6.859948 -29.110729 29.908134 1.562734 2.910157 0.144392 -0.044883 8911.770000 0 0 1
0.138494 -8.260648 -29.020369 30.173487 -1.554032 2.864240 0.137385 -0.035171 -35327.000000 0 0 1
-0.014806 -8.871348 -30.243959 31.518219 1.569127 2.856269 0.156677 -0.055476 -187092.000000 0 0 1
0.237994 -10.420948 -30.191079 31.939851 -1.547962 2.809150 0.174957 -0.044350 -783899.000000 0 0 1
1.554394 -10.671048 -29.843209 31.731759 -1.426149 2.794848 0.104307 -0.047741 -776855.000000 0 0 1
1.751394 -11.907348 -29.192199 31.575890 -1.424758 2.750542 0.130565 -0.052585 906932.000000 0 0 1
3.232794 -12.177248 -28.705239 31.348478 -1.311304 2.727998 0.105964 -0.034473 825573.000000 0 0 1
4.144294 -12.292548 -29.818359 32.517940 -1.245625 2.731244 0.112150 -0.041464 882669.000000 0 0 1
5.505494 -12.383048 -29.376739 32.351865 -1.152443 2.709374 0.109302 -0.040842 914934.000000 0 0 1
6.003894 -13.804248 -28.849199 32.540441 -1.160544 2.660661 0.121308 -0.045328 -628521.000000 0 0 1
5.389794 -14.284448 -27.664949 31.598176 -1.209994 2.637315 0.116622 -0.035010 -158802.000000 0 0 1
6.110794 -15.276048 -27.017489 31.632960 -1.190269 2.594601 0.125037 -0.030971 -352810.000000 0 0 1
5.851094 -16.704248 -27.562259 32.755844 -1.233876 2.570749 0.102385 -0.030796 84079.600000 0 0 1
6.391794 -17.074348 -28.832359 34.112950 -1.212595 2.577741 0.117655 -0.045315 184919.000000 0 0 1
6.061194 -18.421048 -29.122449 34.988429 -1.252918 2.554122 0.106404 -0.044047 -205513.000000 0 0 1
6.301594 -18.999648 -30.551429 36.525149 -1.250544 2.561568 0.116817 -0.056672 157311.000000 0 0 1
7.673094 -19.224548 -30.852199 37.152629 -1.191040 2.550653 0.116500 -0.048255 306129.000000 0 0 1
7.980794 -19.718848 -32.142039 38.543958 -1.186220 2.556944 0.121491 -0.043716 476524.000000 0 0 1
9.496994 -19.858648 -32.477219 39.234278 -1.124716 2.545930 0.112240 -0.038499 655415.000000 0 0 1
10.233094 -18.646148 -32.614079 38.936785 -1.068871 2.563701 0.131900 -0.040666 309112.000000 0 0 1
11.179494 -18.694948 -33.665089 40.097636 -1.031852 2.567302 0.116692 -0.042844 -183595.000000 0 0 1
11.584894 -17.248448 33.345079 39.288841 -0.979353 0.557243 0.119408 -0.036577 192728.000000 0 0 1
10.615794 -16.744748 32.415310 37.997815 -1.005767 0.548930 0.133463 -0.034502 582474.000000 0 0 1
10.689694 -15.348048 32.142004 37.187908 -0.962433 0.527013 0.128746 -0.027812 -9188.760000 0 0 1
9.624294 -14.926648 31.091549 35.806651 -0.998105 0.518996 0.173401 -0.043201 268587.000000 0 0 1
9.816394 -15.315248 29.729619 34.853531 -1.000806 0.549114 0.170468 -0.041659 -33827.500000 0 0 1
8.673494 -14.946248 28.987059 33.747139 -1.044979 0.537583 0.164385 -0.042478 49842.900000 0 0 1
8.566294 -15.763448 27.679839 32.985469 -1.073013 0.575073 0.122898 -0.027374 -376506.000000 0 0 1
8.283994 -17.100648 27.815079 33.685833 -1.119686 0.599318 0.116244 -0.031512 223794.000000 0 0 1
8.433694 -17.787548 26.574339 33.071431 -1.128054 0.637572 0.097816 -0.030508 -46998.000000 0 0 1
8.210494 -19.326248 26.699469 33.967303 -1.169064 0.666429 0.101992 -0.042208 -130180.000000 0 0 1
9.038694 -19.880348 27.686339 35.262722 -1.144078 0.667867 0.115410 -0.037048 162290.000000 0 0 1
8.611894 -21.158548 28.132989 36.239673 -1.184255 0.682016 0.094383 -0.043062 -314158.000000 0 0 1
8.844394 -21.268948 29.706769 37.591004 -1.176713 0.659559 0.106925 -0.046363 -26115.300000 0 0 1
8.085994 -20.582348 30.699229 37.834627 -1.196460 0.624243 0.129499 -0.049706 157232.000000 0 0 1
8.114194 -19.167948 30.531279 36.951446 -1.170349 0.598372 0.131056 -0.045394 -123244.000000 0 0 1
7.545394 -18.452148 31.764950 37.502357 -1.182627 0.560457 0.131082 -0.042971 -542447.000000 0 0 1
6.180894 -18.559848 32.009899 37.514064 -1.249323 0.548558 0.145261 -0.056737 -569475.000000 0 0 1
5.733394 -17.554248 32.945020 37.767681 -1.255109 0.510895 0.158296 -0.048085 -862382.000000 0 0 1
4.273594 -17.583548 33.311169 37.908821 -1.332374 0.497626 0.161206 -0.050287 -973358.000000 0 0 1
3.989394 -18.699748 -33.276749 38.378873 -1.360608 2.620065 0.128159 -0.054303 322002.000000 0 0 1
3.008894 -18.329848 -32.304059 37.263776 -1.408095 2.619751 0.119127 -0.064589 -23307.800000 0 0 1
2.464494 -19.455048 -31.396609 37.017829 -1.444791 2.583276 0.087754 -0.041602 -451984.000000 0 0 1
1.583894 -20.356548 -32.071319 38.019302 -1.493145 2.574663 0.064528 -0.038001 244163.000000 0 0 1
0.882094 -21.218848 -31.219749 37.758315 -1.529249 2.544246 0.069793 -0.041360 643456.000000 0 0 1
-0.162006 -20.616748 -30.178609 36.548940 1.562938 2.542246 0.081114 -0.046239 117375.000000 0 0 1
-1.235806 -19.956248 -30.837549 36.752326 1.508950 2.566357 0.093859 -0.052708 -41064.400000 0 0 1
-2.026106 -19.169748 -29.980089 35.642532 1.465494 2.570170 0.133372 -0.040878 -316363.000000 0 0 1
-1.686806 -17.660748 -29.842179 34.717474 1.475574 2.605228 0.127153 -0.036033 -409093.000000 0 0 1
-2.654406 -16.703348 -29.442339 33.954367 1.413200 2.620177 0.158175 -0.038768 -227714.000000 0 0 1
-2.151306 -15.366348 -29.586299 33.408111 1.431699 2.658586 0.165873 -0.044196 -148687.000000 0 0 1
-3.191806 -14.309948 -29.201269 32.675317 1.351341 2.676276 0.142165 -0.029350 24705.900000 0 0 1
-3.244706 -14.091048 -27.796619 31.332695 1.344474 2.661916 0.126566 -0.034446 541858.000000 0 0 1
-4.216506 -13.055448 -27.547629 30.774917 1.258402 2.679525 0.112348 -0.037904 404927.000000 0 0 1
-4.310606 -12.724548 -26.001069 29.266893 1.244167 2.664671 0.114073 -0.034901 -351925.000000 0 0 1
-4.798206 -13.755048 -25.197009 29.105213 1.235162 2.617386 0.130191 -0.038460 159844.000000 0 0 1
-4.935806 -13.549048 -23.793879 27.822429 1.221447 2.596742 0.112786 -0.041998 130033.000000 0 0 1
-6.130606 -12.639948 -23.383679 27.279096 1.119206 2.600607 0.101862 -0.042353 888625.000000 0 0 1
-7.445606 -13.204348 -23.597579 28.047061 1.057363 2.570585 0.108712 -0.044465 402661.000000 0 0 1
-8.348906 -12.162148 -23.294679 27.572888 0.969211 2.577062 0.093509 -0.039803 765068.000000 0 0 1
-9.827506 -12.583048 -23.671279 28.552451 0.907741 2.548195 0.123255 -0.051639 1011540.000000 0 0 1
-10.368906 -13.552148 -22.762779 28.448533 0.917694 2.498323 0.091650 -0.050440 53187.200000 0 0 1
-11.647406 -13.970048 -23.217479 29.493655 0.875817 2.477056 0.086269 -0.041103 267457.000000 0 0 1
-12.201906 -15.139248 -22.340479 29.617231 0.892421 2.425394 0.083873 -0.037547 310219.000000 0 0 1
-11.501806 -16.397248 -22.556979 30.165852 0.959100 2.415486 0.083539 -0.039829 128738.000000 0 0 1
-12.176406 -17.528748 -21.995479 30.648377 0.963668 2.371250 0.097386 -0.041325 169446.000000 0 0 1
-13.157406 -18.277048 -22.900279 32.118385 0.946848 2.364558 0.089423 -0.033701 -366815.000000 0 0 1
-14.314906 -17.618948 -23.296279 32.527842 0.888496 2.369131 0.077000 -0.026303 -1206520.000000 0 0 1
-15.149906 -18.421348 -24.026779 33.854865 0.882539 2.359868 0.036744 -0.031176 -327133.000000 0 0 1
-16.236206 -17.619248 -24.739579 34.439789 0.826227 2.372214 0.067580 -0.032655 40541.700000 0 0 1
-17.341106 -17.122948 -24.004479 34.207080 0.779068 2.348633 0.067740 -0.028050 470299.000000 0 0 1
-18.316406 -16.646748 -24.945179 35.140674 0.737680 2.360105 0.053218 -0.022446 311568.000000 0 0 1
-19.133106 -15.452848 -24.456879 34.684366 0.679388 2.353398 0.072326 -0.027343 -72429.700000 0 0 1
-20.089206 -15.744348 -23.437279 34.652082 0.664736 2.313606 0.061578 -0.022333 223764.000000 0 0 1
-20.718306 -14.484748 -23.174579 34.294566 0.610140 2.312779 0.076165 -0.026675 234797.000000 0 0 1
-21.494306 -14.503548 -21.827179 33.893714 0.593586 2.270497 0.064189 -0.032873 353118.000000 0 0 1
-20.552706 -14.395748 -20.725879 32.545558 0.611015 2.261172 0.077550 -0.026751 554648.000000 0 0 1
-20.959306 -14.568648 -19.391779 32.055875 0.607424 2.220483 0.069658 -0.026318 -535899.000000 0 0 1
-21.454906 -13.345248 -18.622579 31.388041 0.556449 2.205951 0.071973 -0.027228 -43260.800000 0 0 1
-22.694906 -12.860148 -19.091279 32.325209 0.515539 2.202599 0.071226 -0.032739 5315.140000 0 0 1
-23.184506 -11.812048 -18.312779 31.818292 0.471203 2.184064 0.069383 -0.025871 868887.000000 0 0 1
-24.673706 -11.413648 -18.631979 32.957758 0.433269 2.171628 0.080936 -0.027355 783998.000000 0 0 1
-24.811306 -10.611548 -19.795779 33.467578 0.404147 2.203703 0.059599 -0.026097 583541.000000 0 0 1
-26.167926 -10.158548 -19.891479 34.403887 0.370298 2.187287 0.088785 -0.029594 318184.000000 0 0 1
-26.452736 -9.284848 -21.139179 35.111545 0.337563 2.216872 0.089766 -0.028129 -498719.000000 0 0 1
-26.550696 -10.039648 -22.359079 36.133951 0.361513 2.237989 0.072129 -0.026230 341747.000000 0 0 1
-27.033696 -9.077548 -23.279179 36.812264 0.323957 2.255412 0.057606 -0.027032 -250230.000000 0 0 1
-27.041536 -9.473548 -24.771179 37.876168 0.336972 2.283662 0.054420 -0.009021 54692.300000 0 0 1
-25.841776 -9.403848 -25.515319 37.513481 0.349005 2.318783 0.042895 -0.018366 -62352.700000 0 0 1
-25.300086 -10.670948 -25.759059 37.649603 0.399136 2.324273 0.034602 -0.003932 -325308.000000 0 0 1
-24.425206 -10.748448 -27.039699 37.990330 0.414553 2.362786 0.053660 -0.016306 -322812.000000 0 0 1
-25.010166 -10.554748 -28.306639 39.219599 0.399342 2.377120 0.054814 -0.005292 129958.000000 0 0 1
-24.052406 -10.317648 -29.358699 39.330717 0.405225 2.413518 0.072832 -0.004329 350102.000000 0 0 1
-24.559506 -10.661248 -30.759649 40.779745 0.409552 2.425364 0.069874 -0.002385 119067.000000 0 0 1
-25.618746 -9.838748 -31.215429 41.563495 0.366677 2.420417 0.060258 -0.007223 60225.700000 0 0 1
-25.162236 -8.755348 -31.999379 41.638378 0.334853 2.447301 0.056685 -0.014723 -1298310.000000 0 0 1
-26.254776 -7.884448 -32.602409 42.595714 0.291737 2.442446 0.061983 -0.026320 -1136330.000000 0 0 1
-27.098076 -8.577348 -33.537199 43.961578 0.306552 2.438545 0.071777 -0.022546 1106210.000000 0 0 1
-28.199126 -9.232048 -32.887619 44.294660 0.316390 2.407552 0.058096 -0.016619 -159325.000000 0 0 1
-29.301126 -8.374448 -32.233989 44.358961 0.278385 2.384247 0.044732 -0.004990 -1012850.000000 0 0 1
-30.621856 -8.873848 -32.241409 45.342604 0.282062 2.361804 0.051640 -0.001963 -296098.000000 0 0 1
-31.362026 -8.043548 -31.399729 45.102310 0.251063 2.340871 0.061672 0.000488 -977569.000000 0 0 1
-32.824706 -8.438748 -31.510059 46.276967 0.251636 2.319789 0.061099 -0.000383 -824355.000000 0 0 1
-33.013316 -9.814848 -31.134229 46.427907 0.288978 2.305804 0.055000 0.000229 504152.000000 0 0 1
-34.378924 -10.217648 -31.170319 47.517361 0.288892 2.286273 0.055026 0.000526 294329.000000 0 0 1
-34.610311 -11.752648 -31.206879 48.061083 0.327354 2.277482 0.053358 -0.003634 -499406.000000 0 0 1
-35.934419 -12.194748 -31.303119 49.192272 0.327166 2.260544 0.062888 -0.006439 -358619.000000 0 0 1
-35.941018 -13.626648 -31.315489 49.579252 0.362395 2.254444 0.061963 -0.011600 878319.000000 0 0 1
-37.262446 -14.388748 -30.889229 50.494262 0.368507 2.229051 0.071699 -0.012688 860302.000000 0 0 1
-37.706496 -14.176348 -29.569079 49.970783 0.359617 2.203996 0.100449 -0.014961 12546.800000 0 0 1
37.957951 -15.354148 -28.866269 50.098078 -0.384383 2.184862 0.104853 -0.013971 -2313.020000 0 0 1
-37.822666 -15.291848 -27.372929 49.129136 0.384211 2.161762 0.126914 -0.013162 926864.000000 0 0 1
-36.430906 -15.211648 -27.005999 47.832303 0.395542 2.170742 0.104478 -0.018964 965888.000000 0 0 1
-36.388736 -15.120348 -25.592629 46.986676 0.393816 2.146802 0.139315 -0.027232 -116824.000000 0 0 1
-34.953595 -14.930048 -25.114379 45.556473 0.403681 2.154694 0.145909 -0.029192 -27879.500000 0 0 1
-33.961102 -15.873148 -25.462379 45.317172 0.437223 2.167441 0.127311 -0.029838 1040820.000000 0 0 1
-32.670876 -15.639948 -24.848479 43.925403 0.446473 2.172075 0.124472 -0.018809 1382400.000000 0 0 1
-31.588306 -16.678948 -25.232609 43.734346 0.485804 2.185788 0.110805 -0.033122 164629.000000 0 0 1
-31.585306 -17.840648 -24.375979 43.704790 0.514165 2.162459 0.128237 -0.047121 125769.000000 0 0 1
-32.363166 -18.940748 -24.858679 44.989781 0.529508 2.156206 0.114449 -0.047881 157407.000000 0 0 1
-32.112156 -20.281148 -24.074379 44.967669 0.563312 2.135743 0.108059 -0.045143 210192.000000 0 0 1
-30.788526 -20.740048 -24.268979 44.351621 0.592807 2.149805 0.107264 -0.034130 -40066.000000 0 0 1
-30.729926 -21.968148 -23.591079 44.536131 0.620642 2.129051 0.107592 -0.032560 146419.000000 0 0 1
-29.353106 -22.725048 -23.685479 44.034471 0.658807 2.138723 0.102673 -0.036742 1198800.000000 0 0 1
-28.247256 -22.144048 -22.974079 42.615428 0.664869 2.140167 0.118657 -0.031818 407970.000000 0 0 1
-28.384566 -22.138748 -21.539579 41.949508 0.662400 2.110014 0.140019 -0.039351 -520442.000000 0 0 1
-28.386046 -23.474648 -20.733779 42.269568 0.690976 2.083475 0.132222 -0.033683 33459.700000 0 0 1
-28.446976 -23.200548 -19.393879 41.516484 0.684164 2.056846 0.125030 -0.029031 -24929.400000 0 0 1
-28.471196 -24.396048 -18.600479 41.853961 0.708468 2.031316 0.117808 -0.016700 -5372.690000 0 0 1
-28.590136 -24.067348 -17.116379 41.104788 0.699718 2.000288 0.098608 -0.012563 817563.000000 0 0 1
-29.857076 -23.529748 -16.695979 41.519270 0.667430 1.984634 0.104166 -0.009027 639687.000000 0 0 1
-29.676356 -22.499648 -15.721179 40.423703 0.648708 1.970244 0.093785 -0.015453 279140.000000 0 0 1
-30.987736 -21.737648 -15.386679 40.859700 0.611727 1.956891 0.097318 0.000562 109039.000000 0 0 1
-31.438596 -20.868748 -16.384679 41.138154 0.586011 1.980442 0.118884 -0.012028 285355.000000 0 0 1
-32.591666 -20.157748 -15.943279 41.505899 0.553907 1.965052 0.113821 -0.012192 -34825.900000 0 0 1
-33.211496 -19.293648 -17.026879 42.013843 0.526282 1.988069 0.132679 -0.040837 -607890.000000 0 0 1
-34.171041 -19.974148 -17.794679 43.396743 0.528970 1.993301 0.076087 -0.036034 -316644.000000 0 0 1
-34.643841 -19.109948 -18.840579 43.821836 0.504080 2.015218 0.085651 -0.029453 -687311.000000 0 0 1
-36.020716 -19.622748 -19.285179 45.326178 0.498813 2.010284 0.063574 -0.028139 657184.000000 0 0 1
-37.186256 -19.376848 -18.455679 45.813666 0.480366 1.985416 0.064236 -0.022034 989415.000000 0 0 1
-37.224546 -20.083848 -17.212079 45.664904 0.494771 1.957267 0.083827 -0.029311 -821496.000000 0 0 1
-37.623316 -21.588348 -17.332679 46.711802 0.520934 1.950942 0.068467 0.005878 366232.000000 0 0 1
37.029121 -21.840348 -17.351479 46.359793 -0.532897 1.954415 0.067285 -0.019492 494876.000000 0 0 1
36.765571 -23.207248 -17.416079 46.835920 -0.563061 1.951801 0.068545 -0.013741 -705795.000000 0 0 1
35.391541 -23.489148 -16.864679 45.702502 -0.585942 1.948740 0.053670 -0.012740 -289267.000000 0 0 1
34.233961 -23.106048 -17.635379 44.909466 -0.593712 1.974348 0.055331 -0.020000 1061060.000000 0 0 1
33.136201 -23.667048 -16.898879 44.087516 -0.620216 1.964166 0.076660 -0.015408 298896.000000 0 0 1
31.782881 -23.752248 -17.635079 43.420235 -0.641789 1.989032 0.086444 -0.033560 263048.000000 0 0 1
31.183981 -22.470048 -17.941379 42.417412 -0.624394 2.007519 0.061878 -0.031777 1632160.000000 0 0 1
29.824391 -22.676348 -18.414779 41.747038 -0.650079 2.027625 0.098499 -0.038304 645859.000000 0 0 1
36.646451 28.563852 -17.727779 49.730575 0.662080 1.935290 0.071970 -0.024003 -117238.000000 0 0 1
35.605161 28.651752 -18.681179 49.372430 0.677605 1.958834 0.080401 -0.030917 278908.000000 0 0 1
36.158471 28.399752 -19.969279 50.127368 0.665790 1.980536 0.089613 -0.033359 217637.000000 0 0 1
35.289351 28.801952 -21.225779 50.253601 0.684521 2.006858 0.111258 -0.030263 -654640.000000 0 0 1
34.307091 27.837352 -21.505279 49.136256 0.681664 2.023798 0.102892 -0.024773 177078.000000 0 0 1
33.463891 28.083652 -22.598279 49.185422 0.698204 2.048173 0.109019 -0.014423 112969.000000 0 0 1
32.397321 29.186552 -22.537479 49.085427 0.733309 2.047832 0.114283 -0.012984 -641088.000000 0 0 1
33.019531 30.446352 -22.391979 50.186357 0.744876 2.033285 0.110980 -0.017779 -214415.000000 0 0 1
32.082221 31.463852 -22.571979 50.286550 0.775667 2.036293 0.122347 -0.011158 -492613.000000 0 0 1
32.596171 32.880452 -22.164479 51.331263 0.789740 2.017276 0.126503 -0.009584 49510.400000 0 0 1
32.781251 32.953952 -20.746679 50.901847 0.788025 1.990601 0.129145 -0.009892 -602548.000000 0 0 1
34.031311 32.526452 -20.329979 51.277756 0.762792 1.978462 0.126768 -0.010046 -1071030.000000 0 0 1
34.284111 32.666652 -18.809579 50.954005 0.761244 1.948889 0.099348 -0.011382 -168604.000000 0 0 1
34.330581 -33.473448 -18.431979 51.369236 -0.772758 1.937793 0.100092 -0.005491 226322.000000 0 0 1
34.499151 -33.250948 -17.040379 50.854611 -0.766977 1.912487 0.066417 -0.017120 -314538.000000 0 0 1
34.546851 -31.712648 -16.611179 49.750460 -0.742650 1.911224 0.070895 0.007458 -414141.000000 0 0 1
35.703261 -31.021748 -16.966379 50.248679 -0.715352 1.915214 0.066721 -0.002874 -105401.000000 0 0 1
36.691551 -31.035348 -15.917479 50.624390 -0.702077 1.890645 0.067379 -0.004442 -159588.000000 0 0 1
38.017161 -30.392748 -16.284779 51.324630 -0.674404 1.893667 0.051221 0.002893 -493422.000000 0 0 1
-37.307586 -31.179948 -17.224179 51.582143 0.696165 1.911253 0.055883 0.001056 227440.000000 0 0 1
-36.017686 -30.589348 -17.405579 50.358079 0.704080 1.923713 0.046556 0.004504 438531.000000 0 0 1
-35.121905 -31.328648 -18.390479 50.529617 0.728376 1.943306 0.050780 -0.007168 -1193970.000000 0 0 1
-34.426562 -32.390148 -17.874279 50.535134 0.754930 1.932320 0.060872 -0.014075 419157.000000 0 0 1
-33.490636 -33.006848 -18.816179 50.647047 0.778123 1.951437 0.061179 -0.008595 1314380.000000 0 0 1
-32.126926 -32.252348 -18.968179 49.316784 0.787346 1.965592 0.070860 -0.015795 -962473.000000 0 0 1
-32.260356 -31.132048 -19.806279 49.012485 0.767601 1.986798 0.071939 -0.013283 980158.000000 0 0 1
-31.068426 -30.570248 -20.452579 48.146601 0.777316 2.009535 0.073179 -0.016433 1185840.000000 0 0 1
-30.058826 -31.560348 -21.127879 48.435275 0.809761 2.022177 0.068450 -0.012095 -258045.000000 0 0 1
-30.712696 -32.333048 -22.120679 49.779717 0.811094 2.031269 0.054094 -0.005856 110202.000000 0 0 1
-29.946326 -33.442048 -22.635679 50.274517 0.840490 2.037832 0.050498 -0.009777 149718.000000 0 0 1
-30.645716 33.291952 -23.785279 51.119991 -0.826762 2.054751 0.043396 -0.018074 -70186.300000 0 0 1
-31.766206 32.561852 -23.305879 51.112915 -0.797766 2.044256 0.051717 -0.031377 174326.000000 0 0 1
-32.345846 31.783652 -24.376679 51.484724 -0.776632 2.064027 0.051495 -0.023405 101954.000000 0 0 1
-33.382186 32.383452 -25.309399 52.949259 -0.770213 2.069165 0.063048 -0.036822 -555662.000000 0 0 1
-32.863096 33.161052 -26.388139 53.628093 -0.789911 2.085249 0.049952 -0.026335 47163.500000 0 0 1
-33.921706 -33.539848 -26.955339 54.792280 0.779738 2.085130 0.051555 -0.024577 458619.000000 0 0 1
-33.531486 -32.476648 -27.982889 54.425503 0.769419 2.110813 0.046921 -0.022521 108077.000000 0 0 1
-33.004976 -32.876648 -29.272019 55.018666 0.783450 2.131802 0.052199 -0.025535 500635.000000 0 0 1
-34.019733 -33.299948 -30.184449 56.367808 0.774707 2.135885 0.073627 -0.026705 49718.100000 0 0 1
-33.469466 33.385652 -31.284859 56.688176 -0.784144 2.155409 0.090173 -0.033031 -229889.000000 0 0 1
-32.695726 -33.510148 -32.285509 56.870860 0.797699 2.174504 0.070316 -0.041146 45758.600000 0 0 1
-33.032846 33.310852 -33.509959 57.651532 -0.789589 2.191060 0.088264 -0.042169 -176043.000000 0 0 1
-32.200376 33.743152 32.641499 56.929184 -0.808789 0.960183 0.093167 -0.045566 774386.000000 0 0 1
-30.845236 33.292652 32.634261 55.900127 -0.823538 0.947400 0.092943 -0.041425 405033.000000 0 0 1
-30.709876 31.902152 32.381761 54.858201 -0.804438 0.939389 0.112905 -0.042008 -1143850.000000 0 0 1
-29.255426 31.473352 32.261790 53.733369 -0.821904 0.926789 0.115907 -0.039058 -305750.000000 0 0 1
-28.647846 31.345652 33.581289 54.138267 -0.830336 0.901687 0.124375 -0.045993 -181323.000000 0 0 1
-27.309766 30.943152 33.604429 53.221796 -0.847690 0.887435 0.128386 -0.041187 -567650.000000 0 0 1
-26.860036 29.453252 33.408579 52.010467 -0.831415 0.873244 0.147641 -0.039284 -277386.000000 0 0 1
-27.131986 28.633752 -32.843389 51.329569 -0.812322 2.265104 0.141397 -0.031636 359787.000000 0 0 1
-26.713646 27.297052 -33.149549 50.573121 -0.796199 2.285611 0.143107 -0.021074 -340699.000000 0 0 1
-26.468176 26.447952 -31.891439 49.164239 -0.785016 2.276634 0.152986 -0.024615 481139.000000 0 0 1
-25.250866 26.668852 -31.170339 48.170779 -0.812702 2.274544 0.137359 -0.022828 337104.000000 0 0 1
-25.149406 27.900952 -30.484759 48.376402 -0.837218 2.252553 0.120811 -0.025304 -85235.800000 0 0 1
-23.815606 28.087052 -29.737779 47.332875 -0.867510 2.250123 0.145377 -0.026337 -289542.000000 0 0 1
-22.632206 28.105752 -30.496659 47.246124 -0.892861 2.272454 0.140289 -0.021269 531123.000000 0 0 1
-21.373106 28.031052 -29.830539 46.178032 -0.919356 2.273116 0.108905 -0.017068 847546.000000 0 0 1
-21.064906 29.154752 -28.738999 46.039764 -0.945115 2.244931 0.082648 -0.010851 -875214.000000 0 0 1
-20.662106 30.405152 -29.326669 47.026050 -0.973921 2.244169 0.080112 -0.003216 168428.000000 0 0 1
-20.269906 31.406052 -28.396619 46.942275 -0.997652 2.220470 0.088176 -0.014918 84028.700000 0 0 1
-19.893306 32.672852 -29.176869 48.109755 -1.023885 2.222403 0.094068 -0.009847 -117580.000000 0 0 1
-18.705806 32.708352 -29.927639 48.118677 -1.051297 2.242033 0.084885 -0.010519 -382832.000000 0 0 1
-18.613506 -33.740948 -30.852649 49.363956 1.066680 2.245932 0.088278 -0.011689 53624.300000 0 0 1
-17.140906 -33.573348 -31.310129 49.003108 1.098744 2.263918 0.075430 -0.008689 -719462.000000 0 0 1
-16.404306 -32.948048 -30.283419 47.662990 1.108843 2.259278 0.090350 -0.021736 1577500.000000 0 0 1
-14.978006 -32.758748 -30.566779 47.241975 1.141953 2.274474 0.111462 -0.021610 2006110.000000 0 0 1
-14.135606 33.467052 -30.679069 47.550649 -1.171152 2.272065 0.116842 -0.020995 -980931.000000 0 0 1
-14.208606 32.609652 -29.555509 46.247184 -1.159883 2.264094 0.117089 -0.022256 -250308.000000 0 0 1
-13.358106 31.507052 -29.656999 45.284334 -1.169797 2.284855 0.090855 -0.019359 -120892.000000 0 0 1
-13.382106 30.491752 -28.480609 43.817494 -1.157231 2.278358 0.073185 -0.025375 103179.000000 0 0 1
-12.652206 31.045752 -27.375849 43.282261 -1.183812 2.255568 0.097231 -0.020063 129402.000000 0 0 1
-12.532906 30.136652 -26.336049 41.938991 -1.176685 2.249727 0.078382 -0.033314 -501328.000000 0 0 1
-11.559806 30.550352 -25.236869 41.277750 -1.209061 2.228614 0.107290 -0.030666 -439194.000000 0 0 1
-10.263506 30.162652 -25.611619 40.878847 -1.242814 2.247883 0.116023 -0.026884 -682917.000000 0 0 1
-9.334106 30.798752 -24.762679 40.606390 -1.276528 2.226633 0.127317 -0.034033 787770.000000 0 0 1
-7.816406 30.622852 -25.123789 40.374002 -1.320885 2.242444 0.127466 -0.040421 796914.000000 0 0 1
-7.378806 29.307552 -24.723279 39.046381 -1.324151 2.256448 0.115721 -0.051649 -308523.000000 0 0 1
-6.065806 29.090252 -25.162339 38.938157 -1.365225 2.273408 0.110613 -0.064596 -274226.000000 0 0 1
-5.397006 27.817652 -24.593279 37.520378 -1.379163 2.285594 0.130231 -0.027783 303830.000000 0 0 1
-6.111206 26.622852 -24.957079 36.999715 -1.345158 2.311112 0.141387 -0.025847 476147.000000 0 0 1
-5.516806 25.564352 -24.208379 35.637296 -1.358255 2.317603 0.141164 -0.036249 393694.000000 0 0 1
-6.377206 24.222352 -24.180979 34.815382 -1.313361 2.338589 0.137041 -0.035328 214168.000000 0 0 1
-6.396306 23.471152 -25.361379 35.142670 -1.304739 2.377007 0.135276 -0.034066 174483.000000 0 0 1
-7.130606 22.276252 -25.244789 34.414769 -1.261004 2.394320 0.122261 -0.041746 -260667.000000 0 0 1
-7.324006 21.361852 -26.481449 34.802829 -1.240501 2.435494 0.103850 -0.027252 376590.000000 0 0 1
-6.187306 20.532052 -26.722469 34.262782 -1.278103 2.465345 0.127070 -0.047531 266587.000000 0 0 1
-6.122106 19.425752 -25.838629 32.900984 -1.265495 2.474050 0.122634 -0.042850 763694.000000 0 0 1
-4.850106 18.510652 -26.120649 32.379871 -1.314540 2.509333 0.134262 -0.047621 826698.000000 0 0 1
-4.716806 17.866152 -27.344609 33.002656 -1.312678 2.547323 0.130999 -0.053735 -38999.800000 0 0 1
-3.599106 16.996452 -27.290009 32.350851 -1.362123 2.574682 0.126807 -0.050110 -74749.300000 0 0 1
-3.243506 16.604352 -28.743629 33.352977 -1.377885 2.609606 0.115721 -0.038335 -486830.000000 0 0 1
-2.636906 17.634652 -29.406339 34.389926 -1.422366 2.596513 0.129291 -0.042092 -182400.000000 0 0 1
-2.371406 17.357452 -30.766699 35.404724 -1.435015 2.623974 0.123521 -0.046625 101155.000000 0 0 1
-1.583906 18.550352 -31.425829 36.526799 -1.485619 2.606752 0.126650 -0.034183 650904.000000 0 0 1
-0.232106 18.662652 -30.960159 36.150794 -1.558360 2.599086 0.141230 -0.039744 541549.000000 0 0 1
0.425794 19.791652 -31.517079 37.218504 1.549286 2.580759 0.148125 -0.029841 281907.000000 0 0 1
0.430694 21.086252 -30.656849 37.210992 1.550374 2.538994 0.131667 -0.031332 -8988.290000 0 0 1
1.410294 21.006752 -29.651329 36.365834 1.503762 2.524151 0.155612 -0.048569 -39229.200000 0 0 1
1.007494 21.882252 -28.623459 36.043729 1.524787 2.488373 0.152153 -0.056306 -483181.000000 0 0 1
2.072694 22.023352 -27.600599 35.371134 1.476959 2.465964 0.168712 -0.055072 -462843.000000 0 0 1
3.149994 22.819952 -28.024309 36.277191 1.433626 2.453573 0.130992 -0.049485 -315286.000000 0 0 1
4.350094 22.595952 -27.333009 35.729452 1.380607 2.441837 0.142114 -0.051563 -529764.000000 0 0 1
5.212394 23.761852 -27.053649 36.382614 1.354857 2.409216 0.145113 -0.045979 -786816.000000 0 0 1
5.889094 24.208852 -28.195369 37.626171 1.332169 2.417884 0.130891 -0.046745 -157873.000000 0 0 1
6.306594 25.533152 -27.972799 38.395214 1.328647 2.386998 0.140319 -0.046866 -5944.800000 0 0 1
7.215394 26.231652 -29.047109 39.798191 1.302370 2.388914 0.165726 -0.043654 814618.000000 0 0 1
8.594294 25.885952 -28.881889 39.725406 1.250241 2.384795 0.153885 -0.044653 597643.000000 0 0 1
9.396394 26.741652 -29.699309 41.054319 1.232896 2.379532 0.156173 -0.044221 -869860.000000 0 0 1
10.874594 26.459652 -29.543039 41.123729 1.180854 2.372287 0.146521 -0.038366 -1262350.000000 0 0 1
11.617794 27.453152 -30.174179 42.416150 1.170463 2.362262 0.156355 -0.039186 -430418.000000 0 0 1
12.884694 27.463952 -29.540119 42.342681 1.132132 2.342900 0.134567 -0.042188 227120.000000 0 0 1
13.905494 28.393552 -30.270949 43.770845 1.115389 2.334468 0.137173 -0.043801 -47057.000000 0 0 1
13.485494 29.749452 -30.219659 44.498497 1.145200 2.317355 0.135433 -0.040475 242555.000000 0 0 1
14.431394 30.633052 -30.793729 45.770107 1.130530 2.308772 0.147743 -0.042620 106456.000000 0 0 1
13.912694 32.099852 -30.994739 46.740105 1.161816 2.295788 0.147998 -0.048277 10196.400000 0 0 1
12.977894 32.256052 -32.034009 47.276382 1.188275 2.315277 0.124664 -0.041145 -13882.300000 0 0 1
12.360294 33.510052 -31.976329 47.939400 1.217425 2.300992 0.129343 -0.037122 -335561.000000 0 0 1
11.101394 33.690452 -32.819309 48.325920 1.252489 2.317365 0.091371 -0.025747 -389527.000000 0 0 1
11.307994 -33.195048 33.333499 48.382890 -1.242473 0.810754 0.070063 -0.008963 -354983.000000 0 0 1
10.168394 -32.658348 32.724063 47.337387 -1.268953 0.807518 0.085452 -0.013147 -266215.000000 0 0 1
10.496394 -31.716348 31.523167 45.932680 -1.251196 0.814420 0.086638 -0.013528 -19435.200000 0 0 1
10.550394 -30.337148 31.836108 45.223789 -1.236108 0.789827 0.070115 -0.012044 8867.060000 0 0 1
10.720594 -29.524048 30.653329 43.888804 -1.222487 0.797593 0.080676 -0.019864 -685235.000000 0 0 1
10.255094 -28.057748 30.805089 42.911044 -1.220381 0.770040 0.086207 -0.030808 -13317.600000 0 0 1
8.837294 -27.987348 30.823459 42.561426 -1.264944 0.760907 0.075163 -0.036685 -66405.300000 0 0 1
8.305294 -28.167948 32.135636 43.532864 -1.284072 0.740409 0.082874 -0.037337 -873205.000000 0 0 1
6.768194 -28.029148 32.094026 43.144734 -1.333862 0.731956 0.081344 -0.042067 424608.000000 0 0 1
6.008294 -29.160248 31.564858 43.390781 -1.367596 0.756190 0.118059 -0.048688 505708.000000 0 0 1
6.257594 -29.534048 30.201909 42.703311 -1.362007 0.785196 0.109167 -0.040955 -838998.000000 0 0 1
5.776194 -28.608948 29.054319 41.182396 -1.371573 0.787663 0.106957 -0.046929 177987.000000 0 0 1
4.353594 -28.702348 28.932309 40.986059 -1.420263 0.787095 0.148208 -0.054628 611008.000000 0 0 1
3.862194 -28.037448 27.844169 39.702806 -1.433907 0.793556 0.154412 -0.048760 472149.000000 0 0 1
2.416294 -28.475948 27.386499 39.582047 -1.486145 0.806690 0.136776 -0.049932 797830.000000 0 0 1
2.314594 -29.744948 26.788389 40.096597 -1.493138 0.839149 0.156451 -0.054007 -41828.800000 0 0 1
2.099094 -30.714148 27.796859 41.478072 -1.502560 0.836375 0.199541 -0.056544 -605463.000000 0 0 1
2.361994 -32.127348 27.228169 42.179600 -1.497409 0.869080 0.218298 -0.050628 144618.000000 0 0 1
3.711694 -32.515148 27.027709 42.444182 -1.457136 0.880478 0.185407 -0.044369 411912.000000 0 0 1
4.320494 -32.023148 25.845019 41.377695 -1.436688 0.896161 0.178449 -0.055460 88731.700000 0 0 1
5.868394 -31.908148 25.912719 41.521524 -1.388914 0.896844 0.185885 -0.034855 227707.000000 0 0 1
6.374694 -31.566448 24.651789 40.555987 -1.371531 0.917451 0.152648 -0.043451 132919.000000 0 0 1
7.780894 -31.421348 24.767009 40.758412 -1.328049 0.917693 0.112714 -0.039939 -10988.200000 0 0 1
8.622494 -31.546948 23.484679 40.262731 -1.303990 0.948028 0.092536 -0.031354 -269752.000000 0 0 1
9.963694 -31.162948 23.659979 40.375724 -1.261339 0.944689 0.080916 -0.012086 -254481.000000 0 0 1
10.464594 -30.800148 22.406399 39.499412 -1.243275 0.967623 0.085335 -0.024531 -410286.000000 0 0 1
11.561194 -29.742048 22.521459 39.057224 -1.200056 0.956202 0.044406 -0.021242 -420687.000000 0 0 1
12.772294 -30.220548 23.052239 40.097615 -1.170930 0.958311 0.049553 -0.015687 -535534.000000 0 0 1
13.697494 -29.177148 22.956589 39.571862 -1.131878 0.951915 0.050544 -0.016758 543006.000000 0 0 1
15.019194 -29.399848 23.790369 40.692860 -1.098499 0.946369 0.077471 -0.014525 618493.000000 0 0 1
14.836394 -29.233148 25.191359 41.343682 -1.101151 0.915599 0.059355 -0.012266 179396.000000 0 0 1
16.065794 -29.108348 25.870419 42.127001 -1.066472 0.909544 0.069925 -0.023611 -103152.000000 0 0 1
-11.588906 -13.646848 25.704459 31.325045 0.866767 0.608385 0.120979 -0.054701 188608.000000 0 0 1
-10.213006 -13.506948 25.356669 30.491045 0.923384 0.588795 0.140204 -0.054579 -100844.000000 0 0 1
-9.562106 -14.250948 26.355709 31.450704 0.979813 0.577188 0.147168 -0.060666 -20171.500000 0 0 1
-8.009206 -14.084648 26.359649 30.941166 1.053749 0.551140 0.164711 -0.051486 757592.000000 0 0 1
-7.262306 -14.945248 25.492869 30.430049 1.118470 0.577641 0.167113 -0.068606 254649.000000 0 0 1
-7.370206 -14.719148 24.120589 29.202330 1.106571 0.598855 0.176978 -0.066537 -436981.000000 0 0 1
-6.662106 -15.769248 23.169479 28.807596 1.171067 0.636327 0.183330 -0.071560 684720.000000 0 0 1
-7.336306 -17.089048 23.022119 29.595184 1.165290 0.679478 0.204348 -0.070024 285194.000000 0 0 1
-7.342706 -17.860248 24.235559 30.988161 1.180741 0.672782 0.209115 -0.074675 -24891.200000 0 0 1
-8.122806 -19.226348 24.113749 31.892089 1.171059 0.713456 0.201513 -0.069122 -306320.000000 0 0 1
-9.486206 -19.091348 23.902019 32.027710 1.109644 0.728323 0.174008 -0.055862 -895257.000000 0 0 1
-10.151706 -20.244248 23.409359 32.571227 1.105980 0.768847 0.153501 -0.049234 -1097260.000000 0 0 1
-11.637606 -20.065048 23.377209 32.932263 1.045217 0.781501 0.120820 -0.045602 -1349850.000000 0 0 1
-12.193106 -20.252648 24.659179 34.160162 1.028871 0.764296 0.122321 -0.048675 719511.000000 0 0 1
-13.625306 -20.221248 24.524819 34.583444 0.977864 0.782506 0.095605 -0.034717 948462.000000 0 0 1
-14.459606 -20.285448 25.822289 35.879942 0.951527 0.767446 0.079882 -0.039264 -199132.000000 0 0 1
-14.263706 -21.415548 26.645259 37.041178 0.983225 0.767942 0.077862 -0.033709 4827.380000 0 0 1
-13.162406 -21.175248 27.505769 37.124216 1.014650 0.736369 0.118902 -0.041527 85215.100000 0 0 1
-12.732106 -22.521648 28.115979 38.207845 1.056262 0.743847 0.145747 -0.043228 117378.000000 0 0 1
-13.820206 -23.097348 28.845389 39.453036 1.031594 0.750816 0.082053 -0.034375 457548.000000 0 0 1
-13.440006 -24.213948 29.595249 40.531812 1.064083 0.752221 0.104001 -0.030988 247555.000000 0 0 1
-14.644306 -24.685248 30.474469 41.862996 1.035361 0.755459 0.079919 -0.031451 573373.000000 0 0 1
-14.742706 -23.949348 31.648248 42.338284 1.019001 0.726492 0.124755 -0.033823 -151255.000000 0 0 1
-15.786806 -24.440048 32.462571 43.593092 0.997280 0.730753 0.095572 -0.030423 -130004.000000 0 0 1
-15.655506 -23.860848 -33.492349 44.001959 0.990133 2.435890 0.094927 -0.033908 -24500.200000 0 0 1
-15.788706 -22.447348 -33.326319 43.171869 0.957815 2.452692 0.115336 -0.037330 151092.000000 0 0 1
-16.992706 -21.825148 33.655659 43.563661 0.909251 0.687929 0.089966 -0.034078 -219256.000000 0 0 1
-17.280606 -20.387248 -33.324959 42.717820 0.867687 2.465651 0.089056 -0.039275 -146467.000000 0 0 1
-17.514306 -20.258248 -31.948429 41.687524 0.857915 2.443981 0.088279 -0.031649 80385.800000 0 0 1
-17.787106 -18.948948 -31.608429 40.921102 0.817014 2.453445 0.075780 -0.031356 -94381.000000 0 0 1
-17.543306 -18.543248 -30.161039 39.513389 0.813101 2.439221 0.065600 -0.024700 -134375.000000 0 0 1
-18.618206 -19.002348 -29.394999 39.645842 0.795609 2.406010 0.073165 -0.023957 -99526.700000 0 0 1
-18.336606 -18.999448 -27.991889 38.480593 0.803150 2.385364 0.066865 -0.020410 -184791.000000 0 0 1
-17.389706 -20.023348 -27.342359 38.091219 0.855676 2.371452 0.061310 -0.019715 79338.500000 0 0 1
-16.030406 -19.850248 -27.677709 37.643882 0.891458 2.396834 0.055449 -0.021020 -387148.000000 0 0 1
-15.232806 -20.882848 -27.208609 37.529191 0.940583 2.381829 0.040078 -0.022478 -118405.000000 0 0 1
-13.761506 -20.800848 -27.659229 37.243621 0.986321 2.407825 0.154500 -0.030782 -134811.000000 0 0 1
-13.023206 -19.824048 -26.947349 35.899254 0.989558 2.419824 0.155185 -0.044561 486225.000000 0 0 1
-11.615606 -19.996248 -26.872729 35.453009 1.044547 2.431009 0.150666 -0.059963 547973.000000 0 0 1
-11.017906 -21.039248 -25.884139 35.128804 1.088382 2.399173 0.180058 -0.067234 -584751.000000 0 0 1
-11.134806 -22.388448 -26.220699 36.231914 1.109274 2.379932 0.186981 -0.065246 290201.000000 0 0 1
-10.513806 -23.239148 -25.252519 35.892727 1.145934 2.351184 0.228700 -0.064867 149979.000000 0 0 1
-10.746006 -24.738848 -25.535119 37.142019 1.161009 2.328836 0.209227 -0.058503 -491752.000000 0 0 1
-9.936106 -25.091098 -26.617989 37.905234 1.193742 2.349314 0.221335 -0.055455 -81828.400000 0 0 1
-10.209406 -26.360368 -27.161219 39.202459 1.201285 2.336223 0.213971 -0.045838 -224172.000000 0 0 1
-9.869906 -27.603678 -26.331669 39.404757 1.227405 2.302631 0.232009 -0.047652 -46947.600000 0 0 1
-10.800806 -27.795358 -25.264109 39.083431 1.200171 2.273672 0.179149 -0.050305 240950.000000 0 0 1
-10.667006 -29.033778 -24.620779 39.533885 1.218705 2.243083 0.187911 -0.057371 -514928.000000 0 0 1
-11.741706 -29.186168 -23.541879 39.292750 1.188305 2.213224 0.177238 -0.062404 -537616.000000 0 0 1
-11.712606 -28.192078 -22.475279 37.909321 1.177036 2.205414 0.180669 -0.066650 288753.000000 0 0 1
-12.469906 -26.977568 -22.691079 37.392149 1.137817 2.222876 0.143724 -0.053872 155926.000000 0 0 1
-12.078706 -25.804058 -21.686879 35.805939 1.132998 2.221414 0.177095 -0.058697 4561.970000 0 0 1
-12.478706 -26.004978 -20.353479 35.302140 1.123391 2.185297 0.120289 -0.050167 143304.000000 0 0 1
-12.526806 -24.812148 -19.560979 33.988167 1.103264 2.184040 0.114507 -0.040166 -41465.400000 0 0 1
-13.138306 -25.151228 -18.156979 33.687910 1.089411 2.140017 0.157432 -0.047090 690672.000000 0 0 1
-14.566706 -25.222228 -18.163679 34.325923 1.047059 2.128399 0.182747 -0.052912 515863.000000 0 0 1
-15.004006 -25.809188 -16.954879 34.332235 1.044208 2.087305 0.175744 -0.048469 1171720.000000 0 0 1
-16.566806 -25.843978 -16.709179 34.950922 1.000752 2.069259 0.167417 -0.053588 1230540.000000 0 0 1
-17.260306 -24.552048 -16.673979 34.332824 0.958054 2.077911 0.149612 -0.038974 1434430.000000 0 0 1
-18.640106 -24.628048 -16.258979 34.904853 0.922916 2.055344 0.152581 -0.035897 2264440.000000 0 0 1
-19.758206 -25.204088 -17.285879 36.392780 0.905932 2.065739 0.147651 -0.034464 476295.000000 0 0 1
-19.714506 -26.604008 -17.717379 37.554501 0.933057 2.062102 0.128299 -0.032334 -124899.000000 0 0 1
-19.957206 -27.572278 -16.690279 37.908918 0.944266 2.026699 0.130928 -0.042482 -23718.300000 0 0 1
-21.438306 -28.006658 -16.504779 38.940745 0.917467 2.008481 0.124680 -0.039706 353466.000000 0 0 1
-21.898706 -28.901288 -17.553779 40.286139 0.922381 2.021643 0.109076 -0.037244 416983.000000 0 0 1
-23.100806 -29.534258 -17.116479 41.217636 0.907022 1.999037 0.102695 -0.034739 435255.000000 0 0 1
-23.763606 -30.665388 -17.978779 42.758760 0.911528 2.004760 0.080565 -0.034444 127509.000000 0 0 1
-23.078706 -31.882868 -17.966079 43.265737 0.944236 1.999013 0.067766 -0.036811 -121529.000000 0 0 1
-23.223406 -32.479188 -19.230579 44.317485 0.950058 2.019644 0.065413 -0.015598 -162022.000000 0 0 1
-22.746506 33.608382 -19.285279 44.931602 -0.975804 2.014419 0.044565 -0.016957 -468755.000000 0 0 1
-23.524106 32.701041 -18.567079 44.356263 -0.947189 2.002688 0.061210 -0.019952 -371109.000000 0 0 1
-22.798706 31.542199 -18.222379 42.973787 -0.944932 2.008692 0.057726 -0.021371 -199659.000000 0 0 1
-23.605006 30.313942 -17.733979 42.315782 -0.909188 2.003235 0.078245 -0.028073 -597548.000000 0 0 1
-24.175306 30.454532 -16.507679 42.242483 -0.899837 1.972279 0.074834 -0.032222 -399143.000000 0 0 1
-24.933206 29.303512 -16.170679 41.735494 -0.865803 1.968667 0.075130 -0.024408 16154.000000 0 0 1
-24.212306 27.933432 -15.823479 40.210631 -0.856638 1.975248 0.075493 -0.026725 293258.000000 0 0 1
-23.325206 27.472292 -16.861679 39.788293 -0.866857 2.008416 0.050646 -0.013644 294802.000000 0 0 1
-22.977906 26.146552 -16.614679 38.570376 -0.849811 2.016134 0.051985 -0.021877 134707.000000 0 0 1
-22.100506 25.551422 -17.768779 38.171155 -0.857691 2.054999 0.045183 -0.005932 -316288.000000 0 0 1
-21.846506 24.129722 -17.600279 37.003826 -0.835018 2.066481 0.069050 -0.022842 16752.300000 0 0 1
-21.188606 23.530542 -18.676579 36.762182 -0.837720 2.103702 0.066346 -0.011796 36538.600000 0 0 1
-19.730606 23.931802 -19.069479 36.409793 -0.881323 2.122039 0.057198 -0.017250 -82588.200000 0 0 1
-18.848106 23.477142 -18.042579 35.099316 -0.894333 2.110689 0.078224 -0.025769 118232.000000 0 0 1
-17.623006 24.177022 -17.979479 34.905020 -0.940926 2.111917 0.097405 -0.038737 -56859.700000 0 0 1
-17.610906 25.370852 -17.021779 35.264218 -0.964015 2.074523 0.119600 -0.042261 -293550.000000 0 0 1
-18.551806 26.399202 -17.270379 36.597177 -0.958233 2.062246 0.086269 -0.030968 70633.600000 0 0 1
-18.146406 27.658682 -16.715279 37.063396 -0.990156 2.038672 0.103078 -0.045191 108601.000000 0 0 1
-19.189006 28.822702 -16.939179 38.547398 -0.983422 2.025769 0.073263 -0.031876 497420.000000 0 0 1
-19.380006 29.314452 -18.260279 39.602519 -0.986652 2.050018 0.065999 -0.031133 192838.000000 0 0 1
-20.320706 28.575052 -19.019279 39.889819 -0.952637 2.067802 0.047377 -0.019456 -260019.000000 0 0 1
-20.570106 29.049692 -20.521579 41.087091 -0.954654 2.093778 0.043351 -0.024718 -208233.000000 0 0 1
-21.284606 30.254672 -20.692779 42.385973 -0.957715 2.080821 0.048554 -0.020349 100892.000000 0 0 1
-21.645606 30.371982 -22.060479 43.331908 -0.951609 2.104941 0.050250 -0.020103 288203.000000 0 0 1
-22.109406 31.782184 -22.548179 44.803498 -0.962993 2.098173 0.063346 -0.025436 533374.000000 0 0 1
-20.976606 32.631966 -22.469679 44.830232 -0.999482 2.095801 0.053356 -0.021780 800415.000000 0 0 1
-21.370006 33.690222 -23.370079 46.237093 -1.005531 2.100688 0.066246 -0.015831 101543.000000 0 0 1
-20.451206 -32.607778 -23.233579 44.959073 1.010625 2.113872 0.084391 -0.016003 -184332.000000 0 0 1
-20.533506 -31.981038 -22.019679 43.923547 1.000028 2.095918 0.073485 -0.020050 496534.000000 0 0 1
-19.673406 -32.503848 -20.978779 43.401063 1.026515 2.075297 0.073212 -0.029210 -180236.000000 0 0 1
-19.486806 -31.355988 -19.960979 41.968730 1.014739 2.066460 0.103594 -0.037978 -413826.000000 0 0 1
-18.641506 -30.281848 -20.278779 40.935620 1.018985 2.089071 0.099577 -0.037540 -32989.100000 0 0 1
-18.324106 -29.453408 -19.197079 39.645983 1.014257 2.076259 0.099720 -0.040495 29860.500000 0 0 1
-16.980006 -28.725508 -19.359979 38.578287 1.036937 2.096517 0.113176 -0.036964 190276.000000 0 0 1
-15.779606 -29.446208 -19.407679 38.635905 1.078859 2.097079 0.124492 -0.043755 -186751.000000 0 0 1
-14.653106 -28.646998 -19.662479 37.709112 1.097986 2.119317 0.125430 -0.052802 -114525.000000 0 0 1
-13.363906 -29.488198 -19.985179 38.046750 1.145289 2.123840 0.207142 -0.067167 459632.000000 0 0 1
-12.778206 -30.021288 -18.801179 37.656934 1.168385 2.093559 0.202825 -0.069881 383412.000000 0 0 1
-11.971306 -29.085948 -18.065179 36.271963 1.180344 2.092143 0.166547 -0.061833 -367069.000000 0 0 1
-11.163906 -29.806898 -16.953479 36.062508 1.212428 2.060216 0.176518 -0.043573 -83906.000000 0 0 1
-11.967106 -30.357438 -15.928979 36.311404 1.195294 2.024922 0.194345 -0.050345 364614.000000 0 0 1
-12.812106 -31.476378 -16.205879 37.650272 1.184237 2.015768 0.198592 -0.051471 133682.000000 0 0 1
-13.661806 -31.868158 -15.001779 37.779331 1.165798 1.979140 0.176374 -0.056920 -216289.000000 0 0 1
-12.859906 -32.491198 -13.995479 37.642112 1.193919 1.951748 0.165651 -0.045728 635208.000000 0 0 1
-13.660706 -32.893658 -12.850079 37.864656 1.177171 1.917042 0.162303 -0.041445 322336.000000 0 0 1
-12.894906 -33.401868 -11.601279 37.637124 1.202370 1.884139 0.137965 -0.031645 84946.800000 0 0 1
-12.221006 -32.353578 -10.900979 36.262079 1.209632 1.876135 0.116623 -0.028170 -121661.000000 0 0 1
-11.717106 -32.791348 -9.694779 36.146256 1.227613 1.842331 0.127905 -0.033752 250639.000000 0 0 1
-10.350306 -32.131548 -9.278679 35.009415 1.259169 1.839035 0.121595 -0.041335 367873.000000 0 0 1
-9.314706 -32.805928 -9.929579 35.518857 1.294144 1.854130 0.089891 -0.037993 -305945.000000 0 0 1
-8.036406 -32.292998 -9.548179 34.620648 1.326892 1.850212 0.084224 -0.040159 1211100.000000 0 0 1
-6.851506 -33.081688 -10.226479 35.297622 1.366575 1.864732 0.095582 -0.051086 686115.000000 0 0 1
-6.331206 33.348262 -9.472179 35.240785 -1.383178 1.842927 0.070356 -0.025442 336489.000000 0 0 1
-5.084106 32.903261 -10.021779 34.769365 -1.417492 1.863180 0.088375 -0.025060 443767.000000 0 0 1
-4.389206 31.909758 -9.154479 33.485852 -1.434103 1.847705 0.091974 -0.028950 -569068.000000 0 0 1
-3.727406 32.461364 -8.078879 33.658610 -1.456471 1.813187 0.107989 -0.030575 -384824.000000 0 0 1
-3.067806 31.486532 -7.268679 32.459926 -1.473671 1.796639 0.104112 -0.044401 847597.000000 0 0 1
-2.354006 32.138561 -5.952679 32.769846 -1.497681 1.753462 0.118401 -0.039851 736919.000000 0 0 1
-1.121506 32.836519 -6.132379 33.423058 -1.536655 1.755319 0.096099 -0.039512 245219.000000 0 0 1
-0.734406 33.498335 -4.906779 33.863760 -1.548876 1.716206 0.101252 -0.037441 -100727.000000 0 0 1
0.239094 32.740995 -3.992079 32.984339 1.563494 1.692123 0.103613 -0.038928 302576.000000 0 0 1
1.585194 32.842331 -4.477779 33.184063 1.522567 1.706147 0.105127 -0.038344 758047.000000 0 0 1
2.525994 32.112897 -3.673879 32.420922 1.492298 1.684358 0.097860 -0.033039 -378307.000000 0 0 1
3.966694 32.325243 -4.049179 32.818468 1.448695 1.694493 0.084233 -0.028255 -1157300.000000 0 0 1
4.523594 33.505158 -3.621179 34.002521 1.436596 1.677496 0.079957 -0.030815 -1161320.000000 0 0 1
5.891694 33.416896 -3.871579 34.152454 1.396281 1.684402 0.081184 -0.028312 -656816.000000 0 0 1
6.574994 -32.780688 -3.470379 33.613206 -1.372848 1.674225 0.091074 -0.027709 -194125.000000 0 0 1
6.417294 -31.728248 -4.432079 32.672721 -1.371231 1.706867 0.090313 -0.032856 -249566.000000 0 0 1
6.842594 -30.514858 -3.866079 31.510700 -1.350207 1.693797 0.087553 -0.033930 9410.440000 0 0 1
6.488694 -29.303548 -4.697179 30.378686 -1.352882 1.726040 0.084053 -0.037320 -55231.100000 0 0 1
7.330894 -29.248178 -5.855679 30.716232 -1.325211 1.762608 0.097003 -0.040683 272844.000000 0 0 1
7.080794 -28.133548 -6.718079 29.778629 -1.324232 1.798356 0.094445 -0.035253 161886.000000 0 0 1
7.611294 -26.751888 -6.155479 28.486580 -1.293606 1.788598 0.086687 -0.034276 60941.100000 0 0 1
6.905194 -26.213828 -5.068479 27.577817 -1.313229 1.755635 0.078347 -0.032209 -296581.000000 0 0 1
7.431994 -25.012418 -4.466679 26.472756 -1.281973 1.740335 0.062818 -0.038814 41866.000000 0 0 1
6.472794 -24.553748 -3.332579 25.610344 -1.313043 1.701293 0.065451 -0.037030 668468.000000 0 0 1
5.224494 -24.136348 -3.874679 24.997435 -1.357627 1.726427 0.055332 -0.036574 32084.300000 0 1 0
4.310094 -23.699748 -2.896479 24.261998 -1.390900 1.690465 0.059753 -0.033285 349737.000000 0 1 0
2.980394 -23.116648 -3.437879 23.560161 -1.442575 1.717238 0.074627 -0.035807 31161.400000 0 1 0
2.183994 -24.079348 -4.041279 24.513604 -1.480344 1.736411 0.076758 -0.038706 -387499.000000 0 1 0
1.033594 -23.432748 -4.584079 23.899284 -1.526716 1.763801 0.083871 -0.038661 422339.000000 0 1 0
-16.067606 23.595252 17.817789 33.650817 -0.972958 1.012796 0.017887 -0.013785 -147911.000000 0 0 1
-16.285306 22.826952 19.030789 33.888816 -0.951117 0.974520 0.048862 -0.009792 243699.000000 0 0 1
-15.889206 23.546452 20.167889 34.837422 -0.977182 0.953400 0.062442 -0.018389 -1242370.000000 0 0 1
-15.952206 22.727552 21.540689 35.142791 -0.958804 0.911011 0.082229 -0.016246 -293086.000000 0 0 1
-14.931206 21.770252 21.785889 34.227324 -0.969628 0.880837 0.069460 -0.016575 314319.000000 0 0 1
-13.578106 22.169952 21.798389 33.927002 -1.021269 0.873029 0.060491 -0.025699 -145081.000000 0 0 1
-13.119106 23.244752 22.861189 35.143469 -1.056972 0.862540 0.092541 -0.018727 -700082.000000 0 0 1
-12.536106 22.673452 24.010829 35.323636 -1.065731 0.823391 0.090789 -0.013136 72734.800000 0 0 1
-12.180206 23.727652 24.883669 36.476785 -1.096539 0.820059 0.114703 -0.014697 95668.800000 0 0 1
-11.557606 23.236352 26.226469 36.896260 -1.109236 0.780138 0.112543 -0.014666 -781859.000000 0 0 1
-10.199006 23.002852 26.158679 36.296383 -1.153461 0.765990 0.066032 -0.010285 -1139620.000000 0 0 1
-9.890206 22.311852 27.330169 36.641138 -1.153552 0.728930 0.054379 -0.005055 -1031830.000000 0 0 1
-8.389606 22.057052 27.476879 36.219855 -1.207335 0.709614 0.053325 -0.018725 -166993.000000 0 0 1
-7.617906 23.106152 28.057779 37.137120 -1.252327 0.714351 0.047078 -0.014614 214276.000000 0 0 1
-7.385706 24.173952 27.157689 37.100790 -1.274280 0.749547 0.046574 -0.012826 -128123.000000 0 0 1
-6.277006 25.212252 27.651479 37.942888 -1.326791 0.754278 0.051507 -0.021674 1131590.000000 0 0 1
-4.944606 24.703552 27.631699 37.392852 -1.373249 0.739276 0.058447 -0.019291 -41749.300000 0 0 1
-4.065006 25.728652 28.001779 38.243789 -1.414096 0.749262 0.084215 -0.012703 -1319390.000000 0 0 1
-2.616106 25.375552 27.886929 37.794754 -1.468064 0.740914 0.093779 -0.024975 -1584460.000000 0 0 1
-2.079606 25.333752 26.652569 36.830465 -1.488892 0.761712 0.090069 -0.023073 -1062020.000000 0 0 1
-0.745406 24.955352 26.716699 36.566476 -1.540936 0.751547 0.101661 -0.019432 -410829.000000 0 0 1
-0.157006 24.624452 25.327559 35.325253 -1.564420 0.771334 0.098614 -0.024819 87918.400000 0 0 1
-0.608006 23.398652 24.805199 34.105197 -1.544817 0.756396 0.101810 -0.016410 23017.900000 0 0 1
0.005994 23.158752 23.538319 33.020906 1.570538 0.777270 0.097238 -0.013829 341419.000000 0 0 1
-0.396406 21.786752 22.848099 31.573015 -1.552603 0.761707 0.082362 -0.014691 -140944.000000 0 0 1
0.387494 20.750552 23.287219 31.193430 1.552125 0.727946 0.096264 -0.014347 -445495.000000 0 0 1
-0.067606 19.521852 22.765349 29.989471 -1.567333 0.708849 0.086515 -0.012246 -126224.000000 0 0 1
0.957394 18.397052 22.976299 29.449591 1.518803 0.675826 0.094407 -0.008197 761564.000000 0 0 1
2.096494 18.625952 22.101589 28.979330 1.458710 0.703369 0.083071 -0.005710 341785.000000 0 0 1
2.936494 17.511852 22.006389 28.276653 1.404656 0.678917 0.062811 -0.005895 -408833.000000 0 0 1
4.292494 17.800952 21.362689 28.136522 1.334175 0.708635 0.062886 -0.001399 -4007.300000 0 0 1
5.231394 18.472252 22.175689 29.331770 1.294820 0.713570 0.057752 0.003818 68431.000000 0 0 1
6.415994 18.858652 21.491989 29.303913 1.242865 0.747461 0.077321 -0.014775 548295.000000 0 0 1
7.568694 19.550552 22.291139 30.600720 1.201430 0.754737 0.096499 -0.020985 113439.000000 0 0 1
7.252494 20.719452 23.078079 31.851092 1.234092 0.760398 0.086808 -0.012226 -31198.400000 0 0 1
6.855694 21.855152 22.286189 31.958135 1.266830 0.799095 0.105785 -0.026198 -54256.200000 0 0 1
5.696694 22.687752 22.868089 32.712931 1.324791 0.796723 0.076207 -0.014555 -142784.000000 0 0 1
5.563894 23.967452 22.251889 33.174421 1.342693 0.835571 0.086382 -0.032673 -298217.000000 0 0 1
4.443994 24.720252 22.606889 33.792179 1.392925 0.837937 0.069465 -0.015830 -501083.000000 0 0 1
4.396194 26.021952 21.742889 34.193884 1.403435 0.881660 0.075834 -0.018181 -137130.000000 0 0 1
4.123594 25.794952 20.302089 33.084110 1.412277 0.910120 0.080981 -0.023750 -29635.100000 0 0 1
2.857194 25.259352 19.966789 32.324465 1.458161 0.904983 0.096751 -0.031252 -276709.000000 0 0 1
2.351094 25.754252 18.639589 31.878573 1.479759 0.946279 0.098725 -0.041228 -339594.000000 0 0 1
2.159994 27.153552 18.606789 32.987778 1.491416 0.971513 0.142474 -0.053814 182877.000000 0 0 1
1.784594 27.492652 17.258589 32.509838 1.505976 1.011166 0.150570 -0.044065 -63830.900000 0 0 1
0.958194 28.767752 17.159489 33.510442 1.537501 1.033210 0.166169 -0.034030 -154238.000000 0 0 1
1.686394 29.904652 17.562989 34.721617 1.514464 1.040461 0.190315 -0.039443 312075.000000 0 0 1
0.871494 31.066652 17.501689 35.667989 1.542751 1.057922 0.168451 -0.036429 -49702.900000 0 0 1
1.431794 32.222252 18.278789 37.073409 1.526391 1.055212 0.185190 -0.030369 -316770.000000 0 0 1
1.474394 31.913652 19.630989 37.497076 1.524630 1.019803 0.212091 -0.038208 -18453.500000 0 0 1
2.258294 32.915752 20.242189 38.707787 1.502295 1.020490 0.225030 -0.035104 -358536.000000 0 0 1
2.441294 32.680052 21.777489 39.347232 1.496232 0.984272 0.212309 -0.052267 -885821.000000 0 0 1
1.258694 32.618652 22.476539 39.632758 1.532227 0.967791 0.203075 -0.037205 -936690.000000 0 0 1
1.471894 32.216952 23.850239 40.111499 1.525141 0.934030 0.205138 -0.037927 -68134.500000 0 0 1
0.230994 32.231052 24.782519 40.657930 1.563630 0.915320 0.188773 -0.025214 -376738.000000 0 0 1
-0.335206 33.477952 24.812939 41.672143 -1.560784 0.932993 0.197052 -0.017214 376711.000000 0 0 1
-1.404606 33.578952 25.787609 42.361771 -1.528991 0.916316 0.189981 -0.019531 467378.000000 0 0 1
-1.047006 33.704452 27.285749 43.377395 -1.539742 0.890490 0.194383 -0.035440 -680983.000000 0 0 1
-0.324806 32.617252 27.829799 42.877597 -1.560839 0.864458 0.199599 -0.046788 46932.100000 0 0 1
0.083194 32.871052 29.142329 43.929356 1.568265 0.845455 0.199160 -0.051652 -734291.000000 0 0 1
0.937794 31.723052 29.803139 43.536864 1.541243 0.816811 0.171063 -0.047105 585523.000000 0 0 1
2.286894 31.595352 29.363619 43.193961 1.498542 0.823295 0.153232 -0.043905 337658.000000 0 0 1
2.553294 31.464752 27.990239 42.190086 1.489826 0.845401 0.149778 -0.047011 -1143850.000000 0 0 1
4.060594 31.517752 27.669419 42.136134 1.442667 0.854405 0.110153 -0.039183 12955.100000 0 0 1
4.808194 30.399552 28.122459 41.690816 1.413929 0.830444 0.095075 -0.039627 26513.800000 0 0 1
6.183794 30.724752 27.953009 41.995480 1.372185 0.842473 0.097119 -0.045132 143963.000000 0 0 1
7.030094 29.521152 28.469229 41.610306 1.337013 0.817308 0.101331 -0.018749 -99367.900000 0 0 1
7.114794 29.376152 29.868259 42.493428 1.333176 0.791342 0.124545 -0.042510 48101.100000 0 0 1
7.544494 28.101652 30.364399 42.054951 1.308510 0.764083 0.101336 -0.040637 98504.700000 0 0 1
7.666794 27.936352 31.913814 43.101171 1.302953 0.737072 0.144903 -0.047088 121995.000000 0 0 1
6.334194 28.063052 32.372618 43.308698 1.348803 0.726528 0.144950 -0.049693 -20546.700000 0 0 1
6.301094 27.894952 -33.595869 44.119322 1.348638 2.436386 0.162414 -0.047098 131404.000000 0 0 1
6.321594 26.441052 -33.022359 42.773449 1.336119 2.452824 0.150851 -0.038547 -23747.400000 0 0 1
7.603294 25.901352 -33.244289 42.823742 1.285269 2.459579 0.140725 -0.040843 -151454.000000 0 0 1
7.674594 24.534752 -32.772229 41.651800 1.267634 2.476426 0.145336 -0.041110 -135006.000000 0 0 1
9.064294 23.880752 -32.752409 41.535190 1.208030 2.479237 0.160486 -0.045468 -925577.000000 0 0 1
9.749594 23.864952 33.429159 42.214916 1.182957 0.656914 0.141280 -0.036851 436671.000000 0 0 1
10.995194 23.168852 33.553469 42.231804 1.127701 0.652601 0.150991 -0.051387 193381.000000 0 0 1
10.976094 21.642352 -33.477369 41.347313 1.101439 2.514373 0.158863 -0.055314 -1433940.000000 0 0 1
10.368194 20.921652 32.892553 40.337761 1.110697 0.617328 0.146251 -0.055525 147036.000000 0 0 1
9.943594 19.625452 33.213936 39.839665 1.101828 0.585040 0.137914 -0.047695 -786412.000000 0 0 1
8.607894 19.606452 -33.492549 39.752479 1.157099 2.572754 0.156389 -0.055079 -1378030.000000 0 0 1
8.622194 19.926152 -32.094399 38.748473 1.162416 2.546819 0.177155 -0.051783 375371.000000 0 0 1
7.386494 20.509452 -31.669919 38.447128 1.225107 2.538749 0.196333 -0.052275 386598.000000 0 0 1
7.380894 21.053852 -30.254619 37.591013 1.233612 2.506196 0.198433 -0.061637 511413.000000 0 0 1
8.373294 22.090952 -30.066799 38.237869 1.208491 2.475609 0.198307 -0.047991 612912.000000 0 0 1
8.490194 22.490852 -28.673629 37.417894 1.209840 2.443871 0.163278 -0.036152 -538435.000000 0 0 1
9.949894 22.853752 -28.359439 37.756485 1.160173 2.420545 0.170250 -0.047636 -9878.690000 0 0 1
10.712694 21.670752 -28.221679 37.159742 1.111688 2.433293 0.182475 -0.047196 -502498.000000 0 0 1
12.100494 21.861952 -28.295959 37.749545 1.065273 2.418210 0.182166 -0.049926 213312.000000 0 0 1
12.874394 20.479652 -28.405269 37.309857 1.009581 2.436165 0.186405 -0.060201 254279.000000 0 0 1
12.771994 19.735752 -29.628299 37.821420 0.996427 2.470871 0.192857 -0.060711 922288.000000 0 0 1
11.431794 19.220252 -29.742989 37.212221 1.034225 2.496893 0.193161 -0.061165 813341.000000 0 0 1
11.503694 18.211952 -30.874129 37.646009 1.007425 2.532412 0.191954 -0.067519 -102751.000000 0 0 1
12.033594 16.934952 -30.527359 36.925866 0.953007 2.544049 0.180235 -0.061132 270917.000000 0 0 1
12.099394 16.165352 -31.750559 37.627276 0.928271 2.575154 0.170078 -0.059168 462615.000000 0 0 1
13.515394 16.070552 -32.420869 38.626950 0.871548 2.566851 0.153520 -0.045836 313464.000000 0 0 1
14.001094 17.230452 -33.040389 39.806864 0.888433 2.549935 0.156368 -0.054272 93191.400000 0 0 1
14.601394 17.036052 33.107045 39.993801 0.862202 0.595614 0.157489 -0.052034 -220654.000000 0 0 1
13.632694 16.939152 31.911479 38.615122 0.893133 0.598115 0.157142 -0.046912 -970386.000000 0 0 1
14.301194 17.053152 30.680839 37.903139 0.872943 0.627575 0.146115 -0.048070 544093.000000 0 0 1
13.428794 17.087752 29.517379 36.655141 0.904729 0.634661 0.141193 -0.036021 31617.000000 0 0 1
12.083894 17.798152 29.543569 36.546096 0.974344 0.629381 0.139809 -0.032622 -854891.000000 0 0 1
11.060494 17.053252 30.158609 36.368800 0.995416 0.593043 0.120496 -0.033647 -387266.000000 0 0 1
9.837494 17.756052 30.144929 36.342405 1.064860 0.592638 0.110053 -0.037395 -456560.000000 0 0 1
8.753294 16.984052 30.865839 36.301214 1.094918 0.554298 0.139322 -0.040785 -573229.000000 0 0 1
8.847794 16.846752 32.274832 37.466802 1.087198 0.532728 0.157068 -0.039061 497.361000 0 0 1
7.910994 15.937052 32.814670 37.327952 1.110041 0.496844 0.172454 -0.046303 -116495.000000 0 0 1
7.980094 15.879752 -33.056719 37.531255 1.105125 2.648300 0.171040 -0.047706 595.353000 0 0 1
7.070894 16.763352 -32.419699 37.175858 1.171634 2.630199 0.162747 -0.047999 257188.000000 0 0 1
7.040594 16.544352 -31.029539 35.862485 1.168453 2.616419 0.170297 -0.055750 -368480.000000 0 0 1
5.929194 17.406352 -30.449429 35.571114 1.242490 2.598309 0.155957 -0.055562 -1078740.000000 0 0 1
5.699894 17.361352 -29.075279 34.340605 1.253574 2.580499 0.149192 -0.061657 37822.400000 0 0 1
4.845094 18.408752 -28.676739 34.419652 1.313438 2.555576 0.149615 -0.065814 -34655.900000 0 0 1
3.331994 18.226452 -28.888799 34.320088 1.389982 2.571306 0.165426 -0.060130 -1225280.000000 0 0 1
2.832594 17.356252 -27.920769 32.997461 1.409020 2.579514 0.175542 -0.056261 599542.000000 0 0 1
1.442694 17.043752 -28.046189 32.850564 1.486351 2.593943 0.171833 -0.050529 1155330.000000 0 0 1
0.354194 18.106352 -27.684519 33.081687 1.551237 2.562306 0.171162 -0.056916 -209292.000000 0 0 1
0.187194 18.218452 -26.290029 31.986132 1.560522 2.535569 0.174069 -0.065461 589777.000000 0 0 1
-0.736906 19.331052 -26.093799 32.482594 -1.532694 2.503639 0.171597 -0.050984 501914.000000 0 0 1
-1.153406 19.735952 -24.648979 31.597631 -1.512421 2.465605 0.159557 -0.059155 367068.000000 0 0 1
-2.220706 18.978752 -24.057379 30.722663 -1.454316 2.470351 0.150359 -0.042337 279889.000000 0 0 1
-2.525006 19.667952 -22.879879 30.276936 -1.443113 2.427498 0.145334 -0.043803 114354.000000 0 0 1
-3.705606 18.979052 -22.124979 29.384530 -1.377975 2.423324 0.124750 -0.033143 1408090.000000 0 0 1
-5.028606 19.325152 -22.605779 30.162388 -1.316231 2.418056 0.132371 -0.026124 720845.000000 0 0 1
-5.983706 18.456452 -22.028579 29.354789 -1.257282 2.419502 0.122273 -0.036067 437825.000000 0 0 1
-7.453406 18.976052 -22.093079 30.062401 -1.196530 2.396326 0.148842 -0.030225 615344.000000 0 0 1
-7.707006 19.997652 -21.059879 30.047005 -1.202943 2.347452 0.111032 -0.024855 -58877.700000 0 0 1
-7.251706 21.272652 -21.403079 31.035540 -1.242257 2.331776 0.127333 -0.032636 -147198.000000 0 0 1
-7.610206 22.326952 -20.289479 31.113839 -1.242293 2.281154 0.129866 -0.036057 4817.060000 0 0 1
-6.833806 22.221152 -19.121379 30.101622 -1.272440 2.259099 0.147396 -0.037078 -74434.200000 0 0 1
-7.160606 23.226552 -18.176579 30.350206 -1.271748 2.212917 0.149261 -0.037681 109340.000000 0 0 1
-6.187006 23.181952 -16.966279 29.385993 -1.309986 2.186287 0.152609 -0.040540 1082630.000000 0 0 1
-4.840006 23.563452 -17.295279 29.627497 -1.368211 2.194145 0.147318 -0.044680 375325.000000 0 0 1
-4.041006 23.508552 -16.100979 28.778868 -1.400565 2.164545 0.123023 -0.046306 692644.000000 0 0 1
-2.590506 23.941652 -16.497879 29.190639 -1.463015 2.171444 0.117463 -0.043546 352478.000000 0 0 1
-2.583506 25.323352 -16.780179 30.488048 -1.469127 2.153622 0.105722 -0.043434 -49428.900000 0 0 1
-1.348106 25.634952 -17.400779 31.012179 -1.518256 2.166504 0.104100 -0.046689 469603.000000 0 0 1
-0.887006 27.100252 -17.311179 32.169665 -1.538077 2.139003 0.096285 -0.058582 101742.000000 0 0 1
-1.868606 27.895752 -17.943879 33.221190 -1.503911 2.141392 0.109754 -0.057488 21985.100000 0 0 1
-1.320006 28.903552 -18.783679 34.496149 -1.525159 2.146607 0.119665 -0.062611 -874948.000000 0 0 1
-2.335406 29.761852 -19.512079 35.664312 -1.492487 2.149697 0.170584 -0.053322 -102968.000000 0 0 1
-3.187506 30.653452 -18.803579 36.102201 -1.467183 2.118635 0.166255 -0.060163 247997.000000 0 0 1
-4.259706 30.030852 -18.109079 35.326136 -1.429892 2.109036 0.125499 -0.057911 -824220.000000 0 0 1
-5.131106 30.967252 -17.371779 35.875864 -1.406594 2.076267 0.171245 -0.051211 -418303.000000 0 0 1
-5.796406 31.926752 -18.155379 37.182437 -1.391199 2.080912 0.215464 -0.061413 -101512.000000 0 0 1
-6.070606 33.127952 -17.439179 37.926751 -1.389560 2.048580 0.213449 -0.072741 43005.800000 0 0 1
-6.876606 -33.272948 -18.207179 38.547090 1.366993 2.062736 0.203629 -0.068887 655567.000000 0 0 1
-8.279406 -33.500848 -18.047779 38.943263 1.328511 2.052667 0.195531 -0.069917 461782.000000 0 0 1
-9.040706 -32.445648 -18.599479 38.475903 1.299048 2.075338 0.225948 -0.076194 138480.000000 0 0 1
29.116194 -20.295848 -26.735109 44.434674 -0.608753 2.216389 0.104959 -0.011837 167922.000000 0 0 1
29.258694 -21.564548 -26.111499 44.753897 -0.635149 2.193762 0.095550 -0.022165 479955.000000 0 0 1
27.972794 -22.125048 -25.826699 44.034229 -0.669198 2.197545 0.068105 -0.025612 149437.000000 0 0 1
28.198894 -23.420648 -24.969379 44.352838 -0.693095 2.168773 0.091141 -0.017266 177703.000000 0 0 1
28.940094 -24.403848 -25.626039 45.714010 -0.700565 2.165874 0.094881 -0.005122 550280.000000 0 0 1
30.345694 -24.232048 -25.870399 46.661878 -0.673846 2.158465 0.096902 -0.013437 452981.000000 0 0 1
30.881094 -25.492438 -26.604859 48.076240 -0.690099 2.157224 0.103788 -0.023199 -311811.000000 0 0 1
30.906194 -26.632418 -25.733779 48.235940 -0.711258 2.133527 0.118657 -0.026258 -141385.000000 0 0 1
30.868594 -27.910888 -26.317189 49.239031 -0.735122 2.134687 0.113545 -0.022439 373342.000000 0 0 1
29.577394 -28.289198 -27.111129 49.092915 -0.763140 2.155846 0.103983 -0.027919 -34108.700000 0 0 1
29.474894 -27.694478 -28.406599 49.423561 -0.754265 2.183105 0.079283 -0.031876 190449.000000 0 0 1
30.311194 -28.230758 -29.449319 50.823288 -0.749876 2.188844 0.056355 -0.031485 -363789.000000 0 0 1
30.354494 -29.776378 -29.666859 51.847377 -0.775784 2.179977 0.070997 -0.022684 -278989.000000 0 0 1
31.107894 -30.551938 -28.695579 52.197301 -0.776382 2.152864 0.079226 -0.020021 2519270.000000 0 0 1
32.536694 -30.255988 -28.440779 52.753570 -0.749093 2.140194 0.088960 -0.018706 2419960.000000 0 0 1
33.516494 -30.239188 -29.676089 54.022533 -0.734039 2.152356 0.084949 -0.025803 -239442.000000 0 0 1
33.333694 -29.024318 -30.432769 53.662833 -0.716401 2.173790 0.082580 -0.032769 -584655.000000 0 0 1
34.522894 -28.640218 -31.041499 54.549674 -0.692531 2.176147 0.078318 -0.031357 -486840.000000 0 0 1
34.367294 -27.309208 -31.856189 54.237630 -0.671457 2.198571 0.070741 -0.022425 -26666.800000 0 0 1
34.335394 -26.127208 -31.088049 53.179104 -0.650467 2.195173 0.082793 -0.014650 565731.000000 0 0 1
33.360494 -25.902608 -30.013409 51.813824 -0.660213 2.188611 0.086070 -0.020531 410113.000000 0 0 1
33.450894 -24.495548 -29.331749 50.787259 -0.632066 2.186510 0.086328 -0.020823 -1654220.000000 0 0 1
34.561794 -24.270248 -28.619609 51.016120 -0.612219 2.166379 0.096263 -0.024917 -1158500.000000 0 0 1
34.365294 -23.057948 -27.923579 49.923628 -0.590973 2.164369 0.092550 -0.023755 -149054.000000 0 0 1
35.436494 -22.888148 -26.845759 50.003072 -0.573482 2.137533 0.106027 -0.026951 -416860.000000 0 0 1
35.258194 -23.578348 -25.586609 49.535374 -0.589432 2.113592 0.096517 -0.028703 -86109.100000 0 0 1
34.233494 -23.015848 -24.789079 48.126498 -0.591906 2.111899 0.113937 -0.020596 -101324.000000 0 0 1
34.475894 -21.654248 -24.108979 47.315289 -0.560824 2.105445 0.132039 -0.021562 -234388.000000 0 0 1
34.435494 -20.527548 -24.940079 47.214309 -0.537559 2.127313 0.137075 -0.024436 -44134.900000 0 0 1
34.534794 -19.359148 -24.230879 46.417282 -0.510922 2.120017 0.118921 -0.029453 9493.670000 0 0 1
34.356394 -18.102748 -25.018079 46.194973 -0.484944 2.143107 0.094993 -0.027834 -678786.000000 0 0 1
33.151094 -17.977948 -25.680259 45.625402 -0.496915 2.168626 0.113308 -0.014701 -620905.000000 0 0 1
32.925894 -16.785448 -26.413579 45.426236 -0.471453 2.191320 0.125655 -0.007485 457159.000000 0 0 1
31.693594 -16.891448 -27.383259 45.162460 -0.489667 2.222231 0.100968 -0.000313 576493.000000 0 0 1
30.412894 -16.766448 -26.788639 43.859880 -0.503836 2.227839 0.083936 -0.002264 -452438.000000 0 0 1
29.527194 -16.485048 -27.819209 43.789501 -0.509194 2.259186 0.040889 -0.007569 -71791.100000 0 0 1
28.192994 -15.859548 -27.293019 42.323505 -0.512416 2.271645 0.011272 0.004095 616085.000000 0 0 1
27.326894 -16.732148 -26.599929 41.644689 -0.549412 2.263650 0.056334 0.009740 51813.000000 0 0 1
27.627694 -16.671548 -25.231219 40.961499 -0.542942 2.234418 0.064973 -0.000151 -225894.000000 0 0 1
26.935194 -17.772448 -24.376879 40.442512 -0.583249 2.217744 0.068542 -0.000142 -93258.600000 0 0 1
27.029894 -17.420848 -22.999579 39.535829 -0.572501 2.191663 0.071223 0.001698 -104080.000000 0 0 1
26.370894 -18.366548 -22.181579 39.048388 -0.608353 2.174935 0.082903 -0.005935 97613.300000 0 0 1
26.092394 -17.825048 -20.733079 37.794258 -0.599328 2.151458 0.085702 -0.009251 137387.000000 0 0 1
25.199994 -16.725348 -20.502279 36.539299 -0.585949 2.166513 0.075131 -0.012694 94260.800000 0 0 1
25.303094 -15.455048 -21.120479 36.403018 -0.548321 2.189752 0.067031 -0.008173 -166212.000000 0 0 1
26.615694 -14.684448 -20.853379 36.863147 -0.504164 2.172075 0.073087 -0.009049 139702.000000 0 0 1
26.606594 -14.075648 -19.590379 35.914031 -0.486600 2.147758 0.080285 -0.016177 446686.000000 0 0 1
27.828594 -13.381348 -19.366079 36.449089 -0.448210 2.130953 0.065719 -0.011104 96295.400000 0 0 1
27.837394 -12.426948 -18.131179 35.469553 -0.419866 2.107349 0.077822 -0.016249 -489264.000000 0 0 1
27.994194 -13.115748 -16.909079 35.236553 -0.438145 2.071307 0.095090 -0.019456 138462.000000 0 0 1
28.151194 -12.188848 -15.885779 34.545849 -0.408609 2.048618 0.084384 -0.017525 72278.800000 0 0 1
28.756694 -12.776448 -14.593479 34.686520 -0.418099 2.005040 0.108109 -0.031135 -154681.000000 0 0 1
27.935794 -13.762848 -13.998979 34.143754 -0.457758 1.993252 0.136114 -0.035386 104972.000000 0 0 1
28.514394 -14.360248 -12.870379 34.422871 -0.466535 1.953996 0.150786 -0.041490 -519043.000000 0 0 1
27.704694 -15.460848 -12.252879 34.010600 -0.509009 1.939350 0.160319 -0.065478 -857688.000000 0 0 1
26.441394 -15.164248 -11.741879 32.664559 -0.520709 1.938495 0.136118 -0.055363 -401729.000000 0 0 1
25.798694 -16.347348 -11.354379 32.584203 -0.564796 1.926727 0.112861 -0.053953 -618660.000000 0 0 1
24.364794 -15.988348 -10.964279 31.136568 -0.580726 1.930648 0.118292 -0.055585 -630974.000000 0 0 1
24.245394 -15.422848 -9.709279 30.331064 -0.566552 1.896642 0.094035 -0.050050 1622210.000000 0 0 1
22.833694 -15.330648 -9.345379 29.047245 -0.591276 1.898353 0.108342 -0.043818 1301010.000000 0 0 1
22.584694 -15.267048 -7.867779 28.373458 -0.594430 1.851772 0.087304 -0.032746 -524146.000000 0 0 1
22.601094 -14.019048 -7.277079 27.573520 -0.555199 1.837876 0.101532 -0.034481 471145.000000 0 0 1
22.204194 -13.980748 -5.877879 26.889347 -0.561932 1.791171 0.090454 -0.025607 -275222.000000 0 0 1
23.148694 -14.677648 -4.875079 27.839931 -0.565087 1.746815 0.087836 -0.016626 -576912.000000 0 0 1
24.434294 -14.127048 -4.932479 28.652008 -0.524209 1.743809 0.117357 -0.029497 -206928.000000 0 0 1
25.347594 -14.955448 -4.248879 29.735819 -0.533045 1.714175 0.125546 -0.033692 221810.000000 0 0 1
26.844694 -14.608748 -4.503079 30.892245 -0.498375 1.717085 0.148609 -0.037836 173854.000000 0 0 1
27.286294 -13.462948 -3.865779 30.671437 -0.458350 1.697171 0.158575 -0.036917 553371.000000 0 0 1
28.640094 -13.180148 -4.234779 31.810448 -0.431303 1.704318 0.185224 -0.050293 442894.000000 0 0 1
29.352294 -12.123348 -3.396979 31.938569 -0.391688 1.677358 0.242779 -0.062141 -732991.000000 0 0 1
29.752394 -12.645648 -2.134079 32.398636 -0.401896 1.636713 0.252128 -0.061172 508496.000000 0 0 1
30.345794 -11.748748 -1.165879 32.561627 -0.369391 1.606609 0.255127 -0.063435 476744.000000 0 0 1
31.725294 -11.129148 -1.525979 33.655324 -0.337385 1.616153 0.282734 -0.068779 -327622.000000 0 0 1
31.700694 -10.188748 -2.594079 33.398710 -0.310977 1.648545 0.286893 -0.081087 301637.000000 0 0 1
32.912294 -10.117048 -3.339279 34.593706 -0.298227 1.667475 0.329060 -0.080156 -68111.500000 0 0 1
32.753094 -9.788948 -4.842679 34.525935 -0.290421 1.711522 0.297037 -0.078925 -298528.000000 0 0 1
32.088494 -10.855948 -5.516779 34.321391 -0.326225 1.732235 0.294773 -0.077144 469405.000000 0 0 1
31.749294 -10.490748 -6.847379 34.131511 -0.319130 1.772785 0.269055 -0.074335 513060.000000 0 0 1
30.522394 -11.267948 -7.449879 33.377895 -0.353650 1.795890 0.240872 -0.065634 679104.000000 0 0 1
30.869194 -12.588948 -7.696379 34.214368 -0.387226 1.797684 0.251370 -0.062517 1017180.000000 0 0 1
29.653294 -13.325948 -7.936179 33.464633 -0.422348 1.810229 0.231520 -0.055117 736643.000000 0 0 1
29.891494 -14.860748 -8.053279 34.339460 -0.461370 1.807521 0.224074 -0.051126 -1309.270000 0 0 1
30.204694 -15.196348 -9.375579 35.087804 -0.466134 1.841286 0.233601 -0.063261 219436.000000 0 0 1
30.698094 -16.522048 -9.425279 36.113528 -0.493747 1.834844 0.208577 -0.063078 -144279.000000 0 0 1
31.094794 -16.974148 -10.800279 37.035846 -0.499678 1.866713 0.179279 -0.065331 491282.000000 0 0 1
32.426994 -16.554348 -11.153079 38.078177 -0.472021 1.868054 0.195281 -0.057118 1111480.000000 0 0 1
32.849294 -17.001848 -12.444779 39.025779 -0.477606 1.895350 0.183040 -0.050235 -165221.000000 0 0 1
32.266694 -16.315648 -13.678779 38.658103 -0.468157 1.932470 0.160804 -0.040922 -422176.000000 0 0 1
33.005994 -15.180248 -13.993179 38.931281 -0.431076 1.938456 0.142394 -0.042793 28054.300000 0 0 1
32.511394 -14.596248 -15.137479 38.719303 -0.421987 1.972465 0.117995 -0.032346 -934555.000000 0 0 1
33.461894 -13.650248 -15.892779 39.479210 -0.387327 1.985109 0.121647 -0.031062 60010.800000 0 0 1
34.376694 -14.300948 -16.784179 40.840946 -0.394229 1.994308 0.086362 -0.030374 1556190.000000 0 0 1
35.593194 -14.788748 -16.159679 41.793752 -0.393791 1.967796 0.100461 -0.031942 1108470.000000 0 0 1
36.724294 -15.230548 -17.168579 43.305929 -0.393137 1.978442 0.105805 -0.034779 1236800.000000 0 0 1
-37.980604 -15.264648 -16.687779 44.204273 0.382149 1.957908 0.106010 -0.041746 920966.000000 0 0 1
-37.114704 -15.701248 -17.732379 44.028033 0.400215 1.985318 0.125115 -0.050490 1210280.000000 0 0 1
-35.594904 -15.728348 -17.266279 42.573495 0.416073 1.988392 0.132708 -0.051133 1095530.000000 0 0 1
-35.247404 -16.706448 -16.305679 42.277181 0.442613 1.966747 0.123131 -0.048328 94685.100000 0 0 1
-35.614004 -16.387748 -14.972279 41.965280 0.431262 1.935613 0.097140 -0.041407 -432799.000000 0 0 1
-34.967304 -17.389048 -14.003079 41.487077 0.461481 1.915087 0.090787 -0.035689 1634950.000000 0 0 1
-33.537204 -17.179948 -13.768779 40.118249 0.473412 1.921123 0.108478 -0.035488 1646400.000000 0 0 1
-33.145104 -17.809548 -12.554979 39.666175 0.493056 1.892851 0.090113 -0.016157 -383509.000000 0 0 1
-31.649104 -17.657548 -12.287179 38.267866 0.508901 1.897670 0.111436 -0.021508 -609669.000000 0 0 1
-31.281104 -16.371248 -11.894979 37.256083 0.482160 1.895762 0.117174 -0.040563 177335.000000 0 0 1
-29.936204 -16.336748 -11.451479 35.975019 0.499550 1.894750 0.141971 -0.033374 269238.000000 0 0 1
-29.848104 -16.288248 -9.905879 35.416702 0.499539 1.854273 0.146658 -0.036419 26662.900000 0 0 1
-30.369404 -17.462948 -9.275079 36.239238 0.521848 1.829617 0.129817 -0.033664 -4036.940000 0 0 1
-30.730804 -17.155448 -7.898179 36.070389 0.509155 1.791551 0.143295 -0.040051 -307673.000000 0 0 1
-31.453804 -18.392148 -7.367179 37.173757 0.529120 1.770299 0.135373 -0.037500 937637.000000 0 0 1
-32.830304 -18.607348 -7.736079 38.521542 0.515630 1.772996 0.093671 -0.029245 857461.000000 0 0 1
-33.039104 -19.066248 -9.050479 39.204788 0.523397 1.803749 0.096090 -0.020774 -254792.000000 0 0 1
-34.384904 -19.731748 -9.459779 40.757219 0.520969 1.805033 0.076308 -0.017993 -139342.000000 0 0 1
-35.417104 -18.834648 -9.792779 41.291812 0.488759 1.810238 0.091413 -0.017189 -183819.000000 0 0 1
-36.465804 -19.659848 -10.274879 42.682990 0.494460 1.813909 0.088018 -0.028315 113368.000000 0 0 1
-37.788004 -18.966948 -10.673579 43.607381 0.465191 1.818074 0.104126 -0.045588 -17208.800000 0 0 1
-37.756504 -18.624148 -12.079579 43.798729 0.458249 1.850216 0.087173 -0.047856 776950.000000 0 0 1
37.069194 -17.951848 -12.368279 43.004282 -0.450992 1.862522 0.112636 -0.054666 434066.000000 0 0 1
36.596794 -18.078648 -13.857579 43.106790 -0.458832 1.898079 0.098088 -0.050360 -126510.000000 0 0 1
36.071394 -19.336648 -14.157679 43.306943 -0.492082 1.903833 0.077907 -0.043290 79252.300000 0 0 1
35.524794 -19.342948 -15.463779 43.304608 -0.498604 1.935950 0.073640 -0.043880 192636.000000 0 0 1
34.210394 -20.180148 -15.523579 42.644706 -0.532948 1.943378 0.102176 -0.049767 602672.000000 0 0 1
33.121294 -19.591048 -14.780879 41.222611 -0.534142 1.937524 0.134731 -0.048015 841324.000000 0 0 1
31.867794 -20.244248 -14.867579 40.576234 -0.565941 1.945945 0.152985 -0.046822 111368.000000 0 0 1
31.025694 -19.858048 -16.093179 40.198584 -0.569350 1.982686 0.149016 -0.046210 -763209.000000 0 0 1
30.392394 -18.589048 -15.992779 39.051495 -0.548931 1.992736 0.146376 -0.048751 405177.000000 0 0 1
29.465994 -18.488948 -17.062279 38.745417 -0.560372 2.026806 0.120804 -0.044124 -287543.000000 0 0 1
28.623594 -17.218248 -17.094079 37.523136 -0.541551 2.043799 0.114031 -0.031834 486535.000000 0 0 1
27.551294 -17.373448 -16.111479 36.338550 -0.562606 2.030153 0.128570 -0.036378 597186.000000 0 0 1
26.828294 -16.201448 -16.085779 35.227781 -0.543278 2.044991 0.104610 -0.030195 660677.000000 0 0 1
25.342394 -16.133048 -15.430679 33.773037 -0.566900 2.045296 0.091144 -0.036916 2370790.000000 0 0 1
24.330494 -16.836348 -16.152679 33.709711 -0.605327 2.070505 0.092544 -0.034468 335039.000000 0 0 1
24.027594 -16.242348 -17.383779 33.813236 -0.594428 2.110768 0.089203 -0.019914 -276201.000000 0 0 1
22.749094 -16.898948 -18.030379 33.588544 -0.638903 2.137438 0.072123 -0.015513 947341.000000 0 0 1
21.480494 -16.591048 -17.458479 32.271860 -0.657670 2.142400 0.060618 -0.016390 413046.000000 0 0 1
20.530594 -17.068048 -18.426379 32.440021 -0.693565 2.174887 0.049790 -0.011718 925899.000000 0 0 1
19.032494 -17.064748 -17.972279 31.248108 -0.730940 2.183581 0.069389 -0.014536 641576.000000 0 0 1
18.401894 -15.804048 -17.815479 30.096327 -0.709596 2.204271 0.083699 -0.018292 2792.760000 0 0 1
17.024694 -16.041648 -17.659879 29.309487 -0.755677 2.217465 0.101643 -0.019480 -20328.300000 0 0 1
16.103594 -14.932348 -17.085979 27.825015 -0.747678 2.231979 0.112456 -0.023843 -143502.000000 0 0 1
15.629794 -14.121548 -18.094079 27.768764 -0.734746 2.280486 0.106216 -0.023051 354010.000000 0 0 1
14.345994 -13.575548 -17.834279 26.611361 -0.757812 2.305241 0.113678 -0.012449 742207.000000 0 0 1
13.460294 -13.265848 -19.075579 26.852187 -0.778123 2.360851 0.108582 -0.018426 552929.000000 0 0 1
14.112094 -12.228348 -19.822679 27.232743 -0.714004 2.386049 0.135533 -0.024773 414078.000000 0 0 1
13.309094 -11.891048 -20.934279 27.509508 -0.729186 2.435624 0.114730 -0.021396 207554.000000 0 0 1
13.652294 -10.476048 -21.500579 27.539201 -0.654511 2.466624 0.134872 -0.026743 -245499.000000 0 0 1
15.004694 -10.465448 -21.891779 28.529221 -0.609032 2.445488 0.131978 -0.026008 -339625.000000 0 0 1
15.443794 -9.190448 -22.299979 28.640254 -0.536801 2.463266 0.145247 -0.033322 859415.000000 0 0 1
16.946194 -8.981348 -22.694779 29.713483 -0.487352 2.439957 0.132955 -0.031410 603664.000000 0 0 1
17.214494 -9.672148 -23.895279 30.997961 -0.511904 2.450996 0.170018 -0.023411 239376.000000 0 0 1
18.549394 -9.628248 -24.374079 32.107303 -0.478779 2.432794 0.132627 -0.034877 -190514.000000 0 0 1
21.747894 4.721852 -6.717379 23.246289 0.213799 1.863943 0.207103 -0.005822 -77081.400000 0 1 0
21.685794 6.033952 -7.217979 23.638558 0.271380 1.881100 0.238062 0.000951 552759.000000 0 1 0
21.374594 6.824352 -6.140179 23.262563 0.309044 1.837913 0.232757 -0.000644 -403043.000000 0 1 0
21.338094 8.341552 -6.431479 23.796211 0.372657 1.844473 0.192700 0.013549 -211791.000000 0 1 0
20.214194 8.783552 -7.197579 23.185546 0.409910 1.886446 0.098404 -0.000364 806317.000000 0 1 0
19.685894 10.110652 -7.021379 23.217654 0.474467 1.878022 0.083273 0.001138 -152440.000000 0 1 0
19.296094 10.552252 -5.598479 22.694321 0.500429 1.820060 0.113479 -0.011503 -645935.000000 0 1 0
20.277294 10.977352 -4.671479 23.526445 0.496187 1.770688 0.120329 -0.002106 169157.000000 0 1 0
20.824994 12.289752 -4.895579 24.671543 0.533141 1.770552 0.176568 -0.008981 378533.000000 0 1 0
21.496794 12.868252 -3.596679 25.310870 0.539399 1.713379 0.156613 -0.019485 995368.000000 0 0 1
22.685994 12.134752 -3.228179 25.929282 0.491177 1.695620 0.132503 -0.040890 909133.000000 0 0 1
23.406394 12.801652 -2.194179 26.768563 0.500483 1.652857 0.103411 -0.038792 647211.000000 0 0 1
24.469894 11.829352 -1.510979 27.221174 0.450300 1.626332 0.135772 -0.038746 894922.000000 0 0 1
25.562094 11.554152 -2.392979 28.153959 0.424519 1.655895 0.143241 -0.016791 -366295.000000 0 0 1
26.422394 10.623052 -1.894479 28.540868 0.382270 1.637223 0.167606 -0.024153 -150313.000000 0 0 1
27.677094 10.369452 -2.792779 29.687483 0.358471 1.665008 0.189672 -0.028792 288897.000000 0 0 1
28.687794 11.339652 -2.666179 30.962650 0.376429 1.657013 0.148511 -0.033681 199912.000000 0 0 1
29.936494 10.677552 -2.474679 31.879896 0.342608 1.648500 0.123295 -0.033316 434847.000000 0 0 1
31.149994 11.558552 -2.109579 33.292229 0.355313 1.634204 0.100602 -0.037786 -332033.000000 0 0 1
30.898994 12.284852 -0.941779 33.264881 0.378419 1.599112 0.144097 -0.046706 190888.000000 0 0 1
31.894594 13.209652 -0.508179 34.525617 0.392658 1.585516 0.112572 -0.050824 751187.000000 0 0 1
33.193394 12.507252 0.130821 35.471817 0.360347 1.567108 0.118318 -0.046057 1074140.000000 0 0 1
34.190694 13.340352 0.710221 36.707941 0.372008 1.551447 0.121795 -0.060660 400317.000000 0 0 1
35.240394 13.668352 -0.194379 37.798769 0.369998 1.575939 0.140003 -0.042535 -291774.000000 0 0 1
35.121794 14.810552 -1.227879 38.136603 0.399065 1.602999 0.094302 -0.019455 -246024.000000 0 0 1
34.120794 14.538452 -2.208879 37.154734 0.402792 1.630282 0.095844 -0.015239 9776.140000 0 0 1
33.810194 15.732652 -2.971179 37.409537 0.435523 1.650303 0.069299 0.000832 -62774.500000 0 0 1
32.538194 15.605752 -3.815579 36.288182 0.447206 1.676138 0.065265 -0.016474 -559866.000000 0 0 1
32.596094 14.646452 -4.858679 36.064257 0.422298 1.705930 0.057441 -0.013939 1610340.000000 0 0 1
31.319594 14.607352 -5.589979 35.007707 0.436405 1.731161 0.049014 -0.016629 1794260.000000 0 0 1
30.139694 13.839152 -4.930879 33.529641 0.430451 1.718392 0.068306 -0.020353 -412457.000000 0 0 1
28.945994 14.003152 -5.651979 32.648180 0.450578 1.744791 0.111348 -0.033723 -853984.000000 0 0 1
27.959394 13.233852 -5.065679 31.345233 0.442080 1.733117 0.123442 -0.015414 -676433.000000 0 0 1
26.887294 13.010652 -6.159779 30.498303 0.450682 1.774167 0.116993 -0.013272 -479151.000000 0 0 1
27.339094 12.108752 -7.193779 30.753835 0.416942 1.806899 0.115711 -0.001388 317022.000000 0 0 1
26.492094 11.852752 -8.306379 30.187989 0.420696 1.849547 0.147683 0.003681 -178132.000000 0 0 1
26.201994 13.098752 -9.183879 30.699599 0.463579 1.874601 0.154992 0.004873 -73556.100000 0 0 1
25.250794 13.947452 -8.572479 30.093544 0.504651 1.859658 0.144933 -0.013484 33923.400000 0 0 1
25.055194 15.123552 -9.268079 30.698238 0.543069 1.877491 0.142631 -0.026666 -955520.000000 0 0 1
24.116594 16.062152 -8.470379 30.188576 0.587555 1.855197 0.134577 -0.022826 1349790.000000 0 0 1
22.689594 15.850552 -8.558279 28.970706 0.609774 1.870683 0.181370 -0.041722 1487380.000000 0 0 1
22.177294 14.566952 -8.214279 27.775939 0.581169 1.871020 0.193888 -0.046928 -1967130.000000 0 0 1
20.714794 14.266852 -8.457579 26.536322 0.603121 1.895172 0.222353 -0.029671 -1206260.000000 0 0 1
19.989294 14.813652 -7.396279 25.956138 0.637767 1.859754 0.295453 -0.068659 -236039.000000 0 0 1
18.609294 14.663252 -7.681579 24.906293 0.667352 1.884327 0.294391 -0.059411 -658371.000000 0 1 0
17.794894 15.227852 -6.575879 24.326691 0.707819 1.844517 0.275021 -0.037316 -765808.000000 0 1 0
17.717394 14.300852 -5.508379 23.425683 0.679094 1.808162 0.254530 -0.042161 392085.000000 0 1 0
16.964394 14.835752 -4.435179 22.968696 0.718560 1.765114 0.215282 -0.028703 112949.000000 0 1 0
16.679394 13.734152 -3.441979 21.878673 0.688859 1.728774 0.152580 -0.014563 482634.000000 0 1 0
17.915594 13.398652 -2.810379 22.547518 0.642141 1.695764 0.154562 -0.009895 893116.000000 0 1 0
17.697794 12.342952 -1.896879 21.660067 0.608998 1.658484 0.140716 -0.014173 22801.900000 0 1 0
17.336494 12.833552 -0.458279 21.574616 0.637240 1.592040 0.142769 -0.027886 -320700.000000 0 1 0
16.217994 13.642052 -0.266379 21.194335 0.699344 1.583365 0.132444 -0.036878 -244920.000000 0 1 0
16.484594 14.715752 0.648121 22.106905 0.728766 1.541475 0.134171 -0.025839 -372607.000000 0 1 0
15.257294 15.409152 1.265821 21.721631 0.790350 1.512489 0.140104 -0.026984 -225658.000000 0 1 0
14.716894 16.383752 0.363321 22.026036 0.838943 1.554301 0.138985 -0.036738 608924.000000 0 1 0
13.666294 17.166652 0.931821 21.962008 0.898441 1.528355 0.108682 -0.045377 276514.000000 0 1 0
13.487394 18.575652 0.421621 22.959582 0.942781 1.552432 0.110847 -0.051856 -103112.000000 0 1 0
13.165694 18.715652 -0.939479 22.901828 0.957753 1.611830 0.127855 -0.056079 -34070.300000 0 1 0
12.880294 20.022952 -1.326179 23.844901 0.999162 1.626442 0.122779 -0.057991 298722.000000 0 1 0
11.364994 20.344152 -1.438279 23.347724 1.061346 1.632438 0.097932 -0.051445 297849.000000 0 1 0
10.664894 20.397552 -0.215879 23.018399 1.089035 1.580175 0.073107 -0.047361 -92586.300000 0 1 0
9.270594 20.428152 -0.485779 22.438567 1.144775 1.592447 0.055461 -0.038720 548995.000000 0 1 0
8.455694 20.297752 0.861121 22.005431 1.176077 1.531654 0.025131 -0.039504 22253.500000 0 1 0
8.525694 21.536052 1.584621 23.216373 1.193847 1.502489 0.025888 -0.037393 50433.500000 0 1 0
7.727394 21.565052 2.732221 23.070091 1.226720 1.452086 0.030957 -0.036404 -339355.000000 0 1 0
7.458594 23.008452 3.184621 24.395927 1.257318 1.439884 0.033618 -0.024145 8407.770000 0 1 0
7.876094 23.318152 4.486421 25.017934 1.245061 1.390493 0.043427 -0.026820 42722.900000 0 0 1
7.541894 24.642652 4.892921 26.231300 1.273798 1.383167 0.042145 -0.018085 300077.000000 0 0 1
8.056894 25.043752 6.352421 27.063930 1.259541 1.333867 0.056840 -0.025164 152856.000000 0 0 1
7.179294 24.501152 7.308921 26.556901 1.285757 1.291981 0.049540 -0.017855 9841.340000 0 0 1
7.640594 24.638352 8.670521 27.214058 1.270091 1.246539 0.058920 -0.019168 -87126.000000 0 0 1
7.093894 23.633952 9.702221 26.514526 1.279196 1.196174 0.059794 -0.022657 -49143.200000 0 0 1
5.837994 23.892152 10.293621 26.662253 1.331144 1.174424 0.072828 -0.025570 -22966.100000 0 0 1
5.433994 22.715652 10.932121 25.788377 1.335991 1.133031 0.070399 -0.032666 121474.000000 0 0 1
4.038594 22.630652 11.606821 25.752183 1.394199 1.103233 0.056906 -0.032054 44743.300000 0 0 1
2.959694 23.021952 10.818721 25.608881 1.442938 1.134639 0.060792 -0.027886 -1021290.000000 0 0 1
1.836094 23.212052 11.598221 26.013253 1.491860 1.108664 0.071245 -0.030058 -16069.900000 0 0 1
0.531094 23.518752 10.787021 25.879984 1.548218 1.140864 0.078471 -0.018076 381027.000000 0 0 1
0.637294 24.783452 10.206221 26.810307 1.545088 1.180262 0.083008 -0.021333 168564.000000 0 0 1
-0.221906 24.947852 9.093521 26.554410 -1.561902 1.221274 0.081702 -0.023095 1420540.000000 0 0 1
-1.681606 25.520052 9.315021 27.218936 -1.504998 1.221512 0.095938 -0.029493 1543650.000000 0 0 1
-2.564706 24.724652 10.108721 26.834164 -1.467435 1.184553 0.086087 -0.027516 872065.000000 0 0 1
-3.908306 25.224152 10.070421 27.439863 -1.417076 1.195015 0.091011 -0.029681 658507.000000 0 0 1
-5.024006 24.297452 10.680921 27.012754 -1.366899 1.164290 0.066194 -0.028902 474046.000000 0 0 1
-5.332106 24.448552 12.078521 27.785854 -1.356064 1.121091 0.060115 -0.020049 60163.600000 0 0 1
-5.916306 25.687652 12.435021 29.145975 -1.344427 1.130015 0.060690 -0.015353 -277004.000000 0 0 1
-6.295806 25.741952 13.918321 29.933341 -1.330931 1.087187 0.064185 -0.019714 578736.000000 0 0 1
-7.395906 24.872352 14.239821 29.599085 -1.281768 1.068899 0.058048 -0.011984 526696.000000 0 0 1
-7.816006 25.078452 15.613121 30.557949 -1.268675 1.034524 0.043898 -0.006672 79709.700000 0 0 1
-9.052406 24.196752 15.957221 30.365470 -1.212800 1.017487 0.052901 -0.018032 761142.000000 0 0 1
-10.233506 24.798552 15.389821 30.927971 -1.179419 1.049964 0.057368 -0.014607 63981.100000 0 0 1
-11.275206 23.856252 15.402121 30.552845 -1.129283 1.042440 0.048403 -0.011756 664238.000000 0 0 1
-12.699906 24.457052 15.130921 31.438508 -1.091849 1.068675 0.043416 -0.015809 676771.000000 0 0 1
-13.304706 25.269452 16.097121 32.782277 -1.086164 1.057523 0.047997 -0.021085 -125526.000000 0 0 1
-14.152206 26.205452 15.492821 33.571389 -1.075626 1.091124 0.033408 -0.018511 -359940.000000 0 0 1
-14.980406 27.131252 16.407221 35.067282 -1.066307 1.083908 0.035163 -0.014698 -764718.000000 0 0 1
-16.137406 26.533452 16.878821 35.345927 -1.024376 1.072952 0.039509 -0.022015 -559255.000000 0 0 1
-16.722906 27.280952 17.923821 36.676549 -1.020881 1.060198 0.058942 -0.024280 13556.300000 0 0 1
-18.064806 26.768552 18.502521 37.218757 -0.977148 1.050510 0.052021 -0.031209 -383105.000000 0 0 1
-19.141906 27.109352 17.698121 37.610544 -0.955988 1.080868 0.044134 -0.029966 2130.970000 0 0 1
-20.344306 26.500852 18.207721 38.048746 -0.916073 1.071809 0.060992 -0.026602 449634.000000 0 0 1
-21.545206 26.702452 17.287721 38.419814 -0.891885 1.104066 0.076120 -0.028982 -386592.000000 0 0 1
-22.342106 27.873852 17.419821 39.743823 -0.895115 1.117087 0.066723 -0.030563 395143.000000 0 0 1
-23.117406 28.085152 16.262221 39.845327 -0.882117 1.150388 0.085191 -0.027375 423517.000000 0 0 1
-24.228306 29.196652 16.366921 41.319867 -0.878128 1.163528 0.074328 -0.029134 547700.000000 0 0 1
-25.433906 28.888852 17.036521 42.091477 -0.848913 1.154091 0.092658 -0.029326 188199.000000 0 0 1
-26.293096 30.024952 16.993121 43.377307 -0.851565 1.168262 0.083876 -0.027567 232252.000000 0 0 1
-27.653766 29.716852 17.656121 44.266925 -0.821343 1.160528 0.100335 -0.020955 213285.000000 0 0 1
-28.650496 28.945152 16.974221 44.122522 -0.790514 1.175906 0.132584 -0.014087 919728.000000 0 0 1
-29.841286 28.862552 17.784521 45.164571 -0.768727 1.166065 0.162705 -0.020218 715044.000000 0 0 1
-29.916506 27.558652 18.640721 44.743191 -0.744397 1.141077 0.153877 -0.019497 -309518.000000 0 0 1
-30.216656 26.359052 17.901421 43.912490 -0.717319 1.150905 0.150141 -0.011372 278777.000000 0 0 1
-30.413076 25.227452 18.708821 43.719555 -0.692468 1.128597 0.144972 -0.012480 -40647.600000 0 0 1
-30.607036 23.896552 17.924821 42.768389 -0.662895 1.138327 0.140473 -0.015302 43089.700000 0 0 1
-31.836516 23.841852 17.222921 43.343127 -0.642786 1.162156 0.168536 -0.018917 137618.000000 0 0 1
-31.842816 22.907852 16.172221 42.429652 -0.623630 1.179752 0.157823 -0.018542 -98789.800000 0 0 1
-32.287866 21.469352 16.513821 42.144343 -0.586803 1.168166 0.138641 -0.014273 -444531.000000 0 0 1
-33.631936 21.229252 16.834221 43.187721 -0.563062 1.170391 0.134702 -0.010735 -242502.000000 0 0 1
-33.941684 19.845952 16.928521 42.807412 -0.529099 1.164230 0.106541 -0.006982 477637.000000 0 0 1
-35.281754 19.391852 16.271321 43.423519 -0.502558 1.186710 0.101459 -0.018628 340962.000000 0 0 1
-35.382847 19.586052 14.881421 43.093109 -0.505562 1.218204 0.086253 -0.011768 513393.000000 0 0 1
-36.692076 19.317552 14.361421 43.883103 -0.484605 1.237388 0.107116 -0.022039 674512.000000 0 0 1
-36.887366 19.641452 12.837221 43.717944 -0.489286 1.272767 0.106233 -0.020163 -13142.900000 0 0 1
-37.023496 21.028052 12.585321 44.399421 -0.516531 1.283399 0.103673 -0.031242 -18349.000000 0 0 1
-37.290166 21.408352 11.234821 44.442044 -0.521159 1.315226 0.068017 -0.021003 -15131.000000 0 0 1
-36.218166 21.137452 10.139221 43.143380 -0.528284 1.333565 0.094096 -0.026513 -137101.000000 0 0 1
-36.174346 19.799252 9.700921 42.363918 -0.500790 1.339756 0.125022 -0.028626 -457611.000000 0 0 1
-35.084202 19.539252 8.873921 41.127000 -0.508144 1.353317 0.141541 -0.030821 -387666.000000 0 0 1
-34.174719 18.432552 9.497021 39.973289 -0.494639 1.330918 0.094529 -0.027802 -53575.700000 0 0 1
-33.569856 18.823852 10.700521 39.947138 -0.511049 1.299618 0.106687 -0.031756 3532.490000 0 0 1
-33.240726 17.740852 11.558621 39.411742 -0.490249 1.273142 0.120791 -0.038548 -33736.600000 0 0 1
-32.748206 18.188952 12.940821 39.632661 -0.506994 1.238178 0.095172 -0.014287 775807.000000 0 0 1
-31.500986 18.911652 12.902921 38.941598 -0.540678 1.233073 0.130795 -0.011687 491428.000000 0 0 1
-31.647036 20.341152 12.790621 39.735341 -0.571262 1.243066 0.136945 -0.013802 -95235.200000 0 0 1
-30.340456 21.117652 13.025721 39.193978 -0.608052 1.232013 0.152024 -0.025107 -222333.000000 0 0 1
-29.776636 20.965652 14.293321 39.121678 -0.613471 1.196782 0.129506 -0.017992 246733.000000 0 0 1
-28.530806 21.674852 14.236121 38.554808 -0.649680 1.192601 0.179733 -0.022404 145194.000000 0 0 1
-27.651406 21.470352 15.453321 38.267237 -0.660225 1.155101 0.156375 -0.018837 -452317.000000 0 0 1
-27.076456 20.217452 15.645521 37.237913 -0.641373 1.137185 0.182203 -0.036133 -172558.000000 0 0 1
-26.562376 20.141152 16.973321 37.407479 -0.648766 1.099837 0.142253 -0.016783 -53721.500000 0 0 1
-25.580826 18.975652 17.174121 36.185694 -0.638227 1.076275 0.154160 -0.019995 -48699.600000 0 0 1
-25.024376 18.905552 18.462021 36.393482 -0.647003 1.038760 0.142959 -0.021810 -244701.000000 0 0 1
-24.276806 17.727952 18.579521 35.338962 -0.630736 1.017198 0.129423 -0.018078 -195506.000000 0 0 1
-23.549806 17.698252 19.970721 35.590043 -0.644476 0.975043 0.111514 -0.007981 -76205.900000 0 0 1
-24.347806 17.364352 21.092421 36.595445 -0.619516 0.956520 0.109092 -0.006339 -107035.000000 0 0 1
-23.932806 17.925652 22.300021 37.301463 -0.642860 0.930002 0.122941 -0.009924 -192506.000000 0 0 1
-24.615006 17.318052 23.519821 38.196799 -0.613109 0.907454 0.102782 -0.016193 -339634.000000 0 0 1
-24.272906 15.976752 23.709621 37.504356 -0.582127 0.886429 0.095174 -0.026777 -273085.000000 0 0 1
-25.052936 15.420552 24.690521 38.406573 -0.551752 0.872554 0.082613 -0.028652 -277512.000000 0 0 1
22.602394 25.073952 33.365659 47.464075 0.837192 0.791236 0.084947 -0.013511 14526.600000 0 0 1
23.323094 24.028152 32.736686 46.829578 0.800287 0.796714 0.113303 -0.023321 95471.800000 0 0 1
23.022394 22.687752 33.288301 46.399091 0.778077 0.770684 0.102273 -0.023718 243009.000000 0 0 1
21.872694 21.883452 32.628185 44.965527 0.785644 0.758852 0.103907 -0.033934 215550.000000 0 0 1
22.325494 21.270052 31.428885 44.029735 0.761193 0.775872 0.112530 -0.031420 742993.000000 0 0 1
21.417594 20.227052 30.992919 42.759887 0.756818 0.760034 0.137935 -0.033096 469134.000000 0 0 1
21.797894 19.680352 29.564189 41.671401 0.734391 0.782065 0.154110 -0.020979 901719.000000 0 0 1
22.883394 18.714952 29.503739 41.765652 0.685525 0.786381 0.136843 -0.020757 526563.000000 0 0 1
22.952294 18.292352 28.188669 40.694213 0.672892 0.805578 0.134224 -0.021818 -95996.800000 0 0 1
23.979094 17.134652 28.005089 40.655605 0.620435 0.810913 0.135071 -0.022395 -189556.000000 0 0 1
25.280094 17.656252 27.961159 41.625146 0.609668 0.834245 0.115934 -0.019976 -631251.000000 0 0 1
26.189694 16.647052 28.367969 42.044810 0.566209 0.830227 0.101313 -0.011553 568909.000000 0 0 1
27.633594 17.171152 28.650179 43.350856 0.555997 0.848791 0.101257 -0.019086 446920.000000 0 0 1
28.397894 17.398252 27.477869 43.176067 0.549676 0.880956 0.107571 -0.011117 55172.700000 0 0 1
29.667694 17.944452 27.770419 44.422647 0.543977 0.895484 0.112316 -0.005565 481655.000000 0 0 1
30.715794 17.749252 26.635209 44.361360 0.523977 0.926777 0.105201 -0.001790 269746.000000 0 0 1
30.599194 18.782452 25.687639 44.146868 0.550521 0.949773 0.125287 -0.004423 412278.000000 0 0 1
31.714994 18.771952 24.805459 44.424518 0.534439 0.978373 0.131579 -0.007693 216509.000000 0 0 1
31.759794 20.001652 23.893929 44.493487 0.562029 1.003895 0.139444 -0.021121 -357296.000000 0 0 1
30.859394 20.057552 22.816809 43.303745 0.576351 1.015845 0.124519 -0.016917 -164045.000000 0 0 1
31.170494 20.990452 21.822789 43.456102 0.592655 1.044678 0.107411 -0.026565 -226511.000000 0 0 1
31.927294 20.373152 20.641489 43.133380 0.567972 1.071793 0.131802 -0.028107 193870.000000 0 0 1
31.073094 19.483452 19.897489 41.725916 0.560051 1.073716 0.127481 -0.045112 361806.000000 0 0 1
31.626594 18.977352 18.679589 41.343782 0.540452 1.102002 0.157469 -0.044835 826494.000000 0 0 1
32.831694 17.947852 18.745289 41.850105 0.500277 1.106364 0.184974 -0.059516 931075.000000 0 0 1
32.364294 16.690852 19.270189 41.199177 0.476143 1.084073 0.207243 -0.053060 150728.000000 0 0 1
33.447694 15.900352 19.672989 41.935616 0.443758 1.082498 0.203586 -0.047167 -900089.000000 0 0 1
33.033594 14.521952 20.122089 41.315903 0.414181 1.062110 0.211867 -0.052052 161512.000000 0 0 1
32.235094 14.454452 21.280089 41.241661 0.421529 1.028639 0.180559 -0.051254 750010.000000 0 0 1
30.849694 14.799352 21.237089 40.270812 0.447296 1.015310 0.187443 -0.039166 394344.000000 0 0 1
30.101794 14.355852 22.537629 40.251126 0.445006 0.976501 0.143703 -0.036438 171456.000000 0 0 1
29.890394 12.949352 22.703789 39.706213 0.408819 0.962105 0.149579 -0.031555 114996.000000 0 0 1
28.975694 12.683952 23.758119 39.559091 0.412616 0.926579 0.130095 -0.028325 145262.000000 0 0 1
28.547194 11.193352 23.645719 38.721485 0.373677 0.913901 0.149320 -0.025794 -138380.000000 0 0 1
27.808594 11.045652 22.467099 37.417841 0.378093 0.926747 0.125973 -0.019664 -314885.000000 0 0 1
27.377394 9.717452 22.303529 36.625100 0.341073 0.916037 0.119676 -0.010203 -129488.000000 0 0 1
26.198994 9.540852 21.318389 35.098274 0.349241 0.918024 0.095802 -0.011373 354883.000000 0 0 1
24.918094 9.808852 21.893789 34.589925 0.375015 0.885435 0.101732 -0.013238 162234.000000 0 0 1
23.961694 9.565552 20.891089 33.197893 0.379818 0.890158 0.099261 0.002245 -602439.000000 0 0 1
22.514494 9.659352 21.366589 32.507485 0.405278 0.853590 0.101652 -0.010763 -509096.000000 0 0 1
22.055194 8.576852 22.157989 32.418674 0.370885 0.818257 0.104917 -0.011925 -47892.500000 0 0 1
20.668094 8.721152 22.365189 31.676967 0.399295 0.786906 0.112026 -0.017855 -22521.000000 0 0 1
20.307894 8.230252 23.789179 32.343046 0.385044 0.744352 0.103217 -0.020737 -39815.200000 0 0 1
20.371794 6.838052 23.955169 32.181035 0.323846 0.731179 0.079345 -0.015063 261907.000000 0 0 1
19.852794 6.404352 25.212569 32.723428 0.312052 0.691211 0.085341 -0.023165 112594.000000 0 0 1
19.933694 4.869852 25.153869 32.462050 0.239609 0.684287 0.080403 -0.027251 -792281.000000 0 0 1
21.211294 4.394752 25.383599 33.370045 0.204299 0.706451 0.076545 -0.019280 -622267.000000 0 0 1
21.190194 2.993852 25.420609 33.229427 0.140356 0.699750 0.065825 -0.010709 616447.000000 0 0 1
22.589994 2.341952 25.092649 33.844254 0.103303 0.735619 0.063121 -0.016554 741143.000000 0 0 1
23.535294 2.618852 26.092149 35.235900 0.110818 0.736984 0.063452 -0.025334 149801.000000 0 0 1
24.859194 2.530352 25.604409 35.776639 0.101438 0.773208 0.066736 -0.026177 47704.400000 0 0 1
26.019394 3.056752 26.435139 37.217860 0.116944 0.780899 0.073634 -0.026201 -626778.000000 0 0 1
26.540794 2.110552 27.297889 38.131914 0.079354 0.772912 0.081975 -0.032346 63503.900000 0 0 1
27.368094 2.636052 28.347349 39.490929 0.096022 0.770131 0.090777 -0.024818 132357.000000 0 0 1
28.855594 2.668652 27.984329 40.285104 0.092221 0.802853 0.085696 -0.033411 -1273050.000000 0 0 1
29.183394 3.868152 27.226529 40.098839 0.131778 0.824417 0.105914 -0.027878 933836.000000 0 0 1
30.589694 4.128352 27.072299 41.057058 0.134148 0.850799 0.118101 -0.028486 815014.000000 0 0 1
31.314994 3.081352 26.124479 40.897579 0.098083 0.877887 0.130676 -0.028607 -735450.000000 0 0 1
30.974494 3.088852 24.796849 39.797537 0.099394 0.898128 0.134021 -0.027352 -19993.200000 0 0 1
31.682194 2.123452 24.035539 39.824334 0.066923 0.922864 0.125977 -0.025604 -374124.000000 0 0 1
31.417494 2.189352 22.489139 38.699012 0.069573 0.950680 0.143445 -0.031956 102383.000000 0 0 1
32.096794 3.228052 21.844489 38.959032 0.100235 0.975560 0.134822 -0.031235 655856.000000 0 0 1
33.526594 3.127752 21.747889 40.084735 0.093022 0.997329 0.132689 -0.035952 420319.000000 0 0 1
34.132894 4.461852 21.439489 40.553843 0.129983 1.013767 0.144211 -0.043011 -708081.000000 0 0 1
33.685494 5.030352 20.191289 39.594255 0.148237 1.035664 0.127927 -0.036211 244110.000000 0 0 1
34.382794 6.207052 19.873689 40.195366 0.178604 1.053620 0.129668 -0.040211 -689495.000000 0 0 1
35.882594 6.148252 19.545389 41.320500 0.169696 1.078082 0.105934 -0.034455 -714630.000000 0 0 1
36.738194 6.023552 20.638989 42.566958 0.162513 1.064594 0.106227 -0.042271 -149316.000000 0 0 1
36.960594 7.195452 21.349189 43.285654 0.192274 1.055013 0.129124 -0.042680 -506758.000000 0 0 1
37.521494 6.921752 22.773709 44.434389 0.182423 1.032674 0.138737 -0.042850 509451.000000 0 0 1
36.534394 6.253652 23.540339 43.909197 0.169529 1.004969 0.145369 -0.026839 414586.000000 0 0 1
37.221694 5.480452 24.474029 44.882824 0.146188 0.994065 0.153508 -0.030348 -202168.000000 0 0 1
36.402494 4.394352 25.130979 44.452423 0.120134 0.969944 0.164037 -0.025744 -338600.000000 0 0 1
36.241994 3.209252 24.388359 43.801523 0.088320 0.980277 0.171091 -0.032940 230764.000000 0 0 1
35.731994 2.130352 25.173499 43.760928 0.059550 0.957886 0.163157 -0.040153 34939.600000 0 0 1
35.710594 0.738752 24.478769 43.301297 0.020684 0.969984 0.136528 -0.033894 1142870.000000 0 0 1
34.498694 0.508452 23.690799 41.852985 0.014737 0.969092 0.138539 -0.029011 1049250.000000 0 0 1
34.372494 -0.884848 23.406469 41.594640 -0.025737 0.973114 0.122390 -0.026695 -497670.000000 0 0 1
33.207094 -1.450648 22.611849 40.200885 -0.043657 0.973424 0.139311 -0.009790 -457062.000000 0 0 1
31.936494 -1.177148 23.152589 39.463498 -0.036842 0.943839 0.134765 -0.014854 -280367.000000 0 0 1
30.917394 -1.752148 22.349479 38.189716 -0.056611 0.945642 0.127513 -0.011394 315226.000000 0 0 1
29.503694 -1.366548 22.835539 37.333594 -0.046285 0.912637 0.122591 -0.021459 35590.100000 0 0 1
29.050794 -0.058848 22.519139 36.756818 -0.002026 0.911385 0.127976 -0.017526 1028410.000000 0 0 1
27.619494 0.015052 22.714669 35.760213 0.000545 0.882537 0.117831 -0.026451 908979.000000 0 0 1
26.997794 1.373552 22.362579 35.083506 0.050833 0.879664 0.104948 -0.003239 -165881.000000 0 0 1
26.817894 1.568252 20.957089 34.071372 0.058411 0.908291 0.123230 -0.013120 175655.000000 0 0 1
26.606194 2.932252 20.615589 33.785946 0.109766 0.914506 0.119091 -0.009481 -278356.000000 0 0 1
27.311194 3.194052 19.282989 33.584772 0.116421 0.959220 0.147686 -0.021127 -103871.000000 0 0 1
26.652194 2.601952 18.190089 32.372657 0.097318 0.974119 0.131627 -0.013515 516940.000000 0 0 1
25.443394 3.237552 17.792689 31.215826 0.126565 0.964303 0.136445 -0.015537 214736.000000 0 0 1
25.047194 2.936852 16.326789 30.042487 0.116720 0.996247 0.144154 -0.020089 -377021.000000 0 0 1
25.960394 3.483152 15.423189 30.396531 0.133375 1.038632 0.139316 -0.018411 199073.000000 0 0 1
25.439794 3.822552 14.121089 29.346212 0.149143 1.068785 0.111183 -0.021932 -121672.000000 0 0 1
24.930694 2.656352 13.192789 28.330996 0.106149 1.086409 0.131778 -0.013305 -858057.000000 0 0 1
23.777294 2.065352 13.607689 27.473525 0.086645 1.052614 0.159612 -0.007199 -944930.000000 0 0 1
23.374594 0.873052 13.012689 26.766843 0.037333 1.063118 0.160934 -0.010169 -566134.000000 0 0 1
21.884194 0.528552 13.286989 25.607447 0.024148 1.025265 0.208147 -0.027827 160864.000000 0 0 1
20.897694 1.177152 12.491189 24.374763 0.056270 1.032745 0.246313 -0.033961 526917.000000 0 1 0
20.973394 1.098252 11.075089 23.743357 0.052316 1.085523 0.246928 -0.029673 -1351570.000000 0 1 0
20.804794 -0.301548 10.399789 23.261255 -0.014493 1.107291 0.251930 -0.030874 74999.100000 0 1 0
21.811894 -1.343348 10.567389 24.274122 -0.061510 1.120385 0.242654 -0.047390 421714.000000 0 1 0
22.922194 -1.158348 9.757989 24.939669 -0.050491 1.168792 0.254260 -0.047109 -1007600.000000 0 1 0
24.140594 -2.029548 10.085189 26.241158 -0.083875 1.176317 0.252401 -0.055616 -254261.000000 0 0 1
24.691094 -1.524848 11.292789 27.193792 -0.061679 1.142556 0.216004 -0.054215 -32929.000000 0 0 1
25.233694 -2.578948 12.067089 28.089231 -0.101849 1.126748 0.124998 -0.041200 -120413.000000 0 0 1
25.592194 -2.143348 13.478189 29.003722 -0.083555 1.087494 0.171895 -0.030539 156160.000000 0 0 1
26.701194 -1.270448 13.622889 30.002514 -0.047544 1.099481 0.128498 -0.027112 189755.000000 0 0 1
27.012694 -1.148048 15.001689 30.920128 -0.042475 1.064232 0.114839 -0.023882 64681.400000 0 0 1
28.089294 -0.042348 15.089889 31.885968 -0.001508 1.077825 0.158883 -0.029994 -506823.000000 0 0 1
29.405994 -0.423848 14.868889 32.954149 -0.014413 1.102688 0.174509 -0.026213 -211618.000000 0 0 1
30.275594 0.711552 14.994889 33.792966 0.023498 1.111042 0.155081 -0.031019 636198.000000 0 0 1
31.789594 0.413552 15.171889 35.226914 0.013008 1.125539 0.163854 -0.031850 484276.000000 0 0 1
32.493094 -0.156948 14.076389 35.411446 -0.004830 1.161995 0.183691 -0.037396 573791.000000 0 0 1
33.806994 -0.541548 14.464889 36.775523 -0.016017 1.166546 0.164124 -0.033672 167490.000000 0 0 1
34.497894 -1.528448 13.562489 37.099621 -0.044277 1.196552 0.144959 -0.039748 -254402.000000 0 0 1
34.799394 -0.975548 12.260789 36.909029 -0.028026 1.232172 0.158562 -0.047543 498184.000000 0 0 1
35.684994 -1.789348 11.496289 37.533787 -0.050101 1.259501 0.152919 -0.055772 95477.500000 0 0 1
35.661094 -1.700248 9.905489 37.050279 -0.047642 1.300152 0.192931 -0.051475 -352658.000000 0 0 1
36.040194 -0.451048 9.364889 37.239765 -0.012514 1.316592 0.148398 -0.043678 574847.000000 0 0 1
35.030994 0.525552 9.560989 36.316101 0.015001 1.304385 0.156779 -0.040874 -156706.000000 0 0 1
35.482194 1.967752 9.205389 36.709635 0.055401 1.317329 0.161594 -0.040008 -74020.400000 0 0 1
35.562894 2.112052 7.806789 36.470894 0.059320 1.355072 0.149911 -0.038147 320819.000000 0 0 1
35.912794 3.416752 7.385089 36.823124 0.094855 1.368871 0.139448 -0.028887 -257257.000000 0 0 1
36.343794 3.399552 5.931089 36.981159 0.093267 1.409719 0.117454 -0.024697 -184958.000000 0 0 1
36.746594 4.704352 5.549289 37.459814 0.127329 1.422109 0.106851 -0.011426 220141.000000 0 0 1
36.922694 4.631752 4.122489 37.439729 0.124793 1.460463 0.125868 -0.016605 -59196.300000 0 0 1
37.254894 6.042552 3.500889 37.903770 0.160795 1.478302 0.167103 -0.037571 274609.000000 0 0 1
36.207694 7.006152 3.688989 37.063349 0.191137 1.471099 0.144492 -0.032903 256719.000000 0 0 1
36.510594 8.332652 3.234889 37.588842 0.224382 1.484630 0.148718 -0.045506 -559604.000000 0 0 1
35.327294 9.392552 3.245489 36.698377 0.259861 1.482244 0.166352 -0.055621 789382.000000 0 0 1
34.266394 9.165852 2.334689 35.547846 0.261369 1.505072 0.169833 -0.057213 177014.000000 0 0 1
33.493894 8.023552 2.578289 34.537890 0.235122 1.496076 0.174591 -0.037780 -1304110.000000 0 0 1
32.259294 7.894752 1.676589 33.253572 0.240011 1.520357 0.201847 -0.036561 221875.000000 0 0 1
32.727294 7.705452 0.322989 33.623713 0.231233 1.561190 0.223790 -0.030616 678445.000000 0 0 1
31.623994 7.350752 -0.485911 32.470704 0.228387 1.585761 0.240480 -0.031433 -52987.800000 0 0 1
32.036894 7.237852 -1.962911 32.902919 0.222192 1.630489 0.207810 -0.012974 -657833.000000 0 0 1
31.223994 6.420252 -2.763111 31.996753 0.202793 1.657260 0.271100 -0.020778 335558.000000 0 0 1
31.609294 6.346052 -4.125711 32.502943 0.198131 1.698073 0.215260 -0.013579 -623432.000000 0 0 1
30.651094 5.528152 -4.976411 31.540683 0.178439 1.729236 0.279323 -0.010991 -678769.000000 0 0 1
30.732794 4.127852 -4.709411 31.364348 0.133515 1.721518 0.289408 -0.011271 426040.000000 0 0 1
29.717794 3.443952 -5.386411 30.397722 0.115374 1.748935 0.307501 -0.015172 -467019.000000 0 0 1
29.644394 1.915552 -5.098911 30.140642 0.064528 1.740784 0.346859 -0.013613 -277146.000000 0 0 1
29.274494 1.613852 -3.780511 29.561677 0.055073 1.699033 0.400300 -0.027504 274753.000000 0 0 1
29.257194 0.224952 -3.755611 29.498112 0.007689 1.698460 0.355358 -0.038760 -106853.000000 0 0 1
29.370994 -0.271548 -2.284811 29.460980 -0.009245 1.648428 0.359660 -0.045840 616052.000000 0 0 1
30.613494 0.081152 -1.646411 30.657841 0.002651 1.624525 0.305629 -0.040082 732214.000000 0 0 1
30.650294 -0.088348 -0.219011 30.651203 -0.002882 1.577942 0.320637 -0.042161 -416505.000000 0 0 1
32.013394 0.366052 0.284689 32.016752 0.011434 1.561904 0.335919 -0.036483 41421.800000 0 0 1
33.137794 -0.363248 -0.192211 33.140342 -0.010961 1.576596 0.259473 -0.032214 -399717.000000 0 0 1
34.324194 0.126252 0.312689 34.325850 0.003678 1.561687 0.168008 -0.030983 -735930.000000 0 0 1
-2.973006 -21.253048 -8.337279 23.022620 1.431812 1.941353 0.054424 -0.012676 70784.600000 0 1 0
-3.362306 -21.479648 -7.037079 22.851715 1.415522 1.883829 0.055645 -0.026868 -199015.000000 0 1 0
-2.890406 -22.728048 -6.469279 23.806936 1.444302 1.845996 0.056875 -0.023386 -137540.000000 0 1 0
-3.537406 -23.099948 -5.134279 23.926589 1.418842 1.787063 0.068816 -0.028190 -313201.000000 0 1 0
-3.016306 -22.311348 -4.071379 22.879478 1.436419 1.749698 0.081218 -0.036039 67395.200000 0 1 0
-3.369006 -22.964748 -2.843879 23.384130 1.425132 1.692714 0.086635 -0.039429 -389421.000000 0 1 0
-2.624506 -22.513148 -1.621679 22.723550 1.454744 1.642223 0.094931 -0.047581 397972.000000 0 1 0
-1.230206 -22.826048 -1.588379 22.914293 1.516954 1.640170 0.090152 -0.033269 -38070.900000 0 1 0
-0.644906 -22.290848 -0.470679 22.305142 1.541873 1.591900 0.081006 -0.040251 437642.000000 0 1 0
0.912494 -22.326448 -0.398079 22.348633 -1.529949 1.588610 0.086576 -0.040412 251091.000000 0 1 0
1.596294 -21.356248 -1.128779 21.445551 -1.496189 1.623455 0.068275 -0.035538 -793393.000000 0 1 0
2.525394 -20.723348 -0.318179 20.879081 -1.449532 1.586036 0.056983 -0.037219 -336163.000000 0 1 0
3.350994 -19.628248 -1.038279 19.939291 -1.401704 1.622892 0.057429 -0.037073 430144.000000 0 1 0
4.160694 -20.286948 -2.008679 20.806404 -1.368509 1.667488 0.045367 -0.026507 -427910.000000 0 1 0
5.138294 -19.453348 -2.526079 20.278459 -1.312560 1.695690 0.054402 -0.015195 -271356.000000 0 1 0
5.963094 -20.011648 -3.732179 21.212112 -1.281193 1.747663 0.044739 -0.012625 -1049340.000000 0 1 0
6.873694 -20.969148 -3.280079 22.309455 -1.254034 1.718358 0.053460 -0.017087 -663553.000000 0 1 0
7.717094 -21.547748 -4.198179 23.269802 -1.226889 1.752203 0.050051 -0.018268 -607661.000000 0 1 0
8.814994 -20.662048 -4.757979 22.962202 -1.167548 1.779518 0.068082 -0.026025 -1189410.000000 0 1 0
8.386394 -19.639448 -5.656179 22.091444 -1.167218 1.829714 0.047088 -0.021872 498800.000000 0 1 0
9.580794 -18.982648 -6.113579 22.124837 -1.103385 1.850761 0.069274 -0.026106 530669.000000 0 1 0
9.391294 -17.897148 -7.216779 21.461272 -1.087556 1.913750 0.049897 -0.016682 269588.000000 0 1 0
10.660494 -17.276848 -7.457479 21.627520 -1.017942 1.922837 0.069656 -0.024715 678993.000000 0 1 0
10.866094 -16.504148 -8.667579 21.577438 -0.988549 1.984165 0.072034 -0.002765 -202709.000000 0 1 0
10.662994 -17.276348 -10.010179 22.635709 -1.017824 2.028879 0.056293 0.019455 580606.000000 0 1 0
9.296294 -17.515448 -10.388679 22.386082 -1.082854 2.053379 0.040390 -0.011424 891124.000000 0 1 0
8.701894 -16.456148 -11.139879 21.693886 -1.084381 2.110059 0.032284 -0.019420 -186542.000000 0 1 0
8.298894 -16.882548 -12.556779 22.617798 -1.113918 2.159367 0.051395 -0.024670 -717997.000000 0 1 0
7.258894 -17.804948 -12.564679 22.969085 -1.183679 2.149603 0.036061 -0.011292 -140819.000000 0 1 0
6.888194 -18.088848 -13.872479 23.813847 -1.206952 2.192644 0.056196 -0.005841 -286039.000000 0 1 0
5.811494 -19.163448 -13.988179 24.427042 -1.276352 2.180533 0.051525 0.010857 -202966.000000 0 1 0
6.265194 -20.405948 -13.500979 25.257312 -1.272905 2.134757 0.055447 0.000971 443048.000000 0 0 1
5.136894 -21.093648 -12.969379 25.289019 -1.331918 2.109293 0.088512 -0.011227 298727.000000 0 0 1
5.458494 -22.492448 -12.391079 26.253461 -1.332718 2.062330 0.046014 -0.009063 -215112.000000 0 0 1
5.909594 -23.418748 -13.394479 27.618348 -1.323612 2.077142 0.076286 -0.013315 -113743.000000 0 0 1
5.473994 -24.741248 -13.297779 28.616864 -1.353054 2.054073 0.065270 -0.021684 -590023.000000 0 0 1
4.056894 -25.015858 -13.769379 28.841764 -1.410023 2.068502 0.085926 -0.023258 -958890.000000 0 0 1
3.087094 -24.385448 -12.987779 27.800407 -1.444870 2.056894 0.095168 -0.026136 374138.000000 0 0 1
1.713594 -24.702548 -13.297179 28.106356 -1.501538 2.063605 0.082329 -0.035595 1282450.000000 0 0 1
1.104994 -26.055008 -12.810379 29.054953 -1.528412 2.027399 0.078111 -0.027829 -544290.000000 0 0 1
1.646094 -27.142588 -13.581079 30.395319 -1.510224 2.033998 0.083329 -0.024950 284797.000000 0 0 1
1.214894 -28.457248 -13.153779 31.373761 -1.528130 2.003427 0.076856 -0.028473 257360.000000 0 0 1
-0.223506 -28.863758 -13.539179 31.882219 1.563053 2.009385 0.073124 -0.028072 1011740.000000 0 0 1
-1.303706 -28.078318 -12.992079 30.965880 1.524399 2.003758 0.064844 -0.030978 1324900.000000 0 0 1
-2.606806 -28.447368 -13.449979 31.574517 1.479415 2.010836 0.092557 -0.021463 1308180.000000 0 0 1
-3.896106 -27.670518 -13.009879 30.823598 1.430912 2.006530 0.093367 -0.025032 933589.000000 0 0 1
-4.366906 -27.688878 -11.654279 30.357307 1.414371 1.964816 0.074867 -0.031093 336199.000000 0 0 1
-4.951706 -28.959228 -11.270679 31.467197 1.401445 1.937106 0.086084 -0.035923 -167346.000000 0 0 1
-5.633606 -29.066938 -9.879379 31.212603 1.379355 1.892854 0.068173 -0.030784 58307.800000 0 0 1
-6.999006 -28.737718 -9.846579 31.173669 1.331900 1.892161 0.079244 -0.033229 -582426.000000 0 0 1
-7.182706 -27.440108 -9.325379 29.858224 1.314781 1.888433 0.088053 -0.027167 951411.000000 0 0 1
-8.672206 -27.151868 -8.836079 29.841371 1.261641 1.871405 0.107014 -0.029617 1277560.000000 0 0 1
-9.768706 -27.351528 -9.677679 30.613579 1.227763 1.892437 0.134851 -0.037732 -153852.000000 0 0 1
-10.042006 -28.691798 -10.068879 32.022547 1.234125 1.890653 0.151301 -0.049287 -485638.000000 0 0 1
-11.393706 -28.777408 -10.828479 32.790421 1.193807 1.907347 0.158679 -0.048993 50048.100000 0 0 1
-11.312806 -28.208948 -12.119079 32.719970 1.189397 1.950223 0.169645 -0.054404 -234916.000000 0 0 1
-12.257406 -28.762138 -12.986179 33.854770 1.167940 1.964471 0.180929 -0.056583 -353035.000000 0 0 1
-12.516606 -27.865918 -14.205579 33.689365 1.148631 2.006076 0.187146 -0.053439 137706.000000 0 0 1
-13.514706 -26.852968 -14.059679 33.187404 1.104524 2.008262 0.184288 -0.063328 256327.000000 0 0 1
-13.205006 -25.742478 -13.186479 31.795135 1.096830 1.998445 0.186674 -0.053111 -503329.000000 0 0 1
-14.080806 -24.528348 -13.392879 31.293421 1.049667 2.013050 0.195440 -0.047249 -439282.000000 0 0 1
-13.733906 -23.891348 -14.621079 31.196036 1.049076 2.058597 0.198551 -0.043445 389521.000000 0 0 1
-14.416206 -22.625948 -14.728979 30.605610 1.003505 2.072878 0.213372 -0.044911 -44381.700000 0 0 1
-14.463806 -22.099648 -16.194479 30.981564 0.991277 2.120827 0.197027 -0.038149 628926.000000 0 0 1
-13.219606 -21.605348 -16.739379 30.360433 1.021697 2.154784 0.176747 -0.030809 811189.000000 0 0 1
-13.287406 -20.887048 -17.952379 30.579599 1.004215 2.198232 0.121748 -0.029812 -149511.000000 0 0 1
-13.566106 -19.347448 -17.812579 29.591400 0.959277 2.216739 0.115240 -0.018180 245592.000000 0 0 1
-12.376406 -18.596848 -17.554079 28.410630 0.983594 2.236827 0.091260 -0.005075 432919.000000 0 0 1
-12.536206 -17.186448 -17.759779 27.711735 0.940594 2.266435 0.094748 0.000078 486707.000000 0 0 1
-11.233606 -16.333148 -17.663179 26.550961 0.968319 2.298633 0.087993 -0.002238 594593.000000 0 0 1
-10.625906 -16.033848 -16.417579 25.288952 0.985533 2.277328 0.114817 -0.006235 -308265.000000 0 0 1
-9.389606 -15.400348 -16.586679 24.504150 1.023274 2.314329 0.093232 -0.008197 -488709.000000 0 1 0
-8.778106 -14.884948 -15.264679 23.057044 1.037962 2.294333 0.088700 -0.010503 118240.000000 0 1 0
-8.251406 -15.810448 -14.290179 22.853122 1.089786 2.246319 0.078918 -0.000462 992183.000000 0 1 0
-7.014906 -16.478448 -14.661679 23.145475 1.168331 2.256810 0.063788 0.002568 590428.000000 0 1 0
-6.399506 -17.281648 -13.506279 22.847946 1.216147 2.203265 0.054736 -0.002402 -1129250.000000 0 1 0
-5.741206 -16.543548 -12.495179 21.512321 1.236764 2.190554 0.052410 -0.010634 24569.700000 0 1 0
-5.275306 -17.414748 -11.486979 21.518666 1.276661 2.133902 0.043989 -0.012195 211303.000000 0 1 0
-4.211206 -18.510148 -11.901379 22.405416 1.347096 2.130793 0.042134 -0.005627 37769.200000 0 1 0
-2.888406 -17.960848 -11.994179 21.789798 1.411345 2.153699 0.054854 -0.000950 -166470.000000 0 1 0
-1.993206 -18.996848 -11.674479 22.386303 1.466256 2.119405 0.037839 0.002330 422079.000000 0 1 0
-0.541106 -18.632848 -12.126479 22.237970 1.541764 2.147549 0.034152 0.008105 58119.900000 0 1 0
-0.276106 -18.439748 -13.537479 22.877148 1.555824 2.204020 0.047807 0.010931 278596.000000 0 1 0
1.058494 -18.083648 -13.883979 22.823313 -1.512330 2.224744 0.070143 0.009326 975560.000000 0 1 0
2.129394 -19.210648 -13.841279 23.773185 -1.460403 2.192256 0.063418 0.000201 -540588.000000 0 1 0
1.952294 -20.058548 -14.898879 25.062590 -1.473772 2.207399 0.079868 0.009104 -86533.100000 0 0 1
1.275794 -21.259348 -14.627879 25.837229 -1.510857 2.172630 0.084617 0.008720 -1132690.000000 0 0 1
1.208994 -22.093648 -15.928679 27.263781 -1.516130 2.194744 0.097091 -0.004799 117432.000000 0 0 1
2.362794 -22.785748 -16.369579 28.155572 -1.467470 2.191242 0.118008 -0.008516 350909.000000 0 0 1
3.521794 -21.951848 -16.508479 27.691453 -1.411719 2.209503 0.107147 -0.018137 -678683.000000 0 0 1
4.805294 -22.770848 -16.651779 28.616151 -1.362819 2.191861 0.106166 -0.013527 -217294.000000 0 0 1
5.047194 -23.062648 -18.022079 29.701098 -1.355346 2.222802 0.106123 -0.019565 -172146.000000 0 0 1
6.385394 -23.422048 -18.256879 30.375636 -1.304641 2.215594 0.110385 -0.024866 -90015.500000 0 0 1
6.916594 -23.218848 -19.707479 31.230417 -1.281279 2.253683 0.109163 -0.012347 49095.300000 0 0 1
7.117794 -21.851348 -20.109679 30.537577 -1.255898 2.289650 0.132807 -0.022549 99582.400000 0 0 1
7.515694 -21.742548 -21.470779 31.467736 -1.237986 2.321715 0.122692 -0.016745 174553.000000 0 0 1
7.871894 -20.252948 -21.810579 30.787172 -1.200087 2.358069 0.105956 -0.023290 390420.000000 0 0 1
6.691094 -19.493548 -22.009879 30.153009 -1.240151 2.389030 0.134626 -0.032155 223953.000000 0 0 1
6.983494 -18.170348 -22.355779 29.643070 -1.203867 2.425179 0.134267 -0.028864 -213450.000000 0 0 1
5.750594 -17.359648 -22.742279 29.182837 -1.250911 2.464349 0.140316 -0.030685 -1027930.000000 0 0 1
5.075794 -17.753848 -23.925279 30.222207 -1.292327 2.484294 0.133630 -0.034630 421798.000000 0 0 1
4.049294 -16.835748 -24.346979 29.876656 -1.334762 2.523381 0.155485 -0.038823 832072.000000 0 0 1
2.741094 -16.837748 -23.511279 29.048298 -1.409417 2.513902 0.157080 -0.035106 -455299.000000 0 0 1
2.876594 -16.277748 -22.195779 27.674763 -1.395883 2.501470 0.156750 -0.040305 250687.000000 0 0 1
1.585994 -15.835248 -21.759479 26.958216 -1.470973 2.510114 0.146469 -0.040020 684988.000000 0 0 1
1.716094 -15.055348 -20.417779 25.426250 -1.457301 2.503141 0.142561 -0.038553 23284.800000 0 0 1
2.402994 -13.854148 -20.627679 24.964233 -1.399056 2.543284 0.124574 -0.028803 -180759.000000 0 1 0
2.776594 -13.085748 -19.467879 23.620851 -1.361713 2.539553 0.115917 -0.028915 131863.000000 0 1 0
3.897494 -12.073848 -19.737579 23.463595 -1.258551 2.570295 0.107786 -0.027551 -412130.000000 0 1 0
5.227294 -12.545848 -19.684679 23.920901 -1.176015 2.537305 0.106063 -0.026306 303688.000000 0 1 0
6.231694 -11.515648 -19.750479 23.696531 -1.074773 2.556164 0.100792 -0.025520 596114.000000 0 1 0
6.385394 -10.592748 -18.540979 22.287832 -1.028315 2.553297 0.106603 -0.024313 -591864.000000 0 1 0
5.456494 -9.500548 -18.455579 21.462575 -1.049462 2.605862 0.072979 -0.014617 1512.300000 0 1 0
5.437294 -8.484348 -19.492479 21.943224 -1.000872 2.664458 0.086325 -0.013419 -165215.000000 0 1 0
4.565094 -8.674948 -20.755079 22.953608 -1.086379 2.700343 0.094616 -0.028369 -824401.000000 0 1 0
3.197094 -8.733848 -20.535179 22.543183 -1.219888 2.716320 0.093618 -0.029509 -1302190.000000 0 1 0
2.562294 -9.004648 -21.752579 23.681717 -1.293571 2.735165 0.094045 -0.030024 690446.000000 0 1 0
1.000894 -8.941248 -21.671679 23.465067 -1.459319 2.748091 0.055420 -0.028000 825796.000000 0 1 0
0.540094 -7.597448 -21.402179 22.717090 -1.499827 2.799689 0.053405 -0.029458 631555.000000 0 1 0
-0.797106 -7.303048 -21.852379 23.054205 1.462080 2.817279 0.064154 -0.025405 794721.000000 0 1 0
-0.929906 -6.414148 -23.103179 23.995060 1.426822 2.868090 0.048573 -0.011010 -14857.400000 0 1 0
-0.569206 -7.053548 -24.324979 25.333400 1.490273 2.858492 0.046557 -0.010966 -232048.000000 0 0 1
-1.065906 -6.342148 -25.459249 26.258948 1.404285 2.894165 0.073085 -0.027491 -172464.000000 0 0 1
-0.524506 -4.936948 -25.795419 26.268845 1.464952 2.951452 0.089292 -0.025379 -356007.000000 0 0 1
-1.257706 -4.327148 -26.850379 27.225887 1.287935 2.975315 0.090472 -0.031360 -108405.000000 0 0 1
-0.960706 -2.955848 -27.219329 27.396202 1.256547 3.027900 0.086746 -0.028669 -719190.000000 0 0 1
-1.542306 -1.862548 -26.313719 26.424602 0.879177 3.049950 0.083185 -0.030379 -416469.000000 0 0 1
-2.922206 -1.836048 -26.137379 26.364236 0.560975 3.010314 0.068782 -0.034323 -460863.000000 0 0 1
-3.674606 -1.291848 -27.235019 27.512140 0.338065 2.999539 0.092160 -0.029377 630032.000000 0 0 1
-5.223106 -1.322548 -26.988579 27.521144 0.247999 2.944545 0.071707 -0.036476 772194.000000 0 0 1
-5.700206 -0.259448 -26.210659 26.824584 0.045484 2.927235 0.085474 -0.028197 -515587.000000 0 0 1
-7.095806 -0.309448 -26.099639 27.048796 0.043582 2.875895 0.111509 -0.047646 -646656.000000 0 0 1
-7.639206 1.026952 -25.544469 26.682054 -0.133631 2.848535 0.120547 -0.040043 -767352.000000 0 0 1
-7.897006 2.103052 -26.397889 27.633930 -0.260269 2.841371 0.139632 -0.041559 724755.000000 0 0 1
-9.009106 2.012952 -27.292469 28.811367 -0.219825 2.815438 0.158173 -0.048415 929532.000000 0 0 1
-10.464506 1.692352 -26.812859 28.832263 -0.160335 2.765101 0.151843 -0.048580 116237.000000 0 0 1
-11.524506 2.130852 -27.660269 30.040727 -0.182833 2.740818 0.157761 -0.061285 -12787.100000 0 0 1
-12.713706 1.623952 -27.096649 29.975055 -0.127044 2.699769 0.101479 -0.038218 90755.600000 0 0 1
-13.974606 2.339052 -27.689569 31.104228 -0.165841 2.668622 0.077342 -0.029065 -1349770.000000 0 0 1
-15.128006 1.665052 -27.398469 31.341747 -0.109623 2.634550 0.071017 -0.025477 -841185.000000 0 0 1
-16.162306 2.091752 -28.272979 32.633678 -0.128706 2.618692 0.072557 -0.021686 442197.000000 0 0 1
-17.064506 3.338752 -27.924269 32.895432 -0.193214 2.584659 0.085042 -0.010671 -314144.000000 0 0 1
-16.420406 4.597252 -27.867789 32.670754 -0.272983 2.592482 0.100947 -0.018214 -136860.000000 0 0 1
-16.173806 5.271352 -29.118639 33.723498 -0.315063 2.612871 0.076274 -0.022461 3547.610000 0 0 1
-17.408206 5.812952 -29.885919 35.071416 -0.322279 2.590866 0.087023 -0.016634 140005.000000 0 0 1
-18.215406 6.733952 -29.145399 35.022870 -0.354102 2.553827 0.096246 -0.013079 208176.000000 0 0 1
-18.868706 7.526252 -30.123379 36.333050 -0.379536 2.548275 0.090515 -0.011758 -217802.000000 0 0 1
-19.854206 8.566952 -29.524029 36.595771 -0.407357 2.509446 0.085798 -0.013014 99076.300000 0 0 1
-19.261706 9.439952 -28.576769 35.731747 -0.455687 2.497689 0.084810 -0.014061 615780.000000 0 0 1
-20.280506 10.298652 -28.068839 36.127841 -0.469876 2.460573 0.094706 -0.006474 390422.000000 0 0 1
-9.377006 25.058752 30.326229 40.441927 -1.212726 0.722929 0.073455 -0.011409 -628195.000000 0 0 1
-10.085706 26.269652 30.402349 41.426065 -1.204220 0.746759 0.069188 -0.006476 104480.000000 0 0 1
-9.704206 27.117352 31.506815 42.687255 -1.227137 0.740569 0.076524 -0.014705 1291160.000000 0 0 1
-8.266206 27.807752 31.385120 42.739057 -1.281853 0.746098 0.079020 -0.018248 1223580.000000 0 0 1
-8.184406 28.743052 30.301439 42.559661 -1.293394 0.778489 0.089829 -0.010187 -701603.000000 0 0 1
-6.847206 28.750852 29.955669 42.081324 -1.336995 0.778665 0.097476 -0.008175 -711951.000000 0 0 1
-6.501606 29.816552 28.887889 42.021515 -1.356103 0.812818 0.123120 -0.017495 -91697.200000 0 0 1
-6.811906 31.140952 29.349689 43.330880 -1.355444 0.826657 0.121754 -0.020547 249364.000000 0 0 1
-6.520006 32.179852 28.455839 43.448683 -1.370891 0.856707 0.125234 -0.021991 87078.500000 0 0 1
-6.801906 33.582552 29.182099 45.007206 -1.370957 0.865332 0.138780 -0.027309 208732.000000 0 0 1
-5.902206 33.601652 30.293559 45.624629 -1.396918 0.844676 0.146619 -0.034308 249386.000000 0 0 1
-6.286406 -32.890748 31.223939 45.784873 1.381944 0.820343 0.147912 -0.041632 2137.960000 0 0 1
-7.362806 -33.263048 32.278100 46.930982 1.352958 0.812373 0.116526 -0.037491 999.055000 0 0 1
-7.072806 33.161652 33.173610 47.436359 -1.360662 0.796338 0.119579 -0.035901 -12342.200000 0 0 1
-7.171006 31.865952 32.612846 46.156905 -1.349447 0.786164 0.110497 -0.023960 -198670.000000 0 0 1
-7.073306 30.833652 -33.625739 46.167479 -1.345296 2.386696 0.097591 -0.020505 -345724.000000 0 0 1
-5.805206 30.773752 -33.036719 45.520864 -1.384346 2.382919 0.106762 -0.020728 -261296.000000 0 0 1
-5.984706 30.217652 -31.760349 44.245259 -1.375273 2.371469 0.103140 -0.018119 -90735.600000 0 0 1
-4.649406 29.865952 -31.054039 43.335267 -1.416360 2.369711 0.108580 -0.020531 489353.000000 0 0 1
-3.970406 28.675052 -31.381149 42.694253 -1.433209 2.396493 0.124925 -0.012023 143951.000000 0 0 1
-3.363106 28.642752 -32.653649 43.565795 -1.453916 2.418140 0.102486 -0.015404 -565416.000000 0 0 1
-2.551506 27.357152 -32.936249 42.891962 -1.477799 2.446335 0.114605 -0.029596 230161.000000 0 0 1
-1.335906 27.257652 -32.139199 42.162689 -1.521825 2.437604 0.129266 -0.024763 1137620.000000 0 0 1
-0.572906 26.090752 -32.430349 41.626711 -1.548842 2.463986 0.143239 -0.026289 349970.000000 0 0 1
0.109294 25.958752 33.610579 42.468103 1.566586 0.657650 0.120679 -0.022916 -636933.000000 0 0 1
-0.861106 25.563252 32.646501 41.473068 -1.537124 0.664584 0.125941 -0.023312 69907.100000 0 0 1
-0.463606 25.341352 31.291109 40.268257 -1.552504 0.680805 0.126948 -0.025969 -72880.800000 0 0 1
-0.197506 26.615452 30.436509 40.432689 -1.563376 0.718537 0.113550 -0.028487 333.798000 0 0 1
-1.345706 27.423652 30.317139 40.902280 -1.521765 0.735927 0.122322 -0.029481 -27737.500000 0 0 1
-1.128106 28.502752 29.431629 40.986586 -1.531238 0.769757 0.113492 -0.025015 -236401.000000 0 0 1
-2.279406 29.499552 29.465739 41.757023 -1.493680 0.787460 0.127004 -0.026502 -352667.000000 0 0 1
-2.308506 30.191852 30.668079 43.097658 -1.494484 0.779031 0.142269 -0.038798 -197957.000000 0 0 1
-3.211906 31.250452 30.849049 44.029205 -1.468376 0.794489 0.137585 -0.035444 -277017.000000 0 0 1
-2.892106 32.128452 32.047440 45.471310 -1.481021 0.788678 0.132281 -0.024006 312551.000000 0 0 1
-1.712506 32.900652 31.829891 45.809688 -1.518792 0.802614 0.206064 -0.044389 -156334.000000 0 0 1
-1.099506 33.083452 33.053300 46.778674 -1.537574 0.786130 0.151563 -0.034322 -66625.800000 0 0 1
0.409994 33.430552 32.963543 46.950666 1.558533 0.792470 0.162740 -0.051667 40133.300000 0 0 1
0.701294 -32.927048 32.223001 46.076069 -1.549501 0.796318 0.194552 -0.062603 1314490.000000 0 0 1
2.109994 -32.579448 32.049512 45.749795 -1.506122 0.794644 0.174511 -0.062364 1454800.000000 0 0 1
2.277994 -31.076548 31.769213 44.499708 -1.497625 0.775716 0.178388 -0.062407 -162160.000000 0 0 1
2.353694 -30.280148 32.955552 44.816243 -1.493222 0.744616 0.166551 -0.053055 113265.000000 0 0 1
2.493394 -28.908448 32.599234 43.642014 -1.484758 0.727305 0.145664 -0.062064 -154919.000000 0 0 1
1.992794 -27.961648 33.657959 43.802776 -1.499648 0.694462 0.134701 -0.060942 -527388.000000 0 0 1
0.605994 -28.004648 -33.587349 43.734855 -1.549161 2.446472 0.139587 -0.063614 -320912.000000 0 0 1
0.131694 -27.258948 -32.486679 42.408159 -1.565965 2.443466 0.125389 -0.048084 293873.000000 0 0 1
-1.414106 -27.251748 -32.338909 42.313857 1.518952 2.440694 0.154444 -0.053593 158915.000000 0 0 1
-1.871306 -26.949148 -31.032159 41.143083 1.501469 2.425307 0.162158 -0.053316 753454.000000 0 0 1
-3.233706 -26.516448 -31.062109 40.968689 1.449445 2.431331 0.193994 -0.058451 421418.000000 0 0 1
-3.771906 -25.740748 -29.881349 39.619546 1.425297 2.425242 0.198107 -0.064059 -241247.000000 0 0 1
-3.848106 -26.595048 -28.752179 39.354699 1.427101 2.389983 0.202497 -0.061182 -17586.500000 0 0 1
-4.043106 -25.896948 -27.564649 38.036936 1.415924 2.381368 0.217840 -0.053113 291625.000000 0 0 1
-2.798506 -25.289348 -26.833519 36.978650 1.460585 2.382773 0.198606 -0.054929 223511.000000 0 0 1
-2.131406 -24.239548 -27.476309 36.702127 1.483091 2.416789 0.189700 -0.050098 348366.000000 0 0 1
-0.982206 -23.897848 -26.709709 35.853597 1.529719 2.411280 0.149509 -0.048126 -649210.000000 0 0 1
-0.093106 -22.745248 -27.278019 35.516831 1.566703 2.446557 0.092139 -0.029488 325920.000000 0 0 1
0.843194 -22.949248 -28.299009 36.444655 -1.534071 2.459877 0.050392 -0.039762 -773895.000000 0 0 1
1.785994 -23.894348 -28.014949 36.864170 -1.496190 2.434033 0.044343 -0.032594 -2077500.000000 0 0 1
2.628794 -24.175748 -29.205119 38.004162 -1.462485 2.447245 0.037078 -0.038972 -1028670.000000 0 0 1
3.615594 -23.247948 -29.509869 37.740853 -1.416509 2.468517 0.062499 -0.033848 -286865.000000 0 0 1
4.350994 -23.696248 -30.618429 38.960641 -1.389204 2.474916 0.084078 -0.039848 -667828.000000 0 0 1
5.590794 -22.894748 -30.981389 38.926507 -1.331288 2.491280 0.105020 -0.041835 -733145.000000 0 0 1
6.749394 -23.064548 -30.175309 38.575601 -1.286114 2.469047 0.084075 -0.037198 1313960.000000 0 0 1
7.781094 -24.007648 -30.559719 39.633433 -1.257371 2.451299 0.091559 -0.026933 557222.000000 0 0 1
8.314594 -24.036648 -31.995079 40.872705 -1.237767 2.469946 0.093965 -0.029197 -1319270.000000 0 0 1
7.474394 -24.465448 -33.018419 41.768897 -1.274294 2.482425 0.077474 -0.040073 -358144.000000 0 0 1
7.786194 -23.895648 33.130362 41.584224 -1.255804 0.648973 0.096016 -0.042071 116878.000000 0 0 1
7.020094 -22.550148 32.883633 40.486099 -1.268996 0.622848 0.095167 -0.037483 -357416.000000 0 0 1
5.642694 -22.745748 32.718329 40.245473 -1.327629 0.621563 0.104518 -0.035331 -545825.000000 0 0 1
5.042694 -21.516648 32.364820 39.190260 -1.340589 0.599109 0.120601 -0.053297 61743.300000 0 0 1
3.542594 -21.425048 32.776310 39.317542 -1.406931 0.585147 0.094126 -0.052324 82252.300000 0 0 1
2.740894 -22.439048 32.229708 39.367213 -1.449250 0.611663 0.091190 -0.050529 -22138.500000 0 0 1
2.651194 -23.530048 33.159154 40.745815 -1.458597 0.620126 0.086461 -0.037804 386757.000000 0 0 1
1.311094 -24.363448 33.007877 41.046516 -1.517034 0.636539 0.100552 -0.050187 957787.000000 0 0 1
1.302294 -25.071448 31.811760 40.524826 -1.518900 0.668109 0.100723 -0.050781 256955.000000 0 0 1
-0.053806 -25.357548 31.525763 40.458397 1.568674 0.677385 0.145826 -0.057942 -3960.430000 0 0 1
-0.241406 -26.170548 30.283789 40.025788 1.561572 0.712688 0.147092 -0.073965 115156.000000 0 0 1
-1.608706 -26.452348 30.042399 40.060709 1.510056 0.722852 0.181429 -0.065882 119088.000000 0 0 1
-1.815306 -27.509248 29.094149 40.081462 1.504903 0.758490 0.188360 -0.074555 157403.000000 0 0 1
-3.243206 -27.513048 28.507239 39.751086 1.453459 0.771101 0.210909 -0.067612 294230.000000 0 0 1
-4.293306 -27.920648 29.393389 40.767222 1.418223 0.765544 0.232912 -0.065649 416325.000000 0 0 1
-5.454006 -28.084548 28.601409 40.454031 1.378984 0.785535 0.225943 -0.055156 52198.200000 0 0 1
-6.698906 -28.641248 29.315569 41.528292 1.341036 0.787078 0.191399 -0.046668 -144751.000000 0 0 1
-7.794706 -29.000948 28.495859 41.398387 1.308227 0.811608 0.184849 -0.040758 796207.000000 0 0 1
-9.014406 -29.332448 29.177789 42.343776 1.272639 0.810593 0.151853 -0.040198 413826.000000 0 0 1
-9.114906 -30.497848 30.190229 43.870835 1.280376 0.811844 0.105444 -0.031778 -739834.000000 0 0 1
-9.233606 -31.826548 29.660559 44.474008 1.288426 0.840730 0.120545 -0.031247 1134260.000000 0 0 1
-10.556406 -32.070048 29.123029 44.587852 1.252800 0.859045 0.108916 -0.028606 664132.000000 0 0 1
-10.676106 -33.527248 28.537869 45.304145 1.262518 0.889349 0.120538 -0.021156 -292383.000000 0 0 1
-10.786306 33.005652 29.550669 45.595608 -1.254936 0.865705 0.115857 -0.020182 194111.000000 0 0 1
-10.584406 31.715352 29.083239 44.313970 -1.248688 0.854893 0.112432 -0.028095 -121532.000000 0 0 1
-11.136406 30.638952 30.021859 44.317907 -1.222170 0.826546 0.090239 -0.011152 -332927.000000 0 0 1
-12.537306 30.677452 30.112599 44.777882 -1.182828 0.833231 0.085776 -0.003404 -487765.000000 0 0 1
-13.069906 29.411152 30.500789 44.341137 -1.152621 0.812251 0.075957 -0.002835 124401.000000 0 0 1
-13.122906 29.141352 32.028820 45.246816 -1.147677 0.784320 0.083868 -0.016165 -278809.000000 0 0 1
-14.145406 29.924552 32.612810 46.466834 -1.129224 0.792803 0.092508 -0.012244 235808.000000 0 0 1
-14.337106 29.571452 -33.452869 46.894753 -1.119359 2.365078 0.084999 -0.014364 -391289.000000 0 0 1
-15.593406 30.169952 -32.837689 47.240810 -1.093758 2.339373 0.079854 -0.013925 -471395.000000 0 0 1
-15.766606 29.744452 -31.535879 46.128407 -1.083384 2.323554 0.062177 -0.010381 -370191.000000 0 0 1
-16.955706 30.169852 -30.931059 46.416014 -1.058780 2.300150 0.085761 -0.012659 -191305.000000 0 0 1
-17.014906 29.677152 -29.453749 45.141596 -1.050215 2.281642 0.090102 -0.014858 -172303.000000 0 0 1
-17.285706 28.275952 -29.398459 44.301179 -1.022094 2.296423 0.071621 -0.016952 163041.000000 0 0 1
-17.202406 27.846652 -28.072619 43.121117 -1.017424 2.279721 0.064011 -0.008933 -104389.000000 0 0 1
-17.770406 26.427552 -27.834659 42.296230 -0.978821 2.289073 0.051654 -0.017363 788849.000000 0 0 1
-19.200606 26.349452 -27.873079 42.893653 -0.941073 2.278142 0.060747 -0.007011 654039.000000 0 0 1
-19.596006 25.068752 -27.356279 41.962028 -0.907320 2.280922 0.046986 -0.006850 1211970.000000 0 0 1
-21.129106 24.696152 -27.457149 42.546846 -0.863082 2.272264 0.071613 -0.011686 1124420.000000 0 0 1
-22.035306 25.193352 -26.483479 42.680609 -0.852166 2.240181 0.068711 -0.010211 1375030.000000 0 0 1
-23.324206 24.539252 -26.711149 43.123995 -0.810778 2.238779 0.092939 -0.017542 1273490.000000 0 0 1
-24.312206 24.719452 -25.535989 43.060671 -0.793704 2.205605 0.102746 -0.016613 -590572.000000 0 0 1
-25.017736 25.940152 -25.579829 44.193962 -0.803498 2.188063 0.079111 -0.004747 1226230.000000 0 0 1
-26.290266 26.066652 -24.889079 44.610702 -0.781127 2.162670 0.091189 0.000954 1287670.000000 0 0 1
-26.206406 25.702752 -23.380579 43.520784 -0.775696 2.137943 0.078529 0.005527 -841716.000000 0 0 1
-25.877496 24.364052 -23.072579 42.374470 -0.755284 2.146580 0.093612 -0.000954 434067.000000 0 0 1
-26.991796 23.437352 -23.065679 42.542826 -0.715031 2.143820 0.105098 0.006472 473494.000000 0 0 1
-27.859656 23.393552 -21.791479 42.406217 -0.698480 2.110492 0.081404 0.002817 -173260.000000 0 0 1
-27.255716 22.893252 -20.600679 41.126184 -0.698626 2.095451 0.082086 -0.004778 602339.000000 0 0 1
-26.259176 23.806252 -20.079879 40.736759 -0.736443 2.086237 0.067974 0.004845 479433.000000 0 0 1
-25.377076 23.182252 -18.990879 39.269152 -0.740230 2.075569 0.064679 -0.000529 -168822.000000 0 0 1
-25.925896 23.402452 -17.719579 39.163891 -0.734287 2.040304 0.068182 0.004844 -202155.000000 0 0 1
-24.954226 23.246052 -16.758579 37.999241 -0.749974 2.027536 0.085324 -0.015718 -773506.000000 0 0 1
-25.516396 23.299152 -15.351779 37.810238 -0.740008 1.988893 0.074334 -0.021139 12923.700000 0 0 1
-26.013286 24.637752 -15.104479 38.882582 -0.758248 1.969760 0.087509 -0.024726 41948.300000 0 0 1
-26.519456 24.768252 -13.796579 38.821302 -0.751267 1.934124 0.073541 -0.033968 85593.000000 0 0 1
-26.598826 26.189252 -13.204279 39.594538 -0.777639 1.910797 0.082557 -0.025654 420981.000000 0 0 1
-25.348196 26.799952 -12.902079 39.079817 -0.813230 1.907255 0.094208 -0.035861 104044.000000 0 0 1
-25.300376 27.431952 -11.645279 39.092628 -0.825799 1.873277 0.104563 -0.032147 -32726.900000 0 0 1
-23.848606 27.812552 -11.299379 38.340188 -0.861978 1.869952 0.114242 -0.028985 -242025.000000 0 0 1
-23.073606 26.749752 -10.868979 36.960455 -0.859048 1.869279 0.108158 -0.027664 -835256.000000 0 0 1
-21.954306 27.132252 -10.160679 36.350929 -0.890496 1.854087 0.099133 -0.022893 -967374.000000 0 0 1
-21.015506 26.049452 -9.733979 34.856503 -0.891950 1.853818 0.129688 -0.025350 -226419.000000 0 0 1
-20.313706 25.388752 -10.813579 34.266148 -0.895990 1.891860 0.114406 -0.038330 106216.000000 0 0 1
-19.366506 24.509752 -10.274379 32.883923 -0.902087 1.888561 0.127861 -0.025346 -284649.000000 0 0 1
-18.682406 23.545952 -11.262779 32.098198 -0.900065 1.929312 0.121778 -0.035352 -208653.000000 0 0 1
-18.275206 22.374352 -10.653079 30.790955 -0.885899 1.924080 0.092360 -0.019637 -49495.900000 0 0 1
-17.884506 21.446352 -11.590379 30.234723 -0.875713 1.964213 0.117012 -0.005181 -84782.100000 0 0 1
-17.478106 20.135352 -11.027379 28.853417 -0.855927 1.962957 0.105223 -0.002340 341633.000000 0 0 1
-18.593706 19.272452 -10.744979 28.854946 -0.803321 1.952368 0.099812 -0.007751 438207.000000 0 0 1
-18.262506 17.989452 -10.181879 27.582788 -0.777866 1.948879 0.128877 -0.022574 -684618.000000 0 0 1
-19.541806 17.153852 -9.973579 27.849760 -0.720415 1.937051 0.122104 -0.009357 237228.000000 0 0 1
-20.175006 16.659652 -11.155679 28.443348 -0.690250 1.973826 0.114485 -0.013898 329366.000000 0 0 1
-20.888506 17.632852 -11.934779 29.827607 -0.701083 1.982450 0.125135 -0.016327 -385840.000000 0 0 1
-21.615206 17.096752 -13.228779 30.569865 -0.669204 2.018325 0.125470 -0.021593 -33573.600000 0 0 1
-20.769106 16.703952 -14.282479 30.238502 -0.677339 2.062726 0.126371 -0.030853 -275361.000000 0 0 1
-21.444606 16.273152 -15.418579 31.022882 -0.649138 2.090942 0.128911 -0.028123 -378170.000000 0 0 1
-20.538606 16.148452 -16.632779 30.971861 -0.666300 2.137707 0.142656 -0.037402 -384583.000000 0 0 1
-20.055706 17.319152 -17.177979 31.579540 -0.712309 2.145945 0.124692 -0.035780 329366.000000 0 0 1
-19.300406 17.014452 -18.363079 31.610124 -0.722533 2.190660 0.121399 -0.026526 -106310.000000 0 0 1
-18.332506 18.110252 -18.835679 31.919349 -0.779300 2.201982 0.103315 -0.020864 -532018.000000 0 0 1
-17.107306 18.209652 -18.175679 30.896710 -0.816601 2.199717 0.126469 -0.026453 -547469.000000 0 0 1
-16.336506 19.165852 -18.789079 31.420388 -0.864925 2.211787 0.123672 -0.022147 -377521.000000 0 0 1
34.175401 30.187052 2.407121 45.661913 0.723510 1.518056 0.092721 0.003416 -249565.000000 0 0 1
35.399551 30.307352 1.736321 46.633449 0.708054 1.533554 0.106232 -0.001817 -234127.000000 0 0 1
35.353161 31.150752 0.559021 47.122477 0.722292 1.558933 0.093052 0.005131 -9952.800000 0 0 1
36.685381 31.161452 -0.224779 48.134226 0.704160 1.575466 0.070058 0.003272 260073.000000 0 0 1
37.727141 31.926152 0.348521 49.424061 0.702306 1.563745 0.074649 -0.003336 -37445.000000 0 0 1
-37.166606 31.789152 -0.453079 48.909223 -0.707572 1.580060 0.061499 -0.001097 421901.000000 0 0 1
-36.056956 32.764052 0.078021 48.719537 -0.737587 1.569195 0.063957 -0.002976 591965.000000 0 0 1
-35.348010 32.362752 1.280521 47.942354 -0.741338 1.544084 0.054486 -0.006753 -67814.800000 0 0 1
-34.291745 33.242252 1.475221 47.782292 -0.769859 1.539918 0.057608 0.011695 -420430.000000 0 0 1
-33.623056 33.116852 2.883021 47.281578 -0.777814 1.509783 0.079877 0.007231 157642.000000 0 0 1
-33.020446 -33.148448 3.326821 46.906687 0.787333 1.499812 0.080112 0.013994 64614.300000 0 0 1
-32.540646 -33.387448 4.596621 46.848098 0.798242 1.472521 0.093279 0.002563 -601317.000000 0 0 1
-32.522486 -32.093648 5.477621 46.018678 0.778762 1.451483 0.097083 0.004701 848822.000000 0 0 1
-33.729646 -31.484148 6.004721 46.529532 0.750979 1.441384 0.082705 0.008035 813348.000000 0 0 1
-34.181924 -32.054848 7.233121 47.415560 0.753296 1.417651 0.085479 -0.006930 -277287.000000 0 0 1
-35.321055 -31.297748 8.004121 47.866397 0.725078 1.402789 0.096192 -0.009926 1215940.000000 0 0 1
-36.657396 -31.189448 7.527221 48.715557 0.704979 1.415661 0.064378 -0.005345 491246.000000 0 0 1
-37.335216 -32.328648 7.133021 49.899297 0.713654 1.427357 0.065422 -0.005775 -498532.000000 0 0 1
37.177501 -32.208448 6.959321 49.678797 -0.713906 1.430248 0.073093 -0.004882 609354.000000 0 0 1
36.486321 -32.187248 8.215221 49.343291 -0.722878 1.403526 0.064152 -0.000846 1263170.000000 0 0 1
35.068251 -32.071948 7.938921 48.181101 -0.740800 1.405269 0.048597 0.007572 1308360.000000 0 0 1
34.239401 -31.996948 9.282221 47.773433 -0.751556 1.375256 0.050493 -0.004427 -44314.400000 0 0 1
32.839891 -32.139548 9.138121 46.849912 -0.774621 1.374487 0.062280 -0.009020 339853.000000 0 0 1
32.002631 -32.125848 10.255021 46.490902 -0.787320 1.348386 0.080242 -0.009649 -97388.900000 0 0 1
31.964971 -30.772448 10.997121 45.712576 -0.766392 1.327842 0.079694 -0.017802 -776242.000000 0 0 1
31.257981 -29.713248 10.350421 44.351659 -0.760068 1.335253 0.071458 -0.028955 485595.000000 0 0 1
31.975861 -29.103948 9.283621 44.223083 -0.738414 1.359296 0.063529 -0.024658 48693.400000 0 0 1
31.358021 -27.723348 8.898821 42.791337 -0.723956 1.361309 0.062905 -0.032759 243813.000000 0 0 1
32.077761 -27.023748 7.911421 42.683208 -0.700092 1.384366 0.064170 -0.027766 -445420.000000 0 0 1
31.383101 -25.879848 7.598621 41.381211 -0.689587 1.386124 0.068250 -0.028279 -100052.000000 0 0 1
31.501541 -25.434448 6.146521 40.951654 -0.679239 1.420135 0.058772 -0.018084 698238.000000 0 0 1
32.781601 -24.880148 5.823721 41.564057 -0.649215 1.430219 0.054897 -0.021277 134284.000000 0 0 1
32.768991 -24.375448 4.512321 41.089296 -0.639558 1.460757 0.055517 -0.021925 -338017.000000 0 0 1
34.076861 -23.758648 3.987121 41.732517 -0.608849 1.475110 0.061401 -0.026228 -602680.000000 0 0 1
34.854541 -24.833948 3.697521 42.956206 -0.619068 1.484613 0.049460 -0.011678 -52637.000000 0 0 1
36.201151 -24.502748 3.300621 43.838363 -0.595019 1.495434 0.054823 -0.013408 1667730.000000 0 0 1
37.271951 -25.658548 3.400621 45.377567 -0.602908 1.495785 0.053911 -0.010520 219143.000000 0 0 1
37.300671 -26.237848 4.712121 45.847233 -0.613014 1.467836 0.036706 -0.005889 -91512.600000 0 0 1
37.725731 -27.587748 4.738621 46.976261 -0.631407 1.469752 0.039473 -0.002381 -968738.000000 0 0 1
37.017281 -28.530448 5.725521 47.085530 -0.656639 1.448896 0.049951 0.003946 415288.000000 0 0 1
35.765131 -29.056248 5.295121 46.383709 -0.682267 1.456388 0.038348 0.003358 815502.000000 0 0 1
34.668961 -28.123448 5.418921 44.969210 -0.681533 1.450000 0.042931 -0.006548 -684339.000000 0 0 1
33.328381 -28.852248 5.600621 44.436473 -0.713536 1.444424 0.056070 -0.006179 -242554.000000 0 0 1
32.765701 -29.343648 4.381221 44.202216 -0.730357 1.471516 0.036738 -0.006469 -280229.000000 0 0 1
31.931181 -28.433948 3.731721 42.918708 -0.727528 1.483738 0.049049 -0.009559 -839678.000000 0 0 1
30.459691 -28.860348 3.691121 42.122878 -0.758443 1.483056 0.052710 -0.006760 -183267.000000 0 0 1
30.349691 -30.109748 3.054521 42.860597 -0.781430 1.499469 0.058018 -0.004842 -397559.000000 0 0 1
29.091391 -30.714948 3.255621 42.430132 -0.812538 1.493992 0.068018 -0.007222 47221.300000 0 0 1
28.989391 -32.116248 2.598221 43.342692 -0.836525 1.510814 0.067763 -0.004742 -274565.000000 0 0 1
28.769091 -32.193148 1.245521 43.192716 -0.841506 1.541956 0.069815 -0.002910 65585.100000 0 0 1
28.696891 -33.534648 0.846721 44.145227 -0.862980 1.551615 0.071465 -0.002822 -45234.900000 0 0 1
28.542291 -33.672048 -0.723179 44.147392 -0.867665 1.587178 0.065955 -0.002438 -324029.000000 0 0 1
29.657091 -33.246148 -1.446479 44.575124 -0.842393 1.603252 0.064016 -0.008115 -258925.000000 0 0 1
29.396191 -33.393648 -2.845779 44.579931 -0.848976 1.634675 0.056860 -0.003305 -211022.000000 0 0 1
30.508091 -32.942748 -3.790779 45.059275 -0.823750 1.655025 0.048361 -0.006362 -216322.000000 0 0 1
30.622091 -31.500748 -3.738379 44.090646 -0.799541 1.655687 0.036916 -0.006697 90406.800000 0 0 1
31.396631 -31.009548 -4.823879 44.391557 -0.779196 1.679678 0.036745 -0.007236 -163493.000000 0 0 1
31.593891 -29.453348 -4.765979 43.455589 -0.750349 1.680692 0.035628 0.002221 63647.500000 0 0 1
30.431491 -28.689448 -5.089279 42.131471 -0.755941 1.691887 0.027289 -0.013116 268102.000000 0 0 1
30.593491 -27.290648 -4.907579 41.289532 -0.728400 1.689936 0.025660 -0.014297 -71751.500000 0 0 1
31.619931 -26.519348 -5.757579 41.668280 -0.697892 1.709416 0.062194 -0.016735 -395161.000000 0 0 1
32.945461 -26.887448 -5.513979 42.880558 -0.684493 1.699743 0.067335 -0.012058 -735118.000000 0 0 1
33.884971 -26.342648 -6.417579 43.397139 -0.660816 1.719221 0.083416 -0.019362 171055.000000 0 0 1
34.260421 -27.230348 -7.633879 44.424592 -0.671565 1.743492 0.093009 -0.000007 -638600.000000 0 0 1
33.290141 -27.156848 -8.648679 43.823824 -0.684279 1.769451 0.082131 -0.006263 -181062.000000 0 0 1
33.306491 -28.213548 -9.640779 44.702027 -0.702801 1.788172 0.071846 -0.005262 276040.000000 0 0 1
32.985881 -29.612048 -9.051879 45.242439 -0.731553 1.772231 0.073583 -0.005509 228975.000000 0 0 1
34.186961 -30.122748 -8.496679 46.349992 -0.722285 1.755155 0.083878 -0.006791 -55937.900000 0 0 1
33.943201 -31.427048 -8.025379 46.948982 -0.746926 1.742578 0.088199 -0.012583 931072.000000 0 0 1
35.244221 -32.185848 -7.556779 48.323792 -0.740073 1.727819 0.085493 -0.014591 863119.000000 0 0 1
34.986281 -33.440448 -6.972679 48.897052 -0.762811 1.713883 0.071827 -0.013132 -109475.000000 0 0 1
34.703261 -33.416548 -5.586979 48.499447 -0.766511 1.686249 0.066225 -0.012045 -147872.000000 0 0 1
34.600771 32.665952 -5.049579 47.851604 0.756643 1.676519 0.040884 -0.002788 -976149.000000 0 0 1
33.435721 32.006252 -5.332879 46.591707 0.763558 1.685508 0.054528 -0.011222 -699129.000000 0 0 1
33.619121 30.621852 -5.089279 45.758538 0.738775 1.682247 0.053834 -0.000060 -357284.000000 0 0 1
32.367471 29.860752 -5.483079 44.377718 0.745137 1.694668 0.067993 -0.010843 -452522.000000 0 0 1
32.261751 29.763852 -6.862179 44.427434 0.745148 1.725875 0.051506 -0.012304 -290997.000000 0 0 1
31.171241 28.970852 -7.220879 43.163614 0.748828 1.738878 0.049010 -0.010886 -315834.000000 0 0 1
31.148021 28.564852 -8.694179 43.147870 0.742165 1.773683 0.052212 -0.010270 -128611.000000 0 0 1
32.002581 27.479552 -9.011979 43.133591 0.709504 1.781279 0.068873 -0.005248 65450.600000 0 0 1
32.269431 27.257552 -10.414879 43.505862 0.701401 1.812534 0.057848 -0.007907 10114.400000 0 0 1
33.393421 28.139152 -11.001279 45.032883 0.700215 1.817588 0.081634 -0.015132 -489892.000000 0 0 1
34.658351 27.828552 -10.450479 45.660071 0.676531 1.801719 0.077397 -0.019697 -238462.000000 0 0 1
35.733571 28.458352 -11.065579 47.002265 0.672544 1.808454 0.094704 -0.026392 -319796.000000 0 0 1
36.008161 29.898552 -10.540879 47.975214 0.692961 1.792319 0.100871 -0.027822 -1120400.000000 0 0 1
36.689321 29.957052 -9.345579 48.279095 0.684725 1.765600 0.083929 -0.014140 -105418.000000 0 0 1
36.592871 31.174452 -8.582079 48.831718 0.705612 1.747462 0.076815 -0.014429 -1245070.000000 0 0 1
37.517021 31.288152 -7.361579 49.403119 0.695115 1.720364 0.067634 -0.007355 995549.000000 0 0 1
-37.148946 31.551952 -7.626979 49.332957 -0.704109 1.726021 0.082224 -0.012212 997296.000000 0 0 1
-36.417006 30.528652 -8.269979 48.234733 -0.697667 1.743100 0.086163 -0.020883 131565.000000 0 0 1
-34.987113 30.930952 -8.799079 47.521002 -0.723942 1.757033 0.142229 -0.029818 355175.000000 0 0 1
-33.933926 31.022152 -7.892679 46.649541 -0.740601 1.740805 0.133057 -0.022379 350878.000000 0 0 1
-32.671066 31.461752 -8.380379 46.124518 -0.766544 1.753501 0.174702 -0.045711 520344.000000 0 0 1
-32.535086 32.888752 -9.074879 47.143984 -0.790804 1.764498 0.132896 -0.045103 -865345.000000 0 0 1
-32.509456 -33.461348 -8.320979 47.389506 0.799826 1.747298 0.113179 -0.035228 -26013.400000 0 0 1
-31.630196 -33.208648 -7.254679 46.431821 0.809738 1.727683 0.161315 -0.043237 -486700.000000 0 0 1
-31.872996 -31.812748 -6.647179 45.520587 0.784452 1.717346 0.122066 -0.030307 288620.000000 0 0 1
-33.021326 -31.725248 -5.812579 46.159348 0.765383 1.697056 0.111736 -0.035336 146601.000000 0 0 1
-32.877046 -32.415348 -4.564279 46.394910 0.778327 1.669335 0.119547 -0.037362 227502.000000 0 0 1
-34.119048 -32.402748 -3.606279 47.191660 0.759603 1.647289 0.092070 -0.024941 263501.000000 0 0 1
-34.350450 -31.190248 -2.933879 46.490781 0.737218 1.633945 0.068234 -0.017685 -211104.000000 0 0 1
-35.455726 -31.285648 -2.076679 47.330888 0.722998 1.614686 0.067394 -0.009427 -269962.000000 0 0 1
-35.768529 -29.931548 -1.394679 46.660802 0.696788 1.600691 0.078293 -0.010461 65439.900000 0 0 1
-36.755346 -29.918148 -0.373579 47.393994 0.683208 1.578679 0.065881 -0.002994 -328279.000000 0 0 1
-37.464186 -28.711848 -0.527179 47.203955 0.653903 1.581965 0.077203 -0.002378 -96747.900000 0 0 1
37.501201 -28.485048 0.552421 47.096106 -0.649602 1.559066 0.072672 0.003522 -495537.000000 0 0 1
36.343871 -29.242348 0.195021 46.647936 -0.677541 1.566616 0.047359 0.003681 11138.900000 0 0 1
35.386751 -29.162448 1.233521 45.871474 -0.689268 1.543902 0.040542 0.001962 -162309.000000 0 0 1
34.532821 -27.898048 1.344921 44.414250 -0.679522 1.540510 0.031743 0.006997 -1634150.000000 0 0 1
33.481391 -27.925248 0.445021 43.600700 -0.695163 1.560589 0.040878 -0.001784 -623130.000000 0 0 1
32.772101 -26.743248 0.286821 42.300049 -0.684443 1.564016 0.044099 -0.002104 -199757.000000 0 0 1
31.565281 -26.890448 -0.659379 41.471652 -0.705596 1.586697 0.033944 -0.014400 399662.000000 0 0 1
30.348791 -27.347148 -0.047979 40.852392 -0.733420 1.571971 0.037135 -0.002357 682352.000000 0 0 1
30.065191 -28.771048 -0.067179 41.613621 -0.763406 1.572411 0.045334 -0.001057 -267604.000000 0 0 1
29.657791 -29.408348 -1.350179 41.788258 -0.781175 1.603112 0.041535 -0.006342 1568.330000 0 0 1
28.273691 -29.163748 -1.581179 40.650042 -0.800893 1.609703 0.049161 -0.001620 203575.000000 0 0 1
27.944691 -29.800848 -2.791079 40.948583 -0.817531 1.639010 0.043589 -0.003146 505140.000000 0 0 1
26.400091 -29.866348 -2.997279 39.974332 -0.846925 1.645847 0.042747 -0.001448 476059.000000 0 0 1
25.659891 -28.714548 -3.240379 38.645250 -0.841517 1.654744 0.058236 0.007172 -225885.000000 0 0 1
24.410191 -29.080948 -3.800779 38.157632 -0.872496 1.670569 0.040205 0.012092 -222475.000000 0 0 1
23.412991 -27.949348 -3.796579 36.657171 -0.873490 1.674552 0.042729 0.015634 -553454.000000 0 0 1
23.206791 -27.246548 -5.009879 36.139015 -0.865297 1.709872 0.054464 0.010336 22493.700000 0 0 1
22.768591 -25.941848 -4.768879 34.844374 -0.850452 1.708089 0.079652 -0.003314 -293913.000000 0 0 1
22.272291 -25.094448 -5.982279 34.081871 -0.844909 1.747237 0.086315 -0.027665 -869601.000000 0 0 1
21.039491 -25.609848 -6.321879 33.741527 -0.883059 1.759272 0.094997 -0.033430 -1177690.000000 0 0 1
20.527291 -25.250448 -7.601979 33.417733 -0.888210 1.800289 0.120779 -0.034803 1011070.000000 0 0 1
18.986391 -25.546448 -7.686979 32.744369 -0.931655 1.807765 0.110672 -0.034656 969232.000000 0 0 1
18.212791 -24.818248 -6.744279 31.514068 -0.937714 1.786473 0.096979 -0.037638 -8052.620000 0 0 1
16.828091 -24.988448 -6.954079 30.918706 -0.978123 1.797652 0.085634 -0.036921 -137716.000000 0 0 1
16.003591 -24.206248 -5.942479 29.620439 -0.986633 1.772788 0.075309 -0.029047 -258880.000000 0 0 1
15.910991 -24.771748 -4.654479 29.807102 -0.999850 1.727591 0.057664 -0.025764 117150.000000 0 0 1
15.264791 -23.805748 -3.833279 28.538071 -1.000616 1.705525 0.068679 -0.028525 109936.000000 0 0 1
15.242691 -24.364948 -2.381879 28.838580 -1.011766 1.653484 0.069494 -0.024329 281824.000000 0 0 1
14.473991 -25.566848 -2.255079 29.466006 -1.055659 1.647403 0.062586 -0.018328 823258.000000 0 0 1
15.334391 -26.742548 -2.424679 30.922265 -1.050159 1.649289 0.061808 -0.019198 607810.000000 0 0 1
14.563091 -28.055048 -2.337779 31.695971 -1.091994 1.644620 0.052177 -0.009225 48759.700000 0 0 1
13.814891 -28.340848 -1.164879 31.550148 -1.117235 1.607726 0.076697 -0.026427 187744.000000 0 0 1
13.135191 -29.618548 -1.166779 32.421490 -1.153379 1.606792 0.078644 -0.028605 125125.000000 0 0 1
13.986091 -30.897148 -0.915679 33.927614 -1.145728 1.597789 0.058869 -0.023315 -98931.600000 0 0 1
14.891891 -31.204648 -1.978279 34.632529 -1.125528 1.627949 0.055394 -0.019119 16037.100000 0 0 1
15.603991 -32.405448 -1.638879 36.003938 -1.122039 1.616332 0.054391 -0.017050 -588128.000000 0 0 1
17.070291 -32.255348 -2.033679 36.550488 -1.084044 1.626465 0.035209 -0.005827 -751889.000000 0 0 1
17.684491 -31.228748 -1.296079 35.911777 -1.055533 1.606895 0.032455 0.005106 -55475.600000 0 0 1
19.009691 -31.083748 -1.791979 36.479843 -1.021917 1.619939 0.030686 0.011940 75926.900000 0 0 1
19.799891 -30.033248 -1.041079 35.987713 -0.987935 1.599729 0.036100 0.011768 -283729.000000 0 0 1
19.231891 -28.777148 -1.343479 34.638054 -0.981661 1.609592 0.037959 0.010518 77642.500000 0 0 1
19.514491 -27.786948 -0.405879 33.957246 -0.958535 1.582749 0.038736 0.015618 -60533.400000 0 0 1
19.258391 -26.318148 -0.783579 32.621228 -0.939076 1.594819 0.035274 0.006176 30551.900000 0 0 1
20.047891 -25.795248 -1.850479 32.722118 -0.910118 1.627378 0.047774 0.002957 319942.000000 0 0 1
19.478691 -26.059948 -3.147979 32.687154 -0.928925 1.667252 0.052896 0.002185 88635.500000 0 0 1
34.570641 -29.484848 13.391621 47.368988 -0.706168 1.284180 0.077742 -0.039958 -87546.700000 0 0 1
35.358271 -29.727148 14.514021 48.420734 -0.699094 1.266368 0.075098 -0.028627 397034.000000 0 0 1
34.532501 -29.795348 15.676621 48.228755 -0.711890 1.239735 0.061012 -0.024344 623972.000000 0 0 1
35.417731 -30.205648 16.911421 49.525680 -0.706140 1.222318 0.059954 -0.016202 -22922.700000 0 0 1
34.692881 -30.948648 17.835021 49.794606 -0.728419 1.204487 0.062795 -0.016207 199374.000000 0 0 1
35.442071 -31.479148 18.914221 51.037485 -0.726250 1.191147 0.037090 -0.012825 147427.000000 0 0 1
36.342911 -32.746748 18.766021 52.395803 -0.733394 1.204501 0.019445 -0.000172 -39970.900000 0 0 1
37.515691 -32.609148 18.010921 52.869432 -0.715543 1.223169 0.037464 0.005988 -15608.600000 0 0 1
-37.881156 33.646152 18.011221 53.772201 -0.726259 1.229240 0.034524 0.007669 -1047720.000000 0 0 1
-36.701056 33.512052 17.111421 52.562590 -0.740010 1.239210 0.053458 0.001478 -57664.400000 0 0 1
-35.595277 -33.146748 17.545921 51.706770 0.749794 1.224586 0.070421 -0.000406 1016980.000000 0 0 1
-34.582976 -32.991448 16.572221 50.587117 0.761850 1.237037 0.087817 0.007746 199365.000000 0 0 1
-33.474286 -31.968748 16.964721 49.298382 0.762397 1.219491 0.077745 -0.000725 1134470.000000 0 0 1
-32.413906 -31.746248 15.994321 48.107213 0.774992 1.231872 0.093326 -0.003182 857044.000000 0 0 1
-32.747366 -30.710048 15.059821 47.352880 0.753304 1.247141 0.101741 -0.006687 470287.000000 0 0 1
-31.599106 -30.469148 14.004821 46.076106 0.767195 1.261960 0.097426 -0.017080 915483.000000 0 0 1
-30.330756 -30.192948 14.574421 45.210426 0.783121 1.242566 0.072086 -0.018195 -318913.000000 0 0 1
-29.366616 -30.065248 13.560421 44.161095 0.797153 1.258687 0.059002 -0.007701 731661.000000 0 0 1
-27.959296 -29.738448 14.194421 43.215497 0.816224 1.236127 0.052078 -0.012524 835373.000000 0 0 1
-26.960036 -29.688448 13.206521 42.221555 0.833525 1.252666 0.055127 -0.010075 258288.000000 0 0 1
-25.708136 -29.231448 13.748021 41.284306 0.849441 1.231304 0.051041 -0.012978 1511250.000000 0 0 1
-24.416006 -29.425048 12.868021 40.343039 0.878165 1.246159 0.066276 -0.016788 858604.000000 0 0 1
-23.965006 -30.756348 12.637021 40.987422 0.908874 1.257376 0.081202 -0.027391 -435841.000000 0 0 1
-22.697206 -30.782248 12.068021 40.104203 0.935442 1.265143 0.065136 -0.035275 -184932.000000 0 0 1
-22.203506 -32.279548 11.881221 40.940546 0.968271 1.276354 0.061517 -0.031800 138190.000000 0 0 1
-23.073906 -32.875748 10.950721 41.630977 0.958829 1.304622 0.068087 -0.029500 85628.600000 0 0 1
-22.922206 33.211452 10.809421 41.776449 -0.966685 1.309074 0.087244 -0.013883 143009.000000 0 0 1
-23.913106 32.702052 9.733821 41.665431 -0.939409 1.334999 0.094255 -0.005025 238746.000000 0 0 1
-23.602706 33.156352 8.373421 41.551722 -0.952154 1.367889 0.107322 -0.006594 -286602.000000 0 0 1
-24.718606 32.861952 7.606921 41.818448 -0.925892 1.387874 0.098877 -0.006772 -757548.000000 0 0 1
-24.504806 33.460352 6.143121 41.926347 -0.938685 1.423745 0.113005 -0.002154 498405.000000 0 0 1
-23.559006 32.790252 5.263721 40.717738 -0.947778 1.441160 0.095638 0.001792 1111900.000000 0 0 1
-22.190106 32.683252 5.657621 39.907448 -0.974342 1.428549 0.104153 -0.005430 412975.000000 0 0 1
-21.344506 -33.529548 5.351821 40.105617 1.003907 1.436954 0.118817 -0.007773 -299343.000000 0 0 1
-21.502106 -32.477148 6.303221 39.456765 0.985984 1.410359 0.119818 -0.025060 -15473.900000 0 0 1
-20.972506 -32.714048 7.579221 39.591660 1.000713 1.378173 0.102847 -0.030367 -327921.000000 0 0 1
-20.992206 -31.468548 8.490921 38.769034 0.982504 1.349994 0.095349 -0.040966 187837.000000 0 0 1
-19.940306 -30.522148 8.259821 37.382375 0.992100 1.348003 0.120051 -0.058410 61194.400000 0 0 1
-19.807306 -29.427648 9.180621 36.641502 0.978363 1.317545 0.110352 -0.050796 377563.000000 0 0 1
-19.042306 -29.748748 10.530521 36.857690 1.001409 1.281052 0.089976 -0.039598 190556.000000 0 0 1
-17.694006 -30.061348 10.277921 36.364793 1.038804 1.284258 0.080129 -0.046701 -538387.000000 0 0 1
-16.967206 -30.267148 11.478021 36.547658 1.059865 1.251334 0.082402 -0.049952 -47929.700000 0 0 1
-15.632906 -30.974548 11.171321 36.450087 1.103394 1.259301 0.077215 -0.050501 -489106.000000 0 0 1
-14.708206 -30.134548 10.589221 35.164669 1.116726 1.264916 0.093751 -0.050128 -389574.000000 0 0 1
-13.641806 -30.860248 9.962021 35.180899 1.154572 1.283703 0.081690 -0.037584 830118.000000 0 0 1
-12.522706 -29.941348 9.366921 33.779309 1.174664 1.289816 0.101948 -0.026016 776227.000000 0 0 1
-11.630206 -29.348148 10.329621 33.215607 1.193497 1.254565 0.102076 -0.036761 193089.000000 0 0 1
-10.744406 -28.429448 9.686221 31.898255 1.209457 1.262265 0.124337 -0.033969 415984.000000 0 0 1
-9.655906 -27.933648 10.671221 31.422925 1.237982 1.224305 0.141364 -0.031464 44427.100000 0 0 1
-10.135506 -27.110548 11.709421 31.222121 1.213027 1.186361 0.120027 -0.042196 209413.000000 0 0 1
-9.151006 -26.788148 12.740621 31.043022 1.241618 1.147884 0.109044 -0.031979 779067.000000 0 0 1
-9.385806 -25.371648 13.271121 30.131985 1.216475 1.114715 0.103511 -0.038460 387847.000000 0 0 1
-8.804906 -24.272848 12.550421 28.709068 1.222811 1.118359 0.095292 -0.040130 -355479.000000 0 0 1
-9.575206 -24.016848 11.446921 28.275883 1.191422 1.154004 0.089860 -0.037027 -284403.000000 0 0 1
-9.210606 -22.753648 10.665521 26.764101 1.186162 1.160914 0.102394 -0.037224 -925506.000000 0 0 1
-7.991906 -22.968748 10.066821 26.320616 1.235952 1.178329 0.086846 -0.040317 -1153770.000000 0 0 1
-7.423206 -21.720048 9.697221 24.917877 1.241474 1.171069 0.089165 -0.028667 202722.000000 0 1 0
-6.167706 -21.991548 8.815821 24.482392 1.297363 1.202434 0.090943 -0.035628 626012.000000 0 1 0
-5.091406 -22.579048 9.551621 25.039355 1.349013 1.179416 0.102187 -0.040978 -135662.000000 0 0 1
-4.041406 -22.940048 8.702921 24.866033 1.396413 1.213233 0.102970 -0.036589 811532.000000 0 1 0
-2.729606 -23.537748 9.373021 25.481952 1.455345 1.194122 0.114062 -0.042935 633056.000000 0 0 1
-2.084706 -22.572148 10.120521 24.824843 1.478700 1.150888 0.095583 -0.039277 -157021.000000 0 1 0
-0.843306 -23.211548 10.470321 25.477731 1.534481 1.147290 0.120769 -0.051664 1066900.000000 0 0 1
0.028594 -22.444548 11.530021 25.232914 -1.569522 1.096240 0.113418 -0.052211 121739.000000 0 0 1
-0.555606 -22.436948 12.823021 25.848698 1.546038 1.051718 0.112114 -0.042902 -352169.000000 0 0 1
0.361294 -22.285048 13.867721 26.250097 -1.554585 1.014208 0.142071 -0.044496 -106599.000000 0 0 1
1.145394 -20.954848 13.971621 25.211580 -1.516191 0.983425 0.109213 -0.037847 -128175.000000 0 0 1
2.206394 -20.773348 13.063421 24.638448 -1.464980 1.011954 0.099514 -0.044972 -458063.000000 0 1 0
2.791194 -19.515348 13.234721 23.744419 -1.428734 0.979567 0.083773 -0.037392 -131483.000000 0 1 0
4.223494 -19.412048 12.691821 23.574304 -1.356564 1.002288 0.090998 -0.038241 -24570.000000 0 1 0
4.421294 -19.854948 11.322121 23.279975 -1.351691 1.062893 0.080889 -0.033172 -444259.000000 0 1 0
5.808894 -19.810148 11.062121 23.421267 -1.285564 1.078886 0.110699 -0.039953 131081.000000 0 1 0
6.282394 -20.831948 10.019421 23.954693 -1.277895 1.139261 0.105531 -0.035836 -602137.000000 0 1 0
6.118194 -20.337348 8.740221 22.965877 -1.278573 1.180379 0.092132 -0.029328 -410552.000000 0 1 0
6.373594 -21.332148 7.707921 23.560460 -1.280460 1.237505 0.091623 -0.028727 -118043.000000 0 1 0
7.801894 -21.903848 7.499821 24.431443 -1.228619 1.258784 0.085594 -0.017701 -44503.500000 0 1 0
8.756494 -21.106448 6.827321 23.848913 -1.177535 1.280461 0.094595 -0.026465 142266.000000 0 1 0
9.294694 -19.957048 7.477021 23.250397 -1.134935 1.243391 0.100423 -0.017639 -92237.800000 0 1 0
10.102394 -20.120048 8.792421 24.169844 -1.105465 1.198477 0.092306 -0.015795 203764.000000 0 1 0
9.255894 -20.126048 9.940621 24.280554 -1.139743 1.148993 0.101293 -0.025090 -454824.000000 0 1 0
9.966594 -19.648248 11.070221 24.656367 -1.101365 1.105173 0.097280 -0.016519 13217.000000 0 1 0
9.264394 -19.772548 12.417421 25.119216 -1.132625 1.053721 0.126920 -0.031670 -330835.000000 0 0 1
9.278894 -21.121348 12.882321 26.422782 -1.156865 1.061520 0.108280 -0.034337 -141660.000000 0 0 1
8.763794 -21.319248 14.188221 27.066955 -1.180780 1.019033 0.148284 -0.044299 86800.100000 0 0 1
9.170094 -22.694548 14.747221 28.576453 -1.186790 1.028549 0.141731 -0.035358 -38009.600000 0 0 1
8.691794 -23.787348 14.014621 28.944685 -1.220472 1.065363 0.156903 -0.036847 -159466.000000 0 0 1
8.751994 -25.020148 14.733521 30.326257 -1.234302 1.063479 0.172119 -0.042894 220670.000000 0 0 1
8.675594 -26.238548 13.831821 30.903828 -1.251469 1.106743 0.180000 -0.047637 547988.000000 0 0 1
9.945394 -26.525348 13.251021 31.274502 -1.212079 1.133270 0.152204 -0.033269 242300.000000 0 0 1
9.929594 -27.538748 12.231121 31.726642 -1.224738 1.175030 0.144133 -0.040990 777662.000000 0 0 1
11.368494 -27.764248 11.621021 32.173658 -1.182157 1.201245 0.113725 -0.031238 834222.000000 0 0 1
12.272294 -28.495248 12.400321 33.411919 -1.164126 1.190566 0.093854 -0.034353 15758.300000 0 0 1
13.431594 -28.842748 11.691221 33.896851 -1.134977 1.218658 0.112490 -0.031273 -614094.000000 0 0 1
14.497694 -29.605848 12.465921 35.243277 -1.115431 1.209261 0.098121 -0.035929 -503679.000000 0 0 1
15.469794 -28.714148 12.986921 35.106651 -1.076630 1.191865 0.095978 -0.030913 -334407.000000 0 0 1
16.257194 -29.289348 13.945321 36.285455 -1.064081 1.176322 0.075704 -0.030159 -452259.000000 0 0 1
17.746194 -29.374248 13.571421 36.904706 -1.027337 1.194216 0.088468 -0.027800 -515913.000000 0 0 1
18.456594 -28.156848 13.644621 36.326707 -0.990570 1.185743 0.079215 -0.029607 509305.000000 0 0 1
19.747994 -28.508948 13.126621 37.081688 -0.964990 1.208960 0.066390 -0.020964 487541.000000 0 0 1
20.691894 -27.291348 12.899021 36.597225 -0.922077 1.210599 0.037132 -0.018070 -586119.000000 0 0 1
21.974994 -27.489648 12.431521 37.324574 -0.896426 1.231244 0.036940 -0.020590 -920828.000000 0 0 1
22.685894 -26.333148 12.348121 36.885777 -0.859666 1.229439 0.031000 -0.019455 29155.300000 0 0 1
24.061594 -26.526548 11.628221 37.654131 -0.834086 1.256848 0.053285 -0.014545 432043.000000 0 0 1
25.000194 -27.234948 12.390921 38.990858 -0.828155 1.247398 0.065279 -0.021439 -152872.000000 0 0 1
26.091394 -27.758348 11.681621 39.846543 -0.816344 1.273260 0.066147 -0.027919 -1073010.000000 0 0 1
27.158994 -28.451248 12.544521 41.284979 -0.808632 1.262063 0.086951 -0.031250 -419390.000000 0 0 1
28.118094 -27.570648 13.052621 41.486609 -0.775568 1.250737 0.071785 -0.030754 -570449.000000 0 0 1
29.186694 -27.497048 12.145421 41.898234 -0.755599 1.276696 0.050447 -0.034199 317757.000000 0 0 1
30.534794 -26.811848 12.714921 42.578375 -0.720569 1.267546 0.081805 -0.047978 1254370.000000 0 0 1
30.448394 -25.445048 13.034121 41.766535 -0.696120 1.253424 0.090631 -0.046251 199796.000000 0 0 1
29.719394 -25.223548 14.229521 41.496373 -0.703753 1.220783 0.102222 -0.045375 313235.000000 0 0 1
30.669994 -25.141748 15.500521 42.579598 -0.686669 1.198198 0.105352 -0.037689 577823.000000 0 0 1
31.237494 -26.412248 15.840121 43.866813 -0.701893 1.201354 0.130375 -0.032824 322286.000000 0 0 1
32.086894 -26.170148 16.977621 44.751369 -0.684182 1.181674 0.139412 -0.020031 221008.000000 0 0 1
32.359194 -27.461248 17.790621 46.018950 -0.703703 1.173861 0.102520 -0.008088 -189809.000000 0 0 1
31.231394 -28.108148 18.354321 45.851380 -0.732813 1.158952 0.097363 -0.010730 -166519.000000 0 0 1
31.544494 -29.183548 19.202521 47.068794 -0.746540 1.150570 0.119869 -0.016876 667296.000000 0 0 1
30.265294 -29.977248 19.695921 46.931362 -0.780617 1.137709 0.113471 -0.013307 169356.000000 0 0 1
29.403294 -29.169448 20.549021 46.234972 -0.781406 1.110239 0.109330 -0.008395 960949.000000 0 0 1
28.295694 -29.907948 21.076521 46.253123 -0.813091 1.097663 0.114542 -0.013562 641566.000000 0 0 1
27.139994 -30.192048 20.101321 45.301238 -0.838583 1.111045 0.152295 -0.022922 -797312.000000 0 0 1
27.518394 -31.258548 19.210121 45.862703 -0.848946 1.138605 0.148216 -0.020796 -249618.000000 0 0 1
26.861394 -31.325248 17.977921 45.011235 -0.861964 1.159924 0.156188 -0.025126 -412733.000000 0 0 1
27.370794 -30.443948 16.825621 44.261675 -0.838503 1.180849 0.147557 -0.020084 1457630.000000 0 0 1
28.781994 -30.674948 16.521421 45.191957 -0.817225 1.196537 0.138423 -0.027391 1451280.000000 0 0 1
29.204094 -29.682148 15.620821 44.473802 -0.793516 1.211905 0.132499 -0.037805 571704.000000 0 0 1
30.663194 -29.994448 15.115521 45.479417 -0.774374 1.231992 0.141634 -0.040831 495091.000000 0 0 1
30.757694 -30.988948 14.085521 45.877582 -0.789143 1.258732 0.173097 -0.034714 286131.000000 0 0 1
30.837194 -32.333848 14.604121 47.007346 -0.809086 1.254891 0.175037 -0.040830 -253592.000000 0 0 1
29.975094 -33.374748 13.846921 46.948027 -0.839012 1.271402 0.181708 -0.040324 -13255.900000 0 0 1
30.288894 -33.555948 12.479021 46.895039 -0.836525 1.301446 0.175670 -0.030102 449122.000000 0 0 1
29.364794 32.943652 12.067621 45.751533 0.842773 1.303874 0.139611 -0.033108 -14822.700000 0 0 1
29.481894 32.443352 10.600621 45.101289 0.833185 1.333536 0.130439 -0.034096 -960222.000000 0 0 1
30.750094 31.929052 10.409821 45.534569 0.804205 1.340143 0.134656 -0.037947 -541036.000000 0 0 1
30.831894 31.224652 9.227921 44.841265 0.791727 1.363525 0.132827 -0.039411 -2355.840000 0 0 1
32.298094 30.820652 8.961721 45.534513 0.761995 1.372691 0.121193 -0.034039 50156.500000 0 0 1
32.795594 29.913352 9.903421 45.480076 0.739468 1.351285 0.113111 -0.032109 42884.100000 0 0 1
34.099394 29.408452 9.697721 46.061605 0.711668 1.358671 0.126784 -0.025839 -103804.000000 0 0 1
34.666494 28.692552 10.914121 46.304928 0.691389 1.332856 0.122376 -0.042502 -138304.000000 0 0 1
34.116094 27.416352 11.141921 45.163111 0.676944 1.321519 0.125467 -0.047120 216750.000000 0 0 1
34.549494 26.862852 12.401021 45.486983 0.660881 1.294673 0.131365 -0.052302 69250.300000 0 0 1
34.470094 25.308452 12.412921 44.528482 0.633322 1.288290 0.123285 -0.051186 116884.000000 0 0 1
35.433694 24.699752 11.571421 44.716017 0.608757 1.309042 0.125886 -0.045287 -101612.000000 0 0 1
35.569494 23.264552 11.757521 44.098385 0.579223 1.300912 0.132044 -0.042719 -679161.000000 0 0 1
34.458994 22.387252 11.223721 42.597925 0.576149 1.304168 0.108564 -0.041778 107918.000000 0 0 1
33.230594 22.429652 11.935721 41.830886 0.593729 1.281443 0.129448 -0.051112 1166220.000000 0 0 1
32.050394 22.387052 11.101721 40.640571 0.609715 1.294111 0.138020 -0.048808 1735840.000000 0 0 1
30.686894 22.096052 11.843321 39.625562 0.624055 1.267277 0.155627 -0.043325 883729.000000 0 0 1
30.183894 23.206852 12.529221 40.082500 0.655456 1.252882 0.158519 -0.035900 -1014500.000000 0 0 1
28.882094 22.962452 12.915421 39.092936 0.671710 1.234093 0.191804 -0.032434 -799944.000000 0 0 1
25.608794 9.313952 25.412989 37.260971 0.348828 0.820266 0.092968 -0.022005 -84395.200000 0 0 1
25.344994 8.019752 26.008279 37.190263 0.306455 0.796336 0.090822 -0.030123 -348267.000000 0 0 1
23.989594 7.917952 26.330129 36.489317 0.318800 0.764708 0.077562 -0.025911 -591349.000000 0 0 1
23.583594 6.631252 27.113219 36.541565 0.274103 0.734773 0.099957 -0.026301 -44778.400000 0 0 1
23.865994 6.768952 28.476909 37.766899 0.276365 0.716639 0.084660 -0.020502 -104727.000000 0 0 1
25.222894 6.643552 28.813769 38.865980 0.257544 0.735698 0.075413 -0.022894 -334911.000000 0 0 1
25.441394 6.735452 30.378489 40.193076 0.258806 0.713900 0.085592 -0.030295 -129839.000000 0 0 1
25.220194 8.034352 30.908769 40.693500 0.308404 0.708175 0.104014 -0.031831 84594.900000 0 0 1
25.299694 7.883052 32.340026 41.810217 0.302053 0.686458 0.103966 -0.028801 -58174.200000 0 0 1
25.424694 9.198952 33.119778 42.754595 0.347158 0.684637 0.151736 -0.037119 490349.000000 0 0 1
26.629694 9.953952 33.007164 43.562536 0.357711 0.711021 0.109331 -0.038831 111095.000000 0 0 1
27.069194 10.675752 -33.270869 44.200267 0.375659 2.422996 0.127411 -0.037369 1369460.000000 0 0 1
28.480794 11.406952 -33.439739 45.381607 0.380949 2.399205 0.096594 -0.036353 1094840.000000 0 0 1
28.476594 12.546852 33.150334 45.467400 0.415011 0.753789 0.103282 -0.038193 -92177.600000 0 0 1
27.764394 13.611752 33.652839 45.701804 0.455825 0.743126 0.103677 -0.035827 -655950.000000 0 0 1
27.542294 14.682952 32.555389 45.100115 0.489780 0.764329 0.093430 -0.034546 171067.000000 0 0 1
28.619594 15.622452 32.320413 45.910252 0.499663 0.789795 0.076338 -0.020680 658875.000000 0 0 1
28.434194 16.951952 32.787548 46.592868 0.537607 0.790200 0.092229 -0.032561 -181470.000000 0 0 1
28.782094 17.205352 -33.119349 47.130927 0.538785 2.349995 0.080729 -0.032833 -287211.000000 0 0 1
27.890394 16.576852 -32.215509 45.722042 0.536260 2.352648 0.072654 -0.027167 465335.000000 0 0 1
28.466694 16.282452 -30.946939 45.090841 0.519564 2.327219 0.090759 -0.036210 -397510.000000 0 0 1
27.389394 15.716052 -30.043239 43.586344 0.520932 2.331293 0.086923 -0.035437 -224696.000000 0 0 1
26.838794 14.544952 -30.606789 43.227908 0.496632 2.357505 0.096943 -0.024767 -263460.000000 0 0 1
25.914094 13.922952 -29.778969 41.858999 0.493020 2.362301 0.123986 -0.033881 -223048.000000 0 0 1
25.181194 12.685152 -30.380069 41.448211 0.466647 2.393466 0.112582 -0.034551 -701149.000000 0 0 1
24.126694 13.072652 -31.250459 41.588253 0.496552 2.421016 0.121221 -0.038764 296987.000000 0 0 1
23.339494 11.951452 -31.594859 41.058547 0.473257 2.448866 0.108792 -0.037826 285689.000000 0 0 1
22.407194 11.299752 -30.480919 39.482314 0.467075 2.452801 0.111252 -0.041467 714620.000000 0 0 1
21.244694 12.113552 -30.119979 38.798045 0.518213 2.459614 0.142729 -0.033330 1117810.000000 0 0 1
20.527894 11.537652 -29.045069 37.391548 0.512046 2.460336 0.126716 -0.023692 -238441.000000 0 0 1
19.229094 12.308152 -28.775819 36.732770 0.569370 2.470886 0.097436 -0.014610 103232.000000 0 0 1
18.237794 12.139752 -29.798869 36.985988 0.587289 2.507619 0.073015 -0.018702 576923.000000 0 0 1
17.033194 12.754952 -29.381119 36.277660 0.642751 2.514771 0.071260 -0.028264 -291423.000000 0 0 1
16.078994 13.441652 -30.415759 36.936844 0.696296 2.538267 0.085801 -0.034663 477704.000000 0 0 1
15.298094 12.481952 -31.109349 36.845928 0.684370 2.576071 0.085988 -0.030611 -95088.100000 0 0 1
14.162294 11.966252 -30.471809 35.669215 0.701548 2.594977 0.077711 -0.029181 -1443120.000000 0 0 1
13.166494 11.328052 -31.360189 35.848888 0.710483 2.635795 0.089912 -0.026349 -616340.000000 0 0 1
12.749094 12.325552 -32.312079 36.858229 0.768509 2.639669 0.113304 -0.033695 -377501.000000 0 0 1
11.587894 11.918552 -32.971889 36.925284 0.799464 2.674620 0.115929 -0.032889 -233234.000000 0 0 1
11.128994 12.975552 33.347479 37.473641 0.861855 0.473689 0.140572 -0.037298 317413.000000 0 0 1
12.072694 13.150952 32.300046 36.905155 0.828120 0.504911 0.116823 -0.023863 367704.000000 0 0 1
11.386694 13.489152 31.127089 35.784210 0.869716 0.515887 0.134738 -0.035055 139111.000000 0 0 1
12.294894 13.428952 29.849149 34.963879 0.829456 0.547720 0.131209 -0.025505 26490.200000 0 0 1
12.689194 12.102352 29.570469 34.378702 0.761732 0.535254 0.112837 -0.023463 41975.400000 0 0 1
12.772494 11.975652 28.187689 33.182806 0.753211 0.555823 0.136411 -0.020897 -241470.000000 0 0 1
13.367794 10.589452 27.804709 32.618035 0.669943 0.550174 0.145956 -0.021548 127665.000000 0 0 1
12.564694 9.487652 28.221829 32.316539 0.646760 0.508874 0.143714 -0.024737 135726.000000 0 0 1
13.021294 8.310452 27.616829 31.643434 0.568049 0.509987 0.120601 -0.025573 -361627.000000 0 0 1
12.182794 7.040752 27.809549 31.166707 0.524030 0.468418 0.118570 -0.024587 620882.000000 0 0 1
10.907894 7.022252 27.136399 30.077870 0.571988 0.445942 0.130827 -0.029940 547027.000000 0 0 1
10.065494 5.931652 27.376189 29.764985 0.532519 0.403367 0.126936 -0.042519 -4192.460000 0 0 1
10.539794 4.566152 26.828189 29.183706 0.408821 0.404532 0.134489 -0.038388 -47992.800000 0 0 1
11.533994 3.871652 27.558329 30.124478 0.323855 0.415746 0.116220 -0.035450 168501.000000 0 0 1
12.015094 2.716552 26.954619 29.636019 0.222356 0.428663 0.114877 -0.039224 -330802.000000 0 0 1
12.381394 1.674552 28.056089 30.712329 0.134432 0.418961 0.091369 -0.029969 483126.000000 0 0 1
11.258994 1.199652 28.816369 30.961059 0.106150 0.374394 0.068857 -0.022471 424423.000000 0 0 1
11.607094 0.055952 29.555439 31.752979 0.004820 0.374221 0.063243 -0.021171 523966.000000 0 0 1
10.541094 -0.229448 30.674499 32.435970 -0.021764 0.331074 0.070824 -0.016284 307010.000000 0 0 1
10.615694 0.691552 31.751233 33.485997 0.065052 0.323293 0.052868 -0.021605 -809853.000000 0 0 1
9.449194 0.961052 32.458669 33.819758 0.101359 0.284669 0.061016 -0.017844 -795128.000000 0 0 1
9.535894 2.174052 33.398569 34.801209 0.224155 0.284879 0.057046 -0.027091 -269552.000000 0 0 1
9.513894 3.470852 32.907857 34.430917 0.349815 0.298547 0.046888 -0.023374 88997.400000 0 0 1
10.366294 3.814152 31.832877 33.694804 0.352565 0.333991 0.065405 -0.021217 -339330.000000 0 0 1
10.279194 5.258752 31.296862 33.358805 0.472878 0.353436 0.071621 -0.023835 -64049.100000 0 0 1
10.854994 6.262952 32.098961 34.458652 0.523310 0.372223 0.079804 -0.026406 2097.400000 0 0 1
11.126794 7.413652 31.313357 34.048408 0.587741 0.403553 0.089271 -0.030183 -136994.000000 0 0 1
11.384894 8.695552 32.149204 35.196587 0.652262 0.419192 0.125088 -0.036339 99504.900000 0 0 1
10.248894 9.265952 32.772660 35.566064 0.735072 0.398977 0.133514 -0.039730 68531.800000 0 0 1
9.711494 8.524452 -33.546709 35.949424 0.720396 2.773913 0.116804 -0.035336 -52720.700000 0 0 1
8.207194 8.714352 -33.247609 35.336970 0.815360 2.795995 0.105584 -0.039682 48802.000000 0 0 1
7.755194 7.991652 -32.112619 33.988672 0.800413 2.807791 0.117775 -0.037474 -1216640.000000 0 0 1
6.382994 8.108952 -32.057479 33.677584 0.903938 2.830154 0.103011 -0.038731 -1027350.000000 0 0 1
5.853194 7.615152 -30.694459 32.162093 0.915482 2.838331 0.105656 -0.030490 -244924.000000 0 0 1
6.220894 8.513052 -29.622929 31.443433 0.939731 2.799642 0.114334 -0.041396 182268.000000 0 0 1
6.016794 8.003452 -28.302039 30.021034 0.926160 2.801550 0.113827 -0.038006 1213810.000000 0 0 1
4.483294 7.996552 -27.865889 29.335176 1.059811 2.823756 0.100785 -0.033770 1073230.000000 0 0 1
3.715494 6.938452 -28.356749 29.428765 1.079159 2.870850 0.096799 -0.021775 -237363.000000 0 0 1
2.415894 6.977452 -27.785309 28.749692 1.237472 2.881849 0.125789 -0.024090 305905.000000 0 0 1
1.367694 6.372152 -28.752519 29.481897 1.359368 2.918691 0.125913 -0.037813 -176141.000000 0 0 1
1.219494 7.025052 -29.994369 30.830191 1.398917 2.908209 0.096468 -0.039307 -158216.000000 0 0 1
0.541994 6.240352 -30.943049 31.570683 1.484161 2.941860 0.129254 -0.035395 -729452.000000 0 0 1
0.263194 6.956652 -32.333639 33.074590 1.532981 2.929524 0.148398 -0.043561 96109.400000 0 0 1
1.341894 7.583452 -33.021449 33.907603 1.395659 2.912468 0.111234 -0.032320 10837.100000 0 0 1
2.335194 6.767852 -33.597079 34.351429 1.238545 2.931637 0.114430 -0.037924 -247065.000000 0 0 1
2.036394 6.248752 32.360568 33.021208 1.255761 0.200368 0.122434 -0.040560 302944.000000 0 0 1
1.074794 5.169052 32.250126 32.679426 1.365789 0.162269 0.132842 -0.038444 252495.000000 0 0 1
0.603894 4.973352 30.943069 31.346011 1.449962 0.160514 0.150874 -0.040543 -7900.370000 0 0 1
1.500494 4.166452 29.971179 30.296573 1.225119 0.146694 0.143787 -0.044937 106705.000000 0 0 1
1.003694 4.318452 28.644749 28.985825 1.342431 0.153559 0.116258 -0.039275 406891.000000 0 0 1
1.882994 3.711552 27.700839 28.011743 1.101299 0.149129 0.096431 -0.028461 111598.000000 0 0 1
1.711894 4.226352 26.291729 26.684221 1.185942 0.171726 0.098260 -0.025077 59588.700000 0 0 1
2.265594 5.502452 26.012789 26.684735 1.180208 0.224888 0.097463 -0.026289 -15617.400000 0 0 1
2.319494 5.742052 24.610069 25.377287 1.186891 0.246520 0.078404 -0.021461 -939236.000000 0 0 1
2.986894 7.103452 24.377209 25.566166 1.172756 0.306170 0.088756 -0.026712 123763.000000 0 0 1
4.391494 7.140552 24.463669 25.860081 1.019415 0.330127 0.088913 -0.022473 92986.200000 0 0 1
5.081794 6.550652 23.333619 24.762743 0.911006 0.341399 0.101458 -0.035961 -517892.000000 0 1 0
6.597794 6.340252 23.489199 25.208572 0.765495 0.371472 0.128858 -0.039160 -98783.300000 0 0 1
7.108894 5.324852 24.340119 25.910071 0.642887 0.349898 0.141989 -0.038738 56943.800000 0 0 1
6.731594 3.936852 24.243839 25.467172 0.529192 0.311208 0.146306 -0.037002 -975786.000000 0 0 1
6.859494 3.223152 22.866189 24.089499 0.439264 0.320055 0.158333 -0.045155 -391663.000000 0 1 0
6.019794 3.505852 21.798589 22.884654 0.527368 0.309317 0.110704 -0.032617 -88774.700000 0 1 0
4.676994 3.110652 22.094389 22.797202 0.586915 0.248952 0.102875 -0.029383 83706.000000 0 1 0
3.614094 3.677652 21.138689 21.758469 0.794114 0.239252 0.049192 -0.019615 53977.000000 0 1 0
3.352994 5.045152 21.160089 22.010122 0.984228 0.278824 0.044644 -0.027387 -130511.000000 0 1 0
2.123794 5.327552 20.525389 21.311614 1.191460 0.272474 0.024989 -0.016784 74957.200000 0 1 0
1.781494 6.806852 20.693989 21.857450 1.314817 0.327745 0.024877 -0.008334 -1028.290000 0 1 0
2.485994 7.623852 19.809289 21.370802 1.255587 0.384643 0.020511 -0.015830 -485395.000000 0 1 0
1.955794 8.893152 19.910489 21.893854 1.354321 0.428933 0.029411 -0.018566 279972.000000 0 1 0
2.990094 9.992152 19.570189 22.176024 1.280033 0.489659 0.040660 -0.023317 -498070.000000 0 1 0
2.991394 10.219552 18.168089 21.058659 1.286038 0.530138 0.020933 -0.019519 265539.000000 0 1 0
3.885594 11.235752 17.649989 21.280556 1.237847 0.592772 0.029356 -0.021955 315797.000000 0 1 0
5.388794 11.032752 17.915689 21.719406 1.116443 0.600824 0.037737 -0.021944 -724447.000000 0 1 0
5.875294 10.002352 17.123189 20.682594 1.039700 0.595437 0.041687 -0.015944 -213717.000000 0 1 0
7.130094 9.555152 17.605089 21.262133 0.929729 0.595261 0.050427 -0.013844 100857.000000 0 1 0
7.255594 8.064352 17.979089 20.998215 0.838140 0.542889 0.065358 -0.023402 -340247.000000 0 1 0
6.762094 7.908152 19.263989 21.894429 0.863361 0.495233 0.077782 -0.026929 -215124.000000 0 1 0
6.901294 6.571052 19.712889 21.895309 0.760890 0.450281 0.084461 -0.036223 202668.000000 0 1 0
8.314594 6.060252 20.071389 22.554817 0.629840 0.473684 0.129430 -0.037496 -130188.000000 0 1 0
9.218294 5.941752 19.010089 21.946864 0.572542 0.523275 0.121625 -0.038440 -303962.000000 0 1 0
10.543294 5.607652 19.382889 22.766273 0.488817 0.552174 0.144006 -0.037268 260702.000000 0 1 0
10.851494 4.131852 19.181589 22.422320 0.363814 0.544341 0.167008 -0.038617 -685071.000000 0 1 0
10.248194 3.367052 20.160989 22.865432 0.317440 0.491293 0.179530 -0.050117 -60343.700000 0 1 0
10.373594 1.979352 19.911689 22.538958 0.188540 0.487654 0.173965 -0.061461 -149962.000000 0 1 0
9.748694 1.186452 21.038489 23.217724 0.121108 0.436731 0.189986 -0.052991 -146975.000000 0 1 0
10.413794 1.320252 22.250289 24.602144 0.126106 0.440814 0.168256 -0.048254 129390.000000 0 1 0
9.806494 0.450252 23.195319 25.187156 0.045881 0.400366 0.187015 -0.051166 -291007.000000 0 0 1
10.305894 0.659252 24.664079 26.738789 0.063881 0.396526 0.175554 -0.045231 294005.000000 0 0 1
11.608494 0.108052 24.900449 27.473644 0.009308 0.436257 0.174229 -0.042629 616975.000000 0 0 1
11.607394 -1.330248 24.932459 27.534136 -0.114106 0.438214 0.168351 -0.041555 312533.000000 0 0 1
13.031394 -1.946848 24.675909 27.973343 -0.148300 0.490447 0.145289 -0.037614 573415.000000 0 0 1
13.073094 -3.360348 24.703089 28.150316 -0.251596 0.500084 0.141307 -0.029968 522474.000000 0 0 1
14.340994 -4.039048 24.692499 28.839166 -0.274532 0.542900 0.129617 -0.023878 460668.000000 0 0 1
14.299794 -5.523648 24.938219 29.273017 -0.368619 0.551159 0.124439 -0.022322 -91532.400000 0 0 1
13.681794 -6.115848 23.805489 28.129990 -0.420362 0.561857 0.146688 -0.018820 316681.000000 0 0 1
13.542894 -7.505748 23.995749 28.557699 -0.506078 0.573043 0.148755 -0.027180 -48996.400000 0 0 1
13.315594 -8.220148 22.676579 27.551826 -0.553067 0.604033 0.158316 -0.031123 12991.700000 0 0 1
12.905294 -9.550348 22.886599 27.956254 -0.637092 0.611727 0.167942 -0.026482 -330020.000000 0 0 1
12.849094 -10.123348 21.589089 27.086346 -0.667297 0.648407 0.155486 -0.026488 339223.000000 0 0 1
12.130294 -11.512748 21.628489 27.340061 -0.759285 0.658205 0.182176 -0.029382 1908230.000000 0 0 1
10.700394 -11.469348 21.901889 26.939508 -0.820069 0.621506 0.177981 -0.025107 1043910.000000 0 0 1
10.138794 -12.747848 22.046189 27.410531 -0.898907 0.636306 0.157005 -0.029346 761503.000000 0 0 1
8.651394 -12.664448 22.566869 27.285498 -0.971486 0.596931 0.121209 -0.029309 678046.000000 0 0 1
7.888594 -11.979348 21.611489 25.938218 -0.988458 0.585943 0.106154 -0.023907 -573574.000000 0 0 1
6.547394 -11.866348 22.052889 25.884522 -1.066602 0.551056 0.060948 -0.026551 46383.900000 0 0 1
5.875594 -10.730748 21.213489 24.488439 -1.069838 0.523119 0.036716 -0.026150 252134.000000 0 1 0
6.345294 -9.449748 21.678089 24.484690 -0.979471 0.483500 0.062399 -0.023081 435120.000000 0 1 0
5.429794 -8.468848 21.177589 23.445561 -1.000668 0.443474 0.035563 -0.016555 608988.000000 0 1 0
5.778094 -7.043548 21.697389 23.532416 -0.883776 0.397527 0.062944 -0.024469 446528.000000 0 1 0
4.845994 -6.097948 21.173589 22.560795 -0.899300 0.352500 0.047966 -0.027178 191495.000000 0 1 0
5.196694 -4.764848 21.542089 22.666517 -0.742074 0.316301 0.086573 -0.042568 80839.300000 0 1 0
-8.850806 -15.617648 -20.674179 27.380091 1.055208 2.426574 0.086671 -0.025833 -11481.300000 0 0 1
-7.920506 -15.143248 -19.727479 26.100303 1.088888 2.427722 0.067286 -0.012160 -38106.600000 0 0 1
-7.335106 -13.933848 -20.053979 25.497412 1.086234 2.475934 0.084323 -0.023410 145641.000000 0 0 1
-6.529806 -13.322948 -18.856579 23.993955 1.115086 2.474928 0.060947 -0.018296 668361.000000 0 1 0
-5.406006 -14.093448 -18.410079 23.807167 1.204522 2.454826 0.064987 -0.013223 475991.000000 0 1 0
-4.835706 -13.472448 -17.258079 22.421691 1.226186 2.449175 0.070936 -0.016378 2433.340000 0 1 0
-3.739506 -14.317748 -16.607779 22.244104 1.315324 2.413755 0.062423 -0.008971 467542.000000 0 1 0
-2.441706 -14.252548 -17.206479 22.475764 1.401126 2.442703 0.062276 -0.019839 -105973.000000 0 1 0
-1.538606 -14.976548 -16.445079 22.295850 1.468421 2.400283 0.064920 -0.017983 -876705.000000 0 1 0
-0.244006 -15.216348 -17.201279 22.966950 1.554762 2.417284 0.069523 -0.011190 -575943.000000 0 1 0
-0.366006 -16.114648 -18.309979 24.394081 1.548088 2.419752 0.121523 -0.033301 -285177.000000 0 1 0
-0.524206 -17.459048 -18.028579 25.102247 1.540780 2.372017 0.103643 -0.023181 -147039.000000 0 0 1
-0.756206 -18.227848 -19.403279 26.632941 1.529334 2.386991 0.124487 -0.048665 -914988.000000 0 0 1
-2.043006 -18.056648 -19.855179 26.915508 1.458131 2.400432 0.126651 -0.039574 -1032680.000000 0 0 1
-2.350306 -18.751748 -21.030779 28.274470 1.446109 2.409546 0.127245 -0.041323 -312085.000000 0 0 1
-3.792206 -18.485348 -21.488479 28.597966 1.368457 2.420976 0.134945 -0.044866 -51225.900000 0 0 1
-4.063406 -17.199248 -22.081779 28.283041 1.338795 2.466650 0.129806 -0.055521 -412004.000000 0 0 1
-4.385306 -16.172348 -21.192179 27.016369 1.306003 2.472557 0.091455 -0.039223 -219070.000000 0 0 1
-3.296906 -15.225948 -20.616879 25.840952 1.357556 2.494496 0.101980 -0.026304 67021.300000 0 0 1
-2.773406 -14.232148 -21.508879 25.939886 1.378339 2.548438 0.090256 -0.020922 220290.000000 0 0 1
-1.951406 -13.271948 -20.845979 24.789261 1.424810 2.569792 0.085040 -0.019916 352002.000000 0 1 0
-1.343906 -12.168348 -21.754979 24.963051 1.460799 2.629023 0.069049 -0.025552 97690.000000 0 1 0
-2.290306 -11.204148 -22.163179 24.939626 1.369158 2.665240 0.051007 -0.029045 -64916.300000 0 1 0
-2.129106 -10.645348 -23.471879 25.860890 1.373397 2.708377 0.063720 -0.020798 -292787.000000 0 0 1
-3.074706 -9.485448 -23.767979 25.774879 1.257334 2.744366 0.034214 -0.016620 -1071070.000000 0 0 1
-4.434606 -9.698948 -23.654879 25.947806 1.141950 2.718036 0.083668 -0.032757 -659853.000000 0 0 1
-5.062006 -8.463948 -23.957979 25.908437 1.031800 2.751089 0.044863 -0.027138 -1559210.000000 0 0 1
-6.510206 -8.289448 -23.524379 25.777784 0.905046 2.720355 0.071555 -0.043790 -644791.000000 0 0 1
-7.498206 -8.829848 -24.363579 26.977274 0.866774 2.697766 0.103888 -0.042061 91212.500000 0 0 1
-7.654506 -7.951248 -25.481429 27.768994 0.804411 2.732851 0.096827 -0.046563 -957298.000000 0 0 1
-9.009606 -8.242348 -26.166479 28.875490 0.740954 2.704965 0.074720 -0.040649 330611.000000 0 0 1
-9.672006 -7.081848 -26.722799 29.288364 0.632012 2.719914 0.098164 -0.052144 516823.000000 0 0 1
-10.784906 -7.488048 -27.520529 30.492042 0.606896 2.696447 0.088956 -0.040466 325552.000000 0 0 1
-11.674906 -6.362648 -28.138269 31.121519 0.498985 2.700163 0.077046 -0.044664 -93169.200000 0 0 1
-11.083006 -5.596348 -29.131199 31.666685 0.467599 2.738704 0.048791 -0.038360 -364147.000000 0 0 1
-11.976406 -5.228748 -30.153339 32.863323 0.411644 2.732640 0.093307 -0.036667 62984.600000 0 0 1
-11.434906 -4.064948 -31.070959 33.356939 0.341554 2.769227 0.066621 -0.028504 352557.000000 0 0 1
-10.315006 -4.345148 -31.895479 33.802385 0.398686 2.804096 0.048197 -0.023972 84458.500000 0 0 1
-10.012006 -3.227048 -32.669309 34.321100 0.311804 2.830085 0.046740 -0.023067 280115.000000 0 0 1
-8.895806 -3.561748 33.677329 35.014053 0.380838 0.277208 0.040226 -0.022919 909015.000000 0 0 1
-7.649506 -3.883648 -33.112269 34.205556 0.469788 2.888081 0.050426 -0.024129 48124.400000 0 0 1
-6.675006 -4.247148 33.376499 34.301380 0.566667 0.232746 0.052348 -0.026830 -519506.000000 0 0 1
-5.212906 -3.889148 33.597989 34.221699 0.640976 0.191213 0.099371 -0.037867 -353818.000000 0 0 1
-4.919406 -2.528248 33.510599 33.963993 0.474732 0.163579 0.129389 -0.050351 -2186710.000000 0 0 1
-3.605206 -2.278948 33.613989 33.883497 0.563708 0.126210 0.131840 -0.046282 -2002180.000000 0 0 1
-3.280006 -0.865848 -33.313749 33.486027 0.258090 3.040112 0.144470 -0.049169 -318996.000000 0 0 1
-3.455806 -0.782848 -31.906689 32.102839 0.222771 3.030992 0.153971 -0.048755 -60735.300000 0 0 1
-3.679006 0.542452 -31.549079 31.767495 -0.146390 3.024261 0.177041 -0.057927 -469600.000000 0 0 1
-4.161006 0.728752 -30.078599 30.373791 -0.173380 3.002062 0.178701 -0.065425 1638520.000000 0 0 1
-5.443306 0.117452 -29.762469 30.256370 -0.021574 2.960659 0.139962 -0.061618 1452860.000000 0 0 1
-6.615506 0.843152 -30.173899 30.902104 -0.126767 2.924070 0.130468 -0.063053 463583.000000 0 0 1
-7.808506 -0.142348 -30.336709 31.325851 0.018228 2.889626 0.105317 -0.063557 20360.100000 0 0 1
-8.237306 -0.675548 -29.091319 30.242593 0.081828 2.864782 0.096061 -0.051193 -84039.300000 0 0 1
-9.205806 -1.685048 -29.250459 30.711164 0.181038 2.831933 0.069995 -0.045434 -42342.300000 0 0 1
-9.583906 -2.421748 -27.959089 29.655131 0.247508 2.801752 0.076824 -0.046715 -399297.000000 0 0 1
-10.373906 -1.755748 -27.045919 29.020378 0.167658 2.770586 0.087643 -0.043394 -132643.000000 0 0 1
-10.605106 -2.507048 -25.827559 28.032417 0.232138 2.742326 0.087119 -0.038265 347174.000000 0 0 1
-11.392906 -1.656448 -24.739079 27.286703 0.144381 2.706035 0.101348 -0.038887 667447.000000 0 0 1
-10.681106 -0.498348 -24.256679 26.508883 0.046623 2.726403 0.090471 -0.036224 46050.500000 0 0 1
-11.473206 0.259252 -23.388579 26.052395 -0.022592 2.685435 0.100903 -0.040224 -153399.000000 0 0 1
-10.744906 1.438952 -22.704479 25.159828 -0.133127 2.696127 0.116411 -0.039168 80199.000000 0 0 1
-10.526406 2.482552 -23.639179 25.995751 -0.231608 2.712510 0.111765 -0.039676 183355.000000 0 0 1
-9.812506 3.579652 -23.030879 25.288744 -0.349803 2.715812 0.116656 -0.037311 -128758.000000 0 0 1
-9.965306 4.909752 -23.792779 26.258510 -0.457778 2.704764 0.161895 -0.051789 1327450.000000 0 0 1
-11.293206 5.443552 -24.071979 27.140909 -0.449160 2.661444 0.170143 -0.043909 1288680.000000 0 0 1
-12.033606 4.842452 -25.146919 28.295310 -0.382583 2.665366 0.142781 -0.040224 589405.000000 0 0 1
-13.540106 5.247052 -25.073479 28.974910 -0.369701 2.616647 0.123499 -0.025204 404049.000000 0 0 1
-13.859606 6.560852 -25.431789 29.696959 -0.442125 2.599008 0.126711 -0.030417 -290140.000000 0 0 1
-15.241506 6.810552 -25.450509 30.437075 -0.420225 2.561055 0.125388 -0.037787 -75946.000000 0 0 1
-15.557706 8.311952 -25.728339 31.194201 -0.490683 2.540609 0.135490 -0.030656 -205206.000000 0 0 1
-15.195206 9.205752 -24.702579 30.427908 -0.544697 2.518092 0.185289 -0.042338 155608.000000 0 0 1
-15.588506 10.534152 -24.952779 31.250777 -0.594274 2.495544 0.158704 -0.034270 -89242.400000 0 0 1
-15.293906 11.388052 -23.687779 30.408916 -0.640045 2.463826 0.160605 -0.043400 47999.500000 0 0 1
-16.118006 11.072252 -22.576579 29.867822 -0.601913 2.427798 0.185781 -0.044302 -212553.000000 0 0 1
-15.731506 11.654552 -21.356179 28.972319 -0.637614 2.399600 0.171142 -0.042058 -415434.000000 0 0 1
-16.640106 11.524752 -20.101379 28.526803 -0.605735 2.352724 0.169334 -0.045118 308293.000000 0 0 1
-17.770506 12.391552 -20.277379 29.673449 -0.608918 2.323139 0.148318 -0.039161 -17080.500000 0 0 1
-18.340906 12.707452 -19.069979 29.351870 -0.605909 2.277989 0.136508 -0.032083 175132.000000 0 0 1
-19.852506 13.060452 -19.257979 30.587043 -0.581891 2.251850 0.111154 -0.037966 393076.000000 0 0 1
-20.105306 14.315852 -19.879879 31.691900 -0.618763 2.248859 0.092789 -0.031753 -155.334000 0 0 1
-21.471806 14.422052 -20.214179 32.827535 -0.591461 2.234158 0.070379 -0.030506 33695.800000 0 0 1
-21.791506 15.722652 -20.932479 34.062299 -0.625013 2.232593 0.079041 -0.025459 -122415.000000 0 0 1
-21.646706 15.690052 -22.337379 34.838429 -0.627193 2.266819 0.091346 -0.030385 220114.000000 0 0 1
-22.167106 16.878452 -22.942379 36.091765 -0.650769 2.259670 0.083244 -0.019133 67242.800000 0 0 1
-22.152706 16.856352 -24.484279 37.072347 -0.650451 2.292209 0.076683 -0.015476 33357.100000 0 0 1
-20.929606 17.246852 -25.069679 36.932251 -0.689229 2.316926 0.065033 -0.017160 139369.000000 0 0 1
-20.801506 16.699352 -26.364129 37.505177 -0.676443 2.350328 0.056756 -0.022872 173789.000000 0 0 1
-19.682306 17.331652 -27.234459 37.808664 -0.721976 2.375065 0.028990 -0.006478 306410.000000 0 0 1
-20.161106 18.579052 -27.777799 39.028932 -0.744583 2.362745 0.027147 -0.017320 698588.000000 0 0 1
-19.495206 19.690752 -27.192869 38.823201 -0.790388 2.346794 0.012318 -0.019016 -435305.000000 0 0 1
-20.401206 20.933652 -27.174479 39.910892 -0.798279 2.319758 0.058448 -0.013730 763757.000000 0 0 1
-21.469606 21.092052 -26.240489 39.929712 -0.776528 2.287850 0.082198 -0.006425 462917.000000 0 0 1
-22.595906 20.273452 -26.298319 40.164529 -0.731276 2.284668 0.116086 -0.024934 -707527.000000 0 0 1
-23.667206 20.558752 -25.243479 40.249623 -0.715228 2.248715 0.127502 -0.009780 -161204.000000 0 0 1
-23.305306 20.140752 -23.964079 39.026456 -0.712688 2.231974 0.084951 -0.003105 269608.000000 0 0 1
-24.199906 20.710652 -23.011879 39.295205 -0.707861 2.196435 0.082585 -0.011307 171051.000000 0 0 1
-23.949406 20.125952 -21.604279 38.018060 -0.698867 2.175190 0.089930 -0.002271 321552.000000 0 0 1
-22.725306 20.603752 -21.045079 37.200128 -0.736473 2.172110 0.082734 -0.004883 -48791.400000 0 0 1
-22.012206 19.692252 -20.337679 35.860050 -0.729827 2.173826 0.077875 -0.006908 -447711.000000 0 0 1
-22.612406 19.251452 -18.945879 35.226207 -0.705287 2.138663 0.097395 -0.021873 -664886.000000 0 0 1
-23.736406 18.410252 -19.089179 35.591447 -0.659693 2.136893 0.129846 -0.028106 99990.000000 0 0 1
-24.323006 18.057052 -17.838879 35.155247 -0.638610 2.102998 0.117318 -0.031214 149196.000000 0 0 1
-25.329026 19.069452 -17.240179 36.089158 -0.645335 2.068843 0.081726 -0.024314 386575.000000 0 0 1
-26.474546 19.262252 -18.092379 37.406819 -0.628995 2.075634 0.082841 -0.013526 919984.000000 0 0 1
-27.476896 20.156852 -17.674679 38.388446 -0.632918 2.049261 0.068108 -0.006557 231020.000000 0 0 1
-28.923486 19.915952 -18.201379 39.553804 -0.603016 2.048980 0.038650 0.012152 683427.000000 0 0 1
-29.634196 18.717052 -17.909879 39.360861 -0.563334 2.043188 0.042192 -0.000361 244499.000000 0 0 1
-29.903766 18.496052 -16.524879 38.851136 -0.553925 2.010132 0.047811 -0.015629 -482305.000000 0 0 1
-30.897706 17.346952 -16.246679 38.981272 -0.511578 2.000698 0.044047 -0.023440 254037.000000 0 0 1
-30.264856 16.069952 -16.170379 37.890448 -0.488121 2.011711 0.064857 -0.036472 -86404.200000 0 0 1
-31.231106 15.187352 -15.738179 38.127784 -0.452619 1.996294 0.068688 -0.030364 -141204.000000 0 0 1
-30.591426 13.916552 -15.120679 36.852961 -0.426935 1.993577 0.129079 -0.026262 -552707.000000 0 0 1
-29.822116 14.174652 -13.991679 35.861490 -0.443699 1.971600 0.141621 -0.025447 -534725.000000 0 0 1
-30.500486 14.147452 -12.766379 35.964017 -0.434306 1.933685 0.097785 -0.013120 -202944.000000 0 0 1
-29.716176 14.700452 -11.559379 35.110877 -0.459395 1.906279 0.127740 -0.034001 230029.000000 0 0 1
-29.476276 16.114952 -11.625879 35.548609 -0.500313 1.903968 0.109380 -0.023416 -376851.000000 0 0 1
-30.588816 16.805152 -11.166679 36.644011 -0.502374 1.880456 0.076823 -0.023641 -362214.000000 0 0 1
-30.340176 18.295652 -11.345779 37.201934 -0.542635 1.880712 0.141819 -0.014682 -98908.500000 0 0 1
-29.387986 18.827752 -10.467179 36.437615 -0.569782 1.862165 0.090549 -0.031867 -238422.000000 0 0 1
-29.173506 20.230552 -10.632879 37.059774 -0.606321 1.861798 0.048781 -0.028478 134159.000000 0 0 1
-27.812126 20.780452 -10.123279 36.163826 -0.641689 1.854516 0.096624 -0.026616 456742.000000 0 0 1
-27.772606 22.153752 -10.568579 37.064825 -0.673327 1.859946 0.122020 -0.030324 -517293.000000 0 0 1
-26.490616 22.650152 -10.309679 36.346549 -0.707404 1.858394 0.115575 -0.021684 -379235.000000 0 0 1
-26.447146 23.991252 -9.603579 36.976485 -0.736746 1.833530 0.156181 -0.008516 86319.200000 0 0 1
-26.897816 24.075052 -8.251979 37.029661 -0.730077 1.795531 0.121536 -0.016098 610413.000000 0 0 1
-28.283856 24.348852 -8.015379 38.171841 -0.710774 1.782352 0.160187 -0.013665 713936.000000 0 0 1
-28.819626 23.901752 -6.626179 38.023294 -0.692387 1.745957 0.148576 -0.016460 27773.100000 0 0 1
-28.979026 22.512852 -6.427579 37.254882 -0.660475 1.744194 0.151942 -0.027305 133708.000000 0 0 1
-29.212606 22.303452 -5.027979 37.095834 -0.652077 1.706755 0.138557 -0.026933 -510440.000000 0 0 1
-29.387036 20.792952 -4.627379 36.295418 -0.615779 1.698636 0.149500 -0.030325 1513590.000000 0 0 1
-28.130256 20.042752 -4.420279 34.821862 -0.619065 1.698080 0.146032 -0.029267 1859980.000000 0 0 1
-27.252216 19.865452 -5.551679 34.178072 -0.629891 1.733953 0.125140 -0.022908 -155273.000000 0 0 1
-27.800356 19.095252 -6.774679 34.400360 -0.601860 1.769028 0.154488 -0.031407 -539267.000000 0 0 1
-27.775986 17.662252 -6.716479 33.594220 -0.566386 1.772082 0.141966 -0.031563 282591.000000 0 0 1
-28.102156 17.066752 -7.980079 33.833221 -0.545778 1.808905 0.109254 -0.030882 -5215.700000 0 0 1
-27.779296 15.542852 -8.146879 32.857894 -0.510117 1.821353 0.166031 -0.033057 -360218.000000 0 0 1
-28.582636 14.746452 -7.388979 33.000333 -0.476305 1.796617 0.155550 -0.027140 -486341.000000 0 0 1
-28.411066 13.364252 -7.734779 32.336028 -0.439679 1.812338 0.181303 -0.033754 190697.000000 0 0 1
-29.246056 12.370952 -6.859179 32.487238 -0.400172 1.783532 0.193853 -0.026434 -234353.000000 0 0 1
-30.633186 12.535452 -6.978479 33.826452 -0.388422 1.778591 0.198019 -0.021887 -402616.000000 0 0 1
-31.392446 11.513052 -6.351579 34.034962 -0.351515 1.758516 0.213678 -0.033044 42396.800000 0 0 1
-31.713226 10.270152 -7.249779 34.113986 -0.313186 1.784946 0.167747 -0.021079 -182585.000000 0 0 1
-30.695656 9.331452 -7.570979 32.963905 -0.295122 1.802540 0.206891 -0.017533 187081.000000 0 0 1
-31.273546 8.247452 -8.271279 33.383667 -0.257849 1.821168 0.170810 -0.013478 284635.000000 0 0 1
-30.234796 7.144552 -8.620879 32.241388 -0.232046 1.841475 0.246945 -0.019872 526035.000000 0 0 1
-29.485006 7.434252 -9.832579 31.957993 -0.246989 1.883542 0.256272 -0.039077 268812.000000 0 0 1
-28.528036 6.417652 -10.020579 30.910308 -0.221276 1.900944 0.271607 -0.044955 -416178.000000 0 0 1
-27.488716 6.747152 -11.139079 30.417638 -0.240693 1.945723 0.219797 -0.039233 -516501.000000 0 0 1
-26.404746 7.433652 -10.608479 29.411046 -0.274424 1.939812 0.253876 -0.049136 -852655.000000 0 0 1
-25.508046 7.794352 -11.579479 29.077426 -0.296554 1.980382 0.202076 -0.027441 -548798.000000 0 0 1
-33.468476 25.200752 -33.417209 53.590360 -0.645399 2.244094 0.097535 -0.013082 -130560.000000 0 0 1
-33.807056 26.566052 -33.400679 54.445179 -0.666031 2.231248 0.092452 -0.021129 308649.000000 0 0 1
-33.804306 27.070152 32.690349 54.260328 -0.675222 0.924201 0.089843 -0.026344 -22391.000000 0 0 1
-34.038648 28.625452 32.632595 55.162780 -0.699228 0.937793 0.109543 -0.026726 -55661.000000 0 0 1
-34.285580 29.042452 31.314428 54.768224 -0.702793 0.962144 0.135395 -0.024235 193864.000000 0 0 1
-34.386663 30.448452 31.284289 55.572093 -0.724731 0.972846 0.136753 -0.026878 -74837.900000 0 0 1
-34.170685 30.998052 29.837329 54.943436 -0.736753 0.996725 0.126818 -0.027679 657244.000000 0 0 1
-32.866206 30.802252 29.255539 53.710826 -0.752992 0.994782 0.122186 -0.032634 826823.000000 0 0 1
-32.733736 31.275852 27.948809 53.205379 -0.762626 1.017728 0.139492 -0.039488 64110.300000 0 0 1
-31.245156 31.231152 27.544839 52.061145 -0.785174 1.013273 0.143396 -0.040750 -120645.000000 0 0 1
-30.760916 30.071352 26.915239 50.743968 -0.774063 1.011709 0.166493 -0.042821 684671.000000 0 0 1
-29.521336 30.236652 26.212479 49.727844 -0.797368 1.015590 0.139714 -0.036840 291254.000000 0 0 1
-29.602876 30.902852 24.793169 49.457232 -0.806880 1.045690 0.142548 -0.040426 -331938.000000 0 0 1
-29.970716 32.244352 24.922129 50.587099 -0.821927 1.055655 0.127211 -0.043800 -129616.000000 0 0 1
-30.894496 32.682952 23.965839 50.960835 -0.813521 1.081189 0.134856 -0.042111 -557084.000000 0 0 1
-31.282636 -33.357948 24.124969 51.704644 0.817493 1.085363 0.123081 -0.032992 -117380.000000 0 0 1
-31.958116 -33.282248 25.382979 52.662367 0.805692 1.067866 0.122574 -0.041317 184788.000000 0 0 1
-31.625066 -32.048248 25.974689 51.979991 0.792044 1.047538 0.093970 -0.041905 -189035.000000 0 0 1
-31.957426 -31.986548 27.494989 52.918719 0.785854 1.024448 0.105150 -0.041552 1915780.000000 0 0 1
-33.376276 -31.996848 27.905439 54.004515 0.764300 1.027776 0.070593 -0.043529 1894380.000000 0 0 1
-33.509136 -32.306948 29.282499 54.991507 0.767134 1.009255 0.069188 -0.036352 664801.000000 0 0 1
-35.008088 -32.640848 29.582569 56.268282 0.750419 1.017210 0.079709 -0.038625 719338.000000 0 0 1
-35.276481 -33.057048 30.904249 57.378316 0.752930 1.002016 0.084347 -0.041606 -659259.000000 0 0 1
-36.622086 -33.172448 31.246889 58.463293 0.736013 1.006916 0.080036 -0.046601 -576141.000000 0 0 1
-36.805006 -33.396048 32.760829 59.524587 0.736876 0.987983 0.088752 -0.031141 -13653.500000 0 0 1
-36.495856 32.793252 33.193407 59.238055 -0.732012 0.976001 0.062097 -0.031620 -275147.000000 0 0 1
-37.474996 32.330352 -33.353119 59.682975 -0.711831 2.163780 0.068212 -0.028639 -189852.000000 0 0 1
-37.225556 30.877852 -32.917829 58.504421 -0.692460 2.168391 0.065477 -0.031339 356595.000000 0 0 1
-36.120646 30.751852 -32.038699 57.243827 -0.705286 2.164806 0.070849 -0.034291 -122148.000000 0 0 1
-35.812442 29.344352 -31.815609 56.176997 -0.686453 2.172862 0.072150 -0.027372 -87026.600000 0 0 1
-34.926689 29.240552 -30.574659 54.860671 -0.697015 2.161944 0.065834 -0.021695 -185645.000000 0 0 1
-35.503857 29.427752 -29.297159 54.633689 -0.692093 2.136781 0.076476 -0.031402 -446783.000000 0 0 1
-35.938533 30.729952 -28.946649 55.442011 -0.707430 2.120116 0.063367 -0.027378 179051.000000 0 0 1
-36.858056 30.772452 -27.727389 55.446084 -0.695657 2.094486 0.058710 -0.024137 277548.000000 0 0 1
-36.153356 30.354952 -26.582389 54.176671 -0.698435 2.083645 0.052991 -0.033735 322939.000000 0 0 1
-37.101246 30.280652 -25.517329 54.263749 -0.684519 2.060366 0.083578 -0.032305 -4704.430000 0 0 1
-36.538526 30.112652 -24.138779 53.146179 -0.689285 2.042266 0.088757 -0.037267 -477062.000000 0 0 1
-36.206586 31.374952 -23.580979 53.398194 -0.714026 2.028185 0.079522 -0.027443 -84497.900000 0 0 1
-36.012956 31.353352 -22.169579 52.644619 -0.716340 2.005474 0.081092 -0.038105 321876.000000 0 0 1
-37.262886 31.041452 -21.244079 52.947194 -0.694565 1.983657 0.064574 -0.029427 966062.000000 0 0 1
37.825711 32.125552 -21.168479 53.953128 0.704090 1.973981 0.072486 -0.030550 454042.000000 0 0 1
-37.898596 33.375252 -20.488079 54.497453 -0.722019 1.956213 0.069157 -0.026519 -273992.000000 0 0 1
-37.673756 33.202552 -18.991279 53.687895 -0.722397 1.932357 0.072527 -0.026776 -222807.000000 0 0 1
-36.494676 32.527252 -18.675479 52.332180 -0.727981 1.935705 0.074263 -0.032866 -399669.000000 0 0 1
-36.290926 32.508052 -17.240079 51.681961 -0.730469 1.910895 0.070985 -0.018872 184448.000000 0 0 1
-35.303322 31.348352 -16.893179 50.144025 -0.726130 1.914412 0.079121 -0.031042 224409.000000 0 0 1
-35.160094 30.999952 -15.576279 49.394835 -0.722601 1.891614 0.069560 -0.023576 -601653.000000 0 0 1
-33.999848 30.252552 -15.393579 48.043406 -0.727143 1.896958 0.083007 -0.021405 -431555.000000 0 0 1
-33.656086 30.077052 -13.933979 47.238935 -0.729301 1.870218 0.110477 -0.027729 -884067.000000 0 0 1
-34.699684 29.484352 -13.295879 47.436015 -0.704320 1.854893 0.091229 -0.020943 -617069.000000 0 0 1
-34.106264 28.665252 -12.340979 46.230225 -0.698935 1.841019 0.124732 -0.017843 189881.000000 0 0 1
-35.156007 28.139052 -11.376079 46.445304 -0.674988 1.818249 0.108669 -0.019355 196419.000000 0 0 1
-34.463950 27.455752 -10.343679 45.261174 -0.672696 1.801367 0.134874 -0.017735 489378.000000 0 0 1
-35.342065 26.535852 -9.726179 45.252752 -0.644032 1.787417 0.134746 -0.024593 32613.000000 0 0 1
-34.616419 25.679452 -8.625079 43.955918 -0.638251 1.768299 0.149363 -0.017595 359548.000000 0 0 1
-34.197364 26.323152 -7.449679 43.793444 -0.656017 1.741737 0.145037 -0.016874 788909.000000 0 0 1
-33.220416 27.394852 -7.545179 43.715028 -0.689585 1.744264 0.150610 -0.016287 147121.000000 0 0 1
-32.780526 27.971952 -6.152379 43.529815 -0.706413 1.712608 0.163136 -0.007652 -486588.000000 0 0 1
-32.038376 27.095552 -5.429579 42.309654 -0.702005 1.699481 0.174129 -0.011825 -349587.000000 0 0 1
-31.912866 27.364452 -4.061579 42.234354 -0.708817 1.667113 0.168870 -0.015964 -176479.000000 0 0 1
-31.193136 26.348452 -3.123879 40.951328 -0.701402 1.647153 0.176808 -0.017759 71863.200000 0 0 1
-31.803626 25.103752 -2.925279 40.622977 -0.668205 1.642869 0.158364 -0.022482 -243525.000000 0 0 1
-30.975126 24.325852 -2.099179 39.441248 -0.665735 1.624044 0.158743 -0.025024 243068.000000 0 0 1
-31.621516 23.013152 -1.611179 39.142322 -0.629121 1.611970 0.157002 -0.032996 -139560.000000 0 0 1
-31.978606 22.123552 -2.674679 38.977387 -0.605217 1.639472 0.148626 -0.027451 -84944.500000 0 0 1
-32.973026 21.230652 -2.250179 39.281349 -0.572060 1.628111 0.124197 -0.030466 -2327.480000 0 0 1
-33.473816 20.391052 -3.471679 39.349002 -0.547131 1.659139 0.169288 -0.025208 13065.200000 0 0 1
-32.465266 19.495852 -3.865779 38.066074 -0.540797 1.672526 0.164259 -0.035711 242216.000000 0 0 1
-32.922586 18.747552 -4.957779 38.209252 -0.517648 1.700917 0.164252 -0.030925 -370245.000000 0 0 1
-31.911976 17.686352 -5.280379 36.865481 -0.506080 1.714524 0.145410 -0.037491 -393891.000000 0 0 1
-31.898856 16.631352 -4.405579 36.242903 -0.480603 1.692655 0.180021 -0.038496 825692.000000 0 0 1
-31.107856 15.453652 -4.884879 35.076718 -0.461065 1.710513 0.183951 -0.037865 484694.000000 0 0 1
-30.963826 14.339152 -3.916179 34.346853 -0.433689 1.685063 0.200086 -0.036892 229595.000000 0 0 1
-32.211666 13.730952 -3.616079 35.202365 -0.402948 1.673700 0.180968 -0.028841 432984.000000 0 0 1
-31.961846 12.554852 -2.814079 34.454361 -0.374291 1.652563 0.169447 -0.038104 19329.700000 0 0 1
-33.196006 11.826852 -2.215179 35.309436 -0.342253 1.633574 0.168142 -0.029573 65799.900000 0 0 1
-34.027386 11.334352 -3.272979 36.014483 -0.321536 1.661801 0.193989 -0.008869 305942.000000 0 0 1
-34.881609 10.322852 -2.790279 36.483881 -0.287728 1.647351 0.188829 -0.009909 221017.000000 0 0 1
-35.771895 9.665852 -3.928979 37.262502 -0.263906 1.676433 0.136727 -0.005351 174080.000000 0 0 1
-35.050641 8.877752 -4.835579 36.479375 -0.248067 1.703744 0.123512 -0.005677 259738.000000 0 0 1
-35.908670 8.095252 -5.653979 37.241552 -0.221733 1.723205 0.131087 -0.003764 -99487.800000 0 0 1
-35.193952 7.221552 -6.688679 36.544542 -0.202384 1.754862 0.151685 -0.013686 -407168.000000 0 0 1
-34.493837 6.135952 -6.166979 35.573956 -0.176044 1.745033 0.143669 -0.016730 223485.000000 0 0 1
-33.922176 5.280452 -7.139879 35.065298 -0.154424 1.775847 0.152834 -0.019575 -296843.000000 0 0 1
-32.846756 4.365452 -6.529679 33.772819 -0.132129 1.765363 0.180799 -0.035688 -495700.000000 0 0 1
-31.590146 4.985152 -6.440979 32.623233 -0.156516 1.769537 0.189825 -0.040727 46590.200000 0 0 1
-30.659026 4.048852 -5.875479 31.478411 -0.131301 1.758549 0.191205 -0.047291 192002.000000 0 0 1
-29.256906 4.648952 -5.659679 30.159763 -0.157584 1.759572 0.238479 -0.051612 87038.300000 0 0 1
-28.418356 4.716152 -6.797679 29.598201 -0.164456 1.802530 0.247571 -0.039467 1840190.000000 0 0 1
-26.992376 4.644552 -6.481079 28.145419 -0.170400 1.803153 0.257279 -0.050068 1568390.000000 0 0 1
-26.035516 4.922452 -7.609279 27.567731 -0.186861 1.850448 0.239569 -0.050991 -431904.000000 0 0 1
-26.248606 4.048952 -8.699779 27.947621 -0.153048 1.887345 0.233808 -0.056975 34211.700000 0 0 1
-25.216626 4.100652 -9.635279 27.304436 -0.161206 1.931447 0.217810 -0.057909 -428115.000000 0 0 1
-25.617156 3.225352 -10.861679 28.011028 -0.125247 1.969001 0.180564 -0.063787 280789.000000 0 0 1
-26.568046 4.000952 -11.609979 29.268760 -0.149469 1.978680 0.201452 -0.041648 511932.000000 0 0 1
-26.910156 3.325852 -12.825279 29.995093 -0.122967 2.012610 0.181929 -0.041409 370881.000000 0 0 1
-27.773746 4.189752 -13.848779 31.316508 -0.149724 2.028868 0.165176 -0.034412 199117.000000 0 0 1
-27.104806 5.364352 -14.347579 31.133580 -0.195387 2.049737 0.129474 -0.022558 679005.000000 0 0 1
-27.883416 6.331452 -15.109279 32.339798 -0.223283 2.056922 0.162256 -0.032512 -108427.000000 0 0 1
-28.513646 5.893452 -16.397679 33.416234 -0.203819 2.083701 0.095615 0.000706 1052070.000000 0 0 1
-29.826426 5.285452 -16.258479 34.378625 -0.175386 2.063403 0.130184 -0.015923 974192.000000 0 0 1
-30.341526 4.749352 -17.427879 35.311408 -0.155270 2.086961 0.131126 -0.001264 329600.000000 0 0 1
-31.825826 4.268452 -17.354479 36.500423 -0.133324 2.066283 0.142062 -0.014678 453599.000000 0 0 1
-32.153336 3.086552 -16.657779 36.343438 -0.095702 2.046927 0.149232 -0.026585 56504.200000 0 0 1
-31.748646 1.891352 -17.306379 36.208625 -0.059502 2.069130 0.164417 -0.024202 -35253.800000 0 0 1
-32.260606 0.642152 -16.560979 36.268790 -0.019903 2.044986 0.160667 -0.021532 -110974.000000 0 0 1
-31.822336 -0.545348 -17.136279 36.147069 0.017136 2.064705 0.177122 -0.014246 332780.000000 0 0 1
-32.309356 -1.643248 -16.357779 36.251506 0.050816 2.038940 0.184688 -0.022764 -29829.300000 0 0 1
-32.048236 -3.088048 -16.942279 36.382225 0.096060 2.055193 0.180537 -0.015801 302357.000000 0 0 1
-32.970356 -3.488448 -17.974379 37.713287 0.105413 2.067586 0.198864 -0.018274 672182.000000 0 0 1
-32.819276 -4.833348 -18.423279 37.945795 0.146221 2.077749 0.202630 -0.022927 -12158.600000 0 0 1
-33.675046 -4.984348 -19.692279 39.327323 0.146946 2.095236 0.223134 -0.025364 -62254.100000 0 0 1
-33.571646 -6.273048 -20.220579 39.689777 0.184725 2.105360 0.223141 -0.027826 575857.000000 0 0 1
-34.350813 -6.499648 -21.408879 40.994682 0.187003 2.120267 0.219670 -0.030651 17064.600000 0 0 1
-33.788506 -7.650448 -22.310079 41.205972 0.222667 2.142931 0.222260 -0.030101 -235734.000000 0 0 1
-32.678746 -7.090848 -22.963979 40.565070 0.213674 2.172566 0.205691 -0.022865 -284877.000000 0 0 1
-32.041096 -8.012248 -23.760879 40.686698 0.245037 2.194439 0.185278 -0.023180 -654485.000000 0 0 1
-30.680226 -7.582748 -24.312979 39.873491 0.242299 2.226545 0.159037 -0.009462 -463647.000000 0 0 1
-30.716126 -6.599248 -25.265199 40.315764 0.211629 2.248086 0.139517 -0.013399 -32771.000000 0 0 1
-30.873686 -7.021848 -26.615339 41.362630 0.223634 2.269811 0.099947 -0.016579 -347262.000000 0 0 1
-32.267176 -6.978648 -27.278469 42.825075 0.212996 2.261363 0.132890 -0.009074 85266.600000 0 0 1
-33.212196 -7.875648 -26.728819 43.353265 0.232831 2.235131 0.134546 -0.012630 -421999.000000 0 0 1
-34.443632 -7.783748 -27.383999 44.685948 0.222252 2.230408 0.123905 -0.011496 -21808.600000 0 0 1
-35.522484 -8.683948 -26.759429 45.313628 0.239761 2.202522 0.126258 -0.018864 -292062.000000 0 0 1
-35.158847 -9.981348 -27.067399 45.479841 0.276615 2.208251 0.119478 -0.017904 431955.000000 0 0 1
-36.068836 -11.064048 -26.767039 46.258497 0.297636 2.187857 0.107540 -0.012301 563863.000000 0 0 1
-37.274596 -11.305148 -27.727299 47.812185 0.294476 2.189428 0.098139 0.001746 236926.000000 0 0 1
37.832471 -10.273448 -27.623929 47.957492 -0.265157 2.184634 0.095513 -0.007761 -544521.000000 0 0 1
36.862331 -10.306948 -28.603769 47.783263 -0.272644 2.212567 0.095300 -0.009473 -509358.000000 0 0 1
35.865831 -9.142648 -28.553319 46.746528 -0.249597 2.227881 0.090641 -0.006439 -40946.800000 0 0 1
34.926761 -9.297748 -27.514629 45.424460 -0.260173 2.221470 0.083436 -0.003734 384359.000000 0 0 1
33.902371 -8.303248 -27.417239 44.384904 -0.240188 2.236631 0.049440 -0.001623 1023500.000000 0 0 1
32.582911 -8.781548 -26.729529 43.049151 -0.263259 2.240696 0.051470 0.001386 476432.000000 0 0 1
32.757051 -9.037948 -25.332969 42.384764 -0.269211 2.211414 0.034373 0.012529 -45420.500000 0 0 1
31.553201 -9.486348 -24.766179 41.218429 -0.292049 2.215363 0.019014 0.014229 -271711.000000 0 0 1
31.627181 -9.522448 -23.207779 40.367767 -0.292451 2.183289 0.006138 0.012767 -34469.800000 0 0 1
32.467871 -10.522348 -22.683079 40.980538 -0.313404 2.157367 0.002393 0.008824 221508.000000 0 0 1
32.581231 -10.485848 -21.289479 40.307959 -0.311368 2.127241 0.011499 0.001575 -43755.000000 0 0 1
33.369011 -11.706248 -20.753979 41.003107 -0.337398 2.101518 0.052835 -0.005920 441010.000000 0 0 1
34.771551 -11.656648 -21.003879 42.262290 -0.323461 2.090921 0.066714 -0.013193 542050.000000 0 0 1
35.469781 -12.366348 -19.980679 42.547144 -0.335467 2.059648 0.105782 -0.020630 637892.000000 0 0 1
36.957741 -12.616648 -20.429679 44.072965 -0.328975 2.052785 0.141085 -0.034349 238115.000000 0 0 1
37.859521 -11.553748 -20.415179 44.537759 -0.296197 2.046967 0.176277 -0.038507 57922.500000 0 0 1
37.788691 -10.633148 -21.487979 44.752455 -0.274292 2.071624 0.181923 -0.025075 -549911.000000 0 0 1
-37.519416 -11.023548 -22.817079 45.275207 0.285767 2.098979 0.147079 -0.022353 -29875.100000 0 0 1
37.953471 -12.057748 -23.583579 46.282183 -0.307614 2.105470 0.138719 -0.014283 292239.000000 0 0 1
36.735171 -11.652448 -24.183279 45.498168 -0.307162 2.131193 0.152733 -0.016653 -384082.000000 0 0 1
36.179261 -12.732648 -25.171259 45.876481 -0.338395 2.151574 0.129956 -0.018331 -92461.800000 0 0 1
35.834231 -14.019848 -24.688079 45.718153 -0.372933 2.141241 0.131836 -0.026549 673090.000000 0 0 1
34.922211 -14.046248 -23.596879 44.426013 -0.382415 2.130754 0.091266 -0.015800 -361247.000000 0 0 1
-30.333646 8.807352 -19.373479 37.054436 -0.282580 2.120974 0.095712 -0.013357 488954.000000 0 0 1
-29.298716 7.836952 -19.173079 35.880908 -0.261366 2.134539 0.088502 -0.003020 176550.000000 0 0 1
-28.490876 7.822552 -20.327279 35.862524 -0.267960 2.173426 0.087113 -0.022887 124205.000000 0 0 1
-27.256096 6.886852 -20.195679 34.614866 -0.247492 2.193754 0.067811 -0.018530 -108817.000000 0 0 1
-26.117296 7.447952 -19.602779 33.494091 -0.277799 2.195998 0.070123 -0.008326 -705336.000000 0 0 1
-25.099016 6.476452 -19.631379 32.516090 -0.252528 2.218985 0.079238 -0.014925 -547100.000000 0 0 1
-23.806406 7.061952 -19.066679 31.307418 -0.288372 2.225614 0.077097 -0.021929 -370838.000000 0 0 1
-23.317606 8.091752 -19.911879 31.712303 -0.334020 2.249637 0.073109 -0.018855 -513875.000000 0 0 1
-22.265706 8.784852 -19.299779 30.747630 -0.375796 2.249370 0.065405 -0.017556 -293766.000000 0 0 1
-21.648706 9.819952 -20.231579 31.215617 -0.425847 2.275914 0.066144 -0.023650 -53418.300000 0 0 1
-20.938206 9.273152 -21.344679 31.304874 -0.416919 2.321061 0.113709 -0.024383 106608.000000 0 0 1
-20.441106 10.300552 -22.193679 31.882591 -0.466774 2.340756 0.102057 -0.022929 -115590.000000 0 0 1
-19.524906 9.800252 -23.273679 31.920699 -0.465195 2.387816 0.142128 -0.022569 -157410.000000 0 0 1
-20.225206 8.881952 -24.058679 32.661416 -0.413797 2.398838 0.135003 -0.020025 293878.000000 0 0 1
-19.290006 8.332652 -24.963979 32.630319 -0.407757 2.441923 0.118724 -0.017810 -22917.200000 0 0 1
-19.781506 7.042652 -25.677499 33.169879 -0.342030 2.456122 0.104948 -0.011675 -14873.400000 0 0 1
-19.659506 5.878052 -24.882479 32.251906 -0.290533 2.451998 0.120137 -0.012059 302136.000000 0 0 1
-20.190206 4.809852 -25.668289 33.009698 -0.233868 2.461634 0.117497 -0.013366 -430155.000000 0 0 1
-20.484806 3.563552 -24.755079 32.328627 -0.172237 2.442976 0.117446 -0.002252 148386.000000 0 0 1
-19.452306 2.624552 -24.557779 31.438273 -0.134113 2.467290 0.106575 0.002559 -334003.000000 0 0 1
-18.252506 3.061052 -23.985879 30.295980 -0.166160 2.484413 0.117268 -0.006999 -568778.000000 0 0 1
-17.424206 1.813752 -23.539279 29.342637 -0.103720 2.501802 0.115911 -0.006885 -73805.100000 0 0 1
-17.881906 1.056952 -22.404279 28.685039 -0.059039 2.467132 0.107153 -0.002967 187247.000000 0 0 1
-19.112306 0.364952 -22.604679 29.603800 -0.019093 2.439626 0.095760 0.003560 229366.000000 0 0 1
-19.565806 -0.543948 -21.443779 29.033641 0.027794 2.401764 0.137469 -0.007515 -213747.000000 0 0 1
-18.685806 -1.532948 -21.051779 28.190188 0.081855 2.413999 0.128861 -0.013963 -205271.000000 0 0 1
-19.373806 -2.304648 -20.131379 28.034411 0.118401 2.371858 0.149219 -0.017215 240209.000000 0 0 1
-18.588706 -3.626248 -19.932579 27.495407 0.192658 2.381747 0.108495 -0.028375 173726.000000 0 0 1
-18.714806 -4.434648 -21.071579 28.529310 0.232668 2.401779 0.105205 -0.030657 342354.000000 0 0 1
-19.126506 -5.727048 -20.657779 28.729187 0.290934 2.373234 0.113713 -0.025690 -257344.000000 0 0 1
-19.335006 -6.652648 -21.856879 29.930309 0.331385 2.389497 0.075221 -0.033006 205510.000000 0 0 1
-18.088206 -7.095348 -22.371079 29.630936 0.373819 2.426436 0.083231 -0.030217 430541.000000 0 0 1
-18.263906 -7.623248 -23.654179 30.841602 0.395411 2.444882 0.099778 -0.041065 243076.000000 0 0 1
-16.845106 -7.751148 -24.253079 30.529490 0.431256 2.488840 0.114629 -0.048127 -604076.000000 0 0 1
-16.790606 -8.258748 -25.594109 31.704729 0.457120 2.510299 0.131028 -0.069025 33848.500000 0 0 1
-15.556806 -8.367348 -26.264769 31.652249 0.493473 2.549530 0.140940 -0.066412 -191525.000000 0 0 1
-14.474106 -9.282248 -25.665379 30.892905 0.570235 2.551314 0.117788 -0.061671 -671156.000000 0 0 1
-13.830306 -8.746748 -24.550779 29.504639 0.563927 2.553678 0.114679 -0.055819 365831.000000 0 0 1
-12.876206 -9.662248 -23.978079 28.880859 0.643754 2.550337 0.092052 -0.052126 84539.300000 0 0 1
-11.947706 -9.009948 -22.993479 27.434047 0.646130 2.564654 0.104201 -0.046437 -443072.000000 0 0 1
-12.573206 -8.662448 -21.772779 26.592808 0.603279 2.530021 0.097443 -0.038338 410460.000000 0 0 1
-11.652306 -8.049548 -20.862979 25.215776 0.604533 2.545219 0.098087 -0.033070 -845753.000000 0 0 1
-12.246306 -7.852548 -19.474779 24.308467 0.570177 2.500014 0.085187 -0.027597 191440.000000 0 1 0
-13.332306 -6.935948 -19.449679 24.579418 0.479705 2.483728 0.074562 -0.015999 -159087.000000 0 1 0
-14.598806 -7.409348 -19.801179 25.692612 0.469654 2.450728 0.084855 -0.027516 -1368010.000000 0 0 1
-15.580606 -6.301948 -19.469079 25.719932 0.384357 2.429452 0.096690 -0.019582 -865767.000000 0 0 1
-15.647206 -5.909648 -18.097879 24.643300 0.361119 2.395569 0.083569 -0.021260 357380.000000 0 1 0
-15.137006 -4.610148 -17.882579 23.878213 0.295636 2.417209 0.091818 -0.022780 -623164.000000 0 1 0
-14.843506 -4.307248 -16.411679 22.543852 0.282421 2.386181 0.095555 -0.018530 447999.000000 0 1 0
-16.013406 -4.135848 -15.586679 22.726174 0.252751 2.326563 0.140333 -0.034906 857921.000000 0 1 0
-16.559106 -2.823548 -15.755479 23.030666 0.168889 2.324177 0.090890 -0.038818 -135386.000000 0 1 0
-17.751506 -2.581348 -14.823679 23.270600 0.144404 2.261414 0.087841 -0.046285 11017.500000 0 1 0
-17.310706 -2.358748 -13.482979 22.068416 0.135425 2.228072 0.098095 -0.050247 325477.000000 0 1 0
-18.388406 -1.844548 -12.768679 22.462747 0.099976 2.175402 0.115218 -0.050839 -395325.000000 0 1 0
-17.993006 -0.640048 -11.932979 21.599860 0.035557 2.156105 0.101891 -0.049616 -83216.100000 0 1 0
-17.857406 0.383552 -12.854879 22.006408 -0.021475 2.194620 0.135305 -0.052289 313721.000000 0 1 0
-16.907406 1.304152 -12.374479 20.992592 -0.076982 2.201197 0.108751 -0.036751 -415517.000000 0 1 0
-16.336706 2.223152 -13.499079 21.308579 -0.135252 2.256870 0.106089 -0.028975 194775.000000 0 1 0
-15.577106 1.673552 -14.578179 21.400241 -0.107026 2.320218 0.103554 -0.036224 1026750.000000 0 1 0
-14.256006 1.234452 -14.243479 20.189955 -0.086376 2.353887 0.093085 -0.031526 -122097.000000 0 1 0
-13.618906 0.352852 -15.279079 20.470696 -0.025903 2.413414 0.080972 -0.030098 -153328.000000 0 1 0
-13.189006 1.057152 -16.452879 21.113140 -0.079983 2.464300 0.098337 -0.034727 171933.000000 0 1 0
-12.885106 0.233552 -17.532479 21.759328 -0.018124 2.507729 0.059007 -0.018525 -205652.000000 0 1 0
-12.360306 0.944052 -18.752779 22.479660 -0.076230 2.557497 0.082505 -0.019820 -720359.000000 0 1 0
-11.046106 1.391552 -18.572479 21.653865 -0.125317 2.601572 0.062819 -0.011507 -651166.000000 0 1 0
-10.719606 2.520252 -19.386779 22.295938 -0.230913 2.625027 0.082728 -0.015487 711789.000000 0 1 0
-9.208306 2.861952 -19.161679 21.451192 -0.301336 2.675361 0.055327 -0.015000 498445.000000 0 1 0
-8.393106 1.871952 -19.782979 21.571154 -0.219443 2.731549 0.060556 -0.002746 569331.000000 0 1 0
-6.987406 1.975852 -19.522679 20.829374 -0.275578 2.785502 0.048464 0.000768 1159990.000000 0 1 0
-6.148506 3.005252 -20.336079 21.456742 -0.454629 2.816970 0.051505 -0.000976 -290804.000000 0 1 0
-6.056606 2.628152 -21.697579 22.679828 -0.409411 2.846209 0.050949 0.000044 86090.500000 0 1 0
-5.772106 3.692752 -22.602179 23.618047 -0.569142 2.847231 0.072064 -0.001457 -217215.000000 0 1 0
-5.127606 3.213252 -23.902379 24.656461 -0.559790 2.893638 0.095479 -0.022884 121830.000000 0 1 0
-3.804006 2.715052 -23.819679 24.273835 -0.619885 2.947849 0.095148 -0.028074 -89328.900000 0 1 0
-3.440906 2.042752 -24.997079 25.315344 -0.535750 2.982857 0.128062 -0.040860 262398.000000 0 0 1
-2.014806 1.436852 -24.850179 24.973093 -0.619495 3.042336 0.102000 -0.035390 -55544.100000 0 1 0
-1.048006 2.509852 -24.794179 24.942915 -1.175247 3.032332 0.098674 -0.036543 1512000.000000 0 1 0
0.349394 2.131452 -24.710779 24.804995 1.408319 3.054407 0.094096 -0.033050 1523870.000000 0 1 0
0.822694 1.051452 -23.630479 23.668163 0.906857 3.085155 0.085981 -0.034567 -1187100.000000 0 1 0
0.338994 -0.229148 -23.811279 23.814795 -0.594413 3.124410 0.076010 -0.031442 -102298.000000 0 1 0
1.032394 -1.110148 -22.928079 22.978143 -0.821673 3.075569 0.072456 -0.020401 -68758.600000 0 1 0
0.428394 -2.546048 -22.836279 22.981765 -1.404100 3.029012 0.082460 -0.030445 709051.000000 0 1 0
-0.813706 -2.489548 -22.129779 22.284234 1.254893 3.023786 0.064403 -0.019191 84218.200000 0 1 0
-1.979206 -2.832448 -22.836879 23.096819 0.960902 2.991422 0.067925 -0.023869 158751.000000 0 1 0
-3.009506 -1.685048 -22.893379 23.151746 0.510419 2.992057 0.088799 -0.022556 -961539.000000 0 1 0
-3.599206 -1.325248 -21.646979 21.984137 0.352801 2.966231 0.063145 -0.015670 -129167.000000 0 1 0
-4.513906 -0.273648 -21.748479 22.213657 0.060549 2.936582 0.042594 -0.010308 -40315.100000 0 1 0
-5.864406 -0.581348 -22.398879 23.161153 0.098809 2.884323 0.055466 -0.006913 -671912.000000 0 1 0
-6.712306 -1.517648 -21.754479 22.817004 0.222361 2.835216 0.068836 -0.000441 -498216.000000 0 1 0
-8.081406 -1.344148 -21.927179 23.407628 0.164817 2.784033 0.066475 0.004195 -363620.000000 0 1 0
-8.817406 -2.682848 -21.654479 23.534247 0.295367 2.739199 0.055369 -0.002698 -132855.000000 0 1 0
-8.945006 -3.620348 -22.718979 24.683437 0.384581 2.739934 0.086714 -0.005259 50496.600000 0 1 0
-9.578206 -4.835048 -22.342879 24.785560 0.467478 2.693898 0.072522 -0.002440 241945.000000 0 1 0
-10.592306 -5.400548 -23.380579 26.230028 0.471501 2.671148 0.087945 -0.020095 -174775.000000 0 0 1
-11.883206 -4.881248 -23.279479 26.588932 0.389755 2.637334 0.086961 -0.027435 -769144.000000 0 0 1
-12.682206 -5.335148 -24.320879 27.942930 0.398206 2.626763 0.089548 -0.048846 -200948.000000 0 0 1
-14.201206 -5.164448 -24.117179 28.460220 0.348794 2.581865 0.095733 -0.055565 -235737.000000 0 0 1
-14.657806 -3.875748 -24.212679 28.567929 0.258499 2.582144 0.107413 -0.049997 -56649.500000 0 0 1
-16.015106 -3.707548 -23.856679 28.971895 0.227496 2.538247 0.113482 -0.051494 275578.000000 0 0 1
-16.530906 -2.282448 -24.250779 29.437743 0.137204 2.538876 0.102023 -0.036983 -304877.000000 0 0 1
-16.513506 -2.039748 -25.644629 30.569650 0.122897 2.566040 0.090129 -0.034659 -51368.600000 0 0 1
-17.160906 -0.917748 -26.125719 31.271268 0.053428 2.559755 0.081729 -0.025774 606104.000000 0 0 1
-18.734806 -0.938048 -26.267269 32.277583 0.050028 2.521446 0.084120 -0.013595 944808.000000 0 0 1
-19.130206 -1.539248 -27.487629 33.524675 0.080289 2.532072 0.098530 -0.027037 -50557.800000 0 0 1
-18.779106 -0.857648 -28.728359 34.332332 0.045639 2.562159 0.078298 -0.029102 -367659.000000 0 0 1
-18.907106 -1.670448 -30.059089 35.550217 0.088121 2.578370 0.088173 -0.030704 769587.000000 0 0 1
-20.271606 -1.935148 -30.404159 36.593657 0.095173 2.551445 0.093164 -0.033468 689679.000000 0 0 1
-20.287906 -2.714848 -31.533109 37.593969 0.133026 2.565837 0.104212 -0.042951 -832262.000000 0 0 1
-21.628806 -3.314048 -31.949639 38.724251 0.152041 2.541096 0.075602 -0.040187 -424530.000000 0 0 1
-22.622806 -2.401948 -32.360669 39.557220 0.105777 2.528848 0.067047 -0.031088 569246.000000 0 0 1
-23.509406 -2.129248 -31.239759 39.155439 0.090324 2.494499 0.055038 -0.012392 -133108.000000 0 0 1
-24.560506 -1.079648 -31.620209 40.052737 0.043930 2.480732 0.041961 -0.007293 -342615.000000 0 0 1
-23.968406 0.166052 -32.047459 40.019392 -0.006928 2.499423 0.049884 -0.010000 361908.000000 0 0 1
-24.914606 1.149052 -32.404599 40.891515 -0.046087 2.485616 0.036279 -0.016693 -126646.000000 0 0 1
-24.231506 2.475852 -32.856499 40.900431 -0.101822 2.503660 0.050565 -0.016717 -378747.000000 0 0 1
-23.675106 3.354552 -31.853389 39.829663 -0.140754 2.497659 0.040370 -0.010463 641919.000000 0 0 1
-24.566606 3.886252 -30.881799 39.652322 -0.156892 2.463570 0.041178 -0.014311 225119.000000 0 0 1
-25.736666 4.820052 -31.390549 40.877567 -0.185139 2.446378 0.030764 -0.020278 181626.000000 0 0 1
-26.686326 4.029352 -32.074639 41.918709 -0.149857 2.442091 0.046413 -0.026204 -783494.000000 0 0 1
-27.628896 4.821952 -32.690319 43.072777 -0.172785 2.432504 0.070702 -0.032825 91405.200000 0 0 1
-28.753466 3.983652 -33.425549 44.270743 -0.137669 2.426490 0.086864 -0.034178 636462.000000 0 0 1
-28.275966 3.337552 32.815656 43.445791 -0.117491 0.714648 0.089670 -0.033145 578029.000000 0 0 1
-29.375476 3.014452 31.966716 43.518691 -0.102260 0.745791 0.108483 -0.043339 394192.000000 0 0 1
-29.774866 1.497252 31.965777 43.710357 -0.050243 0.750557 0.113252 -0.034027 163668.000000 0 0 1
-30.408686 1.051552 33.180629 45.019419 -0.034567 0.742132 0.124359 -0.033858 365856.000000 0 0 1
-30.886486 -0.296648 33.001184 45.201119 0.009604 0.752333 0.111120 -0.023441 -501885.000000 0 0 1
-30.580256 -1.120248 -33.137279 45.105280 0.036617 2.395969 0.080922 -0.017734 -249328.000000 0 0 1
-29.291866 -1.621748 -32.852059 44.044311 0.055309 2.412661 0.084798 -0.022333 202019.000000 0 0 1
-28.332946 -0.644048 -32.514639 43.132035 0.022728 2.424683 0.083929 -0.018272 -728724.000000 0 0 1
-28.401586 -0.109148 -31.031729 42.066973 0.003843 2.400416 0.109736 -0.018808 -673982.000000 0 0 1
-27.732736 -0.953248 -30.110629 40.947080 0.034359 2.396986 0.087646 -0.023974 299377.000000 0 0 1
-27.772346 -0.538748 -28.771029 39.992069 0.019396 2.373761 0.104754 -0.024366 -33805.200000 0 0 1
-26.551776 -1.089748 -27.988109 38.594282 0.041019 2.382104 0.105035 -0.019916 37555.100000 0 0 1
-26.522676 -2.494848 -27.753599 38.469974 0.093789 2.376669 0.084706 -0.011341 714852.000000 0 0 1
-25.521686 -2.791848 -26.736549 37.067424 0.108958 2.376467 0.094579 -0.010149 475824.000000 0 0 1
-25.635346 -4.133348 -26.048789 36.780361 0.159860 2.357778 0.079632 -0.016709 240623.000000 0 0 1
-26.544796 -4.004648 -24.944179 36.645266 0.149735 2.319505 0.116247 -0.017599 275269.000000 0 0 1
-26.590706 -5.185148 -24.146979 36.290881 0.192582 2.298790 0.101353 -0.018856 -320005.000000 0 0 1
-27.669806 -4.950348 -23.112879 36.391336 0.177035 2.258961 0.116663 -0.022974 -422495.000000 0 0 1
-27.760466 -6.014348 -22.160579 36.026478 0.213354 2.233333 0.126976 -0.028774 -298405.000000 0 0 1
-28.875656 -5.841148 -21.351879 36.384410 0.199593 2.197949 0.187738 -0.022653 -593278.000000 0 0 1
-29.443196 -7.026748 -20.489279 36.552532 0.234272 2.165838 0.191671 -0.040568 -374672.000000 0 0 1
-28.581876 -7.586848 -19.536979 35.442594 0.259459 2.154633 0.174590 -0.045586 -325775.000000 0 0 1
-29.110936 -8.612648 -18.759079 35.686515 0.287651 2.124291 0.190723 -0.035090 -418048.000000 0 0 1
-29.942346 -8.263148 -17.469179 35.637003 0.269267 2.083113 0.196864 -0.038477 740487.000000 0 0 1
-29.147566 -7.609948 -16.436579 34.316950 0.255383 2.070270 0.155322 -0.041556 34148.100000 0 0 1
-29.849496 -6.607248 -15.847079 34.435129 0.217840 2.049018 0.160629 -0.037610 -327775.000000 0 0 1
-29.074736 -5.692048 -14.809079 33.121723 0.193328 2.034329 0.164233 -0.033018 -101784.000000 0 0 1
-28.149086 -4.817848 -15.386279 32.439487 0.169512 2.064973 0.164528 -0.023855 96133.800000 0 0 1
-27.672836 -3.970248 -14.328979 31.414462 0.142499 2.044434 0.142549 -0.023660 -105004.000000 0 0 1
-14.170306 20.890452 -5.026679 25.738610 -0.974773 1.767357 0.130204 -0.038018 145708.000000 0 0 1
-14.862106 20.577352 -6.238779 26.138706 -0.945289 1.811802 0.173063 -0.034536 291463.000000 0 0 1
-15.557006 19.336352 -6.117279 25.560439 -0.893289 1.812468 0.143253 -0.049024 183577.000000 0 0 1
-15.725706 18.554452 -7.477179 25.445505 -0.867730 1.869049 0.163868 -0.045231 -129740.000000 0 0 1
-14.500006 18.036952 -7.968079 24.475949 -0.893678 1.902387 0.142797 -0.034216 18208.900000 0 1 0
-14.509806 16.882752 -8.829379 23.948272 -0.860844 1.948391 0.122654 -0.039373 -547118.000000 0 1 0
-15.126906 15.612052 -8.305679 23.271093 -0.801180 1.935754 0.117105 -0.040803 -1283750.000000 0 1 0
-16.493906 15.694052 -8.183779 24.193521 -0.760554 1.915867 0.116717 -0.034222 -1174810.000000 0 1 0
-16.968006 15.033752 -7.034079 23.736158 -0.725029 1.871659 0.117777 -0.020862 146205.000000 0 1 0
-18.441306 15.344752 -6.683379 24.904031 -0.694002 1.842492 0.146788 -0.024419 496632.000000 0 1 0
-19.450306 14.891752 -7.573379 25.640491 -0.653430 1.870637 0.134133 -0.026480 1162940.000000 0 0 1
-20.758206 15.351552 -7.149079 26.789599 -0.636774 1.840930 0.114886 -0.026735 678339.000000 0 0 1
-21.942106 14.738052 -7.870879 27.579285 -0.591465 1.860211 0.111369 -0.011463 -440362.000000 0 0 1
-22.126206 13.391752 -7.450479 26.915008 -0.544266 1.851274 0.155027 -0.028227 -291040.000000 0 0 1
-23.085006 12.755452 -8.223279 27.626824 -0.504793 1.873032 0.173357 -0.036288 -203721.000000 0 0 1
-23.169106 11.313152 -7.813779 26.941604 -0.454233 1.865051 0.181900 -0.028454 138216.000000 0 0 1
-22.025206 10.551452 -8.135879 25.741705 -0.446758 1.892368 0.168257 -0.019891 76489.100000 0 0 1
-22.299906 9.187852 -7.742079 25.330658 -0.390819 1.881408 0.202439 -0.038058 729330.000000 0 0 1
-20.997006 8.384252 -7.383679 23.784211 -0.379909 1.886457 0.149826 -0.015639 297688.000000 0 1 0
-20.667006 7.324352 -8.265079 23.432516 -0.340588 1.931271 0.131904 -0.013588 469133.000000 0 1 0
-19.615506 6.568452 -7.659279 22.058495 -0.323124 1.925408 0.085401 -0.014932 5895.610000 0 1 0
-19.306106 5.295352 -8.425979 21.720120 -0.267700 1.969186 0.071686 -0.024510 -404600.000000 0 1 0
-20.410206 4.409552 -8.598379 22.582134 -0.212776 1.961415 0.113045 -0.027653 410773.000000 0 1 0
-20.157806 3.322052 -9.438079 22.504456 -0.163334 2.003566 0.116232 -0.029793 -311910.000000 0 1 0
-21.269006 2.245052 -9.505079 23.404218 -0.105166 1.989008 0.129873 -0.033960 -36254.000000 0 1 0
-21.188806 1.373352 -8.394079 22.832262 -0.064724 1.947268 0.138886 -0.041350 144041.000000 0 1 0
-22.088806 0.279852 -8.305579 23.600346 -0.012669 1.930424 0.148438 -0.038036 -237907.000000 0 1 0
-21.861506 -0.893648 -9.268979 23.762114 0.040855 1.971508 0.117206 -0.051540 -584913.000000 0 1 0
-20.703206 -1.596248 -8.975879 22.621609 0.076949 1.978806 0.090206 -0.035378 -170896.000000 0 1 0
-20.693906 -2.925648 -9.508779 22.961142 0.140446 1.997777 0.077041 -0.026804 -126019.000000 0 1 0
-21.674806 -3.845548 -8.769479 23.695764 0.175593 1.949898 0.081809 -0.032177 -102338.000000 0 1 0
-21.211206 -4.158748 -7.439879 22.859621 0.193608 1.902294 0.081968 -0.028319 620207.000000 0 1 0
-22.150706 -4.759748 -6.527479 23.577892 0.211662 1.851308 0.098050 -0.030898 72148.100000 0 1 0
-22.462806 -6.235948 -6.622479 24.234726 0.270793 1.847581 0.105575 -0.039563 -17332.900000 0 1 0
-21.381306 -6.989948 -6.113179 23.310740 0.315966 1.836147 0.092466 -0.032990 359540.000000 0 1 0
-21.695106 -8.340948 -6.163079 24.046468 0.367040 1.829987 0.110742 -0.037833 -557236.000000 0 1 0
-20.701706 -9.217548 -5.421079 23.300471 0.418901 1.805608 0.111934 -0.041237 -1063060.000000 0 1 0
-19.592306 -9.476048 -6.223379 22.635910 0.450492 1.849317 0.115689 -0.030660 -752444.000000 0 1 0
-18.591206 -9.864348 -5.318079 21.707609 0.487821 1.818302 0.111875 -0.027017 -661211.000000 0 1 0
-17.706106 -10.958348 -5.926979 21.649958 0.554202 1.848101 0.096083 -0.033498 318704.000000 0 1 0
-16.751606 -10.587948 -6.967179 21.006250 0.563657 1.908871 0.105408 -0.040555 955199.000000 0 1 0
-17.342306 -10.289048 -8.185579 21.762900 0.535472 1.956407 0.116669 -0.044136 -86660.300000 0 1 0
-16.415106 -10.562848 -9.437479 21.681686 0.571780 2.021139 0.117806 -0.032886 407637.000000 0 1 0
-16.182406 -11.955348 -9.725279 22.346850 0.636286 2.021053 0.114268 -0.037419 601778.000000 0 1 0
-15.204606 -12.245148 -10.730179 22.276904 0.677999 2.073359 0.111936 -0.022771 395583.000000 0 1 0
-15.467906 -13.599948 -11.317279 23.500969 0.721224 2.073238 0.134382 -0.024916 -148301.000000 0 1 0
-16.521106 -13.629948 -12.237579 24.667403 0.689801 2.089901 0.137805 -0.024714 -97597.500000 0 1 0
-16.419506 -14.851448 -12.987679 25.667986 0.735296 2.101323 0.120653 -0.014660 247405.000000 0 0 1
-17.227606 -14.706548 -14.297179 26.785860 0.706616 2.133835 0.141339 -0.015994 41953.100000 0 0 1
-17.306106 -15.904648 -15.113479 27.944166 0.743224 2.142238 0.130573 -0.008266 -49236.100000 0 0 1
-18.013206 -15.565148 -16.262479 28.830846 0.712621 2.170097 0.126731 -0.008642 -185313.000000 0 0 1
-18.435206 -16.726148 -17.184879 30.247991 0.736830 2.175032 0.141927 -0.028142 269975.000000 0 0 1
-19.585706 -17.455848 -16.762279 31.133271 0.727962 2.139338 0.101169 -0.015390 101269.000000 0 0 1
-20.287706 -17.916948 -17.912179 32.456960 0.723423 2.155407 0.095486 -0.012196 -162695.000000 0 0 1
-21.820106 -17.841448 -17.793579 33.332353 0.685417 2.133912 0.092175 -0.009409 -299070.000000 0 0 1
-22.259106 -16.573648 -17.385779 32.747808 0.640022 2.130457 0.073937 -0.004984 178609.000000 0 0 1
-22.610406 -16.602248 -15.998279 32.292570 0.633361 2.089111 0.087599 -0.002044 -348711.000000 0 0 1
-22.223506 -15.376448 -15.158379 30.985414 0.605269 2.081980 0.079055 -0.016766 -24283.400000 0 0 1
-23.174506 -14.334748 -15.282679 31.242648 0.553953 2.081924 0.094640 -0.022076 409112.000000 0 0 1
-22.884906 -13.235048 -14.467079 30.136055 0.524334 2.071518 0.093776 -0.024242 -130387.000000 0 0 1
-24.168606 -12.458948 -14.101979 30.630259 0.475972 2.049235 0.099280 -0.033040 116423.000000 0 0 1
-25.054626 -13.153848 -13.227579 31.236627 0.483452 2.008062 0.116005 -0.031634 457885.000000 0 0 1
-26.035186 -12.245148 -12.757079 31.472491 0.439632 1.988148 0.132885 -0.038779 438957.000000 0 0 1
-27.206916 -12.941648 -11.930479 32.404304 0.443999 1.947843 0.133503 -0.039657 300768.000000 0 0 1
-28.084306 -11.933748 -11.507079 32.612198 0.401808 1.931407 0.125851 -0.046317 -18280.000000 0 0 1
-28.936286 -12.448248 -10.492679 33.201866 0.406263 1.892335 0.134950 -0.042058 129127.000000 0 0 1
-29.630506 -11.327548 -9.663779 33.161256 0.365150 1.866505 0.118520 -0.044536 163602.000000 0 0 1
-28.722456 -10.519848 -8.926479 31.864224 0.351085 1.854737 0.127559 -0.047778 -202575.000000 0 0 1
-29.394296 -9.528148 -8.294279 31.993833 0.313463 1.833038 0.181583 -0.051128 -899432.000000 0 0 1
-28.543596 -8.495748 -7.637479 30.744849 0.289291 1.821840 0.172985 -0.043646 -535855.000000 0 0 1
-27.832266 -8.971948 -6.491979 29.954577 0.311840 1.789257 0.166241 -0.045606 -64890.200000 0 0 1
-27.020686 -8.076948 -5.781679 28.788581 0.290463 1.773004 0.158559 -0.047330 -299172.000000 0 0 1
-27.560356 -6.668548 -5.234879 28.834818 0.237399 1.753356 0.160950 -0.047168 58942.900000 0 0 1
-28.558036 -6.706848 -4.191079 29.632894 0.230670 1.712705 0.186318 -0.046409 593957.000000 0 0 1
-28.127816 -7.063548 -2.909379 29.146737 0.246036 1.670781 0.186876 -0.037790 -73520.500000 0 0 1
-27.203286 -6.011448 -2.186479 27.945250 0.217487 1.649118 0.201566 -0.042149 420896.000000 0 0 1
-27.942506 -4.953948 -1.659179 28.426715 0.175467 1.629196 0.236367 -0.054615 340822.000000 0 0 1
-27.066826 -3.985648 -1.142579 27.382549 0.146201 1.612535 0.203851 -0.055433 -365157.000000 0 0 1
-27.897616 -2.756348 -0.788879 28.044550 0.098483 1.598930 0.241634 -0.061807 -12753.600000 0 0 1
-28.785026 -2.732148 0.325621 28.916231 0.094632 1.559535 0.244134 -0.046203 746607.000000 0 0 1
-28.126886 -2.999548 1.580021 28.330469 0.106242 1.514996 0.230450 -0.050901 -599496.000000 0 0 1
-29.161496 -3.035548 2.648521 29.438446 0.103721 1.480706 0.252028 -0.036365 -375293.000000 0 0 1
-29.983476 -4.198748 2.619521 30.389147 0.139131 1.484490 0.257496 -0.045421 -176077.000000 0 0 1
-31.034936 -4.124148 3.530421 31.506186 0.132113 1.458506 0.289548 -0.056931 -259282.000000 0 0 1
-32.130226 -5.180448 3.241521 32.706207 0.159857 1.471523 0.265956 -0.060911 -200301.000000 0 0 1
-31.650166 -6.490248 3.406621 32.487866 0.202258 1.465745 0.274272 -0.060774 673984.000000 0 0 1
-32.727776 -7.440848 3.386121 33.733357 0.223556 1.470248 0.299679 -0.086874 588771.000000 0 0 1
-32.150346 -8.871448 3.582421 33.543719 0.269236 1.463794 0.261340 -0.060840 123945.000000 0 0 1
-31.902476 -9.115848 4.957721 33.547663 0.278324 1.422472 0.241816 -0.048999 44010.500000 0 0 1
-31.421026 -10.446648 5.061621 33.496767 0.320976 1.419108 0.229007 -0.041875 -30771.600000 0 0 1
-31.149486 -10.957348 6.481921 33.650695 0.338248 1.376961 0.210988 -0.040368 205238.000000 0 0 1
-29.856046 -10.594648 6.949721 32.433450 0.340996 1.354845 0.185346 -0.036356 445975.000000 0 0 1
-29.540586 -11.025948 8.228421 32.587186 0.357233 1.315528 0.200050 -0.050770 -139569.000000 0 0 1
-29.973506 -10.002148 9.321021 32.944430 0.322080 1.283947 0.196336 -0.052298 -96800.200000 0 0 1
-29.116566 -8.885848 9.367221 31.850865 0.296204 1.272286 0.164755 -0.027832 592130.000000 0 0 1
-29.609716 -8.107348 10.452021 32.430065 0.267257 1.242644 0.174373 -0.025759 155478.000000 0 0 1
-28.752486 -6.849848 10.679021 31.427176 0.233875 1.224090 0.187431 -0.016865 -157760.000000 0 0 1
-28.975656 -5.729548 9.870121 31.142185 0.195218 1.248298 0.187774 -0.019295 175231.000000 0 0 1
-28.086356 -4.676648 10.157921 30.230743 0.164996 1.228116 0.184928 -0.024054 -363600.000000 0 0 1
-27.826556 -3.658948 9.081121 29.498676 0.130741 1.257866 0.216393 -0.040511 -491620.000000 0 0 1
-26.989056 -4.023548 8.035021 28.445732 0.147991 1.284430 0.184319 -0.037377 -75116.000000 0 0 1
-27.265626 -3.335448 6.817521 28.302265 0.121727 1.327521 0.200515 -0.053657 125005.000000 0 0 1
-26.388276 -3.750148 5.574621 27.230151 0.141169 1.364616 0.188612 -0.045286 -1019470.000000 0 0 1
-25.098446 -3.290648 5.600921 25.925484 0.130366 1.353040 0.206626 -0.060597 -738310.000000 0 0 1
-24.360506 -3.859848 4.501821 25.071879 0.157141 1.390261 0.193093 -0.042130 -135379.000000 0 0 1
-22.868406 -3.545848 4.690021 23.612144 0.153829 1.370839 0.179594 -0.040149 -287618.000000 0 1 0
-22.444306 -2.242248 4.528521 23.006131 0.099572 1.372663 0.146105 -0.039399 -383189.000000 0 1 0
-21.056206 -2.125748 4.390921 21.613950 0.100615 1.366220 0.134683 -0.034077 -436123.000000 0 1 0
-20.523106 -0.687948 4.561021 21.035068 0.033508 1.352231 0.110954 -0.041584 -442595.000000 0 1 0
-20.804006 0.257052 3.591821 21.113359 -0.012355 1.399844 0.125171 -0.037388 290412.000000 0 1 0
-22.112606 0.767852 3.669721 22.428192 -0.034711 1.406436 0.123356 -0.058325 -241665.000000 0 1 0
-22.228806 1.968752 2.716521 22.480554 -0.088337 1.449662 0.160384 -0.043211 -221700.000000 0 1 0
-21.435106 3.082452 3.085321 21.874289 -0.142825 1.429277 0.119875 -0.047091 398160.000000 0 1 0
-21.532106 4.170052 2.141521 22.036494 -0.191298 1.473462 0.142517 -0.029447 175894.000000 0 1 0
-20.459106 4.119252 1.006121 20.893912 -0.198684 1.522624 0.094718 -0.014888 -409641.000000 0 1 0
-20.687606 4.901152 -0.188679 21.261090 -0.232624 1.579671 0.114412 -0.007627 249229.000000 0 1 0
-21.727206 4.501652 -1.069679 22.214423 -0.204299 1.618967 0.170694 -0.020242 32014.800000 0 1 0
-21.458206 3.337052 -2.070479 21.814615 -0.154278 1.665852 0.162732 -0.019905 -234881.000000 0 1 0
-21.454506 2.115352 -1.438279 21.606462 -0.098279 1.637413 0.134311 -0.018291 234861.000000 0 1 0
-20.780206 1.141452 -2.148879 20.922179 -0.054875 1.673686 0.104945 -0.014696 34331.400000 0 1 0
-19.896206 0.172752 -1.240879 19.935613 -0.008682 1.633081 0.098300 -0.012575 744529.000000 0 1 0
-20.675406 -0.751748 -0.399879 20.692933 0.036344 1.590122 0.119655 -0.020455 899295.000000 0 1 0
-19.893506 -1.393348 0.555121 19.949967 0.069926 1.542967 0.095852 -0.020324 -14327.600000 0 1 0
-18.925906 -2.551548 0.109021 19.097440 0.134010 1.565088 0.049231 -0.016201 -345808.000000 0 1 0
-18.234606 -3.007948 1.216321 18.521017 0.163486 1.505077 0.052801 -0.014801 21058.700000 0 1 0
-17.625306 -4.285948 1.112521 18.173015 0.238540 1.509540 0.044544 -0.009050 -379567.000000 0 1 0
-18.514506 -5.543948 1.027421 19.354015 0.290941 1.517686 0.044024 -0.012298 -858333.000000 0 1 0
-19.337106 -5.553048 2.127721 20.230848 0.279646 1.465429 0.086440 -0.020215 -128758.000000 0 1 0
-20.423506 -6.414948 1.853121 21.487327 0.304339 1.484447 0.090014 -0.021094 141628.000000 0 1 0
-21.229606 -6.863348 3.087421 22.524074 0.312686 1.433291 0.120747 -0.028352 -192842.000000 0 1 0
-20.443606 -7.760948 3.792421 22.193599 0.362821 1.399075 0.113430 -0.026180 733019.000000 0 1 0
-21.075306 -8.179748 5.020821 23.157838 0.370223 1.352252 0.116705 -0.029165 511026.000000 0 1 0
-20.111606 -9.103948 5.844821 22.836824 0.425073 1.311978 0.090936 -0.023088 17966.700000 0 1 0
-19.751106 -10.260648 5.194221 22.855350 0.479124 1.341528 0.105644 -0.018928 602258.000000 0 1 0
-18.753206 -11.037048 5.869021 22.537626 0.531952 1.307350 0.111855 -0.028068 382751.000000 0 1 0
-18.334506 -12.375948 5.249821 22.734970 0.593756 1.337779 0.099212 -0.015265 -329045.000000 0 1 0
-19.345906 -13.319448 5.378121 24.095559 0.602959 1.345701 0.143123 -0.022316 -133806.000000 0 1 0
-18.872906 -14.646448 4.934121 24.393659 0.659970 1.367120 0.133110 -0.016226 -382515.000000 0 1 0
-19.881606 -15.747348 5.026221 25.855757 0.669878 1.375156 0.150846 -0.024220 -773417.000000 0 0 1
-19.330806 -17.019548 4.888621 26.215334 0.721901 1.383219 0.155746 -0.032736 61397.400000 0 0 1
-20.173506 -18.100748 5.273921 27.611985 0.731296 1.378614 0.152217 -0.030053 193803.000000 0 0 1
-19.411706 -19.389748 4.950821 27.879873 0.784832 1.392273 0.164416 -0.044516 -202426.000000 0 0 1
-19.160506 -19.650448 3.609721 27.682038 0.798021 1.440025 0.156799 -0.047663 269323.000000 0 0 1
-18.203106 -20.699348 3.508221 27.787114 0.849477 1.444205 0.148408 -0.044202 -835806.000000 0 0 1
-16.758406 -20.327048 3.334321 26.554675 0.881330 1.444900 0.149493 -0.039681 -966551.000000 0 0 1
-15.978506 -21.543848 3.295021 27.024197 0.932645 1.448564 0.130877 -0.041586 552312.000000 0 0 1
-14.577006 -21.253548 3.237921 25.974729 0.969622 1.445815 0.134925 -0.040748 493371.000000 0 0 1
-13.723306 -22.375248 3.860221 26.530778 1.020636 1.424778 0.159692 -0.036043 -206014.000000 0 0 1
-13.714706 -23.547948 3.075221 27.423640 1.043406 1.458422 0.141320 -0.033911 -191749.000000 0 0 1
-13.086706 -24.663948 3.651121 28.158532 1.082969 1.440767 0.110563 -0.031651 -28061.100000 0 0 1
19.374694 18.585052 -23.631679 35.766453 0.764599 2.292576 0.103582 -0.021052 -715270.000000 0 0 1
18.617494 18.877452 -24.685379 36.226195 0.792331 2.320502 0.099687 -0.025164 -747548.000000 0 0 1
19.429894 19.150152 -25.819959 37.562207 0.778147 2.328688 0.091184 -0.017657 -105956.000000 0 0 1
18.744294 19.302852 -27.177269 38.243334 0.800078 2.361205 0.099660 -0.020480 -72782.300000 0 0 1
18.341694 20.707952 -27.260539 38.837791 0.845920 2.348868 0.095720 -0.018264 193751.000000 0 0 1
17.578994 20.839452 -28.444979 39.400769 0.870062 2.377398 0.106695 -0.022857 24180.800000 0 0 1
17.040794 22.273052 -28.674569 40.108707 0.917710 2.367308 0.130312 -0.024978 -71922.800000 0 0 1
16.128994 22.797852 -27.733469 39.357741 0.955069 2.352727 0.124802 -0.022960 355647.000000 0 0 1
15.870494 24.174252 -27.900059 40.183085 0.989862 2.338276 0.124535 -0.016577 527224.000000 0 0 1
14.917394 24.889752 -26.851069 39.534900 1.030863 2.317433 0.125228 -0.018761 1368270.000000 0 0 1
13.522794 24.549152 -26.862629 38.821742 1.067304 2.334980 0.143944 -0.039694 919275.000000 0 0 1
12.785294 25.387552 -25.976539 38.506780 1.104269 2.311214 0.114703 -0.026178 -1034050.000000 0 0 1
11.322094 24.991352 -25.787269 37.652898 1.145417 2.325219 0.134255 -0.027427 -246308.000000 0 0 1
10.621994 25.859052 -24.916179 37.447741 1.181044 2.298771 0.119289 -0.035927 -29453.100000 0 0 1
10.237694 27.080952 -25.530239 38.600277 1.209363 2.293481 0.125453 -0.038855 -695589.000000 0 0 1
9.715394 28.038952 -24.446479 38.447393 1.237246 2.259896 0.139076 -0.047680 -302512.000000 0 0 1
10.736994 28.620452 -23.690679 38.673784 1.211893 2.230113 0.124041 -0.038677 -89344.900000 0 0 1
10.201094 29.332452 -22.605179 38.411576 1.236105 2.199998 0.137933 -0.055920 -15805.600000 0 0 1
11.238094 29.639952 -21.506179 38.305838 1.208389 2.166913 0.117596 -0.056254 397947.000000 0 0 1
12.295194 30.521452 -21.877979 39.514260 1.187846 2.157565 0.104839 -0.060128 -116936.000000 0 0 1
13.176494 30.783352 -20.862079 39.452010 1.166354 2.127978 0.087227 -0.051885 -399315.000000 0 0 1
14.400194 31.624152 -21.293879 40.753918 1.143499 2.120575 0.094172 -0.039427 702586.000000 0 0 1
15.462594 30.851752 -21.883379 40.863243 1.106197 2.135928 0.090055 -0.035538 186544.000000 0 0 1
16.505594 31.641152 -22.399179 42.134550 1.089979 2.131297 0.074433 -0.024103 230937.000000 0 0 1
17.724794 30.791152 -22.860279 42.247552 1.048477 2.142545 0.042207 -0.009355 401197.000000 0 0 1
18.550794 30.327252 -21.780479 41.692486 1.021828 2.120469 0.049836 -0.007291 37617.100000 0 0 1
19.690194 29.764352 -22.386279 42.127970 0.986354 2.131034 0.051048 -0.005038 -125418.000000 0 0 1
20.740394 29.096752 -21.489279 41.696211 0.951526 2.112244 0.059552 0.003230 132428.000000 0 0 1
21.598594 29.941852 -20.711379 42.331725 0.945884 2.082042 0.055781 0.015770 684548.000000 0 0 1
22.564594 29.094752 -20.076379 41.937173 0.911139 2.069998 0.083701 0.015294 509345.000000 0 0 1
23.473294 29.775352 -19.007779 42.413002 0.903202 2.035501 0.086116 0.005138 286360.000000 0 0 1
24.385894 30.765652 -19.466879 43.819590 0.900563 2.031134 0.110968 -0.000712 235128.000000 0 0 1
24.917594 31.447252 -18.344679 44.117382 0.900730 1.999635 0.111741 -0.006697 469678.000000 0 0 1
26.256994 32.221752 -18.642679 45.554588 0.887045 1.992415 0.129023 -0.006812 272958.000000 0 0 1
27.348594 31.357552 -18.754679 45.639671 0.853581 1.994270 0.142361 -0.006331 -828836.000000 0 0 1
28.523294 32.078652 -18.531379 46.755002 0.843998 1.978335 0.137458 -0.007977 -351030.000000 0 0 1
29.811094 31.460452 -19.104279 47.364911 0.812310 1.985963 0.153907 -0.012832 72680.200000 0 0 1
30.289394 30.337052 -18.367279 46.638407 0.786184 1.975583 0.123042 -0.013847 -1027280.000000 0 0 1
31.513394 30.008552 -18.909579 47.446594 0.760943 1.980726 0.097526 -0.014999 -1044020.000000 0 0 1
32.119194 28.801952 -18.223279 46.832499 0.731000 1.970468 0.099796 -0.025012 -408066.000000 0 0 1
32.474894 29.063152 -16.919479 46.749912 0.730014 1.941117 0.087841 -0.009353 -92077.900000 0 0 1
32.918594 27.885052 -16.231179 46.094046 0.702803 1.930644 0.088134 -0.019006 -202719.000000 0 0 1
33.558594 28.146852 -14.834579 46.243802 0.697919 1.897360 0.093683 -0.015410 -653796.000000 0 0 1
34.765694 28.811952 -14.743379 47.498939 0.692025 1.886404 0.082565 -0.014633 -540912.000000 0 0 1
34.622394 30.201452 -14.859879 48.287201 0.717304 1.883613 0.086692 -0.025746 -300361.000000 0 0 1
35.968194 30.943652 -14.936579 49.742556 0.710447 1.875780 0.074427 -0.017964 -43749.700000 0 0 1
36.762994 30.858752 -13.803779 49.943213 0.698306 1.850832 0.077090 -0.021918 -373487.000000 0 0 1
-37.960704 31.233452 -14.087779 51.137159 -0.688480 1.849896 0.077677 -0.032548 287086.000000 0 0 1
-37.123504 31.470852 -12.798179 50.322584 -0.703177 1.827944 0.072963 -0.025049 -195282.000000 0 0 1
-37.737904 32.529152 -12.102079 51.271390 -0.711406 1.809085 0.086917 -0.028265 378774.000000 0 0 1
-36.920304 33.105052 -11.094079 50.814682 -0.730968 1.790893 0.100031 -0.021668 400343.000000 0 0 1
-37.638804 -33.126248 -10.370079 51.201234 0.721716 1.774743 0.095176 -0.014738 347860.000000 0 0 1
-36.801404 -32.419548 -9.478979 49.952192 0.722180 1.761715 0.102305 -0.017970 67177.500000 0 0 1
-36.507504 -33.108448 -8.289079 49.976755 0.736611 1.737425 0.084360 -0.019814 198756.000000 0 0 1
-36.156704 -32.160948 -7.084079 48.906216 0.726977 1.716158 0.099636 -0.012004 547639.000000 0 0 1
-37.324704 -31.418148 -6.733079 49.250055 0.699686 1.707938 0.093532 -0.009444 408477.000000 0 0 1
-37.002604 -30.373248 -5.827379 48.225359 0.687320 1.691929 0.126042 -0.014365 307731.000000 0 0 1
37.787494 -29.569448 -5.407079 48.285437 -0.663991 1.683013 0.105056 -0.011713 524535.000000 0 0 1
36.852294 -30.476448 -4.777579 48.059658 -0.690982 1.670370 0.067455 -0.005805 614628.000000 0 0 1
35.544694 -29.938848 -4.633479 46.703629 -0.699999 1.670170 0.059041 -0.001015 274152.000000 0 0 1
35.334594 -28.954748 -3.410979 45.809887 -0.686486 1.645325 0.055871 0.002125 -345361.000000 0 0 1
35.927794 -27.656048 -3.605879 45.482587 -0.656033 1.650160 0.090231 -0.009707 431952.000000 0 0 1
35.355594 -26.685348 -2.742379 44.380699 -0.646547 1.632628 0.073534 -0.005580 -120246.000000 0 0 1
35.843094 -25.268048 -3.005379 43.957183 -0.614049 1.639220 0.091754 -0.013484 -285537.000000 0 0 1
35.556394 -24.774248 -4.308179 43.549752 -0.608548 1.669884 0.088380 -0.018890 183306.000000 0 0 1
35.517494 -23.391548 -4.265879 42.741720 -0.582392 1.670769 0.090590 -0.025059 -392003.000000 0 0 1
35.330094 -22.788548 -5.649779 42.419965 -0.572865 1.704380 0.096709 -0.028312 339247.000000 0 0 1
36.342694 -23.264148 -6.588379 43.651102 -0.569407 1.722308 0.115632 -0.028447 810848.000000 0 0 1
36.090694 -22.712248 -7.847879 43.358662 -0.561693 1.752799 0.096972 -0.034916 -540069.000000 0 0 1
37.305994 -22.616748 -8.769779 44.499028 -0.545002 1.769173 0.104022 -0.041010 -387633.000000 0 0 1
37.748594 -23.885448 -9.179079 45.604018 -0.564153 1.773459 0.100602 -0.016321 24982.500000 0 0 1
-37.141204 -23.744048 -9.970879 45.195877 0.568810 1.793241 0.108546 -0.018058 333829.000000 0 0 1
-36.579704 -25.034648 -10.663979 45.590885 0.600170 1.806889 0.112910 -0.008026 -225590.000000 0 0 1
-35.746104 -25.832048 -9.912979 45.203383 0.625768 1.791890 0.155820 -0.015785 -328876.000000 0 0 1
-36.499704 -26.758948 -9.148879 46.173279 0.632615 1.770259 0.129117 -0.015868 -11079.400000 0 0 1
-35.678604 -27.903548 -8.595279 46.102598 0.663719 1.758332 0.120332 -0.002425 -212273.000000 0 0 1
-35.356504 -28.843248 -9.602979 46.628666 0.684291 1.778226 0.128169 -0.003191 -384149.000000 0 0 1
-34.451404 -29.748348 -9.060979 46.410826 0.712272 1.767293 0.155582 -0.020326 -437455.000000 0 0 1
-33.766204 -30.626148 -10.146479 46.701911 0.736672 1.789803 0.145303 -0.020095 64055.300000 0 0 1
-32.941504 -29.800448 -10.959279 45.752761 0.735377 1.812681 0.109466 -0.002686 238624.000000 0 0 1
-32.379904 -30.478248 -12.065579 46.075590 0.755154 1.835750 0.086826 -0.004323 -30374.900000 0 0 1
-32.245704 -29.598648 -13.349679 45.761111 0.742622 1.866827 0.051359 0.010960 135511.000000 0 0 1
-31.341204 -28.512748 -13.268979 44.399478 0.738177 1.874288 0.048251 0.003491 8843.560000 0 0 1
-31.504504 -27.806648 -14.517579 44.457885 0.723132 1.903444 0.027386 0.010055 166868.000000 0 0 1
-30.243204 -27.066648 -15.024879 43.278191 0.730027 1.925348 0.056077 0.004933 564525.000000 0 0 1
-29.235804 -27.961648 -15.499979 43.322458 0.763125 1.936688 0.081019 -0.004974 459579.000000 0 0 1
-27.999304 -27.330048 -15.836879 42.210180 0.773303 1.955399 0.110217 -0.002174 796447.000000 0 0 1
-26.974104 -28.367448 -16.402679 42.442458 0.810570 1.967596 0.126906 -0.017286 -101623.000000 0 0 1
-27.290504 -29.012848 -17.662679 43.571633 0.815979 1.988181 0.103281 -0.022941 -161170.000000 0 0 1
-27.334704 -28.159448 -18.833979 43.529982 0.800259 2.018245 0.081300 -0.008446 639948.000000 0 0 1
-25.952004 -27.529248 -19.218779 42.434979 0.814881 2.040811 0.096309 -0.015767 519582.000000 0 0 1
-25.629504 -26.413648 -18.471979 41.179683 0.800464 2.035961 0.114404 -0.012139 -312523.000000 0 0 1
-24.251704 -26.134048 -18.563379 40.196177 0.822739 2.050842 0.122982 -0.029081 -70021.900000 0 0 1
-23.692604 -25.090248 -17.623079 38.748328 0.814041 2.042954 0.132691 -0.023640 -203663.000000 0 0 1
-23.791304 -25.430848 -16.241679 38.425855 0.818695 2.007192 0.138395 -0.030174 131429.000000 0 0 1
-23.396404 -24.351648 -15.402279 37.116367 0.805401 1.998709 0.142916 -0.027038 78373.900000 0 0 1
-23.944304 -24.476448 -13.942679 36.970590 0.796388 1.957491 0.130771 -0.024707 1359350.000000 0 0 1
-25.381504 -24.321548 -13.816779 37.771177 0.764076 1.945291 0.099167 -0.012699 1171840.000000 0 0 1
-25.766804 -23.994448 -12.502379 37.362698 0.749796 1.912000 0.098407 -0.005478 299395.000000 0 0 1
-27.267204 -23.762648 -12.172879 38.162060 0.716829 1.895448 0.088763 0.009496 -292577.000000 0 0 1
-27.994404 -24.959448 -12.310679 39.474213 0.728148 1.887953 0.104717 0.006362 -551878.000000 0 0 1
-29.273404 -25.001148 -11.763979 40.253954 0.706845 1.867369 0.084996 0.010869 -166925.000000 0 0 1
-30.417604 -24.211948 -12.492479 40.835170 0.672288 1.881706 0.094254 0.007942 -659175.000000 0 0 1
-30.416004 -22.826648 -12.229379 39.946800 0.643809 1.881934 0.083388 0.003802 164009.000000 0 0 1
-30.945504 -22.333548 -10.999879 39.716608 0.625146 1.851424 0.109617 -0.006893 932133.000000 0 0 1
-32.504604 -22.537848 -10.765779 40.992754 0.606265 1.836539 0.073093 -0.006959 1305530.000000 0 0 1
-33.412604 -21.666448 -11.439479 41.433063 0.575286 1.850526 0.102989 -0.023219 325882.000000 0 0 1
-33.760004 -22.047748 -12.755279 42.291112 0.578532 1.877174 0.096854 -0.015484 50932.300000 0 0 1
-35.108604 -21.414748 -13.258379 43.208681 0.547709 1.882673 0.061456 -0.018158 -189065.000000 0 0 1
-36.194904 -22.192248 -12.919279 44.378764 0.550019 1.866187 0.085060 -0.022677 -1004380.000000 0 0 1
-37.358404 -21.713648 -13.536279 45.280942 0.526500 1.874378 0.111954 -0.037032 -409131.000000 0 0 1
37.467494 -22.577448 -13.232879 45.701896 -0.542320 1.864551 0.101276 -0.015035 -357940.000000 0 0 1
37.531294 -23.909148 -13.731779 46.570453 -0.567215 1.870106 0.092762 -0.006255 47154.900000 0 0 1
36.436194 -24.659948 -13.261979 45.952033 -0.594984 1.863566 0.082660 -0.019635 -23573.900000 0 0 1
36.252394 -26.046448 -13.898179 46.752678 -0.623018 1.872629 0.067612 -0.014392 245207.000000 0 0 1
35.547694 -26.106448 -15.152179 46.634469 -0.633446 1.901717 0.067010 -0.020123 171715.000000 0 0 1
35.386994 -27.442148 -15.632279 47.430781 -0.659614 1.906656 0.054673 0.016372 -140961.000000 0 0 1
34.382894 -27.549148 -16.769679 47.141925 -0.675500 1.934489 0.051218 0.004974 -28978.800000 0 0 1
33.001194 -27.421248 -16.479679 45.962849 -0.693310 1.937503 0.116045 0.000971 67897.700000 0 0 1
32.328594 -27.462548 -17.702479 45.964196 -0.704193 1.966152 0.113119 -0.007422 291449.000000 0 0 1
30.799394 -27.759648 -17.579879 45.036128 -0.733536 1.971809 0.115462 -0.027539 537310.000000 0 0 1
30.094894 -26.666348 -17.035179 43.669143 -0.725069 1.971533 0.104271 -0.025912 262055.000000 0 0 1
28.717194 -26.928448 -16.842979 42.819440 -0.753264 1.975068 0.142594 -0.033117 187654.000000 0 0 1
27.944794 -25.891648 -16.033579 41.332367 -0.747280 1.969168 0.126880 -0.041216 -185052.000000 0 0 1
27.961694 -24.567948 -16.548779 40.734537 -0.720882 1.989153 0.114892 -0.050830 86677.900000 0 0 1
27.607794 -23.695248 -15.498679 39.545722 -0.709282 1.973512 0.112734 -0.055850 -340776.000000 0 0 1
27.333294 -22.195648 -15.816079 38.599276 -0.682038 1.992977 0.117103 -0.054429 -486.365000 0 0 1
25.999994 -21.964448 -16.234679 37.709435 -0.701460 2.015866 0.131097 -0.059377 142452.000000 0 0 1
25.817594 -20.565848 -16.434179 36.872544 -0.672654 2.032755 0.123210 -0.052047 691767.000000 0 0 1
24.323094 -20.079848 -16.410679 35.554515 -0.690125 2.050554 0.116741 -0.050232 584005.000000 0 0 1
23.731594 -20.263448 -15.106779 34.670025 -0.706730 2.021646 0.120304 -0.051377 -808705.000000 0 0 1
22.398894 -19.901548 -15.227079 33.610207 -0.726428 2.040979 0.101785 -0.043534 -733822.000000 0 0 1
22.020494 -18.617048 -14.433079 32.246091 -0.701842 2.034867 0.090569 -0.034546 -210621.000000 0 0 1
21.501794 -18.802648 -13.140479 31.441038 -0.718529 2.001973 0.100687 -0.044795 283120.000000 0 0 1
21.073994 -17.603848 -12.449179 30.149473 -0.695919 1.996449 0.106416 -0.050996 485508.000000 0 0 1
20.087594 -17.811748 -11.233579 29.102630 -0.725420 1.967087 0.113604 -0.038676 390528.000000 0 0 1
20.762294 -18.230948 -10.061379 29.405300 -0.720572 1.920013 0.114808 -0.049376 555486.000000 0 0 1
19.861994 -18.275848 -8.937779 28.432188 -0.743832 1.890573 0.101270 -0.045195 328512.000000 0 0 1
20.454994 -19.025148 -7.741879 28.987924 -0.749197 1.841150 0.105355 -0.050873 -401652.000000 0 0 1
21.461194 -18.333948 -7.089879 29.102970 -0.706976 1.816886 0.100236 -0.052567 -532428.000000 0 0 1
22.058894 -19.092048 -6.076279 29.799702 -0.713426 1.776140 0.091069 -0.041811 -507.720000 0 0 1
23.432994 -18.487548 -5.668979 30.381441 -0.667969 1.758490 0.094077 -0.034129 8662.390000 0 0 1
24.356494 -18.566248 -6.725779 31.355708 -0.651308 1.786976 0.087563 -0.046538 -365564.000000 0 0 1
25.200394 -17.467748 -6.699179 31.385682 -0.606116 1.785898 0.105033 -0.042089 -1173260.000000 0 0 1
26.204894 -17.388148 -7.839879 32.411539 -0.585839 1.815105 0.148802 -0.057372 -448190.000000 0 0 1
27.318394 -18.228248 -7.685179 33.728706 -0.588408 1.800668 0.169292 -0.071809 76609.500000 0 0 1
27.127094 -19.477148 -8.322179 34.416525 -0.622702 1.815025 0.167710 -0.080736 -889209.000000 0 0 1
28.347794 -20.382848 -8.171079 35.858394 -0.623382 1.800687 0.161168 -0.077790 200390.000000 0 0 1
29.458294 -19.771648 -8.847379 36.564809 -0.591117 1.815186 0.167267 -0.066498 379414.000000 0 0 1
30.631794 -20.550348 -8.821979 37.926915 -0.590916 1.805551 0.135499 -0.057457 34436.600000 0 0 1
-30.822336 29.149452 4.388221 42.649308 -0.757511 1.467723 0.134385 -0.031802 187480.000000 0 0 1
-30.607166 30.112452 3.374721 43.069097 -0.777251 1.492360 0.138228 -0.023882 -267515.000000 0 0 1
-29.430006 30.859652 3.554521 42.791097 -0.809107 1.487634 0.114645 -0.005388 -106034.000000 0 0 1
-29.298906 31.939052 2.431121 43.410129 -0.828484 1.514763 0.114253 -0.001335 -357403.000000 0 0 1
-28.353326 31.626652 1.439021 42.499729 -0.839918 1.536930 0.120450 -0.001578 67693.100000 0 0 1
-27.894176 32.763952 0.703821 43.035532 -0.865509 1.554441 0.140311 -0.024988 181333.000000 0 0 1
-26.864846 33.744352 1.331321 43.152910 -0.898420 1.539940 0.151942 -0.009517 -829453.000000 0 0 1
-25.549316 33.336152 1.184321 42.017487 -0.916872 1.542606 0.143423 -0.012789 -686753.000000 0 0 1
-24.646506 -33.387048 1.946021 41.544341 0.934886 1.523937 0.150153 -0.008065 -87451.500000 0 0 1
-23.183806 33.702452 1.823921 40.947171 -0.968240 1.526238 0.144840 -0.017076 -249770.000000 0 0 1
-22.443806 -33.401048 0.692321 40.247159 0.979146 1.553594 0.175339 -0.028817 -851379.000000 0 0 1
-21.150706 33.632652 0.779621 39.738086 -1.009416 1.551176 0.163929 -0.034175 -890264.000000 0 0 1
-20.230806 -33.397148 -0.409779 39.048982 1.026149 1.581290 0.179634 -0.043821 303796.000000 0 0 1
-19.756806 -32.064248 -0.485679 37.665413 1.018577 1.583691 0.192570 -0.045249 606302.000000 0 0 1
-18.853506 -31.610948 0.519721 36.810010 1.033011 1.556677 0.198034 -0.037207 -123221.000000 0 0 1
-18.503806 -30.095648 0.461621 35.332025 1.019541 1.557731 0.211556 -0.051209 -94628.100000 0 0 1
-17.661806 -29.804748 -0.655679 34.651008 1.035848 1.589720 0.181698 -0.035938 304828.000000 0 0 1
-17.485106 -28.412048 -0.620779 33.367032 1.019122 1.589402 0.162228 -0.037289 74443.300000 0 0 1
-16.338106 -27.828648 -1.468279 32.303610 1.039919 1.616264 0.128551 -0.026885 69156.100000 0 0 1
-16.861106 -27.837148 -2.796979 32.665377 1.026192 1.656526 0.111169 -0.021233 81147.500000 0 0 1
-15.997606 -27.211448 -3.669979 31.778217 1.039322 1.686542 0.097495 -0.011351 -328336.000000 0 0 1
-16.589606 -27.243248 -5.121479 32.305405 1.023826 1.730001 0.121347 -0.025176 478740.000000 0 0 1
-17.648206 -26.292848 -5.242379 32.097595 0.979650 1.734858 0.113993 -0.022877 5867.650000 0 0 1
-17.918406 -26.056048 -6.598179 32.303605 0.968382 1.776499 0.136518 -0.031252 -55960.500000 0 0 1
-18.615306 -24.767848 -6.859679 31.733754 0.926277 1.788680 0.098625 -0.022200 -17210.400000 0 0 1
-17.700606 -23.718148 -6.523179 30.305344 0.929674 1.787743 0.086939 -0.009779 213273.000000 0 0 1
-18.209106 -22.430548 -6.682679 29.653992 0.888902 1.798104 0.086363 -0.011492 -21762.400000 0 0 1
-17.050806 -21.407848 -6.744879 28.187220 0.898209 1.812429 0.094326 -0.001810 80458.100000 0 0 1
-16.252006 -21.572548 -7.868979 28.132248 0.925145 1.854292 0.126440 -0.012623 -429904.000000 0 0 1
-15.094806 -20.764948 -7.819679 26.836237 0.942220 1.866471 0.161576 -0.038271 185199.000000 0 0 1
-14.090106 -20.838048 -8.967779 26.705363 0.976242 1.913255 0.142535 -0.028156 201495.000000 0 0 1
-14.576006 -20.214348 -10.179179 26.920170 0.946067 1.958566 0.158563 -0.031347 -156975.000000 0 0 1
-13.635006 -20.198248 -11.210479 26.824568 0.977006 2.001949 0.146821 -0.016218 -112291.000000 0 0 1
-14.112706 -19.144548 -12.178279 26.720642 0.935560 2.044026 0.168467 -0.019883 155790.000000 0 0 1
-15.305406 -19.642748 -12.764979 27.982811 0.908875 2.044485 0.152193 0.003438 -269510.000000 0 0 1
-15.864006 -18.723448 -13.645679 28.079152 0.867883 2.078271 0.163739 -0.019031 -168405.000000 0 0 1
-17.120806 -19.252048 -14.360779 29.495684 0.843926 2.079307 0.174768 -0.026071 -931445.000000 0 0 1
-18.273906 -19.110848 -13.631779 29.748707 0.807782 2.046800 0.166325 -0.020679 -602498.000000 0 0 1
-19.392806 -19.477948 -14.434379 31.045494 0.787589 2.054366 0.146076 -0.013691 82785.600000 0 0 1
-20.780506 -19.369748 -13.784479 31.575757 0.750276 2.022560 0.122573 -0.002665 -3094.100000 0 0 1
-21.766606 -19.901348 -14.649479 32.931080 0.740663 2.031806 0.141223 -0.003756 61518.100000 0 0 1
-23.064906 -19.918248 -14.066179 33.564623 0.712322 2.003225 0.122606 0.001159 597118.000000 0 0 1
-24.112206 -20.462148 -15.103179 35.045742 0.703694 2.016348 0.113397 -0.002538 57241.900000 0 0 1
-24.313706 -19.752148 -16.275179 35.301348 0.682249 2.049958 0.101842 -0.006798 -149288.000000 0 0 1
-25.112506 -20.446048 -17.150179 36.644338 0.683326 2.057842 0.106682 -0.011796 -428966.000000 0 0 1
-25.245356 -19.847448 -18.552279 37.086875 0.666258 2.094670 0.116274 -0.012693 272056.000000 0 0 1
-24.064206 -19.928648 -19.338879 36.745466 0.691668 2.125031 0.106688 -0.021904 299996.000000 0 0 1
-24.361606 -19.402248 -20.584479 37.331701 0.672559 2.154831 0.106017 -0.023179 467381.000000 0 0 1
-23.170406 -18.611748 -21.232679 36.525218 0.676723 2.191141 0.085786 -0.018605 358632.000000 0 0 1
-22.055306 -19.371148 -21.617079 36.455124 0.720695 2.205548 0.062902 -0.017161 64147.600000 0 0 1
-21.006006 -18.548248 -22.168579 35.731439 0.723342 2.240077 0.058052 -0.020258 187475.000000 0 0 1
-19.720606 -19.370048 -22.225779 35.469513 0.776431 2.248000 0.066248 -0.016348 -753841.000000 0 0 1
-19.828506 -20.565648 -22.992479 36.671101 0.803645 2.248482 0.046823 -0.009100 173320.000000 0 0 1
-18.646206 -21.364548 -23.032079 36.532200 0.853234 2.252942 0.051009 -0.007898 180871.000000 0 0 1
-18.648706 -22.651648 -23.875679 37.827496 0.882019 2.253860 0.052297 -0.012238 -177085.000000 0 0 1
-18.708806 -22.390448 -25.265689 38.596718 0.874739 2.284459 0.048422 -0.008050 103245.000000 0 0 1
-18.787906 -23.601348 -26.019719 39.837606 0.898467 2.282526 0.055594 -0.012902 -129636.000000 0 0 1
-18.672006 -23.606748 -27.513069 40.778565 0.901592 2.311347 0.058719 -0.002542 -59278.700000 0 0 1
-17.352806 -23.420448 -27.967919 40.396062 0.933128 2.335527 0.053605 -0.002205 -210151.000000 0 0 1
-17.320106 -23.348848 -29.354819 41.314165 0.932566 2.361043 0.081225 -0.010103 -533479.000000 0 0 1
-15.914306 -23.237948 -29.934359 41.101499 0.970317 2.386639 0.059280 -0.020975 -474094.000000 0 0 1
-15.116506 -24.351948 -29.565049 41.177886 1.015258 2.371698 0.067736 -0.022086 -344151.000000 0 0 1
-13.853506 -24.207348 -30.153089 41.074617 1.051005 2.395144 0.093579 -0.029494 -579848.000000 0 0 1
-12.854006 -25.303448 -29.858679 41.195032 1.100774 2.381559 0.110835 -0.027669 -1228970.000000 0 0 1
-13.122706 -26.568948 -30.453489 42.491522 1.112031 2.369849 0.091571 -0.020271 32744.000000 0 0 1
-12.252406 -27.625048 -30.111779 42.661270 1.153340 2.354396 0.110516 -0.024857 -389410.000000 0 0 1
-10.872606 -27.475948 -30.751279 42.647186 1.193991 2.376131 0.146957 -0.034245 -625049.000000 0 0 1
-9.967006 -26.556548 -30.171849 41.411737 1.211752 2.387046 0.199126 -0.052011 198784.000000 0 0 1
-8.820606 -26.287248 -30.942949 41.548630 1.247055 2.410942 0.183481 -0.048140 -68651.300000 0 0 1
-7.877806 -25.166748 -30.433179 40.269138 1.267434 2.427587 0.243562 -0.058235 -160558.000000 0 0 1
-8.220006 -23.787248 -30.522919 39.560716 1.238079 2.452064 0.267154 -0.056125 -419697.000000 0 0 1
-9.084906 -23.331048 -29.529459 38.715143 1.199469 2.438331 0.231588 -0.038595 -258738.000000 0 0 1
-9.515006 -21.891948 -29.596899 38.023272 1.160793 2.462892 0.247149 -0.054561 351176.000000 0 0 1
-10.444006 -21.622848 -30.662279 38.946119 1.120835 2.477214 0.227271 -0.050253 346694.000000 0 0 1
-10.732106 -20.267148 -30.548669 38.198908 1.083803 2.497635 0.231547 -0.049626 130226.000000 0 0 1
-11.628906 -19.763048 -31.708569 39.131099 1.038938 2.515488 0.187711 -0.042446 412206.000000 0 0 1
-12.359306 -18.561548 -31.416979 38.526745 0.983356 2.524318 0.178083 -0.041081 30732.000000 0 0 1
-13.103906 -18.115348 -32.485169 39.435573 0.944564 2.538795 0.157027 -0.036167 25891.600000 0 0 1
-13.975406 -16.801248 -32.215679 38.928703 0.876959 2.545536 0.173951 -0.035422 283086.000000 0 0 1
-13.366406 -15.527048 -32.383149 38.319948 0.860039 2.577498 0.159708 -0.033166 331100.000000 0 0 1
-12.450606 -15.099148 -31.365349 36.970083 0.881240 2.583748 0.152748 -0.026840 459431.000000 0 0 1
-11.955706 -13.638148 -31.554079 36.395026 0.851040 2.619924 0.116437 -0.024746 314667.000000 0 0 1
-11.202106 -13.113948 -32.664509 36.938232 0.863861 2.655791 0.113743 -0.020560 365248.000000 0 0 1
-11.784806 -13.323248 33.450859 37.886021 0.846594 0.488721 0.113099 -0.022413 -270648.000000 0 0 1
-12.464106 -12.079448 32.829474 37.135446 0.769727 0.486346 0.095276 -0.009928 191684.000000 0 0 1
-13.710606 -11.718448 33.402639 37.961020 0.707216 0.495104 0.076078 -0.002518 -172374.000000 0 0 1
-14.458706 -10.951148 32.517320 37.233828 0.648226 0.508805 0.074011 -0.019637 562484.000000 0 0 1
-15.630006 -10.197148 33.219843 38.102977 0.578066 0.511842 0.100303 -0.024725 878594.000000 0 0 1
-15.025906 -9.202448 -33.330979 37.701685 0.549516 2.655299 0.091003 -0.026033 720354.000000 0 0 1
-16.032706 -8.562248 -32.550929 37.281668 0.490514 2.632338 0.111113 -0.038566 413905.000000 0 0 1
-15.469806 -7.543248 -31.549989 35.939078 0.453687 2.642201 0.106625 -0.046377 -26166.500000 0 0 1
-15.142106 -6.210748 -32.001639 35.943869 0.389238 2.668850 0.107419 -0.050850 452055.000000 0 0 1
-16.262306 -5.336248 -32.026939 36.313400 0.317066 2.650799 0.117587 -0.046348 299162.000000 0 0 1
-16.706206 -4.755148 -30.650729 35.230327 0.277300 2.626018 0.126025 -0.053395 -106138.000000 0 0 1
-17.209306 -5.691948 -29.717799 34.809569 0.319422 2.593894 0.134942 -0.058491 -154829.000000 0 0 1
-17.385106 -5.244248 -28.378979 33.691401 0.292971 2.572372 0.131301 -0.059426 671866.000000 0 0 1
-16.097406 -4.812148 -27.548629 32.267789 0.290483 2.593942 0.126085 -0.059039 686771.000000 0 0 1
-15.646506 -3.619348 -28.133359 32.394425 0.227322 2.622890 0.117625 -0.055274 -640258.000000 0 0 1
-14.383706 -3.244148 -27.680519 31.362823 0.221831 2.652140 0.109906 -0.050473 -408889.000000 0 0 1
-13.812406 -1.951948 -28.324659 31.573391 0.140389 2.683970 0.080968 -0.032984 129087.000000 0 0 1
-13.705106 -1.983948 -29.721049 32.788821 0.143761 2.705570 0.081730 -0.044489 96773.500000 0 0 1
-13.834906 -0.656948 -30.265409 33.284098 0.047449 2.712408 0.081992 -0.049422 -73258.500000 0 0 1
-14.077706 -0.780948 -31.748159 34.738125 0.055417 2.723656 0.081132 -0.052909 -719436.000000 0 0 1
-15.346006 -1.283948 -32.012469 35.523888 0.083472 2.693219 0.090890 -0.044917 -466571.000000 0 0 1
-15.558806 -1.487948 -33.363499 36.843093 0.095344 2.703486 0.090208 -0.039830 -1012610.000000 0 0 1
-16.976706 -1.777948 33.625129 37.709666 0.104348 0.469743 0.089053 -0.036366 -866257.000000 0 0 1
-17.058706 -2.089948 32.244592 36.538761 0.121908 0.489695 0.096725 -0.040831 317714.000000 0 0 1
-18.263706 -1.616948 31.657844 36.584103 0.088303 0.524959 0.093222 -0.033707 264979.000000 0 0 1
-18.255706 -1.813948 30.116989 35.264631 0.099038 0.547116 0.100151 -0.026486 64694.600000 0 0 1
-17.625006 -0.731948 29.469789 34.345961 0.041505 0.539379 0.088895 -0.008535 45509.400000 0 0 1
-17.808606 -0.747948 28.058919 33.241673 0.041975 0.565933 0.094966 -0.013734 205521.000000 0 0 1
-16.910806 0.344052 27.384019 32.186616 -0.020342 0.553311 0.085862 -0.009061 54871.600000 0 0 1
-17.151206 1.701052 27.806009 32.714394 -0.098856 0.554882 0.080802 -0.010931 343232.000000 0 0 1
-18.485806 2.150052 27.579739 33.271455 -0.115788 0.593603 0.093928 -0.018571 495627.000000 0 0 1
-18.682606 2.803052 26.175949 32.281220 -0.148925 0.625155 0.099414 -0.021668 -292249.000000 0 0 1
-18.523306 4.183052 26.213399 32.369014 -0.222101 0.626934 0.092614 -0.018022 -51155.800000 0 0 1
-19.128106 4.794052 25.126349 31.940582 -0.245570 0.665418 0.083713 -0.011366 -648451.000000 0 0 1
-19.026606 6.407052 25.205119 32.223595 -0.324815 0.672616 0.085360 -0.014446 706820.000000 0 0 1
-17.745506 7.034052 25.109559 31.541573 -0.377386 0.650009 0.084313 -0.011105 575019.000000 0 0 1
-17.034506 6.897052 23.873329 30.127721 -0.384712 0.656056 0.069317 -0.014519 -286040.000000 0 0 1
-15.927906 7.903052 23.636799 29.577943 -0.460584 0.644940 0.086844 -0.015007 -303817.000000 0 0 1
-14.808406 7.747052 24.488789 29.648043 -0.481997 0.598852 0.084432 -0.011801 288482.000000 0 0 1
-13.665806 8.137052 23.705749 28.546951 -0.537054 0.590948 0.097748 -0.018648 495626.000000 0 0 1
-12.275806 8.082052 24.357189 28.447981 -0.582238 0.542925 0.076095 -0.004934 575490.000000 0 0 1
-11.186606 8.549052 23.546249 27.434509 -0.652541 0.538905 0.057543 -0.016194 686238.000000 0 0 1
-9.927906 8.647052 24.187689 27.538684 -0.716551 0.498466 0.053503 -0.013192 407862.000000 0 0 1
-9.570306 9.978052 24.961859 28.535008 -0.806253 0.505814 0.059691 -0.022901 -307948.000000 0 0 1
-10.422106 10.183052 26.095009 29.887528 -0.773797 0.509257 0.058069 -0.024513 379088.000000 0 0 1
-10.349706 11.491052 26.607559 30.775361 -0.837608 0.526496 0.054232 -0.026014 -566233.000000 0 0 1
-10.969306 12.695052 25.832229 30.802501 -0.858195 0.576014 0.042785 -0.033085 -222944.000000 0 0 1
-12.373806 12.658052 25.773079 31.266419 -0.796753 0.601822 0.065086 -0.029833 -282313.000000 0 0 1
-12.837506 11.970052 24.660599 30.269272 -0.750445 0.618572 0.071377 -0.022253 27773.900000 0 0 1
-14.393306 11.800052 24.561559 30.816857 -0.686715 0.648456 0.082800 -0.023990 495035.000000 0 0 1
-14.958106 13.047052 24.206259 31.303570 -0.717264 0.686807 0.076918 -0.028382 692478.000000 0 0 1
-16.293206 13.036052 23.657789 31.545177 -0.674797 0.722787 0.077831 -0.013007 999991.000000 0 0 1
-16.454006 12.370052 22.228089 30.295881 -0.644649 0.747045 0.069158 -0.007398 -315321.000000 0 0 1
-16.481306 11.000052 22.162089 29.728652 -0.588528 0.729543 0.077362 -0.013004 -56381.900000 0 0 1
-16.712606 10.645052 20.837589 28.754712 -0.567145 0.760245 0.076147 -0.015955 16416.300000 0 0 1
-17.070906 9.150052 20.598989 28.274682 -0.492033 0.754621 0.066027 -0.014590 246927.000000 0 0 1
-18.363306 8.846052 21.083889 29.325655 -0.448920 0.768496 0.071087 -0.004422 -108240.000000 0 0 1
-18.872906 7.639052 20.479289 28.878071 -0.384606 0.782485 0.068034 -0.008907 613086.000000 0 0 1
-20.417406 7.550052 20.638089 29.996741 -0.354191 0.812052 0.090407 -0.015173 504205.000000 0 0 1
-20.955806 7.477052 21.955089 31.258248 -0.342721 0.792064 0.094857 -0.015578 270401.000000 0 0 1
-22.347006 7.697052 22.113389 32.367194 -0.331707 0.818655 0.084067 -0.017842 163658.000000 0 0 1
-22.762006 8.350052 23.458249 33.736060 -0.351599 0.801895 0.074018 -0.018968 -747540.000000 0 0 1
-22.638506 9.774052 23.481119 34.049919 -0.407569 0.809848 0.072457 -0.015399 867560.000000 0 0 1
-21.339106 10.382052 23.234639 33.211337 -0.452811 0.795959 0.080540 -0.010839 1158040.000000 0 0 1
-20.295806 10.050052 24.337479 33.245092 -0.459783 0.749452 0.083327 -0.023824 -575399.000000 0 0 1
-20.614606 10.656052 25.596909 34.550183 -0.477090 0.736444 0.095208 -0.025515 -126887.000000 0 0 1
-20.039406 9.976052 26.653569 34.806783 -0.461903 0.698577 0.105968 -0.028614 -62368.600000 0 0 1
-32.135596 -13.415148 20.151789 40.233784 0.395462 1.046196 0.118231 -0.016152 319855.000000 0 0 1
-31.040436 -14.170848 19.633189 39.367293 0.428270 1.048677 0.110856 -0.021898 360132.000000 0 0 1
-31.472726 -15.258548 18.830189 39.723190 0.451429 1.076928 0.110136 -0.004435 -71530.600000 0 0 1
-31.609856 -14.935448 17.314389 39.013314 0.441401 1.110954 0.120546 0.001309 -499225.000000 0 0 1
-32.674416 -14.095448 16.972089 39.425258 0.407271 1.125763 0.127906 -0.017207 -169292.000000 0 0 1
-32.325426 -13.397848 15.782289 38.386406 0.392916 1.147089 0.116008 -0.022321 620509.000000 0 0 1
-33.545426 -12.590848 15.138389 38.897248 0.359066 1.171045 0.125849 -0.028337 -34881.300000 0 0 1
-34.682781 -13.308148 14.735289 39.964120 0.366385 1.193172 0.137571 -0.027435 1061720.000000 0 0 1
-35.682296 -13.501248 15.783589 41.287185 0.361725 1.178525 0.140406 -0.027051 403771.000000 0 0 1
-36.286276 -12.272748 16.489189 41.703807 0.326142 1.164306 0.144324 -0.020989 -1639110.000000 0 0 1
-37.345116 -12.677648 17.285989 43.060259 0.327266 1.157711 0.106205 -0.020505 -483333.000000 0 0 1
-37.900096 -11.526348 17.867489 43.457119 0.295236 1.147079 0.101400 -0.009012 767804.000000 0 0 1
37.079091 -11.749148 18.995089 43.286428 -0.306859 1.116508 0.103007 -0.002659 360142.000000 0 0 1
37.802321 -12.159048 20.078189 44.497096 -0.311197 1.102659 0.106026 -0.007277 -107550.000000 0 0 1
37.190341 -11.818148 21.298489 44.456897 -0.307683 1.071188 0.087616 -0.011747 -993033.000000 0 0 1
37.962131 -12.242648 22.563899 45.827234 -0.311966 1.055987 0.085582 -0.023356 683747.000000 0 0 1
-36.859576 -11.535248 22.760559 44.830050 0.303296 1.038274 0.091236 -0.021069 818466.000000 0 0 1
-35.737314 -12.103048 22.109689 43.731885 0.326543 1.040750 0.092573 -0.023397 -330236.000000 0 0 1
-34.464381 -11.247848 22.228089 42.525235 0.315463 1.020777 0.105649 -0.021588 -217580.000000 0 0 1
-34.573129 -10.146148 21.347689 41.880418 0.285455 1.035926 0.126617 -0.022080 853525.000000 0 0 1
-33.311186 -9.510948 21.020489 40.521034 0.278118 1.025402 0.145534 -0.029774 482295.000000 0 0 1
-33.364556 -8.208948 20.160689 39.837593 0.241246 1.040172 0.149390 -0.019617 -27820.200000 0 0 1
-33.658826 -8.427548 18.757989 39.443660 0.245338 1.075191 0.153195 -0.018592 168868.000000 0 0 1
-35.028077 -8.629148 18.494889 40.539972 0.241540 1.097061 0.150577 -0.021876 -461439.000000 0 0 1
-35.380558 -8.439748 17.023089 40.159667 0.234166 1.133066 0.147944 -0.013923 154258.000000 0 0 1
-36.778276 -8.606548 16.849889 41.359800 0.229875 1.151194 0.067617 -0.010018 170994.000000 0 0 1
-37.225796 -8.647248 15.529489 41.251665 0.228244 1.184827 0.090375 -0.010083 39503.700000 0 0 1
37.298981 -8.522648 15.384489 41.237507 -0.224639 1.188480 0.099485 -0.023483 288961.000000 0 0 1
36.569471 -9.635248 15.891089 41.020616 -0.257623 1.172995 0.096572 -0.006097 -310265.000000 0 0 1
35.211221 -9.514948 15.571489 39.658991 -0.263921 1.167302 0.068654 -0.000443 24191.300000 0 0 1
34.280431 -10.736648 15.811689 39.248351 -0.303523 1.156154 0.055129 -0.000490 359891.000000 0 0 1
34.183351 -11.179248 17.150189 39.844774 -0.316074 1.125833 0.027514 -0.007345 109205.000000 0 0 1
32.993521 -11.940748 17.224089 39.087378 -0.347247 1.114467 0.063772 -0.012327 178612.000000 0 0 1
32.762451 -12.402948 18.655889 39.689463 -0.361899 1.081453 0.061569 -0.010549 60774.400000 0 0 1
33.726971 -13.366448 19.017589 40.961435 -0.377324 1.087974 0.057727 -0.008230 -80942.400000 0 0 1
33.723821 -13.498048 20.413689 41.667878 -0.380724 1.058805 0.070110 -0.005709 -331731.000000 0 0 1
34.560801 -14.736748 20.884089 42.985647 -0.403056 1.063474 0.072311 -0.010115 20123.700000 0 0 1
34.823051 -14.618448 22.232489 43.824964 -0.397451 1.038745 0.074138 -0.022121 -39873.700000 0 0 1
35.358271 -15.855148 22.670589 44.894862 -0.421534 1.041448 0.076540 -0.026987 -116241.000000 0 0 1
36.006011 -15.795848 24.076009 46.104184 -0.413417 1.021357 0.084178 -0.026337 595634.000000 0 0 1
37.259821 -15.108548 24.133769 46.893510 -0.385232 1.030196 0.089963 -0.020665 686321.000000 0 0 1
37.696971 -15.002848 25.510429 47.926287 -0.378769 1.009499 0.086149 -0.023608 2897.270000 0 0 1
-37.170856 -14.026048 25.614769 47.270699 0.360821 0.998131 0.074724 -0.020266 255416.000000 0 0 1
-35.895760 -14.567948 25.271769 46.253573 0.385531 0.992767 0.063657 -0.022453 195468.000000 0 0 1
-34.962074 -13.524548 25.294389 45.222407 0.369106 0.977215 0.080051 -0.027593 -239877.000000 0 0 1
-33.509736 -14.025148 25.172679 44.195825 0.396386 0.964812 0.077384 -0.030256 -500784.000000 0 0 1
-33.012796 -14.270148 23.867469 43.164081 0.408005 0.984899 0.085347 -0.025146 806168.000000 0 0 1
-31.630656 -14.662248 23.819799 42.223960 0.434061 0.971417 0.079487 -0.026095 811547.000000 0 0 1
-31.356336 -16.151848 24.306689 42.835933 0.475660 0.967407 0.083216 -0.015309 -766207.000000 0 0 1
-31.445386 -16.364248 25.714109 43.792880 0.479836 0.943231 0.081917 -0.020425 66915.800000 0 0 1
-31.145306 -17.715148 26.016799 44.280136 0.517155 0.942768 0.087454 -0.021028 -129779.000000 0 0 1
-30.718046 -17.806148 27.508069 44.914932 0.525332 0.911642 0.086801 -0.035926 192117.000000 0 0 1
-29.594526 -16.968548 27.773859 43.990395 0.520607 0.887488 0.084036 -0.035136 -39858.200000 0 0 1
-28.870396 -17.504448 28.856419 44.413944 0.545047 0.863586 0.103569 -0.044118 259437.000000 0 0 1
-27.584836 -16.676448 29.111449 43.433899 0.543759 0.836255 0.085123 -0.038216 -59729.400000 0 0 1
-27.867816 -15.469148 29.814779 43.644367 0.506743 0.818756 0.099931 -0.044497 -296987.000000 0 0 1
-26.920136 -14.456748 29.593219 42.537629 0.492826 0.801409 0.085905 -0.037886 -284445.000000 0 0 1
-27.001176 -13.149848 30.423019 42.749761 0.453202 0.778947 0.092543 -0.034320 -11954.600000 0 0 1
-26.296676 -13.246848 31.651705 43.229904 0.466640 0.749292 0.089674 -0.033041 263866.000000 0 0 1
-26.290706 -12.003548 32.338640 43.371350 0.428304 0.729328 0.094715 -0.020019 -211383.000000 0 0 1
-25.612136 -12.205048 -33.701599 44.053859 0.444699 2.441852 0.091190 -0.020496 -150775.000000 0 0 1
-24.232306 -12.496048 -33.668739 43.323664 0.476111 2.460912 0.080704 -0.023774 157992.000000 0 0 1
-23.911106 -13.877048 -33.704149 43.592237 0.525853 2.454619 0.072063 -0.027743 -344897.000000 0 0 1
-24.000906 -14.594248 -32.360019 42.850979 0.546333 2.426718 0.070928 -0.025199 -874183.000000 0 0 1
-22.865606 -14.338148 -31.592929 41.551554 0.560081 2.434619 0.065026 -0.017702 -169963.000000 0 0 1
-23.020906 -14.809948 -30.239849 40.789033 0.571669 2.405909 0.074031 -0.023376 1175950.000000 0 0 1
-21.640806 -14.912848 -29.435469 39.460922 0.603378 2.412741 0.065591 -0.026264 1291760.000000 0 0 1
-21.208106 -13.766448 -28.720089 38.264114 0.575751 2.419728 0.090319 -0.028260 189997.000000 0 0 1
-21.735206 -13.654148 -27.398149 37.543489 0.560900 2.388783 0.083908 -0.025536 133114.000000 0 0 1
-21.084106 -12.424148 -26.654769 36.185297 0.532490 2.398853 0.085324 -0.023631 53826.000000 0 0 1
-19.758306 -12.556448 -26.187969 35.126412 0.566116 2.412134 0.079290 -0.028387 -6183.620000 0 0 1
-19.419406 -11.535948 -25.290409 33.908646 0.536027 2.412591 0.075149 -0.036515 -443790.000000 0 0 1
-17.991806 -11.641448 -24.780579 32.761342 0.574293 2.428583 0.097478 -0.042174 -852338.000000 0 0 1
-17.899806 -12.582748 -23.684979 32.244486 0.612706 2.395790 0.102501 -0.045690 846539.000000 0 0 1
-16.606206 -12.710748 -23.059179 31.129648 0.653298 2.404977 0.107035 -0.049180 1009600.000000 0 0 1
-15.541806 -13.551648 -23.838179 31.519101 0.717099 2.428449 0.089748 -0.043810 -16303.100000 0 0 1
-14.822706 -12.728848 -24.774579 31.551798 0.709546 2.473821 0.105450 -0.052413 233229.000000 0 0 1
-14.199906 -13.502048 -25.780649 32.381855 0.760212 2.491694 0.125082 -0.049434 -863613.000000 0 0 1
-13.161406 -12.837048 -26.644139 32.371632 0.772923 2.537593 0.132207 -0.041130 -368685.000000 0 0 1
-13.696106 -11.833348 -27.483139 32.907969 0.712562 2.559204 0.136282 -0.046048 371456.000000 0 0 1
-12.764306 -11.434648 -28.492769 33.249310 0.730506 2.600106 0.129135 -0.049889 85507.600000 0 0 1
-13.390506 -10.237848 -29.236569 33.747536 0.652755 2.618607 0.095844 -0.031457 289866.000000 0 0 1
-12.576706 -9.375148 -30.055819 33.903086 0.640575 2.660569 0.081009 -0.023858 311605.000000 0 0 1
-12.074006 -9.947448 -31.266799 34.962066 0.689129 2.677675 0.093427 -0.014439 60244.600000 0 0 1
-11.232506 -9.082848 -32.197159 35.289154 0.679976 2.719860 0.067504 -0.018982 -186436.000000 0 0 1
-9.906106 -8.812948 -31.819609 34.471532 0.727066 2.746781 0.069868 -0.022756 -412208.000000 0 0 1
-9.543806 -7.556248 -32.365359 34.578861 0.669686 2.781848 0.049334 -0.021806 495453.000000 0 0 1
-8.024206 -7.336048 -32.046189 33.840268 0.740627 2.814511 0.073002 -0.022654 405064.000000 0 0 1
-7.492306 -7.418048 -30.721889 32.480711 0.780418 2.811000 0.060575 -0.019317 -105571.000000 0 0 1
-7.910906 -6.549048 -29.662289 31.389869 0.691494 2.808280 0.069854 -0.017150 -451908.000000 0 0 1
-7.434206 -5.093048 -29.947589 31.274025 0.600644 2.849303 0.051085 -0.027644 1033170.000000 0 0 1
-6.011706 -4.893048 -29.865499 30.854993 0.683171 2.887655 0.059606 -0.027947 848990.000000 0 0 1
-5.587606 -3.646048 -30.408389 31.131739 0.578148 2.925604 0.092056 -0.043171 129895.000000 0 0 1
-4.084506 -3.387248 -30.191159 30.653919 0.692348 2.967613 0.122773 -0.035166 159827.000000 0 0 1
-3.191406 -4.317448 -30.842989 31.306795 0.934251 2.969247 0.128625 -0.039838 -98238.700000 0 0 1
-1.844706 -4.179448 -30.507349 30.847513 1.155138 2.992948 0.146920 -0.032295 -261024.000000 0 0 1
-1.064106 -3.059348 -31.272359 31.439663 1.236064 3.038383 0.144729 -0.025873 519165.000000 0 0 1
0.210294 -2.745348 -30.641009 30.764470 -1.494346 3.051974 0.121835 -0.029330 1227010.000000 0 0 1
0.821194 -1.620348 -31.320259 31.372895 -1.101723 3.083658 0.115687 -0.017673 229852.000000 0 0 1
1.390694 -0.464248 -30.527069 30.562256 -0.322193 3.093602 0.111415 -0.036298 -717659.000000 0 0 1
0.444294 0.176352 -29.783549 29.787385 0.377854 3.125544 0.118390 -0.034428 -969902.000000 0 0 1
0.915494 1.403552 -29.294789 29.342678 0.992828 3.084452 0.143354 -0.048593 206406.000000 0 0 1
-0.011706 2.095552 -28.226869 28.304551 -1.565210 3.067488 0.122426 -0.049088 1118900.000000 0 0 1
-1.243506 2.570952 -28.814099 28.955283 -1.120293 3.042801 0.109343 -0.062322 351939.000000 0 0 1
-1.740306 3.614652 -28.016129 28.301906 -1.122091 2.999364 0.146400 -0.059126 116110.000000 0 0 1
-3.036206 4.203352 -28.638639 29.104267 -0.945241 2.962476 0.179123 -0.061261 406454.000000 0 0 1
-2.819306 4.790652 -29.951839 30.463281 -1.038874 2.958093 0.178537 -0.067499 87754.000000 0 0 1
-4.075206 5.091352 -30.538529 31.227086 -0.895801 2.931205 0.202260 -0.057209 18223.500000 0 0 1
-3.916706 5.731952 -31.930669 32.676651 -0.971359 2.927506 0.189956 -0.046875 116034.000000 0 0 1
-3.595906 4.842152 -33.033449 33.579543 -0.932031 2.960999 0.215367 -0.052182 486522.000000 0 0 1
-2.324806 4.201752 -32.973269 33.321103 -1.065427 2.996975 0.197574 -0.053713 -116407.000000 0 0 1
-1.939906 3.521752 33.122975 33.366112 -1.067312 0.120796 0.162359 -0.043792 4318.120000 0 0 1
-2.877406 2.487652 32.657133 32.877898 -0.712879 0.115950 0.168425 -0.055559 689969.000000 0 0 1
-2.795506 1.922652 31.335155 31.518302 -0.602467 0.107856 0.147195 -0.040510 -204143.000000 0 0 1
-2.620806 2.879652 30.148359 30.398759 -0.832422 0.128441 0.133239 -0.034289 -435338.000000 0 0 1
-3.735006 3.702452 29.948239 30.406503 -0.781021 0.173835 0.123555 -0.031664 -150649.000000 0 0 1
-3.563506 4.531052 28.797009 29.368294 -0.904364 0.197564 0.112164 -0.030705 -594461.000000 0 0 1
-4.885306 5.192752 28.516499 29.394244 -0.815895 0.244994 0.104304 -0.022703 -588930.000000 0 0 1
-4.872106 5.981852 27.341839 28.409437 -0.887287 0.275015 0.097200 -0.016501 -205861.000000 0 0 1
-6.115606 6.638252 27.223149 28.680426 -0.826355 0.320147 0.094978 -0.016533 -127666.000000 0 0 1
-6.185806 7.419152 25.883039 27.626793 -0.875805 0.357194 0.088259 -0.018538 631089.000000 0 0 1
-5.271806 8.558552 25.926299 27.806721 -1.018717 0.369867 0.086804 -0.021699 624116.000000 0 0 1
-5.350006 9.421152 24.825309 27.086466 -1.054336 0.411503 0.081103 -0.019338 -38810.400000 0 0 1
-4.626306 10.752952 25.062619 27.661590 -1.164499 0.436956 0.088109 -0.022179 -309836.000000 0 0 1
-4.640806 11.566552 23.857769 26.916822 -1.189233 0.481391 0.094771 -0.026292 339063.000000 0 0 1
-4.099006 12.874852 23.993089 27.536012 -1.262570 0.512880 0.091377 -0.021973 1123710.000000 0 0 1
-2.521606 13.076952 23.962159 27.414416 -1.380306 0.507275 0.088630 -0.018483 1705190.000000 0 0 1
-1.680506 12.661452 25.065569 28.132174 -1.438841 0.471269 0.102532 -0.023164 505550.000000 0 0 1
-1.962806 13.224952 26.379379 29.574035 -1.423455 0.469095 0.115995 -0.027270 -398540.000000 0 0 1
-1.065706 12.563952 27.418349 30.178709 -1.486176 0.431037 0.116064 -0.029638 737951.000000 0 0 1
0.325594 12.873352 27.362189 30.241008 1.545510 0.439877 0.111755 -0.031644 -71315.100000 0 0 1
1.040694 12.298552 28.395879 30.962289 1.486378 0.410023 0.115706 -0.037582 -584880.000000 0 0 1
2.543194 12.403152 28.153489 30.869482 1.368555 0.422621 0.103631 -0.032693 -486621.000000 0 0 1
3.024494 13.707952 28.164489 31.468936 1.353638 0.462380 0.112018 -0.037474 2086320.000000 0 0 1
4.505994 13.714052 28.117879 31.606871 1.253341 0.474300 0.107075 -0.031825 2145690.000000 0 0 1
5.192194 15.073452 28.145969 32.347540 1.239066 0.515368 0.108456 -0.033544 -452356.000000 0 0 1
5.164494 15.898152 29.289029 33.723440 1.256701 0.518615 0.120920 -0.031026 386652.000000 0 0 1
4.013794 16.721352 29.462059 34.113444 1.335214 0.528331 0.096635 -0.027517 195411.000000 0 0 1
4.133294 18.183552 28.910469 34.402629 1.347285 0.572856 0.114077 -0.029299 -154296.000000 0 0 1
4.732794 19.143952 29.754689 35.696382 1.328435 0.585295 0.120379 -0.022347 102021.000000 0 0 1
5.317894 20.184952 28.988299 35.721614 1.313192 0.624072 0.098551 -0.015206 67437.900000 0 0 1
6.451294 20.959952 29.728139 36.941860 1.272207 0.635580 0.096683 -0.011376 -142921.000000 0 0 1
6.100794 21.701952 30.887779 38.239368 1.296752 0.630474 0.095348 -0.031500 -126324.000000 0 0 1
7.242494 22.325852 31.423719 39.221773 1.257108 0.641531 0.099329 -0.029197 44218.200000 0 0 1
7.584294 23.713352 30.804459 39.607565 1.261246 0.679731 0.099206 -0.015030 -58573.400000 0 0 1
7.927294 23.561052 29.434089 38.527013 1.246237 0.701328 0.068833 -0.014502 -4277.790000 0 0 1
8.101994 24.834152 28.857159 38.924452 1.255440 0.735697 0.068531 -0.019614 115492.000000 0 0 1
8.556894 24.798452 27.380539 37.919356 1.238531 0.764002 0.093357 -0.019455 -135699.000000 0 0 1
7.484494 24.513152 26.514609 36.877320 1.274461 0.768441 0.075864 -0.010607 260598.000000 0 0 1
7.992194 24.187652 25.231999 35.854866 1.251666 0.790168 0.084399 -0.023208 -17969.200000 0 0 1
31.176941 2.524652 7.189721 32.094666 0.080802 1.344863 0.191529 -0.018243 40265.100000 0 0 1
31.023591 3.432352 8.283021 32.293229 0.110189 1.311403 0.177155 -0.029279 99658.500000 0 0 1
29.742991 3.377052 8.887621 31.225627 0.113057 1.282180 0.178826 -0.025029 -38475.700000 0 0 1
29.472591 4.337752 10.040821 31.436727 0.146130 1.245702 0.155583 -0.030407 -526284.000000 0 0 1
29.258491 5.717352 9.852421 31.397732 0.192977 1.251610 0.169921 -0.022651 174115.000000 0 0 1
30.251791 6.430152 9.124321 32.245479 0.209437 1.283913 0.182233 -0.036636 5903.240000 0 0 1
29.849591 7.841652 8.766621 32.083379 0.256901 1.294032 0.217102 -0.042299 339757.000000 0 0 1
28.825091 7.992352 7.788821 30.910019 0.270476 1.316067 0.177772 -0.037900 128894.000000 0 0 1
28.873991 9.239852 7.128421 31.143163 0.309708 1.339857 0.199367 -0.064565 -127484.000000 0 0 1
27.890891 9.479952 5.945921 30.052042 0.327644 1.371628 0.170812 -0.050571 -590332.000000 0 0 1
26.559891 9.554752 6.329121 28.927130 0.345329 1.350217 0.191135 -0.047989 -785272.000000 0 0 1
25.806291 9.504052 5.115321 27.972453 0.352870 1.386891 0.189350 -0.046190 15916.200000 0 0 1
24.364291 10.017552 5.290921 26.869385 0.390087 1.372588 0.150610 -0.052324 -136357.000000 0 0 1
24.275991 11.446652 5.215421 27.341364 0.440606 1.378868 0.160315 -0.044630 -368899.000000 0 0 1
23.084491 11.844052 5.813721 26.588994 0.474052 1.350364 0.161445 -0.042717 -443799.000000 0 0 1
23.035791 13.384252 5.997921 27.308623 0.526347 1.349356 0.164182 -0.028879 -22722.200000 0 0 1
22.765091 14.195952 4.891221 27.270835 0.557581 1.390463 0.147848 -0.039298 111053.000000 0 0 1
22.601391 15.550452 5.333321 27.947875 0.602648 1.378788 0.168237 -0.029695 -162974.000000 0 0 1
22.292091 16.480252 4.175321 28.035144 0.636609 1.421309 0.135200 -0.029142 -1219630.000000 0 0 1
20.955491 16.473352 3.854921 26.932589 0.666215 1.427171 0.153143 -0.022404 -840501.000000 0 0 1
20.637691 17.440252 2.813521 27.166018 0.701624 1.467043 0.149326 -0.016301 437596.000000 0 0 1
19.108591 17.604352 2.589321 26.110458 0.744448 1.471465 0.142067 -0.022466 620741.000000 0 0 1
18.306691 18.122852 3.670121 26.020040 0.780352 1.429275 0.150487 -0.038652 565847.000000 0 0 1
16.957591 18.123652 3.256021 25.032545 0.818625 1.440355 0.126170 -0.039909 130599.000000 0 0 1
15.953391 18.790352 4.262221 25.015086 0.866871 1.399575 0.133001 -0.052168 -304000.000000 0 0 1
14.632291 18.517252 3.954621 23.929721 0.902061 1.404775 0.132211 -0.053941 -480899.000000 0 1 0
13.790791 19.654452 3.939521 24.331116 0.958955 1.408168 0.102181 -0.052560 709712.000000 0 1 0
12.267991 19.476552 3.654721 23.306579 1.008692 1.413336 0.092999 -0.050362 273043.000000 0 1 0
11.626891 18.835052 4.675321 22.623050 1.017753 1.362634 0.076772 -0.052156 48184.400000 0 1 0
10.218591 18.999952 4.511621 22.040247 1.077351 1.364640 0.064741 -0.035387 569366.000000 0 1 0
9.336291 18.552652 5.693621 21.535657 1.104566 1.303234 0.043729 -0.028638 -537162.000000 0 1 0
9.432491 19.457952 6.774421 22.660021 1.119413 1.267195 0.061535 -0.029693 -225707.000000 0 1 0
8.938791 18.874752 7.955821 22.348452 1.128504 1.206823 0.064477 -0.022055 -79961.500000 0 1 0
7.908891 19.834352 8.637821 23.033975 1.191370 1.186396 0.051990 -0.018432 851904.000000 0 1 0
6.761291 20.051052 7.793921 22.550054 1.245566 1.217889 0.040962 -0.022182 487228.000000 0 1 0
6.728191 21.304752 7.191121 23.470688 1.264901 1.259401 0.047336 -0.017253 336286.000000 0 1 0
5.446191 21.483752 6.264521 23.031648 1.322524 1.295329 0.039133 -0.017995 420867.000000 0 1 0
4.171191 21.522752 6.814821 22.957993 1.379366 1.269416 0.042436 -0.023427 -426241.000000 0 1 0
3.878291 22.631452 7.671721 24.209070 1.401078 1.248343 0.049399 -0.030125 -689845.000000 0 1 0
3.723491 24.070852 7.062321 25.360336 1.417324 1.288586 0.072449 -0.022143 343573.000000 0 0 1
2.638091 24.245052 6.130521 25.146875 1.462413 1.324526 0.046873 -0.014285 462393.000000 0 0 1
2.751791 25.399852 5.359721 26.104625 1.462878 1.364009 0.066869 -0.016303 -973947.000000 0 0 1
1.542791 25.850352 4.598821 26.301522 1.511185 1.395043 0.074498 -0.016921 -1040370.000000 0 0 1
0.473491 26.343252 5.377721 26.890723 1.552824 1.369454 0.078121 -0.018656 148789.000000 0 0 1
-0.675109 26.319752 4.523621 26.714196 -1.545152 1.400642 0.094734 -0.023082 604166.000000 0 0 1
-2.032409 26.635752 5.210221 27.216546 -1.494640 1.378172 0.122821 -0.027260 647550.000000 0 0 1
-3.047409 26.941652 4.267821 27.447288 -1.458164 1.414671 0.143314 -0.038590 -116853.000000 0 0 1
-4.194209 27.546452 4.800521 28.274430 -1.419697 1.400187 0.147425 -0.042243 -309673.000000 0 0 1
-5.106609 28.124652 3.712721 28.824604 -1.391183 1.441634 0.158148 -0.048876 -477957.000000 0 0 1
-4.388509 29.017352 2.901321 29.490395 -1.420696 1.472255 0.162338 -0.048555 -373894.000000 0 0 1
-5.104409 29.562852 1.822421 30.055589 -1.399819 1.510124 0.169533 -0.056695 -1075720.000000 0 0 1
-4.317009 30.382152 0.788821 30.697458 -1.429651 1.545097 0.178122 -0.054222 -215842.000000 0 0 1
-3.799309 31.621352 1.167921 31.870185 -1.451219 1.534142 0.186970 -0.048417 417858.000000 0 0 1
-2.726909 31.484052 2.130221 31.673639 -1.484400 1.503490 0.189686 -0.049530 189624.000000 0 0 1
-1.802209 32.781052 2.110621 32.898329 -1.515874 1.506596 0.182627 -0.045041 -96101.400000 0 0 1
-1.147609 33.068352 0.875121 33.099830 -1.536106 1.544354 0.155238 -0.037505 138101.000000 0 0 1
-0.244609 -33.347848 0.781521 33.357901 1.563461 1.547366 0.145200 -0.035673 707692.000000 0 0 1
1.123391 -33.748648 1.420221 33.797194 -1.537522 1.528762 0.118644 -0.027344 -511897.000000 0 0 1
1.110891 -33.678648 2.832621 33.815812 -1.537823 1.486932 0.127326 -0.029869 -1488.500000 0 0 1
2.354391 33.544452 3.431621 33.801619 1.500724 1.469099 0.099633 -0.022330 4994.090000 0 0 1
2.149591 33.717252 4.905421 34.139961 1.507129 1.426612 0.102406 -0.026816 29111.900000 0 0 1
1.196291 32.842252 5.431921 33.309914 1.534387 1.406993 0.152957 -0.048447 -19227.400000 0 0 1
0.525991 33.230852 6.642321 33.892279 1.554969 1.373536 0.164491 -0.037409 326310.000000 0 0 1
1.393991 33.302152 7.933921 34.262569 1.528962 1.337113 0.139720 -0.030864 48316.800000 0 0 1
1.785591 32.056652 8.483121 33.208140 1.515153 1.312480 0.148792 -0.037767 -20944.400000 0 0 1
2.614991 32.243652 9.599621 33.743799 1.489872 1.282327 0.173377 -0.043692 469124.000000 0 0 1
3.524391 30.992052 9.973821 32.747606 1.457564 1.261313 0.160867 -0.044023 657067.000000 0 0 1
2.720191 29.951052 10.519221 31.860931 1.480224 1.234323 0.184997 -0.038963 189223.000000 0 0 1
3.304891 28.684152 10.309221 30.659141 1.456086 1.227861 0.135825 -0.037802 42305.400000 0 0 1
2.733291 27.564052 11.229521 29.888961 1.471958 1.185636 0.137595 -0.042003 -301014.000000 0 0 1
3.094391 27.793652 12.607921 30.676082 1.459919 1.147244 0.157784 -0.045038 148516.000000 0 0 1
2.724791 26.738052 13.468621 30.062462 1.469240 1.106246 0.169920 -0.040253 -1157010.000000 0 0 1
1.256291 26.549052 13.733321 29.917127 1.523512 1.093876 0.137844 -0.040217 -1046910.000000 0 0 1
0.532091 27.603652 14.352121 31.116364 1.551523 1.091404 0.149975 -0.036334 -48401.800000 0 0 1
-0.234309 28.337452 13.436021 31.362282 -1.562528 1.128060 0.173104 -0.038399 -154535.000000 0 0 1
-1.012709 29.525352 14.072721 32.723286 -1.536510 1.126246 0.179024 -0.041576 65337.100000 0 0 1
-1.989809 29.196952 15.032221 32.899681 -1.502750 1.096277 0.158496 -0.039964 -210028.000000 0 0 1
-2.524509 30.463652 15.453221 34.252142 -1.488116 1.102731 0.175323 -0.032893 -144329.000000 0 0 1
-3.913209 30.341752 16.098721 34.570275 -1.442533 1.086392 0.162990 -0.021132 130465.000000 0 0 1
-4.885909 29.767752 15.228521 33.791996 -1.408113 1.103298 0.130763 -0.031183 444569.000000 0 0 1
-6.161609 29.716352 15.866521 34.245780 -1.366346 1.089066 0.106319 -0.020046 122794.000000 0 0 1
-7.316109 29.409252 14.906521 33.773272 -1.326977 1.113671 0.095546 -0.026926 274396.000000 0 0 1
-8.541209 29.078352 15.566021 34.070571 -1.285101 1.096316 0.083763 -0.025777 289922.000000 0 0 1
-9.554009 28.634852 14.683721 33.568519 -1.248761 1.118063 0.066478 -0.020935 472722.000000 0 0 1
-10.803309 28.113552 15.461021 33.854489 -1.203920 1.096525 0.065465 -0.018327 404698.000000 0 0 1
-11.403309 29.155452 16.277121 35.284848 -1.197968 1.091329 0.056189 -0.028304 366942.000000 0 0 1
-11.880909 28.668252 17.560821 35.656796 -1.177915 1.055841 0.078863 -0.026338 -252960.000000 0 0 1
-12.697209 29.721352 18.360521 37.171045 -1.167057 1.054173 0.071734 -0.023025 -507828.000000 0 0 1
-13.934909 29.888452 17.706221 37.430088 -1.134527 1.078049 0.078608 -0.013731 106233.000000 0 0 1
-14.757709 30.951252 18.160621 38.801780 -1.125876 1.083730 0.069478 -0.009351 354545.000000 0 0 1
-15.616509 30.664752 19.430021 39.518705 -1.099764 1.056794 0.071760 -0.015548 -389731.000000 0 0 1
-14.936209 30.578452 20.665721 39.814621 -1.116427 1.025059 0.072297 -0.020851 -227050.000000 0 0 1
-15.845109 30.492052 21.722721 40.653528 -1.091555 1.007072 0.064123 -0.017001 -21107.100000 0 0 1
-15.156809 30.537652 23.131021 41.198558 -1.110088 0.974657 0.067480 -0.010801 -353978.000000 0 0 1
-14.318209 29.418552 23.294321 40.163263 -1.117840 0.952079 0.075217 -0.016364 223641.000000 0 0 1
-13.935709 29.063452 24.628221 40.563992 -1.123689 0.918334 0.086012 -0.010876 390888.000000 0 0 1
-13.259809 30.157252 25.559821 41.696365 -1.156550 0.910946 0.082203 -0.011709 -140596.000000 0 0 1
-14.264409 31.078552 25.967321 42.937763 -1.140500 0.921324 0.082752 -0.014533 444331.000000 0 0 1
-13.894409 32.398352 26.349521 44.011420 -1.165659 0.928923 0.088644 -0.016187 -781509.000000 0 0 1
-15.169309 33.141152 26.706121 45.184740 -1.141542 0.938445 0.109017 -0.023336 -111068.000000 0 0 1
-15.838509 32.732852 27.941721 45.858889 -1.120134 0.915622 0.076631 -0.028999 351500.000000 0 0 1
-15.119909 32.855252 29.145321 46.449208 -1.139494 0.892501 0.098793 -0.017362 -397504.000000 0 0 1
-15.885609 32.128352 30.304921 46.935826 -1.111605 0.868900 0.077706 -0.022271 -709492.000000 0 0 1
-17.093809 32.733752 30.562421 47.934939 -1.089541 0.879442 0.086939 -0.023570 -1043020.000000 0 0 1
-17.615009 32.201752 31.782921 48.553017 -1.070244 0.857140 0.073306 -0.014518 615586.000000 0 0 1
-19.084809 32.652252 32.045421 49.571247 -1.041862 0.867872 0.072372 -0.018026 458479.000000 0 0 1
-19.190809 -33.508548 32.515821 50.481567 1.050682 0.870934 0.094886 -0.021802 -744996.000000 0 0 1
-20.500609 -33.078848 32.382321 50.627067 1.015981 0.876786 0.111406 -0.018037 -1031580.000000 0 0 1
-20.782909 -31.579348 32.562921 49.895174 0.988736 0.859750 0.118341 -0.013576 -284216.000000 0 0 1
-20.710509 -31.112248 -33.535547 50.214839 0.983484 2.302101 0.108370 -0.014435 382408.000000 0 0 1
-21.670909 -31.694248 -32.656147 50.404143 0.971061 2.275602 0.099460 -0.021589 51781.600000 0 0 1
-21.511509 -31.186148 -31.199247 49.078650 0.966964 2.259710 0.108537 -0.020130 131318.000000 0 0 1
-21.546309 -29.794948 -31.116447 48.168617 0.944700 2.273116 0.118370 -0.016934 273959.000000 0 0 1
-20.954009 -29.308848 -29.887647 46.811863 0.950115 2.263296 0.108320 -0.013278 366335.000000 0 0 1
-21.157109 -27.763148 -29.907347 45.965912 0.919623 2.279226 0.106265 -0.021988 -436203.000000 0 0 1
-22.484109 -27.409548 -29.710847 46.255302 0.883798 2.268322 0.108331 -0.016519 -771424.000000 0 0 1
-22.659309 -25.978948 -29.690047 45.495592 0.853544 2.281796 0.100893 -0.015991 127918.000000 0 0 1
-23.994209 -25.588948 -29.023947 45.529176 0.817550 2.262020 0.112781 -0.019208 87842.000000 0 0 1
-24.135209 -25.741248 -27.628247 44.815625 0.817587 2.235069 0.111055 -0.020397 68921.800000 0 0 1
-23.545609 -24.603048 -26.991447 43.453928 0.807357 2.241007 0.114651 -0.030368 -119684.000000 0 0 1
-23.260909 -24.944948 -25.534147 42.606490 0.820318 2.213425 0.113760 -0.027615 -347283.000000 0 0 1
-24.455109 -24.978548 -24.829847 42.877751 0.795986 2.188402 0.113042 -0.035361 -251452.000000 0 0 1
-24.246109 -25.819848 -23.718847 42.627715 0.816821 2.160865 0.107788 -0.025893 -73238.700000 0 0 1
-25.270109 -25.598448 -22.565647 42.462541 0.791853 2.131078 0.097061 -0.026218 -918286.000000 0 0 1
-26.583709 -25.905848 -22.692547 43.505842 0.772485 2.119519 0.104638 -0.027618 -1424520.000000 0 0 1
-26.799309 -27.309248 -22.606447 44.441528 0.794822 2.104445 0.095082 -0.023236 -786871.000000 0 0 1
-28.262409 -27.750148 -22.782347 45.693214 0.776253 2.092772 0.057039 -0.022440 -428361.000000 0 0 1
-29.012309 -27.314348 -21.692847 45.369233 0.755262 2.069332 0.060200 -0.013979 259257.000000 0 0 1
-30.327709 -26.971348 -22.197347 46.259548 0.726889 2.071273 0.062442 -0.015014 743488.000000 0 0 1
-31.137909 -26.275948 -21.101647 45.883269 0.700917 2.048677 0.076526 -0.008654 -603207.000000 0 0 1
-31.614409 -27.079148 -20.077847 46.215485 0.708281 2.020213 0.071944 -0.003118 -384970.000000 0 0 1
-32.361309 -26.325848 -19.203847 45.924856 0.682917 2.002213 0.079413 -0.001770 -1498770.000000 0 0 1
-33.011009 -27.134748 -18.087647 46.402417 0.688007 1.971210 0.057242 -0.008680 -864783.000000 0 0 1
-34.191909 -27.786448 -18.472747 47.774635 0.682414 1.967808 0.049956 0.004221 322232.000000 0 0 1
-35.366309 -27.017348 -18.724447 48.283722 0.652356 1.969040 0.038058 0.006573 -193961.000000 0 0 1
-36.079309 -26.335748 -17.553947 47.994054 0.630539 1.945238 0.055087 0.002696 -655558.000000 0 0 1
-35.230409 -25.350248 -16.996947 46.612370 0.623731 1.944047 0.042977 0.014003 178393.000000 0 0 1
-35.785609 -24.827148 -15.804447 46.333332 0.606536 1.918887 0.044318 0.006894 -57493.400000 0 0 1
-35.402309 -25.532048 -14.508847 45.996909 0.624811 1.891707 0.064630 0.011997 -167782.000000 0 0 1
-36.070509 -26.712848 -14.189347 47.074361 0.637441 1.876982 0.087142 0.018874 122586.000000 0 0 1
-35.429309 -27.288048 -13.090747 46.596579 0.656311 1.855568 0.091336 0.016093 -221990.000000 0 0 1
-36.196609 -28.536248 -12.689147 47.807180 0.667608 1.839439 0.107173 0.002237 -210074.000000 0 0 1
-36.041509 -29.582248 -13.605247 48.571623 0.687285 1.854702 0.089895 0.003117 369705.000000 0 0 1
-36.378709 -30.856448 -12.999447 49.442052 0.703449 1.836847 0.083102 -0.013680 -290981.000000 0 0 1
-35.812209 -31.980648 -13.867547 49.975845 0.728940 1.851972 0.082471 -0.012518 622235.000000 0 0 1
-34.383709 -32.138848 -13.932847 49.084308 0.751665 1.858609 0.060295 -0.015031 1041230.000000 0 0 1
-34.050809 -33.290148 -14.781947 49.861784 0.774103 1.871779 0.079947 -0.028139 -1233200.000000 0 0 1
-32.555209 -33.356248 -14.864047 48.922600 0.797551 1.879504 0.088786 -0.027102 -1090830.000000 0 0 1
-32.242609 33.141152 -15.792547 48.860273 -0.799140 1.899925 0.091180 -0.023801 144149.000000 0 0 1
-30.867809 32.769152 -15.787947 47.706375 -0.815267 1.908096 0.097228 -0.021647 244806.000000 0 0 1
9.564794 19.626052 -9.458979 23.793685 1.117318 1.979632 0.108846 -0.030666 752967.000000 0 1 0
8.127894 19.528152 -9.509079 23.191247 1.176391 1.993282 0.103981 -0.032373 763188.000000 0 1 0
7.641894 19.706252 -10.797279 23.734282 1.200860 2.043082 0.117152 -0.027572 -19037.400000 0 1 0
7.738294 18.526752 -11.771479 23.274223 1.175140 2.101074 0.095224 -0.012802 66877.500000 0 1 0
9.071294 18.063752 -11.985979 23.500025 1.105405 2.106029 0.150144 -0.029803 284854.000000 0 1 0
9.045994 17.099752 -13.006679 23.311053 1.084208 2.162724 0.125679 -0.028829 194423.000000 0 1 0
10.397394 16.499952 -13.503279 23.721146 1.008504 2.176391 0.161874 -0.034284 305212.000000 0 1 0
10.271294 15.321152 -14.297479 23.337846 0.980214 2.230181 0.159993 -0.042808 1320.530000 0 1 0
11.398094 15.128752 -15.108979 24.229670 0.925119 2.244102 0.187432 -0.044923 -336609.000000 0 1 0
11.365094 13.679652 -15.824379 23.805655 0.877553 2.297931 0.170605 -0.041289 -124208.000000 0 1 0
11.460894 12.548552 -14.969979 22.647704 0.830668 2.292938 0.169617 -0.040161 831329.000000 0 1 0
12.554494 12.406552 -14.042479 22.555023 0.779471 2.242841 0.185718 -0.048624 116540.000000 0 1 0
13.782294 11.647652 -14.520179 23.161498 0.701652 2.248377 0.212403 -0.057326 -287854.000000 0 1 0
14.374994 12.233652 -15.652779 24.521667 0.705096 2.263116 0.175666 -0.045216 340002.000000 0 1 0
15.440094 11.416752 -16.153179 25.093105 0.636697 2.270159 0.181253 -0.063729 430249.000000 0 0 1
16.160294 12.048452 -17.392479 26.623647 0.640653 2.282694 0.132273 -0.054542 -425824.000000 0 0 1
17.020494 13.084252 -17.069279 27.427270 0.655384 2.242534 0.117780 -0.041486 -785685.000000 0 0 1
17.553694 13.420352 -18.298279 28.689110 0.652737 2.262451 0.065752 -0.025526 -577670.000000 0 0 1
18.816794 14.284252 -18.253179 29.854482 0.649314 2.228631 0.074511 -0.008642 -643699.000000 0 0 1
18.785094 15.630552 -17.826379 30.248532 0.693993 2.201026 0.093799 -0.019402 318455.000000 0 0 1
18.148594 16.494352 -18.826879 30.917414 0.737683 2.225521 0.077994 -0.001379 36359.600000 0 0 1
17.918794 17.866752 -18.157679 31.144908 0.783944 2.193220 0.098779 -0.014648 197293.000000 0 0 1
19.043694 18.737152 -18.027279 32.229271 0.777285 2.164392 0.106141 -0.012949 362737.000000 0 0 1
18.707894 19.931452 -17.368179 32.386752 0.817054 2.136813 0.095044 -0.011595 505878.000000 0 0 1
19.948594 20.882452 -17.404479 33.718527 0.808265 2.113169 0.120717 -0.020493 1357790.000000 0 0 1
21.076194 20.600252 -16.556679 33.803845 0.773979 2.082642 0.131097 -0.020109 487308.000000 0 0 1
20.937394 21.107152 -15.249879 33.413248 0.789436 2.044744 0.135944 -0.021646 -798026.000000 0 0 1
21.873194 22.224052 -14.866679 34.545090 0.793354 2.015683 0.133034 -0.019889 -152832.000000 0 0 1
23.240694 21.860552 -14.830779 35.184735 0.754807 2.005908 0.135000 -0.030362 175511.000000 0 0 1
24.002894 22.940152 -14.293979 36.148407 0.762763 1.977327 0.110188 -0.035720 709622.000000 0 0 1
25.561394 22.852352 -14.231979 37.123632 0.729500 1.964236 0.096174 -0.021166 708688.000000 0 0 1
26.100594 23.101352 -15.516979 38.153507 0.724516 1.989634 0.111589 -0.017863 -167238.000000 0 0 1
27.406494 23.608952 -15.427379 39.325596 0.711096 1.973926 0.102918 -0.004904 -141342.000000 0 0 1
28.173194 23.769552 -16.764879 40.494217 0.700822 1.997648 0.122143 -0.015117 -492042.000000 0 0 1
28.736394 22.627652 -17.239879 40.435187 0.667024 2.011259 0.122592 -0.022688 -230130.000000 0 0 1
28.620494 22.668152 -18.663879 41.003880 0.669859 2.043363 0.125937 -0.025363 -555197.000000 0 0 1
29.452194 21.571052 -19.424279 41.352685 0.632147 2.059773 0.115864 -0.035975 653591.000000 0 0 1
30.847294 21.850552 -19.494779 42.532911 0.616305 2.046929 0.108127 -0.026438 25615.200000 0 0 1
31.386594 21.044152 -20.529679 43.005143 0.590639 2.068464 0.134935 -0.035380 -1162750.000000 0 0 1
32.837694 21.326752 -20.734079 44.306280 0.575995 2.057790 0.129395 -0.036137 -1386580.000000 0 0 1
32.968494 22.619052 -21.312179 45.307307 0.601323 2.060531 0.107159 -0.021962 -248662.000000 0 0 1
34.325994 22.960352 -21.424979 46.523986 0.589541 2.049371 0.109948 -0.016870 -214087.000000 0 0 1
34.432994 24.345752 -22.020279 47.573515 0.615440 2.052025 0.110054 -0.017588 -111182.000000 0 0 1
34.449894 24.474852 -23.449679 48.329090 0.617704 2.077398 0.096672 -0.017692 292008.000000 0 0 1
33.164594 24.489252 -24.035279 47.721152 0.636046 2.098628 0.095702 -0.019509 -410151.000000 0 0 1
33.276394 24.790152 -25.534309 48.722386 0.640279 2.122428 0.104649 -0.029920 -108388.000000 0 0 1
33.389094 26.180152 -25.906089 49.712748 0.664966 2.118954 0.111734 -0.030353 817147.000000 0 0 1
32.108994 26.853952 -26.046079 49.300309 0.696509 2.127411 0.109196 -0.017892 1129520.000000 0 0 1
31.495794 26.700352 -27.461859 49.588784 0.703183 2.157708 0.106386 -0.019808 -128419.000000 0 0 1
31.029794 25.397052 -27.658509 48.711923 0.685904 2.174624 0.098384 -0.029298 -100845.000000 0 0 1
30.608394 25.123052 -29.005189 49.085053 0.687290 2.202991 0.096606 -0.038142 -75263.600000 0 0 1
29.912494 23.739452 -29.066309 47.991345 0.670845 2.221388 0.103930 -0.048980 44456.200000 0 0 1
28.627994 23.706452 -28.480559 46.826276 0.691634 2.224609 0.091192 -0.035370 54200.100000 0 0 1
27.964794 22.511452 -28.793819 46.020421 0.677778 2.246793 0.089158 -0.046051 -839240.000000 0 0 1
26.515094 22.431352 -28.358949 44.837994 0.702158 2.255542 0.067183 -0.031543 -840768.000000 0 0 1
26.450394 22.448552 -26.938769 43.923320 0.703741 2.231045 0.088162 -0.020159 382493.000000 0 0 1
25.125094 22.413852 -26.449859 42.816423 0.728428 2.236675 0.083974 -0.023600 -212561.000000 0 0 1
25.049294 22.522752 -24.910879 41.896221 0.732338 2.207546 0.100986 -0.018039 -191265.000000 0 0 1
25.350994 21.301452 -24.272579 41.055850 0.698813 2.203353 0.099838 -0.022789 511099.000000 0 0 1
25.864394 21.479952 -22.923679 40.692140 0.693054 2.169224 0.111277 -0.027695 132016.000000 0 0 1
26.433594 20.195052 -22.292779 40.044263 0.652396 2.161208 0.125179 -0.027448 542198.000000 0 0 1
27.687294 19.752852 -22.810479 40.952159 0.619680 2.161569 0.112663 -0.028781 476490.000000 0 0 1
28.322494 18.663652 -22.145179 40.508079 0.582655 2.149197 0.151433 -0.040633 156425.000000 0 0 1
29.664594 18.388252 -22.837179 41.709144 0.554903 2.150211 0.168061 -0.052273 -241061.000000 0 0 1
30.670094 17.829052 -22.052579 41.771353 0.526569 2.126964 0.172758 -0.054043 558816.000000 0 0 1
31.924994 17.705952 -22.760079 43.020078 0.506376 2.128285 0.160091 -0.050761 638135.000000 0 0 1
33.101894 17.236752 -21.901779 43.272727 0.480084 2.101492 0.149460 -0.041371 -38546.400000 0 0 1
33.873994 18.406552 -21.588179 44.184817 0.497749 2.081267 0.122838 -0.034810 1014440.000000 0 0 1
35.260594 18.091152 -21.311179 44.997395 0.474049 2.064181 0.112554 -0.028246 1312210.000000 0 0 1
36.013894 19.207352 -20.544279 45.694532 0.489956 2.037114 0.095267 -0.032701 -120264.000000 0 0 1
35.444294 19.427552 -19.254879 44.771398 0.501395 2.015368 0.122490 -0.030566 -47034.100000 0 0 1
36.034094 20.403352 -18.452979 45.335032 0.515214 1.990003 0.095465 -0.017805 -52452.900000 0 0 1
35.186094 20.612752 -17.153279 44.240046 0.529929 1.968966 0.093764 -0.023254 387841.000000 0 0 1
35.424794 19.499152 -16.285179 43.592889 0.503179 1.953656 0.093675 -0.033427 317360.000000 0 0 1
35.128294 19.866552 -14.961579 43.040977 0.514698 1.925820 0.087343 -0.021445 -287628.000000 0 0 1
35.272294 18.644452 -13.983779 42.276428 0.486254 1.907916 0.090627 -0.014885 640695.000000 0 0 1
36.638894 18.189652 -13.949079 43.218616 0.460810 1.899436 0.070468 -0.016041 742097.000000 0 0 1
36.945094 17.012352 -13.230279 42.771490 0.431532 1.885279 0.061763 0.002066 -105685.000000 0 0 1
36.999894 17.084452 -11.688479 42.396830 0.432577 1.850106 0.073476 -0.010523 -629984.000000 0 0 1
38.027394 17.921052 -11.288279 43.527830 0.440398 1.833130 0.063376 -0.014713 -424540.000000 0 0 1
37.893994 18.439452 -9.932179 43.296839 0.452875 1.802255 0.072948 -0.013714 -40444.100000 0 0 1
36.789794 19.506352 -9.649479 42.744580 0.487523 1.798507 0.077146 -0.012999 378014.000000 0 0 1
35.471994 19.054952 -9.885579 41.461768 0.492950 1.811542 0.071506 -0.019036 95737.400000 0 0 1
34.515194 20.106852 -9.859279 41.143523 0.527490 1.812782 0.052180 -0.003101 -54762.200000 0 0 1
33.074694 19.603752 -9.950979 39.714788 0.535043 1.824056 0.034849 0.002560 -296820.000000 0 0 1
32.642694 19.450152 -11.312179 39.646176 0.537363 1.860145 0.065697 -0.001150 133773.000000 0 0 1
31.425294 18.732152 -11.383479 38.314830 0.537536 1.872454 0.062916 -0.007063 -67413.000000 0 0 1
31.231194 18.026352 -12.799779 38.264489 0.523479 1.911879 0.106258 -0.009394 289337.000000 0 0 1
32.159494 16.980152 -13.148379 38.670899 0.485794 1.917721 0.098966 -0.006575 473630.000000 0 0 1
31.719394 16.277152 -14.307079 38.415597 0.474121 1.952421 0.093010 -0.009673 505901.000000 0 0 1
32.819594 15.346752 -14.920279 39.182435 0.437401 1.961447 0.111199 -0.026599 351551.000000 0 0 1
33.515994 14.420952 -14.152779 39.135493 0.406327 1.940818 0.093615 -0.021539 182116.000000 0 0 1
34.674294 13.980052 -14.845379 40.226033 0.383246 1.948782 0.103706 -0.021436 295557.000000 0 0 1
35.520694 13.031952 -13.956579 40.327875 0.351636 1.924184 0.073852 -0.031700 -82944.000000 0 0 1
36.471494 13.576352 -13.060979 41.049681 0.356354 1.894600 0.076002 -0.011946 260835.000000 0 0 1
37.047094 12.590452 -12.224479 40.993225 0.327604 1.873610 0.065730 -0.012949 143439.000000 0 0 1
-37.962004 13.103652 -11.207279 41.694394 -0.332373 1.842939 0.086928 -0.005394 -76227.200000 0 0 1
-36.744504 13.482252 -11.786979 40.876185 -0.351667 1.863308 0.076210 -0.009955 -369068.000000 0 0 1
-35.867904 13.913752 -10.766279 39.950116 -0.370046 1.843663 0.078037 -0.010076 636493.000000 0 0 1
-34.375704 14.206852 -11.224179 38.852359 -0.391903 1.863867 0.117855 -0.019644 1662080.000000 0 0 1
-33.498404 13.161852 -11.690679 37.842428 -0.374379 1.884865 0.138434 -0.032452 477396.000000 0 0 1
-33.474804 11.975652 -10.878379 37.179535 -0.343563 1.867731 0.164515 -0.024971 -703535.000000 0 0 1
-32.479504 10.837152 -11.241479 36.037937 -0.322046 1.888025 0.201242 -0.034565 144604.000000 0 0 1
-32.637404 10.337952 -12.537979 36.459214 -0.306754 1.921853 0.181490 -0.022196 372277.000000 0 0 1
-31.810804 9.172652 -12.655979 35.443456 -0.280735 1.935931 0.233855 -0.032969 150404.000000 0 0 1
-31.747704 8.576452 -14.044479 35.759189 -0.263846 1.974418 0.231209 -0.038863 -736154.000000 0 0 1
-32.959204 8.080452 -14.491279 36.899864 -0.240423 1.974383 0.178035 -0.028468 -532577.000000 0 0 1
-32.864504 7.371652 -15.723579 37.170523 -0.220652 2.007563 0.188909 -0.041105 -546416.000000 0 0 1
-34.180804 6.903452 -16.354879 38.515803 -0.199288 2.009347 0.190896 -0.045222 -608519.000000 0 0 1
-34.850404 6.101152 -15.419579 38.594535 -0.173311 1.981798 0.202208 -0.040714 -596796.000000 0 0 1
-35.873704 5.395652 -16.045779 39.667401 -0.149288 1.987237 0.159768 -0.046194 -449988.000000 0 0 1
-36.745004 4.757252 -14.934179 39.948172 -0.128750 1.953941 0.166757 -0.048941 1187180.000000 0 0 1
-37.874604 3.958952 -15.441879 41.092707 -0.104150 1.956036 0.158967 -0.045277 1307620.000000 0 0 1
37.216694 3.650352 -14.439379 40.086195 0.097771 1.939287 0.161981 -0.040287 678412.000000 0 0 1
35.991894 2.867352 -14.958479 39.081891 0.079499 1.963564 0.172739 -0.041718 -122178.000000 0 0 1
36.435694 1.561252 -15.328179 39.559453 0.042823 1.968684 0.174434 -0.040212 310725.000000 0 0 1
35.568994 0.426652 -15.125479 38.653790 0.011994 1.972847 0.152178 -0.027233 216684.000000 0 0 1
35.177294 0.060552 -13.626179 37.724242 0.001721 1.940356 0.166609 -0.038165 -622372.000000 0 0 1
36.257794 -0.290948 -12.846079 38.467311 -0.008024 1.911285 0.182853 -0.034508 -264010.000000 0 0 1
35.958494 -0.174748 -11.426679 37.730794 -0.004860 1.878475 0.192238 -0.032316 -37223.100000 0 0 1
36.005894 1.215652 -10.780779 37.604885 0.033750 1.861562 0.183211 -0.045560 -6545.180000 0 0 1
34.994394 2.113552 -11.220979 36.810122 0.060324 1.880561 0.171057 -0.034901 385717.000000 0 0 1
35.102894 3.391752 -10.651079 36.839688 0.096324 1.864103 0.148547 -0.037307 -640411.000000 0 0 1
33.973494 4.304852 -11.096379 35.998051 0.126040 1.884149 0.133338 -0.032935 -598638.000000 0 0 1
33.943194 4.763052 -12.419079 36.456283 0.139414 1.918412 0.141339 -0.033423 399344.000000 0 0 1
32.778294 5.522452 -12.670779 35.573342 0.166911 1.934981 0.131267 -0.035642 -62209.700000 0 0 1
32.821194 6.223452 -14.010879 36.225224 0.187392 1.967924 0.092071 -0.031800 -181599.000000 0 0 1
32.679394 5.262652 -15.034279 36.354750 0.159668 1.997139 0.096782 -0.023831 60905.600000 0 0 1
33.070694 5.864052 -16.253979 37.312863 0.175495 2.021516 0.099552 -0.030079 -659416.000000 0 0 1
32.079294 6.908652 -16.921679 36.920912 0.212122 2.046903 0.118181 -0.032614 124348.000000 0 0 1
30.863994 6.474252 -17.426079 36.030130 0.206769 2.075620 0.099252 -0.022267 -461741.000000 0 0 1
29.999194 5.703852 -16.641179 34.776636 0.187891 2.069760 0.085933 -0.017106 61732.100000 0 0 1
28.568294 5.639952 -17.365379 33.904466 0.194914 2.108524 0.065914 -0.008777 1152380.000000 0 0 1
28.531294 4.778752 -18.479979 34.327552 0.165951 2.139265 0.074288 -0.011634 593606.000000 0 0 1
27.346294 4.962752 -19.261979 33.815270 0.179524 2.176844 0.065095 -0.013537 397879.000000 0 0 1
26.849594 3.733352 -20.034179 33.707669 0.138161 2.207254 0.076273 -0.002077 -97338.900000 0 0 1
26.034594 2.966552 -19.180679 32.473049 0.113457 2.202678 0.084221 -0.010600 -93800.000000 0 0 1
25.495894 1.836252 -19.796479 32.331301 0.071897 2.229764 0.089666 -0.009934 -418927.000000 0 0 1
24.506494 1.102552 -18.882179 30.956753 0.044960 2.226798 0.095542 -0.014187 430980.000000 0 0 1
23.372794 1.940752 -18.610679 29.940130 0.082845 2.241575 0.096993 -0.025298 186229.000000 0 0 1
22.327194 1.297852 -17.940979 28.671706 0.058063 2.246874 0.121483 -0.035530 -152550.000000 0 0 1
21.094894 2.185352 -17.687279 27.615397 0.103228 2.265927 0.141380 -0.051286 -692314.000000 0 0 1
20.443194 2.528452 -18.917379 27.967561 0.123057 2.313666 0.133173 -0.035093 -105008.000000 0 0 1
19.262594 3.257152 -18.914879 27.192447 0.167508 2.340041 0.127162 -0.030650 -111043.000000 0 0 1
18.022794 2.612452 -18.250379 25.782210 0.143950 2.357270 0.189251 -0.061182 -840617.000000 0 0 1
17.969394 2.815252 -16.846779 24.791908 0.155406 2.317914 0.203104 -0.065326 -374458.000000 0 1 0
16.835594 2.236852 -16.271179 23.520034 0.132091 2.334776 0.166372 -0.047083 141508.000000 0 1 0
15.616294 3.198852 -16.148579 22.690921 0.202046 2.362677 0.161820 -0.046722 -134259.000000 0 1 0
14.895594 3.403052 -17.337079 23.109171 0.224606 2.419199 0.153858 -0.041931 -342132.000000 0 1 0
13.711694 4.064752 -17.024579 22.234411 0.288191 2.442904 0.136870 -0.049813 -637253.000000 0 1 0
-20.570906 -21.576348 -17.795479 34.718584 0.809249 2.108964 0.146062 -0.021950 95350.200000 0 0 1
-20.515506 -22.212348 -19.019079 35.721139 0.825090 2.132267 0.136907 -0.022285 -363619.000000 0 0 1
-21.738706 -22.160048 -19.692579 36.761893 0.794996 2.136108 0.145975 -0.019041 -470006.000000 0 0 1
-21.763506 -23.058148 -20.968479 38.013228 0.814274 2.155090 0.125904 -0.018817 -62670.800000 0 0 1
-21.894506 -24.435548 -20.694179 38.790649 0.840190 2.133510 0.104819 -0.024179 -161261.000000 0 0 1
-20.739006 -25.192378 -20.942079 38.772838 0.882053 2.141379 0.098664 -0.029918 -260501.000000 0 0 1
-20.940106 -26.674198 -20.567979 39.661602 0.905249 2.115994 0.094582 -0.005510 164111.000000 0 0 1
-22.053806 -27.348718 -21.147479 41.006568 0.892170 2.112632 0.106523 0.005966 337860.000000 0 0 1
-21.808306 -28.698818 -21.150679 41.792052 0.920988 2.101445 0.117433 -0.026184 -630142.000000 0 0 1
-23.054306 -29.509518 -21.453079 43.157239 0.907593 2.091039 0.108327 -0.027189 -213919.000000 0 0 1
-23.731706 -29.298188 -22.705579 44.012737 0.889984 2.112839 0.094940 -0.026012 235390.000000 0 0 1
-23.144706 -29.816258 -23.871179 44.660048 0.910709 2.134723 0.086354 -0.029522 -484026.000000 0 0 1
-23.750606 -29.063148 -25.089579 45.146925 0.885651 2.160039 0.080479 -0.019964 -401636.000000 0 0 1
-25.113616 -29.360908 -25.254629 46.157913 0.863209 2.149734 0.080961 -0.015896 -154308.000000 0 0 1
-25.646516 -28.615318 -26.321289 46.576716 0.840056 2.171371 0.078506 -0.008740 -134795.000000 0 0 1
-25.125866 -28.888668 -27.765009 47.294398 0.854949 2.198228 0.085486 -0.018916 -467432.000000 0 0 1
-25.648456 -30.084798 -28.253719 48.592294 0.864830 2.191299 0.073016 -0.014007 165218.000000 0 0 1
-25.191356 -30.261358 -29.592169 49.254956 0.876574 2.215293 0.108666 -0.018962 -162828.000000 0 0 1
-25.831986 -31.385298 -30.347649 50.727786 0.882152 2.212106 0.083317 -0.018632 -408422.000000 0 0 1
-25.482516 -32.746728 -29.942009 51.168650 0.909509 2.195878 0.095152 -0.030340 307756.000000 0 0 1
-26.308146 33.702562 -30.472719 52.503027 -0.907998 2.190015 0.088933 -0.026700 161258.000000 0 0 1
-25.531276 32.357366 -30.519209 51.286132 -0.902774 2.208158 0.088450 -0.019815 511369.000000 0 0 1
-24.532206 32.356345 -31.549589 51.421190 -0.922075 2.231348 0.117462 -0.034521 -165240.000000 0 0 1
-23.567106 31.374202 -31.208539 50.137032 -0.926552 2.242684 0.119728 -0.026102 -25142.900000 0 0 1
-22.371306 31.633234 -32.181669 50.366622 -0.955248 2.263927 0.114359 -0.027872 -145280.000000 0 0 1
-22.424306 31.289182 -33.561769 51.071075 -0.948964 2.287838 0.103984 -0.022484 105910.000000 0 0 1
-21.904106 29.976542 33.598999 50.072704 -0.939757 0.835234 0.086816 -0.011105 59487.200000 0 0 1
-22.066506 29.587452 32.123782 48.931435 -0.929985 0.854619 0.074909 -0.008436 165372.000000 0 0 1
-21.187206 30.348652 31.299306 48.472517 -0.961329 0.868840 0.075605 -0.018665 533580.000000 0 0 1
-21.341606 30.008762 29.902329 47.435632 -0.952607 0.888758 0.088449 -0.017133 -107231.000000 0 0 1
-20.858406 31.111192 28.973879 47.354673 -0.980181 0.912401 0.093607 -0.033666 -272439.000000 0 0 1
-21.783806 32.158792 28.887989 48.407004 -0.975412 0.931323 0.088695 -0.030435 255066.000000 0 0 1
-21.182006 33.310015 28.286869 48.563169 -1.004394 0.949025 0.101257 -0.045801 -471659.000000 0 0 1
-22.054906 -32.992058 28.364259 48.779360 0.981532 0.950249 0.119053 -0.052261 -596730.000000 0 0 1
-22.213706 -32.484668 29.685319 49.294225 0.971011 0.924534 0.104817 -0.034490 179958.000000 0 0 1
-23.539506 -32.092588 29.994159 49.836655 0.937947 0.924982 0.123036 -0.037655 50987.500000 0 0 1
-24.043006 -30.689438 29.561489 48.926367 0.906241 0.922030 0.129894 -0.024505 -379826.000000 0 0 1
-24.041206 -30.526628 28.124849 47.967299 0.903694 0.944271 0.087232 -0.025074 -82288.300000 0 0 1
-23.976806 -29.157208 27.837659 46.903788 0.882588 0.935389 0.081511 -0.025892 -733228.000000 0 0 1
-25.264966 -28.489988 27.373629 46.896839 0.845321 0.947520 0.088931 -0.011620 -828394.000000 0 0 1
-26.329966 -28.537848 28.296159 48.045276 0.825616 0.941040 0.108586 -0.009803 197064.000000 0 0 1
-27.240136 -29.626158 28.245539 49.168534 0.827332 0.958848 0.099745 -0.022877 190953.000000 0 0 1
-28.192176 -29.765548 26.978319 49.077656 0.812538 0.988783 0.065482 -0.001599 29815.400000 0 0 1
-27.485886 -29.895968 25.746709 48.084674 0.827374 1.005762 0.062093 -0.007436 -212524.000000 0 0 1
-28.336226 -29.740718 24.665579 47.914954 0.809577 1.030047 0.052563 -0.009743 -785383.000000 0 0 1
-27.623996 -29.809078 23.379179 46.885524 0.823426 1.048763 0.046486 -0.007844 -1112850.000000 0 0 1
-27.029716 -28.590648 22.947759 45.548111 0.813455 1.042788 0.028720 -0.010477 481690.000000 0 0 1
-26.253376 -28.625848 21.749689 44.516603 0.828602 1.060341 0.051009 -0.018893 -356173.000000 0 0 1
-25.044726 -29.531448 21.630189 44.353239 0.867424 1.061366 0.058638 -0.024820 -1392510.000000 0 0 1
-25.318836 -30.927968 21.605589 45.435495 0.884793 1.075239 0.066954 -0.036193 334295.000000 0 0 1
-24.185306 -31.637428 21.123189 45.078210 0.918110 1.083103 0.069015 -0.019125 443723.000000 0 0 1
-23.184706 -32.222288 22.146389 45.456232 0.947087 1.061913 0.076261 -0.025048 -74568.500000 0 0 1
-22.523006 -31.330428 23.028759 44.935568 0.947507 1.032721 0.089995 -0.035171 260151.000000 0 0 1
-21.780606 -32.107948 23.945599 45.592838 0.974745 1.017840 0.100337 -0.048009 -228808.000000 0 0 1
-20.970206 -31.243838 24.948739 45.148273 0.979676 0.985321 0.100231 -0.034382 55971.500000 0 0 1
-19.810006 -30.556138 24.447289 43.860961 0.995606 0.979568 0.110650 -0.038040 988896.000000 0 0 1
-19.043706 -29.895078 25.450159 43.635869 1.003601 0.948085 0.119219 -0.036523 311.458000 0 0 1
-18.125606 -30.754868 26.309259 44.346100 1.038239 0.935680 0.102691 -0.047788 -804771.000000 0 0 1
-18.838606 -31.519868 27.257319 45.731353 1.032089 0.932247 0.124132 -0.049410 621286.000000 0 0 1
-17.925506 -32.070258 28.217349 46.325414 1.061112 0.915856 0.131918 -0.043351 146272.000000 0 0 1
-18.009406 -31.422728 29.628229 46.792719 1.050366 0.885141 0.148820 -0.038784 -24445.700000 0 0 1
-17.686306 -30.020318 29.577559 45.704014 1.038397 0.866950 0.140803 -0.030549 278988.000000 0 0 1
-18.096506 -29.375328 30.766049 46.227083 1.018663 0.842577 0.130076 -0.027741 -161751.000000 0 0 1
-17.957706 -27.842988 30.679369 45.154567 0.997970 0.823811 0.128317 -0.028357 -4230.500000 0 0 1
-18.946906 -27.158908 29.917609 44.627961 0.961662 0.836078 0.113596 -0.027163 210863.000000 0 0 1
-18.960306 -27.250108 28.502379 43.754397 0.962903 0.861345 0.113304 -0.021925 -168910.000000 0 0 1
-17.720406 -26.744548 27.722999 42.401042 0.985628 0.858163 0.099524 -0.024220 70966.100000 0 0 1
-17.600606 -25.371038 27.855509 41.586059 0.964292 0.836819 0.084247 -0.018632 906173.000000 0 0 1
-16.382006 -25.040638 27.136909 40.395736 0.991462 0.834192 0.076786 -0.021318 847630.000000 0 0 1
-16.423506 -23.715448 26.277899 39.021558 0.965106 0.831971 0.052943 -0.014409 -499784.000000 0 0 1
-17.426006 -23.758848 25.292249 38.830998 0.937969 0.861445 0.083679 -0.019361 -218014.000000 0 0 1
-17.461606 -22.636648 24.403619 37.588059 0.913748 0.864213 0.074073 -0.029085 -34353.100000 0 0 1
-18.003506 -21.323048 24.981469 37.454938 0.869608 0.840656 0.063291 -0.022322 -277190.000000 0 0 1
-17.668006 -20.276548 24.060369 36.085983 0.854036 0.840955 0.071644 -0.022928 167498.000000 0 0 1
-18.296206 -19.090248 24.427849 35.998730 0.806634 0.824975 0.061590 -0.011111 -148279.000000 0 0 1
-17.797806 -17.899948 23.613009 34.565073 0.788259 0.818734 0.070868 -0.023475 -910700.000000 0 0 1
-16.492606 -17.534448 23.881789 33.908742 0.816007 0.789365 0.080061 -0.028958 -947472.000000 0 0 1
-16.123506 -16.468948 23.061809 32.604306 0.795997 0.785091 0.091114 -0.027034 311897.000000 0 0 1
-14.704706 -15.917848 23.397039 31.890872 0.824993 0.747105 0.111749 -0.041550 -88443.300000 0 0 1
-13.661506 -16.755248 22.992389 31.559864 0.886761 0.754619 0.088572 -0.035319 -89828.900000 0 0 1
-12.374906 -16.215148 23.254029 30.932494 0.918920 0.720059 0.104830 -0.047089 -177629.000000 0 0 1
-11.716506 -15.590148 22.046589 29.434356 0.926315 0.724232 0.129320 -0.051311 -473397.000000 0 0 1
-11.164306 -16.446948 21.085189 28.978078 0.974436 0.755942 0.152769 -0.047305 326362.000000 0 0 1
-9.899806 -17.023448 21.419089 29.096071 1.044061 0.743431 0.143326 -0.046346 -148796.000000 0 0 1
-9.560706 -18.209148 20.469289 29.016753 1.087310 0.787767 0.131337 -0.040168 -17286.400000 0 0 1
-9.399206 -17.909848 19.125489 27.836883 1.087501 0.813367 0.118459 -0.037692 -84796.900000 0 0 1
-9.060206 -19.153648 18.470689 28.109001 1.128958 0.853819 0.108729 -0.035174 186633.000000 0 0 1
-8.699906 -18.885648 16.971289 26.839909 1.139111 0.886258 0.101971 -0.047041 -38171.900000 0 0 1
-7.467206 -18.229248 16.784489 25.880180 1.182018 0.865124 0.110308 -0.040368 -269758.000000 0 0 1
-7.249806 -18.042148 15.400489 24.804311 1.188717 0.900932 0.122167 -0.034920 34664.200000 0 1 0
-6.240406 -16.888548 15.199789 23.562668 1.216852 0.869669 0.093932 -0.036230 -184318.000000 0 1 0
-6.552306 -15.626248 15.748689 23.132954 1.173752 0.821955 0.102237 -0.041290 269674.000000 0 1 0
-5.397806 -14.793048 15.601989 22.167378 1.220920 0.790026 0.073570 -0.022457 617095.000000 0 1 0
-5.389506 -13.565748 16.526689 22.050119 1.192630 0.723481 0.052814 -0.019876 -356540.000000 0 1 0
-5.057306 -13.941648 17.872089 23.224071 1.222810 0.692660 0.076909 -0.022143 113150.000000 0 1 0
-5.942006 -14.712848 18.688989 24.516395 1.186962 0.703928 0.112509 -0.039003 -429762.000000 0 1 0
-7.349306 -14.266348 19.022489 24.887669 1.095102 0.700789 0.147355 -0.051148 -642224.000000 0 1 0
-7.295006 -13.456848 20.196689 25.341865 1.074036 0.648535 0.134850 -0.049265 -800876.000000 0 0 1
-8.433306 -12.740348 20.507689 25.573471 0.986075 0.640307 0.132286 -0.044440 -630978.000000 0 0 1
-8.244506 -11.736648 21.680789 25.995719 0.958422 0.584453 0.135134 -0.040073 -347387.000000 0 0 1
-7.585106 -10.493948 21.501589 25.099305 0.944927 0.542035 0.098495 -0.028929 317864.000000 0 0 1
-7.236706 -9.851848 22.747699 25.824148 0.937255 0.493101 0.090989 -0.029124 61258.800000 0 0 1
-5.866706 -10.311748 23.290819 26.138336 1.053533 0.471122 0.092106 -0.023571 -311286.000000 0 0 1
-5.696006 -11.579748 23.811479 27.083603 1.113655 0.496649 0.113667 -0.027463 505415.000000 0 0 1
-4.334706 -11.687148 24.251469 27.267432 1.215629 0.474780 0.093892 -0.022756 204984.000000 0 0 1
-4.087306 -13.076548 24.892549 28.413750 1.267850 0.503137 0.111513 -0.036854 27750.600000 0 0 1
-2.758606 -13.298248 25.350569 28.759427 1.366256 0.491831 0.094740 -0.035299 228164.000000 0 0 1
-2.694606 -14.456548 26.182839 30.029881 1.386518 0.511742 0.104145 -0.033424 896.927000 0 0 1
-2.533106 -15.858648 25.580959 30.204284 1.412404 0.560609 0.128422 -0.062068 -139274.000000 0 0 1
-1.290906 -16.063848 24.940419 29.694076 1.490608 0.573675 0.115967 -0.065844 33190.700000 0 0 1
-1.256906 -17.203348 24.145819 29.674157 1.497864 0.620310 0.136046 -0.062947 313199.000000 0 0 1
0.203494 -17.785048 24.136839 29.982267 -1.559355 0.635058 0.128723 -0.066474 936736.000000 0 0 1
0.752394 -18.401748 25.307089 31.299188 -1.529932 0.629106 0.133286 -0.067484 162681.000000 0 0 1
0.994594 -17.556248 26.414059 31.731901 -1.514205 0.587348 0.133033 -0.066580 -360043.000000 0 0 1
1.879394 -18.031148 27.613669 33.032849 -1.466941 0.580943 0.104579 -0.048600 -813880.000000 0 0 1
3.223994 -18.234648 27.352009 33.030727 -1.395799 0.595126 0.110479 -0.054029 -456150.000000 0 0 1
4.010894 -18.523548 28.520439 34.243606 -1.357559 0.586525 0.129011 -0.056748 393184.000000 0 0 1
4.822494 -17.278548 28.937979 34.047192 -1.298620 0.554930 0.139729 -0.053846 -860007.000000 0 0 1
4.010494 -16.249748 29.396529 33.827419 -1.328828 0.517589 0.153297 -0.059627 -213245.000000 0 0 1
4.689194 -15.178648 30.036179 33.978698 -1.271164 0.486508 0.178880 -0.069776 -80784.700000 0 0 1
3.697594 -14.281148 30.790549 34.142075 -1.317445 0.446796 0.180145 -0.072606 -11071.200000 0 0 1
3.093594 -14.967548 31.830384 35.309647 -1.366980 0.447656 0.170233 -0.075218 -400909.000000 0 0 1
1.953294 -14.253248 32.227995 35.293259 -1.434603 0.419853 0.173011 -0.068480 -515466.000000 0 0 1
1.198194 -14.849448 33.380499 36.554062 -1.490281 0.419773 0.161188 -0.063244 -252616.000000 0 0 1
1.781094 -14.576648 -32.850459 35.983380 -1.449211 2.721213 0.176337 -0.057457 -199397.000000 0 0 1
1.031194 -15.329148 -31.896709 35.404042 -1.503627 2.692714 0.153394 -0.064443 444453.000000 0 0 1
1.707094 -15.326848 -30.495129 34.172787 -1.459874 2.673389 0.151003 -0.049996 -97045.600000 0 0 1
1.219494 -16.246048 -29.616729 33.801951 -1.495873 2.638683 0.121754 -0.044331 -397435.000000 0 0 1
1.639694 -15.952648 -28.267619 32.499752 -1.468371 2.625552 0.137846 -0.038748 284912.000000 0 0 1
1.389494 -17.128148 -27.341859 32.293675 -1.489850 2.580479 0.126897 -0.037194 439465.000000 0 0 1
2.370794 -18.121948 -27.684979 33.173540 -1.440711 2.558112 0.119978 -0.033167 425322.000000 0 0 1
2.158294 -19.333548 -27.089579 33.351006 -1.459622 2.518807 0.102905 -0.042866 -298249.000000 0 0 1
3.253294 -20.353848 -27.544919 34.403279 -1.412300 2.499172 0.083586 -0.032931 879776.000000 0 0 1
4.589394 -20.210748 -27.066019 34.089680 -1.347506 2.488100 0.097934 -0.029557 461630.000000 0 0 1
4.759494 -20.429448 -25.697029 33.171561 -1.341907 2.456990 0.112004 -0.027329 -974975.000000 0 0 1
6.198994 -20.817848 -25.253969 33.310258 -1.281384 2.431258 0.092366 -0.024604 298670.000000 0 0 1
6.568094 -22.195148 -25.493889 34.434036 -1.283082 2.404415 0.092251 -0.018253 222521.000000 0 0 1
6.741794 -22.604248 -26.833129 35.727030 -1.280943 2.420462 0.083278 -0.018165 -722578.000000 0 0 1
5.982794 -23.874448 -27.156469 36.650470 -1.325259 2.405293 0.073319 -0.016051 -292212.000000 0 0 1
6.346294 -24.969448 -26.319969 36.830552 -1.321904 2.366882 0.085033 -0.009322 58403.600000 0 0 1
5.735694 -26.149838 -26.828739 37.901101 -1.354876 2.357263 0.094759 -0.013939 -16966.500000 0 0 1
5.948794 -27.472718 -26.150879 38.392797 -1.357554 2.320115 0.110859 -0.025032 567287.000000 0 0 1
7.338094 -27.806688 -26.067489 38.814604 -1.312782 2.307149 0.121278 -0.027414 552438.000000 0 0 1
7.616494 -28.859128 -25.186159 39.053846 -1.312760 2.271700 0.125303 -0.041522 -8758.900000 0 0 1
9.099894 -29.262238 -25.053579 39.582426 -1.269299 2.256150 0.124864 -0.046241 -9781.420000 0 0 1
9.601094 -29.817568 -26.252209 40.871101 -1.259285 2.268314 0.134380 -0.041682 -1230720.000000 0 0 1
10.952294 -30.052588 -26.157779 41.319973 -1.221318 2.256289 0.162601 -0.028972 -1010240.000000 0 0 1
11.605594 -30.056138 -27.561949 42.399555 -1.202303 2.278450 0.155534 -0.044836 -58177.700000 0 0 1
11.319594 -31.178118 -28.371899 43.648287 -1.222533 2.278396 0.169956 -0.054747 10425.300000 0 0 1
11.848594 -30.937798 -29.664949 44.469605 -1.205047 2.301084 0.153741 -0.022932 55154.000000 0 0 1
-35.347552 -5.129848 -5.056079 36.073934 0.144120 1.711418 0.277857 -0.052253 123258.000000 0 0 1
-34.821775 -4.160948 -4.170679 35.316626 0.118929 1.689166 0.246746 -0.058811 371136.000000 0 0 1
-34.062259 -3.133648 -4.770979 34.537219 0.091739 1.709380 0.249556 -0.063371 -412045.000000 0 0 1
-34.948936 -2.072148 -5.435079 35.429677 0.059221 1.724809 0.256384 -0.049153 -191155.000000 0 0 1
-36.009236 -1.644948 -4.596179 36.338627 0.045650 1.697618 0.179686 -0.040651 316276.000000 0 0 1
-36.723316 -0.553048 -5.183579 37.091472 0.015059 1.711007 0.165998 -0.042059 1185710.000000 0 0 1
-38.026536 -0.150348 -4.361779 38.276170 0.003954 1.685000 0.164620 -0.035987 1026290.000000 0 0 1
-37.660586 0.457452 -3.146379 37.794560 -0.012146 1.654142 0.156052 -0.027163 -128114.000000 0 0 1
37.365511 1.253852 -2.647179 37.480143 0.033544 1.641484 0.142008 -0.021616 -813018.000000 0 0 1
37.958881 2.256352 -1.575279 38.058498 0.059372 1.612199 0.128148 -0.015355 437518.000000 0 0 1
-37.350066 3.368152 -1.990079 37.554392 -0.089935 1.623813 0.153904 -0.038364 -105607.000000 0 0 1
-36.153226 3.121352 -2.682279 36.386718 -0.086123 1.644579 0.122877 -0.005965 -728505.000000 0 0 1
-35.378926 4.460652 -2.960779 35.781728 -0.125420 1.653637 0.111996 -0.005879 -9839.510000 0 0 1
-34.764655 4.951152 -1.792979 35.161199 -0.141468 1.621812 0.130052 -0.019679 179050.000000 0 0 1
-34.645690 6.370652 -1.818479 35.273445 -0.181849 1.622373 0.173531 -0.035247 -140903.000000 0 0 1
-34.020455 6.881252 -0.481679 34.712750 -0.199575 1.584673 0.208587 -0.045911 -390662.000000 0 0 1
-32.618376 6.750452 -0.472379 33.312914 -0.204072 1.584977 0.238081 -0.036695 64433.600000 0 0 1
-32.003076 7.107952 0.740821 32.791290 -0.218555 1.548202 0.272521 -0.051877 -47794.300000 0 0 1
-31.884336 8.598852 1.193421 33.045051 -0.263422 1.534674 0.296033 -0.060370 -169299.000000 0 0 1
-33.178156 9.165452 1.330721 34.446573 -0.269528 1.532155 0.252544 -0.055026 287279.000000 0 0 1
-33.181506 10.458352 1.892021 34.842061 -0.305330 1.516467 0.272241 -0.047125 -826126.000000 0 0 1
-34.560515 11.074152 1.829521 36.337490 -0.310091 1.520427 0.248857 -0.052315 -1422960.000000 0 0 1
-34.965200 11.434252 0.549421 36.791428 -0.316056 1.555862 0.200685 -0.045408 583331.000000 0 0 1
-36.053916 12.361152 0.449421 38.116728 -0.330293 1.559005 0.181424 -0.033896 937543.000000 0 0 1
-37.497726 11.803752 0.650421 39.317059 -0.304966 1.554253 0.184995 -0.051123 161255.000000 0 0 1
-37.942926 10.923452 -0.374779 39.485794 -0.280312 1.580288 0.181166 -0.040069 267663.000000 0 0 1
36.848031 10.346652 -0.065179 38.273161 0.273743 1.572499 0.167475 -0.041395 393843.000000 0 0 1
36.405291 9.238452 -0.996779 37.572433 0.248521 1.597329 0.161343 -0.028169 -7840.130000 0 0 1
35.794621 9.698452 -2.168379 37.148576 0.264594 1.629200 0.146935 -0.024162 -115486.000000 0 0 1
35.401161 8.579452 -2.891079 36.540491 0.237765 1.649999 0.138544 -0.031114 -344704.000000 0 0 1
34.886751 8.937052 -4.272279 36.265805 0.250780 1.688875 0.102932 -0.018283 579271.000000 0 0 1
33.543531 9.451652 -4.290979 35.112885 0.274652 1.693308 0.152729 -0.023255 1116210.000000 0 0 1
33.191651 9.750052 -5.668079 35.055332 0.285713 1.733199 0.125695 -0.011975 172448.000000 0 0 1
31.702031 10.125352 -5.936779 33.805130 0.309151 1.747330 0.179066 -0.020454 155592.000000 0 0 1
30.854591 9.013652 -5.841679 32.670735 0.284224 1.750568 0.218697 -0.008277 272814.000000 0 0 1
29.507891 9.418852 -5.990679 31.548671 0.308975 1.761843 0.252823 -0.011682 421291.000000 0 0 1
28.415791 8.298352 -6.084679 30.221567 0.284132 1.773518 0.282752 -0.003533 282639.000000 0 0 1
28.625791 7.491752 -7.238579 30.462424 0.255972 1.810715 0.263615 -0.009760 1192730.000000 0 0 1
27.692791 6.362152 -7.219979 29.317158 0.225822 1.819628 0.325256 -0.007748 530517.000000 0 0 1
28.014091 5.381952 -8.336979 29.719689 0.189803 1.855133 0.299860 -0.026148 -560985.000000 0 0 1
29.139691 4.584452 -8.190179 30.614013 0.156048 1.841625 0.267742 -0.024103 15019.100000 0 0 1
29.132991 3.608552 -9.213179 30.767442 0.123237 1.874908 0.248364 -0.021193 -449606.000000 0 0 1
30.100991 2.457252 -8.902879 31.486013 0.081453 1.857463 0.195685 -0.017769 218650.000000 0 0 1
31.464121 2.821152 -9.220079 32.908352 0.089423 1.854772 0.162260 -0.011290 1667970.000000 0 0 1
32.466511 2.300152 -8.327179 33.596234 0.070729 1.821268 0.142078 -0.015570 205114.000000 0 0 1
32.561641 0.772852 -8.020379 33.543766 0.023731 1.812237 0.124715 -0.022222 -972341.000000 0 0 1
31.619411 0.280152 -7.072379 32.401916 0.008860 1.790838 0.183796 -0.020637 297182.000000 0 0 1
31.707721 -1.122348 -6.715579 32.430514 -0.035382 1.779381 0.188460 -0.028030 -176416.000000 0 0 1
31.445901 -2.207348 -7.746579 32.461154 -0.070080 1.811763 0.175439 -0.029288 -62844.500000 0 0 1
32.389561 -2.233148 -8.793179 33.636150 -0.068838 1.835290 0.151899 -0.018806 469526.000000 0 0 1
32.000131 -3.380448 -9.572579 33.571864 -0.105248 1.859946 0.130288 -0.032281 281528.000000 0 0 1
32.868951 -3.560948 -10.872179 34.803054 -0.107917 1.888506 0.144341 -0.025065 1507770.000000 0 0 1
34.255771 -3.847948 -10.546179 36.048390 -0.111861 1.867695 0.185987 -0.017665 1136190.000000 0 0 1
35.135221 -4.002148 -11.629979 37.225762 -0.113418 1.888533 0.189130 -0.039989 444088.000000 0 0 1
36.568701 -4.339048 -11.105979 38.463489 -0.118103 1.863708 0.235689 -0.044174 107089.000000 0 0 1
36.639191 -5.505748 -10.281379 38.450622 -0.149153 1.841482 0.235661 -0.050346 545193.000000 0 0 1
37.964561 -5.746948 -9.827179 39.634691 -0.150236 1.821354 0.252645 -0.049965 284038.000000 0 0 1
-37.913026 -7.010048 -8.912679 39.572392 0.182833 1.797970 0.259115 -0.062869 -198476.000000 0 0 1
37.460761 -6.902648 -7.681579 38.858227 -0.182219 1.769789 0.274224 -0.056067 408705.000000 0 0 1
37.455611 -8.152848 -7.027779 38.971546 -0.214324 1.752119 0.280740 -0.057085 -387633.000000 0 0 1
36.775571 -8.147948 -5.652179 38.089090 -0.218037 1.719740 0.286098 -0.052175 -1195270.000000 0 0 1
37.517951 -7.626148 -4.600879 38.560639 -0.200535 1.690397 0.304078 -0.050217 248051.000000 0 0 1
37.931371 -8.529948 -3.589179 39.043964 -0.221199 1.662853 0.313365 -0.053010 -280643.000000 0 0 1
-36.914416 -9.381948 -4.024079 38.299978 0.248885 1.676058 0.296765 -0.057117 -1109310.000000 0 0 1
-37.241196 -10.333948 -5.007179 38.971388 0.270677 1.699636 0.296637 -0.058212 28421.400000 0 0 1
-36.114866 -10.841748 -5.683879 38.133103 0.291642 1.720408 0.235449 -0.053661 -232542.000000 0 0 1
-36.504636 -11.670048 -6.963879 38.952203 0.309419 1.750543 0.252021 -0.051500 -323649.000000 0 0 1
-37.022656 -10.849348 -8.023779 39.405158 0.285065 1.775853 0.214539 -0.056272 196692.000000 0 0 1
-37.499136 -11.670148 -9.048679 40.302062 0.301710 1.797248 0.221009 -0.051158 -165719.000000 0 0 1
-37.660196 -10.873848 -10.349279 40.541812 0.281091 1.828928 0.209204 -0.053407 87207.800000 0 0 1
37.356491 -9.904848 -10.456879 40.036980 -0.259180 1.835041 0.201402 -0.057652 447757.000000 0 0 1
37.308541 -9.418448 -11.777379 40.241037 -0.247281 1.867815 0.180190 -0.058734 -122306.000000 0 0 1
36.108981 -8.476348 -12.006679 38.985476 -0.230569 1.883864 0.175665 -0.049152 -264384.000000 0 0 1
36.039791 -7.956848 -13.332879 39.242115 -0.217294 1.917457 0.175698 -0.045992 -595427.000000 0 0 1
34.925531 -7.246848 -13.676579 38.201549 -0.204591 1.936933 0.136066 -0.043549 -1149230.000000 0 0 1
35.158541 -6.220148 -14.819079 38.657707 -0.175105 1.964207 0.134101 -0.041576 72599.600000 0 0 1
36.045951 -5.158348 -14.471879 39.183599 -0.142140 1.949090 0.138244 -0.021722 310262.000000 0 0 1
36.289981 -4.303148 -15.514979 39.701314 -0.118026 1.972289 0.150603 -0.029997 -439173.000000 0 0 1
37.663171 -3.646448 -15.417979 40.859823 -0.096517 1.957717 0.165317 -0.024794 -696639.000000 0 0 1
-37.844826 -3.307748 -16.673679 41.487151 0.087181 1.984387 0.167619 -0.024853 -691613.000000 0 0 1
-36.554926 -2.813148 -16.674479 40.276727 0.076805 1.997638 0.199047 -0.023854 -778655.000000 0 0 1
-36.262926 -1.363248 -16.209279 39.744170 0.037576 1.990884 0.186156 -0.026064 -447404.000000 0 0 1
-36.591986 -0.392248 -17.179279 40.425919 0.010719 2.009711 0.151145 -0.023791 120659.000000 0 0 1
-36.623276 0.890152 -16.586779 40.214152 -0.024301 1.995951 0.154516 -0.030626 -64897.200000 0 0 1
-36.799406 2.019852 -17.751179 40.906973 -0.054833 2.019658 0.132402 -0.035026 618667.000000 0 0 1
-35.651659 2.337452 -18.548979 40.256293 -0.065470 2.049661 0.118715 -0.023850 520432.000000 0 0 1
-35.976866 3.416152 -19.384279 41.009210 -0.094670 2.063127 0.112704 -0.019109 73739.900000 0 0 1
-35.022780 3.547052 -20.616479 40.794802 -0.100934 2.100607 0.110496 -0.014338 -99919.900000 0 0 1
-33.706436 3.858152 -20.221379 39.495739 -0.113967 2.108295 0.119907 -0.013526 -116896.000000 0 0 1
-33.052056 4.307752 -21.403579 39.611972 -0.129602 2.141627 0.112164 -0.013943 -211425.000000 0 0 1
-31.540966 4.575752 -21.267479 38.315476 -0.144068 2.159234 0.122464 -0.015869 216844.000000 0 0 1
-30.736246 3.547752 -20.683879 37.217284 -0.114917 2.160073 0.125299 -0.004063 -729863.000000 0 0 1
-29.421716 3.754652 -21.064779 36.379386 -0.126929 2.188336 0.095632 -0.000046 -914140.000000 0 0 1
-28.468626 2.739752 -20.419179 35.141312 -0.095942 2.190826 0.127879 -0.004383 -99000.500000 0 0 1
-28.258536 2.938052 -19.006279 34.182096 -0.103598 2.160398 0.123848 -0.001320 406560.000000 0 0 1
-27.302706 1.998052 -18.469779 33.023669 -0.073051 2.164324 0.115244 -0.002290 484352.000000 0 0 1
-26.563076 2.436852 -17.152879 31.713665 -0.091482 2.142264 0.100114 -0.005750 209485.000000 0 0 1
-25.421896 3.245352 -17.312479 30.927772 -0.126973 2.164906 0.091576 -0.007236 -68028.100000 0 0 1
-24.626306 3.256752 -16.128179 29.617217 -0.131484 2.146654 0.100289 -0.017991 79945.600000 0 0 1
-23.440206 4.230152 -16.348579 28.889678 -0.178544 2.172317 0.122248 -0.022306 -434491.000000 0 0 1
-22.392306 3.679152 -17.075379 28.399298 -0.162849 2.215874 0.149418 -0.034253 -509352.000000 0 0 1
-21.301406 4.591352 -17.110779 27.705761 -0.212294 2.236470 0.140551 -0.036345 126569.000000 0 0 1
-20.045606 3.836252 -17.636679 26.973980 -0.189090 2.283445 0.203822 -0.050548 -76876.500000 0 0 1
-19.578106 2.891752 -16.639479 25.856078 -0.146643 2.269914 0.253593 -0.052186 613.708000 0 0 1
-18.491906 2.139552 -17.113079 25.286078 -0.115190 2.314174 0.192721 -0.054858 -824276.000000 0 0 1
-18.336106 0.759752 -16.465979 24.656003 -0.041411 2.302084 0.227953 -0.052283 864599.000000 0 1 0
-19.294106 -0.261748 -16.908079 25.655685 0.013565 2.290336 0.181408 -0.038266 1064750.000000 0 0 1
-20.647106 0.023152 -16.585479 26.483611 -0.001121 2.247536 0.191398 -0.042051 -710756.000000 0 0 1
-21.568106 -1.071648 -17.077479 27.531290 0.049646 2.239913 0.164391 -0.047478 -467182.000000 0 0 1
-21.325706 -2.269248 -16.372579 26.981412 0.106010 2.222837 0.161809 -0.040412 348141.000000 0 0 1
-22.151306 -3.246648 -16.941479 28.075520 0.145531 2.218586 0.142892 -0.029033 -100337.000000 0 0 1
-22.424906 -4.320148 -15.889979 27.821422 0.190318 2.178693 0.150114 -0.036944 157730.000000 0 0 1
-23.204806 -3.888748 -14.740779 27.764653 0.166041 2.130481 0.138652 -0.037997 674852.000000 0 0 1
-23.931306 -4.924748 -14.120879 28.219848 0.202954 2.094843 0.155045 -0.045582 34363.500000 0 0 1
-24.025106 -4.601348 -12.645779 27.537136 0.189231 2.047920 0.148054 -0.052718 161559.000000 0 0 1
-24.809006 -3.421248 -12.388979 27.940625 0.137039 2.030189 0.125423 -0.040769 642921.000000 0 0 1
-24.813906 -3.000248 -11.048979 27.327850 0.120326 1.987023 0.143603 -0.056939 -257940.000000 0 0 1
-25.702006 -1.737248 -10.939379 27.987161 0.067489 1.972374 0.169113 -0.047148 -121984.000000 0 0 1
-25.890806 -1.372748 -9.563379 27.634698 0.052971 1.924169 0.162300 -0.059699 362315.000000 0 0 1
-26.497276 -0.118448 -9.373179 28.106515 0.004470 1.910797 0.172905 -0.060337 -187036.000000 0 0 1
-26.606116 0.377852 -7.893879 27.755027 -0.014201 1.859190 0.195153 -0.061039 117407.000000 0 0 1
-25.325166 0.563152 -7.314479 26.366319 -0.022233 1.851901 0.188218 -0.053204 355139.000000 0 0 1
-25.404016 0.616852 -5.941779 26.096921 -0.024277 1.800492 0.189397 -0.062197 438163.000000 0 0 1
-24.058506 1.080852 -5.283579 24.655551 -0.044896 1.786767 0.139349 -0.050892 559951.000000 0 1 0
-23.966806 2.427152 -5.579479 24.727100 -0.100927 1.798399 0.193255 -0.052823 -486463.000000 0 1 0
-22.687806 2.901452 -5.351779 23.490350 -0.127196 1.800644 0.192302 -0.035474 -812068.000000 0 1 0
-22.508606 4.424152 -5.651879 23.625288 -0.194080 1.812369 0.197570 -0.033267 -179418.000000 0 1 0
-23.132506 5.257952 -4.684179 24.180580 -0.223500 1.765745 0.217519 -0.028992 577800.000000 0 1 0
-22.767606 6.616152 -4.846279 24.199665 -0.282806 1.772422 0.208374 -0.027503 -440517.000000 0 1 0
-23.225906 7.665852 -3.822179 24.755142 -0.318798 1.725816 0.222015 -0.031253 -248978.000000 0 1 0
-22.585206 7.599352 -2.539679 23.964383 -0.324575 1.676973 0.192059 -0.030057 1744430.000000 0 1 0
-21.182106 7.798452 -2.247379 22.683655 -0.352762 1.670034 0.194351 -0.027891 970470.000000 0 1 0
-20.674406 9.244152 -2.394979 22.773260 -0.420465 1.676157 0.175470 -0.031439 -565478.000000 0 1 0
-20.433206 9.659752 -3.724079 22.906233 -0.441609 1.734100 0.134374 -0.028094 484169.000000 0 1 0
-20.018606 11.002652 -3.719179 23.143795 -0.502552 1.732195 0.133268 -0.022978 -172281.000000 0 1 0
-19.802706 11.497752 -5.169579 23.474881 -0.526044 1.792834 0.109850 -0.025862 320219.000000 0 1 0
-18.651206 11.086252 -5.901579 22.485576 -0.536291 1.836368 0.072940 -0.015663 165438.000000 0 1 0
-18.837506 11.442952 -7.296579 23.217081 -0.545884 1.890491 0.085922 -0.013214 174673.000000 0 1 0
-17.556406 11.433452 -8.170579 22.487988 -0.577247 1.942637 0.066988 -0.001996 127678.000000 0 1 0
-16.924206 10.165652 -8.439379 21.470733 -0.540903 1.974758 0.022766 0.004513 830823.000000 0 1 0
-17.708106 9.245352 -9.223979 22.003076 -0.481169 2.003375 0.051833 -0.008124 -227397.000000 0 1 0
-17.804806 9.630652 -10.703179 22.898005 -0.495831 2.057176 0.045678 -0.012776 -655350.000000 0 1 0
-16.622606 9.622752 -11.446979 22.359377 -0.524757 2.108255 0.043460 -0.013867 -186488.000000 0 1 0
-16.866606 10.270352 -12.676879 23.466269 -0.546950 2.141491 0.066969 -0.024888 186196.000000 0 1 0
-15.969106 9.835652 -13.876979 23.330730 -0.552041 2.207806 0.047923 -0.008008 -47951.700000 0 1 0
-16.151206 8.572152 -14.514479 23.345521 -0.487939 2.241739 0.088065 -0.031771 21205.000000 0 1 0
-15.835806 7.447852 -13.718879 22.236252 -0.439621 2.235670 0.070734 -0.021992 -84210.000000 0 1 0
-15.744606 6.149652 -14.558779 22.308494 -0.372366 2.281822 0.086224 -0.028180 -355292.000000 0 1 0
-14.672906 6.225952 -15.446079 22.195450 -0.401291 2.340485 0.104642 -0.030591 -95071.500000 0 1 0
-14.342406 4.963652 -15.976379 22.036042 -0.333180 2.381847 0.090066 -0.041683 -102720.000000 0 1 0
34.249541 -15.514448 27.555879 46.616044 -0.425332 0.938344 0.084267 -0.020942 -138409.000000 0 0 1
33.265421 -14.519248 27.821079 45.731928 -0.411543 0.916815 0.087930 -0.022190 432396.000000 0 0 1
32.477651 -14.705748 29.004319 45.959845 -0.425177 0.887852 0.085900 -0.021795 510890.000000 0 0 1
33.265581 -14.624748 30.341189 47.339939 -0.414202 0.875098 0.067568 -0.031779 231108.000000 0 0 1
33.853551 -13.347348 30.646559 47.575479 -0.375555 0.870862 0.070211 -0.032080 370289.000000 0 0 1
33.651351 -13.119748 31.994023 48.250997 -0.371746 0.845877 0.056214 -0.029914 -264811.000000 0 0 1
33.962961 -11.726848 32.458883 48.420871 -0.332467 0.836117 0.064708 -0.027711 -34578.800000 0 0 1
33.671401 -11.493948 -33.583059 48.925412 -0.328954 2.327342 0.057872 -0.035551 193918.000000 0 0 1
33.828671 -10.145348 -33.180549 48.458806 -0.291369 2.325011 0.080070 -0.028090 -281910.000000 0 0 1
33.447571 -10.026148 -31.732259 47.182623 -0.291234 2.308434 0.090755 -0.025067 -657712.000000 0 0 1
32.069081 -10.173748 -31.612989 46.166137 -0.307202 2.325079 0.139152 -0.029764 -606566.000000 0 0 1
31.616561 -9.650948 -30.409599 44.916494 -0.296266 2.314509 0.120583 -0.021281 -865664.000000 0 0 1
30.209591 -10.104448 -30.078029 43.811038 -0.322781 2.327516 0.114835 -0.011388 -732388.000000 0 0 1
29.731291 -9.675748 -28.796969 42.506884 -0.314630 2.315108 0.100248 -0.011573 775149.000000 0 0 1
28.661591 -10.521748 -28.338649 41.656608 -0.351829 2.318957 0.109587 -0.010748 29349.000000 0 0 1
28.152691 -10.116848 -26.936549 40.255463 -0.344986 2.303848 0.098277 -0.008585 -419901.000000 0 0 1
27.389291 -8.894248 -26.847399 39.370849 -0.313992 2.321168 0.085244 -0.016845 2151420.000000 0 0 1
26.068391 -8.799348 -27.497199 38.898400 -0.325539 2.355899 0.084909 -0.020842 1808160.000000 0 0 1
24.970291 -9.810248 -27.047219 38.096042 -0.374351 2.360258 0.083678 -0.003302 -753533.000000 0 0 1
25.268691 -11.153348 -27.229979 38.786282 -0.415671 2.349071 0.083505 -0.006454 464893.000000 0 0 1
24.130991 -12.027848 -27.042759 38.187494 -0.462399 2.357682 0.076867 -0.024140 527560.000000 0 0 1
24.339591 -13.395948 -27.740619 39.260783 -0.503133 2.355440 0.079294 0.010027 52282.300000 0 0 1
24.541091 -13.354648 -29.140249 40.370359 -0.498360 2.377229 0.088810 -0.002364 585818.000000 0 0 1
25.877291 -13.771348 -29.415829 41.528005 -0.489058 2.357936 0.072697 0.001369 336395.000000 0 0 1
26.246091 -13.831148 -30.909049 42.843054 -0.484997 2.376688 0.090561 -0.011500 46664.400000 0 0 1
25.414391 -14.763348 -31.598329 43.154399 -0.526261 2.392366 0.096261 -0.005851 402743.000000 0 0 1
25.864491 -15.018848 -32.933439 44.487629 -0.526088 2.404288 0.097609 -0.007069 109710.000000 0 0 1
25.837891 -13.869848 33.406579 44.451870 -0.492654 0.720430 0.087417 -0.021487 -378935.000000 0 0 1
24.553391 -13.646048 32.913880 43.271320 -0.507263 0.706499 0.087424 -0.015288 -318211.000000 0 0 1
24.615891 -13.002548 31.617957 42.127230 -0.485966 0.721925 0.083842 -0.026445 -1000220.000000 0 0 1
23.873491 -11.670948 31.529235 41.234054 -0.454701 0.700313 0.102719 -0.038956 -236396.000000 0 0 1
22.480791 -11.700448 31.666328 40.559127 -0.479885 0.674939 0.091764 -0.025677 -466654.000000 0 0 1
21.740491 -12.238648 30.640349 39.512839 -0.512726 0.683364 0.078173 -0.031538 -1929780.000000 0 0 1
20.293491 -12.314348 31.069559 39.099698 -0.545414 0.652408 0.083784 -0.024304 -856753.000000 0 0 1
19.568191 -11.082348 31.056819 38.343950 -0.515306 0.626723 0.079857 -0.026612 -545674.000000 0 0 1
18.487091 -11.164248 31.917427 38.537450 -0.543278 0.594875 0.068678 -0.015727 -483800.000000 0 0 1
17.700791 -9.841748 32.035134 37.900235 -0.507443 0.563765 0.074604 -0.021236 -842218.000000 0 0 1
16.870491 -9.594648 30.941659 36.524745 -0.517105 0.560212 0.112852 -0.030898 686980.000000 0 0 1
15.934991 -8.462148 31.095609 35.950922 -0.488172 0.525753 0.119661 -0.031703 1419990.000000 0 0 1
14.793491 -8.627648 32.146715 36.423824 -0.527979 0.489488 0.123732 -0.028015 -1283740.000000 0 0 1
13.971891 -9.703748 31.823452 36.084741 -0.607038 0.490900 0.123781 -0.027662 -330782.000000 0 0 1
12.869091 -9.978548 32.639421 36.476248 -0.659553 0.462784 0.115561 -0.024757 607759.000000 0 0 1
11.621591 -9.014448 32.484136 35.658670 -0.659725 0.425156 0.149497 -0.031189 -10482.400000 0 0 1
11.898591 -7.632848 32.613510 35.545434 -0.570371 0.409007 0.136917 -0.038227 -4524.140000 0 0 1
10.734291 -6.986448 32.172357 34.627965 -0.576975 0.378862 0.154793 -0.030937 -41831.400000 0 0 1
10.990191 -5.501748 31.990575 34.270255 -0.464132 0.366801 0.134419 -0.027667 -26404.300000 0 0 1
11.189191 -4.745648 33.195112 35.350171 -0.401132 0.350978 0.115701 -0.029204 296526.000000 0 0 1
11.437591 -3.411548 32.863798 34.964072 -0.289874 0.348370 0.074012 -0.023037 -290653.000000 0 0 1
11.358891 -2.401648 -33.353039 35.315967 -0.208365 2.806616 0.067378 -0.024746 -32396.300000 0 0 1
10.021791 -2.141348 -32.978639 34.534219 -0.210504 2.840306 0.074776 -0.009799 -84448.900000 0 0 1
9.935591 -1.399148 -31.811259 33.356106 -0.139902 2.836058 0.079533 -0.010914 32122.100000 0 0 1
8.477491 -1.127248 -31.392369 32.536432 -0.132194 2.875621 0.097051 -0.002780 127234.000000 0 0 1
7.815591 -0.203848 -32.249499 33.183659 -0.026076 2.903751 0.088100 -0.002223 122661.000000 0 0 1
6.401691 -0.210048 -32.112519 32.745071 -0.032800 2.944717 0.106362 -0.002948 213252.000000 0 0 1
5.820891 0.684852 -33.183279 33.696911 0.117116 2.966769 0.124975 -0.016179 -268728.000000 0 0 1
6.188691 2.072952 -33.076779 33.714542 0.323212 2.946777 0.093072 -0.015362 90417.800000 0 0 1
5.580691 2.844452 33.287620 33.871827 0.471374 0.185997 0.104677 -0.016963 329266.000000 0 0 1
6.199791 4.298052 33.255885 34.100799 0.606186 0.223069 0.082848 -0.023109 222609.000000 0 0 1
5.773491 5.080552 32.169698 33.076195 0.721643 0.234659 0.103339 -0.037574 -76718.500000 0 0 1
6.511291 6.277652 32.035631 33.287948 0.767131 0.275169 0.099784 -0.037761 -526848.000000 0 0 1
5.813291 7.374252 31.288529 32.667200 0.903216 0.291561 0.117374 -0.039316 -1347500.000000 0 0 1
4.784591 7.924152 32.034127 33.344711 1.027589 0.281298 0.128206 -0.049847 -530094.000000 0 0 1
4.385091 9.223052 31.621146 33.229363 1.126982 0.312388 0.145303 -0.056132 13999.100000 0 0 1
3.783891 9.423052 30.182559 31.844914 1.188949 0.324537 0.146379 -0.052228 -247263.000000 0 0 1
2.567691 8.767752 29.911999 31.276096 1.285906 0.296430 0.130753 -0.052715 -266512.000000 0 0 1
2.356091 8.699952 28.506809 29.897800 1.306324 0.306236 0.095895 -0.041995 -543484.000000 0 0 1
1.010191 8.121752 28.130519 29.296918 1.447051 0.283126 0.097136 -0.036702 -335903.000000 0 0 1
-0.118209 8.952752 28.394969 29.773142 -1.557593 0.305453 0.111673 -0.041601 -205318.000000 0 0 1
-1.072209 8.724452 27.383969 28.760171 -1.448512 0.310604 0.103680 -0.029993 -815116.000000 0 0 1
-2.504009 8.712352 27.871839 29.308950 -1.290930 0.314449 0.100648 -0.025327 -854495.000000 0 0 1
-3.091609 9.945152 28.179129 30.042093 -1.269401 0.354016 0.114799 -0.029205 843856.000000 0 0 1
-4.374609 9.646552 28.789599 30.676280 -1.145044 0.352545 0.094884 -0.014951 998160.000000 0 0 1
-5.015309 10.858452 29.623309 31.946826 -1.138106 0.383745 0.078096 -0.013193 348340.000000 0 0 1
-5.176309 12.129952 28.977709 31.837674 -1.167455 0.427101 0.078915 -0.025521 239248.000000 0 0 1
-6.344809 12.117252 28.179269 31.323403 -1.088433 0.451890 0.076143 -0.024283 -166501.000000 0 0 1
-6.691509 13.450152 27.465279 31.305342 -1.109147 0.500516 0.071803 -0.022566 -557408.000000 0 0 1
-5.760909 13.970052 26.573589 30.569691 -1.179667 0.517055 0.078586 -0.025334 -605470.000000 0 0 1
-5.897209 15.368752 26.381319 31.095813 -1.204408 0.557863 0.059733 -0.018112 -735799.000000 0 0 1
-4.794209 16.174452 25.749759 30.783882 -1.282640 0.579989 0.101339 -0.018890 -658586.000000 0 0 1
-4.580409 15.846852 24.407009 29.458529 -1.289423 0.594335 0.091483 -0.004021 675250.000000 0 0 1
-3.447909 16.592852 23.894259 29.294136 -1.365917 0.616915 0.111078 -0.009681 484528.000000 0 0 1
-3.259209 16.578052 22.328009 27.999897 -1.376674 0.647769 0.109734 -0.012822 -158750.000000 0 0 1
-2.669109 15.425152 21.786889 26.827746 -1.399457 0.623049 0.081382 -0.012064 -51755.500000 0 0 1
-2.396709 15.597452 20.412289 25.800896 -1.418329 0.658115 0.066224 -0.007275 80807.900000 0 0 1
-1.445709 14.461752 19.941189 24.675562 -1.471160 0.629817 0.057649 -0.007711 -41312.300000 0 1 0
-1.931209 13.090652 19.982289 23.966364 -1.424327 0.584906 0.056239 -0.006136 -482729.000000 0 1 0
-0.955709 12.177352 19.613489 23.106064 -1.492474 0.556998 0.048615 0.005079 -725515.000000 0 1 0
-1.496609 10.744652 19.337689 22.172812 -1.432398 0.511247 0.025067 0.000076 -332308.000000 0 1 0
-1.791109 10.043752 20.577389 22.967672 -1.394321 0.460280 0.036641 -0.009481 580780.000000 0 1 0
-2.940209 10.395152 21.345889 23.923858 -1.295152 0.468509 0.073190 -0.018246 1000840.000000 0 1 0
-4.414509 10.325552 20.782789 23.622642 -1.166783 0.495392 0.062043 -0.014903 1008780.000000 0 1 0
-4.974209 8.984452 20.774089 23.173819 -1.065158 0.459112 0.056040 -0.016401 -106536.000000 0 1 0
-6.351709 9.042752 21.023989 23.751288 -0.958455 0.483932 0.059008 -0.008989 -75459.800000 0 1 0
-7.082009 7.665752 21.043489 23.489296 -0.824959 0.460398 0.059536 -0.010050 -73525.200000 0 1 0
-6.967909 6.929752 22.266389 24.338555 -0.782653 0.415633 0.065685 -0.012497 72342.900000 0 1 0
-7.665709 5.717052 22.132389 24.109965 -0.640805 0.407847 0.060265 -0.011270 2517.810000 0 1 0
-7.910709 4.923652 23.402809 25.189544 -0.556730 0.378910 0.064470 -0.016200 -311764.000000 0 0 1
-8.785009 5.623052 24.231329 26.380910 -0.569365 0.406482 0.057769 -0.014116 -239565.000000 0 0 1
-9.098709 4.777152 25.278089 27.287166 -0.483475 0.386132 0.060861 -0.001259 -286372.000000 0 0 1
-10.005909 5.386852 26.331999 28.679445 -0.493868 0.407413 0.066367 0.001050 -373840.000000 0 0 1
-9.302609 6.394252 27.000169 29.264895 -0.602193 0.395996 0.059477 -0.005321 15916.500000 0 0 1
-10.149109 7.122752 27.884839 30.517245 -0.611940 0.418400 0.070020 -0.006246 228474.000000 0 0 1
-9.410109 8.127052 28.817159 31.385152 -0.712366 0.407339 0.069195 -0.008894 70233.600000 0 0 1
-8.610509 7.534352 29.815929 31.935825 -0.718840 0.366408 0.088939 -0.013642 -50280.900000 0 0 1
-8.149609 8.516352 30.719669 32.903532 -0.807400 0.366386 0.084434 -0.016522 120522.000000 0 0 1
-7.103109 7.998952 31.745059 33.499047 -0.844648 0.325032 0.120692 -0.018471 146900.000000 0 0 1
-5.821509 7.730452 31.236489 32.701194 -0.925338 0.300430 0.114931 -0.024880 -385209.000000 0 0 1
-5.000209 7.131052 32.207855 33.364650 -0.959273 0.264097 0.137078 -0.023042 -549000.000000 0 0 1
-3.510309 7.035352 31.946562 32.899867 -1.107987 0.241317 0.109697 -0.025006 -377944.000000 0 0 1
-2.927309 8.323052 31.804045 33.005145 -1.232598 0.270607 0.101846 -0.032675 -595709.000000 0 0 1
-1.535609 8.413352 31.890794 33.017651 -1.390263 0.262011 0.095549 -0.038496 -188340.000000 0 0 1
-1.018609 9.731452 31.332111 32.824379 -1.466504 0.302691 0.102717 -0.038765 -71551.300000 0 0 1
-1.362409 10.852152 32.155903 33.965091 -1.445907 0.327859 0.114567 -0.048957 -756.659000 0 0 1
-1.720609 12.008452 31.436364 33.695821 -1.428482 0.368287 0.113877 -0.044337 -142671.000000 0 0 1
-1.865009 13.247152 32.346257 35.003509 -1.430930 0.392159 0.107799 -0.049728 1162700.000000 0 0 1
-0.572709 13.748052 32.825674 35.593002 -1.529163 0.396934 0.161446 -0.050338 791537.000000 0 0 1
-0.698809 14.920852 33.596759 36.767681 -1.523996 0.418356 0.144025 -0.048695 -185087.000000 0 0 1
0.511691 15.403152 -32.997659 36.419286 1.537589 2.704648 0.127576 -0.046233 118138.000000 0 0 1
1.589991 15.882552 33.620909 37.217590 1.471019 0.443254 0.141045 -0.046903 390956.000000 0 0 1
2.766391 16.120452 -33.042729 36.869280 1.400844 2.681954 0.157121 -0.046138 342087.000000 0 0 1
3.845691 16.825552 33.510519 37.694076 1.346094 0.475612 0.163803 -0.033657 48900.100000 0 0 1
3.559891 18.197952 33.529849 38.315650 1.377615 0.505163 0.135347 -0.029252 771790.000000 0 0 1
4.599191 18.981052 32.912482 38.270933 1.333074 0.535553 0.109472 -0.010246 643136.000000 0 0 1
4.128891 20.439852 32.886227 38.940200 1.371477 0.565107 0.101494 -0.023090 -114315.000000 0 0 1
4.277591 21.088052 -33.260209 39.613700 1.370667 2.567368 0.124302 -0.043034 403064.000000 0 0 1
3.704391 22.426952 -33.126319 40.175163 1.407099 2.540198 0.098873 -0.031351 199704.000000 0 0 1
3.831991 23.082952 -31.733369 39.427320 1.406287 2.506231 0.112598 -0.034296 -94875.600000 0 0 1
3.482191 24.441052 -31.803149 40.260787 1.429276 2.481489 0.115909 -0.039138 255670.000000 0 0 1
3.239591 24.958752 -30.487649 39.533922 1.441720 2.451484 0.121310 -0.036349 -17645.500000 0 0 1
2.750891 26.394152 -30.453619 40.393583 1.466948 2.424808 0.133804 -0.046357 -597950.000000 0 0 1
3.793791 27.295552 -30.553529 41.145572 1.432692 2.407698 0.147494 -0.044211 -312049.000000 0 0 1
3.372391 28.640452 -30.418129 41.915523 1.453587 2.382849 0.141982 -0.037419 -250302.000000 0 0 1
4.514791 29.643252 -30.209559 42.564342 1.419654 2.359924 0.150566 -0.042290 368643.000000 0 0 1
5.342391 29.397652 -29.036939 41.664216 1.391030 2.341901 0.148867 -0.055352 382673.000000 0 0 1
6.320391 30.420952 -28.999779 42.501398 1.365946 2.321735 0.162442 -0.064228 233510.000000 0 0 1
7.354491 30.252152 -27.836289 41.762905 1.332316 2.300343 0.177422 -0.067613 537292.000000 0 0 1
8.558991 29.528452 -28.159629 41.691132 1.288672 2.312350 0.185235 -0.060842 1270250.000000 0 0 1
9.836591 30.108952 -27.935369 42.233782 1.255028 2.293542 0.185669 -0.064518 662307.000000 0 0 1
10.118791 31.448752 -28.669769 43.742080 1.259502 2.285545 0.202368 -0.062903 -1549720.000000 0 0 1
9.363291 32.524752 -28.192459 44.049352 1.290494 2.265320 0.204250 -0.063855 590.664000 0 0 1
9.460491 33.668052 -28.998149 45.430510 1.296867 2.263080 0.199451 -0.061736 -157226.000000 0 0 1
8.245391 -33.564448 -29.923849 45.716467 -1.329908 2.284387 0.167993 -0.037048 -53790.000000 0 0 1
8.181491 32.979252 -30.986669 45.986319 1.327626 2.310168 0.154159 -0.032919 -221778.000000 0 0 1
6.895891 32.693052 -31.460439 45.892790 1.362915 2.326114 0.130222 -0.023623 -317159.000000 0 0 1
6.916291 31.793652 -32.697499 46.128059 1.356597 2.358651 0.146739 -0.045381 -25482.200000 0 0 1
7.299691 32.538852 33.581039 47.325981 1.350112 0.781910 0.168854 -0.039016 60769.300000 0 0 1
7.040091 31.790152 32.367497 45.911126 1.352859 0.788368 0.148237 -0.032285 -88142.000000 0 0 1
6.738191 32.702452 31.145989 45.660992 1.367595 0.820147 0.134826 -0.042185 -361298.000000 0 0 1
7.865791 33.281252 30.570719 45.870265 1.338712 0.841345 0.135929 -0.042736 -206856.000000 0 0 1
7.482991 -33.268848 29.577039 45.139923 -1.349553 0.856309 0.113050 -0.050124 28309.200000 0 0 1
19.463294 -21.690548 28.955539 41.081905 -0.839466 0.788620 0.120818 -0.022408 -634008.000000 0 0 1
18.619194 -20.586848 29.183199 40.275945 -0.835544 0.760370 0.120159 -0.020876 518955.000000 0 0 1
17.237894 -20.936148 29.158319 39.820533 -0.881976 0.749186 0.102379 -0.018802 564397.000000 0 0 1
16.592894 -21.420948 30.467629 40.773245 -0.911730 0.726889 0.102060 -0.028078 -406930.000000 0 0 1
17.197794 -22.632248 30.951239 42.023350 -0.921002 0.742878 0.129273 -0.034087 331858.000000 0 0 1
17.202894 -22.727348 32.365391 43.127606 -0.922878 0.722044 0.116657 -0.032612 16647.200000 0 0 1
18.039894 -23.943948 32.854894 44.476898 -0.925109 0.739663 0.118438 -0.035277 74045.200000 0 0 1
17.483694 -25.241718 32.672288 44.836394 -0.965020 0.754374 0.137641 -0.042629 147224.000000 0 0 1
18.336494 -26.192448 33.301719 46.165743 -0.960025 0.765045 0.127973 -0.039174 346536.000000 0 0 1
17.828194 -27.671588 33.187367 46.743583 -0.998454 0.781316 0.114407 -0.026721 221313.000000 0 0 1
18.416094 -28.309108 32.074557 46.576124 -0.994044 0.811173 0.110350 -0.033687 -117926.000000 0 0 1
17.775694 -29.486218 31.786910 46.859577 -1.028286 0.825290 0.115537 -0.033161 -54328.700000 0 0 1
18.542294 -30.284938 30.666679 46.919498 -1.021410 0.858462 0.111486 -0.032846 1372360.000000 0 0 1
19.826994 -30.819498 31.109449 48.070250 -0.999127 0.866935 0.121816 -0.043469 891015.000000 0 0 1
20.332894 -31.456048 29.974459 47.972677 -0.996963 0.895891 0.096893 -0.035747 -405184.000000 0 0 1
21.780694 -31.974368 29.964159 48.934749 -0.972805 0.911793 0.084616 -0.041340 -483620.000000 0 0 1
22.704894 -30.979428 30.200309 48.859961 -0.938328 0.904474 0.072741 -0.042634 691002.000000 0 0 1
24.077694 -31.425148 30.083719 49.722283 -0.917013 0.920987 0.070189 -0.040554 488216.000000 0 0 1
25.073794 -30.430398 30.630269 49.929126 -0.881608 0.910343 0.061471 -0.043947 -63821.600000 0 0 1
26.368394 -30.674898 30.076119 50.406492 -0.860751 0.931449 0.065471 -0.038637 42560.100000 0 0 1
27.096994 -29.483908 30.027259 50.051815 -0.827559 0.927391 0.052598 -0.030171 224968.000000 0 0 1
28.171294 -29.515038 28.891589 49.994831 -0.808688 0.954654 0.062202 -0.022655 356997.000000 0 0 1
29.287294 -30.326848 29.186399 51.276790 -0.802834 0.965272 0.054819 -0.019837 -118542.000000 0 0 1
30.351594 -30.196928 28.270139 51.305696 -0.782844 0.987218 0.054456 -0.029674 -111278.000000 0 0 1
31.530794 -31.046098 28.722429 52.754422 -0.777653 0.995057 0.052316 -0.030076 -552520.000000 0 0 1
31.178794 -32.396128 28.503889 53.236247 -0.804544 1.005788 0.029144 -0.025960 563996.000000 0 0 1
32.152994 -33.393788 28.880109 54.617037 -0.804326 1.013640 0.052039 -0.024469 52982.600000 0 0 1
31.401394 32.860550 29.508919 54.190770 0.808101 0.994958 0.029742 -0.021189 204182.000000 0 0 1
30.927194 33.160816 30.838109 54.837213 0.820236 0.973562 0.052951 -0.024594 593965.000000 0 0 1
29.853494 -33.429438 31.083499 54.543032 -0.841845 0.964425 0.046107 -0.019928 -67839.800000 0 0 1
28.491694 -33.580168 30.399019 53.511724 -0.867192 0.966624 0.049366 -0.023346 -484187.000000 0 0 1
27.900594 32.672965 30.742499 52.830549 0.864022 0.949724 0.044577 -0.023027 -233688.000000 0 0 1
26.554094 32.687958 30.310519 51.887860 0.888570 0.946959 0.057067 -0.026983 239885.000000 0 0 1
25.929294 31.300292 30.208689 50.641894 0.878974 0.931643 0.087795 -0.040258 -36168.700000 0 0 1
26.346594 30.688272 29.007709 49.773087 0.861375 0.948627 0.082305 -0.031991 259928.000000 0 0 1
25.828194 29.350212 28.915769 48.627689 0.849141 0.933984 0.124177 -0.045497 -112098.000000 0 0 1
25.287194 28.913342 27.537919 47.262675 0.852201 0.948802 0.121517 -0.045558 427418.000000 0 0 1
23.961994 29.388582 27.301769 46.725287 0.886765 0.946774 0.147216 -0.047692 303276.000000 0 0 1
23.357194 28.754952 26.185839 45.366330 0.888610 0.955490 0.141172 -0.041839 -271855.000000 0 0 1
21.906094 29.214682 26.062199 44.862153 0.927403 0.950914 0.165387 -0.038271 -560886.000000 0 0 1
21.758394 30.545222 25.674609 45.449134 0.951841 0.970474 0.173623 -0.049609 -48721.000000 0 0 1
20.436794 30.794452 25.232279 44.750739 0.984884 0.971768 0.150530 -0.041926 -83633.800000 0 0 1
20.313194 32.146089 24.450809 45.208836 1.007249 0.999359 0.162860 -0.042077 -160980.000000 0 0 1
21.009094 32.231187 23.215499 44.935407 0.993139 1.027873 0.155418 -0.040753 1317470.000000 0 0 1
22.305294 32.888476 23.362559 46.097582 0.974845 1.039320 0.158582 -0.037011 1197620.000000 0 0 1
22.947894 33.143597 21.957889 45.904822 0.965204 1.072038 0.160478 -0.042812 170532.000000 0 0 1
22.504094 -33.124888 21.394089 45.402637 -0.974050 1.080136 0.147756 -0.028045 215798.000000 0 0 1
23.105594 -33.062708 20.160689 45.093952 -0.960848 1.107296 0.174582 -0.031526 -71764.500000 0 0 1
22.790094 -31.767158 19.415289 43.651966 -0.948481 1.109874 0.149858 -0.031036 -130489.000000 0 0 1
23.339094 -30.623658 20.042289 43.407546 -0.919579 1.090859 0.143950 -0.026129 188038.000000 0 0 1
22.876594 -29.401428 19.523089 42.058691 -0.909566 1.088080 0.129192 -0.028160 46035.700000 0 0 1
23.565894 -28.945388 18.183889 41.519160 -0.887487 1.117464 0.114626 -0.027095 50461.700000 0 0 1
23.142194 -29.644328 17.047089 41.291047 -0.907959 1.145213 0.111826 -0.034221 303221.000000 0 0 1
23.695994 -29.023458 15.887489 40.697341 -0.886109 1.169750 0.105195 -0.031048 -31025.800000 0 0 1
23.267094 -29.595848 14.498289 40.341942 -0.904551 1.203188 0.084328 -0.029175 -324686.000000 0 0 1
23.977394 -30.765458 14.187089 41.505449 -0.908768 1.221951 0.113906 -0.030785 119672.000000 0 0 1
24.176194 -31.240888 12.829189 41.533956 -0.912196 1.256777 0.100678 -0.029326 153084.000000 0 0 1
22.870794 -31.336468 11.966489 40.598575 -0.940319 1.271601 0.101481 -0.029271 309434.000000 0 0 1
21.992194 -32.305768 12.525089 41.038970 -0.973106 1.260648 0.104063 -0.032900 453956.000000 0 0 1
20.754194 -32.220518 11.789489 40.098509 -0.998559 1.272373 0.079263 -0.021264 697684.000000 0 0 1
19.632194 -33.013408 12.517189 40.397873 -1.034303 1.255763 0.065506 -0.023750 -314695.000000 0 0 1
19.382594 -32.484108 13.813089 40.270382 -1.032822 1.220678 0.068057 -0.021302 346720.000000 0 0 1
20.017894 -33.246378 14.858089 41.554790 -1.028829 1.205149 0.073184 -0.030624 -895068.000000 0 0 1
19.965394 -32.445748 16.224789 41.407575 -1.019169 1.168175 0.073100 -0.033199 -222655.000000 0 0 1
18.781494 -31.779498 16.639189 40.491278 -1.037025 1.147319 0.076536 -0.029789 82973.700000 0 0 1
17.599494 -32.491048 16.931489 40.645857 -1.074369 1.141137 0.064743 -0.023366 -155856.000000 0 0 1
17.611094 -33.411458 18.140589 41.899369 -1.085707 1.123027 0.048919 -0.021435 4858.760000 0 0 1
18.576894 33.016159 17.990989 41.938567 1.058285 1.127428 0.049434 -0.017455 555095.000000 0 0 1
18.765394 32.385261 19.235389 42.082601 1.045630 1.096080 0.055301 -0.020599 -19314.900000 0 0 1
19.624994 31.134262 19.195589 41.508472 1.008370 1.090040 0.087707 -0.025051 -102487.000000 0 0 1
18.875794 29.983842 18.834089 40.125419 1.008945 1.082207 0.036031 -0.016930 -152438.000000 0 0 1
19.731994 28.948292 18.436989 39.588858 0.972507 1.086358 0.046551 -0.027984 -24035.100000 0 0 1
19.054294 27.566182 18.245589 38.155759 0.965987 1.072207 0.047775 -0.019995 129414.000000 0 0 1
18.693194 27.025642 19.516989 38.219545 0.965674 1.034850 0.065437 -0.031674 -28306.700000 0 0 1
18.335394 25.663912 19.391289 37.024925 0.950443 1.019566 0.073357 -0.034835 -739302.000000 0 0 1
18.188394 24.941112 20.714389 37.174758 0.940706 0.979766 0.113481 -0.037995 256611.000000 0 0 1
16.933294 25.086972 21.374589 37.053551 0.977058 0.955921 0.113726 -0.035267 595401.000000 0 0 1
15.958994 24.186022 20.815589 35.678311 0.987532 0.947858 0.094712 -0.036946 145708.000000 0 0 1
14.566194 24.218812 21.518389 35.521344 1.029318 0.920041 0.136308 -0.053073 408082.000000 0 0 1
13.888394 25.369272 21.042789 35.767113 1.069913 0.941807 0.105115 -0.042983 -823001.000000 0 0 1
12.624194 25.599982 21.565289 35.774167 1.112657 0.923769 0.110302 -0.046727 -502644.000000 0 0 1
11.870394 26.741792 20.836789 35.919374 1.153036 0.951946 0.087631 -0.045438 -157443.000000 0 0 1
12.528094 27.972392 21.019989 37.165142 1.149712 0.969656 0.065112 -0.038421 -116210.000000 0 0 1
12.095894 28.892692 20.062189 37.196635 1.174317 1.001125 0.057163 -0.040063 -236261.000000 0 0 1
12.596494 30.342252 20.334189 38.636810 1.177301 1.016564 0.030946 -0.032361 -214479.000000 0 0 1
12.027494 31.120732 21.385489 39.629530 1.202000 1.000793 0.027759 -0.025398 159086.000000 0 0 1
12.649694 30.862772 22.706629 40.349924 1.181811 0.973096 0.032416 -0.021145 436299.000000 0 0 1
12.046594 31.680402 23.855259 41.446853 1.207428 0.957504 0.043183 -0.022563 -258259.000000 0 0 1
10.682594 31.475622 24.095439 41.053900 1.243602 0.943544 0.049932 -0.017853 -725919.000000 0 0 1
10.454494 31.928073 25.418489 42.128349 1.254360 0.923091 0.055695 -0.025906 -1462610.000000 0 0 1
9.030594 31.896513 25.894569 42.065043 1.294895 0.907669 0.162273 -0.042435 -782472.000000 0 0 1
8.095094 32.842238 25.296719 42.238218 1.329129 0.928662 0.140288 -0.032525 812016.000000 0 0 1
7.520194 32.439362 24.058699 41.081462 1.342997 0.945134 0.139534 -0.050732 439449.000000 0 0 1
6.422794 31.299012 24.038009 39.983825 1.368399 0.925803 0.125976 -0.046493 435352.000000 0 0 1
7.011494 30.051432 24.392199 39.334831 1.341580 0.901904 0.105287 -0.047396 -434464.000000 0 0 1
6.179494 28.986682 24.016219 38.146987 1.360757 0.889796 0.101740 -0.042620 -1107150.000000 0 0 1
6.927494 27.622002 24.000899 37.242560 1.325068 0.870495 0.096812 -0.044201 -669636.000000 0 0 1
7.872094 27.588962 22.950329 36.740145 1.292847 0.896092 0.087838 -0.038591 -12276.700000 0 0 1
9.058294 28.326442 23.133969 37.677851 1.261291 0.909686 0.116417 -0.044525 -846863.000000 0 0 1
10.075294 27.854152 24.231239 38.269024 1.223722 0.885140 0.106313 -0.052904 -1093350.000000 0 0 1
9.709694 27.959482 25.581149 39.120403 1.236549 0.858058 0.111407 -0.051151 -258838.000000 0 0 1
10.585594 27.426972 26.570069 39.626533 1.202456 0.835898 0.110707 -0.029911 -323000.000000 0 0 1
11.826694 28.279992 26.835869 40.740550 1.174699 0.851704 0.101434 -0.027347 -429405.000000 0 0 1
11.529294 29.507972 27.511959 41.958943 1.198317 0.855703 0.099037 -0.034152 -102446.000000 0 0 1
12.692394 30.283572 27.712449 42.967096 1.173918 0.869814 0.074784 -0.020411 -430332.000000 0 0 1
12.630694 31.613535 28.524729 44.414076 1.190691 0.873372 0.069026 -0.027544 -431822.000000 0 0 1
12.370994 31.372242 29.916809 45.080755 1.195188 0.845139 0.076217 -0.038508 428118.000000 0 0 1
10.991294 31.210462 30.221129 44.813146 1.232192 0.830670 0.127491 -0.038646 180842.000000 0 0 1
10.765994 31.009672 31.727722 45.652543 1.236634 0.802401 0.139692 -0.031953 16547.300000 0 0 1
11.211094 29.694562 32.057211 45.112308 1.209795 0.780433 0.120353 -0.035458 247194.000000 0 0 1
11.277594 29.594072 33.493099 46.095345 1.206709 0.757429 0.145714 -0.037962 -16820.800000 0 0 1
11.551994 28.119582 -33.517359 45.250114 1.181000 2.404928 0.153493 -0.044942 381127.000000 0 0 1
12.862794 27.607922 33.677529 45.407320 1.134791 0.735230 0.158866 -0.039199 276089.000000 0 0 1
12.912294 26.250972 -33.274049 44.305792 1.113667 2.420385 0.169086 -0.044216 492705.000000 0 0 1
14.160994 25.452442 33.586529 44.456894 1.063075 0.714402 0.191773 -0.044051 663254.000000 0 0 1
14.319894 24.092502 -33.447489 43.637627 1.034526 2.444143 0.176356 -0.042576 31744.000000 0 0 1
14.644094 23.900962 -32.091569 42.609556 1.021092 2.423640 0.181772 -0.047808 -429746.000000 0 0 1
15.009294 22.470452 -31.733649 41.680026 0.981901 2.436210 0.155416 -0.066570 1322100.000000 0 0 1
16.369994 22.176852 -32.187829 42.377421 0.934918 2.433419 0.161266 -0.049239 1460930.000000 0 0 1
16.500494 20.775152 -32.269819 41.775764 0.899576 2.453491 0.157686 -0.052126 -900099.000000 0 0 1
17.874994 20.334252 -32.672559 42.432220 0.849672 2.449628 0.191778 -0.062347 -1201480.000000 0 0 1
18.843294 20.358752 -31.665529 42.098150 0.824037 2.422166 0.137983 -0.051624 -465484.000000 0 0 1
20.032094 19.792552 -32.152019 42.740873 0.779383 2.422274 0.152383 -0.051498 -164061.000000 0 0 1
21.281294 20.164752 -31.298449 42.884771 0.758465 2.388865 0.109068 -0.040107 104930.000000 0 0 1
21.587194 21.535052 -31.623639 43.929716 0.784189 2.374410 0.075224 -0.029224 56205.800000 0 0 1
22.537794 22.159452 -30.753429 44.099511 0.776934 2.342510 0.040030 -0.013058 245620.000000 0 0 1
22.111794 22.478452 -29.282079 43.030830 0.793621 2.319228 0.054643 -0.020828 -68246.400000 0 0 1
21.110194 23.463292 -29.185579 42.987956 0.838141 2.317093 0.043442 -0.001470 234417.000000 0 0 1
20.636394 23.742612 -27.842959 42.009555 0.855277 2.295317 0.055187 0.000032 224364.000000 0 0 1
21.729994 24.327912 -26.915069 42.290198 0.841744 2.260667 0.055065 -0.003251 -227922.000000 0 0 1
22.431394 25.469642 -27.331419 43.576100 0.848741 2.248764 0.064758 -0.004495 -75325.600000 0 0 1
21.710994 26.709082 -27.417149 44.005026 0.888257 2.243427 0.069189 -0.003742 -531384.000000 0 0 1
22.476394 27.748622 -28.196059 45.499363 0.889987 2.239160 0.062823 -0.005422 -536970.000000 0 0 1
22.518794 27.731052 -29.613379 46.401072 0.888755 2.262960 0.071946 -0.006166 -20394.900000 0 0 1
22.967394 26.514202 -30.240149 46.313828 0.856955 2.282256 0.064663 -0.007205 -79744.500000 0 0 1
24.430894 26.103242 -30.011789 46.679281 0.818480 2.269122 0.088565 -0.018839 -508283.000000 0 0 1
25.427694 26.981842 -30.465679 47.986925 0.815043 2.258643 0.086602 -0.014070 70843.400000 0 0 1
26.699394 26.405722 -30.228009 48.206351 0.779868 2.248563 0.094299 -0.029051 208051.000000 0 0 1
27.944394 27.243932 -30.584369 49.583511 0.772707 2.235499 0.086484 -0.020260 -90965.300000 0 0 1
28.154794 28.318442 -29.706509 49.770505 0.788296 2.210390 0.076826 -0.011610 1083200.000000 0 0 1
29.339794 29.073262 -30.101739 51.109615 0.780835 2.200573 0.076573 -0.020195 1228340.000000 0 0 1
29.619294 30.307162 -29.169129 51.445745 0.796876 2.173641 0.079190 -0.012719 -47735.200000 0 0 1
29.885394 29.983502 -27.796459 50.643758 0.787037 2.151799 0.110658 -0.017124 445859.000000 0 0 1
28.824394 30.301932 -26.889389 49.720136 0.810382 2.142202 0.108122 -0.013877 134647.000000 0 0 1
29.299794 30.634812 -25.448129 49.442662 0.807669 2.111454 0.139940 -0.011102 246683.000000 0 0 1
29.840594 29.602052 -24.567179 48.685612 0.781385 2.099725 0.115536 -0.001898 726810.000000 0 0 1
28.849894 28.665442 -24.150979 47.300039 0.782191 2.106668 0.123969 -0.011499 193931.000000 0 0 1
27.953894 28.981032 -22.945679 46.344628 0.803437 2.088758 0.119620 0.001515 -350959.000000 0 0 1
27.028294 29.973372 -23.196879 46.551336 0.837019 2.092442 0.161121 -0.004607 -619773.000000 0 0 1
26.110494 30.126612 -22.167879 45.615627 0.856691 2.078270 0.120973 0.010692 -163806.000000 0 0 1
3.989994 -25.927108 -19.232679 32.527388 -1.418101 2.203437 0.092806 -0.012710 -308548.000000 0 0 1
4.102694 -27.090048 -18.486679 33.052384 -1.420492 2.164355 0.106147 -0.007693 162993.000000 0 0 1
3.917794 -26.857088 -17.142479 32.101665 -1.425942 2.134128 0.103465 -0.012561 -110900.000000 0 0 1
3.891094 -28.041618 -16.186779 32.611114 -1.432915 2.090194 0.076521 -0.009459 -635614.000000 0 0 1
5.156594 -28.520108 -15.895279 33.055210 -1.391923 2.072444 0.064786 -0.016567 -799727.000000 0 0 1
5.178094 -29.394948 -14.807879 33.318897 -1.396429 2.031333 0.073786 -0.022208 -548805.000000 0 0 1
6.563194 -29.902198 -14.465379 33.859477 -1.354734 2.012210 0.078850 -0.023869 -417996.000000 0 0 1
7.414894 -28.914618 -13.885079 32.921592 -1.319765 2.006184 0.074442 -0.016007 187498.000000 0 0 1
8.799394 -29.210658 -13.882879 33.517551 -1.278203 1.997857 0.070721 -0.017284 343533.000000 0 0 1
9.260194 -29.966438 -12.589879 33.797096 -1.271086 1.952512 0.067469 -0.021998 -711145.000000 0 0 1
9.507594 -29.138658 -11.479479 32.729714 -1.255400 1.929153 0.071082 -0.029776 -39664.600000 0 0 1
9.603094 -29.809568 -10.212579 32.941259 -1.259146 1.886015 0.082856 -0.030175 316813.000000 0 0 1
10.722994 -30.895958 -9.994779 34.197053 -1.236736 1.867396 0.062540 -0.025811 1015060.000000 0 0 1
12.022194 -30.372008 -9.725979 34.082058 -1.193889 1.860188 0.058421 -0.024321 652423.000000 0 0 1
12.957194 -31.323718 -9.249579 35.137144 -1.178575 1.837178 0.060793 -0.024314 320961.000000 0 0 1
14.239294 -30.789138 -8.597979 34.995053 -1.137614 1.819029 0.071740 -0.034267 288710.000000 0 0 1
15.162894 -30.080638 -9.426879 34.980340 -1.103894 1.843661 0.065189 -0.038514 667563.000000 0 0 1
16.254594 -29.579348 -8.661579 34.844980 -1.068318 1.822005 0.063873 -0.033748 828057.000000 0 0 1
17.342694 -28.792578 -9.492079 34.926797 -1.028664 1.846029 0.077768 -0.039015 569558.000000 0 0 1
17.030194 -27.437858 -9.633579 33.699694 -1.015308 1.860706 0.098234 -0.047238 265661.000000 0 0 1
16.346694 -27.088778 -10.843179 33.445341 -1.027845 1.900969 0.082811 -0.048620 -379324.000000 0 0 1
16.027294 -25.563688 -10.852779 32.064920 -1.010792 1.916079 0.095075 -0.050191 -933260.000000 0 0 1
14.985194 -25.197388 -9.968579 30.965093 -1.034274 1.898563 0.069709 -0.045865 311520.000000 0 0 1
14.317094 -23.987848 -10.264379 29.761611 -1.032698 1.922914 0.050545 -0.027359 160411.000000 0 0 1
13.742694 -23.734748 -11.687079 29.812543 -1.045952 1.973621 0.028528 -0.022182 -151218.000000 0 0 1
14.726094 -23.444648 -12.710979 30.464378 -1.009955 2.001203 0.044684 -0.027657 505705.000000 0 0 1
14.151494 -23.622048 -13.989479 30.886428 -1.031054 2.040849 0.056179 -0.025363 326427.000000 0 0 1
15.077694 -22.991448 -15.060779 31.349172 -0.990358 2.071930 0.059827 -0.026683 706827.000000 0 0 1
16.234894 -23.751748 -15.415479 32.639766 -0.971214 2.062685 0.062527 -0.026239 494247.000000 0 0 1
16.800194 -23.166748 -16.594579 33.080580 -0.943366 2.096291 0.071010 -0.026311 -25648.900000 0 0 1
17.951094 -24.057948 -17.200479 34.595999 -0.929757 2.091143 0.085047 -0.034232 1172100.000000 0 0 1
19.150494 -24.168348 -16.431279 34.940484 -0.900720 2.060387 0.112784 -0.044694 473190.000000 0 0 1
20.071594 -23.111248 -16.616179 34.829529 -0.855673 2.068116 0.125955 -0.046409 138363.000000 0 0 1
21.568094 -23.314348 -16.257279 35.679695 -0.824286 2.043893 0.125107 -0.051426 715783.000000 0 0 1
22.238994 -24.269748 -17.083379 37.086862 -0.829034 2.049503 0.146361 -0.052079 232571.000000 0 0 1
23.626094 -24.335748 -16.794479 37.848058 -0.800193 2.030558 0.170984 -0.041521 -16385.500000 0 0 1
24.333294 -25.345408 -17.640779 39.315340 -0.805769 2.036106 0.167896 -0.035575 -718922.000000 0 0 1
24.284694 -25.105458 -19.047779 39.785026 -0.802015 2.070047 0.186382 -0.039099 86022.400000 0 0 1
25.170694 -25.956088 -19.712679 41.180967 -0.800759 2.069952 0.164870 -0.035330 715707.000000 0 0 1
26.660894 -25.475418 -19.894979 41.900004 -0.762664 2.065556 0.147296 -0.039602 845659.000000 0 0 1
26.778494 -24.529348 -20.973879 41.936622 -0.741590 2.094548 0.145847 -0.039808 -158234.000000 0 0 1
27.004894 -23.272348 -20.419979 41.083355 -0.711295 2.090978 0.140123 -0.033321 -155938.000000 0 0 1
25.803094 -22.246248 -20.439479 39.729932 -0.711508 2.111175 0.147510 -0.036723 687056.000000 0 0 1
25.379994 -21.613048 -21.674679 39.762541 -0.705410 2.147308 0.140403 -0.028780 324382.000000 0 0 1
24.819994 -22.547748 -22.623679 40.450759 -0.737465 2.164325 0.107571 -0.026353 -300788.000000 0 0 1
24.048894 -21.988048 -23.809579 40.357398 -0.740663 2.201816 0.072149 -0.016556 88778.500000 0 0 1
24.915594 -21.286648 -24.709779 41.042434 -0.707014 2.216868 0.060462 -0.009288 367046.000000 0 0 1
24.180894 -20.481048 -25.623129 40.752101 -0.702746 2.250749 0.044511 -0.003278 183305.000000 0 0 1
25.055394 -19.900248 -26.784089 41.727450 -0.671225 2.267746 0.049105 -0.001813 -131709.000000 0 0 1
24.377294 -18.962648 -27.536779 41.377635 -0.661108 2.298959 0.032650 0.010678 45734.400000 0 0 1
25.028594 -18.811448 -28.797989 42.539690 -0.644523 2.314431 0.043513 0.013409 114851.000000 0 0 1
24.482594 -17.561548 -29.544829 42.198368 -0.622248 2.346392 0.090855 0.004166 -13284.100000 0 0 1
23.143494 -17.746448 -29.939929 41.796616 -0.654167 2.369316 0.084857 -0.002975 26673.800000 0 0 1
22.674894 -16.716448 -30.767889 41.716345 -0.635273 2.400231 0.103034 -0.012048 630563.000000 0 0 1
21.300194 -17.141148 -31.414769 41.646187 -0.677625 2.425422 0.080732 -0.013308 579717.000000 0 0 1
21.391694 -17.885548 -32.618929 42.912608 -0.696368 2.434301 0.075520 -0.015501 -591776.000000 0 0 1
20.153594 -18.409248 -32.925199 42.768405 -0.740195 2.449400 0.100148 -0.026459 -822779.000000 0 0 1
20.194194 -19.285848 33.238416 43.411308 -0.762395 0.698726 0.115101 -0.018004 259727.000000 0 0 1
21.009694 -20.465948 33.416339 44.462501 -0.772289 0.720369 0.114212 -0.013146 535107.000000 0 0 1
21.092394 -21.228048 32.273068 44.012158 -0.788604 0.747668 0.114302 -0.022570 275131.000000 0 0 1
22.040994 -22.458048 32.486853 45.227922 -0.794770 0.769452 0.092551 -0.020037 164969.000000 0 0 1
21.452694 -23.486148 33.274823 46.032934 -0.830617 0.762881 0.115568 -0.023022 206694.000000 0 0 1
21.609994 -23.301748 -32.731909 45.621718 -0.823049 2.370950 0.120456 -0.028098 -21842.200000 0 0 1
20.859394 -24.310248 -31.790549 45.130272 -0.861648 2.352398 0.132027 -0.036759 40656.500000 0 0 1
21.247294 -25.618678 -31.959209 46.142770 -0.878403 2.335905 0.137007 -0.045610 115708.000000 0 0 1
22.162294 -26.126608 -30.987619 46.195232 -0.867310 2.306079 0.110559 -0.041914 325413.000000 0 0 1
22.122894 -27.655398 -30.850249 46.967876 -0.896087 2.287413 0.101101 -0.049250 -541782.000000 0 0 1
20.949894 -28.084388 -30.252519 46.290883 -0.929884 2.283036 0.103649 -0.050359 -789775.000000 0 0 1
20.908594 -29.497688 -30.125399 47.061901 -0.954174 2.265455 0.091854 -0.042541 160615.000000 0 0 1
19.520394 -30.092028 -29.702689 46.570652 -0.995343 2.262433 0.131675 -0.051397 1377710.000000 0 0 1
18.443894 -29.858448 -30.661409 46.602856 -1.017456 2.288863 0.141251 -0.056656 794755.000000 0 0 1
18.504994 -30.759768 -31.762809 47.931974 -1.029203 2.295167 0.140795 -0.052153 -481446.000000 0 0 1
17.128794 -31.406378 -32.016789 48.008655 -1.071498 2.300832 0.148829 -0.053598 230565.000000 0 0 1
16.184694 -30.511958 -32.600749 47.494555 -1.083096 2.327337 0.145295 -0.048546 672915.000000 0 0 1
14.970694 -31.200568 -32.980419 47.804866 -1.123422 2.332143 0.107507 -0.029900 966748.000000 0 0 1
13.947394 -30.246158 -33.641959 47.340694 -1.138726 2.361197 0.093118 -0.019066 377591.000000 0 0 1
13.243994 -29.365738 -32.733139 45.926118 -1.147110 2.364186 0.116420 -0.027644 106119.000000 0 0 1
12.222794 -28.704058 -33.444089 45.736492 -1.168230 2.390926 0.098797 -0.025694 -155120.000000 0 0 1
11.347894 -27.789598 -32.564619 44.288722 -1.183112 2.396876 0.124366 -0.038286 439110.000000 0 0 1
10.410094 -28.502798 -31.750359 43.918844 -1.220618 2.378834 0.127858 -0.037068 262312.000000 0 0 1
9.606894 -27.771608 -30.847969 42.604599 -1.237756 2.380456 0.101718 -0.042821 150943.000000 0 0 1
8.654894 -28.717838 -30.033069 42.445337 -1.278077 2.356851 0.085238 -0.033751 769095.000000 0 0 1
7.498994 -29.134028 -30.800349 43.054477 -1.318869 2.367965 0.084057 -0.024527 480510.000000 0 0 1
7.601894 -30.098078 -31.803939 44.442926 -1.323400 2.368298 0.093618 -0.022208 -382257.000000 0 0 1
6.256794 -30.447998 -32.483909 44.960343 -1.368126 2.378210 0.143796 -0.030014 689261.000000 0 0 1
5.319794 -31.090978 -31.600669 44.649204 -1.401333 2.357111 0.157973 -0.046813 543697.000000 0 0 1
4.158694 -31.604408 -32.237369 45.336314 -1.439962 2.361818 0.187349 -0.056069 -125736.000000 0 0 1
3.112094 -32.143878 -31.255969 44.942737 -1.474280 2.339859 0.148767 -0.051337 304202.000000 0 0 1
2.232394 -31.200718 -30.605199 43.762388 -1.499369 2.345283 0.122367 -0.045301 1066260.000000 0 0 1
0.924094 -31.123648 -31.170919 44.058616 -1.541114 2.356733 0.101182 -0.014323 368176.000000 0 0 1
-0.040706 -30.126208 -30.515679 42.881193 1.569445 2.362616 0.073255 -0.011831 -317009.000000 0 0 1
-0.609206 -30.477318 -29.292149 42.276093 1.550810 2.336268 0.034267 -0.015942 -266105.000000 0 0 1
-1.587806 -29.513838 -29.017679 41.419965 1.517049 2.346995 0.120141 -0.029874 -316685.000000 0 0 1
-2.102206 -29.587938 -27.551289 40.483810 1.499866 2.319310 0.137342 -0.040069 -95053.900000 0 0 1
-1.167406 -29.353618 -26.513999 39.572590 1.531047 2.305017 0.101808 -0.034460 -189486.000000 0 0 1
-1.802506 -29.345608 -25.225589 38.739439 1.509450 2.279909 0.137518 -0.045170 -133238.000000 0 0 1
-0.861006 -29.542668 -24.004379 38.075199 1.541660 2.252925 0.085439 -0.040174 -333883.000000 0 0 1
-1.405206 -29.730908 -22.731179 37.451409 1.523567 2.223015 0.153469 -0.055205 16258.100000 0 0 1
-0.311306 -30.104808 -21.894279 37.225742 1.560456 2.199564 0.130107 -0.051013 424488.000000 0 0 1
-0.692206 -30.050778 -20.414579 36.335705 1.547766 2.167396 0.082538 -0.030282 134070.000000 0 0 1
-0.847906 -28.689118 -19.936079 34.946126 1.541250 2.177887 0.067179 -0.027190 920346.000000 0 0 1
0.355694 -28.175238 -19.300179 34.153587 -1.558173 2.171350 0.081865 -0.024221 977231.000000 0 0 1
0.252794 -26.712638 -18.789379 32.659910 -1.561333 2.183772 0.083881 -0.029634 -530117.000000 0 0 1
-0.685306 -26.629618 -17.767179 32.019976 1.545067 2.159013 0.083987 -0.025432 -286129.000000 0 0 1
-0.443706 -25.626348 -16.813579 30.652945 1.553484 2.151383 0.077880 -0.023480 -121124.000000 0 0 1
-1.538706 -25.642478 -15.750779 30.132895 1.510862 2.120824 0.064579 -0.020251 -149626.000000 0 0 1
-1.318106 -24.521548 -14.901579 28.724568 1.517095 2.116213 0.043598 -0.014937 -444079.000000 0 0 1
-2.377206 -24.330148 -14.041879 28.191871 1.473399 2.092182 0.055477 -0.019208 -746441.000000 0 0 1
-2.161306 -23.177348 -13.041979 26.682465 1.477814 2.081492 0.048441 -0.011116 -145719.000000 0 0 1
-1.037306 -23.397648 -12.226379 26.419885 1.526492 2.051916 0.057412 -0.024049 -320528.000000 0 0 1
-0.908306 -22.275748 -11.340179 25.012670 1.530043 2.041347 0.057941 -0.017224 361648.000000 0 0 1
0.322994 -22.274648 -10.380079 24.576622 -1.556297 2.006839 0.057897 -0.027986 448964.000000 0 1 0
0.397794 -21.067148 -9.724779 23.206773 -1.551916 2.003194 0.043511 -0.024924 136421.000000 0 1 0
1.625294 -21.000348 -8.998179 22.904660 -1.493557 1.974529 0.031497 -0.029475 739475.000000 0 1 0
2.143894 -19.533548 -8.960379 21.597319 -1.461479 1.998611 0.036681 -0.023668 -1242400.000000 0 1 0
2.516394 -18.999048 -10.206279 21.713227 -1.439114 2.060143 0.032260 -0.006689 -103617.000000 0 1 0
3.550494 -18.049448 -10.174679 21.021719 -1.376567 2.076025 0.026092 -0.007055 347168.000000 0 1 0
4.959694 -18.568348 -9.774679 21.562154 -1.309785 2.041289 0.049851 -0.021791 -663829.000000 0 1 0
5.112294 -18.928548 -8.442679 21.347232 -1.307006 1.977401 0.045427 -0.027277 -702850.000000 0 1 0
6.194994 -19.777048 -8.261679 22.310646 -1.267236 1.950131 0.051285 -0.026471 -589252.000000 0 1 0
5.815094 -20.877648 -7.244879 22.851253 -1.299149 1.893409 0.046549 -0.027485 -523310.000000 0 1 0
4.843594 -21.731148 -7.724879 23.566437 -1.351494 1.904761 0.055584 -0.038816 -382600.000000 0 1 0
4.749494 -22.775848 -6.794779 24.237697 -1.365211 1.854944 0.075289 -0.037189 -12985.700000 0 1 0
3.912594 -23.942648 -7.318079 25.339950 -1.408813 1.863765 0.065158 -0.034181 167138.000000 0 0 1
4.507094 -24.435748 -8.503079 26.262560 -1.388400 1.900510 0.080301 -0.036837 -113959.000000 0 0 1
3.626894 -25.300208 -9.124479 27.138736 -1.428412 1.913692 0.075346 -0.034116 -217351.000000 0 0 1
4.314194 -26.145998 -10.186579 28.389996 -1.407266 1.937788 0.064605 -0.032125 364586.000000 0 0 1
5.058694 -27.277258 -9.631479 29.366726 -1.387425 1.904953 0.080359 -0.038867 201865.000000 0 0 1
5.792894 -27.935968 -10.612379 30.440081 -1.366331 1.926907 0.101738 -0.025031 -14460.300000 0 0 1
5.708394 -29.524888 -10.567879 31.874517 -1.379811 1.908738 0.093213 -0.037443 -171549.000000 0 0 1
4.454394 -29.922638 -11.063279 32.211831 -1.423018 1.921388 0.092292 -0.038514 -204057.000000 0 0 1
4.220694 -31.266658 -10.761779 33.335178 -1.436617 1.899520 0.110131 -0.040015 -251823.000000 0 0 1
2.734894 -31.554718 -11.026779 33.537587 -1.484341 1.905817 0.099420 -0.043928 -305007.000000 0 0 1
2.472594 -31.484268 -12.408379 33.931412 -1.492423 1.945170 0.104535 -0.045420 268729.000000 0 0 1
1.858794 -32.686788 -12.859479 35.174528 -1.513991 1.945064 0.100627 -0.044778 -249985.000000 0 0 1
1.453394 -32.667588 -14.359179 35.713719 -1.526335 1.984566 0.096080 -0.032750 266328.000000 0 0 1
0.416394 -31.721388 -14.617279 34.929711 -1.557670 2.002564 0.093117 -0.030399 282572.000000 0 0 1
0.126794 -31.689128 -16.017879 35.507596 -1.566795 2.038807 0.085041 -0.030327 -257000.000000 0 0 1
-0.939306 -30.691978 -16.476179 34.847443 1.540202 2.063272 0.100246 -0.028711 -42603.900000 0 0 1
-2.212406 -30.957828 -15.936079 34.888974 1.499452 2.045152 0.133792 -0.035003 409553.000000 0 0 1
-3.260406 -30.780318 -16.917179 35.273917 1.465265 2.070989 0.130516 -0.028473 1741210.000000 0 0 1
-4.724706 -30.710378 -16.327379 35.100335 1.418146 2.054615 0.160635 -0.029790 533112.000000 0 0 1
-5.000406 -29.416448 -15.793079 33.760226 1.402419 2.057598 0.146672 -0.018995 685817.000000 0 0 1
-6.368806 -28.995418 -15.717879 33.590887 1.354581 2.057733 0.136660 -0.033152 1192060.000000 0 0 1
-7.415006 -29.759728 -14.842079 34.072145 1.326606 2.021509 0.132287 -0.039783 106085.000000 0 0 1
-7.716106 -31.074508 -15.195279 35.440935 1.327409 2.013904 0.144143 -0.037351 79447.300000 0 0 1
-8.926306 -31.533008 -14.622679 35.886380 1.294936 1.990480 0.126528 -0.020205 152380.000000 0 0 1
-9.189906 -33.025018 -14.812879 37.343374 1.299392 1.978679 0.165599 -0.031810 -85774.200000 0 0 1
-8.419806 33.574292 -14.032579 37.350227 -1.325082 1.955951 0.156670 -0.038953 -130193.000000 0 0 1
-8.711006 32.203577 -14.197179 36.256198 -1.306620 1.973144 0.183227 -0.039580 -38297.100000 0 0 1
-8.133706 -21.948448 -3.564079 23.676871 1.215904 1.721901 0.124073 -0.032160 55774.300000 0 1 0
-7.783306 -20.823848 -4.295279 22.642039 1.213105 1.761657 0.088764 -0.028287 208342.000000 0 1 0
-6.444906 -20.838648 -4.770979 22.328196 1.270851 1.786132 0.080928 -0.026997 384454.000000 0 1 0
-6.136006 -19.869548 -5.945479 21.628644 1.271272 1.849271 0.068566 -0.029577 -8362.830000 0 1 0
-6.860606 -20.286748 -7.065079 22.550730 1.244689 1.889459 0.068696 -0.023937 -139405.000000 0 1 0
-6.655906 -19.316948 -8.038279 21.955854 1.238973 1.945623 0.044748 -0.016484 -293270.000000 0 1 0
-7.674706 -19.511248 -9.163879 22.881578 1.196038 1.982850 0.058320 -0.024304 170221.000000 0 1 0
-7.166006 -20.377548 -10.132379 23.859196 1.232642 2.009398 0.071003 -0.018640 420222.000000 0 1 0
-8.134306 -20.543648 -11.190079 24.767444 1.193784 2.039585 0.089861 -0.014758 584823.000000 0 1 0
-7.478206 -21.311648 -12.325079 25.729701 1.233322 2.070336 0.077272 -0.012707 -570216.000000 0 0 1
-6.543706 -20.609748 -13.116779 25.290941 1.263358 2.116051 0.072341 -0.000677 -132970.000000 0 0 1
-6.084506 -21.467148 -14.137979 26.414809 1.294607 2.135575 0.048399 -0.000275 -370009.000000 0 0 1
-5.288906 -20.736748 -15.211579 26.255997 1.321070 2.188735 0.024929 0.012252 -228716.000000 0 0 1
-4.018206 -20.435148 -14.658379 25.467810 1.376641 2.184091 0.019808 0.003649 -282186.000000 0 0 1
-3.179106 -19.683048 -15.506579 25.258327 1.410664 2.231813 0.041909 0.005436 -82032.000000 0 0 1
-3.401606 -18.142548 -15.637979 24.192341 1.385455 2.273656 0.055403 0.003103 -502340.000000 0 1 0
-4.605506 -17.739348 -16.258979 24.499991 1.316783 2.296460 0.060315 0.008776 -175235.000000 0 1 0
-4.824506 -17.943948 -17.654479 25.630875 1.308142 2.330625 0.074559 -0.003454 -1569640.000000 0 0 1
-6.274206 -17.885148 -18.003279 26.141198 1.233404 2.330482 0.070481 -0.007541 -655449.000000 0 0 1
-7.021006 -19.032748 -17.427879 26.744551 1.217392 2.280544 0.058364 -0.005726 661969.000000 0 0 1
-8.295906 -19.118048 -18.047379 27.568637 1.161386 2.284495 0.034214 0.001150 47067.700000 0 0 1
-9.066206 -20.419748 -17.802379 28.567235 1.152950 2.243592 0.062090 -0.013782 -214610.000000 0 0 1
-8.493806 -21.649948 -18.240079 29.556141 1.196924 2.235891 0.079734 -0.012931 -22346.200000 0 0 1
-9.352706 -22.749148 -18.159679 30.574022 1.180738 2.206766 0.115849 -0.004777 -207800.000000 0 0 1
-8.754606 -23.894548 -18.964379 31.737049 1.219600 2.211235 0.140986 -0.025950 -759582.000000 0 0 1
-8.793606 -23.662048 -20.345779 32.421764 1.214980 2.249179 0.130922 -0.027974 545880.000000 0 0 1
-7.917406 -24.575948 -21.066879 33.323805 1.259135 2.255169 0.153733 -0.054583 -734627.000000 0 0 1
-6.454106 -24.308548 -20.995379 32.762279 1.311276 2.266388 0.123675 -0.037106 -2254170.000000 0 0 1
-6.011806 -23.100048 -21.614679 32.201683 1.316193 2.306661 0.147326 -0.058487 114806.000000 0 0 1
-6.085606 -21.853548 -20.940479 30.872574 1.299205 2.316226 0.112400 -0.053622 -566859.000000 0 0 1
-5.437506 -21.778648 -19.512479 29.742442 1.326127 2.286367 0.112410 -0.027322 444115.000000 0 0 1
-4.037506 -22.018048 -19.534879 29.710392 1.389439 2.288305 0.113564 -0.039660 174476.000000 0 0 1
-3.362906 -22.079148 -18.292879 28.869142 1.419647 2.257056 0.055438 -0.035982 1130050.000000 0 0 1
-1.876806 -22.553748 -18.513879 29.239659 1.487773 2.256447 0.101291 -0.029625 530963.000000 0 0 1
-1.002006 -21.695348 -19.142679 28.950550 1.524644 2.293240 0.143825 -0.035387 158225.000000 0 0 1
0.286794 -22.300948 -19.293979 29.490205 -1.557937 2.283987 0.095753 -0.032806 346231.000000 0 0 1
1.352494 -21.542948 -20.042079 29.455268 -1.508097 2.319138 0.105354 -0.031080 -308025.000000 0 0 1
1.131494 -21.402548 -21.390279 30.280248 -1.517978 2.355210 0.096892 -0.039661 -463362.000000 0 0 1
2.191894 -20.742648 -22.015779 30.327486 -1.465516 2.383189 0.108902 -0.036082 -578458.000000 0 0 1
2.014194 -20.768648 -23.552779 31.466286 -1.474116 2.416606 0.132687 -0.043785 385576.000000 0 0 1
1.164094 -19.793048 -24.178279 31.268340 -1.512051 2.454749 0.135094 -0.048432 -285516.000000 0 0 1
-0.194206 -19.844748 -23.847779 31.025285 1.561010 2.447534 0.132418 -0.046280 -346305.000000 0 0 1
-1.073906 -18.735448 -24.560779 30.909581 1.513539 2.489146 0.140536 -0.054231 512954.000000 0 0 1
-0.633706 -17.420548 -24.202579 29.826866 1.534435 2.517401 0.106920 -0.041610 301593.000000 0 0 1
-1.446806 -16.443948 -24.873179 29.852499 1.483038 2.555671 0.144192 -0.050308 650767.000000 0 0 1
-0.814306 -15.022648 -24.632679 28.863679 1.516644 2.593298 0.129839 -0.030379 944986.000000 0 0 1
0.469694 -14.846948 -25.239489 29.286248 -1.539171 2.609644 0.126537 -0.036454 77509.600000 0 0 1
1.118394 -13.624448 -25.006479 28.499130 -1.488893 2.641310 0.114630 -0.034137 107787.000000 0 0 1
0.592694 -12.391348 -25.756989 28.588797 -1.523002 2.692743 0.111518 -0.026492 -308578.000000 0 0 1
1.263294 -11.200348 -25.408859 27.796651 -1.458480 2.724074 0.096689 -0.023419 57948.100000 0 0 1
0.854394 -10.083948 -26.161609 28.050772 -1.486270 2.772492 0.081075 -0.022964 -615681.000000 0 0 1
1.709894 -8.873148 -25.732999 27.273499 -1.380426 2.803885 0.084895 -0.026156 -39010.700000 0 0 1
3.060494 -8.746148 -26.072709 27.670343 -1.234189 2.800118 0.088776 -0.023958 -363134.000000 0 0 1
3.417694 -8.891348 -27.459789 29.065043 -1.203824 2.807689 0.092170 -0.029373 -821358.000000 0 0 1
4.903994 -8.567448 -27.630069 29.340604 -1.050919 2.798446 0.101273 -0.032717 -788326.000000 0 0 1
5.063194 -7.148948 -27.681579 29.034690 -0.954559 2.835097 0.100827 -0.028099 -182890.000000 0 0 1
6.311794 -6.697948 -28.120519 29.588255 -0.815071 2.825299 0.102894 -0.025791 -57073.500000 0 0 1
7.602194 -6.828148 -27.212479 29.067782 -0.731809 2.782378 0.111489 -0.026563 525753.000000 0 0 1
8.084994 -8.146848 -27.066429 29.399487 -0.789209 2.740520 0.090851 -0.027915 374695.000000 0 0 1
8.875894 -8.571948 -28.196429 30.778213 -0.767980 2.729080 0.088547 -0.038373 -412002.000000 0 0 1
9.312694 -10.044748 -28.120789 31.279418 -0.823198 2.688320 0.100481 -0.020439 315.888000 0 0 1
8.211994 -10.895248 -27.826999 30.991695 -0.924917 2.685739 0.100366 -0.034349 356773.000000 0 0 1
8.512994 -11.944248 -26.861919 30.605536 -0.951579 2.641800 0.114226 -0.032887 -234830.000000 0 0 1
9.615694 -12.972148 -27.179209 31.614041 -0.932914 2.605517 0.113791 -0.037865 -196344.000000 0 0 1
9.303394 -13.753648 -28.322979 32.831496 -0.976064 2.611336 0.135968 -0.049755 -154928.000000 0 0 1
10.153694 -14.834448 -28.493649 33.690450 -0.970571 2.578763 0.121504 -0.049103 -243000.000000 0 0 1
9.560294 -15.772648 -29.571409 34.851741 -1.025881 2.583925 0.134146 -0.050740 -42923.300000 0 0 1
9.646194 -15.123248 -30.833859 35.671958 -1.003018 2.614697 0.148301 -0.057217 33454.800000 0 0 1
8.964394 -15.816648 -31.840009 36.664873 -1.055169 2.622776 0.166767 -0.054372 374013.000000 0 0 1
7.556294 -15.147948 -32.069609 36.263173 -1.108083 2.655912 0.171529 -0.055501 393227.000000 0 0 1
7.661194 -13.957548 -32.793419 36.454292 -1.068804 2.689595 0.171545 -0.051957 345613.000000 0 0 1
6.429294 -13.508548 -33.349659 36.551559 -1.126579 2.719907 0.177468 -0.072550 317301.000000 0 0 1
6.602994 -12.192948 33.280716 36.053759 -1.074470 0.394768 0.213335 -0.058846 -218330.000000 0 0 1
7.113294 -12.510548 32.005355 35.092100 -1.053797 0.422568 0.202561 -0.050021 160051.000000 0 0 1
7.227194 -11.341248 31.251249 34.022004 -1.003438 0.406375 0.216240 -0.064883 -96171.200000 0 0 1
7.595894 -11.427248 29.727669 32.741623 -0.984144 0.432437 0.228787 -0.064140 -131363.000000 0 0 1
6.725894 -12.182348 28.922509 32.096086 -1.066341 0.448445 0.204999 -0.060368 -117820.000000 0 0 1
7.030094 -12.012748 27.582709 30.895536 -1.041316 0.467332 0.173650 -0.055611 -48932.400000 0 0 1
6.110494 -12.726948 26.562099 30.080865 -1.123177 0.488531 0.138473 -0.063657 -247973.000000 0 0 1
6.090494 -14.088348 26.750019 30.840544 -1.162753 0.520913 0.129034 -0.052835 -85258.200000 0 0 1
5.449694 -14.842848 25.739759 30.208351 -1.218917 0.550861 0.072939 -0.044425 420882.000000 0 0 1
3.896394 -14.987348 25.814399 30.102918 -1.316448 0.540332 0.076939 -0.055759 117665.000000 0 0 1
3.191494 -13.766148 25.587679 29.230494 -1.342985 0.504583 0.077947 -0.062969 52990.300000 0 0 1
1.956994 -14.194748 25.028679 28.840171 -1.433793 0.519956 0.071082 -0.060692 -85358.600000 0 0 1
0.867694 -13.179348 24.738559 28.043616 -1.505054 0.490397 0.083773 -0.056385 -1134630.000000 0 0 1
1.233194 -12.214848 23.761909 26.746057 -1.470179 0.476890 0.030897 -0.033106 179360.000000 0 0 1
0.263294 -11.190448 23.463529 25.996781 -1.547272 0.445129 0.050509 -0.023643 525134.000000 0 0 1
-1.093306 -11.693848 22.929919 25.762814 1.477573 0.473365 0.062571 -0.023802 -968771.000000 0 0 1
-0.902906 -12.277148 21.634589 24.891746 1.497385 0.517321 0.055588 -0.023002 396481.000000 0 1 0
-2.076706 -12.936148 21.154089 24.882767 1.411619 0.554526 0.097558 -0.040258 418540.000000 0 1 0
-1.958206 -13.574748 19.742689 24.039179 1.427531 0.607161 0.115271 -0.044611 58687.500000 0 1 0
-1.235806 -14.804048 19.800789 24.753955 1.487512 0.643661 0.132483 -0.050129 -128269.000000 0 1 0
-1.253506 -15.579848 18.632089 24.319903 1.490512 0.698006 0.139727 -0.042680 12029.000000 0 1 0
-2.570106 -16.298048 18.279589 24.624687 1.414390 0.734259 0.141808 -0.056846 -175082.000000 0 1 0
-2.412806 -17.253248 17.244989 24.512973 1.431851 0.790480 0.116014 -0.050471 -131445.000000 0 1 0
-3.557806 -18.081448 17.246189 25.239409 1.376513 0.818518 0.126663 -0.042901 -89824.000000 0 0 1
-3.197106 -19.406748 16.548189 25.703811 1.407521 0.871339 0.114393 -0.047864 -432248.000000 0 0 1
-2.095706 -20.038548 17.097089 26.424342 1.466591 0.867126 0.128482 -0.048251 -558484.000000 0 0 1
-2.194506 -21.445448 16.917989 27.403311 1.468822 0.905401 0.122185 -0.063477 198365.000000 0 0 1
-1.099706 -22.229648 17.703589 28.439122 1.521366 0.898853 0.135656 -0.047421 -307255.000000 0 0 1
0.158194 -22.113348 17.124089 27.968904 -1.563643 0.911887 0.126423 -0.050190 -1025490.000000 0 0 1
1.046794 -22.948548 17.873689 29.106707 -1.525213 0.909583 0.157820 -0.037645 79783.900000 0 0 1
2.396894 -23.078048 17.131989 28.841748 -1.467307 0.934775 0.154807 -0.046400 -115904.000000 0 0 1
3.154294 -21.881648 17.264189 28.050104 -1.427630 0.907806 0.141127 -0.047476 187996.000000 0 0 1
4.243194 -21.986648 16.313989 27.704939 -1.380151 0.941164 0.140642 -0.038860 354768.000000 0 0 1
5.231094 -20.811848 16.442289 27.034168 -1.324546 0.917000 0.113867 -0.031986 -878772.000000 0 0 1
5.963894 -21.056148 17.617489 28.094578 -1.294788 0.893000 0.108109 -0.022814 -159255.000000 0 0 1
6.672694 -19.937848 18.132589 27.763887 -1.247839 0.859126 0.092066 -0.024445 722984.000000 0 0 1
7.739794 -19.110748 17.303189 26.917010 -1.185990 0.872603 0.091179 -0.024616 152004.000000 0 0 1
7.211994 -18.451548 16.158989 25.565316 -1.198193 0.886579 0.074423 -0.023810 765772.000000 0 0 1
8.202594 -17.545748 15.624989 24.885259 -1.133487 0.891968 0.109705 -0.032182 701453.000000 0 1 0
7.492394 -16.543648 14.691889 23.359791 -1.145545 0.890608 0.070602 -0.022375 452262.000000 0 1 0
6.712494 -17.126148 13.627289 22.892477 -1.197254 0.933190 0.073946 -0.026078 224366.000000 0 1 0
6.184294 -16.172148 12.801089 21.532574 -1.205550 0.934154 0.046734 -0.020224 -243918.000000 0 1 0
6.554694 -16.394048 11.317689 20.971860 -1.190444 1.000762 0.051830 -0.021917 1227100.000000 0 1 0
7.971394 -16.129448 11.157689 21.170646 -1.111789 1.015687 0.065677 -0.018084 816855.000000 0 1 0
8.413894 -16.407448 9.884189 20.921165 -1.096954 1.078729 0.067791 -0.019795 449153.000000 0 1 0
9.965894 -16.273048 9.870589 21.483939 -1.021297 1.093431 0.071290 -0.004324 496296.000000 0 1 0
10.572994 -16.692848 8.686489 21.584589 -1.006190 1.156616 0.074129 -0.002274 -984142.000000 0 1 0
11.803894 -16.042648 8.572389 21.683734 -0.936457 1.164361 0.074581 -0.010510 413274.000000 0 1 0
12.856294 -16.755648 7.599789 22.445330 -0.916327 1.225377 0.105266 -0.025427 641362.000000 0 1 0
13.442494 -17.843648 8.247689 23.814298 -0.925155 1.217136 0.132478 -0.033651 -477534.000000 0 1 0
14.250794 -18.630748 7.446089 24.609635 -0.917823 1.263411 0.129646 -0.027664 -60299.400000 0 1 0
14.840894 -19.853648 8.242289 26.121922 -0.928888 1.249780 0.119537 -0.029144 188820.000000 0 0 1
13.858294 -20.766648 8.711889 26.442447 -0.982332 1.235058 0.107909 -0.024945 280363.000000 0 0 1
14.431394 -21.943948 9.257989 27.848022 -0.989063 1.231899 0.073974 -0.020248 384934.000000 0 0 1
13.344494 -22.706248 10.060589 28.193344 -1.039469 1.205910 0.089300 -0.026281 311902.000000 0 0 1
13.165894 -22.147048 11.324789 28.143975 -1.034448 1.156673 0.107469 -0.030175 -173448.000000 0 0 1
12.150094 -22.670748 12.162189 28.451827 -1.078814 1.129108 0.136716 -0.039646 -258712.000000 0 0 1
12.372594 -24.085648 12.701889 29.908820 -1.096256 1.132180 0.116540 -0.026983 225077.000000 0 0 1
13.560994 -24.174048 13.487089 30.825099 -1.059567 1.117940 0.097401 -0.029085 398761.000000 0 0 1
13.899094 -25.519358 13.719689 32.134908 -1.072071 1.129690 0.094598 -0.039176 258650.000000 0 0 1
15.204694 -25.752558 14.530089 33.249067 -1.037455 1.118527 0.079090 -0.032544 110449.000000 0 0 1
15.081494 -25.336598 15.900089 33.499365 -1.033880 1.076243 0.078452 -0.026258 902205.000000 0 0 1
16.243894 -25.654608 16.694289 34.651440 -1.006339 1.068114 0.087812 -0.027834 328987.000000 0 0 1
16.058894 -25.276788 18.155589 35.020415 -1.004809 1.025784 0.102951 -0.023837 -6127.490000 0 0 1
16.201994 -23.902748 18.571289 34.332765 -0.975105 0.999265 0.075546 -0.015821 -497924.000000 0 0 1
17.529094 -23.682948 18.919589 35.015739 -0.933625 0.999983 0.072140 -0.020231 -542484.000000 0 0 1
17.960794 -22.200948 19.246389 34.436836 -0.890585 0.977750 0.082654 -0.025902 -55574.500000 0 0 1
17.946794 -21.352448 18.082389 33.241348 -0.871842 0.995632 0.075576 -0.025129 579018.000000 0 0 1
16.675694 -20.883948 17.635189 32.019025 -0.896975 0.987507 0.095866 -0.025863 -257636.000000 0 0 1
16.890194 -19.817348 16.564289 30.860680 -0.864972 1.004223 0.098766 -0.027913 287941.000000 0 0 1
17.685894 -18.669148 16.893189 30.768616 -0.812437 0.989582 0.100970 -0.028525 354379.000000 0 0 1
19.076594 -18.917548 16.853389 31.714772 -0.781212 1.010538 0.086203 -0.030393 -549742.000000 0 0 1
19.827694 -17.594048 17.008989 31.495931 -0.725780 1.000314 0.089839 -0.031917 -502591.000000 0 0 1
20.304494 -17.329948 18.297689 32.363637 -0.706524 0.969905 0.095615 -0.027621 545805.000000 0 0 1
21.163494 -16.166548 18.281589 32.302743 -0.652331 0.969217 0.101634 -0.029333 136276.000000 0 0 1
21.670994 -15.858648 19.749589 33.334291 -0.631745 0.936674 0.089017 -0.021000 -236511.000000 0 0 1
22.645394 -16.776648 20.157589 34.649649 -0.637614 0.949912 0.090536 -0.024252 -426822.000000 0 0 1
23.007194 -16.492748 21.477989 35.533726 -0.621947 0.921734 0.084543 -0.018141 174328.000000 0 0 1
35.967551 -2.058248 -7.860579 36.873972 -0.057163 1.785619 0.173373 -0.026664 -91305.000000 0 0 1
37.163331 -1.439648 -8.262679 38.098000 -0.038719 1.789413 0.195170 -0.028664 155587.000000 0 0 1
-37.808306 -2.349148 -8.170679 38.752375 0.062053 1.783234 0.225619 -0.041799 -4547.180000 0 0 1
-36.489446 -1.821548 -8.753179 37.568815 0.049878 1.805948 0.212226 -0.048474 283178.000000 0 0 1
-35.435072 -2.780348 -8.731979 36.600849 0.078303 1.811693 0.248908 -0.037009 -253337.000000 0 0 1
-34.194979 -2.296748 -9.137579 35.469241 0.067066 1.831354 0.276100 -0.046436 -406298.000000 0 0 1
-33.101706 -3.373448 -8.900479 34.443020 0.101561 1.832174 0.262651 -0.043640 -229764.000000 0 0 1
-32.765896 -3.482948 -7.528579 33.799621 0.105900 1.795422 0.272241 -0.050518 -106854.000000 0 0 1
-31.582186 -4.229948 -7.463879 32.726693 0.133142 1.800888 0.257859 -0.060856 -78977.300000 0 0 1
-30.834356 -4.313048 -6.073879 31.721474 0.138976 1.763461 0.265584 -0.081216 -108648.000000 0 0 1
-30.263456 -3.120148 -5.671779 30.948040 0.102737 1.755106 0.246124 -0.073552 341413.000000 0 0 1
-29.837126 -3.179248 -4.299179 30.312451 0.106153 1.713105 0.248829 -0.070064 -257306.000000 0 0 1
-29.753636 -1.789648 -3.601179 30.024161 0.060077 1.691029 0.262417 -0.067930 -823775.000000 0 0 1
-28.570766 -1.070948 -3.670579 28.825488 0.037467 1.698481 0.214030 -0.053691 -126997.000000 0 0 1
-28.844196 0.206752 -3.143979 29.015772 -0.007168 1.679364 0.251768 -0.074868 -48655.500000 0 0 1
-27.517566 0.831552 -2.689079 27.661148 -0.030210 1.668165 0.277538 -0.048166 133882.000000 0 0 1
-26.819126 0.028352 -1.733379 26.875099 -0.001057 1.635339 0.256045 -0.056749 879906.000000 0 0 1
-25.552136 0.575252 -1.337179 25.593566 -0.022509 1.623067 0.231193 -0.049050 947686.000000 0 0 1
-24.934506 -0.107948 -0.054379 24.934799 0.004329 1.572977 0.213315 -0.049940 213272.000000 0 1 0
-24.747706 -1.503348 -0.136479 24.793702 0.060672 1.576301 0.191242 -0.045812 237732.000000 0 1 0
-23.853106 -1.875748 0.894721 23.943468 0.078476 1.533420 0.163774 -0.039381 -36158.600000 0 1 0
-23.721706 -3.437948 0.947221 23.988249 0.143926 1.531299 0.134147 -0.025929 174961.000000 0 1 0
-24.906606 -4.128648 1.338321 25.281928 0.164271 1.517836 0.149871 -0.041870 447396.000000 0 0 1
-24.752306 -5.496148 1.124021 25.380066 0.218501 1.526494 0.118482 -0.020873 819530.000000 0 0 1
-26.026986 -6.330048 1.588821 26.832776 0.238579 1.511550 0.168558 -0.031375 996852.000000 0 0 1
-26.241426 -6.328148 2.997721 27.159607 0.236633 1.460197 0.173346 -0.043000 693254.000000 0 0 1
-27.487066 -6.985748 3.294321 28.551568 0.248878 1.455157 0.209547 -0.036528 835920.000000 0 0 1
-27.704246 -7.195548 4.857321 29.032650 0.254113 1.402700 0.200661 -0.037325 265664.000000 0 0 1
-26.705876 -8.097648 5.332721 28.411506 0.294405 1.381981 0.206404 -0.021994 174008.000000 0 0 1
-26.831896 -8.438848 6.712321 28.917470 0.304713 1.336540 0.175841 -0.030379 -37419.200000 0 0 1
-26.172856 -7.406048 7.658821 28.258194 0.275758 1.296333 0.149536 -0.013923 484700.000000 0 0 1
-24.760506 -7.238148 7.538221 26.875607 0.284402 1.286496 0.178062 -0.030635 496802.000000 0 0 1
-24.409906 -6.033048 8.228221 26.456470 0.242300 1.254541 0.180412 -0.037603 -194331.000000 0 0 1
-23.026506 -5.500348 7.836721 24.937683 0.234477 1.251128 0.176737 -0.050819 -245622.000000 0 1 0
-21.932606 -6.151448 8.430521 24.288953 0.273445 1.216327 0.175527 -0.057013 648821.000000 0 1 0
-20.698006 -5.592748 7.928021 22.859130 0.263905 1.216617 0.157154 -0.049209 -33230.000000 0 1 0
-19.491506 -6.062748 8.680421 22.181647 0.301559 1.168716 0.163311 -0.056830 -870689.000000 0 1 0
-19.110906 -5.314148 9.824321 22.135587 0.271217 1.110934 0.133164 -0.044178 186367.000000 0 1 0
-18.129106 -5.906748 10.626921 21.828551 0.314970 1.062333 0.131818 -0.048785 -1092840.000000 0 1 0
-17.819906 -4.978348 11.795721 21.942471 0.272424 1.003238 0.111980 -0.033142 67093.900000 0 1 0
-18.888006 -4.871248 12.738521 23.297119 0.252402 0.992276 0.136446 -0.038229 83130.700000 0 1 0
-19.550206 -3.653848 12.547721 23.516090 0.184764 1.007968 0.171765 -0.036957 -707693.000000 0 1 0
-20.771406 -3.724948 13.472421 25.036627 0.177444 1.002605 0.161735 -0.039963 -575309.000000 0 0 1
-20.581806 -3.848048 14.857121 25.673961 0.184830 0.953682 0.156914 -0.034053 -182170.000000 0 0 1
-21.816306 -3.961548 15.511621 27.060219 0.179629 0.960359 0.133442 -0.024068 -190964.000000 0 0 1
-21.623006 -4.540948 16.889721 27.810741 0.206997 0.918127 0.119174 -0.022059 -386091.000000 0 0 1
-22.739606 -4.476548 17.726221 29.177870 0.194376 0.917858 0.101085 -0.021221 -53496.300000 0 0 1
-22.549106 -5.105048 19.012921 29.933508 0.222644 0.882565 0.105037 -0.013045 -470081.000000 0 0 1
-23.430606 -4.690348 20.176121 31.274087 0.197569 0.869592 0.119287 -0.027830 -718256.000000 0 0 1
-23.322906 -3.296448 20.355121 31.131262 0.140409 0.858137 0.132420 -0.026945 177909.000000 0 0 1
-23.654706 -2.950048 21.636821 32.193166 0.124072 0.833764 0.131391 -0.028083 -205668.000000 0 0 1
-23.826706 -1.424448 21.825021 32.343045 0.059713 0.830105 0.123761 -0.022907 -448312.000000 0 0 1
-25.019946 -0.902648 21.337721 32.895453 0.036062 0.864984 0.131611 -0.036138 -548307.000000 0 0 1
-25.194006 0.487152 21.406721 33.063923 -0.019334 0.866583 0.117406 -0.031793 123492.000000 0 0 1
-26.628736 0.927952 21.043221 33.952435 -0.034834 0.902327 0.139607 -0.037344 234781.000000 0 0 1
-27.643006 0.586852 21.938321 35.295469 -0.021226 0.900061 0.145382 -0.042528 -16778.200000 0 0 1
-28.933616 1.102952 21.669921 36.165676 -0.038102 0.928314 0.117216 -0.041015 321745.000000 0 0 1
-29.823806 1.063552 22.940621 37.641236 -0.035646 0.915424 0.093511 -0.035570 -407583.000000 0 0 1
-29.452766 1.911652 23.967021 38.020231 -0.064815 0.888760 0.085794 -0.033469 490175.000000 0 0 1
-30.361816 1.886652 25.098021 39.437419 -0.062059 0.880973 0.085966 -0.031378 183656.000000 0 0 1
-30.031956 2.933052 26.200121 39.962076 -0.097356 0.855787 0.108466 -0.035423 1043120.000000 0 0 1
-28.750626 2.584652 26.785121 39.379203 -0.089658 0.822782 0.086883 -0.038286 1081490.000000 0 0 1
-28.326326 3.471752 27.806621 39.845226 -0.121954 0.798383 0.078856 -0.036133 -423442.000000 0 0 1
-27.002526 3.028152 28.425621 39.323302 -0.111677 0.762850 0.104746 -0.036548 -470116.000000 0 0 1
-27.101656 1.881552 29.233821 39.908098 -0.069314 0.748767 0.097735 -0.035572 926530.000000 0 0 1
-25.894636 1.655652 29.987421 39.654997 -0.063851 0.713298 0.081336 -0.037166 656887.000000 0 0 1
-26.066666 0.500052 31.000221 40.505985 -0.019181 0.699251 0.081042 -0.043662 -167548.000000 0 0 1
-26.522406 -0.610248 30.308321 40.279086 0.023005 0.719010 0.065590 -0.043861 117483.000000 0 0 1
-27.028966 -1.704548 31.047121 41.199445 0.062980 0.717303 0.069159 -0.036296 -368325.000000 0 0 1
-27.983406 -2.640948 30.273121 41.309896 0.094097 0.748325 0.060823 -0.032282 1192410.000000 0 0 1
-29.331226 -2.175048 29.980521 41.998611 0.074019 0.775822 0.082677 -0.041458 1250460.000000 0 0 1
-29.325586 -1.339548 28.839721 41.152326 0.045647 0.794272 0.081887 -0.039911 -1440660.000000 0 0 1
-30.709696 -1.137548 28.326021 41.794054 0.037025 0.826095 0.089730 -0.050880 -899937.000000 0 0 1
-31.579106 -0.470548 29.199921 43.012751 0.014900 0.824578 0.124267 -0.050878 15990.900000 0 0 1
-32.931726 -0.497148 28.722821 43.700643 0.015095 0.853615 0.127831 -0.054930 474446.000000 0 0 1
-33.889026 -0.056948 29.819121 45.140329 0.001680 0.849196 0.137635 -0.054613 -473500.000000 0 0 1
-34.210120 -1.158748 30.639921 45.939959 0.033859 0.840681 0.145006 -0.056043 16352.100000 0 0 1
-34.997799 -0.744048 31.742221 47.254292 0.021257 0.834252 0.166088 -0.056799 39120.300000 0 0 1
-35.352758 -1.799048 32.777721 48.243477 0.050845 0.823821 0.160289 -0.048342 -383887.000000 0 0 1
-36.291386 -2.707448 32.319121 48.671558 0.074465 0.844608 0.123441 -0.043923 -532564.000000 0 0 1
-36.703526 -3.557848 33.355221 49.723012 0.096633 0.835482 0.106462 -0.028147 343531.000000 0 0 1
-37.885036 -4.494048 32.935921 50.400866 0.118072 0.858625 0.099855 -0.038483 29206.100000 0 0 1
36.906581 -3.902648 32.922421 49.610605 -0.105352 0.845153 0.104612 -0.042778 -322585.000000 0 0 1
35.948601 -4.887348 32.487821 48.699554 -0.135125 0.840478 0.098103 -0.038215 -93158.700000 0 0 1
34.523961 -4.550648 32.964821 47.950930 -0.131056 0.812797 0.108673 -0.038966 -701751.000000 0 0 1
34.298191 -4.709048 -33.072047 47.877984 -0.136444 2.333332 0.099827 -0.041882 167492.000000 0 0 1
34.072241 -6.016248 -32.627847 47.557221 -0.174772 2.326877 0.097678 -0.038172 582457.000000 0 0 1
32.721301 -6.683348 -33.145847 47.053138 -0.201479 2.352422 0.083439 -0.031636 642369.000000 0 0 1
31.549041 -6.377248 -32.447347 45.703847 -0.199450 2.360220 0.086822 -0.030232 178277.000000 0 0 1
30.348091 -6.774348 -33.104147 45.417870 -0.219621 2.387480 0.095116 -0.030059 510589.000000 0 0 1
29.140791 -6.402948 -32.188247 43.889255 -0.216288 2.394102 0.101288 -0.032066 -76178.200000 0 0 1
27.913591 -6.892348 -32.689447 43.534733 -0.242075 2.420193 0.089735 -0.026810 -8366.950000 0 0 1
26.860691 -6.442548 -31.845647 42.156238 -0.235404 2.427091 0.102084 -0.023868 374331.000000 0 0 1
25.445491 -6.744148 -32.459547 41.792089 -0.259086 2.460192 0.108157 -0.032130 577244.000000 0 0 1
25.034391 -8.115048 -32.507147 41.824506 -0.313468 2.461043 0.112680 -0.041619 231380.000000 0 0 1
24.723491 -8.691548 -31.233047 40.771279 -0.338055 2.443478 0.115410 -0.041997 -383357.000000 0 0 1
24.487091 -10.193748 -31.264847 41.000253 -0.394471 2.438046 0.108451 -0.032010 194588.000000 0 0 1
23.235191 -10.482148 -31.862547 40.804061 -0.423795 2.466849 0.118402 -0.039362 316287.000000 0 0 1
23.155091 -11.902548 -31.976347 41.234884 -0.474813 2.458253 0.104379 -0.025218 340908.000000 0 0 1
21.794491 -12.397348 -32.602247 41.129072 -0.517185 2.485991 0.095001 -0.022853 1729800.000000 0 0 1
20.557591 -12.235648 -31.885447 39.862355 -0.536874 2.497906 0.096564 -0.018637 840341.000000 0 0 1
19.966791 -10.955848 -31.956247 39.241624 -0.501847 2.522397 0.097425 -0.027701 -323440.000000 0 0 1
18.536691 -10.808248 -31.418947 38.047041 -0.527880 2.542402 0.108668 -0.031899 -658282.000000 0 0 1
17.484091 -11.152748 -32.230647 38.326125 -0.567808 2.569847 0.091463 -0.010018 212583.000000 0 0 1
16.239891 -11.031948 -31.488247 37.107245 -0.596706 2.584081 0.116627 -0.017848 940680.000000 0 0 1
15.014091 -11.433748 -32.329847 37.434910 -0.650842 2.613219 0.106178 -0.015708 -784806.000000 0 0 1
14.924291 -12.807848 -32.717347 38.173292 -0.709228 2.600360 0.127589 -0.021253 1100990.000000 0 0 1
13.710991 -13.163748 -33.425347 38.451650 -0.765038 2.624545 0.113662 -0.024359 824914.000000 0 0 1
12.406891 -13.291748 -32.636447 37.359593 -0.819817 2.633299 0.100243 -0.023877 -566049.000000 0 0 1
11.696091 -12.112548 -32.441947 36.551228 -0.802888 2.662850 0.167771 -0.034566 312425.000000 0 0 1
10.551091 -12.302448 -31.589347 35.504402 -0.861883 2.667551 0.153717 -0.040834 750687.000000 0 0 1
9.407191 -11.266648 -31.810047 35.033008 -0.875099 2.709287 0.142028 -0.042804 -27349.800000 0 0 1
9.723091 -9.921548 -31.537747 34.461647 -0.795500 2.726688 0.131163 -0.038231 165617.000000 0 0 1
8.679091 -9.150248 -32.094347 34.483340 -0.811818 2.767174 0.118010 -0.036395 -15692.800000 0 0 1
8.952491 -7.632048 -32.214147 34.294993 -0.705947 2.791454 0.130580 -0.033857 -168246.000000 0 0 1
9.017291 -6.900648 -31.000547 33.014609 -0.653202 2.790492 0.127454 -0.035666 158724.000000 0 0 1
9.431091 -5.583448 -31.313047 33.175703 -0.534535 2.804907 0.104010 -0.021854 -35992.900000 0 0 1
9.662291 -4.731948 -30.022847 31.892359 -0.455401 2.797496 0.099701 -0.018548 -736096.000000 0 0 1
8.517391 -4.428148 -29.303847 30.836178 -0.479437 2.825018 0.117066 -0.017863 -843639.000000 0 0 1
8.591191 -3.280148 -28.516847 29.962952 -0.364722 2.829643 0.132222 -0.026072 -481835.000000 0 0 1
7.241991 -2.696148 -28.139247 29.181036 -0.356396 2.873580 0.142726 -0.026398 -507339.000000 0 0 1
6.439191 -2.144048 -29.235147 30.012563 -0.321422 2.913489 0.126987 -0.011458 877693.000000 0 0 1
5.275191 -1.457848 -28.764647 29.280674 -0.269630 2.953574 0.157635 -0.021849 134443.000000 0 0 1
4.034291 -2.345548 -28.710847 29.087623 -0.526633 2.980464 0.140771 -0.022237 -742511.000000 0 0 1
4.137391 -3.215948 -27.621247 28.113940 -0.660739 2.954102 0.146472 -0.037379 119499.000000 0 0 1
3.038891 -4.117948 -27.627047 28.097083 -0.935044 2.958421 0.136027 -0.035897 314567.000000 0 0 1
3.026491 -5.164048 -26.501147 27.168692 -1.040683 2.919459 0.098970 -0.037315 -388458.000000 0 0 1
2.860991 -4.644748 -25.200347 25.784035 -1.018722 2.928410 0.091271 -0.041152 146117.000000 0 0 1
3.215791 -5.660548 -24.243647 25.102540 -1.054159 2.879248 0.083370 -0.042508 50034.000000 0 0 1
3.156991 -5.189648 -22.774147 23.570337 -1.024278 2.880935 0.106174 -0.052751 218910.000000 0 1 0
4.160291 -4.212048 -22.522547 23.287647 -0.791580 2.884549 0.117495 -0.054268 261302.000000 0 1 0
4.102891 -3.693148 -21.213047 21.919544 -0.732889 2.887011 0.101772 -0.052573 516022.000000 0 1 0
5.135691 -2.516848 -21.157447 21.916829 -0.455672 2.877584 0.106321 -0.044782 759004.000000 0 1 0
6.499791 -2.815248 -20.953047 22.117936 -0.408736 2.815599 0.104650 -0.045424 323959.000000 0 1 0
7.316791 -1.713348 -20.521747 21.854361 -0.230022 2.790574 0.113089 -0.034290 323007.000000 0 1 0
8.797491 -2.040848 -20.289147 22.208340 -0.227949 2.722804 0.116603 -0.041753 -934364.000000 0 1 0
9.487391 -2.201648 -21.500447 23.603539 -0.228024 2.716255 0.125164 -0.055314 347608.000000 0 1 0
10.770391 -2.828848 -21.534147 24.243003 -0.256849 2.664345 0.111462 -0.047859 1007370.000000 0 1 0
11.924791 -2.160248 -20.752147 24.031623 -0.179213 2.613034 0.104088 -0.044020 -859038.000000 0 1 0
11.746191 -2.341648 -19.352647 22.759202 -0.196774 2.587393 0.097767 -0.024301 585402.000000 0 1 0
12.839491 -1.872948 -18.534847 22.625229 -0.144852 2.530831 0.098680 -0.031200 456893.000000 0 1 0
12.964491 -0.332148 -18.461147 22.561079 -0.025614 2.529198 0.089102 -0.036137 -99635.200000 0 1 0
13.304991 0.279852 -19.702047 23.775444 0.021030 2.547527 0.096387 -0.046876 142357.000000 0 1 0
13.427691 1.676352 -19.533447 23.762756 0.124200 2.535745 0.121558 -0.060407 61564.800000 0 1 0
14.005391 2.529952 -20.717047 25.134591 0.178714 2.539663 0.125086 -0.056311 140942.000000 0 0 1
15.387491 2.305152 -20.953647 26.098734 0.148701 2.502875 0.143121 -0.055624 244125.000000 0 0 1
15.896991 3.334952 -21.738547 27.136703 0.206786 2.499886 0.125175 -0.044274 -642152.000000 0 0 1
17.349591 3.277352 -22.173747 28.344742 0.186701 2.469127 0.088874 -0.027507 -512604.000000 0 0 1
17.648591 2.130352 -23.003047 29.071486 0.120128 2.483660 0.066881 -0.018749 -764597.000000 0 0 1
19.004091 1.858552 -22.967247 29.868112 0.097487 2.448002 0.078405 -0.023684 -788724.000000 0 0 1
10.194994 26.608452 3.027221 28.655046 1.204901 1.464955 0.034661 -0.016647 81537.800000 0 0 1
10.021994 26.895952 4.435921 29.043243 1.214113 1.417461 0.042451 -0.016014 -227808.000000 0 0 1
11.231694 27.316452 5.005721 29.956580 1.180698 1.402910 0.041445 -0.015862 -366398.000000 0 0 1
11.199494 27.715152 6.534821 30.598401 1.186767 1.355571 0.047620 -0.020577 -5098.340000 0 0 1
11.093994 26.589752 7.405221 29.747754 1.175527 1.319217 0.044626 -0.026304 126794.000000 0 0 1
11.006494 27.059552 8.732621 30.489685 1.184484 1.280316 0.043006 -0.023669 -624326.000000 0 0 1
10.977294 25.980652 9.833021 29.869441 1.171030 1.235340 0.062951 -0.017069 341718.000000 0 0 1
12.190394 25.355252 10.253921 29.943904 1.122640 1.221286 0.056261 -0.016991 427895.000000 0 0 1
12.929394 24.706252 9.243821 29.377139 1.088663 1.250698 0.060625 -0.027434 48387.700000 0 0 1
14.366394 24.325652 9.723321 29.877643 1.037328 1.239321 0.072657 -0.026233 381394.000000 0 0 1
15.305394 25.355952 9.944821 31.242260 1.027718 1.246847 0.073934 -0.029999 183033.000000 0 0 1
16.482494 24.708252 10.443221 31.483824 0.982504 1.232690 0.075604 -0.030071 468099.000000 0 0 1
17.665494 25.683552 10.612121 32.929191 0.968296 1.242669 0.067027 -0.021948 -728746.000000 0 0 1
18.407394 26.078052 9.433321 33.284898 0.956150 1.283447 0.049266 -0.022266 267841.000000 0 0 1
19.791394 26.111952 9.663521 34.160166 0.922231 1.283992 0.047670 -0.026626 -201706.000000 0 0 1
20.451594 26.975552 10.769221 35.523572 0.922098 1.262792 0.052544 -0.023927 -1172370.000000 0 0 1
20.504594 28.379752 10.615621 36.586064 0.945124 1.276408 0.059773 -0.036211 1067850.000000 0 0 1
19.273094 29.049752 11.014221 36.560269 0.985023 1.264780 0.040505 -0.018570 1000180.000000 0 0 1
19.405194 30.568352 11.102121 37.871398 1.005171 1.273273 0.041827 -0.021979 -625905.000000 0 0 1
19.615794 31.309852 9.859621 38.240009 1.011115 1.310015 0.074025 -0.041665 250855.000000 0 0 1
18.569294 31.319252 8.880221 37.477627 1.035611 1.331574 0.074409 -0.043089 385341.000000 0 0 1
17.296994 32.078752 9.286321 37.609414 1.076280 1.321301 0.066359 -0.033124 -183870.000000 0 0 1
17.615994 33.427252 9.707221 39.011979 1.085787 1.319328 0.066596 -0.027014 714373.000000 0 0 1
16.404794 -33.425148 10.087821 38.576183 -1.114542 1.306216 0.068499 -0.026407 1030800.000000 0 0 1
16.873094 -31.910248 10.336121 37.547312 -1.084401 1.291913 0.087410 -0.021224 373908.000000 0 0 1
17.421894 -31.308848 9.189821 36.989447 -1.063013 1.319722 0.088248 -0.019145 12.825000 0 0 1
17.281194 -29.933748 9.199221 35.767228 -1.047224 1.310676 0.077342 -0.019201 -162748.000000 0 0 1
17.701394 -29.178948 7.954121 35.043093 -1.025502 1.341820 0.074089 -0.016322 193741.000000 0 0 1
16.949894 -29.497648 6.753621 34.684601 -1.049249 1.374829 0.065986 -0.017679 271379.000000 0 0 1
17.503494 -28.865648 5.580121 34.216015 -1.025700 1.406980 0.061599 -0.004654 104873.000000 0 0 1
17.087594 -29.343348 4.186321 34.213202 -1.043469 1.448129 0.057860 -0.009590 74571.900000 0 0 1
17.604894 -30.652048 3.823221 35.554147 -1.049453 1.463056 0.061132 -0.012118 115990.000000 0 0 1
17.512694 -30.802648 2.384321 35.513132 -1.053827 1.503607 0.050252 -0.012306 -63364.300000 0 0 1
17.853494 -32.218848 1.916821 36.884626 -1.064786 1.518805 0.055155 -0.010648 1276410.000000 0 0 1
19.277794 -32.505948 1.881721 37.839277 -1.035500 1.521047 0.053124 0.000270 1281150.000000 0 0 1
19.528194 33.705852 1.430421 38.980519 1.045683 1.534092 0.076766 -0.003850 -194102.000000 0 0 1
20.932994 33.138752 1.670221 39.232088 1.007410 1.528211 0.095927 -0.007988 -73765.700000 0 0 1
21.239994 32.654452 3.007521 39.070394 0.994107 1.493743 0.094186 -0.034016 -53927.400000 0 0 1
22.609894 32.446552 3.233821 39.679259 0.962198 1.489207 0.065057 -0.018918 -69159.300000 0 0 1
22.951594 32.174652 4.710321 39.801645 0.951171 1.452173 0.071995 -0.012405 -116476.000000 0 0 1
22.260794 31.077152 5.253721 38.586706 0.949209 1.434218 0.088897 -0.029920 -180622.000000 0 0 1
22.894994 29.838352 5.131821 37.958445 0.916314 1.435185 0.071149 -0.035571 79008.200000 0 0 1
22.206694 28.791252 6.058621 36.861637 0.913802 1.405686 0.085531 -0.044708 931249.000000 0 0 1
20.920594 28.354152 5.618021 35.681806 0.935128 1.412691 0.085917 -0.042229 252959.000000 0 0 1
20.003294 28.003052 6.642321 35.048867 0.950521 1.380127 0.075857 -0.042910 -1140510.000000 0 0 1
18.603894 28.154152 6.166621 34.304348 0.986875 1.390052 0.084959 -0.038841 -1580710.000000 0 0 1
18.158494 29.503252 6.077921 35.172630 1.019076 1.397122 0.082324 -0.042693 -194569.000000 0 0 1
18.585794 30.220452 4.883121 35.812739 1.019415 1.434019 0.097120 -0.042127 -314760.000000 0 0 1
18.449794 31.780952 4.955221 37.080696 1.044816 1.436762 0.105278 -0.037804 -701012.000000 0 0 1
17.164394 32.243452 5.187621 36.894010 1.081615 1.429720 0.083061 -0.036063 -1136570.000000 0 0 1
17.155494 33.602852 5.591421 38.140878 1.098755 1.423667 0.081665 -0.036624 -1024190.000000 0 0 1
15.821994 -33.213448 5.686321 37.226373 -1.126228 1.417446 0.075619 -0.031746 -754324.000000 0 0 1
15.143494 -33.121848 4.442121 36.689435 -1.141966 1.449425 0.069359 -0.024754 110296.000000 0 0 1
14.067194 -32.178848 4.499821 35.406392 -1.158674 1.443361 0.061599 -0.022276 790450.000000 0 0 1
13.310794 -32.073948 3.085221 34.863075 -1.177423 1.482185 0.061310 -0.016019 274518.000000 0 0 1
12.242894 -31.153448 3.118021 33.617671 -1.196350 1.477913 0.064522 -0.022331 -99836.900000 0 0 1
11.618794 -31.059748 1.862121 33.214030 -1.212834 1.514703 0.062642 -0.023538 -581937.000000 0 0 1
10.604994 -29.912248 1.864021 31.791242 -1.230086 1.512130 0.078921 -0.024247 21425.600000 0 0 1
9.938494 -29.454348 0.693021 31.093610 -1.245372 1.548506 0.088785 -0.022230 852030.000000 0 0 1
8.926194 -30.326848 0.105821 31.613381 -1.284547 1.567449 0.077937 -0.023724 274125.000000 0 0 1
9.368094 -31.065448 -1.182379 32.468774 -1.277909 1.607220 0.091430 -0.030126 379517.000000 0 0 1
10.518394 -31.900448 -0.962079 33.603583 -1.252296 1.599430 0.079577 -0.030489 237386.000000 0 0 1
10.707394 -32.675548 -2.084779 34.448310 -1.254135 1.631352 0.087713 -0.023723 61394.700000 0 0 1
11.974394 -33.568948 -2.132179 35.704434 -1.228156 1.630549 0.070022 -0.024870 -63678.200000 0 0 1
11.904294 32.870952 -1.238079 34.982060 1.223337 1.606196 0.066042 -0.022881 453532.000000 0 0 1
13.106394 32.119252 -1.404179 34.718808 1.183366 1.611252 0.076623 -0.023728 392383.000000 0 0 1
13.269194 31.231152 -0.144479 33.933423 1.169035 1.575054 0.071116 -0.024028 -376387.000000 0 0 1
13.439994 31.952452 1.135821 34.682599 1.172637 1.538041 0.062970 -0.020789 -335436.000000 0 0 1
14.593594 32.697352 1.389021 35.833213 1.151004 1.532023 0.069763 -0.019897 -698987.000000 0 0 1
15.846494 31.881352 1.705421 35.643238 1.109515 1.522931 0.075381 -0.026650 -610849.000000 0 0 1
16.402794 31.220152 0.588921 35.271750 1.087043 1.554099 0.081352 -0.024881 -52317.600000 0 0 1
17.473294 30.354752 0.944521 35.037395 1.048484 1.543836 0.088055 -0.025559 106023.000000 0 0 1
18.045194 29.489652 -0.212079 34.573307 1.021661 1.576931 0.088022 -0.014917 429228.000000 0 0 1
19.035694 30.237252 -0.958879 35.743090 1.008936 1.597627 0.065021 -0.003015 376053.000000 0 0 1
18.542894 31.374152 -1.744279 36.485871 1.037003 1.618622 0.063447 -0.008597 -855994.000000 0 0 1
19.604494 32.112852 -2.469879 37.705062 1.022701 1.636349 0.050565 0.003168 -760656.000000 0 0 1
20.533694 32.802552 -1.669379 38.735343 1.011494 1.613907 0.047055 0.009587 -422651.000000 0 0 1
21.442694 33.492052 -2.466179 39.844556 1.001318 1.632731 0.048430 0.012845 -1671770.000000 0 0 1
22.423194 -33.210248 -1.614679 40.103957 -0.976917 1.611070 0.051582 0.010930 -403476.000000 0 0 1
23.499394 33.570352 -1.013079 40.990442 0.960067 1.595514 0.046895 0.007893 1072710.000000 0 0 1
24.426994 32.797452 -1.799579 40.933963 0.930642 1.614773 0.053333 0.012445 21370.000000 0 0 1
25.160494 33.454352 -3.003379 41.967420 0.925963 1.642422 0.053589 0.007318 -818960.000000 0 0 1
24.294894 -33.597748 -4.000879 41.654022 -0.944728 1.666995 0.029758 -0.001297 -430547.000000 0 0 1
25.053494 -32.887448 -4.923679 41.635374 -0.919789 1.689331 0.034514 -0.006421 -28643.600000 0 0 1
24.270394 -32.509748 -6.212779 41.043079 -0.929502 1.722753 0.033868 -0.012329 -32462.200000 0 0 1
23.257294 -31.544048 -5.985679 39.645391 -0.935476 1.722356 0.050376 -0.004813 -121221.000000 0 0 1
22.785394 -31.130148 -7.222479 39.248242 -0.938954 1.755872 0.054622 -0.009408 -584261.000000 0 0 1
21.937594 -29.886148 -7.166479 37.759744 -0.937589 1.761746 0.071241 -0.007948 -408607.000000 0 0 1
20.703294 -30.210748 -6.578179 37.210054 -0.970007 1.748515 0.055955 0.000486 -776387.000000 0 0 1
20.041794 -28.979948 -6.324679 35.798219 -0.965747 1.748404 0.071536 -0.014865 483116.000000 0 0 1
18.922694 -29.101648 -5.228179 35.104246 -0.994261 1.720285 0.050588 -0.004205 901565.000000 0 0 1
17.785394 -29.807248 -5.729479 35.179812 -1.032821 1.734388 0.053608 -0.012324 47334.200000 0 0 1
16.720094 -29.685248 -4.805079 34.407329 -1.057840 1.710907 0.037633 -0.013674 541955.000000 0 0 1
15.432394 -30.536448 -5.075379 34.588913 -1.102857 1.718062 0.038646 -0.016904 375994.000000 0 0 1
15.627094 -31.951448 -5.157279 35.940209 -1.115916 1.714789 0.040782 -0.006625 67773.600000 0 0 1
14.413194 -32.679048 -5.402679 36.122698 -1.155408 1.720924 0.058218 -0.011135 257983.000000 0 0 1
14.540494 33.321952 -5.635179 36.790402 1.159340 1.724571 0.060611 -0.015302 -291227.000000 0 0 1
14.805694 32.638352 -4.401579 36.108786 1.144929 1.692998 0.069390 -0.025887 27200.600000 0 0 1
15.007294 31.222552 -4.549879 34.939490 1.122744 1.701389 0.077729 -0.024392 894791.000000 0 0 1
13.697394 30.438052 -4.990779 33.749096 1.147935 1.719220 0.081940 -0.033810 1110490.000000 0 0 1
12.797794 29.977752 -3.971179 32.836251 1.167309 1.692032 0.078157 -0.027247 507313.000000 0 0 1
13.325794 28.891152 -3.171179 31.973924 1.138634 1.670140 0.088357 -0.029214 -368231.000000 0 0 1
12.228094 28.099452 -2.479079 30.744939 1.160342 1.651518 0.071254 -0.026654 -158313.000000 0 0 1
11.530294 28.779152 -1.462279 31.037485 1.189732 1.617927 0.055307 -0.024445 -372698.000000 0 0 1
10.598094 27.923952 -0.848879 29.879546 1.208056 1.599210 0.043087 -0.018930 -164427.000000 0 0 1
9.472494 28.671552 -0.145479 30.196145 1.251707 1.575614 0.028828 -0.005853 -255651.000000 0 0 1
8.555694 27.930552 0.606321 29.217858 1.273551 1.550043 0.030427 -0.009532 292392.000000 0 0 1
7.316894 28.665652 0.698721 29.592984 1.320883 1.547183 0.041777 -0.007948 824516.000000 0 0 1
6.232994 27.839352 1.448721 28.565337 1.350537 1.520059 0.039502 -0.017506 56482.700000 0 0 1
5.614494 26.837452 0.704121 27.427489 1.364567 1.545121 0.055615 -0.022156 -454654.000000 0 0 1
4.460794 26.446352 1.393921 26.856121 1.403696 1.518870 0.058837 -0.032095 -131054.000000 0 0 1
3.709994 25.248452 0.817521 25.532660 1.424901 1.538772 0.063542 -0.034119 -146008.000000 0 0 1
2.391494 25.100952 1.283521 25.247266 1.475808 1.519936 0.075525 -0.034321 -150076.000000 0 0 1
1.913394 23.824152 0.898221 23.917736 1.490655 1.533233 0.066015 -0.039612 -1062010.000000 0 1 0
0.411594 23.732352 1.087921 23.760840 1.553455 1.524994 0.066425 -0.031073 -1769340.000000 0 1 0
-0.280506 24.600752 0.311721 24.604326 -1.559394 1.558127 0.083243 -0.038029 125003.000000 0 1 0
-1.661006 24.204752 0.208921 24.262576 -1.502281 1.562185 0.077874 -0.032805 531117.000000 0 1 0
-2.590606 24.817052 1.250721 24.983226 -1.466785 1.520713 0.104636 -0.048785 -400872.000000 0 1 0
-3.942706 24.384352 1.084821 24.724853 -1.410494 1.526907 0.097299 -0.035321 263535.000000 0 1 0
-4.782106 24.906252 2.076421 25.446050 -1.381101 1.489105 0.093957 -0.046669 -335047.000000 0 0 1
-6.208306 25.185052 1.602221 25.988401 -1.329107 1.509106 0.111640 -0.050224 -348522.000000 0 0 1
-6.310006 26.188752 0.650121 26.946049 -1.334360 1.546667 0.128949 -0.053849 488569.000000 0 0 1
-7.642606 26.374752 0.148821 27.460137 -1.288751 1.565377 0.134248 -0.050358 646530.000000 0 0 1
-7.749706 27.508052 -0.855579 28.591657 -1.296189 1.600725 0.131872 -0.052101 -227160.000000 0 0 1
-7.686506 28.768552 -0.361479 29.779903 -1.309711 1.582935 0.159882 -0.065080 -73156.100000 0 0 1
-7.701206 29.697752 -1.467679 30.715128 -1.317066 1.618598 0.163435 -0.061390 1453.440000 0 0 1
-7.608506 31.171352 -1.006379 32.102264 -1.331391 1.602151 0.151457 -0.061406 -580762.000000 0 0 1
-7.792106 32.130352 -2.054879 33.125503 -1.332874 1.632869 0.133777 -0.046871 -94749.100000 0 0 1
-6.920206 32.116152 -3.190079 33.007773 -1.358567 1.667594 0.124891 -0.047221 1345030.000000 0 0 1
-5.386706 32.464052 -2.958179 33.040613 -1.406366 1.660448 0.153903 -0.046925 785468.000000 0 0 1
-5.336006 -33.689248 -2.504879 34.201065 1.413712 1.644102 0.151052 -0.048646 -47089.200000 0 0 1
-4.766406 -33.647148 -1.216579 34.004842 1.430074 1.606581 0.170471 -0.044802 -199576.000000 0 0 1
-4.484906 -32.185648 -0.822179 32.507019 1.432343 1.596091 0.173274 -0.039188 -223488.000000 0 0 1
-5.600206 -31.349648 -0.710579 31.853849 1.394024 1.593106 0.154246 -0.039847 -269168.000000 0 0 1
-5.427506 -30.289648 -1.647579 30.816151 1.393491 1.624287 0.167948 -0.033446 637415.000000 0 0 1
-6.805506 -29.570448 -1.832979 30.398785 1.344590 1.631131 0.165695 -0.035328 622827.000000 0 0 1
-7.312006 -29.031848 -0.623579 29.944991 1.324066 1.591622 0.161398 -0.029181 8287.130000 0 0 1
-8.518106 -28.299948 -0.769479 29.564122 1.278428 1.596827 0.114200 -0.022613 334133.000000 0 0 1
-8.994706 -27.696948 0.565621 29.126373 1.256787 1.551376 0.117440 -0.021817 306793.000000 0 0 1
-8.045106 -26.709348 0.999521 27.912579 1.278230 1.534980 0.147839 -0.034968 203099.000000 0 0 1
-7.950206 -26.398548 2.402621 27.674207 1.278275 1.483869 0.152835 -0.024974 -6677.510000 0 0 1
-9.047006 -25.474648 2.927121 27.191434 1.229552 1.462939 0.137624 -0.017671 10799.800000 0 0 1
-8.585806 -24.143448 2.690921 25.765543 1.229127 1.466167 0.135480 -0.028869 -414023.000000 0 0 1
-9.335506 -23.150848 3.295621 25.178852 1.187494 1.439531 0.126092 -0.030468 -583800.000000 0 0 1
-8.550406 -21.878448 3.548821 23.756474 1.198234 1.420852 0.080123 -0.010520 -177133.000000 0 1 0
-7.760806 -22.075848 4.693921 23.866422 1.232740 1.372831 0.088825 -0.012821 -27341.800000 0 1 0
-6.970906 -20.893548 5.058921 22.599260 1.248771 1.345030 0.057859 -0.009579 -116325.000000 0 1 0
-7.724206 -19.727848 5.655921 21.928083 1.197606 1.309917 0.063382 -0.019921 -259317.000000 0 1 0
-8.109206 -19.861348 7.009421 22.569102 1.183163 1.254997 0.068228 -0.022042 317791.000000 0 1 0
-8.847106 -18.734748 7.512021 22.038433 1.129611 1.222965 0.051385 -0.027290 19506.200000 0 1 0
-28.375986 28.373552 -5.308179 40.477547 -0.785355 1.702314 0.217407 -0.013239 -73367.900000 0 0 1
-27.870426 29.465452 -4.648079 40.823745 -0.813210 1.684901 0.200077 -0.026564 -1214580.000000 0 0 1
-26.529066 29.319952 -4.386979 39.783119 -0.835329 1.681293 0.173524 -0.006354 -621068.000000 0 0 1
-25.788396 30.527052 -3.700579 40.132737 -0.869345 1.663136 0.149470 -0.012108 229042.000000 0 0 1
-25.857466 30.568652 -2.264479 40.102106 -0.868698 1.627294 0.126094 -0.027814 -14644.500000 0 0 1
-25.067346 31.637552 -1.790579 40.404365 -0.900750 1.615127 0.124840 -0.026015 326456.000000 0 0 1
-23.833606 31.092752 -0.979279 39.188761 -0.916798 1.595788 0.101998 -0.011629 451496.000000 0 0 1
-22.785606 30.646952 -1.823279 38.232759 -0.931477 1.618503 0.125716 -0.027198 -353805.000000 0 0 1
-21.744106 30.145452 -1.047179 37.184015 -0.945913 1.598962 0.111660 -0.021941 257530.000000 0 0 1
-20.609806 29.443852 -1.887379 35.989814 -0.960091 1.623262 0.118098 -0.027631 -227646.000000 0 0 1
-19.475806 29.096052 -1.193579 35.033011 -0.980930 1.604873 0.115502 -0.019023 -1019860.000000 0 0 1
-18.684206 28.226952 -1.974179 33.908078 -0.986082 1.629051 0.110538 -0.023670 990129.000000 0 0 1
-17.147806 28.525552 -1.731879 33.327973 -1.029540 1.622784 0.119154 -0.035647 784850.000000 0 0 1
-16.806006 27.998852 -0.465479 32.658754 -1.030201 1.585050 0.111021 -0.048402 -691041.000000 0 0 1
-15.533406 28.418852 -0.116379 32.387210 -1.070576 1.574390 0.124499 -0.065802 -749592.000000 0 0 1
-15.001506 27.968352 1.269121 31.762943 -1.078474 1.530830 0.123516 -0.062166 -162029.000000 0 0 1
-15.806806 28.406052 2.363221 32.593615 -1.063008 1.498227 0.110933 -0.057397 299548.000000 0 0 1
-15.386006 27.805452 3.620221 31.984033 -1.065389 1.457365 0.104138 -0.061979 551131.000000 0 0 1
-14.100406 28.391652 4.276921 31.987488 -1.109841 1.436689 0.101530 -0.050624 447329.000000 0 0 1
-14.313306 29.545352 5.064121 33.218126 -1.119664 1.417749 0.086710 -0.027040 -548193.000000 0 0 1
-14.156706 30.770052 4.394921 34.154410 -1.139591 1.441761 0.105237 -0.031272 -53449.700000 0 0 1
-13.919506 32.036652 5.262721 35.324155 -1.160918 1.421256 0.105770 -0.028454 634697.000000 0 0 1
-15.068306 32.510352 6.016921 36.334284 -1.136779 1.404431 0.097664 -0.032391 515190.000000 0 0 1
-14.857206 33.616452 6.881221 37.391892 -1.154647 1.385712 0.103869 -0.040372 368452.000000 0 0 1
-16.090906 -33.405748 7.729121 37.876122 1.121911 1.365290 0.091194 -0.039078 485736.000000 0 0 1
-16.384306 33.234252 8.834521 38.092122 -1.112769 1.336740 0.065642 -0.039845 -294351.000000 0 0 1
-17.549006 -33.745348 9.410921 39.182669 1.091244 1.328244 0.068501 -0.036851 -749509.000000 0 0 1
-17.732306 33.268752 10.904421 39.244757 -1.081097 1.289234 0.052758 -0.028541 103520.000000 0 0 1
-16.783906 33.614052 11.881921 39.405381 -1.107699 1.264499 0.051606 -0.034584 -256868.000000 0 0 1
-15.508206 33.027052 11.821621 38.354157 -1.131795 1.257472 0.072699 -0.035081 16879.200000 0 0 1
-14.695006 33.110952 13.155221 38.540085 -1.153101 1.222456 0.054868 -0.030237 -203295.000000 0 0 1
-15.142706 32.207552 14.163021 38.304296 -1.131304 1.192056 0.036644 -0.023263 301946.000000 0 0 1
-14.615306 30.872352 14.092621 36.950118 -1.128645 1.179491 0.033487 -0.023630 -153874.000000 0 0 1
-15.531106 29.911652 13.315221 36.238340 -1.091881 1.194547 0.043897 -0.030649 -58219.000000 0 0 1
-15.314306 29.912652 11.922921 35.657408 -1.097621 1.229855 0.052088 -0.026233 483506.000000 0 0 1
-16.414506 29.356852 11.205421 35.451689 -1.060965 1.249206 0.041012 -0.021922 273062.000000 0 0 1
-16.116806 29.112952 9.709221 34.663877 -1.065197 1.286902 0.050999 -0.018545 167662.000000 0 0 1
-15.206106 28.048352 9.467721 33.280226 -1.074008 1.282327 0.033041 -0.016334 358010.000000 0 0 1
-14.763106 27.826752 8.122421 32.530772 -1.083019 1.318442 0.045959 -0.020898 223181.000000 0 0 1
-13.881006 26.550952 7.823721 30.965238 -1.089071 1.315366 0.052747 -0.025820 787604.000000 0 0 1
-12.558406 26.540452 8.372921 30.532195 -1.128834 1.293005 0.051174 -0.027207 803450.000000 0 0 1
-11.827406 25.365252 8.022221 29.114250 -1.134484 1.291642 0.062530 -0.029185 312057.000000 0 0 1
-10.814306 25.525852 6.853421 28.556745 -1.170060 1.328438 0.096788 -0.045821 24219.700000 0 0 1
-11.454706 25.876852 5.635621 28.854497 -1.154061 1.374221 0.107595 -0.049772 406457.000000 0 0 1
-10.489506 25.666652 4.638521 28.112677 -1.182828 1.405041 0.137137 -0.043792 -112759.000000 0 0 1
-10.825806 26.233652 3.269421 28.567318 -1.179417 1.456099 0.150914 -0.053232 -104233.000000 0 0 1
-10.771806 27.655652 3.144521 29.845517 -1.199377 1.465241 0.156962 -0.048355 32382.400000 0 0 1
-11.023406 27.998352 1.782821 30.143020 -1.195719 1.511616 0.172918 -0.061350 -92729.500000 0 0 1
-10.545606 29.388252 1.345321 31.252025 -1.226270 1.527736 0.190842 -0.062858 14943.000000 0 0 1
-11.276806 30.452152 1.896321 32.528387 -1.216142 1.512466 0.162362 -0.059947 37482.200000 0 0 1
-10.691406 31.735152 1.537621 33.522982 -1.245844 1.524913 0.147183 -0.053805 -172796.000000 0 0 1
-11.263906 32.889452 2.382821 34.846369 -1.240838 1.502362 0.121141 -0.049994 -426868.000000 0 0 1
-12.575006 33.318352 2.213021 35.681099 -1.209906 1.508734 0.139772 -0.046092 -748266.000000 0 0 1
-12.865506 -33.638848 0.929721 36.027181 1.205502 1.544987 0.124206 -0.043317 -568115.000000 0 0 1
-14.359906 -33.534348 0.531421 36.483446 1.166206 1.556230 0.135854 -0.038892 227817.000000 0 0 1
-14.871506 32.619052 0.557121 35.853516 -1.143035 1.555257 0.117617 -0.035932 -97744.200000 0 0 1
-15.805706 32.195552 -0.417079 35.868480 -1.114432 1.582425 0.128438 -0.041838 -727810.000000 0 0 1
-15.354406 32.167752 -1.913079 35.695685 -1.125454 1.624416 0.130121 -0.045061 -685381.000000 0 0 1
-14.468906 31.149252 -2.220379 34.417368 -1.135948 1.635354 0.124385 -0.047220 -677676.000000 0 0 1
-13.174606 31.682352 -2.165979 34.380709 -1.176715 1.633838 0.145733 -0.049826 -1445390.000000 0 0 1
-12.031006 30.789352 -2.562379 33.155619 -1.198288 1.648157 0.101488 -0.057759 -474618.000000 0 0 1
-12.006806 30.299752 -3.864279 32.820283 -1.193512 1.688811 0.097102 -0.050324 129995.000000 0 0 1
-10.685906 29.872352 -4.166879 31.998576 -1.227262 1.701388 0.087300 -0.052249 509480.000000 0 0 1
-10.529506 29.257952 -5.552479 31.586837 -1.225342 1.747499 0.084942 -0.044898 76754.000000 0 0 1
-11.135906 27.967552 -5.674979 30.633278 -1.191866 1.757128 0.081806 -0.034964 40941.900000 0 0 1
-10.836006 27.364352 -6.929179 30.236407 -1.193752 1.802018 0.066125 -0.022501 31464.600000 0 0 1
-11.336206 25.936852 -7.076679 29.177204 -1.158747 1.815781 0.082851 -0.022359 -393419.000000 0 0 1
-10.649006 24.943752 -6.421279 27.871579 -1.167300 1.803273 0.061874 -0.015939 -742837.000000 0 0 1
-11.199006 23.652452 -6.496579 26.964083 -1.128587 1.814125 0.110344 -0.021834 -525354.000000 0 0 1
-10.577106 22.545752 -5.714979 25.550873 -1.132140 1.796375 0.089443 -0.023756 -1239210.000000 0 0 1
-9.231706 22.301152 -5.983379 24.866978 -1.178317 1.813796 0.083236 -0.018693 -388253.000000 0 1 0
-8.721606 21.070852 -5.436179 23.443533 -1.178349 1.804810 0.081741 -0.015090 -65399.600000 0 1 0
-8.588706 21.027252 -3.863479 23.039915 -1.183022 1.739279 0.089093 -0.028096 851287.000000 0 1 0
-9.799906 20.714052 -3.092579 23.123022 -1.128896 1.704943 0.094678 -0.037953 903106.000000 0 1 0
-10.269006 19.392852 -3.188079 22.174288 -1.083808 1.715070 0.086074 -0.033139 107040.000000 0 1 0
-11.701806 19.248252 -2.603779 22.676136 -1.024558 1.685875 0.084534 -0.037926 56725.600000 0 1 0
-11.850406 19.276452 -1.181379 22.658539 -1.019594 1.622958 0.088728 -0.033314 -199026.000000 0 1 0
-11.245606 18.246652 -0.477679 21.439033 -1.018470 1.593079 0.068569 -0.021783 -356897.000000 0 1 0
-11.080006 18.461552 1.063421 21.557511 -1.030254 1.521447 0.062559 -0.013374 66275.200000 0 1 0
-12.296706 18.296852 1.760221 22.115202 -0.979064 1.491119 0.082196 -0.025859 140389.000000 0 1 0
-12.096806 18.492252 3.165421 22.322992 -0.991505 1.428516 0.075781 -0.018310 155967.000000 0 1 0
-13.405906 18.438752 3.990921 23.143754 -0.942145 1.397490 0.080402 -0.027203 268581.000000 0 1 0
-13.823706 17.109252 4.287121 22.409836 -0.891216 1.378304 0.045595 -0.024971 617382.000000 0 1 0
-15.155506 17.101752 4.813921 23.352369 -0.845660 1.363165 0.070301 -0.035972 735506.000000 0 1 0
-15.538406 15.761952 5.515121 22.810036 -0.792540 1.326591 0.051361 -0.027836 -385309.000000 0 1 0
-14.725606 15.458152 6.620221 22.352299 -0.809663 1.270110 0.044298 -0.016044 -199088.000000 0 1 0
-15.145706 16.145252 7.776521 23.463500 -0.817331 1.232977 0.047569 -0.016698 -1295200.000000 0 1 0
-14.223806 15.946852 8.981121 23.179286 -0.842446 1.172918 0.049694 -0.015065 809070.000000 0 1 0
-12.931206 16.559352 8.924521 22.827074 -0.907810 1.169120 0.049062 -0.027681 594281.000000 0 1 0
-12.088606 16.012152 7.900021 21.562322 -0.924125 1.195680 0.048270 -0.029815 -276858.000000 0 1 0
-10.868706 17.026852 7.664121 21.605120 -1.002671 1.208164 0.063084 -0.029924 905514.000000 0 1 0
-9.816106 16.971452 8.587121 21.403849 -1.046419 1.157975 0.061263 -0.037898 -159623.000000 0 1 0
-8.996906 18.129052 8.463921 21.937292 -1.110137 1.174696 0.053320 -0.036548 -527773.000000 0 1 0
-7.777406 18.212452 9.348721 21.899316 -1.167201 1.129739 0.049336 -0.035310 -470458.000000 0 1 0
-6.826406 17.205452 8.906221 20.541377 -1.193088 1.122340 0.042679 -0.028423 1819320.000000 0 1 0
-5.471206 17.343552 9.454421 20.496804 -1.265217 1.091378 0.037762 -0.034561 1996070.000000 0 1 0
-4.608806 18.579852 8.995021 21.150943 -1.327650 1.131528 0.028987 -0.030056 -983655.000000 0 1 0
-4.905706 19.784752 9.577921 22.521965 -1.327744 1.131536 0.031833 -0.034210 -235686.000000 0 1 0
-4.590106 20.900352 8.774521 23.127602 -1.354610 1.181653 0.041807 -0.027941 1139340.000000 0 1 0
-3.096706 21.455152 8.782221 23.388898 -1.427452 1.185874 0.047172 -0.023412 1222490.000000 0 1 0
-2.130506 20.600752 8.185921 22.269695 -1.467744 1.194390 0.034455 -0.014000 -136205.000000 0 1 0
-1.014106 21.426552 7.895021 22.857316 -1.523502 1.218126 0.031678 -0.014709 1420710.000000 0 1 0
0.376594 20.632652 7.771521 22.050956 1.552546 1.210625 0.020965 -0.012227 1557000.000000 0 1 0
0.712694 20.105352 9.036821 22.054415 1.535363 1.148615 0.015120 -0.011248 340983.000000 0 1 0
2.037094 19.548652 9.053521 21.639449 1.466965 1.139135 0.006544 -0.013935 475053.000000 0 1 0
2.453794 19.126052 10.463721 21.938925 1.443197 1.073618 0.001418 -0.025449 -229096.000000 0 1 0
3.852994 18.935352 10.490121 21.987172 1.370055 1.073442 0.019888 -0.010482 39929.600000 0 1 0
4.364594 18.552152 11.762121 22.395971 1.339737 1.017859 0.018500 -0.017810 979161.000000 0 1 0
5.892194 18.946452 11.865921 23.118954 1.269286 1.031823 0.042100 -0.018381 1263800.000000 0 1 0
6.831594 18.091152 11.236721 22.365696 1.209730 1.044414 0.041975 -0.015181 180204.000000 0 1 0
7.339294 17.076952 12.132021 22.196248 1.164886 0.992522 0.044587 -0.015343 -715773.000000 0 1 0
8.489494 16.324252 11.485421 21.690265 1.091234 1.012762 0.054571 -0.018674 -1251940.000000 0 1 0
9.565894 17.087152 11.178021 22.548286 1.060438 1.052113 0.071826 -0.030044 -1207600.000000 0 1 0
10.518194 16.428052 10.374521 22.093980 1.001300 1.082000 0.071887 -0.035234 1393020.000000 0 1 0
11.847994 17.305252 10.155821 23.302090 0.970449 1.119833 0.079364 -0.036625 1395390.000000 0 1 0
12.719794 16.739352 9.188021 22.943818 0.921006 1.158780 0.078309 -0.033345 144477.000000 0 1 0
13.495194 17.766752 8.534921 23.887708 0.921195 1.205428 0.102177 -0.029954 669458.000000 0 1 0
14.509794 17.276652 7.451821 23.760186 0.872225 1.251787 0.123203 -0.032607 399063.000000 0 1 0
15.692294 16.687652 7.974221 24.255185 0.816128 1.235802 0.125504 -0.037074 -381470.000000 0 1 0
16.595794 16.488852 6.957521 24.407165 0.782166 1.281727 0.106449 -0.029092 -1404350.000000 0 1 0
18.012494 16.341652 7.434721 25.431763 0.736801 1.274124 0.109389 -0.032085 -990153.000000 0 0 1
18.277494 15.129552 8.116021 25.076680 0.691446 1.241214 0.121527 -0.035113 599892.000000 0 0 1
19.524894 15.169052 8.831421 26.254820 0.660501 1.227733 0.135963 -0.038840 550223.000000 0 0 1
19.740894 13.823852 9.662721 25.964782 0.610904 1.189475 0.127471 -0.045618 -485680.000000 0 0 1
20.580394 12.878752 9.093021 25.924850 0.559158 1.212429 0.162399 -0.052046 26744.900000 0 0 1
20.705094 11.768652 9.927021 25.802089 0.516856 1.175873 0.157385 -0.060179 -198251.000000 0 0 1
21.767394 10.708752 9.433921 26.028747 0.457197 1.199909 0.157622 -0.046364 -2112860.000000 0 0 1
22.971794 11.344152 9.607221 27.362233 0.458699 1.212037 0.170791 -0.045569 -839377.000000 0 0 1
24.063794 10.789352 8.909021 27.836072 0.421493 1.245011 0.193218 -0.047656 -161724.000000 0 0 1
24.531594 9.369552 9.375321 27.883404 0.364840 1.227882 0.204415 -0.049742 -1312350.000000 0 0 1
23.602594 8.287752 9.206321 26.655686 0.337688 1.218153 0.212830 -0.053232 363003.000000 0 0 1
24.047894 6.974552 9.415621 26.750691 0.282283 1.211114 0.211685 -0.047881 -195833.000000 0 0 1
25.056894 6.312252 8.457021 27.188484 0.246782 1.254497 0.223217 -0.047131 194722.000000 0 0 1
24.467594 6.146652 7.211821 26.238423 0.246123 1.292355 0.208239 -0.035473 762349.000000 0 0 1
25.447594 5.683252 6.258321 26.815032 0.219726 1.335235 0.210911 -0.030815 561122.000000 0 0 1
24.828894 5.273752 4.855721 25.843073 0.209293 1.381780 0.200364 -0.045210 332794.000000 0 0 1
23.967594 4.113552 4.918821 24.810515 0.169974 1.371219 0.195797 -0.040908 621982.000000 0 1 0
23.487994 3.744752 3.606421 24.056502 0.158102 1.420314 0.206728 -0.043569 109976.000000 0 1 0
22.420194 2.630452 3.631021 22.864135 0.116791 1.411313 0.183209 -0.038690 -55684.800000 0 1 0
23.007394 1.386452 3.943621 23.384066 0.060188 1.401341 0.216172 -0.043416 333360.000000 0 1 0
22.132794 0.289252 3.704921 22.442608 0.013068 1.404953 0.201445 -0.036995 -92867.100000 0 1 0
22.737294 -1.135048 3.805021 23.081400 -0.049879 1.405188 0.235973 -0.044364 -599619.000000 0 1 0
23.134594 -1.588648 5.087521 23.740600 -0.068562 1.354825 0.232495 -0.045406 411347.000000 0 1 0
22.961894 -2.960748 5.150821 23.718043 -0.128234 1.351883 0.209939 -0.050265 -415887.000000 0 1 0
23.371894 -3.528948 6.519721 24.519495 -0.149859 1.301659 0.255398 -0.056215 -73028.100000 0 1 0
23.136094 -4.944648 6.716021 24.593359 -0.210552 1.294200 0.217094 -0.051805 170591.000000 0 1 0
23.500494 -5.555348 7.929021 25.416618 -0.232131 1.253539 0.279751 -0.059189 -204855.000000 0 0 1
22.899894 -6.942548 8.305721 25.329609 -0.294362 1.236711 0.252483 -0.054236 354451.000000 0 0 1
21.498394 -6.888948 8.519021 24.129075 -0.310102 1.209956 0.249163 -0.058638 538770.000000 0 1 0
20.916994 -8.115948 8.877321 24.128739 -0.370125 1.194031 0.224724 -0.055183 -111800.000000 0 1 0
-28.483876 -32.769948 4.971521 43.702594 0.855257 1.456792 0.089030 -0.005777 180725.000000 0 0 1
-29.299596 33.730752 5.569821 45.025025 -0.855585 1.446774 0.104337 -0.008115 56288.400000 0 0 1
-29.134116 -33.747548 6.959121 45.123421 0.858634 1.415954 0.081804 0.006200 120017.000000 0 0 1
-30.023796 32.633552 7.575021 44.986198 -0.827025 1.401605 0.089965 -0.003307 357420.000000 0 0 1
-31.403696 32.941052 7.567421 46.136438 -0.809286 1.406029 0.100074 -0.003840 -236745.000000 0 0 1
-32.144766 31.756952 7.863721 45.865326 -0.779329 1.398493 0.134441 -0.035992 356410.000000 0 0 1
-33.673396 31.931752 7.747521 47.048469 -0.758857 1.405372 0.142462 -0.031498 124009.000000 0 0 1
-34.192444 31.958952 6.404021 47.238854 -0.751648 1.434811 0.136166 -0.027026 396205.000000 0 0 1
-35.604716 32.115752 6.417221 48.376627 -0.733924 1.437753 0.106032 -0.024219 110564.000000 0 0 1
-36.335286 31.917252 5.075321 48.628416 -0.720758 1.466236 0.101078 -0.013276 -175734.000000 0 0 1
-36.399756 30.527752 4.753921 47.743959 -0.697885 1.471060 0.114654 -0.022727 299933.000000 0 0 1
-37.196916 30.212552 3.635421 48.058560 -0.682156 1.495078 0.108516 0.003003 141544.000000 0 0 1
-36.599846 28.915852 2.997021 46.740319 -0.668647 1.506632 0.108380 -0.016577 212890.000000 0 0 1
-36.880076 27.787952 3.772821 46.330816 -0.645717 1.489274 0.144610 -0.037660 -204043.000000 0 0 1
-36.279316 26.661552 3.222021 45.137662 -0.633765 1.499353 0.127504 -0.028083 -283899.000000 0 0 1
-36.758066 25.259552 3.739321 44.756932 -0.602073 1.487152 0.159180 -0.031055 -881103.000000 0 0 1
37.998561 24.976552 3.382521 45.597809 0.581492 1.496546 0.149245 -0.027471 -947196.000000 0 0 1
37.422971 24.076352 4.352721 44.711247 0.571691 1.473290 0.154058 -0.031997 499863.000000 0 0 1
35.898771 23.796652 4.164021 43.270561 0.585378 1.474415 0.163411 -0.030486 -217286.000000 0 0 1
35.551951 22.805152 3.201921 42.358806 0.570348 1.495134 0.132076 -0.028725 51441.600000 0 0 1
35.987801 21.523752 3.552021 42.083376 0.539010 1.486291 0.121566 -0.030502 -938737.000000 0 0 1
35.443671 20.497352 2.580321 41.025032 0.524317 1.507859 0.117070 -0.020784 1170990.000000 0 0 1
34.013701 20.267652 2.639321 39.682182 0.537375 1.504236 0.110876 -0.031246 1334720.000000 0 0 1
33.520011 19.431152 3.659121 38.917219 0.525350 1.476634 0.087836 -0.028334 -314607.000000 0 0 1
33.831281 17.909852 3.574521 38.446008 0.486880 1.477687 0.110773 -0.033408 -741377.000000 0 0 1
33.224181 17.375852 2.448021 37.573384 0.481869 1.505597 0.082396 -0.041334 208738.000000 0 0 1
33.163911 15.973852 2.343321 36.884957 0.448871 1.507223 0.097144 -0.037404 185949.000000 0 0 1
32.240091 15.182252 3.354621 35.793543 0.440108 1.476937 0.125835 -0.039677 -725443.000000 0 0 1
30.868591 15.338352 3.248121 34.622034 0.461158 1.476842 0.087189 -0.029616 -603924.000000 0 0 1
30.226491 14.279152 3.973821 33.664910 0.441329 1.452480 0.094654 -0.038074 977769.000000 0 0 1
28.668691 14.421352 4.134721 32.356841 0.466073 1.442661 0.088053 -0.036201 1083170.000000 0 0 1
27.920791 13.937952 3.022921 31.352434 0.463004 1.474229 0.092392 -0.043359 -374445.000000 0 0 1
26.611991 14.431252 3.005221 30.421874 0.496900 1.471850 0.080762 -0.028473 -201682.000000 0 0 1
25.807491 13.936752 1.755821 29.382691 0.495154 1.511004 0.103482 -0.026375 -216734.000000 0 0 1
26.201491 14.347652 0.444921 29.875930 0.500990 1.555903 0.103463 -0.023951 618896.000000 0 0 1
27.495991 13.949952 -0.010079 30.832301 0.469506 1.571123 0.102264 -0.031474 -125805.000000 0 0 1
28.128891 14.816452 -1.138779 31.812868 0.484806 1.606600 0.120777 -0.035764 153948.000000 0 0 1
28.590891 16.126652 -0.839379 32.836146 0.513565 1.596362 0.064562 -0.023076 523173.000000 0 0 1
29.548491 16.186052 0.252921 33.692218 0.501137 1.563289 0.067366 -0.024183 -281425.000000 0 0 1
30.286591 17.516952 0.192221 34.987971 0.524366 1.565302 0.065683 -0.021758 -97351.200000 0 0 1
31.288651 17.668752 -0.800879 35.941701 0.514060 1.593081 0.051484 -0.022478 -156872.000000 0 0 1
32.067981 18.776052 -0.562379 37.164658 0.529695 1.585929 0.037224 -0.015961 -345154.000000 0 0 1
32.816421 19.203252 -1.814679 38.065410 0.529445 1.618487 0.038402 -0.013610 -380827.000000 0 0 1
33.134601 20.551852 -2.130979 39.048962 0.555179 1.625395 0.006938 -0.006407 235517.000000 0 0 1
32.137021 21.378452 -2.733779 38.694959 0.587006 1.641505 0.036169 -0.007612 -747649.000000 0 0 1
32.636641 22.856652 -2.903679 39.950071 0.610952 1.643543 0.067812 -0.002564 3684.770000 0 0 1
32.887731 23.496352 -1.715479 40.455213 0.620352 1.613213 0.052707 0.004953 192513.000000 0 0 1
34.091891 23.035952 -1.134979 41.160664 0.594232 1.598374 0.056538 0.004466 -623889.000000 0 0 1
34.657531 23.923652 0.040221 42.112791 0.604178 1.569841 0.074402 -0.005521 196179.000000 0 0 1
34.997771 25.274552 -0.203279 43.170456 0.625455 1.575505 0.081285 0.006971 16141.000000 0 0 1
36.098221 25.571952 0.618221 44.242383 0.616341 1.556822 0.110267 -0.007721 367494.000000 0 0 1
36.872361 26.934152 0.457321 45.664304 0.630884 1.560781 0.096531 -0.002694 467628.000000 0 0 1
37.576371 27.109952 -0.758779 46.341222 0.624986 1.587171 0.098377 -0.001267 272201.000000 0 0 1
36.726311 27.581352 -1.796679 45.964997 0.644139 1.609894 0.077511 -0.000906 10745.200000 0 0 1
37.181961 27.304252 -3.214679 46.242346 0.633404 1.640371 0.093451 0.000337 -197811.000000 0 0 1
-37.886766 28.118752 -3.804879 47.334431 -0.638477 1.651266 0.097928 -0.003442 109053.000000 0 0 1
-37.472946 27.560752 -5.071779 46.792518 -0.634146 1.679398 0.103997 -0.004181 -151051.000000 0 0 1
37.627091 27.671552 -6.266879 47.125222 0.634102 1.704175 0.080445 -0.003285 -490296.000000 0 0 1
36.451551 26.939952 -6.156279 45.742500 0.636464 1.705792 0.085384 0.001195 -651985.000000 0 0 1
35.624951 27.015152 -7.299079 45.301568 0.648805 1.732624 0.069060 0.001019 254002.000000 0 0 1
34.340001 26.165152 -7.105179 43.753107 0.651101 1.733911 0.069528 0.008195 -235253.000000 0 0 1
34.493121 24.708852 -7.049079 43.011536 0.621609 1.735427 0.052126 0.001083 -29643.600000 0 0 1
35.424911 24.101652 -6.154879 43.286216 0.597422 1.713470 0.064898 -0.007097 201241.000000 0 0 1
35.560011 22.615352 -6.526779 42.644664 0.566454 1.724451 0.065592 -0.007063 -93200.800000 0 0 1
34.552061 21.840052 -5.955179 41.307347 0.563682 1.715468 0.030072 0.005899 -20167.100000 0 0 1
34.885561 20.500652 -6.134279 40.925645 0.531292 1.721252 0.037365 0.006452 647270.000000 0 0 1
33.716711 19.577852 -5.630779 39.393077 0.526075 1.714226 0.039994 -0.002791 1088110.000000 0 0 1
32.449991 19.603852 -6.288479 38.429909 0.543447 1.735171 0.019714 -0.006274 234559.000000 0 0 1
31.550601 18.752352 -5.656479 37.136059 0.536261 1.723709 0.064943 -0.022440 261106.000000 0 0 1
30.181491 18.487352 -6.344679 35.957746 0.549589 1.748173 0.044161 -0.024263 380044.000000 0 0 1
30.300591 17.448152 -7.202779 35.699353 0.522462 1.773953 0.026634 -0.017095 -389038.000000 0 0 1
29.168191 17.338352 -8.005379 34.863848 0.536311 1.802482 0.056366 -0.027738 -648166.000000 0 0 1
29.169491 16.190652 -9.021879 34.559958 0.506715 1.834906 0.060959 -0.015472 -599146.000000 0 0 1
28.226691 16.220552 -10.042879 34.069221 0.521573 1.870020 0.077053 -0.017915 -217449.000000 0 0 1
28.533591 15.341652 -11.100979 34.245639 0.493327 1.900917 0.084123 -0.013919 -303023.000000 0 0 1
27.676591 15.596052 -12.350379 34.084635 0.513157 1.941578 0.101270 -0.005452 -130711.000000 0 0 1
26.291491 15.361352 -12.114279 32.771472 0.528774 1.949439 0.093757 -0.015168 127485.000000 0 0 1
25.630891 15.394152 -13.333379 32.736852 0.540867 1.990281 0.097277 -0.022027 -610240.000000 0 0 1
25.609791 14.082452 -14.202079 32.494244 0.502755 2.023129 0.099415 -0.031636 315994.000000 0 0 1
26.885591 13.682052 -14.753979 33.581445 0.470741 2.025670 0.110909 -0.035967 947573.000000 0 0 1
27.325891 14.405252 -15.886379 34.736042 0.485143 2.045804 0.114436 -0.039030 198653.000000 0 0 1
28.621291 13.821152 -16.526179 35.823416 0.449872 2.050283 0.147486 -0.036364 453946.000000 0 0 1
28.417591 12.557252 -17.140579 35.483003 0.416083 2.074948 0.150827 -0.043140 393291.000000 0 0 1
29.690091 11.957352 -17.350379 36.407628 0.382865 2.067533 0.138352 -0.028726 562080.000000 0 0 1
29.570491 10.430952 -17.830579 36.071432 0.339121 2.087841 0.119687 -0.029039 120357.000000 0 0 1
29.034991 10.427252 -19.167079 36.319901 0.344783 2.126722 0.116442 -0.028834 -3532.320000 0 0 1
29.159091 9.261252 -19.958479 36.528951 0.307534 2.148825 0.090823 -0.009097 -100684.000000 0 0 1
30.555791 8.875652 -20.521479 37.862444 0.282694 2.143613 0.104528 -0.023082 -575809.000000 0 0 1
30.977191 9.897352 -21.439279 38.951080 0.309253 2.153658 0.109985 -0.024019 189048.000000 0 0 1
31.849391 9.449952 -22.437179 40.088805 0.288433 2.164804 0.090706 -0.020480 -89427.300000 0 0 1
33.187341 8.719752 -22.193579 40.865494 0.256936 2.144907 0.091230 -0.018581 -943599.000000 0 0 1
34.216421 9.564552 -21.827679 41.697622 0.272574 2.121721 0.101729 -0.022509 53262.000000 0 0 1
35.506821 8.958252 -21.845379 42.640417 0.247139 2.108676 0.072528 -0.014335 486674.000000 0 0 1
36.722071 9.890052 -21.785379 43.828374 0.263080 2.091005 0.085031 -0.019569 -201247.000000 0 0 1
36.767651 10.504452 -20.541979 43.407103 0.278285 2.063761 0.072254 -0.021141 90832.200000 0 0 1
37.708721 11.544652 -20.477479 44.435951 0.297092 2.049728 0.048027 -0.006370 -131216.000000 0 0 1
37.503751 12.324252 -19.172379 43.886201 0.317497 2.022908 0.044351 -0.010750 138040.000000 0 0 1
37.998561 11.509052 -18.082179 43.626988 0.294098 1.998159 0.060606 -0.008531 248397.000000 0 0 1
37.792911 12.073052 -16.818579 43.092079 0.309207 1.971747 0.059109 -0.012752 -235032.000000 0 0 1
-37.759406 11.167252 -15.703579 42.392012 -0.287551 1.950276 0.055409 -0.020642 -71913.500000 0 0 1
37.459371 10.035752 -15.453279 41.745953 0.261763 1.949993 0.053333 -0.017547 370423.000000 0 0 1
-38.016536 9.107152 -14.574279 41.720581 -0.235127 1.927653 0.058099 -0.021836 1003070.000000 0 0 1
37.088011 7.777152 -14.554779 40.593672 0.206700 1.937508 0.102774 -0.018634 1935320.000000 0 0 1
35.952121 7.819252 -13.643879 39.240937 0.214156 1.925908 0.105732 -0.021070 1281060.000000 0 0 1
36.277891 7.646252 -12.266779 39.051561 0.207729 1.890323 0.113984 -0.028610 -466289.000000 0 0 1
35.263411 8.322252 -11.323679 37.960423 0.231762 1.873710 0.122768 -0.030436 -217930.000000 0 0 1
35.240591 9.770152 -11.361379 38.294073 0.270449 1.872019 0.114981 -0.035649 143033.000000 0 0 1
34.375431 10.339752 -10.409279 37.375578 0.292180 1.853033 0.097601 -0.027145 -345798.000000 0 0 1
34.816551 10.179552 -8.935379 37.358486 0.284448 1.812317 0.115367 -0.023616 586433.000000 0 0 1
35.913411 11.019352 -8.500579 38.515698 0.297712 1.793333 0.120920 -0.022227 655400.000000 0 0 1
35.575891 12.369052 -8.237579 38.555092 0.334607 1.786114 0.115436 -0.024065 -124842.000000 0 0 1
35.207711 12.618752 -6.746679 38.004387 0.344146 1.749266 0.092637 -0.021077 -247981.000000 0 0 1
36.385741 12.451952 -6.018579 38.925525 0.329728 1.726037 0.130072 -0.027179 -93545.300000 0 0 1
36.138581 12.384352 -4.611879 38.479067 0.330148 1.690939 0.113731 -0.024570 117639.000000 0 0 1
37.421001 12.398252 -3.744379 39.598842 0.319936 1.665496 0.142667 -0.019914 118661.000000 0 0 1
37.950191 13.703752 -3.611379 40.509898 0.346528 1.660063 0.157849 -0.010362 -25687.000000 0 0 1
-36.814576 13.592452 -3.030479 39.360533 -0.353688 1.647865 0.169422 -0.021468 336692.000000 0 0 1
-36.075926 14.948452 -3.019279 39.166883 -0.392825 1.647960 0.164442 -0.024824 93096.900000 0 0 1
-36.610476 15.794252 -2.039279 39.924229 -0.407290 1.621897 0.167250 -0.026680 205663.000000 0 0 1
-35.818079 16.973552 -1.917179 39.682639 -0.442536 1.619128 0.173245 -0.027122 212608.000000 0 0 1
-36.506556 18.108952 -1.160179 40.767742 -0.460480 1.599258 0.167908 -0.026089 -68295.600000 0 0 1
-37.546316 18.782952 -1.815579 42.021679 -0.463856 1.614016 0.160080 -0.022372 231760.000000 0 0 1
37.743931 19.625152 -0.957179 42.551934 0.479484 1.593293 0.151745 -0.022640 443733.000000 0 0 1
37.061591 20.818552 -1.667879 42.541220 0.511803 1.610013 0.111967 -0.017449 49323.300000 0 0 1
37.959321 21.864552 -1.910579 43.847679 0.522585 1.614383 0.128530 -0.013699 142237.000000 0 0 1
37.592221 22.459252 -3.145479 43.903156 0.538538 1.642504 0.089238 -0.003957 -146871.000000 0 0 1
-37.470186 23.540352 -3.544079 44.392832 -0.560927 1.650716 0.108724 -0.010416 -246012.000000 0 0 1
-36.243336 23.051252 -4.028679 43.141278 -0.566480 1.664316 0.144615 -0.018044 -37421.200000 0 0 1
-35.536823 23.975652 -4.873479 43.144507 -0.593523 1.683995 0.160285 -0.020536 154227.000000 0 0 1
-34.068267 23.628352 -5.135579 41.777027 -0.606390 1.694036 0.147494 -0.026332 -219070.000000 0 0 1
-33.906026 22.598952 -6.051979 41.194146 -0.587899 1.718244 0.130554 -0.022916 -556371.000000 0 0 1
-32.552316 22.559152 -6.406879 40.120029 -0.606021 1.731176 0.150271 -0.015878 -724277.000000 0 0 1
-32.359396 21.634852 -7.671879 39.674363 -0.589326 1.765393 0.135616 -0.020861 -216685.000000 0 0 1
-33.161086 21.934852 -8.789579 40.719186 -0.584392 1.788367 0.130841 -0.027090 -215851.000000 0 0 1
-32.586246 21.636552 -10.007979 40.375283 -0.586139 1.821281 0.085919 -0.027173 -747951.000000 0 0 1
-33.522716 21.848652 -11.177979 41.546159 -0.577609 1.843202 0.091484 -0.021567 -405886.000000 0 0 1
-33.626826 23.193952 -11.495179 42.436564 -0.603811 1.845103 0.096741 -0.018723 240258.000000 0 0 1
-34.303573 23.353852 -12.769079 43.418739 -0.597723 1.869301 0.066185 -0.015327 -300727.000000 0 0 1
-34.574488 24.795052 -13.188579 44.543557 -0.622143 1.871385 0.086443 -0.018958 345234.000000 0 0 1
-33.446776 25.658752 -13.147979 44.157986 -0.654388 1.873130 0.082459 -0.013934 333779.000000 0 0 1
-32.496506 25.578352 -14.227679 43.734447 -0.666832 1.902146 0.076593 -0.013762 886732.000000 0 0 1
-31.058616 26.024452 -13.780779 42.799762 -0.697436 1.898619 0.092575 -0.011540 494494.000000 0 0 1
-30.339086 25.169852 -12.893579 41.475607 -0.692542 1.886906 0.087604 -0.023185 178179.000000 0 0 1
-30.741726 25.074852 -11.529779 41.312683 -0.684218 1.853638 0.112715 -0.025125 -404613.000000 0 0 1
-30.971216 26.390552 -10.680679 42.068449 -0.705712 1.827494 0.135871 -0.019686 -1030410.000000 0 0 1
-29.889586 27.120252 -10.285079 41.649469 -0.736860 1.820321 0.165875 -0.014483 -1141640.000000 0 0 1
-30.190366 28.425352 -9.832079 42.616061 -0.755296 1.803607 0.153639 -0.014577 134361.000000 0 0 1
-28.869656 29.104252 -9.446679 42.068448 -0.789445 1.797283 0.164650 -0.019979 104844.000000 0 0 1
-29.227456 30.348852 -8.956079 43.075612 -0.804219 1.780240 0.149731 -0.035768 334209.000000 0 0 1
-28.175596 31.074952 -8.314079 42.762609 -0.834293 1.766467 0.183688 -0.030666 395664.000000 0 0 1
36.593541 -24.755948 33.306299 55.328598 -0.594787 0.924827 0.078455 -0.024531 59649.500000 0 0 1
36.113621 -23.441548 33.554749 54.585904 -0.575746 0.908772 0.075873 -0.028021 226721.000000 0 0 1
35.077771 -23.473048 -32.884239 53.505207 -0.589735 2.232674 0.069112 -0.019897 86857.100000 0 0 1
34.571681 -22.076748 -32.498569 52.332981 -0.568304 2.240809 0.062983 -0.012599 153740.000000 0 0 1
33.907571 -21.435448 -33.587779 52.319602 -0.563741 2.267865 0.046785 -0.015566 198644.000000 0 0 1
33.534061 -20.084348 -33.268279 51.329257 -0.539628 2.275929 0.040776 -0.008765 75690.100000 0 0 1
33.198511 -19.211248 32.917908 50.545047 -0.524594 0.861554 0.044177 -0.009340 351779.000000 0 0 1
34.314141 -18.981248 32.056442 50.649418 -0.505267 0.885492 0.063256 -0.021913 376762.000000 0 0 1
33.918841 -18.546448 30.803729 49.430033 -0.500375 0.897996 0.068725 -0.017480 -69064.000000 0 0 1
35.085241 -18.298948 29.801419 49.537361 -0.480744 0.925300 0.065039 -0.021299 147394.000000 0 0 1
35.895951 -17.164948 30.159209 49.927273 -0.446045 0.922207 0.064575 -0.033714 199739.000000 0 0 1
36.948571 -17.106748 29.218519 50.115462 -0.433602 0.948350 0.080141 -0.036415 -640057.000000 0 0 1
-37.992566 -16.204848 29.740529 50.897262 0.403163 0.946749 0.072379 -0.035285 -639548.000000 0 0 1
-36.842026 -16.074448 28.960489 49.542232 0.411409 0.946457 0.076220 -0.036490 409590.000000 0 0 1
-35.874313 -15.177448 29.531779 48.881973 0.400237 0.922104 0.063400 -0.039419 887613.000000 0 0 1
-34.479252 -15.263748 28.828019 47.464255 0.416761 0.918060 0.095417 -0.037979 1118420.000000 0 0 1
-33.366266 -14.558448 29.402009 46.794597 0.411422 0.891404 0.083510 -0.031851 579605.000000 0 0 1
-32.492486 -15.473748 30.023609 46.868066 0.444448 0.875519 0.082159 -0.038547 -167558.000000 0 0 1
-31.221416 -14.857148 30.642619 46.200452 0.444153 0.845638 0.093731 -0.042495 193506.000000 0 0 1
-31.558046 -14.068748 31.822479 46.973504 0.419360 0.826498 0.083337 -0.037340 751548.000000 0 0 1
-30.401446 -13.330948 32.236032 46.272280 0.413247 0.800066 0.070944 -0.038368 343327.000000 0 0 1
-30.435756 -12.506648 33.554919 46.996639 0.389884 0.775622 0.057812 -0.003386 -185919.000000 0 0 1
-30.521096 -13.320148 -32.670719 46.651255 0.411507 2.346639 0.065908 -0.009906 224586.000000 0 0 1
-30.856986 -12.492248 -31.576279 45.883235 0.384675 2.329785 0.075170 0.003126 -329779.000000 0 0 1
-30.999866 -13.162548 -30.181379 45.223446 0.401532 2.301486 0.077229 -0.011776 241808.000000 0 0 1
-32.168556 -13.991048 -30.073279 46.205709 0.410251 2.279508 0.077912 -0.007014 584431.000000 0 0 1
-32.121266 -14.845648 -28.953679 45.721817 0.432932 2.256551 0.099753 0.001552 585098.000000 0 0 1
-33.451386 -15.630248 -28.715249 46.774624 0.437108 2.231796 0.076736 -0.008997 428656.000000 0 0 1
-33.531866 -16.770548 -29.509879 47.712371 0.463758 2.237623 0.074544 -0.012659 -375947.000000 0 0 1
-34.675687 -17.538448 -29.340039 48.691256 0.468265 2.217518 0.074938 -0.015462 -545151.000000 0 0 1
-34.447998 -18.962148 -29.926759 49.414963 0.503194 2.221343 0.052790 -0.014423 328210.000000 0 0 1
-35.632694 -19.737248 -30.024549 50.603571 0.505839 2.205984 0.047801 -0.015836 185783.000000 0 0 1
-35.248028 -21.010448 -30.503649 51.130569 0.537528 2.210034 0.040861 -0.021337 466047.000000 0 0 1
-36.371216 -22.047948 -30.880799 52.560452 0.544960 2.198798 0.050384 -0.021993 267484.000000 0 0 1
-37.062116 -22.519948 -29.746479 52.588987 0.546009 2.172006 0.050669 -0.020406 -396877.000000 0 0 1
-38.009216 -23.524748 -30.027829 53.849650 0.554217 2.162316 0.081895 -0.022805 -132253.000000 0 0 1
-37.556066 -24.926148 -30.490379 54.419061 0.585949 2.165531 0.068022 -0.019006 -270353.000000 0 0 1
-36.989466 -24.954448 -31.763819 54.771209 0.593500 2.189447 0.082143 -0.023007 -359041.000000 0 0 1
-36.273396 -26.185198 -31.943929 54.971252 0.625263 2.190879 0.071523 -0.021084 -173222.000000 0 0 1
-36.801056 -27.200768 -32.929509 56.378650 0.636508 2.194540 0.093032 -0.032805 -122231.000000 0 0 1
37.955401 -27.656468 -32.626259 57.183612 -0.629701 2.177975 0.097203 -0.026912 -293787.000000 0 0 1
37.513551 -28.801278 -33.364159 57.878729 -0.654769 2.185173 0.099156 -0.033316 109567.000000 0 0 1
-37.899826 -30.153288 -32.953569 58.579479 0.672055 2.168257 0.102680 -0.036851 85270.300000 0 0 1
37.746331 -30.650478 -31.684439 58.035687 -0.682023 2.148316 0.097280 -0.038611 -121278.000000 0 0 1
-37.492156 -31.691298 -31.212979 58.174309 0.701746 2.137131 0.095618 -0.038395 -205120.000000 0 0 1
-37.936726 -32.246888 -29.881929 58.068810 0.704504 2.111332 0.083240 -0.038982 -169546.000000 0 0 1
36.959391 -33.021148 -30.030099 57.949975 -0.729181 2.115550 0.095901 -0.036996 190906.000000 0 0 1
36.327311 -33.299508 -28.773599 57.065320 -0.741939 2.099277 0.100996 -0.034728 -734068.000000 0 0 1
35.101851 33.363208 -28.627819 56.256516 0.760009 2.104680 0.098259 -0.036535 -739822.000000 0 0 1
33.941671 -33.482588 -29.092999 55.852693 -0.778589 2.118687 0.110785 -0.039345 -523185.000000 0 0 1
32.799931 33.340277 -28.699949 54.873460 0.793568 2.121187 0.096507 -0.032131 -167753.000000 0 0 1
31.448811 33.481607 -29.425129 54.551663 0.816695 2.140520 0.073625 -0.027191 188715.000000 0 0 1
31.448401 33.038260 -30.751169 55.010571 0.810047 2.163981 0.076909 -0.027191 -54197.800000 0 0 1
30.235091 33.408198 -31.379459 54.908459 0.835215 2.179113 0.074890 -0.019193 118084.000000 0 0 1
30.039991 32.732832 -32.725239 55.179530 0.828270 2.205661 0.068400 -0.030034 -55857.600000 0 0 1
29.903291 31.346272 -32.569419 54.199286 0.808953 2.215448 0.061477 -0.025752 -11666.900000 0 0 1
29.389491 30.806122 33.655289 54.271887 0.808928 0.901896 0.069121 -0.026729 -9415.790000 0 0 1
29.535291 29.304562 33.698669 53.541489 0.781477 0.890024 0.070716 -0.033473 979940.000000 0 0 1
30.890191 28.847122 33.488589 53.924446 0.751211 0.900743 0.067142 -0.026276 705602.000000 0 0 1
31.073891 27.545532 -33.413469 53.299183 0.725280 2.248369 0.058166 -0.029325 -58326.900000 0 0 1
32.546301 27.110142 -33.351929 53.912639 0.694525 2.237793 0.079425 -0.028813 27187.100000 0 0 1
33.165511 27.446712 -32.109089 53.705369 0.691326 2.211644 0.086823 -0.032661 -749756.000000 0 0 1
34.364211 26.768812 -31.916269 54.001079 0.661788 2.203132 0.098462 -0.036469 -353186.000000 0 0 1
34.993881 27.044472 -30.520259 53.735104 0.657956 2.174841 0.098881 -0.040028 -144740.000000 0 0 1
35.855641 28.187712 -30.365169 54.792495 0.666235 2.158180 0.093729 -0.034811 438043.000000 0 0 1
35.233521 29.472452 -30.550879 55.166861 0.696598 2.157706 0.092517 -0.022015 537181.000000 0 0 1
34.056021 29.835142 -29.593689 54.090061 0.719430 2.149715 0.091321 -0.014761 430575.000000 0 0 1
34.584981 29.981082 -28.309869 53.818536 0.714213 2.124716 0.084056 -0.021068 141502.000000 0 0 1
33.573491 29.938072 -27.317579 52.628106 0.728220 2.116557 0.096786 -0.024637 79036.800000 0 0 1
34.042011 30.301672 -25.884049 52.412153 0.727333 2.087315 0.113528 -0.023045 457777.000000 0 0 1
34.656671 31.644987 -25.884729 53.595795 0.740005 2.074830 0.105300 -0.022619 705267.000000 0 0 1
35.468281 31.866297 -24.721479 53.708578 0.731955 2.049117 0.097254 -0.027332 571459.000000 0 0 1
35.994491 33.375291 -24.552279 54.884677 0.747659 2.034589 0.102408 -0.021956 593743.000000 0 0 1
34.923261 -33.286748 -24.139179 53.947583 -0.761411 2.034715 0.117360 -0.016000 460247.000000 0 0 1
35.317721 -31.924198 -24.012579 53.320726 -0.734974 2.037945 0.104212 -0.019584 -939626.000000 0 0 1
35.484961 -31.113358 -25.363499 53.577333 -0.719851 2.063943 0.090076 -0.019098 1548010.000000 0 0 1
36.818401 -31.409198 -25.882599 54.882067 -0.706282 2.061905 0.093246 -0.022949 1885160.000000 0 0 1
37.895161 -30.710478 -25.213809 54.908222 -0.681054 2.047890 0.094076 -0.018817 531100.000000 0 0 1
-36.712866 -31.168818 -25.599139 54.540313 0.703907 2.059364 0.072008 -0.014796 157845.000000 0 0 1
-36.324836 -32.497388 -25.295519 54.912997 0.729842 2.049521 0.060704 -0.015533 -218108.000000 0 0 1
-36.018516 -32.731158 -23.878879 54.211282 0.737618 2.026927 0.069331 -0.017601 -364479.000000 0 0 1
-34.723747 -32.079918 -23.378379 52.739060 0.745843 2.030055 0.043818 -0.015365 -512232.000000 0 0 1
-34.682839 -30.698758 -23.297679 51.846841 0.724538 2.036840 0.030514 -0.013357 -243861.000000 0 0 1
-34.318598 -30.264298 -22.008579 50.774713 0.722704 2.019120 0.049030 -0.018987 -603429.000000 0 0 1
-34.276780 -28.686488 -21.931579 49.787613 0.696844 2.026955 0.055552 -0.000080 31892.200000 0 0 1
-35.503489 -28.000648 -22.103679 50.329978 0.667796 2.025477 0.034215 0.003744 13333.700000 0 0 1
-35.892399 -27.921398 -23.491579 51.183231 0.661131 2.047632 0.033761 -0.009249 279158.000000 0 0 1
-37.204236 -27.112098 -23.751379 51.801053 0.629753 2.047116 0.037279 -0.003544 376534.000000 0 0 1
-37.134916 -25.693498 -23.488279 50.900463 0.605266 2.050431 0.039076 -0.004488 -156698.000000 0 0 1
38.017361 -24.850248 -24.158679 51.444109 -0.578941 2.059646 0.051387 -0.010401 -235455.000000 0 0 1
-37.429366 -24.453248 -25.480229 51.460285 0.578704 2.088796 0.062509 -0.012997 -420636.000000 0 0 1
-36.417186 -23.503248 -25.329699 50.201671 0.573127 2.099667 0.040263 -0.016607 -605573.000000 0 0 1
-35.927045 -23.157048 -26.613619 50.351626 0.572540 2.127694 0.042042 -0.017361 96967.100000 0 0 1
-34.695049 -22.206548 -26.589119 49.029160 0.569348 2.143983 0.050095 -0.026475 -166003.000000 0 0 1
-34.897323 -21.051048 -25.840999 48.256886 0.542790 2.135882 0.077085 -0.019779 183671.000000 0 0 1
-35.767187 -20.081148 -26.470099 48.818136 0.511584 2.143872 0.095391 -0.016395 877413.000000 0 0 1
-37.056106 -19.728548 -25.620739 49.181225 0.489228 2.118755 0.124735 -0.027833 538873.000000 0 0 1
-37.046626 -19.095648 -24.340679 48.265567 0.475930 2.099376 0.117647 -0.036039 -343521.000000 0 0 1
-36.467626 -19.786248 -23.227779 47.549060 0.497121 2.081168 0.070499 -0.035016 295415.000000 0 0 1
-37.335946 -20.958948 -22.651079 48.438846 0.511524 2.057395 0.073546 -0.025740 302656.000000 0 0 1
37.517861 -20.568548 -22.050379 48.133920 -0.501486 2.046658 0.088880 -0.025694 -199004.000000 0 0 1
37.008741 -21.501748 -21.114979 47.726454 -0.526325 2.029088 0.075597 -0.012248 434452.000000 0 0 1
35.850491 -20.963448 -20.210079 46.186266 -0.529128 2.023699 0.089997 -0.019060 913621.000000 0 0 1
34.628181 -20.633148 -20.890579 45.401035 -0.537361 2.048943 0.105676 -0.009025 403448.000000 0 0 1
33.568811 -21.028248 -20.038579 44.391406 -0.559621 2.039138 0.079373 -0.008709 50355.200000 0 0 1
32.157841 -20.728848 -20.596279 43.451336 -0.572568 2.064633 0.087830 -0.017456 -321355.000000 0 0 1
31.887011 -21.508748 -21.762579 44.192958 -0.593427 2.085693 0.085196 -0.005864 1348690.000000 0 0 1
30.584591 -21.258148 -22.368879 43.447587 -0.607403 2.111626 0.111368 -0.014335 1285590.000000 0 0 1
30.532691 -19.937448 -23.226379 43.234381 -0.578472 2.137934 0.108027 -0.017246 -167765.000000 0 0 1
30.643491 -18.804048 -22.360479 42.339187 -0.550388 2.127190 0.110139 -0.015844 -189501.000000 0 0 1
30.449091 -17.615648 -23.090879 42.079055 -0.524482 2.151665 0.095153 -0.007925 -136761.000000 0 0 1
31.101691 -16.348548 -22.466479 41.705310 -0.483955 2.139685 0.100868 -0.004530 -88505.300000 0 0 1
30.504791 -16.025148 -21.232579 40.474313 -0.483707 2.123034 0.080331 -0.007715 68850.000000 0 0 1
31.260841 -15.200748 -20.357079 40.282919 -0.452591 2.100587 0.063439 -0.011662 39809.500000 0 0 1
32.375191 -15.901548 -19.541079 41.022750 -0.456554 2.067292 0.085538 -0.022140 599993.000000 0 0 1
33.537831 -16.206948 -20.320179 42.430660 -0.450153 2.070201 0.085484 -0.022348 -159428.000000 0 0 1
34.478931 -16.866348 -19.575479 43.086770 -0.454953 2.042413 0.082183 -0.018535 -671656.000000 0 0 1
35.755561 -17.264048 -20.320579 44.603065 -0.449822 2.043828 0.092560 -0.034809 -423793.000000 0 0 1
36.805961 -16.357948 -20.401579 45.149592 -0.418219 2.039653 0.107028 -0.041624 106144.000000 0 0 1
37.853431 -16.959448 -21.174379 46.571015 -0.421214 2.042796 0.125222 -0.047621 3046.860000 0 0 1
-37.242746 -15.942948 -21.754279 45.983132 0.404478 2.063594 0.140800 -0.052434 -379307.000000 0 0 1
-36.394166 -15.239348 -20.874079 44.637431 0.396548 2.057411 0.152276 -0.055825 -108996.000000 0 0 1
-35.864827 -14.127048 -21.550779 44.162149 0.375234 2.080584 0.154047 -0.050248 -262518.000000 0 0 1
-34.466125 -13.576248 -21.120179 42.641415 0.375238 2.088973 0.158906 -0.050172 -6513.050000 0 0 1
-33.393816 -14.419048 -21.298879 42.150898 0.407606 2.100527 0.155066 -0.057233 -550012.000000 0 0 1
-33.269656 -15.556948 -20.483179 42.052935 0.437395 2.079541 0.134853 -0.051920 -57177.400000 0 0 1
-32.069676 -16.507248 -20.908779 41.690892 0.475363 2.096150 0.106771 -0.049813 788359.000000 0 0 1
-31.967146 -17.624548 -20.073379 41.658897 0.503866 2.073562 0.119838 -0.066126 98099.100000 0 0 1
-31.107396 -18.565848 -20.684679 41.715906 0.538086 2.089605 0.122835 -0.062347 -239615.000000 0 0 1
-31.191776 -19.991748 -20.041479 42.121940 0.569973 2.066666 0.113621 -0.020518 -982195.000000 0 0 1
-32.220916 -20.758648 -20.529179 43.480526 0.572329 2.062521 0.097844 -0.032123 -527120.000000 0 0 1
-32.430746 -22.077948 -19.919079 43.999532 0.597704 2.040600 0.079140 -0.012542 110201.000000 0 0 1
-33.519556 -22.963448 -20.556279 45.535055 0.600640 2.039173 0.048724 -0.026325 177108.000000 0 0 1
-33.064776 -23.347748 -21.860379 46.002967 0.614823 2.065982 0.057134 -0.027675 12656.900000 0 0 1
-33.830586 -24.371748 -22.416579 47.339135 0.624290 2.064093 0.043155 -0.017096 -407448.000000 0 0 1
-33.592656 -24.557048 -23.922779 47.998068 0.631246 2.092562 0.035132 -0.013839 -272888.000000 0 0 1
-32.338566 -25.142398 -24.141679 47.547279 0.660854 2.103356 0.044731 -0.026699 -490211.000000 0 0 1
-32.096376 -25.458138 -25.480859 48.244879 0.670567 2.127225 0.039575 -0.016203 547566.000000 0 0 1
-30.650126 -25.912448 -25.871179 47.751473 0.701833 2.143359 0.054787 -0.023789 647631.000000 0 0 1
-29.708036 -24.872648 -25.986749 46.653266 0.697037 2.161588 0.080135 -0.034388 -407838.000000 0 0 1
-28.387346 -25.354618 -25.965899 46.075221 0.729027 2.169479 0.080359 -0.028758 140655.000000 0 0 1
-27.347286 -24.217948 -26.093969 44.891851 0.724786 2.191076 0.103295 -0.032379 -314335.000000 0 0 1
-27.417966 -23.530248 -27.322339 45.298208 0.709239 2.218261 0.106914 -0.036044 -57836.900000 0 0 1
-26.480446 -22.473848 -27.313659 44.185109 0.703737 2.237202 0.126376 -0.038935 -71581.100000 0 0 1
-26.404016 -21.725248 -28.696539 44.639107 0.688490 2.269018 0.097557 -0.033792 269083.000000 0 0 1
-25.765526 -22.603048 -29.661379 45.327228 0.720108 2.284163 0.091199 -0.014081 409698.000000 0 0 1
-25.587016 -22.042548 -30.923869 45.791430 0.711118 2.312195 0.083055 -0.010719 97757.700000 0 0 1
-24.899206 -23.013548 -31.933009 46.575862 0.746062 2.326242 0.072966 -0.018452 602898.000000 0 0 1
-25.824266 -24.085948 -32.114419 47.732186 0.750583 2.308789 0.065483 -0.021435 477401.000000 0 0 1
-25.452446 -24.817448 -33.221059 48.655642 0.772767 2.322356 0.067804 -0.001494 190353.000000 0 0 1
-20.492806 -15.016748 -11.616879 27.935814 0.632390 1.999665 0.090896 -0.005413 160804.000000 0 0 1
-20.656706 -14.086648 -10.552779 27.138429 0.598503 1.970179 0.102698 -0.007841 523686.000000 0 0 1
-19.792506 -14.458748 -9.448779 26.269338 0.630914 1.938730 0.099430 -0.018336 356217.000000 0 0 1
-20.272806 -14.000948 -8.071679 25.926150 0.604408 1.887392 0.138565 -0.038106 -233712.000000 0 0 1
-21.406606 -14.727848 -7.675679 27.093696 0.602630 1.858031 0.161905 -0.036378 202032.000000 0 0 1
-22.085406 -14.148948 -6.560579 27.036995 0.569772 1.815895 0.163431 -0.041919 304061.000000 0 0 1
-23.245006 -15.058748 -6.021179 28.343444 0.574846 1.784864 0.152404 -0.042603 -113182.000000 0 0 1
-22.971406 -16.157648 -5.205679 28.563162 0.612991 1.754072 0.141126 -0.042277 68162.200000 0 0 1
-22.566706 -15.863248 -3.900979 27.858868 0.612703 1.711284 0.158189 -0.045126 -227269.000000 0 0 1
-22.456906 -17.171648 -3.102579 28.439482 0.652811 1.680108 0.137266 -0.031452 -429394.000000 0 0 1
-23.650806 -17.869248 -2.917179 29.785577 0.647040 1.668893 0.135839 -0.032156 -490704.000000 0 0 1
-23.432206 -19.122448 -2.308079 30.332549 0.684466 1.646962 0.129976 -0.028124 -294925.000000 0 0 1
-24.653606 -20.050048 -2.252079 31.857128 0.682780 1.641548 0.142863 -0.049873 -190748.000000 0 0 1
-24.827906 -20.712148 -3.480879 32.519756 0.695266 1.678041 0.121822 -0.051074 -609865.000000 0 0 1
-25.796326 -21.693348 -3.484179 33.884972 0.699215 1.673802 0.135164 -0.046102 -621965.000000 0 0 1
-25.473696 -22.891348 -4.357179 34.524021 0.732056 1.697341 0.142405 -0.050272 -100359.000000 0 0 1
-24.317106 -23.579048 -3.932379 34.099220 0.769990 1.686375 0.156808 -0.047141 -368386.000000 0 0 1
-23.730606 -24.348848 -4.927379 34.355308 0.798256 1.714717 0.155687 -0.039185 -263967.000000 0 0 1
-22.264406 -24.042148 -5.244579 33.184850 0.823770 1.729503 0.126088 -0.034232 -363945.000000 0 0 1
-22.092506 -22.754848 -5.814679 32.243952 0.800166 1.752122 0.098652 -0.022492 109914.000000 0 0 1
-21.921106 -21.658648 -4.940179 31.209571 0.779376 1.729755 0.102761 -0.020828 -450453.000000 0 0 1
-21.907006 -20.289748 -5.683979 30.395698 0.747090 1.758903 0.104792 -0.004709 -188669.000000 0 0 1
-20.740006 -20.115848 -6.439279 29.601681 0.770122 1.790080 0.095740 -0.000549 -192087.000000 0 0 1
-20.765106 -18.963248 -7.305779 29.054584 0.740075 1.824975 0.089116 -0.002072 267925.000000 0 0 1
-19.488306 -18.716348 -8.158879 28.225221 0.765195 1.864045 0.114809 -0.013650 -160430.000000 0 0 1
-19.416006 -19.589548 -9.314179 29.111607 0.789847 1.896470 0.123013 -0.013385 384864.000000 0 0 1
-18.211206 -19.436048 -10.069679 28.474663 0.817921 1.932252 0.148806 -0.010377 269210.000000 0 0 1
-17.821206 -18.087948 -10.758479 27.577421 0.792826 1.971557 0.132420 -0.007218 -386030.000000 0 0 1
-17.456506 -17.011748 -9.946479 26.326064 0.772495 1.958236 0.137390 -0.015051 -695056.000000 0 0 1
-16.152706 -17.070948 -9.487179 25.344304 0.813029 1.954472 0.145857 -0.013177 -1130260.000000 0 0 1
-15.789006 -15.935748 -8.552579 24.008070 0.790024 1.935035 0.109283 -0.016526 -64847.300000 0 1 0
-16.370406 -16.101448 -7.267179 24.084409 0.777116 1.877311 0.096913 -0.016895 198625.000000 0 1 0
-16.491706 -14.878248 -6.484379 23.138406 0.734010 1.854844 0.111844 -0.026806 -2359.670000 0 1 0
-17.390906 -15.069548 -5.244179 23.601617 0.714006 1.794862 0.131836 -0.035472 -59165.400000 0 1 0
-17.771706 -13.885148 -4.640579 23.025331 0.663238 1.773729 0.105793 -0.029197 264018.000000 0 1 0
-18.492406 -14.099448 -3.439279 23.507279 0.651419 1.717630 0.113317 -0.022933 48233.800000 0 1 0
-19.294306 -12.906448 -2.833879 23.385413 0.589565 1.692276 0.127781 -0.022272 592066.000000 0 1 0
-20.552506 -12.778048 -3.522379 24.455903 0.556242 1.715329 0.160418 -0.041849 642695.000000 0 1 0
-21.395706 -11.882248 -2.868079 24.641225 0.506947 1.687454 0.160650 -0.018569 -167937.000000 0 1 0
-22.884106 -12.071348 -3.245079 26.075473 0.485404 1.695569 0.140751 -0.010708 -136684.000000 0 0 1
-23.261106 -11.542548 -4.471079 26.349574 0.460616 1.741304 0.150043 -0.039103 165029.000000 0 0 1
-24.669106 -11.458148 -4.534579 27.575648 0.434825 1.735988 0.144001 -0.027982 -84324.400000 0 0 1
-25.204266 -11.111648 -5.919979 28.173923 0.415230 1.782497 0.148153 -0.043189 -257864.000000 0 0 1
-25.065366 -12.243348 -6.812179 28.715465 0.454370 1.810310 0.139775 -0.043926 144836.000000 0 0 1
-25.361346 -11.994448 -8.172079 29.220670 0.441768 1.854244 0.149912 -0.047119 -849737.000000 0 0 1
-24.147806 -12.237348 -9.008779 28.531165 0.469048 1.892046 0.140261 -0.056614 -608579.000000 0 0 1
-23.264306 -11.124848 -9.066979 27.334965 0.446051 1.908900 0.147194 -0.051928 165522.000000 0 0 1
-22.285606 -11.227648 -10.080279 26.913201 0.466689 1.954705 0.129444 -0.047007 -148870.000000 0 0 1
-21.147906 -10.199048 -9.823279 25.450960 0.449365 1.967054 0.136803 -0.052216 -518158.000000 0 0 1
-21.400106 -8.876448 -10.137879 25.288980 0.393187 1.983275 0.120972 -0.057120 592855.000000 0 0 1
-20.412006 -7.954548 -9.646579 23.937029 0.371595 1.985587 0.131371 -0.046149 165290.000000 0 1 0
-20.387606 -6.662348 -10.485179 23.874262 0.315845 2.025486 0.151063 -0.057459 -190323.000000 0 1 0
-19.852106 -6.852548 -11.759679 24.069765 0.332374 2.081242 0.140660 -0.048409 445670.000000 0 1 0
-19.615406 -5.648148 -12.455979 23.912699 0.280360 2.118694 0.142713 -0.054746 -310391.000000 0 1 0
-19.092806 -5.902248 -13.871379 24.326672 0.299816 2.177561 0.167314 -0.051673 -554868.000000 0 1 0
-20.011806 -6.436148 -14.753179 25.681758 0.311170 2.182742 0.159344 -0.058199 -258820.000000 0 0 1
-19.483006 -6.469848 -16.051879 26.059726 0.320619 2.234407 0.163205 -0.062372 -288033.000000 0 0 1
-20.115606 -7.428748 -17.111179 27.433855 0.353766 2.244296 0.126741 -0.049151 -1447690.000000 0 0 1
-21.171306 -6.912048 -17.772379 28.493124 0.315572 2.244318 0.120590 -0.050457 -961141.000000 0 0 1
-21.541006 -7.824248 -18.793279 29.638171 0.348408 2.257628 0.112481 -0.044412 -1115670.000000 0 0 1
-22.983306 -7.583748 -19.181179 30.881439 0.318718 2.240971 0.100911 -0.042300 -2037640.000000 0 0 1
-23.063206 -6.317448 -19.760879 31.021186 0.267361 2.261413 0.110803 -0.046369 -234969.000000 0 0 1
-24.203106 -6.251748 -20.549179 32.359596 0.252778 2.258838 0.089468 -0.042779 -746385.000000 0 0 1
-25.514226 -6.044348 -19.795279 32.853660 0.232613 2.217462 0.126527 -0.041019 -1669800.000000 0 0 1
-25.772636 -4.736348 -19.298579 32.543770 0.181746 2.205581 0.132941 -0.038172 343911.000000 0 0 1
-26.906516 -4.596448 -18.458779 32.951699 0.169197 2.165396 0.143966 -0.027189 -308331.000000 0 0 1
-27.076236 -3.064348 -18.045579 32.682652 0.112695 2.155732 0.143660 -0.029186 77331.400000 0 0 1
-27.592266 -2.108348 -18.977079 33.554550 0.076263 2.171907 0.151811 -0.016855 274358.000000 0 0 1
-28.966686 -2.275448 -19.256179 34.857525 0.078393 2.156067 0.161748 -0.007196 -429454.000000 0 0 1
-29.621346 -1.199148 -20.068679 35.799637 0.040460 2.165886 0.158939 -0.014966 -249653.000000 0 0 1
-29.061776 -0.825548 -21.337779 36.063405 0.028399 2.203930 0.155334 -0.009461 -319417.000000 0 0 1
-29.607266 -1.461148 -22.455979 37.188657 0.049311 2.219105 0.152709 -0.007182 -252029.000000 0 0 1
-28.777716 -1.397848 -23.776579 37.355544 0.048536 2.260740 0.141881 -0.010343 -166962.000000 0 0 1
-28.591176 -0.130448 -24.379579 37.574410 0.004563 2.276848 0.157927 -0.008316 270590.000000 0 0 1
-27.907446 0.966952 -23.707179 36.630464 -0.034635 2.274700 0.144541 -0.004798 800843.000000 0 0 1
-26.367826 0.794152 -23.508379 35.334641 -0.030109 2.298701 0.156871 -0.002090 413960.000000 0 0 1
-25.612316 0.633752 -24.689779 35.580579 -0.024739 2.337704 0.140785 -0.003623 590993.000000 0 0 1
-24.205106 0.556252 -24.412179 34.382424 -0.022977 2.360322 0.127900 -0.004148 1213610.000000 0 0 1
-23.323006 -0.014048 -25.585349 34.620412 0.000602 2.402418 0.113548 -0.006784 200147.000000 0 0 1
-23.151906 0.959252 -26.602149 35.278964 -0.041409 2.425005 0.090668 -0.005333 -89013.900000 0 0 1
-22.459006 0.442352 -27.679889 35.647986 -0.019693 2.459854 0.072268 -0.003923 -321793.000000 0 0 1
-22.120806 1.497552 -28.716959 36.279974 -0.067596 2.484117 0.069365 0.000126 -307551.000000 0 0 1
-21.238906 2.541052 -28.285199 35.462665 -0.119075 2.494110 0.084192 -0.000316 481867.000000 0 0 1
-20.922606 3.536152 -29.273439 36.155139 -0.167429 2.514372 0.072107 -0.004620 86459.600000 0 0 1
-20.324006 3.000252 -30.620309 36.873704 -0.146563 2.550640 0.059544 -0.003937 -40733.800000 0 0 1
-18.932306 2.700052 -30.571009 36.059799 -0.141661 2.582594 0.063531 -0.001463 334785.000000 0 0 1
-18.520206 2.360252 -31.876649 36.941705 -0.126759 2.611758 0.056233 -0.008699 387725.000000 0 0 1
-16.999606 2.068052 -32.042109 36.331257 -0.121058 2.650766 0.068462 -0.022688 545264.000000 0 0 1
-16.153906 3.205452 -32.028169 36.014264 -0.195887 2.666650 0.074377 -0.019959 239128.000000 0 0 1
-14.835606 2.822052 -32.404059 35.750276 -0.187976 2.705479 0.072758 -0.020826 218705.000000 0 0 1
-13.932106 4.029452 -32.690969 35.763662 -0.281538 2.724038 0.088919 -0.015788 -316419.000000 0 0 1
-13.631306 4.855352 -31.622629 34.776107 -0.342180 2.712445 0.099848 -0.030788 -47242.500000 0 0 1
-13.243406 6.146152 -32.011969 35.184218 -0.434510 2.713692 0.121340 -0.017995 -292031.000000 0 0 1
-12.931406 7.036752 -30.793939 34.132152 -0.498348 2.695634 0.122453 -0.032090 559344.000000 0 0 1
-11.734906 6.709852 -30.053609 32.953749 -0.519415 2.718915 0.143533 -0.050239 753399.000000 0 0 1
-11.877406 5.584752 -29.224859 32.036770 -0.439524 2.719488 0.148041 -0.049167 -621972.000000 0 0 1
-10.550006 4.881452 -28.943089 31.190281 -0.433362 2.759676 0.164762 -0.066836 -597161.000000 0 0 1
-10.036806 4.086252 -30.047109 31.941567 -0.386635 2.795454 0.150120 -0.065297 48024.500000 0 0 1
-10.750506 2.924852 -30.404949 32.381925 -0.265637 2.790357 0.148961 -0.056237 -514330.000000 0 0 1
-10.391606 2.317652 -31.763079 33.500003 -0.219440 2.818165 0.137827 -0.063434 119310.000000 0 0 1
-11.127406 1.073752 -32.038359 33.932707 -0.096198 2.805873 0.130960 -0.056062 642524.000000 0 0 1
-10.888406 0.487952 -33.327999 35.064954 -0.044784 2.825524 0.112604 -0.040238 -373901.000000 0 0 1
-11.347106 1.241152 32.845647 34.772601 -0.108947 0.334471 0.124138 -0.032340 876752.000000 0 0 1
-12.750406 1.025652 32.568530 34.990484 -0.080268 0.374249 0.067893 -0.025378 886165.000000 0 0 1
-13.064606 1.556152 31.334459 33.984612 -0.118553 0.397533 0.071994 -0.025104 -323991.000000 0 0 1
-14.529006 1.465552 30.888819 34.166636 -0.100531 0.441612 0.079243 -0.017780 -607738.000000 0 0 1
-15.407806 2.265652 31.584727 35.215460 -0.145999 0.458089 0.084462 0.000089 -113211.000000 0 0 1
-16.721706 1.924552 31.171539 35.425756 -0.114589 0.495120 0.091538 0.001847 -13521.600000 0 0 1
-17.745806 3.026252 30.953249 35.807478 -0.168908 0.526770 0.087350 0.007065 -209864.000000 0 0 1
-18.240506 3.740552 32.104510 37.113439 -0.202264 0.525572 0.085205 -0.000610 802606.000000 0 0 1
-17.435506 4.887652 32.479946 37.186461 -0.273312 0.508584 0.080276 0.002579 140327.000000 0 0 1
-18.113806 5.556252 33.664909 38.630402 -0.297630 0.512622 0.073408 0.000073 252407.000000 0 0 1
-19.432406 5.983552 33.407669 39.108741 -0.298703 0.546738 0.067913 -0.000140 -165025.000000 0 0 1
-20.416706 5.373552 -33.183139 39.329857 -0.257357 2.574961 0.061393 0.002201 -157947.000000 0 0 1
-21.754506 6.109052 -33.241659 40.194365 -0.273767 2.544587 0.050423 0.001135 -488942.000000 0 0 1
-21.727606 7.457752 -32.821739 40.062121 -0.330639 2.530935 0.062529 -0.007985 256757.000000 0 0 1
-21.238106 8.379152 33.594639 40.618556 -0.375785 0.596910 0.046662 -0.009259 -313401.000000 0 0 1
-21.010206 9.799652 -33.277119 40.556487 -0.436427 2.533104 0.051777 -0.007701 814044.000000 0 0 1
-19.793006 9.905552 -32.473309 39.298840 -0.464013 2.543333 0.073891 -0.010200 1328600.000000 0 0 1
-19.468906 11.268052 -32.127669 39.219822 -0.524664 2.530757 0.078733 -0.013481 224024.000000 0 0 1
-18.900506 12.270652 -33.225519 40.146397 -0.575829 2.545631 0.056519 -0.028294 -150125.000000 0 0 1
-19.792706 12.516252 33.127356 40.568824 -0.563879 0.615349 0.071396 -0.030065 -9453.260000 0 0 1
-19.092806 12.649252 31.899688 39.269949 -0.585122 0.622681 0.077409 -0.034155 -14199.500000 0 0 1
-19.782806 12.072552 30.667769 38.439797 -0.547926 0.647137 0.087021 -0.034003 -255670.000000 0 0 1
-20.018206 10.670752 30.657999 38.137992 -0.489739 0.637023 0.071925 -0.021870 586601.000000 0 0 1
-18.809506 9.939752 30.419409 37.120569 -0.486142 0.610301 0.085984 -0.025965 643895.000000 0 0 1
-18.973106 8.390752 30.600669 36.970047 -0.416386 0.595773 0.090293 -0.014128 484409.000000 0 0 1
-19.734706 7.821452 29.489359 36.335327 -0.377338 0.623929 0.088072 -0.010984 564292.000000 0 0 1
-19.910606 6.476652 29.751589 36.380438 -0.314491 0.613234 0.081761 -0.010146 -273409.000000 0 0 1
-20.342506 5.749452 28.508399 35.490880 -0.275448 0.638048 0.081936 -0.014113 287646.000000 0 0 1
-21.745906 5.858052 28.307909 36.173732 -0.263140 0.672038 0.100721 -0.025585 228803.000000 0 0 1
-22.290806 4.870452 27.480009 35.717674 -0.215115 0.692946 0.093097 -0.028804 303411.000000 0 0 1
-23.791706 5.034252 27.118269 36.425122 -0.208521 0.731020 0.078707 -0.021871 268727.000000 0 0 1
-24.148106 6.045652 26.198359 36.139106 -0.245315 0.759862 0.082424 -0.024654 48680.000000 0 0 1
-25.545926 6.225352 26.195409 37.115345 -0.239033 0.787267 0.073311 -0.021883 -264606.000000 0 0 1
-26.106526 6.982952 24.952819 36.782543 -0.261361 0.825231 0.068556 -0.025403 -261267.000000 0 0 1
-26.129696 6.265452 23.673709 35.811470 -0.235340 0.848559 0.070544 -0.023097 317231.000000 0 0 1
-26.991356 5.143452 23.568929 36.200591 -0.188302 0.861810 0.065006 -0.019703 -76989.600000 0 0 1
-26.992276 4.559952 22.157489 35.218326 -0.167355 0.890342 0.085784 -0.024216 -212943.000000 0 0 1
-27.759346 5.307152 21.286389 35.381599 -0.188905 0.925265 0.076859 -0.023597 -252504.000000 0 0 1
-27.844976 4.718152 20.020689 34.618371 -0.167849 0.954122 0.097331 -0.017428 172451.000000 0 0 1
-28.682556 5.527152 18.982089 34.836161 -0.190367 0.994531 0.113391 -0.025924 -438828.000000 0 0 1
-30.056426 5.423952 19.147489 36.047668 -0.178537 1.010814 0.128140 -0.028973 -582679.000000 0 0 1
-30.766046 5.973652 18.051089 36.167332 -0.191778 1.048237 0.136413 -0.030272 -157375.000000 0 0 1
-32.282636 6.022252 18.294089 37.591353 -0.184428 1.062538 0.137680 -0.026620 -307821.000000 0 0 1
-32.745366 7.054752 19.122389 38.570640 -0.212199 1.052068 0.147864 -0.040021 259398.000000 0 0 1
-34.109477 6.887752 19.482389 39.880585 -0.199251 1.060406 0.155761 -0.038669 453598.000000 0 0 1
-34.608625 8.069952 20.372389 40.962364 -0.229084 1.050262 0.161988 -0.040512 193055.000000 0 0 1
-34.051325 7.965252 21.647789 41.128637 -0.229787 1.016502 0.128436 -0.034379 -56235.100000 0 0 1
-34.701356 8.883952 22.438309 42.268031 -0.250629 1.011184 0.142132 -0.038067 128182.000000 0 0 1
-0.610206 32.675752 11.646021 34.694479 -1.552124 1.228476 0.212496 -0.046806 58376.300000 0 0 1
-0.659506 32.641352 13.085221 35.172657 -1.550594 1.189603 0.210665 -0.048389 -42022.200000 0 0 1
-0.454206 -33.539748 13.626121 36.204864 1.557255 1.184930 0.199846 -0.061624 16036.100000 0 0 1
-0.647806 -33.474848 15.125421 36.739127 1.551447 1.146480 0.204245 -0.055510 233900.000000 0 0 1
-1.995606 -33.450348 15.556721 36.944821 1.511208 1.136161 0.170064 -0.041822 -140711.000000 0 0 1
-2.068706 -33.446148 16.963321 37.559002 1.509023 1.102189 0.159781 -0.046037 -520441.000000 0 0 1
-3.395606 -33.128148 17.636521 37.683567 1.468654 1.083752 0.147239 -0.034910 -746671.000000 0 0 1
-4.186706 33.242052 17.780121 37.930136 -1.445510 1.082910 0.167464 -0.033254 -108009.000000 0 0 1
-5.237906 33.465552 18.712921 38.698220 -1.415540 1.066079 0.129199 -0.022763 206638.000000 0 0 1
-6.281306 32.323152 18.869221 37.951132 -1.378860 1.050430 0.126597 -0.021708 281491.000000 0 0 1
-7.276106 32.454052 17.865121 37.754069 -1.350246 1.077880 0.114930 -0.018560 275897.000000 0 0 1
-8.424506 31.664152 18.191921 37.477150 -1.310762 1.063960 0.104542 -0.023593 296209.000000 0 0 1
-9.454606 31.634252 17.053221 37.160837 -1.280374 1.094036 0.080976 -0.031490 -309074.000000 0 0 1
-10.162406 32.860452 16.947321 38.344432 -1.270866 1.112996 0.079957 -0.018793 228064.000000 0 0 1
-11.189806 32.704552 15.939521 38.063996 -1.241133 1.138722 0.063648 -0.027910 497835.000000 0 0 1
-12.132906 -33.601048 15.794821 39.060392 1.224279 1.154507 0.061952 -0.034298 -250227.000000 0 0 1
-13.133006 -33.582348 16.796921 39.779222 1.198013 1.134866 0.048331 -0.027879 -458250.000000 0 0 1
-14.070606 -32.599948 16.508921 39.157158 1.163337 1.135580 0.031352 -0.025753 -396189.000000 0 0 1
-15.370206 -32.835648 17.320121 40.179717 1.132997 1.125122 0.062795 -0.029780 164319.000000 0 0 1
-15.172106 -32.630648 18.720621 40.563699 1.135568 1.091098 0.064126 -0.020074 -84906.900000 0 0 1
-16.411006 -32.808748 19.347721 41.473719 1.106987 1.085460 0.064278 -0.030981 -62353.700000 0 0 1
-16.282206 -32.472548 20.879421 41.899008 1.106018 1.049128 0.072450 -0.042737 -176650.000000 0 0 1
-16.010906 -31.117848 21.130121 40.879721 1.095596 1.027588 0.084178 -0.037317 203247.000000 0 0 1
-16.018106 -30.844048 22.520521 41.413873 1.091808 0.995848 0.085373 -0.042602 13593.500000 0 0 1
-15.861406 -29.349548 22.802421 40.409536 1.075329 0.971232 0.103551 -0.052160 -236988.000000 0 0 1
-16.097606 -29.036248 24.164821 41.063064 1.064584 0.941618 0.120244 -0.069118 -171920.000000 0 0 1
-16.114106 -27.620348 24.395721 40.220632 1.042661 0.919086 0.098369 -0.037859 -649715.000000 0 0 1
-17.271606 -26.835848 23.814321 39.819506 0.998932 0.929722 0.112996 -0.030435 -386504.000000 0 0 1
-18.458406 -26.904248 24.605621 40.865486 0.969475 0.924652 0.108139 -0.027061 135895.000000 0 0 1
-19.417406 -26.035548 24.045321 40.411173 0.929986 0.933510 0.099800 -0.021642 -592854.000000 0 0 1
-20.521906 -25.535048 25.056821 41.243564 0.893818 0.917846 0.097516 -0.010958 415454.000000 0 0 1
-21.403606 -26.509748 25.576621 42.603341 0.891568 0.926866 0.108750 -0.015737 283039.000000 0 0 1
-22.200306 -27.200548 24.641121 42.894152 0.886272 0.958848 0.110658 -0.022910 -134014.000000 0 0 1
-23.619906 -26.602648 24.321321 43.094402 0.844719 0.971123 0.076204 -0.010067 430859.000000 0 0 1
-23.636306 -25.397248 23.625021 41.974240 0.821296 0.972972 0.078840 -0.008302 -31072.500000 0 0 1
-24.941286 -25.134748 23.174821 42.318975 0.789262 0.991276 0.058876 -0.001836 -306255.000000 0 0 1
-25.332336 -23.776148 22.795521 41.553198 0.753720 0.990124 0.052106 0.009050 -184272.000000 0 0 1
-25.516806 -22.943148 23.935921 41.838066 0.732339 0.961722 0.046607 0.009466 197310.000000 0 0 1
-26.239976 -21.754648 23.622321 41.470654 0.692214 0.964759 0.041959 0.010494 198307.000000 0 0 1
-26.903326 -21.124948 24.857021 42.283849 0.665662 0.942384 0.046450 0.011367 780961.000000 0 0 1
-28.047786 -21.832148 25.388221 43.679318 0.661425 0.950543 0.040221 0.015926 828035.000000 0 0 1
-28.209236 -21.533948 26.766721 44.451426 0.652000 0.924597 0.040639 -0.000244 437125.000000 0 0 1
-29.370476 -22.410748 27.470921 46.038223 0.651792 0.931416 0.051376 -0.008499 1083880.000000 0 0 1
-30.711256 -22.083348 27.172921 46.574920 0.623406 0.947858 0.060627 -0.003333 395387.000000 0 0 1
-31.181466 -22.474348 25.871921 46.332888 0.624523 0.978350 0.051915 0.006472 -1307930.000000 0 0 1
-32.711016 -22.461848 25.854221 47.360173 0.601727 0.993326 0.062652 -0.014597 -264131.000000 0 0 1
-33.343616 -22.978348 24.687521 47.426521 0.603399 1.023310 0.051059 -0.009730 234421.000000 0 0 1
-33.116126 -24.381848 24.453821 47.844976 0.634645 1.034326 0.040610 -0.007581 -616746.000000 0 0 1
-33.517556 -24.965348 23.069921 47.737998 0.640193 1.066420 0.043525 -0.000186 1288720.000000 0 0 1
-34.955145 -24.939748 22.890721 48.660439 0.619715 1.081033 0.065461 -0.015961 1168120.000000 0 0 1
-35.288399 -25.366348 21.576621 48.520855 0.623252 1.109971 0.064603 -0.008275 888469.000000 0 0 1
-36.721446 -26.021148 21.432721 49.849035 0.616480 1.126356 0.080326 -0.011008 611129.000000 0 0 1
-36.932746 -27.148148 22.323521 50.984206 0.633877 1.117589 0.075859 -0.009754 1198640.000000 0 0 1
-35.938171 -28.244248 22.373321 50.890620 0.666092 1.115604 0.050086 -0.009089 494219.000000 0 0 1
-36.290816 -29.311348 21.324521 51.292433 0.679406 1.142036 0.061730 -0.014245 -323462.000000 0 0 1
-36.288716 -28.943048 19.951921 50.523758 0.673262 1.164835 0.062618 -0.015896 374234.000000 0 0 1
-36.399936 -30.054348 19.088521 50.917491 0.690199 1.186517 0.055166 -0.005218 -123724.000000 0 0 1
-36.871226 -29.737948 17.648021 50.549832 0.678713 1.214163 0.063328 -0.003244 -278680.000000 0 0 1
-35.888780 -29.130848 16.846421 49.197691 0.681833 1.221302 0.094277 -0.012638 618445.000000 0 0 1
-36.489136 -28.583248 15.627421 48.914982 0.664497 1.245614 0.108297 -0.018965 417262.000000 0 0 1
-37.066616 -29.522748 14.544721 49.568898 0.672590 1.272989 0.095317 -0.014533 446203.000000 0 0 1
-36.029796 -30.236348 13.874621 49.039658 0.698193 1.283952 0.085178 -0.021927 434460.000000 0 0 1
-36.503646 -31.108648 12.830921 49.647726 0.705774 1.309390 0.084645 -0.023564 96447.900000 0 0 1
-36.771766 -30.447848 11.484721 49.103290 0.691596 1.334721 0.097524 -0.025294 393055.000000 0 0 1
-37.894486 -29.573448 11.366321 49.394070 0.662685 1.338600 0.086773 -0.030147 309849.000000 0 0 1
37.987171 -29.103948 10.073021 48.903279 -0.653759 1.363333 0.068963 -0.018458 93455.200000 0 0 1
36.636341 -28.353348 9.890921 47.370499 -0.658631 1.360449 0.095651 -0.019759 137318.000000 0 0 1
36.531231 -27.466648 8.813621 46.547046 -0.644695 1.380298 0.113643 -0.061885 1072800.000000 0 0 1
35.402311 -26.569048 9.030921 45.175164 -0.643814 1.369531 0.094194 -0.056368 866113.000000 0 0 1
35.450861 -25.542348 7.922321 44.406511 -0.624352 1.391432 0.087251 -0.053736 -294913.000000 0 0 1
36.383791 -24.581148 8.259721 44.679258 -0.594167 1.384860 0.100019 -0.059360 -295569.000000 0 0 1
36.467981 -23.631248 7.191521 44.046197 -0.574968 1.406790 0.084307 -0.050031 76767.200000 0 0 1
37.297691 -22.413748 7.551321 44.164650 -0.541112 1.398971 0.094789 -0.048934 23955.300000 0 0 1
36.500431 -21.616748 8.405221 43.245959 -0.534689 1.375193 0.101114 -0.052506 216815.000000 0 0 1
36.986771 -20.306948 8.253721 42.994386 -0.502100 1.377625 0.110195 -0.034621 215440.000000 0 0 1
36.222131 -19.277948 9.105721 42.030896 -0.489086 1.352421 0.100199 -0.025621 223923.000000 0 0 1
36.471671 -19.399648 10.488721 42.620915 -0.488849 1.322149 0.082934 -0.041256 176407.000000 0 0 1
35.612161 -18.517248 11.220721 41.677561 -0.479496 1.298206 0.102956 -0.030112 461183.000000 0 0 1
36.102801 -18.350248 12.701121 42.443637 -0.470248 1.266893 0.093413 -0.040449 -375709.000000 0 0 1
37.303541 -17.678048 12.894221 43.247294 -0.442548 1.268041 0.057091 -0.028239 -466803.000000 0 0 1
37.703461 -17.816948 14.207421 44.055027 -0.441451 1.242435 0.063811 -0.017143 -49390.600000 0 0 1
-37.098406 -17.005148 14.629121 43.352947 0.429800 1.226598 0.086999 -0.021980 423406.000000 0 0 1
-35.887771 -17.460548 14.023621 42.302066 0.452815 1.232891 0.084833 -0.016992 520913.000000 0 0 1
-34.769680 -16.836648 14.640121 41.312668 0.450955 1.208552 0.088249 -0.017674 1648370.000000 0 0 1
-33.404676 -16.883148 13.768521 39.880889 0.467968 1.218301 0.102353 -0.017832 1391650.000000 0 0 1
-32.846636 -18.188348 13.578021 39.925934 0.505707 1.223794 0.097235 -0.022714 667039.000000 0 0 1
-31.851996 -18.071648 12.537321 38.708120 0.516076 1.240954 0.104835 -0.027241 603577.000000 0 0 1
-31.088896 -19.416948 12.282821 38.657535 0.558284 1.247457 0.092078 -0.026355 597475.000000 0 0 1
-31.810516 -20.249748 11.402321 39.395104 0.566879 1.277160 0.092775 -0.024190 9773.450000 0 0 1
-30.861546 -21.110048 10.820321 38.924909 0.599923 1.289106 0.091741 -0.031954 144292.000000 0 0 1
-31.502606 -22.066848 9.743421 39.677377 0.611046 1.322693 0.086960 -0.029012 653963.000000 0 0 1
-32.264756 -23.173448 10.191321 41.010806 0.622855 1.319662 0.086355 -0.027470 -253323.000000 0 0 1
-33.555706 -22.897848 10.689021 42.006572 0.598804 1.313506 0.103822 -0.034876 -383260.000000 0 0 1
-34.359257 -24.193348 10.755621 43.376953 0.613492 1.320225 0.129912 -0.042799 -209131.000000 0 0 1
-34.814448 -24.655448 9.478621 43.701044 0.616205 1.352162 0.106223 -0.035309 -149662.000000 0 0 1
-35.666947 -25.768348 9.566221 45.029451 0.625649 1.356721 0.113205 -0.025976 106917.000000 0 0 1
-35.926496 -26.420748 8.232121 45.349056 0.634099 1.388256 0.103198 -0.029766 611074.000000 0 0 1
-34.694214 -26.822248 7.635121 44.513106 0.658125 1.398419 0.093869 -0.026358 133853.000000 0 0 1
-34.939981 -27.570348 6.472021 44.975698 0.668045 1.426395 0.084478 -0.016367 126735.000000 0 0 1
-33.716346 -28.008548 5.606721 44.189434 0.693189 1.443574 0.068655 -0.011236 437759.000000 0 0 1
-33.095906 -26.927748 4.932121 42.950768 0.682995 1.455710 0.079213 0.000327 -841598.000000 0 0 1
-31.811816 -27.242548 4.521121 42.125867 0.708178 1.463265 0.097607 -0.013910 -470609.000000 0 0 1
-31.044386 -26.084748 3.845321 40.730265 0.698801 1.476246 0.072207 -0.013897 165934.000000 0 0 1
-31.523916 -25.622048 2.604421 40.706629 0.682486 1.506772 0.088256 -0.017092 35408.400000 0 0 1
-30.612966 -24.605948 2.180221 39.336494 0.677039 1.515343 0.111001 -0.041176 295622.000000 0 0 1
-30.924986 -23.928048 0.837721 39.110204 0.658525 1.549375 0.131697 -0.042230 -84583.100000 0 0 1
-30.668436 -24.783948 -0.271279 39.431849 0.679676 1.577676 0.137814 -0.047993 -197577.000000 0 0 1
-30.768056 -24.065348 -1.524779 39.091422 0.663764 1.609812 0.149669 -0.047627 -348632.000000 0 0 1
-32.167546 -23.945948 -2.127879 40.158279 0.639916 1.623808 0.158280 -0.040618 23876.600000 0 0 1
-32.925576 -22.788148 -1.695779 40.078285 0.605412 1.613121 0.143121 -0.032895 -575844.000000 0 0 1
-34.204840 -22.904748 -2.222479 41.225453 0.590055 1.624733 0.143685 -0.025027 -303671.000000 0 0 1
-35.200055 -21.735448 -1.910279 41.414041 0.553176 1.616939 0.131064 -0.022255 128910.000000 0 0 1
-35.402839 -21.490248 -0.546479 41.418480 0.545566 1.583991 0.126065 -0.035181 841549.000000 0 0 1
-36.215596 -20.308548 -0.229579 41.521793 0.511073 1.576325 0.117571 -0.025445 166272.000000 0 0 1
-36.315236 -19.861648 1.232421 41.410148 0.500478 1.541031 0.127330 -0.032166 -360706.000000 0 0 1
-37.075336 -20.752048 2.004521 42.535235 0.510280 1.523653 0.091740 -0.033959 158334.000000 0 0 1
-37.216416 -20.461948 3.384121 42.605226 0.502697 1.491283 0.087509 -0.034272 -975981.000000 0 0 1
37.681791 -21.283248 4.019921 43.463246 -0.514146 1.478174 0.106549 -0.024818 489289.000000 0 0 1
36.395811 -21.098048 3.471421 42.211769 -0.525347 1.488465 0.084614 -0.021165 -268898.000000 0 0 1
35.831411 -19.831048 3.712521 41.121081 -0.505491 1.480391 0.090834 -0.026336 -873054.000000 0 0 1
34.578311 -19.694848 2.797621 39.892021 -0.517746 1.500609 0.085781 -0.007666 508173.000000 0 0 1
33.498381 -20.522748 3.243021 39.418801 -0.549668 1.488432 0.083549 -0.014064 144602.000000 0 0 1
32.321501 -20.115148 2.561121 38.155707 -0.556688 1.503623 0.108778 -0.013168 -99861.600000 0 0 1
31.052991 -20.915148 2.748821 37.540480 -0.592740 1.497508 0.094935 -0.006383 -591945.000000 0 0 1
30.948491 -22.029748 1.839121 38.032897 -0.618615 1.522421 0.068713 -0.013258 173446.000000 0 0 1
29.840091 -22.864148 2.183021 37.655888 -0.653803 1.512791 0.071132 -0.011266 396392.000000 0 0 1
29.674591 -23.981048 1.137421 38.170221 -0.679681 1.540993 0.061131 -0.010693 -218366.000000 0 0 1
29.053391 -23.510948 -0.020879 37.374652 -0.680345 1.571355 0.067644 -0.014649 -153760.000000 0 0 1
28.474891 -24.639248 -0.676479 37.661248 -0.713308 1.588759 0.041691 -0.013176 -224486.000000 0 0 1
27.306291 -24.271848 -1.607579 36.569666 -0.726634 1.614770 0.054105 -0.020801 -304793.000000 0 0 1
27.558391 -23.376448 -2.657479 36.235141 -0.703478 1.644202 0.054947 -0.027519 333576.000000 0 0 1
28.404591 -23.767548 -3.768779 37.227958 -0.696751 1.672205 0.044001 -0.030759 -195647.000000 0 0 1
27.643891 -24.606848 -4.845579 37.325076 -0.727339 1.700985 0.042749 -0.022539 157510.000000 0 0 1
26.999491 -23.974748 -5.914679 36.588857 -0.726129 1.733161 0.046092 -0.039625 -7124.300000 0 0 1
25.865291 -23.246148 -5.576379 35.220629 -0.732118 1.729792 0.073580 -0.045553 -981625.000000 0 0 1
25.174391 -22.332848 -6.613379 34.296397 -0.725657 1.764842 0.089428 -0.055314 -291880.000000 0 0 1
24.594091 -23.102748 -7.645379 34.598527 -0.754141 1.793609 0.097718 -0.060730 194257.000000 0 0 1
23.459891 -22.518548 -8.255479 33.550029 -0.764927 1.819414 0.092784 -0.063938 -190280.000000 0 0 1
23.542691 -21.129248 -9.008779 32.891663 -0.731425 1.848234 0.100909 -0.061079 -590267.000000 0 0 1
24.178391 -21.278448 -10.276979 33.808035 -0.721689 1.879664 0.106618 -0.060580 77490.000000 0 0 1
24.072691 -20.030248 -10.968179 33.181414 -0.693994 1.907685 0.102425 -0.061077 24430.700000 0 0 1
24.992591 -20.001248 -12.199179 34.256379 -0.674916 1.934902 0.093842 -0.056714 234273.000000 0 0 1
26.394891 -19.977148 -11.975679 35.202182 -0.647875 1.917923 0.123882 -0.063435 112522.000000 0 0 1
27.001691 -19.380348 -13.098579 35.724809 -0.622537 1.946204 0.120921 -0.062048 228377.000000 0 0 1
28.552091 -19.533948 -13.108479 36.994989 -0.600010 1.932995 0.110551 -0.054115 585566.000000 0 0 1
29.064491 -20.884248 -13.473479 38.241745 -0.623066 1.930849 0.087213 -0.050521 347648.000000 0 0 1
29.321291 -21.712048 -12.388579 38.530871 -0.637385 1.898134 0.121336 -0.062621 -293076.000000 0 0 1
29.770891 -23.149848 -12.744379 39.807545 -0.660932 1.896684 0.101162 -0.052649 -513226.000000 0 0 1
31.047391 -23.233548 -13.312379 40.999484 -0.642428 1.901487 0.076313 -0.047540 51251.700000 0 0 1
31.458811 -24.526948 -13.804779 42.211372 -0.662210 1.903965 0.075511 -0.038379 62607.700000 0 0 1
-2.939706 -9.144548 -27.726939 29.343616 1.259760 2.808102 0.044470 -0.017498 -28304.600000 0 0 1
-3.282806 -7.946348 -27.113369 28.443911 1.179030 2.834519 0.057957 -0.015135 -156068.000000 0 0 1
-4.127806 -7.106748 -27.852689 29.039920 1.044592 2.854663 0.063359 -0.019664 -134671.000000 0 0 1
-4.300906 -5.755748 -27.088749 28.025466 0.929066 2.882318 0.056381 -0.024434 237759.000000 0 0 1
-5.112106 -5.821748 -25.879889 27.014719 0.850210 2.850714 0.043817 -0.023325 569727.000000 0 0 1
-4.975706 -4.644948 -25.106879 26.013239 0.751032 2.876842 0.050464 -0.016415 50856.600000 0 0 1
-5.538206 -4.680748 -23.679779 24.765158 0.701686 2.844437 0.041300 -0.012476 108775.000000 0 1 0
-4.755206 -5.500748 -22.812379 23.943159 0.857964 2.833034 0.034645 -0.017438 550665.000000 0 1 0
-5.200106 -5.394148 -21.428679 22.700798 0.803712 2.805230 0.028498 -0.016396 -90948.400000 0 1 0
-4.613406 -6.432548 -20.512179 21.986602 0.948622 2.773290 0.033188 -0.019401 -674820.000000 0 1 0
-5.157306 -7.755648 -20.686079 22.686158 0.983966 2.718533 0.031377 -0.015394 244149.000000 0 1 0
-4.486806 -8.746948 -19.946679 22.237593 1.096837 2.683687 0.033047 -0.021666 -1026370.000000 0 1 0
-5.214206 -10.092148 -20.019379 23.017709 1.093910 2.625468 0.047340 -0.017672 97402.400000 0 1 0
-6.443106 -10.102148 -19.329179 22.741684 1.003048 2.586677 0.057729 -0.018615 350625.000000 0 1 0
-7.561406 -9.626548 -20.102279 23.536077 0.904975 2.594624 0.058733 -0.010682 -129444.000000 0 1 0
-8.836406 -9.472448 -19.234779 23.190215 0.820124 2.548892 0.066067 -0.001653 -599873.000000 0 1 0
-9.496706 -10.685448 -19.201079 23.938414 0.844231 2.501605 0.096726 -0.005596 -420353.000000 0 1 0
-9.933506 -11.088048 -17.937679 23.310506 0.840265 2.448871 0.074642 -0.004814 -578627.000000 0 1 0
-10.882706 -12.296348 -18.006379 24.369308 0.846311 2.402226 0.086790 0.002897 159133.000000 0 1 0
-12.163506 -11.978648 -18.535179 25.199043 0.777741 2.397276 0.106070 -0.016216 102386.000000 0 0 1
-12.247506 -11.949748 -19.910279 26.252945 0.773093 2.431654 0.114154 -0.028509 -665589.000000 0 0 1
-13.660806 -11.663548 -20.569979 27.308973 0.706694 2.423758 0.123237 -0.031862 1033960.000000 0 0 1
-14.609906 -12.706848 -20.408579 28.132250 0.715844 2.382486 0.112460 -0.030766 178562.000000 0 0 1
-15.084306 -12.850048 -19.054779 27.490810 0.705586 2.336622 0.112984 -0.023187 -1763780.000000 0 0 1
-16.284506 -13.762848 -18.985479 28.549073 0.701672 2.298306 0.115358 -0.016147 -856311.000000 0 0 1
-16.023706 -15.150148 -19.175579 29.223090 0.757383 2.286540 0.118329 -0.023763 3469.630000 0 0 1
-16.512206 -15.614348 -20.419279 30.551723 0.757458 2.302786 0.130160 -0.022570 114755.000000 0 0 1
-15.912206 -16.977348 -20.793779 31.205928 0.817772 2.300087 0.080782 -0.009622 -296715.000000 0 0 1
-16.539506 -18.081048 -20.168779 31.737348 0.829896 2.259440 0.107281 -0.008495 324344.000000 0 0 1
-15.939706 -19.363648 -20.457179 32.365434 0.882082 2.255016 0.080236 -0.011075 -554317.000000 0 0 1
-16.749906 -20.485348 -19.876279 33.094944 0.885384 2.215027 0.105952 -0.021639 -580269.000000 0 0 1
-16.258306 -21.759748 -20.064579 33.769905 0.929107 2.207012 0.087116 -0.013900 487833.000000 0 0 1
-17.267006 -22.742148 -19.734579 34.710351 0.921401 2.175539 0.101182 -0.017138 704994.000000 0 0 1
-16.816306 -24.166548 -20.094079 35.645227 0.962861 2.169684 0.107365 -0.022485 45085.000000 0 0 1
-17.036806 -24.354348 -21.477279 36.669614 0.960380 2.196536 0.067758 -0.012063 169526.000000 0 0 1
-16.483406 -25.602488 -21.882379 37.497048 0.998778 2.193922 0.073505 -0.012508 -222574.000000 0 0 1
-16.780706 -26.004278 -23.361279 38.775817 0.997728 2.217389 0.069718 -0.012462 -58244.200000 0 0 1
-18.121806 -26.319348 -23.684579 39.775209 0.967806 2.208635 0.093113 -0.011203 -118825.000000 0 0 1
-18.417606 -27.717248 -23.372379 40.665983 0.984308 2.183083 0.097930 -0.014371 -320338.000000 0 0 1
-19.398906 -28.406268 -24.311479 42.122223 0.971633 2.186049 0.098263 -0.019543 -389519.000000 0 0 1
-18.933306 -28.702518 -25.603379 42.870009 0.987675 2.210843 0.098383 -0.013348 -68715.300000 0 0 1
-18.964206 -27.503798 -26.406199 42.583887 0.967144 2.239664 0.115545 -0.015748 380654.000000 0 0 1
-17.734506 -27.235688 -27.344319 42.473606 0.993613 2.270245 0.116021 -0.017786 34057.500000 0 0 1
-17.811106 -27.905568 -28.580259 43.735426 1.002716 2.282970 0.125637 -0.020698 -237973.000000 0 0 1
-16.739806 -27.568828 -29.400079 43.642022 1.025099 2.309952 0.085450 -0.013976 -514854.000000 0 0 1
-17.047306 -27.622738 -30.874399 44.797934 1.017864 2.331170 0.101666 -0.019730 -48955.900000 0 0 1
-17.173306 -28.963358 -31.355469 46.010477 1.035590 2.320587 0.092027 -0.019160 223980.000000 0 0 1
-17.619006 -29.051208 -32.699589 47.155755 1.025625 2.337046 0.093600 -0.016663 57086.400000 0 0 1
-17.308006 -30.430728 -33.236249 48.272607 1.053659 2.330231 0.098014 -0.021534 -892915.000000 0 0 1
-16.004306 -30.675978 -33.595069 48.226364 1.089923 2.341461 0.107296 -0.020524 -1145670.000000 0 0 1
-16.007006 -31.854008 33.039871 48.605917 1.105142 0.823375 0.102443 -0.025557 422420.000000 0 0 1
-14.664006 -32.370778 32.422021 48.104966 1.145449 0.831207 0.088190 -0.029297 -14777.000000 0 0 1
-13.873406 -33.123018 33.247369 48.938668 1.174151 0.823895 0.102461 -0.032427 -753507.000000 0 0 1
-12.817606 -33.634748 32.482881 48.484274 1.206704 0.836632 0.101609 -0.033816 -229652.000000 0 0 1
-11.787606 33.047770 33.306119 48.377684 -1.228180 0.811432 0.107373 -0.032398 17688.600000 0 0 1
-11.057506 -33.651138 -33.206919 48.552724 1.253319 2.323940 0.123870 -0.032246 -186336.000000 0 0 1
-10.155606 33.004119 -32.519789 47.433584 -1.272284 2.326204 0.108003 -0.034665 976.286000 0 0 1
-9.291306 33.748142 -31.478239 47.075949 -1.302139 2.303214 0.113539 -0.039168 214238.000000 0 0 1
-10.056706 -33.244438 -30.355079 46.127658 1.277040 2.289045 0.137432 -0.040536 -124239.000000 0 0 1
-9.637006 -32.033558 -29.834379 44.823107 1.278568 2.299097 0.142602 -0.045195 -296838.000000 0 0 1
-10.694606 -31.204598 -29.019769 43.934594 1.240617 2.292310 0.145111 -0.043160 368257.000000 0 0 1
-10.889606 -31.614498 -27.631519 43.376963 1.239075 2.261408 0.174672 -0.045782 220910.000000 0 0 1
-11.578306 -32.859288 -27.335709 44.283530 1.232020 2.236088 0.146200 -0.041937 286481.000000 0 0 1
-12.023806 -32.990248 -25.849459 43.601869 1.221293 2.205392 0.152760 -0.041241 -92619.300000 0 0 1
-10.906506 -32.862128 -25.013879 42.714933 1.250348 2.196417 0.170980 -0.064887 -192782.000000 0 0 1
-11.210406 -32.768488 -23.641979 41.933164 1.241168 2.169778 0.160012 -0.068595 -29410.000000 0 0 1
-9.909606 -32.658458 -22.833279 41.062560 1.276194 2.160435 0.201351 -0.091547 361173.000000 0 0 1
-9.246306 33.586302 -22.596179 41.522538 -1.302151 2.146220 0.173581 -0.072407 202233.000000 0 0 1
-7.983006 -33.717658 -21.975379 41.030795 1.338317 2.135994 0.201964 -0.084687 200635.000000 0 0 1
-7.388706 32.504869 -21.413879 39.619613 -1.347284 2.141812 0.192799 -0.068321 -424611.000000 0 0 1
-6.541306 31.830754 -22.355779 39.443205 -1.368115 2.173393 0.171691 -0.078089 462267.000000 0 0 1
-5.478306 31.089742 -21.788779 38.357982 -1.396377 2.174916 0.146250 -0.059278 -609221.000000 0 0 1
-4.176206 31.861525 -21.609179 38.724076 -1.440466 2.162806 0.134424 -0.060514 -739322.000000 0 0 1
-3.418806 32.198852 -22.763179 39.580508 -1.465015 2.183536 0.147079 -0.054721 129280.000000 0 0 1
-2.722506 31.111852 -23.336379 38.986484 -1.483512 2.212519 0.150707 -0.070822 -543109.000000 0 0 1
-2.389406 31.385292 -24.827679 40.089393 -1.494811 2.238657 0.138077 -0.026431 210724.000000 0 0 1
-1.330206 32.275739 -25.091379 40.903179 -1.529606 2.231197 0.131038 -0.053554 211150.000000 0 0 1
-1.841706 33.608962 -25.199389 42.047157 -1.516053 2.213438 0.135262 -0.047504 -170224.000000 0 0 1
-0.926406 -32.985398 -26.000219 42.010786 1.542718 2.238130 0.044074 -0.019269 156608.000000 0 0 1
0.350194 -32.722048 -25.425819 41.440649 -1.560095 2.231342 0.075912 -0.029689 283971.000000 0 0 1
0.995494 -31.728588 -26.220729 41.173061 -1.539431 2.261191 0.047852 -0.019739 -586153.000000 0 0 1
2.330894 -31.279468 -25.652999 40.520545 -1.496415 2.256330 0.057594 -0.015672 -723257.000000 0 0 1
2.175594 -30.513308 -24.518979 39.204279 -1.499617 2.246461 0.055955 -0.017459 270363.000000 0 0 1
3.361894 -29.807738 -24.196179 38.539054 -1.458485 2.249565 0.037486 -0.013150 -60830.200000 0 0 1
3.251294 -29.069958 -22.823179 37.101629 -1.459415 2.233376 0.046528 -0.005646 -244431.000000 0 0 1
3.360894 -30.012398 -21.773779 37.230862 -1.459277 2.195469 0.053506 -0.012070 413547.000000 0 0 1
3.971994 -29.377458 -20.686179 36.148718 -1.436406 2.180046 0.050137 -0.007703 -370399.000000 0 0 1
4.069394 -30.337958 -19.452779 36.267924 -1.437457 2.136918 0.050689 -0.007950 -622650.000000 0 0 1
2.858594 -30.604838 -18.806579 36.034915 -1.477663 2.119872 0.071578 -0.024775 -76960.600000 0 0 1
2.345094 -31.938428 -19.048279 37.261235 -1.497502 2.107387 0.079120 -0.027891 -78075.600000 0 0 1
3.053094 -33.150048 -18.314879 37.995814 -1.478956 2.073759 0.051051 -0.035670 147547.000000 0 0 1
4.316494 -33.546418 -18.814979 38.703976 -1.442827 2.078447 0.041589 -0.023973 -16247.300000 0 0 1
4.851294 32.969513 -17.997479 37.873910 1.424700 2.065982 0.046598 -0.043263 -593587.000000 0 0 1
5.974394 32.187226 -18.591879 37.647959 1.387271 2.087291 0.060125 -0.038578 250778.000000 0 0 1
7.172994 32.926243 -18.924879 38.648937 1.356297 2.082497 0.079287 -0.037152 1101780.000000 0 0 1
8.154094 32.025902 -19.523979 38.384025 1.321484 2.104411 0.075011 -0.051229 1680490.000000 0 0 1
9.604894 32.654675 -19.588979 39.272253 1.284729 2.093009 0.087336 -0.056495 706877.000000 0 0 1
10.276994 32.840661 -18.397079 39.020227 1.267515 2.061759 0.080182 -0.046190 982363.000000 0 0 1
11.620594 33.347203 -18.606779 39.915991 1.235483 2.055729 0.083675 -0.032977 799658.000000 0 0 1
12.570394 33.237742 -17.448279 39.587936 1.209226 2.027227 0.060834 -0.030211 -424485.000000 0 0 1
13.137794 31.992045 -17.090179 38.576764 1.181136 2.029758 0.069127 -0.032795 -11591.000000 0 0 1
13.710694 32.075406 -15.802979 38.295547 1.166851 1.996167 0.062891 -0.036307 659127.000000 0 0 1
15.094794 31.339672 -15.667979 38.151191 1.121935 1.993997 0.061104 -0.031650 888167.000000 0 0 1
14.926994 30.026022 -15.149879 36.795325 1.109443 1.995152 0.084820 -0.031204 -336387.000000 0 0 1
16.177794 29.415382 -14.942279 36.745849 1.067971 1.989568 0.083599 -0.027125 -28411.600000 0 0 1
16.214894 28.147552 -14.066679 35.398854 1.048160 1.979453 0.094863 -0.027625 -133210.000000 0 0 1
16.343494 28.228972 -12.664079 34.990906 1.045990 1.941128 0.089558 -0.034905 3059.510000 0 0 1
15.126894 28.289472 -11.942479 34.230687 1.079761 1.927174 0.080995 -0.034296 175370.000000 0 0 1
14.437794 26.967752 -11.506179 32.681825 1.079253 1.930574 0.084246 -0.033710 -117073.000000 0 0 1
13.611694 26.428772 -12.574779 32.278216 1.095195 1.970966 0.093994 -0.033290 458169.000000 0 0 1
12.990894 25.189782 -12.286779 30.890991 1.094651 1.979856 0.125699 -0.032787 9411.150000 0 0 1
11.939194 25.183892 -11.182679 30.030402 1.128098 1.952367 0.124397 -0.030400 -1605280.000000 0 0 1
10.822294 25.972942 -11.326679 30.331657 1.175998 1.953498 0.128484 -0.027573 -415232.000000 0 0 1
10.183594 26.261052 -10.090879 29.919463 1.200866 1.914810 0.110188 -0.016090 29037.100000 0 0 1
9.069894 27.308072 -10.175879 30.521177 1.250127 1.910708 0.110266 -0.014139 -126069.000000 0 0 1
9.552294 28.608902 -10.152379 31.824305 1.248543 1.895485 0.096352 -0.024720 -173425.000000 0 0 1
8.508494 29.563712 -10.228479 32.419582 1.290568 1.891783 0.091336 -0.023142 10710.300000 0 0 1
8.899394 30.971162 -10.576779 33.915783 1.290990 1.887940 0.095598 -0.032643 -544028.000000 0 0 1
9.675094 31.663464 -9.639979 34.483497 1.274246 1.854125 0.080978 -0.031997 -248788.000000 0 0 1
10.238494 32.891346 -10.083879 35.893620 1.269021 1.855568 0.085655 -0.031704 1161760.000000 0 0 1
11.416794 32.830939 -11.151579 36.504403 1.236132 1.881245 0.071662 -0.025283 902595.000000 0 0 1
12.736994 32.504488 -10.760579 36.531668 1.197333 1.869786 0.055461 -0.023346 372446.000000 0 0 1
13.716194 32.799276 -11.741979 37.440627 1.174711 1.889795 0.056316 -0.023249 -366502.000000 0 0 1
15.147194 32.495495 -11.354779 37.607522 1.134608 1.877511 0.069153 -0.032861 -484526.000000 0 0 1
15.564894 33.402894 -10.335179 38.273165 1.134738 1.844228 0.070282 -0.023755 -933697.000000 0 0 1
16.942394 33.546862 -10.319879 38.973536 1.103128 1.838785 0.067896 -0.030580 -612443.000000 0 0 1
17.512694 -33.086888 -9.175479 38.543820 -1.083989 1.811157 0.072446 -0.025444 54861.300000 0 0 1
17.450094 -33.706318 -7.905279 38.770028 -1.093081 1.776138 0.060426 -0.033163 44787.500000 0 0 1
18.060194 -32.867238 -6.947479 38.140443 -1.068345 1.753974 0.053918 -0.022983 -1270310.000000 0 0 1
18.349594 -33.698128 -5.685179 38.789080 -1.072164 1.717893 0.051616 -0.014196 413245.000000 0 0 1
19.471094 32.950506 -5.797879 38.710137 1.037080 1.721139 0.043812 -0.021023 232376.000000 0 0 1
20.754994 33.480468 -6.097079 39.860831 1.015863 1.724358 0.053356 -0.010390 -710392.000000 0 0 1
21.616394 32.538304 -6.967279 39.680633 0.984408 1.747295 0.046733 -0.012863 124899.000000 0 0 1
21.929094 31.253752 -6.434879 38.718081 0.958966 1.737769 0.053781 -0.004142 57646.800000 0 0 1
22.751994 31.243642 -5.280079 39.008942 0.941386 1.706569 0.047533 0.001102 -497411.000000 0 0 1
23.248794 29.892892 -4.725779 38.163128 0.909779 1.694946 0.049486 -0.003861 -33679.400000 0 0 1
24.042594 29.172582 -5.663879 38.225193 0.881502 1.719515 0.047212 -0.004772 168854.000000 0 0 1
24.428394 27.927592 -5.130779 37.456931 0.852134 1.708206 0.070557 -0.010537 -410740.000000 0 0 1
25.456094 27.201002 -5.977879 37.731184 0.818523 1.729900 0.051557 -0.002922 -695215.000000 0 0 1
26.755494 27.740282 -6.014179 39.007051 0.803467 1.725596 0.049732 -0.000567 -614039.000000 0 0 1
27.677594 26.914242 -6.617179 39.169027 0.771416 1.740549 0.032251 -0.002217 -320651.000000 0 0 1
28.388494 25.945052 -5.625179 38.867659 0.740457 1.716033 0.032475 0.002528 -854791.000000 0 0 1
29.375794 26.626192 -4.905879 39.949455 0.736339 1.693909 0.045352 0.003503 -492649.000000 0 0 1
30.016694 25.831522 -3.988479 39.801726 0.710600 1.671173 0.050326 0.001927 -221540.000000 0 0 1
31.385894 26.327712 -3.472979 41.113067 0.697979 1.655371 0.047573 0.006971 -66116.900000 0 0 1
31.391794 27.507542 -2.608479 41.820016 0.719546 1.633211 0.064838 0.006301 859934.000000 0 0 1
32.515494 27.557802 -1.673279 42.655476 0.703057 1.610034 0.065359 0.005606 946811.000000 0 0 1
32.502794 28.747512 -0.643479 43.396602 0.724164 1.585625 0.072181 0.008438 51456.800000 0 0 1
32.804994 30.077912 -1.103579 44.520403 0.742058 1.595587 0.058646 0.020301 427162.000000 0 0 1
31.640494 30.723822 -1.627779 44.133023 0.770701 1.607688 0.079333 -0.002354 508326.000000 0 0 1
35.185571 23.206952 18.832589 46.165500 0.583066 1.150604 0.154385 -0.031790 262706.000000 0 0 1
35.249951 22.585552 20.112189 46.445304 0.569828 1.122945 0.133540 -0.037326 127284.000000 0 0 1
36.290441 23.142152 20.890589 47.843202 0.567675 1.118928 0.138313 -0.039361 -62148.800000 0 0 1
35.964061 23.004052 22.380069 48.202360 0.569058 1.087959 0.111190 -0.031986 -160319.000000 0 0 1
34.823531 23.689152 22.827149 47.905458 0.597356 1.074122 0.083760 -0.024673 129871.000000 0 0 1
34.646201 23.569252 24.219349 48.398819 0.597371 1.046722 0.078875 -0.024565 -386082.000000 0 0 1
33.355391 24.216152 24.729209 48.068054 0.627966 1.030416 0.058383 -0.021002 -189318.000000 0 0 1
33.364891 25.634452 24.779569 48.829992 0.655114 1.038555 0.029795 -0.024180 -463099.000000 0 0 1
32.050931 26.073052 24.784199 48.180107 0.682911 1.030480 0.026398 -0.021569 -643709.000000 0 0 1
31.914241 27.616052 25.095669 49.101504 0.713322 1.034335 0.007541 -0.004367 -207404.000000 0 0 1
32.023061 28.417752 23.964989 49.064913 0.725819 1.060502 0.018297 -0.015284 182848.000000 0 0 1
31.750241 29.768552 24.182579 49.789975 0.753197 1.063642 0.024741 -0.007576 -232887.000000 0 0 1
32.137371 30.731052 22.989959 50.057430 0.763033 1.093621 0.043596 -0.013752 -879071.000000 0 0 1
33.492211 30.943552 22.830829 50.994885 0.745865 1.106596 0.001009 -0.011007 -1091850.000000 0 0 1
33.684361 31.825252 21.759489 51.195294 0.757027 1.131802 0.025555 -0.017521 139315.000000 0 0 1
35.183821 32.116552 21.543089 52.282682 0.739854 1.146093 -0.008032 -0.023461 130697.000000 0 0 1
35.629941 33.210852 22.354169 53.592557 0.750272 1.140530 0.014070 -0.006759 95937.300000 0 0 1
37.008381 33.435452 22.137689 54.567636 0.734721 1.153060 0.012883 -0.000860 199482.000000 0 0 1
37.388021 -32.744348 22.945479 54.740766 -0.719282 1.138270 0.027653 0.000405 -195460.000000 0 0 1
36.678231 -31.606048 22.419129 53.355901 -0.711254 1.137152 0.024789 0.008043 404602.000000 0 0 1
37.012491 -30.529148 23.228639 53.305938 -0.689701 1.119913 0.048628 0.002383 -1114150.000000 0 0 1
36.159271 -29.268848 23.005579 51.898121 -0.680472 1.111538 0.043772 -0.005551 1652740.000000 0 0 1
34.747311 -29.611648 23.220999 51.219528 -0.705770 1.100262 0.033457 0.002358 2199410.000000 0 0 1
33.981821 -30.114748 22.095589 50.496309 -0.725139 1.117904 0.039240 0.005833 -195605.000000 0 0 1
33.242631 -31.427148 22.378539 50.926782 -0.757332 1.115837 0.038769 0.007215 241119.000000 0 0 1
32.266611 -31.388148 23.420449 50.743152 -0.771599 1.091056 0.068877 -0.002314 136786.000000 0 0 1
31.663351 -32.625348 23.586629 51.218260 -0.800361 1.092224 0.059788 -0.003441 -44123.800000 0 0 1
30.800291 -32.751648 24.863899 51.376472 -0.816093 1.065628 0.048340 -0.005629 63794.100000 0 0 1
30.397791 33.391152 25.102329 51.663542 0.832290 1.063426 0.050566 -0.013733 118898.000000 0 0 1
29.515991 33.279652 26.189129 51.619758 0.845262 1.038693 0.056617 -0.016098 -999671.000000 0 0 1
29.098391 31.824452 26.404379 50.563854 0.830114 1.021369 0.055228 -0.013320 155106.000000 0 0 1
28.425991 31.285852 25.271019 49.249019 0.833256 1.031972 0.059411 -0.013648 764771.000000 0 0 1
27.057891 31.723452 25.209869 48.724166 0.864604 1.026987 0.063157 -0.021425 -75894.100000 0 0 1
26.433891 31.534452 23.771519 47.521125 0.873161 1.046931 0.112055 -0.027488 126308.000000 0 0 1
26.873691 32.416252 22.724279 47.847690 0.878610 1.075912 0.144489 -0.032279 622046.000000 0 0 1
28.223091 32.135052 22.348679 48.256273 0.850120 1.089279 0.099857 -0.023168 197075.000000 0 0 1
28.556791 32.805252 21.064689 48.325934 0.854524 1.119772 0.135112 -0.032978 -98112.600000 0 0 1
29.896891 32.766752 20.620289 48.915032 0.831164 1.135639 0.130055 -0.033460 23794.100000 0 0 1
30.146891 33.647752 19.511289 49.210737 0.840220 1.163112 0.123557 -0.037070 1063530.000000 0 0 1
31.656691 -33.670548 19.081589 49.999589 -0.816216 1.179232 0.128647 -0.037800 832792.000000 0 0 1
32.269221 32.703752 18.599989 49.566093 0.792086 1.186123 0.129553 -0.043366 -527687.000000 0 0 1
33.186111 32.975652 17.584089 49.979113 0.782217 1.211272 0.117330 -0.025868 -411466.000000 0 0 1
34.118971 31.802252 17.259889 49.733200 0.750269 1.216373 0.074970 -0.022770 -93692.100000 0 0 1
35.053561 31.404952 18.240489 50.475128 0.730553 1.201053 0.026848 -0.020798 420855.000000 0 0 1
35.871521 30.313452 17.796389 50.223329 0.701617 1.208583 0.047598 -0.022421 73354.500000 0 0 1
36.796101 29.744152 18.861189 50.935371 0.679812 1.191468 0.052513 -0.035237 -174855.000000 0 0 1
37.840061 30.650952 19.179889 52.337550 0.680817 1.195589 0.071774 -0.025764 556245.000000 0 0 1
-37.257486 29.979252 20.025589 51.844961 -0.677570 1.174224 0.099353 -0.026860 55771.200000 0 0 1
-36.193716 30.852052 20.630889 51.840793 -0.705894 1.161497 0.111358 -0.023889 -628265.000000 0 0 1
-35.547381 31.598452 19.618789 51.448764 -0.726655 1.179565 0.125479 -0.025410 -434783.000000 0 0 1
-34.467644 32.340652 20.104489 51.362698 -0.753572 1.168620 0.112629 -0.012187 -396333.000000 0 0 1
-34.729205 33.690252 20.795589 52.665048 -0.770214 1.164875 0.081742 -0.012087 -310346.000000 0 0 1
-35.224378 33.470652 22.132489 53.393711 -0.759875 1.143387 0.083064 -0.010684 351188.000000 0 0 1
-35.091830 -32.866048 22.932349 53.268249 0.752657 1.125742 0.066022 -0.004044 -372904.000000 0 0 1
-35.018351 -33.185348 24.448429 54.085839 0.758529 1.101756 0.072568 -0.017891 -467319.000000 0 0 1
-36.301666 -33.588048 24.858309 55.352538 0.746591 1.105049 0.059518 -0.011266 -414643.000000 0 0 1
-36.420236 33.574152 26.203369 56.038146 -0.744759 1.084224 0.066335 -0.008023 211065.000000 0 0 1
-37.826146 33.422652 26.827139 57.162806 -0.723672 1.082286 0.033429 -0.010335 94897.800000 0 0 1
-37.719446 32.722552 28.109149 57.303109 -0.714580 1.058093 0.058392 -0.019814 192507.000000 0 0 1
37.010421 32.524152 28.568229 56.953800 0.720969 1.045345 0.062093 -0.021146 35217.400000 0 0 1
37.005011 31.484152 29.701199 56.945446 0.704963 1.022103 0.072176 -0.018182 -68577.700000 0 0 1
37.024061 30.127052 29.304489 56.010476 0.683048 1.020199 0.051775 -0.023978 -49114.900000 0 0 1
-37.828486 29.691352 28.723669 56.014461 -0.665462 1.032365 0.060123 -0.024245 -424250.000000 0 0 1
-37.976076 28.169352 28.307379 55.109005 -0.638210 1.031349 0.063226 -0.023347 -22016.400000 0 0 1
37.118541 27.862352 27.276709 53.834148 0.643905 1.039466 0.045793 -0.022728 621850.000000 0 0 1
36.889771 26.523752 26.876539 52.789326 0.623364 1.036625 0.060160 -0.027791 -327473.000000 0 0 1
36.373871 25.587752 27.920649 52.510514 0.613048 1.010172 0.054118 -0.036385 -801558.000000 0 0 1
37.270581 25.252252 29.005389 53.554505 0.595492 0.998451 0.056644 -0.034286 348963.000000 0 0 1
37.336421 23.837952 29.272479 53.095520 0.568223 0.986854 0.059318 -0.028676 32158.100000 0 0 1
37.981211 22.966152 28.146469 52.557018 0.543847 1.005647 0.083129 -0.039246 -299254.000000 0 0 1
37.183171 22.950852 26.973709 51.350859 0.552998 1.017749 0.080006 -0.033287 -37580.300000 0 0 1
37.734621 22.167852 25.991259 50.900499 0.531153 1.034880 0.086249 -0.046644 -564335.000000 0 0 1
37.410591 20.697452 26.092999 50.087737 0.505336 1.022838 0.095740 -0.045466 -131392.000000 0 0 1
36.080341 20.280452 25.784549 48.764030 0.512079 1.013655 0.114121 -0.019638 762529.000000 0 0 1
35.715991 18.972052 26.256149 48.217798 0.488289 0.994965 0.124985 -0.018288 -351794.000000 0 0 1
35.659291 18.749552 27.773109 48.933386 0.484072 0.967245 0.100078 -0.015697 -154948.000000 0 0 1
34.544121 19.286352 28.471789 48.743229 0.509201 0.947004 0.084317 -0.021158 338730.000000 0 0 1
34.279991 20.682652 28.309469 49.033824 0.542875 0.955322 0.083789 -0.031545 -1498450.000000 0 0 1
33.165851 21.124352 29.257879 49.012604 0.567133 0.931107 0.070396 -0.025250 562500.000000 0 0 1
31.800311 20.858852 28.849249 47.735004 0.580534 0.921831 0.073113 -0.020695 1208190.000000 0 0 1
31.350611 21.701152 27.791349 47.182198 0.605477 0.940948 0.078188 -0.009308 -837485.000000 0 0 1
31.338541 23.245352 27.947669 47.995028 0.638200 0.949237 0.071192 -0.011449 115859.000000 0 0 1
32.648941 23.844752 27.969369 49.161073 0.630798 0.965588 0.065053 -0.029563 609698.000000 0 0 1
32.676191 25.173052 28.405259 50.082679 0.656417 0.967734 0.041516 -0.021292 -162833.000000 0 0 1
32.803031 25.210052 29.949119 51.073821 0.655254 0.944203 0.039126 -0.029999 1756380.000000 0 0 1
34.082321 24.569852 30.353399 51.832528 0.624614 0.945170 0.022759 -0.016421 1649230.000000 0 0 1
34.441281 24.554352 31.733128 52.878251 0.619354 0.927149 0.040574 -0.024581 -101730.000000 0 0 1
33.555321 23.713252 32.661839 52.488795 0.615203 0.899166 0.047136 -0.025420 -315187.000000 0 0 1
34.058161 23.719952 -33.438959 53.298766 0.608342 2.248990 0.060311 -0.037895 73981.000000 0 0 1
33.467961 22.680152 -32.688139 51.990462 0.595580 2.250720 0.061315 -0.031726 -186475.000000 0 0 1
33.930681 22.511052 -31.174249 51.282281 0.585767 2.224203 0.058900 -0.041868 -123627.000000 0 0 1
33.594941 23.628752 -30.286459 51.031437 0.612966 2.206180 0.044046 -0.047952 171095.000000 0 0 1
33.899481 23.332852 -28.928689 50.303736 0.602827 2.183499 0.090871 -0.060211 -211088.000000 0 0 1
35.392521 23.538752 -28.603739 51.233556 0.586901 2.163133 0.081406 -0.028321 -216664.000000 0 0 1
35.886251 22.871952 -27.482809 50.658207 0.567428 2.144224 0.095186 -0.030660 -461774.000000 0 0 1
37.040591 23.443352 -26.951689 51.458621 0.564267 2.122049 0.092675 -0.023391 -219565.000000 0 0 1
37.711081 22.515152 -25.885119 50.981340 0.538243 2.103352 0.086016 -0.021218 151238.000000 0 0 1
-37.564206 21.419352 -26.372959 50.649691 -0.518224 2.118459 0.086254 -0.017110 343142.000000 0 0 1
-37.312646 20.410152 -25.398039 49.536535 -0.500540 2.109138 0.055664 -0.008805 -873303.000000 0 0 1
-36.257316 19.369752 -25.656759 48.456677 -0.490655 2.128782 0.066602 0.002920 -589365.000000 0 0 1
-34.968150 19.849152 -25.342499 47.528966 -0.516282 2.133176 0.070927 0.004285 -534071.000000 0 0 1
-33.977644 18.878352 -25.498029 46.486794 -0.507141 2.151366 0.045526 -0.006265 -918057.000000 0 0 1
-32.725106 19.248052 -24.751179 45.321529 -0.531678 2.148527 0.053328 -0.003186 -954650.000000 0 0 1
-32.870476 19.489052 -23.398179 44.808104 -0.535186 2.120209 0.051238 0.006580 1085590.000000 0 0 1
-31.590346 19.512752 -22.702979 43.521520 -0.553319 2.119580 0.070128 0.006844 1355580.000000 0 0 1
-31.852636 19.864952 -21.198579 43.111327 -0.557629 2.084857 0.060999 0.006740 13797.800000 0 0 1
-32.466196 18.881252 -20.444779 42.761485 -0.526755 2.069300 0.038237 -0.007938 -241209.000000 0 0 1
-32.951746 19.420752 -19.253379 42.821441 -0.532566 2.037136 0.030514 -0.000683 -567877.000000 0 0 1
-33.777116 18.452752 -18.363979 42.645438 -0.500005 2.015976 0.021563 -0.009661 80420.900000 0 0 1
-34.405495 19.075752 -17.283279 42.968991 -0.506245 1.984744 0.028151 -0.013182 1033120.000000 0 0 1
-35.570479 19.909552 -17.587879 44.395751 -0.510276 1.978129 0.021854 -0.016579 810298.000000 0 0 1
-36.680106 19.964352 -16.488179 44.898392 -0.498443 1.946829 0.034647 -0.022865 307810.000000 0 0 1
-36.268636 20.587452 -15.293679 44.420196 -0.516284 1.922285 0.034269 -0.026249 250392.000000 0 0 1
-37.281186 20.300452 -14.339079 44.806299 -0.498628 1.896551 0.050774 -0.019567 -501181.000000 0 0 1
-37.294956 21.083452 -12.970979 44.762395 -0.514526 1.864787 0.055921 -0.015876 -92245.000000 0 0 1
-37.633826 22.494652 -13.112679 45.763048 -0.538744 1.861404 0.078459 -0.029717 -29334.000000 0 0 1
37.165861 22.883552 -13.602479 45.716360 0.551894 1.872912 0.081648 -0.023770 -437585.000000 0 0 1
37.065271 24.269152 -14.275679 46.546977 0.579720 1.882514 0.081966 -0.027917 -222588.000000 0 0 1
37.021451 25.326152 -13.360379 46.802794 0.599971 1.860284 0.088684 -0.024171 36523.500000 0 0 1
37.007421 26.611552 -14.006279 47.685425 0.623421 1.868915 0.081211 -0.017258 286161.000000 0 0 1
-37.651606 27.121852 -14.487979 48.612137 -0.624245 1.873427 0.095492 -0.015801 397343.000000 0 0 1
-37.227206 26.544652 -15.722179 48.349461 -0.619427 1.901996 0.086804 -0.017202 348208.000000 0 0 1
-36.157356 27.277152 -16.322479 48.143751 -0.646312 1.916689 0.084153 -0.016803 -572922.000000 0 0 1
-35.993396 27.193952 -17.870879 48.522200 -0.647028 1.947980 0.088282 -0.016034 -331110.000000 0 0 1
-35.353557 26.066752 -18.426479 47.632811 -0.635334 1.968003 0.095791 -0.013993 -286168.000000 0 0 1
-33.994441 26.007752 -18.131379 46.484106 -0.653069 1.971488 0.086070 -0.003053 -1151570.000000 0 0 1
-33.315036 24.819652 -18.758179 45.582629 -0.640292 1.994918 0.079671 0.002988 -393766.000000 0 0 1
-33.463476 24.722852 -20.183379 46.242756 -0.636295 2.022463 0.079696 -0.001725 -3446.540000 0 0 1
-32.781556 23.686252 -20.828779 45.491834 -0.625699 2.046380 0.068197 0.006646 -195780.000000 0 0 1
-32.978196 23.788952 -22.386379 46.417945 -0.624914 2.074050 0.072505 0.003827 7408.220000 0 0 1
-34.241699 23.315852 -22.827179 47.299081 -0.597805 2.074433 0.083315 -0.001107 377220.000000 0 0 1
-34.324779 22.995752 -24.213679 47.888384 -0.590270 2.100905 0.078540 -0.000468 -117036.000000 0 0 1
-34.940593 24.180252 -25.037779 49.319570 -0.605363 2.103268 0.080891 -0.004404 -135535.000000 0 0 1
-34.129865 25.306852 -25.235299 49.417657 -0.638030 2.106741 0.076898 -0.001775 173696.000000 0 0 1
-34.942471 26.326252 -25.833599 50.807702 -0.645684 2.104190 0.094843 -0.010636 330515.000000 0 0 1
-34.206631 27.638152 -25.998049 51.086785 -0.679586 2.104702 0.072212 -0.008702 1188410.000000 0 0 1
-33.002726 27.520852 -26.824849 50.657179 -0.695070 2.128851 0.080294 -0.008404 813868.000000 0 0 1
-32.456176 28.781252 -27.174649 51.188137 -0.725459 2.130432 0.078937 -0.014835 -681605.000000 0 0 1
-31.045716 28.688252 -27.669719 50.521932 -0.745953 2.150382 0.081013 -0.017338 -1337750.000000 0 0 1
-30.062076 28.283252 -26.750849 49.186164 -0.754920 2.145838 0.078900 -0.013660 628297.000000 0 0 1
-28.734166 28.303152 -27.309779 48.708775 -0.777842 2.165997 0.099066 -0.013254 1064840.000000 0 0 1
-27.968756 29.631052 -27.213769 48.998365 -0.814250 2.159642 0.090014 -0.023887 -566023.000000 0 0 1
-27.279856 29.963752 -26.012709 48.152653 -0.832249 2.141487 0.070417 -0.020949 -80091.700000 0 0 1
-28.111606 30.145552 -24.891379 48.151817 -0.820297 2.114063 0.068273 -0.016728 -128767.000000 0 0 1
-27.360346 30.659152 -23.620179 47.397099 -0.842194 2.092487 0.035171 -0.016090 116044.000000 0 0 1
-26.849286 31.982852 -23.694979 48.012905 -0.872436 2.086920 0.030134 -0.018753 -40521.700000 0 0 1
-26.281656 32.244452 -22.431579 47.261040 -0.886930 2.065342 0.052746 -0.007116 -87991.700000 0 0 1
-25.700376 33.627852 -22.159579 47.774352 -0.918232 2.053119 0.048554 0.010589 42899.800000 0 0 1
-26.655896 -32.896748 -22.492479 47.944181 0.889813 2.059112 0.029507 -0.009982 258472.000000 0 0 1
-26.047166 -31.962848 -23.379079 47.398944 0.887024 2.086607 0.054338 -0.019421 -59349.300000 0 0 1
17.413594 8.243452 -24.754179 31.368091 0.442135 2.480223 0.046186 -0.011143 -264.048000 0 0 1
16.270694 7.695952 -24.121379 30.096579 0.441811 2.500539 0.039253 -0.012661 96891.600000 0 0 1
15.987994 6.382052 -24.680579 30.091153 0.379797 2.532546 0.034053 -0.011453 476006.000000 0 0 1
14.476494 6.014752 -24.795779 29.335589 0.393783 2.577821 0.039275 -0.014609 313822.000000 0 0 1
13.826394 5.915352 -23.536679 27.930911 0.404266 2.573029 0.092595 -0.047533 274106.000000 0 0 1
12.658894 5.129352 -23.729179 27.379404 0.384979 2.619304 0.107314 -0.045198 -432952.000000 0 0 1
11.591394 5.363052 -22.683479 26.031960 0.433345 2.628785 0.130958 -0.048397 -407290.000000 0 0 1
11.969094 4.646052 -21.539479 25.075768 0.370267 2.604062 0.098247 -0.042664 153518.000000 0 0 1
11.197394 5.029152 -20.405279 23.812799 0.422135 2.600029 0.106364 -0.037591 -74819.700000 0 1 0
11.729194 6.254152 -19.601479 23.683462 0.489863 2.545693 0.122515 -0.049751 -96097.500000 0 1 0
11.039494 6.309552 -18.383179 22.352229 0.519233 2.536469 0.100561 -0.040536 -392739.000000 0 1 0
11.169694 7.513152 -17.633379 22.184354 0.592125 2.489567 0.108052 -0.046095 -363002.000000 0 1 0
12.590394 8.003752 -17.308079 22.850550 0.566259 2.430190 0.111797 -0.044958 -424755.000000 0 1 0
13.154494 7.239252 -16.301079 22.162415 0.503093 2.397242 0.139866 -0.052508 -1103170.000000 0 1 0
14.269194 7.871252 -15.845079 22.729563 0.504090 2.342160 0.135675 -0.058342 -1320450.000000 0 1 0
15.011494 7.351252 -14.607479 22.198295 0.455380 2.289016 0.139015 -0.055179 -387028.000000 0 1 0
16.070194 8.232052 -14.359279 23.069605 0.473404 2.242644 0.106009 -0.060570 -83340.200000 0 1 0
16.859094 7.910052 -13.222979 22.839552 0.438694 2.188238 0.102610 -0.058459 126290.000000 0 1 0
17.857694 9.053552 -12.948579 23.843861 0.469219 2.144870 0.171728 -0.056972 311797.000000 0 1 0
17.151494 10.294252 -12.673379 23.680369 0.540563 2.135523 0.194584 -0.049945 1355700.000000 0 1 0
18.096894 11.369452 -12.450679 24.734215 0.560936 2.098301 0.266870 -0.061569 357627.000000 0 1 0
17.388194 12.618152 -11.972479 24.594863 0.627750 2.079205 0.275396 -0.056483 -209806.000000 0 1 0
16.740494 12.469452 -10.689379 23.451955 0.640208 2.044066 0.307767 -0.044015 764597.000000 0 1 0
15.986894 13.564352 -10.171279 23.302947 0.703603 2.022479 0.200683 -0.037294 1041370.000000 0 1 0
14.590294 13.847052 -10.859579 22.859308 0.759268 2.065830 0.159528 -0.049837 718709.000000 0 1 0
13.754994 14.860152 -10.297279 22.716908 0.824000 2.041246 0.201909 -0.051282 605474.000000 0 1 0
14.167194 16.224852 -10.549979 23.984521 0.852999 2.026246 0.221716 -0.051573 85269.600000 0 1 0
13.386494 17.146352 -9.568479 23.764498 0.907923 1.985193 0.207801 -0.033609 143960.000000 0 1 0
13.790894 16.920352 -8.262679 23.340071 0.886947 1.932654 0.231843 -0.039176 594337.000000 0 1 0
12.802994 17.269052 -7.289279 22.699568 0.932832 1.897708 0.205328 -0.031623 380465.000000 0 1 0
13.379694 17.110052 -5.850079 22.494299 0.907141 1.833890 0.190345 -0.026628 -353663.000000 0 1 0
14.020994 18.236652 -5.491979 23.650065 0.915349 1.805154 0.216401 -0.033607 -337466.000000 0 1 0
14.566094 18.165652 -4.173079 23.655371 0.894930 1.748136 0.218862 -0.023030 -34251.100000 0 1 0
15.801594 19.097952 -4.067979 25.119128 0.879572 1.733460 0.205076 -0.033583 -628483.000000 0 0 1
16.983694 18.519652 -4.495079 25.527026 0.828634 1.747810 0.221843 -0.058908 -595329.000000 0 0 1
17.909794 19.508452 -4.908979 26.933965 0.828096 1.754081 0.154125 -0.053706 179313.000000 0 0 1
19.100294 18.846152 -5.654479 27.422104 0.778701 1.778488 0.154319 -0.036867 392418.000000 0 0 1
20.111594 18.191052 -4.876179 27.552998 0.735299 1.748708 0.153627 -0.053374 134805.000000 0 0 1
20.887294 17.416652 -5.719779 27.790910 0.695037 1.778093 0.203719 -0.057219 -660930.000000 0 0 1
21.941694 16.569452 -5.010979 27.948069 0.646794 1.751067 0.173295 -0.054400 -736618.000000 0 0 1
23.192094 17.151052 -4.904679 29.258976 0.636761 1.739221 0.113508 -0.053029 -194715.000000 0 0 1
24.134594 16.325052 -4.238479 29.444025 0.594723 1.715249 0.105050 -0.052920 606115.000000 0 0 1
25.656194 16.585852 -4.254279 30.845253 0.573887 1.709161 0.107546 -0.047962 447272.000000 0 0 1
26.174094 17.622652 -3.420579 31.738642 0.592571 1.678779 0.104211 -0.046643 -409094.000000 0 0 1
27.572394 17.592252 -3.404279 32.883329 0.567921 1.674508 0.079276 -0.037213 -489432.000000 0 0 1
28.157394 18.809352 -2.710679 33.970256 0.588930 1.650677 0.101157 -0.035821 -282518.000000 0 0 1
28.157794 19.921452 -3.609279 34.680722 0.615737 1.675057 0.081598 -0.039630 178192.000000 0 0 1
28.314594 21.088052 -2.826679 35.417683 0.640150 1.650691 0.110357 -0.027134 -273991.000000 0 0 1
28.299294 22.382252 -3.737079 36.273695 0.669175 1.674004 0.088805 -0.024943 -95461.500000 0 0 1
29.503894 22.699852 -4.398979 37.484851 0.655792 1.688421 0.061682 -0.005170 114167.000000 0 0 1
29.780894 21.953952 -5.616479 37.422219 0.635247 1.721450 0.053362 -0.004769 359913.000000 0 0 1
30.841294 22.632552 -6.537279 38.809197 0.633078 1.740050 0.041784 -0.001552 294456.000000 0 0 1
30.134494 23.560552 -7.305079 38.942926 0.663573 1.759498 0.033114 0.003716 511934.000000 0 0 1
30.976994 24.493452 -7.989179 40.290573 0.669043 1.770408 0.037172 0.001127 640094.000000 0 0 1
31.900894 23.977752 -9.158379 40.944786 0.644545 1.796381 0.036857 -0.005208 81846.900000 0 0 1
31.150794 23.738252 -10.281479 40.491794 0.651164 1.827522 0.038657 0.005940 -112735.000000 0 0 1
32.002094 23.267752 -11.337779 41.159051 0.628663 1.849867 0.028089 0.000950 144025.000000 0 0 1
31.407494 22.659952 -12.636479 40.738000 0.624999 1.886188 0.061309 0.002563 -84954.300000 0 0 1
31.764494 23.434252 -13.776279 41.808289 0.635615 1.906582 0.072221 -0.007516 113942.000000 0 0 1
31.585494 22.724452 -15.016579 41.707814 0.623666 1.939110 0.083296 -0.015226 -52626.000000 0 0 1
31.893194 23.572452 -16.238879 42.854842 0.636492 1.959433 0.088353 -0.016152 -313331.000000 0 0 1
33.245194 23.878952 -16.454479 44.115724 0.622881 1.953020 0.089140 -0.014118 -352674.000000 0 0 1
33.512794 24.201652 -17.789679 45.003333 0.625445 1.977187 0.104994 -0.018836 390988.000000 0 0 1
34.954794 24.755352 -17.943579 46.439607 0.616215 1.967506 0.097541 -0.024223 235066.000000 0 0 1
36.000794 23.834752 -17.851379 46.720705 0.584808 1.962850 0.101734 -0.013696 -650505.000000 0 0 1
37.258594 24.419252 -18.025279 48.056356 0.580161 1.955286 0.086183 -0.015844 -320917.000000 0 0 1
-37.648904 23.405952 -17.780779 47.764366 -0.556216 1.952240 0.070404 -0.024856 -99646.700000 0 0 1
-37.493804 22.403652 -18.813679 47.556949 -0.538601 1.977521 0.054906 -0.021009 124790.000000 0 0 1
-36.638104 22.840852 -19.848979 47.518808 -0.557461 2.001717 0.085849 -0.000795 -250635.000000 0 0 1
-36.674404 21.914352 -21.036379 47.621213 -0.538607 2.028338 0.085665 -0.005946 -101965.000000 0 0 1
-36.368904 20.572652 -20.770479 46.662018 -0.514791 2.032111 0.065680 -0.006087 301310.000000 0 0 1
-35.876304 19.912052 -21.939479 46.528913 -0.506689 2.061814 0.060619 -0.001538 -81799.100000 0 0 1
-35.869204 18.379252 -21.692779 45.770879 -0.473515 2.064559 0.042163 -0.002844 930717.000000 0 0 1
-37.158904 17.723152 -21.645079 46.512403 -0.445043 2.054839 0.046586 -0.013961 797887.000000 0 0 1
-37.006304 16.305252 -21.833779 45.956954 -0.415016 2.065865 0.034322 -0.018964 -17578.800000 0 0 1
37.837994 15.321252 -21.753379 46.256502 0.384738 2.060401 0.035351 -0.017804 -125979.000000 0 0 1
36.967894 15.595052 -22.822379 46.159417 0.399203 2.087970 0.101121 -0.020848 347825.000000 0 0 1
35.836394 14.723752 -22.965879 45.038512 0.389834 2.105884 0.140696 -0.028437 362958.000000 0 0 1
36.094794 13.246552 -23.472179 45.047180 0.351733 2.118886 0.095709 -0.027005 -505011.000000 0 0 1
35.937594 13.192252 -24.845679 45.638294 0.351816 2.146475 0.106940 -0.018151 143498.000000 0 0 1
36.254094 11.924152 -25.318839 45.799436 0.317760 2.156541 0.084212 -0.009215 -269956.000000 0 0 1
36.480994 11.842352 -26.825299 46.804923 0.313885 2.181116 0.084546 -0.007228 378643.000000 0 0 1
35.301394 11.812352 -27.642749 46.366385 0.322903 2.209532 0.086150 -0.007669 635214.000000 0 0 1
34.724694 13.082752 -27.930399 46.444267 0.360310 2.216017 0.100455 -0.007957 -6042.970000 0 0 1
35.181694 13.578252 -29.300869 47.756271 0.368333 2.231345 0.093114 -0.016511 577181.000000 0 0 1
36.518994 14.088752 -29.391179 48.948659 0.368199 2.214859 0.084863 -0.008833 558325.000000 0 0 1
36.948494 14.070452 -30.742809 50.082822 0.363857 2.231711 0.090556 -0.011365 174575.000000 0 0 1
-37.571704 14.327852 -30.900189 50.712345 -0.364323 2.226003 0.085450 -0.008484 1072480.000000 0 0 1
-36.677904 13.218152 -30.636449 49.584072 -0.345896 2.236826 0.092932 -0.005397 470163.000000 0 0 1
-36.607004 12.837852 -29.246109 48.582075 -0.337293 2.216792 0.067984 -0.006961 -179408.000000 0 0 1
-35.461904 11.802152 -28.929889 47.262838 -0.321281 2.229518 0.086574 -0.016086 482713.000000 0 0 1
-35.777604 10.478252 -29.317239 47.427115 -0.284904 2.237188 0.095610 -0.016268 182322.000000 0 0 1
-34.762904 9.547352 -29.000659 46.267155 -0.268033 2.248247 0.097352 -0.019236 -151652.000000 0 0 1
-34.965804 8.140352 -29.635109 46.552255 -0.228735 2.260876 0.110624 -0.023054 -733099.000000 0 0 1
-34.753204 8.083952 -31.044869 47.296082 -0.228546 2.286825 0.119046 -0.026147 -16748.000000 0 0 1
-35.208004 6.887552 -31.657399 47.845928 -0.193185 2.293817 0.124420 -0.025673 -429833.000000 0 0 1
-36.650104 6.402452 -31.491989 48.743891 -0.172946 2.273221 0.141720 -0.023704 -749507.000000 0 0 1
-36.835304 5.911352 -30.177619 47.984085 -0.159124 2.250945 0.142197 -0.028413 347633.000000 0 0 1
37.873694 5.458252 -30.084019 48.675018 0.143132 2.237067 0.133077 -0.007550 334967.000000 0 0 1
37.502294 4.831152 -28.711549 47.477522 0.128117 2.220235 0.131317 -0.013964 273656.000000 0 0 1
-37.905004 3.527052 -28.557099 47.589256 -0.092783 2.214391 0.136866 -0.008747 614728.000000 0 0 1
37.737494 2.877052 -27.411299 46.730880 0.076091 2.197623 0.134457 -0.009875 -198110.000000 0 0 1
-37.681104 1.427252 -27.354799 46.585273 -0.037859 2.198390 0.174384 -0.012456 99156.900000 0 0 1
-36.349104 1.446252 -26.878869 45.230770 -0.039767 2.207142 0.164056 -0.006128 141629.000000 0 0 1
-35.806104 0.139752 -26.829399 44.742745 -0.003903 2.213844 0.178630 -0.008669 207377.000000 0 0 1
-34.490004 0.096852 -25.997959 43.191013 -0.002808 2.216712 0.175315 -0.009117 212197.000000 0 0 1
-34.711404 0.020052 -24.634579 42.564591 -0.000578 2.188001 0.163648 -0.014417 101295.000000 0 0 1
-33.573404 0.411752 -23.902279 41.214826 -0.012264 2.189456 0.189905 -0.009357 -42536.900000 0 0 1
-33.803404 0.372452 -22.402479 40.554653 -0.011018 2.156040 0.179332 -0.000346 -366932.000000 0 0 1
-33.896504 -0.973648 -21.919779 40.378183 0.028716 2.144638 0.200840 -0.016923 240681.000000 0 0 1
-34.200704 -1.220848 -20.573979 39.930780 0.035681 2.112085 0.166845 -0.019406 -102109.000000 0 0 1
-35.643704 -0.912548 -20.121679 40.941279 0.025596 2.084581 0.146341 -0.015852 -499062.000000 0 0 1
-36.540704 -1.921848 -20.433779 41.910093 0.052546 2.080092 0.156759 -0.013560 -520195.000000 0 0 1
-37.864004 -1.626548 -20.054479 42.877856 0.042931 2.057497 0.132312 -0.011098 377688.000000 0 0 1
37.206094 -2.843348 -20.125479 42.395907 -0.076273 2.065423 0.121904 -0.025243 48876.300000 0 0 1
36.883194 -3.394948 -21.366079 42.759852 -0.091787 2.094021 0.124643 -0.022736 -229721.000000 0 0 1
37.905794 -4.181948 -21.919679 43.986478 -0.109880 2.092465 0.140894 -0.026317 -330284.000000 0 0 1
37.400794 -5.072648 -23.034179 44.216790 -0.134807 2.118745 0.143750 -0.026325 -758090.000000 0 0 1
36.826994 -6.216548 -22.487079 43.595202 -0.167228 2.112756 0.149958 -0.029378 198593.000000 0 0 1
36.235594 -7.138748 -23.408079 43.725486 -0.194518 2.135709 0.152461 -0.027897 -235316.000000 0 0 1
34.832194 -6.792548 -23.899979 42.785855 -0.192591 2.163488 0.107763 -0.021067 -962884.000000 0 0 1
34.647494 -5.635448 -24.687579 42.914842 -0.161239 2.183729 0.117928 -0.021836 665820.000000 0 0 1
33.244694 -5.590548 -24.981779 41.958946 -0.166605 2.208543 0.078969 -0.016800 609400.000000 0 0 1
32.842994 -4.339048 -25.756179 41.962725 -0.131354 2.231645 0.096246 -0.035043 -82236.700000 0 0 1
33.277394 -4.436948 -27.101839 43.146044 -0.132550 2.249959 0.102336 -0.035628 201160.000000 0 0 1
32.702094 -3.478648 -27.911069 43.134159 -0.105975 2.274539 0.099003 -0.037128 -202653.000000 0 0 1
32.687394 -3.866948 -29.382579 44.122046 -0.117754 2.299548 0.100413 -0.037268 -191513.000000 0 0 1
32.095794 -2.848248 -30.166689 44.139343 -0.088510 2.323264 0.078652 -0.039777 99670.200000 0 0 1
31.642494 -3.365448 -31.398349 44.703803 -0.105960 2.349510 0.081698 -0.042162 -469563.000000 0 0 1
31.240994 -2.205348 -32.398549 45.061394 -0.070475 2.373140 0.083163 -0.041009 436910.000000 0 0 1
30.115194 -1.360548 -32.128299 44.056822 -0.045147 2.388017 0.063150 -0.032604 1024590.000000 0 0 1
28.810394 -1.938248 -32.093169 43.171369 -0.067175 2.408921 0.066946 -0.027788 561359.000000 0 0 1
28.113994 -2.301848 -33.447279 43.754035 -0.081693 2.440967 0.081251 -0.036664 -502484.000000 0 0 1
28.477994 -3.523648 33.414479 44.044745 -0.123107 0.709560 0.087003 -0.039699 -46566.700000 0 0 1
27.942994 -3.671748 32.134671 42.742598 -0.130653 0.719981 0.077088 -0.038392 -306706.000000 0 0 1
28.525794 -4.874048 31.312241 42.637233 -0.169230 0.746033 0.066432 -0.049545 384130.000000 0 0 1
29.895094 -4.827648 30.938649 43.292295 -0.160104 0.774679 0.073290 -0.044597 162526.000000 0 0 1
30.243794 -4.091848 29.773569 42.636788 -0.134479 0.797767 0.089162 -0.044762 -607740.000000 0 0 1
30.723394 -2.678048 30.054989 43.062759 -0.086947 0.798287 0.065893 -0.042191 -92769.000000 0 0 1
31.910294 -2.702648 30.852879 44.468767 -0.084494 0.804030 0.081833 -0.047795 408757.000000 0 0 1
32.336694 -1.399848 31.194159 44.952162 -0.043263 0.803848 0.072903 -0.039383 -555372.000000 0 0 1
33.698094 -1.184348 31.857427 46.388143 -0.035131 0.813777 0.079026 -0.046709 -242902.000000 0 0 1
34.727694 -1.377848 30.897039 46.503098 -0.039655 0.844095 0.097249 -0.049411 176773.000000 0 0 1
35.988994 -1.025048 31.456730 47.809876 -0.028475 0.852697 0.107865 -0.043536 306525.000000 0 0 1
37.224794 -1.705848 30.830989 48.364709 -0.045794 0.879588 0.121046 -0.038255 -261330.000000 0 0 1
37.526894 -1.240248 29.516779 47.760299 -0.033038 0.904576 0.132515 -0.042539 121449.000000 0 0 1
-37.511604 -2.037548 28.928179 47.414255 0.054264 0.914590 0.128760 -0.042620 314517.000000 0 0 1
-36.872404 -1.387548 27.685709 46.130228 0.037613 0.927090 0.130090 -0.046919 52064.100000 0 0 1
-37.880504 -1.231048 26.726479 46.376208 0.032487 0.956606 0.139374 -0.053527 327982.000000 0 0 1
-37.245904 -1.251548 25.407929 45.104174 0.033590 0.972402 0.140456 -0.054028 471259.000000 0 0 1
-28.579016 15.145552 11.095021 34.194260 -0.487322 1.240345 0.162255 -0.034413 -246708.000000 0 0 1
-29.706196 14.461552 11.558721 35.002837 -0.453048 1.234257 0.083066 0.007445 -328404.000000 0 0 1
-30.304386 15.145652 12.604121 36.147067 -0.463475 1.214623 0.105643 -0.008472 -705146.000000 0 0 1
-31.582806 14.437552 13.023521 37.088120 -0.428770 1.211997 0.109606 -0.001620 -439501.000000 0 0 1
-32.322076 15.146952 14.013921 38.347578 -0.438235 1.196686 0.101845 -0.010919 -348985.000000 0 0 1
-33.423416 14.393052 14.468121 39.161349 -0.406628 1.192380 0.113900 -0.006270 220018.000000 0 0 1
-34.227199 15.276852 15.483321 40.553873 -0.419803 1.179057 0.100583 -0.011394 63880.600000 0 0 1
-33.499446 15.467452 16.696121 40.499573 -0.432560 1.145869 0.075558 -0.000964 153872.000000 0 0 1
-34.265079 15.977852 17.787721 41.782657 -0.436327 1.131039 0.078551 -0.021671 107773.000000 0 0 1
-33.402006 16.237352 19.035321 41.733548 -0.452481 1.097171 0.110420 -0.017858 -10191.600000 0 0 1
-32.960086 15.080952 19.714721 41.261030 -0.429116 1.072642 0.111717 -0.026390 -140033.000000 0 0 1
-31.908526 15.261152 20.642221 40.953121 -0.446120 1.042520 0.100307 -0.016798 142977.000000 0 0 1
-32.192916 15.999552 22.003621 42.148889 -0.461237 1.021549 0.109860 -0.031452 -192235.000000 0 0 1
-32.744556 17.321952 21.774621 42.969642 -0.486579 1.039392 0.091725 -0.032971 383084.000000 0 0 1
-33.152706 18.087952 22.932621 44.183493 -0.499455 1.025079 0.085147 -0.038850 23991.900000 0 0 1
-34.158553 17.450352 23.992621 45.243424 -0.472300 1.011841 0.072984 -0.034862 1113120.000000 0 0 1
-35.478736 17.119152 23.516221 45.878304 -0.449565 1.032611 0.148828 -0.036798 588356.000000 0 0 1
-36.358976 18.174952 23.197221 46.801871 -0.463548 1.052216 0.157847 -0.042065 -949718.000000 0 0 1
-37.672446 17.479952 22.824221 47.388891 -0.434434 1.068275 0.116795 -0.043490 -654811.000000 0 0 1
37.863691 16.845952 23.938321 47.859047 0.418613 1.046985 0.134394 -0.042581 -421898.000000 0 0 1
36.986751 15.792752 23.563621 46.611962 0.403550 1.040803 0.178895 -0.044917 326411.000000 0 0 1
36.612891 14.979152 24.837421 46.709488 0.388346 1.010140 0.198353 -0.029907 -228176.000000 0 0 1
36.044231 15.703852 25.891021 47.075923 0.410884 0.988451 0.144632 -0.029893 4657.320000 0 0 1
35.609041 14.865252 27.016221 47.104731 0.395465 0.959981 0.153074 -0.027083 1243630.000000 0 0 1
34.361211 13.876952 26.856821 45.766269 0.383825 0.943663 0.157323 -0.028850 936493.000000 0 0 1
34.734951 12.735852 26.119921 45.287625 0.351437 0.956044 0.150420 -0.031844 442304.000000 0 0 1
33.838731 11.651552 26.468421 44.512871 0.331611 0.933998 0.136963 -0.030472 601739.000000 0 0 1
34.471311 10.261052 26.230821 44.515350 0.289317 0.940662 0.131672 -0.037055 -44070.000000 0 0 1
35.605331 9.985152 27.037421 45.809005 0.273416 0.939464 0.130088 -0.025708 64062.800000 0 0 1
36.088711 8.664052 26.816721 45.788616 0.235617 0.945098 0.146319 -0.026517 10926.700000 0 0 1
37.103641 8.168852 27.875121 47.121467 0.216706 0.937805 0.124018 -0.027063 899347.000000 0 0 1
-37.629496 8.687052 27.677021 47.512749 -0.226883 0.948973 0.122228 -0.029332 779171.000000 0 0 1
-36.621266 7.772852 28.143721 46.835920 -0.209146 0.926169 0.149828 -0.030300 545446.000000 0 0 1
-35.276704 8.520352 28.348521 46.050851 -0.236990 0.907660 0.150645 -0.027830 51778.000000 0 0 1
-34.599773 8.782652 27.142921 44.844369 -0.248585 0.920692 0.128775 -0.023466 -287903.000000 0 0 1
-33.449686 9.538252 27.411721 44.286140 -0.277780 0.903368 0.103825 -0.018091 -210912.000000 0 0 1
-32.666626 10.148152 26.256121 43.121658 -0.301206 0.916142 0.090822 -0.022326 126895.000000 0 0 1
-31.992036 9.150452 25.493821 41.918445 -0.278585 0.917035 0.082514 -0.029183 76331.600000 0 0 1
-31.064666 9.698552 24.599521 40.794753 -0.302616 0.923531 0.081299 -0.029987 -384561.000000 0 0 1
-30.316966 8.664452 23.786121 39.496465 -0.278375 0.924500 0.064037 -0.023071 -12358.200000 0 0 1
-29.321606 9.361652 23.046921 38.452018 -0.309045 0.928085 0.073773 -0.031187 283232.000000 0 0 1
-28.427646 8.485752 22.361121 37.150488 -0.290083 0.924910 0.039945 -0.022816 -141859.000000 0 0 1
-27.495066 9.222552 21.426221 36.057136 -0.323632 0.934489 0.062373 -0.018066 -1472260.000000 0 0 1
-26.396826 9.817452 22.105021 35.802329 -0.356066 0.905340 0.062100 -0.024956 -19480.300000 0 0 1
-25.460226 10.369552 21.244821 34.743246 -0.386770 0.912866 0.061465 -0.014757 -99879.200000 0 0 1
-24.794806 9.520252 20.097121 33.306334 -0.366604 0.923035 0.059442 -0.018848 -1443080.000000 0 0 1
-25.581046 9.332652 18.942521 33.170882 -0.349822 0.963001 0.053109 -0.017538 76319.700000 0 0 1
-25.045776 8.508052 17.885721 31.930814 -0.327470 0.976242 0.080314 -0.028254 -228266.000000 0 0 1
-24.773206 6.987752 18.164721 31.503929 -0.274926 0.956252 0.092451 -0.020347 -276681.000000 0 0 1
-23.538606 6.720852 18.798721 30.864668 -0.278124 0.915910 0.091605 -0.018637 286524.000000 0 0 1
-23.410706 5.385952 19.383021 30.866991 -0.226129 0.891876 0.102394 -0.020318 -185716.000000 0 0 1
-23.535106 4.091852 18.501521 30.215075 -0.172141 0.911795 0.117431 -0.025485 -184828.000000 0 0 1
-24.871606 3.975752 18.034321 30.978059 -0.158510 0.949408 0.136873 -0.035710 583220.000000 0 0 1
-25.039406 3.015252 16.983021 30.405372 -0.119843 0.978156 0.147863 -0.033835 18272.200000 0 0 1
-24.995596 1.501352 17.399421 30.492192 -0.059993 0.963537 0.153806 -0.030549 36957.200000 0 0 1
-23.663706 1.064852 17.599921 29.510373 -0.044969 0.931790 0.128428 -0.024149 429325.000000 0 0 1
-23.706506 -0.244948 18.084721 29.818041 0.010332 0.919142 0.149616 -0.031730 666723.000000 0 0 1
-22.332106 -1.037148 18.093021 28.760321 0.046409 0.890406 0.150166 -0.021965 1016480.000000 0 0 1
-21.366406 -0.421248 18.947021 28.560294 0.019713 0.845437 0.118229 -0.016174 203589.000000 0 0 1
-20.390006 -1.352048 19.364021 28.152188 0.066212 0.812296 0.108261 -0.013555 252886.000000 0 0 1
-19.416506 -0.893848 20.506221 28.254288 0.046003 0.758638 0.111525 -0.006678 776613.000000 0 0 1
-19.966206 -0.800648 21.840221 29.602123 0.040079 0.741002 0.114099 -0.014193 367524.000000 0 0 1
-18.874706 -0.605748 22.741521 29.560079 0.032082 0.693001 0.101158 -0.010003 -81603.700000 0 0 1
-19.242306 -0.806848 24.219121 30.943225 0.041906 0.671812 0.108866 -0.009742 254606.000000 0 0 1
-20.061406 0.177152 24.806321 31.903683 -0.008830 0.680055 0.102852 -0.017127 21597.900000 0 0 1
-21.429606 0.145052 24.429521 32.496932 -0.006769 0.720087 0.145988 -0.032215 -589282.000000 0 0 1
-22.274406 1.128852 25.195621 33.648816 -0.050636 0.724574 0.118728 -0.035897 -398143.000000 0 0 1
-22.003606 2.496452 24.883921 33.310666 -0.112973 0.727220 0.107971 -0.031376 297261.000000 0 0 1
-23.048306 2.976652 24.047021 33.441652 -0.128437 0.768328 0.094368 -0.030867 -809772.000000 0 0 1
-22.692906 4.208452 23.180421 32.711022 -0.183369 0.783224 0.100657 -0.025804 17991.400000 0 0 1
-22.126606 3.884852 21.916421 31.384842 -0.173802 0.797759 0.120072 -0.022787 446468.000000 0 0 1
-20.813606 3.359252 22.033121 30.495068 -0.160017 0.763364 0.101995 -0.014652 -606563.000000 0 0 1
-20.212906 2.802752 20.681421 29.054056 -0.137783 0.778702 0.094627 -0.014965 -118417.000000 0 0 1
-19.594006 3.763352 19.898021 28.178345 -0.189756 0.786756 0.087733 -0.014002 87361.900000 0 0 1
-19.282806 3.182152 18.580721 26.966570 -0.163551 0.810649 0.107579 -0.011747 321067.000000 0 0 1
-18.665306 4.156452 17.485321 25.911507 -0.219108 0.830090 0.076858 -0.015728 -1144040.000000 0 0 1
-17.302806 4.275252 17.436621 24.933925 -0.242233 0.796360 0.085300 -0.029171 -1425480.000000 0 1 0
-16.831006 5.021152 16.380821 24.017203 -0.289922 0.820241 0.082157 -0.022197 550336.000000 0 1 0
-15.297906 5.250852 16.107421 22.826441 -0.330640 0.787460 0.071811 -0.028477 760747.000000 0 1 0
-14.668406 6.103252 17.077121 23.324663 -0.394292 0.749325 0.057730 -0.034732 56773.800000 0 1 0
-15.192806 7.463752 17.246521 24.165501 -0.456638 0.776053 0.068693 -0.039931 -901565.000000 0 1 0
-14.876806 8.550152 16.170621 23.577817 -0.521632 0.815038 0.045866 -0.029174 -191226.000000 0 1 0
-15.495806 8.439352 14.933221 23.115877 -0.498705 0.868443 0.061654 -0.029142 1004290.000000 0 1 0
-16.940806 8.576852 14.924221 24.151308 -0.468662 0.904668 0.073916 -0.020855 1007600.000000 0 1 0
-17.389506 8.064052 13.558721 23.478986 -0.434214 0.955154 0.083699 -0.027673 -135373.000000 0 1 0
-17.207506 6.719652 13.504221 22.882657 -0.372296 0.939551 0.068185 -0.022000 19923.300000 0 1 0
-18.024706 6.154252 12.506721 22.785586 -0.329024 0.989764 0.083313 -0.017000 86373.600000 0 1 0
-17.765606 4.663852 12.164521 22.030521 -0.256728 0.985835 0.093742 -0.030460 169621.000000 0 1 0
-18.159006 3.755552 13.222621 22.774797 -0.203940 0.951354 0.100475 -0.024242 195065.000000 0 1 0
-17.883506 2.443952 12.944221 22.211384 -0.135818 0.948658 0.092221 -0.029372 -314893.000000 0 1 0
-18.360306 1.436052 14.003221 23.135542 -0.078056 0.920693 0.086715 -0.029832 612490.000000 0 1 0
-19.777406 1.278052 13.925221 24.221705 -0.064532 0.958306 0.118263 -0.026299 345742.000000 0 1 0
-20.337006 0.601752 15.003921 25.279905 -0.029580 0.935381 0.130812 -0.033305 881095.000000 0 0 1
-21.893406 0.452052 14.761321 26.408752 -0.020645 0.977671 0.136926 -0.040291 976255.000000 0 0 1
-22.199306 -0.451348 13.654021 26.066170 0.020329 1.019465 0.156304 -0.040217 886405.000000 0 0 1
-23.595506 -0.368148 13.331121 27.103547 0.015601 1.056573 0.190080 -0.052845 764856.000000 0 0 1
-23.983106 -1.229548 12.126421 26.902626 0.051222 1.103188 0.206228 -0.060871 -160781.000000 0 0 1
-24.126206 -2.531348 12.510021 27.294362 0.104539 1.094673 0.180313 -0.045714 162875.000000 0 0 1
-24.658306 -3.326948 11.484321 27.404202 0.134112 1.138374 0.197201 -0.035495 -188114.000000 0 0 1
-24.373306 -4.836948 11.525021 27.391244 0.195907 1.136518 0.143411 -0.036243 73103.200000 0 0 1
-25.154236 -5.419248 12.563321 28.634610 0.212197 1.116594 0.127871 -0.027737 381561.000000 0 0 1
-25.045826 -6.827948 12.604821 28.858202 0.266151 1.118775 0.113839 -0.026103 -107039.000000 0 0 1
-25.746616 -7.415548 13.862721 30.167095 0.280430 1.093329 0.105268 -0.017918 834919.000000 0 0 1
-27.143306 -7.104848 13.771121 31.255107 0.256010 1.114525 0.155657 -0.027406 856856.000000 0 0 1
-27.903076 -7.638048 14.876721 32.530575 0.267190 1.095823 0.156479 -0.014727 1320280.000000 0 0 1
-29.426766 -7.161648 15.001421 33.797432 0.238731 1.110892 0.176644 -0.025560 2029670.000000 0 0 1
-30.364286 -7.689848 14.011621 34.313979 0.248038 1.150166 0.166284 -0.030346 975262.000000 0 0 1
-30.644606 -9.065948 14.024221 34.899314 0.287637 1.157262 0.171222 -0.039152 -751079.000000 0 0 1
-31.110266 -9.749148 15.275721 36.003364 0.303681 1.132623 0.162365 -0.039541 -345109.000000 0 0 1
-30.063556 -10.020448 16.226421 35.602297 0.321728 1.097560 0.169320 -0.029449 670498.000000 0 0 1
-30.509776 -10.474348 17.523821 36.710254 0.330704 1.073154 0.151634 -0.020559 1408450.000000 0 0 1
-29.224466 -10.715748 18.470621 36.194758 0.351448 1.035249 0.158148 -0.020832 1636300.000000 0 0 1
-28.331506 -11.677248 17.937621 35.507614 0.390949 1.041210 0.119291 -0.028592 665039.000000 0 0 1
-27.123406 -11.708848 18.741021 34.985742 0.407522 1.005488 0.113068 -0.028947 984795.000000 0 0 1
-26.080636 -12.727348 18.191521 34.250787 0.454002 1.010866 0.064754 -0.019161 -51109.000000 0 0 1
-25.469726 -12.308648 16.983321 32.994590 0.450171 1.030103 0.063809 -0.022916 66104.900000 0 0 1
-24.692506 -13.346448 16.406921 32.512069 0.495525 1.041830 0.064003 -0.027764 165086.000000 0 0 1
-24.113606 -12.956048 14.999321 31.213856 0.493034 1.069533 0.069357 -0.017507 206792.000000 0 0 1
-23.219106 -11.873948 14.835221 30.003355 0.472716 1.053592 0.063418 -0.023268 23980.300000 0 0 1
-22.832506 -11.711448 13.453421 28.973711 0.473937 1.087916 0.071337 -0.012709 895727.000000 0 0 1
-21.549906 -10.819948 13.177721 27.479485 0.465317 1.070657 0.094400 -0.026084 255731.000000 0 0 1
-21.722806 -9.360848 13.303921 27.138536 0.406876 1.058451 0.105376 -0.033616 182178.000000 0 0 1
-20.522806 -8.618048 13.199021 25.877992 0.397565 1.035556 0.120859 -0.043429 -49532.700000 0 0 1
-19.877206 -8.611048 11.759821 24.648466 0.408806 1.073443 0.149537 -0.047646 -337836.000000 0 1 0
-19.192006 -9.807848 11.383321 24.374310 0.472439 1.084877 0.135960 -0.049055 372373.000000 0 1 0
-18.741906 -9.803748 10.066721 23.424590 0.481950 1.126580 0.134992 -0.046128 -142206.000000 0 1 0
-17.943706 -11.090248 9.594721 23.173884 0.553592 1.143918 0.078401 -0.035269 1650060.000000 0 1 0
-16.551206 -11.192948 9.986121 22.337125 0.594616 1.107316 0.104933 -0.035576 1300330.000000 0 1 0
-16.275506 -11.417848 11.335521 22.885659 0.611756 1.052603 0.125326 -0.030361 -679264.000000 0 1 0
-14.827106 -11.871748 11.531221 22.220498 0.675155 1.025180 0.137813 -0.026736 -232164.000000 0 1 0
-14.652106 -13.101748 10.895721 22.473468 0.729595 1.064632 0.140348 -0.035913 163355.000000 0 1 0
-13.272706 -13.399248 10.871221 21.768970 0.790143 1.047901 0.148600 -0.037283 -238800.000000 0 1 0
-12.944506 -14.872048 10.695021 22.430371 0.854582 1.073775 0.153045 -0.037087 -45829.200000 0 1 0
-13.274106 -15.535348 9.499321 22.534109 0.863727 1.135639 0.136241 -0.037663 308656.000000 0 1 0
-12.890306 -16.932448 9.651421 23.367022 0.920116 1.145011 0.120244 -0.033162 117581.000000 0 1 0
-13.117306 -17.790348 8.375821 23.637144 0.935455 1.208578 0.118147 -0.027868 -98492.900000 0 1 0
-12.229606 -17.592048 7.285321 22.630054 0.963314 1.243028 0.111703 -0.030319 326043.000000 0 1 0
-12.685306 -18.311048 6.097321 23.095212 0.964941 1.303621 0.090201 -0.028997 3340.230000 0 1 0
-11.688406 -18.089548 4.978321 22.105074 0.997138 1.343636 0.079788 -0.027658 -66958.400000 0 1 0
-12.121806 -18.676948 3.721021 22.574600 0.995107 1.405208 0.095719 -0.037313 1123700.000000 0 1 0
-10.999206 -18.817248 2.819421 21.977728 1.041831 1.442156 0.099422 -0.040267 734549.000000 0 1 0
-11.293106 -19.660248 1.540221 22.725138 1.049403 1.502968 0.099105 -0.036726 -236878.000000 0 1 0
-11.407906 -21.032848 1.799521 23.994985 1.073818 1.495730 0.101303 -0.037049 -94515.500000 0 1 0
-11.966106 -21.796848 0.732321 24.876225 1.068734 1.541353 0.115810 -0.037616 260785.000000 0 1 0
-11.055006 -21.985448 -0.577179 24.615163 1.104885 1.594247 0.121526 -0.036796 575420.000000 0 1 0
-11.010206 -20.818748 -1.317079 23.587701 1.084328 1.626663 0.111934 -0.052321 191304.000000 0 1 0
-12.072706 -20.829548 -2.267979 24.181895 1.045515 1.664723 0.123302 -0.046951 488129.000000 0 1 0
-13.230306 -19.846848 -1.970379 23.933675 0.982826 1.653216 0.134517 -0.045185 217665.000000 0 1 0
-14.065506 -20.339748 -0.927879 24.746814 0.965779 1.608300 0.134893 -0.036630 -1224340.000000 0 1 0
-15.189506 -19.618748 -0.729979 24.822354 0.911965 1.600209 0.151660 -0.020941 -1179030.000000 0 1 0
27.376594 -19.590048 -4.470479 33.959285 -0.621104 1.702822 0.144881 -0.037662 78381.300000 0 0 1
26.260094 -19.588748 -3.596779 32.958283 -0.640905 1.680145 0.119430 -0.037257 229800.000000 0 0 1
26.227894 -20.615848 -2.599479 33.461514 -0.666163 1.648560 0.104030 -0.040562 -542258.000000 0 0 1
24.875594 -20.801348 -1.910679 32.482948 -0.696437 1.629651 0.083588 -0.031386 -148896.000000 0 0 1
23.751794 -21.222448 -2.643579 31.961360 -0.729217 1.653603 0.088039 -0.033124 628435.000000 0 0 1
22.598294 -21.499948 -1.818479 31.244800 -0.760497 1.629030 0.072462 -0.023421 938405.000000 0 0 1
21.688494 -22.505548 -2.612379 31.364231 -0.803884 1.654185 0.084018 -0.031480 246122.000000 0 0 1
21.053794 -21.856248 -3.698179 30.571790 -0.804097 1.692060 0.098240 -0.042078 -621091.000000 0 0 1
20.220594 -22.637148 -4.495679 30.684263 -0.841724 1.717840 0.104087 -0.035685 -959644.000000 0 0 1
19.324194 -21.874148 -5.463379 29.694298 -0.847214 1.755838 0.101201 -0.024819 322779.000000 0 0 1
18.206794 -21.174148 -4.868879 28.346744 -0.860606 1.743414 0.097337 -0.025726 647820.000000 0 0 1
18.505694 -20.333648 -3.798679 27.755142 -0.832428 1.708091 0.089519 -0.032768 -814914.000000 0 0 1
17.306594 -19.800948 -2.920379 26.459863 -0.852517 1.681392 0.108834 -0.017584 375805.000000 0 0 1
16.729894 -20.768448 -2.103279 26.751478 -0.892684 1.649500 0.095276 -0.023436 -216034.000000 0 0 1
15.817694 -20.113348 -1.279279 25.619968 -0.904386 1.620750 0.101861 -0.011370 -432847.000000 0 0 1
15.388194 -20.706448 0.093221 25.798492 -0.931688 1.567183 0.085919 -0.012612 -231160.000000 0 0 1
14.504894 -21.797248 0.049021 26.182329 -0.983639 1.568924 0.084747 -0.023608 13681.700000 0 0 1
13.971094 -22.117848 1.324921 26.194390 -1.007418 1.520194 0.073763 -0.013177 -41413.100000 0 0 1
13.071594 -23.337248 1.347121 26.782615 -1.060219 1.520477 0.081842 -0.023261 29220.600000 0 0 1
13.894094 -24.464348 1.230521 28.161398 -1.054290 1.527087 0.063737 -0.016054 318138.000000 0 0 1
13.075394 -25.581988 0.941221 28.745259 -1.098295 1.538047 0.051812 -0.023408 306468.000000 0 0 1
13.421494 -26.894508 1.702421 30.105636 -1.107915 1.514218 0.054832 -0.013869 -185952.000000 0 0 1
12.860394 -26.880468 2.951921 29.944334 -1.124554 1.472056 0.067140 -0.017904 -87847.100000 0 0 1
13.494094 -27.886338 3.669621 31.196226 -1.120115 1.452893 0.064733 -0.019727 -159995.000000 0 0 1
12.768594 -28.185668 4.973721 31.340178 -1.145436 1.411421 0.070704 -0.016649 -368671.000000 0 0 1
13.386994 -29.201848 5.688521 32.623899 -1.140954 1.395534 0.067868 -0.020704 -439368.000000 0 0 1
12.887194 -29.453468 6.964521 32.895153 -1.158349 1.357463 0.069847 -0.017515 -617750.000000 0 0 1
13.758894 -30.424978 7.745621 34.277997 -1.146095 1.342863 0.078394 -0.009136 -77500.700000 0 0 1
13.314994 -30.772908 9.068321 34.734642 -1.162434 1.306661 0.072205 -0.011747 157160.000000 0 0 1
12.257394 -31.732368 9.088221 35.210547 -1.202178 1.309730 0.062580 -0.014999 279365.000000 0 0 1
11.954694 -32.245708 10.535621 35.968037 -1.215768 1.273521 0.062200 -0.011690 -56862.000000 0 0 1
13.027894 -32.991618 11.075421 37.159626 -1.194707 1.268147 0.041464 -0.016512 134569.000000 0 0 1
13.021794 -33.225538 12.438521 37.791802 -1.197274 1.235411 0.054918 -0.001911 -221735.000000 0 0 1
11.938894 33.300223 12.927821 37.663916 1.226549 1.220430 0.053976 -0.009281 -320594.000000 0 0 1
12.165494 31.945175 12.493821 36.394903 1.206929 1.220384 0.047728 -0.020911 116515.000000 0 0 1
11.079394 31.055072 12.687021 35.328897 1.228107 1.203480 0.041777 -0.015141 -86168.200000 0 0 1
11.312594 29.754062 11.913521 33.988394 1.207472 1.212673 0.066621 -0.021388 -318799.000000 0 0 1
11.077494 29.803202 10.473921 33.476032 1.214932 1.252574 0.088844 -0.024684 -116793.000000 0 0 1
12.002094 30.569422 9.718921 34.249047 1.196670 1.283071 0.031499 -0.016483 -464752.000000 0 0 1
11.451094 31.091452 8.392121 34.179432 1.217909 1.322729 0.032239 -0.012337 -347680.000000 0 0 1
10.254294 31.786469 8.619921 34.493958 1.258737 1.318223 0.053073 -0.009165 -594543.000000 0 0 1
9.603294 32.118728 7.385621 34.327588 1.280263 1.353950 0.059091 -0.013569 -105114.000000 0 0 1
10.108894 33.247770 6.463121 35.346511 1.275631 1.386911 0.060390 -0.007421 -391054.000000 0 0 1
9.629594 -32.995968 6.862321 35.050741 -1.286841 1.373741 0.066865 -0.008773 57827.600000 0 0 1
10.025994 -31.931678 6.043421 34.009933 -1.266561 1.392152 0.071333 -0.015768 167739.000000 0 0 1
9.191794 -30.718538 6.566721 32.729795 -1.280050 1.368791 0.066652 -0.010873 288113.000000 0 0 1
9.582494 -30.358638 7.893821 32.799139 -1.265051 1.327739 0.085370 -0.015009 -74233.200000 0 0 1
8.928394 -29.187458 8.316821 31.635320 -1.273937 1.304773 0.100379 -0.018040 -238122.000000 0 0 1
9.376394 -27.780998 7.786721 30.337001 -1.245291 1.311217 0.102173 -0.021526 141366.000000 0 0 1
10.525894 -27.278388 8.483821 30.444706 -1.202531 1.288394 0.097498 -0.020496 431227.000000 0 0 1
11.275494 -26.246178 7.895321 29.636712 -1.165032 1.301137 0.086443 -0.026376 -451218.000000 0 0 1
10.597794 -25.115758 7.177021 28.189079 -1.171505 1.313359 0.095935 -0.022929 -797888.000000 0 0 1
10.299294 -25.459348 5.879021 28.085882 -1.186383 1.359914 0.100856 -0.023896 -339200.000000 0 0 1
9.538794 -24.446648 5.295121 26.770609 -1.198777 1.371687 0.091738 -0.018192 -10552.700000 0 0 1
9.196594 -24.755248 3.822121 26.683483 -1.215097 1.427063 0.074934 -0.018991 486901.000000 0 0 1
8.274694 -25.842588 3.576521 27.369717 -1.260916 1.439747 0.077319 -0.025445 91315.900000 0 0 1
8.651494 -27.145418 3.847421 28.749343 -1.262265 1.436567 0.080027 -0.023456 -300427.000000 0 0 1
7.491794 -28.053708 3.408221 29.236167 -1.309834 1.453955 0.086762 -0.021378 -197881.000000 0 0 1
6.428194 -28.086578 4.336621 29.137327 -1.345801 1.421407 0.076256 -0.014191 289951.000000 0 0 1
5.436894 -29.075688 3.907021 29.836559 -1.385940 1.439472 0.076631 -0.011512 751121.000000 0 0 1
5.823894 -30.563938 4.147721 31.389101 -1.382506 1.438270 0.064214 -0.010193 -346024.000000 0 0 1
6.824894 -31.132568 3.347721 32.047203 -1.354990 1.466143 0.068732 -0.013372 -215388.000000 0 0 1
7.019094 -32.511258 3.699721 33.465468 -1.358163 1.460016 0.066971 -0.009010 -397168.000000 0 0 1
8.038894 -33.292138 2.893021 34.370916 -1.333866 1.486526 0.065886 -0.012148 -287557.000000 0 0 1
7.762794 -33.374228 1.479721 34.297079 -1.342261 1.527639 0.067332 -0.016710 413466.000000 0 0 1
8.756994 33.264921 0.896121 34.409925 1.313386 1.544751 0.056035 -0.013031 111331.000000 0 0 1
8.190794 32.599117 -0.364879 33.614352 1.324634 1.581651 0.065034 -0.012610 134437.000000 0 0 1
7.186994 31.643275 -0.214679 32.449897 1.347460 1.577412 0.055569 -0.011680 18702.300000 0 0 1
5.884594 32.221693 -0.055479 32.754679 1.390159 1.572490 0.066441 -0.016838 282525.000000 0 0 1
4.743094 31.203112 0.203921 31.562204 1.419944 1.564335 0.058601 -0.013837 240400.000000 0 0 1
4.339194 30.403342 -0.901379 30.724652 1.429033 1.600138 0.071133 -0.015896 -326824.000000 0 0 1
3.314094 29.501082 -0.626379 29.693255 1.458927 1.591893 0.077211 -0.026101 -230469.000000 0 0 1
3.120194 28.446082 -1.719379 28.668300 1.461545 1.630807 0.078541 -0.021842 -190553.000000 0 0 1
2.716394 28.998972 -2.926779 29.272601 1.477397 1.670947 0.092406 -0.030977 2463.670000 0 0 1
2.246194 28.013272 -3.827979 28.362690 1.490784 1.706175 0.094284 -0.037097 -141420.000000 0 0 1
2.104694 28.652622 -5.243579 29.204410 1.497472 1.751323 0.102372 -0.046202 688886.000000 0 0 1
0.876394 29.352162 -5.529879 29.881382 1.540947 1.756930 0.116897 -0.045059 577183.000000 0 0 1
0.867794 30.223542 -6.652779 30.959247 1.542092 1.787374 0.107073 -0.039526 -212981.000000 0 0 1
0.721994 29.571132 -8.091279 30.666625 1.546386 1.837804 0.119006 -0.044110 366196.000000 0 0 1
-0.608606 29.048142 -8.243379 30.201295 -1.549848 1.847252 0.119042 -0.039546 768811.000000 0 0 1
-0.990106 28.660932 -9.553179 30.227348 -1.536265 1.892353 0.122623 -0.040172 -4910.230000 0 0 1
-1.116706 29.801952 -10.626179 31.659423 -1.533343 1.913081 0.117758 -0.044851 159572.000000 0 0 1
0.130194 30.457502 -10.921579 32.356719 1.566522 1.915095 0.111967 -0.048123 553907.000000 0 0 1
-0.016206 31.827679 -11.378779 33.800562 -1.570287 1.914148 0.106084 -0.050081 119841.000000 0 0 1
-0.189506 32.870860 -10.240179 34.429502 -1.565031 1.872790 0.105782 -0.055972 130794.000000 0 0 1
0.990694 32.934360 -9.471579 34.283587 1.540725 1.850709 0.098972 -0.056733 -74264.400000 0 0 1
0.789894 -33.617688 -8.448279 34.671982 -1.547304 1.816937 0.098440 -0.048469 474652.000000 0 0 1
1.999494 -33.413448 -7.464379 34.295385 -1.511027 1.790202 0.081166 -0.049207 -187095.000000 0 0 1
3.105794 -32.761718 -7.953079 33.855983 -1.476279 1.807921 0.087353 -0.047672 -523737.000000 0 0 1
3.946794 -32.376068 -6.827579 33.322707 -1.449490 1.777150 0.086803 -0.048276 511284.000000 0 0 1
5.254494 -31.620118 -7.305079 32.875610 -1.406125 1.794870 0.079594 -0.048481 1504750.000000 0 0 1
6.238794 -32.384888 -8.081679 33.956105 -1.380483 1.811106 0.095017 -0.041817 1042030.000000 0 0 1
6.920294 -33.331528 -7.255079 34.806859 -1.366085 1.780774 0.098051 -0.032413 -1007310.000000 0 0 1
7.053194 32.804534 -8.042179 34.504516 1.359014 1.806036 0.082098 -0.027431 16176.200000 0 0 1
5.817294 32.166058 -8.301179 33.725446 1.391878 1.819492 0.073659 -0.027444 -304264.000000 0 0 1
5.176594 32.683686 -9.437679 34.410612 1.413717 1.848623 0.085575 -0.032926 566538.000000 0 0 1
3.990294 31.760955 -9.932379 33.516158 1.445816 1.871661 0.079732 -0.040975 601918.000000 0 0 1
4.532194 30.575962 -10.468279 32.634569 1.423640 1.897342 0.074929 -0.030020 118283.000000 0 0 1
3.630594 29.490632 -10.595379 31.545849 1.448303 1.913328 0.085309 -0.041748 12324.900000 0 0 1
4.261294 28.394832 -11.456479 30.914010 1.421835 1.950442 0.085989 -0.032699 -36413.200000 0 0 1
4.393294 28.763782 -12.838279 31.803735 1.419231 1.986323 0.088319 -0.031111 -5140.500000 0 0 1
5.620994 28.552682 -13.505679 32.081997 1.376418 2.005315 0.082256 -0.028832 -108677.000000 0 0 1
5.616894 29.030732 -14.978879 33.146639 1.379677 2.039687 0.079532 -0.024686 -309583.000000 0 0 1
4.563294 28.472192 -15.729279 32.846607 1.411876 2.070164 0.076419 -0.027549 -24236.800000 0 0 1
4.610594 28.875982 -17.057579 33.853226 1.412464 2.098868 0.094563 -0.029084 -119783.000000 0 0 1
3.474794 28.297762 -17.908279 33.668145 1.448614 2.131646 0.082744 -0.038801 -245183.000000 0 0 1
3.693194 26.980212 -18.375979 32.851912 1.434757 2.164407 0.104469 -0.025985 406245.000000 0 0 1
2.637094 26.480462 -19.197079 32.813061 1.471537 2.195730 0.088841 -0.036214 577765.000000 0 0 1
3.244194 25.328022 -20.030579 32.453930 1.443403 2.235976 0.107723 -0.032387 452393.000000 0 0 1
3.729294 24.248972 -19.256379 31.188594 1.418200 2.236252 0.110495 -0.037833 -100126.000000 0 0 1
4.744394 23.496392 -19.858979 31.128263 1.371555 2.262659 0.107061 -0.035886 -47830.300000 0 0 1
5.106694 22.281252 -18.935879 29.683329 1.345495 2.262603 0.115697 -0.038627 227118.000000 0 0 1
4.146894 21.224152 -18.837079 28.679207 1.377842 2.287390 0.129552 -0.032194 -194502.000000 0 0 1
4.754694 20.138852 -18.254479 27.593595 1.338946 2.293677 0.119217 -0.025637 286852.000000 0 0 1
3.826994 18.896252 -17.882479 26.296336 1.370973 2.318609 0.104685 -0.034995 318561.000000 0 0 1
3.041994 19.104952 -16.731279 25.577111 1.412896 2.283855 0.092078 -0.029489 36955.900000 0 0 1
1.997094 18.184152 -16.467479 24.613606 1.461409 2.303712 0.057374 -0.012941 490911.000000 0 1 0
2.438494 16.869452 -15.679479 23.159679 1.427240 2.314497 0.048396 -0.011264 133028.000000 0 1 0
3.312594 15.920852 -16.245079 22.985852 1.365657 2.355679 0.064876 -0.021807 -174818.000000 0 1 0
2.717594 15.139852 -17.285879 23.138756 1.393188 2.414414 0.078737 -0.021687 -114403.000000 0 1 0
2.978294 15.493752 -18.738879 24.496370 1.380887 2.441784 0.085622 -0.021385 -771066.000000 0 1 0
4.286794 15.445552 -19.216579 25.024360 1.300068 2.446376 0.115181 -0.030488 -679033.000000 0 0 1
4.274894 15.944152 -20.537779 26.349403 1.308841 2.464568 0.116981 -0.035999 -348322.000000 0 0 1
4.537194 14.870552 -21.608879 26.620727 1.274656 2.517907 0.128468 -0.053161 -81986.600000 0 0 1
3.578194 13.849052 -21.787679 26.063435 1.317955 2.560654 0.110576 -0.043509 -101030.000000 0 0 1
2.378894 14.332352 -22.375279 26.678241 1.406315 2.565704 0.119298 -0.045297 -383323.000000 0 0 1
1.453394 13.209252 -22.793179 26.384194 1.461209 2.613749 0.110362 -0.033950 248915.000000 0 0 1
0.691694 12.539352 -21.720179 25.089439 1.515690 2.617363 0.098993 -0.025030 425882.000000 0 0 1
-0.096906 11.535752 -22.305079 25.111740 -1.562396 2.664281 0.050920 -0.016537 -281795.000000 0 0 1
-0.614906 10.516452 -21.254079 23.721504 -1.512392 2.681438 0.026032 -0.015365 -1215380.000000 0 1 0
-1.572106 11.133652 -20.447879 23.335498 -1.430521 2.638833 0.031340 -0.010039 -107097.000000 0 1 0
-2.242106 10.323752 -19.456779 22.139854 -1.356938 2.644164 0.023302 -0.006163 291994.000000 0 1 0
-3.143006 9.230552 -20.047579 22.293205 -1.242609 2.688891 0.033934 -0.003840 -1077830.000000 0 1 0
-2.494406 8.235452 -20.743779 22.457718 -1.276694 2.748376 0.029744 -0.003399 -546160.000000 0 1 0
-3.446306 7.258252 -21.096679 22.574967 -1.127501 2.777695 0.046352 0.001372 145167.000000 0 1 0
-2.810506 6.062252 -21.825479 22.825455 -1.136684 2.844496 0.048867 -0.012851 343586.000000 0 1 0
-1.960606 5.148152 -21.094879 21.802325 -1.206918 2.886151 0.047514 -0.001471 437290.000000 0 1 0
-1.741406 3.951952 -21.766379 22.190666 -1.155749 2.945729 0.065013 -0.013989 493737.000000 0 1 0
-0.729506 2.994752 -20.982479 21.207667 -1.331855 2.995736 0.056204 -0.010846 1275160.000000 0 1 0
0.677194 3.236752 -21.098679 21.356250 1.364551 2.986126 0.042749 -0.008926 391153.000000 0 1 0
1.261794 2.166852 -20.365979 20.519758 1.043481 3.019089 0.040277 -0.000299 -726188.000000 0 1 0
2.777694 2.221752 -20.332979 20.641749 0.674652 2.968411 0.025690 -0.008120 -417725.000000 0 1 0
3.505294 1.668352 -21.402279 21.751506 0.444225 2.962158 0.049229 -0.011943 -301735.000000 0 1 0
4.881894 1.581552 -21.203279 21.815436 0.313293 2.904136 0.072761 -0.019795 -449250.000000 0 1 0
5.748594 1.201152 -22.399879 23.156936 0.205983 2.885186 0.082526 -0.020438 135017.000000 0 1 0
7.151494 1.203352 -22.158979 23.315494 0.166704 2.825307 0.093214 -0.033195 -46620.100000 0 1 0
7.828194 0.848752 -23.341879 24.634210 0.108001 2.816243 0.107211 -0.035216 -956822.000000 0 1 0
9.327594 0.765052 -23.332679 25.139674 0.081837 2.760132 0.116204 -0.040789 -1057830.000000 0 0 1
9.986494 1.978552 -23.311379 25.437475 0.195590 2.729835 0.100554 -0.051489 253597.000000 0 0 1
11.359494 1.846452 -23.671579 26.320926 0.161138 2.689064 0.107253 -0.049375 274785.000000 0 0 1
13.262594 -19.867948 22.798069 33.020958 -0.982191 0.808738 0.098423 -0.021150 -101998.000000 0 0 1
12.947794 -21.214448 22.327619 33.409890 -1.022817 0.838884 0.094597 -0.017726 152261.000000 0 0 1
11.741394 -21.282948 21.593289 32.512987 -1.066664 0.844449 0.086544 -0.007555 55881.600000 0 0 1
11.905594 -20.798848 20.113789 31.287374 -1.050906 0.872554 0.112770 -0.028221 -114826.000000 0 0 1
12.164794 -19.460148 19.911489 30.383333 -1.012116 0.856160 0.133418 -0.030581 68123.500000 0 0 1
12.057694 -19.180448 18.508189 29.254583 -1.009580 0.885814 0.145426 -0.034300 -54326.300000 0 0 1
12.116594 -17.665948 18.174989 28.093198 -0.969615 0.867214 0.179555 -0.047419 862534.000000 0 0 1
10.902094 -17.047348 18.651389 27.519848 -1.001825 0.826107 0.196720 -0.049943 612187.000000 0 0 1
10.780594 -15.770348 18.046889 26.279560 -0.971163 0.813819 0.215267 -0.047913 241848.000000 0 0 1
9.583594 -14.911448 18.544589 25.653427 -0.999570 0.762822 0.180814 -0.042636 29678.900000 0 0 1
8.361594 -15.310248 17.991989 25.060559 -1.070919 0.769957 0.140010 -0.035739 -613547.000000 0 0 1
7.288694 -14.686148 18.665489 24.843681 -1.110115 0.720740 0.101385 -0.019620 272600.000000 0 1 0
5.915394 -15.299548 18.279989 24.560661 -1.201861 0.731341 0.027737 0.000592 -208943.000000 0 1 0
5.487494 -14.906848 16.989389 23.258677 -1.218072 0.751810 -0.003795 -0.011759 660641.000000 0 1 0
4.132494 -15.199848 16.625989 22.902759 -1.305336 0.758399 -0.013432 -0.008558 573292.000000 0 1 0
3.620694 -16.602148 16.581489 23.742083 -1.356073 0.797636 -0.013913 -0.005662 -952961.000000 0 1 0
2.299194 -16.577548 16.138189 23.249571 -1.432982 0.803588 -0.005362 -0.005961 -1061810.000000 0 1 0
1.677594 -17.818148 16.243589 24.169297 -1.476922 0.833788 0.020942 -0.020918 275944.000000 0 1 0
0.206994 -17.724948 15.756989 23.717068 -1.559119 0.844141 0.052246 -0.015896 -423751.000000 0 1 0
0.096394 -17.176348 14.450689 22.446796 -1.565184 0.871375 0.048039 -0.021462 -348600.000000 0 1 0
-1.212006 -17.288348 13.965189 22.257189 1.500805 0.892527 0.059650 -0.021368 -474472.000000 0 1 0
-1.609606 -18.669348 13.379589 23.024960 1.484792 0.950728 0.051914 -0.004755 -1120650.000000 0 1 0
-2.948106 -18.810148 13.049189 23.082338 1.415331 0.969960 0.057710 -0.018186 -703371.000000 0 1 0
-3.214906 -20.060648 12.398389 23.800951 1.411888 1.022868 0.084131 -0.024846 663508.000000 0 1 0
-4.732306 -20.372248 12.151089 24.188265 1.342552 1.044476 0.069592 -0.027761 736040.000000 0 1 0
-5.299106 -20.894048 13.336789 25.347815 1.322415 1.016728 0.069030 -0.032832 -298344.000000 0 0 1
-6.694406 -21.015848 13.162489 25.685250 1.262418 1.032757 0.078558 -0.039445 -335032.000000 0 0 1
-7.360506 -21.808648 14.292189 27.093557 1.245297 1.015127 0.076780 -0.042901 -1197280.000000 0 0 1
-8.719306 -21.629548 14.185689 27.296473 1.187603 1.024309 0.087425 -0.045401 -1346710.000000 0 0 1
-9.401406 -22.359448 15.201689 28.625560 1.172772 1.010954 0.082810 -0.039221 7952.740000 0 0 1
-10.875806 -21.946848 15.295489 28.877314 1.110713 1.012583 0.113196 -0.044245 -169763.000000 0 0 1
-10.973206 -20.628748 15.767789 28.188290 1.081926 0.977166 0.101424 -0.037989 433019.000000 0 0 1
-12.276206 -20.026948 15.594289 28.195137 1.020884 0.984734 0.109803 -0.036141 947614.000000 0 0 1
-12.598006 -18.860848 16.504889 28.050895 0.981909 0.941729 0.112962 -0.030023 -233596.000000 0 0 1
-12.820606 -19.310248 17.823789 29.239376 0.984692 0.915264 0.118391 -0.035117 -127671.000000 0 0 1
-13.162106 -18.244948 18.677889 29.240087 0.945845 0.877889 0.126470 -0.042140 -216638.000000 0 0 1
-13.632906 -18.787148 20.056189 30.676763 0.943062 0.858213 0.124017 -0.041980 176098.000000 0 0 1
-14.944206 -19.283048 19.825689 31.436017 0.911491 0.888383 0.122260 -0.036580 97078.800000 0 0 1
-15.473406 -19.864648 21.011589 32.795082 0.909028 0.875395 0.099416 -0.029164 -569213.000000 0 0 1
-16.927206 -20.262348 20.800489 33.611805 0.874838 0.903525 0.110688 -0.034455 -1067270.000000 0 0 1
-17.097406 -21.365548 19.954389 33.867176 0.895914 0.940733 0.121009 -0.039421 -340199.000000 0 0 1
-18.319806 -21.509548 19.306889 34.220344 0.865313 0.971340 0.105194 -0.034820 -577621.000000 0 0 1
-19.423206 -22.229948 20.085289 35.705047 0.852680 0.973349 0.103282 -0.036994 -558214.000000 0 0 1
-19.913406 -21.559048 21.209789 36.210378 0.825058 0.945006 0.101651 -0.035364 -295752.000000 0 0 1
-20.886006 -22.304548 21.882889 37.584291 0.818230 0.949321 0.070455 -0.017919 -264970.000000 0 0 1
-21.491906 -21.487348 23.047539 38.141804 0.785292 0.921960 0.059261 -0.017881 -313493.000000 0 0 1
-22.352806 -20.472348 22.636199 37.830708 0.741516 0.929350 0.059092 -0.013048 -180443.000000 0 0 1
-22.474106 -19.514248 23.624029 37.999817 0.715022 0.899900 0.058742 -0.008268 -43347.500000 0 0 1
-23.619906 -18.593048 23.177259 37.957697 0.666873 0.913969 0.057878 -0.006166 -92097.700000 0 0 1
-23.327606 -18.016048 21.898489 36.719192 0.657625 0.931816 0.068730 -0.008110 -144162.000000 0 0 1
-24.289606 -17.044448 21.605189 36.705345 0.611878 0.941456 0.060258 -0.011061 -404946.000000 0 0 1
-24.061606 -16.228148 20.312789 35.424894 0.593366 0.960141 0.058764 -0.018290 -958680.000000 0 0 1
-22.903906 -15.420848 20.355189 34.303428 0.592570 0.935537 0.073711 -0.016489 -310876.000000 0 0 1
-22.723106 -14.991048 19.067389 33.236071 0.583183 0.959786 0.064559 -0.017041 -85337.800000 0 0 1
-21.551606 -14.011748 18.934589 31.926783 0.576480 0.935939 0.066972 -0.030003 23435.900000 0 0 1
-21.127706 -13.923248 17.576689 30.808713 0.582679 0.963669 0.064385 -0.035591 -193322.000000 0 0 1
-20.233406 -12.850448 17.426889 29.634797 0.565837 0.942144 0.075258 -0.039723 -452969.000000 0 0 1
-20.093206 -12.475848 15.915789 28.507825 0.555645 0.978467 0.092351 -0.040581 67657.500000 0 0 1
-19.335906 -11.349548 15.491689 27.252192 0.530782 0.966168 0.090946 -0.039250 444698.000000 0 0 1
-17.925106 -11.369148 15.711289 26.408551 0.565229 0.933615 0.147868 -0.055311 272249.000000 0 0 1
-17.414706 -10.207548 14.773689 25.014554 0.530170 0.938990 0.136578 -0.051535 -256577.000000 0 0 1
-17.636806 -8.874448 15.244489 24.944082 0.466187 0.913288 0.148588 -0.051954 409128.000000 0 1 0
-16.975606 -7.882248 14.421889 23.628202 0.434705 0.914272 0.141776 -0.049540 -542471.000000 0 1 0
-17.156106 -6.475048 14.961989 23.666841 0.360890 0.886417 0.151152 -0.043366 114099.000000 0 1 0
-16.445306 -6.163748 16.132789 23.847574 0.358598 0.827802 0.141414 -0.043869 231334.000000 0 1 0
-15.029406 -6.167248 15.982589 22.789496 0.389393 0.793557 0.132204 -0.041616 -492224.000000 0 1 0
-14.333206 -6.165848 17.332289 23.320950 0.406249 0.732946 0.120560 -0.035588 -234581.000000 0 1 0
-14.454306 -7.317048 18.199289 24.365555 0.468611 0.727368 0.114742 -0.039716 -16308.000000 0 1 0
-13.850606 -8.449848 17.614089 23.947763 0.547791 0.744361 0.133815 -0.045546 -629478.000000 0 1 0
-13.902606 -9.687448 18.621789 25.177373 0.608581 0.738285 0.127131 -0.044278 889201.000000 0 0 1
-15.220306 -10.211148 18.852589 26.293447 0.590921 0.771297 0.131875 -0.050193 558931.000000 0 0 1
-16.049306 -9.382848 19.610889 27.022306 0.529039 0.758702 0.108187 -0.045760 -1744490.000000 0 0 1
-17.437206 -9.870448 20.026489 28.329175 0.515087 0.785661 0.093043 -0.033963 60606.500000 0 0 1
-18.452906 -9.868748 19.039889 28.291683 0.491104 0.832559 0.088018 -0.030806 259009.000000 0 0 1
-18.895806 -8.619948 18.567189 27.858491 0.427984 0.841316 0.083162 -0.032487 -492265.000000 0 0 1
-20.023906 -8.619848 17.505089 27.958661 0.406501 0.894247 0.102448 -0.036222 93691.600000 0 0 1
-21.335506 -8.880048 17.938289 29.254765 0.394402 0.910723 0.089484 -0.031827 -246153.000000 0 0 1
-22.123306 -9.201048 16.788889 29.256910 0.394136 0.959605 0.099848 -0.015106 -732818.000000 0 0 1
-23.574506 -9.425748 17.130789 30.627863 0.380358 0.977231 0.080765 -0.013452 -714384.000000 0 0 1
-24.263106 -8.294648 17.675589 31.143634 0.329407 0.967268 0.101811 -0.011289 346750.000000 0 0 1
-25.650416 -8.531748 17.775089 32.352564 0.321105 0.989129 0.108613 -0.002326 -63409.200000 0 0 1
-26.432376 -7.347148 18.361889 33.012271 0.271116 0.980973 0.136153 -0.009804 -77357.300000 0 0 1
-26.161156 -7.198948 19.720189 33.542761 0.268531 0.942321 0.142987 -0.019917 -11391.700000 0 0 1
-26.946916 -6.168948 20.224189 34.252154 0.225052 0.939180 0.127169 -0.026887 -901908.000000 0 0 1
-26.938926 -6.000448 21.799889 35.170247 0.219165 0.902259 0.125714 -0.032211 315289.000000 0 0 1
-25.791446 -5.790648 22.639579 34.803460 0.220856 0.862556 0.131851 -0.034133 55134.200000 0 0 1
-24.877106 -6.855148 22.567489 34.280534 0.268887 0.852214 0.140761 -0.024231 -762774.000000 0 0 1
-23.940806 -6.744048 23.800929 34.425697 0.274581 0.807411 0.145671 -0.025227 -87828.600000 0 0 1
-23.210906 -5.530348 23.751969 33.667298 0.233904 0.787681 0.129337 -0.031525 411544.000000 0 0 1
-22.346206 -5.264048 24.851859 33.833091 0.231350 0.745803 0.125863 -0.030866 378582.000000 0 0 1
-21.865106 -3.792248 24.897879 33.352187 0.171730 0.727989 0.126755 -0.031454 -102030.000000 0 0 1
-20.854706 -3.447748 25.802109 33.354978 0.163840 0.686355 0.107284 -0.033251 -109493.000000 0 0 1
-21.249606 -3.348348 27.202469 34.680420 0.156287 0.669108 0.118132 -0.043021 447844.000000 0 0 1
-22.078006 -2.114048 27.726899 35.506175 0.095463 0.674685 0.123109 -0.044170 426304.000000 0 0 1
-23.319906 -1.904848 27.099519 35.802659 0.081502 0.712219 0.130097 -0.045867 -558435.000000 0 0 1
-24.059406 -0.987348 27.861689 36.825312 0.041015 0.712713 0.115076 -0.042876 262103.000000 0 0 1
-25.430686 -0.588348 27.266519 37.289798 0.023131 0.750708 0.121953 -0.048156 -274709.000000 0 0 1
-25.282826 0.134852 26.015429 36.277294 -0.005334 0.771125 0.120913 -0.051853 30319.900000 0 0 1
-26.469976 0.313952 25.259929 36.589920 -0.011860 0.808821 0.121485 -0.044849 37842.500000 0 0 1
-27.182336 -0.918248 24.738869 36.765938 0.033768 0.832708 0.112228 -0.041951 -321309.000000 0 0 1
-28.145666 -1.543348 25.580019 38.064390 0.054779 0.833864 0.086901 -0.043140 584105.000000 0 0 1
-28.771336 -2.711248 25.062079 38.252431 0.093957 0.856381 0.069411 -0.042136 505798.000000 0 0 1
-27.781886 -3.932548 25.058559 37.619536 0.140617 0.841822 0.099023 -0.045752 478195.000000 0 0 1
-27.188666 -4.065248 26.345719 38.076853 0.148420 0.806666 0.085579 -0.047224 -287008.000000 0 0 1
-26.481126 -5.250348 26.396489 37.756997 0.195729 0.796637 0.112955 -0.042367 -327383.000000 0 0 1
-26.233536 -5.786648 27.786649 38.649471 0.217105 0.768520 0.082370 -0.028737 273645.000000 0 0 1
-27.412196 -6.233148 28.451109 39.996828 0.223584 0.779402 0.090277 -0.027814 499546.000000 0 0 1
-27.090026 -6.930548 29.684199 40.780555 0.250462 0.755541 0.092526 -0.025341 -789424.000000 0 0 1
-28.305716 -7.354948 30.478549 42.240393 0.254218 0.764758 0.053932 -0.027285 -636557.000000 0 0 1
-29.090956 -8.296248 29.819229 42.477028 0.277808 0.792583 0.038947 -0.023524 401699.000000 0 0 1
-30.353606 -8.535948 30.434009 43.822742 0.274137 0.803100 0.053018 -0.019363 1205820.000000 0 0 1
-31.503616 -9.217848 29.586199 44.190381 0.284651 0.837238 0.046195 -0.020716 221704.000000 0 0 1
-31.190336 -10.559348 29.227129 44.029104 0.326434 0.844890 0.056256 -0.021630 245133.000000 0 0 1
-32.148286 -11.261548 28.463989 44.390691 0.336942 0.874715 0.041045 -0.016899 -469051.000000 0 0 1
-31.438276 -12.473448 27.883729 43.834398 0.377710 0.881343 0.063809 -0.032038 -154358.000000 0 0 1
-30.384646 -12.004148 27.076569 42.431909 0.376252 0.878745 0.079338 -0.031511 -345157.000000 0 0 1
-29.541606 -13.059348 26.697389 41.904697 0.416237 0.880069 0.084938 -0.034599 -321090.000000 0 0 1
-28.199536 -12.602648 26.075519 40.422435 0.420281 0.869674 0.108204 -0.034003 962274.000000 0 0 1
-27.157126 -12.062348 26.955949 40.120231 0.417994 0.834053 0.102722 -0.035342 1204020.000000 0 0 1
-27.528826 -10.847448 27.639339 40.489955 0.375358 0.819452 0.103911 -0.039661 -747509.000000 0 0 1
-27.709196 -9.560448 26.764619 39.693155 0.332239 0.830796 0.105782 -0.027293 816573.000000 0 0 1
-26.528456 -8.918448 26.209669 38.343767 0.324314 0.818189 0.111718 -0.029459 759112.000000 0 0 1
-25.845756 -9.561248 25.173019 37.324274 0.354323 0.830589 0.106131 -0.026223 -111075.000000 0 0 1
-26.571526 -9.493248 23.786689 36.904937 0.343138 0.870376 0.108073 -0.022306 -1236470.000000 0 0 1
-27.729326 -10.214348 23.743519 37.907824 0.352936 0.893936 0.103961 -0.025599 -984223.000000 0 0 1
-28.326006 -10.210248 22.447549 37.556681 0.345958 0.930170 0.115629 -0.016759 623648.000000 0 0 1
-29.670926 -11.028648 22.340629 38.744014 0.355873 0.956209 0.117429 -0.026175 610905.000000 0 0 1
-30.860226 -10.515848 22.852349 39.814149 0.328417 0.959444 0.123357 -0.025604 -345374.000000 0 0 1
-30.898976 -10.479348 24.308519 40.687437 0.326975 0.930485 0.117354 -0.029484 -741278.000000 0 0 1
-32.306926 -10.190848 24.857539 42.017712 0.305560 0.937759 0.067591 -0.027779 -699145.000000 0 0 1
-32.785366 -8.932748 24.487219 41.884342 0.266005 0.946361 0.076346 -0.032078 -425175.000000 0 0 1
-34.111832 -8.575448 24.758519 43.013250 0.246289 0.957456 0.075150 -0.023393 56745.100000 0 0 1
-34.689700 -8.737148 26.236829 44.363096 0.246734 0.937989 0.051330 -0.025093 -265339.000000 0 0 1
-35.089013 -10.011648 26.722429 45.227869 0.277936 0.938697 0.051202 -0.034530 229926.000000 0 0 1
-35.611895 -9.970148 28.038659 46.408807 0.272978 0.922077 0.067897 -0.033195 -661322.000000 0 0 1
-36.023206 -11.323448 28.627949 47.386193 0.304558 0.922109 0.064332 -0.025343 252608.000000 0 0 1
-37.238666 -11.904048 28.201099 48.205048 0.309403 0.945887 0.053237 -0.029218 -397432.000000 0 0 1
37.642771 -11.470148 28.766269 48.744648 -0.295773 0.939561 0.074927 -0.026119 -291018.000000 0 0 1
36.342601 -12.151848 28.229479 47.595751 -0.322683 0.935881 0.091686 -0.029515 585413.000000 0 0 1
35.984971 -11.626848 26.932879 46.427165 -0.312515 0.951932 0.093835 -0.023265 -290021.000000 0 0 1
34.741381 -12.088948 26.475319 45.321614 -0.334865 0.946945 0.100916 -0.016813 -197132.000000 0 0 1
34.637631 -11.856648 24.915919 44.284857 -0.329804 0.973235 0.094753 -0.017911 -14623.500000 0 0 1
34.382441 -10.462848 24.641939 43.575780 -0.295404 0.969762 0.106463 -0.034568 88413.900000 0 0 1
34.330331 -10.261948 23.279809 42.729717 -0.290464 0.994627 0.093145 -0.022643 -167057.000000 0 0 1
33.920811 -8.770848 22.958169 41.888264 -0.253027 0.990728 0.119761 -0.008591 -1937490.000000 0 0 1
32.625451 -8.442848 23.085339 40.848924 -0.253226 0.970194 0.129572 -0.016596 -2027930.000000 0 0 1
32.398231 -7.063648 22.841349 40.264969 -0.214666 0.967602 0.141605 -0.008431 -623834.000000 0 0 1
30.913091 -6.798248 22.674759 38.935588 -0.216469 0.949160 0.138500 0.003774 -680155.000000 0 0 1
30.479191 -7.224448 21.425289 37.950187 -0.232734 0.970892 0.132688 0.009477 -1116650.000000 0 0 1
29.126991 -7.008348 21.272189 36.742408 -0.236125 0.953350 0.137103 -0.007927 -1003860.000000 0 0 1
15.851794 -17.274948 25.157719 34.389155 -0.828333 0.750190 0.124999 -0.013083 -44621.700000 0 0 1
15.182194 -18.490748 25.393249 34.888735 -0.883339 0.755637 0.114391 -0.014688 614106.000000 0 0 1
16.094594 -19.559448 25.728629 36.104990 -0.882274 0.777591 0.110859 -0.021134 -505025.000000 0 0 1
15.432494 -20.966248 25.726759 36.600704 -0.936274 0.791325 0.091585 -0.024377 173356.000000 0 0 1
14.535294 -21.309648 26.765859 37.172396 -0.972186 0.766927 0.089281 -0.022495 1110260.000000 0 0 1
13.326294 -20.533148 26.834379 36.321951 -0.995115 0.739520 0.095699 -0.019552 -251773.000000 0 0 1
12.481294 -20.768648 28.082799 37.091280 -1.029665 0.711893 0.091250 -0.021086 -511267.000000 0 0 1
12.946294 -20.158548 29.233649 37.796558 -0.999907 0.686534 0.092006 -0.018922 177897.000000 0 0 1
12.221694 -19.005648 29.727639 37.340554 -0.999318 0.649937 0.095989 -0.019755 170967.000000 0 0 1
12.259394 -17.805148 28.784219 35.997879 -0.967809 0.644153 0.114219 -0.018545 1133800.000000 0 0 1
13.469594 -16.993348 28.732379 35.996575 -0.900560 0.646499 0.108359 -0.008946 657598.000000 0 0 1
13.292394 -15.794848 28.082549 34.853902 -0.871220 0.633903 0.116644 -0.011829 628526.000000 0 0 1
14.510394 -14.807148 28.149779 34.960166 -0.795520 0.634791 0.103963 -0.008705 815414.000000 0 0 1
13.969994 -13.477548 27.922379 34.006827 -0.767459 0.607493 0.142904 -0.024213 249977.000000 0 0 1
14.606194 -12.541448 28.758499 34.607515 -0.709488 0.589911 0.133420 -0.025625 -432393.000000 0 0 1
14.153394 -11.079248 28.732149 33.891070 -0.664164 0.559012 0.126491 -0.022272 -226252.000000 0 0 1
14.414594 -10.224148 27.636259 32.803605 -0.616935 0.568933 0.161038 -0.032854 1343890.000000 0 0 1
15.823294 -10.042748 27.318729 33.129237 -0.565531 0.601282 0.142996 -0.037777 984361.000000 0 0 1
15.934894 -8.900048 26.314079 32.024404 -0.509365 0.606429 0.134517 -0.025467 -64267.100000 0 0 1
16.085094 -7.545148 26.855559 32.200629 -0.438605 0.584465 0.134986 -0.034962 809752.000000 0 0 1
17.311594 -7.376148 27.598489 33.403225 -0.402786 0.598428 0.126764 -0.037123 159256.000000 0 0 1
17.910194 -5.963748 27.502529 33.357614 -0.321433 0.601522 0.121023 -0.037868 -195239.000000 0 0 1
19.310494 -6.079448 27.551729 34.189949 -0.305003 0.633699 0.102496 -0.047392 14835.700000 0 0 1
19.978094 -4.798148 27.552629 34.369955 -0.235706 0.640748 0.102255 -0.041192 64678.100000 0 0 1
21.421894 -4.786348 27.038869 34.826815 -0.219822 0.681893 0.096181 -0.038529 -1276950.000000 0 0 1
21.556394 -5.356548 25.707959 33.974547 -0.243557 0.712572 0.102009 -0.034485 86366.300000 0 0 1
22.834094 -5.211148 25.141269 34.360374 -0.224375 0.749993 0.101316 -0.030937 379809.000000 0 0 1
24.139694 -5.645048 25.872439 35.832589 -0.229721 0.764055 0.088908 -0.032733 -762474.000000 0 0 1
24.571894 -4.632448 26.669229 36.557972 -0.186339 0.753198 0.088255 -0.039031 -422925.000000 0 0 1
25.478494 -5.128348 27.633609 37.935075 -0.198627 0.754747 0.091307 -0.047076 -167429.000000 0 0 1
26.067394 -3.950748 28.460339 38.795725 -0.150414 0.747200 0.088820 -0.036866 325509.000000 0 0 1
26.918494 -3.072448 27.678799 38.731914 -0.113647 0.774708 0.082728 -0.033806 554719.000000 0 0 1
27.181394 -1.838148 28.332839 39.305937 -0.067522 0.765799 0.074110 -0.038214 -458564.000000 0 0 1
27.992594 -0.821048 27.535059 39.273896 -0.029323 0.793853 0.095982 -0.038982 246948.000000 0 0 1
29.343694 -1.239448 27.410109 40.173407 -0.042214 0.819899 0.101798 -0.042022 -283702.000000 0 0 1
30.048194 -0.564248 26.409869 40.008667 -0.018776 0.849840 0.108701 -0.028142 665643.000000 0 0 1
31.583594 -0.887448 26.503899 41.240364 -0.028091 0.872820 0.112138 -0.034396 820877.000000 0 0 1
32.170794 -0.191348 27.590849 42.382207 -0.005948 0.861894 0.104901 -0.032345 71990.100000 0 0 1
33.582194 -0.201948 27.662149 43.508608 -0.006013 0.881770 0.121181 -0.047438 444612.000000 0 0 1
34.213494 0.861752 28.625119 44.617297 0.025182 0.874253 0.121483 -0.038904 157678.000000 0 0 1
33.894394 2.165352 28.149589 44.112561 0.063799 0.878728 0.133173 -0.027397 331592.000000 0 0 1
34.392594 3.155252 29.025499 45.114141 0.091486 0.871892 0.119610 -0.023764 -110895.000000 0 0 1
34.247794 4.590952 28.327589 44.681545 0.133257 0.884096 0.132111 -0.028145 -124179.000000 0 0 1
34.336894 5.772852 29.096629 45.375785 0.166566 0.874687 0.137363 -0.020993 96910.200000 0 0 1
33.141294 5.999052 29.807679 44.975901 0.179075 0.846314 0.128017 -0.014610 -243629.000000 0 0 1
33.147794 7.156252 30.837149 45.835771 0.212626 0.832843 0.094911 -0.013709 -217733.000000 0 0 1
33.911894 6.763452 31.955630 47.084213 0.196859 0.824818 0.112696 -0.012760 153713.000000 0 0 1
34.020494 7.757852 32.958058 47.998040 0.224201 0.813920 0.122366 -0.018417 -180453.000000 0 0 1
34.293194 7.118852 -33.054879 48.159383 0.204681 2.327274 0.125505 -0.019602 -25731.500000 0 0 1
33.359394 6.213352 -32.480059 46.972429 0.184145 2.334319 0.089076 -0.019507 116599.000000 0 0 1
33.383394 4.907652 -33.025759 47.214794 0.145963 2.345465 0.100673 -0.019273 26815.300000 0 0 1
34.004194 3.906352 -32.010209 46.863613 0.114377 2.322727 0.105908 -0.030542 -93932.100000 0 0 1
34.224694 2.608352 -32.478079 47.254193 0.076066 2.328570 0.101024 -0.039093 59061.300000 0 0 1
34.233394 1.642952 -31.442709 46.510950 0.047956 2.313155 0.083524 -0.030593 -105746.000000 0 0 1
34.215694 0.158652 -31.853769 46.748278 0.004637 2.320455 0.074862 -0.043306 -51136.800000 0 0 1
35.355594 -0.251248 -32.604869 48.095308 -0.007106 2.315729 0.085993 -0.039710 360229.000000 0 0 1
35.814594 -1.600248 -32.410579 48.328993 -0.044652 2.305846 0.079543 -0.035713 189435.000000 0 0 1
36.588094 -1.921248 -31.114479 48.067563 -0.052462 2.274843 0.085680 -0.033505 -477077.000000 0 0 1
35.800794 -1.830148 -29.978769 46.730856 -0.051076 2.267274 0.090123 -0.031241 -46566.500000 0 0 1
36.578594 -1.476148 -28.865599 46.619688 -0.040334 2.238484 0.125921 -0.036457 -144132.000000 0 0 1
35.615694 -1.006548 -27.781819 45.180972 -0.028254 2.233057 0.124245 -0.031285 -207944.000000 0 0 1
35.256594 0.374752 -27.931009 44.981208 0.010629 2.240748 0.104374 -0.020908 342367.000000 0 0 1
34.373794 0.741852 -26.892679 43.650020 0.021579 2.234575 0.085132 -0.013647 -364565.000000 0 0 1
34.095294 2.238652 -26.834969 43.446705 0.065565 2.236551 0.065558 -0.012958 -224564.000000 0 0 1
33.347694 2.871552 -27.863499 43.550994 0.085898 2.265022 0.087375 -0.022166 1046370.000000 0 0 1
32.044094 3.280852 -27.409169 42.294804 0.102030 2.275818 0.074475 -0.006817 471405.000000 0 0 1
31.283894 4.077752 -28.467829 42.493851 0.129616 2.304908 0.090237 -0.010940 -20933.200000 0 0 1
30.082294 4.685852 -28.023729 41.379113 0.154526 2.314806 0.086510 -0.013184 351468.000000 0 0 1
29.427094 5.432752 -29.013799 41.680561 0.182562 2.340746 0.062280 -0.022602 674491.000000 0 0 1
28.149394 6.209952 -28.501769 40.537670 0.217129 2.350535 0.058433 -0.022531 227065.000000 0 0 1
27.148594 5.375552 -27.980569 39.355494 0.195476 2.361673 0.091436 -0.029754 -330870.000000 0 0 1
26.218694 6.220452 -27.339689 38.387140 0.232946 2.363437 0.099908 -0.030934 -670634.000000 0 0 1
24.894694 5.494752 -27.097329 37.204883 0.217237 2.386674 0.128404 -0.029967 -704708.000000 0 0 1
24.183094 5.200252 -28.255289 37.552976 0.211811 2.422512 0.138252 -0.027253 110590.000000 0 0 1
22.963994 4.556252 -27.905249 36.425367 0.195865 2.443538 0.120068 -0.016348 427288.000000 0 0 1
22.069394 4.108952 -29.118419 36.767159 0.184076 2.484822 0.116300 -0.012370 216120.000000 0 0 1
22.682594 3.075252 -29.847229 37.614017 0.134756 2.487357 0.108027 -0.021303 -111507.000000 0 0 1
21.878494 2.511052 -30.833969 37.890731 0.114273 2.521389 0.078544 -0.019136 -320717.000000 0 0 1
21.820194 3.234552 -32.143569 38.984512 0.147165 2.540152 0.104583 -0.018118 649666.000000 0 0 1
23.149394 3.311352 -32.664959 40.172864 0.142079 2.520271 0.095858 -0.025452 544787.000000 0 0 1
23.233294 3.737652 33.392369 40.851025 0.159508 0.613882 0.092377 -0.014967 -104460.000000 0 0 1
24.664594 3.567952 32.846758 41.230837 0.143662 0.649055 0.080767 -0.014924 82961.900000 0 0 1
24.865194 2.245352 32.457654 40.948977 0.090057 0.655675 0.101001 -0.028733 -647882.000000 0 0 1
26.161094 2.039452 31.996429 41.380353 0.077800 0.686881 0.093980 -0.028890 -881678.000000 0 0 1
26.555894 0.551952 31.861693 41.481172 0.020782 0.694928 0.079149 -0.026627 -628608.000000 0 0 1
26.080794 -0.199048 30.748779 40.320402 -0.007632 0.703456 0.078226 -0.029534 500244.000000 0 0 1
24.666094 -0.374848 30.698359 39.382051 -0.015196 0.676927 0.095892 -0.039692 176595.000000 0 0 1
24.171294 -1.621148 31.477437 39.720380 -0.066969 0.655939 0.093345 -0.048810 -522509.000000 0 0 1
24.309794 -2.891548 30.873639 39.401887 -0.118390 0.670425 0.094456 -0.053341 295435.000000 0 0 1
23.839694 -3.815648 31.872678 39.984469 -0.158708 0.648275 0.114346 -0.048500 6059.610000 0 0 1
23.694194 -5.313248 31.488375 39.763842 -0.220593 0.656907 0.119094 -0.045025 -831122.000000 0 0 1
24.898494 -5.899248 31.142139 40.305941 -0.232642 0.687801 0.103717 -0.048548 -822841.000000 0 0 1
24.850894 -7.252048 30.874069 40.291032 -0.283938 0.697771 0.122670 -0.061956 -436680.000000 0 0 1
26.247294 -7.836548 30.639599 41.098868 -0.290141 0.729497 0.095986 -0.053585 -5038.690000 0 0 1
26.844294 -7.451148 29.419619 40.517276 -0.270753 0.758163 0.108493 -0.051677 -359181.000000 0 0 1
28.037194 -8.120548 29.080829 41.203424 -0.281921 0.787263 0.100201 -0.039187 56865.500000 0 0 1
28.432194 -7.861048 27.700449 40.466042 -0.269745 0.816830 0.106484 -0.042899 -317891.000000 0 0 1
27.455294 -8.406948 26.872909 39.327130 -0.297140 0.818500 0.097499 -0.046142 -582347.000000 0 0 1
27.689294 -8.167848 25.529349 38.537752 -0.286847 0.846711 0.117607 -0.038928 159929.000000 0 0 1
26.781794 -8.826248 24.452329 37.324034 -0.318352 0.856433 0.100243 -0.029694 -1065600.000000 0 0 1
25.471594 -8.443348 24.409579 36.275608 -0.320082 0.832685 0.104875 -0.023752 -1317140.000000 0 0 1
24.756794 -9.368748 23.583139 35.451893 -0.361776 0.843014 0.122687 -0.023490 -108179.000000 0 0 1
23.310494 -8.936448 23.310519 34.155812 -0.366085 0.819652 0.098243 -0.017781 -420578.000000 0 0 1
22.505294 -9.073548 24.445849 34.444405 -0.383240 0.781697 0.080494 -0.020710 -143878.000000 0 0 1
21.195594 -8.634948 24.168839 33.285857 -0.386864 0.758164 0.093767 -0.011869 604823.000000 0 0 1
20.122194 -8.499748 25.301679 33.426387 -0.399672 0.712183 0.074765 -0.020074 639570.000000 0 0 1
19.465094 -9.646248 25.854819 33.769981 -0.460095 0.698799 0.095912 -0.025858 171884.000000 0 0 1
20.315094 -10.412148 26.657179 35.095883 -0.473623 0.708171 0.083256 -0.032067 -425083.000000 0 0 1
19.621294 -11.552248 27.447439 35.662466 -0.532114 0.692511 0.084927 -0.029039 30083.700000 0 0 1
18.946894 -12.476248 26.624419 34.978582 -0.582317 0.705691 0.109053 -0.025748 -27661.700000 0 0 1
18.214794 -13.444548 27.368149 35.518307 -0.635849 0.691114 0.109226 -0.025521 -439440.000000 0 0 1
18.900694 -14.574448 28.205889 36.948923 -0.656873 0.702274 0.116850 -0.013310 -316048.000000 0 0 1
18.063594 -15.623248 28.719789 37.352451 -0.713082 0.693699 0.109814 -0.005268 -96251.300000 0 0 1
18.745094 -16.810348 28.960669 38.375600 -0.731037 0.715655 0.103627 -0.008251 -405042.000000 0 0 1
19.198794 -17.694248 27.757189 38.106976 -0.744639 0.754810 0.109367 -0.022006 46472.400000 0 0 1
20.355594 -17.310948 27.037539 38.013782 -0.704742 0.779513 0.108854 -0.023393 446644.000000 0 0 1
20.698294 -18.233748 26.027069 37.924889 -0.722179 0.814435 0.097276 -0.017490 -156207.000000 0 0 1
21.947294 -17.850148 25.219059 37.898712 -0.682810 0.842722 0.096502 -0.026429 485179.000000 0 0 1
23.192794 -17.997648 25.906949 39.153429 -0.659936 0.847742 0.083591 -0.019548 755489.000000 0 0 1
24.292994 -17.396248 25.249219 39.119075 -0.621451 0.869190 0.073676 -0.019903 -274761.000000 0 0 1
25.512494 -17.248748 26.162629 40.409031 -0.594498 0.866569 0.081106 -0.025945 -41179.600000 0 0 1
26.209794 -18.434248 26.581969 41.633831 -0.612960 0.878287 0.086893 -0.024585 -151544.000000 0 0 1
27.288294 -18.723548 25.753259 41.933907 -0.601362 0.909501 0.079711 -0.033376 -628328.000000 0 0 1
27.877794 -20.170548 25.989159 43.121442 -0.626347 0.923920 0.068853 -0.026033 105825.000000 0 0 1
28.547694 -20.209848 27.229359 44.326592 -0.616030 0.909311 0.068645 -0.017677 88048.800000 0 0 1
29.145194 -21.474948 27.546809 45.491124 -0.635017 0.920349 0.064210 -0.018203 19556.200000 0 0 1
28.310694 -22.509948 28.346449 45.953393 -0.671748 0.906059 0.063287 -0.013819 -162736.000000 0 0 1
28.123594 -22.185248 29.718379 46.543569 -0.667904 0.878240 0.065555 -0.012438 -191370.000000 0 0 1
27.531194 -23.255248 30.371519 47.129633 -0.701402 0.870525 0.083814 -0.014909 -449468.000000 0 0 1
27.319394 -23.013948 31.877964 47.876880 -0.700067 0.842188 0.069435 -0.011599 -137476.000000 0 0 1
26.748294 -24.103148 32.490966 48.498410 -0.733428 0.836670 0.068077 -0.017419 -186327.000000 0 0 1
26.486994 -23.958948 -33.537029 48.993105 -0.735326 2.324749 0.070961 -0.012773 -502051.000000 0 0 1
26.285294 -25.341108 -32.766649 49.058554 -0.767111 2.302192 0.069965 -0.015367 433634.000000 0 0 1
25.077794 -26.045138 -33.027909 48.970274 -0.804318 2.311013 0.105827 -0.029975 -18743.300000 0 0 1
24.642994 -26.259998 33.031589 48.866660 -0.817154 0.828539 0.090280 -0.029545 -530220.000000 0 0 1
23.322894 -27.012218 32.868814 48.517793 -0.858563 0.826494 0.111564 -0.037166 -184593.000000 0 0 1
23.396994 -28.438628 33.069019 49.494797 -0.882355 0.839102 0.112528 -0.042275 -379671.000000 0 0 1
22.149694 -29.089098 33.113912 49.328650 -0.920012 0.834846 0.130384 -0.045959 -418887.000000 0 0 1
22.077294 -30.632918 33.340229 50.372149 -0.946309 0.847475 0.098341 -0.048740 -217748.000000 0 0 1
22.507594 -31.186728 -32.854299 50.582692 -0.945652 2.277745 0.077713 -0.048837 -1137630.000000 0 0 1
23.870794 -31.267918 -32.724799 51.170401 -0.918757 2.264678 0.057096 -0.035022 -1715620.000000 0 0 1
24.374494 -31.847208 -31.403359 50.936545 -0.917539 2.235110 0.049957 -0.036642 -942285.000000 0 0 1
25.692294 -32.289608 -31.567389 51.953949 -0.898693 2.223836 0.046288 -0.025044 -267774.000000 0 0 1
26.176394 -33.056258 -30.462049 52.017845 -0.901030 2.196426 0.042478 -0.013097 366459.000000 0 0 1
27.007394 -32.203028 -29.439639 51.314001 -0.872923 2.181831 0.035270 -0.017575 -350926.000000 0 0 1
27.356794 -32.912068 -28.279629 51.296548 -0.877313 2.154714 0.068057 -0.012563 -252598.000000 0 0 1
27.936794 -31.994628 -27.407969 50.550148 -0.853003 2.143842 0.074708 -0.010753 -933776.000000 0 0 1
28.384594 -32.628328 -26.062549 50.493063 -0.854841 2.113159 0.096811 -0.015385 71886.900000 0 0 1
29.665694 -33.194958 -26.110029 51.610970 -0.841484 2.101222 0.095576 -0.001831 -301936.000000 0 0 1
30.736694 -32.299098 -25.929689 51.578337 -0.810179 2.097544 0.108311 -0.013952 -357184.000000 0 0 1
-28.458506 -30.381548 9.384221 42.673044 0.818069 1.349074 0.097673 -0.006065 886947.000000 0 0 1
-27.455256 -31.440148 9.156021 42.732970 0.852956 1.354861 0.091861 -0.010784 806553.000000 0 0 1
-26.426976 -31.449048 10.118621 42.306196 0.871954 1.329279 0.077029 -0.012102 -123015.000000 0 0 1
-26.588966 -32.368748 11.405121 43.414120 0.883119 1.304971 0.071494 -0.014677 -253773.000000 0 0 1
-26.615076 33.731952 11.132421 44.386233 -0.902788 1.317282 0.081775 -0.000402 -233934.000000 0 0 1
-27.906866 33.160252 11.187521 44.761100 -0.871213 1.318180 0.062857 -0.015570 -82964.800000 0 0 1
-27.980866 31.603852 10.892921 43.593441 -0.846127 1.318245 0.073723 -0.020018 87061.900000 0 0 1
-27.641996 31.295652 9.527221 42.828328 -0.847311 1.346468 0.118615 -0.034566 98920.500000 0 0 1
-27.805376 29.889252 9.222921 41.851745 -0.821502 1.348601 0.133484 -0.038259 -85784.600000 0 0 1
-27.198606 29.626452 7.849921 40.976970 -0.828097 1.378036 0.117540 -0.025731 215631.000000 0 0 1
-25.805036 29.353852 7.887921 39.871893 -0.849648 1.371651 0.111200 -0.015191 86189.900000 0 0 1
-25.274296 29.427552 6.588621 39.346929 -0.861178 1.402554 0.108677 -0.002497 196193.000000 0 0 1
-23.766206 29.023452 6.545921 38.079422 -0.884659 1.398036 0.103501 -0.005969 543779.000000 0 0 1
-23.458806 27.611252 6.751421 36.854830 -0.866528 1.386566 0.112103 -0.013595 23470.600000 0 0 1
-23.874706 26.785552 5.665821 36.325871 -0.842793 1.414185 0.105626 -0.021430 -461819.000000 0 0 1
-24.065706 25.318752 6.027521 35.447545 -0.810766 1.399925 0.125172 -0.026295 -134515.000000 0 0 1
-25.064386 25.036652 7.014321 36.114514 -0.784845 1.375330 0.155648 -0.032726 399073.000000 0 0 1
-25.116216 23.693752 7.526321 35.339266 -0.756263 1.356179 0.180363 -0.043232 -224889.000000 0 0 1
-25.698116 22.646752 6.510321 34.866213 -0.722365 1.382971 0.173446 -0.046998 309437.000000 0 0 1
-27.079056 22.870152 6.193521 35.981646 -0.701333 1.397805 0.153892 -0.048283 560364.000000 0 0 1
-27.491966 22.124152 5.069821 35.650938 -0.677630 1.428105 0.136373 -0.035041 19462.100000 0 0 1
-27.283526 22.895152 3.735721 35.812489 -0.698165 1.466293 0.125820 -0.036342 231337.000000 0 0 1
-25.924806 23.214352 3.468921 34.971919 -0.730295 1.471441 0.127268 -0.039924 269371.000000 0 0 1
-25.886986 23.895452 2.197321 35.298115 -0.745415 1.508506 0.111981 -0.026124 457948.000000 0 0 1
-24.539406 24.627452 1.927021 34.819639 -0.787189 1.515425 0.083382 -0.018338 163122.000000 0 0 1
-24.545606 25.340452 0.714421 35.286480 -0.801330 1.550549 0.071311 -0.017857 -42187.200000 0 0 1
-23.408606 26.192152 0.641321 35.134071 -0.841458 1.552542 0.084223 -0.015261 27873.500000 0 0 1
-22.978706 26.468152 -0.813579 35.060603 -0.855851 1.594003 0.118066 -0.020042 -6544.520000 0 0 1
-22.605906 25.429552 -1.716679 34.068110 -0.844113 1.621207 0.112626 -0.024822 -413173.000000 0 0 1
-21.397406 24.833452 -1.363679 32.808672 -0.859585 1.612373 0.103765 -0.045889 -614649.000000 0 0 1
-21.031906 23.645152 -2.292879 31.728403 -0.843823 1.643125 0.122568 -0.058037 -35593.000000 0 0 1
-22.010406 22.626552 -2.223379 31.644308 -0.799201 1.641116 0.104058 -0.040291 -97057.800000 0 0 1
-21.681406 21.433652 -2.891379 30.624253 -0.779652 1.665352 0.108767 -0.043616 -511722.000000 0 0 1
-22.707106 21.111452 -3.946679 31.255117 -0.748999 1.697407 0.100604 -0.030842 -623841.000000 0 0 1
-22.699306 21.951152 -5.038179 31.976473 -0.768644 1.729015 0.106231 -0.029271 -433425.000000 0 0 1
-23.882906 21.960652 -5.790679 32.957479 -0.743492 1.747415 0.121123 -0.028320 -135292.000000 0 0 1
-23.740706 22.574552 -7.225279 33.547521 -0.760225 1.787872 0.131819 -0.023951 23340.000000 0 0 1
-23.277706 21.780552 -8.292279 32.939428 -0.752183 1.825277 0.101652 -0.028634 359094.000000 0 0 1
-22.664906 22.546252 -9.365779 33.312899 -0.782774 1.855784 0.106123 -0.028440 88506.900000 0 0 1
-22.208006 21.651552 -10.554679 32.762578 -0.772712 1.898803 0.094486 -0.019470 559727.000000 0 0 1
-23.278406 21.213352 -11.424379 33.502342 -0.739017 1.918779 0.072292 -0.019610 769308.000000 0 0 1
-22.824906 20.621952 -12.659579 33.264188 -0.734737 1.961216 0.056597 -0.009161 463210.000000 0 0 1
-24.071306 20.467852 -13.572379 34.388519 -0.704669 1.976513 0.044562 -0.028800 445600.000000 0 0 1
-24.945606 19.447252 -13.243779 34.291057 -0.662169 1.967323 0.062737 -0.021781 -412201.000000 0 0 1
-26.253786 19.572152 -13.747279 35.515041 -0.640614 1.968263 0.073429 -0.030031 423067.000000 0 0 1
-27.019316 18.211652 -13.655779 35.329705 -0.593078 1.967656 0.128939 -0.035470 345351.000000 0 0 1
-26.510416 17.346052 -14.702979 34.926570 -0.579400 2.005309 0.124088 -0.035331 364364.000000 0 0 1
-27.027306 16.045052 -14.468579 34.601427 -0.535745 2.002204 0.132827 -0.042170 81484.200000 0 0 1
-26.736946 15.089652 -15.656479 34.462838 -0.513812 2.042383 0.140413 -0.034659 950479.000000 0 0 1
-25.370526 14.640752 -15.646379 33.208800 -0.523394 2.061392 0.146856 -0.034015 656069.000000 0 0 1
-25.045926 14.277052 -16.960279 33.448224 -0.518095 2.102567 0.138678 -0.046765 82854.200000 0 0 1
-24.081606 13.042052 -17.037079 32.253387 -0.496354 2.127306 0.129625 -0.038261 237969.000000 0 0 1
-22.758406 13.369052 -16.659279 31.212308 -0.531128 2.133814 0.134935 -0.046924 -179151.000000 0 0 1
-22.087306 12.198052 -16.301379 30.039583 -0.504581 2.144401 0.125325 -0.039514 -56029.700000 0 0 1
-20.828306 12.349652 -15.423779 28.709323 -0.535202 2.137957 0.126531 -0.044307 -649366.000000 0 0 1
-19.724606 12.902852 -16.037579 28.508729 -0.579287 2.168263 0.110643 -0.036507 -1129010.000000 0 0 1
-18.633506 12.791452 -15.191879 27.232737 -0.601592 2.162594 0.103129 -0.028272 -690834.000000 0 0 1
-17.723906 14.040952 -15.256179 27.277027 -0.669969 2.164344 0.095609 -0.022450 -300995.000000 0 0 1
-16.937706 14.014752 -16.431579 27.446238 -0.691244 2.212651 0.124785 -0.031883 429016.000000 0 0 1
-15.991506 15.095952 -16.392679 27.428743 -0.756599 2.211358 0.118590 -0.021178 184298.000000 0 0 1
-15.371006 15.331852 -17.773479 28.057621 -0.784123 2.256818 0.138267 -0.031201 -631.643000 0 0 1
-14.461606 14.323552 -18.171279 27.285483 -0.780602 2.299588 0.130607 -0.025474 -104761.000000 0 0 1
-13.735606 14.624152 -19.362479 27.882580 -0.816719 2.338423 0.160227 -0.030330 -149299.000000 0 0 1
-12.535306 13.666952 -19.349479 26.801526 -0.828560 2.377419 0.151037 -0.029979 -174661.000000 0 0 1
-12.839506 12.296152 -19.646079 26.495598 -0.763785 2.406077 0.175472 -0.039251 -393907.000000 0 0 1
-11.621706 11.668952 -19.889679 25.823010 -0.787427 2.449999 0.150779 -0.015361 -225832.000000 0 0 1
-11.797106 10.263052 -20.611479 25.871510 -0.715970 2.492589 0.173721 -0.036863 -67720.800000 0 0 1
-11.826406 10.386252 -22.045179 27.087415 -0.720654 2.521549 0.187643 -0.054555 -13057.800000 0 0 1
-11.742806 9.075952 -22.563979 27.007398 -0.657993 2.559791 0.195343 -0.029825 -113054.000000 0 0 1
-11.871306 8.986352 -24.095279 28.324281 -0.647954 2.588099 0.169975 -0.040872 155811.000000 0 0 1
-10.732106 9.456252 -24.791179 28.621694 -0.722285 2.618278 0.164691 -0.046008 34729.100000 0 0 1
-10.610906 8.658152 -25.989739 29.377227 -0.684401 2.656625 0.145718 -0.047675 -18508.300000 0 0 1
-9.994206 9.420552 -27.156569 30.432059 -0.755859 2.673360 0.158475 -0.054279 399552.000000 0 0 1
-8.611006 9.747852 -27.130769 30.087351 -0.847243 2.694559 0.132146 -0.052140 428943.000000 0 0 1
-8.234906 10.927352 -26.444729 29.774895 -0.924992 2.664111 0.116940 -0.040790 -252662.000000 0 0 1
-6.798006 11.447252 -26.619219 29.762985 -1.034908 2.677825 0.108644 -0.042084 -14561.300000 0 0 1
-6.461806 12.056452 -27.882979 31.057584 -1.078794 2.685507 0.104622 -0.058785 494816.000000 0 0 1
-5.087506 12.442852 -27.878119 30.949908 -1.182667 2.692289 0.117819 -0.051469 392804.000000 0 0 1
-4.517006 12.906752 -29.216809 32.258480 -1.234146 2.703847 0.120745 -0.043520 1659620.000000 0 0 1
-3.058206 13.050552 -29.215859 32.143988 -1.340614 2.711449 0.139965 -0.052354 1663540.000000 0 0 1
-2.492606 12.939752 -30.491319 33.217026 -1.380496 2.733659 0.137214 -0.049700 250468.000000 0 0 1
-0.997306 12.549152 -30.407259 32.910139 -1.491491 2.749073 0.166823 -0.064624 -138088.000000 0 0 1
-0.731806 11.267052 -29.818659 31.884705 -1.505936 2.779627 0.133230 -0.039870 266223.000000 0 0 1
0.541394 10.664852 -30.053539 31.894316 1.520076 2.800187 0.142090 -0.051279 598565.000000 0 0 1
0.949294 10.311452 -31.514609 33.172244 1.478993 2.824127 0.154971 -0.049728 -198134.000000 0 0 1
1.422794 11.431252 -32.258079 34.253197 1.446968 2.798604 0.162802 -0.050423 56548.400000 0 0 1
1.524194 11.067852 -33.626779 35.434175 1.433944 2.820822 0.171979 -0.046804 -122043.000000 0 0 1
1.942594 12.168252 32.783616 35.022928 1.412488 0.359532 0.171828 -0.053012 -215304.000000 0 0 1
3.327894 12.480152 32.856370 35.303967 1.310205 0.374554 0.169200 -0.058059 112769.000000 0 0 1
3.621194 13.439852 31.849316 34.758043 1.307609 0.412017 0.173247 -0.055679 360924.000000 0 0 1
5.172994 13.521652 31.777018 34.919533 1.205405 0.427495 0.170284 -0.056252 250888.000000 0 0 1
5.728894 12.331152 31.245769 34.076027 1.135878 0.410446 0.170058 -0.059065 -324198.000000 0 0 1
7.115794 12.442652 31.065659 34.212998 1.051305 0.432293 0.167941 -0.048957 -77962.100000 0 0 1
7.859194 11.157252 30.600619 33.505955 0.957122 0.419509 0.144309 -0.038188 197102.000000 0 0 1
7.385394 10.560152 29.396399 32.096870 0.960497 0.413139 0.121867 -0.035498 220933.000000 0 0 1
8.328694 9.632652 28.869649 31.553316 0.857869 0.415417 0.118527 -0.021682 536932.000000 0 0 1
7.691494 8.673552 27.812149 30.131465 0.845336 0.394922 0.103770 -0.022010 -55295.000000 0 0 1
6.829394 7.709952 28.328259 30.142565 0.845888 0.348725 0.102700 -0.027126 -236559.000000 0 0 1
6.167894 7.031752 27.271089 28.830552 0.850751 0.330410 0.133466 -0.034448 69453.600000 0 0 1
5.347294 5.825452 27.798609 28.901420 0.828169 0.277138 0.144196 -0.040435 206383.000000 0 0 1
6.157494 4.753452 28.250149 29.301552 0.657420 0.268696 0.116374 -0.034141 533892.000000 0 0 1
5.401194 3.985052 29.203389 29.964837 0.635653 0.225919 0.110954 -0.035346 -33044.900000 0 0 1
6.111194 2.709052 29.728979 30.471262 0.417263 0.221177 0.108597 -0.023486 77295.600000 0 0 1
6.330894 1.627552 28.850799 29.582051 0.251632 0.222809 0.110981 -0.024858 171683.000000 0 0 1
7.624194 1.680952 28.265309 29.323738 0.217004 0.269495 0.129005 -0.026513 237887.000000 0 0 1
8.044794 0.420152 27.454789 28.612247 0.052179 0.285408 0.140900 -0.034133 -183336.000000 0 0 1
8.205594 -0.692848 28.265839 29.440948 -0.084236 0.283487 0.105871 -0.026551 47063.200000 0 0 1
8.548694 -1.849448 27.543669 28.899036 -0.213059 0.307478 0.131354 -0.026636 -332405.000000 0 0 1
8.935894 -3.060448 28.495029 30.019713 -0.329968 0.320079 0.102720 -0.016730 657492.000000 0 0 1
10.184694 -3.063348 29.198699 31.075329 -0.292172 0.349307 0.080484 -0.026265 25965.800000 0 0 1
11.197794 -3.611248 28.412689 30.752440 -0.311966 0.392602 0.113352 -0.029994 -547602.000000 0 0 1
12.552694 -3.703748 29.146229 31.949812 -0.286915 0.422052 0.094017 -0.029583 438046.000000 0 0 1
13.561794 -4.411248 28.402499 31.781807 -0.314476 0.465334 0.116847 -0.032653 346648.000000 0 0 1
14.022394 -5.609348 28.936159 32.640367 -0.380530 0.481039 0.133829 -0.036195 -203196.000000 0 0 1
13.314694 -6.960248 28.550729 32.262520 -0.481681 0.484409 0.149392 -0.035144 251167.000000 0 0 1
11.925794 -7.048248 28.847669 32.001412 -0.533782 0.447689 0.147282 -0.035712 -37776.900000 0 0 1
11.447794 -8.305748 28.515909 31.830716 -0.627657 0.460430 0.175893 -0.035296 -636194.000000 0 0 1
9.983694 -8.222548 28.112129 30.944728 -0.688965 0.431205 0.184482 -0.042609 -697540.000000 0 0 1
9.136594 -7.802748 29.154899 31.533606 -0.706818 0.390902 0.208212 -0.048701 -1386890.000000 0 0 1
7.854094 -7.860048 28.670359 30.748278 -0.785777 0.369739 0.203864 -0.039639 -1136570.000000 0 0 1
6.754094 -7.229448 29.528269 31.141634 -0.819379 0.323298 0.171955 -0.045798 -111723.000000 0 0 1
6.445994 -8.052648 30.691689 32.378631 -0.895762 0.324220 0.186739 -0.059024 102568.000000 0 0 1
5.417394 -7.581848 31.534496 32.882472 -0.950391 0.287322 0.187091 -0.049453 -47255.800000 0 0 1
5.869394 -6.488148 32.594215 33.748017 -0.835427 0.262242 0.173382 -0.020513 193103.000000 0 0 1
6.381094 -5.270748 32.101931 33.151668 -0.690392 0.252322 0.169925 -0.025234 -250834.000000 0 0 1
7.133694 -4.512348 33.002501 34.064878 -0.564003 0.250401 0.124375 -0.005954 120398.000000 0 0 1
7.490694 -3.216948 32.196372 33.212431 -0.405642 0.247992 0.113284 -0.023581 712669.000000 0 0 1
6.289394 -2.437948 31.996692 32.699975 -0.369796 0.207772 0.140765 -0.025846 780886.000000 0 0 1
6.478094 -1.239548 31.244499 31.933069 -0.189059 0.208043 0.111609 -0.014590 -608182.000000 0 0 1
5.173294 -0.774048 30.637729 31.081064 -0.148522 0.169103 0.145759 -0.028285 113019.000000 0 0 1
4.157694 -0.366748 31.570228 31.844940 -0.087982 0.131446 0.133204 -0.018960 -292423.000000 0 0 1
3.085094 0.253652 30.951269 31.105677 0.082034 0.099681 0.134870 -0.029737 -607581.000000 0 0 1
1.975094 0.628152 31.928385 31.995583 0.307921 0.064822 0.128091 -0.028702 -164101.000000 0 0 1
2.381994 1.701652 32.739389 32.870003 0.620313 0.089177 0.124413 -0.025106 617971.000000 0 0 1
1.402894 1.989052 -33.636529 33.724480 0.956517 3.069356 0.109901 -0.031668 517419.000000 0 0 1
1.828794 3.155252 -32.773889 32.976172 1.045510 3.030773 0.103922 -0.035852 -482297.000000 0 0 1
2.741694 2.888952 -31.775109 32.023749 0.811545 3.016899 0.084393 -0.011150 -503354.000000 0 0 1
3.208594 4.038252 -31.113659 31.538268 0.899387 2.977315 0.077105 -0.023095 -92442.400000 0 0 1
4.322894 3.714352 -30.074889 30.610174 0.709827 2.954305 0.087400 -0.018335 354587.000000 0 0 1
3.728694 3.044952 -28.970409 29.367661 0.684797 2.976927 0.104316 -0.018447 654089.000000 0 0 1
4.621294 3.066252 -27.847389 28.394283 0.585811 2.945007 0.116965 -0.026593 305322.000000 0 0 1
4.046994 2.415852 -26.552729 26.967794 0.538174 2.965918 0.104465 -0.030146 -56238.700000 0 0 1
4.412494 1.034652 -26.480489 26.865534 0.230321 2.972084 0.130842 -0.034606 251224.000000 0 0 1
3.812194 0.319352 -25.394469 25.681002 0.083576 2.992072 0.125049 -0.035900 -278625.000000 0 0 1
4.329694 -1.163748 -25.170819 25.566984 -0.262577 2.965324 0.140716 -0.043396 -438211.000000 0 0 1
5.605694 -1.276548 -24.634079 25.296071 -0.223905 2.912312 0.130548 -0.046750 -548811.000000 0 0 1
6.079294 -2.638448 -24.678579 25.552915 -0.409474 2.879243 0.129226 -0.044220 854782.000000 0 0 1
7.592694 -2.737048 -24.260979 25.568252 -0.345984 2.820437 0.138148 -0.053614 1432620.000000 0 0 1
8.494294 -2.412048 -25.342699 26.836978 -0.276678 2.806319 0.135565 -0.051754 495515.000000 0 0 1
9.865394 -2.641148 -25.023179 27.027045 -0.261584 2.754094 0.118903 -0.046298 695599.000000 0 0 1
-30.919036 -3.530448 17.337789 35.623725 0.113691 1.062497 0.167653 -0.024988 1300680.000000 0 0 1
-32.360686 -3.472348 17.434689 36.922075 0.106892 1.079009 0.159599 -0.008296 1091150.000000 0 0 1
-32.872976 -4.485048 18.358289 37.918004 0.135598 1.065396 0.150182 -0.016967 21084.100000 0 0 1
-34.379257 -4.347048 18.587789 39.323480 0.125776 1.078456 0.128302 -0.012618 -119485.000000 0 0 1
-35.201195 -4.847548 17.520289 39.617968 0.136849 1.112712 0.123662 -0.007766 1314430.000000 0 0 1
-36.581166 -4.585048 17.850089 40.961324 0.124689 1.119893 0.109044 -0.000352 1149110.000000 0 0 1
-37.633476 -4.797248 16.720089 41.459058 0.126789 1.155685 0.091207 -0.005488 695854.000000 0 0 1
37.079631 -4.724148 17.177889 41.137531 -0.126723 1.140025 0.082048 0.003784 382339.000000 0 0 1
36.147721 -4.589548 16.101889 39.837074 -0.126291 1.154699 0.079577 -0.007054 691361.000000 0 0 1
34.669951 -4.756948 16.563289 38.716619 -0.136355 1.128730 0.076503 -0.002190 252132.000000 0 0 1
34.242291 -3.656548 17.323189 38.548641 -0.106381 1.104719 0.085181 -0.007654 383059.000000 0 0 1
32.985861 -3.920148 17.937989 37.751901 -0.118288 1.075657 0.130581 -0.008284 203502.000000 0 0 1
32.573621 -3.208948 19.207489 37.950833 -0.098197 1.040122 0.134355 -0.018346 -426800.000000 0 0 1
31.742051 -2.075948 19.176489 37.143035 -0.065308 1.028286 0.133225 -0.013378 38974.800000 0 0 1
32.274501 -0.897948 18.578489 37.250637 -0.027815 1.048649 0.126719 -0.009430 37417.500000 0 0 1
31.385901 0.360652 18.885189 36.631342 0.011490 1.029150 0.167711 -0.022578 315120.000000 0 0 1
31.867381 1.501552 18.216889 36.737442 0.047084 1.051963 0.139671 -0.025847 79846.700000 0 0 1
31.259571 2.723252 18.633989 36.493868 0.086898 1.034907 0.134873 -0.028900 -440921.000000 0 0 1
31.655291 4.005752 17.805989 36.539796 0.125874 1.061797 0.111392 -0.023702 -75302.000000 0 0 1
31.090591 4.140452 16.476389 35.429360 0.132395 1.087106 0.137649 -0.006622 1054030.000000 0 0 1
29.688491 3.971552 16.209089 34.057514 0.132985 1.074772 0.153292 -0.028353 818650.000000 0 0 1
29.359691 4.296852 14.716889 33.121612 0.145320 1.110371 0.152356 -0.018561 -78247.400000 0 0 1
29.390291 5.701852 14.435389 33.236738 0.191624 1.121513 0.165316 -0.031326 163824.000000 0 0 1
28.761991 5.978052 13.195389 32.204153 0.204928 1.148625 0.144697 -0.018554 160200.000000 0 0 1
28.101291 7.392052 12.924689 31.802084 0.257223 1.152275 0.165923 0.000499 379312.000000 0 0 1
26.866191 7.524252 13.610489 31.042744 0.273068 1.116930 0.157068 -0.005352 71687.500000 0 0 1
26.237391 8.729152 13.283289 30.676449 0.321179 1.122964 0.190933 -0.031599 -966874.000000 0 0 1
24.868291 8.970052 13.872489 29.855312 0.346177 1.087549 0.191621 -0.031188 -378564.000000 0 0 1
23.772191 8.205952 13.368189 28.480926 0.332384 1.082215 0.187421 -0.017910 801541.000000 0 0 1
23.625891 6.854452 13.761889 28.187866 0.282372 1.060747 0.197958 -0.018465 379063.000000 0 0 1
22.200691 6.193252 13.510089 26.716091 0.272050 1.040614 0.203279 -0.014266 768345.000000 0 0 1
21.895191 6.090152 12.107589 25.750399 0.271293 1.081290 0.223492 -0.029027 909877.000000 0 0 1
20.892091 5.101152 11.829489 24.544613 0.239481 1.067908 0.215189 -0.027401 189364.000000 0 1 0
20.601591 4.815652 10.309289 23.535027 0.229628 1.117379 0.224195 -0.037911 -97791.200000 0 1 0
21.659791 4.169852 9.631289 24.068567 0.190189 1.159104 0.245293 -0.040004 351999.000000 0 1 0
21.385391 3.898252 8.266289 23.256458 0.180306 1.207411 0.272865 -0.041479 -54599.700000 0 1 0
22.573091 3.282952 7.502289 24.012633 0.144424 1.253045 0.263614 -0.032438 -931274.000000 0 1 0
22.684091 1.855452 7.829789 24.068990 0.081614 1.239461 0.254677 -0.041391 1177190.000000 0 1 0
23.682991 1.193852 7.020789 24.730564 0.050367 1.282947 0.250071 -0.033765 735469.000000 0 1 0
25.195591 1.606452 7.004789 26.200487 0.063673 1.300151 0.230755 -0.034066 -35559.100000 0 0 1
25.939591 0.989552 7.996189 27.162117 0.038130 1.271982 0.186251 -0.014485 14871.600000 0 0 1
25.748591 1.550452 9.308089 27.423245 0.060142 1.224493 0.184416 -0.023583 -529872.000000 0 0 1
26.660991 0.815152 10.323289 28.601454 0.030565 1.201525 0.133754 -0.013103 168871.000000 0 0 1
28.036591 1.168852 10.259489 29.877646 0.041666 1.220279 0.143704 -0.032202 139680.000000 0 0 1
28.654491 0.394452 11.261789 30.790637 0.013765 1.196354 0.130788 -0.025838 1776040.000000 0 0 1
30.253791 0.505452 11.412789 32.338817 0.016705 1.210114 0.172585 -0.033934 2018360.000000 0 0 1
30.586091 1.825252 11.710989 32.802252 0.059605 1.205723 0.167761 -0.030786 -875919.000000 0 0 1
31.943641 2.050252 11.555889 34.031431 0.064095 1.224342 0.169043 -0.034027 -1051320.000000 0 0 1
32.418961 3.476452 11.973089 34.733695 0.106827 1.218865 0.155385 -0.031607 -735795.000000 0 0 1
33.707041 3.726752 11.506389 35.811315 0.110116 1.243688 0.151407 -0.038409 -534279.000000 0 0 1
34.280611 4.876952 12.036689 36.658243 0.141317 1.236241 0.133924 -0.034436 -444337.000000 0 0 1
35.746391 5.013152 11.633489 37.924586 0.139333 1.259016 0.161601 -0.033576 -241239.000000 0 0 1
36.620331 4.091452 12.292689 38.844547 0.111265 1.248803 0.158856 -0.035609 1067660.000000 0 0 1
38.008251 4.394152 12.056489 40.116014 0.115099 1.265537 0.170203 -0.023990 1375020.000000 0 0 1
-37.106416 3.386852 12.857189 39.416547 -0.091022 1.238529 0.183699 -0.027256 -113936.000000 0 0 1
-37.029786 2.062752 12.302789 39.074527 -0.055648 1.250493 0.172456 -0.027349 223881.000000 0 0 1
37.989571 1.127052 12.584389 40.035541 0.029659 1.251045 0.167860 -0.029187 23824.000000 0 0 1
37.702841 0.749252 14.065189 40.247921 0.019870 1.213798 0.160317 -0.026140 -151670.000000 0 0 1
-37.343476 0.026852 14.729689 40.143489 -0.000719 1.195094 0.137991 -0.024302 91730.800000 0 0 1
-37.769566 -0.154948 16.025189 41.028902 0.004102 1.169532 0.126115 -0.024713 -242633.000000 0 0 1
-36.781436 -0.900548 16.925789 40.498980 0.024479 1.139629 0.122300 -0.011317 -639162.000000 0 0 1
-35.621519 -0.166148 17.100189 39.513753 0.004664 1.123238 0.132812 -0.022692 -972310.000000 0 0 1
-34.526940 -0.735248 17.735589 38.822691 0.021292 1.096362 0.119606 -0.011796 -116289.000000 0 0 1
-34.524874 -0.734648 19.316189 39.567939 0.021276 1.060796 0.094536 -0.020516 59562.200000 0 0 1
-35.428123 -1.704048 19.873189 40.657095 0.048062 1.060083 0.094527 -0.025806 462324.000000 0 0 1
-35.451889 -1.619648 21.287189 41.383622 0.045654 1.030504 0.085576 -0.028940 107344.000000 0 0 1
-36.048606 -2.931948 21.894989 42.278705 0.081155 1.026434 0.083601 -0.024841 -268090.000000 0 0 1
-35.160196 -4.005948 22.011289 41.674739 0.113445 1.014354 0.102791 -0.024701 -319716.000000 0 0 1
-35.682258 -5.233648 22.505559 42.510173 0.145635 1.012884 0.100033 -0.031085 -86772.900000 0 0 1
-35.968296 -5.205048 24.016509 43.561492 0.143714 0.986846 0.099462 -0.040826 13710.900000 0 0 1
-34.758917 -4.952248 24.669769 42.910425 0.141522 0.958298 0.108980 -0.045100 -568236.000000 0 0 1
-34.989809 -4.700848 25.998699 43.844236 0.133549 0.936043 0.112642 -0.060210 -162347.000000 0 0 1
-33.979208 -3.740348 26.651339 43.345942 0.109636 0.908598 0.105582 -0.055876 -224081.000000 0 0 1
-33.969893 -2.356048 26.272199 43.008523 0.069246 0.913650 0.100827 -0.048609 -98460.700000 0 0 1
-33.281736 -2.157748 25.048479 41.710384 0.064742 0.926628 0.088599 -0.042874 -244719.000000 0 0 1
-33.089756 -0.692148 24.858419 41.392657 0.020914 0.926606 0.095362 -0.040224 -669511.000000 0 0 1
-34.306299 -0.051848 24.744989 42.299401 0.001511 0.945921 0.106422 -0.048382 -509771.000000 0 0 1
-34.019720 1.299252 24.400099 41.885490 -0.038173 0.948942 0.109380 -0.030744 -79298.800000 0 0 1
-35.288798 2.074252 24.001849 42.728100 -0.058712 0.974315 0.113732 -0.027082 -121902.000000 0 0 1
-35.710312 1.651752 22.719069 42.356945 -0.046221 1.004664 0.124585 -0.028398 -606920.000000 0 0 1
-36.815986 2.403552 22.321569 43.121298 -0.065193 1.026699 0.139935 -0.022525 -305954.000000 0 0 1
-36.576346 3.766552 21.614089 42.651903 -0.102616 1.039379 0.119329 -0.015630 -223739.000000 0 0 1
-36.015696 3.640752 20.317189 41.511126 -0.100746 1.059349 0.107506 -0.019077 -315152.000000 0 0 1
-36.951076 3.436152 19.294689 41.826716 -0.092725 1.091336 0.135696 -0.031305 -190587.000000 0 0 1
-36.323866 2.838252 18.033489 40.653237 -0.077979 1.111193 0.152074 -0.023547 -412446.000000 0 0 1
-35.492713 3.695052 17.345389 39.676802 -0.103734 1.118350 0.146427 -0.028065 -453778.000000 0 0 1
-34.904927 3.080852 16.247089 38.624001 -0.088036 1.136637 0.165269 -0.023389 -445941.000000 0 0 1
-34.063149 3.996552 15.380189 37.587508 -0.116794 1.149237 0.158444 -0.024493 259079.000000 0 0 1
-34.807121 5.019552 14.662389 38.101407 -0.143223 1.175778 0.179570 -0.027857 200645.000000 0 0 1
-33.872116 5.858752 14.058589 37.138782 -0.171272 1.182576 0.187927 -0.026360 -86568.800000 0 0 1
-34.439207 7.096052 13.327889 37.603797 -0.203202 1.208493 0.207744 -0.029981 471439.000000 0 0 1
-33.344156 7.848052 12.777689 36.560826 -0.231158 1.213768 0.225146 -0.024267 429363.000000 0 0 1
-33.722946 8.973852 12.113589 36.939223 -0.260078 1.236682 0.207884 -0.026527 -568049.000000 0 0 1
-32.726266 9.671752 11.175689 35.908875 -0.287355 1.254316 0.223286 -0.026758 -365598.000000 0 0 1
-33.158486 10.850252 10.537289 36.445132 -0.316242 1.277481 0.180353 -0.004693 -387585.000000 0 0 1
-32.211946 11.402452 9.665189 35.511143 -0.340218 1.295145 0.193716 -0.027764 -249012.000000 0 0 1
-32.422856 12.897452 9.428789 36.145372 -0.378599 1.306886 0.153814 -0.013213 14949.100000 0 0 1
-31.691826 13.447552 8.359689 35.427290 -0.401297 1.332582 0.170111 -0.021327 -18614.700000 0 0 1
-31.765216 14.869552 8.545089 36.099184 -0.437810 1.331817 0.147039 -0.020133 225119.000000 0 0 1
-30.898506 15.673152 7.524889 35.454045 -0.469428 1.356926 0.161702 -0.023824 -482441.000000 0 0 1
-29.522976 15.710152 7.718089 34.321770 -0.489022 1.343982 0.202351 -0.019658 -781330.000000 0 0 1
-28.917296 16.680052 6.896489 34.088058 -0.523200 1.367076 0.188828 -0.049497 502529.000000 0 0 1
-27.413486 16.881252 7.281189 33.007448 -0.551957 1.348375 0.203139 -0.030977 217435.000000 0 0 1
-27.191606 17.256752 8.579889 33.328568 -0.565498 1.310431 0.179008 -0.029225 48969.400000 0 0 1
-27.350506 18.619252 8.969289 34.280824 -0.597699 1.306074 0.179255 -0.046235 -135675.000000 0 0 1
-27.426026 18.671752 10.524589 34.807876 -0.597726 1.263626 0.187717 -0.022495 -202424.000000 0 0 1
-26.182946 18.545952 11.159989 33.971228 -0.616289 1.236068 0.177770 -0.023086 -220824.000000 0 0 1
-26.216846 18.855052 12.519589 34.634897 -0.623493 1.200949 0.186183 -0.027926 -95819.400000 0 0 1
-26.782116 17.847352 13.524689 34.910270 -0.587811 1.172973 0.153292 -0.015118 -320925.000000 0 0 1
-25.799536 17.014552 14.052289 33.949637 -0.583018 1.144045 0.159723 -0.023271 -62285.000000 0 0 1
-26.315006 16.103052 14.993089 34.301320 -0.549148 1.118425 0.144000 -0.022554 182338.000000 0 0 1
-25.186256 15.118152 15.383989 33.159812 -0.540606 1.088365 0.155692 -0.020719 -16884.300000 0 0 1
-24.163406 15.639252 16.148789 33.003633 -0.574425 1.059506 0.144238 -0.008275 -90875.200000 0 0 1
-23.111806 14.760752 16.585589 32.048668 -0.568367 1.026855 0.122311 -0.026974 593552.000000 0 0 1
-23.422006 13.740852 17.701789 32.415347 -0.530556 0.993103 0.129060 -0.020075 -403305.000000 0 0 1
-23.314406 14.357952 18.942489 33.294597 -0.551985 0.965585 0.120024 -0.016936 7561.050000 0 0 1
-23.437106 13.348752 19.902689 33.520205 -0.517734 0.935083 0.102902 -0.020854 -149138.000000 0 0 1
-22.751806 13.521652 21.302889 33.974885 -0.536226 0.893076 0.102756 -0.017029 1446830.000000 0 0 1
-21.319406 13.690252 21.408389 33.170155 -0.570837 0.869235 0.130381 -0.019402 1207950.000000 0 0 1
-20.848606 15.051452 21.215889 33.336534 -0.625300 0.880954 0.123860 0.000064 -483922.000000 0 0 1
-19.451306 15.390552 21.759589 32.995486 -0.669373 0.850681 0.117710 -0.013980 -4367.200000 0 0 1
-18.438506 14.837052 20.957089 31.611963 -0.677587 0.846047 0.100067 -0.013393 -204317.000000 0 0 1
-17.918106 15.725852 19.947389 31.084711 -0.720330 0.874070 0.097861 -0.019532 -462394.000000 0 0 1
-16.723406 14.997252 19.195689 29.547662 -0.731034 0.863670 0.100599 -0.010769 1144000.000000 0 0 1
-15.606306 14.726452 20.038889 29.359534 -0.756400 0.819572 0.095249 -0.010414 740791.000000 0 0 1
-14.840306 15.860152 20.564189 29.910951 -0.818605 0.812737 0.077470 -0.009000 -787468.000000 0 0 1
-13.797806 15.561952 21.631289 30.007773 -0.845413 0.765759 0.063773 -0.015124 -502361.000000 0 0 1
-12.622206 15.087252 21.008289 28.780088 -0.874125 0.752534 0.040734 -0.009390 -693146.000000 0 0 1
-11.825606 14.542552 21.998289 28.900787 -0.888075 0.705688 0.037457 -0.006375 -205025.000000 0 0 1
-10.575706 13.748652 21.569589 27.678839 -0.915109 0.677279 0.042733 -0.005683 -624190.000000 0 0 1
-10.108106 12.904152 22.650419 27.959478 -0.906308 0.626446 0.046644 -0.010729 363378.000000 0 0 1
-8.831706 12.322152 22.476869 27.111696 -0.948927 0.593395 0.058474 0.002664 1214560.000000 0 0 1
-7.546506 13.235352 22.329319 27.031884 -1.052593 0.598758 0.053359 0.003716 140073.000000 0 0 1
-7.361606 13.879152 21.077589 26.288569 -1.083120 0.640532 0.045943 -0.003943 8165.020000 0 0 1
-6.603806 15.101252 21.154589 26.817432 -1.158552 0.661882 0.052369 -0.005279 -39875.900000 0 0 1
-7.320806 16.332452 21.805489 28.210326 -1.149410 0.687301 0.055441 0.000917 666526.000000 0 0 1
-8.480306 16.737652 21.052789 28.200789 -1.101835 0.727962 0.011368 -0.010190 61862.000000 0 0 1
-8.213406 17.493852 19.847389 27.702233 -1.131843 0.772090 0.034059 -0.017250 -1035650.000000 0 0 1
-9.413806 17.710152 18.896289 27.556105 -1.082230 0.815178 0.045763 -0.020550 379483.000000 0 0 1
-10.448806 18.604952 19.288889 28.764266 -1.059080 0.835799 0.028680 -0.017006 283564.000000 0 0 1
-11.269106 18.034352 20.342189 29.428477 -1.012291 0.807590 0.026644 -0.005356 -90655.900000 0 0 1
-12.592606 18.872952 20.492489 30.572931 -0.982404 0.836207 0.025854 -0.009142 429664.000000 0 0 1
-13.409606 18.836052 19.358389 30.155623 -0.952121 0.873758 0.031376 -0.009395 -537054.000000 0 0 1
-14.600406 19.535152 19.555589 31.260439 -0.928967 0.894935 0.020221 -0.009979 -240602.000000 0 0 1
-15.521406 19.689852 18.331389 31.058721 -0.903234 0.939469 0.043981 -0.006411 -91564.800000 0 0 1
-16.069606 18.459452 17.931789 30.340281 -0.854501 0.938470 0.064661 -0.006715 303918.000000 0 0 1
-16.880106 18.595652 16.751389 30.188496 -0.833719 0.982562 0.089830 -0.014896 -503347.000000 0 0 1
-17.392106 17.224652 16.205989 29.356568 -0.780561 0.985988 0.089336 -0.022102 339476.000000 0 0 1
-18.466606 16.635452 16.931689 30.073841 -0.733279 0.972780 0.097880 -0.016797 -240271.000000 0 0 1
-19.699606 17.250752 16.687589 31.050580 -0.719221 1.003407 0.107768 -0.016830 -823051.000000 0 0 1
36.030931 -9.205048 11.320721 38.873122 -0.250126 1.275292 0.108372 -0.043204 -885120.000000 0 0 1
34.699771 -9.597048 11.299121 37.733905 -0.269829 1.266688 0.093621 -0.033001 -384772.000000 0 0 1
34.671781 -10.830248 11.968021 38.244741 -0.302762 1.252517 0.084585 -0.031985 315979.000000 0 0 1
33.210631 -11.280248 12.243421 37.149581 -0.327432 1.234947 0.109645 -0.027145 275965.000000 0 0 1
32.404081 -10.442348 13.070121 36.467727 -0.311746 1.204240 0.111682 -0.017877 569465.000000 0 0 1
31.022191 -10.758648 13.008921 35.317940 -0.333826 1.193576 0.116576 -0.030060 321023.000000 0 0 1
30.366891 -11.887648 13.824621 35.420113 -0.373129 1.169834 0.112025 -0.014906 -1124290.000000 0 0 1
30.303591 -11.543548 15.207021 35.816401 -0.363959 1.132296 0.130378 -0.012509 413969.000000 0 0 1
29.172991 -11.978348 15.964121 35.346816 -0.389608 1.102191 0.137272 -0.012412 249008.000000 0 0 1
27.797691 -11.471848 15.525921 33.843303 -0.391399 1.094198 0.148666 -0.037920 -813490.000000 0 0 1
27.750091 -10.100048 15.809621 33.496606 -0.349061 1.079265 0.143326 -0.025993 65048.700000 0 0 1
26.791591 -9.441848 14.973821 32.111573 -0.338828 1.085686 0.168276 -0.033464 430938.000000 0 0 1
26.506991 -7.948648 15.372421 31.656167 -0.291337 1.063740 0.191254 -0.035342 -275302.000000 0 0 1
27.629591 -7.140948 15.314321 32.386970 -0.252918 1.078269 0.168389 -0.024453 -711535.000000 0 0 1
27.280491 -5.853948 15.699021 32.014889 -0.211378 1.058286 0.160900 -0.014692 170211.000000 0 0 1
28.398791 -4.791748 15.965021 32.929228 -0.167156 1.064630 0.167100 -0.009353 216249.000000 0 0 1
28.927191 -4.349348 14.716921 32.745793 -0.149237 1.104670 0.173938 -0.018687 298332.000000 0 0 1
30.214691 -3.777248 14.839321 33.873302 -0.124368 1.117331 0.159123 -0.013541 281501.000000 0 0 1
30.741091 -3.163248 13.474521 33.713254 -0.102539 1.159628 0.158896 -0.030723 91119.600000 0 0 1
30.974791 -4.129948 12.471321 33.645623 -0.132551 1.191069 0.146059 -0.034721 242934.000000 0 0 1
31.399521 -3.478648 11.271721 33.542251 -0.110337 1.228081 0.149860 -0.049123 24880.600000 0 0 1
31.685321 -4.352848 10.071421 33.531185 -0.136523 1.265726 0.154566 -0.043676 809825.000000 0 0 1
32.964961 -5.015348 10.093121 34.838390 -0.150984 1.276870 0.163790 -0.045997 761841.000000 0 0 1
33.303191 -5.660448 8.904521 34.934706 -0.168358 1.313062 0.153671 -0.047930 -190295.000000 0 0 1
34.712531 -6.291648 8.969321 36.400458 -0.179304 1.321825 0.139798 -0.045462 537252.000000 0 0 1
35.764361 -5.322048 8.859221 37.227671 -0.147725 1.330517 0.132212 -0.048112 452312.000000 0 0 1
37.052461 -5.907148 8.808621 38.540512 -0.158096 1.340203 0.155059 -0.055301 303494.000000 0 0 1
-37.884756 -4.901148 8.501521 39.135047 0.128655 1.351815 0.161070 -0.057529 35086.900000 0 0 1
-37.794916 -4.689748 7.108121 38.742416 0.123453 1.386280 0.171040 -0.055965 -107324.000000 0 0 1
-36.633306 -3.964948 6.805821 37.470510 0.107814 1.388151 0.187271 -0.040765 -150454.000000 0 0 1
-36.629066 -3.351448 5.382621 37.173826 0.091243 1.425490 0.184665 -0.051113 105321.000000 0 0 1
-35.997166 -4.159548 4.375521 36.499904 0.115042 1.450630 0.225349 -0.070484 365971.000000 0 0 1
-36.124736 -3.521848 3.076621 36.426166 0.097184 1.486234 0.235112 -0.063427 588635.000000 0 0 1
-35.435633 -4.410048 1.906821 35.759874 0.123816 1.517448 0.325268 -0.070663 611089.000000 0 0 1
-36.180126 -5.633948 1.760421 36.658451 0.154479 1.522756 0.286103 -0.062760 745720.000000 0 0 1
-37.062566 -5.693848 0.620021 37.502509 0.152436 1.554263 0.241832 -0.057596 492394.000000 0 0 1
-36.307486 -5.904048 -0.755879 36.792156 0.161201 1.591342 0.304681 -0.066469 -291399.000000 0 0 1
-35.697314 -7.201848 -0.850679 36.426481 0.199075 1.594152 0.313033 -0.085104 537875.000000 0 0 1
-34.850233 -7.398748 -1.979379 35.681902 0.209195 1.626298 0.289466 -0.077828 -12784.600000 0 0 1
-33.474716 -6.673148 -1.936979 34.188294 0.196769 1.627483 0.265747 -0.072973 -254549.000000 0 0 1
-32.601916 -7.310348 -0.980279 33.425845 0.220582 1.600128 0.276000 -0.075952 252012.000000 0 0 1
-31.530856 -6.438848 -0.646879 32.188074 0.201438 1.590895 0.278381 -0.073292 -36413.500000 0 0 1
-30.606776 -7.100448 0.383721 31.421941 0.227957 1.558584 0.244129 -0.063223 -414849.000000 0 0 1
-30.034356 -8.233548 -0.209079 31.143179 0.267564 1.577510 0.217890 -0.041380 -315316.000000 0 0 1
-29.115666 -8.871148 0.591421 30.442882 0.295751 1.551368 0.255163 -0.055887 -553651.000000 0 0 1
-28.701396 -10.258548 0.087221 30.479757 0.343273 1.567935 0.190320 -0.037656 -32389.900000 0 0 1
-28.112736 -10.128448 -1.194779 29.905500 0.345803 1.610759 0.169832 -0.036451 -137023.000000 0 0 1
-27.615526 -11.283948 -1.783679 29.885219 0.387906 1.630516 0.150991 -0.018261 -514937.000000 0 0 1
-28.516916 -12.277948 -2.530979 31.150737 0.406562 1.652135 0.141850 -0.018250 -448389.000000 0 0 1
-29.255786 -13.130448 -1.640179 32.109187 0.421868 1.621900 0.184544 -0.031927 625279.000000 0 0 1
-29.780756 -14.251248 -2.365479 33.099653 0.446332 1.642323 0.146827 -0.018709 -349151.000000 0 0 1
-30.962446 -15.003548 -1.711979 34.448664 0.451230 1.620513 0.194743 -0.023581 -112887.000000 0 0 1
-30.477916 -15.598848 -0.524179 34.241820 0.473050 1.586105 0.168364 -0.017800 470419.000000 0 0 1
-31.416326 -16.351248 0.235421 35.417571 0.479889 1.564149 0.173484 -0.019552 257107.000000 0 0 1
-32.015916 -17.687048 -0.359779 36.578409 0.504719 1.580632 0.167386 -0.020787 -26842.700000 0 0 1
-31.105746 -18.762848 -0.375979 36.328409 0.542766 1.581146 0.213315 -0.035353 140357.000000 0 0 1
-31.690116 -20.036148 -0.243179 37.493598 0.563797 1.577282 0.176850 -0.039973 -17993.700000 0 0 1
-32.578336 -20.454148 0.931321 38.478404 0.560643 1.546590 0.151233 -0.037893 -425291.000000 0 0 1
-31.826686 -20.856548 2.022921 38.105456 0.580103 1.517684 0.142094 -0.032732 -44607.800000 0 0 1
-32.659056 -21.369148 3.045321 39.147522 0.579399 1.492927 0.106308 -0.024647 98391.300000 0 0 1
-31.854176 -21.726248 4.296121 38.796586 0.598579 1.459834 0.106170 -0.024871 296353.000000 0 0 1
-31.342316 -20.547148 4.940721 37.801281 0.580282 1.439719 0.094481 -0.021567 -433468.000000 0 0 1
-30.382186 -20.808248 5.902421 37.294759 0.600508 1.411864 0.099171 -0.024700 -271928.000000 0 0 1
-29.961196 -19.545348 6.630421 36.382089 0.578029 1.387528 0.100801 -0.019279 -78486.700000 0 0 1
-28.948246 -19.704148 7.589321 35.830884 0.597633 1.357370 0.098770 -0.020148 -328812.000000 0 0 1
-28.714616 -18.534848 8.312721 35.173444 0.573195 1.332204 0.112485 -0.028336 217257.000000 0 0 1
-27.558536 -18.544348 9.343221 34.505964 0.592311 1.296602 0.135663 -0.028287 43865.900000 0 0 1
-27.865496 -19.324548 10.428321 35.477795 0.606346 1.272451 0.122334 -0.032185 573059.000000 0 0 1
-26.780276 -19.376548 11.387321 34.961478 0.626349 1.239033 0.113547 -0.024192 734485.000000 0 0 1
-26.530026 -18.118048 12.223721 34.373323 0.599175 1.207223 0.097674 -0.029390 -707127.000000 0 0 1
-25.840786 -17.129248 11.487021 33.062200 0.585374 1.215960 0.105888 -0.028873 166441.000000 0 0 1
-25.419576 -15.928748 12.176221 32.374994 0.559773 1.185213 0.099033 -0.020232 -34812.900000 0 0 1
-24.474506 -16.086848 13.381621 32.200247 0.581483 1.142221 0.076617 -0.016531 -574584.000000 0 0 1
-25.040996 -16.650148 14.537221 33.400745 0.586789 1.120495 0.072248 -0.033341 -628032.000000 0 0 1
-24.137706 -16.805948 15.563521 33.275997 0.608207 1.084098 0.075108 -0.032248 -784164.000000 0 0 1
-24.696506 -17.671748 16.690321 34.652200 0.621091 1.068257 0.053994 -0.010039 -121273.000000 0 0 1
-25.596496 -16.843348 17.389421 35.231676 0.582002 1.054602 0.063238 -0.014039 -438342.000000 0 0 1
-26.424026 -17.642348 18.184121 36.607976 0.588692 1.050974 0.055731 -0.000350 -533806.000000 0 0 1
-27.513076 -16.768448 18.836121 37.322241 0.547355 1.041775 0.075085 0.001606 -158413.000000 0 0 1
-26.956946 -15.926648 19.831821 37.062599 0.533641 1.006182 0.064297 -0.007600 -28359.700000 0 0 1
-28.013696 -15.144848 20.358121 37.796649 0.495615 1.001995 0.076117 -0.016130 2288.380000 0 0 1
-27.574066 -14.440048 21.633921 37.906077 0.482413 0.963409 0.080326 -0.019611 231550.000000 0 0 1
-26.530266 -13.506548 21.381421 36.653063 0.470901 0.947954 0.074080 -0.019835 390696.000000 0 0 1
-25.832636 -13.052048 22.553021 36.692231 0.467842 0.908849 0.062830 -0.015702 485894.000000 0 0 1
-24.491706 -12.365148 22.113421 35.238388 0.467537 0.892410 0.062331 -0.015076 261145.000000 0 0 1
-24.544906 -11.128848 21.484921 34.466005 0.425684 0.897757 0.080288 -0.017038 -300573.000000 0 0 1
-23.375206 -10.938448 20.758421 33.120416 0.437681 0.893413 0.093269 -0.023759 -863679.000000 0 0 1
-22.691206 -9.567448 20.911721 32.306764 0.399019 0.866778 0.105371 -0.021152 -173119.000000 0 0 1
-22.141606 -9.331948 22.161621 32.687512 0.398874 0.825779 0.115374 -0.025333 -50063.300000 0 0 1
-20.771306 -9.650448 22.178121 31.881772 0.434933 0.801491 0.082199 -0.027578 -435928.000000 0 0 1
-20.072106 -9.634248 23.546321 32.405824 0.447505 0.757425 0.091140 -0.024982 -33596.000000 0 0 1
-20.594506 -10.638548 24.378321 33.639485 0.476817 0.760207 0.096157 -0.024516 70309.100000 0 0 1
-20.080506 -10.547548 25.709821 34.285163 0.483653 0.722913 0.102266 -0.028744 -492518.000000 0 0 1
-20.203206 -11.918048 26.566721 35.440092 0.532966 0.723303 0.093652 -0.033890 241910.000000 0 0 1
-21.388506 -12.066348 27.316721 36.732386 0.513643 0.732255 0.097097 -0.023305 867.278000 0 0 1
-22.559706 -12.424748 26.591021 37.018875 0.503419 0.769426 0.084359 -0.021445 693337.000000 0 0 1
-23.833006 -12.700248 27.457721 38.512789 0.489608 0.777099 0.074956 -0.018393 360909.000000 0 0 1
-23.874306 -13.759448 28.357921 39.540822 0.522832 0.771048 0.069864 -0.015961 332155.000000 0 0 1
-22.844406 -13.774748 29.395321 39.695031 0.542609 0.736939 0.055235 -0.011872 750870.000000 0 0 1
-23.018706 -14.892448 30.464721 40.984693 0.574243 0.732777 0.041534 -0.019238 -263660.000000 0 0 1
-22.888906 -16.236148 29.963321 41.052590 0.616971 0.752655 0.040136 -0.017247 -68345.600000 0 0 1
-23.198706 -17.206248 30.958421 42.339801 0.638161 0.750732 0.033051 -0.020403 543576.000000 0 0 1
-24.671706 -17.508048 31.415521 43.613757 0.617167 0.766544 0.066982 -0.023231 441392.000000 0 0 1
-25.227006 -16.569448 32.275321 44.188741 0.581150 0.751893 0.079209 -0.029169 -304520.000000 0 0 1
-26.516156 -17.021548 32.642821 45.369521 0.570682 0.767732 0.081700 -0.030093 -114963.000000 0 0 1
-27.353656 -16.056648 33.508821 46.139783 0.530807 0.757952 0.077784 -0.031032 122791.000000 0 0 1
-26.963006 -15.884548 -32.511247 45.125423 0.532384 2.375268 0.087970 -0.033283 -152322.000000 0 0 1
-27.834886 -14.932648 -31.919147 44.906534 0.492398 2.361418 0.079808 -0.017527 -200005.000000 0 0 1
-27.572356 -14.553348 -30.456647 43.584884 0.485658 2.344500 0.062434 -0.010688 -150719.000000 0 0 1
-27.822636 -15.611448 -29.518647 43.464548 0.511330 2.317391 0.074896 -0.003873 228006.000000 0 0 1
-27.103176 -15.346648 -28.306847 42.087758 0.515219 2.308469 0.077312 0.000110 169440.000000 0 0 1
-27.776306 -15.852548 -26.993647 41.850728 0.518613 2.271817 0.084409 0.000429 209349.000000 0 0 1
-28.852116 -15.074648 -26.478147 41.961672 0.481469 2.253648 0.107649 -0.003790 250948.000000 0 0 1
-28.575026 -13.755248 -25.937847 40.969634 0.448635 2.256347 0.101067 -0.007481 -220959.000000 0 0 1
-27.664306 -13.679148 -24.649047 39.496942 0.459213 2.244743 0.098229 -0.017672 826142.000000 0 0 1
-26.295236 -13.897748 -24.961047 38.828350 0.486208 2.269018 0.072646 -0.021540 598025.000000 0 0 1
-25.376826 -13.931548 -23.878747 37.526869 0.502065 2.260503 0.070444 -0.021441 244577.000000 0 0 1
-24.601006 -15.263048 -23.763447 37.454927 0.555302 2.258099 0.060701 -0.020382 -499922.000000 0 0 1
-23.669706 -15.467248 -24.789847 37.603554 0.578805 2.290607 0.064554 -0.012932 -126297.000000 0 0 1
-23.200106 -16.779248 -24.932047 37.965709 0.626154 2.287230 0.086700 -0.016582 -136069.000000 0 0 1
-22.388706 -17.006348 -26.220747 38.444735 0.649614 2.321341 0.073567 -0.020764 65363.200000 0 0 1
-23.093906 -17.102348 -27.486147 39.765652 0.637430 2.333949 0.080082 -0.017781 285625.000000 0 0 1
-23.858106 -18.297148 -27.557447 40.784896 0.654239 2.312680 0.084663 -0.025182 183778.000000 0 0 1
-24.890006 -18.352648 -28.719547 42.203608 0.635356 2.319241 0.082003 -0.018850 -83105.300000 0 0 1
-24.186406 -18.575748 -29.891947 42.703269 0.654937 2.346183 0.082149 -0.022254 195742.000000 0 0 1
-24.977526 -18.425348 -31.074747 43.920498 0.635568 2.356783 0.066888 -0.015779 51579.300000 0 0 1
-24.264406 -18.690148 -32.495547 44.654716 0.656348 2.385769 0.067277 -0.025777 184552.000000 0 0 1
-23.189106 -17.821948 -32.863647 43.992906 0.655267 2.414367 0.061780 -0.019270 1082160.000000 0 0 1
-21.860006 -18.112348 -32.414347 43.088362 0.691915 2.422306 0.069070 -0.027545 486233.000000 0 0 1
-21.186806 -19.245148 -33.168647 43.811136 0.737412 2.429632 0.054076 -0.023206 -1190410.000000 0 0 1
-20.963406 -18.826048 32.914921 43.327549 0.731733 0.707981 0.040921 -0.022878 -6642.840000 0 0 1
-20.473206 -19.918248 32.136721 42.996019 0.771660 0.726604 0.038607 -0.019203 -416043.000000 0 0 1
-21.536106 -20.798048 31.494021 43.453838 0.767966 0.760096 0.037481 -0.017418 -202429.000000 0 0 1
-22.334406 -21.541248 32.427721 44.882159 0.767323 0.763373 0.035721 -0.012722 1078480.000000 0 0 1
-23.564406 -22.055648 31.853221 45.347112 0.752338 0.791989 0.044813 -0.003528 816270.000000 0 0 1
-23.435406 -23.227348 30.894021 45.201422 0.780939 0.818284 0.057753 0.001548 -604860.000000 0 0 1
-23.030906 -24.424648 31.506221 46.039418 0.814759 0.817110 0.061333 0.007290 2849.670000 0 0 1
-23.078106 -25.503628 30.549621 46.003406 0.835283 0.844543 0.082435 0.011884 -129417.000000 0 0 1
-22.686006 -26.820198 31.293521 47.045323 0.868713 0.843064 0.101488 -0.003583 -515540.000000 0 0 1
-23.638806 -27.336108 32.147221 48.368376 0.857803 0.843794 0.092191 -0.005259 -519335.000000 0 0 1
-23.091706 -28.256008 33.097521 49.265351 0.885636 0.834131 0.100635 -0.013924 -349349.000000 0 0 1
-24.165006 -29.042608 -33.499247 50.493764 0.876814 2.296194 0.106920 -0.013286 -77775.200000 0 0 1
-25.051106 -29.718588 32.988121 50.980080 0.870413 0.867050 0.093881 -0.012651 770529.000000 0 0 1
-26.244916 -29.045148 32.606221 50.946854 0.836001 0.876292 0.086552 -0.009392 -174340.000000 0 0 1
-27.311376 -28.772668 33.680521 52.039939 0.811448 0.866884 0.052124 -0.012737 -927968.000000 0 0 1
-28.449736 -28.155508 33.132921 51.960664 0.780200 0.879347 0.043725 -0.003249 -328325.000000 0 0 1
-29.136176 -27.381288 -33.360047 52.072492 0.754358 2.266136 0.043412 -0.005968 -156333.000000 0 0 1
-30.302506 -26.560498 33.452821 52.371683 0.719685 0.877914 0.042116 -0.013924 793207.000000 0 0 1
-31.509846 -27.343188 33.266321 53.358865 0.714718 0.897655 0.040818 -0.017661 759150.000000 0 0 1
-32.493436 -26.500618 32.648221 53.141439 0.684162 0.909216 0.043839 -0.027358 120713.000000 0 0 1
