# x y z rho theta phi s1 s2 stress_xx np intf bulk
-0.740376 -10.781190 -14.304156 17.927384 1.502231 2.494590 0.002004 -0.003673 -974520.000000 1 0 0
2.127024 -13.360090 -12.933156 18.715842 -1.412914 2.333706 0.008935 -0.008927 -554639.000000 1 0 0
2.160524 -11.152790 -14.705956 18.582727 -1.379446 2.483856 0.007604 0.000057 1164830.000000 1 0 0
-5.585776 -6.289690 -16.388356 18.421165 0.844603 2.667371 0.021151 -0.009344 -83417.600000 1 0 0
4.511724 -14.019590 -11.406756 18.628436 -1.259447 2.229801 0.011527 -0.008404 -453943.000000 1 0 0
14.045824 -10.770590 -7.836856 19.357352 -0.654178 1.987613 0.070042 -0.023022 179750.000000 1 0 0
7.215224 10.768910 -10.877756 16.922011 0.980486 2.268966 0.039214 -0.012784 -217498.000000 1 0 0
5.705224 -4.180590 -12.498556 14.361087 -0.632379 2.626622 0.001090 -0.003698 1380290.000000 1 0 0
13.698424 0.470210 -9.957756 16.941807 0.034312 2.199087 0.019350 -0.001982 1421220.000000 1 0 0
13.978324 4.953910 -10.339156 18.078521 0.340589 2.179620 0.011711 -0.006540 -1416250.000000 1 0 0
4.096324 4.245910 -13.555656 14.783891 0.803328 2.731091 0.004461 0.003761 3246260.000000 1 0 0
10.346924 -5.027890 -13.627956 17.834228 -0.452329 2.440513 0.030550 -0.006890 -642058.000000 1 0 0
2.509124 -7.626390 -11.979356 14.420905 -1.252946 2.551149 -0.001346 -0.000342 2240810.000000 1 0 0
-5.590076 -2.019090 -15.079256 16.208320 0.346610 2.766137 0.012813 -0.011585 532893.000000 1 0 0
10.683324 -0.046590 -9.600756 14.363499 -0.004361 2.302870 0.006700 -0.000271 1448540.000000 1 0 0
-1.629076 -9.672590 -16.842556 19.490628 1.403940 2.614228 0.018086 -0.004411 2262320.000000 1 0 0
8.548724 1.744710 -18.050156 20.048263 0.201325 2.691335 0.027983 -0.005133 -2146830.000000 1 0 0
16.567124 -5.913690 -8.692556 19.621464 -0.342856 2.029753 0.097468 -0.017495 -475799.000000 1 0 0
10.129524 7.502410 -9.873256 16.011702 0.637489 2.235248 0.022742 -0.003163 1221100.000000 1 0 0
13.896924 -2.389890 -10.507356 17.585238 -0.170307 2.211189 0.042146 -0.009364 -629636.000000 1 0 0
7.200224 -1.932890 -13.643456 15.547449 -0.262265 2.641497 0.007577 -0.004372 2347850.000000 1 0 0
-2.808976 6.576310 -13.809156 15.550916 -1.167118 2.663766 0.008979 -0.007476 304794.000000 1 0 0
11.237424 1.621210 -13.933756 17.973803 0.143280 2.457869 0.014649 -0.002589 640181.000000 1 0 0
-2.218776 10.728210 -12.932056 16.948615 -1.366855 2.438762 0.015815 -0.006958 -2378580.000000 1 0 0
2.784724 -1.142790 -15.221756 15.516524 -0.389421 2.946362 0.001706 -0.002839 770807.000000 1 0 0
-9.092376 0.483510 -15.194456 17.713740 -0.053128 2.601727 0.020921 -0.006377 -935169.000000 1 0 0
2.448524 -1.908690 -17.982956 18.248975 -0.662132 2.970638 0.020597 -0.012518 1618680.000000 1 0 0
1.062824 7.838610 -13.243656 15.426206 1.436030 2.603166 0.006550 -0.005975 2394730.000000 1 0 0
9.384824 -9.059390 -9.821756 16.328330 -0.767756 2.216194 0.030871 -0.010788 -200396.000000 1 0 0
3.971824 7.223310 -13.584956 15.890331 1.068059 2.596192 0.009796 -0.003474 473306.000000 1 0 0
-2.716276 9.096610 -15.517656 18.191320 -1.280622 2.592551 0.006248 -0.005124 595908.000000 1 0 0
5.561824 -7.522490 -15.172856 17.825187 -0.934140 2.589070 0.013853 -0.008574 308450.000000 1 0 0
4.262424 7.267210 -16.411556 18.447758 1.040341 2.667316 0.016691 -0.000629 -291066.000000 1 0 0
-0.238576 5.096510 -13.469156 14.403108 -1.524019 2.779496 0.008724 -0.006690 1721320.000000 1 0 0
8.885824 4.281610 -16.570356 19.283847 0.449020 2.604670 0.032544 -0.009337 1058150.000000 1 0 0
5.286924 0.218610 -14.327656 15.273542 0.041326 2.787814 -0.002354 0.002636 -510392.000000 1 0 0
6.337824 7.877210 -11.678356 15.446762 0.893271 2.428037 0.007118 -0.003230 -86727.800000 1 0 0
2.763624 -8.344090 -14.970956 17.360616 -1.250960 2.610693 0.006292 -0.004629 -659333.000000 1 0 0
4.249724 11.348110 -13.911056 18.448774 1.212475 2.424983 0.033478 -0.020257 -1042260.000000 1 0 0
0.573224 -4.630090 -13.693256 14.466222 -1.447619 2.813217 0.004261 -0.003243 26138.800000 1 0 0
8.479124 -0.135890 -11.666056 14.422582 -0.016025 2.513031 -0.000166 -0.000070 449647.000000 1 0 0
-0.928176 -5.202190 -16.218456 17.057626 1.394234 2.826617 0.011025 -0.008044 -1064450.000000 1 0 0
4.422524 0.813110 -11.655956 12.493245 0.181826 2.773404 0.001028 0.001265 495839.000000 1 0 0
-2.932376 -7.287490 -15.582956 17.450927 1.188236 2.674672 0.004148 -0.004382 2003100.000000 1 0 0
11.415324 -3.828290 -11.248156 16.476845 -0.323577 2.322199 0.025546 -0.009049 864602.000000 1 0 0
6.487124 -7.008690 -12.434756 15.678892 -0.824025 2.486660 0.012402 -0.004874 -1362710.000000 1 0 0
3.311424 -4.072290 -14.560656 15.477783 -0.888082 2.795619 0.004878 -0.004111 2394850.000000 1 0 0
-0.548576 -1.631190 -18.257656 18.338586 1.246374 3.047611 0.028783 -0.017831 2134880.000000 1 0 0
14.847724 2.923010 -8.408856 17.312070 0.194380 2.077985 0.015537 -0.006748 -746137.000000 1 0 0
6.878124 4.253710 -14.315756 16.442126 0.553868 2.627370 0.005751 0.002965 1891680.000000 1 0 0
10.341024 -9.637490 -13.872356 19.805561 -0.750198 2.346792 0.067496 -0.023270 -48953.700000 1 0 0
9.039824 -3.303490 -15.539156 18.278316 -0.350361 2.587050 0.034191 -0.014554 -225996.000000 1 0 0
-5.429176 -2.191990 -18.001456 18.929691 0.383729 2.827134 0.009714 -0.004026 -708939.000000 1 0 0
4.979024 -9.106690 -11.103156 15.198768 -1.070457 2.389894 -0.001063 -0.002409 2261200.000000 1 0 0
-2.402376 3.883410 -17.105456 17.704489 -1.016794 2.880719 0.013790 -0.003581 1877110.000000 1 0 0
9.718924 9.230010 -14.457956 19.715047 0.759602 2.394027 0.067029 -0.019174 -1500900.000000 1 0 0
9.911124 9.897510 -11.560956 18.161685 0.784711 2.260823 0.040009 -0.016734 110203.000000 1 0 0
12.061024 -5.978990 -9.580456 16.522765 -0.460224 2.189321 0.035704 -0.011169 -491291.000000 1 0 0
8.166524 6.896810 -13.747556 17.414173 0.701305 2.480703 0.011114 -0.001812 664827.000000 1 0 0
4.091024 -4.196390 -17.488556 18.444396 -0.798111 2.818246 0.020158 -0.010592 -649254.000000 1 0 0
9.315124 -7.459790 -12.306256 17.142460 -0.675244 2.371551 0.037642 -0.012158 1079290.000000 1 0 0
12.002124 -8.783690 -8.794756 17.278655 -0.631780 2.104814 0.053264 -0.019260 914528.000000 1 0 0
-2.935176 -2.551690 -13.821156 14.357950 0.715620 2.867287 0.008558 -0.005618 -1461140.000000 1 0 0
-0.362376 6.105910 -17.692856 18.720326 -1.511517 2.808742 0.013467 -0.001780 801882.000000 1 0 0
1.173624 -8.526390 -17.461156 19.467118 -1.434010 2.683633 0.016633 -0.007208 2085370.000000 1 0 0
0.028924 8.458310 -15.961456 18.064106 1.567377 2.654293 0.003121 -0.004738 -841686.000000 1 0 0
1.710424 3.390810 -15.052956 15.524646 1.103612 2.894455 0.010477 -0.001026 1571720.000000 1 0 0
-1.930676 -0.533490 -15.741556 15.868482 0.269595 3.015028 0.014949 -0.009798 1225080.000000 1 0 0
14.213624 -4.404390 -8.424356 17.099577 -0.300488 2.085945 0.047922 -0.007613 220117.000000 1 0 0
0.527624 0.637310 -14.558656 14.582147 0.879278 3.084823 0.008082 -0.002499 149978.000000 1 0 0
8.726724 2.595910 -12.568156 15.519440 0.289131 2.514664 0.002193 0.003801 1179920.000000 1 0 0
5.900824 0.992310 -17.058556 18.077576 0.166606 2.804230 0.014762 0.000406 1016770.000000 1 0 0
15.281924 1.555810 -12.369956 19.722413 0.101458 2.248753 0.052975 -0.012106 540278.000000 1 0 0
8.751024 -11.176790 -11.860256 18.497749 -0.906530 2.266822 0.041833 -0.011939 423415.000000 1 0 0
-4.627776 0.721510 -15.052956 15.764783 -0.154664 2.839941 0.018490 -0.007850 2020910.000000 1 0 0
2.416524 5.147210 -17.374956 18.281752 1.131860 2.825312 0.013335 0.000233 1261600.000000 1 0 0
5.916424 -11.631890 -12.379256 17.987521 -1.100262 2.329820 0.018066 -0.005865 145508.000000 1 0 0
12.771524 7.043410 -8.571256 16.917088 0.503989 2.102106 0.015114 -0.005625 895074.000000 1 0 0
-4.990476 3.544110 -15.684556 16.836593 -0.617522 2.769519 0.011286 -0.006018 887593.000000 1 0 0
-0.605176 -4.585290 -19.021956 19.576157 1.439573 2.903078 0.028241 -0.016543 -1061600.000000 1 0 0
9.802724 4.349710 -10.261656 14.843011 0.417623 2.334147 -0.001035 0.000226 117569.000000 1 0 0
13.239624 3.519210 -12.792456 18.743517 0.259801 2.321974 0.030774 -0.014942 1551530.000000 1 0 0
-6.171276 5.852710 -17.062756 19.065060 -0.758910 2.679172 0.009552 -0.004327 -101834.000000 1 0 0
-10.242076 3.113610 -15.370656 18.731038 -0.295124 2.533253 0.030252 -0.007307 -832622.000000 1 0 0
10.696724 13.518310 -8.355256 19.156590 0.901397 2.022119 0.072590 -0.011565 957782.000000 1 0 0
7.566124 13.333510 -12.500756 19.781245 1.054653 2.254863 0.076250 -0.020940 1111900.000000 1 0 0
5.379724 15.038110 -11.399756 19.622452 1.227243 2.190697 0.047181 -0.019100 363300.000000 1 0 0
14.262324 9.286910 -9.858956 19.668747 0.577183 2.095839 0.068506 -0.012124 1178640.000000 1 0 0
8.295624 -17.143990 -2.139856 19.165405 -1.120128 1.682682 0.041866 -0.010801 1028490.000000 1 0 0
0.669524 -16.080090 -0.003656 16.094022 -1.529184 1.571024 0.006679 -0.010106 2680230.000000 1 0 0
-9.163076 -11.736090 7.548044 16.693434 0.907897 1.101615 0.020458 -0.010201 1663170.000000 1 0 0
2.028024 -15.865290 -2.506156 16.189537 -1.443658 1.726222 0.006160 -0.012692 827000.000000 1 0 0
-1.365576 -10.986990 -9.382256 14.512252 1.447140 2.273792 -0.002204 0.000294 1342310.000000 1 0 0
-4.750576 -12.668290 -12.946956 18.726377 1.212028 2.334187 0.018097 -0.004771 -682459.000000 1 0 0
-8.475676 -17.777990 -1.707356 19.768891 1.125920 1.657270 0.053476 -0.023902 31427.000000 1 0 0
-11.491776 -7.073290 -8.826356 16.124420 0.551745 2.150039 0.027571 -0.008905 3610350.000000 1 0 0
-13.744976 -11.510590 -4.625956 18.515332 0.697157 1.823316 0.048872 -0.016488 858053.000000 1 0 0
-5.918676 -13.282690 9.778844 17.523880 1.151613 0.978787 0.014688 -0.008422 -665601.000000 1 0 0
0.124824 -14.016390 -3.702856 14.497789 -1.561891 1.829066 0.008082 -0.007441 -12828.400000 1 0 0
-14.742576 -11.519790 1.898744 18.805700 0.663294 1.469658 0.016863 -0.004859 1384330.000000 1 0 0
-4.024676 -16.566390 -7.531256 18.637680 1.332471 1.986778 0.012916 -0.006107 58488.800000 1 0 0
0.522224 -15.259790 -9.213656 17.833265 -1.536587 2.113737 -0.000989 0.001173 68410.100000 1 0 0
4.547724 -14.140990 -2.568556 15.074709 -1.259644 1.742020 0.007096 -0.007147 1337310.000000 1 0 0
-3.623176 -18.165890 -2.490256 18.690327 1.373930 1.704431 0.024148 -0.021047 788195.000000 1 0 0
-0.931276 -13.519090 0.602344 13.564508 1.502019 1.526376 0.009688 -0.005556 1898670.000000 1 0 0
-8.499176 -11.364790 -10.493656 17.649682 0.928672 2.207505 0.025967 -0.008500 1922870.000000 1 0 0
-3.697676 -14.136890 -0.395256 14.617821 1.314966 1.597839 0.009282 -0.003132 5117230.000000 1 0 0
-1.609976 -14.979190 -7.260756 16.723837 1.463726 2.019898 -0.000087 -0.000359 1383360.000000 1 0 0
-14.258776 -7.889590 -1.866956 16.402556 0.505384 1.684865 0.021441 -0.009209 1475050.000000 1 0 0
-10.711876 -7.363190 -11.638656 17.447612 0.602210 2.301056 0.029699 -0.006485 1714410.000000 1 0 0
-9.456476 -14.791290 6.843044 18.842358 1.001960 1.199125 0.011848 -0.003524 906270.000000 1 0 0
-2.490976 -14.227290 -12.144256 18.870710 1.397469 2.269924 0.014360 -0.005224 -382347.000000 1 0 0
2.304524 -17.682490 -4.680856 18.436151 -1.441199 1.827502 0.018903 -0.019192 253408.000000 1 0 0
-6.616976 -9.622590 -9.212356 14.874344 0.968407 2.238705 0.015455 -0.007028 651909.000000 1 0 0
-10.992176 -15.358990 0.386344 18.891156 0.949622 1.550344 0.029366 -0.014110 422139.000000 1 0 0
-12.704076 -10.972790 4.112044 17.283072 0.712407 1.330569 0.024008 -0.005628 2302690.000000 1 0 0
-17.054676 -8.852390 -1.595456 19.281397 0.478779 1.653637 0.022640 -0.011961 -500458.000000 1 0 0
-1.419976 -19.335990 -4.011456 19.798702 1.497491 1.774821 0.014702 -0.009461 -920940.000000 1 0 0
3.293224 -14.289190 -8.687056 17.043803 -1.344282 2.105621 0.008506 -0.003608 1227830.000000 1 0 0
-4.312576 -8.085590 -13.011356 15.914473 1.080814 2.527992 0.006942 -0.003108 2536310.000000 1 0 0
5.503124 -16.588990 1.301544 17.526350 -1.250486 1.496466 0.026143 -0.009245 4385410.000000 1 0 0
-2.837576 -13.854990 -3.237556 14.508423 1.368785 1.795841 0.008585 -0.004562 604632.000000 1 0 0
-0.430176 -13.901090 3.632544 14.374307 1.539861 1.315315 0.009170 -0.003557 -2720330.000000 1 0 0
1.229824 -16.084790 6.947844 17.564323 -1.494486 1.164113 0.021777 -0.011205 2063900.000000 1 0 0
-5.493376 -10.381690 -14.513356 18.670677 1.084109 2.461213 0.017514 -0.009196 311732.000000 1 0 0
-0.420476 -17.347790 -5.799856 18.296473 1.546563 1.893354 0.012514 -0.008263 39401.900000 1 0 0
-6.556576 -13.406290 -1.308556 14.980975 1.115933 1.658256 0.008368 -0.002590 3080070.000000 1 0 0
-1.693176 -17.867790 -0.319456 17.950677 1.476317 1.588594 0.010231 -0.013745 2240330.000000 1 0 0
-9.526176 -9.778790 -4.800856 14.471385 0.798483 1.908952 0.022399 -0.005508 2218470.000000 1 0 0
-0.850676 -16.651090 4.852344 17.364552 1.519752 1.287586 0.021419 -0.011701 3148280.000000 1 0 0
-6.822076 -9.867190 -6.302656 13.550853 0.965872 2.054557 0.018072 -0.006636 2509100.000000 1 0 0
-6.007776 -14.505090 -8.553056 17.878640 1.178122 2.069623 0.016249 -0.011143 33112.900000 1 0 0
-5.735876 -12.160290 -10.267656 16.917378 1.130053 2.222988 0.018103 -0.009338 852489.000000 1 0 0
-10.505776 -12.281490 -8.543956 18.281288 0.863167 2.057099 0.045196 -0.022009 -166162.000000 1 0 0
3.997724 -17.000390 6.592344 18.666924 -1.339838 1.209854 0.033644 -0.015061 -158436.000000 1 0 0
-6.714176 -14.455990 -4.154356 16.471626 1.135986 1.825763 0.018944 -0.013511 -557997.000000 1 0 0
-2.840376 -12.199990 -7.035656 14.366904 1.342053 2.082557 0.003763 -0.002157 3306300.000000 1 0 0
-7.118176 -12.864390 4.441244 15.358568 1.065405 1.277436 0.002036 -0.002066 2348800.000000 1 0 0
2.557424 -16.331590 2.349644 16.696768 -1.415464 1.429603 0.011497 -0.013811 2023960.000000 1 0 0
-6.238976 -11.962190 7.253244 15.317583 1.090051 1.077509 0.002479 -0.004495 1268020.000000 1 0 0
-11.349376 -12.817990 -1.024556 17.151062 0.846092 1.630569 0.029053 -0.005170 -654050.000000 1 0 0
-14.288676 -8.608690 4.650644 17.317745 0.542243 1.298911 0.019172 -0.001978 -1102750.000000 1 0 0
-8.017676 -15.586490 4.359344 18.061718 1.095696 1.327031 0.008338 -0.001591 -40501.500000 1 0 0
-16.546776 -9.083090 1.190444 18.913368 0.502024 1.507813 0.018169 -0.007367 -999947.000000 1 0 0
-6.551476 -17.012090 2.231144 18.366029 1.203194 1.449013 0.018034 -0.010233 2190620.000000 1 0 0
-11.627776 -14.866690 -4.881556 19.494954 0.907043 1.823891 0.060864 -0.018430 -306217.000000 1 0 0
-10.131276 -10.071090 -12.521056 18.995959 0.782419 2.290475 0.033837 -0.004882 500648.000000 1 0 0
-4.390676 -16.093590 -4.552756 17.291884 1.304457 1.837226 0.011084 -0.011162 -870081.000000 1 0 0
-11.834476 -8.298890 0.000044 14.454286 0.611562 1.570793 0.002737 -0.001966 1786220.000000 1 0 0
-9.642176 -11.184490 3.467944 15.168751 0.859318 1.340132 0.007276 0.003387 3522060.000000 1 0 0
-14.196176 -12.895190 -0.652456 19.189660 0.737413 1.604803 0.024042 -0.003606 -890533.000000 1 0 0
5.562824 -14.917690 -7.012256 17.396960 -1.213867 1.985669 0.012339 -0.015748 242212.000000 1 0 0
-7.572476 -10.603690 -1.252556 13.090054 0.950646 1.666631 0.007275 -0.002025 -162018.000000 1 0 0
-11.684976 -8.245890 -6.034556 15.522540 0.614530 1.970083 0.023769 -0.010291 -375642.000000 1 0 0
-14.481876 -6.589690 -9.271756 18.415054 0.427029 2.098427 0.048330 -0.011663 2392090.000000 1 0 0
-3.760876 -16.555390 1.372444 17.032578 1.347418 1.490131 0.010796 -0.011035 2408510.000000 1 0 0
-8.012876 -15.494090 0.114144 17.443796 1.093518 1.564253 0.030638 -0.011483 709886.000000 1 0 0
1.025524 -18.573290 3.654044 18.957078 -1.515637 1.376829 0.019003 -0.014173 803769.000000 1 0 0
-14.192176 -8.717890 -4.599556 17.279334 0.550849 1.840233 0.033642 -0.013501 432368.000000 1 0 0
-3.547376 -14.407990 11.075144 18.515746 1.329389 0.929609 0.008124 -0.009687 1129190.000000 1 0 0
-10.981876 -12.146290 -3.904056 16.833764 0.835702 1.804846 0.043060 -0.018701 1895190.000000 1 0 0
-10.053676 -10.712290 0.558944 14.701768 0.817104 1.532768 0.009580 0.001172 1494100.000000 1 0 0
-0.034576 -13.029790 -11.057156 17.089099 1.568143 2.274479 0.002628 -0.007257 683288.000000 1 0 0
-5.912576 -12.626990 -6.275756 15.290014 1.132871 1.993742 0.011584 -0.009608 2969710.000000 1 0 0
1.750824 -15.800590 9.855744 18.704537 -1.460439 1.015827 0.026879 -0.013373 -1797690.000000 1 0 0
-9.016376 -15.753490 -5.440056 18.948923 1.050962 1.861984 0.059201 -0.020236 111212.000000 1 0 0
-3.406176 -15.466990 5.860344 16.887079 1.354034 1.216393 0.005829 -0.001913 -449795.000000 1 0 0
-17.434776 -5.501190 -6.501656 19.403764 0.305643 1.912478 0.032200 -0.014245 -696135.000000 1 0 0
18.862024 5.563910 -3.075356 19.904544 0.286844 1.725923 0.042820 -0.009906 -2173280.000000 1 0 0
12.881724 -12.580090 -5.768856 18.907066 -0.773552 1.880857 0.067054 -0.014531 58356.100000 1 0 0
11.013624 -13.482690 -1.577056 17.480559 -0.885852 1.661137 0.047932 -0.013568 2711450.000000 1 0 0
18.794124 -2.964290 4.573844 19.568499 -0.156436 1.334879 0.068223 -0.014639 -607455.000000 1 0 0
8.707324 -16.885890 4.891144 19.618207 -1.094702 1.318822 0.049026 -0.023574 -1375310.000000 1 0 0
18.096524 -0.980090 6.625944 19.296318 -0.054106 1.220284 0.076883 -0.017888 -847220.000000 1 0 0
17.984224 -4.162190 -4.868056 19.090681 -0.227431 1.828640 0.098984 -0.022589 -1235610.000000 1 0 0
5.348024 -11.759090 14.690444 19.562379 -1.143959 0.721291 0.017299 -0.005075 496754.000000 1 0 0
16.083824 -8.958190 -0.730856 18.424785 -0.508178 1.610474 0.062803 -0.011636 216543.000000 1 0 0
13.860124 -12.476590 -1.293256 18.693336 -0.732914 1.640034 0.056432 -0.013467 799721.000000 1 0 0
11.251124 -1.979490 13.854244 17.956788 -0.174155 0.689550 0.044937 -0.004125 925318.000000 1 0 0
17.032824 -6.206290 -1.417456 18.183627 -0.349421 1.648828 0.072683 -0.014943 -1692580.000000 1 0 0
17.782924 3.668110 -1.118256 18.191699 0.203419 1.632306 0.037057 -0.005344 196271.000000 1 0 0
9.686124 -11.099490 9.560044 17.561722 -0.853291 0.995161 0.025065 -0.007845 559085.000000 1 0 0
9.144324 -11.174190 4.272944 15.057862 -0.884970 1.283075 0.012512 -0.008051 -911209.000000 1 0 0
13.971224 -10.126890 6.716744 18.516577 -0.627203 1.199587 0.039456 -0.017466 -95101.500000 1 0 0
16.254124 -0.610890 -4.764756 16.949119 -0.037566 1.855759 0.034967 -0.007225 -1691850.000000 1 0 0
15.789724 -0.530290 -1.740856 15.894249 -0.033572 1.680544 0.029255 -0.003708 130565.000000 1 0 0
12.903824 -5.293490 -0.302056 13.950661 -0.389291 1.592450 0.013921 -0.006524 819814.000000 1 0 0
14.357624 -7.591190 1.071644 16.276238 -0.486360 1.504908 0.033505 -0.009755 2773740.000000 1 0 0
15.659424 2.473610 3.601744 16.257578 0.156669 1.347400 0.031719 -0.001237 2071160.000000 1 0 0
15.907724 -7.129890 5.008044 18.137572 -0.421359 1.291047 0.051337 -0.017118 -875152.000000 1 0 0
13.753024 -12.198290 3.238144 18.666266 -0.725560 1.396439 0.034328 -0.007741 1053710.000000 1 0 0
14.129024 -0.948290 9.192344 16.882765 -0.067016 0.995026 0.054533 -0.011712 1802120.000000 1 0 0
14.243524 -2.900490 -1.552856 14.618556 -0.200889 1.677222 0.007596 -0.006569 1431140.000000 1 0 0
15.105624 1.866610 9.179144 17.774161 0.122947 1.028117 0.059294 -0.007705 -400104.000000 1 0 0
14.316724 -10.032590 -2.948556 17.728943 -0.611236 1.737886 0.066254 -0.015050 -798746.000000 1 0 0
7.351924 -12.581890 6.119444 15.805136 -1.041982 1.173224 0.006041 -0.009183 -212439.000000 1 0 0
12.473224 -4.620390 6.986544 15.024683 -0.354753 1.087157 0.021249 -0.005550 1862330.000000 1 0 0
14.889924 -8.966490 -5.631856 18.270894 -0.542025 1.884141 0.081835 -0.017654 364698.000000 1 0 0
14.296724 -4.629890 4.621244 15.722216 -0.313185 1.272460 0.023163 -0.011459 795282.000000 1 0 0
17.207624 -4.251890 0.951844 17.750687 -0.242241 1.517148 0.048680 -0.013593 -1660230.000000 1 0 0
10.119024 -14.559590 1.082644 17.763682 -0.963429 1.509811 0.036972 -0.010998 -706530.000000 1 0 0
16.524124 -2.530590 8.546644 18.774868 -0.151964 1.098180 0.081961 -0.016253 1620330.000000 1 0 0
16.089724 -2.692390 3.220244 16.628233 -0.165800 1.375904 0.031250 -0.007716 2307030.000000 1 0 0
7.720424 -15.208990 2.685744 17.266486 -1.101069 1.414616 0.025813 -0.011209 1912310.000000 1 0 0
16.534524 -7.057590 7.892644 19.633998 -0.403428 1.157109 0.067017 -0.015701 -203017.000000 1 0 0
10.240824 -8.638290 5.204844 14.373062 -0.700717 1.200250 0.008924 -0.006049 892014.000000 1 0 0
10.962424 -11.924290 2.152544 16.340039 -0.827401 1.438678 0.025415 -0.010552 562487.000000 1 0 0
12.372924 -7.230690 11.946344 18.657096 -0.528867 0.875893 0.052744 -0.016420 -194133.000000 1 0 0
15.276624 -9.916790 4.237244 18.699524 -0.575776 1.342215 0.041531 -0.014865 -419353.000000 1 0 0
7.337024 -10.236590 7.832044 14.831068 -0.948920 1.014454 0.007509 -0.005317 116908.000000 1 0 0
15.248724 -3.398690 -4.320356 16.209261 -0.219299 1.840594 0.048855 -0.008152 456397.000000 1 0 0
11.804524 -8.993390 9.793544 17.780364 -0.651048 0.987466 0.038928 -0.013499 -1190010.000000 1 0 0
17.002024 -6.632390 2.483344 18.418045 -0.371938 1.435552 0.055735 -0.015832 2291430.000000 1 0 0
17.588424 3.982810 1.922044 18.135867 0.222689 1.464617 0.037402 -0.000327 -135364.000000 1 0 0
14.833124 -4.825890 8.793544 17.906345 -0.314544 1.057461 0.064987 -0.019825 -755103.000000 1 0 0
12.847624 -12.686690 5.965644 19.015847 -0.779096 1.251688 0.034372 -0.013036 -2116370.000000 1 0 0
18.288624 0.752310 -1.011856 18.332037 0.041112 1.626020 0.052919 -0.008167 -946010.000000 1 0 0
11.762524 -2.162590 10.985244 16.239130 -0.181824 0.827841 0.031570 -0.005019 1380330.000000 1 0 0
5.612724 -12.582990 10.424244 17.277128 -1.151227 0.923095 0.005002 -0.004382 -2200130.000000 1 0 0
10.793224 -4.964890 10.962544 16.165431 -0.431139 0.825558 0.030452 -0.005755 622987.000000 1 0 0
17.952324 1.251510 4.851144 18.638289 0.069600 1.307486 0.063912 -0.004787 -1240870.000000 1 0 0
12.278224 -7.696590 7.218844 16.189625 -0.559928 1.108624 0.024876 -0.012168 -769867.000000 1 0 0
10.774024 -7.793090 14.321544 19.542734 -0.626208 0.748321 0.064967 -0.012472 -401581.000000 1 0 0
14.263424 -0.235190 3.764844 14.753800 -0.016487 1.312765 0.013018 0.001223 978246.000000 1 0 0
11.684424 -7.700890 2.618344 14.236755 -0.582727 1.385829 0.012047 -0.003881 2422960.000000 1 0 0
9.278724 6.078310 3.507944 11.633840 0.579938 1.264500 0.008812 0.002342 1432100.000000 1 0 0
-3.890476 14.703010 -9.976156 18.188953 -1.312121 2.151334 0.013624 -0.006235 1335200.000000 1 0 0
8.831724 -6.482690 9.305844 14.374399 -0.633197 0.866641 0.006834 -0.002188 -49827.500000 1 0 0
5.807224 -10.658490 -8.533456 14.837356 -1.071920 2.183563 0.001118 -0.002685 1285780.000000 1 0 0
5.410324 1.052410 0.589944 5.543212 0.192120 1.464168 0.002508 0.000070 3522430.000000 1 0 0
-0.445776 10.023110 11.035944 14.914876 -1.526351 0.737832 -0.005568 0.000894 -2019440.000000 1 0 0
-6.296476 -5.103890 1.153144 8.186882 0.681168 1.429474 0.005834 -0.003119 4324710.000000 1 0 0
-0.956976 4.012510 -10.850856 11.608494 -1.336672 2.778307 0.012095 -0.008953 1137250.000000 1 0 0
10.989124 5.751810 1.152444 12.456817 0.482199 1.478149 0.007606 0.001697 2812080.000000 1 0 0
-10.124876 -1.807090 -13.549456 17.010775 0.176620 2.492317 0.018900 -0.011298 1835700.000000 1 0 0
7.453024 10.861610 -6.100256 14.516724 0.969406 2.004487 0.008973 -0.004286 907376.000000 1 0 0
-12.419776 -2.966790 -9.579856 15.963281 0.234482 2.214445 0.017842 -0.007112 1005470.000000 1 0 0
-3.987376 -8.626990 2.574544 9.846441 1.137845 1.306252 0.005311 -0.002485 -936388.000000 1 0 0
8.008324 -6.665190 -5.821356 11.935082 -0.694118 2.080309 0.001609 -0.008110 899779.000000 1 0 0
14.328724 3.066510 -4.204056 15.244340 0.210831 1.850196 0.017887 -0.004950 496941.000000 1 0 0
-2.484476 -4.930190 9.729344 11.186578 1.104009 0.516134 0.001558 -0.003695 1744010.000000 1 0 0
3.487224 -1.878990 -4.510656 6.003112 -0.494220 2.420957 -0.002503 -0.003060 -1629790.000000 1 0 0
-4.003576 8.338010 -3.542456 9.904546 -1.123147 1.936557 0.003264 -0.002570 425626.000000 1 0 0
5.801224 0.108110 11.798644 13.148151 0.018634 0.457043 0.006063 -0.002577 430960.000000 1 0 0
7.203624 4.791310 12.437644 15.150704 0.586935 0.607761 0.012857 -0.003341 1171170.000000 1 0 0
1.238224 -14.369490 12.368244 18.999707 -1.484838 0.861934 0.006627 -0.005648 -417664.000000 1 0 0
3.001824 8.693310 -9.200556 13.009029 1.238312 2.356388 0.006285 -0.002751 1470880.000000 1 0 0
-4.441076 -8.869090 -4.541856 10.909279 1.106560 2.000201 0.010847 -0.000879 1287230.000000 1 0 0
5.690824 -6.560190 -4.060656 9.586996 -0.856242 2.008167 0.000925 -0.006093 2590240.000000 1 0 0
-3.061676 3.496610 8.715044 9.876848 -0.851619 0.489919 0.000134 0.000704 1591650.000000 1 0 0
-3.723076 3.161910 -11.050656 12.082052 -0.704072 2.725398 0.008811 -0.010853 444898.000000 1 0 0
3.027624 -6.020190 8.531844 10.872053 -1.104822 0.668504 0.001624 -0.002384 1457660.000000 1 0 0
-5.184576 -8.597990 10.494744 14.523942 1.028175 0.763266 0.004623 -0.008908 1271200.000000 1 0 0
-13.244576 -2.474490 6.503744 14.961303 0.184701 1.121086 0.014533 -0.004990 -401821.000000 1 0 0
3.963824 -5.904390 -8.281356 10.915795 -0.979569 2.432047 -0.002019 -0.004663 1613580.000000 1 0 0
2.943024 -0.482790 12.391944 12.745774 -0.162597 0.236178 0.002397 -0.003939 1835930.000000 1 0 0
1.521124 -1.418390 -7.502856 7.785788 -0.750463 2.871179 0.000372 -0.005283 -1564320.000000 1 0 0
3.604524 -3.559090 3.455744 6.132037 -0.779056 0.972113 0.005345 -0.002595 4059790.000000 1 0 0
1.475324 0.396210 -11.809556 11.907946 0.262368 3.012954 0.003505 -0.005433 826014.000000 1 0 0
4.114024 3.459810 -10.647256 11.927261 0.699234 2.674059 -0.000761 0.000719 643871.000000 1 0 0
2.872924 3.278910 3.368644 5.509329 0.851297 0.912913 -0.006245 0.003928 -1352410.000000 1 0 0
-5.221176 0.940610 2.561744 5.891346 -0.178241 1.120945 0.002901 -0.001997 2293010.000000 1 0 0
-9.515076 -9.306590 5.687144 14.473869 0.774322 1.166986 0.009565 -0.002599 -1628030.000000 1 0 0
-2.924076 3.747110 -0.622856 4.793643 -0.908149 1.701099 0.002674 -0.003686 61461.300000 1 0 0
-15.899176 -6.363790 4.974444 17.833304 0.380730 1.288105 0.027935 -0.007293 -72644.800000 1 0 0
0.990824 6.724010 -8.131656 10.598013 1.424493 2.445387 0.008590 -0.004320 -229664.000000 1 0 0
-1.634776 6.577410 -9.516556 11.683307 -1.327188 2.522737 0.009162 -0.006892 1602240.000000 1 0 0
2.119524 -0.303290 5.273544 5.691628 -0.142128 0.385677 0.002970 -0.001829 2637380.000000 1 0 0
-3.436876 -0.564890 -6.333956 7.228431 0.162905 2.638833 0.012165 -0.010034 129660.000000 1 0 0
1.862324 -1.148490 -2.372456 3.227356 -0.552606 2.396623 0.005395 -0.002089 316531.000000 1 0 0
2.492824 -8.558590 -7.590856 11.708319 -1.287372 2.276185 -0.003788 -0.001219 3429970.000000 1 0 0
-2.346276 13.919010 -5.634056 15.198239 -1.403800 1.950564 0.007257 -0.000003 1701740.000000 1 0 0
6.900824 -5.121590 -8.141956 11.838222 -0.638472 2.329207 0.002658 -0.009557 4291050.000000 1 0 0
-14.202776 -4.941190 -2.131656 15.188093 0.334806 1.711612 0.010532 -0.003815 343362.000000 1 0 0
-2.737276 6.845410 -6.924256 10.114230 -1.190402 2.324858 0.007996 -0.005426 -1804610.000000 1 0 0
-5.659876 -1.186590 -8.059156 9.919284 0.206656 2.519179 0.015565 -0.011639 -891386.000000 1 0 0
-5.838676 -10.592090 3.419144 12.568733 1.067009 1.295288 -0.000409 -0.000783 -4385340.000000 1 0 0
8.072524 -7.562090 6.693744 12.928923 -0.752762 1.026596 0.007743 -0.005150 -390563.000000 1 0 0
8.857724 -5.937890 13.137344 16.920627 -0.590557 0.681847 0.031752 -0.002281 1883930.000000 1 0 0
-4.660976 9.442310 -0.843656 10.563791 -1.112260 1.650744 0.000746 0.002683 432380.000000 1 0 0
2.800724 6.665610 12.140344 14.130193 1.173019 0.537136 0.002120 -0.004507 1701230.000000 1 0 0
6.055224 -2.844290 10.968644 12.847835 -0.439136 0.547680 0.004067 0.000092 -634543.000000 1 0 0
-9.698176 -6.526590 -1.004556 11.732865 0.592354 1.656520 0.009336 -0.005959 -1802620.000000 1 0 0
0.776124 -13.285490 6.270844 14.711563 -1.512444 1.130450 0.010721 -0.006316 1317100.000000 1 0 0
-0.505276 -3.126790 8.726144 9.283195 1.410585 0.348185 0.002843 -0.004756 186469.000000 1 0 0
4.299924 0.754110 3.456644 5.568340 0.173612 0.901075 0.001049 0.002085 737681.000000 1 0 0
-10.232876 5.618110 8.312844 14.331026 -0.502095 0.951995 0.000440 -0.006189 1100390.000000 1 0 0
9.352224 7.970110 -0.080656 12.287931 0.705779 1.577360 0.003647 0.001085 -111141.000000 1 0 0
4.312224 2.906110 8.209044 9.717466 0.593010 0.564657 -0.002680 -0.001487 4203550.000000 1 0 0
1.354824 2.621210 -9.782756 10.218053 1.093744 2.848653 0.005953 -0.006176 1444110.000000 1 0 0
-1.485676 -10.108790 3.059644 10.665659 1.424872 1.279840 0.007945 -0.003715 -3069610.000000 1 0 0
-9.860176 9.540410 9.065444 16.444597 -0.768917 0.986908 -0.002465 -0.007711 1747450.000000 1 0 0
9.822024 -2.042290 -7.546156 12.553389 -0.205008 2.215704 0.012507 -0.005111 164828.000000 1 0 0
-5.193376 -1.927090 6.777944 8.753591 0.355318 0.685181 0.002372 -0.004058 2286930.000000 1 0 0
3.142424 -7.807190 -4.865756 9.721246 -1.188133 2.095005 -0.002861 -0.002888 2442640.000000 1 0 0
-5.086276 4.855510 -13.117356 14.883253 -0.762191 2.649508 0.007499 -0.010811 2260680.000000 1 0 0
-5.663876 9.667410 5.462544 12.465059 -1.040829 1.117169 0.001032 0.002594 1471670.000000 1 0 0
-0.326576 -1.766190 -9.363256 9.533973 1.387957 2.952068 0.005259 -0.007924 -418665.000000 1 0 0
-16.805676 0.077810 6.446244 17.999746 -0.004630 1.204532 0.026719 -0.012421 160506.000000 1 0 0
-6.040776 -2.786090 4.103944 7.816369 0.432140 1.018029 -0.002175 -0.002907 56824.600000 1 0 0
0.914324 -5.639390 -5.138956 7.684242 -1.410063 2.303343 0.001026 -0.002406 2007870.000000 1 0 0
-7.050376 1.373610 -8.418456 11.066391 -0.192418 2.435222 0.008192 -0.007491 1293590.000000 1 0 0
8.055324 1.987810 4.839344 9.605149 0.241936 1.042772 0.007467 0.002043 544950.000000 1 0 0
0.503324 -8.116890 -0.482856 8.146802 -1.508866 1.630101 0.005582 -0.002252 1601650.000000 1 0 0
5.431824 5.491710 -3.411356 8.443989 0.790880 1.986680 -0.000416 0.002915 -439688.000000 1 0 0
-0.722676 -0.380490 -1.149756 1.410309 0.484623 2.523959 0.004315 -0.003677 -68363.900000 1 0 0
9.119324 6.303510 -6.276456 12.739318 0.604813 2.085968 0.002324 -0.004788 816096.000000 1 0 0
-15.027576 -6.998090 2.452344 16.757544 0.435819 1.423926 0.004820 -0.003398 773480.000000 1 0 0
-6.399676 6.823710 8.959244 12.953259 -0.817454 0.807012 0.000228 -0.002329 824925.000000 1 0 0
-9.436776 -3.273090 -9.555056 13.822625 0.333861 2.334030 0.012938 -0.008129 930590.000000 1 0 0
14.933524 3.431010 -1.286556 15.376514 0.225833 1.654564 0.012546 -0.001220 1794890.000000 1 0 0
12.091824 1.620910 -5.754456 13.489007 0.133256 2.011530 0.007538 -0.002205 -28198.600000 1 0 0
1.598224 -9.417290 12.715044 15.903207 -1.402686 0.644289 -0.001201 -0.003024 1401460.000000 1 0 0
-3.573476 6.347710 7.928444 10.766772 -1.058061 0.743091 -0.000000 0.000680 2155840.000000 1 0 0
-3.991376 13.063710 -12.411056 18.456054 -1.274272 2.308331 0.011192 -0.008151 798745.000000 1 0 0
-10.269976 7.835510 6.480144 14.451986 -0.651740 1.105832 0.000128 -0.003270 1328630.000000 1 0 0
7.980424 -9.272090 -7.154556 14.172032 -0.860127 2.099989 0.004960 -0.006111 578595.000000 1 0 0
5.819724 -3.799990 -0.345356 6.959050 -0.578446 1.620444 0.005446 -0.003533 -2144430.000000 1 0 0
-1.747276 -4.461790 4.226444 6.389317 1.197545 0.847998 0.005643 -0.004729 -617641.000000 1 0 0
9.946724 -2.033390 -2.486356 10.452462 -0.201650 1.810972 0.008940 -0.006526 -2705700.000000 1 0 0
13.578724 7.032310 1.335544 15.349880 0.477858 1.483679 0.015245 0.002204 182308.000000 1 0 0
5.365424 -3.666490 -3.190756 7.239602 -0.599467 2.027215 0.004683 -0.007597 -2893360.000000 1 0 0
-12.289976 -5.904590 1.884244 13.764377 0.447877 1.433472 0.007594 -0.003331 2200640.000000 1 0 0
3.699324 -5.755390 -0.185056 6.844249 -0.999529 1.597838 0.007182 -0.004046 -682766.000000 1 0 0
-5.285576 3.729610 -8.700456 10.841829 -0.614488 2.502253 0.009260 -0.010990 1093330.000000 1 0 0
-1.757576 -9.241890 7.249744 11.876884 1.382865 0.914221 0.005971 -0.006759 2279740.000000 1 0 0
-7.448076 -7.327390 2.558044 10.756768 0.777230 1.330688 0.005581 -0.003806 -3481070.000000 1 0 0
-5.717776 13.000310 -8.509656 16.556427 -1.156442 2.110613 0.012000 -0.010347 731316.000000 1 0 0
9.196924 -13.823590 -4.117256 17.106339 -0.983736 1.813869 0.031176 -0.010345 -604761.000000 1 0 0
-6.606076 -5.119990 -6.709856 10.718055 0.659337 2.247252 0.009812 -0.006085 217927.000000 1 0 0
3.401324 0.411910 -6.220756 7.101865 0.120516 2.638162 -0.000347 -0.005042 1135460.000000 1 0 0
-3.639376 5.768510 5.010044 8.462938 -1.007963 0.937260 0.001141 0.007109 846748.000000 1 0 0
-2.669476 -10.813690 -2.846856 11.496372 1.328774 1.821030 0.011463 -0.000825 186491.000000 1 0 0
-12.605576 -0.426890 1.749844 12.733607 0.033852 1.432941 0.008683 -0.005383 1005320.000000 1 0 0
8.404024 -11.968490 -6.116256 15.851844 -0.958609 1.966913 0.014053 -0.012006 806954.000000 1 0 0
6.198624 3.957310 1.020444 7.424591 0.568190 1.432919 0.000094 0.002055 -1062930.000000 1 0 0
3.418424 -4.887990 -10.899656 12.424998 -0.960506 2.640870 -0.002732 -0.003372 15219.500000 1 0 0
-7.624976 4.295510 8.681244 12.327030 -0.513033 0.789438 -0.001741 -0.001413 1529390.000000 1 0 0
8.185524 8.719210 4.061344 12.630200 0.816958 1.243422 0.004016 -0.000058 2368930.000000 1 0 0
0.274324 10.502110 -6.334656 12.267740 1.544681 2.113399 0.002281 -0.000612 2747640.000000 1 0 0
5.365924 8.089310 3.273744 10.244388 0.985104 1.245526 0.000788 0.001489 2785110.000000 1 0 0
8.069824 6.657410 -3.754756 11.114916 0.689786 1.915388 0.000095 -0.001526 459854.000000 1 0 0
10.514024 2.461010 -8.160356 13.534869 0.229930 2.217944 0.000767 -0.000724 195633.000000 1 0 0
3.324124 -12.488890 -0.274856 12.926628 -1.310661 1.592061 0.005250 -0.006609 -2008250.000000 1 0 0
0.646524 2.147810 5.227644 5.688527 1.278408 0.405310 -0.000067 0.001094 2100600.000000 1 0 0
-4.902676 13.435510 1.401244 14.370548 -1.220906 1.473133 -0.000126 0.001127 898736.000000 1 0 0
8.183124 4.003810 -7.967656 12.102791 0.455032 2.289397 -0.003873 0.002438 950548.000000 1 0 0
-13.796176 -0.606690 -3.540256 14.256085 0.043947 1.821755 0.006102 -0.002650 507284.000000 1 0 0
-8.535076 -0.017790 -0.486156 8.548929 0.002084 1.627695 0.004766 -0.003693 200642.000000 1 0 0
1.775524 -3.828690 -1.115556 4.365296 -1.136574 1.829214 0.005174 -0.001993 -896479.000000 1 0 0
8.031624 -5.621690 -0.349656 9.809823 -0.610689 1.606447 0.006021 -0.002961 1285070.000000 1 0 0
-2.263676 -1.118390 7.397144 7.816186 0.458883 0.328932 0.001255 -0.002285 2001550.000000 1 0 0
-5.847576 8.765010 -11.765156 15.793621 -0.982459 2.411228 0.005073 -0.007599 25686.900000 1 0 0
-6.271776 9.179710 -8.884656 14.231633 -0.971420 2.245018 0.004287 -0.004256 -206585.000000 1 0 0
-1.493376 13.895010 -8.443856 16.327896 -1.463732 2.114306 0.017747 -0.003986 250867.000000 1 0 0
-1.391676 7.346210 9.801544 12.327767 -1.383574 0.651659 -0.001333 -0.001067 -59825.700000 1 0 0
10.040724 2.240510 -4.052856 11.057200 0.219546 1.946079 0.005439 -0.004561 -873504.000000 1 0 0
-3.025576 -7.421690 -6.877556 10.561078 1.183698 2.279984 0.012769 -0.003456 1784190.000000 1 0 0
-5.487176 -4.997090 -1.479256 7.567576 0.738687 1.767536 0.008320 -0.005205 -428298.000000 1 0 0
5.723024 7.398510 -8.892556 12.906142 0.912401 2.330929 0.000164 0.001617 409340.000000 1 0 0
-9.559476 5.251110 -7.467656 13.218307 -0.502313 2.171167 0.001284 -0.002025 790192.000000 1 0 0
-0.425176 6.096910 -5.380056 8.142364 -1.501173 2.292612 0.006773 -0.002779 -1343100.000000 1 0 0
-8.261876 2.832210 -6.307856 10.773535 -0.330250 2.196287 0.004892 -0.004248 1475420.000000 1 0 0
3.710224 1.359910 -1.908456 4.388316 0.351325 2.020718 -0.002193 -0.001896 1863390.000000 1 0 0
-6.681676 12.347610 -3.560556 14.483986 -1.074788 1.819169 0.013072 -0.002480 1234480.000000 1 0 0
-6.604976 3.134010 -2.402856 7.695548 -0.443034 1.888346 0.005008 -0.002072 -1708470.000000 1 0 0
12.131224 3.995610 -0.878356 12.802461 0.318176 1.639459 0.003466 -0.001073 67962.900000 1 0 0
2.301924 12.349410 -5.587256 13.748608 1.386512 1.989293 0.003615 -0.003210 533304.000000 1 0 0
-9.134076 -1.419190 -4.290856 10.191020 0.154141 2.005391 0.004878 -0.003087 -1590820.000000 1 0 0
-1.175576 5.722210 3.411244 6.764781 -1.368175 1.042265 -0.000805 0.004170 751676.000000 1 0 0
11.677724 2.733510 11.935444 16.920287 0.229939 0.787820 0.045988 -0.002865 681678.000000 1 0 0
-7.094576 -2.335190 -5.758756 9.431299 0.317982 2.227615 0.011422 -0.006914 156681.000000 1 0 0
7.467524 -7.471890 10.937444 15.205944 -0.785690 0.768020 0.010589 -0.004130 -793811.000000 1 0 0
-5.467876 -1.957390 -10.913856 12.362900 0.343766 2.652567 0.013103 -0.008272 313735.000000 1 0 0
0.734624 -6.161490 4.519044 7.676287 -1.452128 0.941344 0.004718 -0.004750 1766080.000000 1 0 0
-4.851076 -9.335190 7.395444 12.859677 1.091549 0.958085 -0.003318 -0.003865 1768730.000000 1 0 0
-8.641676 9.386610 1.637244 12.863421 -0.826695 1.443171 0.003781 -0.002071 1657960.000000 1 0 0
-8.177576 7.192410 -9.174356 14.239815 -0.721389 2.270871 0.005203 -0.005170 -904719.000000 1 0 0
-1.355976 -10.639890 -0.061356 10.726122 1.444037 1.576517 0.007594 -0.000786 202822.000000 1 0 0
-3.954976 10.313710 7.829844 13.539605 -1.204623 0.954163 0.001505 0.000721 1859990.000000 1 0 0
-7.508676 12.174310 1.996344 14.442280 -1.018141 1.432123 0.001155 -0.004087 -195650.000000 1 0 0
-8.189276 -8.213090 -2.806356 11.932926 0.786850 1.808198 0.016068 -0.006759 571794.000000 1 0 0
5.388124 4.620710 -8.083056 10.757260 0.708874 2.420985 0.000405 0.001243 931835.000000 1 0 0
-8.957476 -0.194690 -10.115356 13.512761 0.021731 2.416711 0.009083 -0.010310 -1005940.000000 1 0 0
-15.197076 -2.246090 -1.510356 15.436231 0.146735 1.668798 0.012144 -0.004564 680016.000000 1 0 0
-7.260376 -5.699390 8.772944 12.734231 0.665527 0.810790 0.004411 -0.004278 -369595.000000 1 0 0
8.131724 3.413910 -1.020956 8.878179 0.397480 1.686047 0.005335 0.001030 1019160.000000 1 0 0
11.933424 7.148410 -5.767456 15.058882 0.539702 1.963831 0.006483 -0.006566 -67110.200000 1 0 0
3.784024 13.211010 -9.626256 16.778392 1.291836 2.181848 0.008214 -0.008419 858112.000000 1 0 0
-9.728876 5.418610 -0.478656 11.146366 -0.508172 1.613752 0.004113 0.000596 2421210.000000 1 0 0
11.326924 -1.375290 -5.149756 12.518411 -0.120826 1.994758 0.016858 -0.007375 -855754.000000 1 0 0
10.631824 1.664410 -1.270556 10.836063 0.155289 1.688319 0.006808 -0.001029 915485.000000 1 0 0
14.686824 5.058810 4.865544 16.277834 0.331718 1.267250 0.025710 -0.003761 2649560.000000 1 0 0
0.845124 -0.785590 10.329444 10.393690 -0.748906 0.111244 0.003207 -0.003305 2538080.000000 1 0 0
-7.952676 1.320010 -12.443856 14.826903 -0.164484 2.566746 0.007463 -0.010504 145097.000000 1 0 0
3.094924 -11.497390 -7.734456 14.198251 -1.307844 2.146884 -0.003467 -0.003136 -537394.000000 1 0 0
2.845424 5.041310 -6.831256 8.954178 1.056948 2.438603 0.002340 -0.000349 -2389320.000000 1 0 0
6.479524 8.020310 0.515044 10.323511 0.891263 1.520885 0.001889 -0.000425 -370355.000000 1 0 0
-9.113976 -5.398090 6.714644 12.541546 0.534729 1.005824 0.003602 -0.002708 -1333080.000000 1 0 0
-0.328476 -6.920390 -11.785856 13.671360 1.523367 2.610163 -0.001538 -0.001326 1130040.000000 1 0 0
6.408424 -13.323090 -4.634756 15.493662 -1.122463 1.874586 0.009346 -0.009468 3544860.000000 1 0 0
-3.260276 -0.343990 10.055544 10.576469 0.105120 0.315160 0.002244 -0.001637 -1233720.000000 1 0 0
8.613524 8.465810 6.920844 13.919799 0.776750 1.050434 -0.000855 0.002432 -807142.000000 1 0 0
-7.960276 5.670710 -2.707356 10.141634 -0.618984 1.841028 0.008351 -0.002663 10882.400000 1 0 0
-5.388076 5.878010 -6.549856 10.319060 -0.828858 2.258460 0.009623 -0.006021 -948778.000000 1 0 0
3.319224 -13.582490 2.521244 14.207672 -1.331119 1.392395 0.013358 -0.008327 -1837190.000000 1 0 0
-11.320076 -7.072990 6.456144 14.827444 0.558469 1.120293 0.019324 -0.004169 -1145260.000000 1 0 0
-12.957776 -3.758990 -6.753456 15.087847 0.282345 2.034886 0.016364 -0.005931 33978.000000 1 0 0
6.038724 0.344110 -7.320056 9.495674 0.056922 2.451023 -0.001612 -0.001101 575642.000000 1 0 0
-1.332976 2.114110 -2.583056 3.594227 -1.008242 2.372681 0.005245 -0.004412 3037160.000000 1 0 0
7.579624 0.878410 -4.979756 9.111546 0.115376 2.149014 0.002281 -0.001947 -234563.000000 1 0 0
3.689024 -4.476990 10.869144 12.320333 -0.881594 0.490257 -0.000378 -0.000910 -405341.000000 1 0 0
6.033924 -2.542590 2.113544 6.880412 -0.398803 1.258565 0.007366 -0.003102 -700917.000000 1 0 0
-6.191076 7.736710 1.075044 9.967037 -0.895921 1.462726 0.002693 0.002724 1289590.000000 1 0 0
6.116724 -3.422290 8.026344 10.655917 -0.510105 0.717839 0.005742 -0.004370 1311330.000000 1 0 0
6.791024 -2.288390 -7.759456 10.562381 -0.325022 2.395920 0.001988 -0.005628 1272640.000000 1 0 0
12.004924 -8.211390 -5.841956 15.673977 -0.599908 1.952731 0.045392 -0.015672 979137.000000 1 0 0
5.488924 -9.703690 9.975644 14.960058 -1.056015 0.840865 0.001485 -0.002628 1347130.000000 1 0 0
-6.690176 7.527010 -4.574856 11.060907 -0.844191 1.997207 0.009506 -0.004385 347040.000000 1 0 0
-1.301776 -7.526690 9.751144 12.386706 1.399536 0.664498 0.004179 -0.007523 -649263.000000 1 0 0
10.096724 -9.290190 0.849144 13.746727 -0.743820 1.508986 0.010959 -0.006154 1731380.000000 1 0 0
11.175924 6.095110 9.775444 16.050263 0.499288 0.915932 0.017588 -0.006989 2941250.000000 1 0 0
-15.325776 -4.219590 -4.926556 16.641974 0.268670 1.871332 0.026879 -0.010586 1841080.000000 1 0 0
-4.745976 -4.691990 7.855544 10.307697 0.779678 0.704239 0.002298 -0.005263 -906504.000000 1 0 0
3.051024 10.814010 -11.157956 15.835137 1.295808 2.352702 0.008803 -0.009278 -290515.000000 1 0 0
9.991924 -1.402190 1.602544 10.216302 -0.139422 1.413284 0.004350 0.000519 655626.000000 1 0 0
-1.654276 -2.614590 0.756544 3.185132 1.006672 1.330981 0.004416 -0.005574 43826.900000 1 0 0
1.616124 2.978910 0.894944 3.505237 1.073713 1.312622 -0.004103 0.001844 -660692.000000 1 0 0
-8.951476 -2.323590 4.281344 10.191070 0.253971 1.137233 0.003961 -0.003338 3882060.000000 1 0 0
9.923224 4.791310 -2.749256 11.357175 0.449824 1.815297 0.001964 -0.000894 -261299.000000 1 0 0
2.546224 8.475710 2.516344 9.200702 1.278960 1.293772 -0.003157 0.002731 413995.000000 1 0 0
-8.060876 -0.030590 2.481244 8.434171 0.003795 1.272189 0.001322 -0.003155 167157.000000 1 0 0
7.015424 2.074410 13.748744 15.573930 0.287501 0.488996 0.015503 -0.004123 -645248.000000 1 0 0
6.784524 4.392310 3.872344 8.961986 0.574546 1.123992 -0.001360 0.003313 2128200.000000 1 0 0
-0.313576 3.429110 7.763044 8.492466 -1.479605 0.417490 -0.002546 0.002059 2089050.000000 1 0 0
2.602724 -10.170490 9.160044 13.932675 -1.320264 0.853366 0.008136 -0.007648 1704570.000000 1 0 0
1.335924 -4.446590 6.846244 8.272116 -1.278938 0.595926 0.002685 -0.004813 -1008350.000000 1 0 0
-0.095976 10.789410 -1.997156 10.973114 -1.561901 1.753821 0.002079 0.000463 2487220.000000 1 0 0
8.784324 5.545910 8.066244 13.152405 0.563147 0.910577 0.006539 -0.000761 585546.000000 1 0 0
2.646524 11.426910 -2.968156 12.099104 1.343205 1.818646 0.003428 -0.003458 506922.000000 1 0 0
1.463224 2.463010 -6.826056 7.402870 1.034742 2.744224 0.003029 -0.003446 2022650.000000 1 0 0
-13.682576 -2.190290 3.588044 14.313781 0.158732 1.317423 0.009751 -0.006443 828459.000000 1 0 0
-0.909876 -10.611190 -5.234156 11.866828 1.485259 2.027592 0.006464 -0.000726 -136967.000000 1 0 0
-5.594676 2.801410 0.374744 6.268073 -0.464230 1.510975 0.006843 -0.001271 2652710.000000 1 0 0
3.705024 7.247010 -5.050256 9.578698 1.098190 2.126143 0.002230 0.000096 -2328920.000000 1 0 0
3.033424 9.743110 -6.542156 12.121455 1.268968 2.140897 0.005804 -0.000367 527402.000000 1 0 0
-12.192076 1.690010 -2.504056 12.560779 -0.137738 1.771496 0.003756 -0.001025 -569860.000000 1 0 0
-2.490276 9.501110 -5.796956 11.405143 -1.314459 2.103978 0.002190 -0.002217 1326810.000000 1 0 0
-1.279376 3.351010 1.708744 3.973145 -1.206088 1.126222 -0.001799 0.000556 628163.000000 1 0 0
12.930524 3.749110 9.565644 16.515321 0.282205 0.953052 0.039834 -0.005049 247177.000000 1 0 0
-2.638876 -9.487390 11.531544 15.164126 1.299508 0.706792 -0.000311 -0.010907 1097330.000000 1 0 0
-0.492376 -8.875090 -7.419456 11.578341 1.515375 2.266342 0.004396 -0.000659 2356810.000000 1 0 0
2.342624 7.634210 -0.488556 8.000484 1.273059 1.631900 -0.003755 0.002497 2212970.000000 1 0 0
-11.788676 -1.381990 -5.559956 13.107093 0.116698 2.008868 0.008004 -0.002128 -1213040.000000 1 0 0
-6.186176 -7.058690 -10.906756 14.389274 0.851179 2.431004 0.007920 -0.003519 1541550.000000 1 0 0
-4.711476 -2.288290 -1.339956 5.406455 0.452130 1.821250 0.004855 -0.005314 -2474430.000000 1 0 0
-10.559576 3.762810 4.493044 12.076872 -0.342313 1.189594 -0.000740 -0.001669 3584690.000000 1 0 0
6.791224 9.383110 -3.579256 12.123306 0.944294 1.870501 0.000747 0.000275 175451.000000 1 0 0
1.301324 -2.748490 -11.511356 11.906257 -1.128598 2.883320 0.003848 -0.005606 -1557510.000000 1 0 0
1.364624 8.848910 7.618444 11.756109 1.417788 0.865787 -0.004991 0.004702 749577.000000 1 0 0
10.410324 0.422910 10.550544 14.827935 0.040602 0.779121 0.020481 -0.002799 2584640.000000 1 0 0
-5.257176 -0.823590 -3.963856 6.635387 0.155397 2.211028 0.009242 -0.007783 184964.000000 1 0 0
11.705824 5.720110 5.360444 14.088305 0.454531 1.180471 0.011167 0.003341 3067530.000000 1 0 0
9.993324 -3.471190 3.643644 11.188915 -0.334313 1.239100 0.009127 -0.005688 -2411170.000000 1 0 0
7.340024 -1.659390 -3.405756 8.260066 -0.222337 1.995791 0.004396 -0.004109 -3593560.000000 1 0 0
2.408024 9.348510 10.476644 14.246168 1.318693 0.744538 -0.004026 0.002298 2033440.000000 1 0 0
2.285524 -10.810990 6.322144 12.730696 -1.362457 1.051112 0.006420 -0.005590 493185.000000 1 0 0
5.858524 -7.507690 -1.252256 9.604991 -0.908161 1.701544 0.004076 -0.004460 1716190.000000 1 0 0
-0.226576 -5.597190 -2.296756 6.054334 1.530338 1.959898 0.006207 -0.000814 2869930.000000 1 0 0
7.782724 -5.045590 2.623144 9.638965 -0.575184 1.295181 0.008099 -0.004035 1019760.000000 1 0 0
-2.847876 -12.485990 4.582344 13.601772 1.346547 1.227181 0.004134 -0.002063 -25876.800000 1 0 0
4.879224 -10.312690 -1.139756 11.465489 -1.128876 1.670368 0.003991 -0.005658 1914520.000000 1 0 0
1.011024 0.191610 1.151344 1.544175 0.187300 0.729355 -0.002360 -0.000942 -2208340.000000 1 0 0
-1.573676 8.589210 2.462044 9.072632 -1.389591 1.295980 -0.002512 0.005897 176451.000000 1 0 0
-7.521476 0.681810 -3.124756 8.173223 -0.090401 1.963098 0.003532 -0.001903 -394912.000000 1 0 0
4.378224 -6.326090 12.863844 14.988887 -0.965399 0.538994 0.009497 -0.003234 -2196130.000000 1 0 0
-5.128276 12.982410 8.396644 16.289439 -1.194593 1.029246 0.007117 -0.008764 361706.000000 1 0 0
0.671024 6.128010 8.303744 10.341902 1.461730 0.638615 -0.004260 0.005019 294076.000000 1 0 0
7.985024 -0.588890 -0.643456 8.032523 -0.073616 1.650989 0.006089 -0.001750 2806100.000000 1 0 0
2.359824 -9.251090 -2.358156 9.834243 -1.321037 1.812946 0.001035 -0.001802 1571100.000000 1 0 0
-7.121876 12.166510 4.861744 14.912466 -1.041206 1.238707 -0.000128 -0.004062 -338338.000000 1 0 0
-14.973176 0.288010 0.145844 14.976656 -0.019233 1.561058 0.011732 -0.004840 2111610.000000 1 0 0
6.887824 -0.502790 4.019644 7.990773 -0.072868 1.043689 0.004471 0.000936 858308.000000 1 0 0
-4.273476 -5.035090 5.161244 8.381716 0.867035 0.907428 0.000210 -0.004159 890525.000000 1 0 0
2.911324 5.209810 6.871344 9.101280 1.061210 0.715163 -0.005181 0.003124 -120638.000000 1 0 0
2.058424 -7.185790 1.894144 7.711061 -1.291810 1.322617 0.006056 -0.003361 2217490.000000 1 0 0
-2.498876 6.384210 -1.826156 7.094884 -1.197713 1.831117 0.002131 0.001484 1555110.000000 1 0 0
2.783124 -3.803490 -6.480456 8.013028 -0.939092 2.512803 -0.002328 -0.005457 -117512.000000 1 0 0
-5.045876 0.910810 -12.164756 13.201202 -0.178583 2.742692 0.011592 -0.008142 1560240.000000 1 0 0
-7.512776 6.352310 -12.037856 15.546821 -0.701896 2.456400 0.006983 -0.007894 2200810.000000 1 0 0
-1.008376 11.115110 -9.057156 14.373398 -1.480323 2.252521 0.007484 -0.003188 1976390.000000 1 0 0
4.695624 5.870910 -0.623756 7.543576 0.896170 1.653578 -0.000369 0.003100 578082.000000 1 0 0
-2.681876 13.379410 3.507144 14.089043 -1.372970 1.319224 0.001701 0.002873 995625.000000 1 0 0
1.469124 -7.793390 10.256244 12.964790 -1.384474 0.658217 -0.000448 -0.003988 -1022720.000000 1 0 0
13.059124 -0.324090 -1.108256 13.110072 -0.024812 1.655432 0.007553 -0.003639 -645721.000000 1 0 0
-1.015476 3.071510 -5.417556 6.309935 -1.251498 2.603281 0.007856 -0.007030 1482410.000000 1 0 0
6.600124 1.099910 7.358744 9.945981 0.165132 0.737918 0.003566 0.000761 2649650.000000 1 0 0
5.551624 -6.049890 6.931244 10.745410 -0.828320 0.869718 0.003415 -0.001917 1141340.000000 1 0 0
12.264224 -4.919390 2.603144 13.468034 -0.381469 1.376289 0.010382 -0.004455 -2014600.000000 1 0 0
4.323724 -9.206590 13.864244 17.195149 -1.131736 0.632946 0.010657 -0.001073 -111898.000000 1 0 0
-2.695576 -4.306790 -1.314056 5.247982 1.011557 1.823882 0.007363 -0.004297 1746120.000000 1 0 0
-9.401776 -5.195490 -7.499656 13.100815 0.504843 2.180296 0.013252 -0.005416 807825.000000 1 0 0
-10.632576 -3.107090 7.830444 13.565454 0.284307 0.955459 0.009519 -0.003496 258532.000000 1 0 0
12.141524 -0.632390 1.651644 12.269655 -0.052038 1.435774 0.008638 -0.000431 423094.000000 1 0 0
-7.624776 4.689110 4.395944 9.972427 -0.551364 1.114296 0.005136 -0.000105 1782800.000000 1 0 0
-1.041976 10.681410 6.959444 12.791095 -1.473554 0.995498 -0.005186 0.006754 2841260.000000 1 0 0
7.425224 -9.972490 1.862944 12.571995 -0.930779 1.422067 0.006285 -0.004920 2639120.000000 1 0 0
-4.348076 -1.706790 1.660444 4.957416 0.374058 1.229253 -0.000124 -0.002292 280433.000000 1 0 0
6.670624 -14.988690 -0.969056 16.434631 -1.152072 1.629795 0.027308 -0.011077 -3353610.000000 1 0 0
-10.427376 1.678310 2.421944 10.835715 -0.159584 1.345377 0.001187 0.000389 694401.000000 1 0 0
-3.017676 8.325210 -11.457256 14.480477 -1.223052 2.483599 0.007714 -0.006489 -487593.000000 1 0 0
-1.329076 -5.097890 -6.880356 8.665692 1.315762 2.488119 0.003639 -0.003268 -53386.300000 1 0 0
12.877324 -0.426090 6.420344 14.395410 -0.033076 1.108506 0.018927 -0.005491 2565010.000000 1 0 0
5.911524 -13.277090 3.743044 15.007918 -1.151906 1.318731 0.011639 -0.008151 581553.000000 1 0 0
-5.618776 3.558210 -5.001956 8.321723 -0.564525 2.215638 0.007091 -0.006480 999788.000000 1 0 0
-4.313676 8.116110 3.377444 9.792149 -1.082271 1.218650 -0.000223 0.004801 756801.000000 1 0 0
14.081324 6.082110 -4.034156 15.860333 0.407724 1.827977 0.028594 -0.004156 902968.000000 1 0 0
-6.783776 -8.456190 5.312544 12.072692 0.894699 1.115146 0.005155 -0.002808 -47834.900000 1 0 0
1.678624 11.375310 2.642444 11.798219 1.424286 1.344911 -0.001749 0.001954 1818360.000000 1 0 0
-7.409576 7.223610 6.022944 11.973229 -0.772690 1.043690 0.000716 -0.001500 -424350.000000 1 0 0
-17.496676 -3.969590 5.377044 18.729760 0.223100 1.279613 0.038769 -0.010775 -520491.000000 1 0 0
7.483624 -13.167090 -8.572556 17.403034 -1.053968 2.085859 0.020866 -0.011367 -1264740.000000 1 0 0
-2.277776 12.802910 -2.816656 13.305500 -1.394728 1.784101 -0.000050 0.003450 2366520.000000 1 0 0
-5.411576 13.786110 -5.821156 15.913135 -1.196739 1.945297 0.014129 -0.003091 2958210.000000 1 0 0
-5.635276 2.456310 7.469244 9.673645 -0.411051 0.688621 0.002200 -0.000827 1824410.000000 1 0 0
-7.366776 5.078110 1.442644 9.062992 -0.603526 1.410937 0.007018 0.001227 3366010.000000 1 0 0
10.742324 -5.728090 -5.033556 13.173656 -0.489874 1.962856 0.015864 -0.010422 3441950.000000 1 0 0
-9.483776 -0.782090 6.831544 11.714251 0.082280 0.948156 0.003494 -0.002592 855359.000000 1 0 0
-11.257276 -4.553590 -2.481856 12.394396 0.384381 1.772399 0.007416 -0.003334 662885.000000 1 0 0
6.555924 -4.405790 13.582244 15.712048 -0.591708 0.526746 0.018883 -0.003685 -1433820.000000 1 0 0
0.269624 10.242510 -11.718456 15.566115 1.544478 2.423130 0.007017 -0.004212 -318416.000000 1 0 0
-11.846876 -3.197190 1.450444 12.356144 0.263596 1.453139 0.007266 -0.006041 4704340.000000 1 0 0
5.232024 6.066610 5.429044 9.677414 0.859130 0.975201 -0.002481 0.003566 -3264610.000000 1 0 0
-7.126876 -0.042090 8.176744 10.846809 0.005906 0.716912 -0.000988 -0.000901 212702.000000 1 0 0
1.766024 2.064910 9.636244 10.011987 0.863260 0.274833 -0.000325 -0.002718 3614510.000000 1 0 0
10.500724 -4.928290 -2.011956 11.772901 -0.438811 1.742537 0.009043 -0.008208 1703520.000000 1 0 0
-9.543976 -2.383590 -1.701856 9.983251 0.244742 1.742104 0.005035 -0.004334 495367.000000 1 0 0
-2.044276 -5.209490 -9.889156 11.362801 1.196847 2.626627 0.009363 -0.006066 975639.000000 1 0 0
7.704124 -1.554090 6.589544 10.256257 -0.199051 0.873053 0.006254 -0.002687 3117940.000000 1 0 0
1.494024 -11.860790 -2.566456 12.226902 -1.445493 1.782271 0.003733 -0.003360 -3852830.000000 1 0 0
-0.703576 -1.539990 4.826244 5.114608 1.142243 0.337397 0.003073 -0.002329 2557220.000000 1 0 0
7.608624 1.548410 9.974444 12.640342 0.200766 0.661460 0.005847 0.001173 2247290.000000 1 0 0
-3.862876 10.674010 -7.971356 13.870791 -1.223564 2.183017 0.007457 -0.001464 4098050.000000 1 0 0
-9.507176 12.724810 6.372844 17.114916 -0.929130 1.189250 0.000045 -0.004309 1183630.000000 1 0 0
-2.468276 -2.389490 -11.006156 11.529854 0.769181 2.839040 0.012786 -0.008344 -735867.000000 1 0 0
1.019124 -11.817090 10.987144 16.167855 -1.484768 0.823624 0.001741 -0.001753 1254300.000000 1 0 0
1.438924 3.419310 -1.935256 4.184185 1.172469 2.051628 -0.000485 -0.000451 2784410.000000 1 0 0
-1.890076 -9.415690 -12.029056 15.392394 1.372692 2.467852 -0.000095 -0.002515 -111304.000000 1 0 0
1.253224 -2.694090 1.629844 3.388964 -1.135395 1.069085 0.008336 -0.003906 3043800.000000 1 0 0
-1.012176 -2.146090 -6.627956 7.039887 1.130095 2.797809 0.006486 -0.008529 473160.000000 1 0 0
1.767224 5.893310 4.058344 7.370505 1.279459 0.987690 -0.007191 0.005400 156887.000000 1 0 0
-10.950976 8.664910 3.605544 14.422361 -0.669380 1.318119 -0.001132 -0.001258 1898600.000000 1 0 0
-16.444376 -1.561290 3.940144 16.981751 0.094660 1.336640 0.025651 -0.007906 439860.000000 1 0 0
-12.204276 0.251210 6.819844 13.982766 -0.020581 1.061306 0.004396 -0.003531 586649.000000 1 0 0
-5.114776 3.040610 4.660644 7.558297 -0.536348 0.906346 0.001458 0.002822 1722800.000000 1 0 0
5.303124 -6.014190 4.052344 8.984158 -0.848146 1.102850 0.003102 -0.002552 1854390.000000 1 0 0
9.926024 3.488310 6.326544 12.276783 0.337949 1.029409 0.003276 0.005832 -297463.000000 1 0 0
-12.266176 5.949710 3.197544 14.002943 -0.451616 1.340416 0.000393 -0.000537 2231520.000000 1 0 0
-4.912376 12.289610 -1.352156 13.303920 -1.190533 1.672608 0.000326 0.003976 1301780.000000 1 0 0
-1.897776 -12.176090 10.235944 16.019777 1.416179 0.877655 0.006860 -0.005236 1068700.000000 1 0 0
5.207324 6.397210 13.921844 16.182035 0.887577 0.534885 0.006591 -0.002754 164413.000000 1 0 0
12.975124 -3.806590 -5.922956 14.762296 -0.285369 1.983647 0.015000 -0.007886 1344060.000000 1 0 0
3.546524 -2.507190 6.411644 7.744224 -0.615370 0.595397 0.001871 -0.001552 1382110.000000 1 0 0
7.237924 -11.871890 -0.546056 13.915009 -1.023298 1.610049 0.009257 -0.004529 -228082.000000 1 0 0
-6.141776 -6.494990 -4.050556 9.813935 0.813342 1.996251 0.011056 -0.003867 -694489.000000 1 0 0
0.236624 -8.922590 5.059744 10.260098 -1.544283 1.055092 0.007418 -0.006549 1431880.000000 1 0 0
-10.278276 2.466910 -0.371956 10.576718 -0.235556 1.605971 0.002975 0.001224 -809204.000000 1 0 0
-1.822076 8.934310 -0.448256 9.129228 -1.369614 1.619917 0.001517 0.002728 52800.600000 1 0 0
-3.591076 2.386410 -6.642156 7.918903 -0.586528 2.565821 0.014046 -0.012206 -88114.800000 1 0 0
-12.640276 2.989710 6.433344 14.494926 -0.232254 1.110923 0.002775 -0.005223 -156123.000000 1 0 0
11.380024 1.570710 7.974144 13.984243 0.137157 0.964018 0.016102 -0.003991 -1903710.000000 1 0 0
6.069024 2.642110 -3.270156 7.382934 0.410599 2.029665 -0.000630 0.000854 1806880.000000 1 0 0
10.568224 -2.350990 6.360944 12.556915 -0.218894 1.039596 0.014290 -0.005203 3440890.000000 1 0 0
-0.920876 11.059610 4.053944 11.815137 -1.487723 1.220566 -0.001448 0.005685 1433700.000000 1 0 0
-1.721676 -12.191690 7.302244 14.315175 1.430507 1.035489 0.005259 -0.003964 -1454860.000000 1 0 0
8.114524 8.621710 -7.813856 14.185758 0.815694 2.154148 0.002788 -0.000770 2724630.000000 1 0 0
-4.748376 -5.888190 -8.679856 11.513373 0.892151 2.424765 0.013984 -0.005169 1513480.000000 1 0 0
-8.538976 -5.371890 -11.650356 15.411104 0.561544 2.427933 0.015329 -0.004149 859287.000000 1 0 0
6.023924 -0.806590 -9.918356 11.632370 -0.133106 2.591835 0.001430 0.000089 319392.000000 1 0 0
-11.318276 -5.530590 -5.347356 13.685212 0.454520 1.972231 0.009389 -0.007370 -913054.000000 1 0 0
3.898024 8.863710 -2.746556 10.064965 1.156479 1.847185 0.004961 -0.002387 2956810.000000 1 0 0
11.685924 -10.401390 -4.002056 16.148256 -0.727306 1.821238 0.036960 -0.012483 -819326.000000 1 0 0
3.935724 -11.229390 3.952644 12.538441 -1.233690 1.250085 0.010405 -0.005829 -824870.000000 1 0 0
-0.980876 0.875410 3.273844 3.527962 -0.728644 0.381868 0.002261 -0.001223 -504644.000000 1 0 0
-10.605476 -5.099390 4.439844 12.577445 0.448191 1.210020 0.010597 -0.005290 3308680.000000 1 0 0
4.639224 -8.584490 2.877644 10.173332 -1.075338 1.284020 0.005929 -0.003551 5579560.000000 1 0 0
-3.729176 -5.763390 2.690644 7.373125 0.996501 1.197243 0.003135 -0.004126 1979500.000000 1 0 0
10.095924 5.111810 12.318944 16.727661 0.468694 0.743001 0.026177 0.000645 740394.000000 1 0 0
1.605624 -12.315290 -5.289756 13.499108 -1.441151 1.973448 0.002147 -0.004685 753833.000000 1 0 0
9.883524 -10.712090 -1.688456 14.672552 -0.825607 1.686128 0.017004 -0.008326 1297340.000000 1 0 0
9.640524 -4.505190 -9.095956 13.999030 -0.437162 2.278060 0.022259 -0.009715 1283380.000000 1 0 0
-7.452876 -3.082690 -13.003756 15.301830 0.392196 2.586434 0.011774 -0.006984 2085670.000000 1 0 0
0.424624 6.175210 -2.553756 6.695909 1.502142 1.962096 0.001544 -0.000008 3606570.000000 1 0 0
-6.091976 -9.425790 0.960644 11.264125 0.997020 1.485409 0.005758 -0.001936 -61686.600000 1 0 0
-8.965776 -4.072590 0.620644 9.866931 0.426372 1.507853 0.000830 -0.004800 4423640.000000 1 0 0
1.917624 3.882710 12.045944 12.800683 1.112050 0.345107 -0.000577 -0.003436 539144.000000 1 0 0
6.643924 4.327310 9.636944 12.479504 0.577302 0.688466 -0.000957 0.001072 1460570.000000 1 0 0
-8.283576 9.755710 -3.628656 13.302581 -0.866825 1.847076 0.007404 -0.003083 2560440.000000 1 0 0
16.410724 2.065210 -6.021456 17.602127 0.125187 1.919933 0.047584 -0.007850 -580206.000000 1 0 0
-11.028776 2.647110 -5.099856 12.435821 -0.235562 1.993354 0.001443 -0.000817 2003470.000000 1 0 0
-13.834776 4.086910 1.507144 14.504322 -0.287239 1.466698 0.006650 0.002554 -465281.000000 1 0 0
-17.405576 10.427610 3.456744 20.582474 -0.539755 1.402051 0.045898 -0.017925 -667504.000000 1 0 0
-14.330776 2.918710 -1.181456 14.672623 -0.200919 1.651405 0.011061 0.000970 478520.000000 1 0 0
-14.420776 5.054010 5.155544 16.127041 -0.337091 1.245401 0.003635 -0.002703 1352830.000000 1 0 0
-17.412476 7.478410 3.085844 19.200088 -0.405664 1.409376 0.029072 -0.005578 -2421580.000000 1 0 0
-15.174576 12.683010 -3.388356 20.065081 -0.696196 1.740478 0.063687 -0.019379 -1551100.000000 1 0 0
-8.491476 12.552710 -9.548456 17.912251 -0.976041 2.133019 0.021233 -0.014975 2163190.000000 1 0 0
-12.444776 8.775210 -9.834056 18.126926 -0.614162 2.144220 0.027872 -0.006858 -226589.000000 1 0 0
-13.913976 -3.519990 -12.104956 18.775490 0.247784 2.271455 0.030798 -0.006870 -1629570.000000 1 0 0
-14.854576 5.665510 -7.722356 17.674593 -0.364368 2.022966 0.038193 0.000053 562507.000000 1 0 0
-10.909476 13.624110 -8.338356 19.343248 -0.895600 2.016478 0.040903 -0.008957 1379780.000000 1 0 0
-10.876176 13.642510 3.920544 17.882393 -0.897749 1.349760 0.008993 -0.006751 -887603.000000 1 0 0
-15.242276 3.220810 3.076744 15.879766 -0.208244 1.375811 0.009879 -0.002060 917748.000000 1 0 0
-11.145976 9.409910 -12.440956 19.171766 -0.701142 2.276961 0.033285 -0.015447 1040670.000000 1 0 0
-12.986376 11.512610 -8.921156 19.513411 -0.725314 2.045619 0.042277 -0.024063 -815101.000000 1 0 0
-8.829376 14.451010 -3.560956 17.305202 -1.022337 1.778051 0.017769 -0.014697 2220330.000000 1 0 0
-16.773276 8.301510 -4.245256 19.190625 -0.459579 1.793857 0.042718 -0.007906 170448.000000 1 0 0
-16.813876 6.736610 0.276844 18.115325 -0.381073 1.555513 0.022979 -0.000871 -341349.000000 1 0 0
-10.468376 2.814310 -12.403056 16.472494 -0.262630 2.423338 0.010766 -0.011336 865782.000000 1 0 0
-16.861776 0.886210 2.427744 17.058687 -0.052509 1.427994 0.031844 -0.008644 441172.000000 1 0 0
-12.605676 1.133210 -7.043956 14.484632 -0.089656 2.078653 0.007272 -0.006243 1809290.000000 1 0 0
-12.367776 9.021910 -5.374756 16.224819 -0.630231 1.908443 0.032596 -0.005754 481289.000000 1 0 0
-9.676676 13.996210 1.203444 17.058143 -0.965880 1.500188 0.021235 -0.012813 -151449.000000 1 0 0
-12.152476 11.178510 2.775844 16.743568 -0.743677 1.404242 0.008711 -0.005280 -323210.000000 1 0 0
-12.645776 6.864010 -3.625956 14.838391 -0.497291 1.817659 0.013861 -0.002920 571264.000000 1 0 0
-15.850376 3.605910 -9.474656 18.815051 -0.223690 2.098520 0.039555 -0.009806 -2287160.000000 1 0 0
-15.230176 5.920510 -4.792856 17.028863 -0.370758 1.856106 0.027680 0.001651 942585.000000 1 0 0
-17.868876 5.330510 7.447644 20.079305 -0.289908 1.190806 0.024893 -0.012266 -2982390.000000 1 0 0
-15.885076 10.113810 -2.192556 18.958695 -0.566959 1.686705 0.040181 -0.007557 -1101120.000000 1 0 0
-8.872676 9.936510 -8.401756 15.749544 -0.841897 2.133483 0.015304 -0.008534 1480040.000000 1 0 0
-16.963476 4.229810 -1.258756 17.528129 -0.244365 1.642672 0.013391 -0.000849 17824.300000 1 0 0
-10.298576 5.394810 -4.605556 12.505031 -0.482538 1.947972 0.003059 -0.000980 475415.000000 1 0 0
-18.099976 2.756010 6.132144 19.308235 -0.151105 1.247607 0.034937 -0.018575 -399968.000000 1 0 0
-10.397076 10.127010 -5.731256 15.604577 -0.772240 1.946880 0.019947 -0.008303 1277080.000000 1 0 0
-15.294076 0.496910 -5.878256 16.392364 -0.032479 1.937561 0.013633 -0.006769 -629562.000000 1 0 0
-16.432776 -4.146390 -8.846256 19.117660 0.247165 2.051865 0.039345 -0.017339 -2421930.000000 1 0 0
-9.959176 9.636310 -1.131156 13.904071 -0.768923 1.652241 0.010405 -0.002894 1739680.000000 1 0 0
-17.447876 -2.913190 -3.207656 17.977879 0.165439 1.750179 0.049766 -0.011242 -441712.000000 1 0 0
-12.027476 5.071710 -11.551556 17.430459 -0.399053 2.295245 0.023716 -0.008614 -336686.000000 1 0 0
-16.317676 7.095410 5.845644 18.729201 -0.410167 1.253379 0.017922 -0.004939 -368770.000000 1 0 0
-12.168076 5.949310 -8.779156 16.140940 -0.454751 2.145881 0.016135 -0.001839 1289320.000000 1 0 0
-14.539076 8.525610 -0.165356 16.855210 -0.530354 1.580607 0.026767 -0.005408 2212270.000000 1 0 0
-14.868976 11.886110 3.874144 19.426144 -0.674369 1.370021 0.018626 -0.010204 2162880.000000 1 0 0
-17.362176 4.109810 -4.052656 18.296440 -0.232432 1.794148 0.031913 -0.004157 -165316.000000 1 0 0
-13.898676 13.300710 -0.768756 19.252872 -0.763417 1.610736 0.040556 -0.021898 -688222.000000 1 0 0
-10.129876 6.830810 -13.088356 17.904732 -0.593285 2.390582 0.011154 -0.013112 692036.000000 1 0 0
-15.881476 -1.171990 -8.248456 17.934098 0.073662 2.048714 0.021618 -0.014943 248313.000000 1 0 0
-11.458376 11.919710 -0.070556 16.534173 -0.805129 1.575064 0.022514 -0.012405 482684.000000 1 0 0
-11.951976 7.428610 -0.953556 14.104725 -0.556106 1.638453 0.008198 0.003051 2232600.000000 1 0 0
-11.503376 0.112510 -11.687756 16.399511 -0.009780 2.364121 0.016265 -0.011814 1306310.000000 1 0 0
-19.167476 -1.119390 -4.728356 19.773784 0.058334 1.812258 0.063139 -0.020400 -72006.200000 1 0 0
-17.881676 1.479610 -5.141656 18.664946 -0.082556 1.849876 0.027276 -0.008045 -578797.000000 1 0 0
-13.313976 -0.154890 -9.458456 16.332432 0.011633 2.188447 0.015018 -0.010129 1166580.000000 1 0 0
-6.083476 11.213410 -13.228756 18.377956 -1.073716 2.374334 0.007103 -0.008722 210694.000000 1 0 0
16.368924 5.950410 7.068644 18.796669 0.348667 1.185258 0.055700 -0.013471 -320647.000000 1 0 0
14.789324 10.205110 -5.486556 18.787514 0.604005 1.867147 0.059921 -0.014274 647213.000000 1 0 0
2.403824 16.957310 4.336444 17.667300 1.429977 1.322812 0.014378 -0.008276 577024.000000 1 0 0
-3.772676 18.165210 -6.002256 19.499616 -1.366021 1.883691 0.022494 -0.007896 1279400.000000 1 0 0
5.351924 14.572110 5.529344 16.479173 1.218818 1.228623 0.004777 -0.007016 -943477.000000 1 0 0
10.035724 5.994310 15.146844 19.133070 0.538430 0.657279 0.041899 -0.001604 -865841.000000 1 0 0
4.724324 12.715610 -1.178556 13.615982 1.215065 1.657462 0.002386 -0.005356 930111.000000 1 0 0
3.412424 13.686210 12.902144 19.116022 1.326446 0.829915 0.020222 -0.009979 2385.980000 1 0 0
-0.722576 12.470410 9.204044 15.516046 -1.512918 0.935774 -0.004698 0.002293 2986990.000000 1 0 0
-7.668876 13.949710 8.320844 17.962253 -1.068144 1.089148 0.009559 -0.015515 257979.000000 1 0 0
11.434024 12.783910 -4.215156 17.661620 0.841080 1.811784 0.052552 -0.011258 265590.000000 1 0 0
-5.832176 16.147410 0.811344 17.187537 -1.224194 1.523573 0.007440 0.000636 319746.000000 1 0 0
3.273224 10.678210 6.777744 13.064302 1.273357 1.025351 -0.002735 0.005584 2990140.000000 1 0 0
-1.176276 15.576510 2.367444 15.799243 -1.495423 1.420384 0.003944 -0.000876 -2510320.000000 1 0 0
10.002324 8.834910 9.479544 16.369602 0.723504 0.953179 0.014484 -0.006122 920818.000000 1 0 0
7.264024 12.301010 6.231544 15.585668 1.037375 1.159470 0.003146 -0.002941 -1023760.000000 1 0 0
11.919724 14.051010 -1.595856 18.494796 0.867280 1.657191 0.037196 -0.003301 -585759.000000 1 0 0
9.718124 15.972410 -1.295756 18.741366 1.024200 1.639990 0.027951 -0.001616 1271690.000000 1 0 0
10.073024 13.696810 2.880144 17.244235 0.936686 1.402989 0.021851 -0.007736 2075490.000000 1 0 0
-5.965576 14.539110 6.214944 16.899685 -1.181432 1.194203 -0.001506 -0.006992 297908.000000 1 0 0
-0.861876 18.193410 -6.440156 19.318867 -1.523459 1.910663 0.031005 0.000631 500453.000000 1 0 0
-3.454076 15.681310 5.426144 16.949253 -1.353991 1.244918 -0.003576 -0.001543 801868.000000 1 0 0
7.077724 12.254010 10.583944 17.671299 1.047022 0.928627 0.017169 -0.006281 2152660.000000 1 0 0
1.464224 14.619310 6.122244 15.916974 1.470972 1.175983 0.002345 -0.002608 362180.000000 1 0 0
17.593824 7.691810 -1.633856 19.271120 0.412149 1.655681 0.049494 -0.002338 599597.000000 1 0 0
2.035624 16.120910 -3.427856 16.606556 1.445189 1.778707 0.006254 -0.005499 1663410.000000 1 0 0
6.744024 11.169010 0.535844 13.058169 1.027576 1.529750 0.007214 -0.002390 1662950.000000 1 0 0
12.679724 9.332810 3.073244 16.041246 0.634508 1.378021 0.021814 0.000926 -2172370.000000 1 0 0
6.034324 14.245310 -3.526256 15.867464 1.170111 1.794899 0.002758 -0.002873 161508.000000 1 0 0
3.087624 16.509410 1.464144 16.859353 1.385910 1.483842 0.012814 -0.015369 -1932740.000000 1 0 0
2.910924 18.734610 -2.682156 19.148187 1.416652 1.711332 0.026553 -0.015929 -243380.000000 1 0 0
4.016824 11.997310 10.586544 16.496825 1.247717 0.874042 0.008998 -0.005352 2167450.000000 1 0 0
8.000924 11.532510 3.395544 14.441028 0.964263 1.333442 0.002213 -0.000440 1650140.000000 1 0 0
0.768124 12.513010 0.142544 12.537375 1.509487 1.559427 0.000902 -0.000928 -810786.000000 1 0 0
12.018524 9.890210 -4.604356 16.231490 0.688558 1.858414 0.036646 -0.005784 -970569.000000 1 0 0
-1.232676 16.517010 9.976644 19.335577 -1.496304 1.028653 0.001835 -0.002724 134249.000000 1 0 0
8.107024 14.738110 -8.071756 18.657143 1.067898 2.018211 0.040921 -0.004216 1302860.000000 1 0 0
14.675624 7.546710 -1.445356 16.565501 0.474970 1.658158 0.028373 0.000234 20774.900000 1 0 0
12.502524 8.407410 5.920244 16.187864 0.592001 1.196389 0.018734 -0.004383 -1597140.000000 1 0 0
-3.103076 14.250610 10.261544 17.832786 -1.356393 0.957665 0.005599 -0.009293 2804960.000000 1 0 0
-4.695576 17.156710 -3.260856 18.084091 -1.303651 1.752104 0.027405 -0.004410 1855720.000000 1 0 0
-7.204876 16.280510 -1.848856 17.899261 -1.154158 1.674273 0.026546 -0.010257 179225.000000 1 0 0
8.416424 11.281310 -1.874056 14.199163 0.929828 1.703166 0.008950 -0.002832 19033.100000 1 0 0
8.602524 12.909710 -4.166656 16.063159 0.983006 1.833189 0.025043 -0.006738 2195250.000000 1 0 0
2.545724 14.784310 -7.458556 16.753704 1.400278 2.032181 0.002178 -0.004411 -1029190.000000 1 0 0
11.352324 11.419410 9.671344 18.783319 0.788344 1.029917 0.028278 -0.008728 872880.000000 1 0 0
8.545224 15.626610 1.350744 17.861588 1.070384 1.495101 0.012659 -0.008039 1593680.000000 1 0 0
6.102724 9.937510 7.761644 14.008585 1.020066 0.983559 0.000338 0.004793 2401170.000000 1 0 0
14.425624 11.486010 2.514644 18.610494 0.672434 1.435262 0.041109 -0.000818 1762860.000000 1 0 0
12.104224 12.581810 1.014244 17.488364 0.804742 1.512768 0.033369 -0.004798 2474850.000000 1 0 0
5.218224 16.030410 8.098544 18.702682 1.256094 1.122961 0.021212 -0.006422 -49054.500000 1 0 0
11.443624 15.112210 5.018344 19.609161 0.922675 1.311999 0.037637 -0.009901 840098.000000 1 0 0
5.921824 16.677910 1.625044 17.772492 1.229612 1.479233 0.008444 -0.020460 -1326000.000000 1 0 0
-0.690976 16.149410 -4.355956 16.740826 -1.528036 1.834025 0.009047 0.001181 905332.000000 1 0 0
16.085524 6.528510 2.611344 17.555188 0.385550 1.421492 0.023889 0.001991 -7247.290000 1 0 0
7.657324 16.655710 -3.323056 18.630352 1.139871 1.750124 0.014575 -0.005459 -684713.000000 1 0 0
14.832724 8.329010 7.355044 18.533180 0.511652 1.162705 0.048068 -0.012284 -319761.000000 1 0 0
2.154224 13.066210 8.546344 15.760918 1.407396 0.997685 0.003173 0.002101 451334.000000 1 0 0
15.938824 7.504610 -5.890656 18.575928 0.440047 1.893479 0.038017 -0.004795 698839.000000 1 0 0
-2.980176 17.029910 0.573044 17.298199 -1.397554 1.537663 0.002903 -0.001310 1392030.000000 1 0 0
-2.894876 18.500410 4.607744 19.284107 -1.415579 1.329522 0.003584 -0.002353 900577.000000 1 0 0
-0.896076 19.104310 0.751444 19.140071 -1.523926 1.531526 0.013978 -0.006242 127648.000000 1 0 0
6.888224 16.739810 -6.187856 19.130040 1.180426 1.900183 0.017876 -0.003984 307563.000000 1 0 0
11.000924 10.045810 0.731644 14.915560 0.740049 1.521724 0.016597 -0.000876 -1294080.000000 1 0 0
9.250224 8.709610 14.317844 19.142220 0.755306 0.725795 0.042409 -0.007610 2643850.000000 1 0 0
6.417224 12.331510 -8.434856 16.260188 1.090968 2.116176 0.028199 -0.009080 2201390.000000 1 0 0
6.364924 9.071710 13.303444 17.314439 0.958982 0.694547 0.020434 -0.007665 996253.000000 1 0 0
16.667724 9.535510 2.824344 19.409170 0.519648 1.424762 0.040989 0.001875 -1373850.000000 1 0 0
2.644724 14.697510 -0.852756 14.957893 1.392758 1.627838 0.006271 -0.007971 -138147.000000 1 0 0
9.157324 12.901810 8.279044 17.856535 0.953543 1.088695 0.014661 -0.011207 487994.000000 1 0 0
7.333424 9.355210 10.538644 15.885908 0.905958 0.845449 0.014376 -0.004950 1398620.000000 1 0 0
4.288324 15.726710 -5.397356 17.171214 1.304590 1.890543 0.011456 -0.006828 943210.000000 1 0 0
0.187024 16.240310 -8.332956 18.254337 1.559281 2.044845 0.015501 -0.003764 1369830.000000 1 0 0
-2.468376 15.748110 -2.113356 16.079868 -1.415320 1.702606 0.004050 0.000839 -1025010.000000 1 0 0
13.258724 10.598510 7.565944 18.584017 0.674351 1.151497 0.039448 -0.016514 1161940.000000 1 0 0
-0.965076 15.962610 7.051244 17.477309 -1.510411 1.155511 0.003038 -0.003242 1009790.000000 1 0 0
13.220124 13.535810 6.587644 20.034642 0.797196 1.235750 0.045504 -0.012353 -524557.000000 1 0 0
5.378324 17.359910 4.408244 18.700948 1.270361 1.332834 0.016849 -0.017377 2015850.000000 1 0 0
10.859524 9.468510 -1.864856 14.527892 0.717076 1.699515 0.015483 -0.001141 551380.000000 1 0 0
3.224124 12.730310 4.642444 13.928678 1.322748 1.230994 -0.001653 0.001102 402282.000000 1 0 0
-0.199476 18.054710 3.517744 18.395295 -1.559748 1.378381 0.008547 -0.007246 607728.000000 1 0 0
-7.569076 15.846710 -5.843856 18.508371 -1.125193 1.892034 0.035318 -0.017920 123725.000000 1 0 0
-12.457676 -9.141090 8.283244 17.531838 0.633034 1.078707 0.027695 -0.005932 221685.000000 1 0 0
-13.336276 -11.713690 6.925444 19.053308 0.720715 1.198799 0.041884 -0.007397 -108838.000000 1 0 0
-6.688276 -12.066190 12.330144 18.502930 1.064659 0.841442 0.023925 -0.012689 -1384600.000000 1 0 0
-1.918376 -10.698090 14.303344 17.964268 1.393363 0.649790 0.004653 -0.003824 547799.000000 1 0 0
-8.822976 2.821710 10.957644 14.348412 -0.309534 0.701797 0.000227 -0.006280 774081.000000 1 0 0
0.549424 9.958010 15.257144 18.227569 1.515678 0.578952 0.006063 -0.009680 431336.000000 1 0 0
0.919924 -6.750290 16.479144 17.831849 -1.435352 0.392015 0.010250 -0.017866 519485.000000 1 0 0
6.055724 2.235710 17.856044 18.987061 0.353667 0.346897 0.032147 -0.013716 1034880.000000 1 0 0
-5.202576 -2.902790 17.698244 18.674068 0.508928 0.324706 0.022854 -0.016004 1141940.000000 1 0 0
-4.277676 8.207310 13.094244 16.034889 -1.090330 0.615284 -0.005494 -0.002256 871983.000000 1 0 0
-0.014576 -4.777190 18.571044 19.175647 1.567745 0.251781 0.019473 -0.023709 1469720.000000 1 0 0
-11.652176 2.071410 11.183144 16.282710 -0.175932 0.813704 0.015494 -0.012289 1727830.000000 1 0 0
-3.376876 -5.936890 14.348544 15.891213 1.053637 0.444274 0.010760 -0.013416 121961.000000 1 0 0
-7.514976 -2.098690 14.578344 16.535038 0.272329 0.491420 0.009170 -0.007945 1431660.000000 1 0 0
-6.122276 -1.056590 10.707944 12.379770 0.170898 0.525736 0.003171 -0.004050 2042370.000000 1 0 0
-3.946276 2.456010 11.205744 12.131520 -0.556700 0.393198 -0.000861 0.000336 231536.000000 1 0 0
-6.413876 6.300810 13.506344 16.225269 -0.776506 0.587324 -0.006981 -0.004983 -66962.300000 1 0 0
-8.962076 5.451810 12.523744 16.336622 -0.546515 0.697258 0.000232 -0.009674 -648266.000000 1 0 0
-12.188676 -2.104090 15.727344 20.008507 0.170942 0.666431 0.028200 -0.011339 1929850.000000 1 0 0
-3.626776 -7.424590 16.878944 18.792998 1.116406 0.455251 0.016030 -0.020582 -1945830.000000 1 0 0
-0.544376 -5.286490 14.353144 15.305426 1.468183 0.354612 0.007809 -0.008255 1542810.000000 1 0 0
-14.261976 -2.073290 13.606744 19.820342 0.144361 0.814126 0.048126 -0.016014 -366516.000000 1 0 0
-6.447876 1.498610 12.240744 13.916061 -0.228365 0.495749 0.002001 -0.005762 1672360.000000 1 0 0
2.217024 -2.187390 14.593844 14.922471 -0.778670 0.210255 0.002383 -0.003540 880166.000000 1 0 0
-12.533976 4.004610 9.135444 16.018546 -0.309250 0.963920 0.002018 -0.009134 -539027.000000 1 0 0
-9.086076 -3.020290 12.532844 15.771845 0.320918 0.652392 0.001062 -0.001215 220469.000000 1 0 0
-7.116676 -7.148390 15.284344 18.312775 0.787621 0.583340 0.016345 -0.012404 -2621580.000000 1 0 0
-3.298476 6.052210 19.487044 20.670125 -1.071797 0.339973 0.044648 -0.017902 170544.000000 1 0 0
0.635624 5.380310 16.169944 17.053411 1.453203 0.323294 0.006679 -0.011357 667234.000000 1 0 0
3.442624 1.530810 16.714244 17.133621 0.418408 0.221709 0.005011 -0.011501 1923680.000000 1 0 0
-11.710876 11.556210 7.935744 18.266545 -0.778751 1.121378 0.000488 -0.002554 392670.000000 1 0 0
0.506024 -9.439090 15.398144 18.068074 -1.517238 0.550564 -0.005754 -0.000657 957456.000000 1 0 0
-2.620076 -3.546790 18.967444 19.473275 0.934555 0.228425 0.023272 -0.024799 1816670.000000 1 0 0
-12.777076 2.384410 13.793944 18.952888 -0.184494 0.755685 0.027359 -0.021665 384935.000000 1 0 0
-5.403076 -0.527190 15.814744 16.720565 0.097264 0.330667 0.010714 -0.005371 1086690.000000 1 0 0
-4.480576 -5.881090 11.648144 13.796450 0.919747 0.565566 0.004428 -0.007108 -700359.000000 1 0 0
2.496924 1.917610 13.971644 14.321965 0.654915 0.221634 0.000121 -0.004689 -100123.000000 1 0 0
0.083824 3.295310 14.207344 14.584743 1.545365 0.227985 0.006767 -0.006260 726008.000000 1 0 0
-12.958176 6.952910 12.229444 19.126332 -0.492470 0.877074 0.007895 -0.011386 1089750.000000 1 0 0
0.839424 1.494410 18.110944 18.191871 1.059008 0.094359 0.004048 -0.011054 1327290.000000 1 0 0
-1.962276 6.470610 12.532444 14.240136 -1.276352 0.494768 -0.002244 -0.002033 873944.000000 1 0 0
-13.481776 -2.610290 10.850444 17.501544 0.191250 0.902091 0.035439 -0.013970 114225.000000 1 0 0
-2.555576 3.677110 13.450244 14.176077 -0.963437 0.321385 0.001022 -0.004415 -541565.000000 1 0 0
3.525324 6.128910 16.326544 17.791781 1.048815 0.408682 0.012578 -0.012007 1012700.000000 1 0 0
-3.731476 12.292410 12.262044 17.759082 -1.276077 0.808663 0.007910 -0.015358 1765010.000000 1 0 0
3.641724 -1.491890 17.133244 17.579418 -0.388811 0.225781 0.013527 -0.006899 28258.800000 1 0 0
-15.897176 0.438210 9.242544 18.393935 -0.027558 1.044334 0.043721 -0.016987 1814880.000000 1 0 0
-4.615376 4.726110 15.260744 16.629135 -0.797252 0.408516 0.005038 -0.007096 -283880.000000 1 0 0
-8.057576 -8.119190 10.483444 15.516068 0.789207 0.828949 0.015506 -0.009982 3175680.000000 1 0 0
-2.692376 -0.406190 14.744644 14.993945 0.149737 0.182609 0.009830 -0.004697 1426720.000000 1 0 0
-1.864876 1.035810 17.228044 17.359613 -0.507003 0.123196 0.013540 -0.012879 492447.000000 1 0 0
-0.664876 -2.388590 14.391744 14.603757 1.299314 0.170605 0.005090 -0.005572 -195576.000000 1 0 0
5.179324 -8.296490 16.492244 19.174234 -1.012716 0.535281 0.025828 -0.003609 355266.000000 1 0 0
-4.403576 9.901010 10.704944 15.232115 -1.152308 0.791488 0.000584 -0.007377 -352216.000000 1 0 0
-6.200076 2.180510 15.309044 16.660204 -0.338180 0.405516 0.005981 -0.001722 1445250.000000 1 0 0
-5.002876 6.936010 17.292244 19.291415 -0.945924 0.459285 0.021264 -0.002629 792400.000000 1 0 0
-4.254876 9.280710 15.725344 18.748920 -1.140926 0.575843 0.016490 -0.001367 1150780.000000 1 0 0
-4.729376 -9.749490 18.386544 21.342084 1.119148 0.532549 0.033296 -0.020913 452976.000000 1 0 0
-6.839076 -3.998690 11.134644 13.665386 0.529081 0.618401 0.004362 -0.000959 748338.000000 1 0 0
-2.312576 -0.749490 19.637244 19.787144 0.313411 0.123169 0.022600 -0.012714 -456599.000000 1 0 0
-5.790676 -4.426890 15.268244 16.918881 0.652708 0.445401 0.012345 -0.009890 1493700.000000 1 0 0
-12.907676 0.065210 9.723544 16.160435 -0.005052 0.925183 0.021169 -0.007876 2762600.000000 1 0 0
-14.246076 8.788510 10.356244 19.683506 -0.552759 1.016743 0.001167 -0.011026 -451192.000000 1 0 0
-8.365176 10.567610 12.794444 18.583551 -0.901207 0.811402 0.004419 -0.018032 -305338.000000 1 0 0
-10.463276 7.169410 10.788244 16.651330 -0.600722 0.865984 0.007048 -0.009959 -2284570.000000 1 0 0
-9.875976 -6.465390 14.792344 18.924841 0.579643 0.673511 0.018689 -0.012415 545696.000000 1 0 0
-0.829576 -13.458490 14.342544 19.685723 1.509235 0.754556 0.005708 -0.000571 -323117.000000 1 0 0
3.705624 -5.768390 16.864444 18.204819 -0.999781 0.386133 0.028261 -0.013623 2690150.000000 1 0 0
-7.285476 9.331710 10.438344 15.783473 -0.907921 0.848184 -0.001635 -0.007744 1887650.000000 1 0 0
-10.333076 -6.698290 11.832444 17.077654 0.575135 0.805347 0.021219 -0.010612 2221500.000000 1 0 0
-10.927476 -3.934390 10.667744 15.769905 0.345596 0.827848 0.014763 -0.003203 -857698.000000 1 0 0
-10.146076 -10.197490 9.845344 17.431651 0.787925 0.970609 0.031912 -0.014240 386722.000000 1 0 0
-9.857776 -3.533990 15.207844 18.464651 0.344225 0.603033 0.016979 -0.011900 652538.000000 1 0 0
5.578324 -3.492490 16.128844 17.419954 -0.559377 0.387429 0.024872 -0.005635 -70906.400000 1 0 0
-11.247576 0.588010 15.350244 19.039005 -0.052231 0.633007 0.022641 -0.011726 -246329.000000 1 0 0
-3.259376 3.091610 18.795344 19.324765 -0.758989 0.234615 0.031117 -0.014868 -874030.000000 1 0 0
0.558124 7.309410 13.976144 15.782002 1.494587 0.483066 0.004441 -0.008104 400729.000000 1 0 0
-13.142076 -7.466290 12.187544 19.416382 0.516649 0.892209 0.035389 -0.010890 -1299310.000000 1 0 0
-1.542576 -1.103190 12.141744 12.288959 0.620828 0.154942 0.003910 -0.004170 -133927.000000 1 0 0
2.049124 -4.809590 13.111244 14.115090 -1.168037 0.379415 0.005846 -0.006531 1684050.000000 1 0 0
-14.703276 -4.041290 8.641844 17.527117 0.268233 1.055198 0.033664 -0.013121 -2455410.000000 1 0 0
8.078824 0.833610 16.156944 18.083394 0.102821 0.465787 0.041031 -0.012976 1683030.000000 1 0 0
-1.256676 11.253810 13.494044 17.615808 -1.459590 0.698171 0.001516 -0.006835 -77943.600000 1 0 0
2.891524 -12.290790 -13.811156 18.712895 -1.339739 2.400980 0.010112 -0.002192 -350595.000000 1 0 0
0.814024 -10.632590 -14.032456 17.624540 -1.494386 2.491766 0.000275 0.000212 -2097840.000000 1 0 0
3.139524 -14.308090 -12.160856 19.038499 -1.354796 2.263670 0.013851 -0.011380 -650530.000000 1 0 0
-5.102276 -10.180790 -16.072056 19.697530 1.106216 2.525154 0.021258 -0.010700 -986233.000000 1 0 0
-1.021876 -12.169190 -15.011256 19.351259 1.487020 2.458660 0.013246 -0.005478 -477716.000000 1 0 0
5.631124 -14.946890 -11.988056 19.970792 -1.210499 2.214647 0.022789 -0.012229 -614359.000000 1 0 0
1.881324 -11.909690 -16.120956 20.131202 -1.414125 2.499417 0.013207 -0.000360 -772596.000000 1 0 0
1.220824 -14.186590 -13.914356 19.908768 -1.484953 2.344663 0.019642 -0.007152 -1056360.000000 1 0 0
-1.130776 -10.871190 -15.850956 19.253941 1.467153 2.537923 0.012475 -0.003849 -411333.000000 1 0 0
-5.841176 -5.432890 -15.047556 17.031282 0.749199 2.654131 0.018027 -0.008670 106305.000000 1 0 0
-6.479576 -7.591990 -16.301956 19.114837 0.864288 2.592202 0.023177 -0.012886 -21757.100000 1 0 0
4.948324 -12.513190 -11.500556 17.701091 -1.194220 2.277998 0.007798 -0.002266 -618602.000000 1 0 0
-1.783776 -15.430190 -12.929456 20.209984 1.455704 2.264977 0.011398 -0.006132 18723.100000 1 0 0
15.873424 -7.372190 -8.651356 19.523338 -0.434794 2.029882 0.072440 -0.010662 905675.000000 1 0 0
19.245324 -3.576390 -4.069356 19.993317 -0.183736 1.775764 0.101063 -0.028507 480416.000000 1 0 0
15.051724 -11.698090 -8.710756 20.958935 -0.660679 1.999410 0.082543 -0.026052 829893.000000 1 0 0
17.879424 -3.457990 -6.320156 19.276303 -0.191047 1.904846 0.100776 -0.018607 256578.000000 1 0 0
9.876424 -9.238390 -15.340456 20.450457 -0.752032 2.419052 0.088337 -0.027723 247204.000000 1 0 0
1.158924 1.924910 -15.292856 15.457032 1.028859 2.995714 0.006892 -0.003462 -133307.000000 1 0 0
4.736124 -4.344090 -13.812056 15.234004 -0.742250 2.706094 0.002904 -0.001943 1595720.000000 1 0 0
13.237624 -5.622190 -8.655056 16.785520 -0.401627 2.112535 0.042717 -0.008319 -2310820.000000 1 0 0
2.941224 0.904510 -12.198756 12.580882 0.298349 2.894495 0.000670 -0.002339 -2331890.000000 1 0 0
0.647824 6.318410 -12.922656 14.399202 1.468624 2.684765 0.011959 -0.008337 492354.000000 1 0 0
3.159024 -1.213590 -16.749556 17.088004 -0.366782 2.942234 0.013640 -0.006225 10766.900000 1 0 0
13.115224 4.028410 -11.283456 17.763828 0.298008 2.259055 0.009000 -0.013171 34095.800000 1 0 0
-4.027376 9.396210 -16.402156 19.327164 -1.165866 2.584240 0.010682 -0.006333 282110.000000 1 0 0
-0.266776 -5.289290 -17.662356 18.439267 1.520402 2.850276 0.015535 -0.009710 148975.000000 1 0 0
-0.412076 -8.822490 -17.524456 19.624288 1.524123 2.674760 0.020647 -0.004023 557796.000000 1 0 0
5.511124 -10.055890 -12.296256 16.813427 -1.069452 2.391074 0.008847 -0.006230 741571.000000 1 0 0
1.956724 -9.779190 -18.068956 20.638520 -1.373314 2.637259 0.027903 -0.009316 -282019.000000 1 0 0
11.118624 8.496910 -14.467056 20.127518 0.652531 2.372828 0.082751 -0.036183 -1211830.000000 1 0 0
11.016824 -3.788590 -12.784856 17.296715 -0.331222 2.402603 0.023221 -0.008403 715774.000000 1 0 0
4.956224 7.402310 -12.352156 15.229383 0.980800 2.516782 0.005289 -0.003527 212262.000000 1 0 0
9.602624 -5.894690 -12.542356 16.860262 -0.550550 2.409684 0.026860 -0.010120 -1626770.000000 1 0 0
-3.344576 0.183610 -15.881056 16.230461 -0.054843 2.933721 0.018790 -0.007349 -1129440.000000 1 0 0
-0.679576 10.752410 -12.873556 16.787037 -1.507678 2.444754 0.006929 -0.006558 -3395210.000000 1 0 0
6.654124 -5.439890 -12.267756 14.978905 -0.685334 2.530466 0.011540 -0.007261 112749.000000 1 0 0
18.045024 -5.875290 -8.071356 20.622529 -0.314766 1.972933 0.102707 -0.017170 664270.000000 1 0 0
12.850824 4.767110 -13.816656 19.461989 0.355222 2.360196 0.026883 -0.024537 346477.000000 1 0 0
14.144424 0.822810 -11.464556 18.225745 0.058107 2.251102 0.020006 -0.001559 558020.000000 1 0 0
14.844224 6.058910 -11.160556 19.535081 0.387526 2.178896 0.036062 -0.017691 378865.000000 1 0 0
8.166324 1.407510 -11.723356 14.356427 0.170679 2.526280 -0.006488 0.005530 396557.000000 1 0 0
9.969724 1.142710 -8.853456 13.382259 0.114120 2.293722 -0.001903 0.000168 376112.000000 1 0 0
-0.235376 -5.783590 -12.940156 14.175788 1.530122 2.720971 0.001199 -0.004244 214603.000000 1 0 0
10.651424 -5.740490 -8.848956 14.990333 -0.494313 2.202240 0.026707 -0.012949 62648.300000 1 0 0
10.283124 8.408610 -11.179656 17.361799 0.685447 2.270411 0.037561 -0.018346 601223.000000 1 0 0
8.588924 8.117910 -14.704756 18.865310 0.757213 2.464600 0.041992 -0.010379 828347.000000 1 0 0
8.768124 10.567910 -10.619956 17.359268 0.878210 2.229098 0.052496 -0.014171 -625607.000000 1 0 0
7.024224 1.897310 -17.824656 19.252477 0.263814 2.754041 0.018665 -0.004826 -2301620.000000 1 0 0
12.157524 2.361710 -12.887056 17.873424 0.191869 2.376066 0.016700 -0.008571 -1277330.000000 1 0 0
2.716324 -0.962190 -19.253456 19.467917 -0.340434 2.993023 0.029448 -0.015215 -565432.000000 1 0 0
10.372224 -2.403590 -15.592756 18.881057 -0.227714 2.542489 0.041639 -0.005146 592623.000000 1 0 0
8.278124 -0.865790 -13.076756 15.500919 -0.104209 2.574771 0.002728 -0.001750 796035.000000 1 0 0
0.582524 4.464610 -14.683956 15.358732 1.441053 2.844070 0.009262 -0.004242 49912.300000 1 0 0
4.014624 -7.630690 -15.548456 17.779176 -1.086475 2.635266 0.012669 -0.008933 -1836960.000000 1 0 0
11.498224 -5.974590 -14.246056 19.257596 -0.479212 2.403514 0.062585 -0.012996 -711584.000000 1 0 0
-5.872176 4.342710 -16.720456 18.245965 -0.636773 2.729768 0.013285 -0.009305 140639.000000 1 0 0
11.354824 7.711710 -8.852156 16.332886 0.596600 2.143592 0.030300 -0.006706 -857101.000000 1 0 0
9.508324 6.079210 -13.402556 17.521231 0.568857 2.441733 0.010257 -0.000539 -432971.000000 1 0 0
12.101624 0.525410 -10.014556 15.716765 0.043389 2.261642 0.009184 0.002478 -1785640.000000 1 0 0
5.490524 -7.186590 -13.678456 16.397960 -0.918398 2.557397 0.011400 -0.005954 -307136.000000 1 0 0
8.557924 -10.177190 -10.614756 17.014297 -0.871613 2.244485 0.023309 -0.009467 77362.600000 1 0 0
10.295924 4.633610 -15.855156 19.464387 0.422890 2.522788 0.051188 -0.016214 542494.000000 1 0 0
9.911824 -0.347490 -10.997856 14.809383 -0.035044 2.407782 0.002593 -0.000384 -81961.500000 1 0 0
-1.740876 5.381310 -13.947156 15.050326 -1.257918 2.756334 0.009828 -0.007773 107140.000000 1 0 0
1.267324 -0.762590 -14.902556 14.975775 -0.541692 3.042667 0.007979 -0.005425 -681970.000000 1 0 0
11.819924 -10.290790 -13.884056 20.937477 -0.716350 2.295775 0.106459 -0.033092 464493.000000 1 0 0
9.366724 -7.719390 -10.695156 16.177480 -0.689282 2.293099 0.032756 -0.011477 -250248.000000 1 0 0
14.145524 -1.036790 -9.662656 17.162101 -0.073164 2.168835 0.025608 -0.001320 779155.000000 1 0 0
4.074424 11.034010 -12.360056 17.062277 1.217067 2.380972 0.024483 -0.015767 -714671.000000 1 0 0
-1.199076 2.863310 -16.918156 17.200591 -1.174212 2.960125 0.016725 -0.005862 -416907.000000 1 0 0
5.988124 -0.453790 -17.677556 18.669749 -0.075637 2.814112 0.009069 0.001738 133681.000000 1 0 0
6.396124 -6.411390 -15.987956 18.374740 -0.786590 2.626212 0.023849 -0.007409 373101.000000 1 0 0
-1.809276 -5.285290 -19.776756 20.550617 1.240977 2.866293 0.029015 -0.018941 -1178090.000000 1 0 0
-0.004376 -4.459390 -15.184056 15.825351 1.569815 2.855936 0.005396 -0.005250 -689119.000000 1 0 0
0.547824 0.913910 -12.998256 13.041856 1.030797 3.059801 0.005188 -0.006077 500899.000000 1 0 0
15.548924 0.517110 -13.599556 20.663600 0.033245 2.289143 0.068541 -0.016680 701775.000000 1 0 0
-0.114476 6.986810 -16.409756 17.835603 -1.554413 2.739020 0.007839 -0.000643 -170833.000000 1 0 0
-5.043476 -0.648390 -18.197756 18.894851 0.127859 2.869113 0.015386 -0.007164 -326634.000000 1 0 0
10.457524 -8.308490 -13.000956 18.639090 -0.671378 2.342713 0.043142 -0.021450 305955.000000 1 0 0
4.140024 8.691510 -17.097656 19.621723 1.126264 2.628771 0.038968 -0.018996 -107925.000000 1 0 0
9.148024 0.578410 -17.136356 19.433878 0.063144 2.650414 0.022525 0.003954 -241087.000000 1 0 0
3.251424 4.978110 -18.740456 19.661079 0.992214 2.834364 0.022206 0.003405 -409738.000000 1 0 0
1.511224 -8.145490 -15.964256 17.985835 -1.387353 2.662908 0.007559 -0.006134 518136.000000 1 0 0
4.694124 7.634310 -14.944556 17.425764 1.019513 2.601406 0.015934 -0.005535 505877.000000 1 0 0
-5.782776 -0.402190 -15.129556 16.202029 0.069438 2.775704 0.015471 -0.009214 -294858.000000 1 0 0
2.821724 3.304610 -13.893556 14.557248 0.864057 2.838467 0.005604 -0.000342 592220.000000 1 0 0
-2.361176 -10.351890 -18.070056 20.958619 1.346541 2.610349 0.030278 -0.004950 -312282.000000 1 0 0
6.175124 -8.955890 -15.372056 18.831894 -0.967149 2.525734 0.015919 -0.015046 -42629.800000 1 0 0
-1.725076 5.308510 -17.485756 18.355050 -1.256597 2.832599 0.011954 -0.000008 505623.000000 1 0 0
9.914924 -12.165590 -11.505656 19.459892 -0.886977 2.203404 0.059711 -0.018423 -881703.000000 1 0 0
10.852724 3.523110 -9.325856 14.736537 0.313896 2.256011 -0.002131 -0.001234 -1218160.000000 1 0 0
4.870124 -0.582790 -10.969156 12.015829 -0.119100 2.721110 0.000849 -0.003151 60185.600000 1 0 0
6.454524 9.459210 -11.475856 16.212119 0.972012 2.357256 0.021324 -0.010162 469028.000000 1 0 0
10.829224 -9.620490 -9.427256 17.282912 -0.726359 2.147742 0.048525 -0.015782 -1178680.000000 1 0 0
3.094424 -2.501090 -14.494356 15.030545 -0.679755 2.873685 0.002502 -0.004254 -255986.000000 1 0 0
9.359324 -4.619490 -14.768756 18.084601 -0.458491 2.526376 0.037547 -0.008245 -297211.000000 1 0 0
-4.037476 -6.657290 -16.564756 18.303329 1.025630 2.702207 0.010161 -0.006563 -322220.000000 1 0 0
5.936724 -7.787290 -11.125856 14.821310 -0.919431 2.419866 0.006492 -0.005739 932229.000000 1 0 0
5.484224 6.534610 -17.160856 19.164364 0.872572 2.680252 0.019428 0.006022 -714842.000000 1 0 0
8.850924 1.461610 -19.577256 21.534719 0.163659 2.711920 0.040308 -0.009504 369048.000000 1 0 0
13.098024 5.682010 -9.267256 17.021325 0.409306 2.146529 0.004801 -0.006412 -473596.000000 1 0 0
-1.481076 -0.769390 -17.241756 17.322347 0.479110 3.045094 0.019706 -0.010766 675623.000000 1 0 0
-0.323676 -0.636390 -19.463856 19.476947 1.100282 3.104927 0.038859 -0.020048 -457675.000000 1 0 0
2.887124 6.494710 -16.614056 18.070518 1.152497 2.737352 0.016280 0.000838 -677745.000000 1 0 0
7.673724 3.746610 -15.608856 17.792120 0.454195 2.640984 0.014397 -0.001048 1307150.000000 1 0 0
3.160624 -9.882690 -14.826056 18.096106 -1.261262 2.530977 0.009988 -0.004333 974301.000000 1 0 0
9.196724 -10.535190 -13.248656 19.263874 -0.853127 2.329176 0.058511 -0.014054 136519.000000 1 0 0
3.781824 0.028510 -14.756256 15.233191 0.007539 2.890700 -0.000919 0.000063 -1885930.000000 1 0 0
-1.093776 -3.027390 -18.822256 19.095517 1.224096 2.972215 0.031583 -0.014141 265138.000000 1 0 0
9.425724 9.960210 -13.084556 18.954041 0.812962 2.332742 0.067169 -0.024015 143700.000000 1 0 0
4.677924 2.039210 -10.639556 11.800064 0.411085 2.694372 -0.003372 0.000999 -181613.000000 1 0 0
-0.531476 7.086210 -18.944856 20.233745 -1.495935 2.782739 0.020711 -0.003771 146880.000000 1 0 0
0.883324 -2.038690 -17.649156 17.788458 -1.161933 3.016363 0.028200 -0.011421 -714331.000000 1 0 0
-4.475876 -2.280490 -14.021656 14.894326 0.471224 2.797581 0.013996 -0.009380 -3551010.000000 1 0 0
10.068524 5.965810 -10.441556 15.684137 0.534902 2.299281 0.007095 0.001180 108072.000000 1 0 0
8.358124 5.617510 -17.319656 20.034599 0.591756 2.614926 0.055657 -0.019171 83346.300000 1 0 0
11.496924 0.042010 -13.796456 17.958932 0.003654 2.446856 0.016711 0.012159 668867.000000 1 0 0
6.935824 12.053910 -11.752756 18.207957 1.048661 2.272440 0.058372 -0.022880 39214.000000 1 0 0
-0.948876 0.461610 -14.988256 15.025354 -0.452774 3.071307 0.012258 -0.006574 -2130070.000000 1 0 0
-4.498376 -3.011190 -18.981456 19.738245 0.589889 2.863784 0.016928 -0.008770 -210989.000000 1 0 0
5.750524 -12.050190 -13.922956 19.290524 -1.125543 2.377125 0.016346 -0.006760 -180687.000000 1 0 0
2.111124 -4.910590 -13.968956 14.956686 -1.164772 2.776136 0.000720 -0.002517 -1738730.000000 1 0 0
11.746724 1.891010 -15.467656 19.514349 0.159613 2.485907 0.047003 -0.006460 602100.000000 1 0 0
9.693724 2.041310 -13.750656 16.947442 0.207548 2.517289 0.007855 0.000501 813610.000000 1 0 0
-2.160076 -4.253390 -16.302756 16.986380 1.100890 2.856923 0.006160 -0.011288 -2355960.000000 1 0 0
-2.750976 10.156510 -14.309556 17.761925 -1.306285 2.507536 0.010805 -0.007049 131695.000000 1 0 0
3.541824 5.722910 -13.741456 15.301106 1.016606 2.686157 0.010041 0.000071 -89466.800000 1 0 0
-5.216976 -2.643390 -16.518456 17.523234 0.468985 2.801310 0.013020 -0.008717 438717.000000 1 0 0
-4.312176 6.126810 -13.709456 15.623119 -0.957511 2.641443 0.006035 -0.006012 -1141450.000000 1 0 0
5.826924 -1.243090 -14.191756 15.391694 -0.210185 2.744114 0.002898 0.001943 -56520.800000 1 0 0
6.784124 -3.068790 -12.649056 14.677889 -0.424805 2.609557 0.005387 -0.005107 328309.000000 1 0 0
3.075324 -3.319990 -18.326556 18.877039 -0.823637 2.899500 0.020115 -0.012956 -422366.000000 1 0 0
7.412724 -12.034390 -11.991156 18.535448 -1.018723 2.274349 0.030119 -0.008969 -996970.000000 1 0 0
-6.149976 -5.441090 -17.672356 19.486915 0.724316 2.706624 0.039065 -0.007083 536489.000000 1 0 0
0.516924 8.670210 -12.001456 14.814679 1.511246 2.515129 0.007274 -0.003722 477173.000000 1 0 0
0.265324 8.539910 -14.409056 16.751757 1.539738 2.606364 0.002024 -0.005861 -423421.000000 1 0 0
7.736124 -2.636590 -14.952956 17.040837 -0.328469 2.641374 0.014133 -0.012369 -245513.000000 1 0 0
14.252524 1.514110 -8.854356 16.847154 0.105838 2.124181 0.013122 -0.000701 240624.000000 1 0 0
3.098324 10.728210 -14.849356 18.579491 1.289645 2.496816 0.025234 -0.005816 34946.800000 1 0 0
6.025924 0.998810 -15.478756 16.640351 0.164259 2.765738 0.004397 0.003515 298450.000000 1 0 0
16.827324 -5.520390 -10.211256 20.442683 -0.316998 2.093826 0.114013 -0.021040 337179.000000 1 0 0
4.862624 -4.231690 -11.148256 12.877730 -0.716132 2.617344 -0.001409 -0.003798 -748295.000000 1 0 0
8.696624 -3.691590 -17.014756 19.461784 -0.401435 2.634716 0.030875 -0.014697 265604.000000 1 0 0
13.340824 -9.680090 -8.783456 18.677013 -0.627701 2.060406 0.077256 -0.024197 460503.000000 1 0 0
2.278224 -7.859590 -13.546656 15.826413 -1.288663 2.598186 0.001019 -0.001545 264166.000000 1 0 0
-6.982776 -2.436590 -18.351356 19.785561 0.335733 2.758499 0.032993 -0.013997 -110287.000000 1 0 0
-1.497276 -6.607590 -15.694956 17.094845 1.347960 2.734083 0.003846 -0.005786 -19529.700000 1 0 0
1.607724 -7.300990 -18.401156 19.861817 -1.354049 2.755689 0.023177 -0.013605 -33387.800000 1 0 0
5.683024 10.775010 -14.366156 18.835712 1.085449 2.438287 0.050744 -0.032465 -13855.900000 1 0 0
5.509824 -3.480590 -17.340256 18.524501 -0.563407 2.782089 0.021702 -0.007723 -825627.000000 1 0 0
4.217924 12.951610 -14.205556 19.680775 1.255960 2.377194 0.042764 -0.019344 -17636.600000 1 0 0
9.625024 10.183410 -15.730156 21.066104 0.813580 2.413890 0.102194 -0.033078 381945.000000 1 0 0
2.467924 3.881310 -16.410556 17.042933 1.004434 2.868328 0.011522 0.002455 616415.000000 1 0 0
16.640024 1.820310 -11.504356 20.311429 0.108960 2.172925 0.079378 -0.015030 791397.000000 1 0 0
10.033024 -3.726490 -10.426256 14.941724 -0.355630 2.343110 0.025676 -0.008137 297342.000000 1 0 0
14.677524 -2.293490 -11.954456 19.068267 -0.155005 2.248402 0.073490 -0.010937 737176.000000 1 0 0
-2.710176 -8.823690 -15.983956 18.457774 1.272795 2.617892 0.007236 -0.001528 -186272.000000 1 0 0
13.948524 8.145910 -8.778356 18.384143 0.528570 2.068599 0.042031 -0.008710 783228.000000 1 0 0
-8.254476 0.064110 -16.489156 18.439977 -0.007767 2.677453 0.019350 -0.012451 -618889.000000 1 0 0
-3.434776 3.894010 -15.859156 16.687536 -0.847978 2.825185 0.012304 -0.007943 125541.000000 1 0 0
14.993724 4.020910 -9.540756 18.221018 0.262008 2.121882 0.017984 -0.009981 43709.200000 1 0 0
5.429424 0.931610 -12.898856 14.025941 0.169931 2.737966 -0.000324 0.003832 195211.000000 1 0 0
7.817224 -7.732690 -12.850056 16.912345 -0.779962 2.433807 0.028395 -0.009170 -1671580.000000 1 0 0
3.310924 -6.255890 -11.759656 13.725447 -1.084024 2.599785 0.001649 -0.001384 -888712.000000 1 0 0
-3.269076 3.425910 -18.393456 18.993234 -0.808819 2.889616 0.012473 -0.006622 128341.000000 1 0 0
0.912524 5.187010 -17.896056 18.654935 1.396653 2.855381 0.016402 -0.004051 -1204430.000000 1 0 0
6.392124 7.096610 -10.281956 14.033522 0.837579 2.393035 0.001298 0.001019 109568.000000 1 0 0
9.636524 3.545410 -11.636356 15.518934 0.352544 2.418581 0.003841 -0.001274 527248.000000 1 0 0
4.491324 1.693610 -17.484156 18.131079 0.360597 2.873658 0.015715 0.001924 482001.000000 1 0 0
2.690824 8.098010 -13.359156 15.851983 1.249992 2.573156 0.012037 -0.005587 1021620.000000 1 0 0
14.509524 -3.685990 -9.817956 17.902655 -0.248777 2.151255 0.052399 -0.005653 131935.000000 1 0 0
-1.333376 9.214810 -16.287056 18.760566 -1.427094 2.622266 0.006882 -0.003367 -1444200.000000 1 0 0
-5.216076 1.992810 -15.836256 16.791836 -0.364939 2.802607 0.016465 -0.007779 709507.000000 1 0 0
4.571124 4.200510 -12.001856 13.512365 0.743172 2.664237 0.002081 0.000895 494254.000000 1 0 0
9.208124 3.164910 -17.687756 20.190664 0.331059 2.638377 0.038678 -0.006653 1004550.000000 1 0 0
-4.279476 14.253210 -13.424156 20.041854 -1.279113 2.304744 0.018692 -0.010627 -394704.000000 1 0 0
15.588024 -4.967790 -7.826356 18.136076 -0.308517 2.016990 0.065830 -0.011150 157749.000000 1 0 0
1.169524 9.250310 -16.736756 19.158681 1.445033 2.633319 0.005721 -0.003049 -686631.000000 1 0 0
0.465224 -3.260590 -12.818656 13.235023 -1.429072 2.890094 0.003689 -0.003794 310767.000000 1 0 0
7.507824 3.457610 -13.082056 15.474582 0.431580 2.578091 0.001976 0.005422 -224444.000000 1 0 0
-2.870876 7.559110 -15.085156 17.115608 -1.207833 2.649547 0.005815 -0.005762 -231205.000000 1 0 0
12.120024 -5.276590 -10.980556 17.184586 -0.410614 2.263964 0.041235 -0.011299 -682026.000000 1 0 0
0.723224 -4.672590 -19.934456 20.487525 -1.417235 2.908708 0.040070 -0.018648 -137381.000000 1 0 0
3.424924 -4.534390 -16.096956 17.070524 -0.923898 2.802233 0.012920 -0.007941 405859.000000 1 0 0
-5.620976 3.936310 -14.277656 15.841129 -0.610920 2.693564 0.006672 -0.008112 758474.000000 1 0 0
12.268624 -7.537690 -9.747056 17.387955 -0.550931 2.165863 0.041917 -0.012748 148571.000000 1 0 0
-2.112176 -1.940690 -15.016256 15.287757 0.743111 2.952848 0.013483 -0.005444 286499.000000 1 0 0
7.068724 5.830110 -14.275656 16.963237 0.689666 2.570969 0.010113 0.001302 311424.000000 1 0 0
4.331524 -5.568190 -18.324156 19.635212 -0.909674 2.774095 0.031192 -0.018057 45279.400000 1 0 0
7.663524 7.398510 -12.352256 16.310910 0.767805 2.429966 0.009879 -0.006607 -1181850.000000 1 0 0
12.367024 -2.631790 -10.878656 16.679771 -0.209679 2.281288 0.025140 -0.005354 -1351200.000000 1 0 0
7.442524 -0.809690 -10.665756 13.030929 -0.108366 2.529584 0.001670 -0.002197 -388556.000000 1 0 0
5.345124 3.864710 -14.520756 15.948627 0.626019 2.715217 -0.001357 0.006150 -14772.300000 1 0 0
14.741824 2.926910 -13.036856 19.895924 0.195996 2.285313 0.045218 -0.020287 1417190.000000 1 0 0
-6.656876 6.724210 -15.762756 18.384599 -0.790430 2.600972 0.008992 -0.004202 845108.000000 1 0 0
-11.442476 3.732510 -16.198456 20.180483 -0.315315 2.502570 0.068174 -0.027975 -582533.000000 1 0 0
-4.917776 6.611310 -17.753756 19.572680 -0.931247 2.707063 0.011375 -0.001186 149077.000000 1 0 0
-10.192376 1.550210 -15.507556 18.621815 -0.150938 2.554876 0.045780 -0.018185 -584489.000000 1 0 0
-7.451676 5.966710 -18.037756 20.408081 -0.675180 2.654834 0.018487 -0.004499 245050.000000 1 0 0
-8.882876 3.849510 -15.794556 18.525448 -0.408933 2.591712 0.019533 0.003480 -621379.000000 1 0 0
9.134224 13.420510 -12.099156 20.246820 0.973198 2.211280 0.107808 -0.032963 -152351.000000 1 0 0
13.707724 8.882810 -11.298256 19.860932 0.574979 2.175926 0.044024 -0.019197 88282.400000 1 0 0
8.313224 15.807410 -9.220456 20.099769 1.086639 2.047367 0.063364 -0.016263 -467046.000000 1 0 0
7.336624 13.333010 -14.080056 20.732660 1.067753 2.317365 0.092582 -0.027235 -133982.000000 1 0 0
4.720224 15.801310 -12.702856 20.816447 1.280511 2.227149 0.068928 -0.028198 314468.000000 1 0 0
11.251024 10.747510 -11.457356 19.322669 0.762514 2.205512 0.085600 -0.024440 -446771.000000 1 0 0
15.908724 9.378110 -9.834256 20.922453 0.532659 2.060125 0.093146 -0.005260 1967260.000000 1 0 0
13.558924 10.631010 -9.315356 19.586696 0.664946 2.066438 0.100629 -0.016290 307996.000000 1 0 0
10.421824 11.953110 -8.284656 17.892087 0.853729 2.052212 0.049026 -0.005608 329710.000000 1 0 0
5.464524 16.105810 -10.214156 19.839031 1.243695 2.111631 0.043539 -0.018846 -108208.000000 1 0 0
6.836324 14.573610 -11.780956 19.947841 1.132182 2.202584 0.060076 -0.008402 -941003.000000 1 0 0
10.723524 14.083210 -9.843456 20.253997 0.920014 2.078304 0.087910 -0.011380 -866401.000000 1 0 0
8.235324 -18.505190 -1.312056 20.297391 -1.152085 1.635483 0.064098 -0.009342 -20886.800000 1 0 0
7.472824 -17.344490 -3.558056 19.218069 -1.163984 1.757012 0.046468 -0.013951 242626.000000 1 0 0
4.545324 -18.034690 5.565344 19.413476 -1.323906 1.280043 0.035597 -0.012647 -2455.260000 1 0 0
9.872924 -16.984590 -2.525156 19.807254 -1.044250 1.698631 0.066050 -0.014493 588470.000000 1 0 0
-9.693176 -12.259390 -9.903656 18.502235 0.901768 2.135621 0.042561 -0.012905 -50792.700000 1 0 0
-5.049176 -7.011390 -12.030056 14.811348 0.946682 2.518742 0.005822 -0.003610 251174.000000 1 0 0
-10.807376 -9.501590 -5.678156 15.470005 0.721190 1.946624 0.023358 -0.008119 -959450.000000 1 0 0
-4.549876 -11.482290 -13.939056 18.623685 1.193525 2.416531 0.014169 -0.007664 -156371.000000 1 0 0
-2.967276 -15.414990 7.388144 17.349677 1.380629 1.130909 0.004940 -0.002635 263575.000000 1 0 0
-4.770476 -12.040090 -11.487556 17.311417 1.193556 2.296394 0.014131 -0.004264 -282036.000000 1 0 0
-14.552676 -12.782290 -4.049356 19.787991 0.720722 1.776889 0.059925 -0.025466 235091.000000 1 0 0
-3.201376 -12.290890 -3.224956 13.104012 1.315990 1.819455 0.012653 -0.001439 608842.000000 1 0 0
-2.531776 -17.422890 -1.644556 17.682521 1.426493 1.663936 0.008625 -0.016431 -581661.000000 1 0 0
-5.956176 -12.149390 3.560844 13.991544 1.114983 1.313466 -0.000428 -0.000047 872182.000000 1 0 0
-8.799376 -10.697690 -11.908056 18.266674 0.882456 2.280884 0.023369 -0.003881 157392.000000 1 0 0
-9.493376 -12.195990 -7.302856 17.093802 0.909365 2.012215 0.041502 -0.014230 -797895.000000 1 0 0
-10.871576 -15.223390 6.216744 19.712703 0.950646 1.249953 0.039475 -0.010465 -707223.000000 1 0 0
-9.464076 -15.679490 0.680844 18.326993 1.027737 1.533638 0.029387 -0.006969 -2329210.000000 1 0 0
-14.823976 -7.741890 -8.195856 18.624156 0.481292 2.026468 0.034448 -0.010759 15021.000000 1 0 0
-2.427976 -16.560490 5.180744 17.520987 1.425221 1.270621 0.013365 -0.005945 701171.000000 1 0 0
4.439824 -15.557790 6.070844 17.280393 -1.292809 1.211822 0.031197 -0.014132 -811713.000000 1 0 0
4.228624 -14.559390 -9.943156 18.130732 -1.288133 2.151263 0.011939 -0.009054 -123196.000000 1 0 0
-7.634176 -13.999390 -0.286856 15.948224 1.071552 1.588784 0.010986 -0.001838 838562.000000 1 0 0
2.966124 -14.869090 9.563344 17.926105 -1.373898 1.008078 0.025818 -0.013295 -1700130.000000 1 0 0
2.445824 -17.122790 10.345544 20.154460 -1.428916 1.031756 0.045477 -0.019388 -489644.000000 1 0 0
-8.319776 -17.183690 -5.594456 19.894617 1.119895 1.855845 0.055453 -0.015668 102348.000000 1 0 0
-6.515076 -9.104590 -7.699056 13.587319 0.949689 2.173213 0.017901 -0.007165 453446.000000 1 0 0
-6.075976 -13.076090 -4.749056 15.180749 1.135816 1.888972 0.008231 -0.009517 602457.000000 1 0 0
2.261124 -19.273890 -4.829156 19.997906 -1.454015 1.814690 0.023725 -0.021868 -15569.100000 1 0 0
-5.460276 -12.738490 8.404944 16.208850 1.165843 1.025653 0.004613 -0.006782 850764.000000 1 0 0
2.173424 -17.439890 3.420944 17.904647 -1.446812 1.378550 0.012115 -0.013632 812159.000000 1 0 0
-17.548276 -10.048290 -2.553956 20.382169 0.520035 1.696430 0.037745 -0.022928 383686.000000 1 0 0
-3.269376 -15.519790 2.520344 16.059415 1.363173 1.413206 0.001957 -0.001761 -26651.200000 1 0 0
-10.311876 -10.478290 -14.076956 20.354116 0.793402 2.334502 0.042793 -0.009154 -158554.000000 1 0 0
6.060824 -14.611490 -5.529756 16.757309 -1.177598 1.907090 0.009190 -0.011721 480319.000000 1 0 0
-7.262576 -12.330490 -10.746756 17.896334 1.038509 2.214923 0.020179 -0.009817 -1054710.000000 1 0 0
-7.233476 -14.303190 3.841844 16.482238 1.102579 1.335542 0.003711 -0.001682 542444.000000 1 0 0
3.224624 -14.951490 -3.032356 15.592961 -1.358378 1.766513 0.005027 -0.009767 -93207.200000 1 0 0
-7.596276 -11.348790 7.795044 15.724540 0.980941 1.052127 0.006768 -0.012307 -746975.000000 1 0 0
-12.816776 -12.328590 -1.134256 17.819944 0.765986 1.634490 0.028051 -0.003045 -3710140.000000 1 0 0
-1.953676 -13.626690 3.964444 14.325513 1.428395 1.290396 0.004314 0.000147 -2251890.000000 1 0 0
-3.180076 -13.992190 5.225844 15.271008 1.347317 1.221532 0.000433 -0.000880 -105943.000000 1 0 0
-14.679776 -10.244590 -4.445556 18.444794 0.609296 1.814213 0.044001 -0.015562 989903.000000 1 0 0
-6.354676 -8.566990 -10.420556 14.911848 0.932588 2.344530 0.010593 -0.004404 441555.000000 1 0 0
0.814924 -19.366490 2.262144 19.515182 -1.528742 1.454618 0.025067 -0.019163 221617.000000 1 0 0
6.398824 -14.156590 -8.064356 17.503937 -1.146278 2.049599 0.014994 -0.012574 -3107650.000000 1 0 0
-4.058676 -16.824690 -5.929356 18.294816 1.334085 1.900857 0.013492 -0.008898 -261503.000000 1 0 0
-3.535476 -13.665290 -13.192956 19.320813 1.317628 2.322435 0.028601 -0.003448 -1166950.000000 1 0 0
-8.240676 -14.733490 -4.453756 17.459107 1.060829 1.828744 0.027015 -0.015896 -939769.000000 1 0 0
-4.863576 -14.378690 10.203644 18.289763 1.244628 0.978957 0.016866 0.000199 -1006920.000000 1 0 0
-0.288876 -12.098790 -9.800956 15.573147 1.546924 2.251513 0.000122 -0.003344 784762.000000 1 0 0
2.423624 -17.128990 6.648644 18.533232 -1.430237 1.203877 0.022089 -0.015859 -1521110.000000 1 0 0
-2.842176 -19.291090 -3.318056 19.779626 1.424518 1.739344 0.019191 -0.015975 -437849.000000 1 0 0
0.637824 -15.354490 -3.016856 15.661053 -1.529280 1.764642 0.003618 -0.010261 -1094960.000000 1 0 0
6.007924 -17.982690 0.680244 18.971953 -1.248361 1.534933 0.028549 -0.008944 -282814.000000 1 0 0
-7.125276 -16.783690 3.732844 18.611715 1.169319 1.368863 0.009477 -0.003886 685479.000000 1 0 0
-5.251576 -13.502990 -9.531856 17.342608 1.199878 2.152706 0.015533 -0.008056 -167988.000000 1 0 0
5.667124 -15.235790 -2.222356 16.406841 -1.214692 1.706667 0.019969 -0.009054 -241925.000000 1 0 0
-9.016276 -10.372090 -0.644756 13.758241 0.855214 1.617677 0.007564 -0.001200 -595980.000000 1 0 0
-7.555876 -18.447990 -2.888056 20.143497 1.182061 1.714666 0.049947 -0.022339 562637.000000 1 0 0
7.901524 -15.887290 -1.221156 17.785704 -1.109272 1.639510 0.029833 -0.011322 -1751780.000000 1 0 0
-8.090276 -10.140790 -9.502056 16.080338 0.897401 2.202985 0.023499 -0.008660 -1133520.000000 1 0 0
-9.211676 -15.203990 -6.959056 19.090436 1.026070 1.943925 0.055751 -0.019984 -477228.000000 1 0 0
-11.438776 -10.569690 -11.657556 19.454114 0.745930 2.213340 0.039464 -0.007854 534202.000000 1 0 0
6.522824 -16.288590 2.496744 17.722841 -1.189899 1.429449 0.030274 -0.011360 267802.000000 1 0 0
-2.190276 -11.197490 -5.960556 12.872813 1.377631 2.052212 0.006490 -0.001252 -532984.000000 1 0 0
-12.408176 -15.082090 -3.466156 19.835486 0.882361 1.746443 0.042450 -0.028565 -228833.000000 1 0 0
-0.231176 -19.723990 -3.032356 19.957064 1.559076 1.723331 0.027039 -0.019305 -596484.000000 1 0 0
-5.893476 -15.686090 -4.771556 17.422807 1.211400 1.848209 0.012929 -0.010658 -2624490.000000 1 0 0
1.949624 -16.000690 -0.965856 16.147940 -1.449548 1.630645 0.006701 -0.011517 515948.000000 1 0 0
-13.225076 -11.879690 5.318544 18.555769 0.731858 1.280094 0.030554 -0.007507 256797.000000 1 0 0
2.035524 -15.276590 -8.816356 17.755159 -1.438332 2.090418 0.010111 0.000328 -1876500.000000 1 0 0
-11.735476 -16.762590 0.023844 20.462316 0.960004 1.569631 0.059126 -0.020373 529974.000000 1 0 0
-7.737276 -16.490590 -1.100756 18.248744 1.132096 1.631153 0.042552 -0.016330 506768.000000 1 0 0
-2.986376 -14.471990 -1.791656 14.885125 1.367297 1.691454 0.010154 -0.005266 383908.000000 1 0 0
-1.744476 -10.517990 -13.122656 16.907850 1.406436 2.459298 0.001700 -0.004923 -502097.000000 1 0 0
1.507124 -19.588890 4.813744 20.227905 -1.494010 1.330515 0.038171 -0.014539 -14769.100000 1 0 0
-17.369576 -9.307890 2.561644 19.872116 0.491933 1.441530 0.030913 -0.010242 -601639.000000 1 0 0
-2.743276 -15.765290 -8.072556 17.923060 1.398514 2.038010 0.000160 -0.001250 -399058.000000 1 0 0
-10.638076 -12.141290 0.257144 16.144525 0.851293 1.554868 0.011810 0.003629 219898.000000 1 0 0
-6.957576 -11.420490 -6.510056 14.873341 1.023626 2.023835 0.017197 -0.006949 -74807.800000 1 0 0
-2.293576 -13.631090 -6.637556 15.333762 1.404097 2.018473 0.001770 -0.000779 810641.000000 1 0 0
-14.419876 -14.417390 -1.062756 20.418702 0.785312 1.622868 0.053328 -0.012218 3844.550000 1 0 0
-9.705776 -11.274290 -4.318356 15.490639 0.860021 1.853311 0.028051 -0.010035 971006.000000 1 0 0
9.297624 -15.103490 -5.064656 18.444835 -1.018989 1.848953 0.038231 -0.016412 -18776.100000 1 0 0
-5.552376 -10.849890 -9.302356 15.332411 1.097797 2.222714 0.014641 -0.007755 324849.000000 1 0 0
-10.491976 -15.972190 -4.869656 19.720699 0.989593 1.820308 0.064917 -0.019758 -1348890.000000 1 0 0
2.246324 -17.308290 -3.093356 17.725454 -1.441735 1.746209 0.012647 -0.013223 494651.000000 1 0 0
-0.323876 -14.562790 -8.079156 16.656905 1.548560 2.077198 -0.000991 0.001092 -657218.000000 1 0 0
-0.597676 -18.333790 -7.067756 19.658032 1.538208 1.938566 0.011467 -0.003955 13879.100000 1 0 0
-1.829276 -9.956790 -10.512756 14.594586 1.389101 2.375058 0.000651 -0.002192 306654.000000 1 0 0
-4.971876 -17.306190 2.159144 18.135205 1.291041 1.451455 0.015522 -0.008270 127044.000000 1 0 0
0.211924 -12.769190 -2.702656 13.053791 -1.554201 1.779345 0.005336 -0.004457 -1857490.000000 1 0 0
2.577424 -14.879090 3.067744 15.409136 -1.399274 1.370371 0.016933 -0.008974 -1213100.000000 1 0 0
-9.432576 -13.172890 6.832444 17.583538 0.949373 1.171717 0.014500 -0.006677 -172142.000000 1 0 0
-1.086076 -17.884890 -4.482156 18.469937 1.510145 1.815917 0.010749 -0.011633 -287179.000000 1 0 0
-9.917476 -17.366490 -2.300756 20.130692 1.051921 1.685338 0.062881 -0.030472 -134982.000000 1 0 0
1.279924 -16.263890 1.433744 16.377055 -1.492261 1.483138 0.010508 -0.013273 -460534.000000 1 0 0
-0.400576 -18.021390 4.108044 18.488022 1.548572 1.346726 0.022984 -0.014531 -30867.300000 1 0 0
-17.535176 -9.123490 -0.079156 19.766809 0.479753 1.574801 0.032544 -0.012343 1031030.000000 1 0 0
-14.954076 -7.127590 -10.730756 19.737681 0.444779 2.145598 0.060875 -0.010847 675687.000000 1 0 0
2.807624 -12.733790 -8.735356 15.695177 -1.353782 2.161040 -0.002970 -0.003113 681270.000000 1 0 0
-11.665576 -14.767990 1.721444 18.898216 0.902230 1.479580 0.031216 -0.003594 -6787.550000 1 0 0
-2.529776 -15.550990 10.504844 18.936335 1.409533 0.982739 0.016202 -0.001804 650667.000000 1 0 0
-6.989476 -15.834590 1.267144 17.354903 1.155112 1.497718 0.025459 -0.006988 -897347.000000 1 0 0
-12.637676 -15.145190 -6.112956 20.650808 0.875408 1.871315 0.058036 -0.016105 443874.000000 1 0 0
1.016024 -13.764390 -5.059156 14.699857 -1.497115 1.922144 0.004536 -0.004019 876593.000000 1 0 0
5.783524 -16.472290 -7.350256 18.942327 -1.233136 1.969293 0.036811 -0.020664 -17757.800000 1 0 0
-6.478976 -12.881890 5.948244 15.598135 1.104790 1.179547 0.004760 -0.004359 457146.000000 1 0 0
-2.554576 -13.584990 0.607744 13.836443 1.384923 1.526859 0.006702 -0.003615 1235240.000000 1 0 0
-4.172676 -15.577890 0.156844 16.127817 1.309081 1.561071 0.010584 -0.007201 207765.000000 1 0 0
-17.696176 -7.466590 -2.126156 19.324212 0.399269 1.681045 0.026296 -0.009220 514990.000000 1 0 0
1.241424 -12.567690 -11.876956 17.336379 -1.472337 2.325522 0.000188 -0.004254 -390100.000000 1 0 0
1.118924 -17.033890 -5.549256 17.949920 -1.505202 1.885098 0.019653 -0.015304 -1014320.000000 1 0 0
-12.873076 -6.326690 -9.276956 17.082301 0.456798 2.144890 0.032523 -0.003348 1867780.000000 1 0 0
-11.306576 -13.696090 -8.585056 19.726245 0.880679 2.021068 0.049646 -0.017862 265644.000000 1 0 0
-4.410676 -9.915390 3.527244 11.410980 1.152249 1.256540 0.001774 -0.003580 -4397290.000000 1 0 0
-7.310276 -14.022790 9.575244 18.486862 1.090243 1.026345 0.016503 -0.012071 -1361160.000000 1 0 0
-5.287176 -15.880190 -8.183356 18.630673 1.249398 2.025550 0.017465 -0.009784 -1262600.000000 1 0 0
-0.322876 -13.394190 2.092644 13.560521 1.546695 1.415858 0.008998 -0.006146 743243.000000 1 0 0
-11.084776 -13.343590 -4.987056 18.049775 0.877603 1.850733 0.058733 -0.021482 -645044.000000 1 0 0
-9.757276 -10.579090 6.602544 15.833987 0.825787 1.140670 0.018712 -0.005455 -269617.000000 1 0 0
-15.582776 -7.993890 -4.937856 18.196363 0.473990 1.845607 0.038686 -0.012918 -19158.600000 1 0 0
-14.588876 -7.163690 5.410744 17.129796 0.456452 1.249426 0.025615 -0.004563 -787938.000000 1 0 0
-1.646176 -19.504190 -0.252556 19.575165 1.486595 1.583699 0.025526 -0.020314 -584254.000000 1 0 0
-15.377776 -12.115490 -1.379656 19.625609 0.667293 1.641153 0.038145 -0.006933 106400.000000 1 0 0
-4.426176 -12.112590 -6.705456 14.535096 1.220451 2.050288 0.006204 -0.004533 1046190.000000 1 0 0
-7.244976 -18.442590 1.874044 19.903036 1.196478 1.476498 0.034277 -0.009515 107427.000000 1 0 0
-2.536876 -11.693890 -8.512256 14.684730 1.357166 2.189117 -0.000625 -0.000427 380756.000000 1 0 0
-1.364276 -20.393890 -5.201556 21.090950 1.504000 1.819992 0.022226 -0.010346 -258771.000000 1 0 0
-5.456676 -8.989190 -13.707256 17.276276 1.025226 2.487195 0.014519 -0.008782 739373.000000 1 0 0
-8.648576 -18.990590 -0.578356 20.875221 1.143449 1.598505 0.059783 -0.023070 4003.760000 1 0 0
-17.142276 -7.206190 5.602944 19.421117 0.397947 1.278139 0.038132 -0.007125 177441.000000 1 0 0
-3.607376 -14.758790 -4.315756 15.794328 1.331074 1.847563 0.007867 -0.006970 -2544280.000000 1 0 0
-3.063776 -14.747990 -10.748456 18.504573 1.365968 2.190574 0.012961 -0.005094 -741641.000000 1 0 0
-0.100676 -16.640790 6.298044 17.793015 1.564746 1.208993 0.031503 -0.010717 -763463.000000 1 0 0
-11.204676 -11.512590 3.809544 16.510515 0.798951 1.337964 0.017484 -0.002611 1282720.000000 1 0 0
-0.222276 -14.745890 -0.127956 14.748120 1.555724 1.579473 0.003866 -0.006875 521804.000000 1 0 0
-7.278276 -9.488390 -2.420956 12.200978 0.916458 1.770545 0.013691 -0.003356 538546.000000 1 0 0
-11.249376 -14.391690 -0.802656 18.284241 0.907340 1.614709 0.036481 -0.014210 27680.300000 1 0 0
0.253524 -14.497890 -10.550156 17.932063 -1.553311 2.199801 0.000112 -0.004624 -473906.000000 1 0 0
-1.401476 -14.062290 -3.932256 14.668836 1.471462 1.842184 0.007252 -0.005180 -2860860.000000 1 0 0
-11.499576 -8.124890 -7.594756 15.997950 0.615101 2.065457 0.026312 -0.007908 465538.000000 1 0 0
-0.184776 -17.378690 -0.470456 17.386038 1.560164 1.597859 0.007640 -0.011662 -232482.000000 1 0 0
-12.942176 -9.453590 4.657844 16.690290 0.630870 1.287966 0.021292 -0.001123 -1213800.000000 1 0 0
3.889524 -16.779190 1.532244 17.292119 -1.343013 1.482071 0.021994 -0.016609 2110420.000000 1 0 0
-3.929176 -18.071390 -8.222756 20.239251 1.356703 1.989173 0.024591 -0.004115 68779.500000 1 0 0
-13.394776 -11.158890 2.661544 17.635891 0.694587 1.419301 0.013322 -0.004811 -251026.000000 1 0 0
-8.584876 -12.201390 4.201544 15.499257 0.957660 1.296281 0.007923 -0.001885 894957.000000 1 0 0
-8.257076 -9.431690 -5.766956 13.798328 0.851705 2.001980 0.021145 -0.008209 392271.000000 1 0 0
3.736024 -17.325590 -5.310956 18.502437 -1.358412 1.861933 0.007701 -0.009474 -602232.000000 1 0 0
-2.773276 -12.989890 11.275844 17.423345 1.360459 0.866932 0.004582 -0.005900 525775.000000 1 0 0
0.080224 -16.760290 -9.427156 19.229795 -1.566010 2.083158 0.013008 0.000192 -321528.000000 1 0 0
-7.085776 -10.758990 -14.530956 19.419392 0.988405 2.416247 0.022757 0.000772 756195.000000 1 0 0
-4.687676 -18.894390 -1.510156 19.525697 1.327608 1.648216 0.036797 -0.024416 -95261.600000 1 0 0
-2.428076 -17.381190 1.011344 17.579082 1.431999 1.513233 0.014049 -0.015212 602120.000000 1 0 0
4.016324 -14.624990 -7.281656 16.823902 -1.302783 2.018411 0.010447 -0.009818 -347970.000000 1 0 0
-1.110576 -15.925490 -6.060156 17.075716 1.501173 1.933602 0.003776 -0.001614 -111236.000000 1 0 0
-9.490876 -15.432890 8.325844 19.939170 1.019437 1.140036 0.021764 -0.005588 -408671.000000 1 0 0
-7.278776 -12.059090 -1.836356 14.204733 1.027739 1.700437 0.009763 -0.001976 1113350.000000 1 0 0
-7.378176 -15.001690 -9.256356 19.109377 1.113712 2.076460 0.034867 -0.017852 378714.000000 1 0 0
-5.089476 -13.252090 -0.583856 14.207798 1.204114 1.611902 0.009833 -0.001605 3686940.000000 1 0 0
-6.432976 -13.759590 -7.224556 16.819741 1.133463 2.014767 0.016654 -0.013110 510359.000000 1 0 0
5.772324 -15.478990 0.221644 16.521742 -1.213856 1.557381 0.020844 -0.007691 -406929.000000 1 0 0
-14.389976 -12.750690 0.913044 19.247991 0.725072 1.523343 0.012314 -0.006054 857612.000000 1 0 0
0.875124 -15.252090 11.069244 18.865848 -1.513482 0.943776 0.016028 -0.008368 313710.000000 1 0 0
-9.316576 -10.780490 1.959044 14.382469 0.858112 1.434161 0.009015 0.002219 -679165.000000 1 0 0
-9.503876 -8.756290 -3.534856 13.397443 0.744480 1.837803 0.017043 -0.005194 -287138.000000 1 0 0
-12.255976 -7.400890 -12.212056 18.817982 0.543253 2.277009 0.043592 -0.005791 1102710.000000 1 0 0
-13.297976 -8.420290 -0.660956 15.753549 0.564475 1.612765 0.011753 -0.006477 651670.000000 1 0 0
-11.212476 -9.610690 0.613844 14.780453 0.708626 1.529254 0.003218 0.001308 204909.000000 1 0 0
-15.861876 -12.070290 2.948244 20.149024 0.650480 1.423947 0.052399 -0.008101 836124.000000 1 0 0
-10.583076 -12.621890 -2.428856 16.649713 0.873034 1.717199 0.035408 -0.014250 835770.000000 1 0 0
-3.373176 -8.936390 -12.016356 15.350251 1.209866 2.469968 0.006225 -0.001458 -1599010.000000 1 0 0
-0.313576 -15.484590 3.891144 15.969090 1.550548 1.324651 0.016705 -0.011186 -671117.000000 1 0 0
-15.762376 -7.675490 1.214144 17.573838 0.453153 1.501653 0.010139 -0.005097 179894.000000 1 0 0
-6.085876 -13.432690 -13.258056 19.830560 1.145397 2.303076 0.018044 -0.003256 -1542910.000000 1 0 0
-15.496876 -10.308190 1.095244 18.644342 0.586972 1.512018 0.021169 -0.006018 1002440.000000 1 0 0
-9.900076 -8.509590 -12.454756 18.042882 0.710011 2.332681 0.025452 -0.003444 831674.000000 1 0 0
-13.444276 -11.770790 -6.167856 18.903505 0.719127 1.903163 0.050950 -0.016046 -133169.000000 1 0 0
-12.356776 -11.282890 -3.816256 17.162673 0.740002 1.795029 0.035846 -0.011712 443413.000000 1 0 0
-11.617176 -11.109890 -8.486656 18.177232 0.763081 2.056560 0.042063 -0.022672 612990.000000 1 0 0
-13.223576 -8.431690 -5.828456 16.731027 0.567627 1.926620 0.025733 -0.012322 -2062980.000000 1 0 0
-13.543876 -8.134990 -3.239656 16.127926 0.540890 1.773045 0.023349 -0.011194 278224.000000 1 0 0
-4.433776 -17.075690 -3.318656 17.951352 1.316752 1.756735 0.018566 -0.016195 517451.000000 1 0 0
-15.476976 -8.882890 -1.713656 17.927050 0.521039 1.666533 0.024707 -0.008469 -2492550.000000 1 0 0
-9.355976 -15.584790 3.504144 18.512131 1.030136 1.380358 0.023216 -0.010694 -1697920.000000 1 0 0
4.649724 -17.268990 8.017544 19.598952 -1.307781 1.149350 0.041778 -0.022974 -15379.100000 1 0 0
-8.255876 -15.486290 5.961844 18.534515 1.081014 1.243312 0.006375 -0.000261 501100.000000 1 0 0
0.942224 -15.965790 8.512944 18.118069 -1.511850 1.081665 0.019220 -0.011372 -33800.400000 1 0 0
-10.875276 -7.804390 -10.114656 16.777556 0.622458 2.217888 0.028578 -0.009687 1197450.000000 1 0 0
-4.920476 -15.934690 5.703144 17.625302 1.271295 1.241289 0.007685 -0.004771 -1153450.000000 1 0 0
-1.325076 -13.156890 -11.952356 17.824657 1.470421 2.305749 0.001619 -0.005443 -980265.000000 1 0 0
-6.421076 -14.394490 -2.572156 15.970208 1.151208 1.732561 0.016537 -0.006691 395044.000000 1 0 0
-17.742176 -6.969690 -7.098456 20.340833 0.374312 1.927274 0.053558 -0.018680 150912.000000 1 0 0
-17.333976 -4.062390 -10.153756 20.495573 0.230205 2.089106 0.057568 -0.019495 525576.000000 1 0 0
-15.338976 -5.289290 -8.941156 18.525794 0.332059 2.074455 0.037827 -0.019490 -497891.000000 1 0 0
-16.147776 -5.413790 -5.606356 17.930171 0.323488 1.888807 0.029843 -0.011769 -665171.000000 1 0 0
-15.171776 -4.443590 -12.279056 20.017580 0.284917 2.231172 0.052092 -0.014238 -1301920.000000 1 0 0
-18.733576 -5.101990 -5.641456 20.218882 0.265896 1.853569 0.054196 -0.019754 -35854.000000 1 0 0
-17.378376 -4.462890 -7.654956 19.507017 0.251375 1.974058 0.039534 -0.018418 52428.000000 1 0 0
12.320224 -7.873790 8.774244 17.052033 -0.568671 1.030305 0.037339 -0.013248 360897.000000 1 0 0
16.085124 -3.416990 1.738044 16.535653 -0.209320 1.465493 0.033186 -0.010721 106316.000000 1 0 0
12.059324 -2.331590 12.548044 17.558958 -0.190987 0.774711 0.057047 -0.006807 112180.000000 1 0 0
9.719124 -10.121990 5.289944 14.996651 -0.805700 1.210297 0.009026 -0.006560 153322.000000 1 0 0
16.976624 -1.927190 7.159944 18.525242 -0.113036 1.173966 0.066208 -0.017114 -438549.000000 1 0 0
4.885224 -12.844390 8.978344 16.415067 -1.207353 0.992071 0.011142 -0.005603 -248733.000000 1 0 0
15.161024 -9.034490 -2.044556 17.766791 -0.537401 1.686129 0.053535 -0.013497 773718.000000 1 0 0
11.082724 -8.508990 6.574944 15.442136 -0.654778 1.130973 0.013608 -0.009091 -2202960.000000 1 0 0
20.041924 -3.191790 3.620144 20.614841 -0.157929 1.394272 0.106396 -0.024500 42092.200000 1 0 0
13.566124 -8.539290 6.751544 17.393749 -0.561798 1.172163 0.035091 -0.016348 -959324.000000 1 0 0
8.244724 -11.056990 8.852344 16.388913 -0.930080 1.000190 0.008342 -0.005188 -695328.000000 1 0 0
16.896724 0.041510 -0.711856 16.911763 0.002457 1.612901 0.040170 -0.004872 -143988.000000 1 0 0
12.487024 -12.373290 2.295544 17.728327 -0.780823 1.440947 0.028825 -0.013919 -913578.000000 1 0 0
10.410424 -11.788190 3.610844 16.136187 -0.847384 1.345112 0.019675 -0.008295 -1170060.000000 1 0 0
16.368224 3.070610 2.304244 16.812404 0.185441 1.433307 0.027181 0.000281 -806142.000000 1 0 0
18.343824 -3.229290 0.507144 18.632804 -0.174257 1.543575 0.073307 -0.015199 -234455.000000 1 0 0
13.477224 -11.441690 -0.120156 17.679430 -0.703893 1.577593 0.053649 -0.013515 -397401.000000 1 0 0
16.960524 -7.637490 -0.711956 18.614443 -0.423112 1.609053 0.068987 -0.016742 -372980.000000 1 0 0
10.192824 -5.788290 9.771844 15.260632 -0.516466 0.875868 0.020140 -0.004148 13084.000000 1 0 0
11.413224 -13.313090 6.093244 18.564150 -0.862083 1.236371 0.034883 -0.011124 -1650930.000000 1 0 0
13.126724 -1.773390 10.233744 16.738736 -0.134285 0.912992 0.047474 -0.008516 1548870.000000 1 0 0
15.648824 -2.088290 -1.352956 15.845413 -0.132663 1.656285 0.026444 -0.005822 711920.000000 1 0 0
10.406224 -12.434690 9.097844 18.592519 -0.873974 1.059477 0.042655 -0.018231 -241535.000000 1 0 0
14.676324 1.215210 3.237544 15.078226 0.082612 1.354395 0.017990 0.001532 1557550.000000 1 0 0
14.751224 -6.042590 5.181544 16.761858 -0.388783 1.256521 0.033781 -0.016102 -677382.000000 1 0 0
14.326524 -3.435190 -3.047156 15.044433 -0.235335 1.774751 0.015549 -0.008133 612663.000000 1 0 0
14.183324 0.631910 9.512044 17.089323 0.044524 0.980500 0.051453 -0.006246 -73805.800000 1 0 0
15.488624 -3.584690 4.411544 16.498763 -0.227436 1.300117 0.035832 -0.013143 -569871.000000 1 0 0
18.424724 4.686110 -4.374956 19.508212 0.249057 1.796982 0.040114 -0.011672 588658.000000 1 0 0
18.217224 -5.724690 -4.981756 19.734670 -0.304475 1.825994 0.102672 -0.017694 603325.000000 1 0 0
17.365524 0.118310 5.755344 18.294791 0.006813 1.250772 0.063696 -0.007154 427899.000000 1 0 0
17.003524 -6.508090 4.022344 18.645490 -0.365547 1.353360 0.057221 -0.022622 131402.000000 1 0 0
9.746924 -6.632290 14.291044 18.526298 -0.597484 0.689770 0.046011 -0.003046 -915224.000000 1 0 0
8.559524 -12.407090 5.097444 15.911796 -0.966888 1.244691 0.014979 -0.007811 -1757920.000000 1 0 0
17.030324 -10.255190 -0.548756 19.887231 -0.542015 1.598393 0.073323 -0.011373 329690.000000 1 0 0
15.019824 -8.880490 0.441444 17.454314 -0.533962 1.545502 0.049900 -0.013098 -73111.100000 1 0 0
10.028024 -12.988390 1.439844 16.472179 -0.913316 1.483274 0.028192 -0.010902 206797.000000 1 0 0
16.721824 -8.240590 8.938944 20.674415 -0.457875 1.123680 0.078101 -0.022159 406235.000000 1 0 0
19.061324 -0.066390 -2.096656 19.176403 -0.003483 1.680351 0.076174 -0.008476 -482596.000000 1 0 0
13.458024 -1.219790 7.717544 15.561708 -0.090390 1.051889 0.029249 -0.009701 774319.000000 1 0 0
12.785924 -9.727990 -3.057656 16.354293 -0.650400 1.758867 0.041595 -0.010632 -2403380.000000 1 0 0
8.709224 -15.145790 1.449144 17.531273 -1.048942 1.488041 0.035764 -0.010307 -1714890.000000 1 0 0
11.433524 -8.213090 11.129744 17.945793 -0.622925 0.901816 0.048371 -0.013630 -344856.000000 1 0 0
13.921224 -4.087490 -0.532556 14.518666 -0.285589 1.607485 0.010411 -0.008339 -520952.000000 1 0 0
6.926724 -13.478190 10.544844 18.461712 -1.096074 0.962861 0.017569 -0.005350 -506033.000000 1 0 0
15.454424 -6.734990 1.935844 16.968995 -0.410980 1.456466 0.034591 -0.014857 1354830.000000 1 0 0
15.984624 -6.294890 -2.633756 17.380176 -0.375158 1.722920 0.074190 -0.014233 155276.000000 1 0 0
11.205624 -8.539190 3.901044 14.618547 -0.651165 1.300667 0.012451 -0.008732 875813.000000 1 0 0
10.541624 -14.567990 -0.446956 17.987549 -0.944396 1.595647 0.047560 -0.016634 530711.000000 1 0 0
13.521724 -12.944590 4.566644 19.267943 -0.763595 1.331512 0.029577 -0.006585 126215.000000 1 0 0
12.762624 -11.122190 6.369544 18.087530 -0.716825 1.210928 0.029352 -0.013824 105947.000000 1 0 0
10.915124 -10.475190 1.531844 15.205791 -0.764834 1.469884 0.018516 -0.010648 262820.000000 1 0 0
13.933624 -7.610090 11.717544 19.732211 -0.499896 0.934988 0.068633 -0.025385 207510.000000 1 0 0
15.331624 -1.904390 -4.855656 16.194529 -0.123580 1.875314 0.033368 -0.006174 -406313.000000 1 0 0
12.912324 -11.591890 -7.064356 18.735131 -0.731564 1.957421 0.071671 -0.012978 435499.000000 1 0 0
17.785324 -5.361890 1.927344 18.675713 -0.292812 1.467412 0.084376 -0.015946 182108.000000 1 0 0
10.552524 -9.831390 9.176744 17.094578 -0.750035 1.004131 0.026717 -0.008925 -161479.000000 1 0 0
16.501624 1.850410 10.052344 19.410750 0.111669 1.026431 0.085742 -0.008251 1689900.000000 1 0 0
18.114724 3.772310 0.424244 18.508202 0.205311 1.547872 0.028250 -0.000939 572549.000000 1 0 0
13.249224 -4.052090 5.682044 14.974878 -0.296802 1.181607 0.019315 -0.010931 -930855.000000 1 0 0
12.085324 -6.154090 6.759444 15.153150 -0.470996 1.108421 0.016983 -0.007886 -80556.800000 1 0 0
16.684324 -10.389090 3.677544 19.995604 -0.556933 1.385826 0.051612 -0.009829 -490137.000000 1 0 0
16.177924 -7.970190 -5.606556 18.886043 -0.457757 1.872202 0.080988 -0.014814 976659.000000 1 0 0
14.081224 -0.372790 5.353744 15.069254 -0.026468 1.207587 0.020334 -0.001072 778424.000000 1 0 0
18.497624 -4.324290 5.339044 19.732383 -0.229651 1.296808 0.089534 -0.017442 219136.000000 1 0 0
13.628624 -13.500890 7.110344 20.458993 -0.780690 1.215849 0.062638 -0.014915 -147329.000000 1 0 0
15.087024 -13.369190 -0.826756 20.175159 -0.725104 1.611787 0.066646 -0.015538 -8864.410000 1 0 0
17.779724 -6.074090 8.002144 20.421739 -0.329199 1.168161 0.084097 -0.018400 -852985.000000 1 0 0
14.368724 3.292510 9.133744 17.341457 0.225255 1.016083 0.039425 -0.008740 -1037590.000000 1 0 0
18.851524 3.723010 2.915344 19.435534 0.194982 1.420227 0.061636 -0.005441 320312.000000 1 0 0
14.641724 -10.576090 8.102544 19.796084 -0.625553 1.149109 0.040988 -0.021504 -22353.000000 1 0 0
14.841624 -4.628290 10.400144 18.704487 -0.302288 0.981202 0.073151 -0.021237 158426.000000 1 0 0
17.770024 -8.022990 2.185144 19.619301 -0.424092 1.459188 0.095519 -0.022929 33707.300000 1 0 0
18.529624 -5.977890 -1.913756 19.563859 -0.312071 1.668774 0.091542 -0.018655 -375169.000000 1 0 0
14.408424 -12.918890 -5.380256 20.086004 -0.730945 1.841969 0.087963 -0.020661 -339208.000000 1 0 0
15.626624 -1.451090 9.305844 18.245431 -0.092595 1.035569 0.086860 -0.017045 -589752.000000 1 0 0
12.898024 -10.062290 10.204344 19.280491 -0.662515 1.013071 0.038034 -0.024067 -1695900.000000 1 0 0
16.799524 2.312810 4.701644 17.597686 0.136811 1.300337 0.047883 -0.003577 -1059470.000000 1 0 0
15.075324 2.349510 -0.080856 15.257527 0.154608 1.576096 0.013862 0.001026 -1158710.000000 1 0 0
14.985624 -9.998790 -6.846556 19.272261 -0.588389 1.933983 0.080900 -0.018906 510376.000000 1 0 0
16.195024 -0.162290 -3.254956 16.519681 -0.010021 1.769129 0.030658 -0.001752 53590.100000 1 0 0
12.136724 2.674710 13.510744 18.357405 0.216914 0.743678 0.067879 -0.012204 -258879.000000 1 0 0
17.837824 -2.965690 9.437744 20.397409 -0.164751 1.089765 0.093053 -0.021544 1319700.000000 1 0 0
8.137024 -18.216690 4.264844 20.402152 -1.150707 1.360204 0.064413 -0.020060 -467843.000000 1 0 0
6.865324 -11.169390 6.609444 14.682393 -1.019671 1.103850 0.008410 -0.007450 229608.000000 1 0 0
17.922024 2.140310 -1.682156 18.127590 0.118861 1.663725 0.037664 -0.004202 76344.800000 1 0 0
17.604324 -2.408890 3.645844 18.138554 -0.135991 1.368418 0.036345 -0.009759 -966930.000000 1 0 0
12.610724 -13.383690 -1.845356 18.481310 -0.815125 1.670813 0.056753 -0.010961 1270680.000000 1 0 0
15.151224 -8.353390 4.357244 17.841644 -0.503867 1.324084 0.037627 -0.013345 -492329.000000 1 0 0
11.545524 -3.046390 15.030744 19.196428 -0.257979 0.671327 0.071114 -0.010310 63762.400000 1 0 0
12.179124 -13.937790 -6.250656 19.536216 -0.852635 1.896475 0.056471 -0.021933 -136699.000000 1 0 0
10.635124 -12.006590 -1.147756 16.080466 -0.845897 1.642233 0.035539 -0.011010 -981878.000000 1 0 0
13.195424 -8.013690 2.131044 15.584601 -0.545776 1.433626 0.026619 -0.008063 733979.000000 1 0 0
8.768524 -7.885590 10.105844 15.530538 -0.732432 0.862280 0.014194 -0.005932 -1547610.000000 1 0 0
15.698424 -3.767290 8.063444 18.045833 -0.235525 1.107576 0.073961 -0.022904 -1297530.000000 1 0 0
10.224224 -17.075290 5.317444 20.600375 -1.031279 1.309717 0.060379 -0.021752 -1153650.000000 1 0 0
15.153324 -6.277490 8.242744 18.356822 -0.392743 1.105118 0.057849 -0.016247 318423.000000 1 0 0
16.653824 -5.045090 -0.344856 17.404646 -0.294151 1.590612 0.049901 -0.012933 -306385.000000 1 0 0
14.055424 -10.631490 3.449844 17.957865 -0.647583 1.377487 0.037167 -0.012210 658248.000000 1 0 0
14.949424 -9.926590 -4.396956 18.475813 -0.586162 1.811086 0.079083 -0.021220 409592.000000 1 0 0
13.718224 -6.639290 -0.048156 15.240477 -0.450746 1.573956 0.025161 -0.008711 202664.000000 1 0 0
17.799124 -0.968190 -4.855356 18.474866 -0.054342 1.836728 0.074968 -0.012674 -615159.000000 1 0 0
14.414324 0.167910 -1.626556 14.506778 0.011648 1.683156 0.010584 -0.002458 -4557990.000000 1 0 0
4.757924 -12.935290 11.671144 18.060320 -1.218331 0.868161 0.008235 -0.002895 -1300640.000000 1 0 0
12.080824 -7.392190 13.487144 19.557449 -0.549120 0.809837 0.062978 -0.015045 539742.000000 1 0 0
12.091724 -5.690190 11.530944 17.650799 -0.439840 0.858885 0.047202 -0.010347 26733.900000 1 0 0
13.392724 -4.491590 8.276444 16.371895 -0.323587 1.040803 0.042600 -0.014641 -2209780.000000 1 0 0
15.354224 -1.239190 3.172244 15.727394 -0.080532 1.367701 0.027071 -0.000913 292060.000000 1 0 0
15.200324 -10.415390 5.743044 19.300589 -0.600730 1.268663 0.047681 -0.015685 225406.000000 1 0 0
13.599224 -8.012190 -5.634956 16.759678 -0.532415 1.913698 0.064790 -0.017611 -35490.600000 1 0 0
9.641824 -2.231090 13.604744 16.823542 -0.227395 0.628904 0.026935 -0.001510 1359580.000000 1 0 0
10.068424 -9.126790 13.775944 19.350661 -0.736382 0.778581 0.066276 -0.005309 -101082.000000 1 0 0
20.294624 6.216810 -3.219856 21.468301 0.297252 1.721346 0.089554 -0.019954 -678627.000000 1 0 0
11.116024 -3.513790 10.386444 15.613805 -0.306162 0.843023 0.023829 -0.003851 1159500.000000 1 0 0
10.268724 -13.910090 -2.944956 17.538815 -0.934876 1.739506 0.043419 -0.012520 537826.000000 1 0 0
14.972724 -13.006790 2.530144 19.994016 -0.715250 1.443911 0.046042 -0.002788 554685.000000 1 0 0
11.399724 -0.439490 14.278044 18.275924 -0.038534 0.674132 0.063368 -0.009832 382636.000000 1 0 0
19.041624 -1.814990 5.650644 19.945110 -0.095030 1.283553 0.092422 -0.016091 670855.000000 1 0 0
19.064024 -0.292690 7.738444 20.576836 -0.015352 1.185239 0.100721 -0.020547 940613.000000 1 0 0
19.201824 0.712710 0.279144 19.217073 0.037100 1.556270 0.080282 -0.014104 -96549.200000 1 0 0
18.393424 0.627110 3.429144 18.720853 0.034081 1.386584 0.048068 -0.010713 265137.000000 1 0 0
16.709924 -3.943690 -3.983256 17.624998 -0.231768 1.798766 0.070593 -0.014249 -1423760.000000 1 0 0
11.183924 -8.130390 15.871844 21.049912 -0.628599 0.716651 0.096063 -0.014381 539045.000000 1 0 0
16.560124 -7.559490 6.403144 19.297249 -0.428236 1.232568 0.060813 -0.015850 434535.000000 1 0 0
19.180324 1.969710 5.567544 20.068934 0.102336 1.289688 0.084686 -0.012736 -385288.000000 1 0 0
15.652624 1.660910 7.718344 17.531003 0.105715 1.114899 0.062731 -0.008888 249509.000000 1 0 0
8.706924 -15.738890 3.815344 18.386952 -1.065491 1.361775 0.035388 -0.017046 523762.000000 1 0 0
11.258324 -15.252090 2.007144 19.063177 -0.934923 1.465312 0.046069 -0.007002 333592.000000 1 0 0
7.886124 -16.249490 6.097844 19.063592 -1.118965 1.245206 0.036617 -0.013848 -186397.000000 1 0 0
14.439224 -11.537790 -2.513856 18.652915 -0.674167 1.705978 0.063523 -0.014075 635832.000000 1 0 0
13.693324 -4.831590 3.167444 14.862169 -0.339205 1.356028 0.017528 -0.004915 -3501760.000000 1 0 0
-1.061876 10.126410 -5.520156 11.582051 -1.466316 2.067594 0.000714 0.002401 -432316.000000 1 0 0
8.315024 -1.770890 -7.909456 11.611855 -0.209840 2.320133 0.001767 -0.004781 -2316570.000000 1 0 0
2.797924 -9.985890 7.594644 12.853987 -1.297614 0.938697 0.007906 -0.006949 833171.000000 1 0 0
-6.337676 1.351010 8.347744 10.567696 -0.210028 0.660101 -0.000502 -0.000337 75320.600000 1 0 0
7.205524 -6.270790 -7.122956 11.915489 -0.716148 2.211537 0.001570 -0.006779 -325703.000000 1 0 0
-11.369476 -4.583390 -4.033256 12.905023 0.383203 1.888656 0.009471 -0.004996 362350.000000 1 0 0
2.057524 -3.286190 2.926544 4.857685 -1.011398 0.924221 0.006575 -0.002837 2654170.000000 1 0 0
-3.506176 -4.250490 8.744244 10.335460 0.881063 0.562278 0.004102 -0.005184 -2314090.000000 1 0 0
-4.918376 -1.172690 -2.439056 5.613788 0.234060 2.020253 0.003759 -0.003810 -200835.000000 1 0 0
4.980824 -5.161190 -3.653256 8.049395 -0.803180 2.041883 0.004238 -0.004671 288052.000000 1 0 0
2.778124 14.285710 -8.974856 17.098174 1.378725 2.123396 0.012323 -0.005909 104306.000000 1 0 0
5.513424 -5.591990 13.699044 15.790250 -0.792473 0.520514 0.016061 -0.005427 -895082.000000 1 0 0
-4.752576 -0.796490 9.931444 11.038793 0.166048 0.451747 0.005635 -0.002348 -3638630.000000 1 0 0
-0.872776 12.033210 -2.623056 12.346672 -1.498392 1.784878 0.000069 0.002587 521454.000000 1 0 0
3.198524 9.369010 -10.563156 14.477195 1.241809 2.388593 0.007444 -0.004249 -90304.400000 1 0 0
-10.574876 2.611710 1.165944 10.954838 -0.242128 1.464162 0.000242 0.001445 429804.000000 1 0 0
5.624224 -8.947090 -0.663256 10.588778 -1.009606 1.633475 0.002131 -0.003776 996427.000000 1 0 0
-6.907976 5.431410 9.508344 12.947160 -0.666302 0.746020 -0.000754 -0.002091 145721.000000 1 0 0
-5.609276 -1.851590 5.238644 7.895299 0.318832 0.845290 0.001211 -0.003905 222212.000000 1 0 0
6.673324 -3.777190 -7.246756 10.550634 -0.515054 2.327949 0.001076 -0.007435 519924.000000 1 0 0
6.335024 4.867810 11.117644 13.690512 0.655171 0.623107 0.005405 -0.002378 -7252.380000 1 0 0
3.707624 -9.805190 3.375344 11.012773 -1.209285 1.259289 0.004593 -0.003702 1678360.000000 1 0 0
-6.644876 6.592110 -5.879356 11.053376 -0.781412 2.131646 0.005812 -0.006595 -387565.000000 1 0 0
-11.062776 8.483810 5.230144 14.890079 -0.654216 1.211890 -0.000673 -0.003201 430607.000000 1 0 0
-9.194376 -5.548590 5.081744 11.880552 0.542972 1.128809 0.003877 -0.004022 -1184230.000000 1 0 0
3.278624 9.722310 -8.094056 13.068529 1.245546 2.238717 0.004767 -0.000529 721555.000000 1 0 0
-8.156076 -8.584890 6.048744 13.296962 0.811007 1.098540 0.002780 -0.002078 -2791630.000000 1 0 0
-7.894676 -5.788590 -7.386556 12.263560 0.632680 2.217197 0.010981 -0.002951 463673.000000 1 0 0
9.296624 -1.573090 7.013444 11.751179 -0.167623 0.931253 0.011451 -0.006700 2634890.000000 1 0 0
-4.010576 -0.494290 -4.866356 6.325383 0.122628 2.448600 0.010916 -0.009968 -969873.000000 1 0 0
9.078324 1.065310 -4.571956 10.220256 0.116812 2.034588 0.002923 -0.002796 -2924050.000000 1 0 0
-2.143376 -10.628490 10.511444 15.101301 1.371802 0.800898 0.000095 -0.008153 410010.000000 1 0 0
-12.872776 0.262410 -2.612056 13.137734 -0.020382 1.770951 0.007672 -0.001926 -1191110.000000 1 0 0
-9.908176 -5.247290 -5.999356 12.716064 0.487040 2.062120 0.010221 -0.004775 -1189430.000000 1 0 0
-5.454976 8.254010 -0.234356 9.896483 -0.986805 1.594479 0.001941 0.002098 -150800.000000 1 0 0
6.287724 9.598110 0.411344 11.481655 0.990844 1.534962 0.006084 -0.002132 582244.000000 1 0 0
-0.607076 -12.081290 -0.091356 12.096877 1.520589 1.578348 0.009423 -0.001039 -223640.000000 1 0 0
6.195924 4.686310 2.415444 8.135438 0.647555 1.269348 -0.000135 0.002390 229815.000000 1 0 0
3.563424 -7.452490 -8.161156 11.612151 -1.124779 2.350139 -0.002603 -0.004251 1063030.000000 1 0 0
-6.624776 -9.841990 4.575744 12.715732 0.978344 1.202690 0.002703 -0.001086 -2418320.000000 1 0 0
-0.061376 6.672710 -9.272756 11.424222 -1.561598 2.517811 0.010621 -0.005004 -1823030.000000 1 0 0
-17.407276 -2.761090 4.355244 18.155028 0.157306 1.328542 0.046556 -0.010930 573888.000000 1 0 0
-8.427176 0.870310 -9.072856 12.413358 -0.102909 2.390428 0.005133 -0.006789 1032040.000000 1 0 0
-10.032476 -5.899690 -11.823456 16.590691 0.531593 2.364073 0.016938 -0.001537 -286994.000000 1 0 0
2.230124 9.487510 6.383344 11.650467 1.339929 0.990939 -0.005120 0.006498 746956.000000 1 0 0
-11.393676 1.617910 -1.141656 11.564466 -0.141058 1.669678 0.003250 -0.000840 -1811540.000000 1 0 0
-5.968776 -5.342890 -2.956456 8.538934 0.730123 1.924349 0.014646 -0.004637 629359.000000 1 0 0
-6.982676 -8.160990 1.254144 10.813528 0.863051 1.454556 0.007456 -0.001755 -423515.000000 1 0 0
0.005324 10.817610 -7.857556 13.370188 1.570304 2.199000 0.005899 -0.000829 630681.000000 1 0 0
-2.798476 9.028110 -4.317756 10.391404 -1.270215 1.999302 0.002209 -0.003301 103635.000000 1 0 0
3.465724 -4.685190 9.306244 10.980365 -0.933908 0.559473 0.003755 -0.003275 -1017200.000000 1 0 0
-8.991576 1.516710 -0.419656 9.128251 -0.167108 1.616786 0.002287 -0.000028 -1273390.000000 1 0 0
2.530124 3.378210 -10.609756 11.418439 0.927965 2.762978 0.000582 -0.002933 -893369.000000 1 0 0
-13.705076 0.506810 1.116344 13.759804 -0.036963 1.489576 0.008436 -0.004022 -370426.000000 1 0 0
9.482624 -12.572690 -5.082556 16.547660 -0.924597 1.882989 0.030781 -0.012338 -1090460.000000 1 0 0
-4.784276 9.389310 -8.377456 13.462178 -1.099542 2.242468 0.005764 -0.005253 -372914.000000 1 0 0
-2.264476 7.184710 8.422244 11.299651 -1.265472 0.729730 0.000390 0.002237 147377.000000 1 0 0
-10.665276 -1.460790 -4.473456 11.657351 0.136120 1.964645 0.003348 -0.005470 -4289510.000000 1 0 0
2.748224 -7.087390 9.644944 12.280422 -1.200884 0.667467 -0.000037 -0.001759 -505911.000000 1 0 0
-16.116376 -6.264590 3.389744 17.620245 0.370736 1.377212 0.023295 -0.005842 86535.600000 1 0 0
-10.772176 -0.090190 6.197144 12.427892 0.008372 1.048758 0.006532 -0.003180 -994348.000000 1 0 0
-8.344276 9.966910 9.399244 16.040949 -0.873782 0.944741 -0.000805 -0.008187 774890.000000 1 0 0
0.064124 -6.057090 -3.826556 7.164843 -1.560210 2.134208 0.001651 -0.000810 690236.000000 1 0 0
4.874424 1.546710 -2.989256 5.923510 0.307262 2.099764 -0.002217 -0.000205 1177900.000000 1 0 0
0.308724 5.355310 3.772344 6.557838 1.513212 0.957896 -0.004284 0.005475 -2535090.000000 1 0 0
6.069924 -11.289590 -1.491156 12.904354 -1.077479 1.686610 0.000064 -0.005679 -1753260.000000 1 0 0
6.256124 -13.413790 5.309244 15.724405 -1.134392 1.226384 0.012366 -0.011103 -542689.000000 1 0 0
8.096324 -8.254390 -5.915156 12.987474 -0.795065 2.043675 0.001579 -0.007248 362876.000000 1 0 0
-13.021376 -1.421090 -4.635056 13.894585 0.108705 1.910903 0.006069 -0.002065 -3367800.000000 1 0 0
-6.810276 -1.715490 -7.142656 10.017001 0.246763 2.364640 0.011823 -0.006991 -1015240.000000 1 0 0
-5.567876 12.686010 -4.658956 14.616497 -1.157212 1.895203 0.007653 -0.001784 432191.000000 1 0 0
-4.288476 6.979610 -6.868156 10.690068 -1.019835 2.268527 0.009216 -0.006308 -3017820.000000 1 0 0
-9.440776 -3.673190 -7.974656 12.892468 0.371055 2.237694 0.010595 -0.006837 130113.000000 1 0 0
-2.202776 -6.383390 9.180344 11.396429 1.238512 0.634201 0.001874 -0.006829 -630853.000000 1 0 0
7.422124 -6.133390 10.042444 13.912479 -0.690612 0.764353 0.008213 -0.000330 776254.000000 1 0 0
9.723824 -4.972790 12.169744 16.351882 -0.472728 0.731398 0.030748 -0.000556 184333.000000 1 0 0
-6.503376 2.747510 -9.101956 11.519042 -0.399730 2.481876 0.008083 -0.009352 271759.000000 1 0 0
7.411624 5.514210 8.912444 12.836290 0.639647 0.803327 -0.000101 -0.000503 133276.000000 1 0 0
12.814624 3.418610 11.087544 17.286848 0.260703 0.874493 0.047696 -0.003265 -679628.000000 1 0 0
-7.479676 -7.300590 -3.921256 11.163351 0.773282 1.929715 0.015601 -0.007824 -1527040.000000 1 0 0
2.204224 1.390610 -5.898056 6.448214 0.562820 2.725513 0.001999 -0.001907 -261816.000000 1 0 0
12.782224 6.818410 -7.022556 16.099449 0.490032 2.022166 0.010391 -0.006003 -481136.000000 1 0 0
0.841524 -7.812090 1.056444 7.927987 -1.463489 1.437144 0.004658 -0.001882 1094640.000000 1 0 0
-10.282576 -6.061590 -8.462956 14.632015 0.532664 2.187545 0.016557 -0.005698 135235.000000 1 0 0
-6.672276 0.401010 3.113344 7.373804 -0.060029 1.134907 0.003664 -0.002313 347151.000000 1 0 0
10.719024 -7.901290 1.342544 13.383956 -0.635212 1.470317 0.009124 -0.005936 371163.000000 1 0 0
6.256124 1.062210 10.612544 12.365010 0.168183 0.538903 0.007360 0.000592 -1087350.000000 1 0 0
-13.083776 5.416310 1.927244 14.291112 -0.392492 1.435528 0.004917 0.001968 14729.700000 1 0 0
2.005224 7.452610 3.661244 8.542074 1.307958 1.127839 -0.006000 0.005063 185026.000000 1 0 0
10.260024 -9.458290 -0.737156 13.973930 -0.744761 1.623573 0.011249 -0.006262 932255.000000 1 0 0
6.818924 -11.794390 -9.076056 16.370099 -1.046598 2.158473 0.003496 -0.009140 -93543.200000 1 0 0
10.305724 3.592510 11.893344 16.142048 0.335421 0.742482 0.019712 -0.001366 -99535.800000 1 0 0
-10.994976 -3.025590 -1.960356 11.570942 0.268533 1.741038 0.003778 -0.003565 209576.000000 1 0 0
12.471224 1.034210 6.979744 14.328916 0.082738 1.062020 0.015111 -0.004267 -541481.000000 1 0 0
-9.547976 9.167210 2.959944 13.563291 -0.765056 1.350794 -0.001414 -0.000126 900064.000000 1 0 0
-6.679676 7.649910 -8.886156 13.494554 -0.853003 2.289619 0.006311 -0.007640 -1025860.000000 1 0 0
8.576924 5.591810 12.223244 15.944894 0.577752 0.697278 0.017433 -0.000625 -1091690.000000 1 0 0
1.324524 4.849310 -2.659556 5.687127 1.304163 2.057421 -0.000095 -0.000361 537767.000000 1 0 0
1.401724 0.525510 9.564644 9.681085 0.358686 0.155254 0.001092 -0.003530 643623.000000 1 0 0
2.598524 12.594410 -4.051756 13.482887 1.367328 1.876025 0.002755 -0.001786 340623.000000 1 0 0
2.101324 0.713110 13.017444 13.205224 0.327167 0.168843 0.001245 -0.007572 344303.000000 1 0 0
-12.333176 -1.767190 0.841444 12.487523 0.142319 1.503362 0.005771 -0.004310 -128548.000000 1 0 0
3.281724 8.708210 -1.269256 9.392212 1.210401 1.706350 0.001455 0.000382 605701.000000 1 0 0
3.729424 -2.860990 -5.708156 7.394384 -0.654381 2.452712 -0.002169 -0.004623 -1629290.000000 1 0 0
-7.885276 -7.047790 9.367044 14.127648 0.729374 0.845938 0.007714 -0.006374 19122.400000 1 0 0
-7.064676 10.824610 -3.568656 13.409592 -0.992561 1.840169 0.011633 -0.000726 714096.000000 1 0 0
0.404924 0.496010 2.564644 2.643367 0.886158 0.244664 -0.000202 -0.000902 -1735400.000000 1 0 0
-7.102576 4.574710 -2.010556 8.684291 -0.572211 1.804433 0.008392 -0.002434 -1140420.000000 1 0 0
-7.061376 -3.868090 -5.836256 9.944196 0.501138 2.198022 0.006462 -0.005003 -71713.600000 1 0 0
2.964824 -6.073190 13.403044 15.010509 -1.116647 0.467027 0.007289 -0.006500 -3068670.000000 1 0 0
-5.479976 -0.574290 -11.734856 12.964058 0.104417 2.702608 0.014992 -0.008514 -766898.000000 1 0 0
11.914424 2.419310 -0.682356 12.176706 0.200334 1.626864 0.001250 -0.000948 -561183.000000 1 0 0
5.950824 -11.039090 10.667144 16.463953 -1.076385 0.865960 0.006795 -0.005172 258909.000000 1 0 0
-8.128476 6.371410 -10.572556 14.779917 -0.664808 2.367896 0.003066 -0.006808 250193.000000 1 0 0
2.925424 8.008010 11.250244 14.115747 1.220546 0.648485 -0.001107 -0.000433 876717.000000 1 0 0
-6.375876 -10.198190 -0.358056 12.032584 1.012055 1.600558 0.013792 -0.001810 -615743.000000 1 0 0
11.261024 4.310510 6.013444 13.474148 0.365575 1.108176 0.010429 0.002670 29656.800000 1 0 0
-7.748276 10.688610 1.449144 13.280896 -0.943547 1.461464 0.000646 -0.001451 795808.000000 1 0 0
4.365924 -2.544890 -3.448756 6.118143 -0.527750 2.169647 -0.000076 -0.004900 -5724270.000000 1 0 0
6.408424 6.531410 6.283844 11.100176 0.794902 0.969026 0.000059 0.002652 -6428450.000000 1 0 0
-0.406276 10.247810 -10.272956 14.516071 -1.531172 2.357027 0.008063 -0.004705 -192446.000000 1 0 0
14.258624 6.398710 -2.474156 15.823189 0.421823 1.727803 0.022478 -0.001948 718563.000000 1 0 0
1.483924 9.474310 -6.236756 11.439481 1.415433 2.147419 0.003006 -0.001913 -785454.000000 1 0 0
0.706124 7.418010 7.327744 10.450900 1.475892 0.793774 -0.005225 0.007146 6731.370000 1 0 0
12.310324 6.252410 1.838444 13.928984 0.469947 1.438423 0.012183 0.003348 -1887770.000000 1 0 0
-6.888776 6.704410 -3.208956 10.134188 -0.771836 1.892988 0.007025 -0.003998 123330.000000 1 0 0
1.107424 9.955310 11.205244 15.029707 1.460012 0.729452 -0.003907 -0.000656 -1971670.000000 1 0 0
-3.585076 13.586710 -11.007956 17.850114 -1.312810 2.235325 0.010623 -0.005994 -282525.000000 1 0 0
-10.071876 -5.539890 -2.160256 11.696144 0.502870 1.756561 0.009572 -0.004490 -524384.000000 1 0 0
-4.017676 3.857610 -12.431656 13.622370 -0.765076 2.720374 0.007177 -0.010607 -71800.500000 1 0 0
-3.154676 8.439110 2.371444 9.316347 -1.213064 1.313418 -0.000280 0.006049 -2773110.000000 1 0 0
7.085324 8.981010 6.985844 13.403819 0.902846 1.022560 0.001769 0.004322 -117860.000000 1 0 0
-1.249676 -2.153390 -8.139756 8.512016 1.044966 2.844756 0.007793 -0.007842 -2331100.000000 1 0 0
0.889524 -1.268790 4.891844 5.131395 -0.959345 0.306761 0.004271 -0.002921 -191542.000000 1 0 0
2.808824 -8.792190 -6.059556 11.041300 -1.261576 2.151734 -0.001602 -0.002377 449330.000000 1 0 0
5.337324 4.027510 8.769644 11.027897 0.646435 0.651420 0.001819 -0.000913 -224078.000000 1 0 0
6.117324 -7.487190 -2.846956 10.078929 -0.885752 1.857160 0.002191 -0.006286 935228.000000 1 0 0
1.862424 2.244410 -8.351556 8.846157 0.878144 2.805616 0.001438 -0.004724 -133495.000000 1 0 0
-5.430876 10.842110 -0.797756 12.152456 -1.106424 1.636489 0.000180 0.000857 887046.000000 1 0 0
-5.451676 3.296510 -3.444456 7.242378 -0.543852 2.066439 0.006042 -0.002665 -372004.000000 1 0 0
2.047424 13.670110 -6.430756 15.245278 1.422128 2.006248 -0.003370 -0.001593 493082.000000 1 0 0
-5.349776 -2.448290 2.645744 6.450906 0.429192 1.148194 -0.002962 -0.004789 -223074.000000 1 0 0
10.373524 -3.377190 -1.655756 11.034352 -0.314737 1.721420 0.006224 -0.004068 97675.100000 1 0 0
2.331124 -3.254990 7.069044 8.124068 -0.949301 0.515318 0.003338 -0.003353 -2264530.000000 1 0 0
-2.877776 9.867710 -11.775956 15.630945 -1.287031 2.423975 0.008827 -0.005433 -2416110.000000 1 0 0
0.541824 -2.008290 9.300544 9.530316 -1.307277 0.220032 0.004058 -0.004476 618682.000000 1 0 0
9.456524 2.762110 5.001344 11.048463 0.284180 1.101035 0.008291 0.000248 -294261.000000 1 0 0
13.419524 1.940810 -4.877856 14.409852 0.143630 1.916128 0.008973 -0.003422 -1013970.000000 1 0 0
-6.519876 3.799910 7.649644 10.745471 -0.527691 0.778604 0.000267 0.000709 330527.000000 1 0 0
10.676224 0.037010 1.801544 10.827220 0.003467 1.403629 0.007940 0.001428 1360160.000000 1 0 0
15.432724 6.572410 -4.733456 17.429032 0.402612 1.845835 0.038734 -0.007530 115399.000000 1 0 0
8.129024 -4.961590 -9.201356 13.242483 -0.547999 2.338988 0.011387 -0.007105 77249.800000 1 0 0
4.510524 5.616810 -2.164356 7.521823 0.894204 1.862666 -0.001070 0.001634 -301942.000000 1 0 0
-1.707376 -10.501090 1.506344 10.745096 1.409616 1.430144 0.008018 -0.001800 -520512.000000 1 0 0
-2.753176 12.221210 -12.970956 18.032850 -1.349217 2.373585 0.013170 -0.008435 -230014.000000 1 0 0
8.386224 4.131210 -9.565656 13.375254 0.457725 2.367672 0.000581 0.000481 -1250670.000000 1 0 0
4.151724 7.628810 -9.065756 12.554820 1.072404 2.377620 0.005106 -0.000460 -1135330.000000 1 0 0
-1.790476 -5.130490 -2.373156 5.929553 1.235024 1.982559 0.007888 -0.003452 1290280.000000 1 0 0
-3.333276 -8.997290 7.121644 11.949048 1.215998 0.932285 0.001376 -0.003812 -1362690.000000 1 0 0
1.011224 7.137610 -1.312256 7.327351 1.430058 1.750858 -0.000315 0.000677 1793180.000000 1 0 0
0.342724 -0.958890 -2.174656 2.401262 -1.227529 2.703661 0.005375 -0.001076 -2822960.000000 1 0 0
4.137024 -6.568890 7.490644 10.787725 -1.008760 0.803256 0.003437 -0.001247 244426.000000 1 0 0
-13.889976 3.774310 5.918044 15.562779 -0.265323 1.180709 -0.001020 -0.003218 -1081540.000000 1 0 0
4.279624 6.267310 12.637244 14.740905 0.971674 0.540812 0.005025 -0.001828 -1005680.000000 1 0 0
8.312224 10.067810 -7.217356 14.917912 0.880625 2.075793 0.022437 -0.005706 10946.600000 1 0 0
12.591824 5.302910 9.369244 16.566762 0.398596 0.969703 0.029535 -0.002121 2391080.000000 1 0 0
7.594924 4.025910 0.339644 8.602684 0.487420 1.531305 0.004559 0.003024 -2129400.000000 1 0 0
-10.858376 -7.554890 -0.972056 13.263694 0.607879 1.644149 0.012449 -0.004706 -2350800.000000 1 0 0
10.447724 6.855410 0.156644 12.497044 0.580696 1.558262 0.006291 0.001270 -367152.000000 1 0 0
14.703324 3.613910 4.218744 15.717693 0.241011 1.299057 0.023392 0.000439 726528.000000 1 0 0
2.193924 5.598210 8.284944 10.236872 1.197294 0.627796 -0.006210 0.003071 218861.000000 1 0 0
4.245624 0.148710 11.720344 12.466511 0.035012 0.347737 0.003970 -0.002125 -2539000.000000 1 0 0
-1.599076 -1.416490 -0.330656 2.161671 0.724924 1.724362 0.007894 -0.006501 -1027790.000000 1 0 0
3.072524 -5.201490 -9.402456 11.175960 -1.037243 2.570500 -0.004282 -0.004126 468260.000000 1 0 0
-3.949276 -5.265290 -1.183956 6.687437 0.927258 1.748776 0.004995 -0.003779 -1785050.000000 1 0 0
-1.169276 -8.624890 8.584944 12.225268 1.436048 0.792272 0.003350 -0.004771 -770101.000000 1 0 0
3.936824 8.530610 -6.011456 11.153811 1.138425 2.139998 0.003943 -0.000074 52551.000000 1 0 0
-14.218376 -1.831290 -2.643156 14.577452 0.128092 1.753123 0.007631 -0.005191 -1229480.000000 1 0 0
8.796924 -10.562890 -6.727056 15.304045 -0.876365 2.025906 0.002015 -0.008565 102842.000000 1 0 0
14.882324 6.160810 1.631144 16.189496 0.392490 1.469872 0.014331 0.003107 -819115.000000 1 0 0
-5.792776 0.385810 -8.372556 10.188464 -0.066504 2.535304 0.012747 -0.010213 -268386.000000 1 0 0
-8.159076 -4.533090 -12.966456 15.976496 0.507124 2.517675 0.013391 -0.005468 819472.000000 1 0 0
0.770424 -10.581490 11.968244 15.993759 -1.498116 0.725290 0.002357 -0.004633 53928.000000 1 0 0
0.243524 11.763310 3.217844 12.197922 1.550097 1.303834 -0.002109 0.004036 -815319.000000 1 0 0
5.102324 -13.106290 -3.683856 14.538890 -1.199545 1.826968 0.003938 -0.008378 1294360.000000 1 0 0
-7.458776 1.606310 -6.915656 10.297567 -0.212119 2.307138 0.005777 -0.006657 482609.000000 1 0 0
1.525824 2.773510 4.047744 5.138553 1.067844 0.663696 -0.003346 0.001555 -1503920.000000 1 0 0
17.221124 5.512510 2.152244 18.209531 0.309795 1.452326 0.028987 -0.004463 -76417.800000 1 0 0
2.560624 -8.080190 -3.408956 9.136041 -1.263907 1.953180 -0.002483 -0.001454 569149.000000 1 0 0
-0.412376 -9.414790 -0.504456 9.437309 1.527023 1.624275 0.008717 -0.000171 -679674.000000 1 0 0
0.822424 11.799410 -5.682256 13.122138 1.501208 2.018646 0.001211 0.000677 -1252190.000000 1 0 0
6.156424 -4.997090 7.910744 11.200550 -0.681827 0.786564 0.005321 -0.001581 -1111070.000000 1 0 0
-5.932676 -1.875890 -9.417856 11.287676 0.306249 2.557746 0.015279 -0.010461 -320868.000000 1 0 0
2.026424 -1.240590 11.332444 11.578849 -0.549346 0.206671 0.000892 -0.004798 56765.500000 1 0 0
17.987524 2.013910 -5.764556 18.995709 0.111497 1.879125 0.059241 -0.011465 -461053.000000 1 0 0
-8.861676 4.943910 7.854344 12.832080 -0.508887 0.912100 0.000076 -0.006710 -609584.000000 1 0 0
11.225224 -7.225490 -4.907756 14.223200 -0.571922 1.923091 0.024854 -0.012035 -274470.000000 1 0 0
10.835724 0.538110 9.017144 14.107138 0.049620 0.877352 0.012486 -0.000352 197557.000000 1 0 0
-8.468776 -7.373290 -1.463656 11.323774 0.716358 1.700414 0.012320 -0.004881 -1377000.000000 1 0 0
10.302324 -10.513990 -3.257156 15.076170 -0.795566 1.788560 0.024389 -0.010229 -370972.000000 1 0 0
7.686724 -13.693190 -3.725656 16.139073 -1.059278 1.803744 0.021695 -0.016177 -2039870.000000 1 0 0
1.704724 -1.205890 -11.709356 11.894086 -0.615663 2.965118 0.001889 -0.005674 -24222.300000 1 0 0
-11.849176 -2.704990 -6.368356 13.721367 0.224439 2.053437 0.011083 -0.005681 -296964.000000 1 0 0
2.779224 -12.094390 -6.313956 13.923519 -1.344923 2.041456 -0.001517 -0.002540 245827.000000 1 0 0
-5.353076 1.381410 1.075944 5.632173 -0.252549 1.378580 0.000853 -0.002366 712926.000000 1 0 0
0.208424 6.734210 -4.039056 7.855381 1.539856 2.110844 0.005297 -0.001750 893303.000000 1 0 0
5.400824 -11.751890 3.681744 13.447343 -1.140012 1.293465 0.004734 -0.007724 -2677010.000000 1 0 0
-4.544276 -9.110990 1.164744 10.247790 1.108134 1.456892 0.006114 -0.002068 -826067.000000 1 0 0
7.175124 -6.213990 -4.583356 10.540551 -0.713736 2.020647 0.005165 -0.007905 193417.000000 1 0 0
-7.035576 -5.877790 2.325044 9.457990 0.695979 1.322422 0.003578 -0.005044 37508.800000 1 0 0
-6.029576 -0.735290 7.312344 9.506146 0.121348 0.693172 0.001075 -0.002535 -810530.000000 1 0 0
4.275824 -5.038590 3.266644 7.371636 -0.867107 1.111701 0.004107 -0.002270 -120500.000000 1 0 0
-2.485576 10.534910 -8.809456 13.955965 -1.339096 2.253937 0.003904 -0.003239 314927.000000 1 0 0
-2.344076 -4.887590 2.809544 6.105470 1.123603 1.092612 0.003832 -0.003084 734276.000000 1 0 0
15.198624 5.095610 6.387144 17.255695 0.323491 1.191629 0.036845 -0.010766 230905.000000 1 0 0
6.794724 0.168110 0.185744 6.799341 0.024736 1.543475 0.002831 -0.001110 4380510.000000 1 0 0
-9.592876 9.291310 0.369044 13.359937 -0.769430 1.543170 0.006816 -0.001133 -1103170.000000 1 0 0
7.195924 10.548010 -2.636756 13.038187 0.972112 1.774434 0.002386 -0.000516 272916.000000 1 0 0
1.657024 -4.239690 -5.346456 7.021772 -1.198215 2.436284 -0.000248 -0.003664 637787.000000 1 0 0
0.917724 -8.147590 -7.745756 11.279281 -1.458632 2.327769 -0.001338 -0.001009 1943970.000000 1 0 0
-10.446376 0.202310 -10.481856 14.799899 -0.019364 2.357796 0.008010 -0.008916 -3205430.000000 1 0 0
5.876024 -2.541990 0.549644 6.425844 -0.408293 1.485155 0.006385 -0.001648 -36278.600000 1 0 0
-3.304376 5.185110 -1.161256 6.257219 -1.003414 1.757465 0.003381 -0.002908 904578.000000 1 0 0
-0.293576 4.505510 -5.154456 6.852316 -1.505729 2.422223 0.006149 -0.005134 -1003730.000000 1 0 0
3.915024 -9.708690 9.977644 14.461654 -1.187492 0.809393 0.005083 -0.004616 -2005950.000000 1 0 0
7.204924 -13.487990 -0.618456 15.304224 -1.080185 1.611218 0.020005 -0.008956 384071.000000 1 0 0
13.047224 -0.049590 0.484944 13.056327 -0.003801 1.533645 0.003867 -0.001552 382884.000000 1 0 0
9.317724 2.373210 -0.684556 9.639539 0.249396 1.641872 0.005640 -0.000093 409535.000000 1 0 0
-0.825876 -5.724090 4.603744 7.392004 1.427504 0.898479 0.004218 -0.002699 559435.000000 1 0 0
11.462624 -3.761290 3.314644 12.511031 -0.317065 1.302657 0.009656 -0.004346 -3444120.000000 1 0 0
1.875124 -8.249190 11.709044 14.445308 -1.347284 0.625659 -0.006277 -0.003444 108164.000000 1 0 0
9.342824 -5.802790 -5.838056 12.451651 -0.555787 2.058794 0.004409 -0.011004 -673719.000000 1 0 0
3.245724 6.339110 -0.148756 7.123284 1.097582 1.591681 -0.004301 0.004282 -253638.000000 1 0 0
6.321924 -1.380690 11.524244 13.216702 -0.215021 0.511634 0.006015 0.000650 267591.000000 1 0 0
-4.979076 -7.531890 -3.806956 9.798647 0.986681 1.969820 0.010225 -0.002205 -447384.000000 1 0 0
-3.488076 -8.469690 -5.745956 10.812878 1.180133 2.131048 0.011080 0.000338 -527787.000000 1 0 0
9.750024 5.416610 2.171544 11.363020 0.507093 1.378507 0.006447 0.001422 1512200.000000 1 0 0
8.909124 -1.482490 0.380944 9.039656 -0.164890 1.528642 0.006927 -0.000853 1295660.000000 1 0 0
-3.885876 9.583910 9.225244 13.858445 -1.185593 0.842396 0.002533 -0.004141 293215.000000 1 0 0
-14.414876 -3.541290 -6.074756 16.038455 0.240898 1.959255 0.020393 -0.008138 188354.000000 1 0 0
10.634724 6.179610 -5.812156 13.603900 0.526391 2.012236 -0.000190 -0.004088 -608747.000000 1 0 0
-1.818576 4.631610 2.494044 5.565904 -1.196647 1.106165 0.000496 0.004525 162087.000000 1 0 0
6.988124 -3.683390 2.686744 8.343849 -0.485086 1.242952 0.006309 -0.003440 -1396310.000000 1 0 0
8.383924 -11.233490 -1.503456 14.097583 -0.929646 1.677646 0.013703 -0.007656 -997140.000000 1 0 0
4.571024 0.522310 1.865544 4.964607 0.113772 1.185570 0.003125 0.000871 -91256.200000 1 0 0
-10.779376 2.343810 3.824344 11.675359 -0.214102 1.237080 0.001127 -0.002190 -53744.900000 1 0 0
-0.956376 -3.089090 4.397144 5.458205 1.270557 0.634105 0.006429 -0.004189 74436.800000 1 0 0
8.571924 -8.646590 -8.523956 14.862679 -0.789735 2.181586 0.016302 -0.011727 -175829.000000 1 0 0
12.104024 -4.850490 1.022544 13.079764 -0.381139 1.492539 0.009925 -0.004441 351726.000000 1 0 0
2.916224 4.882110 3.458444 6.655839 1.032343 1.024401 -0.006366 0.003275 417529.000000 1 0 0
6.095924 7.514210 1.975344 9.875506 0.889232 1.369413 -0.000335 0.001118 -181346.000000 1 0 0
-1.526876 -1.232290 -10.280456 10.466024 0.679034 2.953002 0.012028 -0.008061 1961410.000000 1 0 0
-1.077376 -8.677090 5.941344 10.571291 1.447265 0.973963 0.003098 -0.005919 -83078.200000 1 0 0
-4.179376 -0.254390 2.275144 4.765310 0.060793 1.073059 0.000474 -0.002389 629881.000000 1 0 0
-8.419876 6.179710 -7.992756 13.151703 -0.633145 2.224002 0.003138 -0.004962 -1423830.000000 1 0 0
6.555724 11.105710 -9.475656 16.003199 1.037538 2.204471 0.018793 -0.008026 145221.000000 1 0 0
-11.108276 -5.723790 3.013944 12.854549 0.475791 1.334128 0.005107 -0.004113 761947.000000 1 0 0
1.427624 -6.283090 3.078344 7.140835 -1.347373 1.125096 0.005712 -0.003447 905112.000000 1 0 0
10.130424 2.228010 7.247644 12.653768 0.216486 0.960921 0.009715 0.000087 -1077580.000000 1 0 0
-3.978676 -2.404990 -10.564256 11.541982 0.543700 2.727023 0.013462 -0.009026 -1952300.000000 1 0 0
-8.272876 11.810310 5.933444 15.592616 -0.959749 1.180428 0.004244 -0.004955 366593.000000 1 0 0
6.888724 5.954010 -2.978056 9.579853 0.712745 1.886901 0.004158 0.000995 -2994580.000000 1 0 0
3.832624 -9.888190 -2.308856 10.853392 -1.201028 1.785166 -0.000702 -0.004372 -531212.000000 1 0 0
8.492424 -12.911390 -7.362656 17.118234 -0.988995 2.015407 0.017754 -0.012167 497919.000000 1 0 0
-1.136276 9.535610 3.683944 10.285448 -1.452194 1.204489 -0.003171 0.006571 12471.800000 1 0 0
0.443724 -13.085790 4.706844 13.913632 -1.536900 1.225697 0.011247 -0.005250 -722923.000000 1 0 0
-11.326476 -7.050790 -5.033056 14.259536 0.556803 1.931530 0.016410 -0.008888 -273127.000000 1 0 0
3.607224 10.257910 -3.431456 11.402267 1.232650 1.876480 0.005610 -0.003070 -92757.300000 1 0 0
11.530124 -8.229190 -7.349456 15.958628 -0.619870 2.049391 0.049370 -0.014845 265745.000000 1 0 0
11.819324 -4.919290 -5.916856 14.103369 -0.394400 2.003729 0.017122 -0.008942 91692.600000 1 0 0
1.228424 -10.326090 -2.684156 10.739732 -1.452390 1.823402 0.002225 -0.000875 -1120660.000000 1 0 0
2.348224 -11.985490 -3.907056 12.823073 -1.377325 1.880409 0.001546 -0.003236 -1297020.000000 1 0 0
-7.676876 -5.658290 7.247044 11.977909 0.635165 0.920988 0.002763 -0.001604 -2662010.000000 1 0 0
-7.292376 -0.773590 9.588744 12.071504 0.105687 0.652894 -0.000055 -0.002422 1058040.000000 1 0 0
16.143824 2.641610 -7.498156 17.995096 0.162192 2.000584 0.046077 -0.008222 -44441.500000 1 0 0
-2.004076 6.264210 -5.582156 8.626536 -1.261162 2.274559 0.006462 -0.004136 181518.000000 1 0 0
7.723524 1.199310 8.463944 11.520829 0.154050 0.745624 0.011757 -0.001582 -270973.000000 1 0 0
7.927824 8.290810 -3.682456 12.047755 0.807775 1.881423 0.002562 0.002136 -664956.000000 1 0 0
8.086724 0.581010 4.107744 9.088797 0.071724 1.101839 0.004361 0.001745 875547.000000 1 0 0
-6.987376 5.799910 5.351144 10.540262 -0.692801 1.038300 0.001565 -0.001535 -57823.000000 1 0 0
-6.021776 -2.088690 -4.581456 7.849468 0.333871 2.194031 0.010204 -0.007419 -610059.000000 1 0 0
-15.206576 -2.188990 3.105344 15.674017 0.142968 1.371356 0.015507 -0.007007 -344735.000000 1 0 0
1.076724 1.203710 -10.513756 10.637073 0.841026 2.989175 0.003530 -0.007536 336208.000000 1 0 0
1.446924 -9.101990 9.386044 13.154376 -1.413148 0.776272 0.003168 -0.006458 -1304590.000000 1 0 0
-0.098176 -6.793990 -1.248856 6.908515 1.556347 1.752566 0.006100 -0.000712 536945.000000 1 0 0
-0.434776 -10.162990 -8.364156 13.169453 1.528042 2.258958 0.002572 -0.001801 242316.000000 1 0 0
-4.346776 6.560010 3.779044 8.729798 -0.985602 1.123100 0.001278 0.004474 111169.000000 1 0 0
10.767124 -1.222190 -8.540756 13.797435 -0.113027 2.238278 0.014815 -0.004163 310837.000000 1 0 0
3.083724 -0.981090 6.350344 7.127325 -0.308025 0.471285 0.002483 -0.000669 641057.000000 1 0 0
1.762024 -12.220490 6.897644 14.142934 -1.427597 1.061332 0.009852 -0.005797 -6817.090000 1 0 0
2.897224 -4.972490 -1.278156 5.895188 -1.043231 1.789345 0.007135 -0.002614 -1645570.000000 1 0 0
-0.969376 9.507410 -1.686256 9.704329 -1.469187 1.745446 0.001387 0.000166 99488.400000 1 0 0
4.556724 -2.530090 2.675844 5.858773 -0.506860 1.096487 0.005736 -0.001590 -779726.000000 1 0 0
17.768624 6.675810 -2.866156 19.196491 0.359391 1.720663 0.037732 -0.006448 -272863.000000 1 0 0
-7.146576 3.633010 -5.488856 9.715959 -0.470311 2.171147 0.006040 -0.008108 -821374.000000 1 0 0
-13.829476 -5.963590 2.368344 15.245585 0.407130 1.414818 0.004087 -0.004211 185001.000000 1 0 0
6.733424 -6.034390 3.275544 9.616758 -0.730703 1.223233 0.006781 -0.004332 571255.000000 1 0 0
-4.582176 2.074610 3.459044 6.104534 -0.425144 0.968380 0.001991 -0.001010 354584.000000 1 0 0
6.902624 -12.038390 -5.461756 14.913075 -1.050177 1.945761 0.009556 -0.010169 943594.000000 1 0 0
2.918124 -12.206090 3.277944 12.971083 -1.336130 1.315314 0.008076 -0.007306 -931335.000000 1 0 0
3.392424 11.249210 -6.118656 13.247310 1.277900 2.050909 0.002726 0.000232 483927.000000 1 0 0
-5.613876 -8.307790 6.415444 11.903482 0.976541 1.001600 0.001883 -0.000866 647.637000 1 0 0
-4.023676 6.525910 6.374544 9.970571 -1.018282 0.877162 0.002118 0.003444 374451.000000 1 0 0
4.275624 4.449310 -7.000756 9.332090 0.805302 2.419132 -0.001003 0.000765 -2914850.000000 1 0 0
-0.352876 -2.680490 1.666244 3.175833 1.439903 1.018476 0.005386 -0.003783 -810326.000000 1 0 0
-13.226776 -0.922890 6.616144 14.817986 0.069661 1.107953 0.010527 -0.003969 -457806.000000 1 0 0
-0.534476 -9.244390 -5.872256 10.964844 1.513044 2.135959 0.003039 0.000560 358234.000000 1 0 0
2.021124 -1.724190 -3.864256 4.689376 -0.706282 2.539311 0.003634 -0.001585 -129519.000000 1 0 0
11.454724 -1.971790 1.150944 11.680039 -0.170467 1.472097 0.006525 -0.002187 1200060.000000 1 0 0
0.565624 -4.205290 -2.055456 4.714795 -1.437096 2.021900 0.004696 -0.001477 -1204860.000000 1 0 0
1.078624 -7.396290 -11.237056 13.495924 -1.425984 2.554629 -0.004138 -0.001857 -178581.000000 1 0 0
-4.511076 4.104710 -10.031256 11.739870 -0.738268 2.595308 0.008467 -0.011126 370795.000000 1 0 0
-1.104676 5.707610 -2.220856 6.223289 -1.379616 1.935703 0.002770 -0.000590 -320411.000000 1 0 0
-11.391276 1.696210 -3.854156 12.144662 -0.147818 1.893734 0.001768 -0.000850 -522369.000000 1 0 0
-1.900376 -11.238690 4.110144 12.116635 1.403288 1.224714 0.009749 -0.002645 41434.800000 1 0 0
-3.603876 -5.377390 -9.680356 11.645323 0.980358 2.552177 0.008652 -0.003235 -1095960.000000 1 0 0
-12.879776 -3.742390 -8.308356 15.777291 0.282777 2.125395 0.019926 -0.006552 50054.900000 1 0 0
11.405424 4.427510 0.405544 12.241364 0.370287 1.537661 0.006490 0.001929 -54201.900000 1 0 0
-8.756876 -2.337390 -3.065056 9.567698 0.260839 1.896900 0.008984 -0.005206 -424541.000000 1 0 0
-2.485376 -6.065390 -6.277356 9.075861 1.181901 2.334573 0.008657 -0.002730 459275.000000 1 0 0
0.070824 2.538710 -1.958456 3.207120 1.542906 2.227689 0.002201 -0.001947 -158669.000000 1 0 0
7.996624 6.057010 -5.223856 11.310263 0.648250 2.050897 0.002217 0.000170 -888170.000000 1 0 0
-9.700276 -0.941990 -1.025956 9.799760 0.096806 1.675680 0.002912 -0.003404 -450416.000000 1 0 0
6.144924 0.438610 -8.927856 10.847077 0.071257 2.537584 0.000448 -0.000992 296881.000000 1 0 0
-4.165276 2.541210 8.055444 9.417932 -0.547809 0.544608 -0.001013 0.002620 -950142.000000 1 0 0
-10.192676 -3.319590 1.386644 10.808936 0.314850 1.442155 0.005187 -0.005197 2816410.000000 1 0 0
-1.826276 -8.081390 -7.727456 11.329507 1.348544 2.321379 0.006034 -0.002440 -417948.000000 1 0 0
-9.458876 -9.779490 4.177544 14.232380 0.802062 1.272885 0.004150 -0.000353 -437793.000000 1 0 0
-1.189076 -10.737790 7.292444 13.034330 1.460508 0.977038 0.005872 -0.006648 -82279.500000 1 0 0
9.470924 3.700510 -3.815356 10.860438 0.372484 1.929764 0.002772 -0.000634 -794857.000000 1 0 0
12.928824 -0.728290 3.046044 13.302754 -0.056271 1.339768 0.011897 -0.003224 -495694.000000 1 0 0
6.502424 11.882110 -6.901156 15.201711 1.070071 2.042015 0.012064 -0.003435 395671.000000 1 0 0
-11.715676 -0.114190 -6.524756 13.410539 0.009746 2.078921 0.008168 -0.003737 888532.000000 1 0 0
-7.562576 -6.617690 -11.617356 15.360643 0.718863 2.428445 0.014248 -0.001329 -867023.000000 1 0 0
4.122024 6.181610 6.628544 9.956956 0.982687 0.842338 -0.004857 0.003459 -1505440.000000 1 0 0
-4.254576 -1.495990 -7.402856 8.668430 0.338116 2.594426 0.011302 -0.011174 -863694.000000 1 0 0
9.617924 9.253710 0.831244 13.372606 0.766101 1.508596 0.009577 -0.000911 -1393990.000000 1 0 0
-9.010476 4.104610 4.903044 11.048817 -0.427449 1.111004 0.004204 -0.001958 529772.000000 1 0 0
-6.976276 7.801610 -12.321256 16.166228 -0.841189 2.437440 0.001540 -0.007184 -650362.000000 1 0 0
11.250024 -3.564790 7.228944 13.839378 -0.306861 1.021197 0.014647 -0.004663 615162.000000 1 0 0
11.838924 6.972810 6.331144 15.128238 0.532272 1.139005 0.011169 -0.002133 566550.000000 1 0 0
-9.848176 -0.880690 -14.858056 17.847241 0.089189 2.554424 0.013409 -0.003932 395872.000000 1 0 0
1.680924 -12.897490 11.944044 17.658735 -1.441197 0.827957 0.009214 -0.003886 -39081.000000 1 0 0
2.961424 3.204610 13.073244 13.782208 0.824817 0.322142 -0.000859 -0.001710 -883104.000000 1 0 0
-2.583776 -1.424690 11.026944 11.414864 0.503916 0.261450 0.005901 -0.004300 -841122.000000 1 0 0
2.546524 -10.045290 -8.202956 13.216698 -1.322522 2.240369 -0.006165 -0.000619 -881655.000000 1 0 0
13.885624 3.702510 -7.358356 16.145109 0.260581 2.044026 0.014264 -0.006464 -2082300.000000 1 0 0
7.373624 -1.609890 5.070844 9.092608 -0.214958 0.979198 0.004045 -0.001599 529860.000000 1 0 0
-1.036476 8.881610 10.132544 13.513909 -1.454623 0.723057 -0.002508 -0.001084 -166398.000000 1 0 0
-12.403376 -4.603590 0.934444 13.263105 0.355396 1.500284 0.009111 -0.005806 591089.000000 1 0 0
-4.937476 4.908610 -5.391556 8.805794 -0.782466 2.229729 0.008703 -0.006968 -693007.000000 1 0 0
-11.227076 0.355310 2.021844 11.413209 -0.031637 1.392707 0.001742 -0.000718 -910571.000000 1 0 0
-1.302476 2.100910 -4.167456 4.845406 -1.015831 2.606231 0.007067 -0.006283 762312.000000 1 0 0
3.101624 -9.865990 13.114644 16.701847 -1.266204 0.667743 0.003526 -0.000407 -883516.000000 1 0 0
8.931224 4.628810 -1.580756 10.182899 0.478159 1.726663 0.003939 -0.001263 -1781680.000000 1 0 0
4.042824 2.311710 3.793844 6.006803 0.519431 0.887192 -0.004342 0.003686 -732538.000000 1 0 0
-5.503376 -3.344590 7.477044 9.868111 0.546087 0.711019 0.001242 -0.005529 -362697.000000 1 0 0
1.660824 -5.694190 7.786844 9.788619 -1.286999 0.650965 0.002117 -0.004207 -212777.000000 1 0 0
-5.960976 -6.177590 -9.659856 12.923184 0.803241 2.415061 0.010295 -0.003875 -319748.000000 1 0 0
-11.723276 -5.883290 5.410944 14.188961 0.465124 1.179541 0.010818 -0.004497 -689605.000000 1 0 0
10.594024 6.228510 4.341844 13.033775 0.531495 1.231183 0.005581 0.002499 -1363120.000000 1 0 0
1.325224 -3.736890 0.427844 3.987933 -1.230000 1.463305 0.013478 -0.002393 -890739.000000 1 0 0
8.794124 4.354610 7.019744 12.065490 0.459778 0.949852 0.007754 0.005369 -260330.000000 1 0 0
-7.903276 12.108610 3.503344 14.877958 -0.992526 1.333092 0.002674 -0.004966 -343268.000000 1 0 0
-6.232676 13.086810 -7.001156 16.097424 -1.126323 2.020750 0.016332 -0.009757 660201.000000 1 0 0
4.404824 -6.876290 -1.041556 8.232294 -1.001071 1.697657 0.005902 -0.006513 -228888.000000 1 0 0
-1.930876 -8.129190 11.086444 13.882408 1.337594 0.645836 -0.000122 -0.008345 -439052.000000 1 0 0
11.682724 8.772110 -5.739156 15.696301 0.644052 1.945114 0.021966 -0.007835 239805.000000 1 0 0
-3.303976 -2.861890 -1.861756 4.751085 0.713822 1.973448 0.007964 -0.005036 -1355960.000000 1 0 0
-2.053876 5.900810 4.763944 7.857044 -1.235845 0.919362 -0.001125 0.005652 315020.000000 1 0 0
0.326524 -11.482790 -5.665456 12.808531 -1.542368 2.028979 -0.000583 -0.006996 -1321850.000000 1 0 0
-8.862776 6.223610 -1.571656 10.943136 -0.612214 1.714915 0.008492 -0.001403 -924689.000000 1 0 0
2.977224 0.008610 3.947844 4.944634 0.002892 0.646147 0.000999 0.000116 -392237.000000 1 0 0
-10.078776 3.928810 -1.012956 10.864776 -0.371691 1.664165 0.006409 0.000397 -55572.000000 1 0 0
6.448524 5.482810 13.686844 16.092680 0.704635 0.553859 0.019926 -0.000975 -1212020.000000 1 0 0
-8.698176 -1.588990 5.693044 10.516364 0.180688 0.998753 0.003437 -0.003032 -71457.700000 1 0 0
13.007024 -1.879390 -1.468756 13.223918 -0.143497 1.682094 0.009892 -0.007429 -1707540.000000 1 0 0
5.452924 -5.386190 5.514344 9.442108 -0.779241 0.947129 0.001153 -0.002148 169238.000000 1 0 0
-8.874076 -1.230690 3.121944 9.487379 0.137805 1.235485 0.001322 -0.003030 65500.600000 1 0 0
1.930324 5.464610 5.605644 8.062962 1.231237 0.802051 -0.003319 0.003576 -489993.000000 1 0 0
9.205224 2.944910 -7.367856 12.152940 0.309628 2.222147 0.001713 -0.000296 -622834.000000 1 0 0
2.356624 -2.394790 -1.469756 3.667271 -0.793431 1.983161 0.002263 -0.002122 -47713.500000 1 0 0
-6.264276 0.402510 -4.041356 7.465637 -0.064167 2.142812 0.002989 -0.002285 -1645200.000000 1 0 0
-4.044776 4.202110 5.037944 7.707063 -0.804474 0.858361 0.002282 0.003023 755011.000000 1 0 0
-6.438076 1.752410 -12.318156 14.009166 -0.265756 2.645171 0.009750 -0.008455 -726364.000000 1 0 0
-0.113576 3.143310 6.224544 6.974113 -1.534679 0.467891 -0.002548 0.002136 1481910.000000 1 0 0
-8.681176 9.479410 -2.113856 13.026528 -0.829324 1.733790 0.006607 -0.001639 630706.000000 1 0 0
-1.312776 -3.653590 -6.183656 7.301349 1.225850 2.580961 0.003783 -0.003420 233740.000000 1 0 0
-3.386776 6.982210 -3.024156 8.328688 -1.119174 1.942390 0.003589 -0.000748 758659.000000 1 0 0
6.995724 -0.440790 -4.335556 8.242056 -0.062925 2.124720 0.002779 -0.003082 -218247.000000 1 0 0
-5.155676 -10.824790 6.953644 13.860383 1.126301 1.045243 -0.001614 -0.003933 559692.000000 1 0 0
9.707624 8.436010 -1.578856 12.957508 0.715427 1.692949 0.006399 0.000730 -461132.000000 1 0 0
13.727524 4.538810 -4.252056 15.070690 0.319321 1.856821 0.006035 -0.009163 587210.000000 1 0 0
4.711024 1.141910 -6.780756 8.335248 0.237805 2.520948 -0.004333 -0.001837 638259.000000 1 0 0
9.052824 -4.783190 3.526744 10.829148 -0.486081 1.239075 0.007215 -0.004446 -566195.000000 1 0 0
-8.685576 -3.339590 -0.732156 9.334246 0.367072 1.649315 0.002832 -0.004095 581175.000000 1 0 0
-8.596476 -4.371290 -10.376056 14.165808 0.470423 2.392742 0.011432 -0.007658 46857.000000 1 0 0
10.534424 -1.162490 10.753544 15.098482 -0.109907 0.778131 0.026219 -0.005101 970777.000000 1 0 0
2.008524 -11.504990 9.766944 15.224721 -1.397960 0.874320 0.006914 -0.009023 303627.000000 1 0 0
-6.541276 -10.468090 2.059244 12.514379 1.012285 1.405494 0.008482 -0.001416 -1500210.000000 1 0 0
-3.623576 -1.525090 6.664044 7.737292 0.398376 0.532995 0.002817 -0.003929 45758.400000 1 0 0
4.821224 -7.552690 4.024044 9.822436 -1.002658 1.148694 0.004640 -0.002108 464724.000000 1 0 0
11.454524 -9.546590 -5.315956 15.830441 -0.694798 1.913257 0.035012 -0.012545 496501.000000 1 0 0
11.403924 1.269710 11.477244 16.229256 0.110883 0.785274 0.035919 -0.001597 77522.500000 1 0 0
-10.192876 -3.482590 4.324344 11.607028 0.329234 1.189028 0.011500 -0.004786 1931230.000000 1 0 0
2.147924 8.766810 9.017144 12.758504 1.330523 0.785895 -0.007770 0.003991 -564035.000000 1 0 0
6.541824 8.783610 4.130444 11.705035 0.930647 1.210152 0.000321 0.001533 1895760.000000 1 0 0
-4.134576 3.464810 0.406544 5.409705 -0.697491 1.495575 0.005381 -0.001474 -157159.000000 1 0 0
4.867024 6.922710 4.196944 9.445961 0.958025 1.110391 -0.001718 0.002365 -1358120.000000 1 0 0
-8.311676 13.207810 1.116544 15.645347 -1.009111 1.499370 0.004537 -0.002931 -945794.000000 1 0 0
8.839224 8.143210 -9.146056 15.102784 0.744437 2.221300 0.008666 -0.006047 -1305000.000000 1 0 0
7.106924 2.006010 6.113044 9.586540 0.275104 0.879327 0.003159 0.001454 -601453.000000 1 0 0
11.645524 -6.236990 3.175944 13.586938 -0.491697 1.334864 0.008690 -0.003067 -98549.600000 1 0 0
11.385324 4.671710 -2.154856 12.493754 0.389377 1.744138 0.003896 -0.001287 -461778.000000 1 0 0
-3.858876 14.113310 -6.042856 15.830116 -1.303899 1.962465 0.010915 -0.001982 -1305670.000000 1 0 0
7.165724 -2.980090 6.988644 10.443643 -0.394122 0.837696 0.007316 -0.003341 -1204220.000000 1 0 0
-7.886776 -0.453690 0.949444 7.956665 0.057462 1.451184 0.006506 -0.003118 438636.000000 1 0 0
-3.234576 1.080810 10.809044 11.334287 -0.322479 0.305626 0.001939 -0.000613 -279673.000000 1 0 0
7.162824 -1.251490 -1.843356 7.501349 -0.172974 1.819076 0.003824 -0.002865 -2012400.000000 1 0 0
-7.748576 5.335710 2.958044 9.862062 -0.603037 1.266165 0.007638 0.002607 1016290.000000 1 0 0
9.487324 -2.152090 2.926744 10.159066 -0.223064 1.278563 0.004650 -0.002341 -1416180.000000 1 0 0
0.308224 3.478110 1.613144 3.846360 1.482409 1.138018 -0.002976 0.002616 -3329170.000000 1 0 0
-7.570276 -3.049490 3.949344 9.066741 0.382939 1.120107 0.002419 -0.004114 -2202000.000000 1 0 0
-2.189876 8.297210 -6.810356 10.955374 -1.312751 2.241638 0.004650 -0.004597 -747628.000000 1 0 0
4.522724 9.876910 7.480144 13.189425 1.141385 0.967777 -0.003340 0.003318 880395.000000 1 0 0
-11.803976 -3.065590 6.728744 13.928664 0.254095 1.066620 0.011230 -0.005908 -1563200.000000 1 0 0
-4.842776 2.363310 -5.694956 7.840296 -0.454008 2.383822 0.009596 -0.010512 -1271770.000000 1 0 0
-2.640676 2.881810 -1.922956 4.356118 -0.829035 2.027997 0.005716 -0.001927 2214490.000000 1 0 0
2.260624 5.326510 11.414544 12.797419 1.169426 0.469176 0.002675 -0.002854 172647.000000 1 0 0
-0.726076 1.667610 4.576244 4.924441 -1.160151 0.378305 0.002803 -0.000775 408715.000000 1 0 0
5.073224 1.606210 7.602744 9.280044 0.306621 0.610682 -0.000978 -0.001154 1352540.000000 1 0 0
3.367624 -8.108190 2.031344 9.011658 -1.177139 1.343430 0.006761 -0.002904 1962710.000000 1 0 0
4.961524 6.384810 -4.656456 9.330869 0.910187 2.093284 0.004178 0.000924 -2166930.000000 1 0 0
-4.040376 3.049310 -7.970756 9.442240 -0.646508 2.575792 0.015044 -0.017117 458441.000000 1 0 0
-8.700576 -2.106290 -12.828256 15.642910 0.237517 2.532327 0.011741 -0.009947 771205.000000 1 0 0
-7.708876 8.157410 1.228444 11.290668 -0.813660 1.461779 0.002827 0.002180 -1133290.000000 1 0 0
7.343924 0.779110 -6.548656 9.870417 0.105694 2.296234 0.000338 -0.001257 -425849.000000 1 0 0
8.998924 8.807610 5.409444 13.704624 0.774655 1.165037 0.001069 0.002867 242236.000000 1 0 0
9.426924 -1.059790 -1.320256 9.577741 -0.111952 1.709083 0.006529 -0.003528 678986.000000 1 0 0
5.483324 0.180110 4.352244 7.002950 0.032835 0.900157 0.001677 0.001459 -1690630.000000 1 0 0
-4.230776 -7.157290 -7.895456 11.465797 1.036936 2.330366 0.013458 -0.005733 -209157.000000 1 0 0
-2.254776 7.415910 -0.623056 7.776114 -1.275632 1.651007 0.001275 0.001437 -167576.000000 1 0 0
13.542624 -3.462390 -7.354156 15.794759 -0.250304 2.055117 0.024275 -0.006919 821406.000000 1 0 0
-4.715376 -4.996190 1.658244 7.067281 0.814305 1.333951 0.005292 -0.004602 2407120.000000 1 0 0
-8.894676 1.305110 2.603544 9.359328 -0.145690 1.288901 0.003997 -0.001214 -1453270.000000 1 0 0
-0.864976 11.355210 10.357044 15.393419 -1.494769 0.832778 -0.005302 -0.001264 345261.000000 1 0 0
-8.515976 0.299310 7.459244 11.324829 -0.035132 0.851756 0.001281 -0.002456 -226472.000000 1 0 0
-6.147376 12.868610 -2.170256 14.425720 -1.125145 1.721813 0.005205 -0.000338 97668.500000 1 0 0
-13.094276 -0.747690 3.238144 13.509430 0.057039 1.328745 0.008456 -0.007779 586229.000000 1 0 0
-6.675576 12.673110 8.585344 16.699676 -1.085977 1.030835 0.008681 -0.011605 -469584.000000 1 0 0
-8.111476 0.886110 -13.965456 16.174523 -0.108810 2.612812 0.011108 -0.007704 193171.000000 1 0 0
7.152724 2.868610 3.884644 8.630228 0.381413 1.103896 0.000430 0.005471 -106202.000000 1 0 0
-1.555176 0.611210 -2.027256 2.627150 -0.374472 2.452237 0.004658 -0.004930 400108.000000 1 0 0
-6.338076 9.577010 -10.446456 15.524780 -0.986170 2.308904 0.006164 -0.007217 -118575.000000 1 0 0
-9.998476 13.765110 5.270944 17.810970 -0.942595 1.270359 0.000070 -0.005087 475801.000000 1 0 0
-5.620476 8.309510 2.446944 10.325950 -0.976092 1.331550 0.000912 0.003741 -461267.000000 1 0 0
-2.524776 -10.740390 -1.198856 11.098095 1.339915 1.679031 0.010045 0.000173 465734.000000 1 0 0
-2.389376 -12.473890 8.722444 15.407403 1.381539 0.969005 0.002052 -0.000472 463865.000000 1 0 0
-14.737176 -6.385590 -1.740456 16.155163 0.408878 1.678740 0.014509 -0.005981 259842.000000 1 0 0
-2.827576 -9.351190 3.348644 10.327311 1.277161 1.240576 0.005074 -0.003697 -1297060.000000 1 0 0
4.681324 -2.719690 7.547044 9.288131 -0.526306 0.622288 0.002011 -0.001079 1207320.000000 1 0 0
-15.030576 -1.275090 -0.231856 15.086346 0.084630 1.586166 0.011563 -0.006785 -110433.000000 1 0 0
5.535724 8.747210 -2.852856 10.737631 1.006568 1.839713 0.001787 -0.000070 698036.000000 1 0 0
-5.686376 -5.752690 8.531544 11.756511 0.791195 0.758764 0.002790 -0.004802 -1939860.000000 1 0 0
3.395524 3.656710 7.080144 8.661960 0.822417 0.613942 -0.003047 0.002420 179560.000000 1 0 0
3.371924 2.327810 9.432944 10.284406 0.604221 0.409780 0.000669 -0.003147 1958890.000000 1 0 0
10.036224 -3.289090 5.218944 11.780546 -0.316692 1.111839 0.008977 -0.005024 -272472.000000 1 0 0
6.548024 9.878210 -5.115956 12.908473 0.985423 1.978307 0.001863 -0.002839 1021110.000000 1 0 0
-4.528376 11.980910 -8.553656 15.401735 -1.209428 2.159604 0.009181 -0.006927 -1066600.000000 1 0 0
-3.353676 -7.197490 2.182644 8.234982 1.134757 1.302545 0.006181 -0.004996 1139700.000000 1 0 0
-7.407176 -3.923590 1.195644 8.467017 0.487125 1.429111 0.004157 -0.004136 4001630.000000 1 0 0
-1.935176 -3.918090 -10.884456 11.728927 1.112034 2.759808 0.009755 -0.006062 -850338.000000 1 0 0
-5.285776 8.188810 -4.449756 10.714307 -0.997600 1.999080 0.006252 -0.004668 -2212650.000000 1 0 0
-10.929876 -3.220790 -10.142956 15.255007 0.286567 2.298148 0.017535 -0.005948 235670.000000 1 0 0
4.652724 -11.398390 -7.670656 14.505519 -1.183248 2.127994 0.000949 -0.004769 -2008240.000000 1 0 0
-9.443976 -3.974390 7.260844 12.558038 0.398341 0.954296 0.004684 -0.003784 -766148.000000 1 0 0
-5.697376 -9.667490 -5.150456 12.346969 1.038257 2.001096 0.013336 -0.005718 459915.000000 1 0 0
4.883024 4.290710 -9.525156 11.531813 0.720921 2.542752 -0.000555 0.004147 411291.000000 1 0 0
-3.403076 -7.286590 -14.079456 16.214389 1.133869 2.622624 0.004677 -0.002535 -4387.320000 1 0 0
0.808124 -0.871490 -8.793856 8.873808 -0.823107 3.007254 0.003411 -0.008295 -1155770.000000 1 0 0
-7.766376 2.239510 -2.964656 8.609367 -0.280744 1.922345 0.004197 -0.002266 -824327.000000 1 0 0
-2.339676 7.515910 -12.618356 14.872320 -1.269008 2.583838 0.007319 -0.007723 -520741.000000 1 0 0
-9.804376 8.848810 7.615044 15.245200 -0.734215 1.047770 -0.000610 -0.005741 36343.000000 1 0 0
-10.642976 -3.168090 -14.260956 18.074419 0.289317 2.479998 0.028322 -0.005029 -257653.000000 1 0 0
-3.178376 4.870710 7.907544 9.816066 -0.992631 0.634157 0.001026 0.001798 -670235.000000 1 0 0
8.731924 -2.297490 -3.435956 9.660784 -0.257282 1.934417 0.005125 -0.005907 -5554350.000000 1 0 0
1.966724 -8.525190 -1.038356 8.810507 -1.344067 1.688925 0.003831 -0.001055 126233.000000 1 0 0
-13.618176 -2.843490 5.010844 14.786775 0.205844 1.225077 0.018274 -0.009102 329407.000000 1 0 0
7.086024 2.736010 -2.008356 7.856907 0.368478 1.829282 0.002636 -0.000503 9288.800000 1 0 0
-11.028976 4.367510 8.875644 14.815212 -0.377056 0.928432 -0.000752 -0.007260 -2507970.000000 1 0 0
-1.755776 -2.439590 8.130944 8.668714 0.946970 0.354085 0.003783 -0.004978 -2398950.000000 1 0 0
3.025524 11.863310 -9.935656 15.767346 1.321087 2.252532 0.005663 -0.008428 504176.000000 1 0 0
3.699224 -5.009690 -6.985956 9.358677 -0.934752 2.413535 -0.003712 -0.005773 -39726.400000 1 0 0
8.173824 -13.947790 -9.765256 18.886833 -1.040712 2.114186 0.029190 -0.008105 -476923.000000 1 0 0
-6.287376 -5.748790 -0.339056 8.526115 0.740681 1.610574 0.008540 -0.004073 -593386.000000 1 0 0
-1.118676 -4.084790 9.855144 10.726640 1.303487 0.405883 0.001937 -0.005281 916144.000000 1 0 0
2.843424 3.292710 1.836244 4.722160 0.858488 1.171406 -0.005698 0.004166 -348671.000000 1 0 0
-9.016876 13.427710 7.683744 17.906630 -0.979446 1.127300 0.003022 -0.014484 -554738.000000 1 0 0
4.049824 -11.087390 0.007444 11.803869 -1.220589 1.570166 0.003562 -0.002904 -67618.900000 1 0 0
-12.468276 -1.476590 -9.094356 15.503082 0.117879 2.197670 0.015098 -0.007328 557031.000000 1 0 0
-4.271676 0.967410 -13.530156 14.221400 -0.222714 2.828528 0.012431 -0.007779 -82003.100000 1 0 0
3.967724 -3.043090 4.952144 7.037539 -0.654268 0.790239 0.003733 -0.000766 51538.700000 1 0 0
1.739724 -1.228690 1.199444 2.444378 -0.614912 1.057909 0.001929 -0.001572 189243.000000 1 0 0
8.167524 -8.985690 7.406744 14.223604 -0.833060 1.023083 0.009528 -0.006217 -1512590.000000 1 0 0
-0.098276 2.293410 -6.460356 6.856062 -1.527971 2.800183 0.004085 -0.007772 -34963.500000 1 0 0
-3.756676 -9.757190 -3.367056 10.984190 1.203273 1.882349 0.012154 -0.000598 284703.000000 1 0 0
-9.491376 2.310910 -5.442956 11.182679 -0.238828 2.079140 0.001198 -0.002350 -44850.200000 1 0 0
8.962224 -7.680190 5.321644 12.947071 -0.708516 1.147212 0.007410 -0.006498 999999.000000 1 0 0
-5.570076 -4.203890 4.663444 8.393220 0.646520 0.981687 0.000127 -0.004090 43096.300000 1 0 0
-0.326476 -12.384690 10.356644 16.147668 1.544441 0.874513 0.005673 -0.004016 -1461490.000000 1 0 0
-14.360576 -8.280790 3.107244 16.865722 0.523061 1.385504 0.010185 -0.002139 -1340560.000000 1 0 0
10.951424 -1.372490 -3.552056 11.594590 -0.124675 1.882157 0.013845 -0.005315 -233603.000000 1 0 0
-13.655776 3.076210 2.774544 14.270297 -0.221570 1.375122 0.002948 -0.002073 -550769.000000 1 0 0
-6.217476 6.149910 1.036344 8.806385 -0.779935 1.452842 0.006936 0.002047 1285510.000000 1 0 0
7.059324 -6.846990 -0.403956 9.842687 -0.770130 1.611849 0.003953 -0.005159 -306950.000000 1 0 0
-6.830276 7.828510 10.117144 14.501546 -0.853391 0.798671 -0.003818 -0.005806 345548.000000 1 0 0
-12.643176 -4.974690 -1.871356 13.714934 0.374863 1.707670 0.005009 -0.003911 -2359920.000000 1 0 0
-9.336676 -5.632690 0.255844 10.907161 0.542832 1.547338 0.005445 -0.004489 -861614.000000 1 0 0
-1.789776 1.884510 2.286244 3.461443 -0.811175 0.849327 0.002402 0.000401 199413.000000 1 0 0
-7.069976 7.270010 7.568344 12.653752 -0.799347 0.929655 -0.000476 -0.003587 -38981.300000 1 0 0
5.610724 7.144510 -0.403156 9.093227 0.905071 1.615147 0.002099 0.001074 -2474100.000000 1 0 0
-0.036876 -3.983590 7.411844 8.414617 1.561540 0.493185 0.004538 -0.005600 -1793190.000000 1 0 0
6.362624 0.753110 13.132944 14.612473 0.117817 0.453889 0.009849 -0.002356 525383.000000 1 0 0
5.831024 6.148110 -7.929056 11.604742 0.811862 2.323014 -0.003161 0.002428 -42887.500000 1 0 0
10.001824 5.326910 9.071444 14.515631 0.489381 0.895738 0.009322 -0.002782 -1946210.000000 1 0 0
-1.216176 -5.043990 -8.506456 9.963971 1.334198 2.593887 0.009809 -0.005370 972124.000000 1 0 0
9.964224 -3.594190 -7.809056 13.159989 -0.346183 2.206065 0.018547 -0.010286 468163.000000 1 0 0
8.382124 -5.390590 1.188344 10.036464 -0.571513 1.452115 0.007287 -0.003565 974965.000000 1 0 0
15.738324 3.049310 -4.969156 16.783493 0.191379 1.871376 0.032602 -0.007873 -325133.000000 1 0 0
-6.849476 3.560910 1.116844 7.800176 -0.479425 1.427121 0.005974 -0.000918 1843870.000000 1 0 0
-1.612976 3.704610 0.223744 4.046714 -1.160152 1.515478 0.004149 -0.003711 -1498220.000000 1 0 0
-2.550476 10.133510 7.059444 12.610659 -1.324230 0.976652 -0.001665 0.004889 717954.000000 1 0 0
5.483524 -5.714290 -8.698756 11.763949 -0.806003 2.403037 -0.000984 -0.006900 -248163.000000 1 0 0
-1.167276 -0.947390 6.268544 6.446295 0.681789 0.235380 0.002508 -0.001931 -195211.000000 1 0 0
-5.733776 5.047010 -7.938956 11.017056 -0.721781 2.375472 0.008543 -0.008246 -308010.000000 1 0 0
6.778624 -1.246090 2.610144 7.369893 -0.181797 1.208777 0.003314 0.000354 -1141530.000000 1 0 0
8.697724 7.523910 3.180844 11.932200 0.713163 1.300957 0.004736 0.001207 -524887.000000 1 0 0
-5.397076 -4.820090 -7.671156 10.545536 0.728986 2.385368 0.012227 -0.007531 619443.000000 1 0 0
-2.350576 7.895310 -10.070856 13.010891 -1.281434 2.455982 0.007736 -0.007192 123957.000000 1 0 0
-2.967976 -2.462990 1.695444 4.213043 0.692682 1.156629 -0.000041 0.000660 -642686.000000 1 0 0
5.994224 -2.221690 -9.146456 11.159045 -0.354941 2.531588 0.000695 -0.004517 1043620.000000 1 0 0
1.056524 -7.586090 5.207944 9.262164 -1.432415 0.973654 0.005244 -0.004254 366013.000000 1 0 0
1.817624 12.016910 1.200844 12.212777 1.420679 1.472310 -0.000315 -0.001154 359357.000000 1 0 0
-1.078576 7.071110 2.585044 7.605681 -1.419430 1.224004 -0.002720 0.005453 367044.000000 1 0 0
8.878724 7.778810 -6.709856 13.578063 0.719463 2.087675 0.005494 -0.002030 -3597.620000 1 0 0
3.588724 -11.176890 5.490644 12.959513 -1.260110 1.133296 0.011445 -0.006325 138319.000000 1 0 0
7.909324 -7.083590 12.433744 16.350310 -0.730379 0.706776 0.020524 -0.003742 816149.000000 1 0 0
-8.756976 0.028810 -3.883656 9.579575 -0.003290 1.988224 0.004874 -0.004207 -549727.000000 1 0 0
-3.304876 -4.940590 11.107344 12.597806 0.981233 0.491367 0.004795 -0.007103 411241.000000 1 0 0
-8.153376 0.164610 -11.393256 14.011100 -0.020187 2.520356 0.008084 -0.011232 -1705960.000000 1 0 0
1.416324 -4.924990 5.338344 7.399960 -1.290774 0.764972 0.004410 -0.004063 -337607.000000 1 0 0
6.642724 3.723210 -7.688856 10.821580 0.510865 2.361021 -0.002099 0.001672 -544058.000000 1 0 0
16.301824 4.266910 -1.290356 16.900325 0.256001 1.647222 0.028837 0.000808 -488578.000000 1 0 0
7.876624 7.459010 0.040744 10.848027 0.758173 1.567040 0.004110 -0.001314 -2708240.000000 1 0 0
5.414424 -10.362790 13.906744 18.168679 -1.089321 0.699096 0.011515 -0.003319 -102627.000000 1 0 0
-5.277876 -9.176990 8.979544 13.881834 1.048871 0.867342 -0.003036 -0.006880 585574.000000 1 0 0
-12.634676 -3.139890 2.894944 13.336966 0.243579 1.351993 0.010036 -0.006680 83711.800000 1 0 0
-2.043276 -1.184390 -5.988556 6.437434 0.525323 2.765946 0.011009 -0.009196 -2191680.000000 1 0 0
-2.348076 12.959310 -4.407156 13.888132 -1.391553 1.893712 0.001804 0.003953 452101.000000 1 0 0
3.873724 -0.398090 -4.929556 6.282096 -0.102407 2.473007 0.001908 -0.002801 -18608.200000 1 0 0
-8.852576 3.798710 -7.438056 12.170579 -0.405345 2.228310 0.001761 -0.004041 679701.000000 1 0 0
-4.543776 7.900310 -11.384356 14.583017 -1.048858 2.466515 0.006039 -0.007778 -1692330.000000 1 0 0
-10.176276 -6.422290 7.351344 14.101229 0.562977 1.022392 0.008145 -0.003142 -1140530.000000 1 0 0
8.186824 5.168610 4.195444 10.551794 0.563140 1.161891 0.001457 0.003236 -53557.200000 1 0 0
-6.748076 -7.517790 3.994544 10.863244 0.839301 1.194249 0.006077 -0.003451 -812756.000000 1 0 0
-4.111176 11.814610 8.225144 14.971299 -1.235928 0.989157 0.001368 -0.001878 -304556.000000 1 0 0
-7.322676 9.919910 -7.912056 14.650148 -0.934903 2.141313 0.007539 -0.008638 213508.000000 1 0 0
13.148324 5.492210 4.717044 15.009773 0.395681 1.251114 0.013496 0.002792 -187124.000000 1 0 0
5.444224 4.008310 -3.837456 7.773815 0.634643 2.087065 -0.000456 0.002152 690798.000000 1 0 0
-2.974476 -4.119390 5.105144 7.202734 0.945413 0.783031 0.001626 -0.004108 -2533020.000000 1 0 0
12.425124 -2.454090 -5.379856 13.760418 -0.195000 1.972477 0.013826 -0.010857 -2333440.000000 1 0 0
-5.199476 9.859410 6.938344 13.129476 -1.085500 1.014016 0.001223 0.001130 -7954.930000 1 0 0
1.836624 3.788810 -0.439956 4.233419 1.119423 1.674909 -0.004261 0.001136 707013.000000 1 0 0
0.031524 9.716210 7.724544 12.412668 1.567552 0.899104 -0.004667 0.005342 372127.000000 1 0 0
-5.396376 2.095210 5.915944 8.277027 -0.370347 0.774540 0.001442 0.000852 896197.000000 1 0 0
8.904524 1.007210 10.846444 14.069483 0.112633 0.690512 0.019666 -0.001064 2142420.000000 1 0 0
0.510424 -2.895590 -10.167256 10.583859 -1.396313 2.860086 0.002666 -0.006311 -1930730.000000 1 0 0
1.275224 10.652410 -2.821656 11.093322 1.451651 1.827978 0.002977 -0.001197 -1019620.000000 1 0 0
2.321924 -4.242290 11.634244 12.599364 -1.070007 0.393952 0.001900 -0.003357 -765896.000000 1 0 0
6.610924 -2.968190 9.461444 11.917776 -0.422008 0.653611 0.003839 -0.000248 312017.000000 1 0 0
-10.686976 -8.228590 5.626444 14.614309 0.656156 1.175593 0.011261 -0.003713 -1492010.000000 1 0 0
-3.101676 0.917210 -6.923356 7.641632 -0.287520 2.704544 0.014127 -0.011002 634710.000000 1 0 0
11.077824 2.640010 -5.116456 12.484629 0.233951 1.993054 0.003962 -0.003600 -2747930.000000 1 0 0
-1.846476 -4.018990 -0.008256 4.422875 1.140122 1.572663 0.004026 -0.002926 679255.000000 1 0 0
-1.391876 -6.480090 -10.674756 12.565003 1.359218 2.585952 0.004575 -0.003622 1032980.000000 1 0 0
0.334224 6.794110 -6.644856 9.509246 1.521643 2.344485 0.007042 -0.002386 -3354640.000000 1 0 0
2.063824 3.797110 -6.245056 7.594613 1.072938 2.536239 0.001340 -0.002241 -1606740.000000 1 0 0
1.576024 -14.635090 6.340644 16.027272 -1.463522 1.164058 0.015390 -0.009932 -400161.000000 1 0 0
-1.625376 5.425010 -10.609256 12.026176 -1.279699 2.651269 0.008723 -0.007940 -183240.000000 1 0 0
13.679124 4.349010 -0.848556 14.378886 0.307825 1.629845 0.004562 -0.000934 -417022.000000 1 0 0
-2.410076 3.340110 -6.140556 7.394000 -0.945749 2.550762 0.010215 -0.009279 -636456.000000 1 0 0
5.630824 7.896710 14.083944 17.100342 0.951359 0.603056 0.016504 -0.006069 423797.000000 1 0 0
15.875024 0.551210 -5.861356 16.931500 0.034708 1.924293 0.027306 -0.007109 311994.000000 1 0 0
6.275024 -8.505890 10.747344 15.074199 -0.935196 0.777082 0.005050 -0.003143 339009.000000 1 0 0
0.047424 -5.729790 -6.437556 8.618287 -1.562520 2.414281 0.002082 -0.001563 -1595140.000000 1 0 0
8.707624 5.435010 -7.510656 12.718962 0.558000 2.202485 -0.000645 -0.000921 -36297.900000 1 0 0
-16.064976 -0.810190 5.319344 16.942116 0.050389 1.251423 0.020369 -0.012689 -37656.200000 1 0 0
-0.310576 4.074710 -12.295056 12.956393 -1.494723 2.820708 0.007365 -0.008565 606149.000000 1 0 0
-11.318576 3.709910 5.897444 13.291104 -0.316737 1.111058 0.003345 -0.002663 -658961.000000 1 0 0
5.084824 -9.761890 -9.660556 14.645008 -1.090581 2.291147 -0.003946 -0.003631 205760.000000 1 0 0
1.633224 11.048810 -11.810656 16.255314 1.424040 2.384116 0.007389 -0.007129 -2081700.000000 1 0 0
6.057424 2.349510 1.269644 6.620013 0.370008 1.377812 0.003337 0.001964 -53600.000000 1 0 0
5.630824 4.613710 4.993744 8.827796 0.686439 0.969534 -0.003374 0.003890 380207.000000 1 0 0
0.427824 -1.447590 -6.337756 6.515037 -1.283434 2.907775 0.003876 -0.005004 -56092.900000 1 0 0
12.735324 6.840610 -4.464356 15.129868 0.492914 1.870324 0.011904 -0.008539 -91828.000000 1 0 0
7.553224 3.278810 12.765944 15.191152 0.409548 0.572861 0.012621 0.000088 -447203.000000 1 0 0
-2.484876 -0.144990 8.643644 8.994899 0.058283 0.280383 0.001178 -0.001748 694110.000000 1 0 0
2.292324 -15.177890 13.258744 20.283426 -1.420899 0.858367 0.017281 -0.001829 -323837.000000 1 0 0
18.860024 4.578010 -1.827156 19.493516 0.238131 1.664666 0.033156 -0.012152 457806.000000 1 0 0
-0.611576 -13.303290 7.086244 15.085304 1.524857 1.081795 0.008425 -0.004708 -1187020.000000 1 0 0
4.463024 1.646210 -0.546056 4.788190 0.353373 1.685087 -0.000080 -0.000317 -20802.600000 1 0 0
2.856224 -0.576390 -7.332256 7.890008 -0.199127 2.763334 -0.004461 -0.004033 -63619.300000 1 0 0
7.218224 -11.291390 0.962444 13.435942 -1.002003 1.499103 0.004498 -0.002854 445669.000000 1 0 0
-11.893076 -7.319090 1.255144 14.021046 0.551672 1.481158 0.006728 -0.002152 344571.000000 1 0 0
0.133324 -6.984390 10.205944 12.367731 -1.551710 0.600227 0.000703 -0.007061 -1703260.000000 1 0 0
-4.630276 -7.083990 10.654944 13.606991 0.991877 0.671243 0.004430 -0.006953 -1196040.000000 1 0 0
11.863424 0.665910 -1.670556 11.998959 0.056073 1.710475 0.001162 -0.002885 1465820.000000 1 0 0
6.467624 -9.704290 -7.452256 13.839780 -0.982929 2.139412 -0.002531 -0.004994 -570314.000000 1 0 0
-11.064376 4.928010 3.529944 12.616109 -0.419017 1.287214 -0.002160 -0.000382 400549.000000 1 0 0
6.035524 -9.087090 2.122344 11.113374 -0.984513 1.378644 0.007063 -0.004569 4273180.000000 1 0 0
11.625724 -1.257390 5.821244 13.062364 -0.107737 1.108896 0.015933 -0.007776 283438.000000 1 0 0
-6.565076 3.509910 4.211944 8.553372 -0.490969 1.055916 0.001616 -0.000049 -628033.000000 1 0 0
9.460724 6.237810 -3.118256 11.753259 0.582911 1.839322 0.004826 -0.000698 -340168.000000 1 0 0
-2.248576 6.691410 10.984044 13.056810 -1.246612 0.571205 -0.003960 -0.002841 185162.000000 1 0 0
1.742024 9.827410 2.790744 10.363440 1.395357 1.298143 -0.004510 0.004435 -313807.000000 1 0 0
2.817524 6.133110 -5.693156 8.829808 1.140157 2.271513 0.000547 0.000359 -2814820.000000 1 0 0
11.853124 0.050810 -5.742156 13.170857 0.004287 2.021917 0.008992 -0.005188 169444.000000 1 0 0
-2.780976 -12.505090 6.188344 14.226971 1.351970 1.120788 0.001791 -0.001828 -537134.000000 1 0 0
10.955424 1.736010 -2.837056 11.449189 0.157155 1.821200 0.005362 -0.004000 933826.000000 1 0 0
-8.875376 5.266210 0.885844 10.358088 -0.535516 1.485170 0.006131 -0.000096 1165980.000000 1 0 0
1.139024 -10.172890 5.451744 11.597697 -1.459294 1.081425 0.006390 -0.005661 -1000610.000000 1 0 0
9.318524 -5.751290 -1.293556 11.026582 -0.552963 1.688380 0.009064 -0.007014 631161.000000 1 0 0
-7.856776 8.608610 -4.648556 12.547756 -0.831028 1.950310 0.005651 -0.005566 -576214.000000 1 0 0
-7.424776 0.051110 -1.650656 7.606220 -0.006884 1.789551 0.004574 -0.003589 -1238020.000000 1 0 0
4.074824 8.887510 2.762844 10.159987 1.140906 1.295394 0.000175 0.000822 -205110.000000 1 0 0
-1.344876 -10.530090 -3.666356 11.230924 1.443767 1.903344 0.009567 0.000509 -1739540.000000 1 0 0
3.092424 7.872010 -3.717156 9.238446 1.196479 1.984887 0.005379 -0.001127 135885.000000 1 0 0
-4.306376 1.659610 -10.954556 11.887030 -0.367844 2.742864 0.010618 -0.010215 -94199.800000 1 0 0
1.349424 2.776910 11.010044 11.434738 1.118456 0.273397 -0.000692 -0.002899 749212.000000 1 0 0
2.003224 5.486810 -8.127656 10.008836 1.220735 2.518449 0.004853 -0.000701 180337.000000 1 0 0
15.573924 6.139810 4.061844 17.226228 0.375528 1.332761 0.028706 -0.003155 413586.000000 1 0 0
-4.435676 9.083610 4.653844 11.128588 -1.116539 1.139347 0.001342 0.006067 -293770.000000 1 0 0
-0.885876 -8.234790 -12.459156 14.960853 1.463631 2.554914 -0.002053 -0.002072 -53505.800000 1 0 0
14.333424 -4.293990 -5.229556 15.850351 -0.291070 1.907029 0.031192 -0.007710 640474.000000 1 0 0
-6.002676 -6.051290 -5.559356 10.176280 0.789431 2.148743 0.013511 -0.004836 606552.000000 1 0 0
-8.944876 2.543810 -11.996356 15.178747 -0.277073 2.482159 0.011940 -0.011709 356165.000000 1 0 0
10.614224 5.371210 13.813344 18.229649 0.468467 0.710953 0.035957 -0.002487 770819.000000 1 0 0
-0.417876 11.011410 5.543044 12.334955 -1.532865 1.104729 -0.003896 0.007550 792449.000000 1 0 0
0.534524 11.203910 -0.629656 11.234313 1.523124 1.626873 0.000567 0.000492 29902.200000 1 0 0
-1.446376 -0.568990 3.733344 4.043960 0.374795 0.394497 0.001096 -0.002647 468825.000000 1 0 0
-4.794176 6.690710 8.900144 12.122801 -0.949054 0.746359 0.001763 -0.003281 -104694.000000 1 0 0
3.404924 -8.780390 -11.329556 14.732535 -1.200862 2.448097 -0.004969 -0.001387 1236090.000000 1 0 0
6.616624 -3.845690 12.070044 14.291781 -0.526493 0.565082 0.010054 -0.000107 -971786.000000 1 0 0
-2.450976 -1.873390 -12.476456 12.852192 0.652618 2.899193 0.010306 -0.009077 946952.000000 1 0 0
-16.163076 -4.863190 5.509444 17.755270 0.292266 1.255289 0.025251 -0.007357 775474.000000 1 0 0
-8.965176 7.240710 5.772144 12.888752 -0.679387 1.106444 -0.005166 -0.000775 -2627910.000000 1 0 0
-12.757776 1.497910 5.952944 14.157759 -0.116876 1.136831 0.003010 -0.006146 463900.000000 1 0 0
-3.432976 3.645610 10.235744 11.395010 -0.815428 0.454990 0.000375 0.000503 653898.000000 1 0 0
2.022224 -12.273090 -1.111356 12.488123 -1.407495 1.659907 0.002491 -0.004170 -2908940.000000 1 0 0
10.405024 -5.063690 -3.620956 12.125048 -0.452917 1.874058 0.011465 -0.008129 681304.000000 1 0 0
3.207324 -13.518890 0.957044 13.927068 -1.337855 1.502024 0.006435 -0.007391 440937.000000 1 0 0
10.053724 -1.753390 -6.028456 11.853017 -0.172665 2.104355 0.012400 -0.005755 -299144.000000 1 0 0
11.959924 -5.365790 -1.561156 13.201086 -0.421729 1.689333 0.015333 -0.008957 -1063240.000000 1 0 0
1.492624 0.977910 5.941844 6.204010 0.579996 0.291748 0.000744 -0.001503 407477.000000 1 0 0
-10.750976 11.772210 6.689344 17.289180 -0.830709 1.173519 -0.002355 -0.002079 -298885.000000 1 0 0
4.696424 -14.100390 3.104344 15.182698 -1.249282 1.364878 0.012776 -0.009030 -3380670.000000 1 0 0
5.162424 -3.377090 -1.674056 6.392012 -0.579299 1.835785 0.006095 -0.004583 -1677420.000000 1 0 0
2.172524 -2.878990 -7.640056 8.448603 -0.924349 2.700529 -0.003529 -0.004200 271544.000000 1 0 0
-2.779376 14.723810 -8.833956 17.394088 -1.384224 2.103508 0.016232 -0.008085 -2083700.000000 1 0 0
-2.345176 6.004010 -8.213556 10.440809 -1.198418 2.476206 0.010916 -0.006972 -234370.000000 1 0 0
2.626024 -3.595790 -11.405256 12.243593 -0.940020 2.769390 -0.001808 -0.004711 -2028020.000000 1 0 0
14.668424 2.743810 -2.710456 15.166995 0.184919 1.750469 0.014832 -0.001546 615976.000000 1 0 0
-3.518476 13.221710 2.140244 13.848247 -1.310710 1.415625 -0.001705 0.002523 -899822.000000 1 0 0
7.956224 -4.927390 13.999044 16.839058 -0.554499 0.589275 0.028857 -0.001688 -1994120.000000 1 0 0
-11.512776 7.311210 2.921344 13.947475 -0.565795 1.359781 -0.002248 -0.000998 1092750.000000 1 0 0
-2.301476 11.906110 3.982844 12.763828 -1.379849 1.253455 -0.000678 0.003957 827971.000000 1 0 0
1.836624 1.445510 0.717444 2.444875 0.666793 1.272965 -0.004049 0.000770 -1425840.000000 1 0 0
-6.841276 8.556510 5.323344 12.180104 -0.896336 1.118477 -0.001925 0.001151 91895.700000 1 0 0
-1.129076 9.131710 0.984844 9.253803 -1.447777 1.464169 -0.000642 0.005047 369684.000000 1 0 0
4.904224 12.899710 -8.576456 16.248370 1.207491 2.126846 0.018921 -0.012878 -740512.000000 1 0 0
8.839524 6.890710 7.170144 13.305263 0.662137 1.001671 0.000037 0.001318 -1857200.000000 1 0 0
7.167724 -13.730490 2.890844 15.756255 -1.089681 1.386278 0.022174 -0.010300 -693393.000000 1 0 0
4.205424 -13.396790 -1.223056 14.094518 -1.266625 1.657681 0.000837 -0.001259 -3458990.000000 1 0 0
12.172624 -11.871790 -4.481356 17.583933 -0.772887 1.828494 0.047618 -0.012628 -938797.000000 1 0 0
2.990624 -0.050090 -1.936856 3.563390 -0.016747 2.145449 0.000178 -0.001408 1550390.000000 1 0 0
-13.621576 -3.215290 -10.605856 17.560456 0.231801 2.219260 0.025534 -0.011769 334006.000000 1 0 0
-6.577076 13.683110 5.005244 15.985553 -1.122731 1.252330 0.003676 -0.005348 83741.100000 1 0 0
7.233224 -4.327990 -0.728356 8.460586 -0.539204 1.656991 0.004225 -0.004193 -2584340.000000 1 0 0
11.742924 2.055810 -7.221356 13.938099 0.173312 2.115427 0.007277 -0.000735 -1013000.000000 1 0 0
-7.444276 -4.420290 9.704344 13.005018 0.535836 0.728461 0.007440 -0.002225 330046.000000 1 0 0
1.012224 2.843810 8.454244 8.976976 1.228840 0.342941 -0.001749 -0.000435 -893732.000000 1 0 0
1.580424 8.023610 -8.814856 12.024049 1.376314 2.393668 0.007754 -0.003273 -67945.200000 1 0 0
-8.611876 -1.877390 -5.707956 10.500941 0.214642 2.145476 0.008649 -0.005302 -1278340.000000 1 0 0
6.713124 -0.474090 7.202744 9.857500 -0.070504 0.751469 0.004841 -0.000675 182366.000000 1 0 0
-10.981276 6.542110 7.159244 14.650680 -0.537290 1.060240 0.003860 -0.003531 1099530.000000 1 0 0
-6.031876 11.040210 4.767244 13.453490 -1.070756 1.208577 -0.001445 0.001309 -603171.000000 1 0 0
5.989424 -1.238890 -6.865956 9.195075 -0.203970 2.413882 0.000342 -0.004341 -687084.000000 1 0 0
4.515924 -5.747790 11.398744 13.541123 -0.904848 0.570211 0.005915 -0.003921 -1364640.000000 1 0 0
-9.024576 -7.351290 2.770244 11.964894 0.683572 1.337145 0.008868 -0.003530 -2293860.000000 1 0 0
-1.204176 12.630810 -9.369656 15.772694 -1.475747 2.206872 0.015550 -0.002979 675111.000000 1 0 0
-4.422576 9.305310 -2.423256 10.583957 -1.127124 1.801801 0.002058 -0.001615 357811.000000 1 0 0
-3.198376 9.678510 -0.224556 10.195764 -1.251633 1.592823 0.000882 0.002165 -1166190.000000 1 0 0
-3.493776 10.609310 -6.395756 12.871272 -1.252669 2.090821 0.005394 0.000261 614782.000000 1 0 0
4.889824 -4.878790 0.362644 6.916970 -0.784269 1.518344 0.006017 -0.003590 -1361710.000000 1 0 0
-2.179976 3.040410 -10.771556 11.402755 -0.948751 2.807307 0.010685 -0.009506 -1941650.000000 1 0 0
-3.613076 12.115310 -2.277256 12.846049 -1.280970 1.749011 0.000288 0.002651 -344911.000000 1 0 0
-0.122176 0.275410 0.096844 0.316475 -1.153265 1.259800 -0.002072 -0.001871 -2554600.000000 1 0 0
-4.908376 -1.640090 0.111644 5.176342 0.322477 1.549227 -0.000000 -0.002742 410660.000000 1 0 0
2.716024 2.566910 -2.346756 4.412831 0.757180 2.131524 -0.008945 -0.001142 342812.000000 1 0 0
5.993524 -9.717590 8.468244 14.214958 -1.018137 0.932625 0.004236 -0.002735 -630971.000000 1 0 0
-4.291676 -5.563890 6.616744 9.651769 0.913774 0.815441 0.000667 -0.005075 235525.000000 1 0 0
-6.295476 5.308810 -12.181556 14.703972 -0.700576 2.547137 0.003412 -0.008803 386704.000000 1 0 0
-13.026476 3.098410 7.958044 15.576254 -0.233516 1.034555 0.007889 -0.008179 756407.000000 1 0 0
4.704524 -7.425290 -4.955356 10.090739 -1.006050 2.084125 -0.002751 -0.005399 236346.000000 1 0 0
-6.001576 2.460710 -1.103456 6.579638 -0.389106 1.739300 0.006463 -0.002800 -396994.000000 1 0 0
-6.883076 -2.790590 -14.488556 16.281351 0.385177 2.667893 0.012843 -0.009510 325213.000000 1 0 0
2.789124 -6.097490 1.026744 6.783273 -1.141788 1.418848 0.007048 -0.003376 -386389.000000 1 0 0
4.747224 -7.895790 13.025944 15.954775 -1.029469 0.615596 0.008950 -0.001490 -82770.900000 1 0 0
-9.942076 -1.710490 8.026944 12.891954 0.170378 0.898695 0.007977 -0.001819 -222168.000000 1 0 0
-4.570776 13.232510 -0.131556 14.000308 -1.238207 1.580193 -0.002138 0.002680 685651.000000 1 0 0
6.788524 2.181710 -4.557956 8.462794 0.310956 2.139556 -0.000609 0.000580 -1337650.000000 1 0 0
5.093424 4.521510 0.045744 6.810955 0.725986 1.564080 -0.001629 0.003324 -1019240.000000 1 0 0
-5.942976 12.341410 1.893144 13.827992 -1.122019 1.433458 -0.001343 0.001403 -1265310.000000 1 0 0
6.551324 -7.229190 6.598444 11.777966 -0.834549 0.976125 0.005774 -0.003184 -2449070.000000 1 0 0
-0.317676 5.018910 7.791344 9.273371 -1.507585 0.573173 -0.004519 0.003006 -1455460.000000 1 0 0
-5.713376 -3.448490 -1.481856 6.835982 0.543049 1.789304 0.007477 -0.005582 -1857270.000000 1 0 0
2.226524 -6.556190 -5.191056 8.653791 -1.243411 2.214121 -0.001563 -0.001944 166337.000000 1 0 0
-14.510176 -4.827090 -3.704256 15.734279 0.321153 1.808453 0.018648 -0.009634 -274422.000000 1 0 0
-12.489476 -5.158290 -6.312856 14.914661 0.391672 2.007843 0.021485 -0.010863 -1869000.000000 1 0 0
-14.909876 -3.779890 -1.249656 15.432227 0.248285 1.651862 0.010958 -0.003707 354078.000000 1 0 0
11.890824 2.830510 8.728644 15.019744 0.233692 0.950662 0.020202 -0.002442 -819869.000000 1 0 0
8.734424 -6.536190 7.723944 13.366796 -0.642428 0.954710 0.009909 -0.006028 -80419.100000 1 0 0
-8.817776 -1.786690 -9.700156 13.230210 0.199917 2.393786 0.006471 -0.007819 -33591.800000 1 0 0
-8.897876 5.110010 -3.875056 10.968157 -0.521305 1.931893 0.005816 -0.002610 -462477.000000 1 0 0
-4.097876 -6.318090 4.187144 8.616439 0.995410 1.063348 0.004595 -0.004021 -1503550.000000 1 0 0
-0.229176 -9.313090 3.560544 9.973145 1.546193 1.205728 0.006858 -0.005289 -354852.000000 1 0 0
8.062324 -10.522490 3.270944 13.653678 -0.917008 1.328879 0.007848 -0.006499 322589.000000 1 0 0
-0.018476 6.556710 9.695944 11.704790 -1.567978 0.594598 -0.004252 -0.000469 -496935.000000 1 0 0
0.128224 3.608710 -9.751756 10.398845 1.535280 2.786957 0.009617 -0.008082 -1092920.000000 1 0 0
4.507224 -3.120190 11.048144 12.333375 -0.605515 0.460585 0.005160 -0.004785 -2453340.000000 1 0 0
8.523224 -9.131290 1.193144 12.547884 -0.819827 1.475565 0.005452 -0.005428 -780270.000000 1 0 0
-0.379976 -0.385490 11.304944 11.317895 0.792600 0.047843 0.003362 -0.003410 -1491800.000000 1 0 0
10.983124 6.014610 11.350244 16.900668 0.501016 0.834450 0.024411 -0.003681 293543.000000 1 0 0
-6.315476 -2.974390 -11.840056 13.744787 0.440154 2.608858 0.011609 -0.007934 712402.000000 1 0 0
-1.703676 2.779410 8.340744 8.955202 -1.020900 0.372596 -0.000499 0.001866 268203.000000 1 0 0
-1.435976 13.567410 -6.880856 15.280145 -1.465349 2.037913 0.016902 -0.001409 261316.000000 1 0 0
7.664824 3.120710 9.774344 12.807270 0.386652 0.702565 0.006247 0.000951 180809.000000 1 0 0
6.502924 8.443710 -7.999456 13.325748 0.914523 2.214673 0.004999 -0.002128 1043650.000000 1 0 0
6.656124 -3.057590 -3.830756 8.266047 -0.430614 2.052661 0.006186 -0.006113 -2124720.000000 1 0 0
2.052024 8.139210 1.002644 8.453570 1.323827 1.451911 -0.003322 0.003642 900790.000000 1 0 0
-17.686676 6.454110 6.346844 19.868480 -0.349899 1.245655 0.033865 -0.006602 164807.000000 1 0 0
-14.497576 3.075010 -10.107956 17.938957 -0.209008 2.169369 0.030222 -0.013152 -1116990.000000 1 0 0
-18.232876 0.113610 -4.457756 18.770250 -0.006231 1.810578 0.056612 -0.016142 -194610.000000 1 0 0
-12.969476 8.168910 0.016344 15.327710 -0.562084 1.569730 0.007150 0.000622 339749.000000 1 0 0
-12.756176 -4.380290 -12.811356 18.602092 0.330770 2.330498 0.036714 0.000025 -530349.000000 1 0 0
-17.398976 -0.683790 -8.496656 19.374858 0.039280 2.024770 0.041152 -0.025011 216548.000000 1 0 0
-16.704376 -2.094890 -2.088056 16.964219 0.124758 1.694195 0.043530 -0.009707 754314.000000 1 0 0
-15.418076 4.067110 1.719044 16.037879 -0.257913 1.463404 0.010484 0.000946 -1523740.000000 1 0 0
-13.258176 5.894510 4.485044 15.186840 -0.418350 1.271001 -0.000722 -0.002565 -79463.100000 1 0 0
-10.061076 14.363310 2.749344 17.750742 -0.959755 1.415284 0.019517 -0.010141 231127.000000 1 0 0
-11.895976 2.430510 -6.443556 13.745583 -0.201540 2.058697 0.003687 -0.000662 503744.000000 1 0 0
-15.839176 10.630510 3.748844 19.440707 -0.591102 1.376746 0.018097 -0.007665 116228.000000 1 0 0
-12.675676 1.045710 -8.601156 15.354028 -0.082311 2.165410 0.011757 -0.008792 695685.000000 1 0 0
-12.271076 14.390910 4.165944 19.365761 -0.864739 1.353983 0.032330 -0.016838 -240407.000000 1 0 0
-10.499476 11.138410 -1.081556 15.345128 -0.814918 1.641337 0.016209 -0.008755 30935.500000 1 0 0
-17.157876 5.742610 8.848644 20.141221 -0.322973 1.115944 0.039589 -0.013500 345918.000000 1 0 0
-11.756176 12.487110 -9.101356 19.415723 -0.815539 2.058685 0.038307 -0.015157 -988991.000000 1 0 0
-17.279976 -0.508590 3.080344 17.559748 0.029424 1.394463 0.041656 -0.009297 830735.000000 1 0 0
-13.270076 14.746610 -0.441356 19.843191 -0.838051 1.593040 0.052476 -0.028565 -103469.000000 1 0 0
-16.667876 4.526310 -10.502856 20.214242 -0.265164 2.117152 0.073633 -0.012877 608984.000000 1 0 0
-12.101776 7.548110 -8.895356 16.809352 -0.557678 2.128443 0.022758 -0.003550 73328.400000 1 0 0
-14.707776 13.481910 -2.130556 20.065390 -0.741939 1.677178 0.054824 -0.024061 495936.000000 1 0 0
-11.947576 10.581310 -5.486356 16.876280 -0.724827 1.901906 0.042242 -0.013687 1633980.000000 1 0 0
-17.677676 2.849510 -0.770156 17.922419 -0.159818 1.613781 0.033931 -0.004513 -42163.400000 1 0 0
-9.472176 15.433310 0.483544 18.114718 -1.020329 1.544100 0.025393 -0.016528 -91130.000000 1 0 0
-8.033176 13.124210 -3.904056 15.875090 -1.021536 1.819269 0.011285 -0.006899 -796662.000000 1 0 0
-17.971976 11.537210 2.417644 21.492886 -0.570699 1.458072 0.094363 -0.011782 28485.900000 1 0 0
-8.043776 15.571810 -7.329956 18.997681 -1.093989 1.966908 0.051765 -0.026000 -328010.000000 1 0 0
-6.214676 15.109610 -5.386656 17.202866 -1.180581 1.889279 0.017162 -0.007636 -567448.000000 1 0 0
-17.200876 5.276810 -0.078556 17.992250 -0.297661 1.575162 0.027437 0.000446 490931.000000 1 0 0
-5.264076 12.143210 -12.237556 18.025700 -1.161749 2.317053 0.003107 -0.012169 -1295810.000000 1 0 0
-11.233476 3.733710 -11.356356 16.404219 -0.320887 2.335444 0.015365 -0.010811 -80380.200000 1 0 0
-11.869776 11.089710 1.228644 16.290575 -0.751435 1.495304 0.011582 -0.007798 508644.000000 1 0 0
-12.984076 0.059710 -11.005856 17.021124 -0.004599 2.273915 0.020162 -0.015442 1570300.000000 1 0 0
-14.187776 -2.139490 -12.938356 19.320235 0.149670 2.304573 0.047572 -0.016751 264998.000000 1 0 0
-18.782176 -2.280790 -3.751456 19.288483 0.120842 1.766536 0.058357 -0.015972 81733.000000 1 0 0
-18.328776 4.712610 -5.188256 19.623219 -0.251664 1.838372 0.052484 -0.011415 -229034.000000 1 0 0
-8.266576 15.192810 -2.249656 17.441867 -1.072486 1.700137 0.024956 -0.014619 -394949.000000 1 0 0
-16.234276 9.187810 -5.475156 19.440806 -0.515007 1.856291 0.044727 -0.006393 99375.000000 1 0 0
-18.202876 1.755610 2.275344 18.428349 -0.096149 1.447011 0.051238 -0.009858 -197472.000000 1 0 0
-15.674876 -2.746290 -8.600556 18.089041 0.173443 2.066279 0.020970 -0.014148 -153114.000000 1 0 0
-9.834776 10.503810 -7.205556 16.092635 -0.818281 2.035049 0.023662 -0.009900 541669.000000 1 0 0
-13.836976 11.851210 -7.602756 19.741201 -0.708249 1.966136 0.052813 -0.025240 246202.000000 1 0 0
-11.125576 6.458710 -3.889156 13.439454 -0.525979 1.864379 0.005394 -0.002470 -1202780.000000 1 0 0
-13.134076 4.889210 -12.703356 18.915168 -0.356361 2.307157 0.052506 -0.019681 189007.000000 1 0 0
-17.682876 9.013610 2.729544 20.034463 -0.471407 1.434129 0.042292 -0.014463 1180310.000000 1 0 0
-13.303876 8.588710 -6.570556 17.144424 -0.573261 1.964106 0.023777 -0.005652 -968118.000000 1 0 0
-15.870876 7.017310 -3.935656 17.793728 -0.416307 1.793823 0.026636 0.001149 -1353370.000000 1 0 0
-14.911676 -0.379390 -9.253656 17.553694 0.025437 2.126055 0.028917 -0.018268 1122090.000000 1 0 0
-10.131476 5.815810 -6.086856 13.172710 -0.521108 2.051136 0.001456 -0.001127 510066.000000 1 0 0
-12.770476 12.179410 -0.920956 17.671199 -0.761712 1.622936 0.028886 -0.016797 -667642.000000 1 0 0
-10.509176 3.430210 -13.827656 17.703480 -0.315499 2.467174 0.014465 -0.014057 413700.000000 1 0 0
-10.995176 6.250810 -11.892156 17.360585 -0.516939 2.325412 0.015297 -0.009484 -502196.000000 1 0 0
-5.814976 11.526110 -14.814156 19.650048 -1.103551 2.424773 0.014869 -0.013719 -287719.000000 1 0 0
-15.626976 13.249610 3.488344 20.782760 -0.703255 1.402150 0.034963 -0.020922 286370.000000 1 0 0
-15.190676 11.119010 -3.185356 19.092814 -0.631857 1.738415 0.048917 -0.010802 715315.000000 1 0 0
-18.244676 7.789510 -4.726256 20.393190 -0.403519 1.804679 0.048304 -0.009491 670183.000000 1 0 0
-3.847676 16.149710 -10.722356 19.763266 -1.336906 2.144254 0.032708 -0.008712 13990.300000 1 0 0
-15.871676 4.495510 -4.535856 17.108294 -0.276012 1.839131 0.027355 0.000317 47675.600000 1 0 0
-18.923176 -1.723890 -6.215756 19.992349 0.090849 1.886943 0.061743 -0.018276 425557.000000 1 0 0
-10.811876 8.584310 -5.702656 14.936778 -0.671054 1.962524 0.018159 -0.004829 1394150.000000 1 0 0
-11.427676 13.814210 -6.827456 19.184326 -0.879665 1.934660 0.048178 -0.003145 305465.000000 1 0 0
-9.456376 10.470310 -4.490156 14.805808 -0.836238 1.878919 0.009955 -0.006436 -329940.000000 1 0 0
-11.057476 6.293610 -0.213856 12.724899 -0.517444 1.587603 0.005236 0.000640 322914.000000 1 0 0
-14.683476 9.342010 -1.497156 17.467659 -0.566631 1.656612 0.030416 -0.005326 511542.000000 1 0 0
-18.610276 3.366410 4.758544 19.501765 -0.178955 1.324302 0.038928 -0.015182 363492.000000 1 0 0
-14.923676 12.966110 0.404744 19.773719 -0.715324 1.550326 0.041510 -0.025267 -187556.000000 1 0 0
-16.700676 2.331910 -9.073856 19.149028 -0.138733 2.064459 0.038289 -0.017043 43343.200000 1 0 0
-9.164476 8.433110 -9.009556 15.371307 -0.743861 2.197068 0.011498 -0.004274 -2973340.000000 1 0 0
-17.608276 4.749410 -2.611256 18.423543 -0.263456 1.713010 0.024099 0.000063 531928.000000 1 0 0
-13.678676 5.916510 -4.400456 15.539475 -0.408236 1.857904 0.015072 0.002930 -454358.000000 1 0 0
-12.121876 9.711510 3.332944 15.885901 -0.675445 1.359421 0.002140 0.000645 698038.000000 1 0 0
-17.574976 2.542410 -3.974156 18.197186 -0.143664 1.790965 0.034083 -0.005707 905068.000000 1 0 0
-11.306076 1.460210 -12.508756 16.924200 -0.128442 2.402537 0.019904 -0.010088 310979.000000 1 0 0
-11.034176 12.089810 3.500744 16.738332 -0.831018 1.360095 0.007997 -0.007409 342516.000000 1 0 0
-16.642476 13.140010 -3.797856 21.541950 -0.668334 1.748023 0.071960 -0.021204 -360320.000000 1 0 0
-11.186676 4.075110 -4.549656 12.745494 -0.349342 1.935810 -0.001660 0.000198 214833.000000 1 0 0
-11.204176 14.972010 -9.178356 20.831152 -0.928358 2.027071 0.054697 -0.011127 478097.000000 1 0 0
-15.412076 7.212310 -0.374156 17.020268 -0.437693 1.592781 0.020702 0.000247 134826.000000 1 0 0
-12.881076 8.408910 -3.984856 15.890594 -0.578349 1.824270 0.022984 -0.004798 734315.000000 1 0 0
-19.177076 1.899810 -5.991656 20.180919 -0.098745 1.872238 0.071684 -0.018375 468958.000000 1 0 0
-12.457076 10.026710 -8.839456 18.271553 -0.677722 2.075768 0.032163 -0.017225 380973.000000 1 0 0
-16.860376 10.842910 -1.142956 20.078529 -0.571509 1.627751 0.052170 -0.017747 615578.000000 1 0 0
-10.929976 6.502510 -14.463256 19.259616 -0.536679 2.420315 0.033374 -0.022324 -25458.500000 1 0 0
-14.149376 13.099110 -4.535056 19.808036 -0.746873 1.801796 0.063882 -0.014445 47936.100000 1 0 0
-18.007876 7.699710 -0.133856 19.585379 -0.404049 1.577631 0.050958 -0.007744 -353632.000000 1 0 0
-12.783976 6.664810 -2.057456 14.563065 -0.480574 1.712550 0.007371 0.003362 196803.000000 1 0 0
-13.878576 8.545710 -10.554756 19.417696 -0.551919 2.145473 0.040502 -0.012715 -162643.000000 1 0 0
-14.899176 1.433710 -0.953656 14.998348 -0.095932 1.634423 0.006867 -0.000131 -1288320.000000 1 0 0
-13.239676 2.873210 -2.359356 13.751761 -0.213701 1.743217 0.004745 0.002375 -267975.000000 1 0 0
-11.273276 9.028610 -10.920756 18.107056 -0.675281 2.218205 0.027231 -0.015040 91000.100000 1 0 0
-15.569976 4.286810 -8.076656 18.056392 -0.268669 2.034543 0.041720 -0.006556 670812.000000 1 0 0
-18.149376 10.383210 4.867144 21.468582 -0.519650 1.342098 0.079509 -0.033313 401249.000000 1 0 0
-15.396876 6.198510 -6.338456 17.766861 -0.382731 1.935591 0.033067 0.003435 586312.000000 1 0 0
-7.693676 11.305610 -13.037456 18.894040 -0.973265 2.332327 0.003901 -0.005893 408584.000000 1 0 0
-16.888976 9.215910 -2.993556 19.471310 -0.499517 1.725150 0.044487 -0.009699 521310.000000 1 0 0
-20.759376 -0.754290 -4.588656 21.273844 0.036319 1.788200 0.091590 -0.026602 1733590.000000 1 0 0
-15.565176 4.313110 4.209544 16.691252 -0.270318 1.315843 0.015044 -0.001203 1466130.000000 1 0 0
-6.887676 12.550810 -9.456056 17.157504 -1.068888 2.154517 0.014211 -0.010725 -732554.000000 1 0 0
-17.039776 1.579910 5.951744 18.118315 -0.092455 1.236089 0.023054 -0.018418 430197.000000 1 0 0
-10.394376 14.003110 -3.320056 17.752547 -0.932248 1.758923 0.037702 -0.025111 1609480.000000 1 0 0
-9.987476 8.450710 -13.029556 18.464385 -0.702243 2.354149 0.006516 -0.011276 289939.000000 1 0 0
-13.596276 11.781110 2.878844 18.219249 -0.713993 1.412120 0.022890 -0.008607 -689286.000000 1 0 0
-16.628476 6.785410 1.840444 18.053677 -0.387435 1.468676 0.015211 0.001355 1396040.000000 1 0 0
-9.324376 13.320210 -8.389856 18.296494 -0.960059 2.047159 0.034860 -0.016638 546917.000000 1 0 0
-5.627276 9.711410 -13.040056 17.205255 -1.045624 2.430902 0.007363 -0.007356 -138235.000000 1 0 0
-15.824576 1.736510 3.278644 16.253682 -0.109298 1.367686 0.008033 -0.002876 -690615.000000 1 0 0
-18.726376 -4.841890 4.791644 19.926889 0.253019 1.327955 0.057577 -0.004776 491191.000000 1 0 0
-5.236476 14.359910 -9.154756 17.816769 -1.221122 2.110437 0.014218 -0.009719 -59020.600000 1 0 0
-15.474576 -0.912690 -6.721656 16.896040 0.058912 1.979941 0.020882 -0.009834 730293.000000 1 0 0
-9.021776 11.055410 -9.533156 17.160875 -0.886345 2.159781 0.018863 -0.011773 349471.000000 1 0 0
-16.591176 1.409510 -6.023056 17.706808 -0.084752 1.917878 0.016114 -0.007511 -1283470.000000 1 0 0
-11.059076 8.603310 -1.617356 14.104466 -0.661145 1.685719 0.012283 -0.005495 -1087780.000000 1 0 0
-10.725576 10.944910 -12.612156 19.846802 -0.795519 2.259421 0.032279 -0.014177 -337706.000000 1 0 0
-13.923576 11.674210 -10.216556 20.845412 -0.697750 2.083013 0.060594 -0.020918 -163302.000000 1 0 0
-13.255476 5.488710 -7.702256 16.283683 -0.392578 2.063494 0.019170 0.003970 175093.000000 1 0 0
-8.723176 15.365410 -4.867956 18.327210 -1.054454 1.839637 0.030745 -0.020102 -100721.000000 1 0 0
-8.704276 6.130310 -13.065656 16.853976 -0.613597 2.457871 0.007666 -0.008596 -783917.000000 1 0 0
-16.379376 7.390510 4.274844 18.471002 -0.423858 1.337243 0.027063 -0.002590 159726.000000 1 0 0
-12.723676 5.513210 -10.215256 17.223208 -0.408883 2.205712 0.019292 -0.004498 193833.000000 1 0 0
-12.473676 9.087910 -13.315256 20.383296 -0.629642 2.282657 0.052006 -0.024313 -793028.000000 1 0 0
-10.750276 5.270410 -8.522156 14.696014 -0.455824 2.189397 0.002142 -0.000851 -1074040.000000 1 0 0
-17.775776 -4.409790 -2.659156 18.506636 0.243169 1.714982 0.041581 -0.010450 398146.000000 1 0 0
-8.817076 13.217910 -10.990756 19.319698 -0.982525 2.175950 0.038312 -0.010650 163018.000000 1 0 0
-15.124876 6.089710 6.132144 17.419806 -0.382771 1.211067 0.011962 -0.007749 -1069890.000000 1 0 0
-16.378976 -3.115190 -4.401556 17.243810 0.187950 1.828907 0.026248 -0.010169 263925.000000 1 0 0
-11.262776 -1.162090 -12.606356 16.944639 0.102816 2.409793 0.017503 -0.007256 561485.000000 1 0 0
-15.397076 6.831510 -8.684256 18.951406 -0.417593 2.046808 0.036340 0.001411 -143781.000000 1 0 0
-14.943776 9.471510 1.047244 17.723506 -0.564909 1.511674 0.027218 -0.009959 -121838.000000 1 0 0
-19.383076 5.307810 7.864144 21.580576 -0.267285 1.197799 0.073640 -0.027936 -1713980.000000 1 0 0
-16.365476 0.540010 0.924444 16.400458 -0.032985 1.514399 0.032374 -0.006099 739578.000000 1 0 0
-17.403676 3.896410 7.009544 19.162559 -0.220252 1.196311 0.018833 -0.013482 627367.000000 1 0 0
-15.393576 4.043810 -1.478256 15.984362 -0.256890 1.663410 0.010619 -0.000349 -1788980.000000 1 0 0
-10.814576 13.325210 0.307544 17.164233 -0.889030 1.552878 0.026287 -0.019100 -924617.000000 1 0 0
-13.501476 3.470510 0.088744 13.940666 -0.251600 1.564430 0.008502 0.002697 181616.000000 1 0 0
-15.016376 0.081610 -4.331556 15.628839 -0.005435 1.851625 0.012335 -0.002025 11718.000000 1 0 0
-18.806876 6.788310 3.350144 20.273214 -0.346395 1.404785 0.046572 -0.007777 -123930.000000 1 0 0
-14.123776 1.218310 -6.550856 15.616628 -0.086047 2.003668 0.012177 -0.005492 -2196990.000000 1 0 0
-14.218576 12.018910 5.353744 19.372266 -0.701757 1.290790 0.015529 -0.010077 402404.000000 1 0 0
17.769724 5.605310 6.363944 19.689651 0.305563 1.241674 0.059633 -0.016812 63635.600000 1 0 0
18.739924 7.491010 -0.513956 20.188218 0.380278 1.596257 0.062816 -0.007818 500967.000000 1 0 0
16.499024 5.659810 8.642044 19.466283 0.330460 1.110795 0.061304 -0.004843 216229.000000 1 0 0
11.638724 12.450910 10.850244 20.204278 0.819101 1.003887 0.032895 -0.007676 466497.000000 1 0 0
-2.290276 16.343210 -0.659256 16.516068 -1.431567 1.610723 0.003203 0.001853 -63621.400000 1 0 0
15.074324 12.667110 3.361944 19.974824 0.698842 1.401682 0.056894 -0.008005 537609.000000 1 0 0
13.473424 11.962110 6.699044 19.222446 0.726051 1.214825 0.041929 -0.005075 870235.000000 1 0 0
-0.616676 15.924010 8.609944 18.113131 -1.532089 1.075443 0.000601 -0.000276 402436.000000 1 0 0
0.800724 13.009610 9.332044 16.030539 1.509325 0.949436 -0.004838 0.000340 -648682.000000 1 0 0
0.674324 15.426210 -3.934556 15.934347 1.527111 1.820300 0.006168 -0.000066 276039.000000 1 0 0
5.523724 10.423110 13.536044 17.954867 1.083477 0.716829 0.023367 -0.006274 131796.000000 1 0 0
-1.426276 16.455710 -3.030356 16.793086 -1.484339 1.752243 0.003512 0.001654 -1314350.000000 1 0 0
8.596724 10.061410 3.334344 13.647472 0.863739 1.323978 0.003811 -0.000200 607291.000000 1 0 0
12.682424 13.563610 -4.859156 19.194447 0.818960 1.826736 0.071947 -0.017572 453462.000000 1 0 0
2.437424 11.656710 7.792844 14.231948 1.364666 0.991351 0.001959 0.003198 522458.000000 1 0 0
-0.275776 14.854610 -8.887356 17.312441 -1.552233 2.109881 0.014178 -0.000279 -1133760.000000 1 0 0
2.399224 15.916910 0.169644 16.097611 1.421188 1.560258 0.011172 -0.010919 -695829.000000 1 0 0
1.881424 13.372310 5.201944 14.471305 1.431018 1.203101 0.001303 0.003875 -389917.000000 1 0 0
17.701824 9.188710 -2.185156 20.063945 0.478797 1.679922 0.049618 -0.004479 485813.000000 1 0 0
-7.119776 14.980110 7.223144 18.090570 -1.127118 1.160068 0.010597 -0.012038 -1074150.000000 1 0 0
8.534724 15.919710 -0.223556 18.064569 1.078679 1.583172 0.014755 -0.007482 -249782.000000 1 0 0
15.652324 10.513210 2.078244 18.969500 0.591459 1.461019 0.044679 0.003568 520051.000000 1 0 0
14.117324 7.621110 8.616544 18.210573 0.495010 1.077920 0.039956 -0.010821 -1232740.000000 1 0 0
4.272824 18.203210 -2.030156 18.807856 1.340241 1.678949 0.027204 -0.019597 -892142.000000 1 0 0
-0.307276 17.505210 -5.109356 18.238211 -1.553245 1.854742 0.015540 -0.001870 305103.000000 1 0 0
1.417324 13.661210 -0.773256 13.756286 1.467418 1.627037 0.003562 -0.004431 125287.000000 1 0 0
10.201424 14.769810 4.053744 18.402423 0.966343 1.348692 0.021577 -0.012298 196099.000000 1 0 0
-1.746476 15.355210 -5.260856 16.325112 -1.457545 1.898907 0.011411 -0.000171 435242.000000 1 0 0
15.014524 8.796610 -6.186256 18.468515 0.529968 1.912362 0.048083 -0.009259 155972.000000 1 0 0
-2.351976 18.474010 0.718444 18.636980 -1.444165 1.532237 0.012230 -0.006035 -644955.000000 1 0 0
-3.884476 19.083210 3.474944 19.782146 -1.369985 1.394220 0.019958 -0.015268 342874.000000 1 0 0
1.809624 17.585310 -2.832556 17.903666 1.468252 1.729675 0.008057 -0.006898 -36076.700000 1 0 0
2.995724 12.093710 3.222944 12.869326 1.327975 1.317666 -0.000975 0.001839 989288.000000 1 0 0
-2.513476 16.211710 1.836644 16.507888 -1.416980 1.459307 0.004757 -0.004053 -1408510.000000 1 0 0
11.824724 12.808310 -2.645556 17.631673 0.825307 1.721411 0.033024 -0.005030 538184.000000 1 0 0
7.149724 11.732110 4.735944 14.532382 1.023483 1.238844 -0.000368 0.000919 66897.500000 1 0 0
7.038824 15.598210 1.900544 17.218051 1.146896 1.460190 0.009725 -0.011733 -816643.000000 1 0 0
5.548424 12.148210 10.132944 16.764265 1.142362 0.921737 0.012484 -0.002604 -350650.000000 1 0 0
-1.372776 14.167610 3.090444 14.565595 -1.474202 1.356997 0.000034 0.001517 -878817.000000 1 0 0
4.569524 15.971610 1.467644 16.677136 1.292137 1.482679 0.009084 -0.016200 -4028300.000000 1 0 0
7.041424 13.121310 11.902644 19.063666 1.078268 0.896481 0.023692 -0.009457 195852.000000 1 0 0
0.786224 17.076910 -9.523656 19.568828 1.524789 2.079076 0.027715 -0.008993 252343.000000 1 0 0
9.875424 9.619710 15.491144 20.737366 0.772282 0.727234 0.047566 -0.009727 -290221.000000 1 0 0
13.686624 7.376910 -0.183856 15.549157 0.494349 1.582621 0.012599 0.002423 555812.000000 1 0 0
12.274724 13.684610 -0.105156 18.383375 0.839656 1.576517 0.032869 -0.003126 426320.000000 1 0 0
9.356024 12.417210 3.434244 15.922196 0.925077 1.353399 0.007331 0.000039 773969.000000 1 0 0
-0.691076 12.937910 0.665044 12.973411 -1.517432 1.519512 0.000813 -0.001642 -17338.500000 1 0 0
16.172424 7.435710 -0.969556 17.826304 0.430955 1.625212 0.039047 0.000662 -1868030.000000 1 0 0
-4.335076 18.453510 -2.496656 19.119577 -1.340061 1.701751 0.024726 -0.001363 -50720.400000 1 0 0
11.619324 9.213010 -3.247856 15.180145 0.670399 1.786417 0.022822 -0.005531 114825.000000 1 0 0
14.703524 9.866110 7.670644 19.296956 0.590999 1.162000 0.044322 -0.018105 577753.000000 1 0 0
4.344724 13.813210 4.553344 15.179405 1.266060 1.266137 0.003038 0.001250 -1078830.000000 1 0 0
2.044024 16.041510 5.602744 17.114287 1.444058 1.237275 0.005659 -0.001893 114947.000000 1 0 0
6.270024 18.356510 5.310444 20.111576 1.241652 1.303578 0.033785 -0.029042 102619.000000 1 0 0
10.692024 17.138910 -0.864556 20.219028 1.013028 1.613569 0.036178 -0.008148 -1395780.000000 1 0 0
10.042524 13.534310 -4.497556 17.442989 0.932432 1.831586 0.044621 -0.010939 178851.000000 1 0 0
16.517424 8.047310 2.290344 18.515674 0.453356 1.446781 0.024959 0.003231 -18050.300000 1 0 0
4.035124 14.028210 -0.573156 14.608266 1.290714 1.610041 0.004493 -0.007938 -619346.000000 1 0 0
5.611524 13.147510 -2.429156 14.499898 1.167391 1.739119 0.003973 -0.005918 -676089.000000 1 0 0
-6.243276 16.703610 -3.018656 18.085944 -1.213106 1.738487 0.027027 -0.012299 -51771.000000 1 0 0
18.179824 9.945710 2.493544 20.872013 0.500594 1.451042 0.057482 -0.003666 109680.000000 1 0 0
8.034624 12.887510 9.431344 17.877174 1.013318 1.015066 0.020414 -0.006956 747894.000000 1 0 0
-2.515276 15.870110 6.742244 17.425409 -1.413612 1.173507 -0.001226 -0.000823 -436509.000000 1 0 0
10.944724 16.182310 6.096644 20.465171 0.976128 1.268301 0.035057 -0.011068 15578.700000 1 0 0
13.580624 12.050010 1.275944 18.200663 0.725751 1.500635 0.045987 -0.001734 5237.930000 1 0 0
17.484724 7.994810 -5.574556 20.017698 0.428863 1.853009 0.057033 0.004939 1418580.000000 1 0 0
9.593624 9.191410 7.942444 15.479084 0.763990 1.031994 0.008995 -0.000625 -168890.000000 1 0 0
-2.053776 14.197810 -2.056356 14.492219 -1.427138 1.713171 0.001370 -0.000271 764334.000000 1 0 0
10.874924 11.593310 0.632344 15.908132 0.817361 1.531036 0.020012 -0.001092 819882.000000 1 0 0
11.798324 9.634810 -0.584756 15.243751 0.684796 1.609166 0.017307 0.000907 -1826550.000000 1 0 0
-0.177876 16.169610 11.138744 19.635671 -1.559796 0.967608 0.005993 -0.005798 -27192.100000 1 0 0
2.259824 19.871010 -1.726256 20.073461 1.457558 1.656900 0.034930 -0.020652 -187758.000000 1 0 0
9.231724 14.240910 1.621844 17.048713 0.995650 1.475522 0.012999 -0.006575 -360474.000000 1 0 0
8.448224 11.717710 -5.221556 15.360399 0.946129 1.917645 0.017296 -0.005233 -792545.000000 1 0 0
10.604724 10.125910 10.223344 17.874870 0.762305 0.961928 0.014975 -0.006099 422382.000000 1 0 0
-5.002476 15.742110 5.738344 17.486206 -1.263111 1.236437 -0.009386 -0.006911 -540408.000000 1 0 0
14.501724 9.022410 -1.982956 17.194069 0.556555 1.686381 0.037060 -0.003433 -342993.000000 1 0 0
12.157424 9.688110 6.824544 16.977539 0.672841 1.157124 0.019074 -0.007908 -1477340.000000 1 0 0
3.232624 13.110810 9.706244 16.629924 1.329056 0.947566 0.007953 -0.002568 -521090.000000 1 0 0
8.576024 12.677210 -2.623256 15.528726 0.976023 1.740540 0.016248 -0.002804 -864001.000000 1 0 0
9.391224 16.815910 2.061844 19.370625 1.061472 1.464153 0.017689 -0.015901 130129.000000 1 0 0
9.518524 14.278010 -7.497956 18.726538 0.982801 1.982741 0.059635 -0.011535 57745.300000 1 0 0
6.457324 11.455010 7.344944 15.061955 1.057487 1.061402 -0.000078 0.000553 -547434.000000 1 0 0
5.368824 16.862110 -5.725156 18.599259 1.262549 1.883693 0.028715 -0.002849 -962638.000000 1 0 0
-4.123376 17.231710 -4.772756 18.349749 -1.335923 1.833921 0.019100 -0.000306 239345.000000 1 0 0
-0.042276 18.605310 -0.530356 18.612916 -1.568524 1.599294 0.013560 -0.004913 -284095.000000 1 0 0
6.483324 15.634910 -2.890256 17.170833 1.177708 1.739925 0.009732 -0.001400 646030.000000 1 0 0
-0.920776 20.717210 0.655544 20.748021 -1.526381 1.539196 0.018712 -0.005116 -86461.000000 1 0 0
-1.357276 18.800010 4.238044 19.319514 -1.498726 1.349632 0.007323 -0.005640 -1023570.000000 1 0 0
7.268424 13.751310 -4.430856 16.172848 1.084561 1.848314 0.015457 -0.002636 13129.800000 1 0 0
-0.972876 12.039910 7.738844 14.345579 -1.490167 1.001003 -0.004239 0.007007 754376.000000 1 0 0
7.719024 10.859810 10.908444 17.219552 0.952867 0.884739 0.018905 -0.006453 107595.000000 1 0 0
1.431624 15.900610 -7.359156 17.579424 1.481003 2.002725 0.009236 -0.008165 -2813.040000 1 0 0
9.097124 7.239210 14.844144 18.855037 0.672156 0.664415 0.039689 -0.001561 275103.000000 1 0 0
11.368224 11.310310 -4.879656 16.762180 0.782845 1.866184 0.049566 -0.010304 -464876.000000 1 0 0
-3.206576 16.914710 4.532044 17.802499 -1.383446 1.313390 -0.001595 -0.005284 -565478.000000 1 0 0
3.932824 15.275110 -6.899856 17.216391 1.318803 1.983156 0.018679 -0.009130 -993480.000000 1 0 0
-4.482576 14.022510 9.420944 17.477942 -1.261393 1.001524 0.009040 -0.013573 775450.000000 1 0 0
6.095124 17.638110 0.338144 18.664614 1.238077 1.552678 0.009834 -0.021312 -373073.000000 1 0 0
9.858224 10.681910 -2.158156 14.695082 0.825478 1.718192 0.020634 -0.002984 -343609.000000 1 0 0
7.296824 18.121010 -2.749356 19.727484 1.187989 1.710618 0.019706 -0.001074 12234.000000 1 0 0
3.560224 10.465910 10.356144 15.147943 1.242902 0.818021 0.002166 0.000774 512377.000000 1 0 0
-0.045776 18.724110 2.076344 18.838939 -1.568352 1.460356 0.014659 -0.006310 876966.000000 1 0 0
-0.955976 17.149910 -7.634156 18.796640 -1.515112 1.989028 0.023538 0.001453 156081.000000 1 0 0
10.102424 8.817810 12.983644 18.665148 0.717606 0.801529 0.030242 -0.008219 -140083.000000 1 0 0
3.789924 11.555710 5.549344 13.367617 1.253881 1.142707 -0.001651 0.002233 551922.000000 1 0 0
13.060624 14.149410 8.054244 20.872387 0.825391 1.174634 0.047239 -0.018234 23295.100000 1 0 0
-0.492976 17.458110 6.755044 18.725898 -1.542566 1.201743 0.002112 -0.003788 -616908.000000 1 0 0
11.908824 13.778310 5.769044 19.103502 0.858049 1.264018 0.028334 -0.007401 -1083990.000000 1 0 0
4.926124 14.467310 -4.600056 15.960272 1.242609 1.863163 0.005755 -0.002150 -1232210.000000 1 0 0
3.788024 17.616210 4.681044 18.616986 1.358991 1.316629 0.015277 -0.010263 -29867.900000 1 0 0
7.078824 11.652610 2.058444 13.788773 1.024889 1.420952 0.006468 -0.000874 852813.000000 1 0 0
6.506224 8.753110 11.759344 16.038393 0.931594 0.747781 0.015076 -0.005538 642947.000000 1 0 0
-5.518276 14.876510 1.714844 15.959406 -1.215591 1.463138 0.003193 0.000917 418142.000000 1 0 0
6.619224 13.736810 6.023344 16.394961 1.121765 1.194595 0.008002 -0.005520 -3795.680000 1 0 0
5.857424 15.892210 4.785744 17.600429 1.217673 1.295418 0.008862 -0.013265 677928.000000 1 0 0
1.247424 18.048110 4.194744 18.571113 1.501789 1.342956 0.013622 -0.009552 -37753.300000 1 0 0
7.190024 18.020910 -7.107656 20.663214 1.191168 1.921945 0.031646 -0.008037 248064.000000 1 0 0
-2.288876 18.802710 -6.141356 19.912236 -1.449661 1.884329 0.033249 0.003416 -1010620.000000 1 0 0
13.545924 10.172910 -4.502456 17.528613 0.644137 1.830571 0.038080 -0.006090 -3245280.000000 1 0 0
-1.618076 18.047610 9.908444 20.652159 -1.481379 1.070395 0.015375 -0.005793 -224844.000000 1 0 0
3.493124 11.813010 -1.653356 12.429108 1.283288 1.704215 0.003033 -0.004238 247496.000000 1 0 0
4.386124 13.833310 -10.983456 18.199859 1.263754 2.218669 0.027165 -0.020626 420891.000000 1 0 0
11.525524 13.350210 2.292944 17.785483 0.858619 1.441514 0.036830 -0.009485 -1604.720000 1 0 0
15.993624 6.558810 -7.182456 18.719019 0.389173 1.964594 0.039149 -0.002431 98416.200000 1 0 0
2.488724 16.179010 2.903244 16.624769 1.418168 1.395263 0.009325 -0.009129 -323822.000000 1 0 0
13.429024 10.662410 3.431444 17.487152 0.671061 1.373288 0.031373 -0.000775 -791657.000000 1 0 0
-4.780976 19.402110 -5.974756 20.856590 -1.329194 1.861335 0.023179 -0.011845 -213311.000000 1 0 0
5.444724 11.984710 0.041244 13.163586 1.144367 1.567663 0.004939 -0.003790 516991.000000 1 0 0
4.697424 15.513910 9.524644 18.800693 1.276784 1.039546 0.022031 -0.006631 12897.600000 1 0 0
7.786524 9.368910 13.951544 18.521663 0.877376 0.717799 0.030416 -0.011677 114299.000000 1 0 0
-4.972976 13.503110 6.921944 15.968024 -1.217927 1.122437 -0.000469 -0.003644 -1248470.000000 1 0 0
-4.571076 17.053110 0.457644 17.661052 -1.308903 1.544881 0.009901 -0.003941 -918167.000000 1 0 0
-0.612076 16.564610 3.444744 16.930068 -1.533862 1.365897 0.007922 -0.006486 -1727320.000000 1 0 0
7.832224 16.753110 -4.880756 19.126741 1.133478 1.828830 0.018479 -0.007116 737837.000000 1 0 0
3.030724 16.306310 -4.663956 17.228858 1.387031 1.844923 0.005589 -0.005918 -848143.000000 1 0 0
9.652924 14.387610 8.173644 19.157002 0.979855 1.129993 0.026336 -0.011694 252397.000000 1 0 0
12.771324 11.018610 9.012244 19.124252 0.711856 1.080092 0.030319 -0.017472 590643.000000 1 0 0
3.806724 12.340710 12.111144 17.704917 1.271588 0.817488 0.017093 -0.006531 466990.000000 1 0 0
-3.290776 19.168110 6.016544 20.357909 -1.400774 1.270777 0.010531 -0.005428 223441.000000 1 0 0
-2.604276 15.753710 10.344444 19.025487 -1.406966 0.995939 0.003769 -0.007737 581789.000000 1 0 0
2.070924 14.312010 7.543244 16.310208 1.427095 1.089999 0.007341 -0.001238 -400700.000000 1 0 0
4.405724 17.415210 7.897044 19.623029 1.323014 1.156618 0.027127 -0.014626 480024.000000 1 0 0
-1.911376 13.539310 9.478644 16.637637 -1.430551 0.964642 -0.001399 -0.001372 333698.000000 1 0 0
5.843524 17.587610 2.886044 18.756334 1.250019 1.416312 0.007824 -0.024167 593773.000000 1 0 0
7.129124 15.365910 -6.918456 18.297558 1.136396 1.958548 0.020856 -0.005298 143975.000000 1 0 0
11.128924 7.660310 9.490944 16.510945 0.602847 0.958403 0.014379 -0.003602 997004.000000 1 0 0
9.033124 16.165710 -2.740556 18.719994 1.061235 1.717722 0.025886 -0.012104 -740294.000000 1 0 0
14.645124 11.320910 -6.645256 19.667285 0.658069 1.915464 0.087915 -0.014047 317125.000000 1 0 0
11.330224 6.460810 15.987444 20.632848 0.518241 0.684312 0.078540 -0.018952 255354.000000 1 0 0
8.652924 8.495910 10.208944 15.851691 0.776243 0.871043 0.015210 -0.004860 -1053970.000000 1 0 0
16.417924 9.587910 4.394944 19.513887 0.528565 1.343626 0.053588 -0.006591 77132.400000 1 0 0
-3.289576 14.258710 4.666544 15.359322 -1.344057 1.262092 -0.003777 0.001237 -1368570.000000 1 0 0
4.492824 14.816010 12.649844 19.992953 1.276369 0.885742 0.023177 -0.002333 -640256.000000 1 0 0
16.065824 10.611110 -4.572956 19.789348 0.583705 1.803986 0.070814 -0.019757 610959.000000 1 0 0
14.605324 14.122210 5.974844 21.176663 0.768583 1.284769 0.062199 -0.014656 753373.000000 1 0 0
6.312224 9.480610 9.273244 14.687382 0.983392 0.887471 0.007744 -0.001142 1080450.000000 1 0 0
10.417024 11.983810 8.530344 18.024785 0.855228 1.077813 0.022044 -0.014871 -736038.000000 1 0 0
8.047824 11.462910 -0.339456 14.010033 0.958679 1.595028 0.006860 -0.003146 -190572.000000 1 0 0
7.446824 13.479110 -8.792056 17.732508 1.066058 2.089570 0.044147 -0.008980 -1108480.000000 1 0 0
2.738824 15.231910 -2.313056 15.648082 1.392889 1.719157 0.005664 -0.007950 436188.000000 1 0 0
12.118524 13.783010 -7.687756 19.898030 0.849572 1.967476 0.071439 -0.015996 -453898.000000 1 0 0
-8.099776 14.593110 9.716344 19.312498 -1.064091 1.043601 0.026938 -0.023383 510131.000000 1 0 0
11.475224 9.600010 2.148844 15.114843 0.696655 1.428145 0.020938 0.001906 -2556260.000000 1 0 0
12.070924 8.711810 4.399844 15.522934 0.625154 1.283415 0.016462 0.000664 500256.000000 1 0 0
14.057124 8.169610 5.957144 17.315681 0.526461 1.219589 0.029913 -0.006877 -2909270.000000 1 0 0
16.200324 7.598510 6.976044 19.205547 0.438570 1.199063 0.062542 -0.017454 6799.590000 1 0 0
13.592824 8.341310 2.261644 16.107680 0.550400 1.429923 0.022477 0.001748 -2121900.000000 1 0 0
-4.183376 17.323610 -7.314256 19.264124 -1.333849 1.960250 0.025834 -0.013533 241626.000000 1 0 0
3.246924 19.378110 -4.101156 20.071701 1.404782 1.776571 0.036726 -0.013435 447037.000000 1 0 0
-0.131076 14.834210 6.189444 16.074209 -1.561960 1.175530 0.002345 0.000378 553564.000000 1 0 0
6.820124 16.284710 8.093244 19.421804 1.174184 1.140974 0.029852 -0.008781 455276.000000 1 0 0
12.931224 15.136510 -2.172756 20.026267 0.863807 1.679506 0.061090 -0.013004 -405675.000000 1 0 0
12.582224 15.767910 4.071544 20.579524 0.897298 1.371638 0.039456 -0.011392 -38575.000000 1 0 0
3.060224 18.144610 1.241944 18.442730 1.403711 1.503405 0.025025 -0.013804 -638318.000000 1 0 0
10.435924 14.578610 -1.508256 17.992199 0.949520 1.654723 0.029739 0.000243 -1795830.000000 1 0 0
-6.415576 15.658110 -0.566256 16.930939 -1.181931 1.604248 0.010567 -0.004927 -62273.100000 1 0 0
-3.938976 15.903210 -2.633856 16.594121 -1.327998 1.730193 0.012807 -0.000855 -1926720.000000 1 0 0
-6.850776 17.000110 1.679744 18.405391 -1.187720 1.479405 0.012759 -0.005831 -652140.000000 1 0 0
0.122924 19.396810 -6.755856 20.540033 1.564459 1.905947 0.032887 -0.005302 -258631.000000 1 0 0
4.732624 15.029410 6.938044 17.216775 1.265735 1.156024 0.013508 -0.003251 -793200.000000 1 0 0
8.678724 12.461710 6.828844 16.650753 0.962470 1.148208 0.010158 -0.004430 -2443230.000000 1 0 0
-7.368376 17.470510 -5.757756 19.815738 -1.171673 1.865613 0.043368 -0.018035 28757.000000 1 0 0
-8.016676 17.625910 -1.446856 19.417343 -1.143939 1.645379 0.047733 -0.018885 274463.000000 1 0 0
-13.742376 -9.212290 9.244344 18.951968 0.590553 1.061254 0.042876 -0.011207 -61386.400000 1 0 0
-12.761776 -12.986490 7.708044 19.771843 0.794125 1.170328 0.049367 -0.010207 170351.000000 1 0 0
-4.028076 -14.979990 12.478744 19.908404 1.308113 0.893347 0.008510 -0.003417 271451.000000 1 0 0
-2.159076 -14.138490 14.821844 20.597222 1.419258 0.767564 0.019545 0.001829 -1791230.000000 1 0 0
-7.367676 -13.429290 12.804744 19.964717 1.069008 0.874516 0.029292 -0.015079 -104904.000000 1 0 0
-9.911576 -11.501490 8.963544 17.631470 0.859512 1.037490 0.028918 -0.014181 613190.000000 1 0 0
-10.616976 -10.715490 11.301444 18.848462 0.790016 0.927801 0.054076 -0.018057 329178.000000 1 0 0
-6.195976 -12.101090 10.825844 17.378877 1.097581 0.898312 0.020474 -0.009043 781239.000000 1 0 0
-12.473376 -10.439090 7.396044 17.867881 0.696845 1.144030 0.021160 -0.003702 -405890.000000 1 0 0
-7.711576 -10.860190 12.554444 18.303720 0.953339 0.814962 0.024457 -0.021444 -429734.000000 1 0 0
-14.876276 -11.505490 7.390344 20.206362 0.658317 1.196365 0.055791 -0.006020 501347.000000 1 0 0
-11.122676 -9.144490 9.175644 17.074193 0.688101 1.003447 0.028773 -0.009557 -588643.000000 1 0 0
-5.429776 -11.730390 13.252144 18.512261 1.137282 0.772945 0.018808 -0.013925 -861114.000000 1 0 0
3.857424 -12.410090 14.641644 19.577226 -1.269434 0.725916 0.004962 -0.004723 538295.000000 1 0 0
6.422724 -12.782690 14.049944 20.051171 -1.105187 0.794412 0.032418 -0.007973 41659.200000 1 0 0
6.686724 -8.419290 15.977744 19.258375 -0.899593 0.592313 0.028261 -0.006906 -663224.000000 1 0 0
0.707124 -1.681390 14.560444 14.674250 -1.172693 0.124624 0.002994 -0.005485 -2652270.000000 1 0 0
-0.239476 -6.264590 15.499344 16.719213 1.532588 0.384362 0.006601 -0.012710 -172988.000000 1 0 0
-1.632276 -4.690190 18.415944 19.073783 1.235887 0.263398 0.018752 -0.024925 50480.000000 1 0 0
-5.271176 12.592010 12.701544 18.645998 -1.174348 0.821404 0.006952 -0.021141 778118.000000 1 0 0
-3.898176 8.885410 11.743644 15.233498 -1.157365 0.690529 -0.000785 0.001415 -430337.000000 1 0 0
-0.653976 -3.835090 15.008144 15.504192 1.401897 0.253640 0.005692 -0.008203 81961.600000 1 0 0
-4.618576 9.326010 14.164144 17.576367 -1.110967 0.633665 0.004041 -0.005931 10766.400000 1 0 0
-13.454776 -2.333390 16.755344 21.615209 0.171717 0.683821 0.049034 -0.010433 769880.000000 1 0 0
-0.293976 0.869210 17.174544 17.199038 -1.244663 0.053376 0.008819 -0.010048 -1655610.000000 1 0 0
-3.400976 -7.178690 15.300244 17.239422 1.128360 0.478873 0.010986 -0.016708 318806.000000 1 0 0
-7.385776 5.471210 12.625544 15.616920 -0.637572 0.629278 -0.005532 -0.004190 -2296060.000000 1 0 0
-9.887276 10.178910 13.236444 19.405460 -0.799931 0.820167 0.012399 -0.018669 964279.000000 1 0 0
-5.518176 2.296810 11.248744 12.738126 -0.394416 0.488417 0.002012 -0.001863 -2080450.000000 1 0 0
-7.107176 -7.458990 16.872844 19.769708 0.809546 0.548189 0.016420 -0.013898 -547778.000000 1 0 0
-4.754276 2.556910 18.645144 19.410882 -0.493438 0.281819 0.008427 -0.011079 -812663.000000 1 0 0
0.785224 -8.378890 16.523444 18.543100 -1.477355 0.471070 0.009899 -0.011198 494053.000000 1 0 0
-14.833876 -3.515590 13.847044 20.594754 0.232704 0.833407 0.057305 -0.019675 -99273.800000 1 0 0
-14.241676 2.338310 13.100544 19.491467 -0.162736 0.833732 0.041294 -0.017389 -44858.000000 1 0 0
-5.529176 1.004810 16.141644 17.091931 -0.179767 0.335027 0.010446 -0.006820 361652.000000 1 0 0
4.530524 5.748510 15.204044 16.874062 0.903341 0.448657 0.008630 -0.006081 -562659.000000 1 0 0
-1.214776 -12.012090 13.817944 18.349429 1.470010 0.718119 0.001132 -0.001689 -53437.800000 1 0 0
-5.990076 -4.004690 16.816344 18.295026 0.589308 0.404814 0.019701 -0.014031 360857.000000 1 0 0
-12.948376 -1.521390 9.816844 16.320095 0.116960 0.925395 0.020668 -0.007278 -586408.000000 1 0 0
-14.346176 10.385010 10.298144 20.486898 -0.626578 1.044112 0.004851 -0.001082 386266.000000 1 0 0
-3.630176 -3.235290 17.778744 18.431739 0.727944 0.266979 0.018683 -0.019381 -494828.000000 1 0 0
-7.938276 9.394610 11.829044 17.064619 -0.869223 0.804889 -0.002534 -0.008990 -194854.000000 1 0 0
-4.256776 10.785510 16.217744 19.936464 -1.194888 0.620700 0.011705 -0.007483 126530.000000 1 0 0
-12.343676 12.910910 8.497744 19.780536 -0.807855 1.126745 0.004134 -0.005640 87338.700000 1 0 0
-12.624176 3.138010 10.452344 16.687373 -0.243634 0.893918 0.012076 -0.011357 587731.000000 1 0 0
-10.148576 -3.381390 13.647244 17.339973 0.321620 0.664801 0.012141 -0.004761 -1418400.000000 1 0 0
-4.384276 -6.274790 17.716644 19.299594 0.960935 0.407839 0.023348 -0.021818 -539779.000000 1 0 0
0.661624 -3.537790 17.831944 18.191534 -1.385916 0.199160 0.014215 -0.020136 -895693.000000 1 0 0
-5.966576 1.899410 13.730944 15.091276 -0.308198 0.427851 0.002162 -0.002975 -582106.000000 1 0 0
-10.527776 8.693010 10.245544 17.069671 -0.690229 0.927021 0.000685 -0.013264 -216064.000000 1 0 0
4.569524 2.475110 17.300744 18.064397 0.496415 0.291805 0.015201 -0.013412 -664362.000000 1 0 0
0.539224 -5.351490 13.180244 14.235450 -1.470374 0.387452 0.006302 -0.006565 -381652.000000 1 0 0
-3.923076 5.878410 20.983644 22.141805 -0.982307 0.324866 0.049466 -0.012704 -224410.000000 1 0 0
-10.816376 10.822410 9.046744 17.775324 -0.785677 1.036832 0.003219 -0.010725 659960.000000 1 0 0
0.653224 4.131910 12.984844 13.642051 1.414002 0.311663 0.004196 -0.001861 -2465930.000000 1 0 0
-3.057976 7.211310 13.433644 15.550466 -1.169728 0.527886 -0.003710 0.002745 83348.900000 1 0 0
0.706624 8.847810 14.169344 16.719850 1.491101 0.559621 0.001601 -0.006321 -97632.200000 1 0 0
-4.150176 -6.454290 13.115144 15.195026 0.999350 0.529379 0.009764 -0.010072 -570213.000000 1 0 0
-5.229376 8.372610 16.626344 19.336036 -1.012498 0.535795 0.019551 0.002926 376154.000000 1 0 0
1.421224 -10.691490 15.755444 19.093502 -1.438641 0.600288 -0.003426 -0.001469 -640826.000000 1 0 0
-15.243076 -0.960590 14.224444 20.871246 0.062935 0.820941 0.062319 -0.020858 483634.000000 1 0 0
-13.855076 -5.329090 8.343944 17.028909 0.367187 1.058721 0.044866 -0.011976 -355589.000000 1 0 0
-14.225976 -1.891490 12.047644 18.737712 0.132185 0.872436 0.046814 -0.015177 369833.000000 1 0 0
9.465824 1.074810 16.981344 19.471083 0.113062 0.511254 0.063225 -0.012724 945817.000000 1 0 0
4.913824 -6.815590 16.888644 18.863303 -0.946136 0.461653 0.027430 -0.009391 399237.000000 1 0 0
-6.103276 -2.604390 11.184744 13.005050 0.403327 0.535466 0.002868 -0.003849 -85073.800000 1 0 0
0.481124 -6.177890 17.901444 18.943587 -1.493075 0.333241 0.019291 -0.025429 41740.100000 1 0 0
-8.455376 11.992410 12.043544 18.983104 -0.956682 0.883519 0.005263 -0.013059 249632.000000 1 0 0
-6.638776 -5.711390 14.837044 17.228790 0.710448 0.533215 0.013902 -0.010232 -990721.000000 1 0 0
-4.438076 -8.787190 17.137744 19.763944 1.103107 0.521402 0.022660 -0.019827 100147.000000 1 0 0
2.383024 -6.306090 16.094144 17.448984 -1.209492 0.396666 0.017313 -0.015189 -742312.000000 1 0 0
2.207624 5.231610 16.037944 17.013494 1.171488 0.340283 0.010707 -0.008274 -1346880.000000 1 0 0
0.759924 -8.855790 13.925944 16.520726 -1.485195 0.568076 0.001219 -0.004608 -442446.000000 1 0 0
-9.944976 -2.751990 11.162644 15.201336 0.269966 0.746132 0.002559 -0.003269 281489.000000 1 0 0
-1.090476 10.111010 12.447444 16.073597 -1.463361 0.685025 -0.006970 -0.004384 -826772.000000 1 0 0
-12.310276 -3.590290 11.352344 17.126260 0.283779 0.846162 0.023834 -0.004870 -1432870.000000 1 0 0
-1.783476 6.578510 19.625344 20.775267 -1.306054 0.334272 0.045344 -0.032446 -579185.000000 1 0 0
0.090624 -13.451290 15.661844 20.645550 -1.564059 0.709625 0.002248 -0.000487 -528749.000000 1 0 0
4.064524 -8.745290 15.406744 18.176034 -1.135730 0.559274 0.012614 -0.002851 422122.000000 1 0 0
4.352724 -4.491690 16.167944 17.335625 -0.801109 0.369127 0.025896 -0.006505 -720696.000000 1 0 0
8.092424 1.650210 14.817144 16.963439 0.201162 0.508501 0.018967 0.000371 -145184.000000 1 0 0
-6.283076 -0.080590 11.986344 13.533513 0.012826 0.482843 0.003674 -0.004259 80075.800000 1 0 0
-3.548176 -10.882490 18.328144 21.608771 1.255620 0.558255 0.030043 -0.020804 503216.000000 1 0 0
3.269324 -1.469490 13.607744 14.071907 -0.422420 0.257558 0.005197 -0.003548 662788.000000 1 0 0
-2.701676 8.792510 15.926144 18.391557 -1.272683 0.523752 0.014204 -0.003768 69819.800000 1 0 0
-3.216676 4.187510 14.836644 15.748278 -0.915774 0.341921 0.004923 -0.005222 -1523450.000000 1 0 0
-4.591376 -8.988390 19.782944 22.208934 1.098537 0.471770 0.036624 -0.021800 -100893.000000 1 0 0
-5.845676 -2.847290 19.122144 20.197410 0.453255 0.327771 0.031108 -0.022283 -1121250.000000 1 0 0
-6.647076 -8.517690 11.127944 15.510183 0.908131 0.770646 0.012252 -0.012207 -1037710.000000 1 0 0
-11.587276 2.418210 12.738744 17.389316 -0.205742 0.748719 0.024855 -0.020735 -371942.000000 1 0 0
-11.644176 -7.582190 11.706144 18.168936 0.577188 0.870696 0.031577 -0.009868 -1438020.000000 1 0 0
-11.019876 -7.148690 15.636744 20.421782 0.575467 0.698684 0.031100 -0.023373 -515526.000000 1 0 0
0.157124 5.533510 17.676844 18.523370 1.542409 0.303489 0.011233 -0.013321 -326630.000000 1 0 0
-2.301376 -0.167590 13.183944 13.384349 0.072693 0.173266 0.005192 -0.001744 -15022.800000 1 0 0
-6.186776 -10.422790 18.321344 21.967758 1.035110 0.584459 0.042782 -0.019549 -188112.000000 1 0 0
0.255524 2.675610 19.061744 19.250305 1.475584 0.140081 0.016904 -0.019945 -578243.000000 1 0 0
-0.784476 10.795910 14.967844 18.471693 -1.498260 0.626111 0.012072 -0.006958 -151004.000000 1 0 0
-12.797276 -1.993490 14.253544 19.258967 0.154533 0.737579 0.034801 -0.013043 -280674.000000 1 0 0
-13.711476 8.315410 11.778344 19.896734 -0.545153 0.937291 0.016331 -0.010059 615765.000000 1 0 0
-18.231276 -0.555890 6.784844 19.460795 0.030482 1.214675 0.062643 -0.022686 -256628.000000 1 0 0
-2.208376 -7.638790 17.537344 19.255816 1.289369 0.425686 0.021793 -0.023664 -2364290.000000 1 0 0
5.792224 2.719310 14.517544 15.865169 0.438932 0.415146 0.015875 -0.008714 -2162000.000000 1 0 0
-14.065576 -6.733090 11.105844 19.144574 0.446457 0.951940 0.041257 -0.014701 725892.000000 1 0 0
3.220624 7.747210 16.462844 18.477470 1.176817 0.471323 0.020718 -0.012379 -176784.000000 1 0 0
1.042924 2.114110 14.579444 14.768796 1.112511 0.160303 0.004830 -0.007251 -1861270.000000 1 0 0
-14.399976 0.736410 9.757844 17.410259 -0.051095 0.975849 0.031250 -0.013094 762957.000000 1 0 0
-9.463476 -5.053090 15.491444 18.843458 0.490443 0.605685 0.014403 -0.007571 -377321.000000 1 0 0
-2.509276 -0.082690 18.188344 18.360805 0.032942 0.137169 0.017432 -0.014922 164859.000000 1 0 0
6.876724 3.584510 17.596644 19.229662 0.480505 0.415095 0.040384 -0.009996 -166833.000000 1 0 0
-4.221876 -0.811690 14.777444 15.390124 0.189940 0.283115 0.013516 -0.005167 -1177060.000000 1 0 0
4.948524 -9.293890 17.737944 20.627625 -1.081528 0.535699 0.032468 -0.000737 -34700.100000 1 0 0
1.995524 6.894410 13.499044 15.288531 1.289055 0.488682 0.006642 -0.004423 -2080980.000000 1 0 0
-3.695376 -0.664490 20.429844 20.771997 0.177915 0.181754 0.031905 -0.015560 -963563.000000 1 0 0
-10.654076 1.744010 16.319344 19.567113 -0.162255 0.584444 0.030485 -0.010266 -151844.000000 1 0 0
-4.003376 7.110810 18.560844 20.275492 -1.058028 0.414215 0.033100 -0.009909 -70352.800000 1 0 0
-12.594276 1.047310 14.614744 19.321061 -0.082967 0.712981 0.038712 -0.018598 174836.000000 1 0 0
-16.202276 -4.462890 8.414144 18.794386 0.268783 1.106611 0.050256 -0.014863 -2625080.000000 1 0 0
-2.411076 0.871810 15.710144 15.917976 -0.346959 0.161771 0.011016 -0.006648 -31944.400000 1 0 0
-13.759876 -8.909790 12.504344 20.617399 0.574630 0.919152 0.052681 -0.022033 484593.000000 1 0 0
6.098624 -3.263190 14.603344 16.158566 -0.491308 0.442340 0.020279 -0.005595 839556.000000 1 0 0
-15.786876 -0.029190 7.712844 17.570267 0.001849 1.116343 0.029895 -0.015972 1035640.000000 1 0 0
-14.025276 5.764910 12.464244 19.629059 -0.389985 0.882802 0.032205 -0.016136 -266555.000000 1 0 0
0.532224 9.459410 16.815744 19.301113 1.514592 0.513090 0.014931 -0.012628 -273610.000000 1 0 0
-10.462776 -5.460390 10.818044 16.009860 0.481004 0.828867 0.015053 -0.005296 155308.000000 1 0 0
-3.302376 -11.045090 15.063544 18.968659 1.280266 0.653225 0.012789 -0.006760 -414837.000000 1 0 0
-3.561076 2.783210 12.680044 13.461465 -0.663398 0.342401 0.003191 -0.003581 -2460310.000000 1 0 0
-12.438476 -7.784890 7.389844 16.429546 0.559226 1.104266 0.032310 -0.006322 451290.000000 1 0 0
-8.282776 -1.816190 13.172844 15.666102 0.215857 0.571944 0.004224 -0.005529 -582228.000000 1 0 0
-9.808776 6.433710 9.583044 15.147259 -0.580521 0.885815 -0.000611 -0.005876 -500818.000000 1 0 0
-18.069076 -3.442990 6.787344 19.606472 0.188289 1.217301 0.056576 -0.017562 -17860.200000 1 0 0
-1.216676 -0.021090 20.538544 20.574560 0.017332 0.059178 0.021016 -0.016896 -1097020.000000 1 0 0
-2.771176 2.724210 20.299844 20.668440 -0.776852 0.189140 0.034258 -0.015165 -662512.000000 1 0 0
-3.650976 11.194110 11.156544 16.220549 -1.255523 0.812338 0.000046 -0.011581 -876815.000000 1 0 0
-4.250676 -4.762890 14.921044 16.229323 0.842164 0.404275 0.010719 -0.013133 260095.000000 1 0 0
-0.125476 -14.294490 13.190044 19.450589 1.562019 0.825580 0.005805 -0.002899 -354004.000000 1 0 0
-12.099676 0.379010 8.403044 14.736246 -0.031314 0.964011 0.007955 -0.004943 -676192.000000 1 0 0
-7.810476 2.194410 15.614244 17.596124 -0.273896 0.479191 0.003962 0.000657 706614.000000 1 0 0
3.374324 -2.104590 18.564944 18.986113 -0.557669 0.211024 0.016183 -0.004279 -181078.000000 1 0 0
-2.097776 4.924910 12.542144 13.636744 -1.168119 0.403400 -0.001608 -0.001858 -461895.000000 1 0 0
-10.471276 -6.203390 13.322844 18.045161 0.534827 0.740242 0.014305 -0.010059 -338852.000000 1 0 0
2.368324 -3.754990 14.249944 14.925475 -1.008099 0.302013 0.007290 -0.006491 -620948.000000 1 0 0
6.746424 1.070010 17.032344 18.351019 0.157294 0.381408 0.029040 -0.010839 -177069.000000 1 0 0
-1.946476 -5.630390 13.746344 14.981723 1.237949 0.408945 0.002777 -0.010677 -2501420.000000 1 0 0
-12.691576 3.627410 14.821044 19.846853 -0.278390 0.727603 0.019663 -0.012205 -4453.220000 1 0 0
-13.418476 -6.523290 13.437544 20.079253 0.452500 0.837631 0.047455 -0.016592 -68633.100000 1 0 0
-9.447376 6.863210 11.946844 16.705797 -0.628269 0.773984 0.002678 -0.008589 -671258.000000 1 0 0
-0.984876 -2.377490 12.845144 13.100388 1.178066 0.197723 0.004010 -0.004620 232433.000000 1 0 0
0.133224 6.633010 15.355444 16.727350 1.550714 0.407828 0.006890 -0.010021 357593.000000 1 0 0
-16.524376 -0.770090 10.078844 19.370884 0.046570 1.023584 0.058664 -0.013120 64297.100000 1 0 0
-1.349876 2.723010 13.776644 14.107901 -1.110571 0.217130 0.003650 -0.003088 -1507000.000000 1 0 0
-11.238976 -3.342790 15.961544 19.805547 0.289096 0.633581 0.023086 -0.012425 -951588.000000 1 0 0
-5.164476 -1.379190 17.131944 17.946517 0.260963 0.302445 0.022486 -0.011121 448295.000000 1 0 0
-11.832676 6.533810 11.181344 17.542102 -0.504518 0.879677 0.011502 -0.009815 -2638010.000000 1 0 0
-3.108976 4.657510 18.741144 19.559872 -0.982204 0.290355 0.043702 -0.012801 315685.000000 1 0 0
5.064024 -2.060090 16.607444 17.484150 -0.386362 0.318018 0.017319 -0.004991 417587.000000 1 0 0
-8.039676 -4.151490 12.178544 15.171954 0.476662 0.638986 0.009385 -0.004628 -1632910.000000 1 0 0
-11.523376 -0.695990 16.168544 19.866917 0.060325 0.620062 0.026075 -0.009733 324495.000000 1 0 0
2.010624 2.080610 17.208044 17.449594 0.802503 0.166582 0.000560 -0.014799 -785170.000000 1 0 0
-8.933776 -7.490090 11.663944 16.491252 0.697722 0.785152 0.016539 -0.010259 604858.000000 1 0 0
-7.135776 7.094610 14.666144 17.786191 -0.782505 0.601336 0.001237 -0.008472 -1004990.000000 1 0 0
-5.515376 3.540210 15.817644 17.121633 -0.570646 0.392803 0.001788 -0.006704 302119.000000 1 0 0
-9.316176 4.226610 11.560144 15.436719 -0.425914 0.724436 -0.003718 -0.010790 -58422.300000 1 0 0
-10.159576 0.362210 14.193744 17.458824 -0.035637 0.621538 0.009632 -0.007190 -516346.000000 1 0 0
8.094124 -0.731690 15.847544 17.809965 -0.090153 0.473860 0.033354 -0.004228 285570.000000 1 0 0
-8.559176 -7.386990 14.797544 18.622417 0.712021 0.652433 0.018677 -0.012321 -2617880.000000 1 0 0
-0.046776 4.112810 15.544144 16.079111 -1.559424 0.258678 0.006838 -0.008253 -94898.700000 1 0 0
-8.087476 3.109710 9.597244 12.929991 -0.367081 0.734379 -0.003448 -0.001313 -866035.000000 1 0 0
-2.206576 -9.679290 13.086644 16.426134 1.346658 0.648987 0.000983 -0.007664 599509.000000 1 0 0
-5.973476 10.270710 10.590744 15.916462 -1.044014 0.842773 0.006367 -0.008121 -14399.000000 1 0 0
-8.663176 -2.562390 15.608944 18.034844 0.287580 0.524672 0.014867 -0.014190 -64044.900000 1 0 0
4.222524 5.622110 17.692544 19.038486 0.926619 0.378272 0.020576 -0.015815 233424.000000 1 0 0
-6.851676 -0.874590 15.274344 16.763530 0.126959 0.424693 0.007128 -0.003009 -671020.000000 1 0 0
-1.014176 -9.991090 15.393844 18.379903 1.469635 0.578037 -0.001477 -0.005771 -290064.000000 1 0 0
-4.306476 6.014110 16.225644 17.832184 -0.949372 0.427735 0.012672 -0.006790 114317.000000 1 0 0
3.699224 0.082010 17.336344 17.726810 0.022166 0.210277 0.013166 -0.012095 -641574.000000 1 0 0
1.346924 0.359610 19.168844 19.219472 0.260901 0.072600 0.002747 -0.013561 -529942.000000 1 0 0
-6.472476 6.347310 17.654444 19.845924 -0.775635 0.474382 0.016788 -0.012781 290385.000000 1 0 0
-12.168576 0.571210 11.038144 16.439013 -0.046907 0.834619 0.022368 -0.011058 -395714.000000 1 0 0
-5.381376 5.218310 14.018444 15.896753 -0.770015 0.491039 -0.000770 -0.003286 -1308460.000000 1 0 0
-8.757176 -9.459690 9.926844 16.270098 0.823943 0.914574 0.025419 -0.012906 -979401.000000 1 0 0
6.824324 -3.836590 17.068744 18.778520 -0.512156 0.430037 0.030300 -0.003076 -256414.000000 1 0 0
-16.819076 1.762910 9.393844 19.345115 -0.104435 1.063755 0.061789 -0.025629 429967.000000 1 0 0
-4.239576 -9.548090 11.344644 15.422093 1.152924 0.744230 0.005592 -0.011046 -65242.100000 1 0 0
-11.209676 -3.832790 9.110744 14.944991 0.329457 0.915217 0.013290 -0.003635 -392287.000000 1 0 0
3.386224 -5.249890 18.325944 19.361510 -0.997938 0.328541 0.012863 -0.020528 -536953.000000 1 0 0
2.521924 -1.942690 16.146644 16.457468 -0.656380 0.194660 0.008624 -0.006990 -1305460.000000 1 0 0
-3.411176 -4.243690 20.222644 20.942787 0.893728 0.263002 0.028688 -0.028099 -500736.000000 1 0 0
-6.402476 -3.241790 14.354444 16.048394 0.468702 0.463603 0.011902 -0.006618 129673.000000 1 0 0
-9.472476 5.142610 13.995444 17.664844 -0.497376 0.656265 0.013817 -0.011631 -8047.250000 1 0 0
-5.859476 -5.135690 11.732244 14.083832 0.719665 0.586235 0.005627 -0.005710 -1087360.000000 1 0 0
6.098524 1.819810 19.413944 20.430490 0.289990 0.316779 0.054192 -0.021400 -51630.500000 1 0 0
-2.787976 11.717110 13.457044 18.059776 -1.337199 0.730053 0.010917 -0.020734 -198024.000000 1 0 0
3.444224 1.385210 15.121744 15.570762 0.382387 0.240736 0.007332 -0.007477 -934735.000000 1 0 0
-5.617276 7.424610 12.736244 15.776265 -0.923100 0.631227 -0.010368 -0.008974 -623210.000000 1 0 0
-1.832876 -1.652190 15.242344 15.440797 0.733599 0.160500 0.008479 -0.007082 476517.000000 1 0 0
-7.345576 10.531010 14.000744 18.996855 -0.961738 0.742171 0.013120 -0.021899 -542072.000000 1 0 0
-10.154876 2.038810 10.603744 14.822876 -0.198137 0.773652 0.001714 -0.006329 -843612.000000 1 0 0
-13.629976 5.164110 9.199144 17.235676 -0.362167 1.007795 0.008521 -0.009647 150005.000000 1 0 0
0.313724 -4.814990 20.140744 20.710676 -1.505733 0.235142 0.028058 -0.028491 -223765.000000 1 0 0
-14.355476 -2.942690 7.562844 16.490474 0.202186 1.094356 0.019579 -0.008691 530018.000000 1 0 0
-2.324976 2.495010 17.674444 18.000460 -0.820660 0.190612 0.015545 -0.010842 -970905.000000 1 0 0
-6.204476 -8.250590 14.556144 17.845141 0.926014 0.616871 0.014355 -0.013115 -311895.000000 1 0 0
-7.973776 1.938410 11.953144 14.498834 -0.238472 0.601618 -0.003054 -0.005804 28315.400000 1 0 0
-14.563876 -3.564190 10.132044 18.096084 0.240011 0.976528 0.033899 -0.013608 727796.000000 1 0 0
-0.475476 6.954610 12.815644 14.588811 -1.502534 0.498173 0.001173 -0.004867 -1148910.000000 1 0 0
-1.871476 -2.259090 19.427544 19.647783 0.878964 0.149869 0.021013 -0.018031 -552738.000000 1 0 0
-12.839076 10.567910 7.339244 18.176554 -0.688672 1.155157 0.000231 -0.006642 251206.000000 1 0 0
-19.420676 2.269510 6.969244 20.757738 -0.116333 1.228404 0.061935 -0.026570 1371330.000000 1 0 0
-15.956776 8.424510 6.669444 19.237270 -0.485763 1.216752 0.015231 -0.004624 648878.000000 1 0 0
-12.288076 7.259210 13.679244 19.769033 -0.533592 0.806605 0.012651 -0.010013 335762.000000 1 0 0
-15.766776 8.236910 10.194744 20.502944 -0.481424 1.050389 0.026731 -0.013618 494919.000000 1 0 0
1.795424 10.971010 15.048844 18.709739 1.408583 0.636246 0.013511 -0.010375 -44575.000000 1 0 0
1.916824 14.164010 12.499144 18.987417 1.436283 0.852257 0.009413 -0.015661 -105300.000000 1 0 0
-3.108876 13.654610 11.732444 18.269202 -1.346933 0.873434 -0.003883 -0.013914 314075.000000 1 0 0
9.161924 4.942410 15.995044 19.084279 0.494708 0.576956 0.047573 0.003219 335876.000000 1 0 0
-0.337876 12.475810 13.113444 18.103105 -1.543720 0.760668 -0.002121 -0.003509 -721572.000000 1 0 0
3.481824 13.368610 14.489444 20.019661 1.316009 0.761560 0.022411 -0.006903 50549.400000 1 0 0
-2.841776 -4.177490 -13.682256 14.585309 0.973442 2.787856 0.003041 -0.006763 -354454.000000 1 0 0
5.763224 -11.648690 16.194044 20.764243 -1.111355 0.676289 0.026909 -0.006654 45877.300000 1 0 0
7.957424 -13.484890 7.266244 17.261551 -1.037689 1.136304 0.008190 -0.009304 -110999.000000 1 0 0
-0.133776 15.675410 1.217544 15.723193 -1.562262 1.493283 0.004466 -0.004709 -3009430.000000 1 0 0
-13.334576 8.257610 9.147644 18.157049 -0.554463 1.042796 -0.012954 0.001655 82202.600000 1 0 0
-15.496376 -9.604590 4.975944 18.898302 0.554848 1.304354 0.029252 -0.006866 -1180840.000000 1 0 0
9.387324 -11.138490 11.144144 18.340658 -0.870507 0.917736 0.031732 -0.009185 320493.000000 1 0 0
-5.701876 -10.227390 -16.807356 20.484094 1.062205 2.533095 0.030425 -0.001615 -36247.500000 1 0 0
-1.681776 -12.678890 -14.555956 19.376751 1.438922 2.420686 0.017836 -0.006120 -41511.500000 1 0 0
5.444024 -15.277690 -12.858756 20.697652 -1.228486 2.241154 0.036742 -0.024393 225368.000000 1 0 0
1.067724 -11.623990 -16.519556 20.227528 -1.479198 2.526443 0.022424 -0.014813 -72396.100000 1 0 0
0.305724 -14.345390 -13.714656 19.848815 -1.549488 2.333607 0.021710 -0.001423 109240.000000 1 0 0
-6.442976 -5.797190 -14.409056 16.814882 0.732687 2.600066 0.017440 -0.007708 -981.973000 1 0 0
-6.292576 -8.188490 -17.017356 19.905735 0.915581 2.596149 0.018963 -0.010373 73895.400000 1 0 0
-2.385576 -16.098990 -13.234456 20.976636 1.423685 2.253527 0.011851 -0.007101 303434.000000 1 0 0
16.484024 -8.074390 -8.842856 20.374369 -0.455480 2.019745 0.096676 -0.015569 -29479.500000 1 0 0
19.191124 -2.788190 -3.541756 19.713378 -0.144276 1.751440 0.108695 -0.030484 49525.900000 1 0 0
15.489424 -12.384190 -8.220756 21.467912 -0.674452 1.963765 0.068273 -0.008307 125655.000000 1 0 0
18.653124 -3.511890 -6.868756 20.185445 -0.186095 1.918014 0.198799 -0.016349 -299537.000000 1 0 0
9.179124 -9.782490 -15.687156 20.640743 -0.817208 2.434124 0.077059 -0.018758 229515.000000 1 0 0
-4.162576 10.322510 -16.563956 19.956100 -1.187489 2.549939 0.004735 0.014502 525783.000000 1 0 0
2.747324 -9.730190 -18.593456 21.164616 -1.295609 2.643543 0.033044 0.001534 206883.000000 1 0 0
11.239124 7.716210 -14.994656 20.265673 0.601641 2.403724 0.099060 -0.057223 366283.000000 1 0 0
18.032424 -6.497590 -7.353656 20.529570 -0.345846 1.937134 0.061861 -0.019082 272997.000000 1 0 0
11.948824 4.716410 -14.110456 19.082031 0.375944 2.403069 0.032477 -0.018214 -77877.500000 1 0 0
15.671224 6.285710 -10.751756 20.017434 0.381453 2.137815 0.036755 -0.022461 242060.000000 1 0 0
3.316924 -0.239190 -19.115656 19.402771 -0.071987 2.969347 0.032959 -0.011537 91108.400000 1 0 0
10.200124 -1.551890 -15.208556 18.378005 -0.150986 2.545510 0.024465 0.007076 239084.000000 1 0 0
12.103024 -6.324490 -13.602356 19.274502 -0.481528 2.354232 0.059257 -0.010884 403129.000000 1 0 0
10.281724 6.579310 -13.169656 17.956643 0.569245 2.394127 0.036349 -0.003617 510650.000000 1 0 0
10.927424 5.130710 -16.361756 20.333220 0.438973 2.505934 0.079092 -0.030819 511921.000000 1 0 0
12.430724 -9.595690 -14.099256 21.104245 -0.657391 2.302417 0.131607 -0.040601 336723.000000 1 0 0
-0.863276 2.475110 -17.717556 17.910422 -1.235206 2.994707 0.023329 -0.002915 393998.000000 1 0 0
6.592124 -1.054790 -17.257456 18.503742 -0.158663 2.772477 0.017707 0.010638 42431.300000 1 0 0
6.577524 -5.613290 -15.505556 17.753735 -0.706467 2.632873 0.007174 -0.013930 211807.000000 1 0 0
-2.387876 -4.599190 -20.088056 20.745710 1.091911 2.889126 0.040138 -0.032412 210507.000000 1 0 0
15.471624 -0.412390 -13.419356 20.484636 -0.026648 2.285103 0.052275 -0.010370 -58347.600000 1 0 0
-4.137576 -0.362190 -18.202856 18.670691 0.087314 2.917260 0.016533 -0.019382 167321.000000 1 0 0
3.815424 8.558210 -17.980456 20.275533 1.151424 2.661183 0.043246 -0.019726 244229.000000 1 0 0
9.581124 -0.080490 -17.666156 20.097201 -0.008401 2.644632 0.037795 0.003801 -216142.000000 1 0 0
4.156424 4.694310 -18.686356 19.710208 0.846097 2.817860 0.025075 0.006975 419163.000000 1 0 0
-2.472176 -11.285190 -17.931656 21.330997 1.355139 2.569257 0.040326 -0.011408 211506.000000 1 0 0
5.646724 -9.480090 -15.962356 19.405010 -1.033589 2.536746 0.016316 -0.019239 -10641.500000 1 0 0
9.759424 -12.558790 -10.654856 19.144072 -0.910176 2.161038 0.032390 -0.011166 -15467.100000 1 0 0
6.280224 7.045310 -17.070856 19.506198 0.842750 2.636543 0.042938 -0.012494 393622.000000 1 0 0
8.115624 1.092010 -20.051756 21.659380 0.133753 2.753882 0.046745 -0.020114 26348.300000 1 0 0
-1.130376 -0.573990 -19.961756 20.001973 0.469857 3.078168 0.042220 -0.026609 332647.000000 1 0 0
-1.015976 6.631710 -19.623956 20.739128 -1.418779 2.812168 0.014882 -0.008932 -60561.400000 1 0 0
8.701124 5.636810 -18.205356 20.950374 0.574845 2.623924 0.079272 -0.026870 126388.000000 1 0 0
12.092124 -0.247690 -13.115056 17.840558 -0.020481 2.396649 0.011695 0.003276 7294.840000 1 0 0
-4.419576 -2.516590 -19.788656 20.431759 0.517630 2.890029 0.014040 -0.015543 416501.000000 1 0 0
6.050524 -11.491090 -14.629956 19.562454 -1.086142 2.415627 0.020287 -0.008709 45151.000000 1 0 0
11.095024 2.243310 -16.062456 19.650305 0.199501 2.527706 0.038578 -0.003766 -329529.000000 1 0 0
-2.778476 -4.421690 -17.003956 17.787799 1.009774 2.843620 0.007217 -0.012138 273974.000000 1 0 0
-6.941576 -4.930490 -17.549656 19.506041 0.617595 2.689886 0.035635 -0.012100 50652.000000 1 0 0
3.331324 10.724910 -15.770356 19.360412 1.269629 2.522779 0.019583 -0.006622 286463.000000 1 0 0
17.419624 -6.076690 -10.703356 21.329118 -0.335642 2.096497 0.124442 -0.019709 39503.400000 1 0 0
9.430824 -3.625990 -17.614056 20.306236 -0.367058 2.620792 0.027736 -0.021401 132835.000000 1 0 0
-7.314576 -1.600190 -18.656056 20.102539 0.215374 2.759925 0.028869 -0.010032 406714.000000 1 0 0
1.472024 -7.494690 -19.321256 20.776144 -1.376856 2.765136 0.035448 -0.018857 215434.000000 1 0 0
5.806524 9.919910 -14.761056 18.708531 1.041226 2.479978 0.052245 -0.019719 436398.000000 1 0 0
5.997624 -3.834890 -18.074456 19.425855 -0.568888 2.766389 0.025914 -0.017063 323257.000000 1 0 0
4.803224 13.188310 -14.915356 20.480975 1.221525 2.386567 0.053000 -0.023251 142618.000000 1 0 0
10.445924 10.661510 -15.731156 21.685350 0.795612 2.382452 0.147494 -0.035767 -170313.000000 1 0 0
16.990324 0.950410 -11.352756 20.456282 0.055880 2.159131 0.090894 -0.014059 -27183.400000 1 0 0
15.013624 -3.058190 -12.406856 19.715261 -0.200945 2.251451 0.085264 -0.011969 48843.900000 1 0 0
-8.786676 0.294010 -17.241656 19.353729 -0.033448 2.670053 0.042246 -0.021307 560321.000000 1 0 0
-3.348976 4.154310 -18.997956 19.733126 -0.892320 2.867770 0.019019 -0.009213 34062.700000 1 0 0
4.106524 2.197910 -16.776956 17.411508 0.491428 2.870787 0.012972 -0.006005 272450.000000 1 0 0
-5.137376 14.231110 -13.831656 20.499557 -1.224359 2.311394 0.027690 -0.016590 397749.000000 1 0 0
1.041924 9.319610 -17.675556 20.009149 1.459460 2.653809 0.011755 -0.009921 357843.000000 1 0 0
0.930624 -5.510590 -20.331056 21.085173 -1.403496 2.873337 0.029209 0.005169 532152.000000 1 0 0
4.085624 -6.340490 -17.828556 19.358501 -0.998389 2.741353 0.031596 -0.027111 198492.000000 1 0 0
-6.814176 7.653410 -15.882456 18.901326 -0.843341 2.568601 0.007348 -0.004566 96086.800000 1 0 0
-12.226176 3.200510 -16.270856 20.602510 -0.256030 2.481200 0.096451 -0.038680 434150.000000 1 0 0
-4.128076 6.702510 -17.233656 18.946334 -1.018768 2.713126 0.007675 0.002285 474346.000000 1 0 0
-8.254476 5.643310 -17.646056 20.282175 -0.599680 2.626055 0.026120 -0.011106 222173.000000 1 0 0
-8.497576 4.375210 -15.103356 17.873518 -0.475479 2.577386 0.002422 -0.018023 456300.000000 1 0 0
9.687424 13.356610 -12.868856 20.924930 0.943298 2.233184 0.121404 -0.049277 432324.000000 1 0 0
14.248924 8.980410 -12.072856 20.722776 0.562367 2.192706 0.095186 -0.024999 22455.700000 1 0 0
8.600724 15.366210 -10.011056 20.256212 1.060524 2.087735 0.079145 -0.024383 -22685.100000 1 0 0
7.626024 12.492510 -14.415256 20.543093 1.022730 2.348589 0.123907 -0.053177 136566.000000 1 0 0
3.896124 15.448410 -13.016956 20.573632 1.323746 2.255832 0.061007 -0.026150 214672.000000 1 0 0
11.329424 11.435710 -10.807156 19.388810 0.790067 2.162037 0.093421 -0.037345 374166.000000 1 0 0
16.330924 10.200410 -10.053456 21.721405 0.558317 2.051989 0.107666 -0.016344 464333.000000 1 0 0
13.239424 10.439010 -8.441456 18.855065 0.667676 2.034990 0.098079 -0.033606 163895.000000 1 0 0
10.301624 11.664010 -7.387756 17.226478 0.847342 2.014027 0.042814 -0.014311 -4022.610000 1 0 0
5.515324 16.985510 -10.569056 20.751658 1.256829 2.105181 0.061136 -0.012013 75298.600000 1 0 0
11.601124 14.197510 -10.188856 20.975418 0.885701 2.078020 0.133951 -0.026145 81840.700000 1 0 0
7.546924 -19.133790 -1.495056 20.622637 -1.195102 1.643356 0.040642 -0.012296 31585.100000 1 0 0
7.761124 -16.764290 -4.252756 18.956856 -1.137221 1.797061 0.051631 -0.021114 93597.400000 1 0 0
3.874324 -18.606690 5.211644 19.707372 -1.365508 1.303161 0.042210 -0.023932 99214.700000 1 0 0
10.421824 -17.733790 -2.325056 20.700425 -1.039484 1.683353 0.072016 -0.020779 668804.000000 1 0 0
-3.425076 -14.673090 7.765744 16.951032 1.341477 1.094908 0.026737 -0.032559 184846.000000 1 0 0
-15.478876 -12.768090 -4.259856 20.512584 0.689724 1.779989 0.067558 -0.023270 180946.000000 1 0 0
-8.921976 -12.943690 -7.433056 17.389396 0.967293 2.012464 0.035537 -0.009671 -148136.000000 1 0 0
-11.604176 -14.885690 6.718444 20.034424 0.908648 1.228825 0.045561 -0.014814 116053.000000 1 0 0
-15.693476 -8.116490 -8.273356 19.509255 0.477304 2.008735 0.108856 -0.014839 8973.070000 1 0 0
5.331124 -15.425390 6.371944 17.520422 -1.238040 1.198574 0.039368 -0.017970 211516.000000 1 0 0
2.918824 -14.296890 8.806444 17.043299 -1.369406 1.027793 0.020662 -0.008563 155597.000000 1 0 0
3.295924 -17.307190 9.963744 20.240507 -1.382613 1.056103 0.050095 -0.018549 28590.200000 1 0 0
-8.776876 -17.897090 -5.164656 20.591577 1.114852 1.824317 0.060292 -0.011523 -74686.200000 1 0 0
2.010724 -19.774490 -4.061656 20.287200 -1.469462 1.772366 0.035626 -0.020783 -166431.000000 1 0 0
-17.102076 -10.879290 -2.666856 20.443876 0.566569 1.701617 -0.050607 -0.021983 -449801.000000 1 0 0
-4.011476 -14.970790 2.744844 15.740097 1.308993 1.395515 0.001835 0.001599 202845.000000 1 0 0
-11.045676 -10.015790 -14.464456 20.773625 0.736538 2.341011 0.053772 -0.005277 237028.000000 1 0 0
0.661224 -20.282390 2.461744 20.441935 -1.538207 1.450077 0.032117 -0.017004 208589.000000 1 0 0
5.494824 -18.782090 0.690544 19.581543 -1.286182 1.535524 0.023422 0.002388 3669.420000 1 0 0
-6.886276 -17.865790 -3.227556 19.417115 1.202900 1.737794 0.003229 -0.049687 2618.420000 1 0 0
-9.852576 -15.759590 -7.386756 20.000052 1.012068 1.949092 0.071854 -0.021272 93393.100000 1 0 0
-11.964676 -11.333390 -11.864056 20.306527 0.758309 2.194750 0.047758 -0.006589 414067.000000 1 0 0
-13.349876 -15.041690 -3.585156 20.428533 0.844916 1.747207 0.053076 -0.024372 170504.000000 1 0 0
-0.419776 -20.417090 -2.410656 20.563196 1.550239 1.688298 0.039659 -0.025714 453275.000000 1 0 0
-12.177876 -16.670190 -0.811756 20.660466 0.939881 1.610097 0.061325 -0.020770 103334.000000 1 0 0
0.819324 -19.999090 5.324844 20.712046 -1.529851 1.310787 0.047786 -0.022642 39229.500000 1 0 0
-18.277676 -9.366890 2.289044 20.665231 0.473579 1.459801 0.061784 0.001842 -158706.000000 1 0 0
-15.337176 -14.647190 -1.153956 21.239133 0.762391 1.625155 0.081588 -0.016412 -795.131000 1 0 0
10.136424 -15.548190 -5.098456 19.248053 -0.993061 1.838878 0.052619 -0.013605 -45378.800000 1 0 0
-0.187776 -19.176590 -6.912656 20.385330 1.561005 1.916756 0.019635 -0.009887 184066.000000 1 0 0
-10.537776 -18.085890 -2.284856 21.056227 1.043231 1.679523 0.067758 0.019913 463336.000000 1 0 0
-14.409776 -6.741690 -11.406956 19.575768 0.437603 2.192853 0.037946 -0.007018 -130545.000000 1 0 0
-12.402876 -15.247690 2.080444 19.764909 0.887922 1.465342 0.048187 -0.014777 31499.900000 1 0 0
-3.041376 -16.338190 10.359644 19.583376 1.386752 1.013372 0.021465 -0.006798 429979.000000 1 0 0
-12.706876 -14.443890 -6.750056 20.387592 0.849288 1.908251 0.061570 -0.017809 183598.000000 1 0 0
4.967124 -16.948190 -7.447656 19.167186 -1.285703 1.969868 0.029894 -0.017945 145286.000000 1 0 0
-17.787676 -7.388190 -3.068456 19.503902 0.393672 1.728778 0.033938 -0.012836 13099.400000 1 0 0
-11.961076 -13.642190 -9.271556 20.374946 0.850964 2.043221 0.049568 -0.028423 76549.400000 1 0 0
-7.929576 -14.029290 10.295644 19.123269 1.056346 1.002279 0.026257 0.000236 569259.000000 1 0 0
-16.062876 -8.456590 -5.614556 19.001398 0.484597 1.870756 0.059619 -0.005932 141463.000000 1 0 0
-0.774776 -19.796390 -0.012056 19.811549 1.531679 1.571405 0.022143 -0.015470 227628.000000 1 0 0
-15.051676 -11.353490 -1.843856 18.943455 0.646248 1.668285 0.029779 -0.010315 25664.600000 1 0 0
-6.842576 -19.225690 2.230844 20.528630 1.228868 1.461911 0.032827 -0.014952 105173.000000 1 0 0
-1.945976 -21.098690 -4.941856 21.756918 1.478824 1.799936 0.023219 -0.007705 54958.600000 1 0 0
-9.102376 -19.785590 -0.832656 21.794865 1.139616 1.609010 0.048368 -0.012602 265599.000000 1 0 0
-17.790776 -7.438990 4.948944 19.908348 0.396044 1.319576 0.050601 -0.003924 95145.900000 1 0 0
-3.166876 -15.690690 -10.692156 19.249651 1.371640 2.159696 0.015466 -0.000853 89004.900000 1 0 0
-3.221376 -18.600290 -7.873956 20.453538 1.399308 1.965969 0.009237 0.008194 242594.000000 1 0 0
4.293624 -16.794190 -4.754856 17.974667 -1.320497 1.838514 0.018545 -0.035268 598043.000000 1 0 0
0.517924 -17.412990 -8.893356 19.559454 -1.541062 2.042813 0.017137 -0.001059 55761.800000 1 0 0
-7.539476 -10.016490 -14.149656 18.904670 0.925565 2.416555 0.018777 -0.024162 44708.700000 1 0 0
-5.253776 -19.512190 -1.957756 20.301737 1.307778 1.667379 0.041164 -0.024625 474703.000000 1 0 0
-10.392276 -15.713190 8.432744 20.640128 0.986468 1.149920 0.033031 -0.020349 117089.000000 1 0 0
-7.175676 -15.248790 -10.151056 19.673837 1.130966 2.112933 0.023151 -0.009830 323653.000000 1 0 0
-12.524276 -8.220490 -12.610556 19.582137 0.580836 2.270489 0.042134 -0.000425 168667.000000 1 0 0
-15.626376 -12.844190 3.446244 20.519099 0.687986 1.402044 0.060997 -0.011645 143622.000000 1 0 0
-6.151676 -14.328490 -12.948956 20.268799 1.165262 2.263814 0.005246 0.000432 451264.000000 1 0 0
-14.043076 -11.192590 -6.625756 19.141126 0.672920 1.924264 0.055315 -0.035906 280231.000000 1 0 0
-11.712876 -10.667890 -7.651156 17.593622 0.738741 2.020704 0.041827 -0.012606 249524.000000 1 0 0
-9.592476 -14.735290 3.150844 17.862591 0.993728 1.393475 0.012680 -0.005641 363874.000000 1 0 0
4.864424 -18.165490 8.247144 20.534435 -1.309151 1.157506 0.050186 -0.023309 184703.000000 1 0 0
-4.993976 -16.747290 5.216444 18.237949 1.280995 1.280724 0.007007 0.006492 494660.000000 1 0 0
-18.474176 -7.378590 -6.651856 20.975842 0.379989 1.893487 0.061690 -0.029555 185322.000000 1 0 0
-17.137676 -4.773290 -10.752556 20.787056 0.271641 2.114456 0.073279 -0.011553 -137606.000000 1 0 0
-15.926476 -4.093590 -12.737856 20.800555 0.251585 2.229865 0.063037 -0.024602 397981.000000 1 0 0
-19.422876 -4.714990 -6.168356 20.917167 0.238148 1.870141 0.062365 -0.019974 255381.000000 1 0 0
5.290024 -13.456490 8.375044 16.709363 -1.196234 1.045790 0.022589 -0.012245 196756.000000 1 0 0
19.814324 -2.846190 2.765044 20.207763 -0.142667 1.433535 0.078667 -0.019659 -102650.000000 1 0 0
18.057024 -2.460690 0.028144 18.223937 -0.135439 1.569252 0.064886 -0.018004 184083.000000 1 0 0
14.248024 -11.278890 0.410644 18.176583 -0.669605 1.548202 0.052796 -0.012098 64591.600000 1 0 0
11.215524 -13.967490 5.433444 18.719002 -0.894245 1.276294 0.037852 -0.001854 568126.000000 1 0 0
11.065224 -12.219690 8.448344 18.523890 -0.834938 1.097213 0.079067 -0.029932 34075.900000 1 0 0
17.476724 4.714510 -4.429056 18.635424 0.263488 1.810761 0.021763 -0.009394 -134802.000000 1 0 0
18.863924 -6.036190 -4.359456 20.280238 -0.309690 1.787448 0.098423 -0.021516 -65706.000000 1 0 0
17.790024 -9.960990 -0.060256 20.388965 -0.510427 1.573752 0.080475 -0.013451 203444.000000 1 0 0
17.447024 -8.836490 8.792244 21.442615 -0.468815 1.148303 0.114125 -0.027745 -22994.900000 1 0 0
19.212024 0.491210 -2.850956 19.428615 0.025562 1.718068 0.049609 -0.009864 25882.700000 1 0 0
7.110624 -13.701290 11.449744 19.219338 -1.092084 0.932609 0.019144 -0.001767 175707.000000 1 0 0
16.342524 -6.743590 -3.390756 18.001425 -0.391356 1.760289 0.079950 -0.014339 171012.000000 1 0 0
14.469724 -6.825990 11.702944 19.822359 -0.440787 0.939253 0.085978 -0.037438 314527.000000 1 0 0
17.197024 1.298910 9.713644 19.793425 0.075388 1.057845 0.140046 -0.035107 421700.000000 1 0 0
16.604024 -10.655690 2.769244 19.922501 -0.570556 1.431344 0.036660 -0.006734 3042.970000 1 0 0
15.947224 -7.052490 -5.522856 18.290804 -0.416381 1.877531 0.076816 -0.015659 187152.000000 1 0 0
18.195424 -4.256290 6.237044 19.700004 -0.229789 1.248652 0.101949 -0.020763 6140.790000 1 0 0
13.287424 -13.431090 7.994144 20.514778 -0.790775 1.170515 0.061746 -0.019174 9860.610000 1 0 0
15.397824 -13.899590 -1.551056 20.801378 -0.734304 1.645431 0.073798 -0.018739 255955.000000 1 0 0
18.581924 -6.497390 8.284444 21.357340 -0.336374 1.172448 0.120365 -0.028990 44092.300000 1 0 0
19.654024 3.802510 2.413244 20.163419 0.191111 1.450824 0.075515 -0.009139 243570.000000 1 0 0
15.522624 -10.241690 8.224044 20.334182 -0.583228 1.154425 0.074465 -0.038610 135538.000000 1 0 0
14.037824 -4.254190 10.741244 18.180565 -0.294254 0.938735 0.060309 -0.017316 -286004.000000 1 0 0
18.684624 -7.915490 2.418544 20.435741 -0.400715 1.452170 0.100963 -0.020565 -61823.200000 1 0 0
19.133524 -5.775990 -1.208756 20.022859 -0.293179 1.631202 0.101112 -0.024276 135585.000000 1 0 0
14.886424 -13.466790 -5.991556 20.948956 -0.735370 1.860854 0.104138 -0.026614 685537.000000 1 0 0
13.755024 -9.671790 10.329044 19.734065 -0.612834 1.019946 0.045948 -0.020322 310322.000000 1 0 0
14.335224 2.219310 0.500344 14.514624 0.153596 1.536318 0.004623 0.001160 -83479.000000 1 0 0
13.060624 2.454110 13.524044 18.960546 0.185736 0.776639 0.070372 -0.016754 -318992.000000 1 0 0
18.451524 -3.462390 8.909444 20.780401 -0.185491 1.127696 0.107159 -0.028299 185907.000000 1 0 0
7.796924 -18.732890 4.986244 20.894396 -1.176389 1.329831 0.070153 -0.024053 191768.000000 1 0 0
12.235824 -2.782690 15.627744 20.042084 -0.223618 0.676536 0.073974 0.012142 119807.000000 1 0 0
11.348424 -13.780190 -6.683856 19.061854 -0.881871 1.929051 0.046113 -0.023104 145540.000000 1 0 0
10.656224 -17.639390 4.686844 21.134561 -1.027356 1.347175 0.050722 -0.012987 495448.000000 1 0 0
18.252624 -0.612990 -5.610756 19.105356 -0.033571 1.868865 0.088388 -0.012627 250610.000000 1 0 0
4.201424 -13.699490 11.577344 18.421804 -1.273218 0.891226 0.014442 -0.007749 11459.700000 1 0 0
9.142424 -2.615790 14.315544 17.186072 -0.278671 0.586336 0.029805 -0.001558 413752.000000 1 0 0
9.125724 -9.153990 13.890644 18.974307 -0.786944 0.749431 0.056680 -0.015244 329239.000000 1 0 0
20.905824 5.526110 -3.447656 21.896979 0.258423 1.728903 0.104568 -0.021295 276009.000000 1 0 0
14.725624 -13.545290 1.787544 20.087662 -0.743672 1.481691 0.046845 -0.010253 191007.000000 1 0 0
11.278024 -0.179390 15.183544 18.914703 -0.015905 0.638924 0.063520 -0.010026 50882.800000 1 0 0
19.700224 0.337610 7.421544 21.054503 0.017136 1.210564 0.122498 -0.025485 173803.000000 1 0 0
20.023224 1.120910 0.031744 20.054599 0.055922 1.569213 0.093682 -0.015671 152097.000000 1 0 0
17.666524 0.272010 2.931144 17.910099 0.015396 1.406398 0.041264 -0.004599 -64931.100000 1 0 0
10.430624 -8.491090 16.324644 21.151608 -0.683252 0.689142 0.081643 -0.003399 171804.000000 1 0 0
19.862824 2.199910 4.948144 20.587751 0.110306 1.328076 0.112199 -0.025473 213077.000000 1 0 0
16.444024 2.154710 7.538844 18.217652 0.130291 1.144149 0.076904 -0.008620 137845.000000 1 0 0
11.317124 -16.200290 2.005044 19.863204 -0.961027 1.469681 0.028869 0.000503 324596.000000 1 0 0
8.528424 -16.069390 6.774244 19.412616 -1.082872 1.214334 0.037011 -0.014991 402805.000000 1 0 0
6.199224 6.823710 7.163144 11.674932 0.833314 0.910249 0.000161 0.002362 -1034370.000000 1 0 0
18.460624 2.602210 -6.341256 19.692071 0.140037 1.898660 0.074662 -0.012640 243446.000000 1 0 0
14.171524 4.516110 -6.959656 16.421454 0.308501 2.008449 0.023922 -0.013238 220928.000000 1 0 0
-10.542876 -3.965790 -13.754956 17.778598 0.359786 2.455426 0.024923 -0.008524 -333385.000000 1 0 0
7.636724 -14.327890 -10.450556 19.308602 -1.081101 2.142705 0.027979 -0.003760 -141492.000000 1 0 0
1.920224 -15.950890 13.666844 21.092671 -1.450989 0.865916 0.011295 -0.007100 416575.000000 1 0 0
-9.443976 -8.116090 2.393744 12.680284 0.709922 1.380880 0.011590 -0.001577 469229.000000 1 0 0
-13.766376 3.243210 -9.525156 17.051690 -0.231370 2.163499 0.023821 -0.009969 276684.000000 1 0 0
-12.982876 -4.542990 -13.719456 19.427231 0.336605 2.354909 0.043940 -0.000769 226886.000000 1 0 0
-18.022976 -1.284190 -8.887356 20.136085 0.071133 2.027915 0.070908 -0.033686 543112.000000 1 0 0
-12.323176 15.333310 4.057344 20.085645 -0.893811 1.367395 0.037340 -0.020402 375241.000000 1 0 0
-17.573276 6.421310 9.367544 20.923770 -0.350330 1.106606 0.056953 -0.014871 97485.100000 1 0 0
-13.544876 15.113110 0.390944 20.298340 -0.840066 1.551535 0.056053 -0.052015 102508.000000 1 0 0
-16.138776 5.249410 -10.818656 20.126096 -0.314473 2.138318 0.062493 -0.010753 97139.500000 1 0 0
-18.245876 3.005710 -0.025056 18.491807 -0.163267 1.572151 0.064476 -0.007022 -11093.100000 1 0 0
-9.913376 15.530310 -0.352256 18.427959 -1.002673 1.589913 0.027603 -0.018213 -42062.900000 1 0 0
-18.683676 12.022010 2.818944 22.395422 -0.571757 1.444590 0.134758 -0.035816 59574.600000 1 0 0
-8.579976 16.243910 -7.733956 19.932253 -1.084847 1.969270 0.069184 -0.033529 132206.000000 1 0 0
-15.004776 -1.767790 -12.627256 19.690505 0.117275 2.266970 0.055242 -0.036206 72449.400000 1 0 0
-19.077576 5.197510 -4.861756 20.361844 -0.265985 1.811893 0.076162 -0.013392 56622.900000 1 0 0
-16.565576 10.076710 -5.424556 20.134156 -0.546494 1.843588 0.048376 0.006385 193104.000000 1 0 0
-19.032376 1.344710 2.488644 19.241438 -0.070537 1.441095 0.071734 -0.017587 38786.600000 1 0 0
-13.735576 12.713410 -7.217056 20.059481 -0.746771 1.938831 0.054434 0.003624 -86975.700000 1 0 0
-12.758976 4.958310 -13.573456 19.277319 -0.370652 2.351973 0.058216 -0.029441 11097.600000 1 0 0
-14.061776 9.113510 -6.800056 18.083982 -0.575042 1.956301 0.037134 -0.013986 361973.000000 1 0 0
-6.414776 11.188810 -15.469156 20.140348 -1.050225 2.446615 0.019184 -0.032349 -72827.000000 1 0 0
-15.212576 13.666310 2.741944 20.632711 -0.731906 1.437509 0.060241 -0.038037 -42527.000000 1 0 0
-18.828176 8.470410 -5.040056 21.252064 -0.422754 1.810234 0.082098 -0.018505 348826.000000 1 0 0
-4.708176 16.351610 -11.070756 20.300338 -1.290446 2.147601 0.026912 -0.003120 115506.000000 1 0 0
-19.640176 -2.002890 -6.772956 20.871536 0.101628 1.901287 0.068175 -0.022562 -343066.000000 1 0 0
-11.025876 13.183410 -6.241556 18.284673 -0.874283 1.919154 0.047601 -0.035245 173322.000000 1 0 0
-19.427676 3.001310 4.440744 20.153478 -0.153275 1.348627 0.071549 -0.015164 -41317.500000 1 0 0
-15.226776 12.066510 0.367544 19.431688 -0.670122 1.551881 0.034418 -0.025189 167770.000000 1 0 0
-17.222576 2.408410 -8.283756 19.262352 -0.138939 2.015343 0.029557 -0.022315 84915.300000 1 0 0
-16.884876 13.954410 -3.372956 22.163065 -0.690659 1.723578 0.064123 0.025316 334455.000000 1 0 0
-11.005776 15.748410 -8.668256 21.077908 -0.960843 1.994620 0.066552 -0.010943 112012.000000 1 0 0
-19.060676 1.668910 -6.905856 20.341718 -0.087335 1.917173 0.066053 -0.027692 221072.000000 1 0 0
-17.758276 10.537110 -1.090456 20.677915 -0.535525 1.623556 0.082536 -0.010862 130813.000000 1 0 0
-11.791976 6.901810 -14.461056 19.894920 -0.529538 2.384552 0.049814 -0.025725 313396.000000 1 0 0
-13.536076 12.416310 -4.780456 18.980066 -0.742278 1.825406 0.060404 -0.025178 190074.000000 1 0 0
-18.814076 7.212810 -0.009856 20.149298 -0.366091 1.571285 0.062775 -0.013061 116083.000000 1 0 0
-14.621776 8.742410 -9.996656 19.752448 -0.538876 2.101450 0.048487 -0.016596 594854.000000 1 0 0
-18.485276 11.241110 5.098344 22.227486 -0.546363 1.339365 0.086674 -0.037024 44836.900000 1 0 0
-8.041576 12.124110 -13.371456 19.759981 -0.985148 2.314059 0.001956 -0.005017 371132.000000 1 0 0
-21.164176 -1.450090 -5.093156 21.816630 0.068409 1.806424 0.098491 -0.034456 76809.900000 1 0 0
-10.463576 13.081310 -3.100756 17.035897 -0.896124 1.753830 0.028012 -0.017821 469714.000000 1 0 0
-18.654776 -4.791190 3.845744 19.640415 0.251401 1.373715 0.045464 -0.009570 -65492.400000 1 0 0
-10.642676 11.250210 -13.507856 20.549841 -0.813141 2.288056 0.027637 -0.013792 347684.000000 1 0 0
-14.819676 11.401610 -10.057756 21.231533 -0.655774 2.064304 0.069986 -0.019454 286323.000000 1 0 0
-12.758676 9.874010 -13.766156 21.208181 -0.658626 2.277192 0.076359 -0.030744 149633.000000 1 0 0
-18.536676 -4.817890 -3.055356 19.394732 0.254285 1.728991 0.051894 -0.015489 -286062.000000 1 0 0
-9.341576 12.592510 -11.476756 19.430705 -0.932541 2.202661 0.031606 -0.012142 83161.300000 1 0 0
-16.248176 7.137110 -8.392956 19.631182 -0.413883 2.012557 0.056523 -0.004076 104041.000000 1 0 0
-14.705576 9.035810 1.857144 17.359402 -0.550975 1.463609 0.025702 -0.005239 -13980.400000 1 0 0
-19.799776 6.160410 7.820144 22.161598 -0.301641 1.210161 0.084567 -0.024931 193462.000000 1 0 0
-18.767176 5.866310 3.575444 19.985102 -0.302961 1.390922 0.040993 -0.007826 97200.800000 1 0 0
-14.411076 12.856810 5.757844 20.152654 -0.728460 1.281048 0.028146 -0.016060 98891.500000 1 0 0
18.207924 6.257310 5.829744 20.116370 0.331014 1.276777 0.060430 -0.014737 202060.000000 1 0 0
18.343724 7.561910 0.346544 19.844263 0.391008 1.553332 0.055118 -0.008004 105026.000000 1 0 0
15.727624 6.031710 9.053344 19.123355 0.366211 1.077629 0.032356 0.012431 -337577.000000 1 0 0
12.315024 13.083810 10.639244 20.881557 0.815658 1.036188 0.053128 -0.014401 168750.000000 1 0 0
15.364424 12.329910 4.201344 20.143076 0.676262 1.360679 0.058342 -0.010337 172282.000000 1 0 0
4.919224 10.381310 14.267744 18.317720 1.128284 0.677880 0.030376 -0.007774 305764.000000 1 0 0
12.625124 14.498310 -5.019056 19.869214 0.854350 1.826168 0.060496 0.024481 299048.000000 1 0 0
18.208024 9.252910 -2.986556 20.641415 0.470168 1.715994 0.075040 -0.007690 -62742.600000 1 0 0
14.381124 7.988110 9.452144 18.972866 0.507024 1.049283 0.040964 -0.011162 82010.100000 1 0 0
5.018124 18.660310 -2.401856 19.471971 1.308092 1.694461 0.031279 -0.014941 52906.400000 1 0 0
-4.386076 18.423810 3.009944 19.176397 -1.337081 1.413184 0.005410 -0.041546 232743.000000 1 0 0
7.111724 12.600810 12.694244 19.248399 1.056975 0.850648 0.047236 -0.008848 -81685.900000 1 0 0
0.158524 17.230910 -10.219856 20.034342 1.561597 2.106117 0.025524 0.002092 54214.900000 1 0 0
10.818724 9.675110 15.589144 21.299623 0.729653 0.749694 0.060503 -0.008736 308891.000000 1 0 0
-1.356276 12.261110 0.621144 12.351524 -1.460628 1.520486 -0.005319 0.005679 572445.000000 1 0 0
-4.871676 19.213210 -2.689956 20.002914 -1.322471 1.705683 0.027467 0.003308 44235.700000 1 0 0
6.508224 17.978610 6.148844 20.084713 1.223473 1.259655 0.038891 -0.037724 112775.000000 1 0 0
11.253624 17.357110 -1.599056 20.747778 0.995576 1.647944 0.040207 -0.008793 414758.000000 1 0 0
18.505124 10.493610 3.198144 21.512405 0.515851 1.421578 0.054059 -0.006139 229877.000000 1 0 0
11.566724 16.859710 6.335144 21.404976 0.969489 1.270330 0.047816 -0.001140 -14859.000000 1 0 0
18.162324 7.329010 -5.569256 20.361754 0.383544 1.847842 0.058208 0.003615 590398.000000 1 0 0
0.095424 15.263010 11.061444 18.850043 1.564544 0.943679 -0.000376 -0.005867 280454.000000 1 0 0
1.391324 20.167210 -1.972156 20.311119 1.501916 1.668047 0.029659 -0.009515 320869.000000 1 0 0
14.000824 9.596910 -1.415856 17.033156 0.600896 1.654016 0.030327 -0.012165 -492779.000000 1 0 0
9.920624 17.341110 1.473244 20.032557 1.051154 1.497187 0.034890 -0.018753 245152.000000 1 0 0
0.468924 17.805010 -0.503556 17.818301 1.544466 1.599061 0.010446 0.000051 216426.000000 1 0 0
-0.065876 21.060410 0.887544 21.079207 -1.567668 1.528679 0.023049 -0.007221 260877.000000 1 0 0
5.521824 18.391210 0.420544 19.206874 1.279117 1.548899 0.011403 0.001124 -106413.000000 1 0 0
7.851324 18.514310 -2.085856 20.218155 1.169715 1.674148 0.022164 -0.006498 -50408.100000 1 0 0
9.873624 9.622910 12.534144 18.633132 0.772539 0.832971 0.023879 -0.012880 22847.000000 1 0 0
12.449924 14.877010 8.041744 20.999897 0.873982 1.177817 0.046440 -0.017747 240804.000000 1 0 0
0.435524 17.558310 6.929644 18.881311 1.545997 1.195003 0.001077 -0.008959 219740.000000 1 0 0
7.514324 17.868010 -7.987456 20.964978 1.172704 1.961664 0.049444 -0.016491 35455.700000 1 0 0
-0.948076 18.659410 9.626744 21.017770 -1.520030 1.095020 0.024221 -0.005486 118238.000000 1 0 0
16.285624 6.979310 -7.982656 19.433351 0.404879 1.994096 0.071718 0.000339 -181071.000000 1 0 0
-5.317676 19.441910 -6.757556 21.258648 -1.303810 1.894282 0.033480 -0.019570 293191.000000 1 0 0
3.758924 15.561310 9.664044 18.699669 1.333781 1.027684 0.024415 -0.014240 170615.000000 1 0 0
9.239924 14.874610 7.470244 19.037720 1.014943 1.167566 0.025220 -0.008046 37733.500000 1 0 0
-2.488076 19.543610 6.358844 20.702129 -1.444169 1.258590 0.009451 -0.005394 149395.000000 1 0 0
4.843924 18.218910 8.151144 20.538584 1.310935 1.162692 0.034787 -0.015683 73028.100000 1 0 0
15.116824 12.127010 -6.471356 20.431867 0.676093 1.893075 0.088188 -0.009374 129407.000000 1 0 0
12.171024 6.391710 15.550744 20.756045 0.483571 0.723920 0.088982 -0.025719 315006.000000 1 0 0
17.207224 9.856610 4.850244 20.414852 0.520193 1.330918 0.064872 -0.016912 1991.580000 1 0 0
5.047024 14.773410 11.879444 19.617525 1.241598 0.920336 0.023444 -0.028926 382938.000000 1 0 0
15.776024 10.899710 -3.715456 19.531800 0.604595 1.762189 0.063668 -0.017479 208468.000000 1 0 0
15.196624 14.443810 6.645344 21.993672 0.760005 1.263851 0.072078 0.005344 245915.000000 1 0 0
12.931924 13.768110 -8.178356 20.583513 0.816706 1.979397 0.131971 -0.036734 561974.000000 1 0 0
-8.389976 15.492410 9.618944 20.073130 -1.074461 1.071059 0.036304 -0.021337 111310.000000 1 0 0
-3.864076 17.654510 -8.145556 19.823292 -1.355322 1.994247 0.011893 0.036767 90925.700000 1 0 0
2.715424 19.086210 -4.832356 19.874824 1.429473 1.816398 0.034019 -0.026252 73464.200000 1 0 0
7.163624 16.369310 8.974944 19.995536 1.158281 1.105321 0.034323 -0.021459 495755.000000 1 0 0
13.639824 15.220210 -1.545556 20.496057 0.840104 1.646275 0.079660 -0.021201 215473.000000 1 0 0
12.343324 16.674510 3.918444 21.112819 0.933564 1.384118 0.047051 -0.022440 467608.000000 1 0 0
2.244924 18.522210 0.933344 18.681089 1.450183 1.520814 0.013536 -0.012859 -313279.000000 1 0 0
-7.712276 17.013510 1.279444 18.723667 -1.145199 1.502410 0.024356 -0.011467 108141.000000 1 0 0
0.543824 19.807510 -6.009756 20.706289 1.543348 1.865272 0.035539 -0.002678 273897.000000 1 0 0
-7.350676 17.936410 -6.585456 20.472310 -1.181854 1.898296 0.057979 -0.022523 50798.000000 1 0 0
-7.509676 18.428610 -1.412856 19.950065 -1.183840 1.641675 0.048291 -0.019053 44407.300000 1 0 0
-14.585276 -9.028390 8.846544 19.300348 0.554278 1.094645 0.050982 -0.010551 441274.000000 1 0 0
-13.393776 -13.692690 7.774544 20.671878 0.796433 1.185220 0.058604 -0.009214 10631.300000 1 0 0
-3.334276 -15.360190 13.004744 20.400397 1.357040 0.879580 0.008261 0.003737 -46899.900000 1 0 0
-2.056776 -14.796790 15.499144 21.526699 1.432680 0.766999 0.012021 0.009620 444434.000000 1 0 0
-7.627076 -13.496190 13.716144 20.699083 1.056413 0.846451 0.023908 -0.010133 280373.000000 1 0 0
-9.948276 -11.337790 11.562444 19.005362 0.850584 0.916781 0.043268 -0.013480 23268.600000 1 0 0
-7.688676 -10.482090 13.425644 18.687907 0.937935 0.769277 0.029779 -0.005234 412519.000000 1 0 0
-15.176576 -12.130190 8.039944 21.026428 0.674296 1.178433 0.056489 0.004073 374274.000000 1 0 0
-4.631076 -11.569890 12.763544 17.838645 1.190057 0.773457 0.016710 -0.029171 163007.000000 1 0 0
3.449624 -12.391590 13.783844 18.853269 -1.299287 0.750846 0.005330 -0.004330 479671.000000 1 0 0
6.323224 -13.627990 14.472044 20.860137 -1.136371 0.804092 0.028581 -0.009484 365816.000000 1 0 0
7.134324 -9.132490 16.417544 20.095688 -0.907623 0.614662 0.050268 -0.009175 493949.000000 1 0 0
-5.323476 13.454510 13.096344 19.516082 -1.194033 0.835167 0.004555 -0.017023 458451.000000 1 0 0
-13.803876 -1.495890 17.037044 21.978297 0.107946 0.683803 0.061377 -0.026424 286421.000000 1 0 0
-10.496876 9.913410 12.557944 19.135362 -0.756819 0.854933 0.017912 -0.008575 489412.000000 1 0 0
-7.524976 -8.288690 17.071744 20.414996 0.833655 0.580414 0.027453 -0.016929 194305.000000 1 0 0
-4.747276 1.626810 18.451844 19.122073 -0.330141 0.265544 0.011888 -0.013573 462206.000000 1 0 0
-15.706876 -3.672490 13.507044 21.038854 0.229688 0.873686 0.082556 -0.032714 -112233.000000 1 0 0
-14.557476 3.202910 12.865644 19.690189 -0.216568 0.858724 0.044970 -0.004499 356065.000000 1 0 0
-14.481276 10.657110 9.398044 20.288041 -0.634431 1.089159 -0.013342 -0.000031 -87363.200000 1 0 0
-3.664676 11.256610 15.643344 19.617730 -1.256060 0.647808 -0.018685 -0.011385 177432.000000 1 0 0
-13.158776 13.160910 8.078744 20.288644 -0.785479 1.161253 0.008475 -0.017736 113255.000000 1 0 0
-4.051876 -6.255690 18.606344 20.043637 0.996032 0.381004 0.027014 -0.022736 304970.000000 1 0 0
0.189324 -2.717990 17.917044 18.123018 -1.501253 0.150910 0.005912 -0.023268 3939.320000 1 0 0
-4.101576 6.760210 21.288744 22.709777 -1.025448 0.355633 0.050824 -0.010713 265173.000000 1 0 0
2.116424 -10.573590 16.392044 19.620885 -1.373246 0.581866 0.007476 -0.006315 460530.000000 1 0 0
-14.848476 -0.102690 14.120944 20.491189 0.006916 0.810519 0.038256 -0.013316 65347.400000 1 0 0
-14.350076 -5.908990 7.777244 17.358755 0.390615 1.106236 0.045443 -0.008778 118682.000000 1 0 0
9.893924 1.909310 16.829844 19.615780 0.190635 0.539482 0.052422 -0.000630 364695.000000 1 0 0
-7.615976 12.212010 11.656744 18.520690 -1.013171 0.890028 0.008466 -0.019189 136123.000000 1 0 0
-1.677276 7.510510 19.775844 21.220392 -1.351078 0.371107 0.058605 -0.037713 526098.000000 1 0 0
1.027424 -13.579990 15.570544 20.686071 -1.495283 0.718633 -0.001781 0.002179 532514.000000 1 0 0
-3.447076 -11.328090 17.495244 21.125612 1.275404 0.594992 0.021988 -0.027027 518802.000000 1 0 0
-2.334776 8.473610 16.742244 18.909151 -1.301933 0.483433 0.025525 -0.021796 597206.000000 1 0 0
-4.115476 -9.340390 20.526044 22.923754 1.155778 0.461456 0.031082 -0.025028 151423.000000 1 0 0
-6.712976 -3.234690 19.134344 20.534127 0.449028 0.371369 0.030859 -0.022194 193157.000000 1 0 0
-10.868476 -8.066090 15.831544 20.828427 0.638461 0.707340 0.056811 -0.023753 286290.000000 1 0 0
-0.631076 5.030110 17.843644 18.549822 -1.445989 0.276815 0.024769 -0.033820 71513.700000 1 0 0
-6.419976 -11.003290 19.036344 22.905695 1.042628 0.589759 0.058561 -0.018453 500950.000000 1 0 0
0.902624 3.354110 19.214444 19.525871 1.307914 0.178841 0.021212 -0.002161 11474.600000 1 0 0
-18.148576 -1.029090 7.604444 19.704249 0.056643 1.174582 0.038367 -0.018475 144475.000000 1 0 0
-1.657776 -8.249090 17.061144 19.023100 1.372473 0.458167 0.016550 -0.032258 33213.300000 1 0 0
5.302424 3.460410 14.181044 15.530362 0.578207 0.419930 0.018326 -0.009817 -53508.800000 1 0 0
-13.726176 -6.763390 10.219044 18.400549 0.457820 0.981993 0.036060 -0.012271 88164.900000 1 0 0
3.453624 8.028310 17.339944 19.417902 1.164546 0.466857 0.034300 0.000166 242034.000000 1 0 0
6.562824 3.988010 16.795944 18.468314 0.546038 0.428845 0.051227 -0.047527 346195.000000 1 0 0
5.761124 -9.611690 18.113744 21.299832 -1.030828 0.554019 0.043519 0.005198 383619.000000 1 0 0
-4.481976 -0.287190 20.053844 20.550602 0.063989 0.220320 0.027060 -0.011086 890569.000000 1 0 0
-11.362276 2.217710 16.739644 20.352770 -0.192758 0.605048 0.051205 -0.017558 194101.000000 1 0 0
-16.686476 -3.725090 8.765744 19.213356 0.219639 1.097040 0.042979 -0.017943 225200.000000 1 0 0
-13.541276 -9.485590 11.781044 20.301122 0.611058 0.951681 0.072973 -0.030843 121566.000000 1 0 0
-14.842076 6.202810 12.672744 20.478294 -0.395859 0.903534 0.046134 -0.026136 -176273.000000 1 0 0
1.234124 9.743310 17.389544 19.971264 1.444804 0.514115 0.018911 -0.006338 215043.000000 1 0 0
-4.027276 -10.433390 15.117544 18.804646 1.202418 0.636929 0.019729 -0.012107 761877.000000 1 0 0
-19.015176 -3.358690 6.772644 20.462806 0.174829 1.233461 0.135777 -0.018266 -311249.000000 1 0 0
-0.464476 -0.537290 20.803644 20.815764 0.857955 0.034126 0.029876 -0.028553 409667.000000 1 0 0
-1.860376 2.935310 20.468344 20.761265 -1.005900 0.168181 0.030693 -0.015327 38025.100000 1 0 0
-8.053176 2.075710 16.525044 18.499711 -0.252260 0.466252 0.006987 0.008316 516948.000000 1 0 0
2.765824 -2.833390 18.597744 19.014572 -0.797465 0.209772 0.014160 -0.013666 -307502.000000 1 0 0
-12.214876 4.324010 14.385144 19.360595 -0.340230 0.733238 0.011536 -0.015759 244802.000000 1 0 0
-13.345976 -5.582190 13.329944 19.671383 0.396154 0.826260 0.038737 -0.011404 -109415.000000 1 0 0
-17.470376 -0.854890 10.056544 20.176198 0.048895 1.049003 0.072410 -0.024048 237813.000000 1 0 0
-7.648676 7.825210 14.341244 18.039053 -0.796806 0.651771 0.008920 -0.018100 7278.580000 1 0 0
-9.440276 0.981810 14.159644 17.046357 -0.103630 0.590513 0.009704 -0.008364 218673.000000 1 0 0
7.395024 -0.980590 15.254344 16.980664 -0.131832 0.454829 0.027845 -0.003514 196572.000000 1 0 0
4.244824 6.245310 18.409244 19.897806 0.973837 0.389261 0.028888 -0.012444 -62990.900000 1 0 0
1.405324 0.574410 20.092444 20.149719 0.388017 0.075417 0.000599 -0.007103 148015.000000 1 0 0
-7.229176 6.667810 17.177744 19.793827 -0.745025 0.519971 0.018535 -0.018777 691390.000000 1 0 0
7.463924 -3.136990 17.006344 18.835249 -0.397872 0.444328 0.030537 0.008589 379529.000000 1 0 0
-16.466176 2.492110 8.897644 18.881569 -0.150207 1.080107 0.047124 -0.026696 240338.000000 1 0 0
3.519824 -5.949490 18.954644 20.175830 -1.036563 0.349708 0.020147 -0.024432 138045.000000 1 0 0
-3.810876 -3.657390 20.854344 21.512855 0.764849 0.248063 0.026363 -0.019556 482542.000000 1 0 0
-9.425876 5.870610 14.603944 18.346291 -0.557029 0.650112 0.009616 -0.008628 -206132.000000 1 0 0
6.435124 2.442210 20.047944 21.196586 0.362721 0.330716 0.072129 -0.013533 -236981.000000 1 0 0
-7.163776 11.403410 14.329744 19.664664 -1.009890 0.754367 0.005339 -0.023479 366991.000000 1 0 0
-14.418976 4.994910 8.697744 17.564360 -0.333475 1.052740 0.012373 -0.019421 293003.000000 1 0 0
0.837524 -5.575890 20.362644 21.128872 -1.421706 0.270133 0.032925 -0.025942 169154.000000 1 0 0
-5.983576 -7.936490 13.687144 16.915347 0.924783 0.628083 0.010854 -0.012909 172630.000000 1 0 0
-12.615476 10.287510 6.459544 17.513104 -0.684101 1.193035 -0.018645 -0.009759 53666.300000 1 0 0
-19.574576 2.578610 7.854244 21.248586 -0.130978 1.192179 0.058223 -0.030174 -113021.000000 1 0 0
-15.334476 9.039910 6.300044 18.882709 -0.532675 1.230633 -0.001251 -0.011707 113141.000000 1 0 0
-12.946076 7.582610 14.283344 20.714989 -0.529844 0.809974 0.021907 -0.012814 235727.000000 1 0 0
-16.462376 8.804910 10.504744 21.421623 -0.491138 1.058270 0.037933 -0.024945 212531.000000 1 0 0
1.689424 11.326710 14.174344 18.222528 1.422734 0.679563 -0.000343 -0.038559 4683.090000 1 0 0
1.562724 14.913410 12.963344 19.821710 1.466391 0.857940 0.017396 -0.017585 666979.000000 1 0 0
8.739924 5.354410 16.739844 19.628509 0.549660 0.549409 0.049655 -0.008162 211439.000000 1 0 0
-0.718176 13.296410 13.404244 18.894022 -1.516836 0.782088 -0.003829 0.004548 166234.000000 1 0 0
3.916924 12.549310 14.694344 19.716775 1.268255 0.729855 0.027193 -0.004965 92727.500000 1 0 0
-3.648376 -4.644790 -13.865356 15.070926 0.904974 2.738894 0.003724 -0.008734 89316.800000 1 0 0
5.788724 -12.489290 16.635944 21.592737 -1.136777 0.691263 0.015664 0.008492 218856.000000 1 0 0
8.891124 -13.381090 7.407544 17.691166 -0.984327 1.138767 0.019468 -0.017040 148976.000000 1 0 0
-0.411776 15.182110 0.454644 15.194497 -1.543681 1.540870 0.002076 -0.003223 -121917.000000 1 0 0
-13.833676 7.726810 8.537944 17.999186 -0.509384 1.076569 -0.007654 -0.003184 171468.000000 1 0 0
-16.389876 -9.401890 4.725044 19.476899 0.520812 1.325754 0.049821 -0.007409 232366.000000 1 0 0
8.456724 -11.117690 11.334044 17.988322 -0.920511 0.889143 -0.005321 0.004599 71344.700000 1 0 0
-26.385476 5.645610 31.398363 41.399559 -0.210788 0.709907 0.068091 -0.029961 763741.000000 0 0 1
-25.146556 5.084010 30.933793 40.188257 -0.199486 0.692390 0.059282 -0.024092 1513500.000000 0 0 1
-23.970076 5.573410 31.605793 40.056880 -0.228456 0.661579 0.054002 -0.019996 1575090.000000 0 0 1
-22.610176 4.903210 31.185493 38.830356 -0.213552 0.638280 0.048991 -0.023163 535635.000000 0 0 1
-22.408776 3.681510 31.832519 39.102635 -0.162834 0.619660 0.027745 -0.019844 692607.000000 0 0 1
-21.141076 3.081110 31.516923 38.075646 -0.144722 0.595720 0.041052 -0.007904 593089.000000 0 0 1
-20.871076 1.809310 32.308856 38.506332 -0.086474 0.575256 0.038528 -0.001181 -66509.100000 0 0 1
-21.647276 0.701310 31.891890 38.551123 -0.032386 0.596579 0.034590 0.005184 271508.000000 0 0 1
-21.801276 -0.369990 32.864300 39.439761 0.016969 0.585785 0.038399 0.009559 -200111.000000 0 0 1
-22.495176 -1.582990 32.239307 39.343510 0.070254 0.610378 0.042284 -0.012455 -316088.000000 0 0 1
-21.626276 -2.500090 31.581233 38.357797 0.115093 0.603538 0.062263 -0.011969 319194.000000 0 0 1
-21.991876 -3.913090 31.767302 38.834474 0.176090 0.612839 0.072428 -0.017366 947388.000000 0 0 1
-23.426576 -4.445390 31.313033 39.358252 0.187529 0.650815 0.049610 -0.012873 2385740.000000 0 0 1
-24.589476 -4.112790 32.139212 40.675378 0.165724 0.659760 0.029713 -0.008145 1288880.000000 0 0 1
-24.669376 -4.686290 33.424644 41.806056 0.187727 0.644306 0.014878 -0.011221 -307236.000000 0 0 1
-25.648816 -4.035490 -33.300256 42.226224 0.156057 2.479350 0.020284 -0.004544 173756.000000 0 0 1
-25.625396 -4.531690 -31.982506 41.232000 0.175034 2.458575 0.024146 -0.012092 100944.000000 0 0 1
-26.771786 -4.183590 -31.234906 41.350337 0.155015 2.427019 0.032376 -0.010567 -11935.400000 0 0 1
-26.837536 -5.022590 -29.942816 40.522241 0.185008 2.402267 0.026290 -0.003693 -475982.000000 0 0 1
-26.948886 -6.439890 -30.043436 40.869582 0.234568 2.396618 0.027424 -0.005204 502569.000000 0 0 1
-26.784726 -7.000090 -28.732326 39.899491 0.255629 2.374768 0.020718 0.003871 -231493.000000 0 0 1
-26.957086 -8.532390 -28.659266 40.259654 0.306541 2.362940 0.028415 -0.002861 475942.000000 0 0 1
-28.310516 -8.959790 -28.881796 41.423681 0.306509 2.342321 0.043419 -0.001361 597677.000000 0 0 1
-28.478586 -10.268990 -28.418316 41.522075 0.346075 2.324597 0.052484 -0.000089 304276.000000 0 0 1
-29.937266 -10.474690 -27.939636 42.267982 0.336575 2.292963 0.106759 -0.009431 351859.000000 0 0 1
-29.999846 -11.518090 -26.952266 41.941409 0.366584 2.268705 0.126775 -0.016268 -36009.400000 0 0 1
-31.197186 -11.348290 -26.210036 42.296739 0.348880 2.239119 0.118080 -0.020853 216686.000000 0 0 1
-31.149326 -12.167690 -24.916256 41.703154 0.372398 2.211135 0.122780 -0.021168 54910.100000 0 0 1
-30.661116 -11.300790 -23.861956 40.462388 0.353122 2.201523 0.129135 -0.019319 445228.000000 0 0 1
-30.928886 -11.967590 -22.650356 40.160401 0.369196 2.170015 0.138254 -0.022378 -110370.000000 0 0 1
-30.346606 -11.065390 -21.510156 38.807811 0.349651 2.158287 0.149436 -0.028956 -17422.100000 0 0 1
-30.330526 -11.535790 -20.186956 38.216861 0.363441 2.127301 0.154128 -0.028378 106414.000000 0 0 1
-29.398006 -12.563790 -19.906356 37.661049 0.403875 2.127707 0.145013 -0.035028 -126585.000000 0 0 1
-29.205956 -12.912290 -18.452656 36.881101 0.416275 2.094774 0.137759 -0.040155 459518.000000 0 0 1
-28.509386 -11.817490 -17.790756 35.622313 0.392954 2.093734 0.125230 -0.042837 491898.000000 0 0 1
-28.031136 -12.062090 -16.471756 34.677909 0.406360 2.065752 0.132989 -0.050927 4098.900000 0 0 1
-27.650516 -10.819790 -15.724056 33.598584 0.372988 2.057820 0.122861 -0.041533 -421170.000000 0 0 1
-26.293346 -10.523690 -15.928756 32.493282 0.380715 2.083135 0.122087 -0.041467 -287631.000000 0 0 1
-25.956486 -9.273290 -15.335256 31.542086 0.343130 2.078514 0.118250 -0.047318 -1805280.000000 0 0 1
-24.562676 -8.889690 -15.601956 30.426513 0.347253 2.109210 0.131624 -0.045462 -1921520.000000 0 0 1
-23.636876 -9.606490 -14.836156 29.514371 0.386028 2.097487 0.137404 -0.053744 38980.300000 0 0 1
-22.330776 -9.125890 -15.131756 28.476578 0.387957 2.131020 0.145762 -0.068422 402797.000000 0 0 1
-21.262576 -9.468590 -14.051956 27.188395 0.418953 2.113948 0.113695 -0.033561 170297.000000 0 0 1
-20.513076 -10.660390 -14.256156 27.160048 0.479273 2.123387 0.112369 -0.037157 904786.000000 0 0 1
-19.370776 -10.681590 -13.378356 25.851571 0.503939 2.114731 0.109717 -0.028038 1094800.000000 0 0 1
-18.169276 -11.551090 -13.869756 25.610943 0.566291 2.143083 0.099160 -0.021270 548339.000000 0 0 1
-17.478376 -11.264990 -15.092656 25.694005 0.572506 2.198639 0.098433 -0.024011 519716.000000 0 0 1
-18.294076 -11.363390 -16.251056 26.979560 0.555827 2.217234 0.102797 -0.028864 -137420.000000 0 0 1
-17.644076 -10.627590 -17.445056 26.992389 0.542132 2.273516 0.105919 -0.033965 86434.000000 0 0 1
-18.496576 -10.592890 -18.576556 28.274036 0.520100 2.287653 0.079601 -0.022028 150613.000000 0 0 1
-17.841776 -10.267490 -19.762556 28.536099 0.522191 2.335809 0.087692 -0.030582 -687045.000000 0 0 1
-18.554276 -10.656690 -21.079856 30.036420 0.521347 2.348731 0.090671 -0.027635 -876702.000000 0 0 1
-19.763376 -9.984790 -21.069556 30.564902 0.467812 2.331372 0.082798 -0.033065 -1067420.000000 0 0 1
-20.706876 -10.590890 -21.886356 31.936723 0.472779 2.325817 0.092416 -0.021684 -900461.000000 0 0 1
-22.006576 -9.826990 -21.968256 32.610787 0.419979 2.309933 0.079942 -0.015064 -709044.000000 0 0 1
-21.835776 -8.625390 -22.737756 32.683391 0.376199 2.340187 0.076169 -0.027517 354362.000000 0 0 1
-22.897876 -8.350590 -23.630556 33.947729 0.349700 2.340728 0.062017 -0.027710 84597.300000 0 0 1
-22.302776 -7.422690 -24.739656 34.125661 0.321284 2.381769 0.072583 -0.030541 11471.000000 0 0 1
-21.404476 -8.010090 -25.616476 34.329535 0.358091 2.413122 0.079080 -0.033857 -213697.000000 0 0 1
-20.764576 -7.168890 -26.502756 34.423200 0.332433 2.449496 0.073542 -0.041423 542837.000000 0 0 1
-19.568576 -7.902490 -27.265786 34.479003 0.383809 2.482901 0.093467 -0.042463 691720.000000 0 0 1
-19.955676 -8.782590 -28.310556 35.733045 0.414595 2.485332 0.086080 -0.034306 450389.000000 0 0 1
-18.777876 -9.388590 -28.817936 35.654280 0.463633 2.511988 0.065642 -0.023115 173643.000000 0 0 1
-19.050576 -10.602190 -29.730096 36.867459 0.507842 2.508844 0.065038 -0.021230 -133788.000000 0 0 1
-19.690776 -10.176790 -30.910406 38.036127 0.477021 2.519497 0.061012 -0.024788 297976.000000 0 0 1
-20.034076 -11.380790 -31.644236 39.143892 0.516612 2.512239 0.046951 -0.019498 89516.700000 0 0 1
-20.638176 -11.294690 -33.041166 40.561349 0.500746 2.522831 0.042171 -0.022137 973150.000000 0 0 1
-19.681376 -10.629790 33.796503 40.528418 0.495206 0.584666 0.047163 -0.028157 1146550.000000 0 0 1
-20.142376 -10.773790 32.426151 39.664154 0.491162 0.613709 0.049074 -0.032191 46858.700000 0 0 1
-19.541076 -11.929190 31.560003 38.989653 0.548081 0.627589 0.057155 -0.028569 396470.000000 0 0 1
-18.135776 -11.868990 31.316273 38.085276 0.579498 0.605413 0.058526 -0.030456 710232.000000 0 0 1
-17.621476 -12.572090 30.213813 37.167841 0.619698 0.621679 0.064978 -0.034249 -53523.400000 0 0 1
-17.637676 -14.151190 30.244333 37.763256 0.676158 0.642011 0.062005 -0.024387 -280061.000000 0 0 1
-18.927876 -14.736990 30.074563 38.469764 0.661547 0.673295 0.049620 -0.017980 457200.000000 0 0 1
-18.915376 -16.072090 30.509163 39.330809 0.704310 0.682963 0.059284 -0.014786 -161159.000000 0 0 1
-19.404576 -16.230790 31.972664 40.770423 0.696570 0.669371 0.037188 -0.018112 -1140350.000000 0 0 1
-18.448576 -15.769390 32.853516 40.845773 0.707260 0.636248 0.060848 -0.020306 46599.000000 0 0 1
-19.052276 -15.463790 -33.647226 41.644374 0.681805 2.511488 0.047402 -0.012921 -33696.200000 0 0 1
-17.932676 -15.112490 -32.687606 40.229937 0.700261 2.519258 0.069463 -0.014844 -190620.000000 0 0 1
-17.447876 -13.779790 -32.972196 39.767785 0.668471 2.548325 0.067333 -0.014128 298503.000000 0 0 1
-16.114576 -13.597990 -32.503996 38.743963 0.700902 2.566135 0.081605 -0.012837 513468.000000 0 0 1
-15.986176 -13.127690 -31.006186 37.273015 0.687529 2.553259 0.091160 -0.015984 -59098.000000 0 0 1
-16.410576 -14.192790 -30.129396 37.128464 0.713056 2.517495 0.077135 -0.017572 -128738.000000 0 0 1
-16.377376 -13.803890 -28.757946 35.857848 0.700336 2.501430 0.062471 -0.011611 -306489.000000 0 0 1
-16.558076 -15.026690 -27.786456 35.665928 0.736951 2.463986 0.082290 -0.015379 1179750.000000 0 0 1
-15.444176 -15.995990 -27.616826 35.455371 0.802948 2.463735 0.099690 -0.023633 1196970.000000 0 0 1
-14.773976 -16.473790 -28.751816 36.281167 0.839743 2.485648 0.114714 -0.026605 956040.000000 0 0 1
-13.351876 -17.111290 -28.383026 35.730449 0.908186 2.488758 0.146019 -0.026230 1548380.000000 0 0 1
-12.360776 -16.131590 -28.104976 34.682945 0.916978 2.515528 0.139141 -0.033686 -205003.000000 0 0 1
-11.344576 -16.546390 -27.227736 33.820586 0.969785 2.506580 0.173325 -0.042506 -179877.000000 0 0 1
-9.978176 -15.975590 -27.593246 33.409141 1.012493 2.542627 0.151992 -0.045906 -267219.000000 0 0 1
-9.832376 -14.593190 -27.408296 32.570715 0.977896 2.570852 0.124101 -0.030747 -973311.000000 0 0 1
-8.644076 -14.164190 -27.972696 32.524084 1.022855 2.606186 0.137028 -0.035502 -458653.000000 0 0 1
-8.383176 -12.669990 -27.903016 31.770814 0.986271 2.643006 0.103226 -0.038689 -106107.000000 0 0 1
-8.955776 -11.924790 -28.920546 32.539277 0.926642 2.665492 0.137333 -0.035415 120392.000000 0 0 1
-8.430076 -10.609090 -28.988456 31.999212 0.899351 2.704324 0.116094 -0.031071 978572.000000 0 0 1
-7.233576 -10.283890 -29.973976 32.504188 0.957799 2.744417 0.115079 -0.021233 17328.000000 0 0 1
-5.913776 -10.669190 -29.678206 32.087385 1.064669 2.751617 0.110430 -0.026980 330628.000000 0 0 1
-4.969976 -10.404790 -30.689066 32.783824 1.125178 2.782181 0.100802 -0.025429 6259.360000 0 0 1
-4.763976 -8.928690 -31.076706 32.683002 1.080664 2.826773 0.089361 -0.022187 -1477510.000000 0 0 1
-3.576076 -8.639990 -31.752266 33.100516 1.178366 2.855196 0.094938 -0.030326 -271979.000000 0 0 1
-3.637976 -7.248790 -32.051636 33.061869 1.105651 2.893751 0.093505 -0.028508 393187.000000 0 0 1
-2.272576 -6.661990 -32.505516 33.258913 1.242049 2.928339 0.095098 -0.031729 271539.000000 0 0 1
-1.762376 -7.081890 -33.737936 34.518219 1.326894 2.928564 0.100296 -0.036735 -609632.000000 0 0 1
-0.604576 -6.390790 33.651640 34.258438 1.476476 0.188494 0.116784 -0.036410 -57008.000000 0 0 1
0.168724 -6.967690 32.419537 33.160271 -1.546586 0.211762 0.107996 -0.034009 178154.000000 0 0 1
-0.419876 -6.702890 31.148043 31.863861 1.508237 0.212365 0.098926 -0.032537 27816.300000 0 0 1
0.329024 -7.247490 30.081003 30.943515 -1.525429 0.236661 0.084660 -0.038907 -19939.600000 0 0 1
-0.053676 -6.703690 28.704643 29.477091 1.562790 0.229435 0.071744 -0.027951 -45682.800000 0 0 1
0.485824 -5.431590 28.418973 28.937454 -1.481590 0.189584 0.089084 -0.036302 121900.000000 0 0 1
0.171724 -5.045490 27.081913 27.548439 -1.536774 0.184297 0.084143 -0.026963 61722.200000 0 0 1
-1.091476 -4.147490 26.919713 27.259199 1.313465 0.157987 0.066416 -0.019249 1649760.000000 0 0 1
-2.318976 -4.883290 27.166823 27.699467 1.127446 0.196425 0.049087 -0.013194 744918.000000 0 0 1
-3.503876 -4.178890 26.931533 27.478132 0.873034 0.199792 0.042242 -0.014411 319307.000000 0 0 1
-4.901776 -4.770890 27.209843 28.056450 0.771867 0.246285 0.044780 -0.012484 354042.000000 0 0 1
-5.282876 -5.793290 26.286953 27.431276 0.831448 0.289860 0.047637 -0.011184 -721605.000000 0 0 1
-6.605276 -6.188790 26.502093 28.005209 0.752857 0.329120 0.044875 -0.008838 -97936.200000 0 0 1
-6.730576 -7.715990 26.552993 28.458718 0.853504 0.368037 0.054730 -0.010105 88738.700000 0 0 1
-6.163076 -8.257090 27.708923 29.562602 0.929604 0.356006 0.057992 -0.011757 -329981.000000 0 0 1
-6.091976 -9.647190 27.609613 29.874256 1.007553 0.391876 0.059705 -0.016497 226464.000000 0 0 1
-5.373876 -10.317490 28.819143 31.078484 1.090607 0.383657 0.055193 -0.020144 135704.000000 0 0 1
-5.263576 -11.739690 28.671993 31.426243 1.149309 0.421788 0.078759 -0.032599 -150324.000000 0 0 1
-4.641876 -12.378790 29.722403 32.530028 1.212038 0.418520 0.085406 -0.033849 -439022.000000 0 0 1
-4.842076 -13.904990 29.660673 33.114196 1.235703 0.460774 0.103999 -0.050071 169086.000000 0 0 1
-6.112576 -14.536190 29.733603 33.656375 1.172737 0.487629 0.142471 -0.060149 -52984.900000 0 0 1
-6.024576 -15.940990 29.788573 34.318650 1.209459 0.519637 0.120232 -0.056414 37684.200000 0 0 1
-6.234476 -16.477490 31.266413 35.888229 1.209080 0.513122 0.151191 -0.057654 -709832.000000 0 0 1
-7.559876 -16.442190 31.654933 36.462750 1.139835 0.519345 0.141465 -0.057484 -973999.000000 0 0 1
-7.696176 -16.788490 32.978088 37.797339 1.140963 0.510505 0.149777 -0.044496 346763.000000 0 0 1
-9.161176 -16.750190 33.525307 38.580335 1.070313 0.517671 0.168306 -0.041544 1030640.000000 0 0 1
-10.069576 -17.774690 33.140722 38.931265 1.055364 0.552410 0.169182 -0.046692 506084.000000 0 0 1
-10.625976 -17.684890 31.814691 37.918877 1.029752 0.575317 0.168288 -0.049826 -198221.000000 0 0 1
-11.329876 -19.020190 31.416303 38.433290 1.033562 0.613871 0.152009 -0.046141 1132690.000000 0 0 1
-12.587976 -19.264290 32.118917 39.511958 0.992010 0.621697 0.148201 -0.037223 1341010.000000 0 0 1
-13.067976 -20.611890 32.012352 40.254350 1.005750 0.651373 0.124468 -0.033782 -254271.000000 0 0 1
-12.517276 -21.551090 33.129109 41.456840 1.044600 0.644962 0.131086 -0.029494 -199480.000000 0 0 1
-11.249376 -22.065190 32.752803 41.062966 1.099320 0.647451 0.109769 -0.032026 -41902.800000 0 0 1
-10.592776 -22.667790 33.833223 42.079955 1.133645 0.636767 0.099554 -0.034413 95805.000000 0 0 1
-10.963376 -24.144890 -33.842246 42.993824 1.144566 2.476958 0.110949 -0.025938 -157775.000000 0 0 1
-10.253676 -24.911690 32.933497 42.548154 1.180329 0.685617 0.096072 -0.019439 150801.000000 0 0 1
-10.359776 -26.285670 33.166157 43.568973 1.195367 0.705583 0.097676 -0.020719 -47819.400000 0 0 1
-9.426776 -27.098830 32.161189 43.099336 1.236023 0.728445 0.077868 -0.017690 1479610.000000 0 0 1
-8.046976 -26.703510 32.312814 42.684297 1.278106 0.712058 0.093036 -0.036114 912297.000000 0 0 1
-7.271476 -27.621840 33.108252 43.726385 1.313386 0.711828 0.096100 -0.036125 -237253.000000 0 0 1
-5.799776 -27.274340 33.365507 43.483147 1.361271 0.696144 0.115228 -0.052408 -106057.000000 0 0 1
-5.588276 -26.076210 -33.634846 42.924357 1.359684 2.471210 0.112481 -0.037526 -73777.000000 0 0 1
-5.453076 -25.076620 33.087745 41.873282 1.356673 0.659681 0.129222 -0.036580 -686614.000000 0 0 1
-4.892376 -23.745390 33.540251 41.385110 1.367605 0.625889 0.129190 -0.038639 783865.000000 0 0 1
-3.530076 -23.963490 -33.776156 41.563674 1.424538 2.519458 0.136678 -0.052651 548236.000000 0 0 1
-2.895576 -22.795490 -33.437506 40.571980 1.444449 2.539501 0.110278 -0.048656 -334285.000000 0 0 1
34.842737 -15.485190 2.786144 38.230485 -0.418213 1.497854 0.212953 -0.065368 1070820.000000 0 0 1
36.033907 -15.810890 3.563144 39.511045 -0.413483 1.480493 0.198710 -0.062167 1256910.000000 0 0 1
35.649407 -16.081190 4.902244 39.414678 -0.423762 1.446097 0.165191 -0.059349 -144683.000000 0 0 1
36.769167 -16.207590 5.947944 40.620630 -0.415171 1.423841 0.147228 -0.037999 128410.000000 0 0 1
-37.401976 -17.300990 5.654344 41.595717 0.433257 1.434438 0.139495 -0.037843 383694.000000 0 0 1
-36.523536 -17.308890 6.765244 40.979689 0.442559 1.404949 0.133304 -0.026526 -1099800.000000 0 0 1
-35.401648 -18.264890 6.591044 40.377280 0.476313 1.406826 0.111196 -0.030715 -1003520.000000 0 0 1
-35.742436 -19.646290 6.539844 41.306997 0.502584 1.411804 0.100026 -0.029076 -673576.000000 0 0 1
-34.592082 -20.359690 6.777744 40.707087 0.531969 1.403517 0.095785 -0.024961 -777490.000000 0 0 1
-34.854025 -21.857090 7.094144 41.747603 0.560111 1.400038 0.102707 -0.026745 -258272.000000 0 0 1
-35.131906 -22.668890 5.975344 42.235461 0.573029 1.428843 0.106604 -0.025879 189354.000000 0 0 1
-35.261662 -24.010590 6.332944 43.127711 0.597810 1.423422 0.100258 -0.024419 163222.000000 0 0 1
-34.470794 -24.939790 5.365544 42.883771 0.626328 1.445349 0.117608 -0.021772 277686.000000 0 0 1
-35.017866 -24.812590 4.083344 43.111359 0.616454 1.475938 0.110865 -0.012864 -65524.500000 0 0 1
-34.214885 -25.496940 3.152344 42.786558 0.640422 1.497053 0.111104 -0.017885 49884.000000 0 0 1
-34.605953 -25.209500 1.671544 42.847228 0.629581 1.531775 0.089878 -0.019275 -978339.000000 0 0 1
-35.680046 -25.915890 1.141744 44.113520 0.628187 1.544911 0.061571 -0.012921 -297971.000000 0 0 1
-36.037946 -25.451970 -0.118156 44.119727 0.614911 1.573474 0.050696 -0.018026 -172088.000000 0 0 1
-36.755206 -24.096490 -0.164656 43.950121 0.580298 1.574543 0.042159 -0.020363 -1324780.000000 0 0 1
36.975287 -24.186690 0.180244 44.183710 -0.579274 1.566717 0.032836 -0.011056 -286173.000000 0 0 1
36.438547 -22.899790 0.468544 43.039372 -0.561076 1.559910 0.038285 -0.015341 403281.000000 0 0 1
34.891357 -22.794590 0.585544 41.681446 -0.578693 1.556748 0.074168 -0.019373 524310.000000 0 0 1
34.316417 -22.613690 -0.697656 41.103310 -0.582659 1.587770 0.080798 -0.026527 -351711.000000 0 0 1
32.912717 -22.610790 -0.668056 39.936713 -0.601943 1.587525 0.086733 -0.027299 -82931.000000 0 0 1
32.218187 -22.505190 -2.020156 39.351952 -0.609735 1.622155 0.105912 -0.027691 -37297.500000 0 0 1
32.496757 -21.280390 -2.575556 38.929778 -0.579775 1.637004 0.137737 -0.039829 19978.700000 0 0 1
32.260947 -21.345890 -3.944956 38.884166 -0.584531 1.672425 0.130002 -0.048396 -161829.000000 0 0 1
32.126047 -19.977090 -4.634856 38.113631 -0.556320 1.692704 0.145782 -0.046789 1198130.000000 0 0 1
30.933607 -19.341790 -4.082356 36.710468 -0.558792 1.682231 0.162625 -0.043364 997293.000000 0 0 1
30.867907 -17.967290 -4.310556 35.975437 -0.527132 1.690904 0.156307 -0.045200 -203273.000000 0 0 1
29.750307 -17.396690 -3.448956 34.635543 -0.529136 1.670540 0.157036 -0.038572 -307664.000000 0 0 1
30.097087 -17.131790 -2.098856 34.694928 -0.517478 1.631328 0.160516 -0.042143 -52137.000000 0 0 1
30.555937 -18.143990 -1.208556 35.557421 -0.535845 1.604792 0.150781 -0.034225 -21712.300000 0 0 1
29.632807 -19.335590 -0.843356 35.393213 -0.578135 1.594627 0.139770 -0.027040 287021.000000 0 0 1
28.577107 -19.150590 0.085544 34.400631 -0.590402 1.568310 0.129031 -0.009945 114263.000000 0 0 1
27.761307 -20.254690 0.251844 34.365768 -0.630318 1.563468 0.118351 -0.009030 -263844.000000 0 0 1
26.641707 -19.955190 1.292244 33.311560 -0.642874 1.531994 0.118901 -0.007409 584104.000000 0 0 1
25.648407 -21.027890 1.505844 33.200609 -0.686729 1.525425 0.110864 -0.003039 975435.000000 0 0 1
24.760007 -20.598390 2.512144 32.305765 -0.693905 1.492956 0.087820 -0.002794 -224565.000000 0 0 1
23.429507 -19.953990 2.092844 30.846126 -0.705457 1.502896 0.057031 -0.000094 -685891.000000 0 0 1
23.391607 -18.603290 1.699644 29.935571 -0.671867 1.513989 0.082865 -0.014258 222052.000000 0 0 1
23.641307 -17.696490 2.761944 29.659829 -0.642567 1.477541 0.099027 -0.013063 -254773.000000 0 0 1
23.467807 -16.222590 2.338744 28.624816 -0.604843 1.489002 0.081728 -0.001499 2650.380000 0 0 1
22.096507 -16.017290 2.063544 27.369095 -0.627229 1.495328 0.067797 -0.004018 41443.800000 0 0 1
21.835407 -14.714490 1.524944 26.374735 -0.592981 1.512946 0.082912 -0.021796 -252981.000000 0 0 1
20.538307 -14.549590 0.727544 25.180189 -0.616350 1.541899 0.076256 -0.017271 428209.000000 0 0 1
19.379207 -14.485090 1.592144 24.246781 -0.641870 1.505085 0.075067 -0.022281 1371770.000000 0 1 0
18.478107 -13.351190 1.468444 22.844059 -0.625695 1.506471 0.096230 -0.029123 433974.000000 0 1 0
18.977507 -11.982290 1.996944 22.532394 -0.563184 1.482054 0.108277 -0.029090 -596233.000000 0 1 0
19.779207 -11.281890 1.035644 22.794091 -0.518364 1.525346 0.106335 -0.031814 476362.000000 0 1 0
20.364507 -10.195490 1.684544 22.836349 -0.464167 1.496963 0.129359 -0.028967 -324685.000000 0 1 0
21.378807 -9.467390 0.776944 23.394197 -0.416884 1.537579 0.149552 -0.030697 -101039.000000 0 1 0
20.718007 -8.967290 -0.365456 22.578344 -0.408481 1.586983 0.152151 -0.024454 803211.000000 0 1 0
21.625907 -8.421390 -1.305456 23.244437 -0.371346 1.626988 0.149016 -0.021898 -207249.000000 0 1 0
20.975207 -8.265090 -2.722356 22.708637 -0.375359 1.690967 0.167006 -0.021574 200520.000000 0 1 0
21.721407 -7.503290 -3.709256 23.278261 -0.332600 1.730823 0.174956 -0.024728 1106310.000000 0 1 0
22.940107 -8.064490 -4.206356 24.677478 -0.338051 1.742086 0.167703 -0.022606 -250384.000000 0 1 0
22.844907 -9.194190 -5.280856 25.185518 -0.382626 1.782042 0.165548 -0.021645 -148855.000000 0 0 1
22.237107 -8.794590 -6.543656 24.792199 -0.376614 1.837901 0.154868 -0.029069 633879.000000 0 1 0
20.825707 -8.827890 -6.426656 23.514753 -0.400933 1.847622 0.160515 -0.015531 -238136.000000 0 1 0
20.063807 -8.936690 -7.775856 23.299886 -0.419033 1.911053 0.139823 -0.011081 -152901.000000 0 1 0
20.035407 -10.256390 -8.250356 23.972472 -0.473133 1.922140 0.136922 -0.016071 399825.000000 0 1 0
21.049407 -10.471290 -9.214956 25.251551 -0.461616 1.944350 0.111027 -0.012797 -104490.000000 0 0 1
21.053907 -11.920090 -9.704256 26.067760 -0.515173 1.952250 0.106290 -0.021017 -823863.000000 0 0 1
19.927707 -12.261190 -10.416456 25.611576 -0.551582 1.989645 0.122969 -0.024840 -703299.000000 0 0 1
19.801807 -13.603090 -10.803556 26.341458 -0.601922 1.993399 0.112694 -0.032228 -615585.000000 0 0 1
18.643307 -13.713690 -11.764856 25.962473 -0.634210 2.041090 0.125989 -0.037905 -509303.000000 0 0 1
18.399107 -15.042990 -12.118856 26.677431 -0.685377 2.042353 0.110762 -0.041929 -146760.000000 0 0 1
17.372307 -15.175590 -13.055856 26.505677 -0.718009 2.085835 0.120710 -0.041806 -417210.000000 0 0 1
17.259607 -16.625190 -13.536256 27.523103 -0.766678 2.084969 0.093645 -0.039385 -71792.100000 0 0 1
16.759807 -17.517990 -12.472356 27.264093 -0.807513 2.045938 0.083541 -0.039063 533078.000000 0 0 1
16.844807 -18.825690 -12.887756 28.359273 -0.840874 2.042546 0.079884 -0.036056 -632096.000000 0 0 1
15.844307 -19.732390 -12.166656 28.079116 -0.894254 2.018946 0.074799 -0.036580 -628319.000000 0 0 1
14.552207 -19.370490 -12.547556 27.284130 -0.926492 2.048662 0.066566 -0.036026 -961638.000000 0 0 1
13.612307 -20.093890 -11.794356 26.984553 -0.975376 2.023144 0.065550 -0.027759 -13155.700000 0 0 1
12.160807 -20.040290 -12.303256 26.473922 -1.025379 2.054127 0.084799 -0.037868 -201158.000000 0 0 1
11.298307 -20.862690 -11.568656 26.395783 -1.074459 2.024477 0.096968 -0.042473 -1220150.000000 0 0 1
10.006207 -20.567690 -11.986756 25.823175 -1.118006 2.053512 0.095656 -0.040976 -136109.000000 0 0 1
8.885107 -20.902490 -10.953056 25.215642 -1.168863 2.020141 0.079116 -0.037267 318096.000000 0 0 1
8.948207 -22.312490 -10.716156 26.320213 -1.189393 1.990123 0.118496 -0.032313 269357.000000 0 0 1
7.974307 -22.746090 -9.748856 26.000276 -1.233606 1.955141 0.113205 -0.034993 464357.000000 0 0 1
8.020707 -24.221590 -9.440956 27.205676 -1.251022 1.925190 0.105339 -0.029731 473814.000000 0 0 1
9.289607 -24.680690 -8.995156 27.862987 -1.210806 1.899520 0.086517 -0.018856 -71993.900000 0 0 1
9.495807 -25.989670 -9.603956 29.289405 -1.220496 1.904875 0.087477 -0.017987 -101526.000000 0 0 1
10.938407 -26.465270 -9.416356 30.145099 -1.178867 1.888481 0.082645 -0.016883 -197378.000000 0 0 1
11.206807 -26.974000 -8.112556 30.315058 -1.177028 1.841706 0.085866 -0.015024 171523.000000 0 0 1
12.552407 -27.435060 -8.005956 31.214432 -1.141697 1.830178 0.087580 -0.008796 206043.000000 0 0 1
12.989507 -27.808420 -6.573756 31.388688 -1.133808 1.781789 0.090979 -0.019365 248509.000000 0 0 1
12.404207 -28.955950 -5.866856 32.042649 -1.166065 1.754930 0.091994 -0.024953 1372810.000000 0 0 1
10.962907 -29.105190 -5.773256 31.632702 -1.210567 1.754334 0.086053 -0.025287 1471670.000000 0 0 1
10.391607 -30.210870 -4.819056 32.309525 -1.239504 1.720508 0.087302 -0.020862 275180.000000 0 0 1
10.682907 -31.613900 -5.230256 33.777488 -1.244925 1.726266 0.108139 -0.028160 198880.000000 0 0 1
9.808907 -32.174970 -6.232456 34.209455 -1.274886 1.754005 0.112198 -0.038563 429771.000000 0 0 1
9.924507 -33.742230 -6.334456 35.737364 -1.284736 1.748988 0.107369 -0.036467 -81754.300000 0 0 1
9.383607 33.261084 -5.208856 34.949735 1.295823 1.720392 0.094053 -0.036479 -171484.000000 0 0 1
9.766507 31.875188 -4.963956 33.705388 1.273480 1.718609 0.097663 -0.022586 -272273.000000 0 0 1
9.002407 31.159823 -3.860956 32.663204 1.289544 1.689278 0.074995 -0.023972 -221421.000000 0 0 1
7.673907 30.924373 -4.249256 32.144391 1.327559 1.703377 0.069105 -0.021201 -1163280.000000 0 0 1
6.986107 30.288753 -3.273956 31.255928 1.344111 1.675736 0.055454 -0.020335 -679460.000000 0 0 1
5.640507 29.716183 -3.727456 30.475577 1.383215 1.693413 0.056401 -0.023430 -486219.000000 0 0 1
5.662307 28.927663 -4.900256 29.881164 1.377500 1.735532 0.065430 -0.027856 -145165.000000 0 0 1
5.323107 29.682823 -6.031556 30.753620 1.393350 1.768201 0.057210 -0.025486 -352865.000000 0 0 1
5.640407 29.074203 -7.401856 30.527217 1.379176 1.815705 0.060874 -0.029788 123870.000000 0 0 1
4.848007 27.923703 -7.766856 29.386399 1.398894 1.838275 0.061320 -0.033219 160255.000000 0 0 1
5.253107 26.661723 -7.248156 28.124338 1.376260 1.831456 0.056984 -0.031600 -349699.000000 0 0 1
4.342507 25.501553 -7.692856 26.988268 1.402130 1.859849 0.062073 -0.037353 271769.000000 0 0 1
2.955207 25.652493 -7.392756 26.859570 1.456100 1.849633 0.062390 -0.034356 350499.000000 0 0 1
2.102007 26.288523 -8.328156 27.656158 1.491007 1.876676 0.067402 -0.037783 45158.600000 0 0 1
1.733307 25.357653 -9.499356 27.133977 1.502548 1.928464 0.082836 -0.041392 -448611.000000 0 0 1
2.776207 25.083303 -10.430556 27.307068 1.460566 1.962726 0.080049 -0.036642 140860.000000 0 0 1
2.304907 24.424613 -11.549156 27.115629 1.476707 2.010778 0.101665 -0.038524 -782185.000000 0 0 1
1.906807 22.960873 -11.396056 25.704235 1.487941 2.030133 0.103935 -0.038613 -664329.000000 0 0 1
0.728107 22.820253 -10.677156 25.205074 1.538901 2.008225 0.113797 -0.032275 -773241.000000 0 0 1
0.641507 21.516233 -10.157456 23.801969 1.540990 2.011691 0.075691 -0.024937 -502674.000000 0 1 0
-0.614793 21.124433 -9.348256 23.108647 -1.541701 1.987267 0.081417 -0.016329 189747.000000 0 1 0
-1.796693 21.091133 -10.131356 23.467177 -1.485814 2.017200 0.090339 -0.024207 -523971.000000 0 1 0
-2.867393 20.677833 -9.337456 22.868818 -1.433005 1.991393 0.078441 -0.010582 -1027960.000000 0 1 0
-4.094093 20.322733 -10.134656 23.075666 -1.372003 2.025496 0.087392 -0.019244 -661336.000000 0 1 0
-4.946493 19.529333 -9.317256 22.196259 -1.322728 2.003985 0.067068 -0.027078 171060.000000 0 1 0
-5.978893 18.950533 -10.108356 22.294590 -1.265181 2.041372 0.072422 -0.029655 -406758.000000 0 1 0
-6.976693 18.029433 -9.416056 21.503415 -1.201580 2.024043 0.070269 -0.028120 -531572.000000 0 1 0
-7.923593 18.631633 -8.598956 21.996890 -1.168692 1.972424 0.080846 -0.022461 -707118.000000 0 1 0
-9.149093 18.720733 -9.281556 22.810503 -1.116218 1.989852 0.082590 -0.024202 -40132.200000 0 1 0
-10.330993 18.966833 -8.266756 23.125948 -1.072041 1.936350 0.101339 -0.034793 457263.000000 0 1 0
-10.551093 17.870833 -7.406256 22.035083 -1.037459 1.913582 0.090844 -0.029048 -209836.000000 0 1 0
-11.526693 18.179433 -6.439756 22.468354 -1.005715 1.861488 0.093523 -0.031882 -254395.000000 0 1 0
-12.034493 17.026333 -5.576756 21.582986 -0.955510 1.832148 0.083494 -0.033601 402578.000000 0 1 0
-12.983793 17.404333 -4.562656 22.188005 -0.929854 1.777910 0.079509 -0.034878 480735.000000 0 1 0
-13.350893 16.320333 -3.702856 21.408194 -0.885144 1.744635 0.076796 -0.031944 1521580.000000 0 1 0
-14.681993 16.669533 -2.836256 22.393719 -0.848709 1.697792 0.074655 -0.029413 871755.000000 0 1 0
-15.814493 16.759033 -3.620356 23.325316 -0.814387 1.726638 0.110224 -0.040077 -482223.000000 0 1 0
-16.964493 16.964933 -2.791056 24.153530 -0.785411 1.686610 0.112713 -0.038645 272113.000000 0 1 0
-18.237093 17.016933 -3.660456 25.210445 -0.750801 1.716507 0.126171 -0.049071 -432932.000000 0 0 1
-18.259993 18.114333 -4.523756 26.115528 -0.781394 1.744895 0.114785 -0.043096 151315.000000 0 0 1
-19.408993 18.287533 -5.354956 27.199604 -0.755657 1.768967 0.103204 -0.041920 309489.000000 0 0 1
-19.210693 19.292233 -6.542656 28.000846 -0.787516 1.806636 0.110898 -0.023241 -196793.000000 0 0 1
-19.123393 20.645033 -6.294756 28.836531 -0.823642 1.790859 0.128056 -0.043824 188663.000000 0 0 1
-18.800693 21.366033 -7.485756 29.428048 -0.849179 1.827998 0.116110 -0.026724 -77209.000000 0 0 1
-18.807093 22.905173 -7.355956 30.536271 -0.883330 1.814082 0.141996 -0.026471 -162157.000000 0 0 1
-17.713693 23.587693 -6.772256 30.265784 -0.926674 1.796466 0.110604 -0.029869 -79245.400000 0 0 1
-17.663593 23.728293 -5.417356 30.072948 -0.930882 1.751926 0.141940 -0.037805 424813.000000 0 0 1
-16.319793 24.478543 -5.133356 29.864462 -0.982772 1.743543 0.117135 -0.042001 29738.300000 0 0 1
-16.164393 24.957093 -3.839056 29.981369 -0.996049 1.699197 0.115443 -0.034946 29791.800000 0 0 1
-14.925993 25.597343 -3.598056 29.848874 -1.042891 1.691633 0.135056 -0.041677 234552.000000 0 0 1
-14.542793 26.895653 -4.452556 30.898127 -1.075112 1.715404 0.119656 -0.032060 -138713.000000 0 0 1
-15.490593 27.905123 -4.185156 32.189594 -1.064033 1.701181 0.148611 -0.025290 76450.400000 0 0 1
-15.037893 29.164943 -4.654556 33.142074 -1.094735 1.711705 0.108361 -0.019515 166832.000000 0 0 1
-15.975893 30.357643 -4.242256 34.566059 -1.086365 1.693835 0.108604 -0.016613 -283608.000000 0 0 1
-17.134693 30.276353 -4.995856 35.145610 -1.055795 1.713427 0.138767 -0.015167 -815724.000000 0 0 1
-17.905893 31.444793 -4.848156 36.508912 -1.053151 1.703984 0.156482 -0.017345 -127653.000000 0 0 1
13.283224 -8.470590 18.584883 24.363760 -0.567673 0.703151 0.145536 -0.021456 138342.000000 0 1 0
13.911024 -9.634690 19.071283 25.496229 -0.605738 0.725747 0.150666 -0.021726 -14618.100000 0 0 1
14.074724 -10.607490 18.056383 25.231917 -0.645836 0.773290 0.151985 -0.028784 262688.000000 0 0 1
14.757124 -11.873490 18.737283 26.642790 -0.677536 0.790799 0.195278 -0.048358 -44543.700000 0 0 1
16.121924 -11.658190 19.083383 27.568194 -0.626079 0.806229 0.178160 -0.040831 611234.000000 0 0 1
16.711224 -12.853690 19.617883 28.798328 -0.655654 0.821374 0.164090 -0.041608 28285.900000 0 0 1
17.231124 -13.828190 18.580283 28.867930 -0.676271 0.871564 0.149188 -0.051882 -550972.000000 0 0 1
16.169824 -14.333090 17.782383 27.984171 -0.725256 0.882212 0.177593 -0.059153 513574.000000 0 0 1
16.529124 -15.599490 17.190183 28.496638 -0.756471 0.923245 0.193533 -0.058886 -171768.000000 0 0 1
15.591224 -15.991590 16.030383 27.491642 -0.798074 0.948257 0.189777 -0.062984 -454546.000000 0 0 1
14.219024 -15.955690 16.376583 26.925028 -0.842888 0.916969 0.238461 -0.061734 93812.900000 0 0 1
13.464224 -15.584690 15.230783 25.615320 -0.858265 0.934032 0.251367 -0.063535 -20104.600000 0 0 1
12.914524 -16.857390 14.487783 25.707049 -0.917068 0.972092 0.193786 -0.051905 -1067060.000000 0 0 1
13.940624 -17.615590 13.953283 26.445115 -0.901334 1.014986 0.196456 -0.051271 -510477.000000 0 0 1
13.475424 -18.685290 13.144683 26.523759 -0.945998 1.052292 0.167059 -0.040476 -333260.000000 0 0 1
14.497724 -19.711890 12.596583 27.521201 -0.936652 1.095384 0.164007 -0.045184 -460069.000000 0 0 1
15.051724 -20.471090 13.614283 28.826526 -0.936791 1.078917 0.129631 -0.036390 -232393.000000 0 0 1
15.810624 -21.458990 12.954883 29.636009 -0.935808 1.118388 0.112641 -0.029119 -180075.000000 0 0 1
16.539624 -22.362490 13.966783 31.124124 -0.933975 1.105436 0.098971 -0.031810 333615.000000 0 0 1
17.928824 -22.116990 14.116883 31.778772 -0.889604 1.110489 0.084774 -0.031229 188211.000000 0 0 1
18.483924 -22.955990 15.086183 33.109301 -0.892899 1.097696 0.088558 -0.037879 -97894.600000 0 0 1
19.851624 -22.560090 15.649583 33.881471 -0.849173 1.090669 0.059114 -0.021276 390153.000000 0 0 1
21.017524 -22.824290 14.875083 34.408612 -0.826586 1.123747 0.041367 -0.026319 850378.000000 0 0 1
22.214224 -22.252590 15.431583 35.025466 -0.786261 1.114550 0.037992 -0.016667 951306.000000 0 0 1
23.528024 -22.798790 14.827783 35.961311 -0.769658 1.145791 0.026017 -0.018173 50271.600000 0 0 1
23.735524 -24.147590 15.182883 37.107966 -0.794004 1.149269 0.026810 -0.015940 -286181.000000 0 0 1
24.906324 -24.604090 14.582483 37.925387 -0.779294 1.176125 0.030292 -0.019452 -410834.000000 0 0 1
25.446924 -25.914190 15.220283 39.379540 -0.794496 1.173960 0.032357 -0.019749 -49462.700000 0 0 1
25.876024 -25.715390 16.585883 40.074198 -0.782285 1.144085 0.028660 -0.007531 62029.100000 0 0 1
26.588424 -26.809190 17.098783 41.449310 -0.789533 1.145575 0.043595 -0.000724 34466.200000 0 0 1
27.038124 -26.459470 18.512683 42.117492 -0.774582 1.115700 0.029518 0.005278 223421.000000 0 0 1
25.931224 -26.294200 19.373483 41.703059 -0.792348 1.087661 0.041059 0.004621 228629.000000 0 0 1
26.405124 -25.710580 20.541283 42.192520 -0.772072 1.062320 0.041089 -0.001672 159245.000000 0 0 1
25.218424 -25.586760 21.513383 41.874537 -0.792648 1.031237 0.046519 -0.010916 281361.000000 0 0 1
24.827324 -26.913780 21.996883 42.715459 -0.825701 1.029832 0.050194 -0.004495 202119.000000 0 0 1
23.693624 -26.773380 22.839223 42.424424 -0.846348 1.002317 0.060719 -0.014557 365310.000000 0 0 1
23.040224 -28.180550 23.232553 43.182714 -0.885420 1.002727 0.110745 -0.021568 -245091.000000 0 0 1
23.929924 -29.064830 23.833933 44.558523 -0.881991 1.006418 0.095243 -0.019473 -116280.000000 0 0 1
23.860324 -30.332000 23.287833 45.074033 -0.904256 1.027854 0.097109 -0.022170 -181981.000000 0 0 1
25.037824 -31.198600 23.777983 46.536413 -0.894514 1.034502 0.079833 -0.016045 -90085.900000 0 0 1
24.874624 -31.737360 25.063813 47.478433 -0.906034 1.014672 0.091442 -0.018479 792449.000000 0 0 1
26.129924 -32.081860 25.663013 48.688899 -0.887290 1.015634 0.105496 -0.021265 127960.000000 0 0 1
25.825724 -32.450820 27.128403 49.557784 -0.898596 0.991531 0.108877 -0.035241 790710.000000 0 0 1
25.031524 -33.660170 27.319403 50.059305 -0.931369 0.993523 0.088362 -0.024106 451184.000000 0 0 1
23.662924 -33.556310 27.014373 49.150140 -0.956609 0.988875 0.092032 -0.023728 -1042650.000000 0 0 1
22.844124 32.936733 27.519563 48.621073 0.964395 0.969150 0.124694 -0.039893 -585175.000000 0 0 1
22.196324 33.233458 28.748613 49.230299 0.981947 0.947196 0.103550 -0.032662 470740.000000 0 0 1
21.578624 32.006945 29.244483 48.428518 0.977606 0.922450 0.107817 -0.045637 504441.000000 0 0 1
21.072624 32.139760 30.698913 49.187833 0.990455 0.896797 0.093085 -0.044607 -393090.000000 0 0 1
22.243224 32.339194 31.424453 50.280024 0.968298 0.895679 0.070415 -0.023458 -93427.000000 0 0 1
22.098224 32.440152 32.813797 51.160925 0.972800 0.874496 0.055965 -0.021916 -73083.700000 0 0 1
23.442224 32.125340 33.491918 51.993114 0.940407 0.870871 0.034458 -0.001295 -8325.060000 0 0 1
23.578024 30.736293 33.723933 51.360944 0.916436 0.854486 0.037841 -0.002695 233354.000000 0 0 1
24.843224 30.390723 -33.488806 51.597306 0.885499 2.277120 0.040415 0.013900 32898.000000 0 0 1
24.927324 28.871323 -33.416876 50.711068 0.858578 2.290240 0.062381 -0.006106 -95519.600000 0 0 1
25.056224 28.224883 33.107846 50.205457 0.844799 0.850713 0.077128 -0.012714 247530.000000 0 0 1
24.889924 26.838843 33.150101 49.383814 0.823056 0.834869 0.075641 -0.028742 -362437.000000 0 0 1
25.348024 26.014473 31.929719 48.360956 0.798373 0.849661 0.117263 -0.043135 -142776.000000 0 0 1
26.735224 25.799963 32.081133 49.087773 0.767597 0.858536 0.101849 -0.041632 251263.000000 0 0 1
27.329624 25.219003 30.910573 48.356696 0.745255 0.877313 0.129162 -0.056529 -1305030.000000 0 0 1
28.699724 24.724843 31.202323 49.077255 0.711133 0.881778 0.105663 -0.043715 -1648350.000000 0 0 1
28.771224 23.621523 32.009586 49.095553 0.687423 0.860596 0.133043 -0.050260 88077.400000 0 0 1
29.856724 23.650803 32.907431 50.335708 0.669932 0.858255 0.133639 -0.049129 -1027740.000000 0 0 1
29.612724 22.973803 -33.438996 50.228234 0.659815 2.299283 0.139836 -0.057149 -103112.000000 0 0 1
28.675224 23.543783 -32.515296 49.333788 0.687445 2.290401 0.152549 -0.059157 764426.000000 0 0 1
27.354624 23.830783 -32.939186 49.001752 0.716662 2.307978 0.143163 -0.049547 -132538.000000 0 0 1
26.433224 22.581333 -33.111016 48.010117 0.706973 2.331826 0.137715 -0.060782 -706602.000000 0 0 1
26.208924 22.013233 -31.879186 46.773632 0.698609 2.320693 0.128888 -0.072757 349313.000000 0 0 1
25.701024 20.680833 -32.025606 45.976939 0.677582 2.341385 0.145681 -0.059598 -183588.000000 0 0 1
25.699124 19.894833 -30.694556 44.703525 0.658775 2.327633 0.137616 -0.064701 87913.500000 0 0 1
24.579524 20.252433 -29.867296 43.661991 0.689178 2.324107 0.106564 -0.050936 737004.000000 0 0 1
24.461624 19.426333 -28.752646 42.455484 0.671167 2.314804 0.107245 -0.044220 969937.000000 0 0 1
23.053024 19.543333 -28.005416 41.202999 0.703190 2.318141 0.085296 -0.037919 1006630.000000 0 0 1
22.857324 18.718733 -26.864466 39.931789 0.686182 2.308728 0.093723 -0.027303 183568.000000 0 0 1
23.348324 19.322833 -25.655386 39.707870 0.691339 2.273264 0.076062 -0.009928 -189916.000000 0 0 1
23.481124 18.278833 -24.498056 38.543919 0.661461 2.259566 0.100400 -0.001579 420526.000000 0 0 1
24.584724 17.375633 -24.632156 38.898128 0.615252 2.256539 0.100734 -0.017776 653719.000000 0 0 1
24.536624 16.372733 -23.602556 37.778208 0.588425 2.245629 0.113900 -0.012359 -54090.900000 0 0 1
25.613024 15.249633 -23.753856 38.115928 0.537020 2.243624 0.120637 -0.013271 365315.000000 0 0 1
26.839624 15.699833 -23.163056 38.773410 0.529280 2.211046 0.132070 -0.023873 550053.000000 0 0 1
27.835024 14.675133 -23.096056 39.033010 0.485184 2.203969 0.139801 -0.032050 221699.000000 0 0 1
27.766924 13.668233 -21.968656 37.953188 0.457427 2.188096 0.125073 -0.027703 -42813.900000 0 0 1
26.596124 12.851733 -21.982656 36.820620 0.450132 2.210578 0.119644 -0.022152 214613.000000 0 0 1
26.338124 12.254233 -20.698756 35.669336 0.435476 2.189888 0.084088 -0.019535 -585758.000000 0 0 1
24.911224 11.728933 -20.717956 34.458245 0.440040 2.215859 0.102594 -0.026469 -174875.000000 0 0 1
23.960624 12.784933 -20.750756 34.178354 0.490150 2.223242 0.126432 -0.026885 -140507.000000 0 0 1
22.610424 12.416833 -20.871656 33.181848 0.502201 2.251073 0.135537 -0.031787 93377.300000 0 0 1
21.650324 13.633633 -20.843056 33.000689 0.561986 2.254405 0.129843 -0.032258 -369511.000000 0 0 1
21.817924 14.544333 -21.903256 34.165949 0.587972 2.266707 0.114754 -0.016868 321701.000000 0 0 1
20.960424 15.683833 -21.853656 34.101382 0.642386 2.266393 0.081621 -0.012005 962864.000000 0 0 1
19.493824 15.531233 -22.380456 33.497958 0.672741 2.302468 0.090877 -0.001325 958373.000000 0 0 1
18.526424 14.779433 -21.613256 32.074801 0.673367 2.310189 0.080586 -0.015880 866043.000000 0 0 1
17.352024 14.692033 -22.411156 31.925045 0.702578 2.348988 0.085786 -0.022383 39794.100000 0 0 1
16.217424 13.828633 -21.838756 30.515033 0.706061 2.368382 0.071418 -0.022878 553322.000000 0 0 1
15.009024 13.973033 -22.592556 30.511310 0.749667 2.404558 0.082285 -0.023808 266443.000000 0 0 1
13.913524 13.364333 -21.960256 29.230881 0.765268 2.420779 0.102328 -0.032494 -734807.000000 0 0 1
12.645724 13.284033 -22.784456 29.249125 0.810010 2.463832 0.093651 -0.027534 -752705.000000 0 0 1
12.004124 14.537133 -22.858356 29.629912 0.880547 2.451932 0.078790 -0.021452 98669.000000 0 0 1
11.601724 14.936733 -24.138356 30.665392 0.910410 2.476976 0.076431 -0.020288 -666783.000000 0 0 1
11.322924 16.407433 -24.063856 31.248706 0.966739 2.449755 0.075148 -0.030653 268153.000000 0 0 1
12.463124 17.278333 -23.937456 32.044845 0.945908 2.414332 0.063848 -0.023577 1183220.000000 0 0 1
13.564524 17.226733 -24.871656 33.156537 0.903779 2.419052 0.071422 -0.023622 399010.000000 0 0 1
13.238024 17.455233 -26.357156 34.272877 0.921942 2.448132 0.094551 -0.027751 -320797.000000 0 0 1
14.390224 17.401033 -27.185496 35.340143 0.879822 2.448467 0.082248 -0.032107 262574.000000 0 0 1
14.074024 17.139533 -28.570716 36.168046 0.883295 2.481513 0.091884 -0.036506 -474916.000000 0 0 1
15.154524 17.538833 -29.586646 37.585102 0.858199 2.477037 0.084470 -0.034704 -669527.000000 0 0 1
16.267124 16.704433 -29.520476 37.618027 0.798661 2.473077 0.075181 -0.031987 -808279.000000 0 0 1
17.143424 17.012733 -30.550556 38.944403 0.781572 2.472631 0.073405 -0.027968 -1082070.000000 0 0 1
18.406924 16.182833 -30.478736 39.110770 0.721187 2.464333 0.077890 -0.025704 -1386490.000000 0 0 1
19.529724 16.914633 -30.796276 40.198577 0.713765 2.443553 0.094794 -0.033789 -330126.000000 0 0 1
20.727824 16.145433 -30.605886 40.336559 0.661758 2.432208 0.111387 -0.028783 256685.000000 0 0 1
21.921724 17.001733 -31.036646 41.628047 0.659663 2.412187 0.128390 -0.040020 -474979.000000 0 0 1
22.014824 17.139433 -32.434096 42.782978 0.661518 2.431202 0.115788 -0.046358 328705.000000 0 0 1
23.162624 17.953233 -32.642386 43.867427 0.659369 2.410005 0.133618 -0.046863 116571.000000 0 0 1
23.435124 18.178133 33.571580 44.796211 0.659734 0.723597 0.119505 -0.040938 -42632.800000 0 0 1
24.368924 19.177733 33.206512 45.434594 0.666748 0.751209 0.144854 -0.038331 158522.000000 0 0 1
24.387224 19.370833 31.807766 44.516288 0.671257 0.774859 0.151933 -0.047227 -859010.000000 0 0 1
25.491224 20.313833 31.337363 45.215978 0.672845 0.805072 0.158262 -0.043910 141994.000000 0 0 1
26.796124 19.755133 31.386543 45.753827 0.635284 0.814837 0.129640 -0.039431 208592.000000 0 0 1
27.781724 20.728833 31.129853 46.589446 0.641021 0.839045 0.104038 -0.044362 222669.000000 0 0 1
29.243224 20.236933 31.245983 47.339319 0.605351 0.849920 0.107861 -0.039502 -170781.000000 0 0 1
29.729424 19.804033 32.537099 48.318746 0.587640 0.832019 0.096164 -0.039764 451999.000000 0 0 1
31.125324 19.538833 32.546044 49.089681 0.560572 0.845989 0.084472 -0.032510 260982.000000 0 0 1
31.554024 18.901933 33.866183 49.998579 0.539709 0.826652 0.083347 -0.031985 -360050.000000 0 0 1
31.599624 19.853333 -32.837816 49.709287 0.560953 2.292410 0.081241 -0.039386 5637.600000 0 0 1
31.035624 19.332733 -31.665666 48.370228 0.557103 2.284518 0.106214 -0.048195 -568688.000000 0 0 1
31.716424 19.905933 -30.440636 48.257746 0.560483 2.253371 0.104118 -0.035668 -372183.000000 0 0 1
32.922524 19.280233 -30.118606 48.608131 0.529782 2.239056 0.093736 -0.037074 -375689.000000 0 0 1
33.536024 19.668533 -28.914256 48.451525 0.530426 2.210262 0.113416 -0.037609 -185677.000000 0 0 1
35.040324 19.426433 -28.789156 49.335850 0.506217 2.193870 0.058952 -0.024450 -544276.000000 0 0 1
35.839224 20.125033 -29.697306 50.708943 0.511657 2.196469 0.064488 -0.026417 441915.000000 0 0 1
37.068824 20.448733 -29.005326 51.318197 0.504103 2.171479 0.020191 -0.008142 585867.000000 0 0 1
-36.967959 21.076333 -29.947036 52.035246 -0.518162 2.184029 0.005451 -0.007919 -369032.000000 0 0 1
-36.383059 20.211233 -30.850626 51.807163 -0.507065 2.208671 0.000929 -0.004575 -588642.000000 0 0 1
-35.318259 20.870333 -31.439806 51.685701 -0.533718 2.224699 0.003598 -0.002738 -969747.000000 0 0 1
-34.352959 20.000933 -32.178356 51.143032 -0.527242 2.251299 0.008728 -0.011446 -580498.000000 0 0 1
-33.658959 18.972233 -31.514886 49.860397 -0.513271 2.255008 0.009098 -0.004024 -117111.000000 0 0 1
-32.653959 18.460333 -32.338956 49.526488 -0.514538 2.282286 0.012478 -0.005805 -52241.300000 0 0 1
-31.987359 17.184233 -31.762686 48.242691 -0.492978 2.289479 0.018308 0.013883 40344.300000 0 0 1
-32.894259 16.106733 -31.673786 48.421977 -0.455335 2.283815 0.018425 0.015701 243973.000000 0 0 1
-32.441459 15.078233 -32.556286 48.370582 -0.435079 2.309134 0.017914 0.015297 21101.400000 0 0 1
-33.370759 13.846933 -32.522276 48.611147 -0.393321 2.303698 0.028867 0.010073 -152527.000000 0 0 1
-32.849559 12.600233 -33.019356 48.250775 -0.366266 2.324478 0.042042 0.000125 -242456.000000 0 0 1
-33.790459 11.612333 -32.776156 48.486264 -0.331013 2.313102 0.055695 -0.002251 -257789.000000 0 0 1
-33.218359 10.197533 -33.065396 47.966337 -0.297853 2.331382 0.061378 -0.001333 20541.300000 0 0 1
-32.996959 9.988633 33.300617 47.932277 -0.293945 0.802734 0.050710 -0.005988 138483.000000 0 0 1
-33.384559 8.687033 32.903488 47.672139 -0.254566 0.809026 0.077829 -0.021548 363560.000000 0 0 1
-32.219659 7.985133 32.140951 46.205081 -0.242939 0.801521 0.098607 -0.020440 153157.000000 0 0 1
-31.084659 7.784633 32.922522 45.942889 -0.245386 0.771886 0.059406 -0.007443 -1208140.000000 0 0 1
-30.243759 6.895933 32.301422 44.784157 -0.224179 0.765164 0.069358 -0.005300 -582833.000000 0 0 1
21.647624 -3.955990 -31.254146 38.224222 -0.180750 2.528119 0.060410 -0.035010 693643.000000 0 0 1
22.928324 -4.219590 -31.871666 39.488176 -0.181998 2.510053 0.056775 -0.032659 1656610.000000 0 0 1
23.964724 -3.250390 -31.532896 39.739106 -0.134810 2.487332 0.061790 -0.031386 598543.000000 0 0 1
23.884824 -1.813390 -32.121286 40.069318 -0.075777 2.500835 0.058341 -0.025437 -936569.000000 0 0 1
24.679424 -0.862990 -31.479566 40.009771 -0.034954 2.476398 0.069544 -0.015412 22738.900000 0 0 1
24.633824 0.399410 -32.174816 40.524111 0.016212 2.488103 0.049646 -0.012547 16845.200000 0 0 1
25.616824 1.439210 -31.567846 40.679502 0.056123 2.459117 0.064669 -0.010240 420120.000000 0 0 1
26.945924 1.404710 -32.053726 41.898656 0.052084 2.441884 0.077357 -0.021256 144141.000000 0 0 1
27.798024 2.311310 -31.356416 41.967810 0.082956 2.414566 0.088280 -0.017717 560320.000000 0 0 1
29.324424 1.984410 -31.438546 43.037680 0.067568 2.389834 0.081905 -0.029401 490953.000000 0 0 1
29.940424 2.447310 -32.598336 44.329108 0.081558 2.397010 0.080458 -0.020106 89511.000000 0 0 1
29.841924 1.419410 -33.595016 44.957538 0.047528 2.414727 0.065218 -0.013600 -291402.000000 0 0 1
30.460824 2.049810 32.852378 44.847991 0.067192 0.748769 0.061484 -0.026241 -287355.000000 0 0 1
29.637224 2.930110 32.176808 43.844014 0.098546 0.746761 0.048244 -0.013512 -52300.100000 0 0 1
29.778924 4.267110 32.602242 44.361004 0.142324 0.745233 0.052289 -0.009685 -22683.300000 0 0 1
29.074724 5.240210 31.634983 43.284773 0.178318 0.751219 0.046116 -0.000299 -4198.230000 0 0 1
29.300724 6.565310 31.990938 43.875458 0.220426 0.753746 0.080314 -0.005774 299180.000000 0 0 1
28.907424 7.387010 30.895663 42.950542 0.250186 0.767957 0.081813 -0.007510 -58605.200000 0 0 1
29.167524 8.883510 31.234633 43.649324 0.295643 0.773341 0.078099 -0.012459 448535.000000 0 0 1
30.538024 9.192410 31.025653 44.493398 0.292388 0.799160 0.072153 -0.015739 353150.000000 0 0 1
30.605924 10.646510 31.059773 44.886304 0.334765 0.806588 0.075230 -0.014506 355116.000000 0 0 1
31.946824 11.148210 30.439173 45.512915 0.335749 0.838199 0.080884 -0.005533 39035.200000 0 0 1
33.070624 10.780310 31.214263 46.735548 0.315117 0.839425 0.096032 -0.016483 91021.400000 0 0 1
34.261524 11.034210 30.477033 47.164132 0.311569 0.868214 0.107827 -0.016852 298999.000000 0 0 1
34.979224 12.390310 30.685143 48.152299 0.340429 0.879869 0.114660 -0.015734 -365465.000000 0 0 1
35.489424 12.646810 32.006702 49.435514 0.342324 0.866571 0.110003 -0.015055 118118.000000 0 0 1
35.778524 14.020510 32.238927 50.160003 0.373478 0.872751 0.129422 -0.009985 163393.000000 0 0 1
34.583924 15.020710 32.280250 49.635512 0.409744 0.862757 0.123545 -0.018836 -71556.500000 0 0 1
33.991724 15.204310 30.966703 48.430827 0.420602 0.877078 0.114200 -0.028476 25124.500000 0 0 1
32.982224 16.168310 30.931213 48.020634 0.455787 0.870920 0.100964 -0.030441 1072300.000000 0 0 1
31.517624 15.715910 31.357363 47.155431 0.462558 0.843331 0.108410 -0.025365 831447.000000 0 0 1
30.954124 14.807410 30.429593 45.862592 0.446191 0.845316 0.082367 -0.025187 -407081.000000 0 0 1
29.630124 14.514510 30.794853 45.132452 0.455500 0.819862 0.065242 -0.028051 -373203.000000 0 0 1
28.794924 14.032610 29.611313 43.622146 0.453460 0.824650 0.071497 -0.023925 -428026.000000 0 0 1
29.049724 12.730010 29.134793 43.067108 0.413010 0.827800 0.065153 -0.022031 82419.400000 0 0 1
28.465324 12.481110 27.850333 41.733606 0.413222 0.840170 0.070138 -0.028177 100961.000000 0 0 1
28.225524 10.996010 27.586913 40.971090 0.371489 0.832098 0.061360 -0.014344 215262.000000 0 0 1
29.374524 10.297810 27.123663 41.286810 0.337182 0.854021 0.061480 -0.012670 417515.000000 0 0 1
29.053124 8.866310 27.048073 40.673010 0.296198 0.843285 0.068106 -0.010309 291749.000000 0 0 1
30.247424 8.040710 26.523573 41.025109 0.259822 0.867782 0.074982 -0.018243 -15881.300000 0 0 1
30.654224 8.401110 25.267973 40.604563 0.267493 0.899127 0.077747 -0.013651 156464.000000 0 0 1
31.659524 7.592610 24.676163 40.852004 0.235375 0.922238 0.087615 -0.013621 265430.000000 0 0 1
32.101624 7.976810 23.249073 40.430968 0.243553 0.958154 0.107248 -0.015143 380588.000000 0 0 1
32.716524 9.294910 23.099283 41.113783 0.276811 0.974190 0.112733 -0.027748 525472.000000 0 0 1
31.773324 10.297010 22.758423 40.416808 0.313397 0.972672 0.118753 -0.026957 -39242.600000 0 0 1
31.283924 10.264510 21.261783 39.193207 0.317041 0.997402 0.116219 -0.013428 -83496.800000 0 0 1
32.228224 10.674010 20.300583 39.556372 0.319830 1.031880 0.140113 -0.029356 -4332.670000 0 0 1
31.759124 10.457510 18.976283 38.446076 0.318094 1.054593 0.145664 -0.036959 -527778.000000 0 0 1
32.719024 11.020610 17.866383 38.874105 0.324890 1.093256 0.169095 -0.072334 1354090.000000 0 0 1
34.000424 10.393610 17.642983 39.690437 0.296669 1.110164 0.154620 -0.057988 872869.000000 0 0 1
34.915424 10.529110 18.714283 40.989918 0.292888 1.096674 0.153027 -0.055306 548758.000000 0 0 1
36.382624 10.116710 18.226183 41.931335 0.271213 1.121127 0.193781 -0.056024 1234510.000000 0 0 1
36.530524 8.721110 17.959883 41.630450 0.234348 1.124739 0.162942 -0.035638 -357331.000000 0 0 1
-37.314859 8.468010 17.382383 42.026815 -0.223154 1.144389 0.163429 -0.031109 -670610.000000 0 0 1
-37.110959 6.976310 17.082183 41.445062 -0.185817 1.145968 0.155705 -0.027289 -346242.000000 0 0 1
37.157724 6.487410 16.065783 40.998687 0.172849 1.168143 0.146276 -0.027600 45110.700000 0 0 1
37.422324 5.108110 15.849583 40.960132 0.135661 1.173473 0.147795 -0.021795 -806880.000000 0 0 1
36.148624 4.287910 15.896283 39.721543 0.118067 1.159069 0.120099 -0.013237 -475872.000000 0 0 1
35.745924 3.953510 17.220283 39.874045 0.110153 1.124235 0.112189 -0.003435 156819.000000 0 0 1
34.526324 3.247210 17.302683 38.755571 0.093774 1.107995 0.099517 -0.006258 85363.800000 0 0 1
34.365524 2.338610 18.523783 39.109959 0.067946 1.077385 0.091954 -0.000049 81665.600000 0 0 1
35.097924 1.122410 18.483783 39.683426 0.031969 1.086279 0.096945 0.001142 126041.000000 0 0 1
34.923624 0.395610 19.682883 40.090297 0.011327 1.057601 0.086659 0.003895 371636.000000 0 0 1
35.603424 -1.025690 19.615183 40.662160 -0.028801 1.067411 0.081455 0.006336 292115.000000 0 0 1
35.160824 -1.855790 20.681583 40.834487 -0.052731 1.039706 0.105236 0.014099 183648.000000 0 0 1
35.614724 -3.224690 20.550783 41.244901 -0.090297 1.049203 0.083191 0.015735 -9970.660000 0 0 1
35.152224 -4.059790 21.761383 41.541768 -0.114982 1.019440 0.076813 0.009058 -79935.600000 0 0 1
35.641424 -3.635990 23.000283 42.573989 -0.101664 1.000071 0.089693 -0.003500 -30783.500000 0 0 1
35.025324 -4.296290 24.068353 42.714366 -0.122053 0.972214 0.082261 -0.007932 -66010.400000 0 0 1
35.271424 -3.710790 25.486993 43.674136 -0.104821 0.947676 0.077696 -0.008467 514485.000000 0 0 1
34.302724 -4.007890 26.518843 43.542957 -0.116311 0.915963 0.076654 -0.007848 257382.000000 0 0 1
34.646324 -3.418690 27.767063 44.531618 -0.098356 0.897539 0.086215 -0.012783 389936.000000 0 0 1
33.690824 -3.803290 28.952603 44.584637 -0.112412 0.864021 0.082524 -0.019109 227354.000000 0 0 1
33.697824 -5.141490 29.328163 44.967982 -0.151409 0.860312 0.081310 -0.018961 -126259.000000 0 0 1
32.806424 -5.458290 30.375523 45.041390 -0.164868 0.830656 0.080654 -0.025469 -260411.000000 0 0 1
32.891124 -6.993090 30.715183 45.542857 -0.209494 0.830612 0.083324 -0.021664 754464.000000 0 0 1
34.127824 -7.376490 31.343393 46.920457 -0.212868 0.839263 0.083897 -0.023669 564204.000000 0 0 1
34.361824 -8.789390 31.120113 47.185270 -0.250420 0.850603 0.071458 -0.016476 392581.000000 0 0 1
35.674824 -9.272590 31.805241 48.685186 -0.254293 0.858883 0.069951 -0.013114 319205.000000 0 0 1
35.542724 -9.582490 33.224446 49.588034 -0.263343 0.836575 0.074239 -0.018911 -43374.900000 0 0 1
36.765324 -9.757590 -33.842666 50.913904 -0.259421 2.297894 0.091430 -0.022809 -166434.000000 0 0 1
36.542124 -9.945090 -32.298696 49.773862 -0.265718 2.276946 0.093408 -0.020699 -155354.000000 0 0 1
36.167524 -8.813590 -31.530796 48.784836 -0.239029 2.273553 0.093045 -0.026430 656251.000000 0 0 1
37.159224 -7.770690 -31.417056 49.277002 -0.206148 2.262124 0.096306 -0.018668 349807.000000 0 0 1
36.709924 -6.493990 -30.651526 48.262889 -0.175089 2.258928 0.104324 -0.022609 -32104.900000 0 0 1
36.916124 -6.671290 -29.268896 47.581242 -0.178785 2.233354 0.096219 -0.016618 211188.000000 0 0 1
36.362424 -5.570590 -28.615856 46.606057 -0.152014 2.231908 0.110272 -0.028525 -274252.000000 0 0 1
37.037224 -5.475390 -27.221706 46.289925 -0.146772 2.199467 0.106866 -0.028773 655968.000000 0 0 1
-36.693359 -5.034990 -27.286866 46.003552 0.136366 2.205758 0.100079 -0.026547 92802.000000 0 0 1
-36.190759 -4.793390 -25.974306 44.804154 0.131681 2.189193 0.101287 -0.022318 182151.000000 0 0 1
-34.663659 -4.612190 -25.876416 43.502074 0.132279 2.207853 0.109103 -0.013867 -537565.000000 0 0 1
-34.330659 -4.172090 -24.550056 42.411151 0.120934 2.188124 0.125884 -0.017016 554394.000000 0 0 1
-32.942859 -4.168790 -24.224756 41.102915 0.125877 2.201073 0.136962 -0.013158 604702.000000 0 0 1
-32.022859 -3.117590 -24.879756 40.671675 0.097049 2.229032 0.128557 -0.004649 -460554.000000 0 0 1
-31.766659 -3.516490 -26.241066 41.353112 0.110249 2.258237 0.127528 -0.003500 -168866.000000 0 0 1
-31.005959 -2.481290 -26.852266 41.092219 0.079856 2.282947 0.112619 -0.004439 164123.000000 0 0 1
-30.343559 -3.070190 -28.120146 41.483735 0.100838 2.315644 0.090899 -0.011594 60157.400000 0 0 1
-31.326859 -3.393390 -29.090506 42.885251 0.107901 2.316289 0.120000 -0.013312 -626.777000 0 0 1
-30.852459 -4.242990 -30.128656 43.331433 0.136668 2.339644 0.094938 -0.006640 -959165.000000 0 0 1
-32.001159 -4.520090 -31.134336 44.875966 0.140319 2.337530 0.099548 -0.010550 -774156.000000 0 0 1
-32.928359 -5.444590 -30.594996 45.276641 0.163864 2.312757 0.101618 -0.011220 106790.000000 0 0 1
-33.882159 -4.925590 -29.682466 45.313474 0.144363 2.285041 0.114626 -0.014438 -1138730.000000 0 0 1
-34.932859 -3.948890 -30.226156 46.362904 0.112564 2.280946 0.139685 -0.024239 -1319220.000000 0 0 1
-34.547059 -2.783890 -30.892796 46.428592 0.080409 2.298803 0.160858 -0.026900 -464298.000000 0 0 1
-34.018359 -1.738590 -30.115616 45.466711 0.051063 2.294769 0.148609 -0.021130 -76364.500000 0 0 1
-33.707359 -0.419690 -30.906986 45.734057 0.012450 2.312843 0.148746 -0.018902 -425616.000000 0 0 1
-34.857259 0.239010 -31.322966 46.863780 -0.006857 2.302829 0.161640 -0.023445 -630704.000000 0 0 1
-34.672659 1.481810 -31.990626 47.199462 -0.042711 2.315529 0.158919 -0.017414 690183.000000 0 0 1
-36.014359 2.287410 -32.211376 48.371883 -0.063429 2.299511 0.133435 -0.019479 759192.000000 0 0 1
-36.667759 1.898310 -33.405786 49.639447 -0.051724 2.309011 0.133125 -0.023021 1088280.000000 0 0 1
37.023424 2.302210 -33.327116 49.867131 0.062103 2.302742 0.107140 -0.020261 1430250.000000 0 0 1
36.143924 1.795110 33.201539 49.111586 0.049625 0.828417 0.083549 -0.024417 128218.000000 0 0 1
36.503524 2.279710 31.918000 48.543414 0.062371 0.853281 0.094120 -0.020184 19017.200000 0 0 1
37.535924 1.497110 31.380433 48.948121 0.039864 0.874871 0.086838 -0.019613 -390579.000000 0 0 1
-37.441059 1.675310 29.847903 47.911762 -0.044715 0.898254 0.093013 -0.024387 -71622.200000 0 0 1
-36.751859 2.854710 29.520103 47.225894 -0.077520 0.895558 0.102044 -0.027923 217660.000000 0 0 1
-36.377159 2.970310 28.134283 46.083168 -0.081472 0.914091 0.102323 -0.030024 242181.000000 0 0 1
-35.967459 4.448510 27.751803 45.646577 -0.123057 0.917294 0.093781 -0.024429 184677.000000 0 0 1
-35.379359 4.581510 26.470123 44.422480 -0.128780 0.932445 0.090492 -0.015540 403271.000000 0 0 1
-34.605359 5.795210 26.411303 43.916652 -0.165926 0.925549 0.087585 -0.015390 321578.000000 0 0 1
-33.687259 5.899010 25.161663 42.458675 -0.173353 0.936494 0.079976 -0.006974 962641.000000 0 0 1
-32.516259 5.014210 25.173643 41.426582 -0.153001 0.917674 0.071419 -0.009415 1821950.000000 0 0 1
-31.539859 5.323610 24.161373 40.085852 -0.167214 0.923865 0.070319 -0.008694 565385.000000 0 0 1
-32.020959 4.991010 22.746743 39.593766 -0.154623 0.958799 0.086079 -0.012973 -365894.000000 0 0 1
-31.982959 3.623510 22.446783 39.241529 -0.112814 0.961835 0.071969 -0.013809 -149101.000000 0 0 1
-32.683059 3.264310 21.287883 39.140926 -0.099548 0.995745 0.089844 -0.015889 -221503.000000 0 0 1
-32.619459 1.712610 21.127883 38.901794 -0.052455 0.996662 0.078052 -0.010546 742.351000 0 0 1
-31.529859 1.194010 20.352883 37.547271 -0.037851 0.997909 0.098729 -0.010830 247593.000000 0 0 1
-31.569459 1.287310 18.925483 36.830176 -0.040755 1.031120 0.112963 -0.015604 -110799.000000 0 0 1
-30.196659 1.019010 18.254483 35.300181 -0.033733 1.027312 0.113121 -0.021349 57020.900000 0 0 1
-29.849359 -0.358490 18.227083 34.976268 0.012009 1.022625 0.134028 -0.014637 691248.000000 0 0 1
-28.654059 -0.620390 17.453783 33.557034 0.021648 1.023801 0.153258 -0.017324 496351.000000 0 0 1
-28.534559 -0.431390 15.914483 32.675341 0.015117 1.062089 0.161607 -0.011126 -375226.000000 0 0 1
-28.314359 0.934210 15.523683 32.304186 -0.032982 1.069518 0.165814 -0.018528 204338.000000 0 0 1
-28.474059 1.081210 14.128083 31.804776 -0.037954 1.110501 0.193222 -0.020914 -48778.600000 0 0 1
-27.864559 2.387310 13.569283 31.084696 -0.085467 1.119062 0.188085 -0.023816 -399413.000000 0 0 1
-26.470859 2.354110 13.454883 29.787281 -0.088699 1.102128 0.169249 -0.032704 -121375.000000 0 0 1
-25.928559 3.562910 12.893383 29.175741 -0.136557 1.113057 0.170282 -0.034074 239379.000000 0 0 1
-24.393459 3.620410 12.701183 27.739291 -0.147342 1.095191 0.157944 -0.044078 -108402.000000 0 0 1
-23.706259 3.795610 13.933083 27.758317 -0.158763 1.044953 0.128742 -0.030870 -738427.000000 0 0 1
-22.427159 4.151110 13.536983 26.522803 -0.183022 1.035158 0.126191 -0.033145 -1227900.000000 0 0 1
-21.532159 4.645410 14.658783 26.459283 -0.212486 0.983620 0.096858 -0.032398 -320642.000000 0 0 1
-21.687659 6.014410 15.062283 27.081360 -0.270521 0.981007 0.084621 -0.026104 525276.000000 0 0 1
-20.855159 6.265510 16.195383 27.138252 -0.291851 0.931323 0.064570 -0.016818 50585.100000 0 0 1
-20.941459 7.725110 16.704383 27.879355 -0.353404 0.928336 0.058199 -0.015335 -473356.000000 0 0 1
-20.109759 8.659710 16.090683 27.171733 -0.406623 0.937029 0.062915 -0.018723 323260.000000 0 0 1
-20.502759 10.042210 16.299483 28.051422 -0.455453 0.950769 0.062873 -0.009259 -160678.000000 0 0 1
-20.220559 10.628410 17.671883 28.881302 -0.483936 0.912361 0.078171 -0.011183 39209.300000 0 0 1
-21.056759 10.165610 18.744583 29.968085 -0.449770 0.895044 0.089246 -0.015213 441658.000000 0 0 1
-20.804359 10.864710 19.929483 30.790382 -0.481275 0.866808 0.110083 -0.014216 -86516.800000 0 0 1
-12.835276 -33.137213 -19.899056 40.728265 1.201254 2.081259 0.174452 -0.058265 -260976.000000 0 0 1
-13.992776 -33.747813 -19.409556 41.369596 1.177744 2.059152 0.195510 -0.051886 -196446.000000 0 0 1
-15.043376 -32.830013 -19.256156 40.925694 1.141128 2.060671 0.163625 -0.067312 120202.000000 0 0 1
-16.391076 -33.339813 -18.695556 41.590075 1.113862 2.037024 0.149773 -0.057418 -496031.000000 0 0 1
-17.020276 33.327510 -19.514656 42.204675 -1.098627 2.051475 0.141552 -0.059021 291225.000000 0 0 1
-17.790476 32.433710 -18.707556 41.453821 -1.069092 2.039003 0.157572 -0.054569 552934.000000 0 0 1
-19.189176 32.861910 -18.185356 42.176259 -1.042274 2.016591 0.138620 -0.046889 -449716.000000 0 0 1
-19.132276 -33.752413 -17.186056 42.433829 1.055115 1.987784 0.157904 -0.048489 612737.000000 0 0 1
-20.425376 -33.473913 -16.635956 42.596407 1.022919 1.972023 0.123256 -0.046126 557379.000000 0 0 1
-20.653676 33.444210 -15.259656 42.165705 -1.017568 1.941099 0.125487 -0.048160 -283597.000000 0 0 1
-20.654776 32.036410 -15.314756 41.079108 -0.998136 1.952833 0.127060 -0.050867 124382.000000 0 0 1
-21.066276 31.536110 -14.073556 40.452185 -0.981868 1.926133 0.134394 -0.049010 -10188.100000 0 0 1
-21.234876 30.032710 -13.999956 39.355844 -0.955349 1.934489 0.134282 -0.055627 551638.000000 0 0 1
-19.979476 29.350910 -13.898456 38.129024 -0.973134 1.943904 0.150922 -0.061039 704440.000000 0 0 1
-20.139476 27.893510 -13.866356 37.093426 -0.945449 1.953923 0.149408 -0.065579 427349.000000 0 0 1
-18.864376 27.249310 -13.226356 35.683695 -0.965265 1.950511 0.147487 -0.062498 634327.000000 0 0 1
-17.693376 27.392110 -14.009556 35.491562 -0.997288 1.976569 0.167627 -0.062347 290598.000000 0 0 1
-16.603676 26.618910 -13.476556 34.144780 -1.013093 1.976525 0.170599 -0.068377 297423.000000 0 0 1
-15.263876 27.142010 -13.999556 34.141796 -1.058505 1.993296 0.147230 -0.061879 -426894.000000 0 0 1
-15.155676 26.982010 -15.371456 34.554379 -1.059018 2.031801 0.150008 -0.057429 -493340.000000 0 0 1
-13.965976 27.506110 -15.874956 34.693643 -1.100975 2.046063 0.170628 -0.052088 -409040.000000 0 0 1
-14.051176 27.812810 -17.406156 35.692608 -1.102993 2.080213 0.190891 -0.072225 43484.700000 0 0 1
-14.120976 26.570610 -18.089056 35.108593 -1.082306 2.112074 0.158145 -0.061331 75462.300000 0 0 1
-14.150976 26.783910 -19.498556 36.025292 -1.084736 2.142715 0.151498 -0.063822 -128899.000000 0 0 1
-13.381876 25.788910 -20.355856 35.475391 -1.092143 2.181937 0.124120 -0.052227 848802.000000 0 0 1
-11.966876 26.051510 -20.456956 35.218949 -1.140191 2.190570 0.103909 -0.042485 756604.000000 0 0 1
-11.373076 24.950010 -21.133756 34.619150 -1.143101 2.227443 0.105729 -0.047262 371857.000000 0 0 1
-9.991076 25.259010 -21.758356 34.803237 -1.194136 2.246161 0.122080 -0.045350 64760.000000 0 0 1
-10.164776 26.110010 -22.868056 36.166329 -1.199543 2.255318 0.111507 -0.036098 -205312.000000 0 0 1
-9.120076 26.039510 -23.795656 36.434395 -1.233908 2.282480 0.099844 -0.041911 -459985.000000 0 0 1
-9.340076 26.820110 -25.134256 37.924744 -1.235682 2.295269 0.099146 -0.035713 -906146.000000 0 0 1
-10.397276 26.282110 -25.801506 38.269706 -1.194086 2.310680 0.084937 -0.030242 -1062180.000000 0 0 1
-10.850076 26.950910 -26.939116 39.620597 -1.188062 2.318459 0.095368 -0.026133 -943759.000000 0 0 1
-12.086276 26.360910 -27.515416 39.975915 -1.140903 2.329939 0.096418 -0.020245 -1025130.000000 0 0 1
-12.387676 26.855210 -28.800716 41.281208 -1.138605 2.342938 0.100443 -0.010178 -425886.000000 0 0 1
-13.547276 26.252710 -29.302406 41.609669 -1.094404 2.352122 0.082600 -0.008623 -181632.000000 0 0 1
-13.915776 26.780910 -30.736346 43.076548 -1.091580 2.365318 0.069903 -0.010670 141394.000000 0 0 1
-13.052676 26.238410 -31.741976 43.201616 -1.109179 2.396080 0.081075 -0.014239 303472.000000 0 0 1
-13.065876 24.900210 -32.059806 42.644681 -1.087561 2.421567 0.076471 -0.016303 272367.000000 0 0 1
-12.223276 24.499210 -33.336496 43.138634 -1.108009 2.454000 0.066306 -0.015536 633699.000000 0 0 1
-12.915976 24.653010 33.157687 43.290017 -1.088204 0.698289 0.060471 -0.011692 131328.000000 0 0 1
-12.108076 24.136210 32.189950 42.016129 -1.105825 0.697994 0.059197 -0.016965 -803564.000000 0 0 1
-12.764776 24.241310 30.804603 41.225044 -1.086118 0.726912 0.049554 -0.011646 -637258.000000 0 0 1
-13.841776 23.337510 30.786873 41.037370 -1.035456 0.722408 0.063890 -0.020346 -106765.000000 0 0 1
-14.330076 23.168110 29.436263 40.107431 -1.016866 0.746698 0.071845 -0.022584 414129.000000 0 0 1
-15.637376 22.313610 29.475683 40.140262 -0.959534 0.746136 0.057047 -0.022940 365301.000000 0 0 1
-15.415476 21.003510 29.649903 39.470256 -0.937648 0.720924 0.047563 -0.029163 -615574.000000 0 0 1
-16.617276 20.318610 29.740853 39.667344 -0.885274 0.723102 0.044163 -0.030083 -519114.000000 0 0 1
-16.394176 18.851210 29.952813 39.003951 -0.854998 0.695173 0.048147 -0.035556 -40676.900000 0 0 1
-15.877376 18.234410 28.801513 37.604680 -0.854386 0.698353 0.056123 -0.041173 -55826.100000 0 0 1
-15.394576 16.969510 29.096673 37.034763 -0.834023 0.667037 0.052241 -0.048951 -230062.000000 0 0 1
-14.754376 16.289610 27.885593 35.505624 -0.834811 0.667478 0.056978 -0.039276 -504576.000000 0 0 1
-13.710276 16.968710 27.272313 34.924030 -0.891212 0.674685 0.035795 -0.048492 -384030.000000 0 0 1
-13.128276 16.071410 26.311803 33.510489 -0.885852 0.667808 0.029284 -0.037047 -82426.900000 0 0 1
-11.997076 16.727610 25.513963 32.782695 -0.948618 0.678882 0.041108 -0.033141 -87759.000000 0 0 1
-12.421976 17.592310 24.405963 32.549131 -0.955986 0.723008 0.036766 -0.031857 50894.000000 0 0 1
-12.786376 18.974610 24.693433 33.664416 -0.977825 0.747314 0.043409 -0.033311 199345.000000 0 0 1
-11.696276 19.857510 25.378303 34.280926 -1.038497 0.737274 0.048501 -0.037680 214374.000000 0 0 1
-11.446476 19.596410 26.759833 35.087459 -1.042142 0.703379 0.057816 -0.040855 190431.000000 0 0 1
-12.544376 19.970510 27.579843 36.288158 -1.009939 0.707447 0.065391 -0.042781 21333.500000 0 0 1
-12.276676 19.691610 29.031473 37.165881 -1.013315 0.674319 0.065506 -0.040334 71720.500000 0 0 1
-11.254976 20.541310 29.522663 37.685642 -1.069552 0.670690 0.058199 -0.046698 -52674.700000 0 0 1
-11.133376 20.465710 30.918423 38.713645 -1.072570 0.645758 0.048805 -0.033741 -170058.000000 0 0 1
-9.827476 21.101410 31.408963 39.094396 -1.134942 0.637790 0.044926 -0.021328 -247898.000000 0 0 1
-8.691976 20.284210 31.490543 38.453270 -1.165957 0.611252 0.052724 -0.026386 89307.200000 0 0 1
-7.651676 21.001610 32.172783 39.175296 -1.221406 0.607195 0.053131 -0.017183 560478.000000 0 0 1
-6.414576 20.102310 32.437662 38.696920 -1.261913 0.576732 0.051261 -0.013407 -8788.770000 0 0 1
-6.606376 19.311910 33.610193 39.322248 -1.241187 0.545752 0.050898 -0.013982 939352.000000 0 0 1
-5.374676 18.641610 -33.805816 38.977301 -1.290093 2.620590 0.047162 -0.012214 880865.000000 0 0 1
-4.803576 17.462410 33.089164 37.721385 -1.302355 0.500799 0.032373 -0.020489 -226457.000000 0 0 1
-5.447976 16.236010 33.289632 37.436454 -1.247053 0.475136 0.032812 -0.016566 -230171.000000 0 0 1
-5.090576 15.277210 32.338708 36.126156 -1.249153 0.462005 0.037273 -0.015152 10494.200000 0 0 1
-5.783776 13.864610 32.545550 35.845395 -1.175584 0.432449 0.049316 -0.034148 -218632.000000 0 0 1
-5.305676 13.155410 33.719933 36.582085 -1.187442 0.398199 0.051579 -0.026752 -9467.480000 0 0 1
-5.637376 11.803010 33.624945 36.079468 -1.125211 0.370990 0.053696 -0.020618 -201673.000000 0 0 1
-4.440576 10.907710 -33.832096 35.823283 -1.184181 2.806611 0.070926 -0.045773 -270009.000000 0 0 1
-4.260876 10.575510 -32.469216 34.412883 -1.187792 2.803893 0.093969 -0.054312 -251317.000000 0 0 1
-3.259376 9.605710 -32.260736 33.817870 -1.243671 2.836954 0.112718 -0.053311 -397958.000000 0 0 1
-3.090876 9.047210 -30.826416 32.274967 -1.241590 2.840856 0.128400 -0.047477 -437109.000000 0 0 1
-4.147976 8.220210 -30.438616 31.800738 -1.103470 2.847850 0.125864 -0.036755 482339.000000 0 0 1
-5.248776 8.972010 -29.823016 31.582573 -1.041467 2.806218 0.136777 -0.044757 885852.000000 0 0 1
-6.364276 8.008410 -29.348936 31.080520 -0.899296 2.806218 0.136487 -0.046248 103660.000000 0 0 1
-5.907576 7.147910 -28.347846 29.826037 -0.880119 2.825443 0.140927 -0.042269 736923.000000 0 0 1
-6.992176 6.238010 -28.016596 29.542054 -0.728456 2.818831 0.144722 -0.060999 592141.000000 0 0 1
-6.768476 5.333110 -26.826656 28.176654 -0.667340 2.830789 0.125609 -0.054743 -136089.000000 0 0 1
-6.916076 6.036510 -25.576316 27.173876 -0.717596 2.796990 0.093129 -0.042933 118087.000000 0 0 1
-5.925276 7.006010 -25.272236 26.886409 -0.868780 2.793319 0.093603 -0.037640 -330591.000000 0 0 1
-6.261376 7.913310 -24.083756 26.112308 -0.901416 2.744824 0.053364 -0.020643 13371.000000 0 0 1
-6.405776 7.143710 -22.905956 24.834440 -0.839807 2.744906 0.043877 -0.016784 -313570.000000 0 1 0
-7.662276 7.383710 -22.340956 24.745666 -0.766886 2.697086 0.053454 -0.014298 -291599.000000 0 1 0
-7.566776 7.513510 -20.814156 23.386707 -0.781866 2.668140 0.044899 -0.014659 -106711.000000 0 1 0
-7.029276 8.802010 -20.512056 23.401508 -0.896910 2.639396 0.023294 -0.004329 61018.000000 0 1 0
-6.839576 9.089810 -19.087756 22.220416 -0.925733 2.604146 0.022533 -0.005687 -293284.000000 0 1 0
-8.105476 9.276310 -18.235056 22.006044 -0.852656 2.547468 0.026614 -0.006225 -471311.000000 0 1 0
-7.799976 9.548910 -16.921956 20.937381 -0.885868 2.511915 0.011668 0.000415 -64267.700000 0 1 0
-8.949176 9.762710 -16.127556 20.868549 -0.828848 2.454063 0.020209 -0.007292 160512.000000 0 1 0
-9.550876 11.177910 -16.153856 21.842893 -0.863729 2.403194 0.039386 -0.016642 -232922.000000 0 1 0
-8.555876 12.061310 -15.741656 21.598101 -0.953812 2.387429 0.019481 -0.013704 -85238.000000 0 1 0
-8.899976 13.368410 -16.193456 22.806841 -0.983431 2.360332 0.048397 -0.012167 491274.000000 0 1 0
-7.761776 14.350610 -15.791656 22.705982 -1.074992 2.339890 0.057092 -0.014937 215558.000000 0 1 0
-7.487676 14.503610 -14.388456 21.758853 -1.094223 2.293306 0.061135 -0.016439 168869.000000 0 1 0
-8.407076 15.370710 -13.749256 22.270602 -1.070294 2.236195 0.054690 -0.014346 -511701.000000 0 1 0
-7.842576 16.092910 -12.469656 21.816968 -1.117335 2.179199 0.063263 -0.017655 188412.000000 0 1 0
-7.395376 17.416010 -12.721456 22.800098 -1.169238 2.162717 0.065131 -0.016237 744289.000000 0 1 0
-6.198276 17.536610 -13.528956 22.999652 -1.231053 2.199658 0.074534 -0.021879 474959.000000 0 1 0
-5.988176 18.918810 -14.070156 24.325890 -1.264254 2.187565 0.099415 -0.013619 257227.000000 0 1 0
-5.424676 19.873210 -13.191656 24.462040 -1.304324 2.140367 0.096659 -0.023381 -24815.100000 0 1 0
-5.775676 21.163910 -13.673156 25.850043 -1.304382 2.128149 0.110454 -0.019937 -126915.000000 0 0 1
-5.435976 22.304810 -12.702456 26.237508 -1.331743 2.076169 0.122847 -0.020968 -500828.000000 0 0 1
-5.869176 23.618210 -13.031756 27.606046 -1.327228 2.062424 0.116385 -0.024994 1198650.000000 0 0 1
-7.291276 23.857810 -12.890156 28.080491 -1.274197 2.047714 0.120362 -0.025311 735087.000000 0 0 1
-7.883776 23.908510 -11.481056 27.669215 -1.252276 1.998673 0.071684 -0.027059 -568826.000000 0 0 1
-8.007476 22.578010 -10.947956 26.339020 -1.229978 1.999460 0.084100 -0.023757 -126640.000000 0 0 1
-8.545976 22.613610 -9.641856 26.026419 -1.209474 1.950305 0.086579 -0.030002 -110403.000000 0 0 1
-7.614076 23.121710 -8.529056 25.794039 -1.252676 1.907799 0.088373 -0.027936 -27157.200000 0 0 1
-7.360876 24.522010 -8.649856 27.024646 -1.279180 1.896603 0.087890 -0.028278 -296123.000000 0 0 1
-6.679676 24.977210 -7.513156 26.924462 -1.309481 1.853597 0.085138 -0.025940 -297582.000000 0 0 1
-6.682276 26.484910 -7.458856 28.314975 -1.323649 1.837367 0.081727 -0.037989 146093.000000 0 0 1
-5.947276 27.240010 -8.414156 29.123638 -1.355841 1.863886 0.085591 -0.039439 -88150.800000 0 0 1
-6.346076 27.161510 -9.781256 29.558304 -1.341271 1.908068 0.087952 -0.032088 -107256.000000 0 0 1
-5.735176 28.347610 -10.552056 30.786769 -1.371175 1.920635 0.089852 -0.030880 521285.000000 0 0 1
-6.444476 29.573410 -10.384756 31.999391 -1.356236 1.901311 0.091097 -0.030586 788188.000000 0 0 1
-7.739176 29.686610 -10.998156 32.590630 -1.315777 1.915018 0.101537 -0.032023 274213.000000 0 0 1
-8.665376 30.780710 -10.463056 33.645452 -1.296379 1.887020 0.091374 -0.042389 -124044.000000 0 0 1
-9.814176 30.208110 -9.888656 33.266102 -1.256668 1.872617 0.094312 -0.034289 -521376.000000 0 0 1
-10.838676 31.126810 -9.658956 34.346043 -1.235717 1.855866 0.082474 -0.037905 -549720.000000 0 0 1
-11.917076 30.617810 -8.746856 33.999625 -1.199617 1.830985 0.101584 -0.034582 -576118.000000 0 0 1
-12.696176 29.633510 -9.353756 33.568297 -1.166016 1.853183 0.111653 -0.042987 -189366.000000 0 0 1
-13.850676 29.304410 -8.604456 33.535450 -1.129269 1.830276 0.113613 -0.038272 637421.000000 0 0 1
-14.868476 28.250810 -9.126856 33.203605 -1.086329 1.849256 0.116848 -0.048204 65568.400000 0 0 1
-14.427676 26.895010 -9.039556 31.831007 -1.078420 1.858745 0.113540 -0.051100 526576.000000 0 0 1
-15.452276 25.987910 -9.530756 31.701414 -1.034361 1.876161 0.140438 -0.054529 148175.000000 0 0 1
-15.453976 24.628110 -8.820956 30.383852 -1.010406 1.865355 0.137243 -0.047304 341661.000000 0 0 1
-14.353576 23.753010 -9.106656 29.208934 -1.027232 1.887858 0.117888 -0.039356 427980.000000 0 0 1
-14.696676 22.448310 -8.695256 28.205078 -0.991131 1.884188 0.107933 -0.032337 467280.000000 0 0 1
-13.688276 21.407010 -9.312256 27.061913 -1.001888 1.922086 0.098258 -0.027128 287240.000000 0 0 1
-13.886576 21.196910 -10.716056 27.513267 -0.990828 1.970871 0.088205 -0.016423 250313.000000 0 0 1
-13.112676 20.164310 -11.330356 26.587942 -0.994216 2.011025 0.088112 -0.011457 15906.300000 0 0 1
-13.382876 20.090810 -12.832256 27.338779 -0.983173 2.059384 0.101209 0.006920 -58433.300000 0 0 1
-14.689376 19.637510 -13.100256 27.803351 -0.928560 2.061419 0.121206 0.003810 -506203.000000 0 0 1
-15.010876 19.504310 -14.451756 28.541160 -0.914857 2.101741 0.121515 0.017154 752640.000000 0 0 1
-16.504376 19.106010 -14.669856 29.199979 -0.858327 2.097160 0.122348 0.000866 613353.000000 0 0 1
-17.493176 20.104310 -14.631856 30.402068 -0.854737 2.072909 0.109146 -0.015478 -257522.000000 0 0 1
-18.721276 19.524610 -15.009456 30.935099 -0.806400 2.077379 0.102907 -0.016508 7874.430000 0 0 1
-19.771376 20.527310 -15.586756 32.484223 -0.804154 2.071252 0.098699 -0.030693 327453.000000 0 0 1
-20.435376 21.338110 -14.597556 32.954639 -0.807005 2.029693 0.116740 -0.048099 453656.000000 0 0 1
-20.802376 22.600510 -15.217656 34.279717 -0.826803 2.030772 0.112839 -0.047473 -157668.000000 0 0 1
-21.244176 23.660010 -14.254656 34.846899 -0.839146 1.992226 0.107880 -0.040265 -132162.000000 0 0 1
-22.552576 23.445210 -13.771056 35.326174 -0.804802 1.971239 0.153095 -0.045614 104507.000000 0 0 1
-23.079576 24.554010 -13.110456 36.158683 -0.816342 1.941832 0.168801 -0.057106 -8712.490000 0 0 1
-26.084066 -0.697690 3.795944 26.368058 0.026741 1.426334 0.204047 -0.044392 686.897000 0 0 1
-26.739696 0.004910 4.819944 27.170632 -0.000184 1.392457 0.214070 -0.040744 -192124.000000 0 0 1
-28.114296 -0.216590 4.952244 28.547947 0.007704 1.396443 0.204603 -0.034018 -142766.000000 0 0 1
-28.757516 0.646410 6.084444 29.401242 -0.022474 1.362345 0.208408 -0.025436 -339582.000000 0 0 1
-28.865286 2.020810 5.796144 29.510739 -0.069894 1.373103 0.230927 -0.039055 62884.700000 0 0 1
-29.283076 2.761710 6.904844 30.212621 -0.094033 1.340217 0.243790 -0.040605 -720692.000000 0 0 1
-28.170636 3.205210 7.828944 29.413441 -0.113291 1.301380 0.253205 -0.042267 -879894.000000 0 0 1
-27.451996 2.103810 8.273244 28.748647 -0.076486 1.278890 0.219333 -0.048160 91042.500000 0 0 1
-26.537546 2.462610 9.311644 28.231410 -0.092532 1.234670 0.211376 -0.056392 28252.400000 0 0 1
-25.658356 1.259210 9.730644 27.470389 -0.049037 1.208713 0.191023 -0.048232 -513887.000000 0 0 1
-24.626176 0.909210 8.850844 26.184206 -0.036904 1.225982 0.191104 -0.050255 238967.000000 0 0 1
-24.980076 -0.297890 8.145344 26.276217 0.011925 1.255615 0.163701 -0.033993 -327760.000000 0 0 1
-23.712976 -0.940890 7.603044 24.919807 0.039657 1.260752 0.141887 -0.045772 -79933.100000 0 1 0
-22.805276 -1.402090 8.595944 24.411815 0.061404 1.210959 0.142777 -0.060829 668449.000000 0 1 0
-21.699476 -2.148290 8.083744 23.255738 0.098680 1.215784 0.150252 -0.048245 453900.000000 0 1 0
-20.656576 -2.501790 9.172544 22.739583 0.120526 1.155596 0.112721 -0.034332 142945.000000 0 1 0
-19.889176 -1.385690 9.658144 22.153537 0.069558 1.119687 0.090821 -0.032642 1189260.000000 0 1 0
-20.579176 -0.593290 10.672644 23.189649 0.028822 1.092539 0.128102 -0.039400 -357117.000000 0 1 0
-20.069176 0.829810 10.808444 22.809710 -0.041324 1.077136 0.099895 -0.037712 -423054.000000 0 1 0
-20.467076 1.818010 9.845144 22.784495 -0.088594 1.123978 0.101595 -0.035230 824413.000000 0 1 0
-21.853276 2.102610 9.658244 23.984752 -0.095920 1.156351 0.140080 -0.041326 -57595.200000 0 1 0
-22.184076 3.534610 9.143044 24.253288 -0.158003 1.184261 0.130569 -0.049735 -302360.000000 0 1 0
-22.058576 4.490210 10.181744 24.706491 -0.200815 1.146030 0.112932 -0.045640 577089.000000 0 1 0
-22.315076 5.774910 9.625844 24.979373 -0.253234 1.175207 0.096645 -0.038419 -171231.000000 0 1 0
-22.221876 6.735610 10.872344 25.639581 -0.294305 1.132889 0.096849 -0.045066 427953.000000 0 0 1
-23.413876 6.712810 11.662544 27.005302 -0.279213 1.124241 0.103373 -0.041058 657395.000000 0 0 1
-23.602876 7.758410 12.595344 27.855545 -0.317580 1.101604 0.121040 -0.037098 391972.000000 0 0 1
-24.564376 7.392510 13.789144 29.123844 -0.292323 1.077575 0.146540 -0.030955 1218860.000000 0 0 1
-25.933956 7.107710 13.476844 30.078480 -0.267501 1.106207 0.165978 -0.034157 831079.000000 0 0 1
-26.673136 6.576610 14.550044 31.087164 -0.241741 1.083725 0.156619 -0.033714 -398046.000000 0 0 1
-28.185836 6.537110 14.394744 32.316928 -0.227900 1.109148 0.155618 -0.030132 -847585.000000 0 0 1
-28.659346 5.669610 13.475044 32.172650 -0.195306 1.138634 0.180071 -0.022036 183776.000000 0 0 1
-30.083726 5.761810 13.496544 33.472164 -0.189234 1.155767 0.209373 -0.033137 104523.000000 0 0 1
-30.658226 4.849910 12.421044 33.432481 -0.156893 1.190144 0.236608 -0.031271 -583236.000000 0 0 1
-31.226136 3.660010 12.968944 34.009716 -0.116677 1.179561 0.201932 -0.034988 144196.000000 0 0 1
-31.655966 2.880210 11.876044 33.932819 -0.090735 1.213239 0.202375 -0.018532 -354416.000000 0 0 1
-32.841236 1.977110 12.286744 35.120077 -0.060130 1.213386 0.142481 -0.004378 -106197.000000 0 0 1
-32.601816 0.816610 13.037544 35.121544 -0.025043 1.190482 0.149441 -0.003048 -159362.000000 0 0 1
-33.851966 0.364710 13.506144 36.448656 -0.010773 1.191192 0.119727 0.002383 158471.000000 0 0 1
-33.803426 -0.780390 14.486844 36.785177 0.023082 1.166009 0.107735 -0.003808 -113832.000000 0 0 1
-33.488396 -2.012790 13.876244 36.305291 0.060032 1.178610 0.128079 -0.003796 168547.000000 0 0 1
-33.622406 -3.027190 14.837444 36.875192 0.089793 1.156693 0.139230 -0.000336 -141012.000000 0 0 1
-33.439316 -4.505190 14.394044 36.683417 0.133921 1.167573 0.143130 -0.002606 227495.000000 0 0 1
-34.545173 -5.002690 13.640344 37.476057 0.143816 1.198264 0.119024 -0.003236 486946.000000 0 0 1
-34.492149 -6.351390 13.333144 37.520944 0.182100 1.207506 0.126421 -0.006692 -55738.600000 0 0 1
-35.579030 -6.758890 12.257444 38.233427 0.187731 1.244439 0.136131 -0.012478 1628440.000000 0 0 1
-36.980266 -6.786990 12.551444 39.637634 0.181510 1.248596 0.109120 -0.008894 786599.000000 0 0 1
37.497777 -5.602490 12.955444 40.066378 -0.148311 1.241529 0.107845 -0.012752 -475681.000000 0 0 1
35.997017 -5.506290 12.572244 38.524872 -0.151789 1.238366 0.119995 -0.021225 761810.000000 0 0 1
35.148817 -6.418390 13.328544 38.135090 -0.180616 1.213750 0.108117 -0.015674 402396.000000 0 0 1
33.809607 -6.223190 12.908644 36.721256 -0.182028 1.211591 0.130467 -0.015799 612265.000000 0 0 1
32.817787 -7.332290 13.434944 36.211425 -0.219814 1.190696 0.096177 -0.024669 659609.000000 0 0 1
32.214177 -7.125190 14.742044 36.136538 -0.217677 1.150584 0.104497 -0.011390 427477.000000 0 0 1
31.344897 -8.194090 15.089844 35.740020 -0.255695 1.134913 0.110444 -0.000634 134827.000000 0 0 1
30.760847 -8.029590 16.496844 35.816893 -0.255335 1.092138 0.100026 -0.002627 358885.000000 0 0 1
31.679307 -8.357390 17.559744 37.172154 -0.257936 1.078796 0.074585 0.002443 479619.000000 0 0 1
31.063187 -8.276490 18.861844 37.271852 -0.260391 1.040184 0.080087 -0.003175 -59291.600000 0 0 1
31.929357 -8.919190 20.003444 38.719162 -0.272398 1.027887 0.072332 -0.001964 1168520.000000 0 0 1
33.232137 -8.391190 20.266044 39.818331 -0.247332 1.036817 0.070870 0.000409 974865.000000 0 0 1
34.284287 -8.686490 19.322544 40.301713 -0.248145 1.070772 0.046217 0.009479 -67448.400000 0 0 1
35.593807 -8.083490 19.839044 41.543345 -0.223316 1.072932 0.045308 0.008071 -225820.000000 0 0 1
36.031527 -8.571890 21.108744 42.630121 -0.233558 1.052777 0.056292 -0.007999 -816086.000000 0 0 1
37.317497 -8.116590 21.364944 43.759975 -0.214165 1.060736 0.052116 -0.005431 -463308.000000 0 0 1
-37.187666 -8.681690 22.700544 44.425319 0.229348 1.034469 0.062493 -0.014435 48892.100000 0 0 1
37.416077 -8.068590 23.914744 45.132914 -0.212393 1.012345 0.066343 -0.008639 28721.900000 0 0 1
37.388317 -9.093090 24.931444 45.849181 -0.238575 0.995873 0.066149 -0.023039 -329174.000000 0 0 1
36.669137 -8.698390 26.258944 45.932774 -0.232908 0.962242 0.090224 -0.025646 -216674.000000 0 0 1
37.293617 -7.749890 27.082344 46.736795 -0.204891 0.952724 0.082436 -0.026960 -171502.000000 0 0 1
36.590417 -7.402890 28.285344 46.837186 -0.199623 0.922401 0.094731 -0.022954 421153.000000 0 0 1
37.443607 -6.358090 29.140944 47.871114 -0.168200 0.916328 0.103322 -0.029537 818360.000000 0 0 1
-36.727286 -7.013690 29.985744 47.929430 0.188695 0.894867 0.096526 -0.034453 718491.000000 0 0 1
-35.337267 -6.692090 29.726844 46.660388 0.187161 0.880080 0.094207 -0.041156 1431290.000000 0 0 1
-34.445044 -7.296090 30.844044 46.808643 0.208733 0.851389 0.097432 -0.035878 -47730.700000 0 0 1
-34.503486 -8.737990 30.948444 47.166187 0.248035 0.855081 0.093195 -0.030174 58397.300000 0 0 1
-34.285944 -9.092190 32.330944 47.994623 0.259221 0.831678 0.075623 -0.021886 88687.900000 0 0 1
-34.123364 -10.635390 32.633244 48.398803 0.302133 0.830838 0.073777 -0.023985 1088690.000000 0 0 1
-35.472490 -11.152090 32.580344 49.438300 0.304603 0.851294 0.077031 -0.024987 1133090.000000 0 0 1
-35.586624 -12.522190 32.888344 50.048539 0.338348 0.853793 0.066057 -0.020427 282901.000000 0 0 1
-37.075306 -12.952690 32.965244 51.274339 0.336106 0.872493 0.065572 -0.021392 286446.000000 0 0 1
-37.222926 -14.313590 33.256944 51.927347 0.367105 0.875710 0.061536 -0.032845 527759.000000 0 0 1
36.475167 -14.589490 33.479944 51.615866 -0.380493 0.865005 0.052562 -0.029970 499911.000000 0 0 1
36.214667 -16.109890 33.670944 52.007337 -0.418558 0.866593 0.041693 -0.017831 -149690.000000 0 0 1
36.707907 -16.604890 -32.863596 51.992391 -0.424808 2.255037 0.047512 -0.032558 56740.600000 0 0 1
36.544437 -18.037390 -32.806596 52.317454 -0.458494 2.248580 0.040745 -0.035336 -6102.190000 0 0 1
37.017847 -18.625290 -31.430096 52.010319 -0.466159 2.219690 0.040476 -0.039220 639127.000000 0 0 1
35.949587 -18.642390 -30.473696 50.680939 -0.478393 2.215905 0.033949 -0.033236 424168.000000 0 0 1
36.441577 -19.313290 -29.319696 50.602729 -0.487343 2.188800 0.029307 -0.027369 442819.000000 0 0 1
35.283087 -19.465090 -28.245296 49.209579 -0.504135 2.182154 0.024419 -0.020626 1214410.000000 0 0 1
34.135397 -20.180690 -28.656296 48.925135 -0.533920 2.196561 0.029007 -0.023976 677488.000000 0 0 1
33.209177 -19.559690 -29.566996 48.576106 -0.532280 2.225184 0.028485 -0.020550 -437408.000000 0 0 1
31.932787 -20.382890 -29.822196 48.213363 -0.568111 2.237688 0.033187 -0.016875 -379866.000000 0 0 1
31.011647 -19.554790 -30.468696 47.670257 -0.562590 2.264196 0.033428 -0.014659 -251841.000000 0 0 1
29.738807 -20.168490 -30.450696 47.099994 -0.595936 2.273799 0.045398 -0.010247 120620.000000 0 0 1
28.630507 -19.549290 -31.329296 46.726924 -0.599098 2.305647 0.051725 -0.006613 171994.000000 0 0 1
28.823307 -19.721590 -32.720496 47.857653 -0.600059 2.323623 0.046400 -0.008845 250982.000000 0 0 1
27.690707 -19.246490 -33.439796 47.491289 -0.607398 2.351986 0.074038 -0.007232 254297.000000 0 0 1
27.972507 -19.373790 32.804344 47.264467 -0.605743 0.803684 0.067718 -0.011783 114752.000000 0 0 1
29.021007 -18.482290 32.440144 47.288231 -0.567082 0.814807 0.065720 -0.010876 499209.000000 0 0 1
29.474607 -18.480490 31.082644 46.652027 -0.560034 0.841607 0.058781 -0.011864 -23398.900000 0 0 1
28.524907 -17.802990 30.056444 45.099962 -0.557967 0.841372 0.063503 -0.012937 -98286.000000 0 0 1
28.171107 -16.479190 30.255444 44.503559 -0.529293 0.823247 0.076212 -0.016283 -127867.000000 0 0 1
27.245807 -16.052290 29.313944 43.119801 -0.532415 0.823272 0.078417 -0.011556 -181683.000000 0 0 1
26.744007 -14.647790 29.845344 42.667835 -0.501078 0.796125 0.088022 -0.014534 166633.000000 0 0 1
27.788607 -13.703190 29.655244 42.888431 -0.458131 0.807301 0.096791 -0.019450 325333.000000 0 0 1
27.770607 -12.536590 30.490044 43.104703 -0.424046 0.785056 0.112433 -0.013826 809146.000000 0 0 1
29.184007 -11.823890 30.465244 43.813716 -0.384938 0.801909 0.111855 -0.012747 1135620.000000 0 0 1
29.590607 -11.204690 29.231044 43.076710 -0.361973 0.824967 0.106521 -0.019136 -321606.000000 0 0 1
30.903957 -10.732790 29.302644 43.919156 -0.334263 0.840360 0.095409 -0.019677 -107055.000000 0 0 1
31.512487 -10.010590 28.066444 43.370197 -0.307588 0.866974 0.095389 -0.027026 154829.000000 0 0 1
31.229297 -8.622390 27.990244 42.814347 -0.269388 0.858256 0.091003 -0.020176 -12555.800000 0 0 1
31.997157 -8.017590 26.973644 42.610764 -0.245517 0.885343 0.084771 -0.011000 159824.000000 0 0 1
31.873257 -6.552190 27.017644 42.294075 -0.202746 0.877853 0.084968 -0.013748 -19519.500000 0 0 1
30.561437 -6.210590 26.647644 41.020358 -0.200486 0.863712 0.091461 -0.014715 -467986.000000 0 0 1
30.370987 -4.789790 26.561544 40.630709 -0.156421 0.858292 0.101094 -0.010872 -371952.000000 0 0 1
28.932707 -4.389690 26.284744 39.335209 -0.150572 0.838977 0.092371 -0.012460 -647669.000000 0 0 1
28.507707 -4.705290 24.992544 38.202831 -0.163578 0.857663 0.104852 -0.015179 412213.000000 0 0 1
27.187807 -4.175290 24.803644 37.038232 -0.152382 0.837023 0.106534 -0.019293 687268.000000 0 0 1
26.530807 -4.748890 23.502244 35.760189 -0.177120 0.853675 0.112048 -0.013029 -51674.600000 0 0 1
27.048607 -4.097490 22.378944 35.344500 -0.150343 0.885159 0.124427 -0.001777 109675.000000 0 0 1
26.394007 -4.620190 21.257244 34.203218 -0.173291 0.900142 0.131741 0.002725 45606.200000 0 0 1
26.544607 -3.740690 19.952544 33.417254 -0.139999 0.930949 0.143838 0.000194 63107.100000 0 0 1
25.821307 -2.534490 20.002544 32.760727 -0.097842 0.914023 0.132201 0.003315 3021.650000 0 0 1
26.083307 -1.651590 18.920444 32.265304 -0.063235 0.944186 0.151069 0.003227 211979.000000 0 0 1
24.889507 -0.667090 18.770444 31.181118 -0.026796 0.924817 0.119355 -0.004860 711706.000000 0 0 1
23.747707 -1.241690 18.129844 29.902953 -0.052239 0.919410 0.128442 -0.005816 202149.000000 0 0 1
22.843407 -0.272790 17.631044 28.857397 -0.011941 0.913509 0.127930 -0.004839 -160248.000000 0 0 1
21.662607 -0.970390 16.980344 27.541646 -0.044766 0.906464 0.129453 -0.016147 -709585.000000 0 0 1
22.017207 -1.591790 15.750144 27.117489 -0.072172 0.951071 0.143173 -0.025146 366130.000000 0 0 1
20.938607 -2.345090 15.195144 25.977242 -0.111534 0.945989 0.164846 -0.031748 349159.000000 0 0 1
21.283207 -2.937290 13.733844 25.499432 -0.137143 1.002029 0.179765 -0.054097 -142175.000000 0 0 1
20.284107 -3.841590 13.339544 24.579386 -0.187172 0.997133 0.196864 -0.052740 402984.000000 0 1 0
20.352407 -4.192090 11.976544 23.983988 -0.203134 1.047941 0.169294 -0.049925 138222.000000 0 1 0
19.200107 -5.199490 11.678744 23.066682 -0.264462 1.039903 0.165215 -0.048151 60369.300000 0 1 0
19.488607 -6.442090 12.173844 23.864383 -0.319250 1.035465 0.182244 -0.056994 713347.000000 0 1 0
18.314407 -7.239390 12.195544 23.163712 -0.376434 1.016325 0.168366 -0.039566 38294.600000 0 1 0
18.553207 -8.717990 12.574244 24.048626 -0.439272 1.020585 0.182976 -0.052145 -558639.000000 0 1 0
19.011007 -9.482090 11.495844 24.155389 -0.462662 1.074795 0.166983 -0.061359 444864.000000 0 1 0
18.499807 -10.789890 11.589744 24.351319 -0.528007 1.074765 0.169178 -0.057241 -53304.300000 0 1 0
18.886407 -11.541190 10.330644 24.425757 -0.548530 1.134108 0.134018 -0.052921 3220.830000 0 1 0
18.473807 -10.884390 9.149444 23.312310 -0.532425 1.167478 0.141873 -0.048912 462690.000000 0 1 0
19.044307 -11.474290 7.966644 23.618051 -0.542259 1.226737 0.151680 -0.054832 155613.000000 0 1 0
18.649207 -10.737490 6.646144 22.522385 -0.522406 1.271246 0.130357 -0.046924 -207391.000000 0 1 0
19.109707 -9.438090 6.564944 22.301500 -0.458748 1.271998 0.124100 -0.040953 460019.000000 0 1 0
19.680307 -9.079890 5.327544 22.319086 -0.432268 1.329770 0.111061 -0.043105 -164986.000000 0 1 0
20.182207 -7.604790 5.266944 22.201238 -0.360354 1.331276 0.135286 -0.038995 -230284.000000 0 1 0
20.781407 -7.385490 4.013644 22.416995 -0.341468 1.390781 0.134792 -0.035613 815943.000000 0 1 0
21.412807 -6.100690 3.939344 22.610730 -0.277554 1.395678 0.167951 -0.035842 -223384.000000 0 1 0
21.798707 -5.831390 2.463844 22.699322 -0.261390 1.462039 0.162242 -0.037116 38549.400000 0 1 0
20.754707 -5.543190 1.548044 21.537902 -0.260989 1.498859 0.114911 -0.047599 447483.000000 0 1 0
21.281807 -4.828190 0.490844 21.828139 -0.223093 1.548308 0.130258 -0.036981 -257711.000000 0 1 0
-25.739526 -14.801190 -0.617656 29.698147 0.521862 1.591596 0.121033 -0.015990 -824933.000000 0 0 1
-24.549576 -14.140890 -0.877156 28.344591 0.522596 1.601747 0.084170 -0.007987 -643835.000000 0 0 1
-23.401576 -14.727290 -0.334356 27.652100 0.561706 1.582888 0.112130 -0.007660 -12857.500000 0 0 1
-23.085076 -14.524590 1.195544 27.300435 0.561597 1.526990 0.137994 -0.027072 -416009.000000 0 0 1
-23.954376 -15.239090 2.053344 28.465035 0.566592 1.498598 0.128363 -0.003643 205193.000000 0 0 1
-23.792476 -14.799990 3.374444 28.222482 0.556472 1.450944 0.165717 0.000249 92770.900000 0 0 1
-24.355076 -15.840990 4.384144 29.382434 0.576669 1.421027 0.167988 0.004391 -547468.000000 0 0 1
-23.537676 -17.006590 4.545444 29.392301 0.625685 1.415526 0.182553 -0.013312 326823.000000 0 0 1
-24.008976 -17.881290 5.545644 30.445453 0.640149 1.387624 0.183647 -0.018561 7310.270000 0 0 1
-23.639876 -19.309990 5.255944 30.973285 0.684925 1.400278 0.152801 -0.010885 -65190.100000 0 0 1
-23.997376 -20.114490 6.366844 31.953145 0.697601 1.370198 0.140553 -0.023951 2683.720000 0 0 1
-24.005576 -21.471490 5.992244 32.759724 0.729733 1.386846 0.153505 -0.031633 -55558.800000 0 0 1
-24.559276 -22.439190 7.149944 34.026416 0.740319 1.359089 0.148353 -0.033183 292854.000000 0 0 1
-23.714376 -22.591190 8.275944 33.782018 0.761147 1.323296 0.143214 -0.025143 223509.000000 0 0 1
-24.306676 -23.524090 9.226844 35.061830 0.769038 1.304501 0.126026 -0.027695 540928.000000 0 0 1
-23.578676 -23.493290 10.606344 34.933983 0.783584 1.262316 0.143120 -0.030483 267033.000000 0 0 1
-23.974876 -22.412190 11.418244 34.748773 0.751723 1.235982 0.129337 -0.026494 181212.000000 0 0 1
-23.416176 -22.558890 12.738544 34.921216 0.766754 1.197400 0.121170 -0.027426 117049.000000 0 0 1
-23.996776 -21.528290 13.789244 35.063596 0.731229 1.166618 0.101881 -0.020848 -628543.000000 0 0 1
-25.282206 -21.927190 14.126744 36.325700 0.714451 1.171369 0.109740 -0.022574 -1009560.000000 0 0 1
-25.625196 -21.268490 15.285644 36.642192 0.692758 1.140479 0.103959 -0.015336 -95440.900000 0 0 1
-27.074066 -21.689390 15.644444 38.055004 0.675419 1.147135 0.072041 -0.008391 184137.000000 0 0 1
-28.108956 -21.237090 14.737644 38.188029 0.647029 1.174588 0.075715 -0.004422 520302.000000 0 0 1
-28.447946 -22.237390 13.782844 38.649113 0.663474 1.206154 0.072127 -0.008619 -141997.000000 0 0 1
-29.521816 -23.264090 14.261744 40.201403 0.667400 1.208142 0.071612 -0.013825 -281791.000000 0 0 1
-29.253866 -23.805490 15.541844 40.792633 0.683072 1.179923 0.068196 -0.011699 -103527.000000 0 0 1
-30.108396 -24.872290 16.002644 42.204632 0.690449 1.181899 0.037689 -0.013555 231927.000000 0 0 1
-29.749926 -26.260220 15.386644 42.560616 0.723174 1.200895 0.055070 -0.016631 -43957.400000 0 0 1
-30.106266 -26.664420 14.081344 42.610595 0.724845 1.233999 0.069239 -0.021485 672194.000000 0 0 1
-31.485126 -27.081100 13.998744 43.825380 0.710342 1.245678 0.092738 -0.034975 1017440.000000 0 0 1
-32.006056 -27.382900 12.565344 43.955645 0.707709 1.280888 0.125726 -0.045236 -29789.000000 0 0 1
-31.341076 -28.484270 11.975344 44.011652 0.737682 1.295227 0.112311 -0.043121 240928.000000 0 0 1
-31.969776 -28.958290 10.755344 44.455894 0.736011 1.326439 0.122536 -0.032978 208970.000000 0 0 1
-31.326046 -30.205680 10.119444 44.677818 0.767192 1.342315 0.097516 -0.039801 5437.170000 0 0 1
-31.589176 -31.423380 10.867744 45.862977 0.782767 1.331560 0.095848 -0.027403 -498.297000 0 0 1
-30.925506 -32.527300 10.294444 46.047668 0.810637 1.345330 0.096225 -0.030606 -139130.000000 0 0 1
-31.164396 33.781473 11.036144 47.267367 -0.825673 1.335138 0.098545 -0.030296 15110.700000 0 0 1
-32.533216 33.407220 11.055144 47.923572 -0.798652 1.338017 0.094315 -0.029929 179888.000000 0 0 1
-32.786016 32.214909 11.784244 47.450940 -0.776612 1.319824 0.101900 -0.033358 147008.000000 0 0 1
-34.258555 32.158127 12.304344 48.571500 -0.753784 1.314681 0.114672 -0.031912 520236.000000 0 0 1
-35.239220 31.819219 11.359044 48.818985 -0.734442 1.335967 0.076405 -0.028243 -55065.500000 0 0 1
-35.677908 32.878939 10.517844 49.644364 -0.744594 1.357315 0.098696 -0.021687 -331727.000000 0 0 1
-37.144966 32.673678 10.062344 50.483349 -0.721444 1.370132 0.078974 -0.008881 122588.000000 0 0 1
-37.372336 31.871005 8.898044 49.916207 -0.706115 1.391579 0.053346 -0.011375 814263.000000 0 0 1
36.317957 31.776927 8.577144 49.013615 0.718810 1.394896 0.044613 -0.002958 640273.000000 0 0 1
35.981947 31.251753 7.154344 48.192917 0.715159 1.421793 0.053179 -0.005224 -36189.000000 0 0 1
36.263687 29.904023 6.882544 47.504473 0.689578 1.425403 0.059736 -0.005542 50451.700000 0 0 1
35.785507 29.481613 5.618644 46.704787 0.689111 1.450203 0.076244 -0.006709 31440.700000 0 0 1
36.177127 28.047973 5.240344 46.075313 0.659495 1.456815 0.084495 -0.008119 213869.000000 0 0 1
35.392277 27.051353 5.919244 44.938029 0.652609 1.438692 0.076026 -0.006326 262260.000000 0 0 1
35.912197 26.691683 7.194744 45.319931 0.639166 1.411367 0.053936 -0.007110 -520825.000000 0 0 1
35.060127 25.714033 7.919544 44.194379 0.632810 1.390625 0.050565 -0.003894 -654477.000000 0 0 1
34.924157 24.472273 7.269644 43.260104 0.611213 1.401950 0.055562 -0.009237 -225486.000000 0 0 1
33.946297 23.633033 7.811644 42.093861 0.608164 1.384138 0.046941 -0.009576 -846060.000000 0 0 1
33.838097 22.307133 6.941144 41.119393 0.582837 1.401180 0.067638 -0.008148 470842.000000 0 0 1
34.852877 21.341033 7.201844 41.497340 0.549427 1.396364 0.081863 -0.005988 954676.000000 0 0 1
36.222807 21.722533 6.980744 42.809940 0.540193 1.407001 0.090665 -0.014095 462290.000000 0 0 1
37.140007 20.481233 6.981044 42.983671 0.503964 1.407662 0.083506 -0.013490 -130067.000000 0 0 1
36.792687 19.616133 5.921644 42.113660 0.489817 1.429718 0.113380 -0.022913 145779.000000 0 0 1
37.390897 18.358133 6.182544 42.110854 0.456405 1.423448 0.126124 -0.028970 171363.000000 0 0 1
36.921387 17.224233 5.203444 41.072361 0.436499 1.443765 0.137132 -0.036660 8084.160000 0 0 1
37.541707 17.317133 3.922844 41.528924 0.432192 1.476195 0.146685 -0.040058 -7158.780000 0 0 1
37.135467 16.252533 3.050144 40.650844 0.412541 1.495693 0.142045 -0.045439 -747838.000000 0 0 1
-37.007906 15.714833 1.939644 40.252992 -0.401561 1.522591 0.150583 -0.031429 1133120.000000 0 0 1
-35.751965 15.076333 2.317944 38.869933 -0.399066 1.511128 0.156350 -0.039910 512977.000000 0 0 1
-34.773161 15.994433 2.627944 38.365359 -0.431110 1.502245 0.166864 -0.045187 -716476.000000 0 0 1
-33.378756 15.318833 2.857444 36.837115 -0.430263 1.493149 0.152759 -0.047284 354993.000000 0 0 1
-33.237566 14.430533 3.930244 36.447537 -0.409606 1.462753 0.161328 -0.048264 1125140.000000 0 0 1
-31.877476 13.921933 4.054644 35.020478 -0.411766 1.454757 0.155481 -0.045260 1272280.000000 0 0 1
-31.634406 13.157933 5.434144 34.690010 -0.394170 1.413500 0.181619 -0.037033 -6429.420000 0 0 1
-32.187916 11.864633 5.428844 34.731885 -0.353153 1.413846 0.201336 -0.036274 206680.000000 0 0 1
-31.936636 11.204033 6.648544 34.491771 -0.337406 1.376825 0.178987 -0.023482 -133214.000000 0 0 1
-32.191526 9.677233 6.510544 34.239311 -0.292020 1.379483 0.204007 -0.029090 1014440.000000 0 0 1
-33.591576 9.354133 6.382544 35.448987 -0.271586 1.389760 0.195254 -0.014273 806607.000000 0 0 1
-33.703156 7.948133 6.452944 35.223800 -0.231596 1.386557 0.225524 -0.019985 393440.000000 0 0 1
-35.160598 7.392533 6.463444 36.506073 -0.207232 1.392807 0.188165 -0.011632 209605.000000 0 0 1
-35.835735 7.524033 7.665844 37.410910 -0.206953 1.364425 0.180500 -0.012456 -87288.900000 0 0 1
-37.101626 6.892133 7.553744 38.484948 -0.183670 1.373236 0.129472 -0.020318 253905.000000 0 0 1
37.381607 6.340233 8.850144 38.934665 0.168010 1.341484 0.120670 -0.023456 -37735.800000 0 0 1
36.882077 7.265333 9.828344 38.854459 0.194498 1.315065 0.135704 -0.024344 -10807.600000 0 0 1
-37.180456 7.928633 10.526544 39.446897 -0.210100 1.300670 0.160002 -0.032205 -300051.000000 0 0 1
37.399727 8.955233 11.536644 40.150092 0.235022 1.279350 0.142751 -0.042925 -311251.000000 0 0 1
36.669827 8.413433 12.621544 39.683314 0.225534 1.247117 0.130169 -0.036529 405865.000000 0 0 1
36.174957 9.429233 13.436744 39.725106 0.254983 1.225747 0.156296 -0.048984 -296114.000000 0 0 1
35.368897 8.888133 14.654144 39.302693 0.246200 1.188714 0.152060 -0.042966 -752127.000000 0 0 1
34.033207 8.551633 14.494844 37.966960 0.246177 1.179080 0.149741 -0.050481 -577829.000000 0 0 1
33.599257 7.799133 15.590844 37.852489 0.228083 1.146275 0.142199 -0.036797 697027.000000 0 0 1
32.057927 7.490233 15.563944 36.414978 0.229529 1.129176 0.134983 -0.031186 752380.000000 0 0 1
31.296247 8.616633 16.017844 36.197690 0.268668 1.112400 0.120939 -0.036599 209322.000000 0 0 1
29.896407 8.461233 15.891344 34.898745 0.275805 1.098025 0.122950 -0.025794 387543.000000 0 0 1
29.137007 7.781033 17.065744 34.651829 0.260960 1.055846 0.123558 -0.028291 -213885.000000 0 0 1
28.821007 8.578633 18.218244 35.158893 0.289301 1.026088 0.134041 -0.035457 155158.000000 0 0 1
28.190207 7.935533 19.356844 35.104812 0.274399 0.986753 0.126119 -0.022994 260229.000000 0 0 1
28.909607 6.877333 20.274944 35.974108 0.233550 0.972061 0.139492 -0.020100 -20545.400000 0 0 1
28.125107 6.774133 21.430644 36.002541 0.236355 0.933215 0.094238 -0.010294 32981.600000 0 0 1
28.549707 5.697933 22.247244 36.640033 0.196991 0.918285 0.100831 -0.011177 -175106.000000 0 0 1
27.753407 5.385933 23.576144 36.811607 0.191681 0.875707 0.095648 -0.016655 907127.000000 0 0 1
26.405207 4.966333 23.488944 35.687951 0.185910 0.852403 0.054151 -0.004731 579967.000000 0 0 1
25.343507 5.917033 23.516044 35.075760 0.229365 0.836000 0.072012 0.003044 312199.000000 0 0 1
23.954607 5.344633 23.216544 33.784555 0.219520 0.813177 0.095251 -0.012764 -521956.000000 0 0 1
23.785007 5.212933 21.802644 32.684193 0.215757 0.840527 0.089078 -0.017738 826211.000000 0 0 1
22.397107 5.177933 21.471744 31.455956 0.227196 0.819486 0.086016 -0.014319 -426912.000000 0 0 1
21.561207 3.918633 21.717044 30.852412 0.179782 0.789922 0.096495 -0.021319 -1158270.000000 0 0 1
20.414907 3.851833 20.946644 29.501982 0.186485 0.781287 0.090041 -0.022858 -913549.000000 0 0 1
19.289807 4.407633 21.531844 29.242848 0.224639 0.743194 0.105757 -0.026499 -1051500.000000 0 0 1
18.014007 4.173333 20.698244 27.754971 0.227655 0.729138 0.144074 -0.034910 -181439.000000 0 0 1
17.323907 2.951133 20.811544 27.238709 0.168731 0.701240 0.142029 -0.038304 -181713.000000 0 0 1
16.246707 2.920133 19.924244 25.873889 0.177838 0.691873 0.178359 -0.046892 -639186.000000 0 0 1
15.074207 2.039633 20.345244 25.403164 0.134489 0.642009 0.191747 -0.056207 -546221.000000 0 0 1
15.380207 0.661633 20.257844 25.443442 0.042992 0.649823 0.153338 -0.042339 415059.000000 0 0 1
14.643807 0.040933 21.318344 25.863382 0.002795 0.601889 0.180103 -0.049364 16024.200000 0 0 1
14.891707 -1.494467 21.443244 26.149743 -0.100021 0.609355 0.132538 -0.031791 -28433.500000 0 0 1
14.300807 -2.289867 20.452844 25.061432 -0.158774 0.616152 0.141912 -0.023506 -42052.800000 0 0 1
14.196507 -3.627567 20.943544 25.560361 -0.250172 0.610475 0.103932 -0.000750 43634.600000 0 0 1
13.798807 -4.619367 19.867644 24.626589 -0.323039 0.632155 0.114045 -0.006253 619065.000000 0 1 0
12.488707 -4.372267 19.341544 23.434586 -0.336762 0.599989 0.115142 -0.009230 442964.000000 0 1 0
12.259607 -5.028967 18.122944 22.450602 -0.389274 0.631342 0.112130 -0.009504 -1429350.000000 0 1 0
10.831407 -5.211667 17.747844 21.435177 -0.448464 0.595305 0.101506 -0.003348 -1364970.000000 0 1 0
10.183107 -6.167867 18.571344 22.059761 -0.544597 0.570066 0.098654 0.001281 341683.000000 0 1 0
8.877907 -6.352367 18.008344 21.058733 -0.621070 0.544959 0.075946 -0.019346 512564.000000 0 1 0
7.841807 -7.104867 18.861544 21.627087 -0.736133 0.511266 0.065921 -0.022954 -379367.000000 0 1 0
7.976007 -8.484567 18.867744 22.171971 -0.816284 0.552962 0.070683 -0.016709 228155.000000 0 1 0
9.122207 -9.061567 19.495244 23.353611 -0.782063 0.583054 0.115072 -0.021074 405475.000000 0 1 0
9.353807 -10.506467 18.959044 23.607729 -0.843372 0.638339 0.145235 -0.035413 100007.000000 0 1 0
9.575307 -10.454667 17.548344 22.559497 -0.829272 0.679528 0.128719 -0.026882 116733.000000 0 1 0
9.920507 -11.730267 17.064844 22.961370 -0.868793 0.732959 0.138348 -0.038889 210504.000000 0 1 0
9.505307 -11.904867 15.576544 21.787735 -0.897008 0.774283 0.116030 -0.038163 47161.900000 0 1 0
10.041107 -13.077567 14.998544 22.289075 -0.915993 0.832661 0.099344 -0.036848 -43062.500000 0 1 0
9.704607 -13.262167 13.625244 21.347405 -0.939077 0.878557 0.073778 -0.025102 -336743.000000 0 1 0
10.585107 -14.400267 12.970644 22.082793 -0.936923 0.942998 0.111636 -0.034477 -200403.000000 0 1 0
11.929007 -14.149767 12.747244 22.472412 -0.870349 0.967646 0.087779 -0.033270 -818846.000000 0 1 0
12.152807 -13.241367 11.688244 21.439206 -0.828238 0.994192 0.049543 -0.031763 -758596.000000 0 1 0
13.636907 -12.881967 11.432944 21.968671 -0.756938 1.023453 0.089475 -0.036295 167150.000000 0 1 0
14.302007 -13.963267 10.802344 22.720274 -0.773414 1.075321 0.105481 -0.032918 -248616.000000 0 1 0
15.351707 -13.598367 9.937444 22.789104 -0.724908 1.119579 0.103119 -0.048382 -81629.800000 0 1 0
16.273607 -14.823767 9.659244 24.039037 -0.738809 1.157298 0.090302 -0.047423 271213.000000 0 1 0
17.003807 -15.318067 10.770044 25.293605 -0.733291 1.130949 0.098063 -0.040345 167758.000000 0 0 1
16.336907 -16.400967 11.348344 25.781216 -0.787355 1.114999 0.152872 -0.035801 168259.000000 0 0 1
17.097407 -17.018267 12.610344 27.220644 -0.783078 1.089122 0.155939 -0.034304 401997.000000 0 0 1
18.245207 -17.751367 12.181644 28.220401 -0.771680 1.124463 0.174315 -0.044852 457932.000000 0 0 1
18.710207 -18.559767 13.309244 29.524104 -0.781362 1.103143 0.137666 -0.041084 410579.000000 0 0 1
20.111107 -19.186967 13.024544 30.695847 -0.761886 1.132597 0.072565 -0.034887 327719.000000 0 0 1
21.147607 -18.238267 12.993644 30.800818 -0.711664 1.135300 0.065710 -0.032002 227240.000000 0 0 1
22.450107 -18.836467 12.916344 32.025797 -0.698095 1.155664 0.059579 -0.028753 1051960.000000 0 0 1
23.280207 -18.122067 11.765744 31.761770 -0.661451 1.191317 0.067918 -0.033834 -610530.000000 0 0 1
22.924107 -18.389467 10.442544 31.188682 -0.676074 1.229384 0.064418 -0.019490 195309.000000 0 0 1
21.599507 -18.056667 10.037644 29.888730 -0.696296 1.228306 0.089917 -0.024933 356705.000000 0 0 1
21.400607 -16.509267 9.874244 28.775728 -0.657082 1.220533 0.139586 -0.046255 -415653.000000 0 0 1
22.026707 -16.012167 8.726744 28.595827 -0.628581 1.260674 0.130499 -0.032889 -114802.000000 0 0 1
21.992507 -14.588467 8.638144 27.768890 -0.585695 1.254475 0.157375 -0.043679 -62120.300000 0 0 1
-36.068306 24.841710 8.601444 44.632030 -0.603129 1.376864 0.101834 -0.003320 -70029.900000 0 0 1
-35.186459 23.993210 9.286144 43.588915 -0.598466 1.356112 0.105826 -0.019325 241603.000000 0 0 1
-33.982946 24.659810 9.617644 43.074888 -0.627736 1.345621 0.118372 -0.018536 737783.000000 0 0 1
-32.860816 23.773610 10.320144 41.851203 -0.626301 1.321635 0.144632 -0.043727 875620.000000 0 0 1
-32.318026 22.786610 9.422644 40.650592 -0.614123 1.336873 0.155030 -0.043087 133804.000000 0 0 1
-31.299046 21.984710 9.977244 39.528511 -0.612340 1.315630 0.158190 -0.046815 -128294.000000 0 0 1
-30.517266 21.264210 8.870544 38.238158 -0.608570 1.336682 0.141391 -0.046707 -300798.000000 0 0 1
-31.303326 20.422410 8.069544 38.237294 -0.578063 1.358159 0.145970 -0.047911 -21316.700000 0 0 1
-30.641766 20.037010 6.901644 37.256306 -0.579120 1.384472 0.153108 -0.053165 -33238.000000 0 0 1
-31.595966 19.196610 6.020044 37.457387 -0.545964 1.409379 0.141109 -0.036362 -83488.100000 0 0 1
-31.898926 17.901810 6.500944 37.152101 -0.511405 1.394909 0.150820 -0.045706 -173176.000000 0 0 1
-32.945966 17.479910 5.691844 37.727723 -0.487798 1.419352 0.123776 -0.038070 -318959.000000 0 0 1
-33.800506 16.321010 6.271244 38.054935 -0.449844 1.405247 0.114586 -0.034201 -113108.000000 0 0 1
-34.498708 16.604310 7.459644 39.006542 -0.448578 1.378370 0.091405 -0.033213 37557.300000 0 0 1
-35.340990 15.501510 7.736444 39.359052 -0.413356 1.372947 0.103044 -0.033276 364589.000000 0 0 1
-36.383066 15.720610 8.883544 40.617514 -0.407857 1.350302 0.110895 -0.031977 1923460.000000 0 0 1
37.397397 16.299110 8.529944 41.677167 0.411012 1.364673 0.131124 -0.037890 1645370.000000 0 0 1
36.604947 16.518410 9.681344 41.309907 0.423903 1.334237 0.142780 -0.035634 -169384.000000 0 0 1
35.723807 17.735810 9.716744 41.050754 0.460820 1.331828 0.110351 -0.027469 239076.000000 0 0 1
34.448507 17.544910 9.094244 39.714339 0.471066 1.339755 0.122634 -0.036436 599298.000000 0 0 1
33.699677 18.783810 9.259744 39.676726 0.508498 1.335244 0.100751 -0.022095 -256133.000000 0 0 1
32.271477 18.676410 8.738344 38.296412 0.524632 1.340592 0.079543 -0.024305 -849394.000000 0 0 1
31.678317 19.915510 9.022344 38.490856 0.561241 1.334193 0.078551 -0.014147 634825.000000 0 0 1
30.303847 20.093510 8.635544 37.371712 0.585507 1.337617 0.048400 -0.009561 966565.000000 0 0 1
29.820107 20.016210 7.161244 36.622000 0.591157 1.373983 0.049862 -0.010743 -997958.000000 0 0 1
29.735107 18.703810 6.720044 35.765459 0.561481 1.381781 0.072294 -0.010738 156985.000000 0 0 1
29.321107 18.672910 5.329544 35.168294 0.567070 1.418666 0.070679 -0.018777 58610.000000 0 0 1
27.966207 19.256910 4.903844 34.307215 0.603019 1.427366 0.102427 -0.025050 -1636980.000000 0 0 1
26.835607 18.513010 5.212244 33.015887 0.603893 1.412262 0.099519 -0.018860 908757.000000 0 0 1
25.548107 18.732410 4.584244 32.009752 0.632676 1.427088 0.114760 -0.018884 1253740.000000 0 0 1
24.930407 20.071310 4.957044 32.387574 0.677839 1.417139 0.108182 -0.016621 -1246360.000000 0 0 1
25.626007 21.111010 4.318244 33.481550 0.689093 1.441462 0.103203 -0.014801 -55747.900000 0 0 1
25.385407 22.374010 4.845444 34.183235 0.722428 1.428568 0.126132 -0.017763 127386.000000 0 0 1
26.536107 23.393610 4.564844 35.668807 0.722543 1.442466 0.113920 -0.017594 918317.000000 0 0 1
27.654707 23.331910 5.480844 36.595088 0.700817 1.420461 0.100721 -0.026151 -54727.200000 0 0 1
28.571407 24.311710 5.137244 37.865232 0.705022 1.434705 0.099628 -0.012816 -663514.000000 0 0 1
29.939507 23.912610 5.773044 38.749387 0.673946 1.421255 0.064341 -0.011474 355845.000000 0 0 1
30.698277 22.821210 5.171644 38.599712 0.639266 1.436411 0.054967 -0.012867 574190.000000 0 0 1
30.942537 22.761310 3.740544 38.594164 0.634221 1.473724 0.063845 -0.014704 -592215.000000 0 0 1
31.782507 23.921810 3.169444 39.905214 0.645209 1.491288 0.092902 -0.022960 -526420.000000 0 0 1
31.178537 25.214310 3.147344 40.221491 0.680028 1.492466 0.074210 -0.025632 -139505.000000 0 0 1
31.865697 26.140110 2.334844 41.281709 0.687010 1.514207 0.127413 -0.021706 -575804.000000 0 0 1
31.297547 27.585910 2.475944 41.792932 0.722448 1.511518 0.120589 -0.017868 925555.000000 0 0 1
29.954207 27.695410 2.005044 40.844956 0.746237 1.521687 0.163581 -0.017217 696097.000000 0 0 1
28.934007 27.504110 2.970944 40.030980 0.760068 1.496512 0.129552 -0.007949 226264.000000 0 0 1
27.547207 28.073710 2.584544 39.416515 0.794864 1.505179 0.098169 -0.005897 91776.000000 0 0 1
27.439307 29.478510 2.720244 40.364562 0.821210 1.503353 0.101438 -0.011458 -156186.000000 0 0 1
26.152507 30.002110 2.519244 39.880156 0.853845 1.507584 0.096352 -0.010171 -259291.000000 0 0 1
26.077707 31.500610 2.996044 41.003799 0.879304 1.497664 0.098737 -0.015558 -180716.000000 0 0 1
26.100407 31.669210 4.386844 41.272443 0.881498 1.464305 0.101525 -0.036411 -143443.000000 0 0 1
27.382507 31.602810 4.952344 42.107778 0.856825 1.452912 0.101186 -0.035294 -352218.000000 0 0 1
27.331307 31.446710 6.513244 42.170111 0.855300 1.415724 0.121623 -0.048611 -103891.000000 0 0 1
26.791207 30.194810 6.887544 40.950380 0.845054 1.401801 0.109506 -0.048562 462400.000000 0 0 1
27.648907 29.030910 6.733344 40.652106 0.809776 1.404396 0.086368 -0.046214 242971.000000 0 0 1
27.057707 27.712710 7.217844 39.398110 0.797357 1.386553 0.108001 -0.046636 -6267.320000 0 0 1
25.780207 27.424310 6.687844 38.228773 0.816290 1.394949 0.108379 -0.054592 139070.000000 0 0 1
25.302807 26.150710 7.136044 37.081192 0.801876 1.377144 0.122442 -0.049361 589490.000000 0 0 1
23.862407 25.760110 6.626444 35.733842 0.823622 1.384278 0.132415 -0.029593 675419.000000 0 0 1
23.758807 25.605210 5.187444 35.313132 0.822785 1.423364 0.078855 -0.029731 228054.000000 0 0 1
23.851807 26.801210 4.441344 36.151613 0.843560 1.447632 0.078767 -0.019002 -341395.000000 0 0 1
23.684207 26.528910 2.966344 35.686467 0.841990 1.487578 0.075742 -0.011475 67348.900000 0 0 1
24.798407 25.842310 2.443444 35.899253 0.806009 1.502680 0.082441 0.002598 273695.000000 0 0 1
24.526607 25.612510 1.041544 35.477316 0.807053 1.541434 0.098786 -0.002305 -83948.900000 0 0 1
25.606607 24.962510 0.129944 35.760902 0.772662 1.567163 0.114848 -0.005710 -12951.100000 0 0 1
26.751007 25.852810 0.013944 37.201940 0.768325 1.570422 0.086212 -0.000427 1018210.000000 0 0 1
27.830607 25.321410 -0.730056 37.633090 0.738225 1.590197 0.095369 0.002405 1192770.000000 0 0 1
28.739407 24.120010 -0.124956 37.519915 0.698229 1.574127 0.094822 -0.005811 370708.000000 0 0 1
27.970507 22.905410 -0.203556 36.153126 0.686167 1.576427 0.094452 -0.007944 584440.000000 0 0 1
28.414107 21.810710 0.587644 35.824766 0.654671 1.554392 0.100460 -0.015803 -182347.000000 0 0 1
27.237907 20.984610 1.157244 34.403439 0.656442 1.537153 0.091373 -0.015743 118103.000000 0 0 1
26.716207 20.004110 0.257844 33.376438 0.642709 1.563071 0.123572 -0.033693 318913.000000 0 0 1
25.603107 19.342710 0.793744 32.098124 0.647001 1.546065 0.108320 -0.022822 -49049.200000 0 0 1
24.911207 18.319310 -0.198356 30.922560 0.634081 1.577211 0.126920 -0.024549 -721027.000000 0 0 1
23.623807 17.978910 0.178644 29.687664 0.650536 1.564779 0.099439 -0.013445 -437572.000000 0 0 1
23.041107 17.158010 -0.866956 28.740938 0.640081 1.600965 0.122062 -0.037564 1409320.000000 0 0 1
21.556707 16.661810 -0.602156 27.251975 0.658015 1.592894 0.087444 -0.016889 631072.000000 0 0 1
21.097907 15.778010 -1.631856 26.395648 0.642122 1.632659 0.093869 -0.022824 1590620.000000 0 0 1
19.680107 15.447210 -1.590756 25.068973 0.665475 1.634294 0.106887 -0.022625 1366750.000000 0 0 1
18.706707 16.558310 -2.070656 25.068030 0.724552 1.653492 0.106863 -0.018877 -557313.000000 0 0 1
18.563807 17.605710 -1.174256 25.611615 0.758915 1.616661 0.088299 -0.019901 -371463.000000 0 0 1
17.308407 18.175610 -1.346856 25.134593 0.809833 1.624408 0.056692 -0.030176 -472875.000000 0 0 1
17.225307 19.705410 -0.843556 26.186370 0.852453 1.603015 0.051959 -0.022904 -66441.700000 0 0 1
17.199507 19.919710 0.565044 26.323700 0.858550 1.549329 0.065582 -0.022886 180194.000000 0 0 1
17.675907 21.185210 1.004944 27.609070 0.875458 1.534389 0.080579 -0.026277 -136306.000000 0 0 1
16.740607 22.387710 0.672744 27.962655 0.928731 1.546735 0.065432 -0.031364 308148.000000 0 0 1
15.449707 22.260010 1.234044 27.124239 0.964070 1.525285 0.044341 -0.023293 -45567.500000 0 0 1
14.625107 23.375610 0.986244 27.591404 1.011725 1.535044 0.029288 -0.022122 -376520.000000 0 0 1
13.184107 23.206210 1.441244 26.728750 1.054142 1.516849 0.025508 -0.025051 -455105.000000 0 0 1
13.043807 23.146610 2.833844 26.719602 1.057625 1.464538 0.030574 -0.018044 952477.000000 0 0 1
11.646107 23.093810 3.209744 26.062585 1.103718 1.447328 0.037606 -0.021589 1222540.000000 0 0 1
11.456907 23.444110 4.684644 26.510996 1.116237 1.393158 0.063531 -0.031982 71860.100000 0 0 1
12.036907 22.475310 5.553444 26.093437 1.079106 1.356327 0.071065 -0.054728 248423.000000 0 0 1
11.468007 22.578410 6.870144 26.239258 1.100834 1.305882 0.073713 -0.032006 -648947.000000 0 0 1
12.079507 21.507010 7.826944 25.879085 1.059049 1.263542 0.078422 -0.036927 384883.000000 0 0 1
13.354707 21.829610 8.368444 26.924170 1.021767 1.254746 0.092053 -0.033443 168809.000000 0 0 1
14.402307 21.596210 7.449844 27.005979 0.982639 1.291313 0.091949 -0.035839 -1680060.000000 0 0 1
15.776207 21.665110 8.051544 27.983800 0.941404 1.278949 0.106415 -0.042778 -999811.000000 0 0 1
16.105607 20.551310 8.949744 27.601537 0.906087 1.240580 0.116560 -0.041234 -232643.000000 0 0 1
17.471907 20.421710 9.205744 28.408793 0.863086 1.240794 0.104400 -0.045595 -368795.000000 0 0 1
18.014507 21.118310 10.471144 29.667328 0.864547 1.210072 0.073457 -0.029362 -419880.000000 0 0 1
17.503007 20.661510 11.684744 29.492143 0.867970 1.163423 0.082722 -0.036803 -4852.890000 0 0 1
17.643307 21.600210 12.719844 30.653708 0.885888 1.142905 0.086181 -0.031031 37335.800000 0 0 1
18.547407 21.006010 13.878744 31.271046 0.847477 1.110938 0.063843 -0.021606 103172.000000 0 0 1
19.903407 21.100510 13.534544 32.008765 0.814585 1.134221 0.072289 -0.022306 -964402.000000 0 0 1
20.749407 20.523210 14.501544 32.588876 0.779918 1.109639 0.064708 -0.021142 -746958.000000 0 0 1
22.126407 21.040010 14.132844 33.645166 0.760236 1.137290 0.070019 -0.025672 -1032440.000000 0 0 1
22.676407 20.416710 13.005044 33.169152 0.733009 1.167902 0.073269 -0.027455 51918.800000 0 0 1
24.001307 20.898310 12.836844 34.315982 0.716398 1.187394 0.104449 -0.027635 -80176.700000 0 0 1
24.721507 20.467410 11.599844 34.126590 0.691535 1.223979 0.100516 -0.036423 -316058.000000 0 0 1
24.641107 21.321510 10.482944 34.229856 0.713300 1.259544 0.115479 -0.044398 46245.800000 0 0 1
25.638207 21.062010 9.546144 34.526146 0.687719 1.290656 0.140476 -0.046951 -759342.000000 0 0 1
25.777107 22.139010 8.479644 35.021413 0.709617 1.326238 0.120410 -0.040923 6367.950000 0 0 1
26.282407 23.398310 8.927244 36.303464 0.727411 1.322342 0.107654 -0.045463 998688.000000 0 0 1
27.711707 23.397410 9.027844 37.374851 0.701184 1.326835 0.098051 -0.044096 79146.000000 0 0 1
28.186507 24.755810 9.525544 38.704848 0.720688 1.322134 0.094268 -0.045559 -808027.000000 0 0 1
29.423407 25.121910 9.021244 39.726944 0.706700 1.341717 0.079423 -0.029768 -580869.000000 0 0 1
30.064407 26.151210 9.740344 41.019857 0.715900 1.331052 0.072571 -0.024822 -580070.000000 0 0 1
31.269887 26.626410 8.980444 42.040693 0.705366 1.355524 0.057777 -0.019913 -570834.000000 0 0 1
30.905447 27.397010 7.796844 42.030151 0.725294 1.384210 0.074949 -0.024472 -269676.000000 0 0 1
32.075047 27.716110 7.124844 42.985518 0.712624 1.404278 0.063637 -0.011743 -601573.000000 0 0 1
31.927917 28.751710 6.025244 43.386130 0.733102 1.431471 0.087896 -0.007085 -48905.600000 0 0 1
31.809157 30.095010 6.500144 44.269447 0.757715 1.423432 0.094044 -0.016725 182221.000000 0 0 1
31.817637 31.048210 5.407644 44.783881 0.773160 1.449751 0.093611 -0.018072 6906.550000 0 0 1
31.779697 32.561210 5.699344 45.854815 0.797544 1.446183 0.081395 -0.021199 57669.900000 0 0 1
30.550477 33.022710 6.216844 45.414537 0.824267 1.433474 0.078980 -0.033004 -81070.700000 0 0 1
30.478947 -33.217713 6.276544 45.516784 -0.828369 1.432460 0.085425 -0.034779 268801.000000 0 0 1
29.109707 -32.740113 6.864544 44.344244 -0.844028 1.415370 0.120876 -0.044627 485340.000000 0 0 1
28.155307 -32.855013 5.848344 43.662069 -0.862278 1.436447 0.117423 -0.049351 -75218.700000 0 0 1
26.805307 -32.682813 6.285444 42.734032 -0.883880 1.423178 0.103566 -0.051303 1049780.000000 0 0 1
25.704007 -32.766913 5.187044 41.967510 -0.905609 1.446883 0.130766 -0.051104 225579.000000 0 0 1
25.882407 -31.810913 4.173444 41.221969 -0.887798 1.469379 0.103211 -0.029191 113718.000000 0 0 1
24.897607 -31.898813 3.148444 40.587409 -0.908048 1.493146 0.116434 -0.032656 289562.000000 0 0 1
25.311407 -31.172213 1.817444 40.195488 -0.888789 1.525566 0.112210 -0.016862 54842.100000 0 0 1
25.448307 -29.779213 1.989844 39.222153 -0.863657 1.520042 0.120601 -0.014139 42370.000000 0 0 1
26.067907 -29.201313 0.865044 39.153553 -0.842031 1.548701 0.096881 -0.009285 -383584.000000 0 0 1
26.326707 -27.692213 1.069244 38.224304 -0.810671 1.542820 0.112259 -0.023730 398791.000000 0 0 1
25.191807 -26.823413 1.187844 36.817571 -0.816756 1.538528 0.114580 -0.026671 723834.000000 0 0 1
24.351807 -26.701813 0.033344 36.138600 -0.831396 1.569874 0.100504 -0.020004 -241197.000000 0 0 1
23.116007 -25.818013 0.144744 34.654588 -0.840559 1.566620 0.088909 -0.013007 -576474.000000 0 0 1
23.275107 -24.406813 0.268744 33.726774 -0.809128 1.562828 0.098765 -0.024731 -368956.000000 0 0 1
23.277507 -23.871413 1.611344 33.380879 -0.797994 1.522506 0.082839 -0.015217 235403.000000 0 0 1
21.967107 -23.809513 2.452444 32.487861 -0.825624 1.495236 0.078227 -0.014153 148849.000000 0 0 1
22.077607 -22.909713 3.536844 32.012262 -0.803893 1.460086 0.074737 -0.014026 452601.000000 0 0 1
20.813907 -22.785913 4.199344 31.145642 -0.830597 1.435555 0.061630 -0.009920 571744.000000 0 0 1
20.846507 -21.798113 5.427644 30.646270 -0.807709 1.392751 0.041616 -0.007387 -290887.000000 0 0 1
21.102607 -20.414813 5.188744 29.816231 -0.768833 1.395882 0.064721 -0.011468 399943.000000 0 0 1
20.032207 -19.656913 4.610144 28.441817 -0.775943 1.407988 0.048492 -0.004990 -172129.000000 0 0 1
19.900107 -18.249813 5.250444 27.507036 -0.742167 1.378741 0.059073 0.000725 281001.000000 0 0 1
19.228407 -18.124013 6.502044 27.211910 -0.755840 1.329521 0.086745 -0.010992 75760.200000 0 0 1
17.830707 -18.322313 6.466344 26.371478 -0.798995 1.323068 0.065806 -0.009078 -188852.000000 0 0 1
19.584824 -25.737340 -11.572556 34.349673 -0.920324 1.914423 0.116872 -0.023871 138796.000000 0 0 1
19.946424 -24.479290 -12.139956 33.830075 -0.887079 1.937833 0.123160 -0.030041 -123425.000000 0 0 1
18.827024 -23.800290 -12.680856 32.889432 -0.901542 1.966611 0.101328 -0.031388 50677.800000 0 0 1
19.086124 -22.365990 -13.100856 32.189285 -0.864358 1.989957 0.093127 -0.026191 67601.100000 0 0 1
18.983424 -21.363090 -12.136056 31.048926 -0.844311 1.972372 0.100111 -0.035390 -124021.000000 0 0 1
20.079724 -21.306990 -11.230856 31.357858 -0.815043 1.937083 0.095531 -0.037794 -1064960.000000 0 0 1
19.999524 -22.134190 -9.911656 31.434761 -0.836019 1.891578 0.094201 -0.023131 79853.500000 0 0 1
18.987124 -21.730790 -8.988556 30.224696 -0.852679 1.872755 0.094400 -0.030702 1241480.000000 0 0 1
17.647524 -21.991590 -9.501656 29.754774 -0.894553 1.895821 0.102217 -0.015652 516032.000000 0 0 1
16.556724 -21.485690 -8.519856 28.431460 -0.914245 1.875136 0.098867 -0.024601 -327333.000000 0 0 1
16.558524 -20.063990 -8.415256 27.341633 -0.880826 1.883657 0.088118 -0.038891 256475.000000 0 0 1
15.714424 -19.464690 -7.442956 26.100093 -0.891602 1.859980 0.096915 -0.042340 -162752.000000 0 0 1
14.227824 -19.261090 -7.739056 25.165721 -0.934578 1.883386 0.089005 -0.033476 -248491.000000 0 0 1
13.533324 -20.512590 -7.813556 25.786990 -0.987593 1.878639 0.080449 -0.031619 106546.000000 0 0 1
12.142524 -20.226890 -8.008656 24.913982 -1.030145 1.898059 0.084874 -0.039812 603962.000000 0 1 0
11.377724 -21.592990 -7.951656 25.669800 -1.085847 1.885744 0.090663 -0.031968 -84065.800000 0 0 1
11.401624 -22.120290 -6.641556 25.756834 -1.094875 1.831599 0.094190 -0.030072 181811.000000 0 0 1
10.535024 -23.234790 -6.435256 26.310733 -1.145105 1.817890 0.084425 -0.023085 419571.000000 0 0 1
11.190024 -24.318490 -5.473156 27.323268 -1.139538 1.772472 0.083443 -0.011751 231917.000000 0 0 1
10.269824 -25.023700 -4.688956 27.452525 -1.181353 1.742440 0.076291 -0.013089 -112593.000000 0 0 1
10.987724 -25.847680 -3.753256 28.335835 -1.168845 1.703643 0.075313 -0.014367 543185.000000 0 0 1
10.113224 -26.689780 -2.789856 28.677603 -1.208596 1.668234 0.076215 -0.015491 119631.000000 0 0 1
9.417724 -26.025370 -1.776556 27.733906 -1.223589 1.634897 0.062785 -0.005303 -717287.000000 0 0 1
8.770924 -27.063550 -1.117756 28.471287 -1.257391 1.610065 0.066038 -0.009679 -280746.000000 0 0 1
8.021824 -26.551340 0.117044 27.736925 -1.277391 1.566577 0.069516 -0.005305 942727.000000 0 0 1
6.733024 -25.968840 -0.204456 26.828269 -1.317109 1.578417 0.057545 -0.017508 621883.000000 0 0 1
6.171724 -25.419100 0.973644 26.175729 -1.332607 1.533591 0.051168 -0.007891 219246.000000 0 0 1
4.703624 -24.923790 0.957444 25.381806 -1.384270 1.533066 0.060482 -0.020776 269570.000000 0 0 1
3.783124 -25.973000 0.853144 26.260933 -1.426157 1.538303 0.078213 -0.024271 -173267.000000 0 0 1
2.464324 -25.498060 0.977744 25.635521 -1.474448 1.532647 0.077756 -0.028054 1109380.000000 0 0 1
1.175324 -26.182690 0.353844 26.211444 -1.525937 1.557296 0.084914 -0.031229 1570840.000000 0 0 1
0.556424 -27.196580 1.149544 27.226549 -1.550340 1.528562 0.088496 -0.031343 309010.000000 0 0 1
1.203224 -28.447990 0.885344 28.487185 -1.528526 1.539713 0.075914 -0.032665 565171.000000 0 0 1
0.576624 -29.615950 1.794144 29.675847 -1.551329 1.510301 0.099659 -0.036646 339441.000000 0 0 1
0.802524 -29.418360 3.162744 29.598765 -1.543523 1.463738 0.087176 -0.031633 -36666.300000 0 0 1
0.177324 -30.388200 3.978144 30.647997 -1.564961 1.440628 0.090798 -0.033296 -103392.000000 0 0 1
0.433524 -30.287070 5.492944 30.784200 -1.556483 1.391402 0.085440 -0.030394 -632530.000000 0 0 1
1.749124 -30.630030 5.832444 31.229402 -1.513753 1.382932 0.067715 -0.015273 -334319.000000 0 0 1
1.953324 -30.448890 7.245844 31.360048 -1.506733 1.337636 0.071242 -0.021300 804773.000000 0 0 1
3.461424 -30.622000 7.651244 31.752635 -1.458237 1.327437 0.089486 -0.026422 710682.000000 0 0 1
3.876724 -31.867860 7.286944 32.919432 -1.449741 1.347591 0.085551 -0.026571 -1629270.000000 0 0 1
5.231024 -32.030630 7.388744 33.285408 -1.408912 1.346950 0.083815 -0.027512 -1183300.000000 0 0 1
5.649024 -33.514540 7.428544 34.789641 -1.403811 1.355612 0.074061 -0.004570 34398.200000 0 0 1
5.503624 33.422718 6.168544 34.429913 1.407594 1.390661 0.061877 -0.001201 -78402.900000 0 0 1
5.519124 32.052422 6.230344 33.115490 1.400278 1.381528 0.054389 -0.007797 -298394.000000 0 0 1
5.778324 31.353383 4.878644 32.252517 1.388545 1.418949 0.064751 -0.009260 -551609.000000 0 0 1
7.051424 31.604503 4.370144 32.675149 1.351277 1.436649 0.061202 -0.006471 -1067890.000000 0 0 1
7.890824 30.525173 4.654844 31.870345 1.317832 1.424216 0.064262 -0.007823 -1035690.000000 0 0 1
9.199724 30.599343 3.900044 32.189518 1.278742 1.449339 0.032942 -0.003096 -598987.000000 0 0 1
10.234024 31.297533 4.569744 33.243848 1.254764 1.432898 0.031310 -0.007094 33935.200000 0 0 1
11.438324 31.151893 3.816044 33.404160 1.218900 1.456308 0.030800 -0.007571 89269.900000 0 0 1
12.683524 31.451803 4.669544 34.232913 1.187475 1.433965 0.029293 -0.011055 -309312.000000 0 0 1
12.998224 30.480373 5.646144 33.613776 1.167702 1.402025 0.027852 -0.012206 236099.000000 0 0 1
14.092924 30.947793 6.430844 34.608267 1.143480 1.383892 0.051863 -0.013278 530343.000000 0 0 1
14.956124 29.950383 7.226344 34.248082 1.107658 1.358198 0.044191 -0.014635 -451253.000000 0 0 1
14.374524 29.707293 8.467344 34.071192 1.120134 1.319645 0.053947 -0.010941 80271.200000 0 0 1
14.975724 28.663673 9.256144 33.638589 1.089340 1.292036 0.058459 -0.012908 97241.900000 0 0 1
14.726024 28.618143 10.787944 33.944567 1.095561 1.247377 0.066087 -0.005559 2900.840000 0 0 1
15.448624 29.670723 11.383944 35.335619 1.090751 1.242779 0.080034 -0.011990 345011.000000 0 0 1
15.024824 29.742583 12.747144 35.677111 1.103028 1.205430 0.094404 -0.013520 288050.000000 0 0 1
15.820024 30.812163 13.567144 37.198521 1.096459 1.197461 0.095938 -0.015648 1150420.000000 0 0 1
17.091124 30.366473 14.075444 37.581210 1.058157 1.186902 0.099023 -0.019511 648283.000000 0 0 1
17.749524 31.300053 14.888844 38.941194 1.054937 1.178467 0.097273 -0.012877 -144926.000000 0 0 1
19.015324 30.711133 15.559744 39.330165 1.016402 1.164055 0.086201 -0.014424 1111540.000000 0 0 1
20.059924 30.380223 14.573144 39.213965 0.987218 1.190031 0.050706 -0.007447 890756.000000 0 0 1
20.373824 28.971473 14.720244 38.355241 0.957901 1.176902 0.035275 -0.008504 36023.300000 0 0 1
21.700724 28.581293 14.019544 38.527384 0.921393 1.198361 0.049041 -0.009867 347176.000000 0 0 1
22.830824 28.912673 14.818044 39.708483 0.902400 1.188372 0.061138 -0.011182 -384913.000000 0 0 1
24.030524 28.459923 14.242844 39.878464 0.869584 1.205575 0.067288 -0.010323 90209.000000 0 0 1
25.205324 28.782073 15.210544 41.171310 0.851553 1.192384 0.092816 -0.018607 -64301.100000 0 0 1
25.053424 27.957113 16.349844 40.946204 0.840119 1.160042 0.069449 -0.015790 -237467.000000 0 0 1
26.097624 28.194983 17.244144 42.111798 0.824010 1.148907 0.080368 -0.026551 483107.000000 0 0 1
27.184724 27.008513 17.282044 42.037341 0.782147 1.147123 0.073964 -0.016580 621198.000000 0 0 1
26.777224 25.774943 17.862344 41.236279 0.766328 1.122789 0.076406 -0.016136 60841.400000 0 0 1
26.512524 25.762133 19.283044 41.694571 0.771044 1.090002 0.097484 -0.022042 -66067.900000 0 0 1
26.053824 24.449183 19.954244 40.923540 0.753636 1.061460 0.105374 -0.020110 -246608.000000 0 0 1
27.003924 23.425053 20.009744 40.967486 0.714548 1.060507 0.085592 -0.020510 -106908.000000 0 0 1
26.435324 22.196733 20.465944 40.129493 0.698462 1.035614 0.092544 -0.024052 -11446.800000 0 0 1
27.261024 20.992933 20.031244 39.813533 0.656224 1.043584 0.069158 -0.021853 -168828.000000 0 0 1
26.645324 19.765633 20.289044 38.888287 0.638236 1.021923 0.050210 -0.007865 480878.000000 0 0 1
27.592224 18.668533 20.196444 38.958199 0.594839 1.025802 0.059623 -0.016814 567431.000000 0 0 1
28.268424 18.290533 21.505244 39.951507 0.574285 1.002397 0.065705 -0.010517 -21286.100000 0 0 1
27.362524 17.656433 22.424244 39.538640 0.573049 0.967758 0.064073 -0.003464 496384.000000 0 0 1
27.976824 17.488333 23.675344 40.608698 0.558672 0.948366 0.078755 0.001387 -256238.000000 0 0 1
27.048324 16.861633 24.742944 40.350214 0.557440 0.910685 0.053793 -0.002211 -52605.900000 0 0 1
26.781324 15.554433 24.410644 39.434239 0.526178 0.903300 0.062450 -0.012489 875715.000000 0 0 1
25.517524 15.188133 24.989344 38.810961 0.536886 0.871246 0.068973 -0.019982 432389.000000 0 0 1
24.857924 13.991433 24.288844 37.464977 0.512660 0.865436 0.067206 -0.008448 466781.000000 0 0 1
23.663224 13.486333 24.925344 36.920213 0.518014 0.829677 0.061138 -0.016938 830631.000000 0 0 1
23.203824 12.459133 24.055944 35.669817 0.492764 0.830636 0.058774 -0.006302 -351192.000000 0 0 1
21.944024 11.736633 24.515244 34.932591 0.491133 0.792893 0.063879 -0.010465 513597.000000 0 0 1
20.677724 12.405433 24.482244 34.363401 0.540377 0.777811 0.079674 -0.024234 788650.000000 0 0 1
19.591524 11.507233 24.287644 33.258591 0.531072 0.752084 0.088324 -0.018173 441352.000000 0 0 1
18.221824 12.216633 24.459744 32.856659 0.590610 0.731104 0.068478 -0.029898 -57849.300000 0 0 1
17.886024 12.513133 25.775644 33.776799 0.610460 0.702674 0.097115 -0.027410 56965.600000 0 0 1
16.641624 13.176633 25.773744 33.389417 0.669713 0.688951 0.097606 -0.028518 -244798.000000 0 0 1
16.121424 13.409933 27.201144 34.345725 0.693838 0.656750 0.096336 -0.023554 -299267.000000 0 0 1
15.902224 12.251133 27.995744 34.448986 0.656432 0.622073 0.105742 -0.023017 -42847.000000 0 0 1
15.823124 12.558933 29.371444 35.647998 0.670892 0.602485 0.089770 -0.034817 -367650.000000 0 0 1
17.172024 12.716533 30.133844 36.940996 0.637418 0.616808 0.100386 -0.017206 120781.000000 0 0 1
17.900824 13.799333 29.560344 37.211222 0.656729 0.652788 0.115472 -0.035356 445948.000000 0 0 1
19.304024 13.613533 29.735344 37.975838 0.614219 0.671311 0.111515 -0.023813 236070.000000 0 0 1
20.059324 14.923133 29.340144 38.547638 0.639618 0.705728 0.140861 -0.030300 -534673.000000 0 0 1
19.892224 15.424533 28.008944 37.657904 0.659563 0.732099 0.128930 -0.038391 206435.000000 0 0 1
20.385224 14.585033 26.994944 36.837583 0.621034 0.748354 0.115460 -0.034917 -187325.000000 0 0 1
20.204024 15.257433 25.572044 35.985015 0.646800 0.780403 0.093366 -0.034943 586181.000000 0 0 1
21.292924 16.206133 25.435344 36.918614 0.650570 0.810747 0.096454 -0.034719 936322.000000 0 0 1
21.550224 16.472033 24.092444 36.279276 0.652626 0.844530 0.084931 -0.024942 488080.000000 0 0 1
22.804824 17.414733 23.971944 37.389665 0.652175 0.874816 0.087308 -0.024346 277363.000000 0 0 1
22.833124 17.995133 22.669844 36.865949 0.667452 0.908504 0.092732 -0.028226 1112660.000000 0 0 1
24.125924 18.570033 22.354644 37.770841 0.655998 0.937445 0.082994 -0.028726 947073.000000 0 0 1
24.276624 20.045433 22.832444 38.890800 0.690222 0.943336 0.106535 -0.035739 -816346.000000 0 0 1
23.396724 20.915733 22.236044 38.461880 0.729468 0.954359 0.097523 -0.029329 -351264.000000 0 0 1
23.289224 22.039333 23.008544 39.465342 0.757831 0.948372 0.120414 -0.031658 -361532.000000 0 0 1
22.229624 22.997693 22.497844 39.105026 0.802379 0.957803 0.103299 -0.032233 -694538.000000 0 0 1
22.651224 23.944523 21.510644 39.358937 0.813147 0.992587 0.100695 -0.028112 -92072.100000 0 0 1
21.851524 25.086093 21.278044 39.491218 0.854201 1.001779 0.085251 -0.016092 -568366.000000 0 0 1
22.393524 25.972683 20.180744 39.790861 0.859265 1.038898 0.075491 -0.014946 -223768.000000 0 0 1
22.307024 25.314013 18.899244 38.672781 0.848459 1.060202 0.064368 -0.017092 159528.000000 0 0 1
22.759624 26.191023 17.913144 39.049339 0.855383 1.094230 0.055762 -0.017002 -395821.000000 0 0 1
22.822124 25.609593 16.451044 38.043888 0.842889 1.123618 0.048721 -0.005210 -731037.000000 0 0 1
21.620224 25.300653 15.795144 36.838074 0.863677 1.127663 0.033104 -0.006276 -502878.000000 0 0 1
21.722224 24.992623 14.400644 36.109068 0.855292 1.160578 0.045832 -0.008416 873538.000000 0 0 1
20.335124 24.424073 13.802944 34.649298 0.876500 1.161067 0.055154 -0.013963 1876770.000000 0 0 1
19.305224 25.400463 13.706444 34.723793 0.920904 1.165025 0.062966 -0.007960 -93404.600000 0 0 1
18.561524 25.631033 14.901444 34.979038 0.944025 1.130718 0.056610 -0.016721 -1469400.000000 0 0 1
17.087124 25.722303 14.512144 34.120507 0.984439 1.131481 0.077221 -0.019719 -880538.000000 0 0 1
16.406824 24.486113 14.311144 32.765263 0.980458 1.118783 0.080888 -0.019063 150639.000000 0 0 1
16.155224 23.784773 15.550944 32.688508 0.974149 1.075001 0.090088 -0.016341 -504146.000000 0 0 1
15.134524 24.373693 16.573344 33.133163 1.015124 1.046962 0.141889 -0.029082 31773.900000 0 0 1
15.576624 25.546423 17.176544 34.500502 1.023247 1.049663 0.111462 -0.031814 149354.000000 0 0 1
14.462124 26.025933 17.889144 34.735050 1.063602 1.029769 0.134007 -0.031011 147428.000000 0 0 1
14.789924 27.285563 18.730944 36.250408 1.074083 1.027793 0.136895 -0.042617 -194622.000000 0 0 1
14.997324 28.395863 17.943544 36.786078 1.084882 1.061250 0.133387 -0.037456 328908.000000 0 0 1
15.652924 29.546593 18.503544 38.215132 1.083617 1.065354 0.093932 -0.034327 -111190.000000 0 0 1
15.438424 30.903353 17.833944 38.876879 1.107492 1.094232 0.103552 -0.032865 1314810.000000 0 0 1
14.015224 31.218353 17.882244 38.610707 1.148823 1.089259 0.124064 -0.037782 1514500.000000 0 0 1
13.864524 32.456574 17.193244 39.258908 1.167088 1.117485 0.103689 -0.033793 -1118790.000000 0 0 1
12.526124 33.087115 17.402144 39.427092 1.208891 1.113666 0.124299 -0.043593 -1291420.000000 0 0 1
12.278824 -33.327060 16.712844 39.252790 -1.217794 1.130978 0.121215 -0.032828 250216.000000 0 0 1
13.060824 -32.225310 17.258744 38.819067 -1.185732 1.110075 0.103441 -0.037776 288378.000000 0 0 1
13.058624 -31.829860 18.750944 39.182464 -1.181474 1.071789 0.121252 -0.050457 -490452.000000 0 0 1
14.027724 -32.567310 19.413044 40.426142 -1.164082 1.069902 0.134820 -0.046747 118525.000000 0 0 1
13.751924 -32.496820 20.824644 40.973461 -1.170470 1.037648 0.119678 -0.042003 -329293.000000 0 0 1
14.976024 -33.015730 21.553744 42.176813 -1.144950 1.034410 0.115217 -0.044748 -558205.000000 0 0 1
16.124824 -32.243030 21.428444 41.938063 -1.107067 1.034501 0.115689 -0.042069 -343169.000000 0 0 1
17.271824 -32.806730 22.033744 43.128683 -1.086196 1.034584 0.128763 -0.041749 268104.000000 0 0 1
18.562424 -32.051170 21.641744 42.897624 -1.045849 1.041996 0.127650 -0.045004 67808.100000 0 0 1
18.739624 -30.833050 22.252244 42.391188 -1.024678 1.018168 0.150203 -0.044591 -215381.000000 0 0 1
19.810524 -30.175980 21.633244 42.083772 -0.989865 1.030894 0.136075 -0.039298 -299518.000000 0 0 1
-4.982476 12.865210 18.762483 23.288828 -1.201301 0.634036 0.022343 -0.002028 -91079.700000 0 1 0
-4.560676 14.018410 18.047783 23.303178 -1.256262 0.684908 0.021557 -0.007863 -76279.100000 0 1 0
-5.697976 14.746410 17.668883 23.708922 -1.202071 0.729899 0.012337 -0.011316 -118195.000000 0 1 0
-5.437476 16.229210 17.356983 24.376593 -1.247508 0.778404 0.031498 -0.018620 -20045.900000 0 1 0
-4.993176 16.914610 18.543983 25.591311 -1.283750 0.760313 0.043213 -0.009995 292843.000000 0 0 1
-4.775976 18.322010 18.302783 26.334348 -1.315802 0.802355 0.055532 -0.008565 -298007.000000 0 0 1
-4.094076 19.025210 19.494483 27.545507 -1.358836 0.784532 0.054613 -0.009317 -68289.100000 0 0 1
-4.991076 19.300410 20.543283 28.625918 -1.317741 0.770380 0.043868 -0.007255 91993.300000 0 0 1
-4.295176 19.977510 21.565883 29.709204 -1.359020 0.758456 0.042938 -0.005343 -154982.000000 0 0 1
-5.113276 20.318410 22.808903 30.971430 -1.324258 0.742989 0.032148 -0.005167 -94323.300000 0 0 1
-5.629376 19.185110 23.525603 30.874137 -1.285383 0.704425 0.040227 -0.015284 274967.000000 0 0 1
-6.316476 19.567010 24.749563 32.176181 -1.258544 0.693225 0.040969 -0.024017 527489.000000 0 0 1
-5.484876 20.343410 25.833463 33.336257 -1.307444 0.684183 0.035232 -0.019984 -303449.000000 0 0 1
-4.955476 21.606010 25.445623 33.746943 -1.345339 0.716647 0.051560 -0.020859 1208870.000000 0 0 1
-3.756876 22.100510 26.116613 34.418370 -1.402415 0.709330 0.035368 -0.008277 956597.000000 0 0 1
-2.456676 21.401810 25.715793 33.546606 -1.456508 0.697315 0.037660 -0.005440 -930666.000000 0 0 1
-2.188576 20.211110 26.380093 33.304477 -1.462931 0.656573 0.049787 -0.004898 82566.100000 0 0 1
-0.824276 19.959710 26.098103 32.866099 -1.529523 0.653314 0.044580 -0.005542 242.065000 0 0 1
-0.330176 18.676410 26.755423 32.630814 -1.553119 0.609484 0.054544 -0.004920 -283430.000000 0 0 1
-0.904576 17.486610 26.229593 31.537143 -1.519113 0.588625 0.058489 -0.007725 91566.000000 0 0 1
-0.189876 16.338410 26.678893 31.284869 -1.559175 0.549524 0.061512 -0.008856 741376.000000 0 0 1
1.263924 16.132510 26.122973 30.728897 1.492610 0.554600 0.072861 -0.011689 291353.000000 0 0 1
1.298024 16.016810 24.700363 29.467457 1.489932 0.576776 0.067739 -0.013670 -274719.000000 0 0 1
0.974324 14.710110 24.208523 28.344122 1.504658 0.546991 0.078909 -0.015926 17473.900000 0 0 1
1.167324 14.574210 22.668683 26.974793 1.490872 0.572839 0.090052 -0.028043 268866.000000 0 0 1
2.542724 14.649210 22.322483 26.820851 1.398935 0.587587 0.079376 -0.026197 -47152.000000 0 0 1
2.803424 13.858810 21.180883 25.466755 1.371205 0.588621 0.074656 -0.025284 -43041.400000 0 0 1
4.307724 13.772310 20.886783 25.386822 1.267655 0.604580 0.067709 -0.023582 79327.700000 0 0 1
4.777924 14.871510 20.098583 25.454733 1.259932 0.660670 0.067410 -0.022904 487891.000000 0 0 1
6.209224 14.920010 20.054583 25.755533 1.176431 0.678283 0.073377 -0.021412 705963.000000 0 0 1
6.692224 15.972110 19.039383 25.736983 1.174024 0.738072 0.089088 -0.029705 -118293.000000 0 0 1
6.475224 15.607610 17.687883 24.461955 1.177532 0.762549 0.083038 -0.031038 89148.900000 0 1 0
7.012624 16.522410 16.741883 24.545012 1.169408 0.820181 0.086513 -0.025165 -64476.600000 0 1 0
6.866124 16.017710 15.250083 23.157628 1.165831 0.851927 0.082682 -0.022827 177792.000000 0 1 0
7.891124 15.236510 14.661783 22.569647 1.092924 0.863707 0.074640 -0.023466 -99488.000000 0 1 0
8.149224 14.013510 15.242283 22.251191 1.044071 0.816179 0.072895 -0.024160 -9573.820000 0 1 0
9.216024 13.154810 14.482183 21.626784 0.959680 0.837071 0.081533 -0.031522 5946.500000 0 1 0
10.458124 13.832410 14.553183 22.638531 0.923428 0.872583 0.072506 -0.035126 130191.000000 0 1 0
11.473324 13.032010 13.939583 22.266172 0.848919 0.894328 0.074516 -0.021712 106237.000000 0 1 0
12.894424 13.613510 13.970283 23.382956 0.812519 0.930472 0.069817 -0.012825 -1276350.000000 0 1 0
13.537024 13.255710 15.182583 24.279121 0.774899 0.895236 0.059573 -0.015987 1152220.000000 0 1 0
14.865624 13.807510 15.365583 25.450644 0.748512 0.922611 0.054775 -0.009301 1521900.000000 0 0 1
15.934924 13.417210 14.287883 25.260383 0.699831 0.969606 0.056403 -0.011711 -617202.000000 0 0 1
17.300424 13.628510 14.642483 26.446990 0.667230 0.984050 0.062638 -0.026018 772386.000000 0 0 1
18.080324 13.112510 13.568683 26.133220 0.627463 1.024868 0.069558 -0.025318 -652603.000000 0 0 1
19.513424 13.627610 13.533683 27.379665 0.609632 1.053771 0.066518 -0.028674 -376068.000000 0 0 1
20.262124 13.224910 14.673783 28.297912 0.578265 1.025646 0.051034 -0.031656 -764063.000000 0 0 1
21.613424 13.367510 14.373883 29.196557 0.553898 1.056050 0.084547 -0.042273 -623248.000000 0 0 1
22.506724 13.342110 15.648883 30.486916 0.535113 1.031773 0.092557 -0.025928 -84651.500000 0 0 1
22.838224 12.045910 16.050183 30.402250 0.485362 1.014638 0.096371 -0.022892 756269.000000 0 0 1
23.800524 12.056810 17.135083 31.708716 0.468896 0.999895 0.081175 -0.023309 518613.000000 0 0 1
24.278324 10.619010 17.509683 31.761445 0.412315 0.986890 0.102504 -0.014178 62705.600000 0 0 1
23.220224 9.804910 17.999183 30.972337 0.399545 0.950671 0.066424 -0.009500 592845.000000 0 0 1
22.891824 8.698010 17.131883 29.886325 0.363113 0.960348 0.065407 0.010211 181630.000000 0 0 1
21.877624 7.724010 17.796683 29.240600 0.339394 0.916465 0.086153 -0.001308 192441.000000 0 0 1
21.529824 6.525310 17.083383 28.248097 0.294282 0.921329 0.108028 -0.007228 383059.000000 0 0 1
20.528624 5.784310 17.744883 27.744612 0.274647 0.876845 0.103702 -0.012405 -290654.000000 0 0 1
20.335324 4.290510 17.329283 27.059895 0.207938 0.875771 0.130952 -0.015775 -454096.000000 0 0 1
19.677824 4.304810 16.079883 25.774227 0.215372 0.897106 0.130085 -0.022425 290675.000000 0 0 1
19.722024 3.032810 15.491083 25.261232 0.152583 0.910646 0.125848 -0.024985 57085.000000 0 0 1
18.779424 1.871710 15.951583 24.710788 0.099340 0.869078 0.140670 -0.025079 112804.000000 0 1 0
19.242524 1.214110 17.126183 25.788659 0.063012 0.844510 0.149899 -0.036210 -249223.000000 0 0 1
18.180124 0.555310 17.729183 25.399788 0.030535 0.798188 0.146416 -0.038716 -545400.000000 0 0 1
18.424924 -0.012390 19.158483 26.580546 -0.000672 0.765883 0.156060 -0.040937 -545116.000000 0 0 1
19.157624 -1.190290 19.051483 27.044230 -0.062052 0.789139 0.155298 -0.033721 -225969.000000 0 0 1
18.418824 -2.370090 19.383483 26.843804 -0.127974 0.763986 0.110089 -0.020533 75315.200000 0 0 1
18.622424 -3.659990 18.542783 26.533469 -0.194063 0.797015 0.104165 -0.015711 27926.500000 0 0 1
18.095524 -3.501090 17.209283 25.216364 -0.191117 0.819667 0.116722 -0.032869 364422.000000 0 0 1
18.057624 -4.770590 16.606383 24.992164 -0.258286 0.844021 0.135476 -0.031377 -476264.000000 0 1 0
17.643924 -4.844290 15.128183 23.741043 -0.267956 0.879915 0.122123 -0.034379 509197.000000 0 1 0
16.217124 -4.686890 15.010683 22.589437 -0.281343 0.843972 0.116764 -0.038385 843104.000000 0 1 0
15.890324 -4.392390 13.670383 21.416696 -0.269685 0.878502 0.112529 -0.036947 203476.000000 0 1 0
16.363024 -3.016590 13.030983 21.134211 -0.182307 0.906402 0.108148 -0.030560 378805.000000 0 1 0
15.425424 -1.978190 13.389283 20.521448 -0.127546 0.859979 0.107828 -0.019764 765229.000000 0 1 0
15.782024 -0.751890 12.809783 20.340309 -0.047606 0.889535 0.103055 -0.020235 -389304.000000 0 1 0
14.698124 0.279210 13.041383 19.651730 0.018994 0.845142 0.106737 -0.015960 -703231.000000 0 1 0
14.971824 1.608710 12.596883 19.632242 0.107039 0.874158 0.096765 -0.016927 487486.000000 0 1 0
15.937924 2.339210 13.400783 20.954005 0.145730 0.876905 0.114122 -0.024173 322420.000000 0 1 0
16.233524 3.665210 12.632683 20.893677 0.222057 0.921511 0.101236 -0.026712 263511.000000 0 1 0
15.067724 4.480510 12.639883 20.171215 0.289031 0.893575 0.075983 -0.026084 628555.000000 0 1 0
15.338524 5.740110 12.104583 20.365169 0.358094 0.934306 0.100639 -0.031702 121776.000000 0 1 0
14.236624 6.762110 12.468183 20.096348 0.443432 0.901518 0.073213 -0.024470 187439.000000 0 1 0
14.629424 7.996510 11.964083 20.520807 0.500233 0.948353 0.056563 -0.023465 737103.000000 0 1 0
13.567024 8.936310 12.148683 20.285766 0.582452 0.928698 0.039601 -0.015625 294576.000000 0 1 0
13.631624 9.810910 13.436983 21.508781 0.623837 0.896022 0.040193 -0.018919 -93243.000000 0 1 0
13.345924 9.098010 14.670783 21.820159 0.598343 0.833417 0.061261 -0.022692 695944.000000 0 1 0
14.078424 9.650210 15.762283 23.233126 0.600901 0.825159 0.086034 -0.027666 3560.710000 0 1 0
13.585224 8.975210 16.990183 23.532510 0.583832 0.764125 0.078197 -0.028810 728277.000000 0 1 0
12.302424 9.439710 17.473983 23.362317 0.654485 0.725819 0.078157 -0.027563 658772.000000 0 1 0
11.832324 8.671110 18.581983 23.674504 0.632423 0.668271 0.106313 -0.022962 -31467.700000 0 1 0
12.606424 8.772110 19.911683 25.146510 0.607932 0.657002 0.125688 -0.020746 403242.000000 0 0 1
13.921024 8.189010 19.885383 25.618026 0.531733 0.682139 0.127742 -0.026842 539574.000000 0 0 1
14.419624 8.364810 21.199983 26.969147 0.525658 0.666350 0.119686 -0.022781 1063640.000000 0 0 1
15.977424 8.068910 21.307583 27.828016 0.467655 0.698686 0.103086 -0.017211 1529700.000000 0 0 1
16.761624 9.056210 20.631883 28.082763 0.495361 0.745599 0.105630 -0.015600 381358.000000 0 0 1
17.717124 8.495510 19.737283 27.850144 0.447120 0.783148 0.079712 -0.006262 144814.000000 0 0 1
18.494024 9.563810 18.945083 28.149806 0.477257 0.832526 0.077940 -0.011080 -255980.000000 0 0 1
19.280324 10.332010 19.823383 29.520296 0.491941 0.834542 0.070316 -0.010751 -334108.000000 0 0 1
20.133524 11.186810 19.156683 29.958004 0.507156 0.877012 0.064634 -0.016016 149121.000000 0 0 1
20.979124 12.151410 20.133883 31.514341 0.524996 0.877755 0.061443 -0.009664 55335.500000 0 0 1
20.304824 13.256110 20.685483 31.873179 0.578380 0.864536 0.050882 -0.005354 73297.300000 0 0 1
21.093324 14.171710 21.433283 33.243816 0.591588 0.870126 0.061703 -0.007518 138563.000000 0 0 1
22.218424 14.994110 20.751083 33.898218 0.593647 0.912009 0.038480 -0.002763 261296.000000 0 0 1
23.379524 14.292010 20.385083 34.152823 0.548690 0.931191 0.018788 0.000092 656173.000000 0 0 1
24.525924 15.120310 20.135983 35.151139 0.552466 0.960830 0.020946 -0.014145 1137020.000000 0 0 1
25.927824 14.448410 20.211783 35.909954 0.508396 0.972971 0.017039 -0.018894 392737.000000 0 0 1
26.193024 13.448110 19.242283 35.173735 0.474329 0.991944 0.033335 -0.031875 -203828.000000 0 0 1
27.407424 12.817910 19.531583 36.013170 0.437459 0.997570 0.070843 -0.037827 -201199.000000 0 0 1
27.918424 11.979610 18.286683 35.459163 0.405333 1.028959 0.115738 -0.045423 -27262.300000 0 0 1
28.309024 12.775410 17.138583 35.473130 0.423921 1.066556 0.128595 -0.061074 443056.000000 0 0 1
28.766924 12.060610 15.994383 35.054451 0.396993 1.096995 0.164480 -0.071147 -129478.000000 0 0 1
27.655924 11.634610 15.021383 33.553781 0.398216 1.106626 0.152830 -0.068928 94802.600000 0 0 1
26.968224 12.655910 14.328283 33.056873 0.438779 1.122486 0.172810 -0.070663 654756.000000 0 0 1
25.922624 12.177410 13.467083 31.648603 0.439164 1.131261 0.165674 -0.062629 496306.000000 0 0 1
25.455124 13.240210 12.420583 31.265594 0.479629 1.162267 0.149963 -0.058975 -8294.920000 0 0 1
24.604624 14.196610 13.013983 31.245720 0.523328 1.141199 0.125945 -0.059492 230976.000000 0 0 1
24.439824 15.316110 12.161483 31.301596 0.559811 1.171765 0.107819 -0.048826 -7257.290000 0 0 1
23.634824 16.498710 12.786383 31.532585 0.609428 1.153273 0.104186 -0.041413 -647893.000000 0 0 1
22.272224 16.274710 12.654483 30.348873 0.631046 1.140690 0.112903 -0.052037 -1031830.000000 0 0 1
21.501824 17.401110 12.860483 30.504411 0.680377 1.135594 0.081933 -0.041379 -890019.000000 0 0 1
20.751224 17.862310 11.582183 29.729151 0.710721 1.170610 0.104499 -0.028686 -521951.000000 0 0 1
19.584824 17.201910 11.196783 28.369685 0.720712 1.165083 0.097018 -0.031182 -1447290.000000 0 0 1
18.495224 17.684810 11.850983 28.200561 0.763002 1.137087 0.076561 -0.025624 -1986250.000000 0 0 1
17.200724 17.048510 11.346683 26.744417 0.780954 1.132648 0.077079 -0.017605 -542195.000000 0 0 1
16.975124 15.653310 11.451883 25.774534 0.744909 1.110392 0.075013 -0.018813 -136290.000000 0 0 1
15.752424 15.315810 10.863183 24.509624 0.771346 1.111607 0.076699 -0.019559 -308172.000000 0 1 0
15.756924 13.984210 10.068983 23.350015 0.725864 1.124952 0.081864 -0.024236 -155352.000000 0 1 0
15.868124 12.802210 10.796483 23.070717 0.678866 1.083800 0.067222 -0.023025 771775.000000 0 1 0
16.513824 11.817610 9.958783 22.617242 0.621132 1.114843 0.086118 -0.022628 5691.460000 0 1 0
16.802324 10.493210 10.739583 22.533624 0.558247 1.074010 0.083060 -0.037583 -1075700.000000 0 1 0
17.541924 9.611810 9.955983 22.343402 0.501255 1.108964 0.096120 -0.036446 432436.000000 0 1 0
18.287824 8.589010 10.570083 22.802242 0.439080 1.088794 0.115203 -0.033342 981055.000000 0 1 0
19.424524 9.049710 11.590183 24.362712 0.435990 1.074997 0.105279 -0.038372 -306186.000000 0 1 0
18.944724 9.565410 12.783483 24.775332 0.467569 1.028649 0.088967 -0.037081 -36490.100000 0 1 0
19.953324 9.836510 13.738883 26.146682 0.458013 1.017547 0.097212 -0.027992 -502812.000000 0 0 1
19.305924 9.964910 15.137583 26.479512 0.476490 0.962255 0.060478 -0.017969 451974.000000 0 0 1
18.782624 8.774010 15.810983 26.072158 0.437011 0.919231 0.063627 -0.013490 851606.000000 0 0 1
17.696524 8.134010 15.135583 24.666069 0.430841 0.910160 0.080971 -0.024276 -368021.000000 0 1 0
17.302724 6.864810 15.758283 24.389206 0.377699 0.868310 0.103451 -0.029153 -83812.800000 0 1 0
16.286024 6.950910 16.746283 24.371863 0.403396 0.813285 0.110122 -0.024555 186257.000000 0 1 0
15.939824 5.651910 17.206483 24.126441 0.340747 0.776773 0.116373 -0.011820 294842.000000 0 1 0
14.464324 5.475610 17.718783 23.519232 0.361888 0.717618 0.098043 -0.024981 682228.000000 0 1 0
13.961924 4.148110 17.837683 23.028788 0.288796 0.684742 0.111540 -0.025186 410604.000000 0 1 0
13.648324 3.578010 16.601583 21.787415 0.256388 0.704431 0.118105 -0.025638 -599900.000000 0 1 0
13.387424 2.078310 16.691183 21.497397 0.154014 0.681818 0.117601 -0.020625 -974777.000000 0 1 0
14.541624 1.340310 16.808483 22.266126 0.091911 0.715309 0.126240 -0.020766 -670022.000000 0 1 0
14.416724 -0.074490 16.724683 22.080818 -0.005167 0.711428 0.131875 -0.012079 -535694.000000 0 1 0
13.609124 -0.946190 17.685983 22.336014 -0.069414 0.657022 0.125824 -0.015505 -1456890.000000 0 1 0
12.288224 -0.917990 17.347383 21.278507 -0.074566 0.617629 0.116718 -0.013885 -1901090.000000 0 1 0
11.499824 -1.366090 18.405383 21.745581 -0.118238 0.561614 0.103557 -0.020983 -103658.000000 0 1 0
-26.871976 14.598410 28.661943 41.913288 -0.497652 0.817785 0.077033 -0.006939 -579369.000000 0 0 1
-25.907706 14.436610 29.642003 41.931770 -0.508379 0.785676 0.074188 -0.008640 -48679.700000 0 0 1
-25.416416 13.086210 29.542733 41.109807 -0.475475 0.768966 0.066661 0.000248 -386863.000000 0 0 1
-24.199476 12.736510 30.383813 40.877983 -0.484476 0.732835 0.059953 -0.011172 -541649.000000 0 0 1
-24.468776 12.929910 31.743106 42.113281 -0.486128 0.717038 0.065512 -0.017987 433529.000000 0 0 1
-23.332776 12.827710 32.616222 42.104472 -0.502668 0.684635 0.071022 -0.014631 46546.000000 0 0 1
-23.647776 13.099710 -33.629026 43.147783 -0.505872 2.464491 0.072728 -0.007258 -344344.000000 0 0 1
-24.286276 12.055410 -32.942176 42.665479 -0.460754 2.452941 0.048735 -0.008045 -106661.000000 0 0 1
-24.671976 12.555810 -31.695486 42.082759 -0.470750 2.423665 0.029061 -0.003838 -116462.000000 0 0 1
-25.595726 11.632810 -30.898886 41.775647 -0.426575 2.403330 0.018414 -0.010540 -233741.000000 0 0 1
-24.895176 10.583910 -30.279936 40.603738 -0.401988 2.412445 0.032334 -0.011129 180862.000000 0 0 1
-24.565276 9.459610 -31.087666 40.735488 -0.367579 2.438984 0.036894 -0.021604 -104347.000000 0 0 1
-23.811476 8.432510 -30.255236 39.414121 -0.340355 2.445922 0.029808 -0.012562 -53423.600000 0 0 1
-24.600476 7.777510 -29.283716 39.028312 -0.306209 2.419342 0.033783 -0.011042 456593.000000 0 0 1
-23.792176 6.907310 -28.535656 37.789711 -0.282551 2.426629 0.035106 -0.008292 35444.600000 0 0 1
-24.687176 6.222210 -27.487756 37.466643 -0.246900 2.394488 0.042654 -0.004016 -212431.000000 0 0 1
-25.206516 5.028210 -27.954486 37.975053 -0.196896 2.398128 0.040388 -0.011188 51951.300000 0 0 1
-25.506006 4.140710 -26.840376 37.257317 -0.160939 2.375183 0.058534 -0.011536 -396153.000000 0 0 1
-26.145726 2.813710 -27.371696 37.956893 -0.107204 2.376222 0.072177 -0.011547 1273050.000000 0 0 1
-27.491686 2.716210 -27.903616 39.265537 -0.098482 2.361202 0.073641 -0.012784 1240430.000000 0 0 1
-27.806826 3.640510 -28.909566 40.276990 -0.130181 2.371389 0.070336 -0.012897 154002.000000 0 0 1
-29.172896 3.432010 -29.682826 41.760110 -0.117106 2.361422 0.100144 -0.016458 623972.000000 0 0 1
-30.342096 3.554010 -28.884066 42.042396 -0.116600 2.328180 0.095856 -0.019613 374703.000000 0 0 1
-31.495986 3.836810 -29.660186 43.433224 -0.121222 2.322510 0.106193 -0.017272 294256.000000 0 0 1
-31.729416 5.270410 -30.139096 44.078319 -0.164602 2.323703 0.094684 -0.030511 -397937.000000 0 0 1
-30.773796 5.653510 -31.157426 44.156244 -0.181686 2.354091 0.097459 -0.032112 685245.000000 0 0 1
-30.931836 7.026810 -31.579736 44.759740 -0.223380 2.353980 0.089980 -0.032422 -511848.000000 0 0 1
-30.305636 8.050910 -30.681536 43.870325 -0.259660 2.345310 0.065059 -0.026867 -360305.000000 0 0 1
-28.900926 7.965310 -30.497986 42.764902 -0.268931 2.364784 0.028995 -0.028337 418124.000000 0 0 1
-28.459346 7.387510 -29.278886 41.494131 -0.253976 2.354087 0.029874 -0.024435 -406013.000000 0 0 1
-28.700836 8.353810 -28.068966 41.004768 -0.283240 2.324754 0.018850 -0.015019 746752.000000 0 0 1
-30.059226 8.567910 -27.621676 41.712386 -0.277671 2.294539 0.019791 -0.013439 1037240.000000 0 0 1
-30.605756 7.488910 -26.885106 41.419863 -0.239974 2.277180 0.026270 -0.006860 273077.000000 0 0 1
-32.031896 7.760310 -26.298556 42.164901 -0.237689 2.244273 0.020507 -0.005723 438735.000000 0 0 1
-32.113956 8.612210 -25.171526 41.702303 -0.262012 2.218806 0.003353 -0.003737 -60902.900000 0 0 1
-31.677826 8.079410 -23.947456 40.524588 -0.249725 2.203015 0.019720 -0.002839 -140239.000000 0 0 1
-31.169636 9.063710 -22.890456 39.719895 -0.282983 2.184987 0.028200 -0.010676 646711.000000 0 0 1
-32.209986 9.904810 -22.317156 40.418362 -0.298330 2.155742 0.029963 -0.009090 1120920.000000 0 0 1
-31.582026 10.743910 -21.339556 39.600917 -0.327909 2.139886 0.053208 -0.023260 240416.000000 0 0 1
-32.596686 11.708010 -20.692456 40.345994 -0.344828 2.109327 0.056574 -0.013584 67816.700000 0 0 1
-33.478096 11.143210 -19.721256 40.421306 -0.321316 2.080470 0.070413 -0.016395 -98274.800000 0 0 1
-34.281723 12.086710 -19.120456 41.072095 -0.338963 2.055034 0.048619 -0.014104 -589725.000000 0 0 1
-33.546416 13.107410 -18.223756 40.364236 -0.372485 2.039223 0.076108 -0.021823 -12121.000000 0 0 1
-32.781466 12.617610 -17.097056 39.065816 -0.367422 2.023777 0.124224 -0.026857 644379.000000 0 0 1
-33.531466 12.144810 -15.932756 39.060317 -0.347494 1.990951 0.107907 -0.018308 83542.900000 0 0 1
-34.072358 13.313510 -15.074556 39.565356 -0.372500 1.961678 0.092210 -0.008850 332201.000000 0 0 1
-35.065998 14.140710 -15.710556 40.943931 -0.383313 1.964606 0.066746 -0.012138 405702.000000 0 0 1
-35.889733 14.789810 -14.775756 41.534738 -0.390885 1.934507 0.034682 -0.002654 101209.000000 0 0 1
-36.725746 15.913810 -15.416556 42.891724 -0.408892 1.938453 0.016296 -0.007309 -82911.900000 0 0 1
37.432967 15.516710 -16.387156 43.709658 0.392961 1.955095 0.010562 -0.009058 -372574.000000 0 0 1
36.624437 16.571710 -16.753456 43.550537 0.424912 1.965668 0.003830 -0.007612 -776118.000000 0 0 1
36.177147 16.573010 -18.199456 43.756952 0.429575 1.999752 0.015653 -0.012009 282001.000000 0 0 1
35.287907 15.569810 -18.703356 42.865731 0.415530 2.022306 0.028288 -0.011166 152164.000000 0 0 1
33.933437 15.865510 -18.482056 41.770551 0.437351 2.029143 0.055788 -0.016871 -388444.000000 0 0 1
33.022957 14.606710 -18.630956 40.632305 0.416449 2.047132 0.078292 -0.022097 25642.400000 0 0 1
32.998837 14.174510 -19.997456 41.106425 0.405715 2.078853 0.087362 -0.022035 165331.000000 0 0 1
32.364487 12.922710 -20.250756 40.305701 0.379891 2.097202 0.058033 -0.016358 195282.000000 0 0 1
33.120237 11.681310 -19.682956 40.259432 0.339073 2.081628 0.075012 -0.013844 -71582.600000 0 0 1
33.131167 11.653610 -18.274656 39.590957 0.338226 2.050579 0.087539 -0.014836 -29840.000000 0 0 1
33.862297 10.539510 -17.813656 39.687060 0.301742 2.036278 0.077518 -0.019395 -145280.000000 0 0 1
33.779167 10.295510 -16.310556 38.898122 0.295844 2.003487 0.068368 -0.015419 644325.000000 0 0 1
32.474447 9.849810 -15.876356 37.465546 0.294490 2.008387 0.094522 -0.019929 971461.000000 0 0 1
32.446237 9.667910 -14.426756 36.801604 0.289591 1.973616 0.081947 -0.013713 -31153.000000 0 0 1
31.980477 10.914810 -13.667556 36.451146 0.328900 1.955145 0.083841 -0.018298 213277.000000 0 0 1
30.572267 11.118710 -13.799156 35.337033 0.348815 1.971972 0.085340 -0.020490 633086.000000 0 0 1
30.137927 12.154210 -12.893556 34.960882 0.383336 1.948513 0.091934 -0.022284 306972.000000 0 0 1
28.592907 12.254010 -12.893556 33.674306 0.404889 1.963719 0.106935 -0.017622 -68979.200000 0 0 1
27.805907 11.267710 -12.205556 32.389896 0.385004 1.957170 0.109152 -0.022945 996476.000000 0 0 1
26.435507 11.243710 -12.625556 31.379320 0.402147 1.984882 0.103488 -0.009947 620569.000000 0 0 1
26.234607 10.567310 -13.992756 31.555029 0.382918 2.030229 0.095673 -0.027264 -1034290.000000 0 0 1
26.590207 9.199010 -13.954156 31.406677 0.333067 2.031195 0.106206 -0.025567 1250730.000000 0 0 1
27.961707 8.917710 -14.317056 32.655179 0.308728 2.024649 0.111849 -0.035517 480622.000000 0 0 1
28.467107 7.766510 -13.458256 32.431767 0.266342 1.998708 0.120691 -0.031180 -539796.000000 0 0 1
27.959407 6.481210 -13.628356 31.772104 0.227785 2.014116 0.127242 -0.039968 14467.800000 0 0 1
26.839307 6.205210 -12.828656 30.387949 0.227206 2.006626 0.152424 -0.039682 -455523.000000 0 0 1
26.354507 4.750310 -13.024956 29.778767 0.178332 2.023491 0.153096 -0.043506 -261832.000000 0 0 1
25.633807 4.263710 -11.902756 28.582282 0.164823 2.000321 0.167439 -0.037215 542913.000000 0 0 1
25.322907 2.887610 -12.025056 28.181374 0.113541 2.011640 0.171647 -0.049474 -148837.000000 0 0 1
24.672407 2.198210 -10.807256 27.025110 0.088861 1.982201 0.165964 -0.043887 -35862.900000 0 0 1
25.534807 2.250910 -9.684956 27.402396 0.087923 1.932037 0.171829 -0.033596 457419.000000 0 0 1
25.305707 1.126510 -8.848956 26.831918 0.044487 1.906880 0.201380 -0.027714 -521310.000000 0 0 1
26.232607 0.998110 -7.622256 27.335776 0.038030 1.853380 0.233388 -0.020367 -270086.000000 0 0 1
26.197507 -0.228390 -6.895756 27.090828 -0.008718 1.828171 0.195203 -0.033787 325337.000000 0 0 1
26.655807 -1.331890 -7.671456 27.769717 -0.049925 1.850689 0.146547 -0.027907 -634780.000000 0 0 1
26.658707 -2.564590 -6.812456 27.634640 -0.095906 1.819883 0.135465 -0.030564 -679077.000000 0 0 1
27.865307 -2.664190 -6.111256 28.651713 -0.095320 1.785742 0.138346 -0.043557 -23936.700000 0 0 1
28.017407 -3.893090 -5.435556 28.804105 -0.138068 1.760642 0.161769 -0.056132 -524746.000000 0 0 1
29.446907 -4.246690 -5.035256 30.174633 -0.143228 1.738451 0.133671 -0.049760 -71285.600000 0 0 1
30.368047 -4.578090 -6.088956 31.308985 -0.149627 1.766523 0.106892 -0.037901 -89352.600000 0 0 1
31.517437 -5.146890 -5.569256 32.416907 -0.161874 1.743454 0.124374 -0.036885 -617362.000000 0 0 1
32.509217 -5.495990 -6.730456 33.650470 -0.167476 1.772165 0.138986 -0.044478 -66130.700000 0 0 1
32.328637 -6.728190 -7.333156 33.825796 -0.205190 1.789323 0.136948 -0.050673 16376.800000 0 0 1
32.791407 -6.614790 -8.629156 34.546984 -0.199052 1.823250 0.136413 -0.046304 -608069.000000 0 0 1
31.772577 -7.144290 -9.678056 33.973552 -0.221178 1.859667 0.122285 -0.043335 544147.000000 0 0 1
30.590457 -6.407190 -9.910356 32.787852 -0.206466 1.877856 0.090299 -0.039190 57873.600000 0 0 1
29.607307 -6.584590 -8.922956 31.615954 -0.218836 1.856914 0.115522 -0.030228 -306184.000000 0 0 1
28.453507 -5.496690 -9.124956 30.382239 -0.190831 1.875844 0.103297 -0.028977 192015.000000 0 0 1
27.649207 -5.694890 -10.284756 30.044743 -0.203129 1.920176 0.086668 -0.025032 1074110.000000 0 0 1
26.488807 -4.831790 -10.317756 28.835033 -0.180425 1.936729 0.100234 -0.026142 2095120.000000 0 0 1
25.221607 -5.420790 -9.516956 27.497033 -0.211706 1.924216 0.134781 -0.021758 -26767.900000 0 0 1
25.319307 -5.381390 -8.067756 27.113010 -0.209425 1.872933 0.133125 -0.037704 1095780.000000 0 0 1
24.103707 -5.748490 -7.384556 25.856633 -0.234117 1.860425 0.132672 -0.043756 811700.000000 0 0 1
23.000707 -4.648990 -7.339456 24.586851 -0.199437 1.873929 0.161242 -0.022922 -226439.000000 0 1 0
22.423507 -4.294690 -8.570856 24.386832 -0.189235 1.929920 0.168496 -0.018850 409537.000000 0 1 0
21.774407 -3.042190 -8.518356 23.578424 -0.138815 1.940434 0.142592 -0.030903 -162850.000000 0 1 0
21.964307 -2.217090 -9.870356 24.182022 -0.100600 1.991244 0.167125 -0.023185 -1043710.000000 0 1 0
23.285907 -1.896290 -10.115956 25.459024 -0.081256 1.979416 0.151262 -0.035772 -298679.000000 0 0 1
23.565607 -1.518890 -11.465356 26.250700 -0.064365 2.022794 0.186698 -0.034187 213506.000000 0 0 1
25.021207 -1.819990 -11.933256 27.780852 -0.072610 2.014790 0.148132 -0.032632 267346.000000 0 0 1
25.992107 -1.043190 -11.266956 28.348230 -0.040113 1.979531 0.141821 -0.040887 625631.000000 0 0 1
27.262407 -1.145390 -11.910756 29.772753 -0.041989 1.982374 0.117773 -0.039633 -404708.000000 0 0 1
28.220807 -0.082090 -11.454056 30.456790 -0.002909 1.956354 0.098229 -0.018422 86231.100000 0 0 1
29.535807 -0.448090 -11.924756 31.855368 -0.015170 1.954482 0.088278 -0.023902 1219030.000000 0 0 1
30.613267 0.458410 -11.721356 32.783722 0.014973 1.936424 0.088429 -0.022559 378330.000000 0 0 1
30.658907 1.779010 -12.522556 33.165462 0.057961 1.957976 0.104062 -0.032720 -459272.000000 0 0 1
30.909027 1.507610 -13.890756 33.920406 0.048737 1.992714 0.098898 -0.035135 339704.000000 0 0 1
31.071417 2.718110 -14.609656 34.442170 0.087257 2.008852 0.122263 -0.042788 -59713.800000 0 0 1
31.341297 2.516810 -16.120756 35.333978 0.080131 2.044561 0.116040 -0.042350 297986.000000 0 0 1
30.208087 1.980010 -16.813356 34.628570 0.065452 2.077770 0.112494 -0.034208 474110.000000 0 0 1
30.339627 1.903810 -18.239756 35.451462 0.062668 2.111220 0.098898 -0.024506 -425524.000000 0 0 1
29.034507 1.358410 -18.814556 34.624202 0.046752 2.145270 0.069443 -0.021541 -509971.000000 0 0 1
28.800107 0.008710 -18.662756 34.318285 0.000302 2.145771 0.087449 -0.028175 238166.000000 0 0 1
28.953007 -0.699290 -19.882656 35.129555 -0.024148 2.172419 0.069040 -0.020086 -291424.000000 0 0 1
28.749007 -2.210090 -19.725556 34.935475 -0.076724 2.170779 0.079464 -0.027369 165310.000000 0 0 1
27.409707 -2.640390 -19.507556 33.746236 -0.096034 2.187153 0.076048 -0.021398 556634.000000 0 0 1
27.210707 -4.088990 -19.617056 33.793066 -0.149155 2.190146 0.080945 -0.024257 -203064.000000 0 0 1
27.942107 -4.885790 -18.528356 33.881149 -0.173104 2.149409 0.069232 -0.020088 -1379790.000000 0 0 1
29.268507 -5.071790 -18.787556 35.147415 -0.171581 2.134755 0.068413 -0.025381 -1144870.000000 0 0 1
30.034207 -5.234890 -17.584556 35.194804 -0.172564 2.093974 0.064493 -0.022049 544470.000000 0 0 1
31.552537 -4.988590 -17.801256 36.569568 -0.156806 2.079194 0.087420 -0.026830 308326.000000 0 0 1
32.256427 -6.049690 -18.410756 37.630197 -0.185396 2.082031 0.068270 -0.023031 -159917.000000 0 0 1
33.578367 -5.685990 -18.710756 38.857812 -0.167744 2.073183 0.090108 -0.018665 -31455.200000 0 0 1
34.545727 -6.756190 -19.240156 40.115295 -0.193135 2.071020 0.092169 -0.013858 -16270.300000 0 0 1
34.748417 -7.712690 -18.185956 39.970827 -0.218417 2.043147 0.100088 -0.023062 60161.500000 0 0 1
35.172097 -8.960790 -18.703056 40.831072 -0.249463 2.046607 0.089268 -0.022129 -91812.300000 0 0 1
36.103987 -9.757490 -17.715856 41.383064 -0.263955 2.013179 0.094933 -0.025716 35910.400000 0 0 1
35.488257 -10.332590 -16.539856 40.493772 -0.283323 1.991556 0.090314 -0.021244 690199.000000 0 0 1
36.395507 -11.199490 -15.858556 41.249912 -0.298521 1.965409 0.096403 -0.036753 948600.000000 0 0 1
-37.398966 -10.679290 -15.099056 41.721834 0.278148 1.941100 0.109784 -0.047159 245986.000000 0 0 1
-36.873176 -11.514490 -14.066956 41.110751 0.302678 1.920024 0.118738 -0.045139 201240.000000 0 0 1
-36.231066 -12.756090 -14.363156 41.008636 0.338523 1.928631 0.100110 -0.034054 -293059.000000 0 0 1
-34.826761 -12.564090 -14.951556 39.928795 0.346228 1.954606 0.096810 -0.039472 -757379.000000 0 0 1
-34.734039 -12.029490 -16.235456 40.183979 0.333403 1.986712 0.114744 -0.034000 -1538200.000000 0 0 1
-33.453656 -12.116090 -16.693756 39.301759 0.347480 2.009491 0.126995 -0.037577 -1521010.000000 0 0 1
-33.252866 -11.297890 -17.982156 39.455714 0.327521 2.044017 0.159601 -0.033574 115501.000000 0 0 1
-33.404756 -9.908290 -17.818656 39.135105 0.288347 2.043518 0.163150 -0.036204 755170.000000 0 0 1
-34.750286 -9.489490 -18.109656 40.318637 0.266577 2.036625 0.148201 -0.035996 751025.000000 0 0 1
-35.073522 -8.011390 -17.652156 40.074093 0.224564 2.026938 0.160839 -0.039201 -525882.000000 0 0 1
-36.408276 -7.662690 -17.845556 41.264310 0.207438 2.018026 0.151339 -0.032523 -620233.000000 0 0 1
-36.834236 -6.406690 -17.320556 41.204469 0.172210 2.004634 0.142194 -0.033036 235496.000000 0 0 1
25.132024 27.582110 -26.946416 46.027174 0.831843 2.196226 0.046278 0.018215 566.892000 0 0 1
25.586724 26.913410 -25.777666 45.205090 0.810663 2.177592 0.049079 -0.000101 568808.000000 0 0 1
26.875324 26.360510 -26.062746 45.786748 0.775728 2.176354 0.059401 -0.003937 285001.000000 0 0 1
27.422124 25.381310 -25.000156 44.957665 0.746768 2.160461 0.082913 -0.014428 -272632.000000 0 0 1
27.940524 26.008310 -23.830256 44.999847 0.749598 2.128882 0.076595 -0.005027 252913.000000 0 0 1
28.405424 25.045510 -22.937156 44.274810 0.722621 2.115382 0.082952 -0.009880 -169224.000000 0 0 1
28.997024 25.592410 -21.623056 44.309767 0.723111 2.080590 0.074093 0.002495 97989.200000 0 0 1
28.136724 26.063510 -20.603256 43.537064 0.747166 2.063756 0.073865 -0.010076 68415.900000 0 0 1
28.916224 26.489310 -19.508156 43.799540 0.741623 2.032413 0.047489 -0.000291 358725.000000 0 0 1
28.187524 27.670510 -18.784556 43.738464 0.776143 2.014707 0.055006 -0.005056 505495.000000 0 0 1
27.031224 27.254510 -18.059656 42.422242 0.789511 2.010545 0.064351 -0.001176 285309.000000 0 0 1
26.174224 28.353710 -17.870156 42.524879 0.825347 2.004493 0.048319 -0.007823 -38902.500000 0 0 1
24.950824 28.085610 -16.972156 41.223770 0.844436 1.995124 0.050560 -0.006992 281803.000000 0 0 1
23.894224 27.295810 -17.521156 40.286302 0.851751 2.020741 0.073254 -0.009763 -221334.000000 0 0 1
22.868724 27.139310 -16.602856 39.181316 0.870589 2.008371 0.053855 -0.002348 -631362.000000 0 0 1
21.911624 26.090310 -17.211156 38.171291 0.872232 2.038562 0.061513 -0.008791 -325089.000000 0 0 1
21.224424 26.506210 -18.394156 38.618653 0.895608 2.067241 0.064404 -0.010036 -119568.000000 0 0 1
20.316224 25.487110 -18.734756 37.594319 0.897815 2.092479 0.071980 -0.006215 359410.000000 0 0 1
19.626024 25.657510 -20.129156 38.061419 0.917813 2.128053 0.048037 -0.001575 590402.000000 0 0 1
18.749724 26.760810 -20.290456 38.462914 0.959640 2.126490 0.034255 0.006214 -261953.000000 0 0 1
17.719724 26.533510 -21.228856 38.323363 0.981993 2.157886 0.025702 0.004828 -101396.000000 0 0 1
16.599324 27.561110 -21.023156 38.433390 1.028707 2.149576 0.030602 0.000937 -142247.000000 0 0 1
15.883724 27.336010 -19.800656 37.304372 1.044424 2.130325 0.046690 0.002929 128943.000000 0 0 1
14.796924 28.215610 -19.573456 37.392376 1.087802 2.121704 0.041631 -0.009088 386519.000000 0 0 1
14.193124 27.986310 -18.162056 36.256567 1.101449 2.095471 0.057191 -0.009879 333078.000000 0 0 1
13.339424 26.840610 -17.998556 34.961502 1.109562 2.111583 0.058523 -0.011358 180639.000000 0 0 1
12.889124 26.866310 -16.633256 34.126139 1.123479 2.079912 0.078538 -0.013023 344646.000000 0 0 1
11.966524 25.633010 -16.311856 32.654641 1.134027 2.093848 0.098036 -0.010519 184512.000000 0 0 1
12.710224 24.455310 -16.103856 31.920936 1.091487 2.099590 0.080318 -0.001603 -169168.000000 0 0 1
11.892324 23.327910 -15.976056 30.673330 1.099348 2.118637 0.093501 -0.007868 18549.600000 0 0 1
12.743424 22.065310 -16.176556 30.182010 1.047061 2.136449 0.078341 -0.016354 183668.000000 0 0 1
13.258524 22.051310 -17.486656 31.109997 1.029452 2.167708 0.076259 -0.006652 -651089.000000 0 0 1
14.285624 21.131510 -17.693656 31.043280 0.976337 2.177262 0.072089 -0.008568 -460343.000000 0 0 1
13.936324 19.620910 -17.788756 29.927263 0.953205 2.207315 0.093540 -0.015774 -274260.000000 0 0 1
13.593024 19.097410 -16.523256 28.679250 0.952213 2.184794 0.105431 -0.025825 -126324.000000 0 0 1
13.137924 17.762010 -16.418456 27.525620 0.933943 2.209903 0.081926 -0.029350 -47029.600000 0 0 1
14.215024 16.646110 -16.647756 27.501049 0.864011 2.221002 0.114605 -0.027458 -429240.000000 0 0 1
14.901224 16.526910 -15.499456 27.118598 0.837079 2.179182 0.135121 -0.039333 -972376.000000 0 0 1
15.843124 15.508110 -15.561456 27.086251 0.774713 2.182808 0.130963 -0.038586 -908789.000000 0 0 1
16.529424 15.180710 -14.205056 26.560486 0.742891 2.135090 0.185977 -0.039332 -352790.000000 0 0 1
17.399224 16.128410 -13.603956 27.348240 0.747513 2.091435 0.127115 -0.032423 1756810.000000 0 0 1
18.636724 16.473010 -14.289656 28.685917 0.723849 2.092251 0.084554 -0.025055 981249.000000 0 0 1
19.664424 15.374810 -14.738556 28.987918 0.663581 2.104166 0.087105 -0.030250 -294423.000000 0 0 1
20.176424 14.493410 -13.725756 28.382097 0.622925 2.075566 0.128249 -0.030222 463675.000000 0 0 1
21.143024 15.020710 -12.836156 28.938143 0.617694 2.030377 0.107220 -0.023755 -231833.000000 0 0 1
21.845724 13.768410 -12.139556 28.533727 0.562370 2.010251 0.113079 -0.024633 -53884.300000 0 0 1
21.034224 13.069810 -11.184556 27.172648 0.555977 1.995017 0.196953 -0.029198 378260.000000 0 0 1
21.477624 11.792310 -10.769956 26.764508 0.502114 1.984930 0.199486 -0.010431 -283728.000000 0 0 1
21.437224 10.672710 -11.892056 26.737283 0.461933 2.031719 0.167063 -0.016817 -649281.000000 0 0 1
22.595524 10.696810 -12.690056 28.035994 0.442145 2.040514 0.140601 -0.006278 212919.000000 0 0 1
22.742824 9.549910 -13.567756 28.151746 0.397550 2.073676 0.119157 -0.010963 -256016.000000 0 0 1
23.072224 8.096010 -13.015756 27.699870 0.337475 2.059957 0.134018 0.002619 728742.000000 0 0 1
21.909224 7.620910 -12.288956 26.250920 0.334749 2.057975 0.143513 -0.018674 1572960.000000 0 0 1
22.297624 6.567410 -11.372456 25.877551 0.286435 2.025807 0.143544 0.000188 -411220.000000 0 0 1
22.106124 5.097610 -11.881956 25.609514 0.226636 2.053264 0.151095 -0.016374 -331014.000000 0 0 1
20.785524 4.649710 -11.977156 24.435836 0.220076 2.083055 0.118213 -0.035326 68208.400000 0 1 0
19.951224 5.093110 -13.010556 24.357046 0.249940 2.134310 0.071107 -0.044788 -844700.000000 0 1 0
19.006124 3.976510 -13.406856 23.596380 0.206248 2.175082 0.077349 -0.055838 -776558.000000 0 1 0
19.672024 2.910110 -13.993056 24.315898 0.146866 2.183974 0.103321 -0.068481 362790.000000 0 1 0
19.318324 1.654810 -13.475256 23.611831 0.085452 2.178154 0.126667 -0.070538 7956.860000 0 1 0
20.366424 0.594210 -13.980656 24.710383 0.029168 2.172176 0.147705 -0.058368 315466.000000 0 1 0
21.658524 0.554410 -13.377056 25.462613 0.025592 2.123935 0.181283 -0.046017 984583.000000 0 0 1
22.688224 0.807210 -14.327056 26.845328 0.035563 2.133753 0.144933 -0.044568 293966.000000 0 0 1
23.234324 -0.263890 -15.308856 27.825609 -0.011357 2.153366 0.139506 -0.033049 -507212.000000 0 0 1
22.171924 -0.816790 -16.061356 27.390300 -0.036822 2.197389 0.136158 -0.028920 349072.000000 0 0 1
22.642924 -1.921190 -16.795056 28.257156 -0.084645 2.207272 0.124074 -0.029326 83764.800000 0 0 1
21.500224 -2.627990 -17.569256 27.889868 -0.121627 2.252287 0.122432 -0.026871 194058.000000 0 0 1
20.892524 -3.697390 -16.812356 27.070714 -0.175158 2.240882 0.146721 -0.023579 75511.700000 0 0 1
19.903824 -4.290290 -17.603256 26.915486 -0.212303 2.283682 0.134676 -0.016818 -181188.000000 0 0 1
19.213424 -5.532990 -16.938356 26.204533 -0.280389 2.273640 0.136986 -0.020610 -243851.000000 0 0 1
20.142724 -6.509390 -16.578656 26.887791 -0.312570 2.235196 0.134502 -0.018125 29298.400000 0 0 1
19.564524 -7.615390 -15.878556 26.322866 -0.371200 2.218332 0.141594 -0.011399 -22145.500000 0 0 1
20.593224 -8.619990 -15.272356 27.048659 -0.396424 2.170775 0.179687 -0.016052 -181768.000000 0 0 1
21.184224 -9.338690 -16.281256 28.303034 -0.415204 2.183703 0.143516 -0.026271 94689.900000 0 0 1
22.057124 -10.315690 -15.764956 29.007999 -0.437459 2.145361 0.117529 -0.036606 -347859.000000 0 0 1
22.678424 -11.300390 -16.796756 30.399683 -0.462277 2.156194 0.103889 -0.030250 4885.890000 0 0 1
23.668424 -10.690890 -17.607356 31.376877 -0.424262 2.166579 0.095874 -0.022188 171595.000000 0 0 1
24.119624 -11.554190 -18.656556 32.608628 -0.446737 2.179904 0.093841 -0.025153 -654268.000000 0 0 1
23.374924 -11.467290 -20.024956 32.846380 -0.456084 2.226421 0.114889 -0.026124 595053.000000 0 0 1
21.999324 -11.835690 -20.035756 32.023200 -0.493585 2.246778 0.132009 -0.036937 378048.000000 0 0 1
21.684124 -13.184990 -19.669456 32.108140 -0.546316 2.230143 0.115364 -0.020934 -365331.000000 0 0 1
20.146224 -13.318590 -19.504556 31.043242 -0.584136 2.250166 0.109019 -0.015209 339553.000000 0 0 1
19.421024 -13.114390 -20.682256 31.255705 -0.593934 2.293895 0.112311 -0.011492 -166002.000000 0 0 1
18.028024 -13.274590 -20.549656 30.389352 -0.634695 2.313405 0.111369 -0.007532 330485.000000 0 0 1
17.146724 -12.795790 -21.737356 30.500082 -0.641099 2.364134 0.104567 -0.013601 122871.000000 0 0 1
17.315824 -13.530790 -22.935456 31.764055 -0.663303 2.377567 0.087241 -0.008342 549267.000000 0 0 1
16.526724 -12.983090 -24.012956 31.911053 -0.665887 2.422641 0.099251 -0.016780 235130.000000 0 0 1
16.590924 -13.872890 -25.276296 33.265703 -0.696412 2.433849 0.089855 -0.021113 -190926.000000 0 0 1
15.697524 -14.958790 -25.144706 33.202920 -0.761306 2.429971 0.089157 -0.018004 21685.300000 0 0 1
15.742124 -15.760590 -26.316126 34.478242 -0.785984 2.439152 0.090496 -0.012013 -329628.000000 0 0 1
16.805524 -16.847490 -26.461516 35.587573 -0.786645 2.409176 0.081463 -0.014512 -131823.000000 0 0 1
18.136424 -16.401490 -26.614336 36.142241 -0.735208 2.398497 0.091430 -0.010694 134582.000000 0 0 1
19.039024 -17.471390 -26.783556 37.216834 -0.742488 2.374112 0.104435 -0.015159 -564126.000000 0 0 1
20.505924 -17.163590 -26.605326 37.721679 -0.696902 2.353651 0.118745 -0.012506 -719479.000000 0 0 1
20.992724 -16.863890 -25.324086 36.964775 -0.676762 2.325519 0.117160 -0.011213 -44388.000000 0 0 1
22.385724 -16.646190 -25.461356 37.768994 -0.639397 2.310588 0.121222 -0.006076 194015.000000 0 0 1
23.091324 -16.022890 -24.205556 37.092468 -0.606615 2.281772 0.118188 -0.006423 129113.000000 0 0 1
23.014424 -14.617390 -24.089156 36.381578 -0.565858 2.294447 0.127904 -0.012694 -197267.000000 0 0 1
21.711724 -14.091290 -23.954156 35.267052 -0.575684 2.317498 0.132173 -0.014391 34503.000000 0 0 1
21.607124 -12.711390 -23.327356 34.243434 -0.531769 2.320226 0.129767 -0.014216 88160.000000 0 0 1
22.038624 -11.713390 -24.214956 34.774539 -0.488524 2.341084 0.129888 -0.024602 260098.000000 0 0 1
21.673224 -10.492790 -23.551556 33.682385 -0.450876 2.345109 0.132071 -0.023733 175415.000000 0 0 1
21.721124 -9.277190 -24.442056 33.989522 -0.403652 2.373311 0.128728 -0.026812 -270426.000000 0 0 1
21.346724 -8.163890 -23.704756 32.927909 -0.365279 2.374453 0.132370 -0.024708 55081.000000 0 0 1
21.022824 -7.045890 -24.506956 33.048367 -0.323389 2.406171 0.097630 -0.020206 -222767.000000 0 0 1
20.279524 -5.959490 -23.725756 31.775558 -0.285821 2.413833 0.112779 -0.027868 262546.000000 0 0 1
18.972924 -6.356590 -23.307556 30.718402 -0.323281 2.432187 0.118562 -0.028041 47802.900000 0 0 1
18.356124 -5.447090 -22.487056 29.534484 -0.288468 2.436240 0.124056 -0.022805 -172144.000000 0 0 1
18.871524 -5.449590 -21.006556 28.759483 -0.281125 2.389736 0.132478 -0.024626 -275686.000000 0 0 1
18.476224 -6.527690 -20.126956 28.090496 -0.339614 2.369574 0.140724 -0.030437 39041.900000 0 0 1
18.931824 -7.808290 -20.569856 29.025890 -0.391186 2.358411 0.145287 -0.022015 -72078.400000 0 0 1
18.683024 -8.899690 -19.572856 28.484321 -0.444551 2.328348 0.142522 -0.023353 883652.000000 0 0 1
17.272224 -9.118590 -19.423356 27.545329 -0.485744 2.353419 0.141604 -0.028048 670319.000000 0 0 1
17.098624 -10.209090 -18.583056 27.238179 -0.538263 2.321622 0.146764 -0.030084 -227702.000000 0 0 1
15.633424 -10.400190 -18.158756 26.121032 -0.587024 2.339463 0.140712 -0.026383 -313841.000000 0 0 1
15.001624 -9.353090 -17.447056 24.838051 -0.557500 2.349606 0.145610 -0.025496 -206882.000000 0 1 0
13.816324 -9.024090 -18.104556 24.496938 -0.578584 2.402461 0.118748 -0.035500 -862412.000000 0 1 0
12.881424 -8.097390 -17.342156 23.070526 -0.561191 2.421435 0.119704 -0.022879 -473094.000000 0 1 0
11.978224 -7.499490 -18.261156 23.090908 -0.559385 2.482973 0.114622 -0.026740 -143463.000000 0 1 0
11.126024 -6.610390 -17.519656 21.781277 -0.536098 2.505368 0.096705 -0.026724 -478007.000000 0 1 0
9.667724 -6.903090 -17.828856 21.423950 -0.620083 2.553847 0.078066 -0.022877 -805756.000000 0 1 0
9.294024 -6.395990 -19.082656 22.168341 -0.602751 2.607649 0.072532 -0.032469 -768698.000000 0 1 0
7.904524 -6.348390 -19.137056 21.656649 -0.676649 2.654414 0.059413 -0.039808 -617667.000000 0 1 0
7.232924 -5.878290 -20.437656 22.462575 -0.682445 2.713728 0.062514 -0.047967 99567.300000 0 1 0
7.253624 -6.776390 -21.497656 23.678761 -0.751396 2.709014 0.061867 -0.036090 -279448.000000 0 1 0
6.414424 -6.387590 -22.541756 24.291499 -0.783302 2.759721 0.074363 -0.038860 -157708.000000 0 1 0
6.554624 -7.328590 -23.769556 25.722813 -0.841089 2.749379 0.075379 -0.033900 27255.700000 0 0 1
6.372424 -8.699690 -23.397256 25.762841 -0.938597 2.709708 0.085190 -0.024922 -10889.100000 0 0 1
6.392824 -9.522990 -24.545956 27.093532 -0.979590 2.704464 0.077983 -0.007366 -244704.000000 0 0 1
5.746524 -10.913490 -24.438456 27.374531 -1.086133 2.674196 0.079781 -0.013069 377965.000000 0 0 1
6.455024 -11.891390 -23.622456 27.223022 -1.073473 2.621430 0.055249 -0.015619 304444.000000 0 0 1
5.723124 -13.078390 -23.648956 27.623750 -1.158301 2.598490 0.081563 -0.026419 -792348.000000 0 0 1
6.269824 -14.101690 -22.624756 27.387003 -1.152430 2.542971 0.077509 -0.015310 -426041.000000 0 0 1
7.366924 -14.889390 -23.065356 28.424921 -1.111336 2.517422 0.044457 -0.005579 613560.000000 0 0 1
8.616324 -14.182990 -23.127156 28.465129 -1.024872 2.519178 0.072523 -0.012052 444404.000000 0 0 1
9.260824 -13.546690 -21.803056 27.288256 -0.971147 2.496411 0.061903 -0.003765 -526014.000000 0 0 1
9.638624 -14.393290 -20.719656 27.006925 -0.980724 2.445257 0.066527 -0.003087 110992.000000 0 0 1
8.578024 -14.943190 -19.964856 26.371896 -1.049682 2.429583 0.072399 -0.009303 -104586.000000 0 0 1
9.055324 -15.644490 -18.673956 25.989721 -1.046097 2.372459 0.077226 -0.005306 276061.000000 0 0 1
9.747724 -16.875790 -18.843456 27.108785 -1.046998 2.339362 0.079679 -0.000885 80947.900000 0 0 1
10.445224 -17.401290 -17.677156 26.914484 -1.030189 2.287350 0.088873 -0.000037 41157.600000 0 0 1
9.591024 -18.010290 -16.501756 26.242451 -1.081464 2.250830 0.079624 -0.017642 -18460.000000 0 0 1
9.040724 -19.287090 -16.796156 27.126322 -1.132464 2.238498 0.103265 -0.020511 596742.000000 0 0 1
8.117924 -19.514390 -17.877856 27.682663 -1.176576 2.272886 0.105018 -0.018075 -314002.000000 0 0 1
6.672224 -19.037990 -17.815656 26.913960 -1.233704 2.294212 0.102159 -0.018262 -571478.000000 0 0 1
6.446524 -17.658190 -17.744156 25.850037 -1.220757 2.327360 0.101845 -0.023874 84213.100000 0 0 1
5.126724 -17.274690 -18.133756 25.564258 -1.282299 2.359358 0.088467 -0.021651 520375.000000 0 0 1
4.784724 -15.926190 -17.588456 24.205183 -1.278944 2.384215 0.064435 -0.018970 -101655.000000 0 1 0
4.532424 -15.864490 -16.208456 23.128747 -1.292513 2.347304 0.028330 -0.016997 45875.200000 0 1 0
4.464724 -14.591190 -15.658256 21.863613 -1.273855 2.369108 0.022211 -0.013174 -106332.000000 0 1 0
10.472624 29.074810 -18.063556 35.795426 1.225067 2.099753 0.085241 -0.037401 -1236500.000000 0 0 1
9.494624 29.005710 -19.000256 35.951201 1.254453 2.127631 0.111720 -0.042144 -994453.000000 0 0 1
8.678224 27.931210 -18.582156 34.651993 1.269552 2.136785 0.092721 -0.044434 1004240.000000 0 0 1
7.503924 27.480410 -19.586756 34.570549 1.304230 2.173138 0.097317 -0.037400 1420420.000000 0 0 1
6.633724 28.553410 -19.951756 35.459500 1.342519 2.168400 0.113327 -0.054054 -526444.000000 0 0 1
5.860024 28.122510 -20.989756 35.577877 1.365361 2.201814 0.102716 -0.051138 -379888.000000 0 0 1
4.907124 29.165610 -21.603456 36.625429 1.404107 2.201668 0.097539 -0.056365 302485.000000 0 0 1
3.790724 29.489910 -20.787356 36.278624 1.442954 2.180948 0.091739 -0.049007 112617.000000 0 0 1
2.877624 30.367110 -21.432956 37.280206 1.476317 2.183297 0.087857 -0.060760 -775304.000000 0 0 1
1.451724 30.176810 -20.888656 36.729870 1.522726 2.175733 0.084392 -0.048316 -215061.000000 0 0 1
0.803824 28.900710 -21.068256 35.773854 1.542990 2.200529 0.094552 -0.065781 90615.500000 0 0 1
0.587124 28.593210 -22.423456 36.341819 1.550266 2.235741 0.122784 -0.082019 -721217.000000 0 0 1
-0.243376 27.276810 -22.602556 35.425403 -1.561874 2.262737 0.127635 -0.076544 643545.000000 0 0 1
-1.441076 27.236910 -21.826156 34.932894 -1.517937 2.245675 0.146087 -0.072907 309590.000000 0 0 1
-2.011276 25.912510 -21.893456 33.982744 -1.493334 2.270841 0.158407 -0.079788 -447356.000000 0 0 1
-3.091976 25.665910 -20.864456 33.220849 -1.450904 2.249845 0.129599 -0.070302 -764733.000000 0 0 1
-4.233376 26.426710 -21.164456 34.120767 -1.411953 2.239897 0.124392 -0.070160 -538215.000000 0 0 1
-5.236576 26.177810 -20.209056 33.482913 -1.373364 2.218759 0.114153 -0.063522 205916.000000 0 0 1
-6.567576 26.924710 -20.551456 34.502688 -1.331545 2.208868 0.112851 -0.072661 747354.000000 0 0 1
-7.704976 26.478010 -19.820256 33.960186 -1.287621 2.193991 0.118322 -0.054434 11349.300000 0 0 1
-7.972376 27.187010 -18.617556 33.901412 -1.285551 2.152164 0.106918 -0.065990 -165975.000000 0 0 1
-9.352376 26.835610 -18.033456 33.657428 -1.235453 2.136244 0.136984 -0.047128 -144572.000000 0 0 1
-9.406576 25.758010 -17.109656 32.321806 -1.220654 2.128635 0.132718 -0.058446 786711.000000 0 0 1
-10.735876 25.359210 -16.677056 32.194298 -1.170322 2.115322 0.109505 -0.052195 1046250.000000 0 0 1
-10.790076 24.512710 -15.386056 30.887367 -1.156136 2.092242 0.102558 -0.043378 44577.400000 0 0 1
-10.263176 23.152910 -15.446256 29.664404 -1.153546 2.118467 0.113331 -0.043178 -14312.400000 0 0 1
-10.317176 22.536510 -14.157556 28.544261 -1.141476 2.089766 0.111638 -0.034126 -390404.000000 0 0 1
-9.651976 21.136710 -14.029356 27.143029 -1.142430 2.113984 0.116896 -0.010128 -4517.860000 0 0 1
-10.309676 19.976410 -14.603656 26.806961 -1.094358 2.146912 0.102283 -0.004376 23914.800000 0 0 1
-10.602676 19.993910 -16.040356 27.739254 -1.083207 2.187384 0.123434 -0.003980 130281.000000 0 0 1
-9.358276 19.928010 -16.944556 27.781665 -1.131760 2.226754 0.110810 -0.016857 -197371.000000 0 0 1
-8.660876 18.733210 -16.897056 26.673104 -1.137738 2.256847 0.111296 -0.009555 90698.000000 0 0 1
-7.668576 18.679510 -17.939956 27.010613 -1.181242 2.297195 0.114474 -0.019255 659252.000000 0 0 1
-6.970776 17.363610 -18.176156 26.085616 -1.189033 2.341707 0.094221 -0.016253 -250548.000000 0 0 1
-7.943176 16.473510 -18.630556 26.106862 -1.121507 2.365458 0.093550 -0.018680 -419580.000000 0 0 1
-7.702276 15.633410 -19.772456 26.356756 -1.113021 2.419139 0.085269 -0.023887 418111.000000 0 0 1
-6.416876 14.730610 -19.772356 25.477701 -1.159969 2.459199 0.065691 -0.014979 278045.000000 0 0 1
-6.580176 13.510510 -19.028656 24.247111 -1.117569 2.473138 0.041079 -0.011378 744611.000000 0 1 0
-5.366476 12.763310 -18.779056 23.331398 -1.172776 2.506275 0.041050 -0.004035 1135270.000000 0 1 0
-4.532976 13.310910 -17.566156 22.501068 -1.242569 2.466551 0.032408 0.003711 10541.900000 0 1 0
-3.820976 14.518010 -17.740856 23.240277 -1.313444 2.439306 0.043206 -0.010115 -358185.000000 0 1 0
-3.553576 15.025110 -16.431756 22.547383 -1.338555 2.387314 0.047756 -0.006576 -43048.100000 0 1 0
-2.729676 16.290410 -16.362756 23.250127 -1.404775 2.351488 0.073927 -0.015647 -126385.000000 0 1 0
-3.449076 17.410210 -16.763456 24.413624 -1.375222 2.327658 0.075973 -0.022456 -312707.000000 0 1 0
-2.610676 18.537010 -16.771156 25.133803 -1.430881 2.301340 0.095540 -0.026503 49237.900000 0 0 1
-3.353376 19.817010 -17.142256 26.416207 -1.403167 2.276973 0.112220 -0.029895 156206.000000 0 0 1
-3.781476 19.793610 -18.490656 27.349423 -1.382026 2.313239 0.112966 -0.033527 -357357.000000 0 0 1
-4.161776 21.102010 -18.975256 28.682322 -1.376074 2.293702 0.140445 -0.034017 136366.000000 0 0 1
-3.065276 22.194110 -19.216256 29.516757 -1.433552 2.279735 0.128110 -0.047326 130377.000000 0 0 1
-2.231276 21.942610 -20.389356 30.036355 -1.469458 2.316954 0.146087 -0.041221 1039100.000000 0 0 1
-0.994076 22.673310 -20.413556 30.525079 -1.526981 2.303319 0.137553 -0.049251 820360.000000 0 0 1
0.137624 22.109510 -19.531156 29.501109 1.564572 2.294345 0.140542 -0.044990 -422187.000000 0 0 1
-0.163476 22.251910 -18.154456 28.718609 -1.563450 2.255121 0.137994 -0.036778 -523305.000000 0 0 1
0.780724 21.559310 -17.388256 27.708570 1.534599 2.249187 0.129344 -0.034866 -108396.000000 0 0 1
0.574124 21.695310 -15.856756 26.878483 1.544339 2.201784 0.135843 -0.038788 241340.000000 0 0 1
-0.532176 21.001910 -15.281356 25.978516 -1.545462 2.199665 0.126600 -0.026801 123930.000000 0 0 1
-0.618376 21.129210 -13.864556 25.279475 -1.541538 2.151307 0.131065 -0.025015 29717.000000 0 0 1
-1.452976 20.002010 -13.268756 24.046860 -1.498282 2.155302 0.098352 -0.018396 109290.000000 0 1 0
-0.871276 18.727410 -13.483956 23.093118 -1.524306 2.194315 0.079754 -0.015945 192036.000000 0 1 0
-1.511376 17.765510 -12.632356 21.851179 -1.485927 2.187205 0.053770 -0.014462 142313.000000 0 1 0
-1.058376 16.335310 -12.958056 20.877590 -1.506096 2.240391 0.033777 -0.006619 -1181180.000000 0 1 0
0.098624 16.055310 -12.274156 20.209840 1.564654 2.223499 0.039099 -0.004185 -845581.000000 0 1 0
0.350024 14.655410 -12.021556 18.958412 1.546917 2.257642 0.036079 -0.006631 -35154.200000 0 1 0
0.898624 13.892710 -13.186956 19.175785 1.506203 2.329096 0.016459 -0.011921 191192.000000 0 1 0
-0.063376 13.583710 -14.235756 19.676838 -1.566131 2.379623 0.020852 -0.022081 541399.000000 0 1 0
0.557424 12.779510 -15.246056 19.901478 1.527205 2.443511 0.015859 -0.018384 -14544.600000 0 1 0
-0.288776 12.647410 -16.533856 20.818472 -1.547967 2.488472 0.021750 -0.013521 81516.200000 0 1 0
-0.210576 13.905910 -17.210656 22.127480 -1.555655 2.461947 0.035617 -0.021354 -115967.000000 0 1 0
-0.491376 13.702610 -18.564556 23.079119 -1.534952 2.505440 0.046660 -0.018008 -420994.000000 0 1 0
-0.914876 14.947010 -19.282056 24.414090 -1.509665 2.481266 0.059583 -0.019309 -162860.000000 0 1 0
0.071124 15.949410 -19.442356 25.147445 1.566337 2.454565 0.064659 -0.026961 78751.700000 0 0 1
-0.530876 17.182910 -19.847556 26.257565 -1.539911 2.427793 0.109551 -0.036320 549234.000000 0 0 1
0.611424 18.201010 -20.109956 27.130443 1.537216 2.405700 0.140241 -0.045590 576686.000000 0 0 1
1.333424 17.975410 -21.316356 27.915595 1.496752 2.439667 0.143905 -0.054938 38234.200000 0 0 1
2.232324 19.036810 -21.552756 28.842759 1.454066 2.414711 0.148016 -0.052275 25325.000000 0 0 1
2.715324 19.076910 -23.029356 30.027533 1.429410 2.444857 0.153501 -0.055121 146706.000000 0 0 1
3.623324 18.027910 -23.318056 29.696225 1.372455 2.473847 0.128607 -0.048471 -52705.600000 0 0 1
4.148024 18.143510 -24.621656 30.864527 1.346036 2.494323 0.124731 -0.053072 323734.000000 0 0 1
5.198424 17.038210 -24.968056 30.671290 1.274664 2.521893 0.085939 -0.036725 -366198.000000 0 0 1
6.386224 17.217510 -24.217256 30.392466 1.215612 2.492806 0.077953 -0.031496 319013.000000 0 0 1
7.308824 16.112710 -24.278556 30.041415 1.144948 2.511834 0.075114 -0.032719 629338.000000 0 0 1
7.900424 15.729010 -25.684466 31.136960 1.105324 2.540798 0.064987 -0.034662 -913050.000000 0 0 1
8.919124 16.637710 -26.135766 32.240385 1.078704 2.516063 0.040136 -0.026478 524080.000000 0 0 1
9.236924 16.645910 -27.562326 33.497596 1.064194 2.537143 0.052551 -0.032741 116260.000000 0 0 1
9.695424 15.325110 -28.180196 33.510949 1.006715 2.569787 0.058681 -0.035188 -902372.000000 0 0 1
10.888024 14.881010 -27.627076 33.215190 0.939128 2.553067 0.073488 -0.035061 -523344.000000 0 0 1
11.100624 13.511310 -27.833626 32.870809 0.883035 2.580658 0.063185 -0.023150 -262548.000000 0 0 1
10.482024 12.582110 -26.780646 31.390848 0.876202 2.592763 0.068211 -0.021276 1152380.000000 0 0 1
9.038824 12.624010 -26.868326 31.031805 0.949411 2.617607 0.083387 -0.025821 991137.000000 0 0 1
8.354024 11.552310 -26.214376 29.840226 0.944704 2.643491 0.090922 -0.028744 225413.000000 0 0 1
6.826324 11.716510 -26.244276 29.540436 1.043251 2.664685 0.081682 -0.039673 -518558.000000 0 0 1
6.364824 12.602510 -25.178356 28.866657 1.103122 2.630539 0.098569 -0.025242 1518340.000000 0 0 1
4.906724 12.720010 -25.241086 28.687751 1.202636 2.646355 0.118750 -0.043365 1724660.000000 0 0 1
4.284124 13.602410 -26.314586 29.930532 1.265678 2.644953 0.129131 -0.034413 -728770.000000 0 0 1
4.345924 13.123110 -27.644706 30.908459 1.250998 2.677897 0.125506 -0.046823 135478.000000 0 0 1
4.011824 14.146410 -28.526776 32.093498 1.294459 2.665658 0.108916 -0.052143 -57803.700000 0 0 1
3.884924 13.759910 -30.005656 33.238038 1.295622 2.696918 0.134991 -0.051330 -290023.000000 0 0 1
5.152124 13.487810 -30.538936 33.780054 1.205917 2.699954 0.120786 -0.048466 -407582.000000 0 0 1
5.222424 13.240510 -31.942316 34.969936 1.195103 2.722411 0.119437 -0.048573 -1115190.000000 0 0 1
6.405724 12.348410 -32.372946 35.235269 1.092262 2.735738 0.117313 -0.033067 -532731.000000 0 0 1
7.674824 12.853410 -32.116706 35.434389 1.032509 2.705410 0.122671 -0.027360 -416036.000000 0 0 1
8.065324 12.877610 -30.742506 34.292623 1.011258 2.682547 0.107715 -0.024529 -1244230.000000 0 0 1
8.233924 11.492810 -29.961506 33.129655 0.949121 2.700700 0.114496 -0.028505 -247255.000000 0 0 1
9.293524 10.709710 -30.444136 33.584415 0.856078 2.705706 0.100151 -0.028657 -140602.000000 0 0 1
9.025624 9.446510 -29.876996 32.608792 0.808179 2.729351 0.100764 -0.027426 191772.000000 0 0 1
10.167524 8.420110 -30.095796 32.863867 0.691664 2.728221 0.090490 -0.022931 103416.000000 0 0 1
11.319024 8.641010 -29.321636 32.596713 0.652026 2.689483 0.084080 -0.027881 -239361.000000 0 0 1
12.080624 7.482110 -29.202556 32.476341 0.554525 2.688722 0.065913 -0.013515 -960941.000000 0 0 1
13.293924 7.684510 -28.276866 32.177030 0.524121 2.644118 0.070611 -0.005939 523367.000000 0 0 1
14.237124 6.597610 -28.199906 32.271642 0.433949 2.633819 0.089777 -0.006288 1048590.000000 0 0 1
15.117824 6.469110 -29.368256 33.658468 0.404335 2.631168 0.088023 -0.011469 -175341.000000 0 0 1
15.962424 5.197610 -29.097846 33.593136 0.314788 2.618312 0.094329 -0.012364 458209.000000 0 0 1
16.874124 5.335710 -27.978536 33.105956 0.306258 2.577588 0.085089 -0.016419 664860.000000 0 0 1
17.656724 4.179110 -27.729586 33.138419 0.232410 2.562173 0.089940 -0.014211 117557.000000 0 0 1
18.419624 4.294510 -26.396336 32.472941 0.229057 2.519862 0.103273 -0.014272 -50516.400000 0 0 1
19.535624 5.159010 -26.376236 33.225921 0.258188 2.487902 0.136768 -0.022805 151167.000000 0 0 1
20.150124 5.167710 -25.102116 32.601364 0.251050 2.449593 0.151267 -0.027580 -154412.000000 0 0 1
21.317924 6.156610 -25.145116 33.535572 0.281150 2.418563 0.140604 -0.026832 -662645.000000 0 0 1
20.862824 7.505610 -25.265106 33.614241 0.345343 2.421310 0.152923 -0.025194 423606.000000 0 0 1
21.695424 8.484710 -25.906726 34.840209 0.372796 2.409215 0.146875 -0.043448 -678403.000000 0 0 1
21.707624 8.346010 -27.469766 35.992567 0.367050 2.439058 0.183553 -0.044657 262967.000000 0 0 1
20.567524 8.832710 -28.170256 35.980594 0.405633 2.470157 0.159183 -0.029002 856730.000000 0 0 1
19.385324 8.030910 -28.026146 35.010729 0.392754 2.498928 0.155064 -0.021038 -10157.700000 0 0 1
18.211324 8.628510 -28.829036 35.174093 0.442468 2.531526 0.135877 -0.013383 -413171.000000 0 0 1
18.298724 8.331410 -30.233616 36.308776 0.427253 2.554727 0.114233 -0.005294 443327.000000 0 0 1
17.286124 8.945510 -31.015476 36.616827 0.477547 2.581165 0.092429 -0.008007 -641228.000000 0 0 1
17.073424 8.483210 -32.556056 37.727489 0.461138 2.611829 0.061549 0.006528 586818.000000 0 0 1
16.057724 7.449610 -32.666516 37.154387 0.434375 2.644998 0.068609 0.009259 -161703.000000 0 0 1
14.776324 7.944110 -32.670596 36.726237 0.493292 2.667202 0.065951 0.001014 -1449340.000000 0 0 1
13.746624 6.889110 -33.120376 36.515597 0.464567 2.706949 0.082791 -0.012806 -121733.000000 0 0 1
13.687024 5.773810 -32.248216 35.505196 0.399196 2.709921 0.076521 -0.009452 -219364.000000 0 0 1
12.932024 4.730810 -32.760516 35.536871 0.350699 2.743685 0.081964 -0.027205 -122107.000000 0 0 1
12.683724 3.675710 -31.714056 34.353589 0.282071 2.747033 0.093808 -0.031546 186934.000000 0 0 1
13.882824 2.951910 -31.484236 34.535543 0.209510 2.718071 0.099726 -0.038979 343250.000000 0 0 1
13.833824 2.082010 -30.396426 33.461204 0.149380 2.710257 0.124358 -0.036650 25756.700000 0 0 1
13.062224 0.714410 -30.467836 33.157520 0.054638 2.736033 0.123045 -0.032738 226447.000000 0 0 1
13.686824 -0.269290 -31.230286 34.098863 -0.019673 2.728478 0.126241 -0.038471 906550.000000 0 0 1
14.874124 -0.897690 -30.645436 34.076211 -0.060279 2.689010 0.141203 -0.040139 1151010.000000 0 0 1
15.205624 -2.252490 -31.263316 34.837905 -0.147066 2.684623 0.147631 -0.049040 8886.080000 0 0 1
14.270524 -3.268890 -30.928386 34.218395 -0.225181 2.699487 0.138299 -0.049654 193801.000000 0 0 1
14.285324 -4.345090 -31.842126 35.169181 -0.295273 2.703114 0.129061 -0.045574 -231356.000000 0 0 1
13.397424 -5.546390 -31.519396 34.694751 -0.392508 2.710423 0.130013 -0.051919 67535.300000 0 0 1
13.841124 -6.273890 -30.320006 33.915206 -0.425577 2.676978 0.139036 -0.039648 423700.000000 0 0 1
13.376824 -7.608990 -30.500216 34.162835 -0.517177 2.674296 0.146264 -0.045298 131508.000000 0 0 1
13.810524 -8.548390 -29.302456 33.502828 -0.554256 2.635461 0.114763 -0.037856 -1080180.000000 0 0 1
15.181224 -8.595390 -29.137366 33.960807 -0.515185 2.602102 0.133705 -0.032054 -750677.000000 0 0 1
15.660224 -9.404290 -28.029606 33.456570 -0.540802 2.564021 0.136607 -0.029405 152362.000000 0 0 1
15.522224 -10.920590 -28.084676 33.896132 -0.613101 2.547311 0.106535 -0.021692 379565.000000 0 0 1
14.172024 -11.386990 -27.996246 33.381126 -0.676862 2.565660 0.083257 -0.023635 458132.000000 0 0 1
14.067224 -12.727690 -28.459686 34.202845 -0.735448 2.553653 0.081381 -0.025232 232365.000000 0 0 1
-10.439576 -3.032490 -17.882856 20.927907 0.282700 2.595380 0.046544 -0.002891 -45713.800000 0 1 0
-11.127976 -2.427190 -18.934556 22.096165 0.214753 2.600053 0.053367 -0.012220 74144.700000 0 1 0
-12.108876 -3.332990 -19.454356 23.156115 0.268600 2.568336 0.059986 -0.011128 196024.000000 0 1 0
-13.156476 -2.753590 -20.466456 24.485730 0.206317 2.560480 0.072183 -0.033749 863190.000000 0 1 0
-14.207676 -2.095790 -19.717856 24.393529 0.146455 2.512095 0.073824 -0.032955 563085.000000 0 1 0
-15.238876 -1.645990 -20.583756 25.663664 0.107595 2.501530 0.071764 -0.025007 255187.000000 0 0 1
-15.849476 -0.317790 -20.201256 25.678739 0.020048 2.476228 0.073967 -0.024961 384182.000000 0 0 1
-15.175076 0.824810 -20.770256 25.736488 -0.054300 2.509911 0.076943 -0.027903 226650.000000 0 0 1
-15.860776 1.946510 -20.321556 25.851862 -0.122114 2.475233 0.081615 -0.021619 -39659.600000 0 0 1
-15.391176 3.161710 -21.056756 26.273022 -0.202605 2.500528 0.105326 -0.030383 -59715.300000 0 0 1
-14.088376 3.586210 -20.722556 25.313388 -0.249257 2.529836 0.106629 -0.033821 56550.100000 0 0 1
-13.673176 4.686510 -21.501956 25.908556 -0.330203 2.549756 0.118460 -0.035761 1263330.000000 0 0 1
-12.248576 5.211110 -20.986756 24.852107 -0.402249 2.576363 0.088771 -0.027405 984336.000000 0 1 0
-12.252476 5.942810 -19.753056 23.992153 -0.451600 2.538020 0.095016 -0.035065 -489945.000000 0 1 0
-11.000276 6.271110 -19.252456 23.043220 -0.518134 2.559826 0.072479 -0.023827 -899764.000000 0 1 0
-10.928776 6.851410 -17.829956 22.006529 -0.559975 2.515310 0.063920 -0.029667 -347859.000000 0 1 0
-11.472976 8.143910 -17.695656 22.607271 -0.617296 2.469856 0.064883 -0.036139 1115130.000000 0 1 0
-12.686276 8.110610 -16.876056 22.616916 -0.568832 2.413086 0.099798 -0.035936 852536.000000 0 1 0
-13.513076 9.385110 -16.935056 23.611007 -0.607039 2.370648 0.115503 -0.039966 -403614.000000 0 1 0
-12.985776 10.433210 -16.139756 23.194266 -0.676831 2.340401 0.080284 -0.032428 482687.000000 0 1 0
-13.740376 11.627710 -16.426956 24.368966 -0.702309 2.310533 0.093936 -0.025035 280017.000000 0 1 0
-13.221476 12.920910 -15.719256 24.266281 -0.773901 2.275466 0.097361 -0.018684 -81469.000000 0 1 0
-13.412176 12.892310 -14.321556 23.477758 -0.765637 2.226864 0.100230 -0.022413 -37117.600000 0 1 0
-12.784776 13.984810 -13.736956 23.403619 -0.830196 2.198093 0.091745 -0.019866 -1130410.000000 0 1 0
-13.193376 14.272610 -12.254956 22.977305 -0.824671 2.133353 0.083622 -0.020072 808065.000000 0 1 0
-14.536276 14.661010 -11.966156 23.862889 -0.789670 2.096076 0.081461 -0.020233 149829.000000 0 1 0
-15.550076 13.804510 -12.389156 24.204557 -0.726003 2.108136 0.086911 -0.018451 -1384150.000000 0 1 0
-16.875576 14.100610 -11.668756 24.895224 -0.696053 2.058631 0.057249 -0.013069 -871464.000000 0 1 0
-17.926876 13.280110 -12.012856 25.338566 -0.637583 2.064731 0.049406 -0.021376 664805.000000 0 0 1
-19.133576 13.832610 -11.352156 26.197448 -0.625963 2.018981 0.112006 -0.027777 708167.000000 0 0 1
-20.394376 13.364210 -12.060456 27.202708 -0.580084 2.030135 0.101751 -0.043561 -871845.000000 0 0 1
-20.753076 12.034010 -11.724356 26.701463 -0.525484 2.025382 0.113015 -0.045032 322095.000000 0 0 1
-21.855576 11.547910 -12.476356 27.688985 -0.486088 2.038221 0.149663 -0.045674 -420443.000000 0 0 1
-22.509376 10.308210 -11.844656 27.444983 -0.429447 2.017038 0.142537 -0.039098 -308790.000000 0 0 1
-21.846076 9.060510 -11.978756 26.511026 -0.393151 2.039624 0.132517 -0.038314 329509.000000 0 0 1
-22.585076 8.078210 -11.331056 26.528023 -0.343499 2.012119 0.140749 -0.032019 189836.000000 0 0 1
-21.677976 6.815110 -11.265656 25.363269 -0.304596 2.031046 0.169960 -0.036817 75642.600000 0 0 1
-21.290376 6.320710 -12.489256 25.479659 -0.288593 2.083076 0.165936 -0.039315 -2691.210000 0 0 1
-20.188376 5.496810 -12.224656 24.232781 -0.265832 2.099562 0.172854 -0.046829 -256494.000000 0 1 0
-20.033276 4.254310 -13.097956 24.310240 -0.209254 2.139789 0.176294 -0.059043 77576.000000 0 1 0
-21.014276 3.312510 -12.686156 24.769156 -0.156345 2.108512 0.160103 -0.050636 462399.000000 0 1 0
-20.807176 2.095910 -13.363756 24.817764 -0.100392 2.139423 0.144588 -0.050804 -211691.000000 0 1 0
-21.835576 0.972610 -13.158056 25.512209 -0.044513 2.112685 0.146749 -0.050286 260390.000000 0 0 1
-23.002776 0.991810 -13.988056 26.940251 -0.043090 2.116740 0.121237 -0.041937 672651.000000 0 0 1
-23.328976 -0.399790 -14.164356 27.295237 0.017135 2.116397 0.103980 -0.048360 -74443.500000 0 0 1
-24.711676 -0.558690 -14.845856 28.833635 0.022604 2.111664 0.112980 -0.043691 145207.000000 0 0 1
-25.858946 -0.213190 -14.118156 29.462737 0.008244 2.070524 0.160529 -0.052831 318981.000000 0 0 1
-27.067126 -0.591990 -14.748256 30.830031 0.021868 2.069597 0.169835 -0.037607 100905.000000 0 0 1
-28.362296 -0.182590 -14.042156 31.648623 0.006438 2.030508 0.171189 -0.043048 -343748.000000 0 0 1
-28.532716 -0.811290 -12.804556 31.284673 0.028426 1.992474 0.210881 -0.050631 -597753.000000 0 0 1
-29.750796 -0.428790 -12.274256 32.186194 0.014412 1.962054 0.241705 -0.056578 -873289.000000 0 0 1
-30.038596 -0.914190 -10.877956 31.960647 0.030424 1.918090 0.241320 -0.063806 -19544.800000 0 0 1
-30.432876 -2.289190 -10.690756 32.337171 0.075080 1.907738 0.246113 -0.060324 1245550.000000 0 0 1
-29.336976 -3.213990 -10.926256 31.470160 0.109119 1.925374 0.251945 -0.063270 647689.000000 0 0 1
-29.728256 -4.635190 -10.557156 31.885855 0.154673 1.908257 0.237812 -0.064934 -554240.000000 0 0 1
-30.711086 -5.114090 -11.416156 33.161022 0.165008 1.922251 0.218381 -0.057681 -311234.000000 0 0 1
-31.211786 -6.410090 -10.983456 33.703133 0.202557 1.902747 0.211532 -0.059025 -20510.500000 0 0 1
-30.505716 -7.675490 -11.505756 33.494691 0.246492 1.921448 0.195289 -0.060250 785747.000000 0 0 1
-29.150186 -7.829590 -11.037556 32.138193 0.262402 1.921374 0.160650 -0.053884 754606.000000 0 0 1
-28.519516 -8.843490 -11.781556 32.099458 0.300684 1.946614 0.155431 -0.048935 745778.000000 0 0 1
-27.014006 -9.137090 -11.411456 30.715864 0.326156 1.951438 0.152491 -0.051736 795339.000000 0 0 1
-26.196466 -8.013790 -11.730656 29.800738 0.296871 1.975380 0.131594 -0.047424 285126.000000 0 0 1
-24.818076 -8.121490 -11.438556 28.508526 0.316257 1.983659 0.142394 -0.043893 196793.000000 0 0 1
-24.492576 -7.793990 -9.923956 27.552087 0.308086 1.939267 0.144214 -0.044112 -448893.000000 0 0 1
-24.630676 -6.431090 -9.539456 27.185113 0.255399 1.929336 0.151655 -0.035199 -103296.000000 0 0 1
-25.953846 -6.196890 -9.165756 28.213732 0.234378 1.901669 0.153600 -0.048369 -686286.000000 0 0 1
-26.231156 -4.777890 -8.734056 28.056827 0.180170 1.887356 0.171426 -0.053859 -525718.000000 0 0 1
-26.069606 -4.546290 -7.353656 27.465786 0.172654 1.841842 0.170130 -0.052841 334742.000000 0 0 1
-26.378646 -3.194190 -7.009456 27.480326 0.120503 1.828718 0.212240 -0.058495 27695.800000 0 0 1
-26.224976 -2.963790 -5.442556 26.947260 0.112537 1.774166 0.198132 -0.051398 -737720.000000 0 0 1
-24.924076 -3.174590 -5.031356 25.624249 0.126688 1.768432 0.175985 -0.042294 -889971.000000 0 0 1
-24.798476 -3.050690 -3.638556 25.248965 0.122404 1.715407 0.162824 -0.036187 174669.000000 0 0 1
-23.403076 -3.285590 -2.999656 23.822196 0.139480 1.697050 0.153953 -0.024335 62156.500000 0 1 0
-22.917876 -4.559890 -3.056856 23.566205 0.196402 1.700876 0.151397 -0.025873 248721.000000 0 1 0
-21.582276 -4.691490 -2.600956 22.238923 0.214047 1.688020 0.117414 -0.020169 34739.300000 0 1 0
-21.256576 -6.207890 -2.513456 22.286709 0.284143 1.683815 0.110431 -0.018631 -105876.000000 0 1 0
-21.841676 -6.868690 -1.389156 22.938341 0.304684 1.631394 0.116780 -0.018736 428239.000000 0 1 0
-22.570976 -8.018090 -1.669456 24.010952 0.341334 1.640381 0.122572 -0.025506 -179119.000000 0 1 0
-23.047876 -8.775590 -0.436956 24.665898 0.363806 1.588512 0.132312 -0.032192 60578.200000 0 1 0
-21.998176 -9.542990 0.168544 23.979508 0.409308 1.563768 0.104899 -0.022931 538340.000000 0 1 0
-22.361476 -10.456490 1.246744 24.716961 0.437403 1.520334 0.084276 -0.016560 54319.400000 0 1 0
-21.142076 -11.187390 1.869744 23.992520 0.486697 1.492787 0.093319 -0.014451 6847.830000 0 1 0
-20.619976 -12.215190 1.092444 23.991409 0.534809 1.525246 0.105938 -0.012436 10567.100000 0 1 0
-19.474276 -12.708490 1.750744 23.319911 0.578186 1.495651 0.074153 -0.014305 -200217.000000 0 1 0
-18.676576 -13.636890 0.869544 23.141637 0.630682 1.533213 0.070798 -0.011255 -952465.000000 0 1 0
-19.370476 -14.880290 0.747144 24.437606 0.655044 1.540218 0.089986 -0.007456 275368.000000 0 1 0
-18.694576 -16.022590 0.267144 24.622793 0.708585 1.559947 0.076842 -0.012571 -222339.000000 0 1 0
-17.439876 -16.441190 1.062744 23.991486 0.755930 1.526485 0.084357 -0.018384 -558887.000000 0 1 0
-16.417576 -15.478890 1.112644 22.591388 0.755977 1.521526 0.092930 -0.027176 -682946.000000 0 1 0
-15.212176 -16.026590 1.576544 22.152819 0.811463 1.499569 0.091837 -0.034764 -298132.000000 0 1 0
-15.040476 -16.152790 3.090744 22.286346 0.821042 1.431665 0.081994 -0.027616 -508030.000000 0 1 0
-14.611076 -14.957590 3.745544 21.242461 0.797117 1.393546 0.058613 -0.025649 56042.200000 0 1 0
-14.047976 -15.155890 5.063744 21.276469 0.823317 1.330493 0.039004 -0.010319 -262172.000000 0 1 0
-14.902476 -15.678690 6.242344 22.513817 0.810775 1.289848 0.102114 -0.014859 -984930.000000 0 1 0
-15.764976 -14.670990 6.781544 22.577904 0.749470 1.265724 0.090663 -0.011350 291919.000000 0 1 0
-16.172376 -14.886090 8.096744 23.424318 0.744007 1.217859 0.102686 -0.019494 -224170.000000 0 1 0
-17.080176 -16.096090 8.393744 24.925318 0.755744 1.227327 0.086584 -0.014099 -461091.000000 0 1 0
-16.397676 -17.346490 8.215744 25.244463 0.813509 1.239312 0.086699 -0.012362 119321.000000 0 0 1
-17.127176 -18.496190 8.629044 26.644129 0.823809 1.240987 0.077434 -0.011315 24377.300000 0 0 1
-16.790476 -18.838090 10.121244 27.188845 0.842806 1.189356 0.099883 -0.017919 181616.000000 0 0 1
-15.470376 -19.269890 10.367044 26.798074 0.894334 1.173575 0.073314 -0.015671 -29001.100000 0 0 1
-15.202976 -19.473190 11.721844 27.344784 0.907927 1.127778 0.079507 -0.018194 -343600.000000 0 0 1
-13.911476 -20.242790 12.000144 27.336846 0.968692 1.116341 0.059715 -0.012004 1004900.000000 0 0 1
-12.744276 -19.387990 11.784344 26.022711 0.989287 1.100839 0.059680 -0.015147 2085590.000000 0 0 1
-11.467176 -20.081090 11.946744 26.028273 1.051941 1.093937 0.058883 -0.011213 2093940.000000 0 0 1
-10.243276 -19.219390 12.398544 25.060597 1.081125 1.053258 0.059584 -0.010790 419517.000000 0 0 1
-9.716076 -18.413590 11.417144 23.744759 1.085268 1.069198 0.046758 -0.016185 388433.000000 0 1 0
-8.429576 -17.906290 11.790844 23.037295 1.130813 1.033500 0.036423 -0.009167 1020360.000000 0 1 0
-7.520976 -17.196790 10.739944 21.625010 1.158514 1.051068 0.020969 -0.008325 395686.000000 0 1 0
-6.831376 -18.136390 9.906544 21.765476 1.210565 1.098256 0.017198 -0.006176 -10481.200000 0 1 0
-5.972576 -17.328590 9.086444 20.457643 1.238881 1.110561 0.017309 -0.004533 111039.000000 0 1 0
-4.956776 -18.205890 8.299944 20.613421 1.304977 1.156389 0.020730 -0.004817 -93439.200000 0 1 0
-3.844776 -18.510490 9.097344 20.980519 1.366000 1.122302 0.035841 0.001186 -948730.000000 0 1 0
-2.834376 -19.078190 8.344944 21.015449 1.423309 1.162457 0.042745 -0.005756 -320614.000000 0 1 0
-1.460976 -19.084490 9.035044 21.165637 1.494392 1.129764 0.047019 -0.018143 34605.000000 0 1 0
-0.390776 -19.582590 8.241144 21.249635 1.550844 1.172525 0.059642 -0.013014 -97184.000000 0 1 0
0.783024 -19.631990 9.019444 21.618939 -1.530932 1.140433 0.070457 -0.024187 22220.800000 0 1 0
2.060624 -20.058690 8.254044 21.788218 -1.468426 1.182264 0.068260 -0.041201 49430.000000 0 1 0
2.136824 -21.367790 7.753344 22.831180 -1.471126 1.224311 0.090187 -0.036364 -94780.900000 0 1 0
2.360624 -22.360190 8.788344 24.140953 -1.465613 1.198191 0.096643 -0.045114 -323167.000000 0 1 0
2.170424 -23.845590 8.388744 25.371123 -1.480027 1.233813 0.107186 -0.036651 135514.000000 0 0 1
2.229024 -24.764290 9.468644 26.606274 -1.481029 1.206941 0.111966 -0.042978 -42457.200000 0 0 1
1.766024 -25.992150 8.990844 27.559861 -1.502956 1.238484 0.119138 -0.046157 -1149760.000000 0 0 1
1.785524 -27.151540 10.017444 28.995575 -1.505129 1.218044 0.134716 -0.049888 395082.000000 0 0 1
0.840724 -27.041000 11.085444 29.237126 -1.539716 1.181912 0.132119 -0.054901 138373.000000 0 0 1
-0.503976 -27.079640 10.620344 29.092139 1.552188 1.197100 0.099868 -0.038255 -712345.000000 0 0 1
-1.441476 -26.952780 11.806844 29.460681 1.517366 1.158443 0.108098 -0.037886 -220997.000000 0 0 1
-1.271076 -28.066240 12.613744 30.796688 1.525539 1.148801 0.122809 -0.041425 -233942.000000 0 0 1
-1.593876 -27.750210 13.936744 31.094170 1.513423 1.106033 0.112390 -0.043295 -237598.000000 0 0 1
-1.104076 -28.829200 14.941644 32.489913 1.532518 1.092930 0.107957 -0.032770 -44033.700000 0 0 1
-1.638976 -28.730460 16.245844 33.046225 1.513811 1.056859 0.112457 -0.027061 -25011.600000 0 0 1
-0.938376 -29.526290 17.186844 34.177038 1.539026 1.043872 0.113120 -0.023322 -281291.000000 0 0 1
-1.339176 -29.335650 18.609444 34.766149 1.525178 1.005963 0.102535 -0.022357 2046.700000 0 0 1
-2.705376 -29.668270 18.758944 35.205443 1.479860 1.008841 0.091078 -0.020165 45622.700000 0 0 1
-3.127576 -29.580830 20.116044 35.909086 1.465458 0.976177 0.105161 -0.030946 -549669.000000 0 0 1
-4.616676 -29.856940 20.275944 36.384948 1.417385 0.979712 0.122570 -0.040320 -610182.000000 0 0 1
-5.475076 -28.833180 19.770144 35.386258 1.383142 0.977984 0.089674 -0.043002 891197.000000 0 0 1
-6.727676 -28.720720 20.456544 35.897236 1.340700 0.964456 0.087773 -0.051692 774152.000000 0 0 1
-6.503176 -27.764360 21.698544 35.832635 1.340717 0.920336 0.121862 -0.056140 -869304.000000 0 0 1
-5.699776 -28.326700 22.662944 36.721906 1.372232 0.905680 0.136450 -0.051008 -75991.400000 0 0 1
-4.934376 -27.331270 23.382344 36.305377 1.392181 0.871020 0.150969 -0.040047 319841.000000 0 0 1
-3.920076 -28.073890 24.309944 37.342786 1.432059 0.861903 0.175636 -0.034281 -96256.400000 0 0 1
-4.494376 -28.902410 25.270244 38.654028 1.416530 0.858261 0.175458 -0.034613 4222.390000 0 0 1
-3.703276 -30.067760 25.427444 39.551730 1.448249 0.872530 0.171457 -0.039138 20296.600000 0 0 1
-4.102776 -31.035740 26.518644 41.027897 1.439363 0.867997 0.181236 -0.028208 -62299.500000 0 0 1
-3.609976 -30.674270 27.799644 41.554337 1.453648 0.837941 0.179719 -0.033389 104613.000000 0 0 1
-3.804376 -31.704010 28.771944 42.981883 1.451371 0.837400 0.155120 -0.046768 -293575.000000 0 0 1
-3.153076 -31.418000 30.153344 43.660700 1.470772 0.808438 0.183294 -0.047899 866197.000000 0 0 1
-1.721576 -31.308400 30.071044 43.444762 1.515864 0.806309 0.197897 -0.041586 1089600.000000 0 0 1
-1.129676 -30.938240 31.314144 44.034378 1.534299 0.779693 0.192877 -0.066905 -54679.700000 0 0 1
-29.484886 2.775610 -9.550856 31.117220 -0.093860 1.882764 0.220006 -0.043782 -148822.000000 0 0 1
-30.418636 2.331010 -10.482256 32.258406 -0.076482 1.901751 0.200005 -0.055976 -214713.000000 0 0 1
-31.085596 3.442910 -11.040256 33.167080 -0.110306 1.910140 0.162071 -0.057195 -317860.000000 0 0 1
-31.904336 3.130110 -12.279556 34.328877 -0.097796 1.936604 0.157562 -0.053029 -1006690.000000 0 0 1
-33.027756 2.403210 -11.930156 35.198533 -0.072635 1.916585 0.176372 -0.054691 -422006.000000 0 0 1
-33.850596 2.312710 -13.099056 36.370273 -0.068215 1.939234 0.172184 -0.052400 570365.000000 0 0 1
-35.298637 1.781210 -12.826656 37.599064 -0.050418 1.918929 0.155823 -0.049459 483881.000000 0 0 1
-35.273982 0.403610 -12.525156 37.433892 -0.011442 1.911971 0.200593 -0.052821 -527474.000000 0 0 1
-36.411536 -0.331890 -12.838056 38.609919 0.009115 1.909757 0.159478 -0.057651 -781397.000000 0 0 1
-36.349866 -1.743290 -12.303056 38.415063 0.047922 1.896807 0.203689 -0.061980 -401876.000000 0 0 1
-35.606871 -2.577390 -13.132756 38.038947 0.072259 1.923296 0.182720 -0.046241 -43601.500000 0 0 1
-35.483305 -3.798190 -12.480456 37.805462 0.106636 1.907230 0.215463 -0.061189 -86734.700000 0 0 1
-35.065180 -4.923690 -13.499056 37.895040 0.139503 1.935018 0.190691 -0.049285 227054.000000 0 0 1
-34.799455 -6.147390 -12.817956 37.591122 0.174848 1.918759 0.194905 -0.058763 205074.000000 0 0 1
-35.244690 -7.273090 -13.574856 38.462485 0.203503 1.931505 0.186902 -0.051896 -329024.000000 0 0 1
-34.708358 -8.609590 -13.050656 38.067240 0.243147 1.920726 0.150074 -0.051411 -1360860.000000 0 0 1
-33.371466 -8.875790 -13.125156 36.941902 0.259951 1.934023 0.145758 -0.052424 -1144770.000000 0 0 1
-32.917646 -9.346190 -14.395456 37.123468 0.276646 1.969010 0.139272 -0.052112 -788543.000000 0 0 1
-31.607056 -10.056390 -14.114056 36.046408 0.308041 1.973114 0.121699 -0.044489 -689823.000000 0 0 1
-31.855376 -11.350190 -13.600656 36.449549 0.342280 1.953184 0.104193 -0.041877 911441.000000 0 0 1
-30.663366 -12.160890 -13.670156 35.707176 0.377566 1.963666 0.112048 -0.035950 454604.000000 0 0 1
-30.941696 -13.681490 -13.942756 36.591969 0.416323 1.961710 0.122274 -0.034814 -56706.400000 0 0 1
-31.273386 -13.866090 -15.318056 37.482476 0.417338 1.991795 0.122007 -0.038242 -112209.000000 0 0 1
-31.557476 -15.150490 -15.838656 38.422320 0.447595 1.995692 0.137105 -0.039307 -407720.000000 0 0 1
-30.524386 -16.257890 -15.705156 37.983010 0.489402 1.997067 0.120906 -0.027540 397192.000000 0 0 1
-29.223826 -15.962890 -16.223756 37.041276 0.499943 2.024159 0.131560 -0.036367 343787.000000 0 0 1
-28.374766 -17.124090 -16.266356 36.918236 0.542987 2.027069 0.138533 -0.033481 801548.000000 0 0 1
-26.899506 -16.628790 -16.385956 35.617406 0.553681 2.048853 0.150598 -0.045220 405397.000000 0 0 1
-26.592646 -16.146890 -17.655556 35.771630 0.545692 2.086978 0.131651 -0.038647 -916666.000000 0 0 1
-25.225106 -16.007590 -17.849756 34.801763 0.565465 2.109354 0.111335 -0.027350 -706735.000000 0 0 1
-24.810076 -15.499890 -19.253556 35.021221 0.558414 2.152883 0.114637 -0.016013 193174.000000 0 0 1
-25.387096 -16.306690 -20.315156 36.374694 0.570959 2.163369 0.110951 -0.027464 1283760.000000 0 0 1
-26.748146 -15.966990 -20.669456 37.384950 0.538165 2.156615 0.117612 -0.039140 632664.000000 0 0 1
-27.394486 -17.108690 -21.495756 38.797328 0.558262 2.158021 0.123063 -0.042157 -392219.000000 0 0 1
-26.884356 -17.426290 -22.768956 39.304829 0.575105 2.188656 0.107946 -0.024592 -159815.000000 0 0 1
-27.665946 -18.339490 -23.518656 40.680077 0.585384 2.187240 0.110673 -0.024169 181567.000000 0 0 1
-26.915696 -18.558990 -24.887556 41.088700 0.603660 2.221446 0.091739 -0.024844 1376390.000000 0 0 1
-25.660996 -19.285390 -24.862656 40.602520 0.644489 2.229817 0.081336 -0.022337 632244.000000 0 0 1
-25.663926 -20.622290 -24.483156 41.028537 0.676903 2.210222 0.077733 -0.018595 -371375.000000 0 0 1
-24.223076 -21.172790 -24.344456 40.344727 0.718306 2.218568 0.062385 0.001216 497405.000000 0 0 1
-23.446776 -20.901990 -25.495486 40.455708 0.728080 2.252617 0.051735 -0.009777 -66687.600000 0 0 1
-22.063276 -21.156790 -25.323586 39.694860 0.764427 2.262638 0.064859 -0.018271 301637.000000 0 0 1
-21.214576 -20.783690 -26.563626 39.845279 0.775139 2.300528 0.060705 -0.019867 -409015.000000 0 0 1
-21.199176 -21.782890 -27.531236 41.010588 0.798978 2.306785 0.073884 -0.016632 65760.900000 0 0 1
-22.117376 -21.527190 -28.586666 42.068940 0.771876 2.317904 0.087227 -0.026977 590456.000000 0 0 1
-21.431576 -21.812790 -29.993316 42.833506 0.794213 2.346516 0.084488 -0.029587 622285.000000 0 0 1
-21.030776 -23.148290 -30.360986 43.588145 0.833292 2.341363 0.103933 -0.037394 195923.000000 0 0 1
-20.485676 -23.091390 -31.693176 44.241752 0.845123 2.369373 0.115875 -0.032559 255844.000000 0 0 1
-19.784876 -24.368190 -32.191586 44.961630 0.888833 2.368822 0.116789 -0.029196 -110367.000000 0 0 1
-19.221176 -24.335390 -33.487106 45.640454 0.902278 2.394571 0.128181 -0.029732 -726611.000000 0 0 1
-20.098176 -24.156590 33.217882 45.726417 0.876848 0.757657 0.120858 -0.019069 -741560.000000 0 0 1
-19.398176 -24.110590 31.820411 44.386353 0.893287 0.771456 0.119052 -0.019882 -72609.400000 0 0 1
-18.603276 -22.985590 31.554013 43.244363 0.890383 0.752961 0.096071 -0.019272 -173065.000000 0 0 1
-18.052776 -23.098890 30.274223 42.142497 0.907411 0.769329 0.095191 -0.011719 -145884.000000 0 0 1
-17.133776 -21.921390 29.894593 40.838711 0.907376 0.749520 0.088674 -0.013009 106917.000000 0 0 1
-17.829476 -20.674990 29.763643 40.388363 0.859165 0.742270 0.080304 -0.015293 1023280.000000 0 0 1
-16.910576 -19.566590 29.497783 39.229303 0.858083 0.719808 0.080623 -0.018597 612536.000000 0 0 1
-15.990376 -19.102690 30.642963 39.491722 0.873854 0.682602 0.082848 -0.027207 -333539.000000 0 0 1
-15.516076 -17.825990 30.340203 38.458321 0.854567 0.661761 0.092702 -0.035106 -251748.000000 0 0 1
-14.953176 -17.252490 31.512523 38.913815 0.856672 0.626980 0.095211 -0.036849 -111637.000000 0 0 1
-14.370176 -15.864490 31.139003 37.786526 0.834782 0.602226 0.113534 -0.039152 730058.000000 0 0 1
-13.122276 -15.810590 30.411733 36.702076 0.878048 0.594175 0.141848 -0.049988 815278.000000 0 0 1
-12.804676 -14.523390 30.015453 35.718567 0.848207 0.572901 0.133343 -0.048358 -624688.000000 0 0 1
-11.338676 -14.474090 29.597853 34.843906 0.906274 0.555871 0.156533 -0.055289 -472552.000000 0 0 1
-10.937776 -13.130090 29.385263 33.993057 0.876236 0.526743 0.149734 -0.042895 394107.000000 0 0 1
-9.625076 -12.965090 29.930163 34.008092 0.932187 0.494746 0.139474 -0.041276 579276.000000 0 0 1
-9.190976 -11.474090 30.127553 33.523100 0.895434 0.453977 0.124416 -0.030913 -312530.000000 0 0 1
-10.087476 -10.746790 30.897583 34.233190 0.817033 0.445113 0.119731 -0.028648 -360502.000000 0 0 1
-9.762776 -9.367990 31.034053 33.855332 0.764765 0.411138 0.093868 -0.020325 -251607.000000 0 0 1
-10.569476 -8.600190 32.089580 34.862849 0.683028 0.401561 0.073443 -0.022816 -600154.000000 0 0 1
-11.830276 -8.238590 31.626613 34.757337 0.608305 0.427690 0.075763 -0.029397 -625795.000000 0 0 1
-12.665876 -7.558190 32.560276 35.745241 0.538016 0.425341 0.057480 -0.029825 60774.200000 0 0 1
-12.339776 -6.116090 33.022074 35.778961 0.460154 0.395130 0.037945 -0.018875 -423310.000000 0 0 1
-12.481676 -5.119790 32.009680 34.736495 0.389255 0.398871 0.047975 -0.021322 121450.000000 0 0 1
-12.902476 -3.945290 32.577220 35.260665 0.296749 0.392654 0.043509 -0.025098 -320229.000000 0 0 1
-12.527776 -2.750090 31.665753 34.164720 0.216092 0.384848 0.039001 -0.011085 -285676.000000 0 0 1
-11.162176 -2.435890 31.717830 33.712735 0.214859 0.345736 0.040472 -0.017453 -211155.000000 0 0 1
-10.906976 -1.285090 30.959743 32.849951 0.117282 0.340884 0.032134 -0.013092 -333069.000000 0 0 1
-9.449176 -0.803290 30.876903 32.300393 0.084808 0.297986 0.051729 -0.010990 -31954.800000 0 0 1
-9.011576 -0.291090 32.110924 33.352732 0.032291 0.273737 0.060895 -0.031490 -1523270.000000 0 0 1
-7.686276 0.034110 32.090330 32.998020 -0.004438 0.235093 0.099140 -0.036711 -1319580.000000 0 0 1
-7.073676 0.530310 33.397565 34.142576 -0.074830 0.209286 0.147968 -0.058391 -239599.000000 0 0 1
-7.513376 1.796710 -33.846136 34.716566 -0.234727 2.917192 0.121143 -0.041621 -69794.700000 0 0 1
-7.135576 2.877610 33.036894 33.920989 -0.383328 0.228812 0.131318 -0.044024 314691.000000 0 0 1
-7.922076 4.247810 33.233802 34.428023 -0.492186 0.264159 0.150524 -0.048392 682567.000000 0 0 1
-9.290376 4.139810 32.863224 34.401172 -0.419191 0.300145 0.092497 -0.028613 410146.000000 0 0 1
-9.918676 5.408310 32.848298 34.736734 -0.499201 0.331252 0.100252 -0.017516 -1566330.000000 0 0 1
-11.276576 5.411210 32.269658 34.608860 -0.447409 0.369771 0.064474 -0.007668 -1447590.000000 0 0 1
-11.993176 6.621010 32.463728 35.235887 -0.504427 0.399320 0.066090 -0.003355 -201054.000000 0 0 1
-13.173976 6.559310 31.708268 34.957009 -0.461965 0.434538 0.046909 -0.005446 -345784.000000 0 0 1
-13.976276 7.888310 31.706386 35.536695 -0.513837 0.468569 0.075653 -0.010359 -180059.000000 0 0 1
-14.586676 8.109010 32.955428 36.940323 -0.507376 0.468767 0.066331 -0.007433 34819.900000 0 0 1
-14.795476 9.496010 33.022319 37.410612 -0.570602 0.489221 0.074521 -0.001633 350698.000000 0 0 1
-15.829776 9.965910 -33.625606 38.478339 -0.561877 2.633932 0.060830 0.004744 503121.000000 0 0 1
-15.259576 9.888210 -32.351966 37.111738 -0.574968 2.629549 0.062659 -0.003501 118155.000000 0 0 1
-16.043676 10.640510 -31.454946 36.878634 -0.585614 2.592372 0.068300 -0.009048 -460977.000000 0 0 1
-15.409076 10.733310 -30.018616 35.408486 -0.608412 2.582582 0.076286 -0.018987 237432.000000 0 0 1
-14.454876 11.712310 -29.737286 35.077455 -0.680970 2.582545 0.085172 -0.019668 542912.000000 0 0 1
-13.155076 11.454210 -30.291946 34.955071 -0.716393 2.619137 0.098790 -0.030124 118459.000000 0 0 1
-12.282676 12.670110 -30.566546 35.294611 -0.800924 2.618023 0.103043 -0.033922 -641447.000000 0 0 1
-12.714676 13.532710 -31.595786 36.648205 -0.816554 2.610269 0.094449 -0.029764 -160458.000000 0 0 1
-12.004376 14.745810 -31.770436 37.025729 -0.887524 2.602284 0.092995 -0.034064 -70838.700000 0 0 1
-12.225676 15.787210 -30.701146 36.623265 -0.911859 2.564947 0.090852 -0.029290 -512694.000000 0 0 1
-13.491176 16.345410 -30.844816 37.424417 -0.880770 2.539566 0.094398 -0.029543 -248926.000000 0 0 1
-13.814276 17.294710 -29.826436 37.142395 -0.896814 2.503158 0.070382 -0.026233 633918.000000 0 0 1
-15.230876 17.959110 -30.030086 38.161700 -0.867414 2.476593 0.073618 -0.031655 396458.000000 0 0 1
-15.399076 18.843810 -31.090926 39.482483 -0.885658 2.477476 0.076345 -0.030222 1486910.000000 0 0 1
-16.777776 19.302810 -31.249856 40.381255 -0.855267 2.455726 0.076146 -0.028936 1594080.000000 0 0 1
-17.170076 20.505010 -30.313016 40.424571 -0.873686 2.418656 0.047241 -0.034103 -567229.000000 0 0 1
-16.569076 21.750310 -30.664006 41.083958 -0.919795 2.413394 0.053764 -0.026833 361812.000000 0 0 1
-17.273176 22.929910 -30.246126 41.700978 -0.925184 2.382281 0.035918 -0.021793 -190976.000000 0 0 1
-18.594076 23.237210 -30.962856 42.946549 -0.895942 2.375987 0.046068 -0.018419 -542953.000000 0 0 1
-19.641076 22.426810 -30.533936 42.673821 -0.851522 2.368163 0.050658 -0.019534 -299352.000000 0 0 1
-20.700376 22.310510 -31.467226 43.777286 -0.822816 2.372875 0.077980 -0.024609 -648208.000000 0 0 1
-21.936376 21.600610 -30.921656 43.634159 -0.777686 2.358389 0.100592 -0.031601 -1437620.000000 0 0 1
-22.718076 22.354010 -30.048196 43.803046 -0.777321 2.326752 0.134679 -0.026001 1043400.000000 0 0 1
-23.735376 23.210610 -30.665076 45.193445 -0.774221 2.316555 0.121356 -0.020315 -532334.000000 0 0 1
-24.939576 22.526110 -31.220756 45.870947 -0.734595 2.319407 0.129264 -0.028624 -1641990.000000 0 0 1
-24.675076 21.629210 -32.329546 46.063887 -0.719713 2.348776 0.125284 -0.020549 323230.000000 0 0 1
-25.899146 21.504210 -33.039566 47.167889 -0.692949 2.346848 0.134028 -0.015038 286237.000000 0 0 1
-25.985336 20.400010 33.604894 47.124166 -0.665564 0.776866 0.129291 -0.004427 -79517.600000 0 0 1
-25.950366 19.064010 -33.654786 46.577920 -0.633594 2.378277 0.117608 -0.016840 225263.000000 0 0 1
-25.514176 18.158610 33.125488 45.585154 -0.618540 0.757330 0.104623 -0.030066 -315531.000000 0 0 1
-25.159946 16.774810 33.799033 45.351867 -0.588044 0.729868 0.080382 -0.019209 -364449.000000 0 0 1
-26.290866 15.956110 -33.835216 45.723396 -0.545483 2.403864 0.070116 -0.002987 281096.000000 0 0 1
-26.619716 15.219510 32.730414 44.850004 -0.519380 0.752803 0.076643 -0.010609 -342637.000000 0 0 1
-27.576856 14.009810 32.922392 45.173462 -0.470049 0.754229 0.040693 0.000070 -414666.000000 0 0 1
-28.890646 14.399310 33.254418 46.345074 -0.462373 0.770533 0.053029 0.008113 -633356.000000 0 0 1
-29.776896 13.329210 33.248024 46.580710 -0.420886 0.775927 0.028547 0.010141 -509242.000000 0 0 1
-29.641646 12.149710 -33.479186 46.336795 -0.389000 2.378234 0.013351 0.003899 -1023080.000000 0 0 1
-28.576926 11.252610 -33.634306 45.546992 -0.375120 2.401569 0.018217 -0.008227 -584394.000000 0 0 1
-28.974016 9.913310 -33.702136 45.536813 -0.329660 2.404027 0.029971 -0.003541 -140487.000000 0 0 1
-27.866286 8.789710 -33.549076 44.489655 -0.305547 2.425059 0.032320 -0.013972 712248.000000 0 0 1
-26.869506 8.575510 33.195866 43.560019 -0.308935 0.704289 0.039856 -0.017694 427872.000000 0 0 1
-25.861906 9.550710 33.138716 43.107178 -0.353761 0.693909 0.020949 -0.020933 -714440.000000 0 0 1
-24.666976 9.167510 32.257956 41.630262 -0.355831 0.684290 0.031260 -0.013714 -282582.000000 0 0 1
-24.945776 9.226510 30.874793 40.751357 -0.354259 0.711109 0.031287 -0.011319 436752.000000 0 0 1
-23.725176 9.029310 30.174163 39.432126 -0.363653 0.699417 0.055084 -0.015368 420008.000000 0 0 1
-23.872976 9.031010 28.638123 38.361703 -0.361656 0.727966 0.073774 -0.021655 -195628.000000 0 0 1
-24.095776 10.270710 28.035083 38.367432 -0.402925 0.751450 0.062323 -0.015737 138369.000000 0 0 1
-24.080176 10.157710 26.632443 37.313818 -0.399182 0.775970 0.066378 -0.013441 -905852.000000 0 0 1
-24.621076 11.385510 25.974963 37.556970 -0.433142 0.807074 0.077480 -0.014494 234927.000000 0 0 1
-25.964396 11.638910 26.346553 38.778280 -0.421410 0.823831 0.068528 -0.012429 135767.000000 0 0 1
-26.937966 11.214010 25.403803 38.687999 -0.394470 0.854451 0.077223 -0.010412 711005.000000 0 0 1
-28.185936 12.203110 25.465273 39.897908 -0.408585 0.878559 0.078290 -0.009655 680160.000000 0 0 1
-27.942146 13.568210 25.080753 39.923728 -0.452047 0.891537 0.105595 -0.014373 764491.000000 0 0 1
-29.175656 14.318910 25.079373 41.051493 -0.456247 0.913568 0.091455 -0.019352 927752.000000 0 0 1
-28.991606 15.741810 24.498693 41.091408 -0.497436 0.932037 0.106246 -0.020793 -159762.000000 0 0 1
-28.243756 16.655210 25.237213 41.376597 -0.532808 0.914812 0.119771 -0.020174 9794.350000 0 0 1
-27.993086 17.865010 24.490443 41.262008 -0.568031 0.935352 0.104341 -0.036431 -458742.000000 0 0 1
-23.261376 -9.082190 31.693412 40.349104 0.372239 0.667325 0.068092 -0.029766 488595.000000 0 0 1
-22.316276 -8.630490 30.682043 38.908731 0.369019 0.662325 0.067281 -0.030809 645907.000000 0 0 1
-22.867976 -8.841990 29.372343 38.260419 0.368948 0.695560 0.067831 -0.030992 112546.000000 0 0 1
-21.972776 -8.377790 28.187463 36.708628 0.364265 0.695286 0.100195 -0.038431 -604287.000000 0 0 1
-21.634976 -7.029890 28.217863 36.245543 0.314170 0.678493 0.099537 -0.038561 527538.000000 0 0 1
-20.397676 -6.686490 28.845253 35.955848 0.316768 0.639757 0.090431 -0.028048 -162205.000000 0 0 1
-19.063276 -7.088690 28.230993 34.794353 0.356007 0.624309 0.088183 -0.023034 -1284670.000000 0 0 1
-18.744376 -8.461790 28.264613 34.954855 0.424043 0.629022 0.079653 -0.029468 106612.000000 0 0 1
-18.232776 -8.942790 29.530883 35.839652 0.456002 0.602410 0.079932 -0.035733 -634278.000000 0 0 1
-16.840876 -8.514290 29.980393 35.425023 0.468096 0.561785 0.078585 -0.029052 -732319.000000 0 0 1
-15.792476 -9.166090 29.338933 34.557091 0.525890 0.556708 0.071140 -0.030348 -416026.000000 0 0 1
-14.461776 -8.895490 29.691403 34.203101 0.551451 0.519453 0.082189 -0.032571 132435.000000 0 0 1
-13.410976 -9.880490 29.215253 33.630483 0.634965 0.518197 0.097593 -0.034438 -175369.000000 0 0 1
-13.161276 -9.813390 27.806713 32.291409 0.640696 0.533332 0.102243 -0.028558 263025.000000 0 0 1
-11.999276 -10.592990 27.500593 31.819439 0.723232 0.527099 0.127302 -0.036934 440499.000000 0 0 1
-11.317876 -10.245290 26.162533 30.290897 0.735698 0.528212 0.110459 -0.029806 201919.000000 0 0 1
-12.208976 -10.480190 25.099153 29.813771 0.709351 0.570068 0.097922 -0.025611 -121871.000000 0 0 1
-11.502076 -10.434790 23.907533 28.508819 0.736784 0.576086 0.091638 -0.027322 -24939.400000 0 0 1
-12.344576 -10.859790 22.704903 28.032771 0.721498 0.626744 0.101663 -0.033778 -512905.000000 0 0 1
-12.647576 -12.275690 22.696433 28.736420 0.770478 0.660290 0.103135 -0.032510 442181.000000 0 0 1
-13.843776 -12.666890 22.036283 28.943013 0.741034 0.705376 0.097794 -0.025833 693455.000000 0 0 1
-15.160876 -12.328190 22.803513 30.030595 0.682713 0.708494 0.101348 -0.026169 553952.000000 0 0 1
-16.366176 -12.872390 22.201383 30.437667 0.666470 0.753345 0.075567 -0.016663 1377730.000000 0 0 1
-17.328176 -13.046790 23.277223 31.816875 0.645369 0.750130 0.067998 -0.017658 -108642.000000 0 0 1
-18.754176 -13.368390 22.856723 32.447847 0.619280 0.789199 0.101453 -0.020967 -1357020.000000 0 0 1
-18.894476 -14.693290 22.440483 32.809591 0.660964 0.817618 0.097956 -0.021541 108838.000000 0 0 1
-20.192776 -15.245890 22.536483 33.883306 0.646704 0.843141 0.080597 -0.017064 557299.000000 0 0 1
-20.921476 -15.178490 23.958303 35.243368 0.627635 0.823312 0.085856 -0.019727 -318251.000000 0 0 1
-20.355576 -16.079790 24.891333 35.951183 0.668580 0.806035 0.078436 -0.012746 200710.000000 0 0 1
-21.068076 -15.947690 26.078383 37.125122 0.647941 0.791968 0.068654 -0.010746 -110424.000000 0 0 1
-20.514176 -16.897790 27.165583 38.004416 0.689034 0.774457 0.067098 -0.006212 -29469.400000 0 0 1
-20.633776 -18.257290 26.814893 38.446324 0.724368 0.798945 0.075734 0.000710 210487.000000 0 0 1
-20.520376 -19.062490 27.952043 39.569952 0.748584 0.786403 0.063073 -0.003904 -213610.000000 0 0 1
-20.576476 -20.582890 27.632723 40.132457 0.785554 0.811325 0.079932 -0.004843 595770.000000 0 0 1
-21.916276 -21.014190 27.357843 40.870171 0.764389 0.837417 0.071505 0.002115 575739.000000 0 0 1
-21.973176 -22.356290 26.932863 41.327996 0.794040 0.860992 0.080537 0.006084 -605542.000000 0 0 1
-23.375376 -22.890990 26.733263 42.250124 0.774929 0.885712 0.067576 0.012736 -604108.000000 0 0 1
-24.053076 -23.402790 27.892663 43.637618 0.771696 0.877354 0.062219 0.013808 -153977.000000 0 0 1
-25.236076 -23.986490 27.445773 44.333753 0.760017 0.903236 0.044014 0.015369 -373240.000000 0 0 1
-25.990816 -24.897190 28.453923 45.880479 0.763911 0.901831 0.022848 0.017020 -134506.000000 0 0 1
-26.719116 -24.249890 29.458693 46.580929 0.736990 0.886123 0.016715 0.016180 91001.200000 0 0 1
-27.361996 -25.171850 30.317073 47.973178 0.743732 0.886718 0.010661 0.022183 -126413.000000 0 0 1
-28.670726 -24.601590 30.883913 48.796156 0.709162 0.885481 0.021865 0.012042 -170446.000000 0 0 1
-29.744716 -24.497590 29.956503 48.808525 0.688963 0.909988 0.039868 0.005381 155704.000000 0 0 1
-30.586456 -23.468790 30.471523 49.140911 0.654477 0.901946 0.050005 -0.013212 -363063.000000 0 0 1
-31.866816 -23.317890 29.635413 49.370798 0.631705 0.926968 0.065614 -0.016500 -594231.000000 0 0 1
-32.939506 -24.154290 29.977073 50.666219 0.632722 0.937682 0.060872 -0.018211 -578827.000000 0 0 1
-33.892226 -24.097690 28.972733 50.683340 0.618077 0.962290 0.060846 -0.019284 -789581.000000 0 0 1
-35.179757 -24.811390 29.369883 52.113438 0.614257 0.972088 0.063623 -0.019592 -540770.000000 0 0 1
-34.990361 -26.190620 29.593443 52.783007 0.642547 0.975611 0.068051 -0.026646 279550.000000 0 0 1
-36.148826 -26.776950 30.167133 54.164551 0.637550 0.980083 0.069290 -0.019861 -2.412690 0 0 1
-35.913851 -28.224460 30.638313 55.001192 0.666080 0.979969 0.072468 -0.025234 10877.700000 0 0 1
-34.979323 -28.386310 31.684727 55.075017 0.681724 0.957824 0.063368 -0.016250 -82207.700000 0 0 1
-34.723093 -29.741490 31.960944 55.783074 0.708275 0.960695 0.075768 -0.025620 137122.000000 0 0 1
-33.507156 -29.985240 32.908401 55.720795 0.729985 0.939001 0.061783 -0.017587 136752.000000 0 0 1
-33.781506 -29.884250 -33.422376 56.136564 0.724260 2.208530 0.053355 -0.003044 -516152.000000 0 0 1
-32.626876 -29.719220 -32.675296 54.912840 0.738795 2.208111 0.046763 -0.009945 -420866.000000 0 0 1
-32.988636 -29.358500 -31.241576 54.094433 0.727239 2.186506 0.048410 -0.007918 286403.000000 0 0 1
-33.416656 -28.004540 -31.006096 53.500515 0.697510 2.188970 0.055911 -0.010389 119197.000000 0 0 1
-32.301566 -27.134620 -30.921696 52.305163 0.698683 2.203316 0.048517 -0.006726 97525.900000 0 0 1
-32.625426 -25.639050 -30.939956 51.759639 0.666060 2.211503 0.042361 -0.006071 -366480.000000 0 0 1
-33.453256 -25.188250 -29.900416 51.454865 0.645379 2.190876 0.039139 -0.010689 -208203.000000 0 0 1
-33.365716 -23.846990 -29.545256 50.545743 0.620534 2.195091 0.052499 -0.025058 -497925.000000 0 0 1
-32.044266 -23.357590 -28.938176 49.090020 0.629870 2.201226 0.054203 -0.021135 -402875.000000 0 0 1
-31.745826 -22.001490 -29.144026 48.386334 0.606047 2.217200 0.065350 -0.024746 641580.000000 0 0 1
-30.568106 -21.638490 -28.401116 47.002731 0.615994 2.219613 0.077412 -0.023685 311932.000000 0 0 1
-30.324776 -20.167690 -28.525366 46.260396 0.586887 2.235246 0.099888 -0.035403 -133820.000000 0 0 1
-29.687306 -19.840690 -29.742496 46.471553 0.589148 2.265314 0.094293 -0.022575 179337.000000 0 0 1
-29.341366 -18.495390 -29.734196 45.684983 0.562439 2.279503 0.092941 -0.033498 -330296.000000 0 0 1
-28.847996 -18.093090 -31.166346 46.161758 0.560170 2.311971 0.086006 -0.025874 426203.000000 0 0 1
-29.831256 -17.928690 -32.187816 47.406722 0.541157 2.317157 0.095027 -0.035493 258587.000000 0 0 1
-30.796136 -16.932090 -31.938376 47.488499 0.502699 2.308445 0.103716 -0.037736 192709.000000 0 0 1
-31.743896 -16.424390 -33.068056 48.692216 0.477473 2.317365 0.092783 -0.040278 1003570.000000 0 0 1
-32.773226 -17.278690 -33.607746 50.021176 0.485185 2.307527 0.100586 -0.044821 237986.000000 0 0 1
-34.064309 -16.791590 -33.403806 50.578147 0.457982 2.292200 0.101208 -0.043267 -72071.200000 0 0 1
-35.071491 -17.486590 33.356649 51.463155 0.462526 0.865623 0.100283 -0.043538 159130.000000 0 0 1
-35.409752 -18.894990 33.435576 52.238003 0.490173 0.876217 0.077758 -0.039441 652573.000000 0 0 1
-36.342796 -19.278690 32.404807 52.369249 0.487724 0.903613 0.077447 -0.033500 234229.000000 0 0 1
-36.656146 -20.786290 32.525171 53.231848 0.515848 0.913461 0.055507 -0.026152 297261.000000 0 0 1
-35.526637 -21.630190 32.302645 52.663725 0.546897 0.910469 0.068902 -0.031000 417879.000000 0 0 1
-35.682903 -22.863690 33.005247 53.715587 0.569842 0.909115 0.057166 -0.026457 35230.500000 0 0 1
-34.317915 -23.648690 33.060842 53.197736 0.603377 0.900178 0.061522 -0.022613 889330.000000 0 0 1
-33.540436 -23.261490 -33.546886 52.834187 0.606374 2.258736 0.053924 -0.033810 169585.000000 0 0 1
-32.847756 -22.021590 -33.606876 51.897472 0.590592 2.275178 0.059687 -0.037856 -773215.000000 0 0 1
-31.549236 -21.956490 -32.784036 50.519647 0.607998 2.276982 0.058979 -0.028984 -2087.850000 0 0 1
-30.575386 -22.921090 -33.230236 50.640687 0.643282 2.286563 0.052083 -0.023440 330627.000000 0 0 1
-29.279726 -22.815490 -32.705526 49.472218 0.661944 2.293065 0.054449 -0.022574 14308.300000 0 0 1
-29.096206 -23.233690 -31.266196 48.620660 0.673833 2.269289 0.053948 -0.008842 -919451.000000 0 0 1
-28.955046 -24.617390 -31.162796 49.148046 0.704606 2.257588 0.051263 -0.008191 -171783.000000 0 0 1
-28.496146 -25.023690 -29.920156 48.305602 0.720607 2.238766 0.044049 -0.005837 -216679.000000 0 0 1
-28.073456 -26.536740 -29.889436 48.843586 0.757266 2.229310 0.042900 0.001923 29013.000000 0 0 1
-29.071196 -27.539770 -29.990686 50.030137 0.758353 2.213613 0.025342 0.007947 35899.400000 0 0 1
-28.709256 -28.604370 -29.179656 49.938799 0.783568 2.194824 0.030692 0.005521 373444.000000 0 0 1
-29.463766 -29.946340 -29.545716 51.359966 0.793521 2.183727 0.034169 0.018283 134594.000000 0 0 1
-29.039986 -30.410780 -30.798666 52.121916 0.808452 2.202966 0.045509 -0.001408 347467.000000 0 0 1
-29.559726 -31.683290 -31.211676 53.402032 0.820059 2.195018 0.066793 0.004919 6320.480000 0 0 1
-28.939346 -32.063320 -32.590726 54.108203 0.836564 2.217207 0.050619 -0.007095 -330112.000000 0 0 1
-27.582486 -32.383240 -32.579476 53.580687 0.865286 2.224392 0.037424 -0.010201 -744541.000000 0 0 1
-27.268246 -32.920390 -33.838706 54.519422 0.879031 2.240396 0.043503 -0.011141 399940.000000 0 0 1
-25.755906 -33.295960 33.795293 53.982492 0.912396 0.894330 0.059663 -0.021295 487952.000000 0 0 1
-25.468756 -33.644360 32.480973 53.250484 0.922831 0.914779 0.054459 -0.010877 -105270.000000 0 0 1
-24.310076 33.204163 32.459540 52.412957 -0.938824 0.902941 0.064193 -0.004996 -251089.000000 0 0 1
-24.209976 32.505023 31.077823 51.073776 -0.930627 0.916641 0.066644 -0.007230 -850988.000000 0 0 1
-25.269516 31.635623 30.982083 50.982846 -0.896807 0.917640 0.068422 -0.018007 -405250.000000 0 0 1
-25.124896 30.873263 29.781993 49.713036 -0.887693 0.928447 0.069033 -0.012386 423720.000000 0 0 1
-26.461516 30.162873 29.383383 49.733228 -0.850672 0.938722 0.069177 -0.012614 335573.000000 0 0 1
-26.869486 29.165073 30.287103 49.898692 -0.826343 0.918552 0.065888 -0.009471 -75950.100000 0 0 1
-28.158916 28.754213 29.922783 50.150796 -0.795858 0.931468 0.071484 -0.016183 -94602.700000 0 0 1
-28.743876 27.537173 30.700033 50.269259 -0.763961 0.913837 0.064919 -0.026656 79084.000000 0 0 1
-28.051856 26.313693 30.402483 49.026810 -0.753437 0.901901 0.072090 -0.014525 490583.000000 0 0 1
-28.778646 25.090883 30.653253 48.963097 -0.717047 0.894321 0.084554 -0.006653 692982.000000 0 0 1
-29.849836 24.634403 29.622063 48.737390 -0.689965 0.917523 0.097956 -0.007936 481420.000000 0 0 1
-29.214936 24.268873 28.416643 47.434126 -0.693183 0.928450 0.101441 -0.020795 -250829.000000 0 0 1
-29.970136 23.404543 27.637713 47.008775 -0.663004 0.942303 0.106989 -0.011382 -74720.300000 0 0 1
-29.167426 23.050593 26.357373 45.571699 -0.668789 0.954065 0.124101 -0.020594 961200.000000 0 0 1
-28.055556 22.188933 26.700013 44.635790 -0.669163 0.929575 0.112575 -0.024626 568251.000000 0 0 1
-27.201176 21.946333 25.607653 43.327791 -0.678883 0.938472 0.094927 -0.019929 339505.000000 0 0 1
-25.797256 21.376233 25.933093 42.367052 -0.691953 0.912076 0.085203 -0.028973 182654.000000 0 0 1
-25.966806 20.064033 26.411993 42.124029 -0.657859 0.893093 0.131905 -0.042492 1172950.000000 0 0 1
-24.674176 19.468333 26.685603 41.230479 -0.668008 0.866851 0.103733 -0.034127 767893.000000 0 0 1
-24.602876 18.289633 27.730163 41.337322 -0.639260 0.835474 0.129163 -0.037582 -445855.000000 0 0 1
-23.430376 17.517733 27.707683 40.293538 -0.641996 0.812555 0.104285 -0.030369 -163858.000000 0 0 1
-23.477076 16.530733 28.681313 40.583938 -0.613487 0.785951 0.096364 -0.018015 122377.000000 0 0 1
-22.129776 15.799133 28.940493 39.710097 -0.620015 0.754237 0.092205 -0.020541 476903.000000 0 0 1
-21.171776 16.556533 29.665153 40.029792 -0.663675 0.736123 0.126754 -0.020737 -277907.000000 0 0 1
-19.962676 15.856433 29.747083 39.176829 -0.671258 0.708555 0.122421 -0.021407 -820801.000000 0 0 1
-19.131376 16.348233 30.919343 39.865776 -0.707115 0.683153 0.105787 -0.028693 -885619.000000 0 0 1
-19.539276 16.271433 32.240928 41.061178 -0.694397 0.667789 0.092163 -0.024213 475445.000000 0 0 1
-18.514276 16.738033 33.168453 41.510077 -0.735054 0.645090 0.088169 -0.020082 -311010.000000 0 0 1
-18.761676 16.598333 -33.064846 41.482397 -0.724294 2.493243 0.077962 -0.026940 -240162.000000 0 0 1
-19.797176 17.428633 -32.609366 41.941104 -0.721857 2.461483 0.091852 -0.024037 183055.000000 0 0 1
-21.087576 16.887533 -32.816536 42.506467 -0.675246 2.452835 0.088494 -0.017850 -336647.000000 0 0 1
-22.227776 17.607633 -32.015726 42.768090 -0.669933 2.416728 0.089063 -0.022417 93835.900000 0 0 1
-22.303976 17.392433 -30.603516 41.671805 -0.662296 2.395569 0.095171 -0.017716 129772.000000 0 0 1
-23.367076 18.088133 -30.005786 42.113514 -0.658739 2.363848 0.099369 -0.014420 -539524.000000 0 0 1
-23.310876 17.851733 -28.496676 40.916279 -0.653544 2.341253 0.106030 -0.022665 313934.000000 0 0 1
-23.877076 16.610433 -28.023316 40.389696 -0.607810 2.337581 0.110391 -0.021247 693619.000000 0 0 1
-25.231876 16.290633 -28.339116 41.293315 -0.573302 2.327170 0.109640 -0.018816 324827.000000 0 0 1
-25.965946 15.310233 -27.411236 40.743214 -0.532758 2.308757 0.110470 -0.018375 225077.000000 0 0 1
-25.626666 13.926933 -27.646656 40.187350 -0.497804 2.329449 0.076134 -0.009990 428971.000000 0 0 1
-26.570806 13.111833 -26.948626 40.051921 -0.458408 2.308840 0.049312 -0.009278 345708.000000 0 0 1
-26.357486 11.621933 -27.107166 39.554834 -0.415290 2.325820 0.053618 -0.011914 405698.000000 0 0 1
-25.354946 11.122133 -26.217816 38.130684 -0.413381 2.328944 0.046334 -0.014400 81244.700000 0 0 1
-24.431276 10.316833 -26.896176 37.772061 -0.399564 2.363232 0.037781 -0.003426 -253651.000000 0 0 1
-23.357276 9.668233 -26.026756 36.282629 -0.392455 2.370764 0.059654 -0.005405 -228041.000000 0 0 1
-23.882476 8.637833 -25.223476 35.793974 -0.347043 2.352775 0.047664 -0.011001 128450.000000 0 0 1
-22.856476 7.961833 -24.507456 34.444516 -0.335196 2.362434 0.082028 -0.012427 -145287.000000 0 0 1
-23.326476 7.041933 -23.353656 33.750653 -0.293186 2.334978 0.074416 -0.005384 -97884.900000 0 0 1
-23.954776 5.875233 -23.859056 34.316239 -0.240516 2.339592 0.063669 -0.014957 331819.000000 0 0 1
-23.871876 4.796333 -22.970956 33.474410 -0.198280 2.327082 0.071637 -0.007467 -295670.000000 0 0 1
35.108647 24.231910 -10.187356 43.858691 0.604117 1.805214 0.046549 -0.009451 -15488.200000 0 0 1
35.826217 23.555410 -9.188256 43.849734 0.581623 1.781900 0.053498 -0.020484 118567.000000 0 0 1
37.190587 23.407910 -9.538356 44.967213 0.561760 1.784538 0.038962 -0.020623 559217.000000 0 0 1
-36.946466 22.924510 -8.396856 44.284103 -0.555342 1.761565 0.099937 -0.026746 277693.000000 0 0 1
-37.161486 21.549710 -8.005756 43.697348 -0.525504 1.755046 0.064953 -0.026163 779547.000000 0 0 1
-36.039266 21.141610 -7.167556 42.393045 -0.530528 1.740686 0.120725 -0.031226 603433.000000 0 0 1
-36.366226 20.171410 -5.985056 42.014392 -0.506425 1.713735 0.087505 -0.013299 -273391.000000 0 0 1
-36.587986 18.896310 -6.431156 41.678664 -0.476730 1.725719 0.060637 -0.006198 238690.000000 0 0 1
-36.977136 18.114310 -5.349956 41.521788 -0.455518 1.700002 0.072483 -0.025322 -290672.000000 0 0 1
37.284857 16.904810 -5.874256 41.357466 0.425675 1.713314 0.069635 -0.013783 -47408.600000 0 0 1
35.989287 17.276110 -6.301856 40.415419 0.447548 1.727362 0.059115 -0.013224 173999.000000 0 0 1
35.550557 16.253710 -7.229556 39.752882 0.428825 1.753676 0.061550 -0.013593 82559.400000 0 0 1
34.260327 16.555510 -8.013656 38.885390 0.450139 1.778368 0.048511 -0.018887 -25060.700000 0 0 1
33.778437 15.502410 -8.823256 38.198918 0.430267 1.803883 0.074895 -0.025563 198420.000000 0 0 1
32.899797 15.935310 -9.850256 37.859718 0.451057 1.834003 0.072949 -0.021755 -487749.000000 0 0 1
32.329437 14.798110 -10.754856 37.146244 0.429262 1.864529 0.067661 -0.018708 733495.000000 0 0 1
31.103877 14.164010 -10.330256 35.704125 0.427317 1.864323 0.077852 -0.015376 940415.000000 0 0 1
31.171897 13.413710 -9.118956 35.139296 0.406363 1.833310 0.083284 -0.021604 -808578.000000 0 0 1
30.057907 12.403810 -8.912256 33.715880 0.391376 1.838310 0.087046 -0.008923 -287292.000000 0 0 1
30.342007 11.229710 -9.669056 33.767357 0.354472 1.861204 0.100826 -0.013027 312710.000000 0 0 1
29.412807 10.214010 -9.402556 32.524564 0.334235 1.864073 0.125448 -0.011373 -358913.000000 0 0 1
29.998207 8.880910 -9.852456 32.799906 0.287827 1.875888 0.146002 -0.012583 -89420.200000 0 0 1
31.129147 8.503010 -9.100056 33.528137 0.266648 1.845660 0.134980 -0.017639 161207.000000 0 0 1
31.216637 7.102110 -9.035456 33.264964 0.223703 1.845873 0.137392 -0.018380 -91049.700000 0 0 1
32.379007 6.661710 -8.120356 34.039956 0.202910 1.811673 0.159279 -0.022274 627259.000000 0 0 1
33.684127 6.953810 -8.634456 35.461665 0.203582 1.816756 0.148012 -0.021930 995723.000000 0 0 1
34.673627 6.426010 -7.721056 36.099428 0.183249 1.786345 0.149250 -0.022354 634635.000000 0 0 1
36.130537 6.623610 -8.226756 37.642627 0.181311 1.791124 0.150769 -0.022052 282251.000000 0 0 1
36.488397 5.723110 -9.250056 38.075197 0.155580 1.816194 0.153586 -0.028524 85616.900000 0 0 1
-37.224206 5.882110 -9.544556 38.875948 -0.156723 1.818845 0.144314 -0.029517 -1547310.000000 0 0 1
-36.688656 4.954310 -10.603856 38.510316 -0.134225 1.849751 0.129951 -0.031568 -830451.000000 0 0 1
-35.327981 4.818110 -10.859256 37.272026 -0.135546 1.866436 0.133445 -0.036779 -47890.400000 0 0 1
-34.549631 5.885810 -11.364556 36.843899 -0.168738 1.884361 0.106020 -0.033790 -357325.000000 0 0 1
-34.064637 6.898410 -10.299956 36.250196 -0.199807 1.858901 0.115309 -0.031187 -1247610.000000 0 0 1
-35.050191 7.797710 -9.822856 37.226451 -0.218908 1.837826 0.128308 -0.024446 -62585.600000 0 0 1
-35.020072 9.081010 -10.458056 37.659542 -0.253720 1.852195 0.121256 -0.024470 -273687.000000 0 0 1
-36.011631 10.038310 -9.813056 38.651020 -0.271851 1.827495 0.126609 -0.027371 -81836.400000 0 0 1
-35.577583 10.506310 -8.550856 38.069202 -0.287146 1.797343 0.123515 -0.022669 42194.100000 0 0 1
-36.561566 11.343610 -7.992756 39.106391 -0.300843 1.776632 0.116658 -0.028373 -354226.000000 0 0 1
-35.998517 12.304210 -6.943656 38.671711 -0.329349 1.751329 0.118658 -0.036936 -154647.000000 0 0 1
-35.131153 13.191010 -7.599856 38.287838 -0.359191 1.770616 0.122936 -0.038179 -315727.000000 0 0 1
-34.725619 14.174310 -6.684356 38.098036 -0.387538 1.747161 0.139712 -0.035203 50598.200000 0 0 1
-33.848416 15.243810 -7.309356 37.835377 -0.423149 1.765207 0.113590 -0.027296 280516.000000 0 0 1
-34.673738 16.015310 -8.197356 39.063473 -0.432694 1.782215 0.086488 -0.023817 416076.000000 0 0 1
-34.096973 17.264610 -8.397656 39.130436 -0.468706 1.787086 0.067887 -0.017579 -27468.800000 0 0 1
-34.763415 18.084410 -9.532256 40.328710 -0.479688 1.809418 0.061078 -0.021682 -61204.900000 0 0 1
-34.390760 17.736510 -10.881656 40.196003 -0.476156 1.844932 0.047107 -0.022337 -273659.000000 0 0 1
-35.276983 18.348310 -11.750856 41.463341 -0.479615 1.858138 0.043543 -0.017831 -721767.000000 0 0 1
-34.634662 18.457010 -13.169956 41.396483 -0.489624 1.894565 0.028115 -0.006787 -181836.000000 0 0 1
-33.637026 19.416710 -13.208756 41.023523 -0.523518 1.898617 0.047862 -0.018493 -474279.000000 0 0 1
-33.305836 19.960110 -14.496556 41.446772 -0.539903 1.928115 0.028370 -0.012408 -296209.000000 0 0 1
-32.317286 21.094210 -14.368656 41.180469 -0.578287 1.927214 0.035107 -0.009719 -1442520.000000 0 0 1
-31.110266 20.878810 -13.703856 39.894474 -0.591081 1.921440 0.037649 -0.005765 137625.000000 0 0 1
-30.185006 21.966610 -13.712056 39.770430 -0.629097 1.922801 0.043831 -0.014627 343469.000000 0 0 1
-29.645576 22.465310 -15.124456 40.153450 -0.648472 1.956991 0.039339 -0.023109 -1343480.000000 0 0 1
-30.637746 22.903510 -16.021756 41.472147 -0.641937 1.967441 0.052798 -0.011897 -279175.000000 0 0 1
-30.202916 23.336110 -17.312156 41.910631 -0.657837 1.996622 0.066210 -0.014085 153294.000000 0 0 1
-29.492426 24.729210 -17.441356 42.255626 -0.697776 1.996277 0.078578 -0.019435 57966.200000 0 0 1
-30.389206 25.804010 -17.291456 43.455095 -0.703982 1.980040 0.105237 -0.034668 140638.000000 0 0 1
-29.655306 26.992310 -17.474656 43.742264 -0.738423 1.981758 0.112624 -0.041199 391880.000000 0 0 1
-30.460656 28.323810 -17.195556 45.008632 -0.749064 1.962810 0.112064 -0.043459 87123.100000 0 0 1
-30.492766 28.599610 -15.778156 44.684413 -0.753372 1.931681 0.107115 -0.050079 251803.000000 0 0 1
-29.406006 29.384410 -15.328056 44.306953 -0.785031 1.924049 0.106080 -0.052050 -64518.100000 0 0 1
-29.589636 29.908610 -13.865056 44.297983 -0.790759 1.889141 0.092686 -0.043780 -104208.000000 0 0 1
-30.574846 30.915110 -13.856956 45.635299 -0.790932 1.879313 0.066692 -0.033681 15010.900000 0 0 1
-30.621326 31.647410 -12.588456 45.800583 -0.801875 1.849234 0.048176 -0.037188 -45116.500000 0 0 1
-29.560816 32.791610 -12.512056 45.887723 -0.837167 1.846960 0.060079 -0.046929 243252.000000 0 0 1
-29.582246 33.773310 -13.505956 46.884503 -0.851453 1.863006 0.047061 -0.042971 -185197.000000 0 0 1
-28.466676 -33.019713 -13.414456 45.613602 0.859313 1.869298 0.101911 -0.048857 89570.700000 0 0 1
-28.376056 -32.104413 -14.607356 45.268849 0.846966 1.899356 0.087407 -0.041540 -2805.960000 0 0 1
-27.871276 -32.745113 -15.745056 45.792546 0.865630 1.921794 0.092176 -0.037793 -129494.000000 0 0 1
-28.183486 -31.994713 -16.908156 45.867813 0.848646 1.948329 0.087901 -0.029590 -43948.900000 0 0 1
-27.389596 -32.547013 -18.097756 46.227987 0.871235 1.973046 0.092675 -0.027278 -230389.000000 0 0 1
-27.723896 -33.818613 -18.603156 47.522525 0.884109 1.973014 0.094914 -0.016328 -180943.000000 0 0 1
-27.243636 32.759510 -17.798556 46.175641 -0.877067 1.966495 0.084834 -0.038753 -270241.000000 0 0 1
-27.693436 31.355410 -18.324456 45.671368 -0.847335 1.983649 0.100022 -0.047894 -649055.000000 0 0 1
-29.041106 31.070110 -18.416556 46.345519 -0.819140 1.979451 0.115791 -0.040676 -975007.000000 0 0 1
-29.587616 31.559710 -19.642456 47.510719 -0.817639 1.997016 0.107242 -0.034054 -340790.000000 0 0 1
-31.081526 31.265710 -19.875056 48.359320 -0.788352 1.994333 0.109467 -0.047905 45196.200000 0 0 1
-31.428786 29.902510 -20.155556 47.834874 -0.760518 2.005737 0.108479 -0.048834 -60983.000000 0 0 1
-32.815696 29.874410 -20.388456 48.836866 -0.738515 2.001468 0.115400 -0.046551 -380941.000000 0 0 1
-33.360446 28.491910 -20.692456 48.506557 -0.706848 2.011516 0.118568 -0.046195 -1068830.000000 0 0 1
-34.638914 28.481510 -21.226156 49.614519 -0.688156 2.012877 0.121508 -0.046281 -541300.000000 0 0 1
-34.890241 27.180810 -21.759256 49.290878 -0.661828 2.028006 0.111737 -0.037610 -1560220.000000 0 0 1
-36.335616 26.848210 -21.889756 50.202239 -0.636356 2.021980 0.115597 -0.035989 -1232280.000000 0 0 1
-36.986486 27.406510 -23.018256 51.468020 -0.637708 2.034467 0.116790 -0.033469 -632001.000000 0 0 1
36.897757 26.751010 -23.271956 51.172697 0.627311 2.042914 0.111314 -0.021213 -617767.000000 0 0 1
36.086037 27.343610 -24.414756 51.438851 0.648432 2.065347 0.114314 -0.019388 -375363.000000 0 0 1
36.737707 27.177810 -25.667426 52.412873 0.636928 2.082560 0.126414 -0.025078 -45973.200000 0 0 1
36.054437 27.699610 -26.833676 52.794289 0.655093 2.103969 0.134948 -0.014948 -101424.000000 0 0 1
36.918037 27.925410 -28.082746 54.142503 0.647595 2.116105 0.129698 -0.021195 -74851.200000 0 0 1
37.392627 26.715210 -28.634546 54.146544 0.620359 2.128023 0.093284 -0.008682 -92709.500000 0 0 1
-37.030596 26.966010 -29.850056 54.675924 -0.629408 2.148313 0.059984 -0.008866 -633206.000000 0 0 1
-36.575086 25.687710 -30.602906 54.167640 -0.612287 2.171189 0.037145 -0.004808 331815.000000 0 0 1
-35.576483 24.820210 -30.087116 52.791700 -0.609152 2.177206 0.021054 -0.002648 356959.000000 0 0 1
-34.267082 25.360610 -30.078106 52.173614 -0.637126 2.185235 0.000343 0.006169 120468.000000 0 0 1
-33.287986 24.584410 -29.145146 50.615441 -0.636124 2.184397 0.006742 0.005698 -79845.000000 0 0 1
-33.212216 23.235810 -29.406856 50.077114 -0.610468 2.198430 -0.003182 0.006244 89933.800000 0 0 1
-33.151566 22.520410 -28.213156 49.012013 -0.596709 2.184180 -0.002035 0.003292 -140009.000000 0 0 1
-32.876506 21.036210 -28.486686 48.320576 -0.569211 2.201280 0.004407 -0.003395 -361026.000000 0 0 1
-31.502586 20.759710 -28.491156 47.277103 -0.582665 2.217604 0.064791 -0.005525 -312608.000000 0 0 1
-31.341366 19.360710 -28.668366 46.679691 -0.553359 2.232106 0.050072 -0.000505 32185.100000 0 0 1
-29.867286 18.949610 -28.893996 45.672810 -0.565373 2.255741 0.072419 -0.007905 -90210.400000 0 0 1
-29.430286 19.238410 -30.230626 46.369699 -0.578968 2.280947 0.081845 -0.008894 763005.000000 0 0 1
-28.070116 18.891510 -30.502356 45.554520 -0.592382 2.304438 0.100719 -0.012663 712009.000000 0 0 1
-28.124846 17.393910 -31.094916 45.392168 -0.553878 2.325439 0.097326 -0.006365 -281365.000000 0 0 1
-28.283176 16.412310 -30.081426 44.431905 -0.525797 2.314506 0.060991 -0.000946 128072.000000 0 0 1
-28.267486 15.153710 -30.668546 44.376181 -0.492095 2.333811 0.033170 0.001353 -363789.000000 0 0 1
-28.868996 13.969010 -29.908736 43.852990 -0.450665 2.321321 0.027922 0.008500 739458.000000 0 0 1
-30.315686 14.050710 -30.018886 44.917667 -0.434007 2.302730 0.013847 0.002264 1095350.000000 0 0 1
-30.956116 12.796710 -29.964736 44.943546 -0.391989 2.300595 0.009069 0.003555 -231031.000000 0 0 1
-30.707656 11.790710 -28.776996 43.704651 -0.366608 2.289544 0.010270 -0.009862 -700941.000000 0 0 1
-30.988616 12.392010 -27.515116 43.254339 -0.380411 2.260260 0.004008 -0.006249 297731.000000 0 0 1
-30.893246 11.519910 -26.413936 42.246858 -0.356923 2.246220 0.009225 -0.002921 -58418.400000 0 0 1
-30.733046 12.212110 -24.982556 41.446157 -0.378229 2.217766 0.020195 -0.015734 -714458.000000 0 0 1
-29.491976 12.782910 -24.775556 40.583342 -0.408995 2.227470 0.038801 -0.023561 -723885.000000 0 0 1
-29.393556 13.432510 -23.501756 39.959305 -0.428650 2.199556 0.046591 -0.018228 1019390.000000 0 0 1
-27.928456 13.919810 -23.165156 38.863662 -0.462374 2.209384 0.076728 -0.013331 68404.000000 0 0 1
-27.401756 15.039010 -23.834656 39.308001 -0.501947 2.222267 0.085900 -0.016578 426394.000000 0 0 1
-25.986466 15.170910 -23.830956 38.384469 -0.528423 2.240621 0.091637 -0.024579 652684.000000 0 0 1
-25.310766 15.313410 -22.418656 37.117807 -0.544099 2.219290 0.097870 -0.022453 -949350.000000 0 0 1
-25.736716 16.446410 -21.721356 37.479065 -0.568621 2.188985 0.122843 -0.022439 37443.000000 0 0 1
-25.764866 16.191910 -20.325656 36.594243 -0.561076 2.159680 0.123834 -0.017254 -157702.000000 0 0 1
-27.112606 16.598610 -19.695956 37.397032 -0.549349 2.125477 0.116152 -0.025950 240150.000000 0 0 1
-28.150996 15.698510 -20.060356 37.964980 -0.508700 2.127501 0.123485 -0.030532 -15233.000000 0 0 1
-29.395256 16.081410 -19.516256 38.775986 -0.500595 2.098219 0.110822 -0.025797 -1373740.000000 0 0 1
-30.400846 14.970510 -19.724156 39.209310 -0.457579 2.097918 0.081180 -0.030206 -252927.000000 0 0 1
-31.048006 14.921910 -21.021956 40.355480 -0.448014 2.118724 0.062686 -0.022966 52419.500000 0 0 1
-31.934236 15.978310 -21.203656 41.529470 -0.463928 2.106643 0.059545 -0.022130 -1196030.000000 0 0 1
-32.378146 16.125510 -22.663756 42.685153 -0.462076 2.130520 0.022399 -0.006015 -296236.000000 0 0 1
-33.478466 15.352310 -23.065756 43.457223 -0.429960 2.130304 0.028590 -0.008569 -47604.200000 0 0 1
-33.900056 15.573310 -24.416856 44.586149 -0.430634 2.150329 0.001110 -0.001707 633665.000000 0 0 1
-35.249407 14.823010 -24.728456 45.538323 -0.398068 2.144832 0.003683 -0.008893 569596.000000 0 0 1
-35.124165 13.444010 -24.909656 45.110302 -0.365554 2.155790 -0.001602 -0.003981 117005.000000 0 0 1
-34.710580 12.625910 -23.774356 43.925596 -0.348870 2.142709 0.000229 -0.007058 -79589.100000 0 0 1
-34.525517 11.140610 -24.227456 43.624468 -0.312130 2.159597 0.011555 -0.015430 -203464.000000 0 0 1
-35.761760 10.568110 -24.595156 44.671134 -0.287336 2.153859 0.027871 -0.008376 -68414.000000 0 0 1
-35.665167 9.403010 -25.391446 44.778860 -0.257781 2.173705 0.026713 -0.007038 -631644.000000 0 0 1
-36.951996 8.973110 -26.096626 46.119417 -0.238221 2.172259 0.061600 -0.002178 -807693.000000 0 0 1
37.417657 8.142310 -25.245986 45.866524 0.214266 2.153667 0.066817 -0.004576 -731147.000000 0 0 1
36.539967 7.404710 -26.033746 45.472572 0.199939 2.180367 0.077595 -0.004306 -757102.000000 0 0 1
35.530117 6.561210 -25.255656 44.082727 0.182609 2.180854 0.097854 -0.015048 -250231.000000 0 0 1
36.043437 5.430110 -24.549256 43.946347 0.149530 2.163516 0.086299 -0.013285 155629.000000 0 0 1
35.072177 4.870710 -23.668556 42.590867 0.137994 2.160024 0.110925 -0.015016 190252.000000 0 0 1
35.579167 3.744910 -22.793756 42.420004 0.104870 2.138070 0.088633 -0.006260 -57625.400000 0 0 1
36.108767 2.632710 -23.488556 43.156534 0.072782 2.146308 0.096967 -0.011017 487747.000000 0 0 1
36.922417 1.824710 -22.619456 43.338600 0.049380 2.119901 0.116204 -0.006333 282968.000000 0 0 1
-37.539486 0.546710 -23.217656 44.142627 -0.014563 2.124650 0.131479 -0.009916 198089.000000 0 0 1
36.641517 -0.494990 -23.504656 43.535211 -0.013508 2.141115 0.104728 -0.021960 -129056.000000 0 0 1
37.382347 -1.506190 -24.109056 44.507921 -0.040270 2.143231 0.114302 -0.020278 242835.000000 0 0 1
-23.220476 28.754510 27.005023 45.774269 -0.891473 0.939786 0.072491 -0.022103 -128297.000000 0 0 1
-24.462776 29.306810 26.564403 46.507893 -0.875244 0.962853 0.068910 -0.024900 901734.000000 0 0 1
-24.925976 28.893610 25.297693 45.783385 -0.858986 0.985374 0.063691 -0.023122 -32759.100000 0 0 1
-25.388376 27.424010 25.076553 45.005328 -0.823924 0.979797 0.060730 -0.022761 -125428.000000 0 0 1
-26.625806 26.975510 25.634103 45.757174 -0.791922 0.976144 0.066113 -0.021287 475563.000000 0 0 1
-26.665796 26.637310 27.041073 46.387829 -0.784864 0.948460 0.073769 -0.019106 -650994.000000 0 0 1
-26.033046 25.257210 27.381153 45.446383 -0.770273 0.924175 0.070248 -0.013231 350565.000000 0 0 1
-24.699776 25.240310 27.863133 44.983402 -0.796221 0.902806 0.067098 -0.012017 -14924.000000 0 0 1
-24.393376 25.829610 29.123433 45.938872 -0.813988 0.884133 0.056811 -0.011255 189894.000000 0 0 1
-22.940476 25.655910 29.642693 45.422246 -0.841217 0.859782 0.059439 -0.006606 215630.000000 0 0 1
-21.883276 26.375510 29.021563 44.908757 -0.878217 0.868157 0.075811 -0.016576 -27863.200000 0 0 1
-20.631176 26.157810 29.602073 44.566346 -0.902972 0.844340 0.097006 -0.022872 -118979.000000 0 0 1
-19.869676 24.835510 29.327173 43.263029 -0.896024 0.825920 0.088130 -0.022315 -695618.000000 0 0 1
-19.208276 24.778110 28.075173 42.084772 -0.911354 0.840474 0.086667 -0.027885 22481.700000 0 0 1
-19.633476 23.825510 27.065183 41.056698 -0.881560 0.851022 0.079005 -0.028192 -215804.000000 0 0 1
-19.556576 22.285310 27.227613 40.254660 -0.850521 0.827954 0.052624 -0.019328 142536.000000 0 0 1
-20.344076 21.828010 28.316673 41.136085 -0.820571 0.811563 0.059217 -0.011859 68085.800000 0 0 1
-20.392276 20.421010 28.334393 40.443794 -0.786102 0.794577 0.078538 -0.014924 15389.700000 0 0 1
-20.892976 19.784510 29.639993 41.309472 -0.758155 0.770574 0.094176 -0.025805 -396494.000000 0 0 1
-20.115876 20.234010 30.667763 41.887652 -0.788326 0.749333 0.074324 -0.025272 -147515.000000 0 0 1
-20.572076 19.700410 31.890243 42.758673 -0.763757 0.729032 0.071482 -0.016814 127873.000000 0 0 1
-19.677676 20.261510 33.047048 43.472372 -0.800015 0.707198 0.081395 -0.019161 -146025.000000 0 0 1
-19.778676 21.640410 33.278488 44.350436 -0.830317 0.722200 0.048910 -0.015636 93249.800000 0 0 1
-18.906676 22.482310 32.546128 43.842527 -0.871575 0.734238 0.075261 -0.014894 843864.000000 0 0 1
-17.441576 22.597610 33.125909 43.728554 -0.913468 0.711268 0.062038 -0.010128 1003210.000000 0 0 1
-16.667876 21.398310 33.064668 42.766553 -0.909033 0.687014 0.076757 -0.026867 -459532.000000 0 0 1
-15.343076 21.647910 33.442571 42.690135 -0.954218 0.670712 0.063767 -0.024096 -1025210.000000 0 0 1
-14.444276 20.466510 33.073824 41.489674 -0.956221 0.648223 0.064671 -0.032033 166891.000000 0 0 1
-13.116176 20.442710 33.612936 41.470085 -1.000344 0.625732 0.059214 -0.028675 848953.000000 0 0 1
-13.044376 20.271710 -32.737116 40.654849 -0.999020 2.506885 0.071639 -0.025602 -245226.000000 0 0 1
-11.532876 20.194610 -32.347236 39.839343 -1.051908 2.518268 0.060349 -0.018303 535716.000000 0 0 1
-10.909276 21.444510 -32.465866 40.409303 -1.100196 2.503823 0.061465 -0.017718 -1103290.000000 0 0 1
-9.572376 21.314310 -32.142626 39.737622 -1.148686 2.513026 0.062001 -0.014102 -833697.000000 0 0 1
-8.722376 22.626710 -32.257086 40.355514 -1.202861 2.496964 0.071280 -0.011664 214292.000000 0 0 1
-8.669876 23.536310 -31.111876 39.963402 -1.217858 2.463083 0.072285 -0.010077 266135.000000 0 0 1
-7.914976 22.997910 -30.015846 38.632910 -1.239333 2.460603 0.065541 -0.013149 66218.700000 0 0 1
-7.275776 24.079910 -29.110766 38.473572 -1.277367 2.428960 0.082144 -0.015345 -64409.800000 0 0 1
-6.223776 24.846010 -29.630226 39.166439 -1.325353 2.428773 0.081382 -0.018308 -136748.000000 0 0 1
-5.790576 25.825310 -28.729486 39.062268 -1.350223 2.397170 0.115747 -0.017626 -383775.000000 0 0 1
-4.443776 26.476810 -29.075156 39.574403 -1.404510 2.396015 0.088371 -0.024810 -423407.000000 0 0 1
-3.367176 25.745010 -28.453866 38.519683 -1.440745 2.401912 0.103849 -0.020604 499255.000000 0 0 1
-2.170776 25.887710 -29.201616 39.084782 -1.487138 2.414538 0.120784 -0.026243 113118.000000 0 0 1
-1.307476 27.152110 -29.091996 39.815711 -1.522680 2.390094 0.120855 -0.047324 -496006.000000 0 0 1
-0.578776 27.176210 -27.858356 38.922608 -1.549502 2.368475 0.125080 -0.058287 10992.700000 0 0 1
0.281324 28.280710 -27.858516 39.698547 1.560849 2.348649 0.134489 -0.058767 -1317110.000000 0 0 1
0.804524 28.528210 -26.459476 38.917990 1.542603 2.318392 0.125493 -0.073870 -98315.800000 0 0 1
1.927624 27.798210 -25.990106 38.104355 1.501564 2.321396 0.165887 -0.081052 -325699.000000 0 0 1
3.117924 28.111610 -26.615426 38.837675 1.460335 2.325811 0.166531 -0.079310 -1395060.000000 0 0 1
4.300224 28.211610 -25.620166 38.350747 1.419533 2.302380 0.165214 -0.081806 -84545.800000 0 0 1
4.716124 26.996910 -25.054056 37.131937 1.397850 2.311396 0.155829 -0.066730 -877645.000000 0 0 1
5.930524 27.090310 -24.433356 36.960045 1.355279 2.293047 0.110379 -0.053920 -1283250.000000 0 0 1
6.424224 25.798210 -23.842256 35.710944 1.326742 2.301838 0.115898 -0.048640 662636.000000 0 0 1
7.616824 26.041510 -23.046156 35.599180 1.286246 2.274937 0.103937 -0.046918 667139.000000 0 0 1
8.196824 24.809410 -22.642156 34.574008 1.251696 2.284833 0.091995 -0.028541 1132800.000000 0 0 1
9.703624 24.948410 -22.192756 34.772143 1.199854 2.262998 0.071343 -0.011567 217454.000000 0 0 1
9.858024 25.640410 -20.953256 34.549244 1.203747 2.222416 0.078902 -0.018969 170117.000000 0 0 1
11.192524 25.963010 -20.574356 34.966479 1.163775 2.199878 0.093119 -0.021776 431642.000000 0 0 1
12.084124 24.759910 -20.166556 34.143363 1.116753 2.202652 0.062904 -0.004009 -349623.000000 0 0 1
12.503624 23.968610 -21.303556 34.419128 1.089966 2.238195 0.055666 -0.008900 -53075.800000 0 0 1
12.602624 22.642910 -20.853156 33.262316 1.062914 2.248403 0.041592 -0.001487 -348713.000000 0 0 1
12.806424 21.572110 -21.929756 33.320784 1.035054 2.289143 0.046315 -0.003623 45896.900000 0 0 1
11.787424 21.561710 -22.925456 33.606953 1.070503 2.321515 0.047283 -0.020863 337877.000000 0 0 1
11.818524 20.427710 -23.757256 33.486954 1.046296 2.359511 0.064167 -0.025187 -329154.000000 0 0 1
10.978324 20.615410 -25.041356 34.243076 1.081465 2.390996 0.077807 -0.023329 -1002420.000000 0 0 1
9.635724 20.578510 -24.687456 33.552835 1.132876 2.397612 0.062909 -0.026771 -1210030.000000 0 0 1
8.975224 20.854810 -25.877796 34.425835 1.164389 2.421428 0.070066 -0.029096 -980757.000000 0 0 1
7.482324 20.545410 -25.827966 33.840551 1.221541 2.439087 0.076221 -0.039159 -397425.000000 0 0 1
6.499424 21.412810 -25.299596 33.776035 1.276104 2.417408 0.106379 -0.045429 139371.000000 0 0 1
6.556224 21.660310 -23.885656 32.904068 1.276879 2.383165 0.111342 -0.043918 -624304.000000 0 0 1
5.207324 21.963110 -23.206056 32.373067 1.338001 2.370045 0.145880 -0.052658 -141094.000000 0 0 1
4.616124 23.107810 -23.794056 33.487858 1.373627 2.361044 0.143417 -0.057928 475973.000000 0 0 1
3.221524 23.203610 -23.488956 33.174038 1.432841 2.357533 0.158309 -0.054089 443333.000000 0 0 1
2.586524 24.317810 -24.338656 34.502409 1.464831 2.353811 0.139747 -0.045212 917941.000000 0 0 1
1.146124 24.194710 -24.389856 34.373867 1.523461 2.359651 0.158107 -0.068237 868752.000000 0 0 1
0.603624 24.972310 -25.375026 35.607199 1.546629 2.364047 0.149377 -0.055425 -42851.700000 0 0 1
-0.924176 24.825710 -25.572366 35.652713 -1.533587 2.370663 0.153533 -0.050655 250575.000000 0 0 1
-1.302176 23.518910 -25.990636 35.076317 -1.515486 2.405316 0.166157 -0.048538 308812.000000 0 0 1
-2.674976 23.512510 -26.379426 35.438225 -1.457515 2.410399 0.167412 -0.034560 205344.000000 0 0 1
-3.244676 22.256710 -26.967616 35.116113 -1.426032 2.446439 0.142105 -0.034983 -778683.000000 0 0 1
-2.701776 21.794110 -28.131836 35.688696 -1.447457 2.478766 0.174254 -0.046451 -366280.000000 0 0 1
-3.240476 20.589810 -28.703696 35.473133 -1.414694 2.513530 0.127810 -0.042487 757316.000000 0 0 1
-4.488276 20.786610 -29.665086 36.499933 -1.358140 2.519642 0.091844 -0.030018 622921.000000 0 0 1
-4.151076 20.981110 -31.064436 37.715217 -1.375471 2.538628 0.098687 -0.029002 121083.000000 0 0 1
-3.544276 22.251510 -31.233536 38.512665 -1.412841 2.516645 0.119965 -0.024500 18514.900000 0 0 1
-3.201076 22.463110 -32.770486 39.859039 -1.429246 2.535990 0.107268 -0.017494 263651.000000 0 0 1
-2.013876 21.745610 -33.102186 39.657055 -1.478449 2.558404 0.103672 -0.018481 264065.000000 0 0 1
-1.620876 21.905010 33.312846 39.902412 -1.496935 0.582922 0.098006 -0.012218 -137942.000000 0 0 1
-0.455676 20.972010 32.989527 39.094012 -1.549072 0.566376 0.108528 -0.011747 -197013.000000 0 0 1
-0.908676 19.639410 32.776064 38.220446 -1.524561 0.540302 0.097590 -0.001210 -1049900.000000 0 0 1
0.067224 18.833010 32.339557 37.423706 1.567227 0.527345 0.098218 -0.012127 -1147040.000000 0 0 1
-0.425576 17.484010 31.808687 36.299646 -1.546460 0.502708 0.078697 -0.010292 -158881.000000 0 0 1
-1.150576 17.538010 30.607873 35.295149 -1.505285 0.521249 0.063137 -0.009814 62730.200000 0 0 1
-1.597676 16.233710 30.376113 34.478895 -1.472695 0.492812 0.048405 -0.008523 268757.000000 0 0 1
-2.610776 15.947010 29.180813 33.356306 -1.408520 0.505729 0.049918 -0.008457 1097770.000000 0 0 1
-3.951876 16.426810 29.327633 33.846233 -1.334708 0.522656 0.033523 -0.010175 721968.000000 0 0 1
-4.047976 17.798010 28.936703 34.212397 -1.347161 0.562741 0.041017 -0.015621 -811058.000000 0 0 1
-5.422376 18.413810 29.184393 34.931353 -1.284418 0.581793 0.032912 -0.024447 -177601.000000 0 0 1
-6.322676 18.078610 28.146593 34.044722 -1.234360 0.597484 0.023671 -0.020886 -198539.000000 0 0 1
-7.657476 18.266210 28.562813 34.758103 -1.173835 0.606304 0.039678 -0.023924 211072.000000 0 0 1
-8.786176 17.605510 27.712863 33.987552 -1.107902 0.617406 0.039271 -0.031786 430809.000000 0 0 1
-9.137076 16.257510 28.087643 33.715108 -1.058770 0.586130 0.046495 -0.040382 -145709.000000 0 0 1
-9.977776 16.090210 29.172293 34.777487 -1.015718 0.575671 0.051586 -0.036655 -624025.000000 0 0 1
-10.553476 14.626010 29.299133 34.405454 -0.945750 0.551797 0.049657 -0.033422 345122.000000 0 0 1
-9.584776 13.637110 29.677563 34.038162 -0.958163 0.511746 0.050183 -0.029924 670077.000000 0 0 1
-8.900576 13.782910 30.938693 35.019875 -0.997401 0.487597 0.048347 -0.026735 -628972.000000 0 0 1
-9.661676 13.497910 32.236207 36.258994 -0.949551 0.475521 0.106492 -0.031990 -656127.000000 0 0 1
-9.816076 12.112210 32.381807 35.939427 -0.889729 0.448703 0.113378 -0.022379 371062.000000 0 0 1
-10.559676 11.745710 33.531236 37.064974 -0.838521 0.440213 0.108428 -0.018128 -306409.000000 0 0 1
-10.892176 10.224310 33.299702 36.497208 -0.753781 0.421710 0.103627 -0.019024 -123084.000000 0 0 1
-9.858476 9.275910 33.564899 36.191636 -0.754962 0.383338 0.099123 -0.020123 308428.000000 0 0 1
-9.994276 8.723110 -32.907016 35.480275 -0.717589 2.758394 0.131203 -0.036863 168522.000000 0 0 1
-9.139076 9.364610 -31.763656 34.353290 -0.797586 2.750827 0.103563 -0.044425 -172968.000000 0 0 1
-9.725876 10.549310 -31.273006 34.407580 -0.825989 2.711432 0.099022 -0.037668 102267.000000 0 0 1
-9.004076 11.209710 -30.256026 33.498629 -0.894084 2.697968 0.093621 -0.044644 -557976.000000 0 0 1
-7.938976 12.192110 -30.772376 34.038420 -0.993608 2.699944 0.075170 -0.042650 -624116.000000 0 0 1
-8.414276 13.336010 -31.424486 35.158890 -1.007934 2.676511 0.075925 -0.033292 -117099.000000 0 0 1
-7.410576 14.269510 -31.789606 35.624635 -1.091805 2.673319 0.048413 -0.027869 -164424.000000 0 0 1
-7.913576 15.661810 -32.258256 36.722093 -1.102935 2.643390 0.051038 -0.020998 -136685.000000 0 0 1
-8.431476 15.744510 -33.576746 38.031267 -1.079139 2.652740 0.050970 -0.020650 11990.600000 0 0 1
-8.816276 17.060410 -33.784186 38.860720 -1.093824 2.624714 0.069255 -0.020438 -1022290.000000 0 0 1
-9.434576 17.307610 32.528846 38.035384 -1.071714 0.544810 0.054352 -0.026969 128159.000000 0 0 1
-10.576776 16.619210 32.096183 37.659412 -1.004028 0.550477 0.049058 -0.031900 -738931.000000 0 0 1
-11.730976 16.924510 32.785752 38.716410 -0.964692 0.560822 0.070068 -0.032248 -1591170.000000 0 0 1
-13.019776 16.879510 31.907048 38.373066 -0.913779 0.589001 0.086738 -0.041488 -22911.300000 0 0 1
-13.326776 15.553510 31.451463 37.532775 -0.862348 0.577238 0.087725 -0.030549 427927.000000 0 0 1
-13.966676 14.809010 32.479744 38.331562 -0.814662 0.559846 0.072704 -0.024219 -557878.000000 0 0 1
-13.594776 13.305710 32.261061 37.451782 -0.774653 0.532772 0.070073 -0.012871 -186215.000000 0 0 1
-14.255876 12.730110 31.151243 36.547034 -0.728919 0.550314 0.069534 -0.018895 828947.000000 0 0 1
-13.306776 12.146710 30.197643 35.164052 -0.739854 0.537943 0.088337 -0.013455 458602.000000 0 0 1
-13.876476 11.390410 28.996533 34.104208 -0.687322 0.554368 0.079853 -0.014281 -852684.000000 0 0 1
-14.733976 10.330010 29.267293 34.356566 -0.611465 0.551253 0.079856 -0.011189 -53373.000000 0 0 1
-15.116676 9.785010 27.992593 33.284315 -0.574474 0.571641 0.078052 -0.007168 254517.000000 0 0 1
-15.905476 8.412310 28.042853 33.318955 -0.486495 0.570467 0.075777 -0.012685 365937.000000 0 0 1
-15.110576 7.270410 28.288053 32.884683 -0.448452 0.535096 0.062450 -0.013750 284896.000000 0 0 1
-15.855876 6.079810 28.135623 32.863144 -0.366151 0.543033 0.059528 -0.011961 -186699.000000 0 0 1
-14.905976 4.904910 28.373943 32.424172 -0.317897 0.505183 0.062200 -0.012862 241100.000000 0 0 1
-13.881276 4.659910 27.418703 31.083595 -0.323877 0.490504 0.068178 -0.018672 84778.500000 0 0 1
-14.295276 4.380010 26.082053 30.063481 -0.297314 0.520509 0.064481 -0.011777 -1100790.000000 0 0 1
-13.274676 4.124910 24.977123 28.584762 -0.301276 0.507851 0.059320 -0.009629 -439038.000000 0 0 1
-12.513076 2.949410 25.206393 28.295554 -0.231481 0.471638 0.051564 -0.012549 578499.000000 0 0 1
-11.453276 2.763610 24.284173 26.991409 -0.236768 0.451714 0.047209 -0.011967 70569.200000 0 0 1
-10.537976 1.535510 24.479983 26.695998 -0.144694 0.410326 0.046473 -0.001868 -208877.000000 0 0 1
-9.273476 1.718010 23.905153 25.698352 -0.183184 0.375781 0.044171 -0.023428 -211408.000000 0 0 1
-8.352476 0.786310 24.439043 25.838904 -0.093864 0.330675 0.042797 -0.018552 746268.000000 0 0 1
-6.860976 1.255810 24.325203 25.305445 -0.181033 0.279246 0.050301 -0.022689 133159.000000 0 0 1
-6.445376 1.478810 23.007423 23.938907 -0.225534 0.279878 0.041625 -0.019844 329970.000000 0 1 0
-5.095076 1.866110 22.764563 23.402297 -0.351084 0.233990 0.047199 -0.022767 492813.000000 0 1 0
-4.651976 3.298210 23.197203 23.887849 -0.616735 0.241049 0.065131 -0.030452 -430724.000000 0 1 0
-4.615076 3.598010 24.604513 25.290842 -0.662191 0.233500 0.075062 -0.033590 158926.000000 0 0 1
-4.174676 4.939010 24.780383 25.610333 -0.869069 0.255278 0.069682 -0.045653 -52902.900000 0 0 1
4.874024 -23.529990 12.704244 27.181139 -1.366544 1.084458 0.134195 -0.038479 98711.700000 0 0 1
4.402924 -24.695390 13.311544 28.397979 -1.394361 1.082922 0.155758 -0.049477 446046.000000 0 0 1
2.964024 -24.694290 13.228844 28.170830 -1.451339 1.081966 0.158161 -0.048393 948966.000000 0 0 1
2.346824 -25.982940 13.823544 29.524754 -1.480719 1.083542 0.148683 -0.051083 -198054.000000 0 0 1
2.199524 -26.003240 15.237644 30.219069 -1.486411 1.042295 0.160300 -0.046442 -45040.800000 0 0 1
2.169324 -27.308650 15.709744 31.579493 -1.491526 1.050120 0.160436 -0.044468 -406764.000000 0 0 1
2.155524 -27.480270 17.278044 32.532173 -1.492518 1.010891 0.154037 -0.038221 -329842.000000 0 0 1
3.180424 -26.813110 17.966944 32.432530 -1.452733 0.983660 0.166446 -0.041094 41470.700000 0 0 1
3.180724 -27.184000 19.354244 33.521241 -1.454319 0.955289 0.154246 -0.041722 26976.500000 0 0 1
3.983324 -26.230510 20.241344 33.370923 -1.420089 0.919074 0.125616 -0.040972 -294439.000000 0 0 1
3.186024 -25.240000 20.768744 32.841270 -1.445231 0.886152 0.137208 -0.036239 689642.000000 0 0 1
4.023324 -24.399390 21.638344 32.859325 -1.407372 0.851953 0.103058 -0.026454 879192.000000 0 0 1
3.196724 -23.224390 22.214744 32.296844 -1.434011 0.812301 0.121167 -0.033847 64464.700000 0 0 1
2.800924 -22.128290 21.421744 30.925677 -1.444889 0.805592 0.138264 -0.037184 307378.000000 0 0 1
3.871224 -21.246390 21.122144 30.208284 -1.390567 0.796495 0.124273 -0.026331 168681.000000 0 0 1
3.408224 -20.050890 20.219844 28.679195 -1.402427 0.788323 0.093474 -0.008878 187478.000000 0 0 1
2.696524 -19.054990 20.947744 28.445946 -1.430217 0.743055 0.056502 -0.014456 -101516.000000 0 0 1
1.887624 -18.343790 20.073344 27.257969 -1.468255 0.743031 0.034539 -0.012861 -526514.000000 0 0 1
1.450024 -16.958190 20.530744 26.668225 -1.485498 0.692178 0.050064 -0.016880 -189016.000000 0 0 1
2.422024 -15.954790 20.716244 26.259936 -1.420141 0.661793 0.027489 0.000864 -300177.000000 0 0 1
1.774624 -14.769190 21.039344 25.766883 -1.451212 0.615428 0.029219 -0.001223 351107.000000 0 0 1
2.717224 -13.529890 20.940744 25.078994 -1.372602 0.582679 0.005899 0.015815 -308740.000000 0 0 1
3.038224 -13.125890 19.616344 23.797494 -1.343334 0.601827 -0.004313 0.006921 379285.000000 0 1 0
1.987824 -12.632390 18.741544 22.688635 -1.414717 0.598765 0.000440 0.002358 655681.000000 0 1 0
1.196424 -11.399590 19.209444 22.369283 -1.466226 0.537987 -0.002521 -0.002856 -636749.000000 0 1 0
1.746724 -10.120390 19.011844 21.608413 -1.399886 0.495281 0.006913 0.001060 -460027.000000 0 1 0
1.284024 -9.178990 20.013644 22.055578 -1.431811 0.433696 0.011064 -0.008789 78525.400000 0 1 0
-0.211776 -8.841390 20.087344 21.948039 1.546848 0.414736 0.022603 -0.021584 -278227.000000 0 1 0
-0.453176 -7.915790 21.099044 22.539626 1.513609 0.359461 0.030578 -0.032934 -921007.000000 0 1 0
-1.689276 -7.302690 20.983844 22.282384 1.343472 0.343079 0.037115 -0.037493 -1045490.000000 0 1 0
-2.005076 -6.452290 22.248544 23.251883 1.269503 0.294838 0.036842 -0.033987 -163180.000000 0 1 0
-2.284776 -7.372890 23.239144 24.487497 1.270292 0.320682 0.034410 -0.027078 -109623.000000 0 1 0
-2.454176 -6.771590 24.496144 25.533086 1.223098 0.285971 0.040552 -0.025885 -163513.000000 0 0 1
-2.635076 -7.802890 25.593444 26.885927 1.245116 0.311330 0.037523 -0.023820 -175330.000000 0 0 1
-1.610876 -8.749890 25.702344 27.198639 1.388733 0.333243 0.027208 -0.019855 -304108.000000 0 0 1
-1.759476 -9.509290 26.905144 28.590367 1.387838 0.345057 0.030477 -0.029588 -229686.000000 0 0 1
-0.647576 -10.542090 27.018444 29.009504 1.509446 0.372651 0.034703 -0.029839 1134580.000000 0 0 1
0.709724 -10.071090 27.221844 29.033762 -1.500441 0.355155 0.041869 -0.023849 1575260.000000 0 0 1
1.638424 -11.114490 27.552244 29.754705 -1.424437 0.387175 0.053983 -0.037078 18191.600000 0 0 1
2.816324 -10.747390 28.407344 30.502709 -1.314512 0.372815 0.085152 -0.039748 -365510.000000 0 0 1
2.341024 -10.362690 29.661744 31.506900 -1.348617 0.343931 0.086477 -0.056107 429967.000000 0 0 1
3.484024 -10.233790 30.488944 32.348795 -1.242661 0.340744 0.129348 -0.037041 128245.000000 0 0 1
3.074824 -9.673890 31.840544 33.419439 -1.263047 0.308615 0.127530 -0.048700 549272.000000 0 0 1
2.032824 -10.436290 32.495144 34.190392 -1.378421 0.316221 0.126223 -0.052107 507495.000000 0 0 1
1.848124 -10.171490 33.869044 35.411677 -1.391061 0.296253 0.107935 -0.058406 -975750.000000 0 0 1
2.858024 -10.735790 -32.873196 34.699747 -1.310616 2.815687 0.098478 -0.035329 127288.000000 0 0 1
4.041424 -9.918890 -32.944196 34.641558 -1.183886 2.827258 0.088453 -0.050148 510671.000000 0 0 1
4.319424 -9.243090 -31.735796 33.335459 -1.133638 2.830544 0.102607 -0.046426 -221560.000000 0 0 1
3.506924 -7.960390 -31.420296 32.602167 -1.155831 2.871509 0.084733 -0.031432 -168219.000000 0 0 1
3.679324 -6.940190 -32.383296 33.322387 -1.083323 2.903620 0.129329 -0.049745 -3503.390000 0 0 1
3.249924 -5.689890 -31.840296 32.507557 -1.051841 2.938630 0.100143 -0.026037 -16271.100000 0 0 1
3.326024 -4.442090 -32.746196 33.213069 -0.928094 2.973724 0.106040 -0.031333 486867.000000 0 0 1
2.330324 -4.430990 -33.801996 34.170733 -1.086632 2.994552 0.104643 -0.039576 593657.000000 0 0 1
2.524724 -3.234990 33.198844 33.451496 -0.908095 0.122982 0.122593 -0.028230 199850.000000 0 0 1
1.725924 -3.161090 31.908944 32.111555 -1.071037 0.112395 0.131162 -0.032939 392170.000000 0 0 1
0.314224 -3.135290 31.991044 32.145850 -1.470908 0.098180 0.127473 -0.032123 33857.700000 0 0 1
-0.336276 -3.533090 30.796144 30.999972 1.475903 0.114737 0.123786 -0.034197 1769390.000000 0 0 1
-1.927076 -3.582190 30.842544 31.109616 1.077243 0.131127 0.111027 -0.032207 1328640.000000 0 0 1
-2.601176 -2.412090 30.526244 30.731675 0.747699 0.115690 0.103109 -0.035447 -220730.000000 0 0 1
-3.983876 -2.723090 30.485344 30.864910 0.599585 0.156990 0.076067 -0.032807 -62321.500000 0 0 1
-4.873876 -1.715090 29.808344 30.252827 0.338361 0.171630 0.060096 -0.022729 -514464.000000 0 0 1
-4.629676 -1.642790 28.423044 28.844446 0.340979 0.171144 0.060870 -0.027966 -477202.000000 0 0 1
-5.553676 -0.934690 27.663444 28.230889 0.166738 0.200837 0.045302 -0.027943 -320717.000000 0 0 1
-5.767376 0.591110 27.964844 28.559491 -0.102135 0.204421 0.068225 -0.027279 -275451.000000 0 0 1
-6.914976 0.873310 28.711944 29.545817 -0.125628 0.238146 0.061653 -0.026883 -544008.000000 0 0 1
-7.085376 2.271910 28.664544 29.614527 -0.310290 0.253973 0.084393 -0.032359 -928653.000000 0 0 1
-8.314776 2.837810 29.323044 30.610939 -0.328901 0.291106 0.070931 -0.035761 196477.000000 0 0 1
-9.509176 2.483810 28.573644 30.216665 -0.255493 0.331285 0.062255 -0.025007 709394.000000 0 0 1
-10.685776 2.729810 29.313644 31.319760 -0.250113 0.359857 0.048614 -0.020035 -114773.000000 0 0 1
-11.916276 2.118010 28.618744 31.072755 -0.175904 0.400096 0.042348 -0.015083 -380051.000000 0 0 1
-12.173376 0.737810 28.794044 31.270312 -0.060534 0.400642 0.038412 -0.008307 58610.200000 0 0 1
-12.585076 0.154110 27.576644 30.313020 -0.012245 0.428165 0.035091 -0.000888 -1207150.000000 0 0 1
-12.673476 -1.385190 27.713444 30.505257 0.108866 0.431162 0.035526 -0.002646 -160102.000000 0 0 1
-11.491876 -2.111490 27.992044 30.332757 0.181711 0.395427 0.040845 -0.008134 541989.000000 0 0 1
-10.323676 -1.830690 27.221444 29.170820 0.175505 0.367652 0.029679 -0.011116 -294111.000000 0 0 1
-10.196876 -2.619090 25.872944 27.932868 0.251417 0.386446 0.038223 -0.001134 -519039.000000 0 0 1
-11.087776 -2.083090 24.929944 27.363847 0.185708 0.424963 0.026695 -0.001930 209305.000000 0 0 1
-11.046476 -2.797790 23.703544 26.300385 0.248058 0.448122 0.030823 0.003192 -214511.000000 0 0 1
-10.030376 -2.299190 22.644244 24.872806 0.225330 0.426543 0.038048 -0.001746 -848836.000000 0 1 0
-8.737876 -2.497590 23.084844 24.809241 0.278411 0.375038 0.050230 -0.011802 -1313430.000000 0 1 0
-7.868676 -2.164490 21.992644 23.457994 0.268438 0.355326 0.040571 -0.017192 -19678.100000 0 1 0
-6.392976 -2.168690 22.455744 23.448535 0.327048 0.292032 0.050582 -0.023055 89836.400000 0 1 0
-5.672776 -3.381290 22.495744 23.445085 0.537514 0.285546 0.046572 -0.023926 129455.000000 0 1 0
-6.161176 -4.294290 23.463244 24.635844 0.608704 0.309773 0.046504 -0.020145 -389923.000000 0 1 0
-5.876576 -5.762590 23.117544 24.538998 0.775605 0.342036 0.057011 -0.020999 -423266.000000 0 1 0
-6.604576 -6.409190 22.113144 23.951811 0.770385 0.394381 0.052630 -0.021663 -27497.300000 0 1 0
-6.122876 -6.208090 20.792344 22.546653 0.792309 0.397085 0.038848 -0.024978 -256645.000000 0 1 0
-7.371776 -6.351690 19.915744 22.165827 0.711203 0.454482 0.038381 -0.017388 -79143.700000 0 1 0
-8.245876 -5.281290 20.057544 22.320205 0.569651 0.454166 0.037879 -0.016740 26505.700000 0 1 0
-9.099876 -5.021990 18.904544 21.573361 0.504281 0.502687 0.031159 -0.017132 852974.000000 0 1 0
-9.874976 -3.709590 19.067544 21.790994 0.359345 0.505320 0.028035 -0.016441 328930.000000 0 1 0
-9.027076 -2.642890 18.615644 20.857017 0.284814 0.467858 0.025527 -0.020382 353934.000000 0 1 0
-9.527676 -1.314090 18.800844 21.118124 0.137059 0.472857 0.021765 -0.015217 -575417.000000 0 1 0
-8.559876 -0.281690 18.237644 20.148511 0.032896 0.439038 0.016095 -0.013176 94909.200000 0 1 0
-7.513676 0.087010 19.152944 20.574211 -0.011580 0.373873 0.022603 -0.004236 551937.000000 0 1 0
-7.959076 0.818610 20.282844 21.803916 -0.102492 0.375734 0.044584 -0.004211 -410265.000000 0 1 0
-7.872776 2.317610 20.100244 21.711097 -0.286296 0.387636 0.043963 -0.010711 350628.000000 0 1 0
-8.864476 2.865010 19.206544 21.346629 -0.312604 0.451609 0.034487 -0.015619 509290.000000 0 1 0
-8.503276 4.102210 18.591144 20.851006 -0.449491 0.469889 0.026775 -0.022979 -523613.000000 0 1 0
-9.422976 4.530810 17.477444 20.366192 -0.448191 0.539122 0.029420 -0.010759 193579.000000 0 1 0
-10.710576 5.018610 17.893044 21.449100 -0.438186 0.584099 0.034620 -0.005406 858450.000000 0 1 0
-11.478776 5.713910 16.940944 21.246333 -0.461870 0.647891 0.025738 0.008277 -103557.000000 0 1 0
-11.178376 7.242010 16.845944 21.475303 -0.574869 0.669014 0.022472 0.004920 -303652.000000 0 1 0
-9.872576 7.569510 16.425144 20.604626 -0.654117 0.648223 0.010599 -0.004532 182971.000000 0 1 0
-9.715476 8.952810 16.184744 20.892325 -0.744567 0.684597 -0.009170 -0.012077 180200.000000 0 1 0
-8.596976 9.610110 17.045644 21.373259 -0.840986 0.647620 0.002290 0.003466 160212.000000 0 1 0
-9.017876 10.041110 18.349444 22.778237 -0.839034 0.634161 0.038210 0.024113 -138691.000000 0 1 0
-8.473676 11.274210 18.775644 23.482670 -0.926273 0.644245 0.050642 0.016969 60550.700000 0 1 0
-9.038776 12.571410 18.073644 23.799085 -0.947436 0.708366 0.050065 0.008737 257582.000000 0 1 0
-8.675776 12.744310 16.695544 22.725046 -0.973102 0.745607 0.025098 -0.009374 -496319.000000 0 1 0
-9.448876 13.734810 16.131944 23.198403 -0.968203 0.801833 0.036144 -0.021091 -387076.000000 0 1 0
-8.954676 14.156810 14.744944 22.316247 -1.006797 0.849010 0.026457 -0.022250 -264615.000000 0 1 0
-7.724276 14.811610 14.809944 22.324486 -1.090096 0.845450 0.021752 -0.009774 -577387.000000 0 1 0
-7.493376 15.359110 13.499544 21.778215 -1.116893 0.902226 0.014835 -0.018673 117472.000000 0 1 0
-6.462776 16.533110 13.438344 22.264328 -1.198160 0.922810 -0.003117 -0.011052 1067190.000000 0 1 0
-5.091676 16.177710 13.637644 21.763015 -1.265877 0.893558 -0.003460 -0.016691 -241154.000000 0 1 0
-4.294576 17.322010 13.649844 22.468059 -1.327771 0.917859 0.002143 -0.016097 974590.000000 0 1 0
-2.762076 16.911410 13.696844 21.936919 -1.408900 0.896466 0.010282 -0.019599 943629.000000 0 1 0
-2.308876 16.373710 14.928044 22.277248 -1.430709 0.836449 0.016959 -0.019790 -245669.000000 0 1 0
-2.658076 15.045110 15.152244 21.517695 -1.395927 0.789534 0.010462 -0.019691 -334058.000000 0 1 0
-1.671076 14.274610 16.069344 21.558776 -1.454260 0.729701 0.019443 -0.014945 214474.000000 0 1 0
-0.372676 14.098110 15.560844 21.000844 -1.544368 0.736293 0.025719 -0.025879 85473.400000 0 1 0
0.629124 13.654210 16.496444 21.423490 1.524753 0.691929 0.027985 -0.004732 667829.000000 0 1 0
1.519624 14.770310 17.070244 22.624424 1.468273 0.715897 0.027641 -0.012341 -424087.000000 0 1 0
0.848624 15.728210 17.859044 23.812648 1.516893 0.722762 0.026959 -0.018533 -765238.000000 0 1 0
1.655424 16.738710 18.413644 24.939670 1.472219 0.740209 0.064616 -0.023223 -931272.000000 0 1 0
0.890824 17.936610 19.058244 26.186489 1.521172 0.755704 0.071651 -0.023021 301641.000000 0 0 1
0.338124 18.808110 18.037244 26.061495 1.552821 0.806398 0.054835 -0.020551 -574373.000000 0 0 1
-0.814076 18.284710 17.471044 25.302781 -1.526303 0.808645 0.050505 -0.015299 -1629910.000000 0 0 1
-1.527776 19.302910 16.570944 25.485930 -1.491814 0.862949 0.045586 -0.016342 -380219.000000 0 0 1
-2.169576 20.296310 17.319644 26.769709 -1.464306 0.867171 0.048271 -0.015139 -257923.000000 0 0 1
-3.002976 21.022510 16.418144 26.842490 -1.428910 0.912655 0.068391 -0.023281 -241163.000000 0 0 1
-3.823976 21.992510 17.274744 28.226053 -1.398641 0.912191 0.058721 -0.017755 -1301200.000000 0 0 1
-4.980176 21.567610 17.853644 28.437943 -1.343864 0.892059 0.079228 -0.015488 -1051160.000000 0 0 1
-5.388476 22.555210 18.785344 29.843967 -1.336290 0.889949 0.083683 -0.012334 -241430.000000 0 0 1
-6.552476 22.248210 19.720344 30.443551 -1.284377 0.866146 0.066942 -0.014767 -322298.000000 0 0 1
-7.808976 22.200210 19.091544 30.303737 -1.232561 0.889235 0.051827 -0.013467 -795238.000000 0 0 1
-8.754376 21.583910 19.889044 30.628065 -1.185474 0.864036 0.024925 -0.015927 262847.000000 0 0 1
-10.223976 21.935810 19.483744 31.069692 -1.134646 0.892974 0.032219 -0.020330 576480.000000 0 0 1
-10.624376 23.270710 19.857244 32.383846 -1.142504 0.910712 0.054811 -0.020864 228716.000000 0 0 1
-11.639676 23.783210 18.995644 32.587692 -1.115659 0.948493 0.030266 -0.018304 211611.000000 0 0 1
-11.968076 25.248510 19.218944 33.912976 -1.128155 0.968285 0.038196 -0.020803 152080.000000 0 0 1
-12.770176 25.413710 20.391444 34.996358 -1.105157 0.948782 0.037130 -0.021108 144092.000000 0 0 1
-13.224876 26.747510 20.520844 36.213695 -1.111611 0.968350 0.043977 -0.033442 -317129.000000 0 0 1
-14.097276 26.795810 21.779144 37.297182 -1.086487 0.947228 0.062463 -0.045494 -217847.000000 0 0 1
-15.388376 26.227910 21.694644 37.354558 -1.040201 0.951114 0.064630 -0.049510 39569.000000 0 0 1
-16.155576 26.541310 22.826144 38.554852 -1.024008 0.937204 0.052934 -0.038080 121374.000000 0 0 1
-17.645476 26.179810 22.629844 38.843985 -0.977727 0.948893 0.069445 -0.036194 -326681.000000 0 0 1
-17.891976 24.814310 22.746044 38.121586 -0.946092 0.931450 0.082795 -0.041098 1179770.000000 0 0 1
-19.317976 24.537610 22.661244 38.585107 -0.903860 0.943071 0.093571 -0.029090 1428770.000000 0 0 1
28.662824 23.910810 23.302343 44.003222 0.695255 1.012715 0.127529 -0.038289 6916.270000 0 0 1
28.370524 23.033210 24.337453 43.905888 0.681938 0.983263 0.119177 -0.049369 54234.900000 0 0 1
28.121024 21.723510 23.831783 42.786175 0.657747 0.980030 0.117032 -0.035759 -413148.000000 0 0 1
27.504424 20.838310 24.944133 42.578613 0.648370 0.944884 0.126579 -0.038417 -164920.000000 0 0 1
26.173524 21.089210 25.308593 42.075326 0.678235 0.925410 0.132343 -0.039489 -74435.100000 0 0 1
25.779924 20.316910 26.447193 42.152525 0.667437 0.892565 0.133511 -0.042412 -324595.000000 0 0 1
24.465124 20.740410 27.084883 41.979731 0.703189 0.869525 0.158811 -0.051969 -488150.000000 0 0 1
24.504924 21.955210 27.814593 43.083340 0.730574 0.868988 0.152047 -0.054174 304364.000000 0 0 1
23.343824 22.103610 28.626953 43.046558 0.758116 0.843272 0.193094 -0.052690 -27014.300000 0 0 1
23.073424 23.469010 29.289193 44.057169 0.793897 0.843571 0.181333 -0.054754 -19748.700000 0 0 1
22.543224 24.497010 28.395833 43.756414 0.826909 0.864590 0.153026 -0.046483 258739.000000 0 0 1
22.345424 25.708710 29.089043 44.793171 0.855274 0.863991 0.147397 -0.050862 -388229.000000 0 0 1
20.973124 25.972810 29.712273 44.690916 0.891497 0.843518 0.150629 -0.044598 -674246.000000 0 0 1
19.919024 26.285710 28.785933 43.775976 0.922329 0.853203 0.147110 -0.047941 1234340.000000 0 0 1
18.730624 26.764410 29.450373 43.982888 0.960182 0.837144 0.129839 -0.043233 889859.000000 0 0 1
17.795124 25.641910 29.988183 43.283543 0.964118 0.805389 0.108991 -0.023194 -419068.000000 0 0 1
18.287124 24.973110 31.136173 43.903718 0.938738 0.782445 0.116524 -0.032688 -602110.000000 0 0 1
17.202924 24.405610 31.749082 43.584156 0.956806 0.754733 0.089131 -0.016744 -601101.000000 0 0 1
17.471124 23.777110 33.108852 44.348475 0.937103 0.727918 0.103939 -0.022780 28021.600000 0 0 1
17.756024 24.823510 -33.690706 45.459287 0.949882 2.405531 0.096464 -0.026272 283065.000000 0 0 1
18.181924 24.513210 -32.350106 44.474815 0.932616 2.385293 0.070456 -0.014828 -18351.800000 0 0 1
18.617524 25.771210 -31.592766 44.820423 0.945184 2.353042 0.049085 0.005360 632116.000000 0 0 1
17.528324 26.521410 -31.011976 44.411373 0.986788 2.343801 0.053503 -0.014023 1110370.000000 0 0 1
18.064324 27.731210 -30.487626 44.998169 0.993432 2.315196 0.057765 -0.013693 249258.000000 0 0 1
17.271024 28.177510 -29.234766 44.124051 1.020919 2.295026 0.061965 -0.010155 -53702.700000 0 0 1
17.548024 27.334110 -28.116926 42.961009 1.000078 2.284285 0.037065 -0.001595 323158.000000 0 0 1
17.286924 28.069310 -26.935526 42.570489 1.018793 2.255867 0.026268 0.002898 -344576.000000 0 0 1
17.833624 27.349310 -25.680456 41.539243 0.992968 2.237274 0.017709 0.008631 96299.400000 0 0 1
19.245124 27.323010 -25.619506 42.110341 0.957153 2.224827 0.029088 0.004509 -43756.900000 0 0 1
19.757124 26.757610 -24.422156 41.264457 0.934777 2.204142 0.021364 0.004564 208104.000000 0 0 1
21.263124 27.056010 -24.278556 42.114088 0.904717 2.185229 0.024657 -0.000068 33596.200000 0 0 1
21.876724 26.595610 -23.084056 41.458307 0.882445 2.161327 0.049752 -0.000379 341702.000000 0 0 1
23.294024 26.641110 -23.237456 42.336033 0.852327 2.151822 0.056524 -0.000736 735031.000000 0 0 1
24.062124 26.490410 -21.884056 41.948058 0.833396 2.119632 0.067968 -0.003118 247950.000000 0 0 1
24.026324 25.135910 -21.384356 40.821182 0.807964 2.122166 0.098368 -0.009252 -128737.000000 0 0 1
24.856524 25.072610 -20.261856 40.706577 0.789726 2.091803 0.104526 -0.005979 -144169.000000 0 0 1
24.487824 24.014710 -19.212056 39.312376 0.775644 2.081398 0.099928 -0.010144 -508943.000000 0 0 1
24.700824 22.683010 -19.464256 38.775081 0.742839 2.096681 0.101228 -0.001259 211432.000000 0 0 1
24.406024 21.894610 -18.290356 37.544175 0.731210 2.079641 0.101589 -0.006258 -590415.000000 0 0 1
24.450324 20.371110 -18.520656 36.821396 0.694638 2.097847 0.117137 -0.010406 305168.000000 0 0 1
23.696824 19.911510 -19.650356 36.662572 0.698813 2.136463 0.107551 -0.014134 1005430.000000 0 0 1
22.280024 19.801310 -19.419956 35.575638 0.726563 2.148233 0.101492 -0.025967 595559.000000 0 0 1
21.465224 19.613910 -20.737156 35.714016 0.740362 2.190317 0.081761 -0.007866 86375.500000 0 0 1
21.541724 20.552710 -21.806656 36.905149 0.761907 2.202950 0.080890 -0.000485 -178822.000000 0 0 1
21.366424 21.931910 -21.408156 37.360968 0.798458 2.180969 0.076637 -0.004121 -68721.200000 0 0 1
20.952624 22.740810 -22.665656 38.339130 0.826301 2.203328 0.057835 0.001508 1310620.000000 0 0 1
19.524424 22.557110 -22.831356 37.567235 0.857341 2.224016 0.056261 0.001543 847615.000000 0 0 1
19.185524 23.126510 -24.075756 38.504050 0.878271 2.246285 0.048809 -0.005175 176767.000000 0 0 1
17.700224 23.050710 -24.511156 38.018811 0.915949 2.271442 0.033251 -0.001998 518966.000000 0 0 1
16.845424 23.908510 -23.725156 37.659902 0.957004 2.252330 0.029454 -0.010733 290804.000000 0 0 1
15.544024 23.930110 -24.278356 37.466057 0.994731 2.275764 0.036632 -0.013325 322872.000000 0 0 1
14.568924 24.933210 -23.635156 37.316741 1.041988 2.256692 0.039583 -0.006933 204024.000000 0 0 1
15.050624 26.242110 -23.898656 38.552761 1.050068 2.239405 0.024268 -0.004284 186304.000000 0 0 1
14.018024 27.178410 -23.657356 38.663180 1.094606 2.229236 0.051872 -0.011903 -47449.200000 0 0 1
14.146624 28.581310 -24.326856 40.110026 1.111188 2.222451 0.055093 -0.013163 -361341.000000 0 0 1
14.025224 28.547210 -25.726416 40.908417 1.114133 2.250906 0.051500 -0.020125 -131972.000000 0 0 1
13.710224 29.759710 -26.346196 42.044413 1.139082 2.248015 0.082022 -0.032614 -675843.000000 0 0 1
14.679424 30.924410 -26.361776 43.205878 1.127603 2.227038 0.076424 -0.034487 357843.000000 0 0 1
15.885824 30.770410 -27.160166 44.009683 1.094218 2.235900 0.045975 -0.012519 1022110.000000 0 0 1
16.599524 32.027010 -27.140826 45.143084 1.092618 2.215821 0.053834 -0.023728 -684331.000000 0 0 1
18.050424 31.836110 -27.530456 45.796089 1.055011 2.215739 0.049198 -0.003543 -423363.000000 0 0 1
18.866524 31.343810 -26.435046 45.135262 1.028965 2.196521 0.020933 -0.000723 -284447.000000 0 0 1
20.145124 31.046310 -26.851766 45.724356 0.995214 2.198457 0.020612 0.006768 -987225.000000 0 0 1
21.114724 30.390810 -25.778926 45.099733 0.963587 2.179249 0.018304 0.005263 -13279.300000 0 0 1
21.628824 31.348610 -24.825356 45.462509 0.966850 2.148453 0.031819 0.004253 595165.000000 0 0 1
22.413224 32.449710 -25.274836 46.841794 0.966335 2.140733 0.032370 -0.003120 -818254.000000 0 0 1
23.810224 32.138910 -25.815496 47.605422 0.933175 2.143945 0.023286 0.009992 -907098.000000 0 0 1
23.826724 31.254410 -26.925056 47.639370 0.919439 2.171454 0.020124 0.014308 154439.000000 0 0 1
25.014724 31.428610 -27.681896 48.783003 0.898547 2.174202 0.013543 0.026083 -227768.000000 0 0 1
24.955924 30.663210 -29.073596 49.074480 0.887654 2.204878 0.015804 0.029600 5547.540000 0 0 1
24.096524 31.231710 -30.037116 49.581151 0.913651 2.221589 0.034708 0.017180 88785.800000 0 0 1
22.794824 30.685110 -29.987596 48.584318 0.931879 2.236011 0.023126 0.009492 -39134.300000 0 0 1
21.703724 31.457410 -30.770896 49.065959 0.966854 2.248664 0.026248 0.010004 -533653.000000 0 0 1
21.209824 32.673010 -30.183296 49.278937 0.995016 2.230014 0.044627 0.005870 172270.000000 0 0 1
20.459324 33.502110 -31.052906 50.052556 1.022555 2.240057 0.057218 -0.005947 -504421.000000 0 0 1
18.957424 33.218210 -30.956676 49.205175 1.052204 2.251236 0.056213 -0.015318 -826080.000000 0 0 1
18.476024 31.897410 -31.244276 48.321973 1.045787 2.273896 0.081182 -0.024822 55155.500000 0 0 1
18.639924 31.275110 -32.521596 48.818373 1.033324 2.299865 0.092278 -0.030266 -738460.000000 0 0 1
17.955724 31.902010 -33.747076 49.789672 1.058149 2.315553 0.118059 -0.039636 -508902.000000 0 0 1
18.496024 33.175210 33.622369 50.726336 1.062194 0.846219 0.100539 -0.027041 83546.500000 0 0 1
18.070024 33.699010 32.382445 50.107602 1.078596 0.868126 0.100988 -0.030280 -701354.000000 0 0 1
16.639224 -33.463613 32.281768 49.384104 -1.109364 0.858349 0.111888 -0.033697 -1277300.000000 0 0 1
15.610624 33.227410 32.465809 49.007970 1.131590 0.846699 0.118773 -0.034094 56978.400000 0 0 1
14.288924 33.707910 32.553146 48.990855 1.169854 0.844007 0.097021 -0.034091 302440.000000 0 0 1
13.695324 -33.256013 31.255153 47.648808 -1.180146 0.855358 0.100887 -0.037119 -585490.000000 0 0 1
14.404824 -32.104013 30.719353 46.710226 -1.149030 0.853091 0.108168 -0.026852 648310.000000 0 0 1
13.649224 -31.593613 29.630493 45.413916 -1.162991 0.859978 0.108963 -0.032538 -65995.100000 0 0 1
14.004724 -30.209913 29.305953 44.357750 -1.136706 0.849082 0.121664 -0.029427 -225463.000000 0 0 1
13.706024 -29.211813 30.243253 44.224874 -1.132095 0.817768 0.109043 -0.027314 359774.000000 0 0 1
14.179524 -27.949013 29.844143 43.276773 -1.101298 0.809844 0.137831 -0.038496 -444188.000000 0 0 1
13.796324 -26.810813 30.839503 43.130421 -1.095552 0.774131 0.122492 -0.031234 543899.000000 0 0 1
12.436624 -26.396513 30.964583 42.547043 -1.130497 0.755727 0.090919 -0.028786 395848.000000 0 0 1
11.785924 -25.743213 29.933053 41.202047 -1.141453 0.757590 0.086082 -0.034751 -344903.000000 0 0 1
11.940724 -24.189713 30.037223 40.372737 -1.112259 0.731763 0.071537 -0.034313 -172424.000000 0 0 1
11.240424 -23.687113 31.139523 40.707448 -1.127725 0.699819 0.078630 -0.037143 -174028.000000 0 0 1
11.915724 -22.624613 31.687478 40.717979 -1.086040 0.678973 0.068871 -0.031054 -166855.000000 0 0 1
11.094624 -21.955613 32.809270 41.007168 -1.102901 0.643357 0.063927 -0.028091 -303345.000000 0 0 1
10.994424 -22.584713 -33.634216 41.978650 -1.117758 2.500131 0.060081 -0.027661 483174.000000 0 0 1
12.168624 -22.801313 -32.848476 41.797101 -1.080568 2.474952 0.068802 -0.024510 707597.000000 0 0 1
12.877724 -21.563613 -32.153896 40.800713 -1.032440 2.478467 0.063548 -0.026807 317589.000000 0 0 1
13.336524 -20.526713 -33.050636 41.128498 -0.994621 2.504107 0.052202 -0.025139 38975.100000 0 0 1
14.479124 -19.867013 -32.569336 40.805697 -0.941000 2.495025 0.053957 -0.020514 -258079.000000 0 0 1
14.860024 -18.718913 -33.504256 41.155233 -0.899816 2.521965 0.042076 -0.013235 -340221.000000 0 0 1
15.504924 -19.235413 33.054479 41.267449 -0.892370 0.641863 0.061769 -0.008757 414480.000000 0 0 1
15.403124 -18.289613 32.016571 39.960318 -0.870860 0.641483 0.047950 -0.004359 -96737.200000 0 0 1
16.104124 -16.901413 32.027691 39.632986 -0.809550 0.629865 0.058450 -0.004913 -842311.000000 0 0 1
15.781124 -16.029413 33.075786 39.999920 -0.793203 0.597230 0.047592 -0.001864 375993.000000 0 0 1
16.552124 -14.830013 33.200629 39.952270 -0.730578 0.589880 0.061158 -0.005004 -221098.000000 0 0 1
18.048024 -14.871713 33.533079 40.882348 -0.689209 0.608977 0.072533 0.002546 -538994.000000 0 0 1
18.839924 -15.492513 32.557516 40.681108 -0.688205 0.642983 0.084074 -0.007092 -297721.000000 0 0 1
20.179924 -15.475313 33.024188 41.681070 -0.654209 0.656216 0.093127 -0.006616 -314447.000000 0 0 1
21.055624 -16.125413 31.973792 41.541444 -0.653567 0.692450 0.118100 -0.020082 -633906.000000 0 0 1
21.147324 -15.465813 30.717583 40.372894 -0.631449 0.706179 0.090718 -0.006228 107942.000000 0 0 1
22.041124 -16.182513 29.896483 40.515239 -0.633310 0.740832 0.092384 -0.012107 -202439.000000 0 0 1
22.492724 -15.328013 28.642893 39.513111 -0.598178 0.759913 0.083210 -0.007925 -28693.800000 0 0 1
23.306824 -14.226013 29.003503 39.834541 -0.548017 0.755251 0.069544 -0.010145 246057.000000 0 0 1
23.565924 -13.456613 27.803503 38.851872 -0.518838 0.773273 0.072945 -0.016787 -67212.800000 0 0 1
24.161924 -12.071113 28.053533 38.942407 -0.463321 0.766439 0.059113 -0.009827 -423768.000000 0 0 1
23.297824 -11.073613 28.418833 38.380250 -0.443699 0.737050 0.051370 -0.012465 -545957.000000 0 0 1
24.019724 -9.904313 28.705713 38.717703 -0.391100 0.735626 0.058903 -0.015760 116408.000000 0 0 1
23.142424 -8.627713 28.629913 37.811124 -0.356849 0.711808 0.064796 -0.008161 473465.000000 0 0 1
22.170324 -8.635413 29.685773 38.043905 -0.371425 0.675646 0.063749 -0.012625 -237196.000000 0 0 1
21.164424 -7.720213 29.350623 36.999913 -0.349775 0.654649 0.071370 -0.020421 -602230.000000 0 0 1
19.982224 -7.672613 30.324393 37.117746 -0.366613 0.614645 0.063912 -0.009025 -471078.000000 0 0 1
20.167024 -7.304613 31.711208 38.284030 -0.347507 0.594704 0.070727 -0.013751 -4022.620000 0 0 1
20.852624 -8.282613 32.467072 39.465737 -0.378088 0.604714 0.069652 -0.018956 -714860.000000 0 0 1
20.981424 -7.788113 -33.839116 40.570440 -0.355427 2.557265 0.072622 -0.030204 -707082.000000 0 0 1
19.779824 -7.754513 -33.136046 39.362056 -0.373627 2.571456 0.053448 -0.036386 -467926.000000 0 0 1
19.860024 -7.160613 -31.831516 38.196078 -0.346046 2.555976 0.057110 -0.040842 234986.000000 0 0 1
18.489024 -7.082713 -31.101306 36.868687 -0.365833 2.574692 0.075665 -0.047474 472056.000000 0 0 1
18.610524 -6.252013 -29.992676 35.846895 -0.324094 2.562004 0.073939 -0.039811 252553.000000 0 0 1
17.323824 -5.881613 -29.545956 34.751572 -0.327299 2.587171 0.097866 -0.035203 210021.000000 0 0 1
17.445824 -4.620313 -28.602616 33.820315 -0.258894 2.578715 0.089042 -0.031411 -161680.000000 0 0 1
18.148324 -4.783113 -27.392776 33.205482 -0.257697 2.540905 0.090594 -0.027201 -212635.000000 0 0 1
17.745124 -5.729313 -26.421236 32.338772 -0.312301 2.527010 0.089151 -0.026982 112712.000000 0 0 1
16.348524 -5.507913 -25.751086 30.995641 -0.324962 2.551334 0.105397 -0.026280 435609.000000 0 0 1
16.057424 -4.394613 -24.983156 30.021852 -0.267140 2.553798 0.093892 -0.032523 -284794.000000 0 0 1
14.682124 -4.389513 -24.665356 29.038119 -0.290511 2.585668 0.116893 -0.032931 184346.000000 0 0 1
14.298324 -3.272213 -23.680456 27.855223 -0.224979 2.587021 0.126329 -0.037047 -49088.800000 0 0 1
14.358624 -1.994313 -24.284956 28.282618 -0.138010 2.603432 0.101833 -0.043602 -40300.100000 0 0 1
13.917424 -1.032313 -23.386956 27.234355 -0.074039 2.603582 0.106867 -0.041655 -83614.700000 0 0 1
14.177124 0.350687 -23.979656 27.859249 0.024731 2.607524 0.103945 -0.040626 -328955.000000 0 0 1
13.455624 0.719687 -25.109146 28.496333 0.053435 2.649056 0.096001 -0.042238 -131655.000000 0 0 1
13.973224 1.931687 -25.631196 29.256463 0.137371 2.638481 0.106211 -0.028377 344889.000000 0 0 1
13.084624 2.533687 -26.771226 29.905276 0.191271 2.679678 0.094897 -0.027643 261214.000000 0 0 1
11.987324 3.365687 -26.472426 29.254284 0.273723 2.701959 0.103470 -0.031211 37912.200000 0 0 1
11.391624 3.778687 -27.693246 30.182171 0.320287 2.732637 0.103734 -0.034042 118800.000000 0 0 1
10.160224 4.681687 -27.404816 29.600208 0.431787 2.754027 0.093622 -0.028624 -189311.000000 0 0 1
10.480724 5.899687 -26.763716 29.341922 0.512700 2.719253 0.086676 -0.040325 627519.000000 0 0 1
9.312224 6.708687 -26.565806 28.939006 0.624298 2.733786 0.088977 -0.047328 482233.000000 0 0 1
8.822424 4.769610 -31.226926 32.797946 0.495616 2.830828 0.092201 -0.037221 -67092.200000 0 0 1
8.562024 4.166510 -30.006836 31.481396 0.452892 2.834316 0.077697 -0.026327 413472.000000 0 0 1
7.655424 3.085110 -30.138356 31.248103 0.383087 2.874287 0.066454 -0.019796 -173789.000000 0 0 1
7.589624 2.243910 -28.802676 29.870247 0.287466 2.873431 0.077813 -0.022028 -286221.000000 0 0 1
8.777924 1.510910 -28.610796 29.965187 0.170456 2.839787 0.113080 -0.033989 375784.000000 0 0 1
8.640724 0.623310 -27.491826 28.824488 0.072012 2.836324 0.100173 -0.033451 -514895.000000 0 0 1
9.981924 0.027510 -27.113996 28.893050 0.002756 2.788843 0.116825 -0.049040 -523752.000000 0 0 1
10.574424 -0.799990 -28.072686 30.008901 -0.075509 2.780407 0.136714 -0.048723 -1094250.000000 0 0 1
11.802024 -1.247990 -27.677256 30.114378 -0.105352 2.736513 0.122189 -0.050943 -1033180.000000 0 0 1
12.172124 -2.617990 -28.305346 30.922598 -0.211853 2.727200 0.109610 -0.047424 -198844.000000 0 0 1
11.456624 -3.689390 -27.782796 30.277873 -0.311544 2.732781 0.124219 -0.038860 -437036.000000 0 0 1
12.157324 -4.884490 -27.920176 30.841449 -0.382034 2.702837 0.125776 -0.031387 -239582.000000 0 0 1
11.616424 -6.000490 -27.051006 30.045035 -0.476802 2.691366 0.112684 -0.034610 -36077.400000 0 0 1
11.631224 -5.752290 -25.609246 28.709018 -0.459283 2.672609 0.125394 -0.027468 -105958.000000 0 0 1
11.060324 -6.719790 -24.814056 27.986134 -0.545958 2.660858 0.123790 -0.027781 -147553.000000 0 0 1
10.866624 -6.169790 -23.340656 26.475197 -0.516387 2.650048 0.125379 -0.034579 218228.000000 0 0 1
12.097324 -6.002690 -22.658156 26.377444 -0.460603 2.604105 0.109288 -0.029270 -86027.900000 0 0 1
12.009624 -6.217490 -21.313456 25.241863 -0.477714 2.576183 0.119115 -0.034355 649222.000000 0 0 1
13.379724 -6.073490 -20.559356 25.270366 -0.426119 2.521072 0.128826 -0.039161 511209.000000 0 0 1
13.943824 -4.812890 -20.497156 25.253268 -0.332359 2.517791 0.124128 -0.039507 -741125.000000 0 0 1
15.055724 -4.902790 -19.657756 25.241623 -0.314813 2.463520 0.125186 -0.030379 -243882.000000 0 0 1
15.721324 -3.540490 -19.357956 25.187806 -0.221508 2.447360 0.136609 -0.024757 138727.000000 0 0 1
16.546024 -2.978290 -20.385356 26.423547 -0.178093 2.451967 0.126741 -0.022959 320727.000000 0 0 1
17.025324 -1.707390 -19.999956 26.320621 -0.099951 2.433892 0.132551 -0.016077 216240.000000 0 0 1
18.063324 -1.138390 -21.016456 27.735736 -0.062939 2.430638 0.097782 -0.014957 1621690.000000 0 0 1
19.412524 -1.637090 -20.800356 28.498789 -0.084133 2.388925 0.128916 -0.025965 990313.000000 0 0 1
20.382724 -0.906690 -21.512956 29.649364 -0.044454 2.382672 0.126793 -0.017856 157172.000000 0 0 1
21.679824 -1.737990 -21.699756 30.723196 -0.079995 2.355052 0.090963 -0.022463 -576152.000000 0 0 1
22.524424 -1.702290 -20.538956 30.530250 -0.075432 2.308704 0.088720 -0.022872 974037.000000 0 0 1
23.750624 -2.450290 -20.702156 31.601825 -0.102804 2.285103 0.081831 -0.018945 1543630.000000 0 0 1
24.880224 -1.710190 -21.513956 32.936311 -0.068629 2.282598 0.073019 -0.020911 -496561.000000 0 0 1
24.446724 -1.463490 -22.888456 33.521121 -0.059793 2.322394 0.078014 -0.021273 -264253.000000 0 0 1
25.411724 -0.845390 -23.652056 34.725929 -0.033255 2.320069 0.079424 -0.020678 37941.200000 0 0 1
26.673724 -1.648590 -24.105356 35.989909 -0.061727 2.304710 0.091540 -0.027013 -548907.000000 0 0 1
27.592624 -1.992490 -23.127256 36.058187 -0.072086 2.267101 0.097848 -0.026360 1007700.000000 0 0 1
28.826024 -2.572690 -23.653956 37.377373 -0.089013 2.256014 0.083488 -0.018330 1746960.000000 0 0 1
29.858624 -1.749490 -24.468056 38.643032 -0.058526 2.256453 0.086243 -0.023932 -621280.000000 0 0 1
29.496724 -1.617490 -25.822716 39.236280 -0.054781 2.289134 0.090856 -0.024672 647173.000000 0 0 1
30.198524 -0.522490 -26.497866 40.179108 -0.017300 2.290941 0.100319 -0.030997 -153694.000000 0 0 1
29.583724 -0.250890 -27.884906 40.654983 -0.008480 2.326624 0.094352 -0.031077 77649.700000 0 0 1
28.263924 0.235210 -27.960366 39.757852 0.008322 2.350778 0.076269 -0.014210 -25514.300000 0 0 1
28.117624 1.551810 -27.447076 39.323668 0.055134 2.343367 0.063790 -0.010757 10130.100000 0 0 1
26.647124 2.058310 -27.646686 38.453155 0.077090 2.373116 0.076409 -0.014379 747352.000000 0 0 1
25.700524 1.492610 -26.768316 37.138761 0.058012 2.375702 0.083469 -0.016371 20924.800000 0 0 1
24.378924 1.874710 -27.071656 36.479049 0.076748 2.407017 0.072019 -0.016031 206346.000000 0 0 1
23.350724 1.422210 -25.989856 34.967865 0.060831 2.408711 0.071251 -0.017442 65493.900000 0 0 1
23.409724 2.266610 -24.886656 34.241763 0.096523 2.384437 0.083830 -0.022096 366743.000000 0 0 1
22.629324 1.745810 -23.831456 32.910066 0.076996 2.380581 0.082208 -0.018708 -253326.000000 0 0 1
22.845824 2.523710 -22.501856 32.165732 0.110021 2.345578 0.077320 -0.014769 -439150.000000 0 0 1
22.298024 3.813610 -22.475556 31.888809 0.169390 2.352952 0.107529 -0.021402 457631.000000 0 0 1
22.395824 4.261910 -21.134256 31.086872 0.188051 2.318348 0.093888 -0.023178 -389909.000000 0 0 1
22.163924 5.800110 -21.023656 31.094612 0.255952 2.313279 0.118922 -0.024921 -260799.000000 0 0 1
23.078624 6.711310 -21.627556 32.332890 0.282997 2.303528 0.105524 -0.024238 178268.000000 0 0 1
22.916824 8.057010 -21.233156 32.263651 0.338078 2.289107 0.099950 -0.023833 -691994.000000 0 0 1
23.170124 8.330410 -19.719256 31.545197 0.345142 2.246070 0.099971 -0.030399 64230.500000 0 0 1
24.544624 8.428310 -19.353156 32.373131 0.330772 2.211569 0.070583 -0.019924 633365.000000 0 0 1
24.798424 8.551710 -17.942756 31.781065 0.332079 2.170713 0.095200 -0.032922 -94119.400000 0 0 1
24.592524 9.860610 -17.185256 31.580958 0.381333 2.146190 0.095987 -0.041211 200521.000000 0 0 1
23.203224 10.166510 -17.163856 30.599763 0.412957 2.166287 0.093603 -0.049044 423704.000000 0 0 1
23.073624 11.540610 -16.796556 30.784771 0.463779 2.147916 0.073972 -0.042340 370539.000000 0 0 1
21.575024 11.999810 -16.784856 29.853115 0.507583 2.167898 0.067990 -0.047179 809806.000000 0 0 1
20.860924 11.859610 -18.007856 30.001856 0.516942 2.214578 0.087941 -0.049335 155414.000000 0 0 1
20.183724 10.647710 -18.117556 29.137644 0.485436 2.241825 0.094014 -0.054697 -17831.000000 0 0 1
19.325124 10.486210 -19.463656 29.364178 0.497160 2.295397 0.115755 -0.041907 361191.000000 0 0 1
20.166024 10.213710 -20.551256 30.550655 0.468819 2.308641 0.127696 -0.037050 412548.000000 0 0 1
19.413724 9.747510 -21.648456 30.668588 0.465321 2.354466 0.110627 -0.037397 2757.150000 0 0 1
20.249924 9.918410 -22.922356 32.153829 0.455454 2.364416 0.143719 -0.034772 -195741.000000 0 0 1
20.235324 11.225010 -23.373356 32.890469 0.506462 2.361207 0.122310 -0.033160 489284.000000 0 0 1
21.213124 11.518010 -24.381756 34.309346 0.497427 2.361211 0.142374 -0.031429 351715.000000 0 0 1
21.257424 13.022510 -24.586856 35.013959 0.549640 2.349281 0.145341 -0.030858 -407867.000000 0 0 1
22.046424 13.382710 -25.662176 36.382537 0.545568 2.353704 0.141854 -0.029172 -337080.000000 0 0 1
21.933324 14.762610 -26.050806 37.116706 0.592421 2.348805 0.140893 -0.016176 499094.000000 0 0 1
20.624024 15.169310 -26.816886 37.075649 0.634167 2.379368 0.134087 -0.031359 930961.000000 0 0 1
19.423124 15.030010 -26.088756 35.829906 0.658573 2.386383 0.111251 -0.018199 62120.400000 0 0 1
18.248024 15.453810 -26.755256 35.883901 0.702678 2.412240 0.112847 -0.028369 198357.000000 0 0 1
16.955624 14.915010 -26.137516 34.541576 0.721457 2.429043 0.106945 -0.027338 -199754.000000 0 0 1
16.703224 13.542410 -26.241626 33.926649 0.681271 2.455112 0.122738 -0.026336 -391263.000000 0 0 1
15.497924 13.219610 -25.624736 32.734857 0.706229 2.469944 0.086709 -0.027926 -437238.000000 0 0 1
15.182624 11.691810 -25.495826 31.894320 0.656228 2.497066 0.079668 -0.023695 -97989.000000 0 0 1
13.820424 11.489010 -25.209946 30.960343 0.693541 2.522259 0.078373 -0.024708 -132693.000000 0 0 1
13.632024 10.141310 -25.002856 30.229473 0.639607 2.544728 0.094066 -0.027850 428413.000000 0 0 1
12.147424 9.671810 -24.883856 29.331044 0.672421 2.583713 0.116673 -0.048960 453855.000000 0 0 1
11.439824 10.096710 -23.746956 28.226425 0.723114 2.570484 0.136291 -0.054827 677287.000000 0 0 1
10.171124 9.410210 -23.651856 27.411934 0.746559 2.611639 0.120962 -0.052825 926603.000000 0 0 1
9.269824 9.999210 -22.513056 26.320174 0.823233 2.597029 0.107303 -0.047508 -77672.700000 0 0 1
8.611024 11.143310 -22.960856 26.935553 0.912892 2.591425 0.108109 -0.049437 -611017.000000 0 0 1
8.192524 12.053910 -22.009056 26.397211 0.973854 2.556687 0.112251 -0.046697 403010.000000 0 0 1
9.235424 12.909410 -21.176756 26.465089 0.949808 2.498387 0.117427 -0.050138 419856.000000 0 0 1
9.954224 12.158010 -20.201756 25.593256 0.884734 2.480528 0.138207 -0.056977 724022.000000 0 0 1
10.980424 12.973910 -19.575756 25.924936 0.868427 2.426593 0.161863 -0.054397 404116.000000 0 0 1
11.945024 12.072610 -18.729956 25.283251 0.790710 2.405064 0.164439 -0.057475 1182860.000000 0 0 1
13.053124 11.392010 -19.390656 26.003067 0.717550 2.412391 0.153699 -0.057585 991223.000000 0 0 1
12.633324 10.350010 -20.231556 26.000759 0.686377 2.462454 0.155865 -0.056088 -746063.000000 0 0 1
13.725724 9.560710 -20.947656 26.806846 0.608410 2.467750 0.156974 -0.056674 -84312.400000 0 0 1
14.429324 8.664910 -20.051456 26.179132 0.540792 2.443287 0.177316 -0.069055 720232.000000 0 0 1
15.433024 7.992710 -20.828056 27.126916 0.477862 2.446197 0.150904 -0.057036 594541.000000 0 0 1
16.275724 6.928510 -20.007356 26.705762 0.402460 2.417616 0.208314 -0.059639 969739.000000 0 0 1
17.186324 7.510210 -19.032556 26.720988 0.411980 2.363523 0.162517 -0.051163 560979.000000 0 0 1
17.674124 6.527610 -18.177056 26.179949 0.353792 2.338260 0.153185 -0.055800 107087.000000 0 0 1
18.656324 6.929810 -17.023456 26.189287 0.355651 2.278402 0.208282 -0.043641 468546.000000 0 0 1
19.991724 7.176810 -17.471956 27.503543 0.344660 2.259144 0.160117 -0.050540 668437.000000 0 0 1
20.917924 7.383810 -16.426056 27.602455 0.339336 2.208179 0.144924 -0.066947 205259.000000 0 0 1
21.606724 6.072010 -15.865556 27.485190 0.273958 2.186141 0.127812 -0.062920 -776219.000000 0 0 1
22.635024 5.571710 -16.675556 28.661166 0.241356 2.191757 0.105539 -0.057102 -45184.900000 0 0 1
23.421224 4.710710 -15.900656 28.698003 0.198482 2.158040 0.159265 -0.064246 -327466.000000 0 0 1
24.728824 4.133010 -16.440656 29.981522 0.165603 2.151198 0.072361 -0.016112 -181791.000000 0 0 1
25.359124 3.197010 -15.575156 29.931447 0.125408 2.118070 0.088669 -0.022057 352048.000000 0 0 1
26.541824 2.666510 -16.158156 31.187573 0.100129 2.115420 0.083826 -0.030464 169326.000000 0 0 1
27.069324 1.439010 -15.345356 31.149623 0.053110 2.085910 0.120781 -0.054188 312158.000000 0 0 1
26.331524 0.229910 -15.513156 30.562395 0.008731 2.103181 0.131203 -0.048359 966672.000000 0 0 1
27.303424 -0.781990 -15.879956 31.595276 -0.028633 2.097406 0.110841 -0.034684 537553.000000 0 0 1
26.630124 -2.126490 -16.161556 31.223090 -0.079684 2.114858 0.089204 -0.029847 -326864.000000 0 0 1
26.102124 -2.736190 -15.047056 30.252628 -0.104445 2.091373 0.103210 -0.030275 197001.000000 0 0 1
25.754124 -4.071090 -15.375156 30.269524 -0.156778 2.103590 0.088595 -0.021454 -1090170.000000 0 0 1
25.219724 -4.866990 -14.223356 29.360278 -0.190640 2.076522 0.090712 -0.024772 940392.000000 0 0 1
23.926924 -4.565490 -13.662656 27.928651 -0.188543 2.081967 0.118721 -0.015775 1522790.000000 0 0 1
22.802724 -4.760590 -14.532856 27.455989 -0.205817 2.128589 0.128720 -0.017098 -304504.000000 0 0 1
21.435224 -4.844890 -13.841956 25.971937 -0.222290 2.132889 0.157507 -0.026176 -385624.000000 0 0 1
21.332524 -5.928890 -12.955856 25.653119 -0.271086 2.100225 0.169493 -0.027018 470371.000000 0 0 1
21.289924 -5.484290 -11.590756 24.853248 -0.252119 2.055977 0.185234 -0.023506 -288443.000000 0 1 0
20.982024 -6.636790 -10.555056 24.406997 -0.306351 2.018016 0.169313 -0.021367 229241.000000 0 1 0
19.660524 -7.132290 -10.709956 23.496998 -0.348007 2.044068 0.154016 -0.020248 653146.000000 0 1 0
19.417924 -8.172190 -11.650956 24.074576 -0.398357 2.075962 0.149451 -0.029335 -1619100.000000 0 1 0
18.282024 -9.071790 -11.347256 23.351445 -0.460614 2.078228 0.182361 -0.037481 -1184490.000000 0 1 0
17.086524 -8.355690 -11.545256 22.249939 -0.454827 2.116348 0.152914 -0.028729 -120107.000000 0 1 0
15.958224 -9.168190 -11.825656 21.876168 -0.521467 2.141914 0.155231 -0.029179 429602.000000 0 1 0
14.740724 -8.280790 -12.252956 20.880502 -0.511829 2.197914 0.107493 -0.015050 -157120.000000 0 1 0
14.637024 -7.544290 -13.445256 21.258732 -0.475911 2.255519 0.106003 -0.014961 98745.600000 0 1 0
15.576424 -6.512090 -13.593056 21.674950 -0.395989 2.248662 0.101228 -0.012994 -366220.000000 0 1 0
15.186024 -5.384190 -14.537656 21.701342 -0.340722 2.304866 0.083864 -0.012559 275580.000000 0 1 0
14.210324 -4.476390 -13.986456 20.435076 -0.305170 2.324623 0.092491 -0.022093 478539.000000 0 1 0
13.697724 -3.622590 -14.996556 20.631226 -0.258547 2.384573 0.072267 -0.024316 -457221.000000 0 1 0
14.527924 -2.371490 -15.423556 21.320662 -0.161810 2.379523 0.097265 -0.021463 -868076.000000 0 1 0
15.670724 -2.644990 -16.157056 22.663142 -0.167209 2.364453 0.097521 -0.020608 -648885.000000 0 1 0
16.621924 -1.641790 -16.173156 23.249834 -0.098453 2.340085 0.100133 -0.018527 -1076350.000000 0 1 0
17.753524 -1.814290 -15.208556 23.447376 -0.101840 2.276573 0.128813 -0.024018 -1477910.000000 0 1 0
17.393824 -1.974290 -13.848156 22.320716 -0.113021 2.240071 0.103709 -0.015816 -751335.000000 0 1 0
18.473324 -2.265590 -13.062056 22.737940 -0.122032 2.182742 0.099028 -0.013911 -974657.000000 0 1 0
18.135424 -2.488390 -11.532456 21.635231 -0.136360 2.132987 0.106913 -0.014679 -246443.000000 0 1 0
17.944224 -1.238590 -10.865256 21.013878 -0.068915 2.114199 0.111685 -0.016121 714335.000000 0 1 0
17.555124 -1.513090 -9.545456 20.039649 -0.085978 2.067271 0.103448 -0.019769 -1065300.000000 0 1 0
17.712824 -0.304990 -8.605156 19.694818 -0.017217 2.022973 0.107991 -0.019004 246388.000000 0 1 0
19.035724 0.094610 -8.213556 20.732348 0.004970 1.978139 0.129590 -0.017976 1355050.000000 0 1 0
19.917324 0.706910 -9.112856 21.914462 0.035477 1.999660 0.134400 -0.010214 -371143.000000 0 1 0
19.386324 2.019010 -9.699456 21.771206 0.103772 2.032549 0.131559 -0.021635 -774315.000000 0 1 0
19.258924 3.076810 -8.780256 21.388450 0.158421 1.993814 0.109019 -0.015976 629057.000000 0 1 0
18.605124 4.171810 -9.416856 21.265743 0.220581 2.029536 0.106513 -0.028386 -134210.000000 0 1 0
18.801624 5.499910 -8.657956 21.417523 0.284583 1.986951 0.112617 -0.017540 41797.700000 0 1 0
18.179824 6.627210 -9.292756 21.465815 0.349566 2.018514 0.094111 -0.021321 717583.000000 0 1 0
19.042724 7.750910 -9.186856 22.518887 0.386550 1.991017 0.145507 -0.006712 206250.000000 0 1 0
-27.188666 -29.384720 5.415544 40.398186 0.824196 1.436337 0.094684 -0.016250 -133885.000000 0 0 1
-27.338706 -28.186600 6.099444 39.737796 0.800667 1.416695 0.117747 -0.021887 -590250.000000 0 0 1
-26.150786 -27.457490 6.043544 38.396638 0.809768 1.412741 0.122092 -0.027830 -739145.000000 0 0 1
-25.931346 -26.278940 7.044344 37.585106 0.792056 1.382258 0.128272 -0.028476 -671995.000000 0 0 1
-26.663556 -25.090290 6.784344 37.235671 0.755008 1.387573 0.159325 -0.032993 677107.000000 0 0 1
-28.036466 -25.144150 7.199144 38.341875 0.731065 1.381913 0.128811 -0.036788 424924.000000 0 0 1
-28.332666 -25.167570 8.695344 38.881301 0.726307 1.345251 0.120091 -0.036282 -514887.000000 0 0 1
-27.821676 -26.321580 9.430344 39.443664 0.757699 1.329374 0.108368 -0.032202 240222.000000 0 0 1
-28.488006 -26.517930 10.668544 40.355730 0.749598 1.303253 0.087313 -0.029036 76664.400000 0 0 1
-27.607626 -27.475090 11.502544 40.612438 0.782992 1.283639 0.062542 -0.018537 259791.000000 0 0 1
-26.417436 -26.939470 12.014444 39.597510 0.795182 1.262523 0.073130 -0.019326 -335682.000000 0 0 1
-26.653766 -26.206090 13.175044 39.632867 0.776929 1.231920 0.072793 -0.019097 -1016510.000000 0 0 1
-25.421136 -25.588560 13.784944 38.613899 0.788680 1.205748 0.078470 -0.021485 -399162.000000 0 0 1
-24.639276 -26.530200 14.516644 39.008696 0.822335 1.189484 0.076203 -0.027867 53038.000000 0 0 1
-23.452976 -25.991810 15.062944 38.111790 0.836700 1.164478 0.095589 -0.035867 47669.500000 0 0 1
-22.478076 -26.980570 15.721044 38.475528 0.876183 1.149878 0.092753 -0.039365 -15263.400000 0 0 1
-23.068976 -27.653250 16.827344 39.749709 0.875533 1.133676 0.093787 -0.033299 91223.000000 0 0 1
-22.380376 -28.843780 17.065444 40.299804 0.910914 1.133533 0.087270 -0.028013 -14700.600000 0 0 1
-23.259476 -29.817240 17.884244 41.832011 0.908328 1.129043 0.093849 -0.031700 371122.000000 0 0 1
-24.421176 -30.293420 17.218344 42.550634 0.892314 1.154194 0.085271 -0.029847 360698.000000 0 0 1
-24.876776 -31.417510 17.947444 43.909277 0.901068 1.149724 0.090247 -0.023325 -141335.000000 0 0 1
-26.031436 -32.272570 17.396044 44.964172 0.892037 1.173543 0.075427 -0.025350 -281227.000000 0 0 1
-25.657106 -33.080930 16.336444 44.939008 0.911120 1.198748 0.081682 -0.025003 -269987.000000 0 0 1
-26.465916 33.467381 16.089744 45.600331 -0.901692 1.210189 0.072950 -0.027304 -853007.000000 0 0 1
-25.834246 32.563118 14.957044 44.175538 -0.900118 1.225387 0.073581 -0.034474 778278.000000 0 0 1
-24.541076 32.015936 15.184244 43.102736 -0.916802 1.210790 0.061384 -0.038037 -26810.000000 0 0 1
-23.483876 32.888010 14.976844 43.097790 -0.950699 1.215884 0.062515 -0.036941 -1003480.000000 0 0 1
-22.118176 32.178745 14.920144 41.800671 -0.968608 1.205811 0.065114 -0.043764 -6710.330000 0 0 1
-22.050776 31.373193 13.762944 40.742271 -0.958157 1.226212 0.049246 -0.028318 607597.000000 0 0 1
-20.819576 30.618763 13.808444 39.517547 -0.973646 1.213838 0.047375 -0.029964 675226.000000 0 0 1
-20.649976 29.836453 12.487644 38.374167 -0.965388 1.239343 0.045299 -0.029278 -563826.000000 0 0 1
-20.221076 30.608693 11.410744 38.418604 -0.986983 1.269236 0.025048 -0.016857 -87453.400000 0 0 1
-20.400876 29.938363 10.189844 37.634217 -0.972643 1.296614 0.038610 -0.016163 -199264.000000 0 0 1
-19.882376 30.791823 9.008644 37.743886 -0.997448 1.329792 0.030699 -0.009230 -132985.000000 0 0 1
-18.535876 30.423903 8.806544 36.698063 -1.023600 1.328458 0.027414 -0.019105 -495644.000000 0 0 1
-18.114576 30.878393 7.535444 36.584095 -1.040256 1.363335 0.061896 -0.026685 -86512.900000 0 0 1
-17.784776 29.798413 6.437844 35.294327 -1.032706 1.387365 0.064838 -0.028273 -156107.000000 0 0 1
-18.846376 28.973093 5.997244 35.079809 -0.994085 1.398992 0.044660 -0.021039 -114447.000000 0 0 1
-19.135976 27.845663 6.833944 34.471283 -0.968702 1.371224 0.014387 -0.014187 107607.000000 0 0 1
-20.150176 26.857453 6.226544 34.148532 -0.927126 1.387433 0.019754 -0.006290 -126762.000000 0 0 1
-19.679076 26.299973 5.049744 33.233335 -0.928413 1.418257 0.037218 -0.019727 -216312.000000 0 0 1
-20.683176 25.490743 4.516144 33.135590 -0.889143 1.434078 0.057263 -0.021740 -772645.000000 0 0 1
-20.303576 24.598393 3.323044 32.068034 -0.880757 1.466985 0.082208 -0.034105 -960428.000000 0 0 1
-20.090776 25.153313 1.984244 32.253150 -0.896829 1.509237 0.094310 -0.036544 796670.000000 0 0 1
-19.072176 26.174113 1.860644 32.439083 -0.941090 1.513407 0.087354 -0.033670 786259.000000 0 0 1
-17.582276 25.709293 2.071944 31.215335 -0.970966 1.504372 0.080065 -0.040469 237506.000000 0 0 1
-17.108376 24.585033 1.336844 29.981787 -0.962837 1.526193 0.127907 -0.051964 201363.000000 0 0 1
-17.121576 24.715013 -0.067356 30.066340 -0.964946 1.573037 0.128945 -0.050467 -582799.000000 0 0 1
-16.665676 23.482973 -0.887256 28.809409 -0.953595 1.601599 0.128133 -0.054619 -207344.000000 0 0 1
-17.553276 22.394833 -0.942556 28.469887 -0.906006 1.603910 0.146821 -0.060064 94309.900000 0 0 1
-17.103176 21.416833 -1.846956 27.470177 -0.896918 1.638082 0.140444 -0.058994 -288404.000000 0 0 1
-16.030776 20.426433 -1.400656 26.003592 -0.905389 1.624686 0.119963 -0.059756 -252353.000000 0 0 1
-16.448176 19.468333 -0.430256 25.490069 -0.869289 1.587676 0.135139 -0.064277 123254.000000 0 0 1
-15.344976 18.688433 0.000244 24.181105 -0.883324 1.570786 0.134399 -0.064257 84379.900000 0 1 0
-15.688176 17.549133 0.991044 23.559990 -0.841330 1.528719 0.109440 -0.062610 146115.000000 0 1 0
-16.315576 16.459233 0.322844 23.177761 -0.789781 1.556867 0.104194 -0.061389 496710.000000 0 1 0
-17.108576 15.637133 1.147844 23.206483 -0.740493 1.521314 0.125917 -0.071835 226812.000000 0 1 0
-17.870076 14.399033 0.609444 22.957422 -0.678245 1.544247 0.124012 -0.064856 195100.000000 0 1 0
-18.923276 14.604033 -0.337356 23.905689 -0.657276 1.584909 0.156807 -0.071690 422091.000000 0 1 0
-19.515076 13.343733 -0.515156 23.646539 -0.599747 1.592584 0.150844 -0.067224 -499023.000000 0 1 0
-20.742776 13.485433 -1.452256 24.783638 -0.576464 1.629427 0.141444 -0.057776 -133193.000000 0 1 0
-21.618376 12.393833 -1.634856 24.972666 -0.520556 1.636309 0.136638 -0.058042 978525.000000 0 1 0
-22.501676 12.068833 -0.541256 25.539678 -0.492305 1.591991 0.158852 -0.059779 -44390.900000 0 0 1
-23.906776 12.704833 -0.654156 27.080891 -0.488476 1.594954 0.176449 -0.063375 -251509.000000 0 0 1
-23.856976 14.100133 -0.407556 27.715252 -0.533796 1.585502 0.190324 -0.063767 203866.000000 0 0 1
-25.156026 14.647533 -0.403656 29.112520 -0.527279 1.584662 0.178042 -0.048802 -58061.800000 0 0 1
-25.216376 16.066533 0.324544 29.901580 -0.567286 1.559942 0.188181 -0.052905 -130893.000000 0 0 1
-25.124676 15.998533 1.792944 29.839857 -0.567015 1.510675 0.202433 -0.051566 11175.200000 0 0 1
-24.998676 17.296333 2.345844 30.489342 -0.605262 1.493780 0.178272 -0.047596 235864.000000 0 0 1
-26.338316 18.059833 2.528044 32.035223 -0.601055 1.491800 0.172368 -0.042725 -369492.000000 0 0 1
-27.259316 17.351233 3.303344 32.481498 -0.566844 1.468921 0.171141 -0.044563 1108750.000000 0 0 1
-28.563456 17.921133 3.605744 33.912232 -0.560334 1.464269 0.157231 -0.041643 1653040.000000 0 0 1
-29.543686 18.191933 2.427244 34.780273 -0.551930 1.500952 0.114521 -0.045659 -631435.000000 0 0 1
-30.754056 18.776033 2.852344 36.145363 -0.548120 1.491801 0.102661 -0.045505 82834.200000 0 0 1
-31.482416 19.117333 1.683044 36.870688 -0.545725 1.525133 0.092434 -0.034978 -92923.500000 0 0 1
-32.856536 19.778333 1.796144 38.392194 -0.541860 1.523995 0.100981 -0.037010 -532884.000000 0 0 1
-33.920756 19.039233 2.324444 38.968104 -0.511467 1.511111 0.111214 -0.036093 254519.000000 0 0 1
-35.068280 19.877733 2.507944 40.388097 -0.515672 1.508660 0.124608 -0.029150 479940.000000 0 0 1
-35.353938 20.296933 3.985144 40.960320 -0.521163 1.473349 0.100316 -0.028086 75773.200000 0 0 1
-34.240383 21.019833 4.518444 40.430849 -0.550570 1.458805 0.099646 -0.027059 573689.000000 0 0 1
-34.536627 21.680733 5.711244 41.175856 -0.560582 1.431644 0.085175 -0.031347 -384055.000000 0 0 1
-33.458676 22.677593 6.156944 40.885991 -0.595656 1.419633 0.107269 -0.030309 -235019.000000 0 0 1
-33.489196 23.912223 5.461344 41.510806 -0.620079 1.438849 0.084933 -0.019419 262116.000000 0 0 1
-32.384966 24.698803 5.831144 41.143884 -0.651556 1.428592 0.084399 -0.029168 -129907.000000 0 0 1
-32.734856 26.183473 5.664044 42.299249 -0.674659 1.436489 0.082257 -0.025618 -217771.000000 0 0 1
-33.620026 26.638513 6.657944 43.407889 -0.670053 1.416808 0.096346 -0.019761 -10210.600000 0 0 1
-33.912286 28.008953 6.501244 44.461341 -0.690349 1.424048 0.083031 -0.015713 -378922.000000 0 0 1
-34.902275 28.534423 7.518944 45.704668 -0.685352 1.405534 0.071929 -0.010527 -399998.000000 0 0 1
-34.309681 28.530023 8.852744 45.491621 -0.693682 1.374945 0.091694 -0.025322 616707.000000 0 0 1
-35.197784 29.105063 9.811244 46.714551 -0.690930 1.359195 0.091715 -0.016996 68818.900000 0 0 1
-36.522416 28.378533 10.128444 47.347792 -0.660569 1.355214 0.075117 -0.010823 -94411.700000 0 0 1
-36.278826 27.116693 10.737144 46.548411 -0.641869 1.338034 0.090606 -0.017241 259973.000000 0 0 1
-37.421536 26.723843 11.451444 47.388509 -0.620146 1.326730 0.076831 -0.016143 -41950.400000 0 0 1
-37.038356 25.329763 12.058044 46.463245 -0.599825 1.308273 0.111772 -0.019047 66931.800000 0 0 1
-35.892685 25.564593 12.853244 45.902496 -0.618901 1.286990 0.143647 -0.035594 55875.800000 0 0 1
-35.581327 24.440083 13.697244 45.287559 -0.601866 1.263534 0.155414 -0.037538 -162891.000000 0 0 1
-34.271699 24.747513 14.439044 44.670737 -0.625403 1.241653 0.160730 -0.043379 35483.600000 0 0 1
-34.479031 25.791953 15.383644 45.724009 -0.642250 1.227656 0.150582 -0.039722 585515.000000 0 0 1
-33.200776 26.077413 15.951744 45.130712 -0.665803 1.209533 0.161547 -0.033508 588844.000000 0 0 1
-33.303676 27.228973 16.929844 46.229552 -0.685379 1.195861 0.153967 -0.028296 59010.400000 0 0 1
-33.477596 28.462393 16.269844 46.856858 -0.704606 1.216187 0.165028 -0.030029 70474.800000 0 0 1
-33.653496 29.546273 17.140044 47.951238 -0.720501 1.205263 0.136291 -0.025660 54869.500000 0 0 1
-33.235156 30.912893 16.511744 48.299278 -0.749212 1.221898 0.124295 -0.029034 703039.000000 0 0 1
-31.833126 31.156293 16.656244 47.555158 -0.774653 1.212957 0.112841 -0.024136 406236.000000 0 0 1
-31.531496 32.282768 15.797844 47.811968 -0.797170 1.234052 0.100628 -0.017039 754615.000000 0 0 1
-30.092996 32.285154 15.142144 46.660520 -0.820527 1.240295 0.121113 -0.024452 774236.000000 0 0 1
-29.872246 31.546113 13.952844 45.631023 -0.812645 1.260044 0.112101 -0.025792 75803.900000 0 0 1
-29.489466 30.175933 14.234044 44.528907 -0.796903 1.245427 0.123861 -0.029857 184478.000000 0 0 1
-30.433996 29.047913 13.697144 44.245013 -0.762100 1.256050 0.154148 -0.034775 363031.000000 0 0 1
-30.587776 28.868913 12.286744 43.817694 -0.756497 1.286579 0.164605 -0.046357 -109245.000000 0 0 1
-31.783166 28.159143 12.056144 44.141337 -0.725013 1.294155 0.166745 -0.045905 201830.000000 0 0 1
-31.871716 27.833793 10.535244 43.606395 -0.717870 1.326783 0.145855 -0.032127 -94810.300000 0 0 1
-30.817676 26.988853 10.079344 42.186734 -0.719260 1.329541 0.127562 -0.019586 51413.600000 0 0 1
-30.571536 27.306573 8.746144 41.913755 -0.729047 1.360581 0.119615 -0.027079 150887.000000 0 0 1
-29.584686 26.401153 7.973844 40.445726 -0.728596 1.372347 0.128440 -0.026079 230129.000000 0 0 1
-29.279676 26.976233 6.703144 40.372624 -0.744475 1.403992 0.121632 -0.035515 -448375.000000 0 0 1
-28.457586 26.125343 5.985444 39.092113 -0.742696 1.417080 0.118852 -0.027130 -352584.000000 0 0 1
-28.102426 26.525063 4.594644 38.915757 -0.756531 1.452454 0.088868 -0.020437 103450.000000 0 0 1
-27.021196 27.443683 4.467644 38.771905 -0.793155 1.455311 0.065528 -0.018538 375537.000000 0 0 1
-26.865416 27.789103 3.083944 38.774935 -0.802297 1.491178 0.053159 -0.022048 -158502.000000 0 0 1
-25.840166 28.921483 2.873844 38.889914 -0.841607 1.496832 0.040337 -0.022875 -176173.000000 0 0 1
-24.506076 28.491683 2.978244 37.698723 -0.860460 1.491713 0.045580 -0.015966 -423004.000000 0 0 1
-23.644676 29.619423 2.772044 38.000858 -0.897103 1.497785 0.047226 -0.018200 -285762.000000 0 0 1
-22.215976 29.127143 2.996444 36.754847 -0.919201 1.489181 0.039683 -0.024024 -127626.000000 0 0 1
-21.251576 30.100583 2.576244 36.936590 -0.956042 1.500992 0.047802 -0.027700 460766.000000 0 0 1
-19.917676 29.650463 2.822544 35.830581 -0.979283 1.491940 0.075433 -0.038707 1329550.000000 0 0 1
-18.771676 30.645593 2.404244 36.018171 -1.021207 1.503996 0.079006 -0.039347 528026.000000 0 0 1
-18.837976 31.815328 3.233744 37.115247 -1.036203 1.483559 0.080498 -0.038643 923126.000000 0 0 1
-17.638076 32.598386 3.015644 37.186699 -1.074833 1.489612 0.104362 -0.037981 586446.000000 0 0 1
-17.433476 33.782513 4.013144 38.226818 -1.094391 1.465620 0.108390 -0.037333 -180032.000000 0 0 1
-18.383276 -32.836160 3.857144 37.829034 1.060423 1.468656 0.097611 -0.034988 22538.100000 0 0 1
-18.119076 -31.805760 4.796944 36.917718 1.052970 1.440492 0.070785 -0.040071 116314.000000 0 0 1
-19.137776 -30.633380 4.844544 36.443491 1.012387 1.437469 0.079368 -0.025459 129152.000000 0 0 1
-19.144576 -29.841730 3.665844 35.643822 1.000393 1.467768 0.098332 -0.024156 288402.000000 0 0 1
-20.218176 -28.936650 3.841744 35.508637 0.960940 1.462392 0.097668 -0.027673 -95454.500000 0 0 1
-20.431776 -28.015420 2.628744 34.774006 0.940672 1.495129 0.089421 -0.031887 -385445.000000 0 0 1
-19.522676 -26.977460 2.616244 33.403038 0.944363 1.492392 0.102224 -0.029048 -420051.000000 0 0 1
-19.723676 -26.114850 1.487144 32.760042 0.923933 1.525386 0.091858 -0.028125 333671.000000 0 0 1
-18.730576 -24.911390 1.384344 31.198209 0.926088 1.526409 0.086832 -0.026463 1354400.000000 0 0 1
-17.391476 -25.238220 0.979144 30.665777 0.967428 1.538861 0.100853 -0.031512 534436.000000 0 0 1
-16.449776 -24.221990 1.317744 29.309322 0.974218 1.525821 0.093881 -0.022505 485297.000000 0 0 1
-15.038476 -24.502090 0.741644 28.758619 1.020318 1.545005 0.086325 -0.025067 -134882.000000 0 0 1
-14.912076 -24.696890 -0.666856 28.857427 1.027585 1.593907 0.074822 -0.020889 -54520.300000 0 0 1
-15.231176 -23.572990 -1.461956 28.103592 0.997148 1.622840 0.075631 -0.021017 -294765.000000 0 0 1
-15.447376 -24.021590 -2.948656 28.711544 0.999314 1.673677 0.044570 -0.015164 -694076.000000 0 0 1
-14.310576 -24.413890 -3.625156 28.530201 1.040611 1.698205 0.072908 -0.012094 -866946.000000 0 0 1
-14.420476 -24.196490 -5.052356 28.617242 1.033342 1.748276 0.059333 -0.012262 417658.000000 0 0 1
-13.227376 -24.709890 -5.936856 28.649405 1.079304 1.779533 0.082325 -0.007357 430190.000000 0 0 1
-13.161476 -26.154950 -6.060856 29.900499 1.104583 1.774912 0.050063 -0.003425 -531137.000000 0 0 1
-12.439376 -26.435160 -7.190256 30.087465 1.130975 1.812110 0.067785 -0.015694 -404853.000000 0 0 1
23.571824 12.408510 28.207493 38.797741 0.484554 0.756796 0.073974 -0.024284 571146.000000 0 0 1
24.948424 12.179710 28.568583 39.836329 0.454160 0.771094 0.056855 -0.026527 1186390.000000 0 0 1
25.136524 11.656010 29.906633 40.769034 0.434195 0.747247 0.073985 -0.018676 -96663.800000 0 0 1
25.005424 12.753110 31.016993 41.832606 0.471626 0.735560 0.101453 -0.046929 181867.000000 0 0 1
23.662824 13.135710 31.294833 41.374421 0.506766 0.713033 0.100817 -0.038542 362222.000000 0 0 1
23.543324 14.119310 32.332940 42.415352 0.540211 0.703947 0.111183 -0.031696 -901606.000000 0 0 1
22.184124 14.815110 32.294746 41.887629 0.588804 0.690409 0.094315 -0.038644 -533071.000000 0 0 1
21.151424 13.944410 32.685416 41.354150 0.582861 0.659370 0.090690 -0.016719 133078.000000 0 0 1
20.499724 14.424010 -33.865146 42.132397 0.613151 2.504417 0.107132 -0.020648 -84012.600000 0 0 1
19.398824 13.500710 -33.272216 40.812056 0.608006 2.523965 0.105472 -0.012156 -421045.000000 0 0 1
18.265124 13.341410 33.687073 40.576186 0.630859 0.591298 0.086131 -0.000789 -234472.000000 0 0 1
17.328724 12.577210 -33.323286 39.609498 0.627833 2.570471 0.071787 -0.000672 496777.000000 0 0 1
15.957724 12.194210 33.789943 39.307862 0.652500 0.536265 0.063578 -0.001173 659790.000000 0 0 1
16.020024 11.057610 32.907570 38.233756 0.604143 0.534165 0.053448 0.005303 614184.000000 0 0 1
14.685624 10.746010 32.496849 37.244993 0.631710 0.510468 0.081961 -0.000393 605181.000000 0 0 1
14.550124 9.558610 31.454223 35.950540 0.581241 0.505504 0.094385 -0.002176 -43192.100000 0 0 1
15.030624 8.260710 31.815699 36.144124 0.502530 0.494417 0.076092 -0.004498 242607.000000 0 0 1
15.243324 7.488310 30.635943 35.028485 0.456625 0.506184 0.083196 -0.022551 -115975.000000 0 0 1
15.570324 6.059410 30.945073 35.167442 0.371130 0.495070 0.128854 -0.028421 406007.000000 0 0 1
14.439624 5.229910 31.203633 34.778175 0.347494 0.457366 0.137749 -0.021286 330531.000000 0 0 1
14.911224 3.895110 31.359313 34.941709 0.255511 0.456785 0.138344 -0.030668 -2115.850000 0 0 1
13.912824 2.870310 31.897679 34.918008 0.203452 0.418985 0.108839 -0.030642 -653101.000000 0 0 1
14.539424 1.674810 32.130453 35.306740 0.114686 0.427422 0.115815 -0.039787 -182059.000000 0 0 1
13.663224 0.802110 32.810426 35.550684 0.058638 0.395200 0.108806 -0.039883 -376506.000000 0 0 1
14.283324 -0.499590 33.243276 36.185333 -0.034963 0.406033 0.096498 -0.040509 -381244.000000 0 0 1
14.395824 -1.512690 32.252191 35.351546 -0.104694 0.421863 0.064654 -0.035286 -27639.800000 0 0 1
15.159024 -2.582290 32.729130 36.161584 -0.168727 0.439228 0.107095 -0.040465 -510098.000000 0 0 1
15.395624 -3.783090 31.740431 35.479458 -0.240951 0.463229 0.109615 -0.037345 -8675.760000 0 0 1
16.074024 -4.969090 32.289812 36.410137 -0.299819 0.480345 0.113832 -0.038026 542981.000000 0 0 1
17.265224 -4.930090 33.067749 37.628045 -0.278148 0.497442 0.094148 -0.032773 234003.000000 0 0 1
18.491524 -4.518290 32.211736 37.415870 -0.239648 0.533739 0.090681 -0.028160 -759799.000000 0 0 1
18.591424 -3.105790 31.944500 37.090943 -0.165526 0.533076 0.094638 -0.034381 184241.000000 0 0 1
19.684824 -2.791690 31.107973 36.918719 -0.140880 0.568690 0.114717 -0.040494 -44125.300000 0 0 1
19.868024 -1.260090 30.836763 36.704661 -0.063338 0.573270 0.135983 -0.049378 -414318.000000 0 0 1
19.997624 -0.498190 32.020553 37.755383 -0.024907 0.558397 0.119049 -0.039863 140078.000000 0 0 1
19.969124 0.898110 31.788645 37.551171 0.044945 0.561341 0.113928 -0.037795 -489880.000000 0 0 1
21.219224 1.637610 31.301033 37.850917 0.077023 0.597125 0.134820 -0.029961 -750007.000000 0 0 1
21.474724 1.382410 29.915903 36.851541 0.064285 0.623577 0.155950 -0.040027 496106.000000 0 0 1
22.430224 2.236310 29.245993 36.924845 0.099372 0.656651 0.117475 -0.031952 195124.000000 0 0 1
22.037524 3.699910 29.005693 36.615189 0.166340 0.656429 0.112398 -0.019607 -175212.000000 0 0 1
21.793224 4.463910 30.209923 37.516804 0.202036 0.634721 0.112368 -0.012834 267551.000000 0 0 1
21.020724 5.623610 29.970993 37.037228 0.261405 0.627986 0.126634 -0.008273 -145430.000000 0 0 1
20.607324 6.188810 31.387633 38.054523 0.291751 0.600936 0.131351 -0.003597 -153180.000000 0 0 1
19.608724 5.390110 31.968069 37.888162 0.268258 0.566568 0.125688 0.003902 -35991.300000 0 0 1
19.380824 5.892810 33.253302 38.937433 0.295172 0.547134 0.112667 -0.005178 -467561.000000 0 0 1
18.242824 5.155410 -33.797866 38.751447 0.275417 2.630418 0.114952 -0.014142 -329474.000000 0 0 1
18.490624 3.818210 -33.443536 38.405104 0.203632 2.627643 0.108868 -0.011809 709031.000000 0 0 1
17.287624 3.336410 -32.825136 37.248935 0.190650 2.649269 0.104080 -0.018434 771861.000000 0 0 1
17.092424 1.834710 -33.048266 37.251913 0.106931 2.661942 0.112312 -0.041934 170680.000000 0 0 1
18.108524 1.186110 -32.293146 37.042851 0.065407 2.629617 0.100516 -0.023498 350515.000000 0 0 1
18.268024 -0.188290 -32.563216 37.337906 -0.010307 2.630319 0.103805 -0.030029 -385643.000000 0 0 1
19.422724 -0.823290 -31.758936 37.236407 -0.042363 2.592312 0.099913 -0.024657 -239275.000000 0 0 1
19.283424 -0.956790 -30.348246 35.969180 -0.049577 2.574989 0.104148 -0.026063 272351.000000 0 0 1
19.190024 0.290910 -29.646376 35.316416 0.015158 2.567067 0.098658 -0.019294 -363944.000000 0 0 1
18.770924 0.226110 -28.161596 33.844855 0.012045 2.553642 0.090261 -0.014576 -463164.000000 0 0 1
17.409724 -0.092490 -28.076866 33.036608 -0.005312 2.586537 0.104868 -0.024825 -338880.000000 0 0 1
16.901624 -0.443390 -26.799876 31.687456 -0.026228 2.578778 0.099895 -0.022464 81872.200000 0 0 1
17.571824 -1.580490 -25.883916 31.324815 -0.089703 2.543315 0.110887 -0.018320 -143148.000000 0 0 1
18.883824 -1.184090 -25.514256 31.764416 -0.062622 2.503501 0.110639 -0.016337 -324381.000000 0 0 1
19.581124 -2.294790 -24.986356 31.827731 -0.116662 2.473573 0.092442 -0.016302 364341.000000 0 0 1
20.558324 -2.958790 -26.019916 33.293170 -0.142940 2.467926 0.097958 -0.026924 176884.000000 0 0 1
21.652824 -2.116290 -26.357346 34.176500 -0.097428 2.451540 0.089362 -0.014410 -115646.000000 0 0 1
21.919624 -2.297090 -27.721346 35.414962 -0.104415 2.469882 0.094770 -0.018999 -195018.000000 0 0 1
23.265624 -1.657790 -28.096376 36.516351 -0.071135 2.448727 0.071630 -0.019898 209729.000000 0 0 1
24.359824 -2.469090 -27.683536 36.957754 -0.101014 2.417437 0.068419 -0.028133 227203.000000 0 0 1
25.601424 -1.893190 -28.090646 38.053928 -0.073814 2.401165 0.062120 -0.031463 1845710.000000 0 0 1
26.868124 -2.870490 -27.879216 38.825075 -0.106433 2.371825 0.092869 -0.031770 1106370.000000 0 0 1
26.948424 -3.851790 -28.908386 39.708294 -0.141970 2.386224 0.102482 -0.035466 160963.000000 0 0 1
28.090124 -4.694690 -28.922306 40.590577 -0.165599 2.363904 0.095965 -0.040439 -70685.200000 0 0 1
28.183724 -5.886590 -27.867006 40.069243 -0.205905 2.339872 0.091923 -0.032571 -129852.000000 0 0 1
28.585224 -5.507690 -26.579856 39.420026 -0.190344 2.310776 0.092699 -0.017097 220513.000000 0 0 1
28.716324 -6.651790 -25.740576 39.133755 -0.227623 2.288636 0.076209 -0.017806 -107861.000000 0 0 1
28.754824 -6.369990 -24.217356 38.130001 -0.218007 2.258968 0.059190 -0.016093 -351170.000000 0 0 1
30.009824 -6.087590 -23.674256 38.705538 -0.200138 2.228941 0.050652 -0.015592 -207847.000000 0 0 1
29.927524 -5.828390 -22.325156 37.789409 -0.192343 2.202819 0.055513 -0.013815 -457711.000000 0 0 1
31.314824 -5.400990 -21.868256 38.574726 -0.170794 2.173542 0.053232 -0.005829 -454926.000000 0 0 1
31.781724 -4.178190 -22.426956 39.121651 -0.130716 2.181278 0.077117 -0.019909 401355.000000 0 0 1
33.040424 -3.843490 -21.832956 39.788440 -0.115806 2.151636 0.087167 -0.014961 595249.000000 0 0 1
33.657724 -2.555090 -22.325356 40.469648 -0.075769 2.155146 0.092378 -0.020995 222044.000000 0 0 1
32.888924 -1.448590 -21.794056 39.481142 -0.044016 2.155571 0.082012 -0.023314 516367.000000 0 0 1
33.245024 -0.181090 -22.285856 40.024040 -0.005447 2.161339 0.087791 -0.020995 197300.000000 0 0 1
32.085224 0.847710 -22.102156 38.970316 0.026414 2.173842 0.078155 -0.015476 -22889.000000 0 0 1
30.911024 0.644610 -22.835856 38.436743 0.020851 2.206962 0.063734 -0.012937 -217199.000000 0 0 1
30.023224 1.683410 -22.469956 37.538337 0.056012 2.212532 0.062348 -0.009611 168234.000000 0 0 1
28.696424 1.637210 -23.299656 37.000529 0.056991 2.251978 0.075627 -0.010391 131445.000000 0 0 1
27.912624 2.781310 -23.086056 36.329275 0.099316 2.259410 0.070349 -0.015154 -568365.000000 0 0 1
26.862624 2.852510 -23.982256 36.123206 0.105792 2.296820 0.085172 -0.019613 -529276.000000 0 0 1
25.913624 4.056510 -23.704856 35.353803 0.155280 2.305684 0.085201 -0.013893 -377152.000000 0 0 1
26.502824 5.305810 -23.821956 36.028279 0.197586 2.293216 0.074392 -0.006475 50491.200000 0 0 1
25.540424 6.320310 -23.608056 35.349680 0.242589 2.302104 0.095054 -0.021811 -185493.000000 0 0 1
26.091424 7.563710 -22.934156 35.552041 0.282158 2.271933 0.109267 -0.024271 -84265.600000 0 0 1
27.078524 8.170010 -23.768756 36.945220 0.293030 2.269664 0.103392 -0.024977 247110.000000 0 0 1
27.587624 9.355610 -23.203056 37.242264 0.326953 2.243407 0.123240 -0.027826 -6156.840000 0 0 1
28.673324 10.110510 -24.013456 38.743103 0.338998 2.239300 0.161206 -0.026069 -182199.000000 0 0 1
28.312424 10.603410 -25.302526 39.423895 0.358345 2.267648 0.192857 -0.040673 305046.000000 0 0 1
27.235324 11.530210 -25.370986 38.966595 0.400476 2.279824 0.195268 -0.044439 202288.000000 0 0 1
26.858124 12.082910 -26.748916 39.785174 0.422753 2.308153 0.191691 -0.035849 -621362.000000 0 0 1
26.166324 11.222710 -27.637556 39.679469 0.405169 2.341333 0.162669 -0.031208 504968.000000 0 0 1
26.936724 10.116910 -28.179006 40.274003 0.359280 2.345749 0.151312 -0.041993 332206.000000 0 0 1
27.895824 10.533310 -29.351826 41.840857 0.361043 2.348312 0.159459 -0.035186 -888398.000000 0 0 1
29.064824 11.160910 -28.856806 42.450503 0.366638 2.318253 0.158463 -0.034676 452879.000000 0 0 1
30.085924 11.388510 -29.828326 43.870150 0.361864 2.318454 0.176618 -0.029581 420906.000000 0 0 1
30.737324 10.137410 -30.443716 44.433884 0.318574 2.325601 0.136994 -0.022013 -1458840.000000 0 0 1
30.003024 9.468810 -31.425146 44.467737 0.305702 2.355613 0.121776 -0.019316 -21366.300000 0 0 1
30.680124 8.335210 -31.946406 45.070152 0.265278 2.358613 0.105930 -0.014437 442475.000000 0 0 1
29.649024 7.332310 -32.593556 44.667296 0.242439 2.388674 0.108258 -0.018122 372730.000000 0 0 1
28.629424 6.952210 -31.713046 43.286192 0.238223 2.392984 0.117382 -0.027006 -7848.550000 0 0 1
27.519024 6.439610 -32.449456 43.031761 0.229870 2.425051 0.073980 -0.015161 567241.000000 0 0 1
26.181924 6.597510 -31.663916 41.612785 0.246848 2.435523 0.094341 -0.007906 -226535.000000 0 0 1
25.722524 7.922010 -31.574726 41.489394 0.298761 2.435698 0.105797 -0.004179 425318.000000 0 0 1
24.741024 8.192610 -30.568616 40.170604 0.319770 2.435603 0.118469 -0.010415 149236.000000 0 0 1
23.283224 7.942310 -30.983296 39.562020 0.328740 2.470524 0.138280 -0.009507 -480869.000000 0 0 1
22.773624 8.845110 -31.956816 40.225763 0.370460 2.488876 0.137875 -0.013634 -579641.000000 0 0 1
21.648124 8.361310 -32.595096 40.012411 0.368586 2.522878 0.137757 -0.013103 -579118.000000 0 0 1
21.079724 9.381110 -33.618956 40.774921 0.418713 2.540116 0.135076 -0.008554 -132183.000000 0 0 1
21.940624 9.523310 33.007101 40.762153 0.409510 0.627073 0.108029 -0.013641 -129979.000000 0 0 1
21.497724 10.508810 32.078428 40.020155 0.454675 0.640902 0.092890 -0.015630 702675.000000 0 0 1
20.160424 10.275910 31.277313 38.604499 0.471383 0.626305 0.109060 -0.016483 637316.000000 0 0 1
20.165024 9.244110 30.346093 37.589455 0.429836 0.631228 0.102019 -0.014119 -505728.000000 0 0 1
21.012924 9.265310 29.238103 37.178699 0.415289 0.665803 0.106946 -0.014172 -418776.000000 0 0 1
20.438924 9.930410 27.946343 36.018894 0.452270 0.682687 0.095451 -0.009850 289763.000000 0 0 1
19.385924 9.231010 27.297623 34.730186 0.444403 0.666498 0.099236 -0.001762 245737.000000 0 0 1
18.129824 9.851310 27.463703 34.351038 0.497743 0.644332 0.101929 -0.019819 -216859.000000 0 0 1
16.907824 9.090510 26.937053 33.077435 0.493313 0.619165 0.116216 -0.019637 -277411.000000 0 0 1
16.852624 8.953210 25.528913 31.873128 0.488346 0.641909 0.105615 -0.017495 -38409.100000 0 0 1
15.585024 8.491110 25.134933 30.769413 0.498861 0.614814 0.115604 -0.014947 81447.700000 0 0 1
15.409124 6.931410 25.046853 30.213083 0.422708 0.593467 0.125151 -0.021515 -52429.800000 0 0 1
15.493924 6.362610 26.358063 31.229665 0.389655 0.566085 0.118007 -0.029326 36564.400000 0 0 1
15.265824 4.950510 26.203083 30.727097 0.313587 0.549534 0.137477 -0.030511 -60746.500000 0 0 1
15.702424 4.154110 27.427093 31.875825 0.258627 0.534672 0.124154 -0.035418 662336.000000 0 0 1
17.102224 4.351910 27.761863 32.895991 0.249176 0.566232 0.128255 -0.025169 1647900.000000 0 0 1
17.635324 3.483210 28.815413 33.962707 0.195003 0.557760 0.133928 -0.023882 -53471.100000 0 0 1
17.718724 1.997310 28.414063 33.545513 0.112249 0.560423 0.148158 -0.027725 -185333.000000 0 0 1
16.511824 1.225210 28.317553 32.802824 0.074066 0.529092 0.126359 -0.047496 595863.000000 0 0 1
16.040324 0.682310 29.506133 33.591211 0.042512 0.498316 0.113483 -0.043324 -108912.000000 0 0 1
16.365624 -0.844190 29.532923 33.774841 -0.051537 0.506586 0.123138 -0.041953 -184720.000000 0 0 1
15.584824 -1.557990 28.569983 32.581559 -0.099637 0.501472 0.118196 -0.035045 371068.000000 0 0 1
16.078624 -1.635990 27.222963 31.658938 -0.101400 0.535757 0.143111 -0.036141 -1082320.000000 0 0 1
17.260924 -2.581990 26.908453 32.072902 -0.148485 0.575394 0.130525 -0.027090 1493870.000000 0 0 1
18.562724 -2.145390 27.414453 33.177246 -0.115065 0.598285 0.127864 -0.042614 1209970.000000 0 0 1
19.076924 -0.991790 26.783323 32.897706 -0.051942 0.619551 0.122269 -0.041780 -1100880.000000 0 0 1
20.487124 -0.511690 27.214093 34.067447 -0.024971 0.645449 0.139815 -0.038032 787838.000000 0 0 1
21.425324 -1.464490 26.598533 34.185833 -0.068247 0.679229 0.113833 -0.038155 1182270.000000 0 0 1
22.787424 -1.106090 26.922513 35.288976 -0.048501 0.702985 0.108477 -0.038583 1503320.000000 0 0 1
23.869124 -1.792490 26.009153 35.347194 -0.074956 0.743920 0.103709 -0.029502 251466.000000 0 0 1
23.914724 -1.324890 24.684023 34.394336 -0.055344 0.770336 0.109671 -0.018119 622329.000000 0 0 1
23.086024 -2.171790 23.851283 33.265070 -0.093798 0.771297 0.121837 -0.009829 376561.000000 0 0 1
22.825324 -1.662390 22.387183 32.014761 -0.072703 0.796411 0.114413 -0.025428 -264547.000000 0 0 1
22.010324 -0.535790 22.366983 31.385082 -0.024338 0.777509 0.095203 -0.025325 -251599.000000 0 0 1
21.774824 0.026010 21.140983 30.349379 0.001195 0.800167 0.102296 -0.015232 -103271.000000 0 0 1
-31.141816 -27.011113 -9.858056 42.386250 0.714486 1.805523 0.051695 0.011192 166651.000000 0 0 1
-31.471456 -25.717713 -9.336456 41.701591 0.685127 1.796598 0.061959 0.010922 -144032.000000 0 0 1
-32.232256 -25.817813 -8.136156 42.091268 0.675346 1.765319 0.059596 0.001240 -383641.000000 0 0 1
-32.353496 -24.563313 -7.198356 41.254350 0.649374 1.746181 0.094229 -0.010538 1023490.000000 0 0 1
-31.122116 -23.984813 -6.693256 39.857961 0.656598 1.739523 0.127128 -0.026482 72556.500000 0 0 1
-30.369246 -24.806613 -5.858256 39.648182 0.684921 1.719095 0.116290 -0.021380 133041.000000 0 0 1
-29.163376 -23.939213 -5.322456 38.104028 0.687335 1.710937 0.122905 -0.023584 163192.000000 0 0 1
-29.391056 -22.892213 -4.398556 37.513129 0.661732 1.688320 0.138199 -0.030902 24266.600000 0 0 1
-29.950996 -21.711813 -5.010556 37.330559 0.627250 1.705424 0.158975 -0.034094 76646.000000 0 0 1
-30.012406 -20.645413 -3.857456 36.631374 0.602556 1.676297 0.149991 -0.036351 -188123.000000 0 0 1
-28.801776 -19.951413 -3.705556 35.232546 0.605820 1.676165 0.162375 -0.041803 -50557.300000 0 0 1
-28.821286 -18.903613 -2.745556 34.576743 0.580505 1.650285 0.168031 -0.030394 -93835.500000 0 0 1
-27.683246 -17.874713 -2.958056 33.085005 0.573337 1.660324 0.155975 -0.024812 182320.000000 0 0 1
-27.806336 -17.129113 -4.129156 32.918821 0.552112 1.696562 0.152190 -0.033316 -575757.000000 0 0 1
-26.732566 -16.281913 -4.251956 31.588129 0.547059 1.705812 0.131099 -0.030936 -504765.000000 0 0 1
-27.045366 -15.138613 -5.273056 31.439379 0.510297 1.739314 0.139744 -0.044723 -236759.000000 0 0 1
-28.209886 -14.439413 -4.968856 32.077778 0.473088 1.726323 0.126266 -0.035352 -498469.000000 0 0 1
-28.531886 -13.569113 -6.061656 32.170375 0.443919 1.760353 0.145583 -0.046252 721472.000000 0 0 1
-29.942926 -12.889413 -5.983156 33.143837 0.406491 1.752312 0.143383 -0.039886 1048860.000000 0 0 1
-31.063966 -13.665513 -6.376756 34.530845 0.414436 1.756531 0.146430 -0.032775 1174740.000000 0 0 1
-32.294566 -12.917813 -6.331656 35.353907 0.380506 1.750861 0.119688 -0.027372 1447000.000000 0 0 1
-33.557836 -13.540313 -7.030056 36.863127 0.383513 1.762679 0.097567 -0.025075 543458.000000 0 0 1
-34.302566 -14.490713 -6.315756 37.769506 0.399699 1.738804 0.093602 -0.021767 110644.000000 0 0 1
-34.707992 -15.476113 -7.241056 38.685756 0.419435 1.759083 0.112774 -0.030020 -529706.000000 0 0 1
-35.489656 -16.704313 -6.702256 39.792839 0.439919 1.740032 0.107268 -0.032012 1279260.000000 0 0 1
-36.882356 -16.453013 -6.398356 40.889470 0.419601 1.727921 0.099633 -0.029489 1080620.000000 0 0 1
-37.316836 -15.514913 -5.414156 40.774647 0.394020 1.703972 0.101292 -0.030099 342323.000000 0 0 1
36.220177 -15.420313 -5.149356 39.701424 -0.402496 1.700865 0.118963 -0.032915 306346.000000 0 0 1
35.560817 -14.814113 -6.302856 39.035312 -0.394722 1.732972 0.143240 -0.046653 1170880.000000 0 0 1
34.147567 -15.057313 -6.390856 37.863201 -0.415301 1.740396 0.149684 -0.045836 1302710.000000 0 0 1
33.200557 -14.448813 -5.298356 36.593957 -0.410477 1.716095 0.169290 -0.048485 -500515.000000 0 0 1
33.372537 -15.001913 -3.982856 36.805526 -0.422462 1.679222 0.153261 -0.050004 618917.000000 0 0 1
32.418257 -14.314113 -3.152056 35.577699 -0.415800 1.659509 0.181091 -0.041103 -932994.000000 0 0 1
32.471597 -14.707713 -1.646056 35.685163 -0.425297 1.616940 0.194543 -0.041176 -405370.000000 0 0 1
33.616607 -14.547113 -0.788356 36.637634 -0.408405 1.592316 0.221509 -0.045577 1023410.000000 0 0 1
34.824427 -15.091813 -1.351956 37.978037 -0.408938 1.606402 0.169160 -0.053771 -342123.000000 0 0 1
34.891367 -16.601913 -1.704856 38.677351 -0.444115 1.614890 0.150645 -0.054478 -1475800.000000 0 0 1
34.891667 -17.347313 -0.503456 38.969361 -0.461386 1.583716 0.144934 -0.043657 253782.000000 0 0 1
34.766187 -18.771813 -0.742056 39.517329 -0.495090 1.589575 0.112681 -0.044172 -173925.000000 0 0 1
35.925607 -19.479213 -1.476956 40.893402 -0.496843 1.606921 0.091272 -0.060463 -301534.000000 0 0 1
36.090537 -19.129313 -2.851256 40.946149 -0.487387 1.640487 0.056774 -0.049217 -80640.100000 0 0 1
36.704767 -20.113113 -3.656156 42.013625 -0.501283 1.657930 0.072219 -0.036578 -32463.000000 0 0 1
36.857527 -19.640213 -5.131556 42.077881 -0.489595 1.693054 0.101529 -0.039873 226175.000000 0 0 1
35.630857 -19.530713 -5.845956 41.050967 -0.501414 1.713689 0.094359 -0.043927 385758.000000 0 0 1
35.719337 -18.591413 -6.906356 40.855959 -0.479902 1.740654 0.100851 -0.036360 366037.000000 0 0 1
34.566057 -18.799213 -7.955556 40.143661 -0.498120 1.770294 0.117966 -0.045989 441528.000000 0 0 1
34.759027 -19.864313 -8.907256 41.013657 -0.519190 1.789719 0.123763 -0.049697 326379.000000 0 0 1
33.702827 -19.902213 -9.857456 40.362706 -0.533420 1.817514 0.108945 -0.047788 63436.400000 0 0 1
33.480617 -21.288413 -10.506256 41.043021 -0.566358 1.829659 0.100842 -0.036716 -81074.300000 0 0 1
33.115327 -22.311613 -9.617256 41.072187 -0.592894 1.807146 0.092704 -0.038366 81108.700000 0 0 1
32.863527 -23.463813 -10.421756 41.703416 -0.620045 1.823375 0.067449 -0.029459 -444606.000000 0 0 1
32.318427 -24.590913 -9.601156 41.729796 -0.650437 1.802955 0.083357 -0.026630 780582.000000 0 0 1
31.008927 -24.218113 -9.118056 40.388234 -0.663051 1.798520 0.095190 -0.027002 650033.000000 0 0 1
30.330077 -25.365713 -8.619956 40.467722 -0.696500 1.785449 0.064048 -0.017943 643138.000000 0 0 1
28.843507 -25.077213 -8.227456 39.096106 -0.715663 1.782823 0.068620 -0.022631 899572.000000 0 0 1
28.072607 -24.670513 -9.381256 38.531979 -0.720984 1.816735 0.068244 -0.014083 244787.000000 0 0 1
26.790807 -24.206513 -8.977356 37.206122 -0.734766 1.814488 0.067881 -0.023112 451220.000000 0 0 1
26.021907 -23.672013 -10.265756 36.645457 -0.738146 1.854733 0.100475 -0.027331 -174564.000000 0 0 1
25.518607 -24.568013 -11.176556 37.144339 -0.766421 1.876428 0.075557 -0.020123 316955.000000 0 0 1
24.675007 -23.909613 -12.129956 36.437088 -0.769646 1.910175 0.091395 -0.015421 581899.000000 0 0 1
23.873907 -24.992313 -12.985856 36.921695 -0.808281 1.930197 0.099505 -0.027948 147645.000000 0 0 1
24.682207 -25.850413 -13.722356 38.285222 -0.808512 1.937376 0.086553 -0.027981 -38852.500000 0 0 1
23.962907 -27.065113 -13.986456 38.760317 -0.846118 1.939970 0.103280 -0.009886 -28474.900000 0 0 1
24.655907 -28.288213 -14.623156 40.273731 -0.853897 1.942383 0.091368 -0.018710 -398974.000000 0 0 1
24.838607 -28.267413 -16.036256 40.904333 -0.849874 1.973648 0.099784 -0.019496 392678.000000 0 0 1
25.213907 -29.596813 -16.475356 42.227358 -0.865193 1.971600 0.086430 -0.019175 -427506.000000 0 0 1
25.058207 -29.801713 -17.977756 42.886542 -0.871649 2.003353 0.093492 -0.021544 -25852.500000 0 0 1
23.723707 -29.843313 -18.439356 42.349113 -0.899147 2.021293 0.094027 -0.019332 -79013.300000 0 0 1
23.660907 -29.652413 -19.813356 42.798051 -0.897311 2.052117 0.077642 -0.010528 -7450.650000 0 0 1
22.204307 -29.480513 -20.289356 42.116384 -0.925259 2.073441 0.073451 -0.005862 -16211.200000 0 0 1
22.044507 -29.400313 -21.672656 42.661958 -0.927420 2.103668 0.055649 0.000599 354035.000000 0 0 1
20.664907 -29.511613 -22.006756 42.216951 -0.959916 2.119144 0.074750 -0.012950 140452.000000 0 0 1
20.539207 -29.660913 -23.533256 43.074852 -0.965144 2.148777 0.066051 -0.010505 -168757.000000 0 0 1
21.127107 -28.585913 -24.260456 43.035785 -0.934325 2.169688 0.074018 -0.015966 439412.000000 0 0 1
21.332507 -28.937513 -25.629806 44.151358 -0.935543 2.190137 0.067161 -0.014484 -436826.000000 0 0 1
21.778707 -27.734013 -26.551306 44.141357 -0.905101 2.216182 0.075161 -0.021688 81581.400000 0 0 1
20.860407 -26.667213 -26.664086 43.096059 -0.906973 2.237900 0.118553 -0.032537 -153906.000000 0 0 1
19.699907 -26.905213 -27.419226 43.171643 -0.938787 2.258962 0.122551 -0.036926 -224938.000000 0 0 1
18.827307 -25.644913 -27.640756 42.144281 -0.937514 2.286118 0.116478 -0.036616 -1751.130000 0 0 1
17.991107 -25.298413 -26.546256 40.845971 -0.952623 2.278264 0.094024 -0.025703 -33970.900000 0 0 1
17.297007 -24.100413 -26.801176 39.978987 -0.948286 2.305519 0.081053 -0.016236 -257390.000000 0 0 1
16.084607 -23.862013 -25.909676 38.722365 -0.977688 2.303812 0.076855 -0.012744 -928372.000000 0 0 1
14.915407 -24.565913 -26.237006 38.914443 -1.025130 2.310708 0.105831 -0.027087 1059000.000000 0 0 1
13.689607 -24.066913 -25.595116 37.705856 -1.053623 2.316937 0.075531 -0.020659 1650540.000000 0 0 1
13.598207 -24.408413 -24.079356 36.884919 -1.062510 2.282103 0.073447 -0.019143 -927887.000000 0 0 1
14.546807 -23.656713 -23.389156 36.308432 -1.019484 2.270747 0.047406 -0.012878 -670870.000000 0 0 1
14.709307 -24.025313 -22.044156 35.770437 -1.021424 2.234791 0.056474 -0.017904 790773.000000 0 0 1
16.022007 -23.356313 -21.493256 35.555338 -0.969541 2.219936 0.038400 -0.017313 568442.000000 0 0 1
15.854307 -22.015413 -21.167956 34.411042 -0.946677 2.233373 0.022616 -0.012276 348606.000000 0 0 1
17.083707 -21.369413 -20.806756 34.371877 -0.896393 2.220992 0.037347 -0.010990 73161.300000 0 0 1
16.942707 -19.928513 -20.201356 33.049897 -0.866201 2.228420 0.065165 -0.007981 64387.100000 0 0 1
16.358707 -19.868113 -18.942756 31.955863 -0.881970 2.205301 0.060058 -0.003566 390780.000000 0 0 1
14.941707 -20.043513 -18.904556 31.342930 -0.930205 2.218244 0.052460 -0.001581 82306.300000 0 0 1
14.375607 -20.031313 -17.503356 30.237047 -0.948318 2.188140 0.062391 -0.007031 -239058.000000 0 0 1
14.174507 -18.717013 -16.999356 28.986571 -0.922636 2.197473 0.084267 -0.013241 147877.000000 0 0 1
13.852907 -18.752113 -15.610956 28.057917 -0.934542 2.160823 0.078360 -0.024350 -126271.000000 0 0 1
13.654707 -17.393213 -14.913556 26.671877 -0.905232 2.164155 0.096499 -0.027743 -341047.000000 0 0 1
12.479307 -16.632913 -15.043056 25.664770 -0.927117 2.197078 0.099863 -0.039034 -139738.000000 0 0 1
12.630807 -15.330613 -14.514956 24.601807 -0.881654 2.201850 0.091747 -0.042757 38463.700000 0 1 0
11.279307 -14.737613 -14.030056 23.265048 -0.917549 2.218119 0.093326 -0.038427 -11291.500000 0 1 0
10.535207 -14.304413 -15.153956 23.350571 -0.935991 2.277034 0.111031 -0.029546 -362689.000000 0 1 0
9.390707 -13.584413 -14.786956 22.166996 -0.965943 2.301066 0.104690 -0.036288 118219.000000 0 1 0
8.483307 -13.096613 -15.980756 22.335450 -0.996006 2.368119 0.074675 -0.021705 173270.000000 0 1 0
8.841607 -11.978913 -16.817756 22.461195 -0.934956 2.416966 0.071712 -0.015349 -586642.000000 0 1 0
9.984507 -12.185013 -17.592656 23.614962 -0.884332 2.411300 0.101033 -0.015379 -388486.000000 0 1 0
10.378807 -11.046613 -18.532856 23.941889 -0.816557 2.456052 0.102520 -0.014272 -409699.000000 0 1 0
9.457907 -10.919313 -19.583256 24.334899 -0.856993 2.506033 0.095154 -0.017782 125797.000000 0 1 0
9.411707 -9.629213 -20.106356 24.198502 -0.796821 2.551506 0.079430 -0.025068 -148135.000000 0 1 0
9.262007 -9.707213 -21.663556 25.481845 -0.808864 2.587079 0.088128 -0.020568 390316.000000 0 0 1
10.312707 -10.379213 -22.370956 26.730874 -0.788612 2.562383 0.097431 -0.017490 -8013.850000 0 0 1
10.051907 -10.422513 -23.735156 27.803367 -0.803497 2.593806 0.095914 -0.010383 277196.000000 0 0 1
11.277307 -10.939513 -24.536056 29.135350 -0.770195 2.572037 0.104314 -0.006055 342769.000000 0 0 1
11.324907 -12.358713 -24.417056 29.617291 -0.829021 2.539971 0.087331 -0.005493 -462821.000000 0 0 1
12.468307 -12.900313 -25.019056 30.786846 -0.802426 2.519489 0.078641 -0.016276 -219148.000000 0 0 1
12.627507 -14.388313 -24.532656 31.117980 -0.850483 2.478960 0.060619 -0.010481 229179.000000 0 0 1
11.529407 -15.194213 -24.980356 31.429437 -0.921685 2.489487 0.046645 -0.012816 285281.000000 0 0 1
11.599907 -16.546313 -24.507956 31.764417 -0.959361 2.452076 0.034800 -0.006073 551227.000000 0 0 1
10.327907 -17.338913 -24.957556 32.096466 -1.033582 2.461604 0.030047 -0.009666 565331.000000 0 0 1
10.336407 -17.968813 -26.228456 33.431294 -1.048781 2.472763 0.031506 -0.019010 229056.000000 0 0 1
9.098707 -18.626113 -26.491416 33.637979 -1.116397 2.477611 0.035915 -0.022082 334759.000000 0 0 1
9.144607 -19.516513 -27.729906 35.120732 -1.132618 2.480887 0.047809 -0.022673 -109901.000000 0 0 1
10.097707 -20.553713 -27.610776 35.871629 -1.114146 2.449184 0.028729 -0.024239 90305.200000 0 0 1
10.036807 -21.441813 -28.695766 37.201288 -1.132997 2.451779 0.036704 -0.026385 -1079.950000 0 0 1
10.998707 -22.651913 -28.610226 38.113327 -1.118773 2.419860 0.040241 -0.014410 -133950.000000 0 0 1
11.032007 -23.505713 -29.790216 39.518106 -1.131982 2.424679 0.047670 -0.009203 175261.000000 0 0 1
11.700107 -24.767213 -29.581116 40.315627 -1.129469 2.394604 0.078198 -0.015251 -26059.400000 0 0 1
10.947707 -25.837413 -28.732426 40.161878 -1.170014 2.368015 0.079293 -0.018869 97644.600000 0 0 1
10.580907 -25.240213 -27.461886 38.770854 -1.173842 2.357901 0.083765 -0.026812 -250796.000000 0 0 1
10.246007 -26.176113 -26.473826 38.613896 -1.197703 2.326229 0.084388 -0.025592 155462.000000 0 0 1
9.364007 -25.613613 -25.367126 37.245575 -1.220303 2.320030 0.063816 -0.019370 -221523.000000 0 0 1
10.086707 -24.640613 -24.685456 36.308032 -1.182253 2.318409 0.060780 -0.016693 -318981.000000 0 0 1
9.526007 -23.351813 -24.755456 35.339561 -1.183469 2.346898 0.047059 -0.007306 -387843.000000 0 0 1
10.543607 -22.218713 -24.576156 34.768179 -1.127726 2.355842 0.048544 0.001163 -365113.000000 0 0 1
11.097207 -22.066713 -23.285756 33.945754 -1.104837 2.326732 0.057296 -0.005696 -647656.000000 0 0 1
12.064907 -21.096113 -23.388156 33.728531 -1.051293 2.337026 0.048702 -0.012299 -1036730.000000 0 0 1
12.773007 -20.807913 -22.105056 32.935580 -1.020253 2.306569 0.046878 -0.000277 235764.000000 0 0 1
11.912207 -20.194313 -21.074956 31.525620 -1.037852 2.302990 0.044704 0.001859 304754.000000 0 0 1
11.571607 -18.844113 -21.173556 30.615717 -1.020095 2.334486 0.037488 0.000528 55943.600000 0 0 1
12.591707 -17.697613 -20.850056 30.107830 -0.952399 2.335763 0.051202 -0.005470 1015300.000000 0 0 1
13.708007 -17.701513 -21.778556 31.233932 -0.911863 2.342381 0.049349 -0.001894 701417.000000 0 0 1
14.562507 -16.580813 -21.521856 30.824994 -0.850115 2.343669 0.067652 -0.006371 107439.000000 0 0 1
15.741807 -16.444213 -22.475756 31.990252 -0.807218 2.349815 0.054493 -0.001533 193612.000000 0 0 1
16.983407 -17.019013 -22.078356 32.642560 -0.786445 2.313616 0.059722 -0.000898 1006040.000000 0 0 1
18.051807 -16.715813 -23.000656 33.679612 -0.746991 2.322556 0.079190 0.001294 1341250.000000 0 0 1
19.475207 -17.034413 -22.415256 34.233004 -0.718644 2.284694 0.079280 -0.001630 604235.000000 0 0 1
19.734907 -18.400913 -22.228956 34.959786 -0.750432 2.259897 0.077763 -0.004836 -242168.000000 0 0 1
21.049307 -18.622013 -21.791756 35.563089 -0.724289 2.230349 0.071447 -0.010081 -77361.000000 0 0 1
21.348607 -20.118813 -21.617156 36.439416 -0.755750 2.205868 0.094918 -0.016217 -320628.000000 0 0 1
20.629007 -20.713013 -20.588156 35.755517 -0.787430 2.184383 0.081576 -0.020670 33773.600000 0 0 1
21.010707 -22.073213 -20.466356 36.708967 -0.810054 2.162204 0.108302 -0.024451 -235980.000000 0 0 1
-17.001676 13.156010 28.996033 36.095811 -0.658564 0.637968 0.100875 -0.022732 -110109.000000 0 0 1
-18.083576 13.712010 28.258243 36.243114 -0.648765 0.676632 0.102143 -0.028639 71965.400000 0 0 1
-18.025276 13.435610 26.873823 35.037531 -0.640535 0.696642 0.104041 -0.028067 53539.700000 0 0 1
-19.198376 14.080510 26.114483 35.338430 -0.632806 0.739237 0.108425 -0.023693 -54648.200000 0 0 1
-19.277976 15.509210 26.328063 36.129529 -0.677481 0.754355 0.110811 -0.024145 604295.000000 0 0 1
-20.341676 16.175010 25.600013 36.479795 -0.671786 0.792933 0.114558 -0.025948 283252.000000 0 0 1
-20.304076 17.723710 25.877813 37.363708 -0.717647 0.805720 0.111204 -0.020932 -130303.000000 0 0 1
-19.128576 18.301510 25.398183 36.686720 -0.763305 0.806126 0.062213 -0.022194 107935.000000 0 0 1
-18.032876 18.257310 26.320603 36.759872 -0.791583 0.772720 0.046698 -0.012071 -714160.000000 0 0 1
-16.825676 19.058310 25.935823 36.317895 -0.847536 0.775411 0.059275 -0.016307 -782512.000000 0 0 1
-17.001276 20.470010 25.896623 37.130847 -0.877706 0.798974 0.069505 -0.023823 110534.000000 0 0 1
-15.777876 21.087510 25.551963 36.695058 -0.928442 0.800521 0.086784 -0.037206 -37315.500000 0 0 1
-15.918476 22.548510 25.156523 37.345467 -0.956078 0.831705 0.081815 -0.036967 -123589.000000 0 0 1
-15.842876 23.341110 26.313963 38.577569 -0.974472 0.820159 0.075645 -0.032848 133897.000000 0 0 1
-15.907976 24.667710 25.916793 39.156606 -0.998021 0.847479 0.071171 -0.037909 -161101.000000 0 0 1
-15.384776 25.685410 26.983873 40.305844 -1.031135 0.837291 0.045560 -0.018194 106263.000000 0 0 1
-13.995076 25.934010 26.987173 39.959262 -1.075940 0.829334 0.055961 -0.027712 -107307.000000 0 0 1
-13.591976 26.730710 28.101033 41.096725 -1.100389 0.817869 0.072230 -0.017115 1492470.000000 0 0 1
-12.006676 26.763510 28.235683 40.714857 -1.149090 0.804463 0.091928 -0.027067 1290120.000000 0 0 1
-11.425576 27.538910 27.191623 40.352444 -1.177521 0.831385 0.075536 -0.025583 -912379.000000 0 0 1
-10.049176 27.428510 27.295343 39.979306 -1.219607 0.819295 0.067389 -0.014990 -819067.000000 0 0 1
-9.197476 27.791910 26.074043 39.202546 -1.251201 0.843154 0.068659 -0.016844 1013410.000000 0 0 1
-7.771876 27.830710 26.291203 39.066327 -1.298478 0.832554 0.067095 -0.013814 1340780.000000 0 0 1
-7.072076 28.440010 25.190613 38.644734 -1.327073 0.860773 0.083923 -0.020438 793774.000000 0 0 1
-5.542376 28.121410 25.252063 38.199455 -1.376203 0.848568 0.073350 -0.024799 240078.000000 0 0 1
-4.789476 28.912010 26.146313 39.274332 -1.406630 0.842317 0.095751 -0.026697 712495.000000 0 0 1
-3.381176 28.969710 25.925473 39.023155 -1.454608 0.844157 0.080752 -0.019782 859657.000000 0 0 1
-2.773276 29.697010 24.667813 38.705355 -1.477681 0.879777 0.081873 -0.023719 -526711.000000 0 0 1
-2.955076 29.105910 23.409973 37.468832 -1.469615 0.895940 0.080739 -0.020388 -149559.000000 0 0 1
-2.805576 30.066510 22.416783 37.608224 -1.477753 0.932210 0.079337 -0.022499 -359945.000000 0 0 1
-3.246276 29.585610 21.043483 36.450992 -1.461509 0.955367 0.063987 -0.017670 55357.000000 0 0 1
-4.630876 29.487210 20.863983 36.417666 -1.415022 0.960746 0.069255 -0.010992 -727909.000000 0 0 1
-5.298176 28.387610 21.338883 35.906476 -1.386282 0.934413 0.088682 -0.010436 -237000.000000 0 0 1
-6.768776 28.356310 20.821283 35.824887 -1.336477 0.950599 0.064628 -0.015832 -76088.600000 0 0 1
-6.848476 28.261210 19.408383 34.961164 -1.333052 0.982264 0.066185 -0.015247 -303099.000000 0 0 1
-7.813576 27.362910 18.963383 34.196356 -1.292645 0.982981 0.050819 -0.016917 -906337.000000 0 0 1
-7.249376 25.942010 18.581383 32.723221 -1.298302 0.966923 0.050270 -0.022154 983944.000000 0 0 1
-6.229176 25.855310 17.550383 31.864018 -1.334377 0.987486 0.059122 -0.023634 736946.000000 0 0 1
-4.965376 26.352810 17.930883 32.258986 -1.384561 0.981421 0.077647 -0.019063 -499609.000000 0 0 1
-3.889176 26.340710 16.820183 31.494083 -1.424207 1.007384 0.072044 -0.022381 285849.000000 0 0 1
-3.314276 25.077810 16.392983 30.143173 -1.439398 0.995793 0.083393 -0.030544 -6085.720000 0 0 1
-2.607176 25.386710 15.214783 29.711480 -1.468457 1.033187 0.091798 -0.046677 -383204.000000 0 0 1
-1.887976 24.207110 14.603783 28.334063 -1.492961 1.029305 0.092348 -0.041162 -1041090.000000 0 0 1
-0.727676 23.920110 15.276883 28.391625 -1.540385 1.002642 0.081520 -0.037229 -1044110.000000 0 0 1
-0.032076 22.813210 14.802083 27.194582 -1.569390 0.995239 0.066834 -0.040685 226198.000000 0 0 1
1.369524 22.519710 15.398583 27.315368 1.510057 0.971897 0.053803 -0.034765 495677.000000 0 0 1
2.277124 23.604010 15.225283 28.180558 1.474622 1.000031 0.064855 -0.040318 56145.700000 0 0 1
3.540124 23.233610 15.754283 28.293649 1.419589 0.980252 0.073798 -0.036136 -134131.000000 0 0 1
4.638924 24.242110 15.386183 29.084947 1.381724 1.013365 0.073351 -0.032994 18315.100000 0 0 1
5.909824 23.706710 15.691983 29.037432 1.326487 0.999878 0.081289 -0.027003 -518075.000000 0 0 1
6.986424 24.580110 15.517383 29.896173 1.293869 1.025066 0.105800 -0.026388 -2238.270000 0 0 1
8.330424 23.789010 15.677683 29.683375 1.233962 1.014360 0.129521 -0.026610 401823.000000 0 0 1
8.851124 23.327410 14.464083 28.839559 1.208147 1.045423 0.116091 -0.021804 80212.200000 0 0 1
9.600424 24.220010 13.642783 29.409226 1.193411 1.088410 0.133154 -0.029652 -323666.000000 0 0 1
10.044224 23.633710 12.300483 28.473507 1.168929 1.124090 0.116181 -0.021323 89946.100000 0 0 1
11.106424 22.721910 12.597683 28.254902 1.116150 1.108663 0.118269 -0.021280 137898.000000 0 0 1
11.582024 22.027510 11.443483 27.391747 1.086724 1.139806 0.104325 -0.024550 1344730.000000 0 0 1
12.994124 21.335210 11.761283 27.610980 1.023752 1.130769 0.113938 -0.033370 1429870.000000 0 0 1
12.963424 20.226410 12.639883 27.146357 1.000834 1.086461 0.101174 -0.022916 -774890.000000 0 0 1
14.264624 19.744010 12.671483 27.456728 0.945143 1.091103 0.086706 -0.021216 -623616.000000 0 0 1
14.639724 19.349010 14.112083 28.068784 0.923076 1.043998 0.091120 -0.025182 -43440.400000 0 0 1
15.875124 18.664910 14.244283 28.342513 0.865993 1.044220 0.075525 -0.018843 257452.000000 0 0 1
16.062224 18.150210 15.559683 28.801544 0.846353 1.000077 0.065308 -0.024200 330972.000000 0 0 1
17.466424 17.477810 15.595883 29.219538 0.785724 1.007769 0.051434 -0.023016 311760.000000 0 0 1
17.686824 16.747110 16.764983 29.569479 0.758115 0.967975 0.053114 -0.027103 37699.900000 0 0 1
18.863524 15.973810 16.633383 29.793700 0.702639 0.978479 0.048231 -0.025713 217709.000000 0 0 1
19.489924 15.613910 18.032083 30.802717 0.675428 0.945416 0.055014 -0.029690 282968.000000 0 0 1
20.109124 16.717610 18.778483 32.194515 0.693563 0.948033 0.076010 -0.020542 861822.000000 0 0 1
19.145124 17.623310 19.354183 32.429944 0.744033 0.931290 0.062575 -0.018543 -9389.200000 0 0 1
19.684724 18.532510 20.414883 33.877865 0.755258 0.924038 0.070844 -0.019941 -337107.000000 0 0 1
18.760324 19.483210 20.901983 34.182424 0.804298 0.912862 0.070616 -0.029479 77356.500000 0 0 1
19.419824 20.401310 21.720183 35.568376 0.810041 0.913903 0.079322 -0.019005 476468.000000 0 0 1
18.417824 21.426310 22.375183 36.040974 0.860762 0.901000 0.082935 -0.019187 341844.000000 0 0 1
17.499024 20.925710 23.292353 35.869693 0.874342 0.864053 0.088625 -0.017186 325163.000000 0 0 1
16.774624 21.929910 24.042403 36.610738 0.917815 0.854357 0.090287 -0.023443 370103.000000 0 0 1
16.028124 21.427410 25.273263 36.807234 0.928564 0.813941 0.107121 -0.022482 128614.000000 0 0 1
14.956524 20.562310 24.986073 35.648423 0.941933 0.794134 0.096461 -0.025038 -310726.000000 0 0 1
14.081724 20.401710 26.066403 35.971963 0.966662 0.760297 0.082855 -0.022976 67591.300000 0 0 1
13.124224 19.179910 26.015823 34.884628 0.970706 0.729110 0.079032 -0.025586 125023.000000 0 0 1
13.689324 17.867610 26.060933 34.435757 0.917037 0.712395 0.075353 -0.032504 -88506.900000 0 0 1
14.456624 17.406110 24.973663 33.699414 0.877704 0.736132 0.090182 -0.033637 -453132.000000 0 0 1
13.689824 17.179910 23.631743 32.264840 0.897979 0.748912 0.105634 -0.030679 -583834.000000 0 0 1
13.311624 18.264010 22.786163 32.093343 0.940973 0.781303 0.101739 -0.026507 -391217.000000 0 0 1
14.247224 19.102710 22.145383 32.531753 0.929974 0.822036 0.091225 -0.024836 -117275.000000 0 0 1
15.042824 18.378410 21.030683 31.722896 0.884873 0.846045 0.094523 -0.024776 94865.400000 0 0 1
14.129624 17.788110 20.107583 30.337733 0.899522 0.846256 0.093166 -0.018321 173881.000000 0 0 1
14.755824 16.961010 19.170283 29.545050 0.854814 0.864725 0.077928 -0.013450 -386876.000000 0 0 1
13.806924 16.164610 18.280983 28.037834 0.863901 0.860562 0.075249 -0.005079 60401.600000 0 0 1
13.068924 17.010710 17.398583 27.620133 0.915701 0.889341 0.090594 -0.016058 41929.600000 0 0 1
12.128024 16.311710 16.643583 26.271081 0.931458 0.884686 0.072717 -0.015592 79132.400000 0 0 1
11.419324 16.930110 15.421383 25.590011 0.977392 0.924000 0.081162 -0.012927 537933.000000 0 0 1
10.511324 18.021010 15.534083 26.010623 1.042760 0.930765 0.094035 -0.017984 413370.000000 0 0 1
10.134824 18.611210 14.269283 25.548077 1.072143 0.978188 0.088647 -0.015728 689090.000000 0 0 1
8.999924 19.709810 14.209683 25.911201 1.142450 0.990348 0.101458 -0.017704 -76835.900000 0 0 1
7.728324 19.253310 14.500383 25.311619 1.189082 0.960788 0.079126 -0.018442 -753529.000000 0 0 1
6.906924 20.356010 14.902583 26.156448 1.243680 0.964597 0.079948 -0.019628 -608950.000000 0 0 1
5.652824 19.936910 15.594683 25.935091 1.294512 0.925673 0.072558 -0.022977 -565064.000000 0 0 1
4.595024 19.422010 14.773483 24.831120 1.338480 0.933582 0.063708 -0.021543 375079.000000 0 1 0
3.519724 19.063710 15.638583 24.907405 1.388223 0.891984 0.062176 -0.022702 1123920.000000 0 1 0
2.259724 18.467910 14.883483 23.826207 1.449042 0.896089 0.041959 -0.022377 1106830.000000 0 1 0
1.556324 19.412710 14.038983 24.007676 1.490797 0.946199 0.039997 -0.029895 -41583.800000 0 1 0
0.592324 18.666610 13.321783 22.940425 1.539075 0.951193 0.027656 -0.033061 82897.900000 0 1 0
-0.373976 19.547510 12.510583 23.211198 -1.551667 1.001560 0.031749 -0.039801 601151.000000 0 1 0
-1.603376 20.066710 13.017683 23.972980 -1.491063 0.996773 0.046745 -0.038790 303158.000000 0 1 0
-2.494976 20.430410 11.985783 23.817758 -1.449277 1.043465 0.047954 -0.040757 759100.000000 0 1 0
-3.651476 21.388510 12.440283 25.011244 -1.401705 1.050211 0.047199 -0.031558 1119290.000000 0 0 1
-4.552376 20.864810 13.434683 25.230045 -1.355978 1.009260 0.052766 -0.029876 252212.000000 0 0 1
-5.628576 21.741510 13.710383 26.312521 -1.317472 1.022705 0.056246 -0.020667 -18787.900000 0 0 1
-6.523276 21.185210 14.819583 26.664327 -1.272093 0.981492 0.039675 -0.022609 -711242.000000 0 0 1
-7.238276 19.999110 14.503483 25.743117 -1.223533 0.972310 0.032611 -0.020279 -154414.000000 0 0 1
-7.549176 19.287310 15.696483 25.987882 -1.197720 0.922295 0.026198 -0.004173 77848.700000 0 0 1
-8.771276 19.725710 16.534883 27.192670 -1.152390 0.917177 0.021025 -0.000036 824228.000000 0 0 1
-10.032576 19.629410 15.829083 27.139017 -1.098309 0.948061 0.006534 -0.011240 210122.000000 0 0 1
-11.086776 19.520310 16.741983 28.004520 -1.054268 0.930003 -0.005447 -0.001731 -455454.000000 0 0 1
-12.424976 19.332710 16.027383 28.018043 -0.999576 0.961808 0.011678 -0.010350 -292384.000000 0 0 1
-13.057276 20.469110 15.454183 28.780353 -1.002973 1.003955 0.003889 0.004964 222954.000000 0 0 1
-13.963376 20.073210 14.427283 28.391128 -0.963014 1.037747 0.001741 -0.001817 471730.000000 0 0 1
-15.107076 21.098710 14.158283 29.560723 -0.949400 1.071331 0.011784 -0.014004 413143.000000 0 0 1
-16.220576 21.108510 15.049483 30.580439 -0.915599 1.056264 0.008243 -0.016461 678107.000000 0 0 1
-17.124476 22.163910 14.604183 31.587478 -0.912969 1.090163 0.030057 -0.025450 329707.000000 0 0 1
-18.490676 22.092510 15.302683 32.621408 -0.873918 1.082526 0.088146 -0.027254 -632510.000000 0 0 1
-19.286676 20.970010 14.862383 32.134213 -0.827189 1.089973 0.079429 -0.028545 1382870.000000 0 0 1
-20.555176 20.764310 15.564283 33.104664 -0.790460 1.081331 0.104003 -0.032520 1843690.000000 0 0 1
-21.610976 21.916210 15.598183 34.505911 -0.792411 1.101741 0.100824 -0.029527 -623732.000000 0 0 1
-22.335376 21.938110 14.355683 34.441768 -0.776425 1.140863 0.123182 -0.035786 365983.000000 0 0 1
-23.382676 22.881210 14.414183 35.750077 -0.774559 1.155793 0.129429 -0.042407 -44837.200000 0 0 1
-22.966976 24.261110 13.795283 36.144063 -0.812793 1.179189 0.118382 -0.034700 177489.000000 0 0 1
-21.902676 24.875810 14.528683 36.188614 -0.848871 1.157674 0.063553 -0.033064 306560.000000 0 0 1
-21.473276 26.011910 13.817083 36.450417 -0.880689 1.182010 0.053544 -0.023050 -492644.000000 0 0 1
-20.042676 26.439410 14.171183 36.077330 -0.922156 1.167122 0.034034 -0.018872 -539843.000000 0 0 1
-19.084376 25.756110 13.423483 34.753137 -0.933103 1.174231 0.023270 -0.009799 -1082890.000000 0 0 1
-17.818776 26.287910 13.666283 34.573550 -0.975104 1.164422 -0.009620 -0.009591 -417714.000000 0 0 1
-16.808176 25.671310 12.649583 33.189500 -0.991092 1.179776 -0.002890 -0.008594 -82759.800000 0 0 1
-15.477276 26.054710 12.881183 32.928998 -1.034778 1.168882 0.006478 -0.007044 -374496.000000 0 0 1
-14.631676 25.675810 11.836183 31.834391 -1.052832 1.189844 0.012273 0.000644 -197326.000000 0 0 1
-13.218076 26.264910 12.034783 31.771041 -1.104544 1.182300 0.017087 0.001255 -816123.000000 0 0 1
-12.205776 25.460110 11.472483 30.476484 -1.123758 1.184849 0.026744 0.001208 -197438.000000 0 0 1
-10.928976 25.955010 11.785383 30.528681 -1.172256 1.174458 0.052113 -0.013832 -56458.800000 0 0 1
-10.377576 27.223710 11.085383 31.172267 -1.206604 1.207222 0.064289 -0.024080 -318774.000000 0 0 1
-9.114276 27.700710 11.533083 31.359391 -1.252927 1.194185 0.095475 -0.038080 505066.000000 0 0 1
-8.750776 28.942710 10.948983 32.157998 -1.277187 1.223375 0.103440 -0.041689 290014.000000 0 0 1
-7.539176 29.614210 11.672083 32.712049 -1.321512 1.205942 0.095466 -0.041446 868428.000000 0 0 1
-6.262276 29.028610 11.464083 31.832398 -1.358325 1.202380 0.106325 -0.043301 99293.300000 0 0 1
-5.235376 29.801910 12.031683 32.562623 -1.396898 1.192332 0.121874 -0.053136 -67911.200000 0 0 1
-3.803476 29.301810 11.759083 31.801550 -1.441715 1.192041 0.114702 -0.059307 -47879.700000 0 0 1
-3.317576 29.482710 10.458683 31.458236 -1.458742 1.231883 0.128786 -0.058466 -1118050.000000 0 0 1
-1.947176 29.385610 10.367283 31.221566 -1.504630 1.232315 0.110065 -0.051080 -872880.000000 0 0 1
-1.513476 30.036510 9.006883 31.394371 -1.520451 1.279812 0.106708 -0.051118 72866.400000 0 0 1
-1.881476 29.199910 7.912283 30.311367 -1.506451 1.306704 0.123841 -0.048517 147932.000000 0 0 1
-1.580276 29.827210 6.719483 30.615539 -1.517865 1.349515 0.129018 -0.045008 -169988.000000 0 0 1
12.450924 -33.586913 -26.828366 44.753407 -1.215794 2.213636 0.145249 -0.058979 -70722.700000 0 0 1
12.844724 -33.312313 -25.504396 43.876774 -1.202778 2.191089 0.144705 -0.053965 19935.100000 0 0 1
14.118324 -32.717613 -25.430216 43.777450 -1.163416 2.190627 0.144816 -0.042389 -408690.000000 0 0 1
14.634524 -32.654413 -23.987956 43.080181 -1.149470 2.161350 0.122806 -0.036551 -636829.000000 0 0 1
14.028924 -31.744813 -23.108056 41.695636 -1.154675 2.158208 0.145628 -0.043441 -2985.640000 0 0 1
14.432824 -31.892413 -21.758856 41.217474 -1.145826 2.126927 0.113549 -0.032545 -271654.000000 0 0 1
15.861824 -31.471013 -21.370856 41.215720 -1.103943 2.115906 0.075300 -0.019110 334951.000000 0 0 1
16.813624 -32.498813 -21.704056 42.543352 -1.093356 2.106171 0.088471 -0.020584 395013.000000 0 0 1
18.153324 -32.143113 -21.401556 42.670241 -1.056687 2.096194 0.071421 -0.021856 352235.000000 0 0 1
19.110824 -33.367413 -21.566756 44.087785 -1.050663 2.081943 0.043124 -0.007950 83105.100000 0 0 1
20.498324 -33.091313 -21.466456 44.452503 -1.016200 2.074769 0.039137 0.004508 43403.100000 0 0 1
21.053824 33.319310 -21.800756 45.041236 1.007265 2.076037 0.026908 0.004656 -1105200.000000 0 0 1
22.539224 33.313110 -21.495556 45.605250 0.975957 2.061605 0.045128 0.009847 -751127.000000 0 0 1
23.320724 -33.376713 -22.198656 46.375009 -0.960935 2.069944 0.035322 0.011553 43897.500000 0 0 1
24.664424 -33.427713 -21.780056 46.905401 -0.935121 2.053686 0.019836 0.013873 445390.000000 0 0 1
25.694124 -32.836213 -22.814056 47.527739 -0.906822 2.071469 0.035249 0.011898 343546.000000 0 0 1
25.781924 -31.419713 -22.967756 46.684299 -0.883641 2.085159 0.041432 0.002719 53899.300000 0 0 1
24.714524 -30.817013 -23.693456 46.063823 -0.894851 2.111059 0.030346 0.005809 203387.000000 0 0 1
24.541924 -29.290313 -23.491556 44.856233 -0.873378 2.121994 0.051015 -0.008399 -242650.000000 0 0 1
25.464424 -28.438913 -24.154656 45.173621 -0.840524 2.134957 0.063892 -0.014461 -101830.000000 0 0 1
25.429424 -27.087513 -23.737556 44.089233 -0.816960 2.139331 0.082181 -0.009788 377545.000000 0 0 1
26.023124 -26.108613 -24.820656 44.440157 -0.787038 2.163395 0.079312 -0.015933 719322.000000 0 0 1
25.113024 -25.937713 -25.896906 44.430605 -0.801551 2.193043 0.072671 -0.017893 113067.000000 0 0 1
25.866324 -25.687413 -27.085546 45.415159 -0.781928 2.209803 0.072909 -0.021911 277790.000000 0 0 1
24.909324 -25.532413 -28.335246 45.555073 -0.797750 2.242090 0.070019 -0.021361 664336.000000 0 0 1
24.124824 -24.366513 -28.266616 44.437998 -0.790382 2.260218 0.093149 -0.023981 290562.000000 0 0 1
22.927124 -24.458813 -27.477056 43.345993 -0.817711 2.257383 0.086286 -0.018973 60843.700000 0 0 1
22.104324 -23.148113 -27.483496 42.187425 -0.808460 2.280306 0.095573 -0.019800 -100959.000000 0 0 1
21.495924 -22.740913 -28.682566 42.448951 -0.813534 2.312704 0.115171 -0.025761 48137.300000 0 0 1
20.809024 -21.540013 -28.453346 41.310780 -0.802657 2.330578 0.108059 -0.011210 182650.000000 0 0 1
19.871724 -21.037313 -29.648096 41.430225 -0.813883 2.368301 0.118148 -0.019544 317973.000000 0 0 1
18.626624 -21.683413 -29.574436 41.131117 -0.861085 2.373199 0.108442 -0.025913 -646435.000000 0 0 1
17.595224 -20.843813 -30.014806 40.557922 -0.869711 2.403938 0.091733 -0.024062 -217856.000000 0 0 1
16.252524 -21.593113 -29.820856 40.245379 -0.925588 2.405319 0.079557 -0.027782 -257668.000000 0 0 1
16.230024 -22.769913 -30.635666 41.478026 -0.951542 2.401787 0.080543 -0.023416 -245370.000000 0 0 1
15.346924 -23.713113 -30.146736 41.311808 -0.996398 2.388733 0.090266 -0.026208 -552468.000000 0 0 1
15.496224 -25.061113 -30.828916 42.645215 -1.017002 2.378810 0.124589 -0.031585 -467888.000000 0 0 1
14.638224 -26.043513 -30.382026 42.609971 -1.058735 2.364601 0.116079 -0.030015 -471247.000000 0 0 1
14.981724 -27.343213 -30.779986 43.812223 -1.069556 2.349761 0.167044 -0.031567 -51685.800000 0 0 1
14.427224 -28.436013 -29.860536 43.685275 -1.101280 2.323395 0.134752 -0.035946 -69474.900000 0 0 1
15.005224 -28.662913 -28.559446 43.155084 -1.088521 2.293995 0.162003 -0.051825 -35470.300000 0 0 1
14.974024 -27.550413 -27.589726 41.766489 -1.072947 2.292375 0.127017 -0.044593 -176243.000000 0 0 1
15.926424 -27.831113 -26.418776 41.547245 -1.051029 2.259936 0.092080 -0.021888 -301220.000000 0 0 1
15.575624 -28.898113 -25.531796 41.588142 -1.076450 2.231814 0.107443 -0.028212 -129996.000000 0 0 1
16.301524 -28.923913 -24.327656 41.160263 -1.057571 2.203153 0.107378 -0.030968 -692702.000000 0 0 1
15.820424 -27.900113 -23.194256 39.581253 -1.054966 2.196899 0.090635 -0.026743 1022350.000000 0 0 1
14.638024 -28.266613 -22.486556 38.973303 -1.092966 2.185814 0.097363 -0.033119 738552.000000 0 0 1
13.393524 -28.348413 -23.175956 38.989023 -1.129421 2.207344 0.113646 -0.031847 125434.000000 0 0 1
12.183724 -28.216113 -22.213556 37.921421 -1.163180 2.196637 0.082228 -0.024891 115826.000000 0 0 1
11.970924 -26.829413 -21.930856 36.661735 -1.151118 2.212043 0.063378 -0.022236 -44148.900000 0 0 1
10.809724 -26.593413 -21.169556 35.668050 -1.184715 2.206217 0.071903 -0.020028 -179202.000000 0 0 1
10.569024 -25.066913 -21.069656 34.409080 -1.171781 2.229799 0.071064 -0.017016 197302.000000 0 0 1
11.301024 -24.373713 -20.054656 33.525814 -1.136644 2.212031 0.060064 -0.013747 243381.000000 0 0 1
10.832024 -23.043713 -20.012256 32.385735 -1.131383 2.236909 0.062697 -0.014583 -127345.000000 0 0 1
11.237024 -22.296613 -18.743856 31.220855 -1.103971 2.214752 0.064497 -0.014476 335053.000000 0 0 1
10.470124 -22.655613 -17.564156 30.518844 -1.137891 2.184034 0.085618 -0.022746 265715.000000 0 0 1
10.888324 -21.989213 -16.424956 29.527280 -1.111023 2.160679 0.086966 -0.023905 -252021.000000 0 0 1
10.243724 -22.442113 -15.105856 28.926963 -1.142591 2.120233 0.077703 -0.023042 -110803.000000 0 0 1
10.599024 -23.724213 -14.660556 29.834702 -1.150640 2.084484 0.090903 -0.018578 -207085.000000 0 0 1
9.840824 -24.238813 -13.605856 29.486966 -1.185133 2.050391 0.098743 -0.019820 -65901.800000 0 0 1
10.133724 -25.766213 -13.515556 30.810069 -1.196083 2.024918 0.105776 -0.018642 -245161.000000 0 0 1
11.296724 -26.035213 -12.796656 31.132020 -1.161410 1.994396 0.084321 -0.017220 -688895.000000 0 0 1
11.570624 -27.430413 -12.887856 32.440772 -1.171625 1.979340 0.091460 -0.017902 -602609.000000 0 0 1
12.930724 -27.917713 -12.353356 33.154301 -1.137042 1.952608 0.084736 -0.022289 267273.000000 0 0 1
14.110924 -27.491513 -13.026956 33.535101 -1.096579 1.969753 0.094144 -0.022545 356932.000000 0 0 1
14.273124 -27.853913 -14.393556 34.449049 -1.097256 2.001843 0.096168 -0.024808 -1127630.000000 0 0 1
15.508424 -27.195013 -14.983156 34.706986 -1.052526 2.017178 0.079766 -0.019797 153118.000000 0 0 1
16.756824 -27.761213 -14.605156 35.563839 -1.027730 1.993990 0.104985 -0.017683 22656.700000 0 0 1
17.845724 -27.149913 -15.258556 35.894444 -0.989304 2.009863 0.125338 -0.016446 -263647.000000 0 0 1
19.140924 -27.860913 -14.899056 36.940321 -0.968837 1.985947 0.120521 -0.019531 -428673.000000 0 0 1
19.393724 -28.939013 -15.729856 38.223178 -0.980380 1.994925 0.099451 -0.005954 593027.000000 0 0 1
20.783724 -29.287113 -15.866856 39.261371 -0.953620 1.986828 0.099736 -0.007897 1081270.000000 0 0 1
21.002724 -30.374513 -16.927856 40.623610 -0.965826 2.000608 0.084129 -0.015604 -131426.000000 0 0 1
20.541424 -31.659213 -16.530656 41.200952 -0.995245 1.983645 0.079023 0.000559 -96927.800000 0 0 1
20.972424 -32.661613 -17.436756 42.551897 -0.999986 1.993005 0.071444 -0.004343 113720.000000 0 0 1
20.644424 33.502310 -17.155756 42.929209 1.018544 1.981908 0.049566 -0.000479 -801045.000000 0 0 1
21.566024 32.934010 -16.348556 42.626491 0.991036 1.964412 0.056880 -0.006535 -706125.000000 0 0 1
21.314324 31.570310 -15.982056 41.308728 0.976952 1.968056 0.053192 -0.012804 78993.700000 0 0 1
22.255724 31.183310 -14.777556 41.062054 0.950931 1.938939 0.046196 -0.017786 1310770.000000 0 0 1
23.645724 31.043210 -15.167056 41.866941 0.919847 1.941496 0.042281 -0.014813 1878730.000000 0 0 1
24.591124 30.752210 -14.083056 41.818110 0.896266 1.914280 0.037441 -0.016244 900651.000000 0 0 1
24.333424 29.527010 -13.099356 40.441971 0.881528 1.900650 0.038149 -0.012391 -955717.000000 0 0 1
24.331524 28.295710 -13.807356 39.790870 0.860582 1.925165 0.049128 0.000161 102540.000000 0 0 1
24.109524 27.169410 -12.939356 38.559991 0.844999 1.913001 0.033151 -0.001500 -130910.000000 0 0 1
22.624924 27.057910 -12.551256 37.437304 0.874388 1.912678 0.041266 -0.006878 -357711.000000 0 0 1
21.762224 26.487310 -13.581656 36.873207 0.883017 1.948013 0.054393 -0.006625 2342500.000000 0 0 1
20.321124 26.634410 -13.340756 36.059890 0.919049 1.949763 0.072531 -0.005511 2204920.000000 0 0 1
19.753524 28.110510 -13.522456 36.922342 0.958254 1.945762 0.086889 -0.012733 -330680.000000 0 0 1
19.875524 28.632910 -14.812256 37.871928 0.964008 1.972638 0.079594 -0.009207 91381.300000 0 0 1
19.124424 28.009110 -15.863056 37.441827 0.971712 2.008292 0.074965 -0.002871 -313845.000000 0 0 1
19.077424 28.703210 -17.231956 38.532619 0.984195 2.034434 0.060819 -0.002554 -23744.500000 0 0 1
18.184224 29.801110 -17.355256 38.986884 1.022921 2.032145 0.060493 -0.003110 87036.900000 0 0 1
18.313724 30.424610 -18.649656 40.110586 1.028953 2.054381 0.048979 -0.003597 801342.000000 0 0 1
17.171524 31.495610 -19.000256 40.593650 1.071643 2.057890 0.051330 -0.000690 886535.000000 0 0 1
17.241924 32.666210 -18.182356 41.169932 1.085140 2.028224 0.061985 -0.012400 -224592.000000 0 0 1
16.265624 33.603210 -18.511856 41.670554 1.119990 2.031126 0.068522 -0.014512 -448199.000000 0 0 1
16.101724 -32.894313 -17.509456 40.594117 -1.115585 2.016763 0.081867 -0.011909 -156698.000000 0 0 1
15.135524 -32.025513 -18.014156 39.739494 -1.129301 2.041267 0.073513 -0.015208 -298363.000000 0 0 1
14.727724 -31.020013 -17.023356 38.326775 -1.127526 2.031037 0.084186 -0.018440 652282.000000 0 0 1
13.465624 -30.287613 -17.594156 37.526215 -1.152449 2.058784 0.072121 -0.023850 173054.000000 0 0 1
12.254224 -30.995313 -17.550056 37.668022 -1.194299 2.055464 0.091341 -0.023115 -574606.000000 0 0 1
11.227924 -30.115313 -17.925656 36.801188 -1.213929 2.079556 0.073969 -0.015453 -316492.000000 0 0 1
9.891924 -30.809513 -18.207856 37.129533 -1.260126 2.083331 0.086994 -0.027691 -1478020.000000 0 0 1
9.278124 -31.438013 -17.088556 36.965538 -1.283819 2.051365 0.095656 -0.026346 -58796.200000 0 0 1
8.331524 -32.400313 -17.521356 37.764963 -1.319106 2.053254 0.117152 -0.020906 223440.000000 0 0 1
6.962824 -31.753013 -17.917256 37.118227 -1.354932 2.074540 0.110079 -0.016295 -646280.000000 0 0 1
6.947024 -31.181913 -19.254356 37.300175 -1.351586 2.113205 0.098146 -0.020303 -239593.000000 0 0 1
6.914524 -32.059413 -20.398256 38.622603 -1.358372 2.127208 0.103268 -0.038521 -1107940.000000 0 0 1
7.301524 -31.424213 -21.718556 38.890732 -1.342494 2.163313 0.103962 -0.033635 2102350.000000 0 0 1
8.744724 -31.240513 -21.982356 39.187546 -1.297865 2.166332 0.096749 -0.032368 3034410.000000 0 0 1
9.644024 -32.419813 -21.920956 40.306076 -1.281659 2.145829 0.105029 -0.033091 429816.000000 0 0 1
9.566724 -33.451813 -23.048856 41.734826 -1.292246 2.155880 0.133259 -0.051867 775416.000000 0 0 1
8.347724 33.414410 -22.894456 41.356541 1.325983 2.157462 0.148520 -0.060254 896224.000000 0 0 1
8.224524 32.541810 -24.016256 41.272179 1.323243 2.191859 0.156462 -0.071364 -444104.000000 0 0 1
6.986324 31.626310 -23.980056 40.299818 1.353386 2.208113 0.155357 -0.074466 1254950.000000 0 0 1
5.684324 32.264810 -23.962456 40.589763 1.396409 2.202298 0.152495 -0.074862 1125010.000000 0 0 1
5.267924 32.846510 -22.748156 40.300408 1.411771 2.170581 0.114557 -0.068827 -682309.000000 0 0 1
4.052924 33.795910 -22.903456 41.026309 1.451443 2.163087 0.095893 -0.061123 57854.100000 0 0 1
2.835324 33.107310 -22.942856 40.379546 1.485364 2.175089 0.079434 -0.059257 83120.200000 0 0 1
1.702324 -33.703813 -23.135156 40.915527 -1.520331 2.171759 0.068419 -0.050655 608787.000000 0 0 1
0.318724 33.323510 -22.825156 40.392396 1.561232 2.171333 0.050157 -0.046402 149286.000000 0 0 1
0.093524 33.235610 -21.440356 39.551276 1.567982 2.143719 0.034342 -0.040537 458124.000000 0 0 1
-1.217376 32.798610 -21.067356 39.000825 -1.533697 2.141444 0.029973 -0.042430 339109.000000 0 0 1
-1.574676 33.038710 -19.552856 38.423303 -1.523171 2.104680 0.047288 -0.035436 236200.000000 0 0 1
-0.789576 32.311210 -18.586856 37.284165 -1.546365 2.092686 0.052928 -0.040813 135534.000000 0 0 1
-1.342176 32.376410 -17.302356 36.734247 -1.529365 2.061237 0.033730 -0.025502 -89570.800000 0 0 1
-0.511576 31.547910 -16.337756 35.531038 -1.554582 2.048585 0.025396 -0.018395 -104999.000000 0 0 1
0.755324 32.013210 -15.970756 35.783812 1.547207 2.033437 0.018786 -0.016050 -524028.000000 0 0 1
1.385924 31.012810 -15.209056 34.569214 1.526137 2.026350 0.029845 -0.007232 544444.000000 0 0 1
2.512624 31.602510 -14.299856 34.778123 1.491456 1.994538 0.058739 -0.020351 597459.000000 0 0 1
3.552124 32.346410 -14.918856 35.797767 1.461420 2.000668 0.064328 -0.025506 -211824.000000 0 0 1
4.516524 32.708010 -13.977356 35.854978 1.433578 1.971244 0.077981 -0.030575 323593.000000 0 0 1
5.883824 33.086210 -14.656756 36.662477 1.394803 1.982068 0.094405 -0.043209 687232.000000 0 0 1
6.567224 31.916110 -15.074356 35.902684 1.367864 2.004095 0.095680 -0.032687 -128154.000000 0 0 1
7.696024 32.172410 -15.906256 36.705609 1.335997 2.018999 0.093934 -0.013386 401600.000000 0 0 1
8.801224 31.119910 -15.787556 35.988294 1.295178 2.024932 0.078848 -0.028354 -188274.000000 0 0 1
9.357424 30.939710 -14.502456 35.428072 1.277102 1.992537 0.070371 -0.031906 -3360.950000 0 0 1
10.390224 29.957010 -14.449456 34.844885 1.236941 1.998387 0.075920 -0.032336 471308.000000 0 0 1
9.931724 28.487710 -14.173556 33.332844 1.235341 2.009993 0.076175 -0.030659 107812.000000 0 0 1
9.319424 27.769410 -15.263556 33.029804 1.247007 2.051175 0.088266 -0.035065 352017.000000 0 0 1
8.758824 26.538710 -14.714756 31.583923 1.252013 2.055441 0.070594 -0.023035 429544.000000 0 0 1
7.957224 25.614110 -15.739556 31.098773 1.269591 2.101471 0.081845 -0.018913 748086.000000 0 0 1
8.789624 24.941010 -16.682456 31.266849 1.231970 2.133590 0.087337 -0.017650 356905.000000 0 0 1
8.018824 23.932910 -17.349156 30.628075 1.247498 2.172983 0.076660 -0.014237 433917.000000 0 0 1
8.868224 23.348310 -18.460056 31.057409 1.207804 2.207297 0.079960 -0.013290 166649.000000 0 0 1
8.125324 22.356810 -19.191656 30.564154 1.222200 2.249666 0.093785 -0.022135 765027.000000 0 0 1
9.009924 21.635210 -20.079056 30.861457 1.176192 2.279196 0.078927 -0.017275 553301.000000 0 0 1
8.189224 20.529710 -20.794856 30.347297 1.191242 2.325715 0.070554 -0.025593 250983.000000 0 0 1
7.956824 19.370810 -20.003456 28.959931 1.181046 2.333293 0.087638 -0.033804 400323.000000 0 0 1
7.055324 18.485710 -20.689856 28.628120 1.206196 2.378513 0.081188 -0.040393 126252.000000 0 0 1
25.288824 -12.611090 -9.416556 29.786502 -0.462593 1.892449 0.092787 -0.007571 68488.200000 0 0 1
26.084824 -11.824890 -8.558556 29.891385 -0.425615 1.861182 0.111943 -0.021247 466895.000000 0 0 1
25.488224 -11.968790 -7.284456 29.085474 -0.439018 1.823941 0.099914 -0.010770 -363505.000000 0 0 1
26.280324 -11.387790 -6.115156 29.287067 -0.408897 1.781145 0.091939 -0.017218 -499239.000000 0 0 1
26.207724 -9.985490 -5.891056 28.657622 -0.364032 1.777839 0.113804 -0.027006 492970.000000 0 0 1
27.058924 -9.200590 -6.727456 29.361452 -0.327757 1.801975 0.093984 -0.037223 -653794.000000 0 0 1
27.197024 -7.792190 -6.071856 28.935510 -0.279034 1.782209 0.137229 -0.038320 -25206.700000 0 0 1
27.807924 -7.762890 -4.796956 29.266941 -0.272231 1.735443 0.150840 -0.054948 1603460.000000 0 0 1
29.227124 -8.061990 -4.813256 30.698337 -0.269146 1.728238 0.143764 -0.056066 784799.000000 0 0 1
30.063024 -8.131490 -3.529756 31.342714 -0.264160 1.683654 0.158441 -0.060015 -212644.000000 0 0 1
30.459024 -6.836790 -3.154656 31.375877 -0.220799 1.671511 0.171964 -0.052103 129278.000000 0 0 1
31.287524 -6.830790 -2.012156 32.087655 -0.214950 1.633546 0.168513 -0.039792 48624.500000 0 0 1
31.652924 -5.414690 -1.483956 32.146984 -0.169425 1.616974 0.164519 -0.048122 414361.000000 0 0 1
30.524924 -4.640590 -1.013756 30.892293 -0.150871 1.603618 0.217169 -0.046681 443745.000000 0 0 1
30.772924 -3.266590 -0.657556 30.952800 -0.105755 1.592042 0.192255 -0.031664 -453288.000000 0 0 1
31.432824 -3.038590 0.716944 31.587489 -0.096370 1.548097 0.178292 -0.033714 157184.000000 0 0 1
30.617424 -3.422790 1.803444 30.860890 -0.111330 1.512325 0.220676 -0.054744 150956.000000 0 0 1
31.338824 -3.036090 2.919544 31.620617 -0.096578 1.478334 0.176619 -0.041053 -110503.000000 0 0 1
30.888624 -3.694690 4.217444 31.393385 -0.119048 1.436047 0.195926 -0.046638 -244563.000000 0 0 1
31.213824 -5.058490 4.312444 31.913763 -0.160662 1.435254 0.172334 -0.047929 78141.200000 0 0 1
31.038324 -5.650590 5.593044 32.040425 -0.180080 1.395335 0.168599 -0.044826 195495.000000 0 0 1
31.805924 -7.026290 5.542844 33.041015 -0.217419 1.402243 0.134744 -0.035841 -752628.000000 0 0 1
33.174124 -6.892690 5.464244 34.320396 -0.204858 1.410903 0.149951 -0.044303 -1199890.000000 0 0 1
33.732024 -8.221990 5.373544 35.132969 -0.239082 1.417245 0.145189 -0.035186 1415280.000000 0 0 1
35.310524 -8.247590 5.560844 36.684858 -0.229459 1.418626 0.176552 -0.043930 1191380.000000 0 0 1
35.993524 -7.799990 4.417144 37.092920 -0.213406 1.451430 0.186916 -0.042948 335089.000000 0 0 1
37.395524 -7.684790 4.683744 38.463211 -0.202679 1.448721 0.191652 -0.037156 538146.000000 0 0 1
-36.845659 -7.577890 3.422744 37.772241 0.202837 1.480057 0.189840 -0.035129 -322919.000000 0 0 1
-36.535359 -8.814790 2.792244 37.687261 0.236743 1.496639 0.227661 -0.043437 112979.000000 0 0 1
-35.669359 -8.627890 1.703544 36.737525 0.237327 1.524409 0.230874 -0.045222 -136094.000000 0 0 1
-35.297859 -10.012390 1.070144 36.706021 0.276394 1.541638 0.228973 -0.041961 -30927.700000 0 0 1
-34.377359 -10.710390 1.893344 36.056900 0.302022 1.518262 0.225056 -0.043984 140597.000000 0 0 1
-34.188759 -12.040990 1.455044 36.276354 0.338626 1.530676 0.234996 -0.049403 -90834.500000 0 0 1
-33.293459 -12.908690 2.400544 35.788983 0.369879 1.503671 0.163491 -0.060569 453406.000000 0 0 1
-31.900259 -12.712490 2.438544 34.426449 0.379219 1.499904 0.173426 -0.040367 411012.000000 0 0 1
-31.111559 -13.150690 1.336544 33.803197 0.399916 1.531247 0.176782 -0.028639 -166844.000000 0 0 1
-29.667259 -13.521690 1.759144 32.650834 0.427649 1.516893 0.166662 -0.023663 276707.000000 0 0 1
-28.935659 -12.401390 2.246844 31.561292 0.404903 1.499546 0.142981 -0.030990 320110.000000 0 0 1
-27.540159 -12.601890 2.346444 30.377192 0.429141 1.493476 0.142846 -0.014994 87438.400000 0 0 1
-26.832859 -11.546890 3.206544 29.387326 0.406374 1.461465 0.133672 -0.011881 81964.600000 0 0 1
-25.524459 -11.919590 3.602144 28.399825 0.436890 1.443617 0.123232 0.000860 337796.000000 0 0 1
-24.949959 -11.001190 4.490144 27.634906 0.415286 1.407592 0.121266 -0.004222 1041130.000000 0 0 1
-23.600959 -11.385890 5.232844 26.721273 0.449496 1.373692 0.110030 0.003438 1064350.000000 0 0 1
-23.790659 -12.381990 6.218744 27.531471 0.479878 1.342952 0.098473 0.000739 654588.000000 0 0 1
-22.559059 -13.089290 6.466944 26.871212 0.525751 1.327746 0.098925 0.003356 1033140.000000 0 0 1
-21.917959 -12.799090 7.862544 26.571286 0.528538 1.270395 0.099728 -0.015139 -213882.000000 0 0 1
-21.592559 -11.439590 8.135344 25.754352 0.487197 1.249410 0.090436 -0.011812 180981.000000 0 0 1
-22.652559 -10.654290 8.643044 26.483099 0.439635 1.238345 0.095386 -0.004703 -499718.000000 0 0 1
-22.977959 -10.793190 10.198244 27.358431 0.439131 1.188810 0.083491 0.003569 -503380.000000 0 0 1
-23.540559 -12.075290 10.615344 28.507123 0.473959 1.189229 0.076170 -0.014780 896960.000000 0 0 1
-24.904459 -12.314890 10.261744 29.617427 0.459226 1.216984 0.067145 -0.020856 323401.000000 0 0 1
-25.972759 -11.513390 11.013244 30.470213 0.417257 1.200981 0.079085 -0.013575 -883675.000000 0 0 1
-26.112459 -11.927290 12.375044 31.261197 0.428466 1.163793 0.074289 -0.025306 355507.000000 0 0 1
-27.319459 -11.452690 12.958444 32.333237 0.396959 1.158431 0.076397 -0.029573 154924.000000 0 0 1
-27.594259 -12.201690 14.292344 33.385558 0.416334 1.128407 0.081607 -0.032646 -673829.000000 0 0 1
-27.880159 -13.520690 13.912644 33.965777 0.451541 1.148772 0.077448 -0.032718 331264.000000 0 0 1
-28.292359 -14.376390 14.986544 35.096077 0.470136 1.129607 0.081302 -0.025049 72119.200000 0 0 1
-28.387159 -15.853490 14.574544 35.631184 0.509326 1.149396 0.080400 -0.023557 -148506.000000 0 0 1
-29.224159 -16.595790 15.413544 36.973626 0.516466 1.140787 0.066835 -0.015513 35460.700000 0 0 1
-28.935959 -17.990890 15.236044 37.324240 0.556258 1.150306 0.062551 -0.008310 11817.200000 0 0 1
-29.866359 -18.892890 16.106444 38.837588 0.564032 1.143169 0.043923 0.003470 71414.000000 0 0 1
-29.856159 -18.641190 17.453744 39.287623 0.558144 1.110453 0.043870 0.003369 -46379.200000 0 0 1
-30.427159 -19.647990 18.283844 40.572829 0.573374 1.103311 0.058024 0.007985 362074.000000 0 0 1
-29.514159 -20.918490 18.556544 40.657276 0.616582 1.096836 0.033617 0.008905 809764.000000 0 0 1
-28.295959 -20.654390 19.245044 39.970449 0.630539 1.068452 0.047999 0.005563 891055.000000 0 0 1
-27.456759 -21.803490 19.455744 40.097278 0.671135 1.064189 0.053710 0.002860 802409.000000 0 0 1
-25.988759 -21.547290 19.897044 39.186651 0.692235 1.038225 0.071613 0.001393 252870.000000 0 0 1
-25.121559 -21.173790 18.848944 37.877497 0.700330 1.049933 0.087212 -0.008691 899540.000000 0 0 1
-23.812359 -20.975290 19.441644 37.215168 0.722138 1.021119 0.097330 -0.010128 1271890.000000 0 0 1
-22.617059 -20.747290 18.479844 35.825773 0.742307 1.028825 0.102824 -0.019570 355142.000000 0 0 1
-22.205059 -21.907490 17.730844 35.880156 0.778653 1.053918 0.098848 -0.019942 948615.000000 0 0 1
-20.982059 -21.712490 16.989244 34.645540 0.802505 1.058278 0.099334 -0.020859 724891.000000 0 0 1
-20.735359 -22.752390 15.876344 34.636464 0.831747 1.094635 0.099983 -0.023172 -169859.000000 0 0 1
-20.629859 -24.161590 16.214144 35.668921 0.864084 1.098903 0.095268 -0.031768 466882.000000 0 0 1
-19.556759 -24.666090 17.014144 35.782173 0.900424 1.075273 0.098395 -0.036861 1268590.000000 0 0 1
-18.099659 -24.821490 16.422644 34.833995 0.940745 1.079857 0.096892 -0.036943 1244880.000000 0 0 1
-17.407459 -23.583190 16.380844 33.578542 0.934935 1.061187 0.101491 -0.041011 396353.000000 0 0 1
-16.151859 -23.709890 15.702444 32.704864 0.972780 1.069998 0.103210 -0.039196 566617.000000 0 0 1
-15.409359 -22.382490 15.431844 31.250056 0.967860 1.054321 0.091649 -0.032894 -679735.000000 0 0 1
-16.064459 -21.556390 14.583144 30.584520 0.930355 1.073769 0.101371 -0.024825 -513383.000000 0 0 1
-17.018059 -20.674490 15.164644 30.773613 0.882102 1.055514 0.101737 -0.020261 -141387.000000 0 0 1
-16.645559 -19.408490 16.037144 30.182016 0.861882 1.010606 0.101496 -0.016590 -464538.000000 0 0 1
-15.903759 -18.459490 15.301444 28.771800 0.859635 1.010047 0.093223 -0.014247 46233.700000 0 0 1
-15.850159 -17.231190 16.046444 28.383618 0.827120 0.969949 0.087167 -0.015863 -438609.000000 0 0 1
-15.212259 -16.050090 15.321044 26.902650 0.812192 0.964900 0.074436 -0.011524 -214358.000000 0 0 1
-16.025059 -15.303290 14.464344 26.461490 0.762363 0.992475 0.088073 -0.021892 -134054.000000 0 0 1
-16.214959 -15.900890 13.219144 26.277537 0.775619 1.043662 0.115556 -0.024899 -345009.000000 0 0 1
-17.178559 -15.077290 12.364244 25.986575 0.720346 1.074930 0.097188 -0.019673 376652.000000 0 0 1
-18.555759 -15.317590 12.689244 27.202236 0.690091 1.085492 0.089672 -0.020920 75500.200000 0 0 1
-19.312359 -14.425490 11.980844 26.918443 0.641550 1.109533 0.112893 -0.023563 -772515.000000 0 0 1
-20.838059 -14.536490 12.285844 28.221910 0.609109 1.120392 0.092764 -0.028290 504660.000000 0 0 1
-21.522059 -15.646490 11.716244 29.073734 0.628616 1.156022 0.098017 -0.027399 232053.000000 0 0 1
-21.644359 -15.572890 10.330844 28.595795 0.623687 1.201165 0.113824 -0.019729 -509614.000000 0 0 1
-22.300759 -16.801190 9.630644 29.535625 0.645668 1.238654 0.115058 -0.013274 650722.000000 0 0 1
-21.344759 -17.860390 9.540344 29.421258 0.696756 1.240560 0.113605 -0.007961 707366.000000 0 0 1
-21.979659 -19.009790 8.937544 30.403243 0.713070 1.272422 0.133077 -0.017747 577977.000000 0 0 1
-21.158459 -20.340590 9.026944 30.706769 0.765693 1.272416 0.125034 -0.010909 754510.000000 0 0 1
-20.008159 -20.450790 8.184844 29.758241 0.796338 1.292160 0.145836 -0.014566 285287.000000 0 0 1
-19.547159 -21.821690 8.195044 30.420985 0.840325 1.298039 0.118108 -0.019616 674353.000000 0 0 1
-18.220459 -22.128590 7.402344 29.604971 0.881955 1.318078 0.102691 -0.022383 302543.000000 0 0 1
-17.121159 -21.584790 8.061644 28.705876 0.900213 1.286131 0.076833 -0.021889 -668375.000000 0 0 1
-15.935159 -22.188590 7.608144 28.357480 0.947980 1.299175 0.085851 -0.018291 339239.000000 0 0 1
-14.620859 -21.753090 8.355544 27.509663 0.979022 1.262190 0.035170 -0.007819 1038670.000000 0 0 1
-13.469359 -22.160290 7.618244 27.028498 1.024650 1.285065 0.050792 -0.002933 330749.000000 0 0 1
-12.234559 -21.733890 8.174044 26.246169 1.058084 1.254091 0.046256 -0.000720 1560440.000000 0 0 1
-11.009259 -22.430690 7.400044 26.059552 1.114526 1.282868 0.033578 0.005769 1022240.000000 0 0 1
-11.027159 -23.835190 7.541044 27.323650 1.137479 1.291177 0.030115 0.008966 -105643.000000 0 0 1
-9.883659 -24.415390 6.924244 27.234961 1.186148 1.313733 0.061764 -0.002430 337360.000000 0 0 1
-9.765659 -25.961090 7.116944 28.635592 1.211004 1.319629 0.063066 -0.004094 -289154.000000 0 0 1
-10.698659 -26.679110 6.364544 29.440510 1.189417 1.352893 0.071944 -0.002421 -436189.000000 0 0 1
-10.594959 -28.113170 6.422944 30.722267 1.210389 1.360178 0.098166 -0.005844 78646.800000 0 0 1
-9.464659 -28.832110 5.658544 30.868907 1.253611 1.386445 0.112096 -0.016195 748829.000000 0 0 1
-8.122659 -28.437120 5.963144 30.169628 1.292569 1.371832 0.107246 -0.020186 1731570.000000 0 0 1
-7.006659 -29.261330 5.463244 30.580479 1.335770 1.391181 0.112082 -0.019227 1594260.000000 0 0 1
-6.839659 -30.652560 6.142244 32.001367 1.351258 1.377661 0.132236 -0.032889 -414703.000000 0 0 1
-6.571659 -30.456650 7.520044 32.052227 1.358283 1.333970 0.138265 -0.024062 126815.000000 0 0 1
-6.676659 -31.633870 8.273944 33.372708 1.362789 1.320258 0.173628 -0.042201 -87635.600000 0 0 1
-7.106659 -31.656400 9.753944 33.878779 1.349964 1.278756 0.147806 -0.037974 287924.000000 0 0 1
-6.096659 -31.084500 10.582244 33.397593 1.377123 1.248383 0.129169 -0.030856 553773.000000 0 0 1
-6.511659 -31.231910 11.908144 34.053455 1.365247 1.213556 0.103360 -0.022951 170889.000000 0 0 1
-5.714659 -30.347820 12.937244 33.481633 1.384670 1.174073 0.088936 -0.023822 285802.000000 0 0 1
-5.960659 -28.977800 12.861644 32.259327 1.367929 1.160703 0.077839 -0.020099 -116400.000000 0 0 1
-5.100659 -28.294730 13.730544 31.861203 1.392443 1.125252 0.065769 -0.029368 -446091.000000 0 0 1
-5.834659 -27.572390 14.883544 31.871614 1.362260 1.084919 0.059026 -0.032308 121748.000000 0 0 1
-6.600659 -28.423550 15.794044 33.180095 1.342616 1.074685 0.058285 -0.028796 239157.000000 0 0 1
-5.868659 -29.346640 16.561944 34.204742 1.373423 1.065347 0.045838 -0.029809 -38365.400000 0 0 1
-6.750659 -30.526360 17.100544 35.635076 1.353157 1.070279 0.042182 -0.027528 365205.000000 0 0 1
-7.386659 -31.235720 15.996344 35.862458 1.338581 1.108453 0.059256 -0.022421 160290.000000 0 0 1
-7.648659 -32.601670 16.262244 37.226757 1.340355 1.118710 0.070469 -0.029034 -321780.000000 0 0 1
-6.612659 -33.656190 15.821944 37.773010 1.376791 1.138597 0.072466 -0.029478 -218127.000000 0 0 1
-6.637659 33.808023 14.427344 37.352232 -1.376928 1.174232 0.078020 -0.033165 104071.000000 0 0 1
-5.717659 32.768783 14.152244 36.149285 -1.398050 1.168541 0.090451 -0.039660 -109515.000000 0 0 1
-4.577659 33.322060 13.270444 36.158254 -1.434275 1.195004 0.112380 -0.044607 -251471.000000 0 0 1
-4.831659 33.379344 11.924744 35.773245 -1.427045 1.230950 0.122392 -0.043275 616311.000000 0 0 1
-3.643659 33.753343 11.196444 35.748074 -1.463263 1.252231 0.132226 -0.047292 345513.000000 0 0 1
-3.951659 -33.551690 9.684844 35.144383 1.453558 1.291611 0.134260 -0.048402 -822707.000000 0 0 1
-4.173659 33.081336 8.718044 34.464453 -1.445296 1.315060 0.133342 -0.062451 523944.000000 0 0 1
-5.037659 31.956126 8.982444 33.574638 -1.414440 1.299961 0.144892 -0.064295 1073150.000000 0 0 1
-6.538659 32.238629 9.347044 34.197230 -1.370690 1.293946 0.172174 -0.056887 324814.000000 0 0 1
-7.384659 32.630841 8.314244 34.473636 -1.348236 1.327218 0.179635 -0.047795 -488265.000000 0 0 1
-8.741659 32.711725 8.689844 34.956930 -1.309665 1.319575 0.157500 -0.045438 170901.000000 0 0 1
-9.681659 32.905664 7.481044 35.106741 -1.284646 1.356055 0.164558 -0.054748 -207253.000000 0 0 1
-9.841659 -33.415860 6.991244 35.529641 1.284374 1.372732 0.176428 -0.048205 273970.000000 0 0 1
-10.639659 -33.601670 5.807844 35.721220 1.264144 1.407483 0.160468 -0.037824 229761.000000 0 0 1
-11.234259 -32.311150 5.236544 34.606941 1.236181 1.418898 0.140220 -0.040709 -189967.000000 0 0 1
-12.265959 -31.791150 6.018244 34.602748 1.202565 1.395983 0.149335 -0.041692 -257967.000000 0 0 1
-13.193959 -31.099590 5.212944 34.182449 1.169562 1.417695 0.152580 -0.036477 124557.000000 0 0 1
-14.099759 -30.041040 5.877644 33.701839 1.131968 1.395499 0.117901 -0.036556 56255.300000 0 0 1
-14.970059 -30.594840 6.852044 34.743307 1.115745 1.372276 0.126980 -0.031040 242574.000000 0 0 1
-15.705559 -29.599730 7.547844 34.347904 1.082971 1.349241 0.107146 -0.029165 15852.600000 0 0 1
34.860227 -12.397390 -12.915256 39.188449 -0.341683 1.906642 0.127511 -0.041518 -382966.000000 0 0 1
33.815557 -12.501490 -11.982456 37.991556 -0.354113 1.891672 0.147943 -0.043391 -18257.000000 0 0 1
33.590837 -13.806990 -11.327656 38.043305 -0.389982 1.873138 0.146036 -0.039774 -304699.000000 0 0 1
34.679557 -14.244290 -10.367556 38.898042 -0.389731 1.840589 0.125882 -0.034515 4224.990000 0 0 1
35.978497 -14.470990 -10.902756 40.283146 -0.382412 1.844868 0.131187 -0.039729 -168847.000000 0 0 1
36.811457 -14.964990 -9.894656 40.950439 -0.386124 1.814837 0.106419 -0.032506 -58315.100000 0 0 1
-36.855046 -15.248690 -10.444856 41.229989 0.392301 1.826919 0.092061 -0.037316 553115.000000 0 0 1
-36.013923 -14.096890 -10.701156 40.127792 0.373096 1.840740 0.100248 -0.034088 895658.000000 0 0 1
-34.627053 -14.394890 -10.829156 39.032247 0.393978 1.851926 0.099129 -0.035542 661272.000000 0 0 1
-33.734286 -13.146290 -11.001056 37.839797 0.371597 1.865783 0.091395 -0.038855 -77504.100000 0 0 1
-33.635656 -12.304590 -9.841556 37.143190 0.350698 1.838961 0.099957 -0.037345 147053.000000 0 0 1
-33.228046 -11.028590 -10.281556 36.488947 0.320465 1.856437 0.109996 -0.038000 -154532.000000 0 0 1
-33.824766 -9.870290 -9.431856 36.475983 0.283923 1.832345 0.117327 -0.042468 405089.000000 0 0 1
-33.081136 -9.601290 -8.239956 35.418120 0.282474 1.805596 0.128588 -0.035927 472306.000000 0 0 1
-33.728056 -8.582790 -7.537056 35.609736 0.249182 1.784067 0.164437 -0.055886 159286.000000 0 0 1
-33.238216 -8.519190 -6.032856 34.838929 0.250906 1.744838 0.139947 -0.042568 -345223.000000 0 0 1
-31.962086 -7.958090 -5.860956 33.455298 0.244023 1.746893 0.143741 -0.054600 -632.040000 0 0 1
-31.296206 -8.155290 -4.646056 32.673339 0.254915 1.713477 0.148645 -0.046336 -681984.000000 0 0 1
-30.710456 -9.565790 -4.363156 32.460339 0.301958 1.705619 0.141573 -0.040172 -361726.000000 0 0 1
-31.739766 -10.471790 -4.010756 33.662402 0.318681 1.690227 0.142391 -0.039695 378846.000000 0 0 1
-32.189886 -10.280190 -2.691056 33.898567 0.309123 1.650265 0.145095 -0.046047 -352309.000000 0 0 1
-32.850656 -11.551990 -2.199056 34.891975 0.338146 1.633863 0.159894 -0.038154 -258143.000000 0 0 1
-33.953596 -11.930090 -2.990956 36.112596 0.337890 1.653714 0.172856 -0.053610 4431.750000 0 0 1
-34.551270 -13.102290 -2.477256 37.035079 0.362459 1.637736 0.180628 -0.054338 -738508.000000 0 0 1
-36.074456 -13.111290 -2.533656 38.466761 0.348607 1.636710 0.152073 -0.047757 -500982.000000 0 0 1
-36.580126 -12.185190 -1.545856 38.587228 0.321549 1.610868 0.188610 -0.059297 -542065.000000 0 0 1
37.133377 -12.277290 -1.388256 39.134981 -0.319313 1.606277 0.235570 -0.053671 -833609.000000 0 0 1
36.476657 -11.586790 -0.174356 38.273105 -0.307569 1.575352 0.222701 -0.056054 -35178.400000 0 0 1
36.829757 -12.068490 1.105744 38.772440 -0.316657 1.542274 0.245320 -0.053581 220975.000000 0 0 1
36.075527 -11.421790 2.114544 37.899501 -0.306623 1.514974 0.247733 -0.039880 155262.000000 0 0 1
36.455747 -11.952190 3.529044 38.527009 -0.316812 1.479069 0.243202 -0.048335 -52309.700000 0 0 1
35.483777 -11.711490 4.522844 37.639255 -0.318794 1.450342 0.221368 -0.054674 -56304.600000 0 0 1
35.696147 -12.381890 5.751744 38.217910 -0.333883 1.419724 0.226904 -0.052376 -590312.000000 0 0 1
34.505157 -12.274790 6.676544 37.227040 -0.341777 1.390474 0.187248 -0.040766 -440342.000000 0 0 1
34.108887 -10.939390 7.029444 36.503417 -0.310356 1.377016 0.169305 -0.036192 -31423.100000 0 0 1
33.632847 -10.918090 8.327244 36.327896 -0.313893 1.339515 0.127808 -0.023612 -748400.000000 0 0 1
32.873177 -9.697590 8.765344 35.376832 -0.286863 1.320418 0.115561 -0.037296 -769016.000000 0 0 1
31.548427 -9.689790 8.307244 34.032419 -0.297994 1.324207 0.131566 -0.032250 -478529.000000 0 0 1
30.853727 -8.691890 8.978744 33.288425 -0.274596 1.297688 0.139511 -0.021646 258570.000000 0 0 1
29.314507 -8.630890 8.720144 31.778506 -0.286333 1.292827 0.132928 -0.020859 479200.000000 0 0 1
29.001307 -8.133290 7.447744 31.027328 -0.273422 1.328391 0.152622 -0.021838 256517.000000 0 0 1
28.276307 -9.156990 6.715344 30.471229 -0.313182 1.348589 0.170711 -0.038037 -357826.000000 0 0 1
27.314607 -8.493190 5.762244 29.179196 -0.301463 1.372012 0.179196 -0.036902 -680462.000000 0 0 1
26.273807 -7.853090 6.466244 28.174390 -0.290442 1.339224 0.195787 -0.042392 1067000.000000 0 0 1
25.144607 -7.335390 5.721744 26.810400 -0.283851 1.355727 0.211235 -0.046999 781411.000000 0 0 1
25.399607 -6.032190 4.933844 26.568217 -0.233172 1.384007 0.202546 -0.052658 14087.200000 0 0 1
26.399607 -6.161190 3.898444 27.387905 -0.229278 1.427969 0.197300 -0.046925 703831.000000 0 0 1
26.922807 -4.921690 3.570244 27.600855 -0.180811 1.441080 0.195017 -0.053211 282500.000000 0 0 1
27.718407 -4.931490 2.205344 28.239922 -0.176072 1.492624 0.196324 -0.057723 130950.000000 0 0 1
26.839807 -4.957290 1.119144 27.316706 -0.182641 1.529816 0.210821 -0.060789 47776.100000 0 0 1
27.515507 -4.735690 -0.127856 27.920355 -0.170440 1.575376 0.199480 -0.061777 -325145.000000 0 0 1
26.751907 -5.250190 -1.381956 27.297231 -0.193792 1.621444 0.210140 -0.052035 231640.000000 0 0 1
25.530907 -4.547290 -1.541956 25.978504 -0.176261 1.630186 0.243797 -0.052648 193384.000000 0 0 1
24.948007 -4.838590 -2.832356 25.570241 -0.191569 1.681792 0.254148 -0.052517 309058.000000 0 0 1
23.571007 -4.144990 -3.041056 24.125118 -0.174071 1.697186 0.209394 -0.043629 52507.000000 0 1 0
23.509107 -2.703190 -3.062456 23.861349 -0.114482 1.699495 0.185176 -0.048252 114557.000000 0 1 0
24.179507 -1.977190 -4.090656 24.602668 -0.081590 1.737841 0.193677 -0.046457 -762824.000000 0 1 0
23.320207 -1.215090 -5.053556 23.892403 -0.052058 1.783919 0.204971 -0.035176 -492144.000000 0 1 0
22.816607 0.057210 -4.586956 23.273181 0.002507 1.769187 0.179927 -0.024090 221806.000000 0 1 0
21.908507 0.549910 -5.528056 22.601869 0.025095 1.817887 0.187546 -0.014929 -319828.000000 0 1 0
21.380507 2.018610 -5.407056 22.145815 0.094135 1.817447 0.146702 -0.007631 638048.000000 0 1 0
22.452707 3.015110 -5.291956 23.264130 0.133489 1.800278 0.169091 -0.018393 1357450.000000 0 1 0
23.072707 2.976510 -4.019856 23.608656 0.128297 1.741900 0.173496 -0.015668 15651.100000 0 1 0
24.348407 3.785610 -3.669556 24.912675 0.154242 1.718631 0.183555 -0.028149 107801.000000 0 1 0
24.133907 5.194710 -3.601456 24.947965 0.212011 1.715661 0.161829 -0.019345 32327.600000 0 1 0
25.138007 5.834510 -2.891756 25.967733 0.228061 1.682387 0.154083 -0.022202 -521811.000000 0 0 1
24.881307 7.313710 -2.808156 26.085542 0.285892 1.678657 0.130837 -0.027248 -409821.000000 0 0 1
23.772407 7.635910 -2.033456 25.051335 0.310799 1.652057 0.142984 -0.031068 -146917.000000 0 0 1
23.078907 8.771010 -2.493556 24.815003 0.363186 1.671452 0.135906 -0.026167 118027.000000 0 1 0
21.875207 9.216410 -1.632956 23.793559 0.398748 1.639480 0.115346 -0.020423 117115.000000 0 1 0
22.386207 9.524010 -0.344056 24.330380 0.402244 1.584938 0.088108 -0.024372 1415130.000000 0 1 0
21.315407 9.905510 0.554444 23.511127 0.435020 1.547212 0.063512 -0.022244 761700.000000 0 1 0
21.860707 10.194210 2.007344 24.204170 0.436347 1.487767 0.086996 -0.018394 -172219.000000 0 1 0
22.749907 11.293310 2.123944 25.487413 0.460773 1.487367 0.089156 -0.024482 399731.000000 0 0 1
22.292207 12.650610 1.857644 25.698857 0.516172 1.498448 0.097330 -0.016549 -7080.070000 0 0 1
21.216007 13.382010 2.739744 25.232981 0.562724 1.462004 0.085567 -0.005580 1967900.000000 0 0 1
19.831807 12.901810 2.575044 23.798910 0.576770 1.462384 0.133024 -0.015170 2596740.000000 0 1 0
18.815807 13.658810 3.250644 23.476890 0.627912 1.431889 0.117793 -0.015754 517587.000000 0 1 0
18.772207 13.636510 4.791444 23.691941 0.628238 1.367152 0.103532 -0.010486 -481331.000000 0 1 0
18.372107 12.361410 5.273044 22.762771 0.592261 1.337021 0.088891 -0.009308 341422.000000 0 1 0
18.554507 12.230410 6.649044 23.196173 0.582788 1.280074 0.104205 -0.020849 -168237.000000 0 1 0
18.559507 10.747110 7.038544 22.572035 0.524882 1.253682 0.066982 -0.031289 -945954.000000 0 1 0
19.457907 10.014310 6.333844 22.781881 0.475311 1.289063 0.052438 -0.040534 -356107.000000 0 1 0
19.640707 8.787610 6.972244 22.618392 0.420705 1.257438 0.064258 -0.035955 764711.000000 0 1 0
20.711007 7.876410 6.235944 23.018919 0.363410 1.296463 0.078510 -0.038345 705065.000000 0 1 0
20.134507 7.543610 5.008144 22.076819 0.358473 1.341953 0.050097 -0.033978 676346.000000 0 1 0
20.997607 6.670410 4.342944 22.455623 0.307592 1.376169 0.055917 -0.039057 -93944.200000 0 1 0
20.577907 6.558110 2.849244 21.784794 0.308520 1.439630 0.065119 -0.025217 -728534.000000 0 1 0
21.325707 5.688610 2.107844 22.171808 0.260679 1.475584 0.052957 -0.030736 -45275.500000 0 1 0
21.279907 5.954410 0.691344 22.108084 0.272836 1.539520 0.073990 -0.013005 -269838.000000 0 1 0
22.493307 5.255510 0.035144 23.099144 0.229530 1.569275 0.129543 -0.024633 10489.800000 0 1 0
22.440607 3.879910 0.310844 22.775670 0.171204 1.557148 0.126408 -0.028954 -11586.700000 0 1 0
23.569107 3.199210 -0.130756 23.785601 0.134913 1.576294 0.150872 -0.037827 -468649.000000 0 1 0
23.394807 1.674710 -0.155656 23.455188 0.071463 1.577433 0.185931 -0.042941 58708.500000 0 1 0
22.445307 1.146310 -1.088656 22.500911 0.051027 1.619198 0.148178 -0.036984 849197.000000 0 1 0
22.538607 -0.254890 -1.382556 22.582409 -0.011309 1.632057 0.173326 -0.042194 -1203930.000000 0 1 0
22.295407 -1.340790 -0.281256 22.337457 -0.060065 1.583388 0.183102 -0.034683 -65345.200000 0 1 0
23.243707 -1.450790 0.761344 23.301380 -0.062336 1.538117 0.185325 -0.039910 1641920.000000 0 1 0
24.602007 -1.716690 0.296944 24.663615 -0.069666 1.558756 0.217401 -0.051862 422115.000000 0 1 0
25.708207 -1.679490 1.333344 25.797488 -0.065236 1.519088 0.220580 -0.044283 -517802.000000 0 0 1
25.811707 -0.392790 1.914844 25.885616 -0.015216 1.496755 0.210769 -0.048587 1048070.000000 0 0 1
26.840107 -0.308090 2.934244 27.001778 -0.011478 1.461913 0.218739 -0.049731 453097.000000 0 0 1
26.721107 1.118310 3.649244 26.992316 0.041827 1.435185 0.206889 -0.041561 128689.000000 0 0 1
27.016807 2.255810 2.841144 27.259285 0.083303 1.466380 0.224595 -0.038913 -436203.000000 0 0 1
28.372007 2.341010 2.528244 28.580467 0.082325 1.482220 0.229123 -0.042026 -671800.000000 0 0 1
28.636407 3.452610 1.554744 28.885663 0.119988 1.516946 0.238935 -0.051896 -201097.000000 0 0 1
28.185507 3.057210 0.281644 28.352225 0.108045 1.560862 0.248593 -0.041778 98877.700000 0 0 1
28.483307 3.938710 -0.802656 28.765543 0.137410 1.598703 0.227991 -0.038002 582541.000000 0 0 1
29.943007 3.858210 -1.356856 30.221027 0.128146 1.615709 0.215390 -0.028983 346327.000000 0 0 1
30.981787 4.371210 -0.576056 31.293936 0.140165 1.589205 0.211357 -0.028414 -77883.100000 0 0 1
32.234547 4.135210 -1.184056 32.520270 0.127588 1.607214 0.171270 -0.024017 922935.000000 0 0 1
33.526047 4.643210 -0.429456 33.848776 0.137620 1.583484 0.127470 -0.011989 721113.000000 0 0 1
33.881887 3.844510 0.656344 34.105620 0.112985 1.551551 0.141509 -0.024674 -162139.000000 0 0 1
33.251197 4.096410 1.906544 33.556781 0.122578 1.513950 0.155796 -0.015586 7885.290000 0 0 1
33.579707 3.095310 3.035144 33.858378 0.091918 1.481034 0.163571 -0.024664 -97686.500000 0 0 1
32.759417 1.932110 2.929244 32.946819 0.058911 1.481771 0.190674 -0.031613 244332.000000 0 0 1
33.052917 0.882910 3.887844 33.292494 0.026706 1.453751 0.186469 -0.034638 664987.000000 0 0 1
34.427067 0.153210 3.706544 34.626361 0.004450 1.463547 0.166322 -0.022510 569577.000000 0 0 1
35.599157 0.697810 4.239644 35.857516 0.019599 1.452283 0.159678 -0.029884 -851950.000000 0 0 1
36.573147 -0.220890 4.501144 36.849751 -0.006040 1.448342 0.145989 -0.027663 -1540800.000000 0 0 1
-37.175276 0.460710 4.853844 37.493642 -0.012392 1.440974 0.143609 -0.041793 -137875.000000 0 0 1
-36.755286 1.395210 3.852444 36.982956 -0.037941 1.466439 0.141538 -0.047630 162381.000000 0 0 1
-36.200086 0.750010 2.694544 36.307979 -0.020716 1.496514 0.142406 -0.039687 -515679.000000 0 0 1
-35.966148 1.655410 1.504344 36.035639 -0.045994 1.529038 0.147036 -0.039782 312683.000000 0 0 1
-34.893274 2.507910 1.879344 35.033729 -0.071750 1.517127 0.165760 -0.058095 298080.000000 0 0 1
-34.196712 3.122610 0.798544 34.348268 -0.091061 1.547546 0.204795 -0.030895 253654.000000 0 0 1
-33.197646 4.123810 1.457644 33.484538 -0.123587 1.527251 0.227941 -0.039695 516502.000000 0 0 1
-32.095766 3.564110 2.200444 32.367932 -0.110593 1.502762 0.222654 -0.048339 310468.000000 0 0 1
-31.357036 4.544110 2.819744 31.809804 -0.143913 1.482036 0.245028 -0.043845 -628322.000000 0 0 1
-31.636886 4.590110 4.332644 32.260401 -0.144082 1.436087 0.241186 -0.032848 -89003.400000 0 0 1
-32.913986 4.996910 4.782544 33.632906 -0.150667 1.428114 0.215879 -0.006488 -236510.000000 0 0 1
-33.901566 4.036010 4.889144 34.489264 -0.118493 1.428559 0.191615 -0.008082 -573244.000000 0 0 1
-33.892936 3.278810 6.236144 34.617499 -0.096440 1.389663 0.160362 -0.009209 -558577.000000 0 0 1
-34.171198 4.040010 7.412444 35.198534 -0.117682 1.358618 0.163734 -0.016820 326002.000000 0 0 1
-34.133315 3.354610 8.681044 35.379332 -0.097965 1.322894 0.144368 -0.017922 -645911.000000 0 0 1
-35.297571 2.422310 8.937144 36.491899 -0.068518 1.323372 0.132625 -0.013812 -864691.000000 0 0 1
-35.178787 1.127910 8.367144 36.177733 -0.032051 1.337404 0.137124 -0.019075 143769.000000 0 0 1
-36.043206 0.116410 8.893844 37.124476 -0.003230 1.328875 0.131332 -0.020856 -136715.000000 0 0 1
-35.554241 -0.675990 10.107844 36.969305 0.019011 1.293858 0.161233 -0.021969 -55970.600000 0 0 1
-34.484582 -1.562090 9.842344 35.895658 0.045267 1.293046 0.144901 -0.015714 66913.500000 0 0 1
-34.296453 -2.525390 10.883644 36.070459 0.073501 1.264287 0.133790 -0.007018 394993.000000 0 0 1
-33.099176 -3.502090 10.586944 34.927117 0.105414 1.262836 0.158837 0.002546 276255.000000 0 0 1
-33.297126 -4.378190 9.558044 34.917379 0.130738 1.293524 0.156992 -0.003259 94198.000000 0 0 1
-32.099466 -5.032590 9.199844 33.768918 0.155515 1.294873 0.150320 -0.011776 214921.000000 0 0 1
-32.354306 -5.934790 8.008944 33.855074 0.181414 1.331967 0.170377 -0.010167 547404.000000 0 0 1
-33.271966 -6.989490 8.339544 35.006067 0.207061 1.330252 0.177315 -0.018887 330274.000000 0 0 1
-33.700006 -7.704790 7.178544 35.307020 0.224766 1.366051 0.195595 -0.032250 -236621.000000 0 0 1
-34.671233 -8.815090 7.537144 36.559660 0.248973 1.363147 0.201770 -0.036178 250482.000000 0 0 1
-35.983922 -8.331190 7.816744 37.753846 0.227517 1.362243 0.184292 -0.040707 25602.000000 0 0 1
-36.915886 -9.352490 7.879244 38.888741 0.248125 1.366774 0.184444 -0.045150 -345752.000000 0 0 1
8.206324 -23.991990 10.357844 27.390587 -1.241226 1.182996 0.130298 -0.050850 213199.000000 0 0 1
7.357724 -24.530790 9.340244 27.260519 -1.279396 1.221082 0.128913 -0.054594 104852.000000 0 0 1
6.227024 -25.221270 9.836344 27.778443 -1.328741 1.208845 0.133974 -0.049399 372674.000000 0 0 1
5.734724 -26.135450 8.685144 28.131486 -1.354796 1.256935 0.116777 -0.038071 -546591.000000 0 0 1
5.072124 -25.518840 7.638544 27.116138 -1.374593 1.285234 0.113285 -0.031534 -359374.000000 0 0 1
4.917924 -26.405890 6.554244 27.648058 -1.386663 1.331458 0.104418 -0.023213 -867779.000000 0 0 1
4.150324 -25.842600 5.351744 26.715282 -1.411556 1.369107 0.081281 -0.016333 -362373.000000 0 0 1
2.770324 -25.657160 5.400544 26.365326 -1.463238 1.364501 0.081696 -0.023324 -957909.000000 0 0 1
2.128524 -26.886110 5.221944 27.471116 -1.491793 1.379544 0.074896 -0.020256 -875453.000000 0 0 1
0.589724 -26.805950 5.121144 27.297121 -1.548800 1.382071 0.097908 -0.030060 -563216.000000 0 0 1
0.028424 -26.585420 6.397944 27.344451 -1.569727 1.334631 0.085682 -0.031527 129744.000000 0 0 1
-1.395976 -26.504010 6.409244 27.303657 1.518175 1.333846 0.078928 -0.026240 817227.000000 0 0 1
-2.054576 -27.891570 6.380744 28.685795 1.497266 1.346484 0.095223 -0.029867 -970171.000000 0 0 1
-1.846576 -28.556790 7.648544 29.620943 1.506223 1.309623 0.084480 -0.032336 193809.000000 0 0 1
-2.474976 -29.844410 7.712644 30.924087 1.488056 1.318730 0.103354 -0.034150 81645.000000 0 0 1
-2.281776 -30.442730 9.132444 31.864837 1.495983 1.280121 0.099538 -0.033369 -98574.800000 0 0 1
-0.964576 -30.688710 9.548644 32.154376 1.539376 1.269286 0.104732 -0.032214 -427639.000000 0 0 1
-0.819176 -31.039120 10.882144 32.901657 1.544411 1.233701 0.109738 -0.027003 408389.000000 0 0 1
0.632624 -30.971450 11.444644 33.024397 -1.550373 1.216904 0.085229 -0.031273 930733.000000 0 0 1
1.526924 -31.943080 10.844544 33.768268 -1.523031 1.243857 0.083639 -0.027405 1456380.000000 0 0 1
2.917124 -31.860950 11.239344 33.910950 -1.479493 1.232970 0.109510 -0.026193 1257720.000000 0 0 1
3.343524 -32.568430 12.527744 35.054616 -1.468493 1.205337 0.115090 -0.023106 -290499.000000 0 0 1
2.864324 -31.960860 13.730244 34.903015 -1.481415 1.166488 0.105099 -0.022854 -103792.000000 0 0 1
3.533624 -32.477170 14.803144 35.866225 -1.462419 1.145345 0.108594 -0.019239 -700063.000000 0 0 1
3.379824 -31.594560 16.086744 35.614923 -1.464227 1.102143 0.126498 -0.028303 161330.000000 0 0 1
3.945324 -30.278910 16.110144 34.524117 -1.441227 1.085315 0.138436 -0.032842 -481263.000000 0 0 1
5.331524 -30.201310 16.175244 34.672507 -1.396064 1.085450 0.124087 -0.025890 -849284.000000 0 0 1
5.849724 -28.903630 15.530144 33.329033 -1.371106 1.086072 0.134060 -0.027554 -77865.500000 0 0 1
6.011624 -28.973680 14.081344 32.770382 -1.366213 1.126639 0.118065 -0.030205 1292680.000000 0 0 1
4.779624 -28.586770 13.389744 31.927002 -1.405132 1.138027 0.122624 -0.017177 925510.000000 0 0 1
5.008224 -28.563440 11.864644 31.332446 -1.397224 1.182438 0.107941 -0.029167 120622.000000 0 0 1
5.287224 -29.779100 11.183744 32.246327 -1.395079 1.216615 0.100663 -0.035077 -198173.000000 0 0 1
6.667424 -30.049930 11.083344 32.715338 -1.352455 1.225175 0.099681 -0.029189 -329133.000000 0 0 1
7.079124 -31.394540 10.553844 33.869082 -1.349016 1.253913 0.090686 -0.024765 -216788.000000 0 0 1
6.847524 -32.435400 11.436044 35.067461 -1.362739 1.238605 0.076885 -0.025464 59026.700000 0 0 1
7.057924 -33.681380 10.835744 36.078566 -1.364235 1.265750 0.082532 -0.022123 13659.900000 0 0 1
6.830924 32.793982 11.752744 35.499772 1.365435 1.233364 0.074165 -0.018873 -291479.000000 0 0 1
5.481524 32.563803 12.026544 35.143793 1.404028 1.221529 0.082588 -0.025193 -437236.000000 0 0 1
5.301624 31.231663 12.494444 34.053416 1.402648 1.195114 0.083609 -0.026662 -274545.000000 0 0 1
4.122824 31.082993 13.451444 34.118785 1.438927 1.165541 0.090977 -0.032059 -245890.000000 0 0 1
4.284024 31.578383 14.723544 35.104557 1.435956 1.137990 0.102618 -0.028830 573948.000000 0 0 1
3.129724 31.263053 15.514744 35.041132 1.471019 1.112124 0.106524 -0.029201 553857.000000 0 0 1
3.447224 31.356363 17.032944 35.850050 1.461299 1.075700 0.109598 -0.032371 -89735.100000 0 0 1
3.663124 32.625782 17.526744 37.216218 1.458988 1.080436 0.122489 -0.029845 688045.000000 0 0 1
4.417124 32.563647 18.784344 37.851733 1.435973 1.051509 0.125060 -0.028154 409868.000000 0 0 1
4.576324 -33.690670 19.452344 39.171388 -1.435789 1.051124 0.123583 -0.031196 298063.000000 0 0 1
3.374224 -33.088520 19.914444 38.766230 -1.469172 1.031298 0.126028 -0.030726 197606.000000 0 0 1
3.694724 -31.943180 20.630644 38.205250 -1.455643 1.000365 0.116416 -0.032864 772847.000000 0 0 1
2.357824 -31.158680 20.836644 37.557800 -1.495269 0.982687 0.129560 -0.027235 634983.000000 0 0 1
1.322524 -31.859140 21.466944 38.439349 -1.529309 0.978265 0.141477 -0.025954 366121.000000 0 0 1
0.202124 -31.018650 21.833344 37.932735 -1.564280 0.957482 0.129903 -0.028192 1042010.000000 0 0 1
-0.932876 -31.881360 22.520544 39.044414 1.541544 0.955999 0.143668 -0.022011 -317739.000000 0 0 1
-1.748576 -32.462380 21.557744 39.007691 1.516984 0.985251 0.135697 -0.026199 -137775.000000 0 0 1
-2.468876 -33.635470 21.942944 40.235966 1.497527 0.993982 0.123421 -0.024291 130113.000000 0 0 1
-3.653976 -33.544650 22.943844 40.804596 1.462295 0.973649 0.140499 -0.032466 -336825.000000 0 0 1
-4.785676 -32.974090 22.366044 40.130203 1.426668 0.979621 0.120921 -0.034999 -1003480.000000 0 0 1
-5.749576 -32.646100 23.323544 40.531631 1.396466 0.957654 0.106703 -0.036508 68283.200000 0 0 1
-6.982576 -31.986640 22.617644 39.792704 1.355871 0.966253 0.072657 -0.023712 384989.000000 0 0 1
-7.695876 -32.828500 21.690444 40.092546 1.340528 0.999159 0.063062 -0.020265 67937.000000 0 0 1
-8.726076 -32.060920 21.135244 39.379506 1.305061 1.004267 0.064920 -0.024980 -9712.020000 0 0 1
-9.937876 -32.822060 20.534244 39.971291 1.276791 1.031276 0.046920 -0.028274 120599.000000 0 0 1
-10.559876 -33.581410 21.515944 41.257216 1.266130 1.022180 0.056807 -0.033169 -858115.000000 0 0 1
-11.801476 33.531568 21.163944 41.370925 -1.232384 1.033790 0.044085 -0.033737 -173215.000000 0 0 1
-12.625676 33.272572 22.428844 42.065720 -1.208120 1.008435 0.042462 -0.028521 -498029.000000 0 0 1
-12.984276 -33.265500 23.271044 42.623073 1.198660 0.993246 0.049109 -0.028054 -325388.000000 0 0 1
-11.936176 -32.594880 23.900444 42.144154 1.219765 0.967801 0.060001 -0.025849 -644601.000000 0 0 1
-12.264776 -31.261290 24.624444 41.642000 1.196918 0.938081 0.063912 -0.027848 -67240.300000 0 0 1
-12.891376 -31.302680 25.887144 42.616775 1.180134 0.917962 0.043604 -0.019918 140184.000000 0 0 1
-13.536076 -30.090080 26.181044 42.119892 1.148066 0.900033 0.070737 -0.028081 55.066200 0 0 1
-14.294176 -29.989890 27.522944 43.141968 1.126016 0.878947 0.069337 -0.020388 -64039.200000 0 0 1
-13.506676 -29.863170 28.686544 43.556366 1.146043 0.851830 0.057847 -0.013456 757266.000000 0 0 1
-14.384776 -29.750220 29.810944 44.504940 1.120421 0.836810 0.076744 -0.014424 492343.000000 0 0 1
-13.627776 -28.973490 30.948244 44.530587 1.131146 0.802392 0.069807 -0.019020 271688.000000 0 0 1
-14.570576 -28.743020 31.986744 45.405007 1.101623 0.789112 0.084601 -0.019735 595358.000000 0 0 1
-14.111076 -28.124470 33.217044 45.754565 1.105760 0.758333 0.080135 -0.015519 -330063.000000 0 0 1
-13.294076 -29.043860 -33.565696 46.335021 1.141538 2.380979 0.074157 -0.010526 -341380.000000 0 0 1
-12.040976 -29.411140 33.664144 46.295516 1.182211 0.756624 0.051858 -0.012635 -169381.000000 0 0 1
-11.554576 -30.523500 -33.318396 46.640195 1.208920 2.366521 0.056811 -0.009694 246308.000000 0 0 1
-10.051476 -30.877430 -33.478996 46.640015 1.256087 2.371458 0.066007 -0.021070 118978.000000 0 0 1
-9.229476 -29.997040 -32.773196 45.377175 1.272309 2.377831 0.079801 -0.028287 1116690.000000 0 0 1
-7.882876 -30.524120 -32.626296 45.368897 1.318067 2.373351 0.101611 -0.044587 2142880.000000 0 0 1
-6.824776 -29.879120 -31.624596 44.039237 1.346236 2.371865 0.118511 -0.041705 767846.000000 0 0 1
-7.144376 -30.142530 -30.283196 43.320736 1.338071 2.344859 0.122308 -0.042093 256495.000000 0 0 1
-6.386376 -29.299650 -29.397396 41.993596 1.356185 2.346256 0.117824 -0.040957 287668.000000 0 0 1
-6.739076 -29.650660 -27.911096 41.274763 1.347310 2.313425 0.125840 -0.035703 -48107.100000 0 0 1
-6.375876 -30.913200 -27.477596 41.848488 1.367398 2.287094 0.104306 -0.027549 -330375.000000 0 0 1
-7.137976 -31.326770 -26.390296 41.578419 1.346766 2.258431 0.119369 -0.030404 -34465.900000 0 0 1
-6.522776 -32.545350 -25.621396 41.930923 1.372996 2.228168 0.111796 -0.042129 667347.000000 0 0 1
-5.560476 -32.085040 -24.658996 40.846478 1.399196 2.218930 0.074188 -0.042369 162521.000000 0 0 1
-5.013876 -33.169630 -23.934596 41.209564 1.420773 2.190510 0.091715 -0.053762 -182811.000000 0 0 1
-4.017476 -32.697300 -22.868696 40.102752 1.448540 2.177610 0.099361 -0.064565 -118274.000000 0 0 1
-4.544676 -32.196610 -21.618796 39.046742 1.430569 2.157555 0.120717 -0.053454 151609.000000 0 0 1
-4.851976 -30.793980 -21.650496 37.954642 1.414519 2.177827 0.087729 -0.029821 -762714.000000 0 0 1
-5.390176 -30.314230 -20.298296 36.878548 1.394825 2.153651 0.141127 -0.044643 561544.000000 0 0 1
-6.805476 -30.546810 -20.105296 37.197379 1.351588 2.141831 0.150436 -0.054470 991078.000000 0 0 1
-7.600876 -29.392380 -20.150796 36.438165 1.317740 2.156773 0.150204 -0.048659 -114325.000000 0 0 1
-7.859276 -28.714010 -21.498696 36.721336 1.303631 2.196238 0.187904 -0.058213 -550167.000000 0 0 1
-6.682076 -28.185210 -22.100996 36.435013 1.338017 2.222557 0.181806 -0.037607 -74187.400000 0 0 1
-6.709276 -28.005780 -23.479496 37.156760 1.335660 2.254803 0.239953 -0.046943 233606.000000 0 0 1
-5.281276 -27.893210 -24.143196 37.266834 1.383672 2.275551 0.211680 -0.039047 520381.000000 0 0 1
-4.573676 -26.699250 -24.097496 36.255451 1.401140 2.297833 0.182918 -0.050472 -35130.800000 0 0 1
-3.986176 -26.495840 -22.808196 35.187113 1.421471 2.276011 0.113063 -0.044185 -533075.000000 0 0 1
-2.463776 -26.835570 -22.668096 35.214493 1.479243 2.270139 0.089626 -0.040324 860716.000000 0 0 1
-1.554176 -25.817740 -23.157296 34.716444 1.510671 2.301026 0.096229 -0.047612 550786.000000 0 0 1
-1.496476 -24.685590 -22.287496 33.291894 1.510249 2.304274 0.101370 -0.050239 -1152580.000000 0 0 1
-1.059176 -23.407990 -23.071196 32.883672 1.525579 2.348437 0.128751 -0.049466 -56653.100000 0 0 1
-1.956976 -22.802990 -24.005496 33.167302 1.485185 2.380046 0.215119 -0.059464 -6420.340000 0 0 1
-3.168976 -22.360190 -23.435796 32.546229 1.430010 2.374710 0.210044 -0.060067 -609854.000000 0 0 1
-4.224976 -21.834290 -24.378596 32.998523 1.379657 2.402052 0.195365 -0.070429 -410210.000000 0 0 1
-3.944276 -20.575890 -24.884096 32.529106 1.381400 2.441806 0.209707 -0.058370 54825.300000 0 0 1
-4.625776 -20.399790 -26.137196 33.476891 1.347811 2.466667 0.263414 -0.067395 -16566.600000 0 0 1
-4.004076 -20.900590 -27.433896 34.720108 1.381513 2.481841 0.210395 -0.063215 178737.000000 0 0 1
-4.970776 -20.909890 -28.498696 35.694646 1.337405 2.495434 0.214022 -0.060066 662455.000000 0 0 1
-4.333276 -21.393090 -29.667796 36.832318 1.370945 2.507286 0.221908 -0.056714 171295.000000 0 0 1
-5.345476 -21.659890 -30.787396 38.020898 1.328840 2.514521 0.201835 -0.058183 85024.700000 0 0 1
-5.931576 -20.505590 -31.411596 37.978298 1.289216 2.544713 0.193030 -0.056112 193842.000000 0 0 1
-7.048876 -20.874990 -32.201496 39.017793 1.245147 2.541535 0.179276 -0.051066 69492.400000 0 0 1
-7.092876 -20.321990 -33.643396 39.939582 1.234991 2.572439 0.168251 -0.048386 90459.500000 0 0 1
-6.014676 -20.798190 33.320844 39.736880 1.289284 0.576204 0.136968 -0.040582 -114102.000000 0 0 1
-6.023176 -20.245790 32.043444 38.379069 1.281632 0.582809 0.138527 -0.035547 570488.000000 0 0 1
-4.728876 -20.551490 31.207844 37.665044 1.344634 0.594261 0.110418 -0.039890 -156670.000000 0 0 1
-4.611876 -21.935790 30.960444 38.222995 1.363570 0.626652 0.115370 -0.037175 49389.500000 0 0 1
-3.512476 -22.294090 30.166944 37.675037 1.414529 0.642310 0.107340 -0.023769 114032.000000 0 0 1
-2.070176 -22.165190 30.683544 37.908589 1.477669 0.627652 0.092451 -0.029662 -742242.000000 0 0 1
-1.373176 -20.969890 30.437444 36.987293 1.505406 0.604271 0.099586 -0.023206 758628.000000 0 0 1
-0.324476 -20.546690 31.338444 37.474922 1.555005 0.580386 0.105402 -0.028967 566627.000000 0 0 1
-0.852276 -20.268690 32.771244 38.542192 1.528772 0.554300 0.086310 -0.027495 -198767.000000 0 0 1
-1.661076 -19.090690 32.735244 37.931646 1.484005 0.529606 0.076040 -0.025061 37147.000000 0 0 1
-1.806376 -18.553190 -33.664996 38.481369 1.473740 2.635899 0.078015 -0.032770 -604449.000000 0 0 1
-2.907076 -17.538090 -33.511296 37.934715 1.406532 2.653852 0.091659 -0.042693 -374564.000000 0 0 1
-2.566076 -16.183290 33.833644 37.592540 1.413542 0.451005 0.088464 -0.034360 290360.000000 0 0 1
-3.622776 -15.316990 -33.506896 37.019545 1.338544 2.702443 0.116271 -0.043580 -79115.400000 0 0 1
-3.431976 -13.817790 -33.794596 36.671303 1.327349 2.742861 0.103813 -0.038758 -286654.000000 0 0 1
-2.576476 -13.169490 -32.851396 35.486446 1.377597 2.753797 0.082607 -0.038118 163356.000000 0 0 1
-2.343376 -11.783990 -32.967096 35.088221 1.374496 2.792107 0.082574 -0.035342 280988.000000 0 0 1
-1.526676 -11.355890 33.482244 35.388524 1.437158 0.329721 0.080982 -0.039054 -168262.000000 0 0 1
-2.253376 -11.419390 32.234044 34.271179 1.375970 0.346526 0.086423 -0.033593 26339.300000 0 0 1
-1.648876 -10.741590 31.174244 33.014149 1.418481 0.335429 0.096737 -0.031652 63532.500000 0 0 1
-0.506176 -11.560290 30.513144 32.633548 1.527038 0.362470 0.073202 -0.038397 -119746.000000 0 0 1
-0.981176 -12.567190 29.687944 32.253232 1.492880 0.401530 0.085282 -0.040489 383963.000000 0 0 1
-0.094976 -13.705790 29.656144 32.670240 1.563867 0.432927 0.057915 -0.044066 240114.000000 0 0 1
-0.629576 -14.768690 30.571744 33.957946 1.528193 0.450378 0.073052 -0.038095 -123106.000000 0 0 1
-1.455176 -15.636290 29.848744 33.727713 1.478000 0.484320 0.080348 -0.045615 -10648.400000 0 0 1
-1.922776 -16.697190 30.646844 34.953143 1.456146 0.501634 0.101140 -0.045230 -144669.000000 0 0 1
-2.302876 -17.905490 29.737944 34.788721 1.442886 0.545601 0.107593 -0.022201 -1114260.000000 0 0 1
-3.359576 -17.595490 28.934444 34.030722 1.382133 0.554346 0.114329 -0.024649 -875973.000000 0 0 1
-3.674576 -18.740190 28.176444 34.038349 1.377173 0.595648 0.125820 -0.029900 972267.000000 0 0 1
-4.709276 -18.529990 26.967044 33.056909 1.321922 0.616726 0.096169 -0.033022 886435.000000 0 0 1
-5.461276 -19.672490 26.554644 33.495992 1.300005 0.655455 0.107909 -0.037933 70960.300000 0 0 1
-4.714776 -20.661490 25.804844 33.391859 1.346446 0.687573 0.119125 -0.028029 80061.200000 0 0 1
-30.516456 -33.311313 -0.223856 45.176850 0.829158 1.575751 0.043034 -0.022200 -567236.000000 0 0 1
-29.438266 -32.452613 -0.106756 43.815465 0.834064 1.573233 0.058769 -0.013179 -377233.000000 0 0 1
-29.656196 -31.712213 1.107944 43.432499 0.818888 1.545284 0.052949 -0.012895 311919.000000 0 0 1
-28.714116 -30.477513 1.295744 41.893415 0.815181 1.539862 0.078593 -0.016008 1247610.000000 0 0 1
-27.355066 -30.902313 1.544844 41.299384 0.846212 1.533382 0.096279 -0.016311 509379.000000 0 0 1
-26.580386 -29.727113 1.653444 39.911803 0.841225 1.529357 0.109956 -0.004335 470197.000000 0 0 1
-25.103646 -29.930213 2.122744 39.121819 0.872876 1.516510 0.071255 -0.008024 459358.000000 0 0 1
-24.956576 -30.530613 3.408444 39.579875 0.885519 1.484574 0.064718 -0.002084 393500.000000 0 0 1
-23.586376 -30.430813 3.793044 38.687707 0.911435 1.472596 0.057866 -0.001287 367412.000000 0 0 1
-23.264376 -31.017713 5.215544 39.122009 0.927273 1.437083 0.062199 -0.002934 95343.700000 0 0 1
-23.837376 -30.131413 6.174244 38.913286 0.901497 1.411456 0.056196 -0.001958 131665.000000 0 0 1
-23.564076 -30.695613 7.402844 39.399092 0.916083 1.381779 0.049986 -0.013114 64623.800000 0 0 1
-24.204076 -29.855813 8.581344 39.380786 0.889566 1.351127 0.050144 -0.014505 -762422.000000 0 0 1
-23.531776 -28.709313 8.863444 38.164509 0.884184 1.336413 0.065326 -0.016988 -642813.000000 0 0 1
-24.064976 -28.054613 9.938644 38.274809 0.861797 1.308121 0.053761 -0.014416 -1946.100000 0 0 1
-23.110776 -27.000513 10.604444 37.088946 0.862865 1.280831 0.063197 -0.022603 -61207.200000 0 0 1
-22.006876 -27.541413 11.227244 36.998419 0.896637 1.262483 0.059122 -0.022188 -843131.000000 0 0 1
-21.139176 -26.546413 11.743344 35.909371 0.898309 1.237640 0.077503 -0.031396 754043.000000 0 0 1
-19.764776 -26.974313 12.358544 35.650996 0.938443 1.216795 0.082975 -0.032902 517883.000000 0 0 1
-19.823176 -27.921713 13.393444 36.769072 0.953420 1.197960 0.091211 -0.036291 -730956.000000 0 0 1
-18.677276 -27.825013 14.170144 36.384955 0.979634 1.170761 0.096657 -0.039585 -340588.000000 0 0 1
-18.688476 -28.888213 15.232044 37.627159 0.996587 1.154020 0.094735 -0.042060 -22575.800000 0 0 1
-18.570876 -30.183713 14.716744 38.373383 1.019231 1.177198 0.096412 -0.037176 -120623.000000 0 0 1
-18.334076 -31.125613 15.687944 39.383419 1.038478 1.161091 0.097720 -0.031540 64571.300000 0 0 1
-18.451176 -32.578813 15.173244 40.398667 1.055483 1.185765 0.082363 -0.031383 95349.800000 0 0 1
-18.297176 -33.558513 16.171344 41.502684 1.071621 1.170549 0.080682 -0.032708 -39958.400000 0 0 1
-17.904076 32.871610 15.556844 40.535344 -1.072057 1.176905 0.064610 -0.034222 -181369.000000 0 0 1
-17.902576 31.636910 16.495144 39.918493 -1.055846 1.144808 0.074176 -0.041018 561131.000000 0 0 1
-19.232776 31.145310 16.760844 40.259855 -1.017596 1.141406 0.070556 -0.042829 887518.000000 0 0 1
-19.252476 29.980610 17.587144 39.734147 -0.999949 1.112278 0.056366 -0.039217 187959.000000 0 0 1
-19.854176 30.180010 19.035644 40.833529 -0.988917 1.085832 0.061622 -0.042958 273320.000000 0 0 1
-18.993576 31.007010 19.800844 41.403672 -1.021195 1.072148 0.064806 -0.044079 -73621.300000 0 0 1
-19.571476 31.309310 21.005144 42.479780 -1.012125 1.053567 0.065611 -0.032993 -341286.000000 0 0 1
-19.070876 32.536510 21.778044 43.550041 -1.040632 1.047117 0.049203 -0.027852 494168.000000 0 0 1
-17.772076 32.402010 22.368244 43.198094 -1.069116 1.026512 0.033716 -0.028549 327690.000000 0 0 1
-17.562276 33.200310 23.535244 44.323830 -1.084235 1.011035 0.037040 -0.026626 -317462.000000 0 0 1
-18.258076 32.843010 24.880644 45.067362 -1.063420 0.985943 0.035343 -0.025174 235282.000000 0 0 1
-19.665176 33.009010 24.756944 45.707988 -1.033506 0.998418 0.021238 -0.026994 654187.000000 0 0 1
-20.397976 31.846910 25.240244 45.468374 -1.001128 0.982293 0.033237 -0.015942 -242866.000000 0 0 1
-21.902176 31.904510 25.039344 46.093078 -0.969194 0.996512 0.114042 -0.030092 -593017.000000 0 0 1
-22.290276 31.761910 23.688744 45.462424 -0.958868 1.022702 0.096833 -0.015195 96694.100000 0 0 1
-23.697276 31.900710 23.606044 46.221873 -0.931890 1.034784 0.077428 -0.025774 191884.000000 0 0 1
-24.203876 31.467810 22.185144 45.477811 -0.915143 1.061202 0.076795 -0.030226 30638.800000 0 0 1
-23.693176 32.297610 21.182344 45.312183 -0.937881 1.084363 0.077696 -0.029054 -99680.600000 0 0 1
-23.920376 31.727110 19.908844 44.442727 -0.924778 1.106307 0.053723 -0.021699 -141168.000000 0 0 1
-23.277376 32.550910 18.797644 44.212548 -0.950003 1.131652 0.061116 -0.019285 -1110220.000000 0 0 1
-22.011376 32.983210 19.110744 44.018330 -0.982320 1.121697 0.062756 -0.019329 -1168030.000000 0 0 1
-21.559276 33.792410 18.024844 43.950249 -1.002909 1.148212 0.077733 -0.014674 952857.000000 0 0 1
-20.294376 -33.003713 18.472344 42.922421 1.019484 1.125898 0.065689 -0.019720 667132.000000 0 0 1
-20.658376 -31.892513 19.255544 42.599024 0.996004 1.101769 0.070206 -0.024607 641819.000000 0 0 1
-19.520576 -31.276413 19.878644 41.885885 1.012822 1.076298 0.047682 -0.029469 205187.000000 0 0 1
-19.812676 -30.107813 20.850744 41.638636 0.988778 1.046326 0.042456 -0.024169 -348681.000000 0 0 1
-20.307476 -28.966613 20.240544 40.757059 0.959356 1.051102 0.078884 -0.027447 -87526.500000 0 0 1
-20.745376 -28.102813 21.227444 40.874724 0.934893 1.024730 0.084362 -0.023444 -461895.000000 0 0 1
-21.659576 -26.973813 20.699544 40.313706 0.894238 1.031582 0.077610 -0.034521 -618860.000000 0 0 1
-21.061876 -25.865913 20.131344 38.960481 0.887414 1.027790 0.072400 -0.025166 210112.000000 0 0 1
-21.982876 -24.769513 19.979544 38.677613 0.844932 1.027961 0.068957 -0.011244 -89821.300000 0 0 1
-23.002276 -24.942113 18.844444 38.811426 0.825836 1.063817 0.080699 -0.017726 -796109.000000 0 0 1
-24.240776 -25.364913 19.364744 40.074772 0.808056 1.066473 0.077671 -0.016255 -190658.000000 0 0 1
-25.135966 -25.391413 18.246144 40.118106 0.790454 1.098637 0.075786 -0.018380 -121944.000000 0 0 1
-26.631906 -25.533713 18.602444 41.319243 0.764349 1.103793 0.059574 -0.014446 250279.000000 0 0 1
-27.096596 -26.791613 19.108544 42.628071 0.779739 1.105976 0.054447 -0.017527 4233.770000 0 0 1
-27.389146 -27.742513 18.073444 42.970475 0.791808 1.136688 0.067941 -0.020086 -157320.000000 0 0 1
-28.336266 -28.907813 18.535044 44.521382 0.795382 1.141405 0.083410 -0.024762 844252.000000 0 0 1
-29.686406 -28.465913 18.690444 45.176582 0.764413 1.144260 0.047551 -0.026569 443587.000000 0 0 1
-30.514746 -29.008213 17.639444 45.648397 0.760093 1.174050 0.051020 -0.017636 288071.000000 0 0 1
-32.001636 -28.612813 17.821544 46.480159 0.729548 1.177297 0.054429 -0.020771 216837.000000 0 0 1
-32.223566 -27.202213 17.658644 45.718118 0.701101 1.174233 0.060995 -0.016670 -781046.000000 0 0 1
-33.561366 -26.967513 17.942444 46.642720 0.676889 1.175937 0.080351 -0.006847 -674665.000000 0 0 1
-34.161173 -25.767213 17.152644 46.099330 0.646237 1.189547 0.095078 -0.018986 -89773.400000 0 0 1
-34.282411 -25.856313 15.720944 45.727242 0.646193 1.219838 0.111073 -0.032792 147639.000000 0 0 1
-34.989763 -24.746513 15.179744 45.465350 0.615575 1.230385 0.105159 -0.030852 -218881.000000 0 0 1
-34.205961 -23.538413 14.675744 44.039552 0.602720 1.231058 0.086946 -0.023108 174414.000000 0 0 1
-33.300736 -22.983513 15.654944 43.384999 0.604105 1.201630 0.074820 -0.009860 433553.000000 0 0 1
-32.889936 -21.614313 15.456744 42.282826 0.581400 1.196566 0.073407 -0.008799 -258540.000000 0 0 1
-33.939426 -20.511213 15.699344 42.650485 0.543610 1.193839 0.084567 -0.018503 -144006.000000 0 0 1
-34.188722 -20.324513 17.105544 43.296122 0.536351 1.164639 0.080835 -0.011480 515657.000000 0 0 1
-35.002977 -19.146213 17.316944 43.493245 0.500528 1.161294 0.078466 -0.013029 262647.000000 0 0 1
-35.298262 -18.978713 18.890344 44.305800 0.493325 1.130328 0.074566 -0.012256 597465.000000 0 0 1
-36.433306 -19.771813 19.313344 45.730904 0.497210 1.134787 0.074994 -0.006134 913519.000000 0 0 1
-36.676056 -19.519213 20.635344 46.389117 0.489079 1.109810 0.071533 -0.006179 176641.000000 0 0 1
36.886987 -19.616013 21.012344 46.764905 -0.488753 1.104794 0.073154 -0.002832 858255.000000 0 0 1
36.233887 -20.896713 21.214744 46.900240 -0.523124 1.101412 0.089863 -0.004330 68474.600000 0 0 1
36.714577 -21.726313 22.233644 48.107460 -0.534341 1.090360 0.082549 0.000073 -328973.000000 0 0 1
35.849757 -22.998313 22.534644 48.186488 -0.570390 1.084161 0.101127 0.004742 522414.000000 0 0 1
34.729417 -22.815413 23.409944 47.693824 -0.581244 1.057745 0.094243 -0.008457 412807.000000 0 0 1
34.535907 -24.017013 24.150244 48.505464 -0.607647 1.049636 0.094004 -0.025400 -185947.000000 0 0 1
33.497177 -23.949313 25.292144 48.325179 -0.620699 1.019991 0.101077 -0.022715 453023.000000 0 0 1
32.138457 -24.000913 24.883044 47.202649 -0.641448 1.015549 0.090464 -0.018802 126614.000000 0 0 1
31.306747 -23.968713 26.017444 47.238956 -0.653416 0.987519 0.047525 -0.010593 687725.000000 0 0 1
29.896007 -24.645513 25.754344 46.523744 -0.689428 0.984146 0.049952 -0.018845 1046970.000000 0 0 1
28.967207 -23.645413 25.305444 45.150527 -0.684591 0.975845 0.060800 -0.015509 -218929.000000 0 0 1
27.726807 -24.256013 25.043444 44.545527 -0.718729 0.973754 0.058674 -0.010991 97885.200000 0 0 1
26.583507 -23.246413 24.739844 43.117727 -0.718528 0.959690 0.050784 -0.001700 -173150.000000 0 0 1
26.571507 -22.609713 23.486944 42.058062 -0.705017 0.978291 0.057220 -0.005392 351684.000000 0 0 1
27.755207 -21.828513 23.303444 42.307044 -0.666434 0.987453 0.040182 0.001845 401627.000000 0 0 1
27.792707 -21.140013 21.941544 41.240344 -0.650271 1.009787 0.047004 -0.002769 5759.510000 0 0 1
27.162207 -19.881013 21.832544 40.121068 -0.631840 0.995401 0.054241 -0.010269 53718.100000 0 0 1
27.376307 -19.378613 20.525444 39.322851 -0.615982 1.021635 0.050215 -0.004504 84963.600000 0 0 1
26.570107 -18.069013 20.234644 37.972366 -0.597211 1.008798 0.057797 -0.000730 145651.000000 0 0 1
26.898107 -16.836913 21.003344 38.054306 -0.559283 0.986118 0.057146 -0.018167 103383.000000 0 0 1
26.655707 -16.946113 22.377644 38.709900 -0.566286 0.954415 0.063015 -0.013247 -149784.000000 0 0 1
26.883107 -15.599113 23.049544 38.695157 -0.525776 0.932697 0.080766 -0.011471 -471365.000000 0 0 1
25.697407 -14.863213 22.962244 37.530473 -0.524381 0.912425 0.056685 -0.014556 -493158.000000 0 0 1
25.634807 -13.667513 23.692644 37.487139 -0.489824 0.886638 0.057789 -0.016968 725176.000000 0 0 1
24.227407 -13.034313 23.477744 36.167181 -0.493582 0.864336 0.063078 -0.020675 868611.000000 0 0 1
23.083007 -13.713713 23.960744 35.986224 -0.536073 0.842189 0.069755 -0.014540 -32615.800000 0 0 1
21.942407 -12.910413 23.828944 34.870711 -0.531830 0.818453 0.076414 -0.017670 -555555.000000 0 0 1
20.590607 -13.543713 24.102744 34.472416 -0.581812 0.796533 0.067694 -0.011853 -460643.000000 0 0 1
20.142007 -14.442513 23.098644 33.879698 -0.622067 0.820597 0.079425 -0.020981 -289082.000000 0 0 1
18.978807 -15.073613 23.549344 33.793202 -0.671215 0.799777 0.099793 -0.022441 -339442.000000 0 0 1
18.660007 -16.327713 22.670744 33.596914 -0.718836 0.830121 0.108559 -0.024726 -349375.000000 0 0 1
19.168207 -17.574213 23.072944 34.765411 -0.742042 0.845075 0.085345 -0.013039 -52531.500000 0 0 1
18.848807 -18.582513 22.167744 34.525297 -0.778284 0.873598 0.111767 -0.017004 -191866.000000 0 0 1
19.376807 -19.938813 22.653444 35.863566 -0.799692 0.887109 0.093209 -0.015921 -786889.000000 0 0 1
18.616007 -20.417513 23.677744 36.387719 -0.831518 0.862281 0.104007 -0.020849 -151057.000000 0 0 1
18.869707 -21.812013 24.004144 37.523708 -0.857597 0.876681 0.100425 -0.024233 -338355.000000 0 0 1
18.299207 -22.848713 22.971944 37.210682 -0.895516 0.905429 0.107827 -0.027023 18647.100000 0 0 1
19.075907 -23.119513 21.807544 37.067115 -0.880937 0.941809 0.094088 -0.015292 138671.000000 0 0 1
20.093507 -24.080313 22.078444 38.354506 -0.875407 0.957408 0.084163 -0.016459 -192309.000000 0 0 1
21.077007 -24.286113 20.903344 38.353686 -0.856023 0.994389 0.066399 -0.005274 -184940.000000 0 0 1
20.569307 -24.976313 19.780144 37.923168 -0.881858 1.022089 0.071353 -0.022944 839942.000000 0 0 1
21.555607 -25.103513 18.722544 38.017945 -0.861291 1.055875 0.069747 -0.013551 1023880.000000 0 0 1
20.846307 -25.782513 17.492744 37.487365 -0.890867 1.085319 0.074672 -0.022301 413737.000000 0 0 1
20.450907 -27.072813 17.845244 38.335747 -0.923846 1.086598 0.081914 -0.036984 391741.000000 0 0 1
19.451707 -27.545013 16.922844 37.729024 -0.955935 1.105669 0.087851 -0.036008 332256.000000 0 0 1
18.651107 -28.733213 17.458844 38.448309 -0.995045 1.099450 0.080778 -0.032104 240594.000000 0 0 1
17.607107 -28.409613 18.381844 38.144573 -1.015975 1.067975 0.106295 -0.040623 168284.000000 0 0 1
16.904407 -29.572613 18.749844 38.882580 -1.051503 1.067613 0.123868 -0.044177 -241753.000000 0 0 1
15.692807 -29.264713 19.649744 38.584971 -1.078581 1.036473 0.122911 -0.043445 -442382.000000 0 0 1
14.658107 -28.744813 18.867444 37.377865 -1.099229 1.041674 0.115811 -0.037039 -266343.000000 0 0 1
13.574207 -28.243713 19.665344 36.995839 -1.122781 1.010360 0.093244 -0.036093 557310.000000 0 0 1
12.527507 -27.509913 18.769144 35.581097 -1.143476 1.015137 0.093505 -0.040080 -1782.630000 0 0 1
11.951607 -28.499313 17.908044 35.717639 -1.173708 1.045605 0.106109 -0.046833 -10417.400000 0 0 1
11.414807 -27.885013 16.761344 34.479188 -1.182253 1.063141 0.110941 -0.040424 -60051.800000 0 0 1
11.181807 -28.829413 15.599744 34.634085 -1.200798 1.103565 0.118541 -0.036286 25352.200000 0 0 1
10.012007 -29.611213 15.707444 34.982681 -1.244748 1.105143 0.130552 -0.037374 -84133.100000 0 0 1
10.069407 -30.672513 14.803944 35.515528 -1.253594 1.140841 0.121123 -0.032926 -300560.000000 0 0 1
8.752307 -31.413513 14.543144 35.705947 -1.299071 1.151297 0.120028 -0.027992 -259532.000000 0 0 1
8.331207 -32.381313 15.531944 36.867325 -1.318974 1.135926 0.133238 -0.034181 47191.500000 0 0 1
7.330207 -33.219813 14.988144 37.174350 -1.353619 1.155802 0.103702 -0.031203 -84520.500000 0 0 1
7.124507 33.221510 15.901444 37.513774 1.359542 1.133068 0.108656 -0.037514 491970.000000 0 0 1
8.377507 32.581810 16.139144 37.312584 1.319126 1.123490 0.126231 -0.037390 355891.000000 0 0 1
8.239207 31.667710 17.157744 36.947484 1.316263 1.087860 0.112422 -0.048663 634437.000000 0 0 1
9.633107 31.021910 17.473644 36.884738 1.269711 1.077268 0.152082 -0.047881 389661.000000 0 0 1
10.051107 30.051510 16.486244 35.719942 1.248030 1.091064 0.140658 -0.043283 -150532.000000 0 0 1
11.197407 29.419410 17.017044 35.783563 1.207114 1.075202 0.140664 -0.043923 -44643.700000 0 0 1
12.046207 28.692810 15.965144 34.975338 1.173310 1.096774 0.130791 -0.035082 -454736.000000 0 0 1
11.337607 27.761210 15.238744 33.636965 1.183072 1.100629 0.153208 -0.036937 -452234.000000 0 0 1
12.163807 26.900010 14.491544 32.887286 1.146126 1.114482 0.136018 -0.030292 46949.000000 0 0 1
-9.299976 -9.337490 18.992283 23.116771 0.787411 0.606619 0.045837 -0.023856 -245900.000000 0 1 0
-9.791376 -9.447390 17.701983 22.326765 0.767520 0.655310 0.057051 -0.028431 -74038.000000 0 1 0
-9.723876 -10.801090 17.387383 22.661386 0.837833 0.696224 0.064937 -0.025400 187639.000000 0 1 0
-10.041076 -11.010990 15.888983 21.783592 0.831438 0.753350 0.072831 -0.024668 192182.000000 0 1 0
-11.412176 -10.771990 15.601883 22.128992 0.756548 0.788313 0.067311 -0.025823 388340.000000 0 1 0
-11.890276 -11.261890 14.356483 21.778830 0.758263 0.851049 0.085553 -0.026992 71996.000000 0 1 0
-11.878576 -12.796290 14.107383 22.446912 0.822573 0.891202 0.072330 -0.026807 -139227.000000 0 1 0
-10.588676 -13.291890 13.730983 21.847981 0.898116 0.891201 0.083435 -0.030226 704481.000000 0 1 0
-10.469776 -14.680890 14.017583 22.839382 0.951295 0.909999 0.086824 -0.024473 93582.800000 0 1 0
-10.031876 -15.024990 15.497183 23.802343 0.982093 0.861792 0.088922 -0.024871 151290.000000 0 1 0
-11.086176 -14.807590 16.444583 24.750603 0.928139 0.844090 0.111756 -0.018556 160776.000000 0 1 0
-10.768076 -14.899990 17.839283 25.616424 0.945004 0.800427 0.116896 -0.019627 362054.000000 0 0 1
-12.047576 -14.638490 18.740283 26.657601 0.882183 0.791190 0.083572 -0.021480 497218.000000 0 0 1
-12.426276 -13.276090 18.658283 26.053760 0.818450 0.772532 0.081486 -0.014686 262830.000000 0 0 1
-13.493876 -13.051290 17.727783 25.820441 0.768727 0.814022 0.089747 -0.023643 734969.000000 0 0 1
-14.914776 -13.141590 18.375283 27.070334 0.722281 0.824672 0.063956 -0.014878 190383.000000 0 0 1
-15.310576 -14.420390 18.789983 28.203277 0.755466 0.841649 0.074748 -0.014322 195448.000000 0 0 1
-16.543376 -14.481290 19.509383 29.393997 0.719030 0.845015 0.089174 -0.016860 451983.000000 0 0 1
-16.924676 -15.928990 19.869783 30.577535 0.755101 0.863453 0.097292 -0.026988 92769.400000 0 0 1
-17.844476 -16.483390 18.930383 30.797514 0.745769 0.908826 0.094937 -0.020114 181281.000000 0 0 1
-18.409276 -17.679590 19.453283 32.092048 0.765182 0.919558 0.083147 -0.020199 574024.000000 0 0 1
-19.764876 -18.038390 18.744283 32.670812 0.739760 0.959741 0.093749 -0.022298 373427.000000 0 0 1
-19.610876 -18.369190 17.396283 32.010065 0.752717 0.996239 0.101297 -0.023579 98325.300000 0 0 1
-19.961276 -17.218090 16.660883 31.184935 0.711749 1.007163 0.104165 -0.026760 -367642.000000 0 0 1
-19.650476 -17.275190 15.168183 30.243134 0.721160 1.045417 0.108778 -0.026912 -76280.000000 0 0 1
-20.263476 -18.380890 14.516083 30.970667 0.736721 1.082973 0.113868 -0.024129 345753.000000 0 0 1
-19.800876 -18.399190 13.168183 30.066691 0.748721 1.117462 0.112987 -0.025938 267900.000000 0 0 1
-20.216176 -19.692490 12.451283 30.846756 0.772277 1.155294 0.118327 -0.016569 -82334.400000 0 0 1
-19.404076 -20.737990 12.898383 31.192157 0.818616 1.144487 0.117968 -0.023536 -48201.400000 0 0 1
-19.252876 -21.832790 11.987583 31.480885 0.848109 1.180147 0.103872 -0.020316 -188455.000000 0 0 1
-18.521476 -23.058090 12.588683 32.143359 0.894075 1.168381 0.092037 -0.021045 12981.900000 0 0 1
-18.441776 -24.148690 11.720383 32.567249 0.918600 1.202654 0.094234 -0.038038 492232.000000 0 0 1
-17.411676 -24.083690 10.719383 31.592653 0.944823 1.224624 0.078135 -0.032497 47013.900000 0 0 1
-17.557576 -25.390770 9.875283 32.411123 0.965802 1.261185 0.076477 -0.033161 -123787.000000 0 0 1
-18.742076 -25.471800 9.129983 32.915568 0.936447 1.289735 0.068201 -0.025958 -463276.000000 0 0 1
-18.660076 -26.494570 8.188183 33.424647 0.957192 1.323303 0.085179 -0.029783 484013.000000 0 0 1
-19.819876 -26.428750 7.142183 33.798182 0.927336 1.357873 0.058635 -0.032549 528313.000000 0 0 1
-19.869576 -25.134760 6.567583 32.706106 0.901862 1.368616 0.076197 -0.032102 601111.000000 0 0 1
-21.029876 -25.067470 5.717783 33.216363 0.872764 1.397797 0.091497 -0.026998 706481.000000 0 0 1
-21.054476 -23.740690 5.009283 32.124823 0.845293 1.414226 0.104360 -0.028307 76015.500000 0 0 1
-22.023476 -23.753190 3.967483 32.634161 0.823166 1.448920 0.112643 -0.024483 293066.000000 0 0 1
-22.034676 -22.558390 3.173183 31.693485 0.797142 1.470507 0.128179 -0.024516 -414076.000000 0 0 1
-22.705276 -22.746790 1.857583 32.193114 0.786312 1.513063 0.122924 -0.021636 -92430.100000 0 0 1
-21.921076 -23.346090 0.799783 32.034562 0.816868 1.545827 0.104014 -0.031497 516678.000000 0 0 1
-22.540776 -23.217290 -0.505117 32.363317 0.800182 1.586405 0.122676 -0.034573 -153669.000000 0 0 1
-21.820076 -23.973990 -1.624317 32.457762 0.832398 1.620861 0.121185 -0.037961 366950.000000 0 0 1
-20.510276 -23.431190 -1.883617 31.196796 0.851773 1.631212 0.108891 -0.034145 1027480.000000 0 0 1
-19.669976 -24.113790 -2.809217 31.245392 0.886546 1.660826 0.094016 -0.026705 488207.000000 0 0 1
-19.313776 -25.646190 -2.605317 32.210816 0.925323 1.651768 0.110595 -0.022758 -129340.000000 0 0 1
-20.429076 -26.467880 -2.922817 33.562459 0.913461 1.657993 0.165257 -0.034984 58153.700000 0 0 1
-19.993576 -27.715050 -3.436017 34.346372 0.945853 1.671004 0.161602 -0.029319 146195.000000 0 0 1
-21.111476 -28.652420 -4.007717 35.815044 0.935788 1.682932 0.162733 -0.033268 240908.000000 0 0 1
-21.717976 -28.144410 -5.184617 35.925736 0.913575 1.715617 0.156994 -0.026726 -3784.390000 0 0 1
-22.303876 -29.204750 -5.922417 37.221705 0.918580 1.730587 0.162914 -0.043879 341835.000000 0 0 1
-23.116676 -28.775600 -7.208517 37.608225 0.894020 1.763664 0.154017 -0.007151 266494.000000 0 0 1
-22.288976 -28.242520 -8.223817 36.906226 0.902676 1.795513 0.173913 -0.011493 245604.000000 0 0 1
-22.901176 -28.198470 -9.526717 37.554972 0.888695 1.827273 0.165020 -0.007263 446968.000000 0 0 1
-23.809876 -26.940990 -9.859917 37.281967 0.847016 1.838449 0.131726 -0.000618 249973.000000 0 0 1
-23.198776 -25.698310 -10.110417 36.066700 0.836472 1.854930 0.125661 0.000766 -144415.000000 0 0 1
-22.654076 -25.067250 -8.951917 34.952982 0.835923 1.829795 0.108432 -0.008949 232508.000000 0 0 1
-22.166176 -23.604290 -9.360917 33.706507 0.816808 1.852215 0.070709 -0.008292 531940.000000 0 0 1
-23.242476 -22.836990 -9.899317 34.054915 0.776599 1.865741 0.100745 -0.004707 278138.000000 0 0 1
-22.848476 -21.573990 -10.207217 33.040538 0.756716 1.884864 0.081608 -0.001568 -27659.600000 0 0 1
-24.074776 -20.638990 -10.210517 33.313922 0.708709 1.882304 0.101714 0.003078 -246701.000000 0 0 1
-24.788876 -20.764690 -11.428417 34.296785 0.697287 1.910514 0.103269 0.006347 504366.000000 0 0 1
-26.084876 -20.185390 -11.549517 34.946560 0.658582 1.907620 0.108093 0.000480 498148.000000 0 0 1
-26.146036 -18.628090 -11.622417 34.142371 0.619042 1.918150 0.122849 -0.015641 -1207270.000000 0 0 1
-25.792626 -18.081490 -12.860917 34.023566 0.611419 1.958432 0.136499 -0.006964 427833.000000 0 0 1
-25.359086 -16.699790 -12.858017 32.974154 0.582350 1.971365 0.131815 -0.027481 387583.000000 0 0 1
-24.029076 -16.396390 -12.094417 31.504175 0.598786 1.964811 0.109356 -0.023710 -339781.000000 0 0 1
-24.151776 -16.399690 -10.688817 31.088727 0.596510 1.921774 0.150075 -0.028563 510541.000000 0 0 1
-22.916676 -16.509890 -9.994117 29.960522 0.624307 1.910891 0.113160 -0.025856 257665.000000 0 0 1
-23.242776 -16.679290 -8.507317 29.846269 0.622448 1.859842 0.090484 -0.043264 240724.000000 0 0 1
-23.866476 -17.965690 -8.365617 31.021899 0.645264 1.843845 0.130034 -0.033859 262745.000000 0 0 1
-24.440176 -18.142390 -7.106817 31.256605 0.638567 1.800172 0.139318 -0.027612 -118459.000000 0 0 1
-25.178006 -19.477490 -6.857917 32.562795 0.658429 1.782991 0.149580 -0.025634 -99568.300000 0 0 1
-26.394806 -19.677390 -7.550517 33.777148 0.640616 1.796240 0.131492 -0.034180 40094.600000 0 0 1
-26.883476 -20.939990 -7.232517 34.835524 0.661752 1.779937 0.134302 -0.018805 -225031.000000 0 0 1
-26.403466 -22.086990 -8.127117 35.369877 0.696615 1.802643 0.112697 -0.011220 -365461.000000 0 0 1
-27.169046 -23.243890 -7.929417 36.623915 0.707695 1.789034 0.117090 -0.007789 -260579.000000 0 0 1
-26.711376 -24.283690 -8.768617 37.149480 0.737828 1.809081 0.098816 0.004274 181276.000000 0 0 1
-27.445076 -25.624500 -8.595517 38.519217 0.751106 1.795840 0.101438 -0.006512 133499.000000 0 0 1
-27.053296 -26.188160 -7.353017 38.363621 0.769150 1.763656 0.135931 -0.027185 -216582.000000 0 0 1
-27.533816 -27.456550 -7.128117 39.532053 0.783993 1.752100 0.122983 -0.030183 -153224.000000 0 0 1
-27.237206 -27.974760 -5.703617 39.458634 0.798756 1.715851 0.137129 -0.039501 116415.000000 0 0 1
-28.049266 -27.365470 -4.687017 39.466421 0.773059 1.689837 0.103865 -0.033390 173090.000000 0 0 1
-27.649256 -27.729770 -3.414317 39.307494 0.786852 1.657768 0.115039 -0.038259 -138223.000000 0 0 1
-28.075366 -29.153990 -2.957417 40.582356 0.804243 1.643735 0.092620 -0.022449 -182585.000000 0 0 1
-27.442416 -30.238390 -3.631917 40.995576 0.833833 1.659506 0.106327 -0.032982 -60948.600000 0 0 1
-27.426826 -31.541820 -3.065417 41.910786 0.855068 1.644003 0.086222 -0.038373 -265900.000000 0 0 1
-26.513116 -31.762210 -1.842017 41.414687 0.875230 1.615288 0.095294 -0.037591 10977.200000 0 0 1
-25.149716 -31.732220 -2.237317 40.551789 0.900608 1.625996 0.117254 -0.048277 134717.000000 0 0 1
-24.306476 -31.803620 -1.083817 40.043098 0.918226 1.597866 0.143003 -0.026236 698955.000000 0 0 1
-23.068776 -30.854520 -1.165017 38.542536 0.928793 1.601028 0.144780 -0.026834 382160.000000 0 0 1
-23.303876 -29.552960 -0.642417 37.641211 0.903078 1.587864 0.118933 -0.025580 -25365.500000 0 0 1
-23.868076 -28.716180 -1.626917 37.375806 0.877335 1.614339 0.154418 -0.033692 -133104.000000 0 0 1
-24.453176 -27.349810 -1.124117 36.704680 0.841256 1.601427 0.089742 -0.021483 189760.000000 0 0 1
-25.755136 -27.522450 -0.592217 37.698316 0.818558 1.586506 0.114217 -0.023450 -290.870000 0 0 1
-26.463906 -26.362690 -0.218017 37.354749 0.783482 1.576633 0.136457 -0.036913 407613.000000 0 0 1
-25.759416 -25.416160 0.849283 36.197375 0.778691 1.547332 0.138809 -0.031017 31615.000000 0 0 1
-25.640046 -26.113610 2.055683 36.654582 0.794548 1.514684 0.127607 -0.031579 -231373.000000 0 0 1
-25.006376 -25.432110 3.111383 35.802119 0.793839 1.483782 0.148970 -0.026278 -532267.000000 0 0 1
-25.797726 -24.417790 3.879083 35.732316 0.757925 1.462022 0.164400 -0.035438 -441628.000000 0 0 1
-26.107176 -23.282790 3.076583 35.116069 0.728275 1.483072 0.151400 -0.029782 530173.000000 0 0 1
-27.018806 -22.364090 3.718383 35.270310 0.691418 1.465175 0.157049 -0.024402 426619.000000 0 0 1
-27.277106 -21.220790 2.762083 34.669750 0.661163 1.491043 0.148913 -0.021678 262194.000000 0 0 1
-26.117616 -20.435190 2.587783 33.262944 0.663935 1.492920 0.135490 -0.021771 139181.000000 0 0 1
-26.171396 -19.832590 1.275783 32.861850 0.648472 1.531964 0.113301 -0.012619 359793.000000 0 0 1
-25.094486 -18.711590 1.088483 31.321584 0.640708 1.536037 0.123173 -0.005874 831759.000000 0 0 1
-23.774176 -19.252290 1.097583 30.611547 0.680687 1.534933 0.130973 -0.012123 -314774.000000 0 0 1
-22.818476 -18.280190 1.179483 29.261568 0.675420 1.530477 0.120195 -0.009131 -2069470.000000 0 0 1
-21.397876 -18.692890 1.167283 28.436874 0.718029 1.529737 0.104007 -0.009598 -1429700.000000 0 0 1
-20.960676 -19.331390 -0.021617 28.514085 0.744983 1.571554 0.061409 -0.014048 -324074.000000 0 0 1
-19.835976 -20.107490 0.254483 28.246094 0.792195 1.561787 0.101020 -0.016132 -457615.000000 0 0 1
-19.249276 -20.730090 -1.024717 28.307619 0.822421 1.607004 0.093621 -0.019626 -18533.100000 0 0 1
-18.488976 -19.871290 -1.859817 27.206053 0.821418 1.639210 0.088238 -0.024306 634.072000 0 0 1
-18.202276 -20.421490 -3.146417 27.536522 0.842792 1.685310 0.075926 -0.019340 -96039.800000 0 0 1
-17.617076 -19.384890 -4.101317 26.513320 0.833138 1.726109 0.091707 -0.011331 -728338.000000 0 0 1
-16.238876 -19.322190 -3.902017 25.539652 0.871887 1.724180 0.120939 -0.023533 -1001750.000000 0 0 1
-15.759476 -18.474690 -4.844817 24.761815 0.864545 1.767723 0.129041 -0.020637 -800717.000000 0 1 0
-14.320676 -18.043090 -4.580617 23.486526 0.899913 1.767086 0.150582 -0.035884 43058.700000 0 1 0
-13.315076 -19.059790 -4.744017 23.729149 0.961014 1.772076 0.112910 -0.034142 158466.000000 0 1 0
-12.264476 -18.645890 -5.566117 23.001483 0.988987 1.815212 0.115660 -0.042503 -530227.000000 0 1 0
-11.106876 -19.634490 -5.664117 23.258506 1.055993 1.816799 0.108283 -0.045641 -64777.300000 0 1 0
-11.402476 -20.818090 -6.397417 24.583252 1.069706 1.834062 0.092477 -0.036035 851365.000000 0 1 0
-10.158576 -21.542090 -6.572517 24.707413 1.130151 1.840052 0.098436 -0.032058 1092800.000000 0 1 0
-10.358076 -22.867890 -7.347617 26.157553 1.145490 1.855526 0.087222 -0.008985 -181831.000000 0 0 1
-10.718076 -22.622190 -8.689917 26.498213 1.128339 1.904922 0.086512 -0.010085 -50122.700000 0 0 1
-10.498776 -23.691490 -9.529017 27.610019 1.153657 1.923172 0.108307 -0.008787 -112408.000000 0 0 1
-11.234976 -23.576890 -10.879917 28.292525 1.126104 1.965518 0.141109 -0.009340 254759.000000 0 0 1
-10.684176 -22.575790 -11.724717 27.591428 1.128770 2.009693 0.123103 -0.009588 -473326.000000 0 0 1
-11.588776 -22.285590 -12.715417 28.153669 1.091268 2.039403 0.130297 -0.020528 -680433.000000 0 0 1
-11.146076 -21.115690 -13.661017 27.508739 1.085112 2.090481 0.099013 0.002548 -42911.000000 0 0 1
-10.975976 -19.893090 -12.987017 26.170015 1.066612 2.090077 0.097365 -0.008361 -96877.500000 0 0 1
-10.793376 -18.816190 -13.897417 25.762068 1.049998 2.140583 0.084210 0.006546 55729.700000 0 0 1
-10.591676 -17.429590 -13.236917 24.314402 1.024746 2.146478 0.098631 0.000214 328442.000000 0 1 0
-11.791676 -16.830790 -12.733717 24.175745 0.959667 2.125527 0.126401 -0.009345 403794.000000 0 1 0
-11.569776 -16.055890 -11.549917 22.914011 0.946382 2.099084 0.120959 -0.018020 -33849.000000 0 1 0
-11.086476 -14.617290 -11.878117 21.855543 0.921909 2.145377 0.109996 -0.018423 -245636.000000 0 1 0
-12.032276 -13.772690 -12.470617 22.135468 0.852741 2.169264 0.101436 -0.012391 -429862.000000 0 1 0
-11.982276 -13.697890 -13.903417 22.902230 0.852106 2.223173 0.104910 -0.008299 -53879.200000 0 1 0
-13.118776 -12.912090 -14.604617 23.497216 0.777458 2.241512 0.098731 -0.004855 -1119.740000 0 1 0
-13.202876 -11.558390 -14.223017 22.587751 0.719082 2.251935 0.083007 -0.003316 -11292.900000 0 1 0
-14.147176 -10.899790 -15.063317 23.363465 0.656465 2.271477 0.077544 -0.008850 122454.000000 0 1 0
-14.332276 -9.419090 -14.684317 22.577922 0.581416 2.278886 0.064895 -0.008173 -283815.000000 0 1 0
-13.121776 -8.737590 -14.823817 21.639594 0.587461 2.325444 0.053421 0.000217 -285908.000000 0 1 0
-13.094776 -7.749690 -15.868417 21.984938 0.534380 2.377175 0.055706 -0.004358 176831.000000 0 1 0
-11.942876 -6.705090 -15.730417 20.857529 0.511576 2.425207 0.038924 -0.011628 1208840.000000 0 1 0
-10.659276 -7.258790 -16.095517 20.624642 0.597849 2.466105 0.035731 -0.009964 1213410.000000 0 1 0
-9.628776 -6.258490 -16.081417 19.760921 0.576360 2.521456 0.023210 -0.002518 330454.000000 0 1 0
11.915624 21.708910 15.732483 29.338881 1.068812 1.004828 0.139469 -0.021908 -183094.000000 0 0 1
12.752524 21.822910 16.843183 30.373658 1.041953 0.982995 0.146534 -0.029288 -224476.000000 0 0 1
13.108324 20.554210 17.352883 29.923674 1.003085 0.952184 0.116259 -0.027660 163539.000000 0 0 1
14.352124 20.711310 18.272483 31.125962 0.964810 0.943387 0.105608 -0.030344 843789.000000 0 0 1
15.608724 20.956310 17.607383 31.509033 0.930617 0.977853 0.093274 -0.023664 602831.000000 0 0 1
16.630824 20.641710 18.560983 32.360077 0.892595 0.959931 0.101772 -0.029905 -75926.300000 0 0 1
18.019724 21.029210 18.037483 33.049795 0.862316 0.993492 0.071246 -0.020289 -1113790.000000 0 0 1
18.307224 22.420310 17.945783 34.056951 0.886047 1.015807 0.078919 -0.022144 380929.000000 0 0 1
19.576624 22.770310 17.400483 34.706023 0.860673 1.045617 0.066822 -0.017610 49976.500000 0 0 1
20.815124 22.471910 18.220483 35.640457 0.823654 1.034181 0.051967 -0.020725 -976583.000000 0 0 1
21.190424 21.094410 18.016583 34.908530 0.783128 1.028495 0.070690 -0.018253 586707.000000 0 0 1
22.417124 20.697610 18.650183 35.759584 0.745537 1.022137 0.096671 -0.023234 469905.000000 0 0 1
22.787124 19.255810 18.358983 35.029866 0.701602 1.019144 0.097391 -0.025348 -229824.000000 0 0 1
23.086324 18.978910 16.992983 34.379338 0.688063 1.053791 0.063249 -0.015630 -16347.900000 0 0 1
22.891124 17.689710 16.471883 33.290424 0.657919 1.053199 0.058249 -0.014651 -201058.000000 0 0 1
23.831424 16.574210 17.006883 33.643354 0.607684 1.040829 0.067002 -0.017370 103807.000000 0 0 1
25.077424 16.639810 16.345983 34.248382 0.585833 1.073242 0.083539 -0.032182 -131366.000000 0 0 1
25.798124 15.458910 16.317683 34.216778 0.539850 1.073682 0.062636 -0.007972 -254257.000000 0 0 1
27.165124 15.498210 15.576183 34.939318 0.518460 1.108721 0.176869 -0.052709 526458.000000 0 0 1
28.098724 16.490910 16.101583 36.342116 0.530725 1.111792 0.154202 -0.044583 661671.000000 0 0 1
28.990224 16.066110 17.095783 37.293683 0.506055 1.094591 0.162887 -0.055949 -418403.000000 0 0 1
30.231124 15.326310 16.583983 37.733873 0.469209 1.115756 0.157380 -0.061763 -871837.000000 0 0 1
31.135124 16.104310 15.818883 38.457533 0.477344 1.146879 0.207299 -0.057981 -153521.000000 0 0 1
31.907024 15.273010 14.962283 38.408240 0.446440 1.170643 0.202060 -0.063643 -46556.000000 0 0 1
31.337324 14.744010 13.610983 37.211189 0.439765 1.196329 0.173416 -0.056776 -613955.000000 0 0 1
31.105624 15.732310 12.639483 37.078592 0.468253 1.222940 0.185405 -0.042900 -273445.000000 0 0 1
30.394724 15.167310 11.564783 35.883572 0.462856 1.242653 0.173146 -0.041251 759809.000000 0 0 1
28.884924 15.622810 11.634583 34.839267 0.495802 1.230305 0.155002 -0.045950 438580.000000 0 0 1
28.599824 16.978310 11.282483 35.121324 0.535738 1.243754 0.143761 -0.032961 -11429.900000 0 0 1
29.188524 17.997810 12.086983 36.359129 0.552540 1.231914 0.142680 -0.051306 -552173.000000 0 0 1
28.580724 18.275610 13.432183 36.486700 0.568915 1.193789 0.142870 -0.049389 814124.000000 0 0 1
27.409824 19.147710 13.442383 36.036522 0.609766 1.188533 0.146446 -0.036166 1203830.000000 0 0 1
26.610924 19.097510 14.614983 35.867170 0.622478 1.151109 0.122305 -0.032188 119925.000000 0 0 1
27.261524 19.655710 15.951283 37.201896 0.624685 1.127659 0.123111 -0.031352 60874.000000 0 0 1
27.183624 21.085310 16.038083 37.957342 0.659724 1.134562 0.097622 -0.017775 450037.000000 0 0 1
25.895324 21.601510 16.395883 37.496907 0.695241 1.118247 0.079214 -0.012299 491637.000000 0 0 1
25.667724 23.125710 16.243983 38.177186 0.733348 1.131294 0.076260 -0.009711 -123231.000000 0 0 1
25.533224 23.414510 14.874083 37.701766 0.742140 1.165251 0.093204 -0.026540 259166.000000 0 0 1
25.965724 24.739910 14.552283 38.704663 0.761228 1.185339 0.098536 -0.026699 -330182.000000 0 0 1
25.777724 25.154210 13.083883 38.319882 0.773157 1.222349 0.093454 -0.031304 290509.000000 0 0 1
24.434524 25.489510 12.726283 37.532911 0.806527 1.224868 0.098596 -0.029160 519368.000000 0 0 1
24.253524 25.545610 11.346983 37.007643 0.811338 1.259165 0.100473 -0.048006 -89014.400000 0 0 1
23.480924 24.364110 10.738683 35.500464 0.803855 1.263488 0.109785 -0.051792 177662.000000 0 0 1
22.064924 24.263310 10.967883 34.581260 0.832815 1.248060 0.101797 -0.046821 660790.000000 0 0 1
21.601424 22.989210 10.691083 33.308026 0.816511 1.244036 0.094032 -0.041706 -171699.000000 0 0 1
21.390824 22.710810 9.149983 32.512620 0.815320 1.285514 0.113675 -0.037017 -1047360.000000 0 0 1
20.184124 23.120110 8.591883 31.870971 0.853094 1.297836 0.120256 -0.039422 -309849.000000 0 0 1
20.425224 23.728210 7.316383 32.151939 0.860066 1.341229 0.115071 -0.041735 -459295.000000 0 0 1
19.159324 23.998810 6.516883 31.392553 0.897066 1.361682 0.106290 -0.038069 -803129.000000 0 0 1
18.736124 22.724710 5.950483 30.047680 0.881304 1.371444 0.098362 -0.032956 -5837.990000 0 0 1
17.913124 22.761910 4.821783 29.363824 0.904046 1.405841 0.114561 -0.039605 569447.000000 0 0 1
16.399124 23.212910 4.932183 28.846090 0.955744 1.398969 0.071921 -0.029834 802593.000000 0 0 1
16.323824 24.664310 5.103183 30.013962 0.986143 1.399939 0.079370 -0.031168 -1057820.000000 0 0 1
15.061924 25.086010 5.420683 29.758247 1.030074 1.387616 0.068977 -0.031697 -1196540.000000 0 0 1
14.853824 26.586310 5.293683 30.911019 1.061297 1.398692 0.060594 -0.025575 -429229.000000 0 0 1
14.557124 26.887110 3.967483 30.831274 1.074567 1.441755 0.051710 -0.020878 327438.000000 0 0 1
14.527224 28.275210 3.793083 32.014297 1.096186 1.452036 0.034931 -0.018099 -171773.000000 0 0 1
13.897724 28.629110 2.386683 31.913460 1.118864 1.495940 0.050823 -0.020044 -403810.000000 0 0 1
14.673824 28.268810 1.290383 31.876509 1.092000 1.530305 0.075186 -0.027573 -485076.000000 0 0 1
14.339624 27.060010 0.640383 30.631341 1.083501 1.549889 0.046720 -0.019079 -390756.000000 0 0 1
15.300024 26.565010 -0.435217 30.659092 1.048251 1.584992 0.056052 -0.025796 -224331.000000 0 0 1
15.382824 27.314610 -1.643617 31.391411 1.057897 1.623179 0.054087 -0.014630 -129262.000000 0 0 1
16.359724 26.757610 -2.493017 31.461491 1.022033 1.650120 0.066841 -0.010698 1830.620000 0 0 1
16.315224 27.375410 -3.894117 32.105510 1.033337 1.692387 0.097235 -0.023662 348546.000000 0 0 1
15.192824 26.837010 -4.630117 31.184692 1.055665 1.719821 0.116307 -0.030769 409452.000000 0 0 1
15.148024 27.392210 -5.952217 31.862591 1.065649 1.758709 0.116310 -0.031917 -331262.000000 0 0 1
13.865324 27.102410 -6.707217 31.173300 1.097920 1.787651 0.118421 -0.044130 -427456.000000 0 0 1
13.719224 25.733710 -7.064117 30.005711 1.081003 1.808453 0.105857 -0.032853 725739.000000 0 0 1
12.499724 25.667710 -7.849517 29.608941 1.117617 1.839110 0.098377 -0.042107 818482.000000 0 0 1
12.200924 24.141610 -8.134217 28.246157 1.102846 1.862909 0.099759 -0.026599 138558.000000 0 0 1
13.083224 23.665710 -9.129817 28.541026 1.065779 1.896403 0.096620 -0.029203 303110.000000 0 0 1
12.824324 22.309310 -9.398517 27.395268 1.049081 1.920980 0.107405 -0.019873 -3863.450000 0 0 1
13.328024 21.807810 -10.775217 27.736656 1.022213 1.969781 0.123719 -0.026966 135995.000000 0 0 1
12.659624 20.583510 -10.986317 26.545172 1.019393 1.997500 0.144078 -0.030726 88060.300000 0 0 1
12.681124 20.235510 -12.349017 26.884661 1.010992 2.048041 0.131518 -0.035830 -126803.000000 0 0 1
13.857924 19.368810 -12.806517 27.040705 0.949759 2.064172 0.138107 -0.028878 275853.000000 0 0 1
15.129324 19.999010 -12.773717 28.142933 0.923146 2.041919 0.106158 -0.024781 -122643.000000 0 0 1
16.040424 19.366910 -13.633217 28.604842 0.879072 2.067585 0.090330 -0.025640 132285.000000 0 0 1
17.448624 20.019410 -13.579617 29.826788 0.853904 2.043486 0.098962 -0.015860 -57575.900000 0 0 1
17.682924 21.261710 -14.316917 31.140331 0.877035 2.048515 0.100237 -0.021806 -236339.000000 0 0 1
16.893924 22.405310 -14.105717 31.406589 0.924731 2.036590 0.102107 -0.020050 71739.700000 0 0 1
17.655424 23.692910 -14.666217 32.987360 0.930389 2.031525 0.088151 -0.021251 340521.000000 0 0 1
17.590824 23.914110 -16.056917 33.751242 0.936586 2.066605 0.076769 -0.012102 391898.000000 0 0 1
16.306224 24.227310 -16.611117 33.597391 0.978387 2.087960 0.075753 -0.007016 714542.000000 0 0 1
16.408224 24.298210 -18.142917 34.478954 0.976851 2.124925 0.058607 0.003456 152128.000000 0 0 1
16.677724 23.071010 -18.727517 34.075473 0.944875 2.152669 0.057409 0.008074 -259683.000000 0 0 1
16.442124 23.204510 -20.124717 34.839589 0.954339 2.186630 0.054387 0.009570 -54551.300000 0 0 1
16.668424 21.944310 -20.993317 34.642582 0.921193 2.221816 0.066345 0.008249 -196733.000000 0 0 1
15.873624 20.851710 -20.678117 33.381885 0.920126 2.238827 0.070954 -0.001359 -103078.000000 0 0 1
16.432324 19.790610 -21.394517 33.457658 0.877846 2.264580 0.072056 -0.000909 -39928.000000 0 0 1
15.444124 18.635410 -21.536317 32.397722 0.878768 2.297953 0.067345 -0.005190 -866268.000000 0 0 1
15.138024 18.014410 -20.281917 31.065011 0.871944 2.282185 0.073972 -0.013181 489216.000000 0 0 1
14.224024 16.913210 -20.536717 30.168465 0.871550 2.319561 0.064649 -0.017704 857274.000000 0 0 1
12.729324 17.356410 -20.656817 29.832612 0.937999 2.335640 0.071647 -0.015561 -102862.000000 0 0 1
12.053324 17.267310 -19.390717 28.625906 0.961385 2.314996 0.068103 -0.025529 -560071.000000 0 0 1
10.672724 17.358610 -19.560217 28.245893 1.019538 2.335742 0.076443 -0.029021 -878206.000000 0 0 1
9.971924 17.083210 -18.222517 26.894897 1.042429 2.315217 0.097191 -0.031422 -722737.000000 0 0 1
9.817424 15.725510 -17.889917 25.762814 1.012701 2.338394 0.123008 -0.064539 91523.100000 0 0 1
8.539424 15.257110 -18.275717 25.292351 1.060535 2.378322 0.137159 -0.048790 695066.000000 0 0 1
7.418024 15.438610 -17.154017 24.241247 1.122882 2.356945 0.139670 -0.045908 443423.000000 0 1 0
7.089424 16.720310 -16.814917 24.750154 1.169772 2.317722 0.147184 -0.040908 -435133.000000 0 1 0
6.500124 16.723910 -15.535717 23.733927 1.200093 2.284421 0.120735 -0.048761 -220678.000000 0 1 0
6.326124 18.105710 -14.884917 24.277507 1.234657 2.230795 0.103888 -0.046458 101069.000000 0 1 0
7.494924 18.877110 -14.620417 25.025502 1.192846 2.194716 0.106937 -0.044599 -33147.500000 0 0 1
7.884624 19.684110 -15.760817 26.420349 1.189809 2.209980 0.118408 -0.033569 -416436.000000 0 0 1
9.103724 20.550910 -15.441617 27.270153 1.153792 2.172741 0.103748 -0.017043 -431598.000000 0 0 1
9.004624 21.798410 -14.746117 27.815498 1.179060 2.129562 0.097908 -0.020971 -314219.000000 0 0 1
8.786224 21.739310 -13.340017 26.976868 1.186706 2.088054 0.094304 -0.022994 21.540100 0 0 1
8.293524 23.034210 -12.617517 27.541952 1.225194 2.046675 0.088611 -0.027219 289623.000000 0 0 1
6.974024 23.462410 -13.001717 27.715814 1.281871 2.059077 0.071077 -0.026410 727410.000000 0 0 1
6.320524 24.381110 -12.110917 27.947484 1.317142 2.018998 0.060660 -0.025933 520183.000000 0 0 1
5.876124 23.754110 -10.762017 26.732145 1.328292 1.985138 0.063602 -0.035114 -1006900.000000 0 0 1
7.002724 23.424010 -10.007317 26.417206 1.280299 1.959315 0.051983 -0.029655 -377044.000000 0 0 1
6.688824 22.859610 -8.755417 25.376357 1.286138 1.923059 0.061336 -0.040111 -559477.000000 0 0 1
7.796324 22.994610 -7.732817 25.481979 1.243910 1.879120 0.062055 -0.033608 -492474.000000 0 0 1
7.722724 24.262110 -7.119117 26.438084 1.262633 1.843437 0.050581 -0.031867 203208.000000 0 0 1
8.547924 24.285610 -5.978517 26.431053 1.232363 1.798964 0.063488 -0.027858 -127026.000000 0 0 1
8.847024 25.692510 -5.413717 27.707098 1.239170 1.767452 0.056203 -0.026733 127667.000000 0 0 1
9.576624 26.439110 -6.387617 28.836434 1.223282 1.794161 0.074453 -0.036139 156028.000000 0 0 1
9.920724 27.719410 -5.888117 30.024263 1.227103 1.768188 0.072889 -0.035134 133920.000000 0 0 1
10.039924 28.869210 -6.958817 31.347353 1.236107 1.794652 0.070340 -0.030577 149555.000000 0 0 1
11.249524 28.844210 -7.699617 31.903360 1.198932 1.814545 0.083283 -0.031581 -59217.900000 0 0 1
11.484724 30.093710 -8.309717 33.265323 1.206224 1.823271 0.075119 -0.025603 157912.000000 0 0 1
12.912124 30.204510 -8.912217 34.036201 1.166819 1.835730 0.109188 -0.034079 87928.400000 0 0 1
13.898924 30.243810 -7.924017 34.214883 1.140019 1.804514 0.100189 -0.029863 -977607.000000 0 0 1
15.053924 30.832810 -8.447717 35.336196 1.116598 1.812201 0.096647 -0.030613 -633810.000000 0 0 1
16.161424 30.970910 -7.423717 35.714150 1.089841 1.780188 0.106828 -0.033433 -638894.000000 0 0 1
17.005924 29.882510 -7.228117 35.134193 1.053413 1.778005 0.096461 -0.027915 27275.700000 0 0 1
18.113524 30.288910 -6.419117 35.870920 1.031830 1.750716 0.091491 -0.024484 786154.000000 0 0 1
19.191324 29.180510 -6.161917 35.465170 0.989044 1.745428 0.087714 -0.020864 -8299.330000 0 0 1
19.008824 28.252110 -5.062517 34.425952 0.978540 1.718387 0.098489 -0.025262 -852324.000000 0 0 1
20.024624 27.373010 -4.734217 34.244417 0.939211 1.709488 0.082975 -0.024273 -732531.000000 0 0 1
20.311024 26.237510 -5.769517 33.678360 0.912035 1.742958 0.086220 -0.019041 -341848.000000 0 0 1
20.745224 26.663310 -7.016617 34.504048 0.909587 1.775581 0.078101 -0.016391 55533.200000 0 0 1
20.823324 25.541110 -7.836517 33.872852 0.886804 1.804262 0.073171 -0.019668 -721135.000000 0 0 1
21.457924 25.843510 -9.254217 34.842073 0.877850 1.839627 0.071264 -0.019348 218192.000000 0 0 1
22.850624 25.945210 -9.441617 35.839211 0.848732 1.837387 0.044592 -0.014718 -178950.000000 0 0 1
23.493424 24.737810 -9.197917 35.334146 0.811193 1.834142 0.050118 -0.013440 -49966.700000 0 0 1
25.067424 24.834110 -9.123617 36.446525 0.780723 1.823816 0.033239 -0.005385 955279.000000 0 0 1
25.610824 25.001410 -10.410417 37.274141 0.773358 1.853854 0.033281 -0.005707 -195449.000000 0 0 1
27.005724 25.164910 -10.313917 38.326997 0.750128 1.843258 0.034101 0.000618 -79145.000000 0 0 1
27.815124 25.293010 -11.636517 39.355127 0.737944 1.870963 0.023114 0.001437 153534.000000 0 0 1
27.561024 26.526810 -12.282017 40.176232 0.766279 1.881474 0.026592 0.001271 140327.000000 0 0 1
28.262024 26.611210 -13.530317 41.109220 0.755323 1.906179 0.024591 0.000037 71158.300000 0 0 1
27.853924 27.754110 -14.456417 41.894149 0.783603 1.923110 0.031404 -0.006598 -168614.000000 0 0 1
28.162724 29.072110 -14.031717 42.839417 0.801286 1.904497 0.043546 -0.013240 88601.900000 0 0 1
28.300924 29.931610 -15.169217 43.897024 0.813394 1.923636 0.054832 -0.011103 -309526.000000 0 0 1
28.716624 31.399010 -14.964517 45.105200 0.829989 1.908975 0.060212 -0.024449 202009.000000 0 0 1
30.026224 31.552810 -14.447517 45.889919 0.810184 1.891074 0.055823 -0.025954 -4434.320000 0 0 1
30.560524 32.820110 -14.666417 47.182720 0.821034 1.886876 0.054335 -0.036649 -1900.430000 0 0 1
16.553324 -31.619413 -27.839446 45.264053 -1.088512 2.233240 0.095917 -0.041296 -146338.000000 0 0 1
17.631124 -32.403613 -27.361776 45.929483 -1.072487 2.208976 0.075751 -0.030748 144147.000000 0 0 1
18.105824 -31.954313 -26.114616 45.065199 -1.055286 2.188893 0.083374 -0.034935 -412322.000000 0 0 1
19.400224 -32.713013 -25.685846 45.894145 -1.035508 2.164791 0.018793 -0.024665 83148.000000 0 0 1
20.620024 -32.251513 -26.205256 46.390310 -1.001944 2.171092 0.034181 -0.018666 216334.000000 0 0 1
20.806924 -32.542913 -27.586316 47.465504 -1.001931 2.190982 0.043779 -0.011712 -876284.000000 0 0 1
22.222824 -32.341413 -28.194346 48.319168 -0.968759 2.193831 0.057065 -0.001128 189752.000000 0 0 1
22.595924 -30.976913 -28.337726 47.677789 -0.940581 2.207265 0.065110 -0.019060 47823.500000 0 0 1
23.916824 -30.736213 -27.920736 47.919690 -0.909533 2.192790 0.037439 -0.007877 -278957.000000 0 0 1
24.556624 -29.433513 -28.444566 47.733141 -0.875483 2.209192 0.027018 -0.001795 -90418.100000 0 0 1
24.831324 -29.524713 -29.827816 48.764761 -0.871530 2.228963 0.031465 -0.006948 216234.000000 0 0 1
25.656924 -28.445713 -30.291736 48.836724 -0.836899 2.239878 0.037290 -0.024907 380643.000000 0 0 1
25.994624 -28.568613 -31.789046 50.024290 -0.832538 2.259416 0.047001 -0.022092 238341.000000 0 0 1
26.988224 -29.545513 -32.032276 51.257860 -0.830602 2.245831 0.059173 -0.031550 -245433.000000 0 0 1
26.962024 -29.880413 -33.390596 52.294567 -0.836695 2.263357 0.058927 -0.040425 422457.000000 0 0 1
28.138524 -30.718613 33.750853 53.614641 -0.829207 0.889876 0.056236 -0.040140 925054.000000 0 0 1
29.402924 -30.070813 33.659807 53.868064 -0.796628 0.895849 0.064327 -0.052001 88544.700000 0 0 1
30.464824 -30.984713 33.452176 54.837998 -0.793858 0.914713 0.069541 -0.038051 78455.200000 0 0 1
31.792024 -30.210613 33.513421 55.195682 -0.759898 0.918296 0.075214 -0.043667 -298912.000000 0 0 1
31.944824 -29.275213 32.460723 54.140635 -0.741819 0.927841 0.063243 -0.037344 -255931.000000 0 0 1
33.225824 -28.691513 32.386154 54.552921 -0.712297 0.935191 0.059914 -0.039020 30468.100000 0 0 1
33.385124 -27.596813 31.279553 53.428092 -0.690763 0.945360 0.047618 -0.034831 955418.000000 0 0 1
34.686624 -26.943113 31.219423 53.886414 -0.660407 0.952858 0.041366 -0.033017 1241240.000000 0 0 1
34.784224 -26.027213 30.188643 52.902856 -0.642379 0.963508 0.046848 -0.024682 167603.000000 0 0 1
35.557824 -26.525813 28.871403 52.929533 -0.640930 0.993848 0.062948 -0.022471 15190.400000 0 0 1
34.900724 -27.516013 28.048433 52.553840 -0.667633 1.007816 0.057330 -0.027685 1405390.000000 0 0 1
33.645324 -27.124413 27.445333 51.195585 -0.678502 1.005000 0.052288 -0.022827 1007690.000000 0 0 1
32.912724 -28.230113 26.594743 50.867151 -0.708963 1.020632 0.038280 -0.016291 1788980.000000 0 0 1
31.503224 -27.930213 26.329853 49.656934 -0.725353 1.011918 0.037658 -0.003343 1724790.000000 0 0 1
30.993224 -28.831213 25.371483 49.351098 -0.749275 1.030836 0.025359 0.003776 1302950.000000 0 0 1
29.661624 -28.291813 24.642953 47.827960 -0.761766 1.029507 0.019400 0.009958 1873350.000000 0 0 1
28.557124 -28.232513 25.549523 47.595821 -0.779682 1.004154 0.032756 0.003680 215877.000000 0 0 1
27.325824 -27.972713 24.924243 46.372311 -0.797096 1.003349 0.045394 0.008642 278148.000000 0 0 1
26.089324 -27.965913 25.849143 46.161925 -0.820100 0.976451 0.063661 -0.004434 10943.200000 0 0 1
26.078724 -26.823613 26.639853 45.926983 -0.799478 0.952009 0.072014 -0.015782 -383989.000000 0 0 1
24.820424 -26.680413 27.212193 45.479680 -0.821498 0.929372 0.084133 -0.024558 -656887.000000 0 0 1
24.705524 -25.448513 28.150593 45.281846 -0.800211 0.899917 0.088382 -0.022253 628178.000000 0 0 1
23.415324 -25.337513 28.800393 44.941402 -0.824805 0.875200 0.114914 -0.022653 787699.000000 0 0 1
23.351324 -24.280513 29.800473 44.976614 -0.804903 0.846542 0.109446 -0.025863 -332449.000000 0 0 1
23.130424 -22.860013 29.185503 43.696571 -0.779519 0.839395 0.106812 -0.024485 -385731.000000 0 0 1
23.915224 -22.389413 28.096473 43.158261 -0.752458 0.861882 0.100582 -0.025095 124395.000000 0 0 1
23.567624 -21.043513 27.783953 42.073868 -0.728878 0.849497 0.100168 -0.019358 103594.000000 0 0 1
24.293824 -19.928313 28.587763 42.480439 -0.686999 0.832589 0.098343 -0.017032 42172.200000 0 0 1
23.935124 -19.915013 30.000973 43.238366 -0.693975 0.803974 0.118218 -0.015493 131582.000000 0 0 1
24.652924 -18.948613 30.700883 43.696233 -0.655309 0.791754 0.102991 -0.013631 -178306.000000 0 0 1
24.085124 -18.838613 32.153924 44.371853 -0.663773 0.760275 0.115200 -0.016204 166765.000000 0 0 1
24.499924 -19.806813 33.146888 45.730431 -0.679868 0.760006 0.108551 -0.012883 190393.000000 0 0 1
23.762224 -19.558713 -33.430326 45.439776 -0.688669 2.397505 0.111791 -0.015102 -16577.000000 0 0 1
23.699324 -20.704013 -32.396176 45.164436 -0.718043 2.370707 0.102381 -0.008955 256970.000000 0 0 1
24.920624 -20.841113 -31.688246 45.382093 -0.696486 2.343752 0.096147 -0.011643 113567.000000 0 0 1
24.804624 -21.951113 -30.883686 45.287115 -0.724444 2.321226 0.098628 -0.013994 639001.000000 0 0 1
26.073524 -22.358313 -30.052316 45.638410 -0.708838 2.289603 0.082713 -0.012924 583379.000000 0 0 1
27.076724 -23.109013 -30.701306 47.007932 -0.706502 2.282479 0.064268 -0.011846 -389637.000000 0 0 1
27.872824 -23.718113 -29.717466 47.144151 -0.705040 2.252804 0.062546 -0.020021 -1133800.000000 0 0 1
29.038324 -24.504613 -30.222156 48.549758 -0.700925 2.242728 0.039678 -0.016847 -1071990.000000 0 0 1
29.975724 -23.675313 -30.887786 49.123515 -0.668500 2.250777 0.038241 -0.014921 -59477.800000 0 0 1
29.918324 -23.571113 -32.333956 49.961867 -0.667288 2.274666 0.038271 -0.014007 19208.800000 0 0 1
30.481524 -24.765313 -33.143826 51.390244 -0.682298 2.271746 0.035287 -0.017174 -259187.000000 0 0 1
29.613924 -25.789113 -32.782816 51.154431 -0.716471 2.266414 0.063866 -0.024067 -52728.800000 0 0 1
29.759924 -26.953913 -33.567156 52.334696 -0.735962 2.267110 0.071892 -0.038498 91413.500000 0 0 1
29.220824 -26.898613 32.688802 51.438795 -0.744042 0.882154 0.064263 -0.038859 -461853.000000 0 0 1
30.054824 -26.246113 31.800217 51.023570 -0.717852 0.897910 0.040033 -0.033702 -381224.000000 0 0 1
29.574224 -26.235813 30.476643 49.917716 -0.725652 0.914057 0.045140 -0.033646 -666547.000000 0 0 1
30.543024 -25.543713 29.507663 49.558649 -0.696498 0.933022 0.048242 -0.027954 -192817.000000 0 0 1
30.715224 -24.134713 29.590003 49.004873 -0.665996 0.922515 0.044617 -0.020450 253756.000000 0 0 1
31.211024 -23.596613 30.830563 49.814172 -0.647352 0.903440 0.048142 -0.013517 -1420020.000000 0 0 1
31.693124 -22.130813 30.662403 49.339740 -0.609574 0.900198 0.040950 -0.000200 193813.000000 0 0 1
32.924224 -21.944813 30.009633 49.660421 -0.587904 0.921913 0.037198 -0.002296 515325.000000 0 0 1
34.070024 -22.476713 30.698473 51.072159 -0.583179 0.925944 0.038590 -0.006140 -407255.000000 0 0 1
35.412424 -21.925813 30.196133 51.444995 -0.554386 0.943498 0.042138 -0.012679 -123944.000000 0 0 1
35.833124 -22.377713 28.917293 51.195553 -0.558238 0.970557 0.050615 -0.016577 1067310.000000 0 0 1
37.141324 -21.828113 28.616063 51.718696 -0.531329 0.984473 0.056477 -0.020127 1049630.000000 0 0 1
-37.398859 -22.061913 27.208123 51.241435 0.532966 1.011041 0.081023 -0.019378 -134599.000000 0 0 1
-37.020459 -23.397713 27.015713 51.456934 0.563632 1.018062 0.077492 -0.017820 136146.000000 0 0 1
-37.066859 -23.625913 25.615883 50.875429 0.567457 1.043149 0.086748 -0.022884 -34424.400000 0 0 1
-36.822359 -25.120213 25.290233 51.249460 0.598679 1.054718 0.079705 -0.030490 -504610.000000 0 0 1
37.092124 -25.824713 25.546413 51.916863 -0.608192 1.056337 0.088133 -0.027982 -427205.000000 0 0 1
37.160824 -27.205013 25.386973 52.588382 -0.631939 1.067006 0.083554 -0.024529 51368.400000 0 0 1
-36.954459 -28.052313 26.263793 53.313705 0.649303 1.055690 0.082219 -0.032101 -647108.000000 0 0 1
-36.711759 -29.396013 25.923653 53.702091 0.675183 1.067026 0.071847 -0.026452 320680.000000 0 0 1
-35.599459 -29.969613 26.591353 53.596635 0.699747 1.051651 0.078976 -0.039736 -305751.000000 0 0 1
-34.216159 -29.494313 26.208363 52.225840 0.711419 1.045086 0.090088 -0.038803 -1598640.000000 0 0 1
-33.767759 -29.589313 24.879943 51.330308 0.719543 1.064773 0.086551 -0.036490 83251.200000 0 0 1
-32.500459 -28.984713 24.734463 50.081804 0.728280 1.054249 0.072053 -0.034252 -124997.000000 0 0 1
-31.901559 -28.947913 23.315133 48.982513 0.736896 1.074708 0.065288 -0.029206 -151718.000000 0 0 1
-31.570159 -30.182713 22.781523 49.261231 0.762934 1.090025 0.079244 -0.031815 228862.000000 0 0 1
-31.004559 -30.076813 21.521683 48.260545 0.770211 1.108563 0.075261 -0.029615 -464209.000000 0 0 1
-30.987459 -31.444513 20.753683 48.782121 0.792719 1.131352 0.085396 -0.025569 216811.000000 0 0 1
-30.077259 -32.446713 21.199483 49.059645 0.823277 1.123958 0.095030 -0.036775 -153470.000000 0 0 1
-28.821959 -32.375813 20.596483 47.990767 0.843405 1.127216 0.114777 -0.035938 -102388.000000 0 0 1
-27.849559 -33.588313 20.826583 48.347898 0.878535 1.125456 0.105587 -0.024793 195132.000000 0 0 1
-27.955159 32.983910 19.883683 47.589811 -0.867733 1.139759 0.094989 -0.020089 544088.000000 0 0 1
-29.168959 32.218410 19.917583 47.807575 -0.835033 1.141072 0.099501 -0.018048 572072.000000 0 0 1
-29.262859 31.211910 21.035283 47.675795 -0.817616 1.113844 0.108848 -0.017053 574668.000000 0 0 1
-28.237559 30.203710 20.835983 46.300778 -0.819029 1.104016 0.089935 -0.018678 541760.000000 0 0 1
-28.189259 29.205910 21.838383 46.092673 -0.803109 1.077203 0.091290 -0.021309 -40178.000000 0 0 1
-27.265459 27.974810 21.559083 44.618263 -0.798239 1.066502 0.068843 -0.022433 233361.000000 0 0 1
-25.952059 28.473610 21.362783 44.052518 -0.831695 1.064503 0.072445 -0.018269 -267612.000000 0 0 1
-25.072059 27.452310 20.997383 42.698098 -0.830684 1.056682 0.053823 -0.025772 1409260.000000 0 0 1
-23.532659 27.900810 20.924483 42.072262 -0.870123 1.050259 0.043945 -0.021246 1288500.000000 0 0 1
-22.929359 27.800410 22.168383 42.309048 -0.881124 1.019299 0.057700 -0.023934 40257.600000 0 0 1
-21.578359 28.197610 22.002783 41.771441 -0.917603 1.016033 0.075583 -0.035163 -113997.000000 0 0 1
-20.851159 28.452010 23.320463 42.286307 -0.938360 0.986647 0.072204 -0.031422 -545221.000000 0 0 1
-20.401059 27.234510 23.902493 41.584263 -0.927879 0.958441 0.066814 -0.042494 128909.000000 0 0 1
-20.221059 27.265910 25.291283 42.331668 -0.932677 0.930472 0.076569 -0.038661 1161670.000000 0 0 1
-18.759959 27.755710 25.715073 42.232458 -0.976432 0.916131 0.071806 -0.032989 714782.000000 0 0 1
-18.378759 29.068810 25.313183 42.702831 -1.007000 0.936296 0.045074 -0.023325 980820.000000 0 0 1
-17.057659 29.407310 25.791653 42.672743 -1.045176 0.921777 0.042845 -0.012714 644145.000000 0 0 1
-16.816159 29.738010 27.300593 43.731623 -1.056148 0.896592 0.034437 -0.003688 -417743.000000 0 0 1
-16.960059 28.532710 28.081273 43.477777 -1.034499 0.868626 0.051422 -0.007337 186803.000000 0 0 1
-17.237559 28.795810 29.390633 44.611002 -1.031397 0.851547 0.053216 0.001662 -286565.000000 0 0 1
-17.186159 27.548210 30.293703 44.406941 -1.013019 0.820051 0.051839 0.005858 267194.000000 0 0 1
-15.875059 27.022210 30.549903 43.766585 -1.039632 0.798169 0.053363 0.008704 817263.000000 0 0 1
-15.833959 25.991710 31.534413 43.825820 -1.023645 0.767657 0.063825 0.000189 -157807.000000 0 0 1
-16.345159 26.411010 32.999032 45.317125 -1.016612 0.755133 0.053127 0.006942 -41620.600000 0 0 1
-17.725059 26.422610 33.237295 46.011410 -0.979917 0.763572 0.047997 0.003929 -392313.000000 0 0 1
-18.183459 27.051110 -33.341686 46.626911 -0.978980 2.367526 0.067247 -0.001073 175909.000000 0 0 1
-19.509159 26.485310 -32.795926 46.450530 -0.935925 2.354687 0.046613 -0.001300 -590451.000000 0 0 1
-20.556859 26.436010 -33.683166 47.497398 -0.909859 2.359100 0.046116 0.006092 -249275.000000 0 0 1
-21.629259 25.673410 -33.126196 47.162419 -0.870686 2.349540 0.068440 -0.000597 766815.000000 0 0 1
-22.970059 25.645610 33.799903 48.246807 -0.840377 0.794611 0.075515 -0.009061 296183.000000 0 0 1
-23.048959 24.741510 32.663708 47.013984 -0.820799 0.802702 0.081338 -0.002713 23353.100000 0 0 1
-22.840659 23.404810 32.866896 46.365005 -0.797597 0.782897 0.077263 -0.008496 -316564.000000 0 0 1
-23.033559 22.677810 31.487213 45.125077 -0.777616 0.798508 0.072125 -0.012933 968202.000000 0 0 1
-24.447159 22.540010 31.272903 45.647674 -0.744832 0.816065 0.094154 -0.010972 622730.000000 0 0 1
-24.737659 22.129010 29.930733 44.693329 -0.729794 0.837003 0.113628 -0.017062 855482.000000 0 0 1
-26.248259 21.879110 29.582493 45.197240 -0.694863 0.857249 0.113897 -0.024385 781060.000000 0 0 1
-26.549859 20.577710 30.076393 45.087988 -0.659347 0.840541 0.115401 -0.018748 -590345.000000 0 0 1
-27.760259 20.122810 29.565973 45.273682 -0.627228 0.859192 0.102506 -0.017895 -614489.000000 0 0 1
-28.204559 18.852410 30.321073 45.500308 -0.589213 0.841436 0.118822 -0.012907 -685640.000000 0 0 1
-28.940359 19.094310 31.479663 46.830613 -0.583221 0.833616 0.110079 -0.003483 -60148.200000 0 0 1
-29.201459 17.947110 32.294341 47.092977 -0.551083 0.815153 0.087538 0.005141 -183425.000000 0 0 1
-29.988359 16.752810 31.658553 46.714263 -0.509455 0.826157 0.066286 0.004493 154716.000000 0 0 1
-31.388959 17.039410 31.690016 47.747936 -0.497335 0.845050 0.045348 0.001985 600262.000000 0 0 1
-32.183059 15.889410 31.368223 47.667474 -0.458611 0.852552 0.056716 0.004818 2041060.000000 0 0 1
-33.768859 16.107010 31.349823 48.811710 -0.445061 0.873353 0.075460 0.004571 1685420.000000 0 0 1
-34.312459 16.372210 32.623739 50.096931 -0.445202 0.861615 0.057966 0.006784 -1065350.000000 0 0 1
-35.630259 16.727910 32.587207 51.100533 -0.438940 0.879278 0.090983 -0.005702 -1100080.000000 0 0 1
-36.324959 16.763610 -33.765526 52.351046 -0.432368 2.271797 0.067388 -0.000554 -90636.600000 0 0 1
37.416524 17.152210 -33.677516 53.182419 0.429828 2.256536 0.075631 -0.008406 -308646.000000 0 0 1
37.025824 17.594010 -32.364986 52.229811 0.443597 2.239112 0.063947 -0.012435 -436933.000000 0 0 1
35.532124 17.896810 -32.276336 51.230748 0.466587 2.252374 0.086920 -0.018820 -786994.000000 0 0 1
34.836324 16.729910 -32.462186 50.470317 0.447718 2.269458 0.097200 -0.006615 -568880.000000 0 0 1
33.578924 16.852710 -31.834116 49.243973 0.465153 2.273728 0.101446 -0.012901 -408702.000000 0 0 1
32.753224 15.529810 -31.834456 48.242940 0.442751 2.291453 0.112181 -0.012598 56691.000000 0 0 1
32.214324 15.188710 -33.095786 48.618830 0.440580 2.319541 0.111722 -0.025894 529414.000000 0 0 1
31.384524 13.980610 -32.982336 47.626466 0.419074 2.335774 0.120141 -0.029511 749491.000000 0 0 1
32.162524 12.680610 -33.370336 48.050028 0.375554 2.338509 0.118521 -0.019586 -113977.000000 0 0 1
32.989724 12.301310 -32.322516 47.795284 0.356913 2.313484 0.111786 -0.006501 -385384.000000 0 0 1
33.850624 11.295210 -32.787576 48.461032 0.322061 2.313899 0.104388 -0.006704 -257944.000000 0 0 1
18.512024 -20.601690 9.833344 29.390803 -0.838773 1.229645 0.063649 -0.025075 -128191.000000 0 0 1
18.201124 -21.845490 10.328644 30.252061 -0.876151 1.222370 0.052001 -0.024543 756648.000000 0 0 1
19.337524 -22.723490 10.496744 31.630340 -0.865726 1.232525 0.039662 -0.024290 458875.000000 0 0 1
18.971424 -24.092890 11.297344 32.680456 -0.903768 1.217821 0.044775 -0.021168 -68144.500000 0 0 1
18.180724 -25.083460 10.718544 32.781181 -0.943613 1.237698 0.043119 -0.026481 277750.000000 0 0 1
16.815224 -24.972790 11.123844 32.095667 -0.978187 1.216869 0.043596 -0.022766 1026150.000000 0 0 1
15.851824 -26.041470 10.414544 32.216474 -1.023994 1.241616 0.061939 -0.027744 575664.000000 0 0 1
15.735924 -25.712000 9.053744 31.475331 -1.021595 1.279029 0.067793 -0.037354 -141909.000000 0 0 1
14.589224 -26.235350 8.461844 31.188809 -1.063289 1.296042 0.074978 -0.025692 -602577.000000 0 0 1
14.407424 -25.781290 7.010344 30.354467 -1.061197 1.337743 0.076806 -0.030524 -237900.000000 0 0 1
13.974624 -24.467690 6.948144 29.021279 -1.051863 1.329033 0.092189 -0.038230 36757.500000 0 0 1
13.543624 -24.006390 5.685644 28.143614 -1.057141 1.367374 0.094709 -0.027338 -137823.000000 0 0 1
12.771924 -22.698390 5.862944 26.696686 -1.058270 1.349378 0.115476 -0.025676 -467809.000000 0 0 1
11.953124 -22.253390 4.829444 25.717971 -1.077882 1.381890 0.103371 -0.021129 -13012.500000 0 0 1
11.376824 -20.971090 5.171444 24.412344 -1.073729 1.357342 0.114245 -0.022433 1192.970000 0 1 0
10.601624 -20.410590 3.977744 23.341145 -1.091735 1.399543 0.097282 -0.024201 -6198.300000 0 1 0
11.446124 -20.121790 2.884944 23.328589 -1.053602 1.446813 0.086658 -0.015542 -209112.000000 0 1 0
10.655924 -19.560790 1.896744 22.355555 -1.071986 1.485850 0.069647 -0.001343 100754.000000 0 1 0
11.422224 -19.122590 0.599344 22.282276 -1.032353 1.543895 0.068239 -0.000665 41359.100000 0 1 0
12.254324 -18.029990 0.827244 21.815896 -0.973850 1.532868 0.073124 -0.003602 -229832.000000 0 1 0
12.964724 -17.746890 -0.382456 21.981411 -0.939870 1.588196 0.089746 -0.012389 -141526.000000 0 1 0
14.088224 -16.715990 -0.219156 21.862076 -0.870498 1.580821 0.083249 -0.005736 -302470.000000 0 1 0
15.211624 -17.305390 0.366444 23.043530 -0.849699 1.554893 0.092641 -0.011906 305105.000000 0 1 0
16.406824 -16.506290 0.230344 23.274332 -0.788420 1.560899 0.090979 -0.021353 1221450.000000 0 1 0
17.713624 -17.006490 0.900744 24.572434 -0.765034 1.534131 0.086038 -0.019420 631.469000 0 1 0
18.201524 -18.167490 0.311044 25.718668 -0.784462 1.558702 0.072885 -0.016944 -48775.400000 0 0 1
19.233424 -18.670490 1.140944 26.829341 -0.770548 1.528258 0.056164 -0.011465 249483.000000 0 0 1
19.743524 -20.067490 0.690044 28.160025 -0.793536 1.546290 0.040792 -0.012810 318049.000000 0 0 1
18.743724 -21.068990 0.879844 28.213536 -0.843737 1.539606 0.051285 -0.010881 481208.000000 0 0 1
19.021924 -22.276290 0.145844 29.293138 -0.864037 1.565818 0.066883 -0.014050 -298602.000000 0 0 1
17.995824 -23.329190 0.542744 29.468548 -0.913748 1.552378 0.072922 -0.012228 -456700.000000 0 0 1
18.051524 -23.688590 1.942244 29.845923 -0.919637 1.505675 0.056530 -0.010575 -97316.700000 0 0 1
17.019924 -24.598490 2.183544 29.992188 -0.965521 1.497928 0.057192 -0.007718 -425634.000000 0 0 1
17.217924 -25.427100 3.498744 30.906884 -0.975572 1.457350 0.059477 -0.018823 178481.000000 0 0 1
18.183924 -26.451850 3.456844 32.284752 -0.968553 1.463517 0.057993 -0.016134 32679.000000 0 0 1
19.471824 -26.052360 3.874144 32.754944 -0.928954 1.452242 0.063187 -0.013065 -227262.000000 0 0 1
20.527924 -27.170910 4.032444 34.291611 -0.923777 1.452931 0.078709 -0.016381 7323.310000 0 0 1
20.978724 -27.637000 2.806444 34.810727 -0.921509 1.490089 0.092974 -0.012514 -580830.000000 0 0 1
21.820324 -28.741000 2.712144 36.187391 -0.921430 1.495779 0.125485 -0.016492 -300927.000000 0 0 1
21.266924 -30.158780 3.004744 37.025161 -0.956612 1.489553 0.119827 -0.018371 -1711.990000 0 0 1
21.123324 -30.385320 4.402844 37.267244 -0.963311 1.452377 0.126809 -0.023900 426746.000000 0 0 1
20.209524 -31.486950 4.643144 37.701613 -1.000180 1.447328 0.112955 -0.032502 533694.000000 0 0 1
20.258824 -31.807120 6.152744 38.209541 -1.003666 1.409066 0.115383 -0.037569 -252585.000000 0 0 1
21.408124 -32.459770 6.586844 39.437684 -0.987752 1.402991 0.118370 -0.047645 -175440.000000 0 0 1
21.106724 -32.977660 7.872044 39.937312 -1.001461 1.372387 0.103180 -0.042516 167593.000000 0 0 1
22.173624 33.597724 8.220244 41.085875 0.987441 1.369362 0.116958 -0.047561 645552.000000 0 0 1
23.440324 -33.385130 8.320644 41.632304 -0.958650 1.369581 0.118282 -0.045572 400831.000000 0 0 1
24.413724 33.363996 8.845244 42.277943 0.939085 1.360023 0.131184 -0.051177 35035.900000 0 0 1
25.245824 -33.640190 9.996244 43.231225 -0.926997 1.337457 0.108743 -0.041095 217477.000000 0 0 1
26.148824 -32.671610 9.416244 42.893597 -0.895840 1.349468 0.103569 -0.039577 629064.000000 0 0 1
26.712724 -31.731030 10.318744 42.742301 -0.871054 1.326970 0.078145 -0.036032 158573.000000 0 0 1
27.484524 -30.565360 9.661744 42.225461 -0.838421 1.339938 0.076341 -0.043697 222348.000000 0 0 1
26.642824 -29.607490 9.008444 40.836204 -0.838054 1.348367 0.079810 -0.046320 386623.000000 0 0 1
27.394524 -28.826950 8.108044 40.585629 -0.810871 1.369667 0.090044 -0.044205 15244.600000 0 0 1
26.875924 -27.339080 8.006344 39.164296 -0.793941 1.364915 0.084813 -0.037617 67910.200000 0 0 1
27.162124 -26.582540 9.181344 39.098714 -0.774615 1.333758 0.077939 -0.042328 145462.000000 0 0 1
26.562324 -25.323260 8.998844 37.786290 -0.761522 1.330335 0.057631 -0.030570 -247568.000000 0 0 1
27.294624 -24.195290 9.738844 37.752531 -0.725278 1.309881 0.063020 -0.045875 264485.000000 0 0 1
28.642024 -24.042990 9.331544 38.542296 -0.698326 1.326255 0.082083 -0.038623 -359505.000000 0 0 1
29.450624 -23.456190 10.313944 39.037283 -0.672578 1.303414 0.050123 -0.036502 -1181550.000000 0 0 1
30.822224 -23.182790 9.799144 39.792894 -0.644873 1.321983 0.067490 -0.040346 -1081520.000000 0 0 1
30.825324 -22.323490 8.681644 39.037286 -0.626779 1.346527 0.085203 -0.036816 191062.000000 0 0 1
32.189124 -22.160290 8.284644 39.948134 -0.602926 1.361895 0.098292 -0.041920 649789.000000 0 0 1
32.245824 -21.361290 6.974444 39.303189 -0.585079 1.392399 0.102700 -0.024425 -1385.910000 0 0 1
31.803124 -20.034390 7.132144 38.258109 -0.562151 1.383278 0.094345 -0.017186 -77969.200000 0 0 1
32.251824 -19.306890 6.041544 38.071464 -0.539411 1.411433 0.090788 -0.019345 146979.000000 0 0 1
31.901324 -17.829490 6.234644 37.073656 -0.509647 1.401824 0.101849 -0.012388 162743.000000 0 0 1
32.571524 -17.297490 7.351544 37.605219 -0.488187 1.374037 0.112187 -0.019465 9396.090000 0 0 1
32.186224 -15.945290 7.611544 36.717038 -0.459967 1.361979 0.112094 -0.020455 -38205.500000 0 0 1
32.819824 -15.334790 8.884044 37.299100 -0.437099 1.330301 0.112797 -0.040109 -84342.700000 0 0 1
34.226024 -15.256690 8.784344 38.488335 -0.419325 1.340533 0.112784 -0.036707 -318740.000000 0 0 1
34.729424 -14.825290 10.009544 39.065497 -0.403462 1.311682 0.095729 -0.043921 650295.000000 0 0 1
36.295124 -14.789890 10.040744 40.458539 -0.386946 1.320002 0.089940 -0.049111 1239710.000000 0 0 1
37.028124 -13.846590 9.195144 40.587691 -0.357848 1.342262 0.135615 -0.042135 -199834.000000 0 0 1
-36.681759 -14.050990 9.276644 40.361341 0.365810 1.338883 0.136516 -0.045412 -635813.000000 0 0 1
-35.925659 -13.032690 8.471844 39.144299 0.348004 1.352644 0.149731 -0.038039 -451531.000000 0 0 1
-36.127359 -13.203690 7.064344 39.107908 0.350395 1.389162 0.189899 -0.048723 26097.600000 0 0 1
-35.127059 -12.657990 6.229344 37.854190 0.345864 1.405483 0.184892 -0.036268 493210.000000 0 0 1
-34.046959 -13.680590 5.748344 37.140240 0.382070 1.415398 0.163176 -0.031470 373896.000000 0 0 1
-33.168759 -14.154190 6.747544 36.688377 0.403337 1.385828 0.156699 -0.025040 265583.000000 0 0 1
-32.091959 -14.868690 6.150144 35.899806 0.433871 1.398633 0.144006 -0.013370 260810.000000 0 0 1
-31.399859 -15.887490 7.078344 35.895215 0.468415 1.372301 0.122492 -0.023839 843486.000000 0 0 1
-32.356259 -16.876690 7.573544 37.270749 0.480770 1.366168 0.137768 -0.034609 737298.000000 0 0 1
-32.080559 -17.124790 8.936744 37.447110 0.490325 1.329821 0.114901 -0.027443 -138640.000000 0 0 1
-33.239159 -17.817590 9.663844 38.931967 0.492064 1.319950 0.062781 -0.033236 -989012.000000 0 0 1
-34.422559 -17.032790 9.745044 39.623155 0.459491 1.322304 0.079655 -0.026099 942912.000000 0 0 1
-35.423759 -17.601790 10.620644 40.956853 0.461158 1.308486 0.093500 -0.035018 539235.000000 0 0 1
-36.078559 -18.939190 10.229844 42.011963 0.483402 1.324825 0.103032 -0.035043 -590675.000000 0 0 1
-35.209459 -20.086690 10.382744 41.844743 0.518439 1.320052 0.110078 -0.025551 121063.000000 0 0 1
-35.079059 -20.503990 11.733944 42.292309 0.528950 1.289659 0.118190 -0.044257 172722.000000 0 0 1
-36.307959 -21.175690 12.413744 43.826690 0.527993 1.283619 0.104747 -0.056211 251009.000000 0 0 1
-36.420259 -22.580790 12.207144 44.557173 0.555000 1.293282 0.139822 -0.063024 274876.000000 0 0 1
37.298724 -22.954490 12.100444 45.437035 -0.551683 1.301231 0.134083 -0.043792 283524.000000 0 0 1
37.110224 -24.481690 11.965244 46.040079 -0.583165 1.307891 0.130626 -0.038471 -851306.000000 0 0 1
37.279824 -25.085030 13.234344 46.842201 -0.592295 1.284365 0.144584 -0.037045 205809.000000 0 0 1
36.661424 -26.378010 13.373444 47.103167 -0.623696 1.282918 0.127698 -0.040084 -240485.000000 0 0 1
35.144024 -26.320780 13.517744 45.941433 -0.642823 1.272138 0.129351 -0.041747 -881307.000000 0 0 1
34.420424 -25.895260 12.360744 44.812030 -0.644986 1.291338 0.102956 -0.038720 1115310.000000 0 0 1
33.146524 -25.247300 12.703244 43.560195 -0.650939 1.274871 0.089144 -0.011965 1229320.000000 0 0 1
33.123024 -23.773390 13.165744 42.844434 -0.622526 1.258450 0.101573 -0.021644 -366239.000000 0 0 1
33.822824 -23.487290 14.368344 43.612905 -0.606972 1.235074 0.120632 -0.033752 -52931.700000 0 0 1
33.995424 -22.134090 14.660244 43.133856 -0.577141 1.224009 0.112288 -0.045121 979101.000000 0 0 1
35.392324 -21.905490 15.371944 44.370753 -0.554225 1.217020 0.096890 -0.034479 1006700.000000 0 0 1
35.621024 -20.532490 15.817044 44.052461 -0.522897 1.203546 0.111590 -0.016164 133255.000000 0 0 1
35.158724 -20.317990 17.162944 44.085408 -0.524006 1.170913 0.094092 -0.016040 53628.400000 0 0 1
35.394324 -18.881890 17.714244 43.852917 -0.490065 1.154969 0.072846 -0.006438 -182872.000000 0 0 1
34.581424 -17.872690 17.132244 42.530244 -0.477020 1.156195 0.079323 -0.021534 169469.000000 0 0 1
34.601424 -16.633590 17.802844 42.318744 -0.448105 1.136597 0.061753 -0.017189 1199940.000000 0 0 1
35.997624 -15.847690 17.898644 43.212725 -0.414710 1.143734 0.051098 -0.027783 1494220.000000 0 0 1
36.893324 -16.373390 18.881744 44.561480 -0.417689 1.133244 0.047583 -0.009617 357680.000000 0 0 1
-37.030559 -15.570490 18.968244 44.424056 0.398033 1.129644 0.051275 -0.021048 -195269.000000 0 0 1
-36.504759 -15.356390 20.363944 44.532082 0.398196 1.095854 0.043980 -0.012378 -386631.000000 0 0 1
-35.791459 -16.421990 20.904444 44.583697 0.430168 1.082773 0.059906 -0.012456 -13458.800000 0 0 1
-35.377059 -16.179090 22.258644 44.819041 0.428935 1.051080 0.049744 -0.012926 288000.000000 0 0 1
-34.471159 -17.327590 22.827944 44.828799 0.465781 1.036512 0.057402 -0.006245 -507037.000000 0 0 1
-35.102159 -18.605890 22.970744 45.891130 0.487397 1.046564 0.059230 -0.008908 419094.000000 0 0 1
-34.246759 -19.606490 23.551544 45.955741 0.519958 1.032722 0.051964 -0.001363 166044.000000 0 0 1
-33.100259 -20.124690 22.637644 44.867507 0.546275 1.041942 0.046670 0.001458 -30460.500000 0 0 1
-31.989959 -19.262290 22.509244 43.601139 0.541988 1.028326 0.043167 0.011000 60222.800000 0 0 1
-30.845759 -20.073490 22.275144 43.018460 0.576916 1.026514 0.042003 0.009250 372952.000000 0 0 1
-29.505559 -19.287190 22.237044 41.678050 0.578958 1.008012 0.054896 0.011658 141397.000000 0 0 1
-29.156359 -18.826590 23.520744 41.925638 0.573354 0.975190 0.043224 0.007403 190285.000000 0 0 1
-27.951759 -18.085890 23.455144 40.725226 0.574291 0.957047 0.079948 -0.000430 -213634.000000 0 0 1
-27.490559 -17.473090 24.784244 40.930410 0.566188 0.920375 0.079420 -0.013860 -731767.000000 0 0 1
-26.456259 -16.515190 24.605944 39.725780 0.558056 0.902825 0.087192 -0.019260 158672.000000 0 0 1
-25.994759 -16.091690 25.876744 40.053412 0.554299 0.868390 0.075296 -0.023590 42429.200000 0 0 1
-24.744459 -16.815390 26.390144 39.893424 0.596877 0.847958 0.062202 -0.010703 -660146.000000 0 0 1
-25.077459 -18.152290 26.624444 40.831919 0.626553 0.860511 0.065323 -0.007024 -369462.000000 0 0 1
-24.326259 -18.718990 27.661144 41.319563 0.655863 0.837336 0.053251 -0.001802 -567196.000000 0 0 1
-24.909359 -19.930590 28.363644 42.687245 0.674817 0.844035 0.043295 0.002894 -98657.900000 0 0 1
-25.817359 -19.736790 29.463844 43.865647 0.652702 0.834317 0.046629 -0.012109 444352.000000 0 0 1
-26.242159 -20.976590 29.991644 45.035174 0.674343 0.842016 0.042865 -0.011182 -613960.000000 0 0 1
-27.449259 -20.792090 30.913144 46.275212 0.648267 0.839241 0.056098 -0.021335 -950649.000000 0 0 1
-27.175859 -20.015690 32.083044 46.566907 0.634821 0.810734 0.070242 -0.032224 809208.000000 0 0 1
-28.262659 -20.054390 33.044044 47.883873 0.617121 0.809187 0.086608 -0.037888 996670.000000 0 0 1
-29.547359 -19.269490 32.645244 48.063204 0.577889 0.824104 0.069889 -0.041852 -269892.000000 0 0 1
-30.380959 -19.961690 31.724844 48.248704 0.581313 0.853264 0.074647 -0.041707 -917660.000000 0 0 1
-31.642559 -19.425790 31.836944 48.910161 0.550587 0.861991 0.082380 -0.040832 -918117.000000 0 0 1
-32.632859 -20.073190 30.822544 49.171797 0.551464 0.893313 0.080533 -0.017533 -22527.300000 0 0 1
-32.897159 -19.319990 29.651444 48.318663 0.531017 0.910103 0.065034 -0.026561 428558.000000 0 0 1
-33.934459 -19.929790 28.901644 48.826725 0.531031 0.937354 0.065904 -0.024571 173843.000000 0 0 1
-34.543559 -18.879990 27.898244 48.249596 0.500195 0.954267 0.059060 -0.017174 611440.000000 0 0 1
-35.595459 -19.359790 27.031844 48.708918 0.498135 0.982473 0.046938 -0.017405 1010380.000000 0 0 1
-36.318059 -18.308690 26.391744 48.484365 0.466939 0.995200 0.052350 -0.013922 -402405.000000 0 0 1
-37.350559 -18.681790 25.358344 48.858153 0.463787 1.025093 0.039111 -0.012757 186609.000000 0 0 1
36.524624 -19.161990 25.986244 48.749511 -0.483159 1.008587 0.044340 -0.009427 274974.000000 0 0 1
35.469024 -19.269990 25.058144 47.510996 -0.497678 1.015238 0.082158 -0.010379 103627.000000 0 0 1
34.233224 -19.820490 25.833444 47.245447 -0.524823 0.992268 0.078820 -0.012578 -161656.000000 0 0 1
33.427524 -18.817890 26.406644 46.570625 -0.512728 0.967908 0.075147 -0.029740 204537.000000 0 0 1
32.603624 -19.486790 27.374344 46.819717 -0.538718 0.946316 0.071031 -0.014261 113778.000000 0 0 1
-29.644196 -5.070790 33.667409 45.144055 0.169415 0.729096 0.093256 -0.027498 -335801.000000 0 0 1
-30.821406 -5.106590 32.909455 45.376961 0.164192 0.759405 0.104068 -0.022113 -20039.300000 0 0 1
-30.870956 -4.094290 31.924241 44.597492 0.131856 0.772984 0.088403 -0.026488 -511964.000000 0 0 1
-31.835836 -4.384090 30.796493 44.510276 0.136849 0.806684 0.097390 -0.030896 -417101.000000 0 0 1
-31.602816 -5.353890 29.727113 43.716169 0.167818 0.823030 0.084387 -0.031977 930575.000000 0 0 1
-30.322126 -5.180690 29.049503 42.310100 0.169221 0.814014 0.079631 -0.034765 1281880.000000 0 0 1
-29.945956 -6.290990 28.019023 41.489788 0.207067 0.829393 0.064194 -0.031149 -440040.000000 0 0 1
-30.657466 -6.110290 26.858653 41.214113 0.196730 0.860991 0.064030 -0.032749 -285099.000000 0 0 1
-30.109086 -6.892090 25.813393 40.254059 0.225027 0.874655 0.091308 -0.030507 -62049.100000 0 0 1
-30.850496 -6.663590 24.519533 39.967037 0.212728 0.910319 0.085189 -0.027307 -134677.000000 0 0 1
-30.567136 -5.366490 23.886043 39.162381 0.173793 0.914833 0.083917 -0.028347 -40585.100000 0 0 1
-31.396166 -5.046290 22.775213 39.113868 0.159366 0.949266 0.087764 -0.020834 251777.000000 0 0 1
-30.884176 -3.779590 22.031083 38.124615 0.121774 0.954680 0.092287 -0.019660 -132285.000000 0 0 1
-29.638526 -4.019090 21.438783 36.799684 0.134781 0.948896 0.113460 -0.016772 -360817.000000 0 0 1
-29.204106 -2.760590 20.856383 35.992908 0.094247 0.952733 0.124855 -0.020808 408759.000000 0 0 1
-27.706786 -2.775590 20.445883 34.545681 0.099844 0.937443 0.133403 -0.021759 160026.000000 0 0 1
-27.501716 -3.510890 19.224783 33.738154 0.126974 0.964506 0.146851 -0.016992 161163.000000 0 0 1
-26.232306 -3.245590 18.640183 32.343843 0.123099 0.956586 0.154870 -0.018693 126635.000000 0 0 1
-25.992956 -3.980390 17.287483 31.469578 0.151953 0.989223 0.143973 -0.014990 -236385.000000 0 0 1
-26.869016 -3.592890 16.266783 31.614255 0.132930 1.030326 0.148656 -0.007606 -43232.900000 0 0 1
-26.503646 -4.172190 15.011583 30.744074 0.156138 1.060684 0.145095 -0.008195 -100379.000000 0 0 1
-27.619046 -4.200890 13.953983 31.227758 0.150944 1.107560 0.161117 -0.008046 -179998.000000 0 0 1
-28.178286 -2.961790 13.672783 31.460023 0.104724 1.121193 0.166219 -0.009026 526561.000000 0 0 1
-29.376796 -3.162190 12.905283 32.241928 0.107230 1.158991 0.170017 -0.006078 666040.000000 0 0 1
-29.911796 -1.885890 12.183483 32.352889 0.062965 1.184694 0.167873 -0.004957 51980.000000 0 0 1
-29.163336 -1.535990 11.012583 31.211159 0.052620 1.210190 0.175675 -0.011383 282338.000000 0 0 1
-29.627186 -0.387290 10.332083 31.379485 0.013071 1.235274 0.176201 -0.015024 328758.000000 0 0 1
-31.011356 -0.409990 9.629583 32.474624 0.013220 1.269743 0.183603 -0.008918 335332.000000 0 0 1
-30.908916 -1.094390 8.363483 32.039142 0.035392 1.306697 0.180113 -0.009882 -644840.000000 0 0 1
-32.128586 -1.202390 7.709083 33.062392 0.037407 1.335462 0.169322 -0.015839 -615550.000000 0 0 1
-32.047316 -1.912490 6.299783 32.716592 0.059606 1.377030 0.192521 -0.026124 -84103.700000 0 0 1
-31.553486 -1.259890 5.130183 31.992634 0.039907 1.409746 0.190454 -0.041662 8340.570000 0 0 1
-32.375646 -0.264090 4.630083 32.706114 0.008157 1.428753 0.197419 -0.028799 -403586.000000 0 0 1
-32.182966 0.028910 3.135983 32.335407 -0.000898 1.473661 0.161895 -0.015595 12771.700000 0 0 1
-32.569846 -1.124790 2.355683 32.674291 0.034521 1.498638 0.146063 -0.038101 55528.000000 0 0 1
-32.124036 -1.135390 1.046583 32.161128 0.035329 1.538249 0.155461 -0.052876 19097.900000 0 0 1
-33.129206 -1.718090 -0.043217 33.173755 0.051814 1.572099 0.147645 -0.056747 -203017.000000 0 0 1
-34.304963 -0.998190 -0.113017 34.319669 0.029089 1.574089 0.151674 -0.048348 -734026.000000 0 0 1
-35.099164 -1.420790 -1.190817 35.148087 0.040457 1.604683 0.135351 -0.046286 386759.000000 0 0 1
-36.622416 -1.094490 -1.082317 36.654750 0.029877 1.600328 0.131585 -0.042120 401651.000000 0 0 1
-37.231376 -1.838790 -0.029517 37.276768 0.049348 1.571588 0.131211 -0.032326 1054450.000000 0 0 1
36.431797 -1.620690 0.032583 36.467842 -0.044456 1.569903 0.123962 -0.030223 968439.000000 0 0 1
35.615267 -2.672590 0.833683 35.725131 -0.074900 1.547458 0.138638 -0.036154 96969.500000 0 0 1
35.970677 -2.721490 2.192583 36.140054 -0.075515 1.510090 0.145373 -0.028908 394388.000000 0 0 1
35.270017 -3.842190 2.742283 35.584499 -0.108509 1.493656 0.139854 -0.024991 313086.000000 0 0 1
35.175547 -3.898690 4.283783 35.649259 -0.110385 1.450341 0.146226 -0.010896 -14153.400000 0 0 1
34.350847 -2.886490 4.803783 34.805011 -0.083833 1.432334 0.176814 -0.024889 36078.100000 0 0 1
34.212047 -3.028990 6.172583 34.896127 -0.088306 1.392976 0.180215 -0.035681 -117815.000000 0 0 1
33.435387 -1.904790 6.875583 34.188111 -0.056908 1.368305 0.207823 -0.030662 -263676.000000 0 0 1
32.037987 -2.032690 6.840883 32.823194 -0.063361 1.360841 0.206920 -0.036186 -263729.000000 0 0 1
31.430757 -0.860590 7.389083 32.299096 -0.027374 1.339982 0.236824 -0.034233 678171.000000 0 0 1
29.911307 -1.039790 7.718783 30.908689 -0.034748 1.318396 0.201027 -0.040220 -146309.000000 0 0 1
29.111407 -0.684590 6.637583 29.866372 -0.023512 1.346682 0.215111 -0.048098 -82601.900000 0 0 1
27.722807 -0.708790 6.878283 28.572140 -0.025561 1.327674 0.213027 -0.033717 301583.000000 0 0 1
27.010607 -2.115490 6.849483 27.945726 -0.078161 1.323174 0.214077 -0.046726 -492739.000000 0 0 1
27.468107 -3.073290 7.836583 28.728975 -0.111422 1.294519 0.198560 -0.045149 527117.000000 0 0 1
27.025407 -4.420890 7.614983 28.423667 -0.162147 1.299573 0.186345 -0.056202 -178473.000000 0 0 1
27.466807 -5.308290 8.778683 29.320107 -0.190908 1.266724 0.178343 -0.037081 -146317.000000 0 0 1
26.836707 -4.981590 10.029683 29.079539 -0.183537 1.218659 0.170084 -0.035579 384271.000000 0 0 1
27.329107 -5.631490 11.154583 30.050266 -0.203218 1.190498 0.158728 -0.032164 -210972.000000 0 0 1
26.245607 -5.550990 12.256383 29.493462 -0.208430 1.142235 0.147973 -0.018270 194433.000000 0 0 1
25.048007 -6.188790 11.896883 28.411962 -0.242226 1.138752 0.181890 -0.030684 416740.000000 0 0 1
23.962907 -6.058490 12.841483 27.853723 -0.247638 1.091637 0.182006 -0.039535 714518.000000 0 0 1
22.963107 -7.216390 12.716483 27.222959 -0.304488 1.084762 0.177107 -0.048124 8374.480000 0 0 1
23.263207 -8.374590 13.483783 28.162438 -0.345549 1.071525 0.158553 -0.035685 902069.000000 0 0 1
22.117007 -9.219690 13.268383 27.390046 -0.394956 1.065092 0.213020 -0.064223 511603.000000 0 0 1
22.287907 -10.507690 14.034383 28.357120 -0.440550 1.053059 0.160904 -0.049621 -110282.000000 0 0 1
22.291807 -10.419290 15.449683 29.054758 -0.437233 1.010138 0.116073 -0.039041 234202.000000 0 0 1
22.965407 -11.482090 16.028183 30.267985 -0.463626 1.012735 0.115594 -0.036530 -387814.000000 0 0 1
22.909107 -11.516990 17.565883 31.080998 -0.465826 0.970163 0.126571 -0.038930 416529.000000 0 0 1
21.609707 -11.829490 18.084183 30.560660 -0.500857 0.937572 0.111754 -0.034572 524877.000000 0 0 1
21.547007 -12.199090 19.454583 31.489238 -0.515167 0.904833 0.134391 -0.026531 -54468.200000 0 0 1
21.780807 -11.131090 20.565983 31.957227 -0.472449 0.871673 0.107820 -0.030574 -82754.600000 0 0 1
20.802807 -10.127190 20.778083 31.097355 -0.453047 0.839060 0.116638 -0.036385 30085.100000 0 0 1
20.866507 -9.017790 19.888383 30.203964 -0.407924 0.852013 0.124300 -0.026694 -1269670.000000 0 0 1
21.693207 -7.861590 20.468383 30.844035 -0.347677 0.845163 0.112072 -0.007957 798736.000000 0 0 1
23.093107 -8.089890 20.663183 32.026630 -0.336956 0.869528 0.125343 -0.019473 672280.000000 0 0 1
23.817007 -8.130790 19.454283 31.809255 -0.328980 0.912725 0.128508 -0.022327 -399847.000000 0 0 1
25.317907 -8.545390 19.595583 33.136188 -0.325517 0.938046 0.140044 -0.017228 549601.000000 0 0 1
25.492107 -9.837790 20.174583 33.965327 -0.368306 0.934804 0.115307 -0.028119 -621666.000000 0 0 1
26.681707 -10.460790 19.825683 34.848232 -0.373642 0.965610 0.105414 -0.032942 -453449.000000 0 0 1
26.640307 -12.018090 20.152383 35.500126 -0.423788 0.967123 0.081751 -0.029090 -250579.000000 0 0 1
25.753707 -12.707990 19.340283 34.623590 -0.458388 0.978115 0.100403 -0.033946 -276601.000000 0 0 1
25.727807 -14.105790 19.559883 35.263045 -0.501514 0.982812 0.088011 -0.032633 29214.800000 0 0 1
24.644407 -14.833390 18.737283 34.328734 -0.541813 0.993430 0.096269 -0.027899 -283393.000000 0 0 1
24.841207 -14.631790 17.305583 33.625259 -0.532302 1.030185 0.102053 -0.032546 584028.000000 0 0 1
23.849607 -15.259090 16.473283 32.756871 -0.569175 1.043851 0.085557 -0.030695 138689.000000 0 0 1
23.782407 -16.802990 16.407183 33.423629 -0.615095 1.057690 0.063249 -0.026294 -291881.000000 0 0 1
24.972507 -17.394190 15.934883 34.352648 -0.608396 1.088447 0.080319 -0.028326 83671.400000 0 0 1
25.030907 -18.672490 16.360283 35.254319 -0.640922 1.088218 0.057142 -0.009575 -364569.000000 0 0 1
26.354707 -19.357090 15.999283 36.403908 -0.633496 1.115762 0.048915 -0.002659 -239784.000000 0 0 1
26.422907 -19.676290 14.624583 36.044484 -0.640080 1.153011 0.056652 -0.019820 -137202.000000 0 0 1
27.155807 -20.829990 14.387783 37.125929 -0.654327 1.172835 0.050692 -0.021539 -238153.000000 0 0 1
27.431407 -21.047190 12.888083 36.899444 -0.654460 1.213998 0.034837 -0.034099 1023420.000000 0 0 1
26.151407 -21.163690 12.202883 35.786983 -0.680371 1.222830 0.044473 -0.021974 1504610.000000 0 0 1
26.382907 -20.813990 10.874783 35.320544 -0.667948 1.257824 0.075259 -0.022101 13115.200000 0 0 1
25.126907 -20.813790 9.977683 34.119341 -0.691788 1.274024 0.042567 -0.021132 -84400.800000 0 0 1
24.777007 -22.087590 9.556483 34.541106 -0.728074 1.290469 0.034639 -0.021068 -1548.270000 0 0 1
23.368007 -22.187990 9.521183 33.600945 -0.759501 1.283500 0.022354 -0.011327 -72932.100000 0 0 1
22.912907 -23.280690 8.532283 33.760800 -0.793360 1.315298 0.030484 -0.013618 -480137.000000 0 0 1
23.317207 -24.642490 8.781683 35.043721 -0.813024 1.317504 0.025334 -0.012901 79210.300000 0 0 1
23.004807 -25.462600 7.663983 35.161083 -0.836065 1.351065 0.040859 -0.013115 723339.000000 0 0 1
21.514807 -25.817610 7.318283 34.394667 -0.876055 1.356383 0.044398 -0.015699 796445.000000 0 0 1
20.583607 -24.774690 7.184883 33.001404 -0.877536 1.351324 0.042632 -0.014399 -186400.000000 0 0 1
19.266107 -25.209960 7.457283 32.593496 -0.918253 1.339955 0.051473 -0.024985 337809.000000 0 0 1
18.178007 -24.120990 7.435483 31.105441 -0.924984 1.329418 0.059936 -0.025395 -148457.000000 0 0 1
17.936107 -23.520390 6.191283 30.219938 -0.919294 1.364461 0.063663 -0.026771 -199684.000000 0 0 1
17.097307 -22.434590 6.423483 28.929048 -0.919599 1.346887 0.081032 -0.019073 -414467.000000 0 0 1
16.559907 -21.877390 5.079083 27.904261 -0.922867 1.387758 0.076472 -0.013060 -167128.000000 0 0 1
15.804107 -20.686390 5.180283 26.543018 -0.918404 1.374370 0.106265 -0.014047 15393.400000 0 0 1
15.325907 -20.253090 3.926283 25.699937 -0.923009 1.417422 0.099724 -0.015141 165177.000000 0 0 1
14.594307 -18.880590 3.865583 24.174639 -0.912750 1.410205 0.115659 -0.011735 194056.000000 0 1 0
15.381207 -17.797190 4.366583 23.924642 -0.858088 1.387253 0.089070 -0.008912 218882.000000 0 1 0
14.909507 -16.549090 3.918783 22.616866 -0.837470 1.396649 0.065559 -0.009753 -142942.000000 0 1 0
15.998307 -15.510590 4.155383 22.666967 -0.769921 1.386430 0.073320 -0.014039 -1040510.000000 0 1 0
16.188907 -15.149190 5.528983 22.850564 -0.752233 1.326408 0.084899 -0.022960 590227.000000 0 1 0
17.227507 -14.182390 5.759983 23.045706 -0.688752 1.318181 0.087757 -0.026652 228799.000000 0 1 0
18.660907 -14.607990 5.454983 24.318298 -0.664172 1.344555 0.117605 -0.035736 -1408020.000000 0 1 0
19.575707 -13.545590 5.329583 24.394584 -0.605309 1.350546 0.134319 -0.040785 582591.000000 0 1 0
20.866707 -14.170090 5.187983 25.751234 -0.596545 1.367943 0.146081 -0.032452 695682.000000 0 0 1
22.028707 -13.137390 5.129783 26.156636 -0.537750 1.373399 0.140708 -0.034056 39759.900000 0 0 1
22.207507 -12.338990 6.269783 26.167426 -0.507150 1.328840 0.172571 -0.045711 679301.000000 0 0 1
23.332507 -11.528990 5.896183 26.684985 -0.458930 1.348003 0.173066 -0.040708 351858.000000 0 0 1
23.755007 -10.559090 7.026383 26.928884 -0.418270 1.306817 0.199883 -0.044983 -19012.200000 0 0 1
24.300407 -11.274390 8.129383 27.994794 -0.434401 1.276163 0.200060 -0.024206 249439.000000 0 0 1
24.268707 -10.523790 9.292483 28.036949 -0.409163 1.232970 0.227663 -0.050735 144573.000000 0 0 1
24.794007 -11.306990 10.490283 29.199945 -0.427863 1.203325 0.184219 -0.040548 578785.000000 0 0 1
23.778007 -12.248890 10.857183 28.867063 -0.475682 1.185202 0.198257 -0.047283 1154350.000000 0 0 1
24.328307 -13.211390 11.824983 30.103780 -0.497489 1.167114 0.186861 -0.045831 182422.000000 0 0 1
23.293507 -14.287390 12.154283 29.907249 -0.550188 1.152287 0.142014 -0.047427 80967.300000 0 0 1
22.184007 -13.773790 12.899883 29.124807 -0.555637 1.111946 0.129571 -0.048690 382621.000000 0 0 1
21.381707 -14.926490 13.182283 29.219002 -0.609447 1.102738 0.102478 -0.047022 203175.000000 0 0 1
19.979007 -14.722990 13.805483 28.399269 -0.635079 1.063151 0.099264 -0.051802 -63763.800000 0 0 1
19.940407 -14.214390 15.165383 28.803776 -0.619294 1.016310 0.103820 -0.056047 66426.900000 0 0 1
19.551907 -12.897790 15.294283 27.974008 -0.583143 0.992340 0.129335 -0.061005 -1330450.000000 0 0 1
18.112207 -12.487490 15.432283 26.872752 -0.603611 0.959081 0.144941 -0.063977 -1158100.000000 0 0 1
17.321407 -13.037390 14.360083 26.004166 -0.645211 0.985769 0.163803 -0.072827 1133530.000000 0 0 1
15.926207 -12.734190 14.595583 25.076576 -0.674481 0.949561 0.206602 -0.073572 1185980.000000 0 0 1
15.307207 -11.335390 14.146483 23.726032 -0.637410 0.931983 0.163058 -0.070608 -383417.000000 0 1 0
15.650007 -10.305590 14.993383 23.998530 -0.582330 0.895969 0.150193 -0.057727 127004.000000 0 1 0
15.313107 -9.027290 14.569083 22.983502 -0.532673 0.884220 0.137742 -0.047290 -755007.000000 0 1 0
15.822607 -7.990090 15.583283 23.601592 -0.467623 0.849626 0.149492 -0.039105 -216896.000000 0 1 0
17.230907 -7.966990 15.565583 24.549225 -0.433090 0.884009 0.139153 -0.044448 -220361.000000 0 1 0
17.721807 -8.648490 16.662283 25.816477 -0.454013 0.869233 0.140707 -0.043019 -527868.000000 0 0 1
19.265107 -8.696190 16.739883 26.962784 -0.424014 0.900968 0.125191 -0.034485 245371.000000 0 0 1
19.814707 -7.371490 16.959683 27.103363 -0.356157 0.894715 0.109641 -0.032971 239578.000000 0 0 1
21.058307 -7.203790 16.298283 27.585882 -0.329609 0.938722 0.098393 -0.024402 -234209.000000 0 0 1
21.623807 -5.873290 16.637983 27.908906 -0.265214 0.932095 0.093846 -0.017131 -457422.000000 0 0 1
22.254707 -5.751390 17.919083 29.145222 -0.252901 0.908638 0.127695 -0.013692 408573.000000 0 0 1
22.484507 -4.354390 18.180683 29.241255 -0.191294 0.899824 0.141722 -0.009930 4214.520000 0 0 1
-5.290376 -33.054613 -6.693456 34.137924 1.412093 1.768146 0.067321 -0.024954 39488.300000 0 0 1
-6.056976 -31.847313 -6.627956 33.088791 1.382853 1.772469 0.058668 -0.025920 260650.000000 0 0 1
-5.674876 -31.177213 -5.427356 32.150879 1.390747 1.740417 0.063780 -0.026983 -538439.000000 0 0 1
-6.398176 -29.816913 -5.241456 30.942815 1.359420 1.741009 0.061768 -0.022633 304179.000000 0 0 1
-7.780776 -29.844513 -4.970156 31.240004 1.315763 1.730571 0.044535 -0.022584 157577.000000 0 0 1
-8.629176 -30.212213 -6.063656 32.000131 1.292585 1.761437 0.040790 -0.022911 -427064.000000 0 0 1
-10.072876 -29.764513 -5.764056 31.947040 1.244476 1.752215 0.084332 -0.012105 558626.000000 0 0 1
-11.100776 -30.251713 -6.667056 32.906580 1.219104 1.774814 0.053514 -0.019425 685032.000000 0 0 1
-12.354776 -29.831813 -6.120056 32.863850 1.178153 1.758114 0.062540 -0.014327 1031630.000000 0 0 1
-13.597576 -30.328413 -6.949756 33.955939 1.149320 1.776923 0.068345 -0.020410 465319.000000 0 0 1
-13.758476 -29.690813 -8.207856 33.737352 1.136862 1.816549 0.084941 -0.029569 20508.800000 0 0 1
-14.758776 -30.316813 -8.988956 34.896016 1.117750 1.831326 0.095631 -0.030029 -129104.000000 0 0 1
-14.856076 -29.615713 -10.379456 34.720693 1.105847 1.874380 0.137146 -0.028086 -335389.000000 0 0 1
-15.539676 -28.398213 -10.333956 33.981328 1.070101 1.879797 0.149782 -0.028698 126544.000000 0 0 1
-14.768976 -27.301513 -9.796956 32.549587 1.074922 1.876522 0.116996 -0.023021 -342858.000000 0 0 1
-15.483076 -26.006913 -9.483156 31.717746 1.033807 1.874426 0.115510 -0.011349 -395271.000000 0 0 1
-15.956376 -25.270413 -10.597856 31.709845 1.007590 1.911567 0.129929 -0.018246 177113.000000 0 0 1
-16.376276 -23.998813 -10.157456 30.778228 0.971995 1.907122 0.086764 -0.000159 -280712.000000 0 0 1
-16.947776 -23.082613 -11.281656 30.778400 0.937469 1.946089 0.117638 -0.000014 1374550.000000 0 0 1
-18.225476 -23.707813 -11.643256 32.090400 0.915400 1.942096 0.135467 -0.012856 1198230.000000 0 0 1
-18.856676 -23.142913 -12.794556 32.478752 0.887100 1.975707 0.152125 -0.017466 -55356.200000 0 0 1
-20.277576 -23.674813 -13.028356 33.784833 0.862538 1.966684 0.142526 -0.010905 -173658.000000 0 0 1
-20.344976 -25.028313 -13.433656 34.939914 0.888252 1.965439 0.183958 -0.021788 -4165.130000 0 0 1
-20.169276 -25.975213 -12.384156 35.140841 0.910561 1.930947 0.198856 -0.015976 -996577.000000 0 0 1
-19.996476 -27.467413 -12.821656 36.314084 0.941520 1.931654 0.201759 -0.026932 886550.000000 0 0 1
-18.865576 -27.696413 -13.671356 36.192640 0.972830 1.958149 0.197115 -0.041194 1637010.000000 0 0 1
-17.519376 -27.342813 -13.250456 35.073245 1.000965 1.958209 0.188060 -0.040049 409795.000000 0 0 1
-16.596276 -28.473213 -13.692656 35.688220 1.043065 1.964568 0.170278 -0.040363 -511346.000000 0 0 1
-16.414776 -28.630213 -15.141056 36.309579 1.050212 2.000937 0.195084 -0.057573 37659.100000 0 0 1
-15.585376 -29.728413 -15.505456 36.974338 1.087931 2.003534 0.170426 -0.054382 120626.000000 0 0 1
-16.253676 -31.136913 -15.524756 38.401919 1.089699 1.986977 0.178141 -0.057795 -212553.000000 0 0 1
-16.518876 -31.720613 -14.244756 38.496540 1.090678 1.949834 0.163049 -0.047252 53140.000000 0 0 1
-17.128376 -32.979913 -14.341156 39.833713 1.091783 1.939092 0.140685 -0.045251 -705193.000000 0 0 1
-17.715176 -33.449513 -13.017756 40.026983 1.083743 1.902045 0.172685 -0.037151 634042.000000 0 0 1
-19.002476 -32.980913 -12.561556 40.082757 1.048086 1.889558 0.208254 -0.046299 856338.000000 0 0 1
-19.293276 -31.598013 -12.495856 39.074433 1.022630 1.896311 0.211195 -0.050166 -542277.000000 0 0 1
-18.601376 -30.767513 -11.377756 37.710799 1.027017 1.877283 0.205807 -0.043089 -199854.000000 0 0 1
-19.054976 -30.966613 -10.075156 37.729723 1.019174 1.841111 0.208330 -0.045494 -48048.900000 0 0 1
-18.607976 -29.905913 -9.271056 36.422148 1.014201 1.828173 0.193573 -0.032477 -91133.200000 0 0 1
-18.804676 -30.122613 -7.760256 36.348442 1.012721 1.785949 0.197867 -0.036438 -223350.000000 0 0 1
-18.067376 -31.181713 -7.265356 36.762953 1.045645 1.769733 0.168980 -0.032706 -287059.000000 0 0 1
-18.262176 -31.418413 -5.888756 36.814415 1.044272 1.731444 0.187022 -0.034121 -70972.500000 0 0 1
-17.239576 -32.431913 -5.299456 37.109516 1.082219 1.714092 0.168601 -0.025081 403684.000000 0 0 1
-15.992076 -31.872913 -4.932856 35.999474 1.105754 1.708255 0.154675 -0.025289 137546.000000 0 0 1
-15.839176 -31.936813 -3.539956 35.824165 1.110391 1.669773 0.130961 -0.026158 -42629.400000 0 0 1
-14.630276 -31.264813 -2.838556 34.635111 1.133118 1.652844 0.127180 -0.020684 -231487.000000 0 0 1
-13.434376 -31.949513 -3.046656 34.792757 1.172754 1.658474 0.069569 -0.018172 -712490.000000 0 0 1
-12.353576 -31.115713 -2.668356 33.584498 1.192861 1.650332 0.078977 -0.016415 69608.400000 0 0 1
-11.125876 -31.937213 -2.225556 33.892828 1.235577 1.636508 0.081006 -0.020923 -542400.000000 0 0 1
-11.378876 -32.829913 -1.127556 34.764254 1.237153 1.603236 0.089774 -0.016958 -78509.800000 0 0 1
-10.182676 -33.455913 -0.742956 34.979093 1.275343 1.592038 0.103041 -0.023911 -428251.000000 0 0 1
-9.116076 -32.655413 -0.022356 33.903972 1.298567 1.571456 0.103062 -0.036621 -1096220.000000 0 0 1
-9.267476 -32.438413 1.384344 33.764673 1.292515 1.529785 0.123928 -0.036560 -386820.000000 0 0 1
-8.139576 -32.210313 2.187444 33.294772 1.323277 1.505050 0.123591 -0.041883 285468.000000 0 0 1
-7.169276 -33.416113 2.475144 34.266039 1.359455 1.498500 0.143417 -0.051866 32351.000000 0 0 1
-7.728076 33.266210 3.350444 34.316022 -1.342535 1.473006 0.167834 -0.060261 239342.000000 0 0 1
-6.806076 32.282110 3.825344 33.212808 -1.363008 1.455363 0.162876 -0.057421 298724.000000 0 0 1
-5.957376 32.678410 5.069044 33.601548 -1.390473 1.419361 0.158286 -0.052882 322374.000000 0 0 1
-5.003176 33.677610 4.714144 34.372029 -1.423314 1.433212 0.151254 -0.053666 -206524.000000 0 0 1
-4.227276 -33.562913 5.820644 34.325193 1.445505 1.400399 0.129821 -0.054967 -127264.000000 0 0 1
-2.956776 -32.794013 5.402444 33.367292 1.480877 1.408172 0.138412 -0.053648 -271343.000000 0 0 1
-3.117776 -31.554013 4.732544 32.058902 1.472308 1.422635 0.127840 -0.046007 130084.000000 0 0 1
-3.691776 -31.682313 3.415944 32.079071 1.454795 1.464109 0.121437 -0.047815 -166046.000000 0 0 1
-3.964176 -30.441513 2.552644 30.804486 1.441302 1.487835 0.116715 -0.043523 -86678.400000 0 0 1
-2.805776 -29.763813 2.121344 29.970936 1.476806 1.499957 0.100305 -0.043792 -266937.000000 0 0 1
-3.133276 -28.518113 1.533444 28.730674 1.461366 1.517398 0.103223 -0.038727 148870.000000 0 0 1
-2.801576 -27.225113 2.371344 27.471419 1.468253 1.484368 0.103675 -0.033968 -51175.800000 0 0 1
-3.166276 -26.075013 1.628644 26.316992 1.449958 1.508871 0.108947 -0.036302 -268914.000000 0 0 1
-3.017576 -24.841713 2.278944 25.127874 1.449916 1.479978 0.082699 -0.032681 -3240.890000 0 0 1
-4.127376 -24.323013 3.238644 24.882383 1.402707 1.440268 0.074870 -0.023929 -44380.200000 0 1 0
-4.376376 -25.265013 4.266544 25.993786 1.399279 1.405913 0.094853 -0.025282 320780.000000 0 0 1
-5.312776 -24.707713 5.203844 25.802648 1.358996 1.367725 0.070020 -0.014909 -28957.300000 0 0 1
-5.969776 -25.737813 6.125344 27.121819 1.342881 1.342985 0.080811 -0.018728 -514140.000000 0 0 1
-5.135676 -26.274013 7.117344 27.701182 1.377764 1.310949 0.077796 -0.015472 217902.000000 0 0 1
-5.868776 -27.047713 8.105844 28.839660 1.357130 1.285892 0.084716 -0.019201 792620.000000 0 0 1
-5.082376 -27.251913 9.488144 29.300549 1.386418 1.241031 0.071666 -0.019449 650345.000000 0 0 1
-4.809576 -26.124813 10.340044 28.505339 1.388735 1.199589 0.066472 -0.032498 305755.000000 0 0 1
-5.918776 -25.851213 11.181344 28.780889 1.345720 1.171794 0.051833 -0.032536 301988.000000 0 0 1
-5.532876 -24.632413 12.069044 27.982678 1.349846 1.124859 0.052269 -0.032973 658965.000000 0 0 1
-4.646476 -24.990913 13.146944 28.617784 1.386969 1.093479 0.067726 -0.044116 95030.100000 0 0 1
-4.089076 -23.777613 13.694344 27.742214 1.400490 1.054539 0.064670 -0.044499 7038.920000 0 0 1
-3.203276 -24.188613 14.902544 28.590834 1.439133 1.022499 0.071933 -0.046899 -110113.000000 0 0 1
-3.913676 -24.829113 15.958244 29.773600 1.414458 1.005121 0.074725 -0.052613 -60249.600000 0 0 1
-3.018876 -25.681613 16.649544 30.754937 1.453783 0.998741 0.096782 -0.048643 -62628.300000 0 0 1
-3.391676 -26.037213 18.042744 31.858759 1.441263 0.968744 0.123783 -0.040197 -317821.000000 0 0 1
-3.338976 -24.958413 18.957744 31.519314 1.437804 0.925464 0.125903 -0.038691 -212096.000000 0 0 1
-3.929376 -25.259113 20.195644 32.578011 1.416471 0.902160 0.173434 -0.040524 -262487.000000 0 0 1
-3.338676 -24.462213 21.367544 32.651471 1.435151 0.857390 0.138085 -0.038265 -405023.000000 0 0 1
-1.960376 -24.718913 21.462044 32.794619 1.491655 0.857357 0.090735 -0.049041 -472502.000000 0 0 1
-1.270476 -23.965513 22.423344 32.844577 1.517833 0.819330 0.078118 -0.033052 299036.000000 0 0 1
-0.675076 -22.594613 21.944944 31.504806 1.540927 0.800206 0.078601 -0.033211 -485854.000000 0 0 1
-1.641176 -21.680313 21.640444 30.676346 1.495242 0.787747 0.121095 -0.028467 -767689.000000 0 0 1
-0.950476 -20.568413 21.136544 29.507905 1.524619 0.772309 0.126374 -0.028077 27608.000000 0 0 1
-1.821276 -19.324713 20.826044 28.469030 1.476828 0.750228 0.102265 -0.006855 -330133.000000 0 0 1
-2.505176 -18.766013 21.962144 28.996119 1.438086 0.711449 0.098849 -0.032753 1121950.000000 0 0 1
-3.751076 -19.353513 22.418944 29.853611 1.379351 0.721278 0.127812 -0.042365 754519.000000 0 0 1
-4.959876 -18.999413 21.511444 29.125938 1.315441 0.739855 0.113871 -0.041878 -528118.000000 0 0 1
-5.023776 -19.715213 20.286244 28.730813 1.321289 0.786850 0.105141 -0.042517 -358726.000000 0 0 1
-5.539376 -21.023313 20.408144 29.818731 1.313165 0.817006 0.116165 -0.041928 -78791.400000 0 0 1
-5.728776 -21.568713 19.011644 29.316733 1.311185 0.865196 0.081478 -0.044513 39708.800000 0 0 1
-6.348876 -22.837213 18.908044 30.320960 1.299638 0.897461 0.073247 -0.050948 -317608.000000 0 0 1
-6.198576 -23.395013 17.625344 29.939968 1.311795 0.941360 0.062658 -0.062856 -143883.000000 0 0 1
-6.836376 -24.805713 17.542244 31.141447 1.301875 0.972412 0.063944 -0.065244 -935611.000000 0 0 1
-8.197976 -24.892513 17.757844 31.657306 1.252649 0.975276 0.078337 -0.059227 -1359850.000000 0 0 1
-8.610976 -26.234613 17.722144 32.809727 1.253646 1.000182 0.086459 -0.052962 69166.600000 0 0 1
-10.121676 -26.470013 17.897744 33.517743 1.205569 1.007498 0.056618 -0.052394 -224664.000000 0 0 1
-10.893876 -25.913913 16.847444 32.772607 1.172839 1.030872 0.080704 -0.051851 59407.900000 0 0 1
-12.299576 -26.028213 16.955244 33.409994 1.129351 1.038527 0.098217 -0.050820 528580.000000 0 0 1
-13.053876 -25.126313 17.960044 33.530560 1.091647 1.005540 0.102609 -0.049541 -474037.000000 0 0 1
-13.164476 -23.779213 17.565044 32.361785 1.065184 0.997063 0.099004 -0.050403 -57113.900000 0 0 1
-13.517376 -23.010513 18.697544 32.585293 1.039661 0.959654 0.101876 -0.045182 -646689.000000 0 0 1
-12.331076 -22.266113 19.236944 31.904470 1.065037 0.923597 0.104509 -0.048914 -521436.000000 0 0 1
-11.407976 -23.070813 19.950544 32.564221 1.111577 0.911384 0.115204 -0.051387 539120.000000 0 0 1
-10.099576 -22.491413 19.815844 31.631199 1.148740 0.893786 0.113926 -0.059541 413263.000000 0 0 1
-9.012776 -23.352113 20.453444 32.324830 1.202459 0.885701 0.114160 -0.057369 -493577.000000 0 0 1
-9.022676 -23.337713 21.865044 33.228567 1.201883 0.852611 0.129785 -0.048145 193827.000000 0 0 1
-7.954576 -24.177513 22.276844 33.824328 1.252944 0.851834 0.126477 -0.042896 256801.000000 0 0 1
-7.763076 -23.864613 23.792644 34.581425 1.256296 0.812042 0.131412 -0.043012 537739.000000 0 0 1
-6.779976 -24.664913 24.487644 35.411449 1.302538 0.807208 0.129714 -0.031904 432689.000000 0 0 1
-6.763276 -24.369313 25.878644 36.184382 1.300077 0.773903 0.123109 -0.024729 553797.000000 0 0 1
-5.457276 -24.906813 26.597844 36.845305 1.355097 0.764283 0.139799 -0.018199 -26767.100000 0 0 1
-4.389376 -24.171813 26.131244 35.866210 1.391163 0.754556 0.124505 -0.015513 -1667590.000000 0 0 1
-3.274476 -24.381513 26.934944 36.478371 1.437294 0.740130 0.116825 -0.011530 -467309.000000 0 0 1
-2.043576 -23.680013 26.327444 35.469050 1.484710 0.734352 0.109725 -0.012982 -573350.000000 0 0 1
-2.005876 -22.262513 26.338244 34.544842 1.480938 0.703726 0.113433 -0.014164 1414330.000000 0 0 1
-0.699576 -21.701513 25.925844 33.817073 1.538571 0.697190 0.111202 -0.020517 1547910.000000 0 0 1
0.204324 -21.466613 27.106644 34.577845 -1.561278 0.669824 0.107038 -0.009222 -595121.000000 0 0 1
0.597724 -22.649413 27.760844 35.833191 -1.544412 0.684517 0.110694 -0.014838 154330.000000 0 0 1
1.599424 -22.324313 28.721844 36.412599 -1.499274 0.661961 0.079215 -0.029135 226013.000000 0 0 1
1.934124 -23.502113 29.698644 37.922283 -1.488686 0.671089 0.126478 -0.041514 -834342.000000 0 0 1
2.562624 -24.616713 29.142644 38.234059 -1.467069 0.704065 0.094199 -0.030354 185623.000000 0 0 1
3.277624 -25.382113 30.083444 39.496937 -1.442376 0.704917 0.109203 -0.027760 -156124.000000 0 0 1
4.587324 -24.794913 30.654644 39.693052 -1.387854 0.688354 0.072854 -0.033810 -288592.000000 0 0 1
5.685524 -24.493113 29.811044 38.999180 -1.342708 0.700683 0.078728 -0.034554 679097.000000 0 0 1
6.410524 -25.542913 29.144244 39.280048 -1.324904 0.734806 0.061114 -0.033396 -667369.000000 0 0 1
7.793624 -25.105013 28.700744 38.919596 -1.269788 0.741529 0.056489 -0.029969 -708571.000000 0 0 1
7.817424 -24.085113 27.716744 37.542278 -1.256949 0.740278 0.052230 -0.036957 192717.000000 0 0 1
9.094524 -24.022813 27.089844 37.331830 -1.208892 0.758818 0.068323 -0.022818 198991.000000 0 0 1
9.256024 -22.919813 26.000044 35.874699 -1.186981 0.760131 0.069983 -0.023644 -165191.000000 0 0 1
8.529924 -23.092613 24.801444 34.944813 -1.216963 0.781679 0.060312 -0.022252 -21595.700000 0 0 1
8.346524 -21.916813 24.065944 33.603285 -1.206926 0.772485 0.061200 -0.022217 -44406.100000 0 0 1
7.510824 -21.953713 22.806944 32.535129 -1.241158 0.794005 0.046664 -0.013614 113192.000000 0 0 1
8.181324 -22.781413 21.831744 32.596807 -1.226018 0.836923 0.036354 -0.010546 618444.000000 0 0 1
7.627124 -22.548413 20.542544 31.442011 -1.244622 0.858799 0.043736 -0.003646 207171.000000 0 0 1
8.292824 -23.510513 19.511344 31.657664 -1.231693 0.906732 0.085567 -0.021076 -571848.000000 0 0 1
9.574524 -23.215913 19.102344 31.552332 -1.179636 0.920506 0.095724 -0.016549 -922898.000000 0 0 1
10.003124 -24.063513 18.030744 31.689475 -1.176832 0.965529 0.099264 -0.021394 -471508.000000 0 0 1
11.226824 -23.523613 17.336644 31.304331 -1.125508 0.983864 0.117663 -0.026965 -384780.000000 0 0 1
10.943724 -22.484113 16.440944 29.926661 -1.117820 0.989181 0.151060 -0.021380 210439.000000 0 0 1
12.163924 -22.205813 15.766444 29.826832 -1.069658 1.013847 0.129712 -0.028811 606944.000000 0 0 1
-12.799576 22.418210 11.166844 28.126566 -1.052014 1.162527 0.034775 -0.008019 -100250.000000 0 0 1
-13.779176 21.446710 10.876544 27.715091 -0.999723 1.167512 0.010213 -0.013527 -104219.000000 0 0 1
-13.281676 20.265810 10.267344 26.315857 -0.990653 1.169993 0.049499 -0.022548 311360.000000 0 0 1
-14.352076 19.567110 9.354644 26.006985 -0.937952 1.202853 0.052083 -0.021832 -296777.000000 0 0 1
-14.585376 20.487210 8.332644 26.493243 -0.952111 1.250846 0.055555 -0.023634 64215.500000 0 0 1
-15.348476 19.953310 7.231044 26.191570 -0.915108 1.291080 0.072876 -0.027325 1140210.000000 0 0 1
-16.885576 19.632610 7.383744 26.927342 -0.860480 1.293028 0.056449 -0.030712 644494.000000 0 0 1
-17.220876 18.750310 8.504044 26.841227 -0.827891 1.248413 0.040853 -0.033899 -494265.000000 0 0 1
-18.597676 18.533710 8.581044 27.622569 -0.783675 1.254916 0.049529 -0.027963 -554707.000000 0 0 1
-18.934676 17.493110 9.582744 27.501997 -0.745846 1.214892 0.064887 -0.031370 -361773.000000 0 0 1
-18.808776 16.155810 9.081744 26.405650 -0.709667 1.219695 0.065592 -0.023456 140335.000000 0 0 1
-19.180476 15.223710 10.036544 26.464774 -0.670893 1.181820 0.082424 -0.032712 -88380.900000 0 0 1
-18.028976 14.792510 11.001944 25.785754 -0.687108 1.129991 0.066253 -0.022320 -535597.000000 0 0 1
-17.032876 14.123210 10.326044 24.417435 -0.692278 1.134157 0.041287 -0.001588 499512.000000 0 1 0
-15.991076 13.404610 11.034744 23.604315 -0.697636 1.084349 0.013442 -0.008032 951410.000000 0 1 0
-16.612476 12.307110 11.910544 23.860017 -0.637610 1.048139 0.024559 -0.012328 -194355.000000 0 1 0
-17.390276 11.403910 11.076544 23.561849 -0.580416 1.081387 0.001677 -0.012319 291471.000000 0 1 0
-18.176076 10.634210 11.961144 24.218281 -0.529366 1.054240 0.038552 -0.013923 -678545.000000 0 1 0
-19.354276 9.925610 11.320644 24.520659 -0.473865 1.090911 0.054282 -0.019833 -736932.000000 0 1 0
-19.097476 8.826810 10.404544 23.470848 -0.432951 1.111523 0.047074 -0.018666 274955.000000 0 1 0
-18.787476 9.253110 9.078944 22.825787 -0.457642 1.161734 0.069527 -0.018546 -1675130.000000 0 1 0
-19.989876 9.520010 8.258544 23.631109 -0.444461 1.213783 0.085771 -0.018883 -1020440.000000 0 1 0
-20.574976 8.319710 7.753844 23.508920 -0.384260 1.234677 0.080435 -0.021982 20727.000000 0 1 0
-21.582676 8.671910 6.858044 24.249674 -0.382057 1.284074 0.111616 -0.016404 -461338.000000 0 1 0
-21.778676 7.559610 5.814744 23.775401 -0.334098 1.323720 0.114650 -0.022135 -435396.000000 0 1 0
-22.516776 6.521010 6.342544 24.284906 -0.281895 1.306560 0.134922 -0.032609 49381.600000 0 1 0
-22.380276 5.387710 5.556044 23.680663 -0.236240 1.333965 0.142357 -0.034119 -108720.000000 0 1 0
-23.333876 4.170310 5.765444 24.394705 -0.176856 1.332199 0.153121 -0.035853 -487292.000000 0 1 0
-24.562676 4.274110 5.123044 25.452675 -0.172283 1.368135 0.200760 -0.038912 -187293.000000 0 0 1
-25.186066 3.000010 4.964244 25.845342 -0.118555 1.377520 0.198012 -0.041930 -158351.000000 0 0 1
-26.409176 3.079610 4.035644 26.892657 -0.116087 1.420162 0.213056 -0.045022 -413877.000000 0 0 1
-26.145566 3.045010 2.642244 26.454568 -0.115941 1.470751 0.223894 -0.037569 54078.000000 0 0 1
-27.334726 3.072010 1.894544 27.571975 -0.111915 1.502029 0.223212 -0.037671 -193571.000000 0 0 1
-27.124286 2.963210 0.366444 27.288126 -0.108814 1.557367 0.248423 -0.043121 -157308.000000 0 0 1
-26.487596 4.086410 -0.242156 26.802055 -0.153070 1.579831 0.245223 -0.044132 309109.000000 0 0 1
-26.673896 4.227310 -1.622456 27.055485 -0.157174 1.630800 0.271342 -0.044351 82745.700000 0 0 1
-28.008456 4.916210 -2.037456 28.509542 -0.173756 1.642323 0.263593 -0.060704 400816.000000 0 0 1
-29.087256 4.012010 -1.929556 29.425973 -0.137065 1.636417 0.238268 -0.061512 -183016.000000 0 0 1
-30.359256 4.608710 -1.921256 30.767123 -0.150656 1.633282 0.201829 -0.034427 242533.000000 0 0 1
-31.488446 3.519710 -2.038756 31.750073 -0.111316 1.635053 0.195301 -0.035657 -217714.000000 0 0 1
-31.536516 2.805710 -3.260556 31.828526 -0.088733 1.673418 0.184956 -0.040670 -57032.500000 0 0 1
-32.379586 1.728910 -3.143256 32.577704 -0.053344 1.667432 0.191821 -0.050605 -728376.000000 0 0 1
-32.667286 1.123310 -4.526356 32.998505 -0.034373 1.708399 0.191769 -0.065775 -235864.000000 0 0 1
-31.531586 0.564310 -5.159256 31.955865 -0.017895 1.732956 0.228739 -0.065611 238059.000000 0 0 1
-31.771666 -0.139890 -6.386356 32.407467 0.004403 1.769159 0.247212 -0.063559 -87600.100000 0 0 1
-32.346696 0.602510 -7.693156 33.254420 -0.018624 1.804254 0.233898 -0.061591 1191970.000000 0 0 1
-33.715946 1.041710 -7.496956 34.555094 -0.030887 1.789492 0.230955 -0.064765 1088900.000000 0 0 1
-34.131050 1.762710 -8.607556 35.243805 -0.051600 1.817521 0.205248 -0.053206 300463.000000 0 0 1
-35.690827 1.814910 -8.594656 36.755913 -0.050807 1.806812 0.191586 -0.048428 237007.000000 0 0 1
-36.197996 2.663910 -7.619256 37.086985 -0.073460 1.777713 0.161343 -0.038505 1164640.000000 0 0 1
37.441897 2.540710 -7.559256 38.281760 0.067754 1.769566 0.155239 -0.031407 1132920.000000 0 0 1
36.898077 3.362210 -6.375656 37.595498 0.090871 1.741206 0.185856 -0.027309 -614046.000000 0 0 1
35.507797 3.227010 -6.292856 36.205210 0.090633 1.745494 0.176634 -0.026695 -185076.000000 0 0 1
34.934787 3.850810 -5.144056 35.520830 0.109785 1.716125 0.176357 -0.030615 -32709.100000 0 0 1
33.538137 3.253410 -4.921156 34.053033 0.096704 1.715819 0.166766 -0.026050 -400208.000000 0 0 1
33.614757 2.010210 -4.305756 33.948967 0.059730 1.697969 0.164144 -0.029530 -140505.000000 0 0 1
32.417137 1.261810 -4.360356 32.733402 0.038905 1.704402 0.143355 -0.032391 7966.440000 0 0 1
32.466817 -0.091190 -3.687556 32.675688 -0.002809 1.683890 0.182587 -0.036219 204319.000000 0 0 1
33.487807 -0.966690 -4.172756 33.760622 -0.028859 1.694712 0.126911 -0.037198 251619.000000 0 0 1
33.439527 -2.209790 -3.544956 33.699434 -0.065987 1.676185 0.138924 -0.031485 344233.000000 0 0 1
34.728377 -3.058490 -3.755156 35.064451 -0.087842 1.678095 0.125640 -0.030075 235928.000000 0 0 1
34.590077 -4.241290 -3.040156 34.981488 -0.122007 1.657814 0.100404 -0.036588 495431.000000 0 0 1
35.838507 -4.887290 -2.792156 36.277821 -0.135534 1.647838 0.135635 -0.033138 380489.000000 0 0 1
35.609427 -6.282090 -2.240656 36.228669 -0.174620 1.632683 0.145806 -0.038382 116153.000000 0 0 1
34.875697 -6.417590 -1.012256 35.475686 -0.181977 1.599334 0.147508 -0.038064 184656.000000 0 0 1
35.136297 -7.639190 -0.349456 35.958847 -0.214084 1.580515 0.182847 -0.040577 -1042.530000 0 0 1
34.251057 -7.813490 0.915044 35.142891 -0.224286 1.544756 0.185871 -0.022772 1000370.000000 0 0 1
32.885437 -8.123090 0.517344 33.877783 -0.242164 1.555525 0.167635 -0.016323 1218150.000000 0 0 1
32.074927 -7.828690 1.679244 33.059176 -0.239395 1.519979 0.199761 -0.037632 -370473.000000 0 0 1
31.481097 -9.004690 2.435844 32.834086 -0.278596 1.496542 0.176662 -0.034829 -389296.000000 0 0 1
30.307617 -9.660190 2.053744 31.876147 -0.308558 1.506323 0.166903 -0.037616 255645.000000 0 0 1
29.086107 -8.978490 2.344944 30.530536 -0.299407 1.493914 0.180707 -0.039542 -379725.000000 0 0 1
27.895807 -9.820390 1.830144 29.630483 -0.338489 1.508991 0.156426 -0.038176 -237874.000000 0 0 1
26.571807 -9.425490 2.153844 28.276135 -0.340871 1.494551 0.144571 -0.046511 858688.000000 0 0 1
26.020907 -8.284790 1.518444 27.350155 -0.308242 1.515249 0.166798 -0.048431 -475009.000000 0 0 1
25.528607 -8.583490 0.066944 26.933075 -0.324356 1.568311 0.139358 -0.035368 -639753.000000 0 0 1
26.578207 -8.766490 -0.852056 27.999614 -0.318601 1.601232 0.137019 -0.046011 343324.000000 0 0 1
26.104207 -9.116790 -2.174656 27.735800 -0.336003 1.649283 0.132535 -0.048549 -73749.100000 0 0 1
25.418307 -10.463990 -2.445556 27.596488 -0.390527 1.659531 0.121616 -0.022678 245081.000000 0 0 1
24.043707 -10.555190 -2.109756 26.343176 -0.413669 1.650970 0.105635 -0.014762 134131.000000 0 0 1
23.662007 -11.897990 -2.049656 26.564145 -0.465910 1.648032 0.097303 -0.012564 148757.000000 0 0 1
22.174707 -12.196490 -1.723956 25.366198 -0.502857 1.638811 0.110027 -0.019781 -64824.200000 0 0 1
21.285907 -11.813390 -2.715756 24.495333 -0.506664 1.681893 0.116189 -0.016072 1183090.000000 0 1 0
19.904907 -12.004390 -2.290656 23.357178 -0.542686 1.669025 0.131918 -0.027303 1120250.000000 0 1 0
18.872707 -11.659490 -3.360256 22.436891 -0.553402 1.721127 0.117471 -0.017945 -266797.000000 0 1 0
18.880207 -12.565090 -4.484556 23.118281 -0.587206 1.766017 0.119607 -0.026635 314851.000000 0 1 0
18.375707 -11.909190 -5.621056 22.607336 -0.575034 1.822071 0.131518 -0.020254 -158922.000000 0 1 0
18.366407 -12.806890 -6.831856 23.409732 -0.608911 1.866945 0.122513 -0.019888 91799.200000 0 1 0
17.347707 -13.802690 -6.893156 23.215787 -0.672082 1.872259 0.114542 -0.030682 626162.000000 0 1 0
17.599507 -14.695790 -7.974756 24.275617 -0.695728 1.905521 0.116871 -0.031699 -118581.000000 0 1 0
16.372607 -15.523790 -8.412656 24.079516 -0.758793 1.927695 0.096426 -0.039678 278865.000000 0 1 0
15.460207 -14.902090 -9.325056 23.410402 -0.767018 1.980491 0.118939 -0.028162 227565.000000 0 1 0
14.571107 -15.871690 -9.805056 23.672068 -0.828094 1.997864 0.105749 -0.034909 -250124.000000 0 1 0
13.845807 -15.481190 -11.106556 23.552689 -0.841104 2.061858 0.109664 -0.054421 673885.000000 0 1 0
12.696907 -14.611390 -10.989656 22.259306 -0.855390 2.087148 0.072519 -0.050183 740391.000000 0 1 0
13.034107 -13.214390 -10.843656 21.496346 -0.792266 2.099532 0.075631 -0.041412 -341192.000000 0 1 0
13.402907 -12.378190 -12.081156 21.881769 -0.745672 2.155690 0.100352 -0.033676 609853.000000 0 1 0
14.600807 -12.833690 -12.755156 23.250401 -0.721075 2.151484 0.119159 -0.029463 716882.000000 0 1 0
14.733607 -12.129990 -13.938856 23.632764 -0.688780 2.201621 0.146757 -0.030588 196988.000000 0 1 0
16.145807 -11.584590 -14.341656 24.506589 -0.622374 2.195943 0.160065 -0.047501 346104.000000 0 1 0
16.950707 -12.648290 -14.787556 25.806540 -0.641052 2.180977 0.150302 -0.039295 -112603.000000 0 0 1
18.084507 -12.201290 -15.508556 26.766325 -0.593531 2.188795 0.143662 -0.035535 -103098.000000 0 0 1
19.156807 -13.287890 -15.696556 28.105749 -0.606443 2.163351 0.131850 -0.025216 -371052.000000 0 0 1
19.970707 -13.410490 -14.543256 28.110081 -0.591347 2.114569 0.110515 -0.047128 -58930.700000 0 0 1
20.998107 -14.359190 -14.787156 29.423915 -0.599793 2.097349 0.077385 -0.030137 598614.000000 0 0 1
22.132107 -14.217690 -13.682456 29.651011 -0.571015 2.050425 0.055521 -0.030607 357347.000000 0 0 1
22.887107 -13.049090 -13.907556 29.791249 -0.518182 2.056503 0.069677 -0.029659 103780.000000 0 0 1
23.963607 -12.937790 -12.975156 30.166132 -0.495051 2.015426 0.064751 -0.025355 253160.000000 0 0 1
24.702307 -11.603590 -13.102056 30.273935 -0.439146 2.018374 0.077729 -0.021038 -461182.000000 0 0 1
23.825007 -10.482390 -12.888256 29.045113 -0.414485 2.030556 0.070585 -0.009190 372708.000000 0 0 1
24.360107 -9.193790 -13.191256 29.188179 -0.360883 2.039733 0.080155 -0.012287 -268599.000000 0 0 1
25.419207 -8.692290 -12.178356 29.495836 -0.329492 1.996415 0.088696 -0.013323 709663.000000 0 0 1
26.569207 -9.555590 -12.165156 30.744480 -0.345245 1.977611 0.084172 -0.017907 139731.000000 0 0 1
27.521907 -9.207190 -11.202756 31.108350 -0.322837 1.939193 0.094977 -0.020861 106014.000000 0 0 1
28.901607 -9.898090 -11.360556 32.593516 -0.329956 1.926823 0.125306 -0.025274 631810.000000 0 0 1
29.705607 -9.377890 -12.428756 33.538662 -0.305792 1.950430 0.118755 -0.030245 -14698.400000 0 0 1
30.976217 -9.952290 -12.528256 34.864470 -0.310871 1.938359 0.118931 -0.037615 -129206.000000 0 0 1
31.749827 -9.549390 -13.798456 35.911554 -0.292163 1.965175 0.102800 -0.031955 -56399.600000 0 0 1
31.406957 -10.288290 -14.949656 36.273104 -0.316564 1.995600 0.089790 -0.027145 121934.000000 0 0 1
32.023917 -9.692190 -16.077056 37.120634 -0.293891 2.018729 0.067044 -0.027998 -144885.000000 0 0 1
31.739647 -10.448190 -17.365256 37.657960 -0.318012 2.050066 0.035431 -0.014846 638239.000000 0 0 1
30.429497 -10.214290 -17.897556 36.750626 -0.323853 2.079448 0.034416 -0.011828 765818.000000 0 0 1
30.341407 -8.951290 -18.596356 36.695381 -0.286881 2.102238 0.026327 -0.005680 480471.000000 0 0 1
28.847007 -8.657690 -18.983256 35.601536 -0.291571 2.133192 0.012025 -0.011132 727100.000000 0 0 1
28.586607 -8.970590 -20.326356 36.205335 -0.304072 2.166896 0.012342 -0.005211 376218.000000 0 0 1
27.184907 -8.941390 -20.540656 35.226214 -0.317764 2.193344 0.058964 -0.001695 379266.000000 0 0 1
26.652507 -9.466090 -21.909456 35.776909 -0.341270 2.229878 0.076987 -0.009606 224645.000000 0 0 1
26.959707 -10.859790 -22.144856 36.539779 -0.382931 2.221879 0.071852 -0.011365 63085.400000 0 0 1
26.109907 -11.231490 -23.204556 36.692302 -0.406235 2.255456 0.093041 -0.019348 -1083870.000000 0 0 1
26.293407 -12.743890 -23.573956 37.543060 -0.451317 2.249671 0.089910 -0.007943 145501.000000 0 0 1
27.515907 -13.150790 -24.130456 38.888910 -0.445840 2.240173 0.081191 -0.008193 190893.000000 0 0 1
28.687107 -12.797990 -23.405656 39.173503 -0.419625 2.211160 0.056243 -0.000909 -402389.000000 0 0 1
30.019307 -13.505290 -23.830156 40.637765 -0.422760 2.197409 0.053985 -0.000393 574900.000000 0 0 1
30.437197 -12.953590 -25.104506 41.526554 -0.402365 2.219986 0.065705 -0.016202 656690.000000 0 0 1
31.816707 -13.332190 -25.238436 42.743757 -0.396804 2.202424 0.033130 -0.014792 540673.000000 0 0 1
32.505917 -12.788590 -26.478576 43.832609 -0.374824 2.219412 0.055186 -0.020609 -210739.000000 0 0 1
32.085357 -13.442690 -27.675596 44.453511 -0.396749 2.242824 0.053079 -0.025896 80729.400000 0 0 1
32.922237 -13.092390 -28.752416 45.628782 -0.378501 2.252527 0.046114 -0.029433 -87525.900000 0 0 1
32.822157 -13.988690 -30.022886 46.629938 -0.402884 2.270321 0.054549 -0.042495 -8936.770000 0 0 1
33.467317 -15.267790 -29.964476 47.445089 -0.427998 2.254361 0.062780 -0.040204 -104376.000000 0 0 1
33.526417 -16.038890 -31.140126 48.486844 -0.446215 2.268212 0.039799 -0.037299 752078.000000 0 0 1
32.175317 -16.607590 -31.736306 48.148273 -0.476491 2.290467 0.041136 -0.028677 1230900.000000 0 0 1
31.390947 -15.650990 -32.463986 47.793885 -0.462513 2.317536 0.052663 -0.031770 1288710.000000 0 0 1
30.173947 -16.217490 -33.018846 47.578548 -0.493170 2.337807 0.054562 -0.025070 1599500.000000 0 0 1
29.218607 -15.325590 33.839853 47.262420 -0.483067 0.772742 0.078718 -0.024061 226176.000000 0 0 1
28.627107 -14.190990 -33.339706 46.178257 -0.460217 2.377454 0.084699 -0.026994 189408.000000 0 0 1
29.474207 -13.055190 -33.229586 46.296568 -0.416964 2.371369 0.077997 -0.031371 129880.000000 0 0 1
28.581907 -11.832590 -32.865136 45.133721 -0.392507 2.386448 0.094055 -0.021632 621429.000000 0 0 1
27.670607 -11.503490 33.831433 45.194675 -0.393992 0.724892 0.096426 -0.022774 213020.000000 0 0 1
26.853907 -10.393290 -33.549586 44.212300 -0.369276 2.432310 0.060303 -0.023030 180515.000000 0 0 1
21.284024 -29.032413 9.289044 37.177641 -0.938191 1.318265 0.055554 -0.024427 -12050.700000 0 0 1
21.748324 -29.008613 7.960744 37.119572 -0.927475 1.354655 0.069297 -0.030573 1548850.000000 0 0 1
23.038324 -29.718613 7.872744 38.417970 -0.911352 1.364411 0.093898 -0.029348 1506920.000000 0 0 1
23.704524 -29.597113 6.504344 38.473367 -0.895503 1.400920 0.095434 -0.030409 -63058.500000 0 0 1
24.049124 -28.285713 6.169244 37.636438 -0.866174 1.406136 0.092351 -0.031932 -22156.900000 0 0 1
24.692724 -28.141913 4.933844 37.762954 -0.850588 1.439769 0.102111 -0.024774 -243702.000000 0 0 1
24.899424 -26.687513 4.484844 36.773883 -0.820046 1.448535 0.097166 -0.027747 -259417.000000 0 0 1
25.706624 -25.896213 5.283644 36.869516 -0.789072 1.426995 0.087488 -0.027184 -122107.000000 0 0 1
25.934824 -24.645113 4.643844 36.077166 -0.759905 1.441718 0.071495 -0.021101 72871.000000 0 0 1
26.638124 -23.556813 5.506644 35.983832 -0.724088 1.417162 0.073486 -0.016754 206810.000000 0 0 1
28.063124 -23.667413 5.460544 37.114726 -0.700629 1.423134 0.093451 -0.021949 580590.000000 0 0 1
28.735524 -22.737413 6.343444 37.188164 -0.669392 1.399381 0.077808 -0.015710 -278747.000000 0 0 1
28.228724 -21.305513 6.573944 35.972245 -0.646532 1.387013 0.064577 -0.007148 -786619.000000 0 0 1
28.115524 -20.590813 5.349144 35.257305 -0.632119 1.418491 0.089285 -0.004819 11822.100000 0 0 1
27.675624 -19.302313 5.608844 34.204949 -0.609011 1.406075 0.088714 -0.010107 -265441.000000 0 0 1
27.715224 -18.437613 4.351144 33.570994 -0.587023 1.440820 0.100355 -0.011388 355764.000000 0 0 1
28.973724 -17.831713 4.065544 34.263323 -0.551698 1.451860 0.127958 -0.007358 722108.000000 0 0 1
28.806124 -17.131413 2.835744 33.635093 -0.536524 1.486387 0.133487 -0.003419 -544438.000000 0 0 1
29.903424 -16.133013 2.738444 34.087944 -0.494749 1.490375 0.144657 -0.024445 -578008.000000 0 0 1
29.722124 -15.116313 3.734044 33.553698 -0.470494 1.459280 0.139886 -0.021208 277038.000000 0 0 1
30.877624 -14.311613 3.793344 34.243822 -0.434019 1.459794 0.158626 -0.026054 78951.900000 0 0 1
30.707324 -13.135913 4.752844 33.735463 -0.404221 1.429440 0.156912 -0.027330 75918.400000 0 0 1
30.554324 -13.584113 6.111144 33.991777 -0.418345 1.390030 0.140867 -0.027904 112415.000000 0 0 1
30.260024 -12.518913 6.921844 33.470945 -0.392270 1.362492 0.135651 -0.028400 -129019.000000 0 0 1
30.198924 -12.661213 8.480544 33.826039 -0.396999 1.317382 0.144079 -0.021826 208354.000000 0 0 1
29.057924 -13.466113 8.786344 33.209923 -0.433960 1.303038 0.110299 -0.014735 321157.000000 0 0 1
28.657224 -13.748513 10.109244 33.353484 -0.447323 1.262859 0.134787 -0.012345 105636.000000 0 0 1
29.473424 -14.826013 10.913144 34.750397 -0.466069 1.251347 0.125199 -0.023461 -168918.000000 0 0 1
30.742724 -14.472413 11.429844 35.849785 -0.439982 1.246306 0.099268 -0.016946 73421.600000 0 0 1
31.086324 -15.516913 12.326144 36.865538 -0.462972 1.229877 0.110708 -0.021578 -110925.000000 0 0 1
32.095324 -15.145513 13.417144 37.940955 -0.440909 1.209345 0.103508 -0.026086 650901.000000 0 0 1
33.408224 -14.819813 12.909044 38.760543 -0.417517 1.231264 0.070144 -0.029021 672182.000000 0 0 1
34.250624 -14.757213 14.026644 39.845041 -0.406823 1.211057 0.056578 -0.031598 797234.000000 0 0 1
35.791224 -14.523213 13.759744 41.003243 -0.385476 1.228579 0.072246 -0.030751 997699.000000 0 0 1
36.132624 -13.216813 13.359944 40.727616 -0.350668 1.236577 0.083108 -0.037170 972773.000000 0 0 1
37.527524 -13.192513 12.988944 41.845789 -0.338048 1.255182 0.088085 -0.037360 551847.000000 0 0 1
-37.043759 -11.755113 12.731644 40.896424 0.307279 1.254221 0.100020 -0.035674 -335223.000000 0 0 1
-35.690859 -11.716413 12.286944 39.523167 0.317191 1.254678 0.125780 -0.035113 302242.000000 0 0 1
-34.874959 -10.945313 13.163344 38.850177 0.304109 1.225130 0.123707 -0.030016 -468885.000000 0 0 1
-33.541759 -10.648313 12.489244 37.341898 0.307401 1.229768 0.139041 -0.038789 -100357.000000 0 0 1
-32.560659 -11.708413 12.390044 36.753185 0.345191 1.226946 0.120829 -0.035204 630063.000000 0 0 1
-32.871659 -12.739013 11.454744 37.068040 0.369717 1.256635 0.109127 -0.031118 -792858.000000 0 0 1
-31.975159 -13.966113 11.544444 36.752378 0.411806 1.251273 0.084489 -0.028820 -42345.100000 0 0 1
-30.681859 -13.730813 11.032244 35.378271 0.420791 1.253671 0.098787 -0.026635 -47020.300000 0 0 1
-29.863959 -14.881213 11.206144 35.197787 0.462287 1.246780 0.088570 -0.028497 244459.000000 0 0 1
-28.482559 -14.839613 10.521644 33.796084 0.480312 1.254207 0.092308 -0.020963 15878.600000 0 0 1
-28.617859 -14.988313 9.109344 33.565034 0.482459 1.295955 0.101598 -0.019456 293158.000000 0 0 1
-27.335359 -15.090013 8.520844 32.365647 0.504402 1.304388 0.084012 -0.014591 94346.400000 0 0 1
-27.266359 -14.872213 7.016544 31.841309 0.499337 1.348613 0.121002 -0.009073 -205705.000000 0 0 1
-27.701359 -15.990213 6.325144 32.604595 0.523513 1.375563 0.132292 -0.000606 114955.000000 0 0 1
-27.712159 -15.732713 4.907244 32.242256 0.516345 1.418003 0.148050 -0.003778 -824300.000000 0 0 1
-28.341859 -16.816513 4.020844 33.199748 0.535512 1.449388 0.134368 -0.003588 219130.000000 0 0 1
-29.724559 -17.010313 4.254144 34.510837 0.519776 1.447212 0.095089 -0.012523 94690.800000 0 0 1
-30.271059 -18.048813 3.451144 35.411962 0.537650 1.473184 0.107364 -0.010289 -708385.000000 0 0 1
-31.748259 -18.261013 3.765944 36.818458 0.521971 1.468333 0.133008 -0.021857 -785559.000000 0 0 1
-32.491459 -17.341513 2.993044 36.951066 0.490262 1.489707 0.158901 -0.023961 -1276110.000000 0 0 1
-33.772959 -17.368013 3.503344 38.138354 0.474989 1.478808 0.159664 -0.026309 -1126980.000000 0 0 1
-34.731159 -16.275113 3.055144 38.476832 0.438216 1.491310 0.142808 -0.041936 -16652.400000 0 0 1
-35.156759 -16.471613 1.724444 38.862391 0.438147 1.526409 0.124165 -0.034755 -244625.000000 0 0 1
-36.102759 -15.539413 1.268744 39.325466 0.406454 1.538528 0.176179 -0.049808 -232690.000000 0 0 1
-36.625359 -15.998013 -0.100556 39.967029 0.411824 1.573312 0.146715 -0.047984 -75140.000000 0 0 1
-35.649959 -16.048113 -1.149856 39.112449 0.422985 1.600199 0.157839 -0.040500 632450.000000 0 0 1
-36.060259 -16.971413 -2.139456 39.911758 0.439885 1.624427 0.130361 -0.028600 372720.000000 0 0 1
-34.802559 -17.379613 -2.962056 39.013367 0.463149 1.646794 0.119182 -0.033485 299713.000000 0 0 1
-35.087159 -18.332113 -3.924856 39.781649 0.481464 1.669617 0.105802 -0.033764 371843.000000 0 0 1
-33.935459 -19.070913 -4.356356 39.170051 0.511991 1.682243 0.120881 -0.026777 401834.000000 0 0 1
-34.258059 -20.197313 -5.396256 40.133099 0.532711 1.705664 0.126275 -0.029666 -134289.000000 0 0 1
-35.109459 -21.189613 -4.892256 41.299007 0.543011 1.689535 0.116985 -0.030785 -25726.300000 0 0 1
-35.198359 -22.179913 -5.891056 42.018776 0.562287 1.711460 0.106549 -0.032994 86592.000000 0 0 1
-35.869759 -23.450113 -5.288156 43.179995 0.579012 1.693572 0.077965 -0.031060 53142.100000 0 0 1
-34.999959 -24.382813 -4.665456 42.910199 0.608476 1.679738 0.094299 -0.029556 -252111.000000 0 0 1
-35.608159 -25.662813 -4.604456 44.133003 0.624484 1.675318 0.065322 -0.011734 -252354.000000 0 0 1
-34.685059 -26.734813 -4.138756 43.987871 0.656673 1.665024 0.067953 -0.017181 -793578.000000 0 0 1
-33.685559 -27.159813 -5.060956 43.565876 0.678555 1.687227 0.054546 -0.016462 192748.000000 0 0 1
-33.057759 -28.371713 -4.660256 43.811956 0.709262 1.677367 0.051648 -0.012802 758969.000000 0 0 1
-31.908659 -28.180313 -3.554656 42.719177 0.723431 1.654102 0.074232 -0.020984 13271.200000 0 0 1
-32.337459 -27.771013 -2.276156 42.686313 0.709574 1.624144 0.069947 -0.017304 -351921.000000 0 0 1
-31.345059 -27.886513 -1.280656 41.973925 0.727074 1.601312 0.086620 -0.022339 -475307.000000 0 0 1
-31.775259 -27.887213 0.153144 42.277502 0.720323 1.567174 0.086197 -0.017985 -262274.000000 0 0 1
-32.165959 -29.167213 0.611244 43.425210 0.736544 1.556720 0.076074 -0.012222 320348.000000 0 0 1
-32.888659 -29.034213 1.855844 43.910062 0.723232 1.528519 0.082508 -0.008408 388502.000000 0 0 1
-33.478959 -30.366213 2.443944 45.265002 0.736682 1.516778 0.070385 -0.007176 595046.000000 0 0 1
-34.501859 -30.155413 3.456444 45.952956 0.718276 1.495508 0.064876 -0.009356 789586.000000 0 0 1
-35.218559 -31.238613 3.928944 47.240178 0.725582 1.487531 0.051181 -0.002151 456873.000000 0 0 1
-36.164459 -32.066813 2.963444 48.424483 0.725415 1.509561 0.046259 -0.000384 48120.300000 0 0 1
-36.922459 -33.022513 3.690144 49.672643 0.729698 1.496439 0.045101 -0.002770 586923.000000 0 0 1
37.200324 -33.636113 2.793444 50.230026 -0.735124 1.515155 0.053739 0.001188 334101.000000 0 0 1
35.976824 33.336110 3.486044 49.170933 0.747318 1.499840 0.057561 -0.000088 419144.000000 0 0 1
35.107724 -33.526913 4.300644 48.735015 -0.762370 1.482436 0.047955 -0.003376 659966.000000 0 0 1
34.466524 -32.350013 3.748844 47.418545 -0.753732 1.491655 0.047197 -0.008066 -251910.000000 0 0 1
33.322124 -32.459113 2.737344 46.598830 -0.772280 1.512020 0.063742 -0.009253 -481928.000000 0 0 1
33.681024 -33.021413 1.459344 47.190621 -0.775510 1.539867 0.072907 0.000392 -201267.000000 0 0 1
32.910024 -32.502713 0.378244 46.256233 -0.779171 1.562619 0.079668 -0.000692 -826839.000000 0 0 1
33.341524 -33.034513 -1.044456 46.947067 -0.780773 1.593046 0.094233 -0.011562 376587.000000 0 0 1
34.590824 -32.662013 -1.578756 47.600679 -0.756726 1.603969 0.066139 -0.010260 -219151.000000 0 0 1
35.720924 -32.967913 -0.790556 48.615765 -0.745340 1.587058 0.058930 0.000705 -331232.000000 0 0 1
37.068024 -32.720513 -1.561856 49.468270 -0.723183 1.602374 0.050889 -0.005385 428146.000000 0 0 1
37.411324 33.812110 -2.379456 50.482945 0.734907 1.617948 0.056140 -0.016731 303452.000000 0 0 1
-36.665159 -33.473113 -3.306556 49.756572 0.739919 1.637300 0.049591 -0.014361 289188.000000 0 0 1
-35.925459 32.994510 -4.069856 48.947319 -0.742897 1.654040 0.058701 -0.017624 807799.000000 0 0 1
-34.778159 32.451610 -3.409356 47.689109 -0.750806 1.642349 0.070064 -0.016202 579563.000000 0 0 1
-34.121659 31.444010 -4.207756 46.590972 -0.744582 1.661232 0.088864 -0.018755 259500.000000 0 0 1
-32.763659 30.961010 -3.662256 45.226692 -0.757118 1.651861 0.100047 -0.024002 -981930.000000 0 0 1
-31.773559 31.943610 -3.707856 45.207317 -0.788067 1.652908 0.072260 -0.030208 -372204.000000 0 0 1
-30.505059 31.436710 -3.330256 43.930809 -0.800438 1.646676 0.075978 -0.032568 348139.000000 0 0 1
-30.300459 31.184210 -1.795656 43.517780 -0.799771 1.612071 0.070811 -0.021071 -719964.000000 0 0 1
-31.146859 30.181610 -1.270456 43.389751 -0.769660 1.600081 0.067137 -0.018240 -387217.000000 0 0 1
-31.123159 30.025610 0.144044 43.245914 -0.767451 1.567466 0.054079 -0.017324 -350069.000000 0 0 1
-32.446659 29.457610 0.674244 43.829113 -0.737151 1.555412 0.057059 -0.021406 -254927.000000 0 0 1
-32.703559 28.159910 0.286644 43.157682 -0.710883 1.564154 0.064606 -0.025738 -65910.500000 0 0 1
-33.700259 28.104710 -0.715956 43.887297 -0.695109 1.587111 0.078003 -0.027872 -77783.500000 0 0 1
-34.043559 26.727410 -1.266756 43.300382 -0.665586 1.600056 0.093962 -0.017183 -66580.100000 0 0 1
-34.485059 25.868210 -0.257156 43.109741 -0.643583 1.576762 0.108130 -0.023816 -32449.500000 0 0 1
-34.652559 24.548110 -0.784756 42.473820 -0.616346 1.589274 0.098891 -0.013899 -156148.000000 0 0 1
-34.655859 23.454010 0.305444 41.847491 -0.594964 1.563497 0.107236 -0.011487 74337.300000 0 0 1
-33.424159 23.096610 0.908144 40.638068 -0.604671 1.548447 0.109402 -0.014593 49727.000000 0 0 1
-33.007959 23.973210 1.954644 40.841900 -0.628150 1.522919 0.107970 -0.018705 88415.200000 0 0 1
-31.480759 23.784610 2.300044 39.522602 -0.647030 1.512568 0.096950 -0.026351 1012850.000000 0 0 1
-30.535759 24.378010 1.422944 39.099166 -0.673730 1.534395 0.100155 -0.026557 147424.000000 0 0 1
-30.388659 25.785710 1.568744 39.885266 -0.703640 1.531455 0.058669 -0.019279 -424532.000000 0 0 1
-29.726559 26.509110 0.416844 39.831834 -0.728247 1.560331 0.040201 -0.019067 251141.000000 0 0 1
-28.322759 26.463810 0.223144 38.762891 -0.751480 1.565040 0.053209 -0.016037 -5523.280000 0 0 1
-27.883359 27.185210 -0.877156 38.952366 -0.772721 1.593317 0.048388 -0.010457 505949.000000 0 0 1
-26.697359 26.483910 -1.635056 37.640668 -0.781385 1.614249 0.049449 -0.009069 199646.000000 0 0 1
-27.104759 25.419910 -2.550256 37.247062 -0.753332 1.639319 0.072212 -0.020932 200358.000000 0 0 1
-26.074959 24.576510 -3.066656 35.962658 -0.755823 1.656173 0.074344 -0.003661 309010.000000 0 0 1
-25.253859 23.733110 -2.091856 34.718782 -0.754364 1.631084 0.079412 -0.006984 174184.000000 0 0 1
-25.843059 22.471610 -1.771056 34.292472 -0.715730 1.622465 0.075026 -0.012975 259858.000000 0 0 1
-24.861159 21.704510 -1.103856 33.020925 -0.717713 1.604232 0.093008 -0.027277 -507948.000000 0 0 1
-25.352459 20.262310 -0.965756 32.469079 -0.674268 1.600545 0.121231 -0.039136 567688.000000 0 0 1
-26.406959 20.034410 0.019544 33.146726 -0.649033 1.570207 0.100848 -0.033406 1414490.000000 0 0 1
-27.699759 20.568110 -0.263356 34.502075 -0.638708 1.578429 0.101506 -0.032695 -113264.000000 0 0 1
-28.482559 19.870810 -1.395156 34.757039 -0.609146 1.610947 0.107870 -0.039278 -807620.000000 0 0 1
-28.890059 18.567110 -0.988356 34.356222 -0.571213 1.599568 0.117181 -0.041418 355568.000000 0 0 1
-29.792859 18.032610 -1.946756 34.879498 -0.544283 1.626639 0.126544 -0.042369 42200.200000 0 0 1
-30.196659 16.583710 -1.518256 34.484240 -0.502221 1.614838 0.133551 -0.050306 136475.000000 0 0 1
-30.959759 16.449410 -0.313556 35.059779 -0.488385 1.579740 0.124974 -0.046797 274184.000000 0 0 1
-31.170859 15.096110 0.008844 34.634016 -0.451011 1.570541 0.132844 -0.051913 151477.000000 0 0 1
-29.915759 14.337110 0.533544 33.178156 -0.446910 1.554714 0.174851 -0.050616 -297113.000000 0 0 1
-29.549959 14.677910 1.871944 33.047622 -0.461016 1.514122 0.181128 -0.047145 -257517.000000 0 0 1
-28.240059 14.340010 2.243844 31.751719 -0.469860 1.500069 0.213405 -0.051389 -39559.700000 0 0 1
-27.807959 12.817710 2.183644 30.697632 -0.431912 1.499602 0.229010 -0.052788 -543507.000000 0 0 1
-27.699459 12.175810 0.911344 30.271124 -0.414145 1.540686 0.220463 -0.054055 306195.000000 0 0 1
-27.193659 10.862210 1.043344 29.301387 -0.380023 1.535181 0.250756 -0.050612 -64704.500000 0 0 1
-27.208259 10.125810 -0.305656 29.032996 -0.356278 1.581324 0.231801 -0.051759 499873.000000 0 0 1
-28.524859 9.816410 -0.778356 30.176735 -0.331441 1.596592 0.234808 -0.052542 763663.000000 0 0 1
-28.432759 9.061010 -1.961256 29.906023 -0.308507 1.636424 0.235919 -0.052149 -281176.000000 0 0 1
-29.731459 8.460810 -2.521756 31.014581 -0.277245 1.652195 0.230071 -0.059263 -243992.000000 0 0 1
-29.527659 7.492410 -3.487556 30.662386 -0.248498 1.684784 0.235988 -0.051546 2066210.000000 0 0 1
-30.796059 7.380310 -4.259056 31.953181 -0.235215 1.704485 0.220234 -0.047756 1831030.000000 0 0 1
-11.656476 18.377710 -20.341956 29.789409 -1.005557 2.322465 0.138017 -0.010320 98425.900000 0 0 1
-11.987276 17.336910 -21.161456 29.867549 -0.965845 2.358181 0.126772 -0.023757 131884.000000 0 0 1
-10.865176 16.688310 -21.800856 29.526752 -0.993673 2.401406 0.119757 -0.038792 449243.000000 0 0 1
-11.230376 15.404210 -22.523656 29.508069 -0.940841 2.439210 0.114751 -0.033040 290727.000000 0 0 1
-10.143776 14.467910 -22.545956 28.645013 -0.959317 2.476859 0.124535 -0.037988 499409.000000 0 0 1
-10.410276 13.318310 -23.391556 28.860287 -0.907344 2.515819 0.105129 -0.038850 -8201.410000 0 0 1
-9.532576 12.106410 -22.967156 27.657286 -0.903786 2.550657 0.084587 -0.031758 -1260900.000000 0 0 1
-8.200276 12.288210 -23.218356 27.519751 -0.982335 2.574931 0.078909 -0.026994 -1501540.000000 0 0 1
-7.498776 11.177110 -22.726056 26.412745 -0.979865 2.606890 0.065314 -0.024464 -315778.000000 0 0 1
-5.978476 11.262110 -22.684156 26.022072 -1.082775 2.629513 0.052961 -0.011647 -353675.000000 0 0 1
-5.267276 11.113510 -23.870356 26.852341 -1.128203 2.665841 0.044017 -0.018558 -445610.000000 0 0 1
-3.883976 10.959010 -23.679656 26.380131 -1.230199 2.685164 0.035569 -0.017726 -310734.000000 0 0 1
-3.112576 10.761410 -24.966556 27.364667 -1.289245 2.719820 0.061916 -0.030738 -315401.000000 0 0 1
-3.181276 9.380710 -25.393556 27.257127 -1.243838 2.769669 0.062047 -0.031569 52894.100000 0 0 1
-2.714976 9.190410 -26.723056 28.389373 -1.283552 2.797272 0.068162 -0.036375 -1564.580000 0 0 1
-2.568776 7.687610 -27.102406 28.288485 -1.248315 2.850992 0.073219 -0.006890 -149230.000000 0 0 1
-1.546676 6.906510 -26.508946 27.437499 -1.350487 2.880690 0.057421 -0.020709 16439.200000 0 0 1
-1.734776 6.586210 -25.139266 26.045543 -1.313251 2.877019 0.067776 -0.028305 -368676.000000 0 0 1
-0.607176 5.708410 -24.588156 25.249397 -1.464830 2.912231 -0.003853 -0.012065 -193659.000000 0 0 1
0.573724 6.441610 -24.327156 25.172088 1.481965 2.881763 0.037582 -0.004375 -136554.000000 0 0 1
1.524924 5.660410 -23.633856 24.350047 1.307642 2.898456 0.041042 0.006957 91934.300000 0 1 0
1.846524 6.100410 -22.156656 23.055196 1.276875 2.861488 0.042519 -0.001236 135784.000000 0 1 0
2.488324 7.362910 -22.146556 23.470709 1.244893 2.804085 0.037673 -0.006529 19779.100000 0 1 0
2.161424 8.013910 -20.907456 22.494805 1.307356 2.763675 0.036943 -0.007333 341830.000000 0 1 0
2.667624 9.499110 -20.910156 23.121072 1.297019 2.700713 0.045440 -0.020081 -45396.900000 0 1 0
2.390624 10.062510 -19.602656 22.163784 1.337543 2.656100 0.061713 -0.029657 177868.000000 0 1 0
2.949024 11.376710 -19.512056 22.778205 1.317163 2.599461 0.061102 -0.032088 -161769.000000 0 1 0
4.216224 11.464610 -18.664156 22.306155 1.218388 2.562075 0.072978 -0.041267 52795.700000 0 1 0
5.297824 10.730810 -19.218256 22.639757 1.112200 2.584644 0.074051 -0.039141 905609.000000 0 1 0
6.456624 10.687910 -18.330356 22.179301 1.027364 2.543591 0.084446 -0.029243 1205160.000000 0 1 0
7.638824 9.806410 -18.813656 22.549301 0.909016 2.557720 0.124212 -0.035536 69777.700000 0 1 0
7.409224 8.458210 -19.085256 22.151409 0.851412 2.609174 0.103848 -0.028136 -70999.500000 0 1 0
6.677124 8.177110 -20.253056 22.839339 0.886037 2.661088 0.077967 -0.018838 -263387.000000 0 1 0
6.651524 6.686310 -20.467556 22.535980 0.788006 2.709800 0.087736 -0.018075 -513157.000000 0 1 0
7.830424 6.001810 -20.775556 22.999152 0.653961 2.698240 0.089122 -0.009306 -237993.000000 0 1 0
7.594724 4.644210 -21.063356 22.867302 0.548836 2.741725 0.074723 -0.003018 -272403.000000 0 1 0
7.618324 4.422410 -22.600256 24.256301 0.525955 2.769937 0.090215 -0.014575 -690080.000000 0 1 0
6.472024 4.898210 -23.229556 24.606744 0.647857 2.805444 0.093473 -0.017750 -482936.000000 0 1 0
6.518924 4.896110 -24.626456 25.940906 0.644180 2.821890 0.092714 -0.023999 -263746.000000 0 0 1
5.385624 5.640710 -25.361486 26.533517 0.808528 2.843261 0.077996 -0.026276 -166265.000000 0 0 1
5.408024 7.052010 -25.308166 26.823140 0.916581 2.803895 0.088833 -0.038848 170617.000000 0 0 1
4.892424 7.689110 -24.129556 25.793288 1.004127 2.780461 0.095098 -0.037056 -970641.000000 0 0 1
4.833224 9.221210 -24.343256 26.476119 1.088022 2.737455 0.103356 -0.045860 409881.000000 0 0 1
3.818024 9.718910 -25.227666 27.303290 1.196473 2.749153 0.102515 -0.047518 255561.000000 0 0 1
2.529124 9.658310 -24.658256 26.602801 1.314687 2.756875 0.079605 -0.031990 -626972.000000 0 0 1
1.418824 10.164810 -25.585146 27.566939 1.432110 2.760100 0.073888 -0.015012 -199273.000000 0 0 1
1.365324 11.554810 -25.739366 28.246995 1.453181 2.717044 0.097289 -0.042359 -593034.000000 0 0 1
0.389424 11.960610 -26.643566 29.207661 1.538249 2.719446 0.104271 -0.043515 -191493.000000 0 0 1
0.248324 13.534810 -26.711116 29.945559 1.552451 2.672523 0.103241 -0.047023 23904.200000 0 0 1
-0.164076 14.086410 -25.493526 29.126856 -1.559149 2.636766 0.100847 -0.040198 14012.700000 0 0 1
-0.325176 15.504610 -25.553886 29.891467 -1.549827 2.596133 0.110206 -0.051240 -643796.000000 0 0 1
-0.971776 16.105910 -24.320456 29.186115 -1.510533 2.555826 0.115376 -0.038899 304758.000000 0 0 1
-2.227476 15.498110 -24.020356 28.672820 -1.428048 2.563927 0.098568 -0.035101 -165042.000000 0 0 1
-2.495176 15.635210 -22.629256 27.618272 -1.412544 2.531087 0.095527 -0.046069 35865.600000 0 0 1
-3.632976 14.589210 -22.306156 26.899966 -1.326742 2.548518 0.087936 -0.036117 1774060.000000 0 0 1
-4.985976 14.979410 -22.645256 27.605259 -1.249476 2.532774 0.090725 -0.035378 761018.000000 0 0 1
-5.243776 14.990010 -24.038256 28.810334 -1.234284 2.557771 0.090509 -0.043171 15796.000000 0 0 1
-6.767376 15.033110 -24.425456 29.468538 -1.147805 2.547873 0.070990 -0.042685 926893.000000 0 0 1
-7.291176 16.359110 -24.403456 30.270620 -1.151528 2.508457 0.075528 -0.040545 751048.000000 0 0 1
-8.616676 16.290210 -24.976156 31.039112 -1.084259 2.505911 0.082454 -0.042019 761670.000000 0 0 1
-9.257076 17.598410 -25.483486 32.323453 -1.086552 2.478984 0.087123 -0.039138 -297479.000000 0 0 1
-9.687276 18.379810 -24.477356 32.106101 -1.085735 2.437794 0.095984 -0.037066 -555179.000000 0 0 1
-10.529476 19.332110 -25.012756 33.320239 -1.072060 2.419883 0.093874 -0.029977 -546110.000000 0 0 1
-11.335576 20.116510 -23.977456 33.287951 -1.057650 2.375037 0.099078 -0.034080 -177114.000000 0 0 1
-10.765876 21.295910 -23.479256 33.476789 -1.102729 2.348099 0.111330 -0.032846 109434.000000 0 0 1
-11.554276 22.413510 -23.848356 34.707504 -1.094822 2.328319 0.109072 -0.038181 -12733.100000 0 0 1
-11.227176 23.107910 -25.166606 35.963636 -1.118526 2.345885 0.095921 -0.022946 -204403.000000 0 0 1
-11.605676 22.308510 -26.233276 36.339320 -1.091092 2.377337 0.094915 -0.025335 242483.000000 0 0 1
-11.185276 22.986010 -27.444116 37.505288 -1.117916 2.391668 0.101875 -0.018359 4731.220000 0 0 1
-11.626176 22.296210 -28.769136 38.209321 -1.090143 2.423307 0.087061 -0.019181 -14680.600000 0 0 1
-10.818876 21.236110 -29.259776 37.737978 -1.099612 2.458050 0.068181 -0.015108 67176.300000 0 0 1
-10.944676 20.042110 -28.564876 36.570812 -1.070965 2.467196 0.087728 -0.024467 185560.000000 0 0 1
-9.919276 19.017010 -29.156796 36.196098 -1.090018 2.507354 0.080683 -0.022304 -193223.000000 0 0 1
-8.602276 19.355510 -28.814526 35.761877 -1.152579 2.507708 0.074236 -0.019492 -926863.000000 0 0 1
-7.576076 18.619410 -29.363376 35.584930 -1.184363 2.541287 0.074691 -0.022498 -365523.000000 0 0 1
-7.300776 17.191910 -28.810226 34.335000 -1.169211 2.566408 0.083739 -0.032917 -104875.000000 0 0 1
-8.365776 16.265510 -29.093976 34.365862 -1.095754 2.580352 0.072572 -0.035952 640410.000000 0 0 1
-8.225976 15.127210 -28.283736 33.112972 -1.072736 2.594727 0.066114 -0.041192 340535.000000 0 0 1
-9.574476 14.357510 -28.314736 33.159207 -0.982659 2.594235 0.070751 -0.040032 403373.000000 0 0 1
-10.564576 14.761710 -27.388066 32.857641 -0.949628 2.556276 0.077802 -0.044498 131557.000000 0 0 1
-11.612376 13.806910 -27.235686 32.668956 -0.871518 2.556547 0.100034 -0.047613 267424.000000 0 0 1
-12.660976 14.302410 -26.231826 32.449468 -0.846200 2.512208 0.084108 -0.042719 -308854.000000 0 0 1
-13.275176 15.469410 -26.639256 33.543747 -0.861586 2.488428 0.081077 -0.043685 -504024.000000 0 0 1
-14.322576 15.831010 -25.762116 33.458089 -0.835382 2.449609 0.080033 -0.041688 190972.000000 0 0 1
-15.142576 17.091110 -26.165126 34.727763 -0.845775 2.424068 0.063930 -0.033575 107192.000000 0 0 1
-14.409176 18.293310 -26.233126 35.077721 -0.903616 2.415625 0.069376 -0.034778 -194934.000000 0 0 1
-15.326476 19.342510 -26.216226 36.004501 -0.900724 2.386397 0.062704 -0.031198 -217417.000000 0 0 1
-14.738076 20.739110 -26.137806 36.476109 -0.952964 2.369673 0.059993 -0.025789 89485.000000 0 0 1
-15.752076 21.640410 -26.581986 37.723166 -0.941589 2.352739 0.042999 -0.020001 323038.000000 0 0 1
-15.369776 22.942910 -26.754356 38.450003 -0.980549 2.340360 0.054932 -0.018996 -198857.000000 0 0 1
-15.087876 23.651710 -25.429936 37.864615 -1.002961 2.307165 0.047843 -0.025005 -150362.000000 0 0 1
-14.651776 24.951710 -25.607026 38.639128 -1.039838 2.295245 0.072857 -0.028424 -86277.800000 0 0 1
-14.524276 25.517510 -24.363756 38.153513 -1.053340 2.263437 0.085812 -0.033847 -228593.000000 0 0 1
-14.166576 27.042310 -24.394456 39.077717 -1.088238 2.244974 0.096174 -0.031060 -156886.000000 0 0 1
-15.081576 27.852110 -25.075586 40.397760 -1.074512 2.240454 0.094425 -0.040432 -517161.000000 0 0 1
-15.549476 28.805110 -24.151656 40.679517 -1.075805 2.206452 0.101491 -0.043806 -448059.000000 0 0 1
-16.775176 29.615110 -24.638256 42.017913 -1.055419 2.197373 0.083537 -0.044023 -708791.000000 0 0 1
-17.832176 28.730110 -24.534556 41.777389 -1.015310 2.198477 0.072378 -0.036868 -1131700.000000 0 0 1
-19.011776 29.400110 -24.934556 42.983092 -0.996775 2.189650 0.067480 -0.034713 147729.000000 0 0 1
-20.256576 28.562510 -25.298786 43.199242 -0.953921 2.196454 0.062236 -0.003941 -38810.500000 0 0 1
-20.740376 27.899710 -24.156256 42.332987 -0.931539 2.178063 0.062824 -0.013157 -362301.000000 0 0 1
-21.680676 26.916810 -24.529256 42.382199 -0.892729 2.188008 0.056529 -0.027675 58984.800000 0 0 1
-22.283776 26.192710 -23.289856 41.533627 -0.865860 2.166084 0.061493 -0.025093 39270.500000 0 0 1
-23.141076 27.029310 -22.537956 42.119503 -0.862744 2.135417 0.067501 -0.022412 -176445.000000 0 0 1
-23.544176 26.392810 -21.350056 41.312632 -0.842381 2.113896 0.056505 -0.019253 -246912.000000 0 0 1
-24.501376 27.315510 -20.553856 42.058478 -0.839654 2.081392 0.040731 -0.015643 -941531.000000 0 0 1
-25.823546 27.049210 -20.821556 42.802483 -0.808575 2.078826 0.073763 -0.027217 -1374250.000000 0 0 1
-26.652906 28.092010 -20.420756 43.778371 -0.811680 2.056078 0.072327 -0.029564 784291.000000 0 0 1
-28.188796 27.847010 -20.646356 44.680379 -0.779299 2.051147 0.067117 -0.025039 754332.000000 0 0 1
-28.633536 27.844410 -21.967556 45.582498 -0.771427 2.073652 0.067099 -0.026817 -165601.000000 0 0 1
-30.007576 27.505710 -22.008456 46.275165 -0.741925 2.066442 0.065901 -0.021915 67103.700000 0 0 1
-30.408506 27.193710 -23.499256 47.078553 -0.729646 2.093414 0.062092 -0.023844 72654.300000 0 0 1
-30.163446 25.838510 -23.834456 46.320011 -0.708323 2.111292 0.077712 -0.014742 -106599.000000 0 0 1
-30.274446 25.703610 -25.255066 47.064170 -0.703925 2.137210 0.083604 -0.008855 -52046.400000 0 0 1
-30.614146 24.247110 -25.696056 46.748643 -0.669858 2.152759 0.068855 -0.009412 -192438.000000 0 0 1
-29.556566 23.327310 -25.620176 45.542809 -0.668147 2.168265 0.101243 -0.018416 -347373.000000 0 0 1
-30.040436 22.093510 -25.956716 45.434592 -0.634130 2.178883 0.080896 -0.007742 -216124.000000 0 0 1
-29.034746 20.921810 -25.833926 44.137630 -0.624404 2.196051 0.105016 -0.012628 -40132.400000 0 0 1
-28.614586 20.526410 -24.534656 42.919430 -0.622270 2.179305 0.097632 -0.008741 260016.000000 0 0 1
-27.817536 19.331610 -24.587656 41.857847 -0.607324 2.198649 0.125426 -0.016405 -128481.000000 0 0 1
-28.526746 17.983110 -24.545656 41.709193 -0.562469 2.199993 0.112693 -0.015263 -306071.000000 0 0 1
-29.311516 17.685810 -25.696616 42.805011 -0.542897 2.214695 0.092758 -0.016082 712229.000000 0 0 1
-30.024226 16.440210 -25.456556 42.658773 -0.500972 2.210239 0.060490 -0.012157 214769.000000 0 0 1
-30.767496 15.821810 -26.674076 43.686095 -0.474973 2.227595 0.020699 -0.008867 -433559.000000 0 0 1
-31.849116 16.560010 -27.089776 44.971726 -0.479481 2.217268 0.010711 -0.003476 -399156.000000 0 0 1
-32.647746 15.932610 -28.094646 45.924205 -0.454014 2.229081 0.003490 0.000491 619865.000000 0 0 1
-33.940676 16.640610 -28.572956 47.384525 -0.455846 2.218055 0.002812 -0.002666 166681.000000 0 0 1
-35.044203 16.522010 -27.702486 47.628781 -0.440558 2.191531 -0.009532 -0.003180 170670.000000 0 0 1
-36.230286 16.920710 -28.392026 49.041322 -0.436927 2.188225 0.009736 -0.000388 754207.000000 0 0 1
-37.526356 16.610010 -27.580706 49.445073 -0.416702 2.162535 0.037785 -0.004334 194323.000000 0 0 1
37.191307 17.495810 -26.544546 48.927595 0.439711 2.144239 0.047091 -0.021102 330054.000000 0 0 1
36.159877 16.977010 -25.703266 47.501720 0.438950 2.142543 0.054246 -0.012070 346157.000000 0 0 1
35.739467 18.075110 -24.664556 47.035725 0.468234 2.122782 0.062885 -0.008080 -43989.200000 0 0 1
35.183827 19.224210 -25.256076 47.385032 0.500070 2.132935 0.064657 -0.021966 259567.000000 0 0 1
34.560767 20.097110 -24.297656 46.783721 0.526706 2.116900 0.082386 -0.018920 109414.000000 0 0 1
33.725077 21.250110 -24.893956 46.996351 0.562257 2.129043 0.102060 -0.031904 -276112.000000 0 0 1
32.578467 20.834410 -25.569926 46.360007 0.568969 2.155019 0.109888 -0.031752 -898151.000000 0 0 1
31.561507 21.758510 -25.360926 45.964530 0.603577 2.155257 0.117696 -0.021782 -574765.000000 0 0 1
30.288547 21.497510 -26.150816 45.424709 0.617244 2.184251 0.088009 -0.022114 -159538.000000 0 0 1
29.486607 20.388810 -25.780516 44.156524 0.604971 2.194252 0.120093 -0.038472 252014.000000 0 0 1
28.467807 20.197710 -26.782296 43.996078 0.617069 2.225271 0.124665 -0.039822 340228.000000 0 0 1
27.908407 18.720010 -26.777546 42.969232 0.590835 2.243598 0.136569 -0.030438 -140940.000000 0 0 1
28.677707 17.721410 -27.373506 43.425431 0.553514 2.252809 0.135396 -0.038443 -406777.000000 0 0 1
29.760007 17.266010 -26.599006 43.488852 0.525715 2.228913 0.125822 -0.026682 -400850.000000 0 0 1
30.709737 16.291410 -27.317306 44.212365 0.487746 2.236822 0.105624 -0.019076 -308770.000000 0 0 1
30.225607 15.124510 -27.982426 43.878859 0.463957 2.262331 0.126546 -0.024296 -169986.000000 0 0 1
29.639107 14.123710 -27.187496 42.627641 0.444690 2.262422 0.136990 -0.021162 -824465.000000 0 0 1
30.609147 13.311610 -26.354886 42.528800 0.410218 2.239150 0.119904 -0.019989 -482638.000000 0 0 1
30.687887 13.835210 -25.027756 41.946967 0.423549 2.210119 0.113771 -0.025494 367646.000000 0 0 1
31.663507 13.150610 -24.242656 41.990744 0.393646 2.186255 0.081314 -0.021666 245817.000000 0 0 1
-15.280976 -30.749313 -23.431756 41.570129 1.109589 2.169616 0.138748 -0.018057 -60067.500000 0 0 1
-14.579076 -29.753613 -24.131156 40.989506 1.115186 2.200265 0.136204 -0.036706 232647.000000 0 0 1
-15.127476 -29.554413 -25.474016 41.847692 1.097712 2.225257 0.113924 -0.021001 424262.000000 0 0 1
-14.352276 -28.403613 -26.167876 41.200859 1.102920 2.258972 0.123869 -0.023250 96505.600000 0 0 1
-14.766076 -27.128113 -25.719216 40.192656 1.072333 2.265162 0.130665 -0.019599 -194701.000000 0 0 1
-13.959176 -26.084413 -26.140976 39.479182 1.079423 2.294475 0.111570 -0.017366 -712434.000000 0 0 1
-14.449176 -24.725813 -25.695676 38.476126 1.041944 2.302092 0.078932 -0.013289 -309123.000000 0 0 1
-14.232276 -24.486213 -24.300656 37.318282 1.044288 2.279925 0.110419 -0.030297 51162.500000 0 0 1
-14.518976 -23.147613 -24.006756 36.372201 1.010592 2.291655 0.069882 -0.027025 -52197.300000 0 0 1
-13.970276 -22.645213 -22.630356 34.930034 1.018029 2.275590 0.099540 -0.029898 466808.000000 0 0 1
-12.581876 -22.350713 -22.670656 34.231807 1.058081 2.294639 0.145786 -0.040604 42182.600000 0 0 1
-12.092076 -21.710113 -21.508456 32.865803 1.062611 2.284228 0.113115 -0.034302 -702565.000000 0 0 1
-10.621476 -21.401413 -21.596956 32.206595 1.110115 2.305781 0.138974 -0.039731 -988461.000000 0 0 1
-10.369376 -20.279713 -22.399656 31.945818 1.098136 2.347843 0.169687 -0.045314 85004.200000 0 0 1
-8.987076 -20.208313 -22.714956 31.703512 1.152340 2.369541 0.202467 -0.049751 380787.000000 0 0 1
-8.522476 -19.060913 -23.681956 31.571919 1.150342 2.419003 0.235813 -0.046525 -115621.000000 0 0 1
-8.720776 -17.777613 -23.131456 30.449297 1.114739 2.433604 0.157604 -0.035460 -239136.000000 0 0 1
-8.562876 -16.667313 -24.032556 30.474348 1.096207 2.479351 0.153296 -0.028757 -494592.000000 0 0 1
-7.144776 -16.315913 -24.459056 30.257268 1.158048 2.512174 0.174888 -0.038897 -649946.000000 0 0 1
-6.823076 -17.011613 -25.659296 31.533297 1.189356 2.521321 0.194356 -0.050231 -838532.000000 0 0 1
-5.593376 -16.569113 -26.122036 31.435364 1.245230 2.551656 0.168197 -0.051943 -567475.000000 0 0 1
-5.186876 -17.238413 -27.431136 32.810574 1.278523 2.560832 0.177213 -0.044467 188858.000000 0 0 1
-6.125076 -16.950513 -28.470966 33.696177 1.224046 2.577234 0.201430 -0.044242 253034.000000 0 0 1
-5.875376 -17.682913 -29.635186 35.006424 1.250009 2.580293 0.191330 -0.048690 -76317.100000 0 0 1
-6.597476 -17.214513 -30.920276 35.999022 1.204812 2.603953 0.197649 -0.045687 -111542.000000 0 0 1
-6.029976 -16.138513 -31.641896 36.028070 1.213219 2.643001 0.166108 -0.037450 -179560.000000 0 0 1
-6.068676 -14.867113 -30.989426 34.902785 1.183246 2.663509 0.153665 -0.033771 5346.200000 0 0 1
-6.944476 -13.797013 -31.760056 35.316915 1.104487 2.688934 0.154732 -0.032051 88711.400000 0 0 1
-6.602576 -13.532413 -33.077186 36.343094 1.116869 2.714410 0.145283 -0.038249 81086.000000 0 0 1
-7.597076 -12.836013 -33.860526 37.000189 1.036386 2.726663 0.141833 -0.036720 378300.000000 0 0 1
-7.966776 -11.375113 -33.452236 36.220365 0.959823 2.748099 0.112001 -0.030275 791888.000000 0 0 1
-6.860176 -10.429713 -33.472916 35.725020 0.988990 2.784623 0.096208 -0.029544 583973.000000 0 0 1
-6.456076 -10.098713 32.939979 35.052919 1.001982 0.348982 0.075380 -0.028927 -459790.000000 0 0 1
-5.277576 -9.140313 32.971877 34.619977 1.047164 0.309800 0.072046 -0.024379 -375621.000000 0 0 1
-4.998076 -8.568413 31.707008 33.222475 1.042736 0.303205 0.062716 -0.019340 302787.000000 0 0 1
-4.002076 -7.530313 31.842253 32.964395 1.082297 0.261671 0.059392 -0.031327 -218270.000000 0 0 1
-4.039376 -6.528113 30.639443 31.586521 1.016692 0.245498 0.062718 -0.023989 867704.000000 0 0 1
-5.199276 -5.668913 30.625323 31.576565 0.828583 0.246079 0.055901 -0.020426 391523.000000 0 0 1
-6.397476 -6.303813 30.226463 31.532600 0.778024 0.288828 0.059519 -0.014908 -1477570.000000 0 0 1
-7.455676 -5.280613 30.012633 31.372442 0.616253 0.295502 0.044828 -0.011007 -293397.000000 0 0 1
-8.704276 -5.965713 29.796143 31.609560 0.600844 0.340371 0.059005 -0.008369 -399300.000000 0 0 1
-9.738076 -5.040413 29.706353 31.665491 0.477627 0.353606 0.051322 -0.012554 -115020.000000 0 0 1
-10.984076 -5.637113 29.010833 31.528644 0.474158 0.402353 0.058962 -0.011613 246852.000000 0 0 1
-10.633876 -5.745913 27.630163 30.158262 0.495397 0.412373 0.046276 -0.003962 1006600.000000 0 0 1
-11.700276 -6.414313 26.945823 30.068543 0.501475 0.459788 0.054526 -0.006798 598138.000000 0 0 1
-11.419276 -6.203613 25.451123 28.576990 0.497652 0.472098 0.043550 -0.007917 707144.000000 0 0 1
-10.283976 -6.922913 24.931723 27.843809 0.592495 0.461437 0.049648 -0.003663 661887.000000 0 0 1
-9.657276 -6.406513 23.764793 26.439966 0.585729 0.453724 0.042595 -0.007848 -145562.000000 0 0 1
-10.466076 -6.421413 22.458683 25.596206 0.550320 0.500334 0.044189 -0.012285 -412410.000000 0 0 1
-11.509476 -5.512213 22.371783 25.755567 0.446648 0.518387 0.024209 -0.006448 -460996.000000 0 0 1
-12.345576 -5.671913 21.251983 25.223613 0.430667 0.568809 0.025113 -0.008402 358129.000000 0 0 1
-13.582376 -4.732913 21.222683 25.637545 0.335302 0.595627 0.035281 -0.004836 317664.000000 0 0 1
-13.220976 -3.479213 20.669683 24.781746 0.257324 0.584354 0.026207 -0.006341 958536.000000 0 1 0
-14.341276 -2.573313 20.805683 25.400209 0.177545 0.610930 0.048609 -0.008005 910150.000000 0 0 1
-13.968776 -1.243313 20.222583 24.609458 0.088773 0.606338 0.033634 -0.007511 12334.800000 0 1 0
-13.082676 -0.446313 21.000783 24.746485 0.034102 0.557393 0.030622 -0.001891 -13258.300000 0 1 0
-13.021676 0.937687 20.727783 24.496618 -0.071886 0.562079 0.043140 -0.013784 -454307.000000 0 1 0
-12.575876 1.413687 19.290583 23.071146 -0.111943 0.580598 0.050728 -0.021922 -238074.000000 0 1 0
-13.380876 1.065687 18.199183 22.614018 -0.079475 0.635501 0.061478 -0.019678 1209410.000000 0 1 0
-14.726476 1.637687 18.307983 23.552779 -0.110752 0.680406 0.073422 -0.017306 1392320.000000 0 1 0
-15.861276 0.906687 17.539383 23.664998 -0.057101 0.736010 0.098852 -0.016451 35123.100000 0 1 0
-16.065476 -0.430313 18.008983 24.137278 0.026779 0.728601 0.078226 -0.015366 -417969.000000 0 1 0
-16.944076 -1.105313 17.210383 24.176864 0.065141 0.778663 0.093678 -0.017299 -624201.000000 0 1 0
-16.987576 -2.606313 17.488583 24.519812 0.152238 0.776682 0.086610 -0.012576 -11039.100000 0 1 0
-17.529776 -2.837913 18.770383 25.839390 0.160498 0.757690 0.103027 -0.017805 -146985.000000 0 0 1
-17.397876 -4.173313 19.090783 26.164110 0.235427 0.752978 0.117090 -0.023075 122592.000000 0 0 1
-18.215776 -4.628713 20.347883 27.699744 0.248838 0.745738 0.120279 -0.017180 211543.000000 0 0 1
-17.756476 -4.089213 21.573783 28.239020 0.226348 0.701352 0.104077 -0.010616 295787.000000 0 0 1
-18.595776 -4.479913 22.688243 29.675392 0.236405 0.700457 0.100521 -0.016750 -53684.400000 0 0 1
-18.399776 -5.945613 23.292943 30.273145 0.312544 0.692854 0.125022 -0.015263 601925.000000 0 0 1
-17.102776 -6.235013 23.822913 29.981853 0.349588 0.652485 0.057287 -0.020287 588466.000000 0 0 1
-16.191776 -6.767013 22.881613 28.836337 0.395866 0.654259 0.091478 -0.014309 154538.000000 0 0 1
-14.983776 -7.517813 23.508563 28.873580 0.465031 0.619465 0.098066 -0.010443 203767.000000 0 0 1
-15.386776 -8.787413 23.966533 29.805473 0.518900 0.636639 0.096595 -0.022767 129790.000000 0 0 1
-15.333376 -8.922213 25.352993 30.943377 0.526991 0.610546 0.094554 -0.019036 -224688.000000 0 0 1
-16.504976 -9.720913 25.921223 32.230734 0.532269 0.636402 0.084946 -0.018366 -891635.000000 0 0 1
-16.457276 -11.126713 25.880833 32.626112 0.594503 0.654660 0.088916 -0.029203 74571.700000 0 0 1
-15.466076 -11.802713 26.659713 33.003695 0.651855 0.630421 0.082846 -0.033088 61985.400000 0 0 1
-15.513776 -13.338413 26.395493 33.396296 0.710144 0.659381 0.069324 -0.034268 433488.000000 0 0 1
-16.620576 -13.966713 27.060773 34.692911 0.698851 0.676117 0.068240 -0.034021 513698.000000 0 0 1
-16.872076 -15.327513 26.717873 35.120426 0.737466 0.706328 0.088434 -0.024820 -46968.900000 0 0 1
-15.983376 -16.356513 27.487673 35.757181 0.796936 0.693941 0.075884 -0.028601 -118581.000000 0 0 1
-14.700176 -16.376613 26.932033 34.779635 0.839291 0.685090 0.115759 -0.038901 -686070.000000 0 0 1
-13.790076 -17.111913 27.689523 35.351004 0.892483 0.670881 0.127461 -0.041513 292585.000000 0 0 1
-12.391076 -17.136113 26.980313 34.280059 0.944736 0.664775 0.120244 -0.047396 476424.000000 0 0 1
-11.327976 -17.598313 27.782863 34.783777 0.998865 0.645614 0.130835 -0.049817 683448.000000 0 0 1
-10.111576 -17.804413 27.046963 33.923138 1.054295 0.647985 0.124716 -0.037819 604161.000000 0 0 1
-9.015276 -18.523113 27.850283 34.641293 1.117842 0.636868 0.133542 -0.047010 -97754.400000 0 0 1
-9.343776 -19.839613 28.215193 35.735326 1.130645 0.660704 0.131777 -0.035142 630678.000000 0 0 1
-8.287976 -20.439313 29.014443 36.445767 1.185565 0.649975 0.133151 -0.033274 713414.000000 0 0 1
-8.602176 -21.808113 29.651963 37.799870 1.195085 0.668994 0.115412 -0.030396 -39764.800000 0 0 1
-8.597976 -22.860513 28.733743 37.711487 1.211056 0.704499 0.123108 -0.024814 -5340.380000 0 0 1
-8.760576 -23.976613 29.549413 39.048604 1.220486 0.712493 0.111796 -0.023846 -54512.900000 0 0 1
-8.921776 -25.325813 28.828673 39.396539 1.232092 0.749901 0.117536 -0.020048 -313401.000000 0 0 1
-10.136876 -25.332513 28.122303 39.183624 1.190158 0.770295 0.106397 -0.021798 24085.800000 0 0 1
-10.222676 -26.447513 27.225333 39.308940 1.201958 0.805710 0.108043 -0.019074 238904.000000 0 0 1
-11.655776 -26.755213 26.671843 39.535879 1.159944 0.830341 0.097176 -0.029823 507191.000000 0 0 1
-12.106876 -26.109213 25.499303 38.451032 1.136607 0.845759 0.120561 -0.036713 299990.000000 0 0 1
-12.202676 -24.666113 25.434703 37.473278 1.111386 0.824747 0.122430 -0.025142 -361421.000000 0 0 1
-12.619976 -24.293913 23.968293 36.385946 1.091694 0.851675 0.129463 -0.044160 528545.000000 0 0 1
-13.995476 -24.535513 23.673583 36.855166 1.052413 0.873248 0.120319 -0.042779 572867.000000 0 0 1
-14.122976 -24.236913 22.295283 35.832472 1.043191 0.899235 0.119029 -0.046771 -380549.000000 0 0 1
-15.520976 -24.334913 21.685083 36.101683 1.003040 0.926461 0.101861 -0.048213 -513595.000000 0 0 1
-15.979976 -25.665113 21.567783 37.137944 1.013900 0.951149 0.109860 -0.051401 -377422.000000 0 0 1
-17.076676 -25.707713 20.711883 37.168286 0.984460 0.979731 0.098084 -0.046349 -432611.000000 0 0 1
-17.428576 -27.040913 20.109083 37.938654 0.998279 1.012146 0.084320 -0.046526 -278122.000000 0 0 1
-16.436776 -27.399613 19.188983 37.270947 1.030457 1.029963 0.076162 -0.040440 -178652.000000 0 0 1
-16.693076 -28.641113 18.636283 38.030030 1.043093 1.058659 0.077537 -0.039224 -859196.000000 0 0 1
-15.654576 -29.080413 17.689283 37.465276 1.076964 1.079067 0.088721 -0.048335 -910772.000000 0 0 1
-15.641876 -28.260713 16.509983 36.275553 1.065282 1.098281 0.086703 -0.049492 -341503.000000 0 0 1
-14.687576 -28.778713 15.639683 35.896224 1.098893 1.119990 0.082714 -0.051348 -318313.000000 0 0 1
-14.764276 -28.245813 14.189083 34.887532 1.089149 1.151947 0.080297 -0.043551 -191568.000000 0 0 1
-14.436276 -26.887313 14.093883 33.615044 1.078052 1.138152 0.077079 -0.042502 -177297.000000 0 0 1
-14.645776 -26.289513 12.830183 32.714688 1.062522 1.167792 0.073878 -0.044051 393634.000000 0 0 1
-13.817876 -26.741613 11.558583 32.243579 1.093864 1.204160 0.067957 -0.029950 276737.000000 0 0 1
-14.179376 -25.978013 10.448983 31.386193 1.071166 1.231401 0.051727 -0.023149 42315.700000 0 0 1
-13.316776 -26.156913 9.334683 30.800275 1.099886 1.262882 0.061118 -0.016686 -57963.900000 0 0 1
-13.843276 -25.551813 8.048383 30.154733 1.074292 1.300618 0.068191 -0.018012 283893.000000 0 0 1
-14.938276 -26.259913 7.459483 31.118788 1.053587 1.328729 0.058147 -0.019560 379725.000000 0 0 1
-15.355076 -25.579013 6.257583 30.483136 1.030156 1.364046 0.060672 -0.018807 181996.000000 0 0 1
-16.302376 -26.249613 5.258083 31.344171 1.015041 1.402246 0.072977 -0.025980 -126491.000000 0 0 1
-15.658876 -27.341813 4.694283 31.856105 1.050686 1.422899 0.076990 -0.025387 -141612.000000 0 0 1
-16.355376 -27.768013 3.551883 32.421856 1.038504 1.461024 0.094840 -0.018011 -88080.300000 0 0 1
-15.743176 -28.989613 2.766683 33.104377 1.073295 1.487124 0.096921 -0.021950 -1675320.000000 0 0 1
-14.506176 -28.765613 2.288383 32.297466 1.103724 1.499884 0.079466 -0.011727 -1833650.000000 0 0 1
-14.102876 -29.922913 1.602483 33.118571 1.130366 1.522391 0.085604 -0.012623 1413480.000000 0 0 1
-12.618476 -29.822613 0.999883 32.397746 1.170521 1.539929 0.071208 -0.010802 1521860.000000 0 0 1
-12.540776 -29.102413 -0.221617 31.690229 1.163923 1.577790 0.070604 0.000745 44352.200000 0 0 1
-12.501576 -27.674513 0.005383 30.367221 1.146500 1.570619 0.056963 -0.003602 -428497.000000 0 0 1
-12.339476 -26.975213 -1.379717 29.695595 1.141775 1.617275 0.055551 -0.001213 -464900.000000 0 0 1
-11.069176 -27.123213 -1.922017 29.357954 1.183321 1.636312 0.057205 -0.001887 -922113.000000 0 0 1
-10.819876 -26.254613 -2.997717 28.554522 1.179891 1.675972 0.077966 -0.008857 246422.000000 0 0 1
-9.466376 -26.612513 -3.631717 28.478544 1.229042 1.698669 0.065346 -0.009218 276792.000000 0 0 1
-8.907876 -25.648213 -4.531417 27.526620 1.236520 1.736169 0.067821 -0.016367 289315.000000 0 0 1
-7.679276 -26.072813 -5.123117 27.658799 1.284364 1.757098 0.079095 -0.009474 382232.000000 0 0 1
-6.854776 -25.003213 -5.804117 26.567581 1.303215 1.791039 0.057150 -0.013838 -522745.000000 0 0 1
-7.219276 -24.611213 -7.117117 26.617346 1.285467 1.841476 0.060055 -0.014989 -79489.100000 0 0 1
-6.588476 -23.433413 -7.633117 25.510729 1.296715 1.874663 0.052378 -0.014723 -422465.000000 0 0 1
-6.715776 -23.424213 -9.125917 26.020717 1.291583 1.929133 0.052856 -0.017674 -263894.000000 0 0 1
-5.960476 -24.471813 -9.671817 26.980380 1.331883 1.937431 0.029722 -0.021589 -258719.000000 0 0 1
-5.950476 -24.630113 -11.058817 27.646845 1.333745 1.982316 0.016060 -0.003582 -459166.000000 0 0 1
-7.247476 -25.107613 -11.710017 28.636386 1.289779 1.992068 0.034266 -0.012073 -389716.000000 0 0 1
-7.336276 -25.020013 -13.094117 29.176667 1.285575 2.036204 0.058759 -0.007616 1022100.000000 0 0 1
-8.619476 -25.484913 -13.612517 30.150900 1.244655 2.039219 0.083764 -0.014052 825517.000000 0 0 1
-8.882576 -25.110413 -15.104617 30.619968 1.230793 2.086668 0.089557 -0.021652 215791.000000 0 0 1
-8.157276 -25.895713 -16.079117 31.554193 1.265631 2.105483 0.082010 -0.035314 1071970.000000 0 0 1
-6.790376 -25.444113 -16.150017 30.892315 1.310000 2.120910 0.073055 -0.033244 -368859.000000 0 0 1
-5.837476 -26.310013 -16.851917 31.784902 1.352460 2.129616 0.080318 -0.029075 -966794.000000 0 0 1
-5.714876 -26.026613 -18.251917 32.298248 1.354648 2.171357 0.148178 -0.037312 607309.000000 0 0 1
-4.649376 -26.813813 -18.807217 33.080336 1.399109 2.175516 0.121362 -0.034594 461283.000000 0 0 1
-25.708116 14.162610 -4.399656 29.679012 -0.503534 1.719586 0.153576 -0.054067 -10459.100000 0 0 1
-25.617886 12.794910 -4.195256 28.941078 -0.463209 1.716267 0.158205 -0.046326 302469.000000 0 0 1
-24.326076 12.255910 -4.421756 27.595602 -0.466697 1.731724 0.148535 -0.037308 -363228.000000 0 0 1
-24.185976 10.702410 -4.183556 26.776952 -0.416603 1.727676 0.159940 -0.054857 -36455.000000 0 0 1
-24.834876 9.801810 -5.055756 27.173650 -0.375911 1.757940 0.146303 -0.049274 128539.000000 0 0 1
-26.232286 9.925510 -5.199356 28.525110 -0.361722 1.754094 0.170801 -0.051864 -388490.000000 0 0 1
-26.748456 9.330910 -6.497156 29.064735 -0.335640 1.796242 0.179691 -0.042872 -115183.000000 0 0 1
-26.551286 10.272910 -7.547256 29.452751 -0.369170 1.829937 0.193795 -0.036035 131259.000000 0 0 1
-26.759506 9.715210 -8.791756 29.795158 -0.348259 1.870329 0.186061 -0.034653 -184405.000000 0 0 1
-27.022056 10.653610 -9.935956 30.698765 -0.375545 1.900391 0.193155 -0.032784 -575255.000000 0 0 1
-25.945156 11.394010 -10.391756 30.182167 -0.413801 1.922291 0.169174 -0.038509 -329808.000000 0 0 1
-26.215366 11.900410 -11.679656 31.068949 -0.426132 1.956193 0.184779 -0.045156 198890.000000 0 0 1
-25.129826 12.907410 -12.175856 30.762979 -0.474491 1.977731 0.153694 -0.037613 -196631.000000 0 0 1
-25.201296 14.152610 -11.515056 31.112670 -0.511692 1.949922 0.143256 -0.043694 267445.000000 0 0 1
-24.493076 15.202710 -12.174656 31.293057 -0.555497 1.970400 0.122612 -0.036553 -18643.900000 0 0 1
-24.620876 16.506810 -11.371056 31.748437 -0.590610 1.937094 0.135181 -0.041272 -458759.000000 0 0 1
-23.693376 16.616710 -10.340156 30.731254 -0.611613 1.913963 0.121641 -0.025864 -124146.000000 0 0 1
-23.743276 17.910110 -9.795156 31.312303 -0.646262 1.888958 0.079365 -0.013297 460509.000000 0 0 1
-22.590776 18.114810 -8.738056 30.246374 -0.675879 1.863870 0.091902 -0.014984 466066.000000 0 0 1
-22.806976 17.517310 -7.462356 29.710286 -0.654965 1.824686 0.128085 -0.031339 -43005.200000 0 0 1
-23.825776 18.054410 -6.658456 30.626204 -0.648454 1.789957 0.139407 -0.038903 -429278.000000 0 0 1
-24.019476 17.392510 -5.259056 30.117974 -0.626718 1.746311 0.150615 -0.027707 259400.000000 0 0 1
-22.903776 17.486810 -4.392756 29.149062 -0.652079 1.722072 0.126381 -0.041983 754230.000000 0 0 1
-23.389876 16.992310 -3.129156 29.079487 -0.628279 1.678612 0.132482 -0.036526 393155.000000 0 0 1
-22.239976 16.859010 -2.105856 27.987094 -0.648633 1.646111 0.139663 -0.057379 -121977.000000 0 0 1
-21.588976 18.042910 -1.710056 28.187849 -0.696161 1.631500 0.137182 -0.047557 78913.600000 0 0 1
-20.487776 17.762310 -0.893356 27.130181 -0.714265 1.603731 0.178048 -0.073838 70625.500000 0 0 1
-19.803876 18.999610 -0.201156 27.444839 -0.764674 1.578126 0.144853 -0.059299 -198851.000000 0 0 1
-20.761876 19.599210 0.600844 28.557759 -0.756600 1.549755 0.142327 -0.050771 -16361.900000 0 0 1
-20.546676 20.973410 0.876544 29.373767 -0.795676 1.540951 0.152102 -0.049176 287487.000000 0 0 1
-21.704076 21.520110 1.775944 30.615945 -0.781142 1.512757 0.115428 -0.042528 416404.000000 0 0 1
-21.528276 21.187410 3.167444 30.371133 -0.777418 1.466315 0.128169 -0.039043 581738.000000 0 0 1
-22.701676 21.439810 3.920344 31.470632 -0.756819 1.445900 0.106518 -0.019030 248990.000000 0 0 1
-22.341076 21.235110 5.466544 31.303941 -0.760024 1.395268 0.108792 -0.025670 148421.000000 0 0 1
-21.446976 22.266310 5.875844 31.468824 -0.804139 1.382974 0.093367 -0.015584 545325.000000 0 0 1
-20.661276 22.032310 7.062844 31.019265 -0.817500 1.341089 0.076427 -0.007237 364136.000000 0 0 1
-21.432976 21.836310 8.401944 31.729948 -0.794719 1.302805 0.093498 -0.020545 -737284.000000 0 0 1
-22.096576 20.601510 8.518744 31.388691 -0.750398 1.295954 0.108773 -0.028819 316134.000000 0 0 1
-22.606376 20.286210 9.789144 31.912473 -0.731358 1.259020 0.127085 -0.031791 160477.000000 0 0 1
-23.460076 21.316610 10.609444 33.426537 -0.737565 1.247814 0.148285 -0.029365 -508667.000000 0 0 1
-24.781276 21.444510 10.117544 34.297863 -0.713339 1.271351 0.166222 -0.030157 266252.000000 0 0 1
-25.546636 22.232010 11.011544 35.611052 -0.716135 1.256427 0.178798 -0.037456 347956.000000 0 0 1
-26.931386 22.678510 10.444544 36.724691 -0.699881 1.282415 0.176474 -0.041463 660336.000000 0 0 1
-27.772156 23.269510 11.436644 37.994205 -0.697411 1.265045 0.162661 -0.032178 243730.000000 0 0 1
-27.912606 24.630610 11.240344 38.886063 -0.723016 1.277553 0.156643 -0.035618 -31115.100000 0 0 1
-28.347006 25.404210 12.495344 40.063204 -0.730704 1.253614 0.161862 -0.038853 381946.000000 0 0 1
-27.367186 25.445610 13.555344 39.751595 -0.749030 1.222815 0.129886 -0.033506 269690.000000 0 0 1
-27.807296 25.979410 14.807444 40.834249 -0.751427 1.199715 0.127380 -0.026029 344370.000000 0 0 1
-26.632136 26.037510 15.835044 40.471857 -0.774109 1.168795 0.101647 -0.024361 467568.000000 0 0 1
-26.261566 24.792510 16.359844 39.648240 -0.756632 1.145463 0.103432 -0.022977 75612.900000 0 0 1
-25.204926 24.994510 17.280744 39.479589 -0.781207 1.117742 0.079164 -0.017253 -29727.400000 0 0 1
-24.886176 23.786010 18.144344 38.914178 -0.762798 1.085732 0.083649 -0.008640 356586.000000 0 0 1
-23.725476 23.898310 18.973444 38.652542 -0.789027 1.057706 0.079028 -0.022023 552171.000000 0 0 1
-23.370476 22.608610 19.396844 37.862461 -0.768830 1.032938 0.085305 -0.023049 844683.000000 0 0 1
-21.874776 22.364110 19.860144 37.055156 -0.796459 1.005150 0.105199 -0.028166 352669.000000 0 0 1
-20.998576 22.424310 18.792344 36.013082 -0.818220 1.021813 0.109226 -0.028725 59301.000000 0 0 1
-19.624876 22.207910 19.093644 35.254706 -0.847067 0.998467 0.085674 -0.029964 549337.000000 0 0 1
-19.158476 20.710310 19.252044 34.155605 -0.824302 0.971990 0.100307 -0.023170 -428696.000000 0 0 1
-19.458376 20.072110 20.501344 34.667321 -0.800923 0.938035 0.102218 -0.022481 -110833.000000 0 0 1
-18.688276 20.535210 21.573744 35.162096 -0.832451 0.910246 0.091207 -0.024600 -349011.000000 0 0 1
-19.365576 20.332310 22.983044 36.285654 -0.809746 0.884868 0.074190 -0.022744 179784.000000 0 0 1
-20.580876 21.072710 22.949344 37.340380 -0.797205 0.908919 0.072372 -0.024295 -32252.100000 0 0 1
-21.202676 20.889910 24.192644 38.356562 -0.777968 0.888302 0.080436 -0.023255 1814.030000 0 0 1
-22.407776 21.820210 24.404144 39.671051 -0.772114 0.908204 0.083787 -0.023173 -572748.000000 0 0 1
-21.895776 23.079210 24.689444 40.269636 -0.811705 0.910814 0.089105 -0.027013 724848.000000 0 0 1
-22.856876 24.102810 25.100644 41.634416 -0.811924 0.923688 0.084495 -0.028789 872631.000000 0 0 1
-23.812476 24.578910 23.923444 41.755096 -0.801235 0.960700 0.069674 -0.026931 478653.000000 0 0 1
-24.882876 23.684410 23.668744 41.717122 -0.760727 0.967497 0.068656 -0.024087 -214072.000000 0 0 1
-25.592736 24.056410 22.535244 41.731718 -0.754464 1.000356 0.059479 -0.016512 -253857.000000 0 0 1
-26.534076 22.972710 22.003544 41.424130 -0.713585 1.010807 0.056878 -0.014447 198898.000000 0 0 1
-27.859046 23.060910 22.518544 42.603015 -0.691447 1.013885 0.077479 -0.021253 387753.000000 0 0 1
-28.717476 22.226710 21.786944 42.348448 -0.658672 1.030409 0.094932 -0.028905 152308.000000 0 0 1
-30.245096 22.388610 21.926244 43.551991 -0.637225 1.043209 0.112123 -0.024469 -343824.000000 0 0 1
-30.846016 23.402910 21.196944 44.141628 -0.649047 1.069910 0.124126 -0.032223 1413990.000000 0 0 1
-32.291506 23.514810 21.249244 45.246194 -0.629405 1.081918 0.125554 -0.026761 1449510.000000 0 0 1
-33.120996 22.516310 20.428644 44.959027 -0.597053 1.099116 0.136377 -0.043394 -1120110.000000 0 0 1
-33.119896 21.139710 20.899444 44.503951 -0.568091 1.081949 0.131946 -0.042530 498369.000000 0 0 1
-34.024536 20.276810 20.230244 44.475621 -0.537434 1.098580 0.133988 -0.039391 -256667.000000 0 0 1
-35.527250 20.498210 20.369844 45.796208 -0.523315 1.109853 0.147746 -0.043600 -941516.000000 0 0 1
-36.262166 19.699610 19.494644 45.640558 -0.497650 1.129475 0.132474 -0.035124 105689.000000 0 0 1
37.423377 19.848910 19.710344 46.722436 0.487661 1.135300 0.143556 -0.038060 615217.000000 0 0 1
36.552087 19.087710 18.650344 45.257387 0.481254 1.146044 0.152740 -0.038391 180404.000000 0 0 1
36.778947 17.705910 18.666844 44.884755 0.448669 1.141882 0.171724 -0.043631 -29741.100000 0 0 1
36.043437 17.064310 17.674844 43.620180 0.442173 1.153600 0.192256 -0.058945 -123027.000000 0 0 1
36.320127 15.578610 17.698144 43.302067 0.405190 1.149752 0.204478 -0.075374 -149991.000000 0 0 1
35.472107 14.888110 16.833544 41.991599 0.397384 1.158320 0.227418 -0.071911 -115104.000000 0 0 1
36.042047 13.663310 16.404644 41.890661 0.362355 1.168420 0.211110 -0.068365 477381.000000 0 0 1
35.131527 12.786210 15.438044 40.448047 0.349050 1.179188 0.199594 -0.075823 288478.000000 0 0 1
34.909277 13.335110 14.162844 39.963344 0.364888 1.208528 0.190575 -0.073047 232596.000000 0 0 1
34.219017 12.350810 13.423844 38.777354 0.346382 1.217303 0.202000 -0.061982 -452240.000000 0 0 1
34.217757 12.633010 11.901944 38.368009 0.353671 1.255388 0.212430 -0.059536 342455.000000 0 0 1
35.509707 12.483210 11.306044 39.301354 0.338049 1.278997 0.197448 -0.046337 641530.000000 0 0 1
35.438797 12.249210 9.908144 38.783022 0.332789 1.312456 0.181839 -0.035231 -21132.800000 0 0 1
36.798127 12.273110 9.160344 39.857788 0.321923 1.338898 0.131602 -0.018169 -98288.000000 0 0 1
-37.382146 11.257010 9.571544 40.196512 -0.292496 1.330368 0.181698 -0.032472 1077840.000000 0 0 1
-36.020536 11.447010 9.133544 38.883605 -0.307698 1.333686 0.191041 -0.028558 1100140.000000 0 0 1
-35.651268 11.322910 7.614344 38.173282 -0.307526 1.369981 0.180305 -0.040557 -950502.000000 0 0 1
-36.259126 12.244910 6.770044 38.865094 -0.325680 1.395710 0.156718 -0.041155 -167666.000000 0 0 1
-35.910159 11.931210 5.431344 38.228168 -0.320777 1.428237 0.168742 -0.047982 212609.000000 0 0 1
-36.790626 12.627610 4.321744 39.136737 -0.330630 1.460144 0.187027 -0.046932 2285560.000000 0 0 1
36.921127 12.078710 4.192444 39.072259 0.316174 1.463290 0.192028 -0.048528 2068250.000000 0 0 1
35.859297 13.016210 4.181344 38.377005 0.348191 1.461625 0.166307 -0.047381 413051.000000 0 0 1
35.452337 13.639810 5.561744 38.390697 0.367279 1.425413 0.168061 -0.042603 -85477.300000 0 0 1
34.505997 14.758410 5.448844 37.923138 0.404160 1.426616 0.152091 -0.032383 844772.000000 0 0 1
34.055617 15.212710 6.722444 37.899905 0.420108 1.392479 0.133342 -0.032817 780720.000000 0 0 1
32.769147 14.428010 7.197744 36.521117 0.414752 1.372413 0.196222 -0.042098 215309.000000 0 0 1
33.070347 13.243510 7.870544 36.482651 0.380907 1.353353 0.229435 -0.035880 526814.000000 0 0 1
31.956277 12.340510 7.972744 35.171813 0.368526 1.342129 0.229265 -0.029727 215474.000000 0 0 1
31.767577 11.397510 6.791844 34.426898 0.344473 1.372211 0.220490 -0.036917 -222907.000000 0 0 1
31.125317 11.876810 5.648844 33.789842 0.364527 1.402832 0.211538 -0.048418 65002.400000 0 0 1
31.245217 10.964810 4.578844 33.428378 0.337501 1.433390 0.216786 -0.046847 44294.700000 0 0 1
30.470897 11.399310 3.299644 32.700267 0.357986 1.469719 0.182727 -0.053286 221444.000000 0 0 1
29.096407 11.071710 3.303544 31.306502 0.363600 1.465077 0.137481 -0.045095 -5056.730000 0 0 1
28.437607 11.503510 2.145144 30.751095 0.384395 1.500981 0.156412 -0.049856 244665.000000 0 0 1
26.956907 11.060810 2.015944 29.207540 0.389366 1.501720 0.180660 -0.042966 339562.000000 0 0 1
26.894507 9.649210 1.723044 28.625000 0.344475 1.510566 0.124678 -0.042304 797189.000000 0 0 1
25.547007 9.174410 1.540744 27.188108 0.344775 1.514096 0.121889 -0.043501 468859.000000 0 0 1
25.557407 7.621110 1.407444 26.706614 0.289801 1.518072 0.127208 -0.042814 361897.000000 0 0 1
26.210407 6.913510 2.495444 27.221486 0.257896 1.478996 0.143019 -0.036370 1322530.000000 0 0 1
27.645007 6.960710 2.518444 28.618882 0.246662 1.482683 0.186433 -0.052812 353519.000000 0 0 1
28.143707 6.171510 3.766444 29.057561 0.215869 1.440810 0.188988 -0.061025 566736.000000 0 0 1
29.568407 6.280110 3.949544 30.484904 0.209283 1.440874 0.235491 -0.058898 925032.000000 0 0 1
30.029207 5.451910 4.942444 30.917702 0.179597 1.410249 0.229819 -0.045806 -84188.100000 0 0 1
31.572637 5.374310 5.034644 32.420090 0.168604 1.414871 0.231188 -0.055214 -94061.000000 0 0 1
32.128387 6.410210 5.734444 33.259703 0.196933 1.397516 0.224720 -0.049078 -656678.000000 0 0 1
33.383077 6.076410 6.263444 34.504830 0.180050 1.388261 0.212914 -0.042578 -500898.000000 0 0 1
34.006217 7.187910 7.023644 35.460124 0.208304 1.371406 0.188171 -0.043994 -429414.000000 0 0 1
33.424647 7.363910 8.288044 35.215421 0.216850 1.333215 0.199360 -0.041515 144767.000000 0 0 1
34.047777 8.445310 8.983444 36.211554 0.243136 1.320096 0.194476 -0.042979 -175489.000000 0 0 1
33.590957 8.558010 10.405944 36.192203 0.249464 1.279161 0.202339 -0.045415 -102832.000000 0 0 1
32.314837 9.110710 10.596344 35.207048 0.274803 1.265084 0.195881 -0.052747 39590.100000 0 0 1
31.613117 8.655010 11.737144 34.814636 0.267231 1.226927 0.182495 -0.059243 1311780.000000 0 0 1
30.107467 9.137110 11.906644 33.640965 0.294649 1.209023 0.163262 -0.055002 948284.000000 0 0 1
29.944207 10.495510 12.310444 34.034663 0.337122 1.200702 0.206949 -0.065475 213351.000000 0 0 1
30.090157 11.520510 11.340144 34.157555 0.365649 1.232378 0.211738 -0.070174 -192585.000000 0 0 1
28.793107 11.772810 10.544744 32.845604 0.388135 1.243969 0.167024 -0.053913 -145662.000000 0 0 1
28.973907 12.888010 9.690344 33.158571 0.418533 1.274225 0.143274 -0.034130 -53012.000000 0 0 1
28.030307 12.879510 8.655544 32.039012 0.430714 1.297241 0.118913 -0.034043 -272818.000000 0 0 1
27.967307 14.185110 7.799444 32.314376 0.469394 1.327028 0.117114 -0.037183 -244027.000000 0 0 1
27.230707 15.206210 8.392344 32.298168 0.509286 1.307940 0.112353 -0.021659 85677.600000 0 0 1
27.376507 16.462710 7.779944 32.878891 0.541407 1.331906 0.101743 -0.010315 -955022.000000 0 0 1
26.768307 17.638010 8.536444 33.173974 0.582616 1.310545 0.132351 -0.024258 841934.000000 0 0 1
25.416107 18.090510 8.379444 32.302633 0.618584 1.308391 0.133411 -0.031242 1063160.000000 0 0 1
24.396307 17.137110 8.669444 31.048665 0.612366 1.287813 0.132182 -0.031479 66601.300000 0 0 1
22.969107 17.752110 8.699744 30.305162 0.657977 1.279628 0.126602 -0.038645 16674.300000 0 0 1
22.518007 18.244910 7.474444 29.929996 0.680952 1.318394 0.129832 -0.039819 342079.000000 0 0 1
21.443507 19.164810 7.688444 29.769550 0.729343 1.309570 0.162684 -0.050374 348307.000000 0 0 1
20.892407 19.818310 6.416844 29.503118 0.759021 1.351547 0.152360 -0.040072 69414.200000 0 0 1
21.738507 20.834710 5.915644 30.686197 0.764172 1.376803 0.110014 -0.019282 135900.000000 0 0 1
21.174507 21.335810 4.730444 30.429486 0.789193 1.414707 0.116937 -0.026913 -424277.000000 0 0 1
18.234824 16.987610 32.685062 41.102323 0.750003 0.651439 0.133168 -0.040274 -499415.000000 0 0 1
17.455424 17.593810 31.720435 40.254441 0.789346 0.663245 0.114442 -0.038649 104821.000000 0 0 1
16.902324 16.503410 30.954923 38.939163 0.773457 0.651861 0.116098 -0.046887 -313044.000000 0 0 1
16.373924 16.959910 29.622713 37.858276 0.802976 0.672184 0.117001 -0.044333 -834442.000000 0 0 1
17.326524 17.404410 28.715713 37.785104 0.787641 0.707523 0.127859 -0.037174 -842932.000000 0 0 1
16.909424 17.765310 27.436923 36.801082 0.810076 0.729442 0.111174 -0.030276 -801130.000000 0 0 1
18.024424 18.037510 26.426663 36.723292 0.785761 0.767547 0.119876 -0.033874 -454365.000000 0 0 1
18.675624 19.282310 26.671863 37.841442 0.801380 0.788610 0.120515 -0.032602 168896.000000 0 0 1
19.657124 19.487110 25.678893 37.756530 0.781055 0.822873 0.123496 -0.036695 -157503.000000 0 0 1
20.531024 20.749610 25.813423 38.966679 0.790693 0.846714 0.141736 -0.036684 -239908.000000 0 0 1
19.849224 21.949010 25.671663 39.176333 0.835592 0.856236 0.113233 -0.026801 20585.300000 0 0 1
20.663124 23.023810 26.133073 40.496889 0.839382 0.869366 0.127545 -0.031565 4745.700000 0 0 1
20.094424 24.454210 26.010793 40.967739 0.882953 0.882905 0.137609 -0.032051 -92300.200000 0 0 1
20.078824 24.991010 24.729593 40.487807 0.893960 0.913737 0.117610 -0.025945 155934.000000 0 0 1
19.159424 26.061110 24.727243 40.714881 0.936852 0.918105 0.112607 -0.031066 -100821.000000 0 0 1
19.193224 26.985210 23.552833 40.636405 0.952560 0.952559 0.085425 -0.025057 -1052970.000000 0 0 1
20.395124 27.605310 23.325453 41.498084 0.934494 0.973892 0.096912 -0.030377 -975853.000000 0 0 1
20.243024 28.809610 22.561983 41.818856 0.958295 1.000933 0.073815 -0.017849 200599.000000 0 0 1
21.576624 29.602210 22.474583 42.976138 0.940946 1.020482 0.075866 -0.012324 106189.000000 0 0 1
22.446324 29.047110 21.504283 42.544169 0.912890 1.040884 0.078020 -0.014782 -290676.000000 0 0 1
23.511924 29.981710 21.377183 43.688643 0.905759 1.059501 0.091399 -0.030943 55765.700000 0 0 1
23.961224 30.206110 19.930483 43.402460 0.900180 1.093700 0.091690 -0.024571 -145077.000000 0 0 1
23.126824 31.055310 19.189983 43.215018 0.930697 1.110673 0.059906 -0.019111 -129033.000000 0 0 1
23.351824 30.881610 17.804083 42.614163 0.923357 1.139777 0.071855 -0.005392 -233251.000000 0 0 1
22.848024 32.127110 17.037783 42.947287 0.952609 1.162862 0.081438 -0.013200 -207859.000000 0 0 1
23.535524 33.370410 17.292583 44.345672 0.956535 1.170219 0.080810 -0.012417 235559.000000 0 0 1
23.716224 -33.492913 16.123583 44.093133 -0.954657 1.196443 0.079577 -0.013000 -1044.380000 0 0 1
24.790124 33.710310 15.079683 44.478446 0.936713 1.224907 0.061370 -0.009546 -181388.000000 0 0 1
24.576024 32.532810 14.267683 43.196429 0.923834 1.234177 0.084457 -0.020686 163861.000000 0 0 1
23.626124 32.854910 13.245083 42.580173 0.947363 1.254486 0.072854 -0.023871 1695.830000 0 0 1
23.161924 31.662610 12.415683 41.147841 0.939226 1.264286 0.084981 -0.030283 -105982.000000 0 0 1
24.172724 31.012810 11.653883 41.011315 0.908716 1.282663 0.110465 -0.051010 112815.000000 0 0 1
23.663524 29.938010 10.923683 39.693497 0.901926 1.291998 0.107197 -0.053598 -226810.000000 0 0 1
24.768324 29.205310 10.119583 39.608408 0.867420 1.312441 0.113933 -0.054265 433007.000000 0 0 1
25.799924 28.508310 10.775983 39.930961 0.835228 1.297543 0.112032 -0.051379 1150030.000000 0 0 1
26.902024 29.329510 11.266983 41.362833 0.828541 1.294916 0.105786 -0.046845 524316.000000 0 0 1
28.186024 28.550410 11.614083 41.766791 0.791821 1.289012 0.104119 -0.043148 97118.000000 0 0 1
28.078824 27.624910 12.722983 41.393602 0.777250 1.258373 0.102248 -0.036913 -91093.400000 0 0 1
29.377124 27.560910 13.274183 42.412535 0.753511 1.252470 0.087616 -0.026032 134246.000000 0 0 1
29.749224 26.513810 14.346983 42.353682 0.727956 1.225216 0.080331 -0.026710 237951.000000 0 0 1
30.842424 26.934310 15.162483 43.664781 0.717859 1.216162 0.070625 -0.032402 284488.000000 0 0 1
31.230624 25.954510 16.122183 43.691112 0.693395 1.192859 0.084590 -0.036879 847949.000000 0 0 1
32.470724 26.277110 17.038783 45.112687 0.680359 1.183492 0.089071 -0.043674 1971460.000000 0 0 1
33.785524 26.332010 16.422483 45.875204 0.662045 1.204691 0.093455 -0.039315 864755.000000 0 0 1
34.826724 26.105310 17.351283 46.855682 0.643230 1.191450 0.093702 -0.035897 1015270.000000 0 0 1
36.193724 26.160910 16.550083 47.626507 0.625866 1.215896 0.115937 -0.046556 731450.000000 0 0 1
36.336824 27.374510 15.914483 48.197504 0.645645 1.234288 0.108087 -0.030393 -388434.000000 0 0 1
-37.383159 27.647710 15.698783 49.074925 -0.636797 1.245179 0.139992 -0.037519 207080.000000 0 0 1
-37.144659 28.783810 14.659583 49.225368 -0.659255 1.268403 0.104870 -0.031979 21869.500000 0 0 1
37.370624 29.985210 15.079783 50.230232 0.676187 1.265880 0.104318 -0.031400 -170261.000000 0 0 1
37.439124 30.999410 14.117783 50.615840 0.691580 1.288127 0.094305 -0.015279 -198946.000000 0 0 1
36.273824 31.986710 14.189883 50.401317 0.722675 1.285400 0.075835 -0.015419 -967499.000000 0 0 1
36.148224 32.823510 13.088683 50.550871 0.737231 1.308891 0.048892 -0.011172 1475470.000000 0 0 1
34.902124 33.601010 13.057383 50.176503 0.766407 1.307537 0.049013 -0.005695 1423560.000000 0 0 1
33.588424 32.857310 12.788383 48.696281 0.774395 1.305065 0.060106 -0.002940 -551920.000000 0 0 1
33.080324 32.152010 13.890883 48.176926 0.771168 1.278313 0.060013 -0.019650 -222700.000000 0 0 1
31.959924 31.354110 13.584583 46.787369 0.775830 1.276207 0.075781 -0.015859 -100503.000000 0 0 1
31.493024 30.451510 14.796783 46.239051 0.768586 1.245060 0.092632 -0.023601 -105873.000000 0 0 1
30.564124 30.982110 15.704783 46.267667 0.792189 1.224482 0.091307 -0.025667 -73349.900000 0 0 1
30.347524 30.061810 16.707083 45.867323 0.780669 1.197971 0.092972 -0.023180 -217054.000000 0 0 1
29.207524 30.509510 17.621683 45.764980 0.807197 1.175537 0.091417 -0.022087 -111897.000000 0 0 1
28.821024 29.612910 18.696183 45.355519 0.798949 1.145913 0.086190 -0.021224 154127.000000 0 0 1
29.695524 29.680110 19.810283 46.423921 0.785139 1.129927 0.091009 -0.038512 134108.000000 0 0 1
29.468724 28.468210 20.776583 45.940299 0.768131 1.101508 0.103353 -0.049730 127756.000000 0 0 1
28.272524 28.546310 21.520583 45.578097 0.790217 1.079046 0.108802 -0.050169 -121851.000000 0 0 1
28.232324 27.594610 22.523783 45.451595 0.773976 1.052322 0.101170 -0.052411 -1133360.000000 0 0 1
26.970424 27.680510 23.312403 45.134051 0.798391 1.028021 0.108008 -0.040607 -1124440.000000 0 0 1
25.901724 27.141110 22.542883 43.768947 0.808760 1.029739 0.110650 -0.039861 1034260.000000 0 0 1
24.697824 26.802610 23.295033 43.255300 0.826245 1.002084 0.105520 -0.044753 1154100.000000 0 0 1
24.677824 25.500110 23.998463 42.838964 0.801784 0.976167 0.126243 -0.041665 -655939.000000 0 0 1
25.743624 25.424410 24.907723 43.926410 0.779160 0.967897 0.104652 -0.048562 -225958.000000 0 0 1
25.463024 24.618810 26.011293 43.943586 0.768543 0.937352 0.121755 -0.046424 3505.540000 0 0 1
26.672224 24.332210 26.973503 45.066993 0.739552 0.929144 0.119307 -0.058221 492595.000000 0 0 1
27.216624 25.412910 27.686033 46.401261 0.751140 0.931457 0.135616 -0.049998 610004.000000 0 0 1
28.063724 26.324910 26.964893 46.985944 0.753439 0.959545 0.108273 -0.034031 -271413.000000 0 0 1
28.263124 27.612810 27.763553 48.291680 0.773760 0.958298 0.085670 -0.032549 287346.000000 0 0 1
29.348724 27.556310 28.718013 49.451209 0.753910 0.951166 0.098508 -0.033310 747383.000000 0 0 1
29.454524 28.844810 29.315313 50.586358 0.774940 0.952669 0.100377 -0.036145 -3448.530000 0 0 1
30.906624 29.083010 29.781653 51.845808 0.755009 0.958892 0.080772 -0.030961 -5352.160000 0 0 1
31.719224 29.354010 28.674933 51.865392 0.746690 0.984989 0.053525 -0.033167 -1074510.000000 0 0 1
33.081724 29.277710 28.946173 52.815393 0.724472 0.990749 0.081636 -0.039512 -553199.000000 0 0 1
33.857024 29.575010 27.678523 52.792802 0.717995 1.018920 0.066130 -0.035173 -338778.000000 0 0 1
33.619724 30.907910 27.257593 53.184219 0.743397 1.032688 0.053718 -0.026667 237441.000000 0 0 1
34.452724 31.251010 26.172123 53.372239 0.736707 1.058283 0.051825 -0.029934 -69178.000000 0 0 1
34.083524 32.656410 25.736883 53.763509 0.764018 1.071617 0.041110 -0.027182 -190730.000000 0 0 1
34.341524 33.733610 26.644813 55.020385 0.776468 1.065266 0.051184 -0.032830 95342.200000 0 0 1
33.857924 -32.703513 26.187823 53.867252 -0.768056 1.063112 0.054529 -0.022277 -492600.000000 0 0 1
34.701524 -31.503613 26.673993 53.927500 -0.737133 1.053391 0.041134 -0.022794 89679.000000 0 0 1
34.824724 -31.442913 28.067903 54.673808 -0.734410 1.031689 0.045742 -0.032018 667413.000000 0 0 1
35.956224 -30.617713 28.382983 55.098894 -0.705380 1.029639 0.053632 -0.038525 461899.000000 0 0 1
36.078424 -30.333613 29.913093 55.826283 -0.699110 1.005312 0.057108 -0.036245 -193129.000000 0 0 1
36.219824 -31.317913 30.915573 56.995262 -0.712945 0.997477 0.077440 -0.039839 976652.000000 0 0 1
35.109124 -32.236213 31.065443 56.893635 -0.742765 0.993182 0.071451 -0.048564 263328.000000 0 0 1
35.129624 -32.864813 32.394217 57.996307 -0.752102 0.978152 0.104020 -0.043536 -531456.000000 0 0 1
34.695324 -32.065313 33.466663 57.896177 -0.746024 0.954464 0.089967 -0.046364 167960.000000 0 0 1
34.710624 -32.732913 -32.985866 58.002917 -0.756083 2.175713 0.108875 -0.044675 96493.000000 0 0 1
33.906624 33.602010 -32.766086 57.899660 0.780886 2.172335 0.113635 -0.046550 141781.000000 0 0 1
34.460224 32.554310 -33.535586 58.068285 0.756966 2.186484 0.122445 -0.045967 -127025.000000 0 0 1
33.578924 31.481810 -33.539856 56.952353 0.753176 2.200507 0.127571 -0.036415 -65157.500000 0 0 1
33.777324 30.494610 33.026932 56.228170 0.734367 0.942987 0.119714 -0.034187 208290.000000 0 0 1
35.020424 29.837210 33.171268 56.718800 0.705651 0.946117 0.107166 -0.039628 52937.800000 0 0 1
35.128524 28.928710 32.116656 55.698861 0.688913 0.956220 0.095328 -0.038633 1889.140000 0 0 1
36.558424 28.346510 32.020944 56.261744 0.659545 0.965334 0.094163 -0.034082 -104276.000000 0 0 1
36.879224 27.299810 32.881044 56.449268 0.637231 0.949010 0.088468 -0.025166 -142564.000000 0 0 1
-36.923259 26.773010 32.692988 56.115529 -0.627373 0.948871 0.063099 -0.022851 -255697.000000 0 0 1
-36.743659 25.585910 33.626146 55.995116 -0.608262 0.926646 0.052501 -0.022596 -87234.500000 0 0 1
-37.267559 24.423710 33.055802 55.480399 -0.580135 0.932522 0.057006 -0.020852 137666.000000 0 0 1
-37.307559 23.378510 -33.776466 55.491066 -0.559780 2.225196 0.028111 -0.019296 -28926.300000 0 0 1
37.269224 22.050610 33.296715 54.625047 0.534263 0.915303 0.032031 -0.026010 -52710.500000 0 0 1
-36.869959 21.404910 32.427075 53.563787 -0.525996 0.920538 0.050206 -0.015240 471648.000000 0 0 1
-37.453359 20.457410 31.547393 53.070687 -0.499929 0.934226 0.056361 -0.007089 243856.000000 0 0 1
-36.424159 19.706310 30.633733 51.511976 -0.495925 0.933914 0.071360 -0.007381 171065.000000 0 0 1
-35.944559 20.498910 29.536083 50.838931 -0.518289 0.950872 0.073262 0.003163 240381.000000 0 0 1
-34.696559 19.952710 29.116273 49.494639 -0.521882 0.941877 0.111953 -0.001080 276185.000000 0 0 1
-34.771359 18.846510 28.028103 48.474869 -0.496690 0.954277 0.124033 0.001810 -451051.000000 0 0 1
-35.270259 17.633510 28.561243 48.689593 -0.463611 0.943944 0.117408 -0.004511 124953.000000 0 0 1
-36.041159 16.987410 27.571953 48.453585 -0.440453 0.965460 0.111778 -0.020638 12129.100000 0 0 1
-36.739559 15.680310 27.979843 48.770267 -0.403391 0.959772 0.114018 -0.025958 238841.000000 0 0 1
-35.827959 14.640710 28.357693 47.980744 -0.387932 0.938471 0.117612 -0.021548 109246.000000 0 0 1
-36.477959 13.607910 29.039313 48.570551 -0.357055 0.929944 0.117889 -0.030026 -91084.400000 0 0 1
-35.517459 12.516610 29.573083 47.882384 -0.338818 0.905084 0.111488 -0.016445 -298470.000000 0 0 1
-34.509759 12.965810 30.421973 47.796780 -0.359397 0.880863 0.108818 -0.008692 -238871.000000 0 0 1
-33.843259 11.829610 30.925783 47.346699 -0.336266 0.859024 0.077619 0.000653 -822651.000000 0 0 1
-32.327459 11.923910 30.932773 46.304219 -0.353366 0.839233 0.064122 0.007981 -1569280.000000 0 0 1
-31.751759 11.959910 29.597793 45.024916 -0.360233 0.853480 0.047914 0.003451 511794.000000 0 0 1
-30.383759 12.344110 29.573133 44.160164 -0.385903 0.837020 0.037507 0.010813 874395.000000 0 0 1
-29.391459 11.256610 30.135853 43.574520 -0.365756 0.807103 0.043341 0.009074 -451164.000000 0 0 1
-29.207759 10.184610 29.210193 42.544740 -0.335512 0.814027 0.046791 0.000155 40555.700000 0 0 1
-28.106559 9.375310 29.581963 41.868457 -0.321957 0.786192 0.043399 -0.003732 101440.000000 0 0 1
-27.768159 8.288910 28.445733 40.607098 -0.290084 0.794683 0.042430 -0.009847 416443.000000 0 0 1
-28.575559 7.091410 28.484843 40.966291 -0.243249 0.801926 0.059183 -0.015920 1473170.000000 0 0 1
-29.923059 7.249110 27.967043 41.594406 -0.237679 0.833383 0.069564 -0.009989 918803.000000 0 0 1
-30.782059 5.987710 28.039093 42.066359 -0.192120 0.841233 0.083958 -0.023839 -258290.000000 0 0 1
-31.237959 5.724010 29.336003 43.233962 -0.181228 0.825022 0.091418 -0.021271 -152659.000000 0 0 1
-31.884559 4.475810 29.413703 43.609906 -0.139464 0.830546 0.119441 -0.029518 -118439.000000 0 0 1
-32.634859 4.240710 30.737203 45.031026 -0.129220 0.819511 0.112126 -0.027718 -184394.000000 0 0 1
-33.918059 4.827710 30.701013 46.003193 -0.141385 0.840129 0.107448 -0.025030 -410528.000000 0 0 1
-34.622459 4.445410 31.865166 47.263783 -0.127698 0.830918 0.113298 -0.027259 1440060.000000 0 0 1
-36.137059 4.947710 31.821597 48.404348 -0.136069 0.853417 0.096777 -0.019359 1309060.000000 0 0 1
-36.295459 6.314310 32.127637 48.881652 -0.172246 0.853628 0.093197 -0.015009 -408135.000000 0 0 1
37.481524 6.825910 32.123188 49.833291 0.180140 0.870279 0.104648 -0.012332 -157694.000000 0 0 1
37.351624 8.308010 32.490544 50.197632 0.218864 0.866822 0.086117 -0.003026 -34313.700000 0 0 1
-37.315959 8.456610 33.832003 51.074451 -0.222858 0.846771 0.078938 -0.004162 157807.000000 0 0 1
37.507924 9.726310 -33.475356 51.205907 0.253725 2.283313 0.077007 -0.006272 -83454.200000 0 0 1
37.472024 9.937610 -31.971796 50.250417 0.259233 2.260423 0.064398 -0.003452 589584.000000 0 0 1
36.310524 9.324210 -31.371196 48.882993 0.251360 2.267589 0.073069 0.002063 725494.000000 0 0 1
36.376124 9.305010 -29.967676 48.040267 0.250430 2.244396 0.070564 0.009799 46177.600000 0 0 1
35.055724 8.799210 -29.327146 46.544724 0.245926 2.252459 0.078256 0.002200 246083.000000 0 0 1
34.959124 7.420110 -29.455796 46.312442 0.209147 2.260130 0.074851 -0.001074 874862.000000 0 0 1
33.745924 7.032510 -28.753456 44.888805 0.205455 2.266009 0.100386 -0.022396 831580.000000 0 0 1
36.819497 6.318110 -19.575156 42.175592 0.169942 2.053454 0.090345 -0.024641 -358049.000000 0 0 1
36.462527 7.163110 -18.465056 41.494389 0.193981 2.031972 0.093242 -0.021469 200841.000000 0 0 1
37.044247 8.428810 -18.492156 42.252584 0.223725 2.023788 0.057766 -0.015551 504889.000000 0 0 1
-36.513106 8.492910 -18.106256 41.631394 -0.228535 2.020744 0.061229 -0.012775 760903.000000 0 0 1
-35.577545 7.850410 -18.931056 41.058197 -0.217176 2.050007 0.065616 -0.021672 32267.500000 0 0 1
-35.145340 8.550610 -20.102556 41.381405 -0.238656 2.078060 0.052874 -0.013560 -480316.000000 0 0 1
-34.060819 7.722410 -20.826056 40.663247 -0.222955 2.108493 0.039382 -0.010884 -508586.000000 0 0 1
-34.534336 6.645110 -21.571356 41.256530 -0.190097 2.120998 0.038963 -0.001528 837799.000000 0 0 1
-35.485453 6.863910 -22.648056 42.652844 -0.191069 2.130560 0.038523 0.001592 630222.000000 0 0 1
-35.548802 5.578710 -23.524456 42.991155 -0.155661 2.149803 0.068791 -0.001296 -80975.200000 0 0 1
-34.335092 5.347110 -24.195256 42.342657 -0.154492 2.179026 0.071842 -0.003144 -105777.000000 0 0 1
-34.190122 4.062510 -24.764656 42.411751 -0.118267 2.194333 0.077366 -0.001683 896583.000000 0 0 1
-32.812436 3.908710 -25.534976 41.760855 -0.118564 2.228697 0.083760 -0.007278 1102120.000000 0 0 1
-31.700706 4.322710 -24.778656 40.467301 -0.135524 2.229779 0.075071 -0.006324 -433267.000000 0 0 1
-30.496566 4.018210 -25.420246 39.904580 -0.131005 2.261430 0.081647 -0.011911 512131.000000 0 0 1
-29.160716 4.405510 -24.699056 38.468159 -0.149943 2.267985 0.065682 -0.018268 552931.000000 0 0 1
-28.796426 5.758310 -24.669556 38.353348 -0.197363 2.269490 0.037157 -0.009021 -498297.000000 0 0 1
-27.517226 5.981910 -24.174056 37.112882 -0.214057 2.280179 0.043151 -0.011539 -526962.000000 0 0 1
-27.072086 7.437310 -24.294256 37.127110 -0.268108 2.284124 0.034716 -0.016334 -46125.700000 0 0 1
-27.825316 8.332810 -23.457056 37.335204 -0.290969 2.250140 0.032625 -0.016053 157275.000000 0 0 1
-27.605086 9.677110 -23.773756 37.694545 -0.337169 2.253245 0.029389 -0.022273 926767.000000 0 0 1
-26.164506 10.267110 -23.468556 36.616500 -0.373943 2.266504 0.064500 -0.020224 801128.000000 0 0 1
-25.865706 10.424510 -22.114156 35.591306 -0.383111 2.241243 0.073159 -0.024496 145343.000000 0 0 1
-24.496676 10.662910 -21.872456 34.528092 -0.410545 2.256824 0.087353 -0.028838 -364316.000000 0 0 1
-24.375376 11.126710 -20.402856 33.678468 -0.428224 2.221584 0.111919 -0.049755 -921246.000000 0 0 1
-24.870376 12.414210 -20.021556 34.256546 -0.462973 2.195010 0.136882 -0.053189 1149720.000000 0 0 1
-26.294816 12.574110 -20.057356 35.381113 -0.446054 2.173527 0.106727 -0.041877 673977.000000 0 0 1
-27.234156 11.679110 -19.206756 35.312892 -0.405119 2.145877 0.097739 -0.035635 -702975.000000 0 0 1
-27.113316 11.933710 -17.850856 34.586102 -0.414626 2.113120 0.106806 -0.047273 548058.000000 0 0 1
-28.033876 11.141910 -17.106956 34.679797 -0.378301 2.086656 0.113001 -0.046667 -89163.800000 0 0 1
-27.573106 11.162710 -15.628556 33.602590 -0.384672 2.054544 0.144846 -0.044961 526429.000000 0 0 1
-26.656576 10.125710 -15.258556 32.340789 -0.363023 2.062134 0.163836 -0.047641 925994.000000 0 0 1
-25.286366 10.448910 -15.471556 31.431658 -0.391853 2.085444 0.151929 -0.041030 283658.000000 0 0 1
-24.332776 9.202710 -15.492256 30.278439 -0.361575 2.107912 0.110869 -0.033111 590388.000000 0 0 1
-22.939976 9.509410 -15.562456 29.306338 -0.392973 2.130608 0.098989 -0.030726 466295.000000 0 0 1
-22.298276 8.218310 -15.457956 28.349641 -0.353115 2.147497 0.107035 -0.033409 1128680.000000 0 0 1
-20.735076 8.331710 -15.229456 27.042506 -0.382072 2.169010 0.150705 -0.045427 1052530.000000 0 0 1
-20.026376 8.829410 -16.337756 27.311838 -0.415251 2.212041 0.156454 -0.055425 713147.000000 0 0 1
-18.627176 8.916610 -16.034256 26.145267 -0.446453 2.230997 0.152476 -0.056082 20786.900000 0 0 1
-17.710576 9.424310 -17.131356 26.381158 -0.489019 2.277563 0.114716 -0.046949 -328510.000000 0 0 1
-17.475476 8.578010 -18.233456 26.672710 -0.456309 2.323480 0.147821 -0.052708 560002.000000 0 0 1
-16.800876 7.327010 -17.982456 25.677291 -0.411242 2.346649 0.160823 -0.050924 -832103.000000 0 0 1
-16.559876 6.529310 -19.357656 26.297913 -0.375570 2.398073 0.136446 -0.046576 99870.700000 0 0 1
-17.599476 5.761710 -19.946256 27.217495 -0.316383 2.393293 0.133383 -0.034684 346415.000000 0 0 1
-18.719076 6.540610 -20.383756 28.437316 -0.336148 2.369993 0.114382 -0.034731 -366841.000000 0 0 1
-19.689076 5.642310 -21.180656 29.463801 -0.279091 2.372972 0.091121 -0.012983 -598359.000000 0 0 1
-20.328476 4.824210 -20.260456 29.103368 -0.233003 2.340824 0.100005 -0.019151 19911.600000 0 0 1
-21.002876 3.766510 -20.936156 29.893646 -0.177447 2.346691 0.079551 -0.000675 -233583.000000 0 0 1
-21.922976 2.913010 -20.039356 29.844234 -0.132101 2.306980 0.090026 -0.008800 -130291.000000 0 0 1
-22.636076 1.921910 -20.777256 30.786037 -0.084702 2.311615 0.083662 -0.008608 495862.000000 0 0 1
-23.442776 1.205310 -19.839156 30.734486 -0.051370 2.272476 0.087061 -0.013728 -254821.000000 0 0 1
-24.108176 -0.055990 -20.390256 31.574829 0.002322 2.272835 0.089827 0.002404 374179.000000 0 0 1
-23.229476 -1.191190 -20.271656 30.853971 0.051234 2.287654 0.080287 -0.010820 557867.000000 0 0 1
-23.894176 -2.429390 -20.547456 31.607460 0.101325 2.278489 0.089500 -0.015647 -426145.000000 0 0 1
-24.347776 -2.722490 -21.981256 32.915069 0.111354 2.302069 0.090543 -0.019475 457304.000000 0 0 1
-23.376076 -2.430390 -23.004356 32.886899 0.103597 2.345493 0.081098 -0.017418 944886.000000 0 0 1
-22.263176 -3.356090 -23.085756 32.246930 0.149620 2.368717 0.073225 -0.027706 298943.000000 0 0 1
-21.400776 -2.991390 -24.262656 32.490277 0.138880 2.413984 0.079360 -0.031315 -457224.000000 0 0 1
-22.100676 -3.188390 -25.467106 33.870034 0.143278 2.421746 0.082487 -0.026276 110229.000000 0 0 1
-21.257776 -3.118990 -26.578856 34.176845 0.145683 2.461773 0.084023 -0.033955 -116628.000000 0 0 1
-21.990976 -3.485690 -27.911186 35.704165 0.157198 2.468239 0.084963 -0.031459 39972.400000 0 0 1
-22.549476 -4.784490 -27.802906 36.116088 0.209077 2.449356 0.086896 -0.028072 240850.000000 0 0 1
-23.401376 -5.080590 -28.888886 37.523387 0.213789 2.449465 0.050094 -0.024276 -509145.000000 0 0 1
-22.911176 -6.268490 -29.781716 38.094180 0.267064 2.468331 0.062587 -0.025340 -470072.000000 0 0 1
-21.701676 -5.941790 -30.387766 37.811162 0.267245 2.504237 0.052346 -0.026311 -429477.000000 0 0 1
-21.072776 -7.102990 -30.930126 38.094449 0.325109 2.518252 0.052142 -0.030679 997614.000000 0 0 1
-19.621776 -6.795390 -31.509046 37.736076 0.333392 2.558901 0.066429 -0.030324 819717.000000 0 0 1
-19.553676 -6.323190 -32.843646 38.743181 0.312762 2.582482 0.068882 -0.035097 311418.000000 0 0 1
-19.895276 -7.356490 -33.756996 39.868217 0.354169 2.580576 0.065709 -0.031791 -708356.000000 0 0 1
-19.789876 -6.918090 32.515605 38.688031 0.336298 0.572671 0.066198 -0.029076 230164.000000 0 0 1
-18.521176 -6.654390 31.928147 37.506286 0.344923 0.552387 0.075185 -0.028503 193495.000000 0 0 1
-17.834676 -5.505390 32.344061 37.343317 0.299410 0.523395 0.069231 -0.024027 198133.000000 0 0 1
-16.458776 -5.367990 31.616783 36.046187 0.315269 0.500967 0.067294 -0.023810 189806.000000 0 0 1
-16.647376 -5.153590 30.234833 34.897561 0.300217 0.522873 0.059829 -0.021813 -83615.400000 0 0 1
-15.462376 -4.929090 29.502503 33.671631 0.308595 0.502912 0.048424 -0.014812 -68419.800000 0 0 1
-15.690976 -4.893390 28.023943 32.488358 0.302302 0.530441 0.055701 -0.006869 -129039.000000 0 0 1
-16.494176 -3.797990 27.708713 32.469299 0.226318 0.548357 0.052658 -0.015099 -201033.000000 0 0 1
-16.972976 -3.773190 26.380773 31.595317 0.218749 0.582739 0.072604 -0.015669 -240126.000000 0 0 1
-16.034276 -3.188990 25.306623 30.127941 0.196324 0.573565 0.073554 -0.012671 -24987.600000 0 0 1
-15.675276 -1.843290 25.481063 29.973265 0.117055 0.554571 0.067480 -0.010663 26872.500000 0 0 1
-14.749776 -1.393490 24.513003 28.642364 0.094196 0.543642 0.058195 -0.012349 107990.000000 0 0 1
-14.726876 0.144910 24.634363 28.701110 -0.009840 0.538835 0.048379 -0.002997 340419.000000 0 0 1
-15.786576 0.714310 23.853753 28.613420 -0.045217 0.585101 0.051341 -0.012060 207067.000000 0 0 1
-16.195476 1.915410 24.412553 29.358730 -0.117721 0.588947 0.036541 -0.008287 -359377.000000 0 0 1
-16.865976 2.815510 23.340473 28.933820 -0.165409 0.632276 0.056864 -0.011088 153331.000000 0 0 1
-15.959576 3.229610 22.315183 27.624371 -0.199666 0.630373 0.063578 -0.012529 643794.000000 0 0 1
-16.564176 4.204110 21.478483 27.447618 -0.248559 0.672083 0.074030 -0.016516 15801.200000 0 0 1
-15.497376 4.742110 20.524183 26.151451 -0.296947 0.668391 0.073531 -0.008923 -256646.000000 0 0 1
-14.513176 5.580110 21.071883 26.187672 -0.367061 0.635712 0.067738 -0.013144 -655072.000000 0 0 1
-13.593376 5.687310 20.046383 24.879366 -0.396257 0.633867 0.062394 -0.009153 -949224.000000 0 1 0
-12.406376 6.610410 20.334883 24.720906 -0.489560 0.604866 0.050505 -0.005742 -296749.000000 0 1 0
-12.794176 7.929110 20.595483 25.509521 -0.554811 0.631124 0.056902 -0.004999 18367.900000 0 0 1
-11.721476 8.851110 20.541483 25.252479 -0.646769 0.620747 0.038763 -0.000324 -5095.940000 0 0 1
-12.177776 10.298210 20.606683 26.057375 -0.701967 0.658649 0.032352 -0.001296 -173759.000000 0 0 1
-12.548876 10.844110 19.403183 25.525527 -0.712652 0.707255 0.040154 -0.008440 -34239.600000 0 0 1
-13.035576 12.112010 19.642683 26.504001 -0.748689 0.736057 0.023157 -0.001609 -350764.000000 0 0 1
-13.507176 12.856610 18.357283 26.167271 -0.760727 0.793246 0.034341 -0.010989 -244523.000000 0 0 1
-12.448276 13.520310 17.705283 25.519315 -0.826657 0.804045 0.026922 -0.013428 -87347.100000 0 0 1
-12.200276 14.832310 18.182983 26.447402 -0.882457 0.812735 0.031503 -0.013477 -1001870.000000 0 0 1
-13.094376 16.009610 17.819483 27.300262 -0.885231 0.859624 0.029425 -0.016977 -450901.000000 0 0 1
-13.158476 16.394710 16.435483 26.684399 -0.894469 0.907242 0.006161 -0.016412 -92876.300000 0 0 1
-13.727276 15.415310 15.603183 25.875263 -0.843257 0.923521 0.031038 -0.013121 -440094.000000 0 0 1
-13.811276 15.901310 14.101883 25.346916 -0.855624 0.980804 0.007404 -0.021825 -476546.000000 0 0 1
-14.920776 16.687610 13.850483 26.323788 -0.841238 1.016720 0.018634 -0.021656 -646930.000000 0 0 1
-15.258476 16.888110 12.494083 25.964042 -0.836049 1.068765 0.002854 -0.010978 425125.000000 0 0 1
-16.422676 17.920110 12.267783 27.227434 -0.828973 1.103396 0.033823 -0.021281 108954.000000 0 0 1
-17.631376 17.426810 12.774083 27.887925 -0.779563 1.094995 0.064422 -0.028228 389578.000000 0 0 1
-18.683576 18.444410 12.870483 29.239043 -0.778957 1.114996 0.085300 -0.031584 1211850.000000 0 0 1
-20.035476 17.814610 13.286383 29.921708 -0.726790 1.110696 0.103610 -0.028643 476599.000000 0 0 1
-20.710676 17.110610 12.218683 29.512732 -0.690498 1.143937 0.116996 -0.033207 -186409.000000 0 0 1
-21.983676 16.649210 12.571583 30.307143 -0.648185 1.143067 0.162050 -0.042751 -313499.000000 0 0 1
-22.820876 16.025910 11.477783 30.155625 -0.612233 1.180331 0.150937 -0.037620 -214667.000000 0 0 1
-22.344776 14.777910 10.951683 28.941580 -0.584319 1.182722 0.133225 -0.033220 368845.000000 0 0 1
-23.160376 14.287610 9.853083 28.941702 -0.552753 1.223405 0.148734 -0.025662 449881.000000 0 0 1
-22.556976 13.066910 9.073083 27.602213 -0.525048 1.235861 0.161623 -0.024499 -321846.000000 0 0 1
-22.578476 11.807010 9.667283 27.251595 -0.481825 1.208158 0.151528 -0.029517 498563.000000 0 0 1
-23.822876 11.202510 9.997083 28.159676 -0.439559 1.207867 0.181098 -0.026575 296538.000000 0 0 1
-24.794876 10.694410 8.934183 28.442502 -0.407208 1.251273 0.205429 -0.025466 -189673.000000 0 0 1
-25.311716 11.711710 8.042283 29.026289 -0.433364 1.290054 0.211126 -0.027958 842983.000000 0 0 1
-26.372606 11.199410 7.212283 29.545866 -0.401583 1.324200 0.237931 -0.032932 121538.000000 0 0 1
-26.831966 12.336210 6.225783 30.181068 -0.430939 1.363024 0.204938 -0.027929 -554645.000000 0 0 1
-25.994626 12.571810 5.161683 29.332814 -0.450467 1.393906 0.214838 -0.040974 1074830.000000 0 0 1
-24.652876 13.080610 5.369983 28.420123 -0.487820 1.380704 0.205675 -0.046641 668801.000000 0 0 1
-24.613276 14.636010 5.703383 29.198540 -0.536468 1.374201 0.194227 -0.038036 -987663.000000 0 0 1
-23.343576 15.212210 5.720783 28.444002 -0.577545 1.368291 0.161903 -0.042268 -147441.000000 0 0 1
-23.523076 16.558510 6.156783 29.418113 -0.613356 1.359952 0.158947 -0.044236 39122.100000 0 0 1
-22.210376 17.346710 6.319883 28.881657 -0.663059 1.350191 0.141956 -0.033077 -42764.900000 0 0 1
-21.513876 17.586610 5.123883 28.255794 -0.685294 1.388448 0.151161 -0.047826 1794870.000000 0 0 1
-20.150276 18.072010 5.307383 27.582594 -0.731079 1.377171 0.134228 -0.036621 855577.000000 0 0 1
-19.526076 18.531810 4.037483 27.221259 -0.759279 1.421926 0.120302 -0.035139 -87684.900000 0 0 1
-18.139976 18.799110 4.254083 26.468142 -0.803240 1.409372 0.100196 -0.037841 768122.000000 0 0 1
-17.546676 19.700610 3.307883 26.588381 -0.843162 1.446062 0.107465 -0.046763 88594.500000 0 0 1
-17.811976 21.224510 3.562383 27.936301 -0.872596 1.442930 0.117575 -0.046437 -232950.000000 0 0 1
-17.259876 21.658910 4.792783 28.106627 -0.897952 1.399437 0.083965 -0.042489 227662.000000 0 0 1
-17.506676 23.028910 4.945983 29.347524 -0.920796 1.401457 0.061321 -0.037710 -420291.000000 0 0 1
-16.764276 23.555410 6.154883 29.559785 -0.952264 1.361044 0.029862 -0.010396 -19059.700000 0 0 1
-17.339176 23.033210 7.363583 29.755641 -0.925512 1.320730 0.028682 -0.007440 516860.000000 0 0 1
-16.441876 23.193910 8.444983 29.658229 -0.954130 1.282058 0.023448 -0.013471 241625.000000 0 0 1
-16.988076 22.444910 9.680883 29.767234 -0.922907 1.239553 0.003178 -0.004579 649130.000000 0 0 1
-18.029776 23.117610 10.396683 31.106073 -0.908423 1.230005 0.007211 -0.003535 173788.000000 0 0 1
-18.836476 22.252010 11.193283 31.229063 -0.868334 1.204216 0.016508 -0.008100 503521.000000 0 0 1
-20.070376 22.943010 11.877683 32.715151 -0.852084 1.199242 0.041796 -0.016172 704910.000000 0 0 1
-21.016476 23.499910 10.939183 33.370703 -0.841127 1.236814 0.076087 -0.013208 307263.000000 0 0 1
-20.562076 24.694510 10.361383 33.763532 -0.876457 1.258882 0.029292 -0.003757 -698414.000000 0 0 1
-21.703476 25.494510 9.691783 34.856013 -0.865548 1.289031 0.058268 -0.010701 97944.800000 0 0 1
-22.483576 26.161310 10.655183 36.103439 -0.860858 1.271205 0.086037 -0.032316 125414.000000 0 0 1
-23.233276 27.272710 10.093983 37.221961 -0.865208 1.296174 0.097622 -0.027075 -28173.800000 0 0 1
-24.084776 27.917910 11.182483 38.529652 -0.858975 1.276329 0.104634 -0.028989 -342843.000000 0 0 1
-23.352276 28.485710 12.232183 38.812251 -0.884105 1.250168 0.112715 -0.030377 -130524.000000 0 0 1
-24.225076 29.313310 12.949783 40.172396 -0.880153 1.242580 0.101228 -0.026108 -461199.000000 0 0 1
9.527324 -32.666113 27.802883 43.941383 -1.287010 0.885727 0.045132 -0.026385 277460.000000 0 0 1
10.890524 -32.437813 27.453303 43.869113 -1.246885 0.894639 0.053873 -0.041915 736854.000000 0 0 1
11.016924 -32.325213 26.045283 42.949374 -1.242327 0.919248 0.062503 -0.033927 -684912.000000 0 0 1
12.448824 -32.250413 25.519933 42.968934 -1.202412 0.934879 0.055985 -0.029869 -676439.000000 0 0 1
13.100224 -33.492513 25.589603 44.138329 -1.197952 0.952363 0.080870 -0.050953 -287752.000000 0 0 1
14.479424 -33.200313 25.493813 44.292764 -1.159542 0.957489 0.095799 -0.039270 -146174.000000 0 0 1
15.364924 33.202010 25.296233 44.478689 1.137373 0.965839 0.119906 -0.039038 -376746.000000 0 0 1
15.390424 32.576010 23.998423 43.289559 1.129433 0.983191 0.104184 -0.048895 195393.000000 0 0 1
16.316924 31.522410 23.890173 42.786034 1.093145 0.978384 0.108907 -0.040820 -395030.000000 0 0 1
16.505524 30.917610 22.509483 41.653425 1.080433 0.999885 0.104548 -0.045090 183754.000000 0 0 1
15.438824 30.059410 22.102983 40.379045 1.096320 0.991557 0.105635 -0.038684 230189.000000 0 0 1
15.658024 28.659010 22.395383 39.598810 1.070755 0.969688 0.102291 -0.032889 52795.200000 0 0 1
15.184924 28.116810 23.797403 39.842858 1.075612 0.930689 0.107926 -0.039861 -341870.000000 0 0 1
15.973224 28.583110 24.859213 41.111052 1.061196 0.921427 0.099981 -0.033662 159459.000000 0 0 1
15.400824 28.277610 26.083463 41.438577 1.072086 0.889953 0.100347 -0.033894 -761523.000000 0 0 1
16.333024 28.669810 27.198973 42.761079 1.052959 0.881404 0.105858 -0.036412 -288115.000000 0 0 1
16.391124 30.040010 27.520553 43.914144 1.071304 0.893498 0.116115 -0.054745 341419.000000 0 0 1
17.412424 30.304410 28.467863 45.077367 1.049275 0.887267 0.137574 -0.052476 151186.000000 0 0 1
17.302524 31.774410 29.048153 46.398122 1.072153 0.894302 0.139218 -0.054066 -82455.000000 0 0 1
17.763424 32.745210 28.139933 46.686656 1.073750 0.923865 0.133483 -0.051615 104687.000000 0 0 1
17.207524 -33.652513 28.421153 47.290088 -1.098126 0.926050 0.134228 -0.037254 -4112.230000 0 0 1
17.943924 -32.555413 27.600623 46.299392 -1.067047 0.932120 0.118616 -0.038011 -675973.000000 0 0 1
17.838724 -32.657013 26.181233 45.498984 -1.070841 0.957673 0.136423 -0.036502 45878.600000 0 0 1
18.385324 -31.547513 25.464963 44.516626 -1.043133 0.961814 0.142600 -0.038956 -46377.500000 0 0 1
19.888324 -31.240513 25.661403 45.055773 -1.003885 0.964841 0.133763 -0.037207 -440841.000000 0 0 1
20.240624 -30.484313 26.802043 45.357752 -0.984664 0.938618 0.124867 -0.034560 -296240.000000 0 0 1
21.293824 -29.614813 26.539113 45.108631 -0.947415 0.941795 0.125168 -0.033710 -386617.000000 0 0 1
21.571624 -28.706113 27.725133 45.365834 -0.926359 0.913289 0.126282 -0.029756 -646741.000000 0 0 1
20.591824 -27.729013 27.793053 44.332552 -0.932042 0.893200 0.143619 -0.033750 -183014.000000 0 0 1
20.728824 -26.818113 28.900853 44.543850 -0.912774 0.864766 0.153872 -0.028965 -537639.000000 0 0 1
19.349124 -26.330213 29.335283 43.911588 -0.937053 0.839207 0.144142 -0.034739 -193589.000000 0 0 1
18.537524 -25.639613 28.436433 42.540102 -0.944798 0.838658 0.142542 -0.037127 637742.000000 0 0 1
17.215824 -25.454713 28.938923 42.211234 -0.976133 0.815404 0.123954 -0.030362 604243.000000 0 0 1
16.132724 -24.874113 27.989903 40.772796 -0.995424 0.814153 0.129484 -0.032053 -349578.000000 0 0 1
15.441924 -25.783913 27.174703 40.518238 -1.031188 0.835673 0.127015 -0.028507 205003.000000 0 0 1
14.741724 -25.199013 26.107103 39.164901 -1.041470 0.841166 0.134943 -0.040759 -2209950.000000 0 0 1
13.368224 -24.662913 26.378053 38.506757 -1.074087 0.816160 0.076481 -0.033175 -1184420.000000 0 0 1
12.374824 -25.582013 26.802183 39.063188 -1.120248 0.814649 0.077415 -0.027380 356912.000000 0 0 1
12.076324 -26.533513 25.793603 38.925247 -1.143681 0.846452 0.052008 -0.030111 -1288190.000000 0 0 1
11.128824 -27.658613 26.294803 39.752563 -1.188254 0.848030 0.070584 -0.028747 -365228.000000 0 0 1
9.808924 -27.271613 26.523083 39.286509 -1.225528 0.829670 0.044058 -0.039172 -900454.000000 0 0 1
9.020524 -28.407213 26.669033 39.994711 -1.263323 0.840871 0.028881 -0.034759 -963665.000000 0 0 1
7.520324 -28.114913 26.664653 39.471601 -1.309430 0.829099 0.038248 -0.035754 -726377.000000 0 0 1
6.989824 -27.930913 25.405913 38.398619 -1.325579 0.847798 0.052944 -0.039770 -153582.000000 0 0 1
7.356224 -26.699213 24.739413 37.134897 -1.301945 0.841689 0.065441 -0.033314 -1367180.000000 0 0 1
6.278024 -26.342313 23.742883 36.014657 -1.336836 0.850967 0.056655 -0.021494 -1031200.000000 0 0 1
6.020124 -27.150313 22.614583 35.844117 -1.352594 0.888065 0.065731 -0.016443 23360.100000 0 0 1
5.441624 -28.454613 22.909033 36.933725 -1.381839 0.901704 0.061484 -0.027292 716778.000000 0 0 1
3.986424 -28.441613 23.551963 37.141781 -1.431542 0.883940 0.106951 -0.028259 260083.000000 0 0 1
2.985024 -28.233313 22.529983 36.244040 -1.465461 0.899988 0.127231 -0.026865 60158.900000 0 0 1
1.696324 -28.235113 23.068983 36.500371 -1.510790 0.886639 0.153001 -0.024724 -578078.000000 0 0 1
1.243124 -26.869113 23.562683 35.758840 -1.524563 0.851397 0.134108 -0.028694 -846099.000000 0 0 1
1.842324 -26.532313 24.797503 36.363085 -1.501471 0.820382 0.099317 -0.024965 183655.000000 0 0 1
1.564924 -25.207913 25.188743 35.670164 -1.508795 0.786740 0.093624 -0.015106 -107075.000000 0 0 1
2.716324 -24.654113 26.057223 35.974749 -1.461062 0.760749 0.092016 -0.016203 -153052.000000 0 0 1
3.946524 -24.518713 25.376203 35.506253 -1.411205 0.774606 0.088689 -0.018653 437219.000000 0 0 1
5.006224 -23.834713 26.052443 35.663505 -1.363767 0.751732 0.062387 -0.015982 469194.000000 0 0 1
4.727224 -22.359413 26.420803 34.933491 -1.362445 0.713131 0.065964 -0.018116 -632634.000000 0 0 1
4.814824 -21.523813 25.290263 33.556735 -1.350722 0.717188 0.063584 -0.016067 271756.000000 0 0 1
4.370824 -20.218013 25.650063 32.951447 -1.357888 0.678652 0.083238 -0.030619 -108384.000000 0 0 1
4.390124 -19.174313 24.468933 31.395161 -1.345717 0.677112 0.089892 -0.030052 -96856.200000 0 0 1
5.660824 -18.710913 24.093463 31.026410 -1.277010 0.681630 0.062056 -0.016940 -125628.000000 0 0 1
5.513424 -17.919113 22.888053 29.586406 -1.272305 0.686293 0.065639 -0.012730 331325.000000 0 0 1
6.902124 -17.413513 22.440883 29.231199 -1.193427 0.695547 0.094263 -0.017682 -574263.000000 0 0 1
7.575424 -18.329713 21.664883 29.372310 -1.178889 0.741294 0.102104 -0.017283 22678.800000 0 0 1
8.802424 -17.834913 21.136483 29.022710 -1.112322 0.754997 0.091276 -0.017534 1457210.000000 0 0 1
10.102924 -17.689113 22.036283 30.009524 -1.051869 0.746147 0.108484 -0.017461 378843.000000 0 0 1
10.008524 -16.730513 23.152053 30.267114 -1.031687 0.699872 0.121912 -0.016031 401015.000000 0 0 1
11.294424 -16.761813 23.765783 31.198314 -0.977859 0.704763 0.123723 -0.014275 422806.000000 0 0 1
11.453624 -16.029713 25.116693 31.921552 -0.950389 0.665148 0.132632 -0.029390 -64096.400000 0 0 1
11.465024 -14.621813 24.963733 31.119642 -0.905823 0.639849 0.159354 -0.029670 136631.000000 0 0 1
11.285624 -13.967313 26.181143 31.747494 -0.891195 0.601181 0.144140 -0.021074 -169697.000000 0 0 1
11.379424 -12.452213 26.185243 31.148288 -0.830383 0.572288 0.161986 -0.019502 266707.000000 0 0 1
10.227024 -11.825913 25.646133 30.036118 -0.857774 0.547472 0.172017 -0.017683 234163.000000 0 0 1
10.349724 -10.399613 25.596953 29.503775 -0.787803 0.520477 0.171524 -0.012241 188902.000000 0 0 1
9.243624 -9.850813 24.642003 28.101804 -0.817187 0.501457 0.158632 -0.012827 1180360.000000 0 0 1
8.000324 -9.710113 25.372653 28.320717 -0.881641 0.460334 0.128270 -0.012281 625419.000000 0 0 1
7.090324 -8.904713 24.641183 27.143222 -0.898350 0.432738 0.113847 -0.017806 710719.000000 0 0 1
5.621224 -8.955813 25.179383 27.309450 -1.010285 0.397575 0.082517 -0.019320 -399880.000000 0 0 1
5.346224 -7.999613 26.224623 27.933972 -0.981657 0.351645 0.082986 -0.009616 496350.000000 0 0 1
4.012124 -7.895313 26.720873 28.150278 -1.100638 0.320042 0.068066 -0.014772 1073060.000000 0 0 1
2.804924 -7.893313 25.743863 27.072467 -1.229359 0.314587 0.047333 -0.015121 -585404.000000 0 0 1
2.838524 -6.789513 24.961403 26.023573 -1.174806 0.286693 0.056106 -0.018767 -88798.600000 0 0 1
1.672124 -6.682413 24.179473 25.141551 -1.325604 0.277536 0.049535 -0.024883 234069.000000 0 0 1
1.808724 -5.379713 23.351443 24.031286 -1.246457 0.238429 0.045049 -0.032418 65830.500000 0 1 0
1.615224 -4.204513 24.117813 24.534787 -1.204015 0.184627 0.060039 -0.028561 40735.600000 0 1 0
2.169424 -3.093113 23.476803 23.778857 -0.959150 0.159559 0.059073 -0.026972 -902913.000000 0 1 0
1.234124 -2.524313 22.421283 22.596663 -1.116072 0.124670 0.047417 -0.029624 -103343.000000 0 1 0
0.102724 -1.787313 22.794413 22.864608 -1.513386 0.078379 0.046008 -0.033453 -292109.000000 0 1 0
-0.984376 -2.502313 23.317833 23.472365 1.196004 0.114811 0.043862 -0.031577 -1172010.000000 0 1 0
-2.092976 -1.604313 23.782143 23.927906 0.653992 0.110435 0.051043 -0.045508 -624365.000000 0 1 0
-1.728176 -0.810313 24.905503 24.978537 0.438446 0.076489 0.061511 -0.041023 -361572.000000 0 1 0
-2.614776 0.217687 25.166853 25.303260 -0.083061 0.103882 0.057689 -0.039853 -663504.000000 0 0 1
-2.182376 1.194687 26.292773 26.410225 -0.500864 0.094345 0.094804 -0.040971 -528652.000000 0 0 1
-2.371176 0.704687 27.647163 27.757606 -0.288876 0.089235 0.125734 -0.034325 -65200.900000 0 0 1
-1.606676 -0.394313 28.090823 28.139496 0.240665 0.058825 0.122010 -0.037379 -501915.000000 0 0 1
-0.203776 0.015687 28.632323 28.633053 -0.076832 0.007138 0.137131 -0.034317 483537.000000 0 0 1
0.739924 0.593687 27.727383 27.743607 0.676180 0.034200 0.095203 -0.031634 111768.000000 0 0 1
1.289124 -0.259313 26.779933 26.812197 -0.198505 0.049063 0.084121 -0.034727 96173.500000 0 0 1
2.631424 -1.026313 27.103383 27.250158 -0.371875 0.103837 0.096918 -0.034564 286236.000000 0 0 1
2.466124 -1.843313 28.248483 28.415777 -0.641869 0.108565 0.112151 -0.036582 -333675.000000 0 0 1
3.468124 -2.804913 28.427723 28.775525 -0.680065 0.155635 0.115379 -0.026207 -36639.800000 0 0 1
3.907024 -3.740313 27.251393 27.782966 -0.763602 0.195930 0.111429 -0.031483 -336244.000000 0 0 1
4.869124 -3.152713 26.415163 27.044571 -0.574609 0.216166 0.107678 -0.025013 -353752.000000 0 0 1
5.354824 -4.122413 25.506643 26.386687 -0.656085 0.258994 0.096806 -0.019099 -834433.000000 0 0 1
6.692424 -3.696213 24.932023 26.077889 -0.504606 0.297542 0.082669 -0.019751 557685.000000 0 0 1
7.898924 -3.764613 25.783523 27.227842 -0.444751 0.327174 0.097851 -0.024743 1555030.000000 0 0 1
8.474424 -5.028213 25.964053 27.771043 -0.535508 0.362727 0.117129 -0.016339 -520167.000000 0 0 1
9.363724 -5.483413 24.803473 27.073223 -0.529765 0.412397 0.106609 -0.020333 -542470.000000 0 0 1
8.649224 -5.841813 23.650363 25.851026 -0.594034 0.415607 0.100113 -0.017923 20861.800000 0 0 1
9.424224 -5.659813 22.462683 25.008431 -0.540831 0.455129 0.103233 -0.019941 236619.000000 0 0 1
9.435424 -4.287213 21.854983 24.187759 -0.426486 0.442800 0.106896 -0.020957 413178.000000 0 1 0
8.131424 -3.926913 21.425283 23.250451 -0.449899 0.398872 0.077417 -0.020850 -8796.220000 0 1 0
8.146024 -2.790513 20.514483 22.248341 -0.330033 0.397406 0.070838 -0.025177 174802.000000 0 1 0
6.747424 -2.160313 20.359983 21.557449 -0.309856 0.334872 0.060950 -0.011017 115784.000000 0 1 0
6.177024 -1.496313 21.450183 22.371968 -0.237660 0.288058 0.068192 -0.016596 553540.000000 0 1 0
4.872124 -0.999313 21.122383 21.700030 -0.202302 0.231251 0.024746 -0.013880 530696.000000 0 1 0
4.308024 -0.198313 22.329383 22.742026 -0.046001 0.190786 0.026585 -0.026846 632991.000000 0 1 0
2.971724 0.325687 22.230583 22.430694 0.109160 0.133676 0.027198 -0.025514 825670.000000 0 1 0
2.552324 0.817687 23.536623 23.688723 0.310038 0.113381 0.043225 -0.025939 421513.000000 0 1 0
1.124324 1.427687 23.605973 23.675818 0.903715 0.076831 0.048222 -0.031403 323486.000000 0 1 0
0.980624 2.704687 22.974493 23.153926 1.222972 0.124576 0.043466 -0.032051 -306463.000000 0 1 0
-0.384076 3.002687 22.926693 23.125676 -1.443576 0.131277 0.037844 -0.035049 -257157.000000 0 1 0
-0.902476 4.415687 22.518183 22.964785 -1.369193 0.197538 0.050045 -0.027431 -43646.000000 0 1 0
-0.664976 5.422687 23.464443 24.092070 -1.448777 0.228758 0.067923 -0.029074 92772.900000 0 1 0
-1.470976 6.525687 23.057083 24.007862 -1.349089 0.282372 0.069469 -0.030540 -159016.000000 0 1 0
-1.267276 7.899687 23.839403 25.146137 -1.411731 0.323796 0.093463 -0.032247 430385.000000 0 0 1
-0.019376 8.487687 23.491253 24.977594 -1.568513 0.346718 0.081202 -0.028399 251616.000000 0 1 0
0.002624 9.737687 24.103323 25.996014 1.570527 0.383948 0.106136 -0.029797 79580.800000 0 0 1
0.844624 10.832687 23.305643 25.714072 1.492984 0.436261 0.111074 -0.033339 458019.000000 0 0 1
2.239424 10.812687 23.449663 25.919412 1.366573 0.440088 0.089721 -0.026939 -354699.000000 0 0 1
2.813024 11.341687 24.622953 27.255033 1.327677 0.443098 0.119367 -0.031499 266200.000000 0 0 1
4.146124 12.137687 24.409083 27.573849 1.241632 0.483817 0.100552 -0.032677 1308440.000000 0 0 1
5.381924 11.516687 24.021443 27.177729 1.133637 0.486734 0.081309 -0.022159 855987.000000 0 0 1
5.366324 10.761687 22.790683 25.768713 1.108229 0.485520 0.091423 -0.025582 -677130.000000 0 0 1
6.755124 10.443687 22.187283 25.435759 0.996664 0.510936 0.081669 -0.019182 13906.700000 0 0 1
7.561824 11.470687 21.696583 25.680724 0.987960 0.564495 0.067682 -0.017002 -880754.000000 0 0 1
8.714324 10.925687 21.182583 25.377390 0.897521 0.583203 0.071162 -0.011406 -664060.000000 0 0 1
9.662224 11.978687 20.586583 25.703209 0.892033 0.641942 0.064588 -0.024705 -621748.000000 0 0 1
9.046724 12.604687 19.496483 24.916545 0.948272 0.672171 0.072097 -0.024281 33395.500000 0 1 0
9.826124 13.584687 18.832583 25.214334 0.944588 0.727409 0.083855 -0.023500 329410.000000 0 0 1
11.120824 13.095687 18.084783 24.944521 0.866768 0.759762 0.081077 -0.022286 624168.000000 0 1 0
12.133624 12.830687 19.075783 25.994939 0.813313 0.746858 0.076415 -0.022314 206983.000000 0 0 1
13.344724 12.553687 18.364183 25.940701 0.754864 0.784234 0.070404 -0.021802 800704.000000 0 0 1
14.540524 12.126687 19.295483 27.033295 0.695127 0.775934 0.073432 -0.012560 584528.000000 0 0 1
15.064624 13.259687 20.000583 28.333470 0.721760 0.787104 0.072703 -0.014432 714867.000000 0 0 1
16.258324 12.815687 20.699983 29.275660 0.667538 0.785448 0.076599 -0.015489 1080830.000000 0 0 1
17.067624 14.030687 21.272283 30.670409 0.688051 0.804354 0.077606 -0.015257 -132462.000000 0 0 1
16.469224 14.761687 22.317783 31.420156 0.730778 0.780870 0.087244 -0.020740 -36514.500000 0 0 1
17.272524 15.808687 22.819793 32.695529 0.741177 0.798268 0.095047 -0.021233 -182390.000000 0 0 1
-21.766476 12.517510 -24.139656 34.830885 -0.521896 2.336512 0.056319 -0.009702 29912.400000 0 0 1
-21.779476 12.478910 -25.574776 35.834871 -0.520305 2.365540 0.062913 -0.026621 -1910.220000 0 0 1
-22.220876 13.682210 -26.152416 36.944812 -0.551910 2.357286 0.075970 -0.024452 -13475.100000 0 0 1
-21.993276 13.821110 -27.693836 37.969407 -0.561058 2.388200 0.071713 -0.016552 881388.000000 0 0 1
-20.634676 14.116410 -28.066006 37.586748 -0.599982 2.413883 0.078402 -0.025354 661184.000000 0 0 1
-20.679576 14.931810 -29.170496 38.749473 -0.625376 2.423098 0.090392 -0.027040 -485949.000000 0 0 1
-19.305876 15.517010 -29.471646 38.497694 -0.677021 2.442681 0.076342 -0.024798 -537223.000000 0 0 1
-18.434676 14.488310 -29.927196 38.018226 -0.666101 2.477020 0.076843 -0.017465 -669594.000000 0 0 1
-17.113676 14.930010 -29.995786 37.623534 -0.717357 2.493541 0.072899 -0.022629 194155.000000 0 0 1
-16.188976 14.358810 -28.828926 36.046711 -0.725558 2.497701 0.086609 -0.017567 507509.000000 0 0 1
-16.807776 14.539310 -27.530356 35.380975 -0.713158 2.462451 0.095061 -0.033188 74181.500000 0 0 1
-17.323276 13.351610 -26.933086 34.695137 -0.656638 2.459537 0.095738 -0.024466 106301.000000 0 0 1
-17.992676 13.653410 -25.553886 34.105031 -0.649129 2.417756 0.091414 -0.029915 206889.000000 0 0 1
-17.035576 14.071710 -24.585156 33.055314 -0.690406 2.409471 0.126591 -0.046325 199545.000000 0 0 1
-17.653876 14.682710 -23.522656 32.871822 -0.693773 2.368261 0.106287 -0.039153 -482550.000000 0 0 1
-16.625076 15.311610 -22.596556 31.960021 -0.744294 2.356080 0.099158 -0.039347 11165.800000 0 0 1
-16.102976 16.524810 -23.174556 32.702221 -0.798326 2.358385 0.088537 -0.039500 -624941.000000 0 0 1
-15.100776 17.033010 -22.349056 31.900426 -0.845457 2.347018 0.089414 -0.034757 -780163.000000 0 0 1
-15.053976 18.619410 -22.372356 32.769299 -0.890888 2.322279 0.088254 -0.033454 856161.000000 0 0 1
-16.292576 19.258810 -22.002156 33.473044 -0.868640 2.288040 0.056757 -0.031114 759153.000000 0 0 1
-17.257276 19.225410 -23.032956 34.611372 -0.839293 2.298925 0.031896 -0.029310 652895.000000 0 0 1
-18.659576 19.900310 -22.746656 35.519185 -0.817564 2.265822 0.030608 -0.022117 1236350.000000 0 0 1
-18.515776 21.292110 -22.875656 36.324697 -0.855029 2.252034 0.026704 -0.018886 -277035.000000 0 0 1
-19.821776 21.772010 -23.027956 37.379273 -0.832251 2.234530 0.069599 -0.035570 -341908.000000 0 0 1
-19.941476 23.308310 -23.236156 38.481928 -0.863088 2.219081 0.057466 -0.034261 -319206.000000 0 0 1
-19.367576 24.058510 -22.204256 38.038716 -0.893002 2.194109 0.055616 -0.039080 7444.990000 0 0 1
-18.498176 25.033910 -22.760156 38.560393 -0.934421 2.202161 0.050532 -0.026317 -223090.000000 0 0 1
-17.231176 25.418210 -21.921856 37.730182 -0.975052 2.190773 0.057314 -0.033423 199428.000000 0 0 1
-16.195776 24.455710 -21.939056 36.629321 -0.985858 2.212983 0.076563 -0.044749 -98769.800000 0 0 1
-16.524976 23.124810 -21.527756 35.654957 -0.950339 2.219031 0.075303 -0.028842 -2003050.000000 0 0 1
-15.317076 22.212910 -21.344956 34.403973 -0.967113 2.240076 0.112558 -0.035031 -468179.000000 0 0 1
-14.471476 22.720810 -20.339956 33.754595 -1.003667 2.217531 0.144760 -0.051619 -350069.000000 0 0 1
-13.597976 21.692410 -19.939256 32.450571 -1.010865 2.232485 0.134491 -0.046728 -41367.100000 0 0 1
-12.740276 21.998910 -18.676956 31.545133 -1.045862 2.204423 0.138137 -0.050020 65348.900000 0 0 1
-13.438976 22.009110 -17.464256 31.144940 -1.022612 2.166077 0.147901 -0.046786 102937.000000 0 0 1
-14.116076 23.259410 -17.189956 32.183200 -1.025321 2.134273 0.154056 -0.054197 473104.000000 0 0 1
-14.842376 23.385010 -15.812556 31.893444 -1.005255 2.089544 0.153241 -0.061777 232442.000000 0 0 1
-13.878476 23.419210 -14.777056 30.974714 -1.035828 2.068112 0.153672 -0.064966 51645.800000 0 0 1
-14.450676 23.527010 -13.495456 30.732224 -1.019989 2.025427 0.148105 -0.051193 -216863.000000 0 0 1
-13.494376 24.020410 -12.378556 30.204420 -1.058948 1.993060 0.168616 -0.050071 -161853.000000 0 0 1
-13.145576 25.381610 -12.399156 31.157205 -1.092918 1.980083 0.155813 -0.061911 496517.000000 0 0 1
-12.464076 25.749310 -11.160556 30.707299 -1.119986 1.942764 0.097765 -0.054256 -531278.000000 0 0 1
-11.870876 27.146010 -11.166656 31.662562 -1.158556 1.931227 0.115666 -0.045912 771242.000000 0 0 1
-10.794776 27.351510 -12.127856 31.807503 -1.194895 1.961987 0.121075 -0.036769 753815.000000 0 0 1
-10.876776 28.659810 -12.528656 33.115800 -1.208075 1.958786 0.100765 -0.042162 -198890.000000 0 0 1
-10.186776 28.947810 -13.929056 33.701109 -1.232429 1.996884 0.135695 -0.050164 710514.000000 0 0 1
-8.779576 28.802210 -14.001956 33.206973 -1.274921 2.006068 0.120126 -0.044683 90422.800000 0 0 1
-8.289976 27.476810 -14.162256 32.004192 -1.277773 2.029195 0.124855 -0.051009 290049.000000 0 0 1
-6.890976 27.393010 -14.840656 31.907799 -1.324350 2.054556 0.133635 -0.051077 698423.000000 0 0 1
-5.811676 27.885110 -14.071156 31.770307 -1.365323 2.029630 0.110711 -0.048092 -193048.000000 0 0 1
-4.615576 27.863210 -14.819756 31.894940 -1.406636 2.054028 0.112725 -0.047402 354439.000000 0 0 1
-3.470376 28.767510 -14.271856 32.300140 -1.450741 2.028458 0.086517 -0.036654 140281.000000 0 0 1
-3.506676 30.157110 -14.423956 33.612477 -1.455036 2.014320 0.072090 -0.025939 12796.600000 0 0 1
-4.345876 30.854210 -13.491056 33.954050 -1.430865 1.979405 0.057170 -0.030628 321942.000000 0 0 1
-4.436176 32.394110 -13.769556 35.477581 -1.434699 1.969387 0.055274 -0.031048 -228853.000000 0 0 1
-3.361276 33.149710 -13.319256 35.883200 -1.469745 1.951080 0.031773 -0.027514 -497275.000000 0 0 1
-3.578176 -33.118013 -13.622856 35.988725 1.463171 1.959005 0.029411 -0.016453 663010.000000 0 0 1
-2.663876 -32.118013 -12.814556 34.682500 1.488045 1.949248 0.036271 -0.022727 108372.000000 0 0 1
-3.012376 -32.168913 -11.450456 34.278656 1.477426 1.911383 0.033323 -0.031579 7347.890000 0 0 1
-2.319676 -31.271213 -10.621456 33.107174 1.496753 1.897392 0.030541 -0.031470 -358150.000000 0 0 1
-2.618476 -31.427313 -9.147356 32.836055 1.487670 1.853108 0.032481 -0.026617 -704828.000000 0 0 1
-1.802976 -30.632113 -8.385756 31.810343 1.512005 1.837567 0.034670 -0.023654 -414602.000000 0 0 1
-1.957376 -30.987113 -6.980056 31.823791 1.507713 1.791929 0.039237 -0.034198 437950.000000 0 0 1
-0.730176 -30.504813 -6.127856 31.122779 1.546864 1.768984 0.057573 -0.031817 321757.000000 0 0 1
-0.893276 -30.481813 -4.759956 30.864154 1.541499 1.725637 0.082765 -0.041071 -611552.000000 0 0 1
0.233924 -29.918613 -4.156256 30.206830 -1.562978 1.708827 0.070803 -0.031027 -471315.000000 0 0 1
0.338424 -29.898913 -2.605956 30.014172 -1.559478 1.657730 0.074144 -0.031498 -308832.000000 0 0 1
0.328724 -31.128713 -1.851356 31.185450 -1.560237 1.630197 0.087387 -0.033590 -289292.000000 0 0 1
1.223724 -32.169513 -2.133056 32.263369 -1.532775 1.636958 0.073054 -0.030375 -78263.800000 0 0 1
2.740024 -32.038313 -1.898956 32.211290 -1.485481 1.629784 0.072709 -0.022511 -772773.000000 0 0 1
2.941324 -32.383913 -0.559756 32.522031 -1.480218 1.588009 0.067937 -0.019366 287437.000000 0 0 1
4.258924 -32.180713 -0.056456 32.461360 -1.439217 1.572536 0.061478 -0.017830 441272.000000 0 0 1
4.732924 -30.702713 0.079244 31.065470 -1.417847 1.568245 0.052614 -0.020665 -511591.000000 0 0 1
4.875724 -30.080813 -1.143056 30.494828 -1.410106 1.608289 0.060741 -0.026318 -153227.000000 0 0 1
4.880224 -28.683413 -0.875256 29.108775 -1.402269 1.600869 0.076620 -0.022777 -124148.000000 0 0 1
4.444924 -27.775013 -2.061256 28.203855 -1.412109 1.643946 0.072751 -0.021971 1618780.000000 0 0 1
3.029224 -27.944413 -2.411656 28.211389 -1.462816 1.656386 0.084951 -0.026434 1751010.000000 0 0 1
2.483624 -26.953713 -3.306956 27.269158 -1.478912 1.692366 0.094366 -0.032862 152271.000000 0 0 1
2.928624 -27.090413 -4.779556 27.664263 -1.463109 1.744438 0.080043 -0.026985 -239538.000000 0 0 1
2.501224 -28.232013 -5.456756 28.863105 -1.482432 1.760998 0.077402 -0.033981 -179047.000000 0 0 1
3.018124 -28.187813 -6.778156 29.147989 -1.464131 1.805488 0.087634 -0.037808 -222960.000000 0 0 1
2.139524 -28.849713 -7.851956 29.975602 -1.496771 1.835833 0.071641 -0.029061 -554942.000000 0 0 1
0.857924 -28.301713 -7.981256 29.418080 -1.540492 1.845544 0.062209 -0.024739 -522288.000000 0 0 1
0.445124 -28.149713 -9.316656 29.654756 -1.554985 1.890379 0.068940 -0.020780 1709070.000000 0 0 1
-1.092176 -27.754713 -9.544056 29.370154 1.531466 1.901763 0.035481 -0.019309 1087560.000000 0 0 1
-1.262376 -26.382013 -9.201056 27.968976 1.522983 1.906013 0.035248 -0.016295 -100360.000000 0 0 1
-2.607276 -25.959613 -9.159056 27.651179 1.470696 1.908409 0.041242 -0.021469 729674.000000 0 0 1
-3.543376 -26.569313 -8.032756 27.982299 1.438215 1.861958 0.049257 -0.017490 -112496.000000 0 0 1
-3.172276 -26.157413 -6.706256 27.189105 1.450109 1.820021 0.062647 -0.022376 639576.000000 0 0 1
-2.051976 -26.876113 -6.131356 27.642893 1.494595 1.794462 0.061282 -0.023206 820181.000000 0 0 1
-1.854376 -26.698313 -4.594356 27.154129 1.501451 1.740810 0.078930 -0.028489 -180907.000000 0 0 1
-2.889176 -27.221813 -3.802356 27.637517 1.465058 1.708814 0.094752 -0.035716 -243746.000000 0 0 1
-2.608976 -27.104513 -2.440056 27.338896 1.474836 1.660167 0.099099 -0.027352 -244668.000000 0 0 1
-3.833876 -27.108613 -1.522856 27.420696 1.430302 1.626362 0.113400 -0.027842 -98182.600000 0 0 1
-4.717776 -26.023413 -1.611256 26.496633 1.391454 1.631644 0.101288 -0.025416 -564273.000000 0 0 1
-5.718976 -25.932413 -0.653156 26.563571 1.353737 1.595387 0.123480 -0.032850 -56822.500000 0 0 1
-6.649876 -24.713413 -1.006156 25.612223 1.307943 1.610091 0.091126 -0.029363 67690.800000 0 0 1
-6.180776 -23.433313 -0.664956 24.243851 1.312909 1.598228 0.088937 -0.036683 -221762.000000 0 1 0
-6.633176 -22.970813 0.573244 23.916226 1.289678 1.546825 0.092274 -0.023674 -383186.000000 0 1 0
-6.041776 -21.632613 0.916644 22.479173 1.298446 1.530008 0.067839 -0.021753 -261434.000000 0 1 0
-4.719576 -21.730013 1.371344 22.278879 1.356926 1.509204 0.060313 -0.025939 -400590.000000 0 1 0
-4.196376 -20.442213 1.638744 20.932728 1.368329 1.492430 0.035271 -0.023250 -131482.000000 0 1 0
-3.070076 -20.404213 2.672044 20.806179 1.421454 1.442015 0.036919 -0.013920 -466905.000000 0 1 0
-3.595876 -20.307813 3.995544 21.007188 1.395544 1.379432 0.017067 -0.001143 546684.000000 0 1 0
-2.659576 -20.364813 5.094544 21.160182 1.440935 1.327647 0.023276 0.001536 126277.000000 0 1 0
-1.794376 -21.585713 5.299144 22.298962 1.487859 1.330860 0.038786 -0.017017 -415896.000000 0 1 0
-0.955176 -21.849613 4.215244 22.272993 1.527108 1.380394 0.060651 -0.018370 -677265.000000 0 1 0
-0.271776 -23.061013 4.482444 23.494179 1.559012 1.378830 0.070658 -0.020218 -1365090.000000 0 1 0
0.732724 -23.283013 3.331744 23.531597 -1.539336 1.428733 0.075709 -0.031094 302659.000000 0 1 0
1.813624 -22.353713 3.323544 22.672089 -1.489841 1.423674 0.044756 -0.028304 -73552.300000 0 1 0
2.760424 -22.580813 4.328744 23.157095 -1.449153 1.382761 0.069575 -0.031382 -1324010.000000 0 1 0
3.972824 -21.654713 4.226244 22.418096 -1.389352 1.381142 0.066240 -0.029333 -70424.300000 0 1 0
4.910824 -21.757213 3.171944 22.528953 -1.348806 1.429533 0.040234 -0.013123 -876402.000000 0 1 0
6.036424 -21.012413 3.479644 22.137475 -1.291051 1.412958 0.059457 -0.010494 -681044.000000 0 1 0
6.753624 -20.747513 2.199244 21.929601 -1.256099 1.470341 0.064372 -0.007572 -642473.000000 0 1 0
7.299324 -21.857913 1.574144 23.098190 -1.248496 1.502593 0.065224 -0.000134 -352271.000000 0 1 0
7.149624 -21.729613 0.201144 22.876487 -1.252927 1.562004 0.057233 -0.011678 -199079.000000 0 1 0
8.135424 -22.566513 -0.599456 23.995665 -1.224790 1.595781 0.060538 -0.000514 -1229740.000000 0 1 0
9.409324 -22.054213 -0.631956 23.985892 -1.167533 1.597146 0.064022 0.002874 -1478120.000000 0 1 0
10.068724 -22.790413 -1.646556 24.969847 -1.154785 1.636786 0.073357 0.002387 12670.500000 0 1 0
11.442924 -22.223013 -2.061256 25.080900 -1.095289 1.653073 0.086433 0.001560 160734.000000 0 0 1
11.376324 -20.965313 -2.688656 24.004040 -1.073632 1.683040 0.089563 -0.004065 221186.000000 0 1 0
12.546924 -20.726713 -3.484256 24.477785 -1.026452 1.713625 0.093487 -0.003393 599438.000000 0 1 0
12.524724 -19.462813 -4.363156 23.552217 -0.998989 1.757127 0.085612 -0.024466 -110645.000000 0 1 0
12.805524 -18.277013 -3.661256 22.614938 -0.959644 1.733407 0.097653 -0.023872 32171.100000 0 1 0
13.038924 -17.229613 -4.545956 22.080281 -0.922974 1.778162 0.105615 -0.030360 -825230.000000 0 1 0
13.629424 -16.011213 -3.796756 21.366691 -0.865581 1.749440 0.120995 -0.029422 1077250.000000 0 1 0
14.989524 -15.888413 -3.348656 22.098438 -0.814501 1.722916 0.107611 -0.029976 1396480.000000 0 1 0
15.964724 -16.106113 -4.397456 23.100149 -0.789807 1.762330 0.108097 -0.025921 191105.000000 0 1 0
17.416624 -15.667313 -4.061856 23.776083 -0.732572 1.742476 0.107254 -0.018274 589302.000000 0 1 0
18.154224 -16.643313 -3.295756 24.848294 -0.742005 1.703823 0.106554 -0.025733 186279.000000 0 1 0
19.397724 -16.129713 -2.912256 25.395286 -0.693671 1.685726 0.074510 -0.010779 -456955.000000 0 0 1
20.348624 -17.128913 -2.257156 26.693836 -0.699698 1.655455 0.071596 -0.021029 407746.000000 0 0 1
21.666924 -16.613613 -2.068256 27.381479 -0.654150 1.646403 0.059967 -0.012815 1271810.000000 0 0 1
22.519624 -17.473313 -1.229356 28.530009 -0.659881 1.613900 0.060239 -0.010528 277624.000000 0 0 1
24.018024 -17.368313 -1.520156 29.678858 -0.626086 1.622039 0.083673 -0.013501 -462085.000000 0 0 1
24.543424 -16.123913 -1.209356 29.390862 -0.581249 1.611955 0.072677 -0.012155 597356.000000 0 0 1
25.811424 -16.175313 -0.541556 30.465778 -0.559801 1.588573 0.125515 -0.019614 652031.000000 0 0 1
26.464824 -14.834313 -0.194156 30.339437 -0.510891 1.577196 0.107300 -0.014172 638109.000000 0 0 1
25.652824 -14.088613 0.774244 29.277224 -0.502231 1.544348 0.082542 -0.004382 1492280.000000 0 0 1
26.499924 -13.258313 1.606044 29.675043 -0.463900 1.516649 0.080543 -0.003963 409833.000000 0 0 1
25.653124 -12.671013 2.712844 28.740161 -0.458785 1.476264 0.089018 -0.014657 -387509.000000 0 0 1
25.290324 -13.484013 3.756144 28.905496 -0.489829 1.440482 0.106597 -0.008188 37862.800000 0 0 1
26.347124 -13.890113 4.592044 30.136241 -0.485167 1.417824 0.114346 -0.003549 -211409.000000 0 0 1
25.879824 -14.675913 5.806844 30.312821 -0.515861 1.378041 0.110748 -0.003327 5480.400000 0 0 1
25.176624 -15.823813 5.442344 30.230358 -0.561121 1.389780 0.117157 -0.013994 16910.200000 0 0 1
24.452524 -16.317813 6.566544 30.121693 -0.588459 1.351031 0.105190 -0.013947 101338.000000 0 0 1
23.737024 -17.675513 6.402844 30.279803 -0.640061 1.357732 0.099573 -0.013247 186698.000000 0 0 1
24.640824 -18.773213 6.548244 31.662015 -0.651058 1.362476 0.098886 -0.015137 -277318.000000 0 0 1
24.062924 -20.014513 6.492244 31.964891 -0.693807 1.366268 0.065399 -0.005629 -446361.000000 0 0 1
2.089624 23.373410 -3.071956 23.666849 1.481632 1.700964 0.042614 -0.018462 245439.000000 0 1 0
2.692124 24.645010 -2.797056 24.948900 1.461992 1.683144 0.050601 -0.019051 -43380.000000 0 1 0
3.456224 25.079310 -3.890156 25.613485 1.433847 1.723266 0.060141 -0.016316 -292493.000000 0 0 1
4.605024 26.059610 -3.581456 26.704613 1.395891 1.705315 0.046966 -0.008866 -456638.000000 0 0 1
5.509824 25.380610 -2.752456 26.117227 1.357025 1.676381 0.045329 -0.019698 -831667.000000 0 0 1
6.299924 26.278810 -2.055256 27.101457 1.335503 1.646705 0.045647 -0.021265 -846533.000000 0 0 1
7.437524 25.570310 -1.355956 26.664511 1.287741 1.621671 0.043023 -0.037505 -858762.000000 0 0 1
8.617624 25.391010 -2.090256 26.894907 1.243599 1.648594 0.042649 -0.035580 -685234.000000 0 0 1
9.444124 24.562810 -1.308356 26.348338 1.203733 1.620473 0.030932 -0.021054 -660984.000000 0 0 1
10.670724 24.207310 -2.131756 26.540584 1.155615 1.651204 0.049758 -0.016712 -645101.000000 0 0 1
11.598424 25.295010 -2.312556 27.923268 1.140875 1.653710 0.051351 -0.018096 498900.000000 0 0 1
12.434824 25.211110 -3.461356 28.323240 1.112581 1.693312 0.063863 -0.017727 593905.000000 0 0 1
13.567624 24.152310 -3.552256 27.929072 1.058975 1.698330 0.054684 -0.011494 -193891.000000 0 0 1
13.121724 22.741910 -3.708756 26.516580 1.047472 1.711122 0.065462 -0.011693 108456.000000 0 0 1
12.892424 22.439910 -5.083556 26.374357 1.049315 1.764756 0.078751 -0.021219 541402.000000 0 0 1
11.842024 21.280910 -5.303956 24.924739 1.063005 1.785235 0.081183 -0.019318 1559150.000000 0 1 0
10.451824 21.552810 -5.037156 24.477279 1.119269 1.778066 0.074061 -0.017562 1041090.000000 0 1 0
9.701524 20.337310 -4.933956 23.066636 1.125692 1.786362 0.050823 -0.011140 -181417.000000 0 1 0
8.195424 20.581310 -4.840156 22.675591 1.191845 1.785904 0.042801 -0.011012 -373155.000000 0 1 0
7.776924 21.137510 -3.607056 22.809773 1.218247 1.729599 0.033009 -0.008766 595515.000000 0 1 0
6.356824 21.291810 -3.592356 22.509008 1.280664 1.731078 0.038080 -0.011691 554318.000000 0 1 0
5.797724 21.957510 -2.341456 22.830425 1.312645 1.673536 0.037554 -0.020442 -69137.500000 0 1 0
5.822524 21.253610 -1.146356 22.066533 1.303402 1.622770 0.038594 -0.016494 -137977.000000 0 1 0
4.990724 21.900910 -0.244056 22.463677 1.346745 1.581661 0.050529 -0.017873 -27083.200000 0 1 0
4.603324 21.021610 1.002744 21.543078 1.355219 1.524234 0.037350 -0.019956 8354.680000 0 1 0
3.750324 21.698910 1.925144 22.104611 1.399652 1.483593 0.045736 -0.019368 283733.000000 0 1 0
3.247524 20.846210 2.902744 21.296404 1.416254 1.434069 0.038760 -0.016631 6076.320000 0 1 0
2.183524 21.545510 3.792044 21.985368 1.469796 1.397449 0.037332 -0.014007 -819493.000000 0 1 0
0.985624 21.772710 3.149044 22.021327 1.525558 1.427305 0.030637 -0.006541 -1334220.000000 0 1 0
0.057324 22.078010 4.133744 22.461738 1.568200 1.385706 0.033828 -0.021718 26944.500000 0 1 0
-1.408876 22.241710 3.653044 22.583696 -1.507537 1.408327 0.025086 -0.017595 921196.000000 0 1 0
-2.391276 22.429910 4.693444 23.040128 -1.464586 1.365653 0.043605 -0.030572 68595.600000 0 1 0
-3.692076 22.406810 4.162444 23.087281 -1.407489 1.389513 0.065233 -0.027476 -406628.000000 0 1 0
-4.760076 22.671710 5.196344 23.741667 -1.363846 1.350140 0.085498 -0.041574 -647476.000000 0 1 0
-5.003476 24.039410 5.489644 25.160767 -1.365590 1.350844 0.117021 -0.029533 -187858.000000 0 0 1
-6.061676 24.049110 6.409344 25.616075 -1.323885 1.317901 0.130838 -0.033500 -67433.900000 0 0 1
-6.544676 25.456810 6.805644 27.151405 -1.319156 1.317439 0.154052 -0.045178 385918.000000 0 0 1
-5.623476 26.124110 7.714544 27.813788 -1.358772 1.289747 0.136658 -0.051800 375845.000000 0 0 1
-6.105976 27.231610 8.472044 29.165375 -1.350221 1.276065 0.148634 -0.045349 -125838.000000 0 0 1
-6.661476 28.547610 7.892744 30.358471 -1.341552 1.307790 0.165853 -0.046074 83825.300000 0 0 1
-7.842776 28.411310 7.151344 30.329085 -1.301460 1.332763 0.153629 -0.054194 -611160.000000 0 0 1
-7.897576 29.504010 6.207344 31.167122 -1.309250 1.370292 0.172680 -0.059193 99240.800000 0 0 1
-9.303076 29.713310 5.531344 31.623153 -1.267370 1.394978 0.169107 -0.060647 976199.000000 0 0 1
-10.295076 30.234210 6.393044 32.572490 -1.242600 1.373243 0.157190 -0.048214 -109516.000000 0 0 1
-10.958976 29.274010 7.190044 32.074345 -1.212588 1.344707 0.127213 -0.037121 -321471.000000 0 0 1
-11.938976 29.929710 8.214744 33.253703 -1.191238 1.321180 0.089806 -0.032911 249357.000000 0 0 1
-11.313776 30.397310 9.408244 33.771483 -1.214486 1.288475 0.099435 -0.032697 -102791.000000 0 0 1
-12.311376 30.867910 10.248044 34.776720 -1.191290 1.271674 0.094884 -0.026344 -317190.000000 0 0 1
-11.722976 31.240310 11.599744 35.326183 -1.211805 1.236228 0.086785 -0.037765 50882.900000 0 0 1
-10.980476 32.458510 11.667844 36.197574 -1.244589 1.242598 0.090882 -0.035613 228372.000000 0 0 1
-10.365176 32.546110 12.910344 36.515246 -1.262476 1.209422 0.080082 -0.040114 -137801.000000 0 0 1
-9.839876 -33.681313 13.192844 37.487399 1.286560 1.211167 0.086316 -0.042184 336667.000000 0 0 1
-10.864476 -32.745213 13.528644 37.058197 1.250437 1.197094 0.082632 -0.029611 328372.000000 0 0 1
-10.336976 -31.415113 13.562644 35.745037 1.252910 1.181619 0.087222 -0.022002 121214.000000 0 0 1
-11.270576 -30.354013 14.169444 35.343530 1.215270 1.158290 0.074843 -0.030463 -99801.000000 0 0 1
-11.510776 -30.456913 15.570244 36.090913 1.209454 1.124733 0.064550 -0.038622 51981.000000 0 0 1
-10.464176 -29.981313 16.379444 35.730439 1.234992 1.094583 0.076315 -0.041765 -166299.000000 0 0 1
-10.788676 -30.296813 17.857544 36.785653 1.228698 1.063920 0.082429 -0.049820 -659120.000000 0 0 1
-11.749976 -29.511813 18.419344 36.718949 1.191890 1.045314 0.089446 -0.054079 -479438.000000 0 0 1
-12.377476 -30.167313 19.502544 37.994972 1.181447 1.031779 0.093245 -0.052954 -84314.500000 0 0 1
-12.570676 -29.219213 20.655244 37.926552 1.164513 0.994870 0.112704 -0.058116 275296.000000 0 0 1
-11.307476 -28.834713 21.186844 37.525751 1.197077 0.970854 0.109145 -0.060060 499044.000000 0 0 1
-11.462676 -28.078513 22.351044 37.674460 1.183210 0.935684 0.117746 -0.057423 671793.000000 0 0 1
-10.107176 -27.894113 23.125744 37.616972 1.223170 0.908703 0.129355 -0.050950 672303.000000 0 0 1
-9.918076 -28.965813 24.006544 38.906306 1.240902 0.905827 0.110850 -0.036222 134535.000000 0 0 1
-8.560476 -29.016113 24.404244 38.868801 1.283910 0.891993 0.131708 -0.029190 151559.000000 0 0 1
-8.366476 -29.937613 25.680144 40.320322 1.298285 0.880322 0.123952 -0.032582 -12268.600000 0 0 1
-8.497676 -31.270913 25.316244 41.121681 1.305460 0.907596 0.127580 -0.023914 242022.000000 0 0 1
-8.383776 -32.085413 26.380544 42.375636 1.315215 0.898812 0.136230 -0.020685 -210762.000000 0 0 1
-8.751676 -33.514013 26.063444 43.348402 1.315366 0.925726 0.121643 -0.021095 -284254.000000 0 0 1
-7.648876 33.514610 25.414944 42.751068 -1.346414 0.934169 0.111728 -0.021991 489988.000000 0 0 1
-7.767376 32.194610 24.976944 41.480993 -1.334057 0.924630 0.071501 -0.016213 -32062.700000 0 0 1
-8.546276 32.009010 23.624044 40.690429 -1.309887 0.951356 0.077153 -0.018411 170173.000000 0 0 1
-8.615876 30.625410 23.175044 39.360281 -1.296554 0.941232 0.089647 -0.018233 -47385.200000 0 0 1
-9.527976 30.427310 22.135244 38.814592 -1.267329 0.963948 0.072634 -0.022973 -339954.000000 0 0 1
-10.383976 29.194110 22.394444 38.231324 -1.229064 0.944977 0.074264 -0.027231 -48160.400000 0 0 1
-9.657976 28.021410 21.994944 36.908719 -1.238883 0.932375 0.065765 -0.018335 -92757.200000 0 0 1
-10.159976 26.831010 22.542044 36.486600 -1.208816 0.904833 0.053896 -0.022321 -380701.000000 0 0 1
-9.232576 25.608210 22.400244 35.253253 -1.224770 0.882258 0.066373 -0.028919 201406.000000 0 0 1
-7.927676 25.733210 22.922544 35.362257 -1.271951 0.865551 0.051231 -0.033159 223017.000000 0 0 1
-7.185576 24.505010 23.005444 34.371187 -1.285563 0.837498 0.054135 -0.031013 942388.000000 0 0 1
-5.793976 24.708810 23.704144 34.727250 -1.340467 0.819508 0.052322 -0.032173 398173.000000 0 0 1
-4.929876 25.366710 22.834544 34.484635 -1.378845 0.847091 0.072197 -0.025605 -305811.000000 0 0 1
-3.583976 25.386410 23.296044 34.641310 -1.430546 0.833224 0.078892 -0.029281 412854.000000 0 0 1
-2.654376 25.841510 22.144644 34.135240 -1.468438 0.864878 0.084898 -0.024191 -337524.000000 0 0 1
-2.359276 24.800310 21.242144 32.739124 -1.475951 0.864750 0.070739 -0.021442 -144623.000000 0 0 1
-1.800476 25.283710 20.062844 32.326853 -1.499705 0.901257 0.079097 -0.021070 -101191.000000 0 0 1
-1.246376 24.148310 19.200644 30.876513 -1.519229 0.899690 0.063957 -0.023669 367357.000000 0 0 1
-0.146876 23.417510 19.759244 30.640318 -1.564524 0.869934 0.069659 -0.020924 291160.000000 0 0 1
0.165424 22.248510 18.984244 29.247651 1.563361 0.864414 0.056642 -0.016755 -391309.000000 0 0 1
1.467724 21.598010 19.446144 29.099498 1.502944 0.838924 0.058170 -0.018969 801538.000000 0 0 1
2.684124 22.212610 18.931644 29.308902 1.450542 0.868549 0.061643 -0.024937 880081.000000 0 0 1
3.789124 21.370610 19.247944 29.009374 1.395315 0.845299 0.064047 -0.017221 553825.000000 0 0 1
5.172424 21.891510 18.762244 29.291876 1.338776 0.875612 0.061916 -0.013884 334968.000000 0 0 1
6.151224 20.890710 18.887044 28.826720 1.284441 0.856359 0.077266 -0.016776 800268.000000 0 0 1
7.489824 21.359110 18.624944 29.312072 1.233532 0.882268 0.107084 -0.021871 1364970.000000 0 0 1
8.593324 20.304610 18.313844 28.662158 1.170434 0.877657 0.102805 -0.013712 448962.000000 0 0 1
9.057324 19.480410 19.427044 28.964315 1.135584 0.835613 0.104335 -0.021697 -151244.000000 0 0 1
10.100924 18.636110 19.065944 28.510410 1.074110 0.838289 0.087327 -0.017871 -294383.000000 0 0 1
10.613224 17.790610 20.280444 28.990390 1.032908 0.796018 0.087946 -0.019389 318221.000000 0 0 1
9.731124 16.769510 20.770044 28.413130 1.044998 0.751008 0.090406 -0.021191 34899.000000 0 0 1
10.320324 16.130310 21.849044 29.052998 1.001618 0.719643 0.090062 -0.025007 -703985.000000 0 0 1
9.455024 15.138610 22.513544 28.730379 1.012511 0.670333 0.078868 -0.022293 -787948.000000 0 0 1
8.332924 15.707910 23.152744 29.192903 1.083054 0.654923 0.087516 -0.019310 -291377.000000 0 0 1
7.352524 14.785310 23.553044 28.764751 1.109323 0.611451 0.070263 -0.020239 -150764.000000 0 0 1
7.616524 13.843610 24.714144 29.333358 1.067812 0.568839 0.082705 -0.024845 -792992.000000 0 0 1
7.507224 14.430710 25.995444 30.665402 1.091100 0.559138 0.089394 -0.034665 109124.000000 0 0 1
7.878424 13.468710 26.964944 31.154196 1.041522 0.524585 0.099658 -0.031516 -397544.000000 0 0 1
9.021324 13.857510 27.976544 32.497721 0.993714 0.533805 0.070490 -0.026973 738561.000000 0 0 1
10.326624 13.951810 27.407744 32.441896 0.933620 0.564557 0.096403 -0.027361 406057.000000 0 0 1
10.528424 15.035210 26.529744 32.260387 0.959902 0.605245 0.078204 -0.025516 -1351230.000000 0 0 1
11.817024 14.903410 25.710944 31.981343 0.900395 0.636913 0.091616 -0.031637 -395737.000000 0 0 1
11.809524 13.735410 24.893444 30.786521 0.860648 0.629057 0.090430 -0.034807 -189967.000000 0 0 1
13.031424 13.500110 24.254044 30.664795 0.803062 0.658451 0.107980 -0.035525 -674056.000000 0 0 1
13.097724 12.184010 23.456644 29.499400 0.749273 0.651530 0.085436 -0.035244 116562.000000 0 0 1
12.735024 11.024710 24.212644 29.495376 0.713538 0.607818 0.100077 -0.025430 289874.000000 0 0 1
11.331924 10.887910 24.351844 28.982260 0.765418 0.573084 0.107404 -0.026281 -100167.000000 0 0 1
10.951524 9.419410 24.749944 28.656952 0.710329 0.528305 0.112584 -0.017533 -86647.100000 0 0 1
11.230724 8.535110 23.756444 27.628715 0.649857 0.535828 0.115712 -0.008611 125863.000000 0 0 1
10.887824 7.262310 24.188044 27.501769 0.588242 0.495968 0.123435 -0.008958 -94369.800000 0 0 1
11.308824 6.179110 23.214044 26.551134 0.500073 0.506775 0.133622 -0.022473 588764.000000 0 0 1
12.729424 6.057510 23.037644 27.008604 0.444155 0.549139 0.144716 -0.024149 911713.000000 0 0 1
13.162324 5.020510 22.198544 26.291208 0.364396 0.565477 0.160767 -0.039383 -102768.000000 0 0 1
12.856524 3.551110 22.663544 26.297087 0.269492 0.531935 0.147125 -0.044201 -417759.000000 0 0 1
13.784724 3.089410 23.600444 27.505345 0.220475 0.539372 0.155175 -0.039795 58916.900000 0 0 1
13.268224 1.888910 24.139644 27.610435 0.141413 0.506816 0.158232 -0.036342 -884509.000000 0 0 1
14.225324 1.167110 25.116644 28.888887 0.081861 0.516764 0.124075 -0.022631 -919317.000000 0 0 1
15.221024 0.525810 24.438944 28.796146 0.034531 0.557297 0.148348 -0.032631 -1419180.000000 0 0 1
16.373724 1.301410 24.457544 29.461228 0.079315 0.591401 0.132973 -0.037138 -760283.000000 0 0 1
17.528224 0.726310 23.535244 29.354282 0.041413 0.640553 0.119018 -0.038920 333435.000000 0 0 1
17.827824 -0.603090 23.915344 29.835192 -0.033816 0.640860 0.114918 -0.038687 447190.000000 0 0 1
18.867324 -1.143990 23.083644 29.835201 -0.060559 0.686128 0.118945 -0.026991 272990.000000 0 0 1
19.175724 -2.636790 23.333444 30.316838 -0.136650 0.692499 0.105891 -0.019675 -489631.000000 0 0 1
18.322424 -3.539890 22.688744 29.377221 -0.190848 0.688304 0.097755 -0.009343 -255538.000000 0 0 1
18.579324 -4.907090 22.938044 29.923647 -0.258219 0.697341 0.102876 -0.011515 -676857.000000 0 0 1
17.546724 -5.887490 22.462644 29.105333 -0.323728 0.689175 0.106629 -0.015496 -642246.000000 0 0 1
17.456924 -6.037190 21.020744 27.983272 -0.332958 0.720934 0.107347 -0.016521 290211.000000 0 0 1
16.584824 -7.099090 20.612044 27.391783 -0.404449 0.718962 0.130361 -0.023068 66022.800000 0 0 1
17.044424 -8.560790 20.877144 28.278165 -0.465457 0.740283 0.128581 -0.030446 -80114.900000 0 0 1
16.906024 -8.994690 22.204644 29.321737 -0.488950 0.711664 0.123370 -0.023261 87964.100000 0 0 1
17.654324 -10.182390 22.396644 30.281444 -0.523159 0.738297 0.106161 -0.024765 -139991.000000 0 0 1
17.065724 -11.129290 23.389744 31.019028 -0.577880 0.716597 0.119313 -0.025029 120920.000000 0 0 1
15.964524 -11.903490 22.921944 30.364034 -0.640693 0.715288 0.142253 -0.033718 284527.000000 0 0 1
15.520924 -12.791490 23.913544 31.247062 -0.689291 0.699281 0.161324 -0.024797 -364019.000000 0 0 1
14.609324 -13.821690 23.333244 30.804410 -0.757702 0.711376 0.186592 -0.038645 -250846.000000 0 0 1
15.323724 -14.839190 22.620744 31.092059 -0.769336 0.756066 0.175919 -0.042028 1114730.000000 0 0 1
14.363324 -15.648390 21.882044 30.495918 -0.828191 0.770532 0.178715 -0.027667 327526.000000 0 0 1
14.878624 -16.385790 20.665744 30.281026 -0.833568 0.819666 0.148250 -0.039966 -129415.000000 0 0 1
15.697024 -17.490790 21.069344 31.563294 -0.839395 0.839914 0.178109 -0.040457 229053.000000 0 0 1
16.090824 -18.153890 19.950244 31.408447 -0.845570 0.882545 0.156044 -0.036738 -338021.000000 0 0 1
-24.488676 -32.203713 25.677773 47.917871 0.920653 1.005258 0.078579 -0.027251 276383.000000 0 0 1
-25.480516 -33.245013 25.439753 49.006822 0.916852 1.024991 0.076273 -0.018058 722712.000000 0 0 1
-26.588346 -33.221713 26.321143 50.034238 0.895854 1.016832 0.076498 -0.032729 77804.600000 0 0 1
-26.332476 -33.475613 27.859453 50.893664 0.904269 0.991536 0.068692 -0.027245 -438130.000000 0 0 1
-27.581446 -33.230213 28.461493 51.720787 0.878022 0.988083 0.092687 -0.028991 455874.000000 0 0 1
-27.369756 -33.120113 29.842513 52.312723 0.880176 0.963726 0.056232 -0.022093 -507847.000000 0 0 1
-28.581896 -32.631113 30.620773 53.097515 0.851452 0.956126 0.041430 -0.023296 -474872.000000 0 0 1
-28.694076 -31.237813 30.378083 52.172588 0.827816 0.949289 0.031928 -0.020227 303389.000000 0 0 1
-29.726076 -30.675513 31.164663 52.875920 0.801116 0.940490 0.032808 -0.002664 -177451.000000 0 0 1
-29.987116 -29.195813 30.888033 52.016278 0.772028 0.935005 0.027311 -0.008664 -276562.000000 0 0 1
-30.556726 -29.025013 29.621543 51.513112 0.759696 0.958156 0.036440 -0.006106 126378.000000 0 0 1
-30.696376 -27.661413 29.418253 50.723317 0.733439 0.952098 0.040390 -0.005828 -194799.000000 0 0 1
-31.309446 -27.238013 28.040603 50.084590 0.715969 0.976574 0.032798 -0.022424 -6672.360000 0 0 1
-30.471516 -27.156413 26.888343 48.877061 0.727936 0.988286 0.045995 -0.020298 236674.000000 0 0 1
-29.737236 -25.946913 26.792653 47.701067 0.717435 0.974383 0.049224 -0.012200 -350573.000000 0 0 1
-28.824216 -25.951113 25.583323 46.462911 0.732994 0.987692 0.032269 -0.004202 -328017.000000 0 0 1
-29.526186 -25.877613 24.350343 46.199413 0.719639 1.015647 0.036618 -0.011115 644973.000000 0 0 1
-28.630056 -26.085713 23.256313 45.177435 0.738931 1.030049 0.032018 0.007350 -258962.000000 0 0 1
-29.370736 -26.330213 21.979883 45.155681 0.730866 1.062422 0.028034 0.008411 -152066.000000 0 0 1
-30.151576 -25.245513 21.503983 44.820472 0.697067 1.070392 0.030497 -0.004396 95007.100000 0 0 1
-30.599356 -25.514213 20.206383 44.672067 0.695023 1.101424 0.023372 0.008171 -210361.000000 0 0 1
-31.242596 -24.269513 19.551183 44.128877 0.660439 1.111801 0.035821 -0.000007 -163359.000000 0 0 1
-32.547676 -24.088213 20.053683 45.185655 0.637129 1.110954 0.065562 -0.006023 21725.400000 0 0 1
-33.130936 -22.932213 19.422283 44.729972 0.605451 1.121633 0.078214 -0.002730 -436215.000000 0 0 1
-34.610660 -22.695413 19.695983 45.835699 0.580396 1.126627 0.096927 -0.000759 -943842.000000 0 0 1
-35.452388 -23.691313 19.233883 46.777050 0.589103 1.147046 0.090504 -0.007371 -642115.000000 0 0 1
-36.783986 -23.317813 19.435483 47.691928 0.564982 1.151058 0.087593 -0.019106 -21174.300000 0 0 1
37.239787 -24.060913 18.536283 48.055416 -0.573634 1.174800 0.095670 -0.026913 452414.000000 0 0 1
37.012467 -25.410413 18.794883 48.670930 -0.601633 1.174329 0.093516 -0.019485 -186155.000000 0 0 1
36.201137 -26.061313 17.842583 48.042399 -0.623959 1.190288 0.094481 -0.016738 -35664.600000 0 0 1
35.649877 -27.402613 18.420483 48.591471 -0.655337 1.181985 0.085402 -0.004285 491875.000000 0 0 1
34.455077 -27.267713 19.196583 47.949862 -0.669474 1.158901 0.072278 -0.005743 182540.000000 0 0 1
34.565847 -26.644813 20.462083 48.202081 -0.656707 1.132380 0.079178 -0.005161 -311470.000000 0 0 1
33.326077 -26.912213 21.336083 47.855230 -0.679323 1.108677 0.067109 -0.003729 -287459.000000 0 0 1
32.165797 -26.297413 20.881383 46.499726 -0.685356 1.105078 0.065312 0.002992 -922890.000000 0 0 1
31.298477 -25.914813 21.906183 46.163330 -0.691576 1.076359 0.054885 0.003111 47168.600000 0 0 1
30.271427 -24.885013 21.320183 44.611359 -0.688050 1.072523 0.055054 0.014658 -28046.100000 0 0 1
30.844377 -23.695713 20.859083 44.135742 -0.655069 1.078544 0.044376 0.010527 -140071.000000 0 0 1
31.562977 -22.899913 21.733483 44.642712 -0.627656 1.062338 0.068006 -0.003623 331401.000000 0 0 1
32.560037 -21.902513 21.037583 44.524779 -0.592155 1.078681 0.063517 -0.002810 396535.000000 0 0 1
31.843627 -20.741613 20.663583 43.257539 -0.577330 1.072776 0.050545 -0.012017 675522.000000 0 0 1
32.747837 -19.686113 20.315583 43.274551 -0.541259 1.082120 0.055697 -0.009482 -100034.000000 0 0 1
32.102867 -18.316313 20.456083 42.243730 -0.518484 1.065303 0.041622 -0.005424 -186199.000000 0 0 1
32.129177 -17.806313 21.810983 42.720812 -0.506070 1.034975 0.040756 -0.014341 55410.000000 0 0 1
30.967667 -18.098113 22.560783 42.373659 -0.528885 1.009334 0.058307 -0.016697 -361541.000000 0 0 1
30.905517 -17.710313 24.028733 42.967268 -0.520365 0.977335 0.061373 -0.011095 -93123.900000 0 0 1
30.766817 -16.326413 24.274333 42.454588 -0.487866 0.962133 0.074617 -0.015694 164047.000000 0 0 1
30.630687 -16.011513 25.650703 43.041446 -0.481664 0.932344 0.072894 -0.017996 -3699.960000 0 0 1
30.423487 -14.528313 25.899283 42.513919 -0.445516 0.915751 0.085091 -0.024045 405117.000000 0 0 1
29.099007 -14.064613 25.644123 41.257564 -0.450228 0.900062 0.092689 -0.030579 420954.000000 0 0 1
28.795107 -12.844613 26.209893 41.001228 -0.419580 0.877278 0.087055 -0.024204 -108573.000000 0 0 1
29.259307 -11.639713 25.371803 40.439069 -0.378619 0.892576 0.098549 -0.036604 -362064.000000 0 0 1
28.626707 -11.522113 24.111473 39.161340 -0.382656 0.907528 0.091846 -0.027996 524095.000000 0 0 1
29.473707 -10.735713 23.245383 39.042320 -0.349310 0.933046 0.088420 -0.021197 812852.000000 0 0 1
30.660877 -11.557513 22.680983 39.850878 -0.360476 0.965329 0.086997 -0.030200 42102.500000 0 0 1
30.075327 -12.498313 21.797883 39.190315 -0.393854 0.980983 0.075077 -0.026646 321928.000000 0 0 1
30.429977 -13.855213 22.100183 40.079527 -0.427265 0.986745 0.072829 -0.027638 -614974.000000 0 0 1
29.764007 -14.843213 21.122283 39.400100 -0.462604 1.004989 0.068146 -0.019931 -546743.000000 0 0 1
30.325087 -14.870013 19.826183 39.163831 -0.455901 1.039981 0.067763 -0.024369 -365562.000000 0 0 1
29.854707 -15.818713 18.930883 38.728717 -0.487247 1.060074 0.069977 -0.031342 -435602.000000 0 0 1
30.218947 -15.452213 17.479383 38.177015 -0.472680 1.095220 0.088974 -0.032216 136466.000000 0 0 1
29.619607 -16.247313 16.463683 37.581234 -0.501716 1.117332 0.081164 -0.038005 395503.000000 0 0 1
28.218107 -16.158213 16.238883 36.346261 -0.520043 1.107630 0.093955 -0.035576 15985.700000 0 0 1
27.775407 -15.128313 15.196983 35.089704 -0.498739 1.122879 0.110424 -0.037437 -298498.000000 0 0 1
27.817407 -15.537513 13.888083 34.757751 -0.509387 1.159751 0.117182 -0.047095 570433.000000 0 0 1
26.776707 -16.451713 13.489283 34.199585 -0.550943 1.165351 0.117793 -0.048580 33957.300000 0 0 1
26.821207 -17.076513 12.082983 34.014451 -0.566954 1.207635 0.096406 -0.025479 -511012.000000 0 0 1
26.556907 -16.156613 11.007083 32.976678 -0.546556 1.230482 0.119088 -0.030690 -86605.400000 0 0 1
26.497507 -16.830713 9.746283 32.869146 -0.565887 1.269752 0.094793 -0.028292 -767159.000000 0 0 1
27.773207 -17.268713 9.052883 33.933967 -0.556278 1.300747 0.089463 -0.025502 -608073.000000 0 0 1
28.409307 -18.343713 9.695983 35.179434 -0.573342 1.291567 0.081418 -0.018660 -699819.000000 0 0 1
29.776907 -18.448213 9.425283 36.274463 -0.554669 1.307948 0.097275 -0.017406 -508995.000000 0 0 1
30.387467 -19.440513 10.378583 37.537270 -0.569139 1.290659 0.090712 -0.035909 -318225.000000 0 0 1
30.441507 -18.954613 11.673283 37.712441 -0.556913 1.256093 0.079740 -0.045086 198075.000000 0 0 1
30.973597 -19.879113 12.616983 38.906697 -0.570595 1.240537 0.060298 -0.036201 -58639.500000 0 0 1
30.954547 -19.065913 13.926283 38.931149 -0.552052 1.204976 0.064564 -0.030964 77482.200000 0 0 1
31.143107 -19.914213 15.073483 39.920907 -0.568917 1.183611 0.064914 -0.022190 49835.100000 0 0 1
30.791767 -19.297013 16.276983 39.817682 -0.559816 1.149671 0.078792 -0.029207 42396.000000 0 0 1
30.742387 -20.264813 17.448483 40.745632 -0.582803 1.128264 0.074669 -0.014425 -91467.500000 0 0 1
29.724307 -21.206813 17.186983 40.356607 -0.619696 1.130864 0.028250 -0.003169 -34874.600000 0 0 1
29.447407 -21.974813 18.288183 41.042658 -0.641090 1.108964 0.032554 -0.005581 56981.600000 0 0 1
28.153707 -22.815813 18.118083 40.514904 -0.681051 1.107169 0.034010 0.005255 179977.000000 0 0 1
26.989807 -22.079213 18.361683 39.409297 -0.685655 1.086119 0.045914 0.004945 470293.000000 0 0 1
25.772507 -22.831013 18.166583 38.929449 -0.724952 1.085293 0.048720 -0.005998 1656630.000000 0 0 1
24.458207 -22.274813 18.813083 38.056579 -0.738712 1.053715 0.049056 -0.001028 637115.000000 0 0 1
23.907507 -21.020013 18.338383 36.738346 -0.721216 1.048165 0.047073 -0.003603 352628.000000 0 0 1
22.697807 -20.607913 18.955183 36.044077 -0.737176 1.017036 0.053241 -0.002307 295500.000000 0 0 1
22.712307 -20.159613 20.427383 36.599683 -0.725926 0.978666 0.045335 -0.003873 -315192.000000 0 0 1
22.864507 -21.268213 21.278583 37.787572 -0.749244 0.972651 0.052989 -0.006274 -138819.000000 0 0 1
23.103107 -20.810013 22.588683 38.432522 -0.733227 0.942522 0.068039 -0.001390 34697.100000 0 0 1
23.341507 -21.963213 23.648333 39.830294 -0.754985 0.935113 0.066093 -0.003768 -261459.000000 0 0 1
22.183207 -22.677013 23.996433 39.776505 -0.796405 0.923187 0.082302 -0.012700 -311047.000000 0 0 1
22.483207 -23.580013 25.044383 41.094193 -0.809205 0.915444 0.086261 -0.008654 279010.000000 0 0 1
21.257907 -24.249613 25.777763 41.284808 -0.851045 0.896448 0.110062 -0.016516 438862.000000 0 0 1
20.636607 -25.151913 24.860613 40.945553 -0.883693 0.918311 0.099295 -0.019228 -851819.000000 0 0 1
19.647107 -25.836113 25.482863 41.266086 -0.920640 0.905203 0.114483 -0.023412 -1253750.000000 0 0 1
18.993707 -26.873513 24.584723 41.077429 -0.955533 0.929172 0.129411 -0.031972 -442988.000000 0 0 1
18.217707 -26.240213 23.612693 39.723958 -0.963929 0.934253 0.129390 -0.033351 -74734.900000 0 0 1
17.749507 -27.116613 22.618683 39.521646 -0.991221 0.961475 0.121678 -0.039392 137985.000000 0 0 1
16.727607 -26.431813 21.620783 38.025147 -1.006566 0.966003 0.122244 -0.032765 118436.000000 0 0 1
15.519407 -26.147913 22.272483 37.691230 -1.035152 0.938598 0.108546 -0.038719 -517767.000000 0 0 1
14.760707 -25.251413 21.505083 36.304007 -1.041815 0.936810 0.082589 -0.026610 -167705.000000 0 0 1
13.610607 -24.590713 22.311083 35.885041 -1.065281 0.899837 0.076079 -0.025793 466131.000000 0 0 1
12.581707 -25.548813 22.604483 36.359371 -1.113201 0.899890 0.064551 -0.026183 334402.000000 0 0 1
11.326307 -24.905313 22.419983 35.372524 -1.143979 0.884308 0.058386 -0.022962 -87109.200000 0 0 1
10.093307 -25.776813 22.351883 35.579848 -1.197582 0.891536 0.047491 -0.025467 -544560.000000 0 0 1
10.011307 -26.534213 21.177483 35.394583 -1.210012 0.929387 0.061789 -0.033568 -11348.200000 0 0 1
8.724307 -27.065213 20.966283 35.330218 -1.258969 0.935473 0.075148 -0.031916 -192595.000000 0 0 1
8.639707 -27.973013 19.728883 35.303864 -1.271232 0.977821 0.092010 -0.034294 -68145.600000 0 0 1
8.857307 -29.334513 19.991683 36.587333 -1.277559 0.992725 0.103762 -0.040670 117370.000000 0 0 1
8.449007 -30.157513 18.907683 36.583627 -1.297637 1.027647 0.111810 -0.038516 -77525.200000 0 0 1
8.981507 -31.590413 18.980683 37.932677 -1.293794 1.046761 0.111771 -0.035196 52621.800000 0 0 1
8.399407 -32.496913 19.942383 39.042259 -1.317864 1.034693 0.112319 -0.042407 834951.000000 0 0 1
9.226507 -33.700513 20.038883 40.279149 -1.303565 1.050082 0.121759 -0.047337 459384.000000 0 0 1
8.683707 32.841710 20.989383 39.931678 1.312301 1.017338 0.137962 -0.051064 191232.000000 0 0 1
7.664007 32.074010 20.339583 38.745036 1.336247 1.018129 0.123009 -0.051365 277040.000000 0 0 1
7.487607 30.949610 21.131983 38.216533 1.333428 0.984891 0.129271 -0.058092 -360568.000000 0 0 1
6.448107 29.947910 20.659083 36.949332 1.358723 0.977473 0.111959 -0.048916 458521.000000 0 0 1
5.130407 30.115310 21.196383 37.182518 1.402058 0.964214 0.114944 -0.049088 992494.000000 0 0 1
4.191407 29.111710 20.723383 35.979413 1.427802 0.956995 0.115767 -0.046584 -736843.000000 0 0 1
2.802007 29.332010 21.170683 36.282446 1.475558 0.947769 0.092804 -0.037117 -1699670.000000 0 0 1
2.663207 28.916410 22.528383 36.752953 1.478955 0.910985 0.081683 -0.037515 307081.000000 0 0 1
1.306607 28.837010 22.951303 36.878757 1.525517 0.899062 0.065259 -0.027074 392105.000000 0 0 1
1.008507 28.191410 24.271273 37.213807 1.535038 0.860298 0.070165 -0.024953 -17233.200000 0 0 1
1.536707 28.980410 25.342913 38.529066 1.517820 0.852954 0.080532 -0.035810 225929.000000 0 0 1
1.391007 28.409610 26.634833 38.967361 1.521873 0.818227 0.080365 -0.032001 228482.000000 0 0 1
2.652107 27.749510 27.284903 39.006858 1.475513 0.796113 0.066859 -0.030815 126305.000000 0 0 1
3.164707 26.638910 26.600563 37.778789 1.452550 0.789622 0.075081 -0.031273 129069.000000 0 0 1
4.085607 25.901410 27.380233 37.911112 1.414349 0.763787 0.057960 -0.024596 387252.000000 0 0 1
4.674407 24.720710 26.448033 36.502905 1.383914 0.760421 0.044874 -0.014907 211896.000000 0 0 1
3.620707 23.807310 26.194133 35.581318 1.419869 0.743393 0.052991 -0.013090 162831.000000 0 0 1
4.009707 22.496210 26.548003 35.027899 1.394409 0.710693 0.054638 -0.007892 -185818.000000 0 0 1
2.870407 21.503310 26.365273 34.143216 1.438094 0.688505 0.052271 -0.004963 -373212.000000 0 0 1
3.234107 20.154310 26.442683 33.404658 1.411686 0.657395 0.063217 -0.010429 -118144.000000 0 0 1
3.799307 19.631010 25.264783 32.219879 1.379624 0.669493 0.068825 -0.010582 -489009.000000 0 0 1
4.192707 18.185110 25.504703 31.603274 1.344199 0.631696 0.063076 -0.018781 165673.000000 0 0 1
5.355607 17.977010 26.302363 32.305878 1.281254 0.619504 0.055396 -0.020959 140587.000000 0 0 1
6.503807 17.730310 25.515983 31.744745 1.219218 0.637164 0.072190 -0.016900 -932284.000000 0 0 1
7.768807 17.718310 26.370643 32.706325 1.157579 0.632950 0.050986 -0.024980 -524606.000000 0 0 1
8.183707 18.954510 26.867783 33.883983 1.163218 0.655186 0.047641 -0.025538 -85187.400000 0 0 1
8.931407 19.760410 26.001543 33.857408 1.146293 0.695127 0.036237 -0.023788 -636433.000000 0 0 1
9.424507 21.014710 26.696163 35.257971 1.149214 0.711832 0.022669 -0.019146 -91206.400000 0 0 1
10.392807 20.639310 27.652623 36.036914 1.104317 0.696111 0.032138 -0.038772 -137733.000000 0 0 1
10.682407 21.694810 28.550853 37.415636 1.113252 0.702742 0.047122 -0.031146 -478103.000000 0 0 1
11.627507 21.286110 29.666173 38.319437 1.070838 0.685376 0.078499 -0.035191 337992.000000 0 0 1
12.960607 21.131410 29.182063 38.289772 1.020630 0.704188 0.089025 -0.034089 -271813.000000 0 0 1
13.839207 20.704610 30.166823 39.118305 0.981587 0.690121 0.104626 -0.011587 -1188530.000000 0 0 1
15.226007 20.472110 29.648803 39.115088 0.931311 0.710572 0.086106 -0.020423 -1147950.000000 0 0 1
15.848707 21.668310 29.351153 39.776719 0.939291 0.740846 0.072674 -0.029950 -923756.000000 0 0 1
17.175807 21.468810 28.985403 39.950867 0.896034 0.758998 0.152502 -0.023011 -470403.000000 0 0 1
-8.623776 16.727010 4.310944 19.306647 -1.094778 1.345610 0.033643 -0.025246 -222998.000000 0 1 0
-8.559076 18.030810 4.845844 20.538990 -1.127600 1.332617 0.046970 -0.027422 -228051.000000 0 1 0
-7.242176 18.310310 5.230944 20.373497 -1.194154 1.311136 0.043130 -0.019028 -364320.000000 0 1 0
-7.072576 19.782010 5.682544 21.763285 -1.227433 1.306628 0.054368 -0.019321 -44049.800000 0 1 0
-7.218576 20.775610 4.658744 22.481942 -1.236391 1.362062 0.062565 -0.031451 342070.000000 0 1 0
-8.558876 20.990110 4.210044 23.055662 -1.183620 1.387163 0.061005 -0.040189 510282.000000 0 1 0
-8.672976 22.121510 3.143444 23.967957 -1.197153 1.439265 0.103653 -0.045705 290088.000000 0 1 0
-8.021276 21.920010 1.865044 23.415937 -1.219998 1.491063 0.067629 -0.044290 10473.300000 0 1 0
-8.487776 20.837110 1.038344 22.523447 -1.183979 1.524679 0.084146 -0.050631 -1001350.000000 0 1 0
-7.859276 20.919610 -0.355856 22.350055 -1.211421 1.586719 0.053921 -0.031573 -383830.000000 0 1 0
-6.522276 20.606310 -0.474456 21.619094 -1.264255 1.592744 0.033639 -0.015907 -933588.000000 0 1 0
-5.557076 21.432610 0.116844 22.141625 -1.317102 1.565519 0.043134 -0.021488 -1107590.000000 0 1 0
-4.141476 21.280410 -0.423256 21.683792 -1.378584 1.590317 0.038930 -0.011663 -559952.000000 0 1 0
-4.085276 21.698310 -1.759856 22.149566 -1.384699 1.650333 0.038425 -0.008221 942004.000000 0 1 0
-2.772676 21.552310 -2.351956 21.856841 -1.442850 1.678612 0.038621 -0.003433 921315.000000 0 1 0
-2.813776 21.809910 -3.856056 22.326189 -1.442491 1.744381 0.042186 -0.000889 -347056.000000 0 1 0
-1.535676 21.925510 -4.398956 22.415109 -1.500870 1.768328 0.049124 -0.004940 -383751.000000 0 1 0
-1.567576 22.250610 -5.775356 23.041304 -1.500462 1.824150 0.056980 -0.017495 135939.000000 0 1 0
-0.260376 22.909410 -6.277956 23.755455 -1.559431 1.838248 0.055912 -0.020742 182901.000000 0 1 0
0.865724 22.072910 -6.173456 22.936312 1.531595 1.843313 0.055988 -0.012659 -377320.000000 0 1 0
2.031424 22.717410 -6.632056 23.752718 1.481612 1.853770 0.060026 -0.014375 -364526.000000 0 1 0
3.243224 21.797010 -6.660356 23.021479 1.423088 1.864303 0.055445 -0.005859 -358768.000000 0 1 0
3.197824 20.848610 -7.740856 22.468010 1.418599 1.922532 0.052559 -0.014916 90735.500000 0 1 0
4.361924 20.042210 -7.774556 21.935367 1.356501 1.933101 0.055607 -0.013356 185870.000000 0 1 0
4.409824 18.944310 -8.891356 21.386670 1.342091 1.999556 0.040262 -0.015610 -50998.400000 0 1 0
4.567424 19.433610 -10.247356 22.439583 1.339959 2.045038 0.044287 -0.018137 -404984.000000 0 1 0
3.343524 19.510910 -10.924556 22.609748 1.401078 2.075078 0.047326 -0.017154 -657451.000000 0 1 0
3.349324 19.592110 -12.457656 23.457663 1.401480 2.130659 0.054857 -0.019887 -16993.000000 0 1 0
3.733924 20.893510 -12.833356 24.802742 1.393951 2.114626 0.094003 -0.028778 -173827.000000 0 1 0
4.039524 20.967710 -14.203456 25.645678 1.380474 2.157759 0.102055 -0.032086 -33115.300000 0 0 1
4.433724 22.411910 -14.636456 27.132591 1.375489 2.140570 0.096814 -0.031981 267009.000000 0 0 1
3.318524 23.273410 -14.908256 27.837391 1.429162 2.135953 0.124986 -0.036679 124144.000000 0 0 1
3.584524 24.583810 -15.374956 29.216465 1.426008 2.124972 0.104654 -0.029844 584016.000000 0 0 1
2.244924 25.360610 -15.701056 29.911928 1.482506 2.123405 0.100493 -0.036053 879828.000000 0 0 1
1.485524 25.710210 -14.574056 29.590958 1.513081 2.085776 0.125093 -0.041980 -126657.000000 0 0 1
1.598824 27.105310 -14.319756 30.697060 1.511879 2.056110 0.096695 -0.031523 -747225.000000 0 0 1
0.998724 27.480310 -12.925356 30.384696 1.534469 2.010189 0.097838 -0.041624 1369470.000000 0 0 1
-0.438276 27.483510 -12.716756 30.286157 -1.554851 2.004117 0.092300 -0.044758 1354000.000000 0 0 1
-1.145276 26.270210 -12.970556 29.320146 -1.527228 2.029044 0.088444 -0.039834 -516494.000000 0 0 1
-1.184976 25.155610 -11.886356 27.847700 -1.523725 2.011786 0.116590 -0.049274 -692624.000000 0 0 1
-2.057576 25.562110 -10.859456 27.849289 -1.490476 1.971359 0.115283 -0.038586 -266761.000000 0 0 1
-2.683676 24.426110 -10.347656 26.662914 -1.461366 1.969356 0.146424 -0.031232 41240.600000 0 0 1
-3.554376 24.629110 -9.070156 26.485740 -1.427470 1.920324 0.103596 -0.022586 120941.000000 0 0 1
-2.874976 24.879510 -7.798856 26.231235 -1.455751 1.872672 0.104180 -0.028175 296825.000000 0 0 1
-2.338976 26.198210 -7.645656 27.391114 -1.481752 1.853683 0.094762 -0.034754 198425.000000 0 0 1
-2.111176 26.595910 -6.186856 27.387528 -1.491583 1.798664 0.089563 -0.029028 -126632.000000 0 0 1
-1.085776 25.868210 -5.575256 26.484462 -1.528848 1.782893 0.068559 -0.025152 -319522.000000 0 0 1
-0.882176 26.209610 -4.190856 26.557206 -1.537151 1.729264 0.070049 -0.025833 -345072.000000 0 0 1
-1.921776 25.713210 -3.126356 25.973766 -1.496196 1.691455 0.074111 -0.018000 52841.100000 0 0 1
-3.158176 26.385310 -3.301556 26.777957 -1.451669 1.694405 0.072185 -0.017660 360883.000000 0 0 1
-4.144176 26.067810 -2.314756 26.496472 -1.413139 1.658269 0.063213 -0.009554 319988.000000 0 0 1
-5.028976 24.837110 -2.537256 25.467829 -1.371019 1.670588 0.072424 -0.020155 -254093.000000 0 0 1
-6.183676 25.089610 -3.341656 26.055577 -1.329149 1.699402 0.074020 -0.022035 -85877.100000 0 0 1
-6.970876 23.950410 -3.542156 25.194486 -1.287566 1.711856 0.032818 -0.026481 -461210.000000 0 0 1
-8.318276 24.452710 -4.067056 26.147079 -1.242898 1.726976 0.055800 -0.023369 -204732.000000 0 0 1
-9.093576 25.054410 -3.028456 26.825140 -1.222629 1.683934 0.086156 -0.030062 -1276340.000000 0 0 1
-10.310776 25.538610 -3.448556 27.756536 -1.187076 1.695361 0.101612 -0.035037 -934620.000000 0 0 1
-11.165376 25.971410 -2.267356 28.360548 -1.164774 1.650829 0.103542 -0.041138 -514584.000000 0 0 1
-11.767876 24.941110 -1.486556 27.617961 -1.129940 1.624648 0.096935 -0.042929 420771.000000 0 0 1
-10.854376 23.985510 -0.928056 26.343566 -1.145833 1.606033 0.117092 -0.051115 39745.900000 0 0 1
-11.589276 22.690610 -0.518356 25.484188 -1.098584 1.591138 0.096429 -0.051308 -76063.000000 0 0 1
-12.479276 22.890510 0.537944 26.076756 -1.071667 1.550166 0.112723 -0.054955 -224055.000000 0 0 1
-13.334076 21.780410 0.709244 25.547738 -1.021451 1.543031 0.114771 -0.056696 -195519.000000 0 0 1
-14.210976 22.008410 1.923244 26.268248 -0.997445 1.497515 0.120321 -0.055337 -305106.000000 0 0 1
-13.443776 21.743610 3.049844 25.745315 -1.017039 1.452055 0.117846 -0.046953 123408.000000 0 0 1
-13.597076 22.751610 3.969644 26.800641 -1.032120 1.422132 0.116757 -0.050292 -215143.000000 0 0 1
-13.164576 22.364110 5.382744 26.503461 -1.038766 1.366278 0.118248 -0.050285 -257189.000000 0 0 1
-11.823876 22.043810 5.668644 25.648921 -1.078469 1.347947 0.114711 -0.036614 -143040.000000 0 0 1
-11.705976 21.841110 7.030844 25.758431 -1.078796 1.294335 0.090784 -0.036335 -911052.000000 0 0 1
-10.383476 21.527710 7.678244 25.104070 -1.121384 1.259958 0.082439 -0.029896 -839288.000000 0 0 1
-9.549476 22.662410 7.883844 25.825033 -1.171996 1.260565 0.093316 -0.032366 841082.000000 0 0 1
-8.402676 22.455210 8.732144 25.516500 -1.212730 1.221522 0.102341 -0.035726 551367.000000 0 0 1
-8.671576 22.412910 10.304244 26.147892 -1.201633 1.165735 0.076930 -0.031177 -9653.000000 0 0 1
-9.484776 21.335410 10.768544 25.712298 -1.152479 1.138663 0.078234 -0.027330 192864.000000 0 0 1
-9.076176 20.910310 12.044444 25.781518 -1.161283 1.084705 0.052335 -0.020411 -78943.600000 0 0 1
-10.004876 19.830910 12.648244 25.560529 -1.103548 1.053151 0.035502 -0.013945 4263.830000 0 0 1
-9.931976 18.686610 11.896644 24.276814 -1.082266 1.058659 0.054992 -0.027349 35313.700000 0 1 0
-10.433676 17.513910 12.545844 23.937353 -1.033518 1.019125 0.039819 -0.024908 -101315.000000 0 1 0
-10.553576 16.254010 11.696544 22.635812 -0.994920 1.027772 0.035370 -0.031142 -271256.000000 0 1 0
-10.850776 15.101610 12.458044 22.383048 -0.947750 0.980528 0.028960 -0.024308 -119765.000000 0 1 0
-11.526376 14.216410 11.623144 21.680894 -0.889517 1.004985 0.024125 -0.011136 -104939.000000 0 1 0
-11.817676 12.898910 12.258244 21.361271 -0.829116 0.959593 0.006186 -0.016431 -287993.000000 0 1 0
-12.545476 12.886310 13.437044 22.449947 -0.798799 0.929127 0.003359 -0.002632 -90812.700000 0 1 0
-12.936976 11.573710 13.817144 22.186248 -0.729836 0.898506 0.009601 0.005644 -368400.000000 0 1 0
-13.869576 11.504910 15.006744 23.450596 -0.692476 0.876389 0.026749 -0.006274 1075230.000000 0 1 0
-15.146076 12.182710 14.793644 24.426911 -0.677386 0.920240 0.047842 -0.015420 1417380.000000 0 1 0
-15.993676 12.115610 15.944644 25.628448 -0.648300 0.899315 0.051127 -0.014657 154322.000000 0 0 1
-17.344176 12.831510 15.872044 26.784135 -0.636952 0.936524 0.057756 -0.016896 -340157.000000 0 0 1
-18.318376 12.453510 14.949544 26.723430 -0.597065 0.977114 0.066820 -0.020895 -328824.000000 0 0 1
-19.108276 13.595010 14.756044 27.707244 -0.618384 1.009162 0.106552 -0.025579 -194717.000000 0 0 1
-20.251576 13.387810 13.728044 27.889407 -0.584121 1.056145 0.124418 -0.027926 -584141.000000 0 0 1
-21.242176 12.576210 14.204944 28.481074 -0.534546 1.048640 0.115828 -0.020934 -34867.400000 0 0 1
-22.334576 12.402010 13.267444 28.786598 -0.506890 1.091799 0.106369 -0.017947 743563.000000 0 0 1
-23.399876 11.456110 13.880944 29.520794 -0.455277 1.081269 0.110147 -0.026685 334797.000000 0 0 1
-24.185076 12.018810 14.946044 30.866713 -0.461206 1.065334 0.117313 -0.020002 946048.000000 0 0 1
-25.194536 11.114510 15.439344 31.570086 -0.415468 1.059796 0.089109 -0.026557 371611.000000 0 0 1
-25.822166 11.568510 16.766544 32.889690 -0.421195 1.035866 0.085956 -0.015180 220069.000000 0 0 1
-26.873626 12.509210 16.499744 33.925119 -0.435655 1.062880 0.097808 -0.012754 517917.000000 0 0 1
-27.414706 13.029710 17.703644 35.139130 -0.443678 1.042786 0.074036 -0.000518 485367.000000 0 0 1
-28.612486 13.995110 17.416844 36.302671 -0.454911 1.070407 0.074967 -0.005406 435373.000000 0 0 1
-28.165406 15.277310 16.990644 36.268007 -0.497000 1.083233 0.104260 -0.007074 -51388.300000 0 0 1
-29.278206 16.105410 16.705544 37.358705 -0.502906 1.107202 0.104331 -0.011713 81511.300000 0 0 1
-29.119076 17.687010 16.663744 37.926657 -0.545845 1.115902 0.096046 -0.015643 -184100.000000 0 0 1
-28.880116 18.404110 17.869844 38.627758 -0.567366 1.089852 0.093183 -0.008692 853220.000000 0 0 1
-30.019066 18.424610 18.763044 39.908175 -0.550478 1.081329 0.102289 -0.020774 186039.000000 0 0 1
-29.561076 18.785810 20.243544 40.454480 -0.566108 1.046732 0.095814 -0.025301 538548.000000 0 0 1
-28.863766 17.778610 20.967644 39.860232 -0.552064 1.016872 0.092694 -0.020854 430058.000000 0 0 1
-27.597576 17.389610 20.448444 38.498878 -0.562268 1.010846 0.095513 0.000663 -280757.000000 0 0 1
-27.136366 16.049610 21.123244 37.949490 -0.534104 0.980491 0.104113 -0.007756 24917.000000 0 0 1
-28.078296 14.999610 20.958344 38.113399 -0.490637 0.988559 0.079864 -0.007570 886988.000000 0 0 1
-27.496726 13.771210 21.500044 37.522901 -0.464312 0.960653 0.067490 0.002389 495822.000000 0 0 1
-28.647056 12.751510 21.731644 38.151267 -0.418792 0.964755 0.084846 -0.009891 275729.000000 0 0 1
-29.229546 12.442410 20.472144 37.792706 -0.402446 0.998343 0.106505 -0.016822 -27472.900000 0 0 1
-30.455816 11.769710 20.645844 38.630735 -0.368773 1.006950 0.142998 -0.024787 -412191.000000 0 0 1
-31.227576 11.700210 19.354244 38.557012 -0.358486 1.044928 0.157031 -0.027345 -302804.000000 0 0 1
-30.509716 11.041810 18.285944 37.244330 -0.347247 1.057591 0.179849 -0.030395 425866.000000 0 0 1
-30.377856 9.646910 18.397744 36.801549 -0.307492 1.047293 0.178727 -0.029566 379983.000000 0 0 1
-29.476226 8.926610 17.293944 35.321563 -0.294061 1.059149 0.176655 -0.036141 557003.000000 0 0 1
-30.108856 8.637610 16.015744 35.180330 -0.279377 1.098147 0.180953 -0.032308 696529.000000 0 0 1
-30.712736 9.749210 15.275744 35.660449 -0.307372 1.128112 0.189908 -0.033755 211109.000000 0 0 1
-29.710286 10.743310 14.610844 34.807996 -0.346973 1.137621 0.182947 -0.027340 -1940.740000 0 0 1
-29.168586 10.130810 13.461244 33.684489 -0.334285 1.159686 0.179398 -0.037683 283700.000000 0 0 1
-28.161676 11.018810 12.982244 32.909464 -0.372958 1.165291 0.143113 -0.023495 159705.000000 0 0 1
-27.673336 10.943210 11.480744 31.896314 -0.376571 1.202593 0.184349 -0.021932 12446.400000 0 0 1
-26.964946 9.759710 11.056744 30.734539 -0.347273 1.202797 0.191723 -0.027477 797486.000000 0 0 1
-27.691186 8.519610 11.002944 30.991133 -0.298474 1.207845 0.195859 -0.029348 -126628.000000 0 0 1
-26.888596 7.435110 10.247344 29.720120 -0.269775 1.218776 0.206971 -0.039723 -55445.600000 0 0 1
-26.741056 7.793610 8.929744 29.250039 -0.283592 1.260553 0.222893 -0.027251 473534.000000 0 0 1
-26.182236 6.691210 8.150044 28.225963 -0.250208 1.277883 0.229843 -0.045892 -162649.000000 0 0 1
-25.744556 7.258410 6.848144 27.610936 -0.274806 1.320157 0.239978 -0.038591 -603881.000000 0 0 1
-26.778086 7.647810 5.984244 28.484488 -0.278194 1.359132 0.250145 -0.039508 135678.000000 0 0 1
-26.210356 8.359810 4.853044 27.936021 -0.308751 1.396191 0.248698 -0.040343 703933.000000 0 0 1
-27.192416 8.711210 3.636144 28.784271 -0.310024 1.444134 0.251797 -0.043377 468824.000000 0 0 1
-27.714566 7.718110 2.718544 28.897351 -0.271604 1.476581 0.259502 -0.049880 845869.000000 0 0 1
-26.806646 6.687810 2.269044 27.721321 -0.244492 1.488853 0.250785 -0.042436 723248.000000 0 0 1
-25.682716 7.052410 1.233044 26.661936 -0.267992 1.524532 0.243603 -0.040959 540583.000000 0 0 1
-24.573276 7.829410 1.671044 25.844496 -0.308446 1.506094 0.208730 -0.041585 278579.000000 0 0 1
-23.665076 7.945210 0.605444 24.970558 -0.323911 1.546548 0.209170 -0.026358 -1428300.000000 0 1 0
-22.349476 8.357610 1.195644 23.890967 -0.357851 1.520730 0.153578 -0.026454 -1436500.000000 0 1 0
-22.378476 9.690310 1.628544 24.440754 -0.408643 1.504115 0.142982 -0.034587 530291.000000 0 1 0
-21.366476 9.882710 2.588044 23.683164 -0.433228 1.461300 0.132287 -0.043477 -145083.000000 0 1 0
-21.655876 11.292010 3.188944 24.630385 -0.480644 1.440960 0.132402 -0.053943 -132362.000000 0 1 0
-21.233376 12.443110 2.497044 24.737067 -0.530074 1.469681 0.174490 -0.049020 220537.000000 0 1 0
-21.581276 13.607410 3.187544 25.711350 -0.562558 1.446502 0.178259 -0.054723 -98797.800000 0 0 1
-20.443076 14.425410 3.880944 25.319431 -0.614500 1.416910 0.136490 -0.042207 390114.000000 0 0 1
-19.798976 13.686810 4.944544 24.571869 -0.604856 1.368185 0.123251 -0.039480 424965.000000 0 1 0
-19.009976 14.552210 5.762744 24.624282 -0.653350 1.334579 0.107378 -0.030104 -61513.600000 0 1 0
-18.359076 13.827010 6.953644 24.012394 -0.645510 1.277002 0.072419 -0.018804 -140571.000000 0 1 0
-17.352076 12.973610 6.422944 22.597861 -0.642008 1.282595 0.064090 -0.018825 208841.000000 0 1 0
-16.734876 12.329510 7.517244 22.103888 -0.634971 1.223787 0.053641 -0.011099 -338354.000000 0 1 0
11.488924 -32.288013 -14.623656 37.260736 -1.228941 1.974110 0.091752 -0.030455 -360370.000000 0 0 1
12.591824 -32.557513 -13.819156 37.543504 -1.201759 1.947744 0.058296 -0.026409 -332244.000000 0 0 1
13.288324 -31.360113 -13.537056 36.650895 -1.169999 1.949107 0.068464 -0.031615 955468.000000 0 0 1
14.764624 -31.310913 -12.996756 36.976790 -1.130168 1.929952 0.115020 -0.024094 678656.000000 0 0 1
15.731624 -31.885713 -13.841756 38.154644 -1.112462 1.942046 0.114513 -0.026427 714331.000000 0 0 1
17.025424 -31.423213 -13.372956 38.159131 -1.074262 1.928850 0.124270 -0.022371 1104100.000000 0 0 1
18.203324 -32.384013 -13.664856 39.582996 -1.058704 1.923270 0.121692 -0.029909 196540.000000 0 0 1
18.109824 -33.606813 -13.004356 40.329851 -1.076536 1.899113 0.117447 -0.034887 -353674.000000 0 0 1
18.916024 33.045710 -13.595956 40.431237 1.050903 1.913754 0.098812 -0.020031 12919.300000 0 0 1
18.822724 31.694110 -12.859556 39.040745 1.034884 1.906452 0.088732 -0.026324 3711.460000 0 0 1
19.662024 31.779610 -11.734856 39.169448 1.016741 1.875061 0.079696 -0.029091 -154721.000000 0 0 1
19.595824 30.626810 -11.010956 37.989985 1.001607 1.864854 0.069102 -0.026818 251376.000000 0 0 1
20.572124 30.432610 -9.793356 38.016653 0.976367 1.831341 0.079248 -0.024762 219679.000000 0 0 1
21.877124 30.108810 -10.221456 38.595689 0.942439 1.838828 0.063489 -0.028018 221224.000000 0 0 1
22.649124 29.818910 -9.035956 38.520108 0.921208 1.807580 0.059712 -0.024234 832810.000000 0 0 1
23.930424 28.922710 -9.162556 38.641180 0.879575 1.810195 0.036322 -0.014935 1566740.000000 0 0 1
24.983324 29.467610 -10.027556 39.913136 0.867567 1.824752 0.044042 -0.016393 889442.000000 0 0 1
26.212424 28.839810 -9.718856 40.165682 0.833087 1.815191 0.035524 -0.006087 -217023.000000 0 0 1
27.332224 29.314310 -10.650456 41.470610 0.820374 1.830526 0.040291 -0.010099 -577619.000000 0 0 1
27.757724 30.612310 -10.373056 42.605224 0.834264 1.816737 0.042897 -0.022900 -574824.000000 0 0 1
28.802524 30.823310 -11.270156 43.665527 0.819276 1.831853 0.061640 -0.020285 -378334.000000 0 0 1
29.441224 32.218310 -11.059956 45.023636 0.830407 1.818984 0.054006 -0.028339 -484420.000000 0 0 1
28.627724 33.255610 -11.496456 45.361335 0.860043 1.827033 0.056511 -0.015094 -256513.000000 0 0 1
29.189624 -33.159513 -11.188456 45.571581 -0.848984 1.818846 0.068696 -0.011464 320161.000000 0 0 1
28.215124 -32.035213 -11.704256 44.264406 -0.848717 1.838396 0.056375 -0.005203 209128.000000 0 0 1
26.954624 -32.171013 -11.112456 43.416730 -0.873396 1.829625 0.062231 -0.012590 -290444.000000 0 0 1
25.917624 -31.271613 -11.510056 42.215144 -0.878745 1.846945 0.062558 -0.021000 563659.000000 0 0 1
26.072524 -29.785113 -11.089056 41.108352 -0.851766 1.843932 0.063254 -0.011197 -452855.000000 0 0 1
26.951824 -29.039413 -11.911656 41.371196 -0.822665 1.862852 0.052106 -0.008843 21350.400000 0 0 1
27.354724 -27.871513 -11.200356 40.626963 -0.794756 1.850101 0.049376 -0.007727 -101435.000000 0 0 1
28.296124 -26.932913 -11.979156 40.860159 -0.760720 1.868342 0.066762 -0.009044 356657.000000 0 0 1
29.606124 -27.388013 -12.278956 42.159205 -0.746500 1.866332 0.050022 -0.004657 110568.000000 0 0 1
29.707424 -28.298213 -13.404156 43.162382 -0.761109 1.886570 0.055001 -0.012598 -169872.000000 0 0 1
31.084924 -28.951513 -13.670256 44.624416 -0.749878 1.882142 0.056135 -0.004398 175475.000000 0 0 1
31.417524 -29.967513 -12.748456 45.250809 -0.761781 1.856392 0.057586 -0.008698 162362.000000 0 0 1
32.539524 -30.686213 -13.248256 46.647407 -0.756094 1.858768 0.060299 -0.017030 221907.000000 0 0 1
33.193624 -31.727113 -12.284956 47.532583 -0.762813 1.832217 0.052434 -0.016300 755867.000000 0 0 1
34.213524 -32.472113 -13.000456 48.928674 -0.759290 1.839729 0.046322 -0.022518 423680.000000 0 0 1
34.889124 -33.481913 -12.234056 49.879470 -0.764819 1.818597 0.049291 -0.017780 182406.000000 0 0 1
34.095824 33.021410 -11.543356 48.848621 0.769392 1.809362 0.053502 -0.027978 -228675.000000 0 0 1
33.498224 33.370610 -10.332556 48.399281 0.783490 1.785938 0.064464 -0.028868 -232964.000000 0 0 1
32.930424 32.235310 -9.671856 47.085803 0.774732 1.777678 0.078091 -0.026140 -324950.000000 0 0 1
32.211224 32.691910 -8.423456 46.661318 0.792804 1.752315 0.061395 -0.020474 786883.000000 0 0 1
31.073424 33.570010 -8.641356 46.552941 0.824000 1.757503 0.059256 -0.016970 600098.000000 0 0 1
30.363824 -33.702813 -7.474856 45.975155 -0.837468 1.734106 0.052603 -0.017587 871490.000000 0 0 1
29.278524 -32.595513 -7.704356 44.486588 -0.838956 1.744858 0.045547 -0.018249 -141314.000000 0 0 1
29.846324 -31.329013 -7.712956 43.952244 -0.809630 1.747195 0.027097 -0.020079 352234.000000 0 0 1
29.024824 -30.205613 -8.126956 42.671616 -0.805331 1.762420 0.026858 -0.006983 170803.000000 0 0 1
27.888724 -29.712413 -7.235156 41.387871 -0.817048 1.746513 0.040328 -0.012427 -332809.000000 0 0 1
27.081324 -28.782113 -7.838756 40.289629 -0.815834 1.766605 0.046333 -0.019873 -618703.000000 0 0 1
26.076824 -28.326313 -6.982656 39.129761 -0.826723 1.750206 0.062092 -0.026873 -65184.500000 0 0 1
25.004624 -27.400913 -7.640756 37.873769 -0.831092 1.773933 0.092966 -0.031559 -200934.000000 0 0 1
24.141424 -28.134213 -8.451956 38.023385 -0.861630 1.794952 0.119954 -0.031569 155018.000000 0 0 1
23.456724 -27.269513 -9.389756 37.175418 -0.860421 1.826142 0.138265 -0.031237 1101900.000000 0 0 1
22.279024 -27.980213 -10.192356 37.190473 -0.898351 1.848407 0.129941 -0.022767 835138.000000 0 0 1
22.799924 -28.735713 -11.238056 38.364979 -0.900071 1.868081 0.132032 -0.020989 518516.000000 0 0 1
21.796224 -29.664313 -11.664756 38.614937 -0.937119 1.877669 0.115947 -0.022589 689573.000000 0 0 1
21.453824 -30.946713 -10.825456 39.181068 -0.964615 1.850731 0.118290 -0.030132 202380.000000 0 0 1
22.465224 -31.908713 -10.884756 40.513333 -0.957360 1.842809 0.091594 -0.024940 -119808.000000 0 0 1
21.893824 -33.127113 -10.436456 41.056847 -0.986794 1.827812 0.079349 -0.025929 164423.000000 0 0 1
22.916824 33.382010 -10.367856 41.797510 0.969187 1.821463 0.067071 -0.020006 418763.000000 0 0 1
23.921524 33.663810 -9.370556 42.347358 0.952991 1.793922 0.069707 -0.018958 -162200.000000 0 0 1
25.086924 32.956010 -9.675156 42.533058 0.920150 1.800279 0.050350 -0.013957 518470.000000 0 0 1
26.349124 33.329410 -8.785856 43.385680 0.901834 1.774712 0.046153 -0.013560 319309.000000 0 0 1
26.324824 32.943510 -7.369456 42.808645 0.896611 1.743807 0.050494 -0.017429 111638.000000 0 0 1
26.616224 31.552610 -7.087556 41.883458 0.870058 1.740835 0.052195 -0.018361 -114420.000000 0 0 1
26.382224 31.119010 -5.642256 41.185551 0.867590 1.708225 0.061110 -0.014395 -528310.000000 0 0 1
27.325324 31.709810 -4.787556 42.132008 0.859531 1.684675 0.060736 -0.007629 576967.000000 0 0 1
28.303924 30.813310 -4.189856 42.049103 0.827820 1.670604 0.072913 -0.008863 886812.000000 0 0 1
27.718824 29.811610 -3.128156 40.827083 0.821759 1.647491 0.072160 0.001888 9117.450000 0 0 1
27.159924 30.416610 -1.896656 40.821918 0.841901 1.617275 0.089494 -0.004148 399762.000000 0 0 1
26.736824 29.447610 -0.946556 39.785870 0.833609 1.594590 0.077486 0.003052 46676.800000 0 0 1
25.397024 28.725810 -1.198956 38.361680 0.846825 1.602055 0.047357 0.001773 -328896.000000 0 0 1
24.262524 29.472110 -0.819456 38.183070 0.882046 1.592259 0.059546 -0.005641 -113456.000000 0 0 1
23.070424 28.792010 -1.213156 36.914713 0.895276 1.603666 0.071241 -0.003042 256737.000000 0 0 1
21.874724 29.356310 -0.424056 36.612516 0.930409 1.582379 0.056249 -0.008261 -298222.000000 0 0 1
21.740624 28.822710 0.829844 36.112214 0.924557 1.547815 0.073975 -0.019359 354462.000000 0 0 1
20.744124 29.528610 1.586244 36.121651 0.958388 1.526868 0.091203 -0.020819 -147048.000000 0 0 1
20.079924 28.595110 2.542044 35.033493 0.958585 1.498172 0.088652 -0.033444 -261848.000000 0 0 1
19.099124 27.737210 1.974544 33.734673 0.967780 1.512231 0.085659 -0.023202 119537.000000 0 0 1
18.521124 26.945310 2.963444 32.830836 0.968604 1.480409 0.089469 -0.027420 -545249.000000 0 0 1
17.877424 25.671610 2.374544 31.373115 0.962498 1.495037 0.100851 -0.022510 331237.000000 0 0 1
18.760324 24.745210 1.692144 31.098851 0.922106 1.516358 0.105109 -0.025156 1311950.000000 0 0 1
19.945724 24.350610 2.406844 31.568608 0.884514 1.494481 0.111472 -0.018783 60411.900000 0 0 1
21.009324 23.528210 1.676944 31.587664 0.841894 1.517683 0.119159 -0.015048 -345712.000000 0 0 1
20.713524 22.173410 1.336544 30.372628 0.819425 1.526777 0.105133 -0.011660 239985.000000 0 0 1
21.859724 21.465010 0.886044 30.649295 0.776288 1.541883 0.073678 -0.016187 189282.000000 0 0 1
21.542024 20.477310 -0.289056 29.723098 0.760065 1.580521 0.119962 -0.014995 -93689.900000 0 0 1
21.436924 21.156310 -1.548856 30.158417 0.778810 1.622176 0.082942 -0.009440 179149.000000 0 0 1
21.333624 20.366710 -2.731856 29.620760 0.762215 1.663155 0.138237 -0.013636 -30647.500000 0 0 1
21.599824 21.129110 -4.051856 30.486214 0.774382 1.704099 0.089079 -0.025479 -309997.000000 0 0 1
22.836824 21.780310 -4.036256 31.814993 0.761723 1.698006 0.096301 -0.017380 -74173.700000 0 0 1
22.809924 22.615310 -5.203756 32.539575 0.781114 1.731407 0.050535 -0.011437 -1012680.000000 0 0 1
23.956124 23.578510 -5.269456 34.023656 0.777454 1.726299 0.055705 -0.002574 -958813.000000 0 0 1
23.952124 24.797510 -4.536056 34.773504 0.802738 1.701615 0.041622 -0.001461 -24120.000000 0 0 1
24.174424 24.680610 -3.112856 34.687536 0.795759 1.660657 0.069936 -0.004779 -123731.000000 0 0 1
22.922324 24.423910 -2.219256 33.569114 0.817103 1.636955 0.063744 -0.006097 -823163.000000 0 0 1
22.099324 25.560210 -2.214956 33.861638 0.857888 1.636255 0.078720 -0.014206 1776260.000000 0 0 1
20.838124 25.514310 -1.458756 32.974769 0.885941 1.615049 0.086713 -0.003104 2048090.000000 0 0 1
19.775824 24.408510 -1.810856 31.466455 0.889866 1.628377 0.098931 -0.020675 -233257.000000 0 0 1
19.236524 24.641910 -3.161656 31.420752 0.907971 1.671590 0.078686 -0.018868 781402.000000 0 0 1
18.353624 23.578410 -3.567856 30.091968 0.909361 1.689641 0.085152 -0.023210 233216.000000 0 0 1
17.857024 23.835710 -4.985356 30.197155 0.927826 1.736649 0.083296 -0.020185 -140728.000000 0 0 1
17.001424 22.836910 -5.528656 29.002395 0.930843 1.762598 0.093478 -0.028306 355316.000000 0 0 1
16.645824 23.237210 -6.834856 29.389907 0.949186 1.805503 0.089863 -0.027081 9691.930000 0 0 1
16.126024 22.062110 -7.719156 28.396668 0.939607 1.846094 0.104017 -0.023876 124143.000000 0 0 1
17.087724 21.056110 -8.110056 28.304118 0.889063 1.861402 0.089742 -0.023884 593083.000000 0 0 1
16.553424 20.215410 -9.090656 27.664394 0.884666 1.905622 0.145131 -0.033809 -505576.000000 0 0 1
17.288724 18.896310 -9.339856 27.261758 0.829796 1.920478 0.142306 -0.033835 -552720.000000 0 0 1
18.405024 19.055110 -10.157556 28.372841 0.802751 1.936924 0.106726 -0.033891 -140321.000000 0 0 1
19.100924 17.842710 -10.357156 28.115446 0.751354 1.948062 0.110276 -0.036136 -643207.000000 0 0 1
20.526324 18.050110 -10.840356 29.404928 0.721296 1.948361 0.079953 -0.035716 -837372.000000 0 0 1
20.843524 18.446510 -12.163356 30.375541 0.724466 1.982785 0.086445 -0.033397 -264938.000000 0 0 1
22.213524 18.725410 -12.229156 31.521959 0.700401 1.969210 0.077331 -0.029968 -456205.000000 0 0 1
22.803524 18.984010 -13.592656 32.636692 0.694248 2.000371 0.077324 -0.033131 -401315.000000 0 0 1
22.743324 17.896110 -14.423456 32.335207 0.666685 2.033155 0.080007 -0.029700 54803.600000 0 0 1
22.573024 18.334410 -15.766156 33.079657 0.682152 2.067593 0.095641 -0.032265 -13293.000000 0 0 1
22.250824 17.208710 -16.778256 32.752843 0.658308 2.108621 0.079462 -0.025798 252572.000000 0 0 1
23.254224 16.182110 -16.845756 32.960569 0.607954 2.107247 0.090224 -0.023355 258021.000000 0 0 1
23.405324 15.528410 -18.095056 33.412150 0.585777 2.143101 0.087418 -0.026103 -527548.000000 0 0 1
24.325324 16.182010 -19.119756 34.916241 0.587009 2.150277 0.092366 -0.016095 -1142180.000000 0 0 1
25.635524 16.143710 -18.644256 35.572570 0.562000 2.122477 0.106541 -0.010382 -140862.000000 0 0 1
26.484524 16.783510 -19.616556 36.985477 0.564838 2.129851 0.112560 -0.014679 381666.000000 0 0 1
27.969824 16.976610 -19.237956 37.955438 0.545523 2.102330 0.096301 -0.013579 226067.000000 0 0 1
28.284924 17.890610 -18.196856 38.095097 0.563984 2.068796 0.082763 -0.013208 282667.000000 0 0 1
29.674724 18.024310 -17.925656 39.074213 0.545840 2.047395 0.070767 -0.022103 239838.000000 0 0 1
30.019124 19.005010 -16.798156 39.300334 0.564401 2.012445 0.073994 -0.032299 11599.000000 0 0 1
29.369224 18.802110 -15.544556 38.179889 0.569453 1.990117 0.064435 -0.026724 556682.000000 0 0 1
28.150024 19.578510 -15.571856 37.659323 0.607703 1.997083 0.057116 -0.023105 699526.000000 0 0 1
27.051824 19.100310 -14.593056 36.188124 0.614784 1.985868 0.064509 -0.027731 238588.000000 0 0 1
27.410124 19.355610 -13.203956 36.059659 0.614840 1.945686 0.059088 -0.028060 -243972.000000 0 0 1
26.347024 18.989810 -12.409556 34.767451 0.624522 1.935776 0.061847 -0.034473 -728463.000000 0 0 1
26.457924 19.554810 -10.944856 34.672788 0.636483 1.891950 0.059065 -0.028759 -141419.000000 0 0 1
26.530924 20.939610 -10.979656 35.537446 0.668153 1.884896 0.053108 -0.021716 121478.000000 0 0 1
26.916824 21.486610 -9.771556 35.800463 0.673679 1.847249 0.046807 -0.014299 570028.000000 0 0 1
25.815624 21.323710 -8.647656 34.582207 0.690395 1.823539 0.067784 -0.020485 -280871.000000 0 0 1
25.940024 20.060610 -8.031456 33.761179 0.658276 1.810990 0.085202 -0.031133 347309.000000 0 0 1
24.986324 19.692710 -7.036456 32.582678 0.667467 1.788468 0.082158 -0.032830 407445.000000 0 0 1
23.552724 19.433510 -7.593056 31.465006 0.689864 1.814520 0.087762 -0.038193 -165941.000000 0 0 1
22.901024 20.656510 -7.852556 31.824691 0.733914 1.820115 0.081676 -0.023522 20575.200000 0 0 1
21.529724 20.472610 -8.149456 30.806987 0.760236 1.838516 0.081807 -0.025878 337754.000000 0 0 1
20.668424 21.787410 -8.167556 31.122082 0.811749 1.836342 0.082773 -0.028692 -331864.000000 0 0 1
20.977024 22.691510 -9.202256 32.243165 0.824639 1.860222 0.090075 -0.032061 -21289.200000 0 0 1
20.584524 22.307510 -10.530656 32.128529 0.825547 1.904735 0.095737 -0.018254 683713.000000 0 0 1
19.020924 22.384510 -10.671456 31.252869 0.866456 1.919261 0.096154 -0.022103 225472.000000 0 0 1
18.590524 23.750010 -10.465156 31.924756 0.906657 1.904778 0.111407 -0.033805 457853.000000 0 0 1
17.186824 23.929510 -10.611856 31.314851 0.947942 1.916518 0.107943 -0.026759 415082.000000 0 0 1
16.705124 25.281910 -10.079456 31.934802 0.986898 1.891913 0.112470 -0.031639 62061.300000 0 0 1
17.202824 26.331010 -10.894956 33.286023 0.992084 1.904255 0.108959 -0.027207 138358.000000 0 0 1
17.234724 27.498810 -10.108656 33.991252 1.010944 1.872754 0.113402 -0.041932 34189.500000 0 0 1
20.781024 28.876610 32.798178 48.388326 0.947004 0.826014 0.067046 -0.004971 44034.100000 0 0 1
19.411224 29.032810 32.535733 47.731265 0.981459 0.820789 0.091369 -0.031375 -665357.000000 0 0 1
18.660524 27.905810 32.886844 46.994616 0.981390 0.795678 0.087111 -0.028362 302136.000000 0 0 1
17.171824 28.338710 33.042474 46.794862 1.026014 0.786802 0.118989 -0.039050 429391.000000 0 0 1
16.534624 28.763410 31.836291 45.981268 1.049075 0.806021 0.120969 -0.042851 -89924.100000 0 0 1
15.239924 29.277110 32.067845 46.019031 1.090852 0.799816 0.128066 -0.048602 -19749.200000 0 0 1
14.326724 29.332310 30.845163 44.911731 1.116449 0.813726 0.120904 -0.047042 -121662.000000 0 0 1
13.787124 28.052110 30.589683 43.734819 1.113986 0.796189 0.115217 -0.048386 192022.000000 0 0 1
12.417824 28.090710 30.227373 43.092743 1.154564 0.793367 0.110365 -0.028093 -322684.000000 0 0 1
11.753924 26.715610 30.225313 42.017236 1.156319 0.767923 0.084272 -0.031084 -366361.000000 0 0 1
12.078824 25.692110 29.265543 40.773209 1.131323 0.770211 0.084369 -0.029877 1108020.000000 0 0 1
13.432724 25.184410 29.356143 40.944789 1.080807 0.771352 0.075659 -0.026469 979893.000000 0 0 1
13.652624 24.467010 28.000013 39.610977 1.061831 0.785726 0.084639 -0.022455 -131296.000000 0 0 1
13.429924 25.251810 26.818993 39.208101 1.082002 0.817542 0.082613 -0.029707 345478.000000 0 0 1
13.679024 24.483710 25.658873 38.012439 1.061299 0.829815 0.083464 -0.021855 -108313.000000 0 0 1
12.392024 23.863310 25.067753 36.761557 1.091835 0.820437 0.079697 -0.023123 -96148.200000 0 0 1
12.486924 23.300710 23.789623 35.563922 1.078840 0.838034 0.093869 -0.024869 -284966.000000 0 0 1
11.321624 22.565410 23.496343 34.488477 1.105770 0.821285 0.093902 -0.028280 -71348.800000 0 0 1
11.172724 22.124310 22.080783 33.194516 1.103159 0.843043 0.125643 -0.039946 -204384.000000 0 0 1
10.933524 23.248610 21.260183 33.347192 1.131200 0.879495 0.132947 -0.033413 78229.400000 0 0 1
11.072224 22.852210 19.903483 32.264009 1.119614 0.906006 0.132112 -0.024549 -535684.000000 0 0 1
10.734224 24.065110 18.972783 32.470288 1.151233 0.946764 0.134141 -0.026933 -211050.000000 0 0 1
9.378324 24.324610 18.746983 32.110575 1.202810 0.947363 0.135353 -0.031581 -480063.000000 0 0 1
8.725624 24.997910 19.777083 33.047921 1.234964 0.929248 0.140826 -0.040924 -56744.900000 0 0 1
7.244124 25.403910 19.564883 32.872795 1.293011 0.933320 0.128199 -0.042331 470417.000000 0 0 1
7.115124 26.460210 18.625683 33.131312 1.308111 0.973780 0.134988 -0.050306 -49302.800000 0 0 1
5.752124 26.688110 18.307783 32.871220 1.358512 0.980082 0.111020 -0.049219 -88045.100000 0 0 1
5.429024 27.914210 17.373283 33.324292 1.378705 1.022376 0.108825 -0.045252 -160965.000000 0 0 1
5.868924 27.770210 16.017183 32.591088 1.362522 1.057032 0.108470 -0.036197 268895.000000 0 0 1
6.941224 28.677110 15.743983 33.442940 1.333316 1.080631 0.112676 -0.035414 526806.000000 0 0 1
7.836224 28.427410 14.492283 32.856511 1.301819 1.113997 0.118675 -0.037908 -159365.000000 0 0 1
7.201924 28.401510 13.249983 32.157045 1.322455 1.146105 0.102777 -0.036308 -420115.000000 0 0 1
6.950524 27.061810 12.749583 30.711614 1.319392 1.142701 0.091122 -0.034024 -27168.400000 0 0 1
6.416724 27.004010 11.316283 29.974142 1.337502 1.183664 0.095273 -0.034461 30676.600000 0 0 1
7.254124 27.527710 10.272283 30.264120 1.313133 1.224495 0.086461 -0.025575 238417.000000 0 0 1
7.468124 28.912310 10.294783 31.586027 1.318019 1.238803 0.081778 -0.022766 -105050.000000 0 0 1
7.690124 29.565010 8.820783 31.796762 1.316326 1.289698 0.064359 -0.009087 238129.000000 0 0 1
6.529224 29.370410 8.009383 31.135221 1.352047 1.310626 0.084566 -0.020028 160731.000000 0 0 1
6.255124 28.166310 7.398583 29.786014 1.352265 1.319777 0.081160 -0.008941 -139732.000000 0 0 1
4.729924 27.916710 7.359283 29.255324 1.402960 1.316511 0.087480 -0.023746 136569.000000 0 0 1
4.074324 28.939810 6.602383 29.961712 1.430929 1.348612 0.087200 -0.018054 -303425.000000 0 0 1
2.707624 28.652010 6.415683 29.486097 1.476576 1.351459 0.091989 -0.013943 299458.000000 0 0 1
1.965224 29.644410 5.451683 30.205530 1.504600 1.389316 0.098487 -0.022614 -92814.100000 0 0 1
2.326524 29.442710 4.055783 29.811664 1.491942 1.434326 0.085726 -0.023088 184857.000000 0 0 1
1.645024 30.287510 3.146883 30.494955 1.516536 1.467419 0.060298 -0.025310 -302309.000000 0 0 1
0.253424 29.878410 2.709783 30.002109 1.562315 1.480353 0.100373 -0.029361 -638331.000000 0 0 1
0.391324 28.736610 1.831483 28.797574 1.557180 1.507155 0.103199 -0.026408 -606720.000000 0 0 1
-0.824976 28.181510 1.462083 28.231468 -1.541531 1.518984 0.095171 -0.027497 -491321.000000 0 0 1
-1.198876 28.098410 -0.029917 28.123991 -1.528155 1.571860 0.093499 -0.031629 -93814.900000 0 0 1
-1.813776 29.288510 -0.464417 29.348293 -1.508947 1.586621 0.103702 -0.034872 27806.900000 0 0 1
-1.301776 29.696010 -1.702317 29.773235 -1.526988 1.628004 0.082752 -0.031270 -422872.000000 0 0 1
-2.230876 30.738710 -2.362017 30.909938 -1.498348 1.647287 0.102161 -0.029947 1189560.000000 0 0 1
-3.579676 30.415610 -2.775117 30.751012 -1.453643 1.661164 0.091581 -0.027835 1151430.000000 0 0 1
-3.579676 29.513710 -3.845117 29.977627 -1.450097 1.699417 0.068750 -0.025066 -864830.000000 0 0 1
-4.956176 29.223910 -4.438217 29.971627 -1.402802 1.719424 0.077072 -0.021703 -358005.000000 0 0 1
-5.594376 30.276510 -5.121517 31.212082 -1.388081 1.735629 0.083065 -0.023878 235572.000000 0 0 1
-6.580376 29.816310 -6.034617 31.124433 -1.353581 1.765919 0.082291 -0.030482 122145.000000 0 0 1
-7.301376 30.895610 -6.883017 32.484223 -1.338730 1.784303 0.086169 -0.027976 396994.000000 0 0 1
-8.273776 31.590210 -6.088217 33.218416 -1.314641 1.755117 0.072106 -0.018422 73596.900000 0 0 1
-8.700376 32.748310 -6.749317 34.549988 -1.311121 1.767410 0.069067 -0.031730 -66923.100000 0 0 1
-9.878676 33.526710 -6.141417 35.487259 -1.284254 1.744732 0.062191 -0.024538 652589.000000 0 0 1
-11.149576 32.863010 -6.232917 35.258187 -1.243708 1.748510 0.072233 -0.022464 130148.000000 0 0 1
-12.132076 33.773610 -5.779317 36.348928 -1.225934 1.730469 0.070791 -0.019259 -106532.000000 0 0 1
-13.569876 33.305210 -6.045217 36.468113 -1.183893 1.737332 0.094552 -0.016130 -35986.400000 0 0 1
-13.910576 33.279610 -7.467317 36.834731 -1.174877 1.774936 0.076802 -0.021401 -199608.000000 0 0 1
-15.257576 32.966210 -7.694317 37.131754 -1.137329 1.779525 0.110357 -0.021377 -854924.000000 0 0 1
-15.648676 32.984310 -9.214117 37.652965 -1.127815 1.818019 0.142733 -0.036460 851762.000000 0 0 1
-17.020476 32.656710 -9.488317 38.028746 -1.090338 1.822964 0.188394 -0.047364 898322.000000 0 0 1
-17.912376 33.754410 -9.222717 39.309947 -1.082917 1.807619 0.186048 -0.046521 -867931.000000 0 0 1
-19.363476 33.310210 -9.500617 39.683448 -1.044235 1.812555 0.189725 -0.052764 121767.000000 0 0 1
-20.051476 32.650510 -8.405917 39.227248 -1.020056 1.786759 0.183622 -0.048224 436816.000000 0 0 1
-20.411576 33.553510 -7.330717 39.952596 -1.024275 1.755327 0.170119 -0.028727 -543413.000000 0 0 1
-21.068576 32.786910 -6.185117 39.460386 -0.999647 1.728188 0.168128 -0.035809 -640476.000000 0 0 1
-20.916776 33.542210 -4.946917 39.837964 -1.013208 1.695294 0.161413 -0.031369 729974.000000 0 0 1
-21.851276 33.211510 -3.883517 39.944517 -0.988858 1.668173 0.133563 -0.027981 1086590.000000 0 0 1
-23.207876 -33.645113 -3.966217 41.064948 0.966959 1.667531 0.150959 -0.034435 608893.000000 0 0 1
-23.855876 33.748510 -5.235117 41.658988 -0.955473 1.696795 0.164876 -0.043047 356154.000000 0 0 1
-25.010876 -33.072113 -5.391017 41.813534 0.923305 1.700086 0.165942 -0.060154 433274.000000 0 0 1
-25.581776 -32.947513 -6.841417 42.270212 0.910587 1.733361 0.215434 -0.051564 234178.000000 0 0 1
-24.854776 -31.997313 -7.639117 41.230377 0.910377 1.757152 0.244200 -0.046410 194526.000000 0 0 1
-24.919676 -32.220313 -9.045017 41.724707 0.912477 1.789310 0.204575 -0.041908 -575627.000000 0 0 1
-26.169416 -31.751413 -9.772817 42.290643 0.881474 1.803991 0.174330 -0.032036 -1177100.000000 0 0 1
-27.334726 -32.431413 -9.353817 43.433601 0.870469 1.787856 0.158613 -0.018872 -174285.000000 0 0 1
-28.507206 -32.052413 -10.028017 44.052004 0.843872 1.800450 0.078491 -0.013438 292906.000000 0 0 1
-29.101046 -30.630513 -9.620617 43.331922 0.810998 1.794684 0.045928 0.005872 -711526.000000 0 0 1
-28.406616 -29.524013 -10.172417 42.214704 0.804684 1.814160 0.075757 0.010504 -104678.000000 0 0 1
-28.674666 -29.355013 -11.551017 42.630731 0.797122 1.845182 0.069456 0.003337 200997.000000 0 0 1
-27.692516 -28.288513 -12.162917 41.413186 0.796044 1.868888 0.139143 -0.001848 186239.000000 0 0 1
-26.359266 -28.724713 -12.224117 40.857668 0.828314 1.874638 0.143540 -0.021072 -528241.000000 0 0 1
-25.632586 -27.885613 -13.083717 40.072690 0.827472 1.903394 0.130717 -0.026416 329953.000000 0 0 1
-24.270276 -28.536813 -13.524217 39.828387 0.866018 1.917248 0.153254 -0.040741 374848.000000 0 0 1
-24.213676 -29.702313 -14.320217 40.909633 0.886848 1.928416 0.172830 -0.055699 -201323.000000 0 0 1
-24.539576 -30.918713 -13.666617 41.772407 0.899921 1.904102 0.172526 -0.057212 -44341.200000 0 0 1
-24.182676 -32.147513 -14.503317 42.762257 0.925863 1.916822 0.183018 -0.052912 83010.200000 0 0 1
-24.451376 -33.282413 -13.688017 43.508052 0.937183 1.890841 0.164563 -0.065242 13950.100000 0 0 1
-24.578376 33.190810 -14.453417 43.756459 -0.933392 1.907434 0.162521 -0.061275 -361490.000000 0 0 1
-25.059946 32.058810 -13.543217 42.885743 -0.907322 1.892094 0.134200 -0.067018 -196945.000000 0 0 1
-24.235176 31.586910 -12.488217 41.725678 -0.916344 1.874748 0.139219 -0.064314 89192.600000 0 0 1
-24.059876 32.459710 -11.414217 41.985650 -0.932936 1.846122 0.180715 -0.058230 198062.000000 0 0 1
-23.322876 31.694110 -10.296817 40.675516 -0.936397 1.826726 0.179988 -0.056383 294689.000000 0 0 1
-24.301876 31.020210 -9.532317 40.542567 -0.906247 1.808137 0.164840 -0.051962 95765.800000 0 0 1
-23.725176 30.186410 -8.558217 39.336325 -0.904678 1.790116 0.161304 -0.042489 -357388.000000 0 0 1
-24.668176 29.296610 -7.728617 39.070984 -0.870956 1.769919 0.141160 -0.033114 -378443.000000 0 0 1
-25.269216 28.272110 -8.477317 38.854992 -0.841425 1.790744 0.139650 -0.020636 -57153.500000 0 0 1
-25.835496 27.245910 -7.642117 38.317287 -0.811963 1.771586 0.132035 -0.014356 -358587.000000 0 0 1
-24.911976 26.170210 -7.078717 36.818402 -0.810025 1.764261 0.129555 -0.011387 353322.000000 0 0 1
-23.953376 26.626910 -6.097217 36.330877 -0.838206 1.739419 0.128520 -0.005041 1266330.000000 0 0 1
-22.981676 25.633910 -5.677417 34.892519 -0.839899 1.734235 0.116861 -0.015194 -788181.000000 0 0 1
-21.613576 26.123310 -5.381117 34.329731 -0.879589 1.728193 0.108390 -0.038322 -1763540.000000 0 0 1
-20.924676 26.431010 -6.563617 34.344162 -0.901154 1.763092 0.118103 -0.026446 62521.100000 0 0 1
-19.828576 27.281410 -6.145917 34.281483 -0.942299 1.751049 0.137748 -0.025905 684176.000000 0 0 1
-18.588576 27.083210 -7.071917 33.601302 -0.969290 1.782847 0.138944 -0.033023 -86562.000000 0 0 1
-18.579476 27.705810 -8.363417 34.391214 -0.980077 1.816444 0.145879 -0.043216 17019.300000 0 0 1
-18.617176 29.124910 -8.408317 35.574702 -1.002038 1.809411 0.143313 -0.038382 -267618.000000 0 0 1
-18.567776 29.801410 -9.821017 36.460098 -1.013600 1.843528 0.158674 -0.044860 33421.600000 0 0 1
-17.313776 29.604210 -10.455617 35.853815 -1.041597 1.866714 0.142295 -0.046450 70475.300000 0 0 1
-17.238476 30.380510 -11.631817 36.816296 -1.054678 1.892246 0.151552 -0.052273 -625277.000000 0 0 1
-15.826476 30.767210 -12.059417 36.640526 -1.095700 1.906176 0.134050 -0.046378 -350509.000000 0 0 1
-15.683676 31.411810 -13.356717 37.564364 -1.107715 1.934319 0.133327 -0.046502 -196963.000000 0 0 1
-16.009776 30.582810 -14.456017 37.424560 -1.088534 1.967382 0.137474 -0.051944 -54706.800000 0 0 1
-15.503776 31.369510 -15.707617 38.355475 -1.111775 1.992732 0.163142 -0.047388 -298067.000000 0 0 1
-14.113076 31.458510 -15.696417 37.883958 -1.149086 1.998002 0.160843 -0.052114 -690299.000000 0 0 1
-13.595676 31.846210 -16.972017 38.562584 -1.167303 2.026524 0.156101 -0.052793 -448269.000000 0 0 1
-12.071676 31.921710 -16.996417 38.126095 -1.209254 2.032858 0.167639 -0.057465 -593552.000000 0 0 1
-11.481876 30.642010 -17.053017 36.899481 -1.212280 2.051212 0.172319 -0.069039 346455.000000 0 0 1
-10.207476 30.581710 -17.696617 36.777763 -1.248646 2.072793 0.166867 -0.061138 647821.000000 0 0 1
-10.250876 30.688710 -19.264417 37.656277 -1.248421 2.107826 0.169203 -0.070772 -140149.000000 0 0 1
-11.000976 29.611110 -19.832817 37.298525 -1.215084 2.131441 0.156065 -0.076750 295154.000000 0 0 1
-10.615176 29.510810 -21.157617 37.831398 -1.225502 2.164290 0.153740 -0.079921 -1660550.000000 0 0 1
-11.683476 29.124210 -22.129317 38.398306 -1.189290 2.185002 0.142734 -0.074277 -544611.000000 0 0 1
-12.586876 30.202110 -22.365817 39.633656 -1.175930 2.170398 0.152413 -0.073609 536784.000000 0 0 1
-13.692976 30.236910 -21.456717 39.524158 -1.145570 2.144654 0.151626 -0.071085 -580575.000000 0 0 1
-14.566576 31.471510 -21.538017 40.823122 -1.137308 2.126562 0.182319 -0.070032 -72315.600000 0 0 1
-15.231176 31.646110 -22.777317 41.860139 -1.122223 2.146147 0.133893 -0.056885 46167.500000 0 0 1
-16.064476 32.806810 -22.692817 43.003699 -1.115448 2.126680 0.120681 -0.057144 277366.000000 0 0 1
-16.602976 33.255610 -24.041317 44.267136 -1.107746 2.144917 0.109454 -0.042957 273466.000000 0 0 1
-15.538176 33.545610 -24.944717 44.598002 -1.137023 2.164366 0.122512 -0.038333 251575.000000 0 0 1
-15.825076 33.070510 -26.284217 45.110440 -1.124476 2.192799 0.123262 -0.032747 185679.000000 0 0 1
-16.509676 -33.433113 -27.099917 46.094988 1.112111 2.199275 0.107004 -0.021221 -313256.000000 0 0 1
-17.843776 -33.227113 -26.764217 46.246780 1.077970 2.187962 0.108654 -0.015301 -833828.000000 0 0 1
-18.347976 -32.181613 -27.559917 46.171998 1.052623 2.210424 0.096241 -0.003623 -25508.200000 0 0 1
-19.737976 -31.681613 -27.106317 46.130951 1.013629 2.198880 0.108609 -0.009926 776057.000000 0 0 1
-20.752876 -32.697413 -27.284517 47.373490 1.005256 2.184556 0.100902 -0.012243 478606.000000 0 0 1
-22.065376 -32.136813 -27.353417 47.622106 0.969115 2.182649 0.084694 -0.005574 838534.000000 0 0 1
-23.194776 -33.180313 -27.294917 48.825641 0.960707 2.164010 0.057747 -0.001150 -23916.400000 0 0 1
-23.082576 33.564210 -26.189717 48.427914 -0.968364 2.142182 0.088195 -0.012969 62341.300000 0 0 1
-24.226276 32.695810 -26.083417 48.335009 -0.933106 2.140804 0.065367 -0.010916 739145.000000 0 0 1
-24.413476 31.428410 -27.008917 48.096199 -0.910365 2.167067 0.067992 -0.013024 -102447.000000 0 0 1
-23.640176 30.261310 -26.716117 46.779865 -0.907624 2.178645 0.079565 -0.040864 -36872.700000 0 0 1
-24.242076 29.466810 -25.714617 46.013180 -0.882372 2.163799 0.057096 -0.030373 -195982.000000 0 0 1
33.531717 9.769210 -25.993076 43.536806 0.283495 2.210599 0.054021 -0.019459 -142394.000000 0 0 1
32.854757 8.521510 -25.989516 42.749341 0.253777 2.224274 0.049383 -0.015247 -151642.000000 0 0 1
31.480387 8.791310 -26.174976 41.873993 0.272325 2.246042 0.076598 -0.026031 10784.500000 0 0 1
30.633587 7.506010 -25.929146 40.829860 0.240291 2.258874 0.071905 -0.018312 -239174.000000 0 0 1
30.547327 7.159210 -24.562456 39.846050 0.230210 2.235002 0.054090 -0.004697 45888.800000 0 0 1
30.097147 5.798410 -24.397356 39.175130 0.190325 2.243083 0.064040 -0.003064 96293.500000 0 0 1
30.034107 5.272610 -22.910656 38.141135 0.173783 2.215149 0.074030 -0.019357 659839.000000 0 0 1
31.309647 5.084210 -22.258256 38.750137 0.160980 2.182673 0.089440 -0.019091 843575.000000 0 0 1
31.312007 4.936510 -20.815256 37.922101 0.156368 2.151838 0.091317 -0.016059 -431065.000000 0 0 1
32.656457 4.693610 -20.111456 38.638644 0.142749 2.118234 0.091295 -0.014384 -281133.000000 0 0 1
33.178247 3.373110 -20.105456 38.941023 0.101318 2.113327 0.109445 -0.014639 533477.000000 0 0 1
34.187667 3.301510 -19.100356 39.300383 0.096272 2.078314 0.117434 -0.020721 277366.000000 0 0 1
34.856017 1.886010 -18.930356 39.709663 0.054056 2.067715 0.124017 -0.025565 181783.000000 0 0 1
33.922027 0.914310 -18.515456 38.656978 0.026947 2.070275 0.128461 -0.025918 258357.000000 0 0 1
34.481867 -0.400490 -18.614356 39.187418 -0.011614 2.065770 0.136200 -0.026411 -344663.000000 0 0 1
33.507157 -1.519590 -18.267556 38.193485 -0.045320 2.069503 0.104790 -0.026608 -155959.000000 0 0 1
33.096867 -1.551690 -16.888456 37.189115 -0.046849 2.042185 0.103034 -0.032418 361403.000000 0 0 1
31.696487 -1.307590 -16.861156 35.925974 -0.041230 2.059329 0.098418 -0.038538 94643.500000 0 0 1
31.101577 -1.389690 -15.430556 34.746818 -0.044653 2.030950 0.113298 -0.032090 -139525.000000 0 0 1
31.064727 -2.722290 -15.022056 34.613441 -0.087410 2.019719 0.098498 -0.025968 201784.000000 0 0 1
30.058307 -2.937090 -14.064956 33.315931 -0.097404 2.006633 0.090868 -0.030380 -302273.000000 0 0 1
29.898007 -4.346190 -13.473056 33.080257 -0.144356 1.990274 0.087857 -0.035187 -121786.000000 0 0 1
29.403907 -5.266990 -14.434856 33.176738 -0.177246 2.020934 0.066882 -0.032201 321299.000000 0 0 1
28.881307 -6.408990 -13.815456 32.650756 -0.218369 2.007691 0.077063 -0.027437 -196118.000000 0 0 1
28.556207 -7.563790 -14.837356 33.057752 -0.258928 2.036253 0.055261 -0.014265 -197731.000000 0 0 1
27.366307 -7.257190 -15.530656 32.292148 -0.259220 2.072525 0.071053 -0.015799 -4675.970000 0 0 1
26.787907 -8.429990 -16.058956 32.350375 -0.304882 2.090251 0.067941 -0.007375 -1009550.000000 0 0 1
25.384207 -8.191490 -16.545456 31.388064 -0.312150 2.126011 0.056835 -0.014779 -974621.000000 0 0 1
25.305507 -7.404190 -17.717256 31.766206 -0.284647 2.162456 0.058250 -0.013501 -354751.000000 0 0 1
23.968007 -6.976890 -17.845956 30.685835 -0.283264 2.191453 0.122080 -0.019222 31080.000000 0 0 1
23.539907 -6.974690 -19.333156 31.249711 -0.288052 2.237841 0.082114 -0.018264 4989.090000 0 0 1
24.238007 -6.146390 -20.270456 32.189291 -0.248350 2.251998 0.079556 -0.016257 182086.000000 0 0 1
24.010907 -6.554690 -21.575456 32.939154 -0.266495 2.284991 0.088819 -0.020831 6366.500000 0 0 1
24.606307 -5.526790 -22.564056 33.840100 -0.220942 2.300682 0.089368 -0.021594 132655.000000 0 0 1
24.259107 -5.847890 -23.918256 34.565663 -0.236547 2.335005 0.097789 -0.028027 241680.000000 0 0 1
24.572007 -4.796190 -24.805956 35.243757 -0.192766 2.351585 0.097543 -0.035390 -102524.000000 0 0 1
24.398507 -5.289990 -26.227266 36.209676 -0.213511 2.380839 0.100875 -0.037194 -907772.000000 0 0 1
23.140307 -5.645590 -26.670236 35.758187 -0.239297 2.412606 0.101130 -0.033869 -877412.000000 0 0 1
23.060707 -5.949490 -28.052736 36.798758 -0.252487 2.437699 0.083796 -0.033159 205163.000000 0 0 1
21.792007 -6.781690 -28.358426 36.401692 -0.301701 2.463932 0.069381 -0.037195 339450.000000 0 0 1
21.966707 -8.099190 -27.948486 36.458894 -0.353239 2.444287 0.064255 -0.032782 457074.000000 0 0 1
20.782907 -8.819690 -28.259326 36.170508 -0.401339 2.467512 0.058944 -0.038878 229752.000000 0 0 1
20.879507 -10.330290 -27.918156 36.360585 -0.459445 2.446218 0.092580 -0.028417 -858379.000000 0 0 1
19.600607 -10.856590 -27.817236 35.719014 -0.505825 2.463514 0.105207 -0.024558 -424174.000000 0 0 1
19.570807 -12.058690 -27.040696 35.491234 -0.552215 2.437035 0.112383 -0.028974 -71221.600000 0 0 1
19.503807 -13.361990 -27.879756 36.554371 -0.600653 2.438263 0.104189 -0.017733 -783470.000000 0 0 1
18.315207 -13.483490 -28.576616 36.522244 -0.634605 2.469377 0.102631 -0.022798 -515934.000000 0 0 1
18.348907 -14.483190 -29.555486 37.682515 -0.668196 2.472410 0.085564 -0.018628 189295.000000 0 0 1
17.133407 -14.565490 -30.564066 37.945609 -0.704565 2.507265 0.071929 -0.017466 -98517.400000 0 0 1
16.084907 -15.185390 -29.884186 37.180437 -0.756640 2.504386 0.058057 -0.020641 -22214.900000 0 0 1
15.108607 -15.559490 -30.888366 37.742004 -0.800099 2.529432 0.049300 -0.019243 83489.300000 0 0 1
13.794107 -16.106490 -30.331966 37.009790 -0.862580 2.531450 0.050163 -0.026328 -314697.000000 0 0 1
13.967607 -17.398390 -29.813376 37.237554 -0.894344 2.499137 0.038392 -0.019960 68461.900000 0 0 1
12.976107 -17.772090 -28.876866 36.305646 -0.940127 2.490434 0.040091 -0.022213 4541.320000 0 0 1
13.263007 -19.163790 -28.180596 36.569170 -0.965401 2.450595 0.043638 -0.019527 865257.000000 0 0 1
14.377207 -19.086990 -27.260386 36.251150 -0.925221 2.421867 0.046897 -0.020050 754070.000000 0 0 1
14.240107 -20.172990 -26.379996 36.133563 -0.956122 2.389219 0.058459 -0.018377 398246.000000 0 0 1
15.261907 -20.094690 -25.193926 35.657485 -0.921243 2.355413 0.050448 -0.011936 428360.000000 0 0 1
16.602407 -20.361990 -25.565786 36.658695 -0.886758 2.342560 0.066506 -0.016725 -36300.300000 0 0 1
17.516507 -20.142290 -24.533656 36.255208 -0.855011 2.314058 0.069575 -0.011257 227740.000000 0 0 1
18.963007 -20.623790 -24.922656 37.497668 -0.827327 2.297816 0.071006 -0.010043 576808.000000 0 0 1
19.214907 -22.046390 -24.983456 38.463346 -0.853914 2.277775 0.084460 -0.020319 174264.000000 0 0 1
19.050807 -22.671290 -23.767156 37.971019 -0.871957 2.247118 0.084392 -0.023900 -771604.000000 0 0 1
19.606507 -24.087890 -23.653156 39.039894 -0.887603 2.221657 0.078288 -0.022593 -479159.000000 0 0 1
21.009407 -24.200390 -23.632156 39.818750 -0.855863 2.206188 0.092295 -0.021421 -36083.200000 0 0 1
21.459507 -25.471110 -23.226756 40.605049 -0.870670 2.179758 0.096416 -0.030952 26577.600000 0 0 1
21.480907 -25.744550 -21.699256 39.938314 -0.875437 2.145182 0.104797 -0.034993 -357868.000000 0 0 1
20.195907 -25.935170 -21.160156 39.092964 -0.909174 2.142752 0.085372 -0.027213 -5793.880000 0 0 1
20.293207 -26.077960 -19.723856 38.482525 -0.909506 2.108937 0.088733 -0.029450 -325991.000000 0 0 1
18.980907 -26.592270 -19.146456 37.868330 -0.950885 2.100881 0.080718 -0.021711 -634220.000000 0 0 1
18.735507 -27.903340 -19.535456 38.874794 -0.979494 2.097310 0.089440 -0.022349 -17502.600000 0 0 1
17.775507 -28.606040 -18.791456 38.566734 -1.014797 2.079729 0.083516 -0.013147 453365.000000 0 0 1
16.261607 -28.436580 -19.130556 37.934906 -1.051329 2.099367 0.079982 -0.016479 178510.000000 0 0 1
15.662907 -27.251140 -18.608056 36.526853 -1.049141 2.105324 0.075261 -0.014014 -503130.000000 0 0 1
14.488707 -27.040580 -19.354956 36.272991 -1.078910 2.133638 0.068627 -0.005805 -45871.800000 0 0 1
13.476507 -26.124260 -18.612556 34.792534 -1.094540 2.135255 0.056746 -0.011215 -523961.000000 0 0 1
12.935107 -26.787800 -17.493056 34.509567 -1.120944 2.102386 0.059235 -0.008670 -32069.300000 0 0 1
12.007807 -25.978500 -16.791656 33.181766 -1.137826 2.101396 0.069838 -0.018403 -46598.200000 0 0 1
10.523807 -26.001430 -17.168456 32.887395 -1.186211 2.120034 0.085147 -0.010888 -507733.000000 0 0 1
9.878307 -27.218400 -16.788456 33.470502 -1.222652 2.096232 0.095899 -0.006010 481446.000000 0 0 1
8.466607 -26.983050 -16.634156 32.809504 -1.266750 2.102488 0.102349 -0.002325 1034820.000000 0 0 1
7.650707 -27.753840 -17.703256 33.796660 -1.301814 2.122122 0.104308 -0.008067 -132939.000000 0 0 1
7.762207 -27.274200 -19.013756 34.141715 -1.293528 2.161453 0.101791 -0.010806 -164755.000000 0 0 1
7.070607 -28.119510 -19.904656 35.169527 -1.324455 2.172397 0.096485 -0.015929 86113.700000 0 0 1
7.026107 -27.531090 -21.338756 35.534062 -1.320924 2.214942 0.090773 -0.026101 -513214.000000 0 0 1
6.126107 -26.501340 -21.471756 34.653809 -1.343624 2.239039 0.081074 -0.023872 -345661.000000 0 0 1
6.336907 -25.802860 -22.688456 34.938660 -1.329973 2.277565 0.064055 -0.021674 -205324.000000 0 0 1
5.089907 -24.946390 -22.930956 34.264533 -1.369525 2.303972 0.050213 -0.025633 207127.000000 0 0 1
3.925907 -25.734690 -23.102456 34.805322 -1.419410 2.296634 0.049984 -0.024571 -155783.000000 0 0 1
2.745307 -25.075210 -23.476256 34.459214 -1.461748 2.320301 0.047061 -0.027412 445523.000000 0 0 1
1.664407 -26.083690 -23.961256 35.458016 -1.507072 2.312797 0.029454 -0.022023 65996.500000 0 0 1
2.030407 -26.629170 -25.197676 36.717273 -1.494696 2.327134 0.049659 -0.024032 613511.000000 0 0 1
0.921407 -27.193650 -25.929766 37.585853 -1.536926 2.332121 0.066333 -0.035829 603513.000000 0 0 1
1.420907 -28.347760 -26.912416 39.113841 -1.520714 2.329600 0.077420 -0.032796 6789.450000 0 0 1
2.281507 -27.703670 -27.840076 39.341688 -1.488628 2.356961 0.079924 -0.028181 6058.310000 0 0 1
2.748707 -28.629370 -28.809586 40.708579 -1.475080 2.357038 0.100815 -0.042612 232059.000000 0 0 1
4.256207 -28.972040 -28.889446 41.135076 -1.424932 2.349429 0.091878 -0.038020 128312.000000 0 0 1
4.463507 -29.898940 -27.894116 41.133334 -1.422604 2.316024 0.087160 -0.051882 -186395.000000 0 0 1
5.750507 -30.475240 -27.969066 41.762150 -1.384295 2.304632 0.115686 -0.051240 76816.700000 0 0 1
5.954407 -31.663750 -27.093846 42.096609 -1.384916 2.270004 0.138786 -0.068573 -6835.600000 0 0 1
5.164407 -32.783120 -27.474276 43.084102 -1.414548 2.262291 0.140606 -0.076767 202247.000000 0 0 1
5.365307 33.728713 -26.630806 43.308342 1.413046 2.233070 0.138480 -0.078337 23149.800000 0 0 1
4.083807 32.879691 -26.507806 42.431302 1.447225 2.245573 0.147690 -0.077297 -239258.000000 0 0 1
3.457507 32.292918 -27.641896 42.648111 1.464136 2.275934 0.128233 -0.075950 -100272.000000 0 0 1
2.127207 32.066446 -27.240506 42.128698 1.504556 2.273918 0.094289 -0.079100 -445319.000000 0 0 1
1.203107 32.238040 -28.447356 43.011519 1.533494 2.293466 0.103616 -0.067268 -496106.000000 0 0 1
0.957107 31.050183 -29.212356 42.642604 1.539982 2.325470 0.124796 -0.063218 698946.000000 0 0 1
-0.019793 31.389273 -30.221196 43.573014 -1.570166 2.337238 0.121647 -0.060939 579185.000000 0 0 1
-0.251093 30.337753 -31.323706 43.607533 -1.562520 2.372166 0.117987 -0.056965 -61602.200000 0 0 1
0.974907 30.018983 -31.937406 43.841621 1.538331 2.386886 0.129166 -0.056478 161767.000000 0 0 1
0.740007 29.106953 -32.982106 43.995246 1.545378 2.418366 0.144189 -0.054055 -807052.000000 0 0 1
2.011407 28.862223 -33.745536 44.450365 1.501219 2.432839 0.133957 -0.046625 -665148.000000 0 0 1
2.444107 29.933263 33.185990 44.758059 1.489325 0.735563 0.134721 -0.049374 408223.000000 0 0 1
3.460307 29.567373 32.223123 43.869499 1.454295 0.745834 0.109696 -0.045008 430172.000000 0 0 1
3.045807 28.655743 30.989863 42.317847 1.464904 0.749086 0.111083 -0.038693 -138121.000000 0 0 1
2.743707 27.269633 31.218423 41.542157 1.470520 0.720482 0.118588 -0.042504 83915.200000 0 0 1
3.894107 26.457193 31.268373 41.144360 1.424660 0.707533 0.098857 -0.034464 102510.000000 0 0 1
3.453007 25.027133 31.674973 40.516473 1.433691 0.673281 0.102075 -0.041455 27971.900000 0 0 1
2.793507 24.292943 30.683403 39.235469 1.456307 0.672876 0.105293 -0.028848 -68989.300000 0 0 1
2.974907 22.924763 30.759203 38.477571 1.441749 0.644490 0.087182 -0.020134 83850.800000 0 0 1
2.012207 22.105133 29.845273 37.194438 1.480018 0.639470 0.074308 -0.011097 985831.000000 0 0 1
0.650307 22.105233 30.300113 37.512146 1.541386 0.630485 0.072771 -0.018301 -116742.000000 0 0 1
-0.199993 21.704433 29.319893 36.479838 -1.561582 0.637261 0.079367 -0.013804 -1159080.000000 0 0 1
-1.619693 21.335033 29.662913 36.574520 -1.495025 0.624891 0.079046 -0.010220 -1231990.000000 0 0 1
-2.473693 22.353633 30.020383 37.510365 -1.460583 0.642964 0.096259 -0.012742 -444131.000000 0 0 1
-3.797293 21.879233 30.038503 37.355481 -1.398951 0.636593 0.070639 -0.012565 270549.000000 0 0 1
-4.841693 23.004113 30.405983 38.433775 -1.363353 0.658148 0.040565 -0.017335 319268.000000 0 0 1
-4.691893 23.405433 31.740345 39.714956 -1.372957 0.644827 0.050767 -0.015986 151680.000000 0 0 1
-5.472993 24.560773 31.985730 40.697324 -1.351544 0.666578 0.040542 -0.022547 54135.200000 0 0 1
-5.498793 25.109933 33.446105 42.182786 -1.355211 0.655267 0.070413 -0.019247 291398.000000 0 0 1
-6.712393 25.832543 33.622530 42.928441 -1.316576 0.670964 0.063670 -0.012505 392590.000000 0 0 1
-6.725193 26.415643 -32.809966 42.655695 -1.321501 2.448355 0.071308 -0.009959 -584917.000000 0 0 1
-8.103193 26.752773 -32.270016 42.693402 -1.276689 2.427755 0.091706 -0.011347 -1054030.000000 0 0 1
-8.705693 27.877813 -32.910826 44.000955 -1.268112 2.415775 0.086105 -0.016705 -16497.100000 0 0 1
-10.004493 28.151023 -32.430626 44.094393 -1.229331 2.397174 0.088438 -0.017349 93664.600000 0 0 1
-10.123893 28.616073 -30.937056 43.341370 -1.230755 2.365705 0.096522 -0.011729 -652496.000000 0 0 1
-9.431193 29.814803 -30.676116 43.805183 -1.264430 2.346593 0.102038 -0.016173 187097.000000 0 0 1
-9.300393 30.024723 -29.279996 42.956950 -1.270412 2.320761 0.119641 -0.023849 -415799.000000 0 0 1
-8.661093 31.319903 -28.869726 43.467367 -1.301002 2.297180 0.108820 -0.027078 1173710.000000 0 0 1
-7.214593 31.179613 -28.907206 43.125923 -1.343410 2.305406 0.086789 -0.028079 1109530.000000 0 0 1
-6.552893 32.445501 -28.775846 43.860008 -1.371511 2.286414 0.091984 -0.025089 -480851.000000 0 0 1
-5.027193 32.248177 -28.624366 43.411657 -1.416150 2.290777 0.096189 -0.033444 -181016.000000 0 0 1
-4.385393 33.476743 -28.248206 44.021417 -1.440540 2.267499 0.109454 -0.038828 -33642.700000 0 0 1
-4.323893 -33.158140 -29.261316 44.434029 1.441126 2.289665 0.106493 -0.039101 -1043610.000000 0 0 1
-3.329293 -33.463930 -30.377276 45.317741 1.471634 2.305433 0.106182 -0.054032 -847095.000000 0 0 1
-3.717493 33.272686 -31.425946 45.918205 -1.459530 2.324563 0.099249 -0.047805 498051.000000 0 0 1
-4.677593 -33.806860 -32.363766 47.033998 1.433307 2.329654 0.121989 -0.047301 410118.000000 0 0 1
-4.280193 -32.554690 -33.253566 46.732510 1.440069 2.362530 0.093126 -0.054793 -324371.000000 0 0 1
-4.014693 -31.367460 -32.588556 45.409793 1.443499 2.371225 0.091335 -0.052270 13287.200000 0 0 1
-3.415393 -30.389270 -33.382836 45.272358 1.458878 2.399977 0.092040 -0.066357 -110193.000000 0 0 1
34.208617 18.253710 13.194483 40.957561 0.490165 1.242797 0.118222 -0.038211 -625529.000000 0 0 1
35.564417 18.007710 13.301483 42.024217 0.468707 1.248738 0.130322 -0.044779 -972607.000000 0 0 1
35.768767 16.621410 13.557883 41.707219 0.435003 1.239708 0.144082 -0.031092 385424.000000 0 0 1
37.208597 16.182910 13.971083 42.913371 0.410246 1.239187 0.125890 -0.051714 51290.800000 0 0 1
-37.019166 15.662010 13.032583 42.255952 -0.400242 1.257265 0.126878 -0.029887 -606275.000000 0 0 1
-37.257896 14.338910 12.634783 41.873535 -0.367383 1.264283 0.161318 -0.048058 -1084770.000000 0 0 1
-36.025916 13.639710 12.078983 40.370908 -0.361930 1.266942 0.164597 -0.039586 -311529.000000 0 0 1
-35.273459 12.991110 13.097183 39.806056 -0.352881 1.235526 0.143696 -0.040181 -134922.000000 0 0 1
-35.691102 11.713310 13.536083 39.928461 -0.317111 1.224934 0.150722 -0.044831 -395665.000000 0 0 1
-35.053437 11.314610 14.878683 39.725799 -0.312224 1.186902 0.185281 -0.055199 -10977.200000 0 0 1
-35.502643 12.013310 16.032483 40.765155 -0.326284 1.166590 0.191118 -0.046839 -19417.300000 0 0 1
-34.683030 11.697110 17.092883 40.396802 -0.325278 1.133905 0.189695 -0.039193 -230269.000000 0 0 1
-35.037911 12.577910 18.334783 41.497269 -0.344652 1.113158 0.189915 -0.044753 834530.000000 0 0 1
-36.315456 12.402210 18.977583 42.810932 -0.329094 1.111533 0.202922 -0.057578 812500.000000 0 0 1
-36.360366 13.213010 20.145983 43.617892 -0.348554 1.090689 0.215235 -0.050191 -626711.000000 0 0 1
37.356287 13.299510 20.799283 44.776995 0.342026 1.087717 0.208214 -0.066393 -625915.000000 0 0 1
36.997957 12.083410 21.341483 44.388247 0.315675 1.069239 0.177339 -0.051528 -319586.000000 0 0 1
35.838337 12.113110 22.123183 43.824069 0.325938 1.041625 0.181448 -0.058345 -168294.000000 0 0 1
35.702827 10.789710 22.962213 43.799234 0.293482 1.018950 0.169996 -0.054521 223871.000000 0 0 1
36.793267 10.568510 23.855453 45.105660 0.279710 1.013517 0.152576 -0.039950 261627.000000 0 0 1
36.731587 11.348610 25.015943 45.867176 0.299657 0.993930 0.149807 -0.034045 -1327090.000000 0 0 1
-36.988516 11.676910 25.560523 46.452566 -0.305789 0.988133 0.132965 -0.030960 -481294.000000 0 0 1
-36.247396 12.710110 24.873213 45.761309 -0.337253 0.996145 0.149386 -0.035681 45917.600000 0 0 1
-35.250711 12.146010 24.049793 44.368128 -0.331821 0.997920 0.140233 -0.030385 -1291680.000000 0 0 1
-34.118094 13.055610 23.704363 43.547562 -0.365469 0.995203 0.138055 -0.033455 -280114.000000 0 0 1
-33.229806 13.400810 24.809023 43.580837 -0.383328 0.965185 0.103662 -0.030276 452639.000000 0 0 1
-33.803086 14.100710 25.923293 44.871994 -0.395197 0.954868 0.108892 -0.024446 -633140.000000 0 0 1
-32.788516 14.496610 27.051863 44.911489 -0.416285 0.924370 0.096507 -0.017402 348477.000000 0 0 1
-31.901126 15.523810 26.616713 44.352226 -0.452889 0.927144 0.109703 -0.023335 52988.700000 0 0 1
-31.577976 16.449410 27.641993 45.075841 -0.480238 0.910649 0.109665 -0.016369 8846.980000 0 0 1
-31.025906 17.716610 26.968573 44.763703 -0.518843 0.924210 0.105520 -0.010290 -11505.800000 0 0 1
-32.010476 18.472110 26.313663 45.368473 -0.523384 0.952069 0.103609 -0.028038 131880.000000 0 0 1
-31.319186 19.327810 25.416313 44.726331 -0.552915 0.966403 0.110829 -0.033700 -225754.000000 0 0 1
-32.111826 20.280610 24.511103 45.202508 -0.563304 0.997683 0.132738 -0.016910 -394975.000000 0 0 1
-32.730236 21.290210 25.289113 46.519681 -0.576709 0.996050 0.125142 -0.023637 309730.000000 0 0 1
-33.658906 22.032310 24.540963 47.123280 -0.579585 1.023029 0.118403 -0.012873 -241106.000000 0 0 1
-33.903796 23.467810 25.014403 48.227854 -0.605464 1.025500 0.117806 -0.021143 14025.600000 0 0 1
-34.915331 24.022510 24.200973 48.804185 -0.602642 1.051950 0.122786 -0.026183 -14631.000000 0 0 1
-35.049923 25.413710 24.398663 49.695558 -0.627355 1.057602 0.121080 -0.016814 -323773.000000 0 0 1
-36.061176 26.006710 23.460013 50.270564 -0.624802 1.085269 0.127940 -0.018065 -410252.000000 0 0 1
-35.694369 25.770610 22.138483 49.278036 -0.625326 1.104863 0.120730 -0.026379 361163.000000 0 0 1
-36.664766 26.304310 21.213383 49.862105 -0.622327 1.131347 0.122377 -0.031200 513529.000000 0 0 1
-36.340576 25.955210 19.781483 48.842784 -0.620207 1.153814 0.146579 -0.044991 85144.200000 0 0 1
-36.614516 24.613810 19.438683 48.211253 -0.591852 1.155787 0.149286 -0.044919 91514.600000 0 0 1
-35.973104 24.301710 18.203383 47.074415 -0.594129 1.173753 0.156483 -0.042073 -135895.000000 0 0 1
-36.305196 22.935410 17.623183 46.418498 -0.563431 1.181369 0.154454 -0.045610 44143.500000 0 0 1
37.489227 22.987510 17.055483 47.167332 0.550052 1.200818 0.149955 -0.052909 -234891.000000 0 0 1
37.355827 22.026210 16.026383 46.232637 0.532761 1.216803 0.126517 -0.044291 146744.000000 0 0 1
36.001247 22.140510 15.290883 44.945557 0.551371 1.223657 0.121547 -0.034936 704818.000000 0 0 1
34.907387 21.428710 15.871283 43.927359 0.550558 1.201127 0.137390 -0.043266 -181971.000000 0 0 1
33.734937 21.544410 15.103783 42.782378 0.568346 1.209981 0.136848 -0.037440 -263423.000000 0 0 1
32.570347 20.771610 15.781383 41.729358 0.567713 1.182962 0.121670 -0.045034 359902.000000 0 0 1
31.909677 21.289110 16.954283 41.939258 0.588350 1.154629 0.122737 -0.034625 317109.000000 0 0 1
31.012217 22.340810 16.632783 41.683556 0.624278 1.160343 0.120664 -0.021703 -20310.900000 0 0 1
30.213977 22.966910 17.795883 41.917262 0.649960 1.132334 0.104908 -0.019499 586508.000000 0 0 1
31.088527 23.718210 18.632983 43.315564 0.651722 1.126117 0.069926 -0.026222 132817.000000 0 0 1
30.356587 24.321510 19.656383 43.582469 0.675468 1.102893 0.071896 -0.020475 703773.000000 0 0 1
31.362167 24.929610 20.711183 45.100156 0.671620 1.093672 0.070645 -0.025940 771184.000000 0 0 1
32.090667 26.084010 20.383783 46.105153 0.682511 1.112841 0.089909 -0.034518 -35367.100000 0 0 1
33.160977 26.243410 21.297983 47.349457 0.669472 1.104250 0.097161 -0.040275 -250196.000000 0 0 1
34.139897 27.319610 20.761783 48.403980 0.674878 1.127491 0.104634 -0.042526 215313.000000 0 0 1
35.209637 27.648910 21.662783 49.733861 0.665692 1.120120 0.102328 -0.033729 263466.000000 0 0 1
34.913287 28.518710 22.713443 50.479252 0.684928 1.104080 0.076976 -0.031455 -903743.000000 0 0 1
35.959967 28.742910 23.775753 51.812745 0.674316 1.094064 0.064835 -0.029111 -643174.000000 0 0 1
37.079377 29.496810 23.462833 52.871983 0.671994 1.110999 0.088387 -0.024485 369728.000000 0 0 1
-37.114016 29.748610 24.619553 53.558869 -0.675683 1.093170 0.090161 -0.021689 345671.000000 0 0 1
-35.927460 30.667610 24.447713 53.188114 -0.706579 1.093200 0.105177 -0.024515 -771042.000000 0 0 1
-34.800951 29.935110 24.058723 51.827012 -0.710375 1.088052 0.103855 -0.023227 -707803.000000 0 0 1
-33.678146 30.790610 24.111483 51.610492 -0.740638 1.084696 0.111960 -0.018339 -318255.000000 0 0 1
-32.359146 30.078110 23.826553 50.194738 -0.748881 1.076193 0.129144 -0.020145 -419268.000000 0 0 1
-32.054496 29.852410 22.421983 49.207748 -0.749842 1.097683 0.112540 -0.016992 -302817.000000 0 0 1
-32.481926 28.649310 21.887183 48.527387 -0.722785 1.102880 0.118702 -0.016607 -299770.000000 0 0 1
-32.128576 27.285810 22.527683 47.793905 -0.704070 1.079975 0.109936 -0.016617 -1636410.000000 0 0 1
-30.834956 26.971010 22.205283 46.597259 -0.718654 1.074086 0.090743 -0.015034 -684680.000000 0 0 1
-30.105926 26.116310 23.105303 46.068248 -0.714555 1.045413 0.085081 -0.014153 291566.000000 0 0 1
-29.770106 26.769910 24.517983 46.946979 -0.732385 1.021311 0.096389 -0.018378 -420850.000000 0 0 1
-30.916296 27.038910 25.319283 48.249209 -0.718595 1.018362 0.093422 -0.011281 401469.000000 0 0 1
-30.514396 27.280810 26.672413 48.854771 -0.729507 0.993270 0.107219 -0.013203 376691.000000 0 0 1
-31.750726 27.623210 27.563103 50.307803 -0.715993 0.990957 0.107923 -0.016871 334429.000000 0 0 1
-32.542376 26.484110 27.776633 50.318543 -0.683120 0.986016 0.090167 -0.004533 89069.700000 0 0 1
-33.606186 26.775010 28.677223 51.659075 -0.672743 0.982284 0.089129 0.000473 60652.400000 0 0 1
-34.242809 25.517110 29.273653 51.774894 -0.640410 0.969875 0.080182 -0.002109 -170278.000000 0 0 1
-33.476606 24.774810 30.179433 51.432214 -0.637111 0.943719 0.069512 0.005143 -285527.000000 0 0 1
-34.232221 23.694710 30.649643 51.698017 -0.605455 0.936192 0.059641 -0.005561 -94272.500000 0 0 1
-33.489656 22.685110 31.525913 51.284057 -0.595381 0.908751 0.059277 -0.011869 -367551.000000 0 0 1
-32.396656 22.035910 30.856393 49.872254 -0.597307 0.903698 0.071615 -0.003301 847052.000000 0 0 1
-31.653416 21.159410 31.780346 49.594857 -0.589251 0.875257 0.062518 -0.001809 1026140.000000 0 0 1
-30.655556 21.941310 32.744788 49.934010 -0.621210 0.855606 0.065090 -0.002546 -271785.000000 0 0 1
-31.238466 22.890310 33.629511 51.290858 -0.632376 0.855736 0.075950 -0.013858 -97706.000000 0 0 1
-31.472836 22.384410 -32.817126 50.681013 -0.618223 2.275126 0.065167 -0.010458 -79718.800000 0 0 1
-30.271256 22.390910 -31.825106 49.300499 -0.636861 2.272517 0.077853 -0.008561 56057.700000 0 0 1
-30.000456 23.699110 -31.377416 49.459251 -0.668588 2.258041 0.063077 -0.009739 261825.000000 0 0 1
-29.220426 23.759910 -30.194646 48.270937 -0.682694 2.246600 0.093229 -0.011348 -68825.400000 0 0 1
-29.641156 24.950810 -29.289096 48.569458 -0.699692 2.218097 0.073825 -0.011596 -320678.000000 0 0 1
-29.415736 26.283910 -29.748916 49.407768 -0.729230 2.216938 0.076477 -0.012743 399112.000000 0 0 1
-30.262616 26.738610 -30.805406 50.791262 -0.723653 2.222460 0.051544 0.000684 -232688.000000 0 0 1
-29.796616 28.056410 -31.349156 51.553565 -0.755327 2.224447 0.060881 -0.008145 -187628.000000 0 0 1
-30.119166 29.136210 -30.554326 51.861834 -0.768811 2.200801 0.052502 -0.012640 184652.000000 0 0 1
-29.487426 30.244610 -31.194616 52.510464 -0.798074 2.206899 0.053313 -0.017357 42568.600000 0 0 1
-29.828546 31.621210 -30.563896 53.139391 -0.814563 2.183602 0.038169 -0.007755 43771.800000 0 0 1
-29.183806 31.841010 -29.339216 52.214309 -0.828914 2.167477 0.043718 -0.012144 -9712.000000 0 0 1
-29.603966 33.053710 -28.753246 52.874302 -0.840400 2.145759 0.028923 -0.009033 -530900.000000 0 0 1
-29.073756 33.301910 -27.326736 51.971637 -0.853080 2.124453 0.020632 -0.010216 473100.000000 0 0 1
-27.704976 33.693010 -27.229466 51.422062 -0.882619 2.128841 0.045405 -0.005694 409283.000000 0 0 1
-27.485726 -32.563913 -27.340306 50.629694 0.869764 2.141240 0.038894 0.015669 -382353.000000 0 0 1
-27.926456 -31.545613 -26.231786 49.629822 0.846178 2.127687 0.040664 0.015931 -90449.800000 0 0 1
-29.320596 -31.358613 -26.305896 50.349381 0.818972 2.120538 0.038096 0.007825 -291877.000000 0 0 1
-29.722446 -30.416713 -25.296526 49.482466 0.796942 2.107402 0.044549 0.009527 -22984.700000 0 0 1
-31.244946 -30.208213 -25.242156 50.258822 0.768529 2.096987 0.036057 0.008747 120272.000000 0 0 1
-31.722896 -29.251213 -26.236526 50.500801 0.744884 2.117094 0.029966 0.006521 993997.000000 0 0 1
-33.156426 -29.218513 -26.281386 51.417714 0.722349 2.107301 0.033687 0.004002 854987.000000 0 0 1
-33.821426 -28.297313 -27.377606 51.905299 0.696703 2.126396 0.049931 -0.003864 362586.000000 0 0 1
-35.226102 -28.247213 -27.201806 52.713580 0.675888 2.113006 0.054302 -0.015024 85981.300000 0 0 1
-35.834618 -27.314213 -28.060146 53.080673 0.651282 2.127785 0.067424 -0.020219 -283729.000000 0 0 1
-37.320646 -27.525013 -28.332376 54.343173 0.635471 2.119241 0.064863 -0.025779 202078.000000 0 0 1
36.897797 -27.118213 -27.236626 53.279252 -0.633802 2.107383 0.043358 -0.025896 566898.000000 0 0 1
35.553617 -27.123013 -27.711196 52.608249 -0.651691 2.125564 0.049669 -0.027556 738116.000000 0 0 1
34.470097 -26.789513 -26.615966 51.129983 -0.660671 2.118297 0.049650 -0.026475 233781.000000 0 0 1
34.325787 -27.696613 -25.556906 50.975655 -0.678919 2.095961 0.045484 -0.019317 250136.000000 0 0 1
33.366467 -27.249113 -24.613456 49.615093 -0.684818 2.089884 0.038163 -0.007423 -73793.200000 0 0 1
33.267507 -28.021113 -23.291756 49.339798 -0.700005 2.062432 0.036984 -0.005733 58582.100000 0 0 1
32.674617 -29.307113 -23.398656 49.739667 -0.731121 2.060566 0.053875 -0.016918 -40794.500000 0 0 1
32.308197 -29.926513 -22.173956 49.306187 -0.747147 2.037248 0.059090 -0.019005 -247952.000000 0 0 1
33.374777 -30.110613 -21.083756 49.649265 -0.734027 2.009376 0.047184 -0.007028 -1511380.000000 0 0 1
34.378047 -31.014113 -21.371656 50.994833 -0.734001 2.003244 0.035531 -0.008525 571247.000000 0 0 1
35.531837 -30.865313 -20.488056 51.331661 -0.715232 1.981365 0.021751 -0.002365 1972390.000000 0 0 1
36.458307 -29.568013 -20.666656 51.289240 -0.681418 1.985527 0.008234 0.007705 315722.000000 0 0 1
35.786317 -28.359613 -20.226056 49.940178 -0.670133 1.987781 0.001180 0.013234 425536.000000 0 0 1
36.473187 -27.220813 -20.792956 50.036117 -0.641144 1.999354 -0.013012 0.015153 293725.000000 0 0 1
35.722827 -25.882413 -20.541356 48.661760 -0.627003 2.006585 -0.015518 0.020893 816271.000000 0 0 1
34.475197 -25.694513 -21.215756 47.946381 -0.640489 2.029169 0.014947 0.009817 880193.000000 0 0 1
33.535597 -25.005213 -20.346556 46.517515 -0.640700 2.023497 0.055879 0.008170 1066330.000000 0 0 1
32.183577 -24.731813 -21.113856 45.751941 -0.655212 2.050465 0.070215 0.000536 616147.000000 0 0 1
31.495887 -25.933213 -21.454456 46.095727 -0.688838 2.054920 0.093616 -0.015214 -246211.000000 0 0 1
30.231437 -25.588313 -21.951856 45.283391 -0.702409 2.076892 0.104176 -0.020196 -51051.700000 0 0 1
29.268207 -26.705913 -22.399756 45.514643 -0.739654 2.085347 0.105600 -0.025257 2881.120000 0 0 1
28.800007 -27.503813 -21.344756 45.182947 -0.762381 2.062816 0.097409 -0.025296 127506.000000 0 0 1
28.350407 -28.837713 -21.793156 45.938011 -0.793919 2.065083 0.074296 -0.022890 26147.900000 0 0 1
27.737907 -29.632913 -20.612156 45.523202 -0.818417 2.040681 0.074018 -0.013372 -177376.000000 0 0 1
28.623707 -30.024113 -19.587356 45.874050 -0.809272 2.011948 0.085836 -0.019140 -165855.000000 0 0 1
29.342307 -31.203213 -19.912756 47.234831 -0.816124 2.005972 0.083094 -0.015759 268433.000000 0 0 1
30.152717 -31.763613 -18.681156 47.614063 -0.811410 1.973976 0.067951 -0.018548 -207329.000000 0 0 1
29.406107 -32.172313 -17.545856 46.985464 -0.830290 1.953502 0.069457 -0.025662 -126996.000000 0 0 1
29.004507 -31.153713 -16.640556 45.702553 -0.821109 1.943469 0.056254 -0.025296 230712.000000 0 0 1
28.070807 -31.686813 -15.476156 45.072560 -0.845836 1.921289 0.051320 -0.019968 142269.000000 0 0 1
26.836307 -32.114213 -16.019556 44.812232 -0.874691 1.936366 0.052810 -0.015302 -249709.000000 0 0 1
26.326107 -33.079513 -15.098056 44.891751 -0.898595 1.913804 0.049633 -0.015991 -439247.000000 0 0 1
24.803707 -33.170813 -15.003856 44.052723 -0.928732 1.918339 0.054717 -0.009370 -396469.000000 0 0 1
24.223907 -32.132113 -14.283056 42.699836 -0.924814 1.911870 0.069256 -0.003159 262187.000000 0 0 1
22.850307 -32.391713 -14.018456 42.046125 -0.956431 1.910711 0.076532 -0.009379 339483.000000 0 0 1
-0.122976 -6.912990 -28.945546 29.759859 1.553009 2.907121 0.114353 -0.030738 111946.000000 0 0 1
0.197024 -8.283290 -28.789516 29.958103 -1.547015 2.861365 0.110291 -0.029103 -111543.000000 0 0 1
-0.240976 -8.986390 -29.912016 31.233667 1.543987 2.849645 0.099621 -0.033769 -23904.500000 0 0 1
0.138724 -10.487890 -29.751186 31.545969 -1.557570 2.802647 0.114889 -0.023551 146424.000000 0 0 1
1.515124 -10.718690 -29.545316 31.466039 -1.430373 2.790388 0.072091 -0.027160 -198874.000000 0 0 1
1.784724 -12.058790 -29.246656 31.685431 -1.423861 2.746684 0.088113 -0.033303 156297.000000 0 0 1
3.264324 -12.332990 -28.883016 31.575102 -1.312047 2.725661 0.069018 -0.022615 567283.000000 0 0 1
4.184924 -12.199490 -30.018376 32.671762 -1.240335 2.735792 0.077640 -0.034275 2192190.000000 0 0 1
5.571624 -12.594390 -29.780016 32.810227 -1.154289 2.708434 0.089116 -0.029908 1779550.000000 0 0 1
5.875124 -14.091690 -29.487396 33.205411 -1.175788 2.663839 0.085446 -0.029722 -757255.000000 0 0 1
5.334824 -14.530190 -28.256696 32.218436 -1.218922 2.640452 0.074774 -0.028186 -312264.000000 0 0 1
6.026524 -15.527290 -27.564916 32.206215 -1.200569 2.598062 0.082889 -0.022985 -426993.000000 0 0 1
5.829324 -16.980390 -28.074876 33.324365 -1.240105 2.572653 0.043431 -0.023325 -504836.000000 0 0 1
6.364924 -17.192790 -29.357676 34.611810 -1.216233 2.583371 0.066154 -0.041811 60735.000000 0 0 1
6.108324 -18.516190 -29.763846 35.581560 -1.252147 2.561654 0.057315 -0.035172 -503061.000000 0 0 1
6.561824 -18.920790 -31.148466 37.030808 -1.236971 2.570203 0.064999 -0.052541 -217647.000000 0 0 1
7.960524 -19.047990 -31.233566 37.439705 -1.174938 2.557543 0.063630 -0.040885 -231856.000000 0 0 1
8.299424 -19.795690 -32.353756 38.826734 -1.173803 2.555821 0.068376 -0.036040 -110660.000000 0 0 1
9.753224 -19.484590 -32.760716 39.345128 -1.106700 2.554672 0.065482 -0.041235 -239285.000000 0 0 1
9.993424 -18.137190 -33.223366 39.148668 -1.067193 2.584217 0.075244 -0.047783 149319.000000 0 0 1
11.123224 -18.221390 33.659467 39.858561 -1.022729 0.565216 0.069435 -0.033673 -14453.900000 0 0 1
11.475224 -16.866090 32.946062 38.750339 -0.973365 0.554406 0.070487 -0.033668 347931.000000 0 0 1
10.359624 -16.352290 32.207946 37.577533 -1.006088 0.541170 0.085964 -0.034586 578336.000000 0 0 1
10.611124 -15.072990 31.579273 36.565578 -0.957402 0.528362 0.084585 -0.026943 -555835.000000 0 0 1
9.425124 -14.713090 30.716443 35.338475 -1.001062 0.517200 0.120112 -0.037687 -343628.000000 0 0 1
9.447524 -15.419490 29.483463 34.587439 -1.021091 0.550176 0.126405 -0.033993 -9553.960000 0 0 1
8.356224 -15.059490 28.670953 33.446050 -1.064213 0.540931 0.128815 -0.040846 -289361.000000 0 0 1
8.307524 -15.958290 27.410013 32.787052 -1.090823 0.580842 0.107557 -0.042525 -335581.000000 0 0 1
8.070424 -17.281990 27.826653 33.736057 -1.133908 0.600887 0.110440 -0.040206 329331.000000 0 0 1
8.316724 -18.160290 26.763093 33.395017 -1.141341 0.641148 0.093246 -0.035712 91417.900000 0 0 1
7.846724 -19.633790 27.110063 34.380406 -1.190588 0.662377 0.097126 -0.037295 92113.900000 0 0 1
8.634724 -20.223290 28.157303 35.726371 -1.167259 0.663019 0.099212 -0.033229 331341.000000 0 0 1
7.917924 -21.132890 28.953143 36.709359 -1.212312 0.662084 0.086560 -0.035524 -332928.000000 0 0 1
8.323824 -21.213690 30.447433 38.030946 -1.196876 0.642507 0.095140 -0.040880 -338788.000000 0 0 1
7.777324 -20.293890 31.384663 38.174937 -1.204826 0.605658 0.123569 -0.047941 216830.000000 0 0 1
8.002924 -18.910990 31.063423 37.237193 -1.170461 0.584108 0.115862 -0.043139 -593311.000000 0 0 1
7.380324 -17.894090 32.023353 37.418749 -1.179608 0.543681 0.115014 -0.034837 -480101.000000 0 0 1
5.999124 -18.164090 31.949940 37.238721 -1.251802 0.539479 0.130539 -0.040546 -444154.000000 0 0 1
5.352824 -17.221490 32.788836 37.421120 -1.269441 0.502851 0.128628 -0.039984 855253.000000 0 0 1
3.823624 -17.478590 33.062402 37.593133 -1.355429 0.496028 0.131949 -0.043251 835531.000000 0 0 1
3.627824 -18.421590 -33.661236 38.543416 -1.376351 2.632799 0.126161 -0.052985 -153870.000000 0 0 1
2.265724 -18.316590 -33.331676 38.100283 -1.447724 2.635903 0.128960 -0.068109 -118527.000000 0 0 1
1.879724 -19.103790 -32.060226 37.367717 -1.472717 2.602093 0.083244 -0.038219 -317136.000000 0 0 1
1.182524 -20.321890 -32.191096 38.087324 -1.512672 2.577720 0.102354 -0.042867 253061.000000 0 0 1
0.751524 -20.985190 -30.986876 37.431664 -1.535000 2.546016 0.096083 -0.053100 281844.000000 0 0 1
-0.032776 -20.234490 -29.885316 36.091104 1.569177 2.546421 0.090796 -0.050365 -678711.000000 0 0 1
-1.275276 -19.772290 -30.332216 36.230003 1.506387 2.562963 0.102041 -0.059059 -432463.000000 0 0 1
-1.840476 -18.791790 -29.461926 34.993197 1.473167 2.571652 0.126381 -0.049874 -81052.900000 0 0 1
-1.338076 -17.338290 -29.642466 34.366881 1.493774 2.611045 0.112595 -0.045149 -226247.000000 0 0 1
-2.139376 -16.352390 -29.023856 33.382058 1.440706 2.624874 0.121895 -0.045285 -232499.000000 0 0 1
-1.727976 -15.123790 -29.505846 33.201052 1.457034 2.665303 0.111227 -0.036213 411652.000000 0 0 1
-2.786276 -14.048790 -29.081256 32.416836 1.375008 2.683966 0.112412 -0.028461 435994.000000 0 0 1
-2.841176 -13.717490 -27.708576 31.048462 1.366563 2.673499 0.116256 -0.032601 -63206.100000 0 0 1
-3.764776 -12.654590 -27.489236 30.495414 1.281632 2.693839 0.098690 -0.037555 279166.000000 0 0 1
-4.066476 -12.523990 -25.981706 29.127918 1.256840 2.672517 0.107004 -0.035797 -250032.000000 0 0 1
-4.642376 -13.730590 -25.432676 29.272884 1.244758 2.623597 0.121328 -0.030488 147321.000000 0 0 1
-4.831776 -13.632690 -24.026056 28.043674 1.230184 2.599706 0.110024 -0.023673 194197.000000 0 0 1
-5.939576 -12.656890 -23.488256 27.334476 1.132028 2.604677 0.089310 -0.020479 -132835.000000 0 0 1
-7.258676 -13.109090 -23.547656 27.911086 1.065107 2.574873 0.083030 -0.017115 -1255770.000000 0 0 1
-8.150376 -12.152590 -23.203356 27.431912 0.980027 2.578958 0.059624 -0.020881 -784615.000000 0 0 1
-9.629376 -12.469790 -23.433356 28.237258 0.913228 2.549678 0.070695 -0.022575 71294.600000 0 0 1
-10.234676 -13.333790 -22.452256 28.047145 0.916142 2.498956 0.064816 -0.022397 -327407.000000 0 0 1
-11.438076 -13.899590 -22.884356 29.115665 0.882243 2.475077 0.064249 -0.018540 -292405.000000 0 0 1
-11.972376 -14.927690 -21.891856 29.076229 0.894822 2.423273 0.060638 -0.014099 -223360.000000 0 0 1
-11.300476 -16.165790 -21.841556 29.429358 0.960717 2.407097 0.075976 -0.019582 -454560.000000 0 0 1
-12.079576 -17.309190 -21.517056 30.141465 0.961501 2.365804 0.083619 -0.020176 -24807.400000 0 0 1
-12.669376 -18.090290 -22.671156 31.650482 0.959841 2.369278 0.086323 -0.022145 -125161.000000 0 0 1
-13.794576 -17.450690 -23.216256 32.152938 0.901882 2.377567 0.064291 -0.017787 -515362.000000 0 0 1
-14.452776 -18.306290 -24.117856 33.551065 0.902492 2.372929 0.043930 -0.022005 80760.300000 0 0 1
-15.547576 -17.633290 -24.949556 34.280321 0.848174 2.385919 0.054619 -0.022852 993939.000000 0 0 1
-16.723276 -17.116390 -24.298256 34.103431 0.797015 2.363833 0.060760 -0.016061 1269450.000000 0 0 1
-17.779176 -16.660890 -25.160276 35.024618 0.752939 2.372238 0.059237 -0.013815 1082260.000000 0 0 1
-18.679776 -15.537890 -24.566756 34.552649 0.693834 2.361708 0.062241 -0.008983 451172.000000 0 0 1
-19.516976 -15.768890 -23.443956 34.339326 0.679574 2.322268 0.064502 -0.006395 84305.800000 0 0 1
-20.367276 -14.681190 -23.212956 34.193634 0.624564 2.317016 0.075258 -0.013197 -131532.000000 0 0 1
-20.912676 -14.496390 -21.794456 33.503487 0.606139 2.279056 0.081482 -0.017494 -353772.000000 0 0 1
-20.008876 -14.446390 -20.717456 32.222140 0.625338 2.269149 0.087048 -0.015585 -353513.000000 0 0 1
-20.577976 -14.575990 -19.443456 31.842748 0.616294 2.227625 0.088213 -0.018400 -330672.000000 0 0 1
-21.047076 -13.292690 -18.742456 31.160146 0.563309 2.216159 0.100086 -0.024378 301363.000000 0 0 1
-22.347476 -12.901990 -19.167956 32.144697 0.523588 2.209683 0.100037 -0.028244 361788.000000 0 0 1
-22.802576 -11.743790 -18.498556 31.623894 0.475592 2.195621 0.108583 -0.029399 119623.000000 0 0 1
-24.313676 -11.462590 -18.638456 32.709905 0.440545 2.177072 0.114276 -0.030155 -27808.700000 0 0 1
-24.500076 -10.839590 -19.913056 33.380837 0.416542 2.209981 0.090615 -0.028407 -425036.000000 0 0 1
-25.857536 -10.692390 -20.199856 34.510485 0.392100 2.196077 0.089184 -0.026881 -462595.000000 0 0 1
-26.214406 -9.668490 -21.301556 35.134471 0.353345 2.222179 0.079372 -0.015788 179193.000000 0 0 1
-25.815416 -9.995290 -22.640056 35.761903 0.369409 2.256319 0.064347 -0.014666 377359.000000 0 0 1
-26.814986 -9.419890 -23.445756 36.844013 0.337825 2.260556 0.042205 -0.009504 -155882.000000 0 0 1
-26.957336 -9.978890 -24.931856 38.050935 0.354532 2.285274 0.050056 -0.010165 211800.000000 0 0 1
-25.962886 -9.482290 -25.824026 37.826784 0.350173 2.322236 0.032057 -0.009153 371154.000000 0 0 1
-24.829776 -10.333090 -25.821536 37.283271 0.394357 2.335852 0.035655 -0.006990 -160730.000000 0 0 1
-23.807976 -10.175190 -26.955276 37.375676 0.403890 2.376327 0.044444 -0.016719 70040.000000 0 0 1
-24.368376 -10.586290 -28.184196 38.732883 0.409829 2.385694 0.050652 -0.008802 -21915.500000 0 0 1
-23.435676 -10.520590 -29.239106 38.920933 0.421950 2.420741 0.052512 -0.006609 305800.000000 0 0 1
-24.048276 -11.017090 -30.606086 40.452792 0.429589 2.428875 0.044723 -0.015232 910547.000000 0 0 1
-25.125426 -10.292790 -31.224596 41.378786 0.388803 2.425847 0.031510 -0.022205 488661.000000 0 0 1
-24.634776 -9.170090 -31.911296 41.343604 0.356350 2.452551 0.028581 -0.020555 -749523.000000 0 0 1
-25.696096 -8.193890 -32.408106 42.162952 0.308684 2.447508 0.034165 -0.018713 -822155.000000 0 0 1
-26.547766 -8.669690 -33.431866 43.561877 0.315651 2.445661 0.047583 -0.026155 884433.000000 0 0 1
-27.759646 -9.263990 -32.981666 44.093194 0.322100 2.415838 0.059343 -0.028705 492371.000000 0 0 1
-28.888376 -8.449090 -32.233476 44.101274 0.284538 2.390431 0.050999 -0.013664 -619801.000000 0 0 1
-30.104146 -9.109690 -32.211756 45.020477 0.293846 2.368123 0.079359 -0.017480 171360.000000 0 0 1
-31.037746 -8.455290 -31.287276 44.874573 0.265966 2.342303 0.083798 -0.009015 1535050.000000 0 0 1
-32.551576 -8.829790 -31.428036 46.100887 0.264882 2.320912 0.088730 -0.012073 666847.000000 0 0 1
-32.806676 -10.241490 -31.322046 46.499857 0.302591 2.309858 0.091075 -0.014212 288228.000000 0 0 1
-34.171844 -10.615890 -31.409116 47.612442 0.301209 2.291193 0.093067 -0.014761 260340.000000 0 0 1
-34.289093 -12.143390 -31.114576 47.867742 0.340365 2.278396 0.089535 -0.024833 -139304.000000 0 0 1
-35.647212 -12.514090 -31.139656 48.959211 0.337613 2.260142 0.062109 -0.015764 -87515.600000 0 0 1
-35.690241 -13.938290 -31.158446 49.385403 0.372320 2.253540 0.062948 -0.021547 655241.000000 0 0 1
-37.080606 -14.522890 -30.742786 50.309091 0.373294 2.228218 0.053150 -0.025928 565385.000000 0 0 1
-37.270286 -14.435490 -29.340356 49.581389 0.369527 2.204039 0.049511 -0.030346 -66350.700000 0 0 1
36.949047 -15.459190 -28.886166 49.382478 -0.396260 2.195612 0.041143 -0.031261 16352.800000 0 0 1
37.094247 -15.766290 -27.370656 48.720754 -0.401899 2.167340 0.047670 -0.029650 -510698.000000 0 0 1
-36.695836 -16.127490 -27.003096 48.330607 0.414080 2.163633 0.060560 -0.038132 -426376.000000 0 0 1
-36.535536 -16.173690 -25.550526 47.426396 0.416753 2.139738 0.070191 -0.034998 -713370.000000 0 0 1
-35.335726 -15.442090 -25.017056 45.966562 0.412000 2.146285 0.120803 -0.036976 -885028.000000 0 0 1
-34.105547 -16.086890 -25.231026 45.371589 0.440736 2.160479 0.113569 -0.031224 -55179.000000 0 0 1
-33.051536 -15.396690 -24.581256 43.973859 0.435947 2.163972 0.129479 -0.018560 -264245.000000 0 0 1
-31.665486 -16.020690 -24.701556 43.238090 0.468385 2.178875 0.120939 -0.020993 -282837.000000 0 0 1
-31.445506 -17.289090 -24.085856 43.218757 0.502698 2.161928 0.133060 -0.031462 -16612.900000 0 0 1
-31.883566 -18.403690 -24.874156 44.429509 0.523498 2.165009 0.113034 -0.035864 122729.000000 0 0 1
-31.874466 -19.718690 -24.104756 44.562850 0.554010 2.142322 0.103636 -0.036055 1270170.000000 0 0 1
-30.535366 -20.275290 -24.079656 43.855739 0.586150 2.152042 0.101218 -0.027035 875387.000000 0 0 1
-30.478776 -21.508790 -23.357456 44.013118 0.614539 2.130214 0.087883 -0.020365 182551.000000 0 0 1
-29.059466 -22.132390 -23.290956 43.321633 0.650899 2.138419 0.087681 -0.020079 966455.000000 0 0 1
-28.050606 -21.482890 -22.479956 41.877195 0.653576 2.137444 0.093895 -0.023434 340098.000000 0 0 1
-28.151476 -21.616890 -21.062156 41.272387 0.654845 2.106354 0.112915 -0.037526 -268837.000000 0 0 1
-27.955056 -23.087090 -20.516956 41.658665 0.690314 2.085758 0.105386 -0.029888 -61914.800000 0 0 1
-27.809546 -23.144090 -19.114956 40.919449 0.694090 2.056845 0.109660 -0.033611 -144458.000000 0 0 1
-28.218176 -24.363690 -18.614656 41.669656 0.712225 2.033892 0.101299 -0.017581 -166272.000000 0 0 1
-28.405336 -24.382490 -17.104156 41.157273 0.709337 1.999377 0.096364 -0.023401 793894.000000 0 0 1
-29.450236 -23.570590 -16.528656 41.183560 0.674956 1.983777 0.105822 -0.019184 230119.000000 0 0 1
-29.095106 -22.199690 -16.433056 40.117288 0.651772 1.992840 0.109954 -0.027208 197559.000000 0 0 1
-30.050796 -21.264090 -15.618656 39.989427 0.615812 1.972047 0.109201 -0.002455 493266.000000 0 0 1
-31.177886 -20.790790 -16.339056 40.881319 0.588125 1.981954 0.112700 -0.011891 379603.000000 0 0 1
-32.122636 -20.156490 -15.462656 40.954140 0.560385 1.957956 0.120821 -0.019815 449491.000000 0 0 1
-33.158376 -19.339990 -16.295956 41.702174 0.528021 1.972264 0.126630 -0.040132 -703847.000000 0 0 1
-34.087129 -20.081390 -16.977756 43.051583 0.532381 1.976166 0.066968 -0.027631 -707259.000000 0 0 1
-34.685243 -19.301890 -18.016556 43.591574 0.507810 1.996875 0.070536 -0.030057 287996.000000 0 0 1
-36.051126 -19.947290 -18.474256 45.153917 0.505378 1.992307 0.039064 -0.013957 1001280.000000 0 0 1
-37.110626 -19.754490 -17.519856 45.545404 0.489163 1.965644 0.027208 0.000847 239211.000000 0 0 1
-37.130036 -20.490190 -16.275656 45.424492 0.504262 1.937244 0.056290 -0.017236 -675167.000000 0 0 1
-37.476476 -21.968090 -16.545356 46.484751 0.530198 1.934706 0.028563 0.024879 5054.580000 0 0 1
36.214547 -22.214490 -16.562356 45.599217 -0.550224 1.942513 0.026599 -0.004166 99869.600000 0 0 1
35.909947 -23.616790 -16.713356 46.115217 -0.581746 1.941666 0.022518 0.006899 -44051.400000 0 0 1
34.480227 -23.983790 -16.268956 45.042059 -0.607754 1.940345 0.015999 0.001958 245178.000000 0 0 1
33.458737 -23.526590 -17.156256 44.354533 -0.612839 1.967953 0.028454 -0.003053 -333499.000000 0 0 1
32.233557 -23.809890 -16.554956 43.358731 -0.636209 1.962554 0.051005 -0.002783 -372953.000000 0 0 1
31.010557 -24.071290 -17.450556 42.960488 -0.660077 1.989088 0.064195 -0.018337 -187934.000000 0 0 1
30.523407 -22.928390 -18.067856 42.235492 -0.644252 2.012841 0.052449 -0.017284 -997989.000000 0 0 1
29.490307 -23.220990 -18.928156 42.037693 -0.667017 2.037860 0.091310 -0.016612 -566537.000000 0 0 1
35.094107 29.215710 -18.215256 49.162482 0.694244 1.950356 0.083013 -0.029257 -78961.300000 0 0 1
34.370067 29.887510 -19.218556 49.435996 0.715752 1.970078 0.070550 -0.033228 32471.600000 0 0 1
34.630717 29.278910 -20.484356 49.760928 0.701853 1.995066 0.077030 -0.023104 -879313.000000 0 0 1
33.512677 29.540010 -21.447556 49.555115 0.722476 2.018395 0.085599 -0.016890 -781949.000000 0 0 1
32.362587 28.725410 -21.118956 48.150769 0.725928 2.024837 0.068737 -0.018338 1167160.000000 0 0 1
31.417517 28.772010 -22.236756 48.055824 0.741474 2.051866 0.091385 -0.005048 698414.000000 0 0 1
30.472057 29.978610 -22.355156 48.239158 0.777236 2.052651 0.078823 -0.005736 -920589.000000 0 0 1
31.104867 31.242410 -22.546256 49.517013 0.787604 2.043532 0.095510 -0.020073 -13627.200000 0 0 1
30.218877 32.339410 -22.804856 49.790355 0.819282 2.046560 0.075684 -0.014038 -191303.000000 0 0 1
30.983897 33.670010 -22.705256 51.080330 0.826920 2.031413 0.068452 -0.005875 341353.000000 0 0 1
31.469097 -33.701813 -21.366656 50.819782 -0.819644 2.004726 0.074021 -0.018506 -467754.000000 0 0 1
32.703657 33.385010 -21.084256 51.270205 0.795707 1.994608 0.072202 -0.024472 -1106090.000000 0 0 1
33.125957 33.258410 -19.639256 50.883703 0.787393 1.967048 0.069741 -0.031997 -192498.000000 0 0 1
33.081847 -33.216213 -18.824756 50.518282 -0.787425 1.952641 0.061740 -0.030405 55899.200000 0 0 1
33.106327 -33.468313 -17.450356 50.206292 -0.790835 1.925778 0.054799 -0.040200 -1173850.000000 0 0 1
33.136027 -32.168913 -16.641356 49.089407 -0.770590 1.916651 0.050681 -0.027522 797317.000000 0 0 1
34.377667 -31.426213 -16.624656 49.455131 -0.740576 1.913629 0.057944 -0.015553 340588.000000 0 0 1
35.451647 -32.143713 -16.082456 50.484482 -0.736500 1.895009 0.052904 -0.023255 -1604270.000000 0 0 1
36.723077 -31.317713 -16.171956 50.901038 -0.706122 1.894114 0.040544 0.000358 -823925.000000 0 0 1
37.445977 -31.677913 -17.320556 52.016276 -0.702146 1.910262 0.025022 -0.005116 -1069120.000000 0 0 1
-36.492746 -30.883413 -17.373056 50.865792 0.702336 1.919359 0.016535 0.007074 -356894.000000 0 0 1
-35.476833 -31.367113 -18.416956 50.810292 0.723993 1.941708 0.054704 -0.004266 -616356.000000 0 0 1
-34.845183 -32.563813 -18.049656 50.993909 0.751567 1.932595 0.044365 -0.016347 49320.600000 0 0 1
-33.859266 -33.109913 -18.915256 50.995129 0.774209 1.950799 0.069253 -0.017116 1032420.000000 0 0 1
-32.450466 -32.412313 -18.910056 49.610291 0.784810 1.961860 0.061497 -0.020849 -424943.000000 0 0 1
-32.440226 -31.255713 -19.736056 49.181295 0.766804 1.983723 0.057675 -0.007402 205336.000000 0 0 1
-31.157686 -30.800013 -20.159056 48.226857 0.779625 2.002044 0.077999 -0.005909 150048.000000 0 0 1
-30.311546 -31.727713 -21.004156 48.647838 0.808221 2.017239 0.079072 -0.003996 -606231.000000 0 0 1
-31.032096 -32.360813 -22.035056 49.957551 0.806355 2.027593 0.070374 0.009452 -177095.000000 0 0 1
-30.129576 -33.102613 -22.815856 50.240796 0.832381 2.042192 0.065370 0.002409 162575.000000 0 0 1
-30.809086 33.755810 -23.933056 51.589202 -0.831006 2.053207 0.050103 -0.003333 -611494.000000 0 0 1
-31.723016 32.755110 -23.518856 51.306760 -0.801404 2.046987 0.064219 -0.022086 15867.600000 0 0 1
-32.212536 31.901210 -24.558556 51.560231 -0.780542 2.067247 0.058081 -0.015126 334873.000000 0 0 1
-33.171086 32.597710 -25.525626 53.051760 -0.776680 2.072757 0.060000 -0.027692 -744321.000000 0 0 1
-32.470036 33.335210 -26.516386 53.559857 -0.798545 2.088723 0.051944 -0.019985 66385.100000 0 0 1
-33.280276 -33.287713 -27.103206 54.316042 0.785510 2.093230 0.056894 -0.020209 494913.000000 0 0 1
-32.526466 -32.541613 -28.242306 53.986623 0.785631 2.121322 0.039363 -0.015572 23642.300000 0 0 1
-32.305386 -33.214213 -29.509196 54.932819 0.799268 2.137895 0.043697 -0.014890 131611.000000 0 0 1
-33.403506 -33.153513 -30.419956 56.038588 0.781642 2.144611 0.055038 -0.016615 152672.000000 0 0 1
-33.340156 33.511810 -31.541506 56.828462 -0.787966 2.159195 0.066866 -0.014471 36153.100000 0 0 1
-32.334196 -33.809513 -32.481876 56.953101 0.807699 2.177700 0.050699 -0.019232 -172890.000000 0 0 1
-32.433896 33.173910 -33.762386 57.379131 -0.796677 2.199886 0.060289 -0.036178 -874217.000000 0 0 1
-31.510836 33.640710 32.854995 56.604602 -0.818078 0.951540 0.059773 -0.034894 -313557.000000 0 0 1
-30.196456 33.177210 33.008103 55.696393 -0.832398 0.936460 0.049589 -0.023369 -446648.000000 0 0 1
-30.033266 31.787310 32.584490 54.536036 -0.813764 0.930435 0.054740 -0.029348 -341056.000000 0 0 1
-28.602956 31.212110 32.746750 53.522655 -0.828991 0.912425 0.056164 -0.017360 87756.500000 0 0 1
-28.080216 30.929610 -33.726166 53.689791 -0.833647 2.249992 0.056577 -0.022539 1105860.000000 0 0 1
-26.701606 30.482510 -33.796306 52.766936 -0.851420 2.265923 0.067277 -0.015946 1061500.000000 0 0 1
-26.548856 28.941110 33.777963 51.801356 -0.828483 0.860489 0.081007 -0.016068 -420490.000000 0 0 1
-26.772226 28.199810 -32.768226 50.850153 -0.811362 2.271045 0.080111 -0.016161 249097.000000 0 0 1
-26.307716 26.888510 -32.869436 49.954857 -0.796316 2.288933 0.077921 -0.009929 -467933.000000 0 0 1
-26.124496 26.123310 -31.511246 48.557958 -0.785375 2.276988 0.102700 -0.005818 343484.000000 0 0 1
-24.973676 26.422410 -30.710446 47.591594 -0.813578 2.272201 0.089299 -0.017617 316665.000000 0 0 1
-25.019916 27.693210 -30.100336 47.947266 -0.836069 2.249494 0.080708 -0.024733 309593.000000 0 0 1
-23.710376 28.024410 -29.330196 46.987338 -0.868593 2.244923 0.104079 -0.030691 313789.000000 0 0 1
-22.525876 28.080510 -30.105166 46.928149 -0.894722 2.267269 0.097842 -0.022186 930729.000000 0 0 1
-21.290276 28.022310 -29.365166 45.834907 -0.921077 2.266170 0.076703 -0.025925 1043710.000000 0 0 1
-20.871376 29.336410 -28.618516 45.991943 -0.952427 2.242411 0.067500 -0.015647 -678905.000000 0 0 1
-20.417776 30.396010 -29.377266 46.944934 -0.979300 2.246929 0.070548 -0.008069 25282.300000 0 0 1
-20.190476 31.555010 -28.605356 47.134281 -1.001589 2.222939 0.084881 -0.014180 20047.800000 0 0 1
-19.729176 32.689910 -29.522976 48.264653 -1.027789 2.228991 0.085006 -0.005429 806369.000000 0 0 1
-18.346576 32.672110 -29.908826 47.943733 -1.059139 2.244432 0.081868 -0.007099 540229.000000 0 0 1
-18.114176 33.545710 -31.024366 49.152308 -1.075675 2.253881 0.083966 -0.002903 475234.000000 0 0 1
-16.613176 33.673610 -31.435306 48.970278 -1.112476 2.267804 0.062398 0.007761 -261470.000000 0 0 1
-15.874576 -33.351513 -30.391856 47.832944 1.126551 2.259290 0.073374 -0.004768 696720.000000 0 0 1
-14.452276 -33.362013 -30.598246 47.519942 1.162004 2.270385 0.084631 -0.005979 1035550.000000 0 0 1
-13.752276 32.934810 -30.514496 46.957016 -1.175244 2.278169 0.088155 -0.008937 -1233380.000000 0 0 1
-13.529976 32.504910 -29.190886 45.735515 -1.176365 2.263025 0.092366 -0.020727 689.513000 0 0 1
-13.213276 31.095110 -29.157526 44.627995 -1.168984 2.282792 0.089516 -0.021151 9922.410000 0 0 1
-13.100276 30.599210 -27.668616 43.283730 -1.166282 2.264304 0.077629 -0.036546 -309464.000000 0 0 1
-11.842876 30.887710 -27.125476 42.779619 -1.204667 2.257608 0.096514 -0.035645 -401208.000000 0 0 1
-11.722176 30.567310 -25.751026 41.651954 -1.204606 2.237302 0.080526 -0.041394 -540547.000000 0 0 1
-10.394676 30.894410 -25.084666 41.130942 -1.246236 2.226697 0.106721 -0.042639 -1130470.000000 0 0 1
-9.364776 30.139610 -25.630696 40.657444 -1.269540 2.252872 0.122459 -0.034827 -1107590.000000 0 0 1
-8.190576 30.691010 -25.070526 40.466714 -1.310002 2.238946 0.140210 -0.040295 -103759.000000 0 0 1
-6.932076 29.966310 -25.623976 40.032757 -1.343466 2.265393 0.135350 -0.043427 -30044.200000 0 0 1
-6.572876 28.742910 -24.936856 38.616116 -1.345984 2.272818 0.133816 -0.057093 225739.000000 0 0 1
-5.463576 28.105710 -25.552986 38.376252 -1.378797 2.299434 0.121556 -0.061873 134384.000000 0 0 1
-5.045976 26.916810 -24.704356 36.881998 -1.385482 2.304765 0.125630 -0.049740 165833.000000 0 0 1
-5.870876 25.778310 -24.920756 36.332252 -1.346871 2.326654 0.135882 -0.045013 542450.000000 0 0 1
-5.283576 24.709910 -24.131056 34.940002 -1.360144 2.333174 0.130897 -0.053102 -97522.900000 0 0 1
-6.007776 23.373310 -24.093256 34.101173 -1.319207 2.355369 0.121156 -0.044009 -302165.000000 0 0 1
-6.129276 22.654810 -25.299376 34.508939 -1.306571 2.393702 0.117019 -0.042648 121248.000000 0 0 1
-6.983776 21.576310 -24.980956 33.739568 -1.257761 2.404470 0.107656 -0.040934 -194222.000000 0 0 1
-7.017976 20.527010 -26.183836 34.002991 -1.241365 2.449708 0.091182 -0.030536 -166703.000000 0 0 1
-5.868276 19.822510 -26.603526 33.691486 -1.282976 2.480988 0.102510 -0.035029 -306899.000000 0 0 1
-5.391276 18.826110 -25.741006 32.343279 -1.291888 2.491237 0.099706 -0.038322 695033.000000 0 0 1
-4.080476 18.063810 -26.172226 32.061456 -1.348633 2.525797 0.100779 -0.048441 892903.000000 0 0 1
-4.366376 17.121910 -27.241566 32.470417 -1.321101 2.566176 0.093102 -0.040227 -100284.000000 0 0 1
-3.328276 16.189510 -27.258136 31.877636 -1.368039 2.596514 0.097552 -0.048453 -476206.000000 0 0 1
-2.721776 15.963410 -28.700276 32.953670 -1.401919 2.627884 0.090414 -0.043794 386021.000000 0 0 1
-1.980076 17.151010 -29.104086 33.839706 -1.455856 2.606178 0.101372 -0.050105 344477.000000 0 0 1
-2.074676 17.400710 -30.500296 35.176087 -1.452127 2.620096 0.102476 -0.044781 -66010.500000 0 0 1
-1.334076 18.617310 -31.150446 36.314382 -1.499261 2.601769 0.112362 -0.031288 -1060300.000000 0 0 1
0.043324 18.505410 -31.015436 36.116608 1.568455 2.603638 0.130438 -0.039816 -1005000.000000 0 0 1
0.722224 19.550810 -31.660106 37.217175 1.533872 2.588084 0.140261 -0.030545 148716.000000 0 0 1
0.722524 20.942210 -30.931306 37.360995 1.536309 2.546156 0.128477 -0.032257 -244724.000000 0 0 1
1.469624 20.980310 -29.719616 36.408636 1.500863 2.525737 0.141044 -0.048175 -16654.500000 0 0 1
1.096224 22.071710 -28.903436 36.383660 1.521171 2.488827 0.134913 -0.053846 717665.000000 0 0 1
2.182324 22.341510 -27.779146 35.715355 1.473425 2.461943 0.143998 -0.054034 1230640.000000 0 0 1
3.424824 22.761310 -28.322736 36.496357 1.421450 2.459163 0.136665 -0.059160 -39629.000000 0 0 1
4.515224 22.907410 -27.453116 36.039011 1.376184 2.436823 0.129929 -0.058685 68059.000000 0 0 1
5.010124 24.356110 -27.328166 36.947938 1.367923 2.403331 0.135884 -0.059817 -251529.000000 0 0 1
5.810024 24.727110 -28.429316 38.123646 1.340017 2.412401 0.116240 -0.061888 62926.100000 0 0 1
6.127724 26.049610 -28.398206 39.020371 1.339764 2.385874 0.122234 -0.066031 35799.700000 0 0 1
7.098224 26.559510 -29.544206 40.356567 1.309643 2.392166 0.134255 -0.057567 380107.000000 0 0 1
8.428124 26.101210 -29.355296 40.175115 1.258463 2.390119 0.108103 -0.052983 -52838.300000 0 0 1
9.277824 26.922410 -30.095876 41.432547 1.238928 2.383840 0.111333 -0.052008 -238496.000000 0 0 1
10.723824 27.000410 -29.549666 41.439176 1.192730 2.364685 0.102923 -0.049096 -200072.000000 0 0 1
11.429024 28.031510 -30.186536 42.750616 1.183652 2.354782 0.099317 -0.038673 234594.000000 0 0 1
12.725324 28.097510 -29.551866 42.716703 1.145535 2.334790 0.090293 -0.036725 328907.000000 0 0 1
13.689224 28.835010 -30.464876 44.124385 1.127558 2.332882 0.086659 -0.039628 -655668.000000 0 0 1
13.335524 30.195810 -30.601016 45.011614 1.154921 2.318350 0.096316 -0.040776 656520.000000 0 0 1
14.255224 30.908610 -31.443716 46.338547 1.138663 2.316604 0.127280 -0.049246 267741.000000 0 0 1
13.939024 32.388610 -31.423826 47.231084 1.164388 2.298720 0.125007 -0.051174 -660037.000000 0 0 1
12.844324 32.597210 -32.224636 47.602331 1.195446 2.314414 0.108700 -0.053631 -623636.000000 0 0 1
12.109724 33.746910 -31.861596 47.965203 1.226269 2.297306 0.096155 -0.041227 240756.000000 0 0 1
10.833924 -33.740413 -32.752626 48.254781 -1.260099 2.316847 0.068286 -0.034890 124207.000000 0 0 1
10.952724 -33.086013 33.767183 48.526993 -1.251113 0.801203 0.060442 -0.017307 826335.000000 0 0 1
9.626024 -32.973513 33.230240 47.792905 -1.286758 0.801964 0.072009 -0.025764 750194.000000 0 0 1
9.553724 -32.090013 31.886466 46.236233 -1.281436 0.809801 0.085207 -0.019700 26707.400000 0 0 1
9.759524 -30.705113 32.089194 45.472724 -1.263048 0.787414 0.072481 -0.024674 180050.000000 0 0 1
10.031624 -30.095213 30.825473 44.233077 -1.249049 0.799748 0.086573 -0.023047 -466412.000000 0 0 1
9.586924 -28.625113 30.762803 43.100536 -1.247625 0.775965 0.079534 -0.034454 985865.000000 0 0 1
8.178124 -28.318813 30.672723 42.540014 -1.289658 0.765505 0.058626 -0.027580 1020460.000000 0 0 1
7.622424 -28.180013 31.986738 43.305495 -1.306627 0.739761 0.064303 -0.020017 997097.000000 0 0 1
6.037424 -28.147013 32.074856 43.098738 -1.359502 0.731433 0.064071 -0.023048 1464620.000000 0 0 1
5.270824 -29.339013 31.841067 43.616657 -1.393040 0.752444 0.083297 -0.032474 189601.000000 0 0 1
5.460524 -30.154813 30.714183 43.387684 -1.391655 0.784274 0.071109 -0.024362 -693257.000000 0 0 1
4.941824 -29.655513 29.347313 42.013520 -1.405673 0.797468 0.054787 -0.027297 734405.000000 0 0 1
3.534724 -29.412313 29.184693 41.585150 -1.451192 0.792867 0.096233 -0.032165 979239.000000 0 0 1
3.281124 -28.850413 27.906583 40.272689 -1.457554 0.805237 0.098510 -0.030286 -361675.000000 0 0 1
1.884824 -29.122013 27.316783 39.973126 -1.506165 0.818416 0.089186 -0.017249 -138763.000000 0 0 1
1.634024 -30.458613 26.821403 40.617543 -1.517200 0.849524 0.111289 -0.029528 261420.000000 0 0 1
1.565724 -31.511413 27.746343 42.015237 -1.521150 0.849461 0.152094 -0.039328 -550928.000000 0 0 1
2.138524 -32.848513 27.116983 42.648902 -1.505785 0.881727 0.171296 -0.043841 604533.000000 0 0 1
3.544424 -32.987213 26.906703 42.716388 -1.463759 0.889382 0.119788 -0.030797 775947.000000 0 0 1
3.997124 -32.326813 25.721643 41.504250 -1.447773 0.902391 0.106392 -0.040876 -771510.000000 0 0 1
5.489824 -32.029813 25.823573 41.507879 -1.401048 0.899327 0.111583 -0.026425 -560058.000000 0 0 1
5.998324 -31.580913 24.580253 40.466317 -1.383097 0.917981 0.098113 -0.041305 136542.000000 0 0 1
7.382924 -31.333413 24.736913 40.598093 -1.339393 0.915603 0.085843 -0.042665 -637420.000000 0 0 1
8.126524 -31.217013 23.440513 39.874803 -1.316125 0.942394 0.082222 -0.038381 -792704.000000 0 0 1
9.472924 -30.946313 23.744513 40.139911 -1.273745 0.937824 0.078298 -0.026972 -302273.000000 0 0 1
10.195524 -30.715413 22.562183 39.451710 -1.250305 0.961984 0.080893 -0.033973 -143414.000000 0 0 1
11.210724 -29.553213 22.610283 38.862548 -1.208226 0.949855 0.063726 -0.029157 174265.000000 0 0 1
12.368324 -29.913813 23.342633 39.908522 -1.178736 0.946035 0.065228 -0.030213 -80010.400000 0 0 1
13.368324 -28.930113 23.338613 39.501321 -1.137934 0.938708 0.074599 -0.026410 236651.000000 0 0 1
14.745424 -29.373913 23.901753 40.639243 -1.105558 0.942033 0.106149 -0.033782 239063.000000 0 0 1
14.733624 -29.601213 25.276193 41.619676 -1.108961 0.918122 0.095593 -0.029167 59456.400000 0 0 1
15.887624 -28.978313 25.771393 41.908518 -1.069291 0.908481 0.113611 -0.033931 -341152.000000 0 0 1
-10.880976 -13.952490 25.887733 31.356695 0.908458 0.599552 0.126857 -0.048624 162567.000000 0 0 1
-9.533276 -13.894790 25.458093 30.529708 0.969457 0.584697 0.138811 -0.047944 91187.500000 0 0 1
-8.668176 -14.127490 26.569033 31.315120 1.020460 0.557763 0.155869 -0.051267 405986.000000 0 0 1
-7.159176 -13.854690 26.311633 30.586080 1.093852 0.535039 0.135870 -0.044917 206251.000000 0 0 1
-6.494676 -14.844090 25.568333 30.269910 1.158364 0.564833 0.121674 -0.050647 51770.700000 0 0 1
-6.694276 -14.681390 24.158703 29.051669 1.142989 0.588855 0.122023 -0.045608 -729535.000000 0 0 1
-6.281576 -15.906790 23.275773 28.883313 1.194695 0.633678 0.116079 -0.040973 279010.000000 0 0 1
-7.060576 -17.115590 23.151283 29.644174 1.179541 0.674575 0.133614 -0.042258 -57743.600000 0 0 1
-7.175676 -17.782190 24.429583 31.056419 1.187249 0.665482 0.139672 -0.042562 -279401.000000 0 0 1
-7.738076 -19.231190 24.332083 31.965086 1.188248 0.705622 0.140095 -0.042083 -67799.600000 0 0 1
-9.099576 -19.244490 23.951133 32.043868 1.129111 0.726584 0.139014 -0.037745 -53863.100000 0 0 1
-9.624676 -20.521090 23.699213 32.793326 1.132243 0.763119 0.131874 -0.040980 253751.000000 0 0 1
-11.154276 -20.608790 23.457763 33.157303 1.074704 0.784886 0.113452 -0.041980 92585.600000 0 0 1
-11.879576 -20.449390 24.633443 34.148329 1.044520 0.765024 0.121146 -0.044958 -507084.000000 0 0 1
-13.256176 -20.337390 24.364063 34.393941 0.993148 0.783593 0.122365 -0.037456 -57571.100000 0 0 1
-14.113376 -20.434390 25.613383 35.676282 0.966361 0.769960 0.115573 -0.044981 -508103.000000 0 0 1
-13.616176 -21.437690 26.437893 36.659746 1.004930 0.765307 0.119621 -0.034022 212315.000000 0 0 1
-12.989376 -20.930190 27.640813 37.024469 1.015364 0.727927 0.117633 -0.036249 109896.000000 0 0 1
-12.419376 -22.058990 28.495413 38.115988 1.058021 0.726359 0.113359 -0.026718 394207.000000 0 0 1
-13.379376 -22.861190 29.210763 39.432352 1.041297 0.736563 0.119495 -0.023056 590017.000000 0 0 1
-12.674076 -23.850690 29.897423 40.290737 1.082351 0.734685 0.102507 -0.013844 425445.000000 0 0 1
-13.676676 -24.691690 30.762823 41.750237 1.064965 0.742427 0.112448 -0.027723 529260.000000 0 0 1
-14.005276 -23.982290 31.934454 42.321476 1.042236 0.715800 0.105159 -0.022326 424439.000000 0 0 1
-15.077576 -24.688490 32.602919 43.586754 1.022537 0.725752 0.118012 -0.026668 383141.000000 0 0 1
-15.145476 -24.325090 -33.589976 44.151806 1.013905 2.435316 0.117496 -0.026848 160468.000000 0 0 1
-15.409376 -22.948490 -33.261716 43.248397 0.979471 2.448205 0.122243 -0.031217 42046.500000 0 0 1
-16.663476 -22.489190 -33.725016 43.827067 0.933109 2.448857 0.110779 -0.031835 -523605.000000 0 0 1
-16.939976 -20.998090 -33.417736 42.949129 0.891960 2.462395 0.099600 -0.029026 -239461.000000 0 0 1
-17.058576 -20.626790 -32.047056 41.754919 0.879801 2.445734 0.092443 -0.029115 234676.000000 0 0 1
-17.045276 -19.232590 -31.863946 40.935865 0.845619 2.462889 0.077340 -0.028704 -217146.000000 0 0 1
-17.113576 -18.837390 -30.361946 39.617793 0.833310 2.443970 0.071752 -0.022849 200326.000000 0 0 1
-18.429976 -18.827890 -29.811446 39.785371 0.796078 2.417811 0.076136 -0.024103 355037.000000 0 0 1
-18.511976 -18.589390 -28.426866 38.682624 0.787485 2.396278 0.072615 -0.029782 77989.600000 0 0 1
-17.916176 -19.681890 -27.462096 38.243076 0.832327 2.371855 0.054531 -0.021459 -183553.000000 0 0 1
-16.510276 -19.753490 -27.571496 37.722367 0.874595 2.390445 0.047417 -0.022475 -152656.000000 0 0 1
-16.001576 -20.799190 -26.774436 37.490361 0.915034 2.366232 0.036929 -0.025587 -984054.000000 0 0 1
-14.567776 -21.079490 -27.134916 37.321156 0.966077 2.384834 0.169076 -0.027371 -571786.000000 0 0 1
-13.594676 -20.148990 -26.651456 36.070724 0.977248 2.402183 0.144179 -0.031813 1110380.000000 0 0 1
-12.223276 -20.435990 -26.955216 35.966955 1.031757 2.418018 0.102441 -0.045409 1171120.000000 0 0 1
-11.403276 -21.337490 -25.965136 35.489597 1.079990 2.391501 0.158565 -0.060083 -135142.000000 0 0 1
-11.503576 -22.746190 -26.116076 36.493436 1.102570 2.368333 0.153052 -0.055757 283427.000000 0 0 1
-10.592576 -23.474290 -25.291786 36.095975 1.146910 2.347149 0.219056 -0.054399 241027.000000 0 0 1
-10.540076 -24.925890 -25.650236 37.287100 1.170743 2.329404 0.203843 -0.041926 -446286.000000 0 0 1
-9.631376 -25.337150 -26.642636 38.007428 1.207537 2.347574 0.192261 -0.040322 -139157.000000 0 0 1
-9.865776 -26.648590 -27.134626 39.290823 1.216225 2.333128 0.176933 -0.023334 -132545.000000 0 0 1
-9.492676 -27.836710 -26.229616 39.407944 1.242150 2.299083 0.194264 -0.025785 -49557.300000 0 0 1
-10.456776 -28.042790 -25.197056 39.123316 1.213880 2.270567 0.168641 -0.030008 119020.000000 0 0 1
-10.379976 -29.208060 -24.461756 39.487114 1.229336 2.238885 0.172535 -0.041498 -407722.000000 0 0 1
-11.486076 -29.175270 -23.415256 39.133113 1.195740 2.212235 0.180267 -0.045709 -418069.000000 0 0 1
-11.412976 -28.124280 -22.493956 37.778422 1.185296 2.208582 0.189078 -0.054252 -490476.000000 0 0 1
-12.217276 -27.017960 -22.719356 37.355068 1.146122 2.224587 0.154205 -0.046665 -357858.000000 0 0 1
-12.050276 -25.896240 -21.650256 35.840731 1.135268 2.219393 0.184720 -0.060351 958.444000 0 0 1
-12.679376 -26.269350 -20.446256 35.621548 1.121110 2.182161 0.125102 -0.046938 15555.900000 0 0 1
-12.825376 -25.097800 -19.675856 34.373378 1.098375 2.180245 0.110768 -0.034951 -98234.900000 0 0 1
-13.326176 -25.481960 -18.270256 34.069334 1.088946 2.136804 0.129060 -0.034655 766720.000000 0 0 1
-14.732476 -25.768210 -18.340956 34.891792 1.051422 2.124278 0.149894 -0.040419 439153.000000 0 0 1
-15.238676 -26.346890 -17.155256 34.938212 1.046421 2.084053 0.139241 -0.031998 -109873.000000 0 0 1
-16.778076 -26.345720 -17.241256 35.677187 1.003726 2.075168 0.154849 -0.043450 -1694500.000000 0 0 1
-17.420176 -25.081680 -17.050156 34.975149 0.963746 2.080013 0.139397 -0.035065 -304818.000000 0 0 1
-18.703476 -25.281310 -16.527456 35.526349 0.933846 2.054676 0.151784 -0.031259 -102482.000000 0 0 1
-19.789676 -25.942620 -17.429956 36.992623 0.919138 2.061417 0.141178 -0.031048 -1441310.000000 0 0 1
-19.653376 -27.315150 -17.742356 38.041606 0.947100 2.056006 0.142910 -0.045347 -243574.000000 0 0 1
-19.899476 -28.243320 -16.709856 38.378295 0.957008 2.021277 0.145880 -0.047685 -184870.000000 0 0 1
-21.404176 -28.568410 -16.546356 39.345580 0.927791 2.004836 0.144832 -0.041653 283448.000000 0 0 1
-21.851676 -29.539730 -17.517056 40.705511 0.933895 2.015662 0.117015 -0.036086 263848.000000 0 0 1
-23.195976 -29.920300 -17.253756 41.604925 0.911325 1.998415 0.128748 -0.035199 423763.000000 0 0 1
-23.904976 -30.990010 -18.122456 43.130639 0.913754 2.004436 0.099714 -0.031746 -5006.120000 0 0 1
-23.381076 -32.301760 -18.054956 43.772821 0.944254 1.995960 0.095827 -0.040978 -95964.800000 0 0 1
-23.729676 -32.993040 -19.226256 44.958727 0.947279 2.012679 0.065277 -0.007309 -173835.000000 0 0 1
-23.015076 33.358256 -19.254156 44.868581 -0.966856 2.014318 0.050816 -0.014692 -522128.000000 0 0 1
-23.723376 32.405773 -18.577956 44.250121 -0.938868 2.004065 0.057984 -0.016541 -127810.000000 0 0 1
-22.867576 31.323083 -18.238656 42.856857 -0.940183 2.010390 0.050366 -0.016199 -280502.000000 0 0 1
-23.654676 30.128173 -17.833556 42.252648 -0.905186 2.006523 0.077738 -0.040657 -122752.000000 0 0 1
-24.323576 30.303423 -16.569656 42.243193 -0.894431 1.973867 0.083575 -0.050653 -155143.000000 0 0 1
-24.965476 29.144633 -16.111056 41.620317 -0.862479 1.968276 0.081537 -0.040304 -451851.000000 0 0 1
-24.150376 27.915333 -15.658656 40.096135 -0.857584 1.972001 0.084729 -0.047774 -451898.000000 0 0 1
-23.475276 27.440723 -16.793156 39.825771 -0.863123 2.006078 0.062540 -0.030249 -349532.000000 0 0 1
-22.763276 26.275453 -16.525056 38.492125 -0.856897 2.014525 0.072196 -0.031615 -23971.200000 0 0 1
-22.083976 25.557733 -17.724156 38.145058 -0.858184 2.054037 0.061483 -0.026296 -879774.000000 0 0 1
-22.199376 24.133193 -17.630956 37.230014 -0.827112 2.064134 0.076272 -0.042972 273630.000000 0 0 1
-21.599176 23.385313 -18.724056 36.932203 -0.825083 2.102479 0.071899 -0.028871 -354679.000000 0 0 1
-20.183676 23.759643 -19.143256 36.583681 -0.866596 2.121484 0.058684 -0.039487 -1227330.000000 0 0 1
-19.291476 23.554533 -18.049256 35.394247 -0.884569 2.105922 0.085861 -0.047506 287639.000000 0 0 1
-18.000676 24.087653 -18.300456 35.201507 -0.929026 2.117503 0.099852 -0.062699 233819.000000 0 0 1
-17.743176 25.407503 -17.482456 35.580863 -0.961183 2.084429 0.132338 -0.054434 62265.900000 0 0 1
-18.615776 26.459523 -17.855556 36.952326 -0.957687 2.075108 0.109065 -0.044703 206376.000000 0 0 1
-18.087076 27.593753 -17.243056 37.227417 -0.990580 2.052378 0.122786 -0.057215 -24909.500000 0 0 1
-19.011576 28.867383 -17.366556 38.682853 -0.988411 2.036383 0.100441 -0.044468 378453.000000 0 0 1
-19.194476 29.383773 -18.667056 39.752900 -0.992151 2.059608 0.075794 -0.035560 364178.000000 0 0 1
-20.059076 28.561263 -19.452656 39.956453 -0.958517 2.079272 0.067344 -0.023457 -391379.000000 0 0 1
-20.289076 29.167083 -20.835356 41.188317 -0.963019 2.101170 0.059988 -0.030495 -28806.000000 0 0 1
-21.155676 30.277333 -20.911256 42.444790 -0.960923 2.085951 0.061014 -0.025973 -22354.400000 0 0 1
-21.605676 30.396913 -22.229856 43.415943 -0.952869 2.108332 0.068670 -0.027724 40695.200000 0 0 1
-22.267576 31.747404 -22.574556 44.870405 -0.959133 2.097985 0.072426 -0.028722 -166038.000000 0 0 1
-21.358876 32.802014 -22.630956 45.214311 -0.993616 2.095003 0.051788 -0.024570 18723.200000 0 0 1
-21.854476 33.793023 -23.557556 46.632017 -0.996733 2.100387 0.070226 -0.014930 -168902.000000 0 0 1
-20.817076 -32.718260 -23.782256 45.490998 1.004146 2.120917 0.081229 -0.014882 220871.000000 0 0 1
-20.683576 -31.860500 -22.648956 44.225298 0.994989 2.108455 0.092741 -0.022283 384606.000000 0 0 1
-19.772776 -32.352130 -21.652456 43.662934 1.022201 2.089667 0.100035 -0.037679 -54377.800000 0 0 1
-19.589476 -31.419770 -20.448856 42.297816 1.013294 2.075387 0.122730 -0.044510 -507374.000000 0 0 1
-18.744376 -30.348100 -20.635956 41.209240 1.017503 2.095273 0.131597 -0.044283 -428982.000000 0 0 1
-18.286176 -29.859500 -19.424856 40.041216 1.021304 2.077298 0.127419 -0.046660 -349522.000000 0 0 1
-17.085876 -28.922180 -19.655056 38.919672 1.037204 2.100197 0.144462 -0.046880 364183.000000 0 0 1
-15.896776 -29.656100 -19.935256 39.110180 1.078736 2.105656 0.150224 -0.054584 470513.000000 0 0 1
-14.755476 -28.823190 -20.119856 38.122289 1.097650 2.126771 0.140156 -0.053133 548563.000000 0 0 1
-13.387076 -29.569910 -20.271756 38.269276 1.145678 2.129059 0.179338 -0.057997 463730.000000 0 0 1
-12.941076 -30.273360 -19.085456 38.055254 1.166832 2.096151 0.161714 -0.054707 605255.000000 0 0 1
-12.164776 -29.331230 -18.281656 36.640439 1.177650 2.093180 0.115161 -0.047263 -79312.000000 0 0 1
-11.207176 -29.911870 -17.220556 36.288680 1.212312 2.065242 0.102724 -0.023737 -248332.000000 0 0 1
-11.745576 -30.491700 -16.058656 36.408553 1.203108 2.027585 0.131639 -0.037294 -333570.000000 0 0 1
-12.046176 -31.863320 -16.221356 37.729483 1.209348 2.015221 0.145424 -0.035279 -137552.000000 0 0 1
-12.893576 -32.413940 -15.057056 37.995036 1.192206 1.978269 0.152154 -0.044050 -366127.000000 0 0 1
-12.221876 -32.468810 -13.830456 37.348084 1.210782 1.950142 0.136942 -0.037400 -263590.000000 0 0 1
-13.071876 -33.190560 -12.958956 37.952888 1.195609 1.919254 0.137016 -0.038792 380359.000000 0 0 1
-12.396776 -33.346890 -11.583856 37.414981 1.214876 1.885574 0.111687 -0.035105 -10749.900000 0 0 1
-12.451876 -32.185810 -10.738356 36.142604 1.201656 1.872462 0.060683 -0.033568 144475.000000 0 0 1
-11.968076 -32.476200 -9.412056 35.868164 1.217720 1.836312 0.075353 -0.035136 -266716.000000 0 0 1
-10.482076 -32.174130 -9.168656 35.058705 1.255848 1.835396 0.076729 -0.028272 -432794.000000 0 0 1
-9.543676 -32.897010 -9.890556 35.652743 1.288440 1.851897 0.060773 -0.034321 -191480.000000 0 0 1
-8.309076 -32.189710 -9.796056 34.658056 1.318182 1.857351 0.053133 -0.042238 1641620.000000 0 0 1
-6.970776 -32.840740 -10.374256 35.138741 1.361641 1.870500 0.055406 -0.051337 1406270.000000 0 0 1
-6.499876 33.666681 -9.640356 35.617837 -1.380077 1.844876 0.049203 -0.029901 938496.000000 0 0 1
-5.222376 33.261384 -10.193956 35.178255 -1.415058 1.864793 0.068835 -0.031758 1374910.000000 0 0 1
-4.504776 32.060626 -9.449156 33.726300 -1.431202 1.854769 0.082588 -0.038409 292544.000000 0 0 1
-3.950076 32.434192 -8.213656 33.690415 -1.449606 1.817076 0.094868 -0.042671 -364940.000000 0 0 1
-3.194376 31.439083 -7.593256 32.500424 -1.469539 1.806611 0.078169 -0.039361 -298380.000000 0 0 1
-2.714376 31.882216 -6.262256 32.604592 -1.485864 1.764064 0.086268 -0.033998 -646153.000000 0 0 1
-1.926876 33.041123 -6.332256 33.697569 -1.512545 1.759835 0.060660 -0.030790 47295.700000 0 0 1
-1.483876 33.677323 -5.121656 34.096853 -1.526763 1.721576 0.071484 -0.033523 240849.000000 0 0 1
-0.462876 32.974722 -4.195856 33.243823 -1.556760 1.697348 0.066079 -0.032317 -151618.000000 0 0 1
0.852824 32.991929 -4.700556 33.336016 1.544953 1.712273 0.055730 -0.025411 -88176.500000 0 0 1
1.842524 32.467685 -3.848556 32.746861 1.514108 1.688593 0.055948 -0.018988 617359.000000 0 0 1
3.283624 32.603698 -4.410656 33.064138 1.470422 1.704592 0.056082 -0.012997 -96454.800000 0 0 1
4.004524 33.700613 -4.110956 34.185780 1.452524 1.691341 0.050159 -0.016855 -606653.000000 0 0 1
5.365324 33.613140 -4.464056 34.330128 1.412512 1.701199 0.063622 -0.017002 402172.000000 0 0 1
6.262924 -32.892600 -3.937856 33.714300 -1.382643 1.687864 0.071402 -0.018114 176335.000000 0 0 1
5.900824 -31.692820 -4.633456 32.568750 -1.386716 1.713548 0.067514 -0.024124 -37054.700000 0 0 1
6.364124 -30.518210 -4.029556 31.434066 -1.365207 1.699341 0.062424 -0.025190 -13588.100000 0 0 1
6.159224 -29.284190 -4.949456 30.331451 -1.363492 1.734708 0.063005 -0.022100 -285710.000000 0 0 1
7.180224 -29.125890 -5.901656 30.572906 -1.329092 1.765051 0.081583 -0.023054 -333457.000000 0 0 1
7.004824 -28.063180 -6.810756 29.715249 -1.326186 1.802053 0.083446 -0.020785 155298.000000 0 0 1
7.382624 -26.631510 -6.344356 28.354740 -1.300373 1.796456 0.089028 -0.015851 521620.000000 0 0 1
6.498824 -26.212920 -5.300756 27.521807 -1.327772 1.764609 0.072503 -0.016241 -103728.000000 0 0 1
6.751924 -24.895090 -4.870656 26.250281 -1.305952 1.757425 0.066042 -0.016674 324029.000000 0 0 1
5.830624 -24.412090 -3.679356 25.366985 -1.336347 1.716355 0.061894 -0.017067 45511.900000 0 0 1
4.540024 -24.167890 -4.159256 24.939890 -1.385107 1.738350 0.053732 -0.026917 -447882.000000 0 1 0
3.816024 -23.325290 -3.230356 23.855112 -1.408633 1.706629 0.056887 -0.040071 469373.000000 0 1 0
2.389824 -22.879790 -3.607556 23.285414 -1.466722 1.726351 0.073119 -0.033377 252782.000000 0 1 0
1.455624 -23.932690 -3.667556 24.255792 -1.510050 1.722582 0.091288 -0.028829 186294.000000 0 1 0
0.159024 -23.431290 -4.021156 23.774363 -1.564010 1.740752 0.061981 -0.025958 437734.000000 0 1 0
-15.894876 23.126710 18.097483 33.391776 -0.968648 0.998012 0.002112 -0.009257 1140.320000 0 0 1
-16.081876 22.557010 19.374783 33.805735 -0.951436 0.960487 0.036840 -0.014971 133719.000000 0 0 1
-15.495976 23.398410 20.294083 34.633231 -0.985846 0.944718 0.038738 -0.026022 -1277460.000000 0 0 1
-15.552876 22.864910 21.730483 35.169731 -0.973478 0.904760 0.064540 -0.032197 -280977.000000 0 0 1
-14.529376 21.886010 22.061483 34.304654 -0.984735 0.872251 0.049955 -0.032777 2956290.000000 0 0 1
-13.123876 22.360410 21.923083 33.953581 -1.040047 0.868885 0.049147 -0.036254 1532670.000000 0 0 1
-12.809076 23.480510 22.953643 35.245944 -1.071400 0.861576 0.062696 -0.033401 -1311470.000000 0 0 1
-12.418976 22.954710 24.194763 35.588429 -1.074873 0.823239 0.056796 -0.031600 64509.900000 0 0 1
-12.274576 23.998210 25.125383 36.849209 -1.098008 0.820517 0.076826 -0.038833 -163165.000000 0 0 1
-11.573876 23.439710 26.397243 37.150896 -1.112143 0.780529 0.079747 -0.038248 291822.000000 0 0 1
-10.188476 23.167010 26.348173 36.534116 -1.156471 0.765272 0.055087 -0.034063 66595.000000 0 0 1
-9.806976 22.420610 27.470193 36.789565 -1.158462 0.727733 0.048696 -0.029702 -107973.000000 0 0 1
-8.297676 22.158910 27.715643 36.442086 -1.212497 0.706653 0.045538 -0.033382 1013080.000000 0 0 1
-7.403376 23.258010 28.034383 37.170844 -1.262623 0.716356 0.046849 -0.027955 674256.000000 0 0 1
-6.929376 24.055110 26.932193 36.769656 -1.290327 0.748872 0.046490 -0.024765 -761926.000000 0 0 1
-5.961376 25.119210 27.317083 37.586378 -1.337784 0.757172 0.049377 -0.028019 510025.000000 0 0 1
-4.587376 24.714310 27.451623 37.221402 -1.387269 0.741402 0.041767 -0.023916 588771.000000 0 0 1
-3.739576 25.698610 27.976853 38.172075 -1.426294 0.748201 0.054754 -0.018602 -12652.600000 0 0 1
-2.276576 25.211010 28.091293 37.814000 -1.480740 0.733433 0.055010 -0.020969 -22909.600000 0 0 1
-1.584076 25.189910 26.857293 36.855869 -1.507994 0.754358 0.049847 -0.027708 881848.000000 0 0 1
-0.283076 24.563010 26.979293 36.487037 -1.559272 0.738586 0.060518 -0.019410 1310570.000000 0 0 1
0.500824 24.512810 25.642503 35.477693 1.550368 0.762982 0.050371 -0.028443 -105877.000000 0 0 1
0.034424 23.501810 24.805923 34.171188 1.569332 0.758409 0.054184 -0.015867 -217554.000000 0 0 1
0.691624 23.453910 23.578673 33.264367 1.541316 0.782963 0.069571 -0.012230 -196364.000000 0 0 1
0.260224 22.224910 22.774133 31.822563 1.559088 0.773228 0.039762 -0.012316 127163.000000 0 0 1
0.628724 21.069010 23.494043 31.563722 1.540964 0.731255 0.062656 -0.012311 -56515.900000 0 0 1
0.208724 19.856910 22.864993 30.284458 1.560285 0.715131 0.058823 -0.008346 -131031.000000 0 0 1
1.213224 18.699410 22.928523 29.611772 1.506007 0.685181 0.069019 -0.011075 -175137.000000 0 0 1
2.348024 18.803910 22.081183 29.097748 1.446570 0.709232 0.075664 -0.016806 -137216.000000 0 0 1
3.112624 17.620810 22.174583 28.493745 1.395955 0.678960 0.063150 -0.018178 -269963.000000 0 0 1
4.471424 17.788210 21.458483 28.229073 1.324529 0.707244 0.067560 -0.018770 -615116.000000 0 0 1
5.386024 18.416410 22.281483 29.404726 1.286273 0.710935 0.059228 -0.015953 -183268.000000 0 0 1
6.614324 18.627110 21.556183 29.247009 1.229593 0.742118 0.077982 -0.024850 889764.000000 0 0 1
7.800224 19.212310 22.391083 30.517486 1.185127 0.747025 0.088652 -0.033121 -196193.000000 0 0 1
7.684324 20.308610 23.260123 31.820148 1.209068 0.751029 0.062362 -0.023650 -178489.000000 0 0 1
7.318824 21.502010 22.614183 32.051567 1.242719 0.787589 0.075016 -0.029486 617475.000000 0 0 1
5.921824 22.114610 23.016043 32.463244 1.309156 0.782734 0.062683 -0.021033 718262.000000 0 0 1
5.632524 23.360710 22.418283 32.863773 1.334201 0.820087 0.064675 -0.025694 37684.000000 0 0 1
4.586224 24.029110 23.076273 33.629540 1.382203 0.814557 0.041047 -0.024232 -739276.000000 0 0 1
4.385424 25.480710 22.525983 34.291668 1.400358 0.854105 0.055601 -0.023647 45058.300000 0 0 1
4.093824 25.586110 21.155183 33.450713 1.412139 0.886112 0.061753 -0.032357 -233796.000000 0 0 1
2.828924 25.054610 20.861383 32.725122 1.458362 0.879582 0.066002 -0.036388 -726801.000000 0 0 1
2.580824 25.271710 19.375683 31.948977 1.469026 0.919199 0.072667 -0.034573 -416481.000000 0 0 1
2.376324 26.635810 19.106483 32.865955 1.481817 0.950415 0.080767 -0.039338 130325.000000 0 0 1
1.910524 26.954810 17.802383 32.359493 1.500036 0.988260 0.085963 -0.037910 -132741.000000 0 0 1
0.642824 27.824910 17.751583 33.011476 1.547698 1.003042 0.087652 -0.024836 147763.000000 0 0 1
0.962224 29.051310 18.383283 34.392581 1.537687 1.006865 0.081086 -0.028044 128154.000000 0 0 1
-0.168576 29.884110 18.411483 35.100872 -1.565155 1.018633 0.071402 -0.025020 -38962.500000 0 0 1
0.140424 31.338010 18.993983 36.645082 1.566315 1.025908 0.076828 -0.015626 -112870.000000 0 0 1
0.348724 31.229010 20.366683 37.285044 1.559630 0.992924 0.091658 -0.018239 40615.900000 0 0 1
0.769924 32.531310 20.828783 38.635698 1.547134 1.001420 0.112794 -0.021826 133875.000000 0 0 1
1.422324 32.621210 22.238483 39.505905 1.527223 0.972887 0.111265 -0.035224 -23109.000000 0 0 1
0.459224 32.284610 23.203273 39.760519 1.556573 0.947671 0.125735 -0.027509 211586.000000 0 0 1
0.995424 32.235010 24.510623 40.507498 1.539926 0.920919 0.130356 -0.033405 -574225.000000 0 0 1
-0.077776 31.912110 25.524893 40.864520 -1.568359 0.896148 0.136054 -0.032757 -910152.000000 0 0 1
-1.053876 32.909810 25.573743 41.691517 -1.538784 0.910433 0.143078 -0.032318 -65408.600000 0 0 1
-1.899876 32.940910 26.734003 42.466693 -1.513185 0.889850 0.143753 -0.028764 -146991.000000 0 0 1
-1.420776 33.162810 28.153433 43.524779 -1.527980 0.867367 0.162591 -0.039983 -273774.000000 0 0 1
-0.388476 32.226510 28.552503 43.057454 -1.558742 0.845809 0.155028 -0.044098 959552.000000 0 0 1
0.137924 32.760010 29.792833 44.281489 1.566586 0.832802 0.155597 -0.054634 -758797.000000 0 0 1
1.235124 31.915510 30.447693 44.126946 1.532116 0.809304 0.128796 -0.044241 1329530.000000 0 0 1
2.573324 31.847810 29.856603 43.730102 1.490171 0.819280 0.109683 -0.043101 1644850.000000 0 0 1
2.721624 31.554610 28.489053 42.599611 1.484758 0.838252 0.098024 -0.042176 -1517640.000000 0 0 1
4.190124 31.365910 28.146473 42.350932 1.437994 0.843837 0.076804 -0.041687 -755224.000000 0 0 1
4.782824 30.246410 28.737103 41.994546 1.413966 0.817145 0.080223 -0.038131 -695189.000000 0 0 1
6.120424 30.201410 28.362353 41.880877 1.370851 0.826826 0.070164 -0.050187 -830250.000000 0 0 1
6.900324 29.097810 29.087733 41.718021 1.337955 0.799248 0.073696 -0.038761 -97651.800000 0 0 1
7.078224 29.425110 30.458333 42.937728 1.334731 0.782206 0.083649 -0.042173 -92472.500000 0 0 1
7.962724 28.524410 31.057223 42.913845 1.298572 0.761632 0.066846 -0.035402 -287470.000000 0 0 1
7.804524 28.369110 32.601873 43.915819 1.302331 0.734193 0.089781 -0.053389 -445793.000000 0 0 1
6.472724 28.136910 32.996390 43.844540 1.344686 0.718830 0.110869 -0.057080 -107887.000000 0 0 1
6.350724 28.011610 -33.344116 44.009227 1.347848 2.430520 0.133323 -0.054973 -56376.000000 0 0 1
6.424524 26.555910 -32.916826 42.778597 1.333433 2.448806 0.124556 -0.046872 594935.000000 0 0 1
7.752324 26.029910 -33.134776 42.843531 1.281337 2.454968 0.091860 -0.043581 873206.000000 0 0 1
7.822924 24.609810 -32.973016 41.881508 1.263019 2.477203 0.101250 -0.042074 -401355.000000 0 0 1
9.222124 24.034710 -33.178116 41.994074 1.204420 2.481714 0.082904 -0.033183 -751204.000000 0 0 1
9.709724 24.029910 33.272326 42.175384 1.186788 0.661773 0.046598 -0.019966 56146.700000 0 0 1
10.922524 23.300010 33.116662 41.939305 1.132437 0.660586 0.062184 -0.034383 110870.000000 0 0 1
11.078424 21.769810 33.448116 41.417781 1.100063 0.630761 0.057273 -0.032668 -1021000.000000 0 0 1
10.364924 20.881610 32.618806 40.093139 1.110060 0.620521 0.039349 -0.028000 28103.800000 0 0 1
10.173024 19.653210 33.268333 39.956490 1.093147 0.586986 0.029773 -0.024810 1425460.000000 0 0 1
8.754724 19.595810 -33.733056 39.981997 1.150636 2.574947 0.063756 -0.035572 917961.000000 0 0 1
8.742224 20.358910 -32.525026 39.354657 1.165200 2.543586 0.070388 -0.033149 615669.000000 0 0 1
7.458724 20.582910 -31.933736 38.717596 1.223140 2.540620 0.091858 -0.040995 362048.000000 0 0 1
7.784024 21.097610 -30.489866 37.885777 1.217338 2.506108 0.108550 -0.049527 52175.200000 0 0 1
8.236424 22.453810 -30.445106 38.715847 1.219220 2.475712 0.131837 -0.051909 121337.000000 0 0 1
8.493024 22.856410 -29.139866 37.995773 1.215026 2.444830 0.105277 -0.043004 -236332.000000 0 0 1
9.972324 23.037210 -28.757886 38.172979 1.162271 2.423949 0.100165 -0.048907 -112298.000000 0 0 1
10.602824 21.809510 -28.471956 37.399558 1.118285 2.436099 0.095998 -0.038982 -280471.000000 0 0 1
12.001524 21.903910 -28.612406 37.980096 1.069554 2.423942 0.103357 -0.042438 -445874.000000 0 0 1
12.721524 20.622010 -28.490446 37.400669 1.018050 2.436826 0.100002 -0.045245 -591930.000000 0 0 1
12.594724 19.685210 -29.557066 37.679633 1.001620 2.472574 0.091488 -0.040560 583579.000000 0 0 1
11.278624 19.247810 -29.938696 37.336458 1.040757 2.501202 0.095169 -0.039254 322184.000000 0 0 1
11.257224 18.254910 -31.151626 37.820506 1.018211 2.538650 0.085286 -0.038440 -500412.000000 0 0 1
11.842024 17.020010 -30.861636 37.180033 0.962914 2.550011 0.106337 -0.035384 192942.000000 0 0 1
11.695424 16.139510 -31.970016 37.674244 0.943721 2.584112 0.082274 -0.024036 350660.000000 0 0 1
12.873524 16.204810 -33.012466 38.963398 0.899463 2.581618 0.069253 -0.010380 198059.000000 0 0 1
12.941024 17.460710 -33.720466 40.117532 0.932983 2.569079 0.063025 -0.022459 -90212.500000 0 0 1
13.594824 17.358010 32.795508 39.517909 0.906382 0.591886 0.074930 -0.026796 -352045.000000 0 0 1
12.704224 16.909010 31.620513 38.041672 0.926445 0.589521 0.080174 -0.034864 -927072.000000 0 0 1
13.149524 17.290510 30.337893 37.312994 0.920606 0.621398 0.066722 -0.032620 -140228.000000 0 0 1
12.295424 16.958710 29.264613 35.988788 0.943474 0.621237 0.056488 -0.030986 360668.000000 0 0 1
10.839724 17.496210 29.263003 35.776254 1.016128 0.612967 0.032780 -0.031140 -263072.000000 0 0 1
9.931724 16.933910 30.158083 35.984809 1.040363 0.577045 0.043826 -0.028957 -526678.000000 0 0 1
8.741124 17.693210 30.167783 36.049301 1.111929 0.579297 0.049053 -0.031156 -459958.000000 0 0 1
7.739324 16.961710 31.049903 36.217306 1.142731 0.540751 0.063281 -0.034974 -854619.000000 0 0 1
8.071024 16.908710 32.446888 37.467939 1.125449 0.523668 0.074060 -0.029508 87566.600000 0 0 1
7.513724 15.806610 33.117887 37.457969 1.127060 0.486158 0.097916 -0.031690 -313233.000000 0 0 1
7.766924 15.832710 -33.097486 37.502579 1.114728 2.652031 0.097399 -0.029685 277893.000000 0 0 1
6.802824 16.722310 -32.514216 37.189896 1.184432 2.634738 0.098284 -0.036883 644341.000000 0 0 1
6.718524 16.572710 -31.082716 35.859846 1.185646 2.619512 0.101975 -0.042969 -207868.000000 0 0 1
5.920324 17.713110 -30.437606 35.710676 1.248235 2.591238 0.105675 -0.046925 -683111.000000 0 0 1
5.889424 17.734510 -29.017156 34.513672 1.250167 2.569452 0.095750 -0.051672 367879.000000 0 0 1
5.138424 18.815910 -28.443306 34.488600 1.304207 2.540496 0.110143 -0.049731 -139541.000000 0 0 1
3.623024 18.831610 -28.645236 34.471806 1.380728 2.551656 0.138476 -0.059779 -1394130.000000 0 0 1
3.009624 17.846610 -27.826746 33.194686 1.403730 2.564934 0.147746 -0.054607 812181.000000 0 0 1
1.612824 17.558710 -28.025206 33.110749 1.479200 2.580000 0.143619 -0.053281 853983.000000 0 0 1
0.656924 18.625310 -27.525616 33.241439 1.535540 2.546419 0.134395 -0.058311 -927631.000000 0 0 1
0.499524 18.822910 -26.134936 32.211588 1.544264 2.517258 0.150228 -0.061323 352612.000000 0 0 1
-0.532776 19.809610 -26.011956 32.700556 -1.543908 2.490561 0.144222 -0.062301 405011.000000 0 0 1
-1.010476 20.261910 -24.572256 31.864743 -1.520967 2.451430 0.137193 -0.062640 -53643.600000 0 0 1
-2.055676 19.515510 -24.020456 31.017145 -1.465848 2.456602 0.134176 -0.058616 -288143.000000 0 0 1
-2.368176 19.957410 -22.699156 30.317622 -1.452687 2.416913 0.135826 -0.056232 464386.000000 0 0 1
-3.508276 19.136910 -21.993756 29.364173 -1.389485 2.417347 0.116626 -0.051977 441336.000000 0 0 1
-4.818776 19.502610 -22.390356 30.081564 -1.328564 2.410315 0.113134 -0.042359 -260604.000000 0 0 1
-5.647476 18.480510 -21.900156 29.206850 -1.274218 2.418601 0.105874 -0.043572 -656837.000000 0 0 1
-7.160276 18.707910 -21.931756 29.702818 -1.205257 2.401451 0.126876 -0.035642 -15115.500000 0 0 1
-7.749976 19.549310 -20.935856 29.674025 -1.193369 2.353964 0.096669 -0.028935 182993.000000 0 0 1
-7.521876 20.912310 -21.234756 30.737896 -1.225518 2.333437 0.105578 -0.041624 -124801.000000 0 0 1
-8.278976 21.840010 -20.281056 30.932972 -1.208459 2.285833 0.114866 -0.045567 273828.000000 0 0 1
-7.517076 21.848210 -19.076556 29.962739 -1.239424 2.260976 0.120123 -0.046012 257713.000000 0 0 1
-7.743576 23.030610 -18.318056 30.428986 -1.246441 2.216792 0.131254 -0.041228 -72620.200000 0 0 1
-6.859076 23.179810 -17.061056 29.587669 -1.283098 2.185391 0.139460 -0.042506 857611.000000 0 0 1
-5.488876 23.529910 -17.318256 29.727200 -1.341622 2.192687 0.137982 -0.048386 393085.000000 0 0 1
-4.822276 23.710810 -16.083156 29.053826 -1.370154 2.157434 0.132134 -0.042370 317178.000000 0 0 1
-3.313376 24.058510 -16.165256 29.173719 -1.433936 2.158082 0.125387 -0.040048 444002.000000 0 0 1
-3.044476 25.378510 -16.655656 30.508171 -1.451404 2.148308 0.107076 -0.041858 -984889.000000 0 0 1
-1.664376 25.444110 -16.787356 30.528482 -1.505476 2.153031 0.099013 -0.050007 -523512.000000 0 0 1
-1.237676 26.925010 -17.102956 31.921766 -1.524861 2.136224 0.078763 -0.056710 2432.790000 0 0 1
-1.850776 27.377510 -18.297956 32.981338 -1.503297 2.158916 0.084413 -0.053251 44270.900000 0 0 1
-1.230176 28.559410 -18.681256 34.148830 -1.527749 2.149637 0.084156 -0.061406 -591969.000000 0 0 1
-2.142476 29.419710 -19.631056 35.432865 -1.498100 2.158000 0.127653 -0.061644 652299.000000 0 0 1
-3.171176 30.261810 -19.081356 35.915619 -1.466386 2.130911 0.091726 -0.051416 498629.000000 0 0 1
-4.268276 29.442310 -18.672356 35.124418 -1.426828 2.131292 0.064681 -0.050649 -71194.000000 0 0 1
-5.333276 30.025010 -17.681956 35.250485 -1.395002 2.096254 0.095464 -0.036260 700531.000000 0 0 1
-6.123276 31.093710 -18.185156 36.537833 -1.376355 2.091750 0.142134 -0.037826 327840.000000 0 0 1
-5.570376 32.371210 -17.901656 37.408470 -1.400387 2.069794 0.133420 -0.057848 -65678.400000 0 0 1
-6.464876 33.507210 -18.468656 38.802307 -1.380198 2.066861 0.138780 -0.039327 317219.000000 0 0 1
-7.688576 33.510810 -17.743056 38.689852 -1.345264 2.047212 0.149601 -0.057094 191471.000000 0 0 1
-8.594576 -33.158113 -18.173056 38.776116 1.317178 2.058577 0.203838 -0.054625 18940.300000 0 0 1
30.952424 -20.222590 -26.401696 45.431875 -0.578723 2.190909 0.076926 -0.009375 10689.600000 0 0 1
30.412524 -21.377390 -25.782896 45.240160 -0.612679 2.177195 0.099570 -0.022566 -493442.000000 0 0 1
29.089824 -21.478090 -26.241526 44.678226 -0.635995 2.198571 0.109846 -0.018641 -97867.100000 0 0 1
28.365024 -22.827490 -25.913926 44.690048 -0.677646 2.189352 0.098110 -0.016738 59556.800000 0 0 1
28.816124 -24.040890 -26.456086 45.915769 -0.695300 2.184852 0.067367 0.001457 363414.000000 0 0 1
30.026924 -24.532290 -25.843056 46.597349 -0.685027 2.158683 0.078292 0.003439 959879.000000 0 0 1
30.437024 -25.978310 -26.352396 47.913816 -0.706528 2.153156 0.072747 -0.010134 15364.900000 0 0 1
29.478124 -26.853900 -25.802826 47.496079 -0.738847 2.145114 0.079238 -0.020891 50869.600000 0 0 1
29.635624 -28.158900 -26.389556 48.658016 -0.759852 2.144025 0.066166 -0.016205 -14654.700000 0 0 1
28.573824 -28.474660 -27.441096 48.788148 -0.783660 2.168147 0.069697 -0.018009 -504170.000000 0 0 1
28.751624 -27.775160 -28.679296 49.199770 -0.768126 2.193108 0.047730 -0.020051 -94017.900000 0 0 1
29.839424 -28.088220 -29.516706 50.503220 -0.755176 2.195001 0.027655 -0.019660 -434417.000000 0 0 1
30.018824 -29.523150 -30.105216 51.759735 -0.777074 2.191532 0.041341 -0.020975 -719248.000000 0 0 1
30.577324 -30.524590 -29.210756 52.153538 -0.784535 2.165293 0.054301 -0.022956 724525.000000 0 0 1
31.935124 -30.409840 -28.778286 52.657385 -0.760938 2.148999 0.056456 -0.020818 1301970.000000 0 0 1
33.075024 -30.312410 -29.881166 53.904392 -0.741843 2.158362 0.054430 -0.026006 79663.000000 0 0 1
33.059024 -28.984430 -30.422026 53.464903 -0.719819 2.176097 0.054902 -0.036099 842481.000000 0 0 1
34.254924 -28.675130 -31.207986 54.494048 -0.696963 2.180575 0.057830 -0.029945 1182640.000000 0 0 1
34.230824 -27.281940 -31.916636 54.173104 -0.672909 2.200815 0.051110 -0.022420 97451.900000 0 0 1
34.174024 -26.107210 -31.022906 53.027078 -0.652369 2.195724 0.036524 -0.015294 322183.000000 0 0 1
32.928824 -25.890980 -30.348676 51.727095 -0.666313 2.197783 0.043313 -0.019084 320681.000000 0 0 1
32.838624 -24.546590 -29.530866 50.527045 -0.641894 2.195007 0.039630 -0.019571 -33579.000000 0 0 1
33.743924 -24.566390 -28.439836 50.507268 -0.629288 2.168909 0.036195 -0.018870 60541.900000 0 0 1
33.808724 -23.219190 -27.984786 49.651876 -0.601799 2.169558 0.033973 -0.012187 467695.000000 0 0 1
34.820024 -22.980590 -26.786636 49.578881 -0.583360 2.141570 0.036255 -0.014241 111720.000000 0 0 1
34.501624 -23.685490 -25.617396 49.067458 -0.601610 2.120090 0.035090 -0.017827 -7769.920000 0 0 1
33.464824 -23.146990 -24.816556 47.660665 -0.605121 2.118458 0.072899 -0.010453 -72451.000000 0 0 1
33.875424 -21.973090 -23.884156 46.912833 -0.575421 2.104956 0.054703 0.002672 -142240.000000 0 0 1
34.079724 -20.727190 -24.561356 46.843401 -0.546425 2.122723 0.043322 -0.008172 -19374.800000 0 0 1
34.152624 -19.611590 -23.717756 45.973341 -0.521258 2.112857 0.013393 -0.011946 -35193.800000 0 0 1
34.177524 -18.259590 -24.479256 45.833936 -0.490676 2.134222 0.004362 -0.016374 -495956.000000 0 0 1
33.140524 -18.025590 -25.360886 45.457571 -0.498159 2.162652 0.023992 -0.011754 -480350.000000 0 0 1
33.331424 -16.846290 -26.148866 45.591057 -0.467972 2.181632 0.028508 -0.014861 -344344.000000 0 0 1
32.348524 -16.709390 -27.291666 45.502371 -0.476794 2.214029 0.033019 -0.008119 -682897.000000 0 0 1
31.008124 -16.489590 -26.985366 44.290183 -0.488749 2.225956 0.052252 -0.003870 -466455.000000 0 0 1
30.261024 -16.134290 -28.145106 44.364308 -0.489831 2.258040 0.056864 -0.012041 1976980.000000 0 0 1
28.740824 -15.730990 -27.754586 42.939679 -0.500798 2.273604 0.069674 -0.004593 1760800.000000 0 0 1
27.902424 -16.660590 -27.143036 42.342235 -0.538286 2.266648 0.078084 0.004340 -48770.400000 0 0 1
28.090324 -16.574390 -25.722706 41.538347 -0.533063 2.238586 0.090705 0.003276 -223677.000000 0 0 1
27.193124 -17.490690 -24.878056 40.795930 -0.571582 2.226626 0.108884 -0.004412 -79033.400000 0 0 1
26.920424 -17.259190 -23.480656 39.672787 -0.570106 2.204158 0.108168 0.005551 270301.000000 0 0 1
26.189724 -18.327490 -22.875556 39.307627 -0.610590 2.191936 0.122184 -0.000222 46529.600000 0 0 1
26.018724 -18.164890 -21.321956 38.230394 -0.609481 2.162436 0.111429 -0.009902 100062.000000 0 0 1
25.121924 -17.211990 -20.747456 36.848617 -0.600682 2.168863 0.104858 -0.010004 235381.000000 0 0 1
25.327424 -15.808190 -21.038856 36.524111 -0.557990 2.184656 0.095389 -0.006599 494334.000000 0 0 1
26.670924 -15.141690 -20.549256 36.917216 -0.516348 2.161121 0.084256 -0.008630 759166.000000 0 0 1
26.546824 -14.230190 -19.516656 35.890556 -0.492063 2.145734 0.077468 -0.023735 660881.000000 0 0 1
27.827824 -13.622890 -19.354556 36.531763 -0.455246 2.129162 0.051988 -0.015531 347472.000000 0 0 1
27.854024 -12.619890 -18.176156 35.573598 -0.425406 2.107080 0.060435 -0.021611 -132337.000000 0 0 1
27.928524 -13.152690 -16.894856 35.191360 -0.440131 2.071548 0.064968 -0.022201 147513.000000 0 0 1
27.882224 -12.123190 -15.980956 34.347941 -0.410142 2.054732 0.054316 -0.022945 -75145.300000 0 0 1
28.245524 -12.427090 -14.556256 34.119302 -0.414479 2.011558 0.077542 -0.029158 -225826.000000 0 0 1
27.490724 -13.398890 -13.901856 33.593626 -0.453514 1.997447 0.108210 -0.034485 38634.900000 0 0 1
28.018924 -13.544790 -12.576856 33.566333 -0.450292 1.954855 0.119061 -0.032197 -49663.700000 0 0 1
27.545524 -14.795890 -11.896456 33.454445 -0.492919 1.934354 0.128346 -0.037822 -572015.000000 0 0 1
26.176024 -14.772390 -11.608756 32.220660 -0.513792 1.939374 0.106744 -0.044654 -378096.000000 0 0 1
25.780624 -16.043690 -11.133356 32.341802 -0.556667 1.922226 0.082873 -0.041113 -491499.000000 0 0 1
24.310924 -16.058290 -10.717256 31.044311 -0.583748 1.923274 0.078492 -0.045581 -539187.000000 0 0 1
24.009624 -15.444890 -9.481256 30.081570 -0.571636 1.891448 0.068410 -0.039608 40704.200000 0 0 1
22.740324 -15.875690 -9.067056 29.178268 -0.609469 1.886775 0.081470 -0.037805 -455318.000000 0 0 1
22.344724 -15.414990 -7.662956 28.206905 -0.603896 1.845924 0.075695 -0.033599 -395825.000000 0 0 1
22.434424 -14.024290 -7.399556 27.472486 -0.558688 1.843508 0.096331 -0.013413 361556.000000 0 0 1
22.207224 -13.617690 -6.060456 26.745680 -0.550076 1.799377 0.097538 -0.015276 -305578.000000 0 0 1
23.080124 -14.158590 -4.879656 27.513066 -0.550253 1.749097 0.085519 -0.020293 -160100.000000 0 0 1
24.454924 -13.925290 -5.042756 28.589970 -0.517636 1.748106 0.101692 -0.016817 210249.000000 0 0 1
25.249924 -14.467790 -3.987356 29.373025 -0.520318 1.706966 0.102775 -0.030414 926666.000000 0 0 1
26.796624 -14.434790 -4.286756 30.737574 -0.494110 1.710715 0.120146 -0.026218 851515.000000 0 0 1
27.405724 -13.243190 -3.821456 30.676690 -0.450140 1.695693 0.118998 -0.019169 -1014140.000000 0 0 1
28.771324 -13.286190 -3.983756 31.940291 -0.432612 1.695847 0.141140 -0.037898 -1362170.000000 0 0 1
29.442024 -12.067890 -3.355856 31.995757 -0.389000 1.675874 0.161070 -0.042997 -1153190.000000 0 0 1
29.744224 -12.328190 -2.004856 32.260232 -0.392921 1.632983 0.168212 -0.040477 477069.000000 0 0 1
30.487324 -11.298190 -1.338856 32.541028 -0.354896 1.611952 0.168717 -0.042462 823159.000000 0 0 1
31.945124 -10.919990 -1.746356 33.805131 -0.329383 1.622479 0.189385 -0.045744 -41456.100000 0 0 1
32.004024 -10.465590 -3.075756 33.811926 -0.316047 1.661889 0.187369 -0.050525 929131.000000 0 0 1
33.334624 -10.500890 -3.650956 35.139654 -0.305174 1.674883 0.204375 -0.050571 982666.000000 0 0 1
33.324324 -10.025290 -5.108456 35.172622 -0.292227 1.716551 0.192987 -0.054927 -256176.000000 0 0 1
32.473924 -10.824490 -5.894856 34.734344 -0.321746 1.741334 0.169682 -0.054754 212501.000000 0 0 1
32.495924 -10.527290 -7.324256 34.934991 -0.313288 1.782017 0.159145 -0.049109 -1324610.000000 0 0 1
31.241124 -11.079590 -7.861856 34.067197 -0.340809 1.803670 0.162869 -0.040907 -1248790.000000 0 0 1
31.156424 -12.525290 -7.766556 34.466288 -0.382241 1.798086 0.150404 -0.038830 373328.000000 0 0 1
29.829124 -12.947490 -8.049356 33.499347 -0.409516 1.813455 0.149265 -0.034928 371813.000000 0 0 1
29.581624 -14.434290 -8.148456 33.908974 -0.453959 1.813475 0.161752 -0.037318 -50001.400000 0 0 1
29.971124 -15.002090 -9.373356 34.802166 -0.464089 1.843496 0.165710 -0.041299 160718.000000 0 0 1
30.143724 -16.414290 -9.240156 35.545091 -0.498637 1.833773 0.156666 -0.040082 -57618.700000 0 0 1
30.528024 -17.173590 -10.536856 36.577558 -0.512429 1.863006 0.134370 -0.043891 -321950.000000 0 0 1
31.800424 -16.832790 -11.015356 37.629082 -0.486832 1.867882 0.148325 -0.035510 -7315.160000 0 0 1
32.162724 -17.212490 -12.355656 38.514579 -0.491385 1.897375 0.137417 -0.034377 -130405.000000 0 0 1
31.554824 -16.506790 -13.588356 38.115934 -0.481968 1.935316 0.121382 -0.030349 -248481.000000 0 0 1
32.182824 -15.290290 -13.880656 38.238720 -0.443536 1.942282 0.116528 -0.039424 269989.000000 0 0 1
31.644624 -14.721590 -15.100456 38.028032 -0.435435 1.979138 0.097344 -0.033520 -819626.000000 0 0 1
32.619324 -13.788890 -15.826856 38.789730 -0.399939 1.991077 0.087984 -0.030034 -126507.000000 0 0 1
33.653924 -14.429990 -16.516456 40.169696 -0.405064 1.994530 0.060889 -0.029509 -242201.000000 0 0 1
34.744224 -14.907690 -15.775156 40.966521 -0.405313 1.966085 0.079435 -0.033322 -1171510.000000 0 0 1
35.831424 -15.302490 -16.783256 42.423281 -0.403622 1.977533 0.073942 -0.035817 -1618230.000000 0 0 1
37.098924 -15.390090 -16.258256 43.330311 -0.393233 1.955427 0.079545 -0.039606 -1466120.000000 0 0 1
-37.163959 -15.776790 -17.302956 43.925610 0.401463 1.975683 0.077760 -0.040936 -1088150.000000 0 0 1
-35.694659 -15.654790 -16.934256 42.496472 0.413312 1.980662 0.096644 -0.039372 -537557.000000 0 0 1
-34.991259 -16.481690 -16.001056 41.857713 0.440199 1.963051 0.095960 -0.043739 211905.000000 0 0 1
-35.472259 -16.490090 -14.669956 41.778126 0.435153 1.929584 0.088801 -0.036961 -845660.000000 0 0 1
-34.791259 -17.471590 -13.690656 41.268901 0.465393 1.908947 0.089803 -0.030535 -116392.000000 0 0 1
-33.458259 -17.014890 -13.519556 39.896616 0.470457 1.916506 0.117435 -0.038658 84985.000000 0 0 1
-32.905959 -17.664290 -12.385356 39.347507 0.492661 1.891009 0.126444 -0.020463 258466.000000 0 0 1
-31.357059 -17.755790 -12.329256 38.086005 0.515230 1.900456 0.173108 -0.026551 135459.000000 0 0 1
-30.710759 -16.500190 -12.126656 36.911553 0.493023 1.905546 0.155889 -0.036181 -11332.400000 0 0 1
-29.414659 -16.699590 -11.607056 35.760624 0.516354 1.901360 0.157760 -0.025242 -133141.000000 0 0 1
-29.286759 -16.690990 -10.036556 35.171520 0.518005 1.860179 0.164469 -0.032303 -174297.000000 0 0 1
-29.915459 -17.850390 -9.505056 36.109794 0.537985 1.837162 0.176326 -0.037207 21121.900000 0 0 1
-29.867059 -17.898090 -8.087056 35.746095 0.539874 1.799008 0.170603 -0.042350 -386892.000000 0 0 1
-30.494159 -19.142590 -7.479156 36.773227 0.560572 1.775611 0.167192 -0.044914 -35122.500000 0 0 1
-31.874259 -19.367790 -7.622256 38.068077 0.546012 1.772386 0.158389 -0.039383 -76288.600000 0 0 1
-32.253759 -19.851690 -8.907556 38.906800 0.551727 1.801791 0.144819 -0.029214 -903418.000000 0 0 1
-33.677359 -20.341090 -9.045956 40.370209 0.543355 1.796790 0.121965 -0.031090 167005.000000 0 0 1
-34.708759 -19.510390 -9.632556 40.965100 0.512099 1.808160 0.119417 -0.032171 356807.000000 0 0 1
-35.964659 -20.107690 -9.576856 42.302388 0.509800 1.799167 0.111125 -0.029543 -335055.000000 0 0 1
-37.118459 -19.206290 -10.052356 42.985014 0.477496 1.806839 0.105049 -0.046449 -31272.500000 0 0 1
-37.392459 -19.108590 -11.451056 43.525405 0.472431 1.837019 0.100846 -0.048338 865025.000000 0 0 1
36.527724 -18.282690 -11.705456 42.491753 -0.464060 1.849881 0.113033 -0.051399 625931.000000 0 0 1
35.989924 -18.388190 -13.154456 42.502233 -0.472350 1.885464 0.088189 -0.050669 -239992.000000 0 0 1
35.015824 -19.403490 -13.237856 42.164489 -0.506012 1.890155 0.055853 -0.037338 -227681.000000 0 0 1
34.617824 -19.505690 -14.535356 42.310072 -0.513117 1.921484 0.045494 -0.036344 -80507.700000 0 0 1
33.367324 -20.420990 -14.644256 41.771394 -0.549200 1.928988 0.062241 -0.038901 -97390.000000 0 0 1
32.169324 -19.833690 -14.175356 40.363119 -0.552493 1.929644 0.092000 -0.040215 -213768.000000 0 0 1
31.019224 -20.524190 -14.590856 39.954070 -0.584529 1.944634 0.110935 -0.034835 -136024.000000 0 0 1
30.465024 -20.011790 -15.952456 39.787815 -0.581195 1.983337 0.110840 -0.033637 -566339.000000 0 0 1
30.091024 -18.644590 -15.879656 38.797602 -0.554711 1.992477 0.083672 -0.033359 369789.000000 0 0 1
29.409724 -18.157790 -17.039356 38.535397 -0.553121 2.028818 0.076143 -0.030285 357959.000000 0 0 1
28.468424 -16.916390 -16.879956 37.169185 -0.536156 2.042201 0.083270 -0.016774 -216394.000000 0 0 1
27.310424 -17.166590 -16.141356 36.070686 -0.561164 2.034756 0.092314 -0.031984 -326659.000000 0 0 1
26.798824 -15.904290 -15.852356 34.963132 -0.535604 2.041375 0.070915 -0.023047 -301012.000000 0 0 1
25.383524 -15.843490 -15.179856 33.552458 -0.557998 2.040275 0.059253 -0.029363 2174820.000000 0 0 1
24.188724 -16.411990 -15.821856 33.238214 -0.596149 2.066913 0.067002 -0.022668 1758550.000000 0 0 1
23.927924 -15.864690 -17.113756 33.423264 -0.585474 2.108344 0.077769 -0.015692 -262829.000000 0 0 1
22.813724 -16.595090 -17.979556 33.453362 -0.628891 2.138208 0.071629 -0.013075 1033020.000000 0 0 1
21.519324 -16.365390 -17.420756 32.161934 -0.650186 2.143204 0.067690 -0.016366 -307818.000000 0 0 1
20.568324 -16.703190 -18.384356 32.249605 -0.682065 2.177381 0.062441 -0.019023 -88731.300000 0 0 1
19.128224 -16.924090 -17.896756 31.186658 -0.724337 2.182007 0.076454 -0.015664 291790.000000 0 0 1
18.350524 -15.860090 -17.342356 29.816799 -0.712729 2.191528 0.086643 -0.020156 -84698.600000 0 0 1
17.002724 -16.219290 -17.370256 29.221290 -0.761821 2.207363 0.095556 -0.015145 -456508.000000 0 0 1
16.039124 -15.032390 -17.191356 27.906432 -0.753009 2.234496 0.106007 -0.018815 -133734.000000 0 0 1
15.476724 -14.466290 -18.388456 28.052412 -0.751666 2.285646 0.107018 -0.014921 808465.000000 0 0 1
14.108424 -14.146690 -18.117356 26.970633 -0.786752 2.307357 0.109642 -0.012376 381062.000000 0 0 1
13.339624 -13.732790 -19.325356 27.203023 -0.799920 2.360880 0.093913 -0.010230 -155720.000000 0 0 1
13.798824 -12.455890 -19.712656 27.095120 -0.734292 2.385519 0.115804 -0.018974 187872.000000 0 0 1
12.998524 -11.995690 -20.797956 27.302256 -0.745297 2.436832 0.097738 -0.014372 78472.100000 0 0 1
13.387124 -10.628590 -21.448156 27.426363 -0.671036 2.468708 0.119525 -0.013096 -165137.000000 0 0 1
14.604124 -10.635090 -22.167856 28.597192 -0.629419 2.457790 0.122760 -0.016456 -157122.000000 0 0 1
14.833524 -9.342290 -22.775056 28.740476 -0.562050 2.485593 0.132072 -0.030781 -359929.000000 0 0 1
16.217724 -9.107390 -23.358656 29.859436 -0.511683 2.469126 0.112459 -0.024306 -373117.000000 0 0 1
16.652024 -9.837890 -24.508756 31.221036 -0.533622 2.473505 0.131747 -0.019358 -133527.000000 0 0 1
17.938124 -9.423190 -24.879856 32.087069 -0.483695 2.458122 0.111748 -0.025056 -579533.000000 0 0 1
22.905024 5.358510 -7.553956 24.706598 0.229812 1.881519 0.214180 0.010927 -125955.000000 0 1 0
22.630424 6.717810 -7.523056 24.776227 0.288563 1.879307 0.180712 0.003472 580590.000000 0 1 0
22.487824 7.156610 -6.144956 24.386057 0.308109 1.825529 0.171058 -0.003979 -187717.000000 0 1 0
21.877724 8.590110 -5.978756 24.252223 0.374147 1.819888 0.137742 0.003816 187497.000000 0 1 0
20.514424 8.650710 -6.428356 23.173263 0.399063 1.851887 0.104414 -0.018638 1050430.000000 0 1 0
19.990624 9.966710 -6.520156 23.269568 0.462502 1.854800 0.077494 -0.009199 -117587.000000 0 1 0
19.515524 10.558310 -5.181056 22.785454 0.495924 1.800187 0.098937 -0.009755 873314.000000 0 1 0
20.669424 11.051610 -4.385056 23.845165 0.491008 1.755746 0.122787 -0.002279 1814320.000000 0 1 0
21.045824 12.381410 -4.705256 24.866955 0.531778 1.761161 0.164308 -0.009080 156954.000000 0 1 0
21.963824 12.937010 -3.584256 25.741458 0.532303 1.710491 0.139967 -0.025700 724536.000000 0 0 1
23.227724 12.278410 -3.415356 26.494361 0.486273 1.700065 0.130051 -0.044118 567415.000000 0 0 1
23.929324 12.867210 -2.361556 27.271864 0.493364 1.657498 0.131988 -0.044290 -331714.000000 0 0 1
24.876524 11.825810 -1.752056 27.600017 0.443759 1.634319 0.115145 -0.044451 -871441.000000 0 0 1
26.128724 11.695410 -2.360656 28.723954 0.420862 1.653073 0.092177 -0.037324 -427370.000000 0 0 1
26.698324 10.501110 -1.863156 28.749698 0.374739 1.635648 0.119900 -0.043779 -331624.000000 0 0 1
28.210424 10.468510 -2.140156 30.166173 0.355335 1.641802 0.126447 -0.041467 -376524.000000 0 0 1
28.937324 11.509910 -1.544756 31.180651 0.378568 1.620359 0.122796 -0.055773 -395753.000000 0 0 1
30.282024 11.364210 -1.900156 32.399951 0.359015 1.629477 0.130138 -0.046727 11681.500000 0 0 1
31.285724 12.432110 -1.349756 33.692369 0.378240 1.610868 0.123135 -0.043367 -75885.400000 0 0 1
31.237024 12.617710 0.038644 33.689164 0.383894 1.569649 0.154673 -0.055251 419933.000000 0 0 1
32.222724 13.571510 0.417344 34.966613 0.398629 1.558861 0.150834 -0.050453 323691.000000 0 0 1
33.668324 13.025910 0.629644 36.105773 0.369153 1.553357 0.163653 -0.053825 565684.000000 0 0 1
34.682024 14.024310 0.818344 37.419163 0.384266 1.548925 0.149475 -0.059708 545110.000000 0 0 1
35.402124 14.480010 -0.323956 38.250307 0.388254 1.579266 0.158566 -0.045242 -453322.000000 0 0 1
34.772224 15.516610 -1.262756 38.098127 0.419719 1.603947 0.099790 -0.025115 -156466.000000 0 0 1
33.724424 14.940910 -2.035156 36.941974 0.417042 1.625915 0.118933 -0.020568 67578.800000 0 0 1
33.104024 15.916710 -2.883156 36.844683 0.448177 1.649128 0.087528 -0.008061 -16177.100000 0 0 1
31.698524 15.562810 -3.385856 35.474801 0.456392 1.666386 0.108408 -0.024743 -615476.000000 0 0 1
31.648224 14.404010 -4.249756 35.030644 0.427111 1.692411 0.094315 -0.019299 -345785.000000 0 0 1
30.560424 14.468610 -5.100556 34.194968 0.442177 1.720516 0.079008 -0.027574 -159200.000000 0 0 1
29.209724 13.883110 -4.578856 32.663659 0.443686 1.711442 0.101538 -0.040033 -228615.000000 0 0 1
28.210624 13.948510 -5.561956 31.958342 0.459191 1.745725 0.114960 -0.042678 -87528.900000 0 0 1
27.099224 13.195310 -5.120556 30.572933 0.453134 1.739076 0.104282 -0.024597 297449.000000 0 0 1
26.008424 12.936210 -6.221656 29.706778 0.461554 1.781794 0.096478 -0.025670 133703.000000 0 0 1
26.438724 12.025410 -7.245056 29.935054 0.426872 1.815250 0.088710 -0.012890 421571.000000 0 0 1
25.569724 11.826610 -8.358756 29.386192 0.433220 1.859224 0.100831 -0.009461 -58323.400000 0 0 1
25.191524 13.001810 -9.287356 29.831442 0.476459 1.887386 0.103351 -0.005542 -94799.400000 0 0 1
24.294424 13.922710 -8.703956 29.322683 0.520392 1.872171 0.081589 -0.011364 -190213.000000 0 0 1
24.233324 15.101510 -9.481456 30.086668 0.557283 1.891399 0.090905 -0.026800 -1094810.000000 0 0 1
23.267424 16.087710 -8.788856 29.621469 0.604949 1.872037 0.081108 -0.014167 980440.000000 0 0 1
21.862824 15.802610 -8.883756 28.401174 0.625870 1.888931 0.090812 -0.018464 1026370.000000 0 0 1
21.457424 14.633510 -8.199356 27.235824 0.598529 1.876590 0.111006 -0.023732 -1678670.000000 0 0 1
19.972724 14.298710 -8.368056 25.949705 0.621325 1.899136 0.136415 -0.018473 -807732.000000 0 0 1
19.122724 14.993410 -7.542856 25.443577 0.664947 1.871774 0.172193 -0.041541 -807962.000000 0 0 1
17.809824 14.645210 -7.847056 24.356689 0.688198 1.898820 0.182643 -0.040680 1982.780000 0 1 0
16.714424 14.995410 -6.753756 23.448828 0.731240 1.862956 0.166912 -0.027223 593533.000000 0 1 0
16.864124 14.254010 -5.583356 22.776070 0.701716 1.818462 0.136218 -0.029855 459057.000000 0 1 0
16.203324 14.882110 -4.473956 22.450862 0.742921 1.771417 0.111557 -0.013016 43499.300000 0 1 0
16.035224 13.830010 -3.278956 21.427766 0.711693 1.724424 0.097195 -0.008966 382666.000000 0 1 0
17.322324 13.394910 -2.817456 22.077694 0.658231 1.698761 0.111240 -0.007800 1104020.000000 0 1 0
17.222524 12.522510 -1.673056 21.359488 0.628684 1.649205 0.104827 -0.012377 -179641.000000 0 1 0
17.109724 13.291710 -0.313956 21.668197 0.660466 1.585286 0.109096 -0.014260 -41567.800000 0 1 0
15.939224 14.087610 -0.233656 21.273792 0.723811 1.581780 0.090694 -0.018681 681154.000000 0 1 0
16.077524 14.785110 0.960144 21.863397 0.743546 1.526867 0.092687 -0.016588 -68137.100000 0 1 0
14.837724 15.613710 1.360444 21.582326 0.810875 1.507719 0.080753 -0.018105 -192315.000000 0 1 0
14.593624 16.697110 0.519144 22.181904 0.852521 1.547390 0.072505 -0.018290 215138.000000 0 1 0
13.470024 17.451810 0.902044 22.064018 0.913463 1.529902 0.053501 -0.026456 -288500.000000 0 1 0
13.529324 18.804910 0.302444 23.168054 0.947131 1.557742 0.047775 -0.024540 -333146.000000 0 1 0
13.227824 19.006410 -1.101856 23.182602 0.962783 1.618344 0.058446 -0.021703 275876.000000 0 1 0
12.968724 20.413310 -1.409756 24.225574 1.004819 1.629022 0.057995 -0.023204 489641.000000 0 1 0
11.462224 20.754610 -1.209356 23.740239 1.066209 1.621760 0.042306 -0.017005 367568.000000 0 1 0
10.951424 20.905110 0.134644 23.600327 1.088241 1.565091 0.036374 -0.008806 -516597.000000 0 1 0
9.583124 20.618610 0.089844 22.737006 1.135719 1.566845 0.041458 -0.010853 -172300.000000 0 1 0
8.881724 20.685110 1.459344 22.558557 1.165224 1.506060 0.037749 -0.014949 72674.600000 0 1 0
8.559824 22.008610 1.998944 23.699057 1.199869 1.486349 0.042349 -0.011472 -298914.000000 0 1 0
7.505224 21.905010 2.888644 23.334569 1.240706 1.446685 0.042610 -0.018909 -639778.000000 0 1 0
7.122024 23.247710 3.449644 24.557673 1.273521 1.429859 0.050916 -0.013157 372760.000000 0 1 0
7.975024 23.622210 4.536744 25.341505 1.245204 1.390802 0.055702 -0.023081 462980.000000 0 0 1
7.482924 24.782410 5.118644 26.388682 1.277556 1.375588 0.052117 -0.017363 67100.300000 0 0 1
8.140324 25.013610 6.493344 27.094448 1.256170 1.328785 0.059499 -0.020722 -26402.600000 0 0 1
7.830324 23.983010 7.422644 26.298182 1.255213 1.284658 0.078102 -0.032025 79442.200000 0 0 1
8.302624 24.281010 8.694344 27.094144 1.241321 1.244123 0.077018 -0.031120 -73683.500000 0 0 1
7.722024 23.301910 9.775544 26.422906 1.250796 1.191825 0.079437 -0.030439 445519.000000 0 0 1
6.353824 23.453610 10.148444 26.333132 1.306236 1.175169 0.071553 -0.029905 443942.000000 0 0 1
5.796524 22.302810 10.715444 25.413299 1.316521 1.135535 0.064499 -0.033305 142422.000000 0 0 1
4.462224 22.583110 11.438044 25.704808 1.375718 1.109648 0.059840 -0.036063 192877.000000 0 0 1
3.380624 23.088210 10.696544 25.669245 1.425407 1.140977 0.051395 -0.025391 173277.000000 0 0 1
2.225924 23.233510 11.514444 26.025625 1.475281 1.112493 0.051368 -0.028487 1124490.000000 0 0 1
0.898924 23.648010 10.777344 26.003608 1.532802 1.143452 0.067268 -0.022471 496199.000000 0 0 1
0.991724 24.941810 10.227444 26.975508 1.531056 1.181932 0.069476 -0.023660 75534.500000 0 0 1
0.027824 25.203810 9.218044 26.836639 1.569692 1.220169 0.067178 -0.023194 144304.000000 0 0 1
-1.305176 25.795310 9.706044 27.591825 -1.520242 1.211332 0.075049 -0.037190 -460303.000000 0 0 1
-2.198376 24.901310 10.284144 27.030940 -1.482741 1.180505 0.070776 -0.034402 387656.000000 0 0 1
-3.494076 25.510310 10.314144 27.737449 -1.434676 1.189796 0.092301 -0.040442 463573.000000 0 0 1
-4.732776 24.652810 10.716644 27.294811 -1.381127 1.167312 0.102724 -0.044081 384431.000000 0 0 1
-5.172576 24.696310 12.044444 27.959469 -1.364334 1.125437 0.091784 -0.033481 839947.000000 0 0 1
-6.116876 25.819510 12.240844 29.221594 -1.338176 1.138566 0.100604 -0.033349 583596.000000 0 0 1
-6.606476 25.793610 13.731344 29.958399 -1.320058 1.094662 0.075207 -0.024527 162299.000000 0 0 1
-7.630476 24.830410 13.923244 29.472532 -1.272652 1.078768 0.053640 -0.019358 31274.800000 0 0 1
-8.051776 24.783010 15.279644 30.207552 -1.256663 1.040462 0.045230 -0.006717 1419650.000000 0 0 1
-9.405276 23.939710 15.521444 30.041374 -1.196449 1.027841 0.036669 -0.011505 1785920.000000 0 0 1
-10.616976 24.615510 15.210244 30.821990 -1.163591 1.054702 0.030054 -0.007954 -492294.000000 0 0 1
-11.671076 23.711810 15.286544 30.531007 -1.113404 1.046402 0.018314 0.000803 -234922.000000 0 0 1
-13.059076 24.386010 15.171344 31.549749 -1.079142 1.069149 0.020977 -0.004752 -93331.800000 0 0 1
-13.410076 25.106910 16.297544 32.799345 -1.080228 1.050789 0.024696 -0.015859 253311.000000 0 0 1
-14.290876 26.181210 15.920344 33.810387 -1.071149 1.080518 0.016063 -0.012519 -203454.000000 0 0 1
-15.000076 26.918210 17.037044 35.211549 -1.062407 1.065750 0.024039 -0.015470 -245280.000000 0 0 1
-16.245076 26.378110 17.442844 35.552215 -1.018801 1.057988 0.027646 -0.025344 67056.600000 0 0 1
-16.821676 27.182110 18.441144 36.904088 -1.016631 1.047539 0.054083 -0.037092 -365485.000000 0 0 1
-18.106476 26.562110 18.986844 37.334842 -0.972482 1.037290 0.044373 -0.047102 -140609.000000 0 0 1
-19.236576 26.726410 18.162944 37.606375 -0.946932 1.066747 0.042887 -0.041980 -23199.000000 0 0 1
-20.369876 25.973110 18.603944 37.889854 -0.905722 1.057558 0.058478 -0.037859 421187.000000 0 0 1
-21.514076 26.228410 17.599844 38.217005 -0.883824 1.092211 0.051654 -0.036038 -400119.000000 0 0 1
-22.088776 27.517010 17.680144 39.467549 -0.894392 1.106307 0.043937 -0.041046 49398.500000 0 0 1
-22.771376 27.839610 16.490144 39.566455 -0.885206 1.140906 0.053565 -0.035390 -476787.000000 0 0 1
-23.816476 28.956810 16.612144 41.008350 -0.882496 1.153717 0.053086 -0.039427 -584940.000000 0 0 1
-24.965576 28.524010 17.273144 41.656460 -0.851826 1.143230 0.057885 -0.036866 -286767.000000 0 0 1
-25.768906 29.674210 17.579644 43.053910 -0.855720 1.150187 0.063812 -0.036961 157880.000000 0 0 1
-27.186026 29.392210 18.123644 43.948248 -0.824372 1.145725 0.070824 -0.030385 -484795.000000 0 0 1
-28.143086 28.970610 17.161144 43.884330 -0.799886 1.169020 0.104563 -0.019475 -656166.000000 0 0 1
-29.434946 28.860310 17.640644 44.838888 -0.775541 1.166445 0.137093 -0.024924 -520046.000000 0 0 1
-29.720106 27.726610 18.656544 44.722660 -0.750710 1.140477 0.118433 -0.025609 -1096650.000000 0 0 1
-29.759746 26.483610 18.008344 43.718698 -0.727215 1.146243 0.121284 -0.018796 188253.000000 0 0 1
-29.833626 25.389510 18.899444 43.495534 -0.705096 1.121297 0.122451 -0.017391 -138364.000000 0 0 1
-29.940996 24.135910 18.029544 42.474344 -0.678459 1.132408 0.119928 -0.025464 -503492.000000 0 0 1
-31.167836 23.954910 17.396644 42.987382 -0.655285 1.154154 0.131728 -0.030794 -446964.000000 0 0 1
-31.045176 23.069510 16.256944 41.955852 -0.639067 1.172903 0.141756 -0.032905 -35602.100000 0 0 1
-31.361956 21.551810 16.526344 41.487021 -0.602081 1.161079 0.126952 -0.023869 894810.000000 0 0 1
-32.765696 21.240510 16.591944 42.426911 -0.575147 1.169001 0.129478 -0.027665 748338.000000 0 0 1
-32.942386 19.857710 16.478044 41.845614 -0.542477 1.166054 0.117264 -0.025467 304355.000000 0 0 1
-34.434287 19.580810 16.153044 42.779073 -0.517044 1.183602 0.132258 -0.037277 318611.000000 0 0 1
-34.775003 19.903810 14.813444 42.718856 -0.519848 1.216675 0.116586 -0.041127 -399029.000000 0 0 1
-35.975522 19.330510 14.400044 43.304366 -0.493059 1.231810 0.125751 -0.042494 -442488.000000 0 0 1
-36.316056 19.549110 12.905044 43.215319 -0.493820 1.267548 0.122988 -0.035500 97434.100000 0 0 1
-36.426596 20.936210 12.569144 43.854364 -0.521647 1.280109 0.115163 -0.038735 -179558.000000 0 0 1
-36.625696 21.317510 11.217444 43.837301 -0.527107 1.312030 0.069150 -0.029015 -157630.000000 0 0 1
-35.571165 21.035610 10.133344 42.549846 -0.534047 1.330333 0.095841 -0.036500 -284206.000000 0 0 1
-35.551864 19.703710 9.742044 41.798070 -0.506081 1.335559 0.110099 -0.025701 431729.000000 0 0 1
-34.381250 19.355910 8.974644 40.463142 -0.512753 1.347138 0.129577 -0.029483 949307.000000 0 0 1
-33.499026 18.346610 9.815744 39.435158 -0.501057 1.319243 0.108717 -0.037590 26717.500000 0 0 1
-32.929176 18.810610 11.011744 39.489596 -0.519007 1.288198 0.132027 -0.046245 8769.090000 0 0 1
-32.641776 17.720010 11.838444 38.982471 -0.497347 1.262237 0.138702 -0.051214 -173192.000000 0 0 1
-31.973176 18.038210 13.185044 39.006492 -0.513655 1.225982 0.109526 -0.028980 169693.000000 0 0 1
-30.778966 18.797710 13.117844 38.376770 -0.548274 1.221946 0.140092 -0.029164 -180717.000000 0 0 1
-30.924906 20.170710 12.986944 39.139087 -0.577954 1.232569 0.142627 -0.028260 -370532.000000 0 0 1
-29.627176 20.976010 13.076344 38.584367 -0.616074 1.225046 0.151447 -0.038182 -196.659000 0 0 1
-28.955866 20.971310 14.330944 38.517710 -0.626817 1.189568 0.128320 -0.025220 149886.000000 0 0 1
-27.782486 21.760910 14.311144 38.081657 -0.664450 1.185535 0.147765 -0.026173 353927.000000 0 0 1
-26.882576 21.675710 15.599744 37.892761 -0.678577 1.146498 0.110155 -0.021495 139468.000000 0 0 1
-26.306336 20.439510 15.862044 36.897173 -0.660546 1.126416 0.128861 -0.026748 -251838.000000 0 0 1
-25.665466 20.395510 17.084844 36.967349 -0.671481 1.090367 0.111289 -0.013453 -97939.300000 0 0 1
-25.368706 18.946810 17.587544 36.219809 -0.641487 1.063772 0.119536 -0.017454 -226635.000000 0 0 1
-24.670676 18.989210 18.766544 36.351280 -0.655995 1.028324 0.110687 -0.018532 -243600.000000 0 0 1
-23.962576 17.745610 18.887344 35.296508 -0.637429 1.006164 0.093638 -0.015659 210606.000000 0 0 1
-23.290876 17.676810 20.293244 35.591436 -0.649210 0.964081 0.078257 -0.012263 -326071.000000 0 0 1
-24.185876 17.333110 21.315244 36.602363 -0.621822 0.949185 0.085813 -0.009118 -263194.000000 0 0 1
-23.934176 17.845910 22.610444 37.450681 -0.640695 0.922613 0.128794 -0.018031 -242595.000000 0 0 1
-24.561676 17.064310 23.779744 38.209198 -0.607196 0.899047 0.131357 -0.025732 -610369.000000 0 0 1
-23.953776 15.856410 24.101944 37.498171 -0.584736 0.872714 0.129454 -0.030704 -99055.900000 0 0 1
-24.639076 15.096710 25.094744 38.271934 -0.549716 0.855693 0.129870 -0.031539 148900.000000 0 0 1
21.674324 24.792510 33.107690 46.696510 0.852403 0.782721 0.132984 -0.041733 -79947.400000 0 0 1
22.702924 23.985910 32.591855 46.400169 0.812871 0.792021 0.159796 -0.053480 -191475.000000 0 0 1
22.670124 22.631810 33.100837 46.062987 0.784552 0.769010 0.163247 -0.055354 -206313.000000 0 0 1
21.561524 21.653810 32.688085 44.747042 0.787534 0.751730 0.146041 -0.051361 -289968.000000 0 0 1
21.733824 21.048410 31.405893 43.608770 0.769379 0.766744 0.159283 -0.046485 167476.000000 0 0 1
20.771424 20.011410 31.173723 42.470103 0.766765 0.746580 0.167243 -0.046016 6877.250000 0 0 1
20.869224 19.169010 29.864143 41.168465 0.742959 0.759162 0.153583 -0.032432 158218.000000 0 0 1
22.084724 18.445510 29.801863 41.426114 0.695848 0.767861 0.166861 -0.044316 -41262.000000 0 0 1
22.131224 17.649710 28.629173 40.260811 0.673216 0.779745 0.142466 -0.044593 292659.000000 0 0 1
23.408524 16.742610 28.459183 40.474672 0.620878 0.790999 0.135785 -0.046065 -165026.000000 0 0 1
24.545924 17.517410 28.344813 41.385873 0.619834 0.816342 0.139142 -0.046021 -740931.000000 0 0 1
25.638824 16.771810 28.853513 42.085248 0.579292 0.815373 0.112695 -0.036755 669550.000000 0 0 1
27.030324 17.472010 28.876563 43.240785 0.573830 0.839536 0.084092 -0.039883 787598.000000 0 0 1
27.899224 17.489910 27.732703 43.050743 0.559962 0.870837 0.074564 -0.024313 2304190.000000 0 0 1
29.222024 18.006510 28.133303 44.380670 0.552244 0.884199 0.076215 -0.019606 1930520.000000 0 0 1
30.387324 17.881810 27.120093 44.481997 0.531893 0.915131 0.069422 -0.004035 144411.000000 0 0 1
30.278624 18.755210 26.002863 44.098774 0.554577 0.940170 0.074700 -0.012417 548009.000000 0 0 1
31.385224 18.473910 25.144493 44.255657 0.532008 0.966523 0.082113 -0.008044 113906.000000 0 0 1
31.782224 19.722010 24.307663 44.608631 0.555383 0.994515 0.091913 -0.018560 543214.000000 0 0 1
30.794824 20.059710 23.280963 43.505361 0.577358 1.006136 0.082914 -0.025608 819810.000000 0 0 1
31.268524 21.002510 22.328483 43.787980 0.591467 1.035701 0.081528 -0.024893 -467792.000000 0 0 1
31.811324 20.154210 21.141483 43.186975 0.564727 1.059241 0.081615 -0.019169 -615879.000000 0 0 1
30.912124 19.396610 20.406283 41.811533 0.560378 1.060938 0.095684 -0.027646 -590455.000000 0 0 1
31.394624 19.013210 19.136183 41.392247 0.544542 1.090194 0.111683 -0.034004 987723.000000 0 0 1
32.428924 17.750710 19.128083 41.624589 0.500824 1.093321 0.134026 -0.042011 1229510.000000 0 0 1
31.765224 16.554210 19.497683 40.782729 0.480418 1.072321 0.126440 -0.036670 188951.000000 0 0 1
32.704224 15.526610 19.555283 41.146701 0.443251 1.075540 0.121734 -0.038510 -444097.000000 0 0 1
32.135524 14.194110 20.085183 40.467014 0.415926 1.051425 0.129619 -0.041373 77772.000000 0 0 1
31.667324 14.103310 21.400583 40.739511 0.418987 1.017725 0.106502 -0.044456 1127580.000000 0 0 1
30.438324 14.781510 21.813183 40.259155 0.452079 0.998196 0.098448 -0.027735 901552.000000 0 0 1
29.725424 13.983510 22.913923 40.052307 0.439707 0.961732 0.071530 -0.020021 67740.300000 0 0 1
28.976724 12.831010 22.540083 38.888825 0.416854 0.952555 0.071550 -0.015727 170654.000000 0 0 1
28.449624 12.255710 23.724913 39.018650 0.406762 0.917206 0.060195 -0.007744 -13519.500000 0 0 1
27.956424 10.812310 23.366833 38.006270 0.369037 0.908645 0.074870 -0.008260 -277538.000000 0 0 1
26.666824 10.709110 22.828843 36.700962 0.381876 0.899473 0.054193 0.000489 -72331.000000 0 0 1
26.329324 9.417410 22.341883 35.792187 0.343498 0.896675 0.063834 0.008139 188338.000000 0 0 1
24.980024 9.288910 21.579183 34.292078 0.356009 0.890175 0.065692 -0.004702 430914.000000 0 0 1
23.816424 9.369110 22.396483 34.008892 0.374794 0.851909 0.048027 -0.001107 40853.500000 0 0 1
22.732624 8.963110 21.599583 32.613671 0.375569 0.846930 0.037585 0.013681 403126.000000 0 0 1
21.341024 8.950810 22.331183 32.159572 0.397133 0.803229 0.046610 0.002524 617917.000000 0 0 1
21.188124 7.988010 23.383763 32.550657 0.360527 0.769325 0.067397 0.006629 378626.000000 0 0 1
19.841024 7.875810 23.828823 31.992303 0.377871 0.730516 0.062250 -0.000448 457535.000000 0 0 1
19.713924 6.838510 24.956093 32.530149 0.333899 0.696382 0.081120 -0.010948 -45880.900000 0 0 1
20.001124 5.516310 24.483373 32.092214 0.269110 0.702999 0.073632 -0.020046 260835.000000 0 0 1
19.883424 4.601210 25.599573 32.739270 0.227407 0.673052 0.110076 -0.040435 -71862.200000 0 0 1
20.386624 3.181410 25.316933 32.660112 0.154805 0.683822 0.105944 -0.041683 -372077.000000 0 0 1
21.771624 3.128410 25.135493 33.400353 0.142715 0.718868 0.119011 -0.030481 -542566.000000 0 0 1
22.268024 1.832710 24.924573 33.473244 0.082117 0.730843 0.095127 -0.033501 -485246.000000 0 0 1
23.764424 1.905310 24.592613 34.251637 0.080004 0.769874 0.095521 -0.029896 -304770.000000 0 0 1
24.442424 2.295910 25.795213 35.610340 0.093657 0.760670 0.102621 -0.039850 -124086.000000 0 0 1
25.814924 2.516910 25.569313 36.421627 0.097191 0.792543 0.102434 -0.036188 66347.100000 0 0 1
26.501324 3.157710 26.808933 37.828695 0.118594 0.783152 0.064195 -0.031063 -528402.000000 0 0 1
26.820024 2.154710 27.795833 38.685460 0.080167 0.769141 0.053598 -0.028878 138852.000000 0 0 1
27.566424 2.643310 28.880063 40.011909 0.095596 0.764416 0.057127 -0.011553 940547.000000 0 0 1
29.077724 3.044610 28.711403 40.977169 0.104326 0.794463 0.079062 -0.017588 96802.800000 0 0 1
29.274824 4.154810 27.828363 40.604132 0.140983 0.815701 0.070683 -0.009332 274618.000000 0 0 1
30.602324 4.258510 27.331823 41.251251 0.138269 0.846552 0.063971 -0.005025 -549.680000 0 0 1
31.182824 3.270810 26.385573 40.978838 0.104509 0.871234 0.079343 -0.004595 -790503.000000 0 0 1
30.651524 3.350710 25.082293 39.747511 0.108884 0.887902 0.071096 -0.000955 27024.200000 0 0 1
31.033224 2.268210 24.224633 39.433978 0.072960 0.909287 0.088548 -0.000554 -371890.000000 0 0 1
30.625924 2.500710 22.769123 38.244395 0.081473 0.933085 0.099074 -0.003753 -83574.900000 0 0 1
31.115024 3.652310 22.140283 38.362432 0.116846 0.955581 0.111337 -0.005444 391599.000000 0 0 1
32.526524 3.531510 21.916083 39.379703 0.108150 0.980590 0.108863 -0.003416 505083.000000 0 0 1
33.187224 4.847110 21.477083 39.826516 0.145028 1.001231 0.095197 -0.006266 -642611.000000 0 0 1
32.699824 5.329710 20.219883 38.814018 0.161568 1.022841 0.101732 -0.000402 79235.200000 0 0 1
33.431424 6.390410 19.647383 39.300345 0.188871 1.047279 0.115782 -0.009435 -765759.000000 0 0 1
34.910524 6.161010 19.356983 40.390537 0.174681 1.071001 0.099197 -0.017797 -560707.000000 0 0 1
35.825124 6.150710 20.474583 41.719052 0.170029 1.057820 0.092489 -0.018940 545857.000000 0 0 1
36.148624 7.437110 20.990183 42.457289 0.202906 1.053671 0.110622 -0.028019 -563232.000000 0 0 1
36.840124 7.230510 22.371683 43.703172 0.193804 1.033400 0.112428 -0.029370 -420125.000000 0 0 1
36.069924 6.512410 23.284733 43.423838 0.178625 1.004844 0.102023 -0.015362 -165806.000000 0 0 1
36.627324 6.488410 24.556003 44.571937 0.175328 0.987319 0.109810 -0.014793 -36901.600000 0 0 1
35.955624 5.399310 25.435423 44.372516 0.149052 0.960360 0.103102 -0.013300 194972.000000 0 0 1
36.225124 4.061610 25.117243 44.267733 0.111655 0.967459 0.095251 -0.015842 103594.000000 0 0 1
35.435124 3.234110 25.969273 44.051227 0.091016 0.940326 0.096925 -0.002194 221369.000000 0 0 1
35.536424 1.765810 25.591493 43.827845 0.049649 0.947260 0.086056 0.002469 55126.100000 0 0 1
34.637024 1.417810 24.571703 42.491201 0.040911 0.954181 0.086989 -0.000923 -15893.100000 0 0 1
34.711224 0.017010 24.406593 42.432902 0.000490 0.957971 0.090026 -0.000220 458547.000000 0 0 1
33.746324 -0.473990 23.272993 40.995991 -0.014045 0.967100 0.107568 0.015305 75999.100000 0 0 1
32.374724 -0.504990 23.541503 40.032239 -0.015597 0.942134 0.106724 0.004608 -534450.000000 0 0 1
31.687724 -1.347790 22.647583 38.972316 -0.042508 0.950692 0.114940 0.000212 599372.000000 0 0 1
30.205224 -1.643690 23.002493 38.002262 -0.054364 0.920663 0.122165 -0.000818 98227.600000 0 0 1
29.302424 -0.610990 22.929633 37.212544 -0.020848 0.906913 0.115520 -0.002433 140103.000000 0 0 1
27.965224 -1.119190 22.770483 36.080483 -0.039999 0.887823 0.100007 0.000555 930873.000000 0 0 1
26.931424 0.046910 22.690543 35.215970 0.001742 0.870656 0.106408 -0.016203 30617.100000 0 0 1
27.009724 0.848710 21.540083 34.557498 0.031412 0.897826 0.104103 -0.016318 -152844.000000 0 0 1
26.207824 1.971510 21.646583 34.048663 0.075085 0.881811 0.108771 -0.015255 -401231.000000 0 0 1
26.296724 2.837410 20.419083 33.414182 0.107484 0.913359 0.100619 -0.008603 -355147.000000 0 0 1
25.561624 2.418510 19.311383 32.127485 0.094334 0.925937 0.094433 -0.005598 -300910.000000 0 0 1
24.661724 3.435410 19.010683 31.327444 0.138411 0.918720 0.098311 -0.008298 -438404.000000 0 0 1
24.255024 3.519810 17.514883 30.124183 0.144111 0.950320 0.115945 -0.009371 189897.000000 0 0 1
25.367224 3.863010 16.678683 30.603878 0.151122 0.994424 0.110634 -0.003598 653070.000000 0 0 1
25.024624 4.221010 15.345383 29.656863 0.167101 1.026950 0.092054 0.000742 -267040.000000 0 0 1
24.680324 3.108710 14.350083 28.717718 0.125299 1.047550 0.101765 -0.003459 -147540.000000 0 0 1
23.379824 2.599310 14.507083 27.637439 0.110723 1.018191 0.122169 -0.005227 78118.000000 0 0 1
23.182724 1.635110 13.454383 26.853914 0.070415 1.046018 0.117509 -0.012331 -917092.000000 0 0 1
21.867724 0.888010 13.402383 25.663394 0.040586 1.021324 0.147065 -0.020939 -777559.000000 0 0 1
20.743624 1.532510 12.821983 24.434602 0.073745 1.018378 0.171044 -0.024555 842286.000000 0 1 0
20.540624 1.296210 11.410283 23.532785 0.063021 1.064585 0.161516 -0.018919 -635078.000000 0 1 0
20.236624 -0.156190 10.901883 22.986874 -0.007718 1.076667 0.157102 -0.017546 319415.000000 0 1 0
21.306124 -1.132990 10.879683 23.949991 -0.053127 1.099247 0.165802 -0.037717 229997.000000 0 1 0
22.284924 -0.949490 9.925183 24.413697 -0.042581 1.152131 0.162088 -0.035545 -1231910.000000 0 1 0
23.492624 -1.808890 10.260583 25.699319 -0.076847 1.160092 0.186820 -0.044778 -721446.000000 0 0 1
24.076324 -1.390090 11.459783 26.700718 -0.057673 1.127196 0.163844 -0.041603 -114101.000000 0 0 1
25.262924 -2.109890 11.715183 27.926913 -0.083324 1.137908 0.119996 -0.029468 34167.800000 0 0 1
25.686024 -2.047990 13.218783 28.960357 -0.079563 1.096802 0.122492 -0.020964 63946.900000 0 0 1
26.582224 -1.010790 13.552083 29.854569 -0.038007 1.099618 0.106660 -0.018426 72504.400000 0 0 1
26.826424 -0.979590 14.925383 30.714551 -0.036500 1.063360 0.099695 -0.014564 -356891.000000 0 0 1
27.929124 0.023510 15.225883 31.809810 0.000842 1.071676 0.134003 -0.006568 -52672.000000 0 0 1
29.225424 -0.478090 14.928283 32.820841 -0.016357 1.098602 0.143893 -0.000134 235080.000000 0 0 1
30.210224 0.525110 15.134983 33.793506 0.017380 1.106418 0.133319 0.000038 -501993.000000 0 0 1
31.585824 -0.106690 15.295783 35.094681 -0.003378 1.119821 0.129861 0.004853 -773271.000000 0 0 1
32.076024 -0.753790 14.177383 35.077595 -0.023496 1.154723 0.155128 -0.011101 -375926.000000 0 0 1
33.319024 -1.294590 14.533983 36.374029 -0.038835 1.159748 0.142534 -0.011045 -216049.000000 0 0 1
33.950024 -2.127690 13.373183 36.550967 -0.062589 1.196221 0.134775 -0.019064 49755.700000 0 0 1
34.565524 -1.345990 12.361783 36.734191 -0.038921 1.227578 0.141942 -0.018795 -249211.000000 0 0 1
35.367524 -2.176690 11.605083 37.286427 -0.061467 1.254297 0.148517 -0.029532 -350014.000000 0 0 1
35.402724 -1.741190 10.114483 36.860377 -0.049143 1.292831 0.230484 -0.031132 -115122.000000 0 0 1
35.924824 -0.535090 9.717983 37.219867 -0.014894 1.306638 0.172281 -0.023440 161585.000000 0 0 1
34.879524 0.420210 9.677783 36.199686 0.012047 1.300160 0.210099 -0.041589 97307.500000 0 0 1
35.295924 1.877210 9.235483 36.532455 0.053135 1.315221 0.214620 -0.046288 -237471.000000 0 0 1
35.724424 1.916510 7.950283 36.648526 0.053596 1.352125 0.186105 -0.038527 105374.000000 0 0 1
36.070624 3.208610 7.510583 36.983698 0.088720 1.366296 0.186851 -0.036566 -84327.600000 0 0 1
36.214724 3.381110 6.031283 36.868883 0.093093 1.406470 0.165885 -0.033662 -126075.000000 0 0 1
36.441724 4.688610 5.630383 37.171004 0.127958 1.418739 0.140682 -0.017185 45506.600000 0 0 1
36.752624 4.757310 4.277583 37.305295 0.128726 1.455879 0.143513 -0.015083 -28953.600000 0 0 1
37.085324 6.171910 3.728483 37.779827 0.164913 1.471946 0.139565 -0.022907 528817.000000 0 0 1
35.892224 6.920510 3.568083 36.727053 0.190476 1.473491 0.167734 -0.036712 507815.000000 0 0 1
36.351024 8.223010 3.308283 37.416034 0.222467 1.482262 0.155856 -0.037203 449122.000000 0 0 1
35.161824 9.291010 3.287283 36.516886 0.258331 1.480653 0.198268 -0.050993 1244560.000000 0 0 1
34.400224 9.141610 2.070283 35.654320 0.259740 1.512698 0.223587 -0.049635 436914.000000 0 0 1
33.402524 8.124610 2.076983 34.439102 0.238600 1.510451 0.243850 -0.046527 -298170.000000 0 0 1
32.222724 8.227710 1.086183 33.274298 0.249997 1.538147 0.251292 -0.059155 174712.000000 0 0 1
32.556024 8.182710 -0.275517 33.569738 0.246242 1.579004 0.240860 -0.042185 780327.000000 0 0 1
31.339824 7.963110 -1.036217 32.352271 0.248824 1.602831 0.222238 -0.040772 748120.000000 0 0 1
31.457124 7.679810 -2.503217 32.477626 0.239452 1.647948 0.171643 -0.034200 -419926.000000 0 0 1
30.418524 6.876010 -3.011417 31.331051 0.222311 1.667061 0.177641 -0.036672 425882.000000 0 0 1
30.670224 6.571510 -4.361217 31.668085 0.211072 1.708952 0.159527 -0.033618 -671012.000000 0 0 1
29.546424 5.794210 -5.003517 30.522110 0.193648 1.735470 0.166994 -0.020602 -859027.000000 0 0 1
29.318624 4.474710 -4.529217 30.001976 0.151455 1.722340 0.165024 -0.028161 710640.000000 0 0 1
28.101924 3.948210 -5.032517 28.820699 0.139582 1.746311 0.157092 -0.022210 -15823.900000 0 0 1
28.065424 2.431510 -4.875917 28.589418 0.086421 1.742184 0.181685 -0.018817 -126331.000000 0 0 1
27.724024 1.929410 -3.568517 28.019251 0.069481 1.698503 0.195214 -0.035122 592259.000000 0 0 1
28.091224 0.516510 -3.500417 28.313187 0.018385 1.694745 0.183516 -0.040535 55753.000000 0 0 1
28.266424 -0.070990 -2.093417 28.343926 -0.002511 1.644721 0.197496 -0.036633 218261.000000 0 0 1
29.542624 0.323010 -1.611717 29.588318 0.010933 1.625295 0.189376 -0.037177 231112.000000 0 0 1
29.792924 0.141910 -0.251117 29.794320 0.004763 1.579225 0.211063 -0.032534 651016.000000 0 0 1
31.164724 0.773010 0.237883 31.175217 0.024799 1.563166 0.230712 -0.032871 1008270.000000 0 0 1
32.225624 -0.115590 -0.128117 32.226086 -0.003587 1.574772 0.203189 -0.024433 349279.000000 0 0 1
33.459624 0.570010 0.057483 33.464528 0.017034 1.569079 0.158852 -0.028132 -15588.600000 0 0 1
-3.467276 -21.425090 -8.239156 23.215085 1.410355 1.933609 0.030967 0.014689 71647.900000 0 1 0
-3.621976 -21.704390 -6.859656 23.048951 1.405442 1.872987 0.034910 -0.003919 -401265.000000 0 1 0
-3.133276 -22.984890 -6.558356 24.106734 1.435312 1.846324 0.035923 -0.006752 -295844.000000 0 1 0
-3.600676 -23.525490 -5.162056 24.352830 1.418921 1.784386 0.044910 -0.008710 -513655.000000 0 1 0
-3.147576 -22.733790 -4.102156 23.314376 1.433217 1.747667 0.056157 -0.015688 -188654.000000 0 1 0
-3.512976 -23.322790 -2.892856 23.762620 1.421296 1.692839 0.069755 -0.031445 -317142.000000 0 1 0
-2.902476 -22.697290 -1.628356 22.939984 1.443609 1.641839 0.075229 -0.041848 1437600.000000 0 1 0
-1.451276 -22.772990 -1.596556 22.874970 1.507154 1.640648 0.066350 -0.035963 699747.000000 0 1 0
-0.942376 -22.748490 -0.268456 22.769583 1.529394 1.582587 0.061808 -0.034327 -47114.800000 0 1 0
0.571524 -22.511690 -0.272756 22.520595 -1.545414 1.582908 0.065631 -0.037511 -394580.000000 0 1 0
0.993624 -21.253790 -0.602056 21.285519 -1.524080 1.599085 0.039652 -0.034379 -516928.000000 0 1 0
2.269124 -21.069190 -0.024956 21.191043 -1.463511 1.571974 0.028877 -0.027593 -229907.000000 0 1 0
3.021924 -19.939590 -0.694256 20.179228 -1.420387 1.605208 0.029038 -0.028864 131546.000000 0 1 0
3.724424 -20.376490 -1.861156 20.797513 -1.390012 1.660406 0.031236 -0.024004 60999.800000 0 1 0
4.635724 -19.423190 -2.380856 20.110164 -1.336510 1.689465 0.039470 -0.017302 -195141.000000 0 1 0
5.475324 -19.885490 -3.617156 20.940288 -1.302112 1.744404 0.044095 -0.010348 -1060550.000000 0 1 0
6.392724 -20.833090 -3.122956 22.014481 -1.273063 1.713136 0.046834 -0.017378 -407620.000000 0 1 0
7.313024 -21.295490 -4.082956 22.883372 -1.240007 1.750181 0.059475 -0.018712 273973.000000 0 1 0
8.429624 -20.344290 -4.575656 22.491894 -1.177982 1.775662 0.086262 -0.023295 -600116.000000 0 1 0
8.056824 -19.411490 -5.604956 21.751641 -1.177380 1.831416 0.072903 -0.023000 -29434.000000 0 1 0
9.204924 -18.723390 -6.077956 21.731026 -1.113870 1.854268 0.080766 -0.030565 -230244.000000 0 1 0
9.048324 -17.737690 -7.258456 21.193937 -1.099087 1.920349 0.060241 -0.018135 -1116020.000000 0 1 0
10.120524 -16.878190 -7.387556 21.020806 -1.030655 1.929905 0.072096 -0.039681 -558095.000000 0 1 0
10.381024 -16.264190 -8.611456 21.129285 -1.002708 1.990577 0.077289 -0.019267 -70359.000000 0 1 0
10.715324 -17.186390 -9.845056 22.519220 -1.013293 2.023262 0.073317 -0.002572 -473435.000000 0 1 0
9.667024 -17.589790 -10.693256 22.741983 -1.068274 2.060313 0.069013 -0.017537 -203734.000000 0 1 0
9.316724 -16.662990 -11.693656 22.387455 -1.060973 2.120378 0.061390 -0.026324 -2368.970000 0 1 0
8.718224 -17.256490 -12.977356 23.285309 -1.102986 2.161950 0.069328 -0.031193 -950492.000000 0 1 0
7.466624 -17.807990 -12.814156 23.174934 -1.173776 2.156675 0.058478 -0.026295 -751586.000000 0 1 0
6.943724 -18.284190 -14.024056 24.066596 -1.207853 2.192866 0.076179 -0.021349 183419.000000 0 1 0
5.645724 -19.106290 -13.817356 24.245491 -1.283482 2.177173 0.082760 -0.014505 322981.000000 0 1 0
5.997624 -20.320390 -13.242056 24.984831 -1.283792 2.129401 0.092702 -0.020048 -304614.000000 0 1 0
4.832424 -21.023090 -12.948056 25.158990 -1.344858 2.111395 0.118315 -0.021607 -184401.000000 0 0 1
5.053024 -22.443890 -12.397456 26.133468 -1.349348 2.065067 0.103859 -0.012706 -12875.200000 0 0 1
5.592324 -23.247890 -13.442056 27.430409 -1.334730 2.082934 0.123204 -0.019915 -46060.200000 0 0 1
5.099024 -24.563190 -13.401056 28.441846 -1.366115 2.061418 0.106254 -0.021567 1324560.000000 0 0 1
3.656924 -24.894590 -13.974856 28.782117 -1.424943 2.077777 0.118679 -0.015190 1400810.000000 0 0 1
2.568424 -24.148290 -13.420356 27.746038 -1.464834 2.075657 0.117692 -0.015460 935479.000000 0 0 1
1.258724 -24.560590 -13.830656 28.215138 -1.519591 2.083099 0.094318 -0.014530 994595.000000 0 0 1
0.603224 -25.846000 -13.224456 29.039039 -1.547461 2.043621 0.070826 -0.008195 -549731.000000 0 0 1
1.185524 -27.053020 -13.743956 30.367214 -1.527002 2.040466 0.087385 -0.009609 356602.000000 0 0 1
0.646124 -28.263430 -13.181756 31.192910 -1.547940 2.007095 0.059064 -0.010479 245440.000000 0 0 1
-0.812276 -28.647300 -13.503956 31.680978 1.542450 2.011137 0.037503 -0.013669 1149340.000000 0 0 1
-1.893676 -27.856250 -12.896256 30.755001 1.502920 2.003495 0.033881 -0.014366 1158550.000000 0 0 1
-3.143976 -28.361390 -13.351456 31.504196 1.460393 2.008432 0.034451 -0.019417 364514.000000 0 0 1
-4.362976 -27.573790 -12.763756 30.696301 1.413868 1.999627 0.025363 -0.015970 280880.000000 0 0 1
-4.722376 -27.734350 -11.399056 30.355123 1.402142 1.955758 0.021438 -0.022642 10832.600000 0 0 1
-5.208176 -29.039010 -11.071856 31.511509 1.393332 1.929819 0.019429 -0.024956 -622936.000000 0 0 1
-5.664976 -29.291740 -9.595956 31.339756 1.379756 1.881986 0.034069 -0.029526 290529.000000 0 0 1
-6.973176 -28.799560 -9.308556 31.059444 1.333240 1.875176 0.040084 -0.027099 254545.000000 0 0 1
-7.089876 -27.407970 -9.020056 29.712364 1.317666 1.879243 0.041805 -0.021348 -1016310.000000 0 0 1
-8.549076 -27.024870 -8.755556 29.666312 1.264416 1.870393 0.047280 -0.025007 -35280.900000 0 0 1
-9.447576 -26.962810 -9.848056 30.219762 1.233772 1.902740 0.066527 -0.029991 147178.000000 0 0 1
-9.868476 -28.261260 -10.378456 31.682771 1.234846 1.904531 0.065570 -0.039838 58671.700000 0 0 1
-11.141776 -28.367870 -11.291056 32.501741 1.196547 1.925592 0.076264 -0.040463 471646.000000 0 0 1
-11.027676 -27.829090 -12.577156 32.469258 1.193514 1.968558 0.094572 -0.041656 48504.700000 0 0 1
-11.928976 -28.489540 -13.458756 33.691133 1.174262 1.981740 0.109036 -0.046920 -123227.000000 0 0 1
-12.102376 -27.732050 -14.788456 33.678369 1.159306 2.025402 0.123894 -0.034332 -418182.000000 0 0 1
-13.071876 -26.737600 -14.813656 33.244813 1.116072 2.032633 0.104793 -0.040731 -522725.000000 0 0 1
-12.941176 -25.690110 -13.856556 31.928982 1.104160 2.019703 0.122854 -0.035042 267486.000000 0 0 1
-14.009776 -24.539090 -14.028856 31.547576 1.052036 2.031623 0.148927 -0.021484 377491.000000 0 0 1
-13.730576 -23.690290 -15.152356 31.294607 1.045522 2.076227 0.146677 -0.027237 350842.000000 0 0 1
-14.841976 -22.910290 -15.616456 31.448996 0.995948 2.090433 0.166941 -0.027873 247287.000000 0 0 1
-14.621176 -21.989190 -16.854756 31.327082 0.984000 2.138889 0.154270 -0.019721 18905.300000 0 0 1
-13.857976 -20.810090 -16.658956 30.043704 0.983307 2.158547 0.128658 -0.013320 302032.000000 0 0 1
-14.027976 -19.953190 -17.795956 30.192879 0.958030 2.201123 0.112422 -0.013914 -271151.000000 0 0 1
-13.742276 -18.432790 -17.668156 28.996235 0.930159 2.226006 0.092273 -0.008083 94477.400000 0 0 1
-12.376176 -18.094190 -17.573556 28.096251 0.970899 2.246539 0.071712 0.005549 13112.400000 0 0 1
-12.277576 -16.703790 -17.763456 27.300107 0.936953 2.279267 0.070812 0.004888 702991.000000 0 0 1
-10.820876 -16.130490 -17.742756 26.307593 0.979914 2.310995 0.064893 0.000821 720607.000000 0 0 1
-10.384976 -15.591990 -16.447756 24.929632 0.983224 2.291305 0.089762 -0.006376 -368712.000000 0 1 0
-9.038176 -15.274390 -16.637156 24.326746 1.036487 2.323897 0.070876 -0.000925 -834191.000000 0 1 0
-8.256876 -14.726290 -15.417656 22.863590 1.059783 2.310856 0.058534 -0.006182 23927.700000 0 1 0
-7.948876 -15.591990 -14.341856 22.627055 1.099335 2.257300 0.060272 -0.002404 -45749.100000 0 1 0
-7.099276 -16.654890 -14.695956 23.318581 1.167861 2.252640 0.062489 0.011714 -737994.000000 0 1 0
-6.587176 -17.409990 -13.468656 22.976147 1.209087 2.197159 0.044512 0.009799 -826294.000000 0 1 0
-5.758276 -16.647990 -12.635756 21.678921 1.237793 2.193039 0.034608 -0.000082 33525.600000 0 1 0
-5.432776 -17.343190 -11.435456 21.472562 1.267227 2.132420 0.026283 -0.010030 -52103.000000 0 1 0
-4.378276 -18.486990 -11.601556 22.260597 1.338251 2.119018 0.034292 -0.005958 -1136210.000000 0 1 0
-3.154076 -17.963290 -11.942856 21.800454 1.396984 2.150560 0.035335 0.001687 -1450030.000000 0 1 0
-2.146876 -18.947390 -11.808156 22.428669 1.457970 2.125247 0.022764 0.003916 880663.000000 0 1 0
-0.701776 -18.483290 -12.181556 22.147569 1.532846 2.153182 0.028503 0.003988 -85015.600000 0 1 0
-0.522776 -18.277490 -13.574356 22.772858 1.542202 2.209402 0.037868 0.004324 -506657.000000 0 1 0
0.666124 -17.575990 -13.835956 22.378401 -1.532915 2.237340 0.051608 -0.006915 103808.000000 0 1 0
1.895024 -18.493990 -14.108356 23.338048 -1.468686 2.219962 0.061706 -0.014750 -370429.000000 0 1 0
1.914124 -19.353890 -15.244356 24.710874 -1.472216 2.235605 0.083299 -0.013346 19804.000000 0 1 0
0.896224 -20.344690 -15.218256 25.422528 -1.526773 2.212565 0.076781 -0.021138 -847315.000000 0 0 1
0.929024 -21.235390 -16.485656 26.899474 -1.527075 2.230473 0.083853 -0.015268 324978.000000 0 0 1
2.036424 -22.090790 -16.700556 27.767942 -1.478872 2.216090 0.114498 -0.012148 1584370.000000 0 0 1
3.373724 -21.507090 -16.679956 27.425496 -1.415199 2.224577 0.116052 -0.019964 577247.000000 0 0 1
4.556924 -22.440890 -16.841456 28.425230 -1.370457 2.204934 0.124342 -0.022365 -190409.000000 0 0 1
4.686224 -23.006090 -18.159556 29.681818 -1.369850 2.229140 0.100900 -0.013883 -504367.000000 0 0 1
5.933124 -23.584890 -18.377956 30.482753 -1.324346 2.217923 0.126122 -0.018097 -317691.000000 0 0 1
6.455524 -23.523790 -19.830056 31.436819 -1.302964 2.253368 0.102466 -0.016202 26613.200000 0 0 1
6.924224 -22.236290 -20.152956 30.798362 -1.268920 2.284121 0.109637 -0.020772 39611.300000 0 0 1
7.498924 -22.193190 -21.453356 31.765044 -1.244948 2.312271 0.074680 -0.013947 7615.140000 0 0 1
7.794924 -20.808090 -21.929156 31.218990 -1.212367 2.349602 0.051363 -0.014062 -322558.000000 0 0 1
6.667124 -20.117490 -22.325856 30.783239 -1.250778 2.382209 0.077402 -0.018818 -506435.000000 0 0 1
7.102224 -18.788690 -22.610456 30.243829 -1.209394 2.415246 0.080104 -0.012678 87885.400000 0 0 1
5.967024 -17.758090 -22.735556 29.459474 -1.246632 2.452396 0.075908 -0.009600 -497630.000000 0 0 1
5.353124 -17.970490 -24.036156 30.484935 -1.281282 2.479098 0.064425 -0.017864 3037.380000 0 0 1
4.219624 -17.218090 -24.373356 30.138486 -1.330464 2.512755 0.086312 -0.018707 601675.000000 0 0 1
2.894724 -17.477390 -23.585756 29.497906 -1.406660 2.497382 0.099030 -0.005577 -19115.100000 0 0 1
2.903524 -17.087590 -22.200056 28.164848 -1.402484 2.478705 0.103166 -0.002151 365328.000000 0 0 1
1.746024 -16.266290 -21.886956 27.325439 -1.463866 2.499716 0.103058 -0.011138 970091.000000 0 0 1
1.753424 -15.356090 -20.627456 25.775491 -1.457104 2.498548 0.105009 -0.012322 134695.000000 0 0 1
2.713924 -14.322290 -20.681256 25.302326 -1.383527 2.527620 0.092676 -0.010308 -99998.100000 0 0 1
2.567324 -13.521690 -19.555756 23.913487 -1.383163 2.528324 0.086784 -0.014157 -276386.000000 0 1 0
3.657424 -12.461590 -19.465556 23.400338 -1.285317 2.553228 0.074165 -0.017907 -193206.000000 0 1 0
4.913524 -13.049490 -19.093256 23.642849 -1.210685 2.510817 0.068014 -0.022941 445078.000000 0 1 0
6.021024 -12.155990 -19.190256 23.500782 -1.110905 2.526257 0.063641 -0.018901 444582.000000 0 1 0
6.149824 -11.050590 -18.142256 22.115093 -1.062965 2.532830 0.070130 -0.024716 -1068420.000000 0 1 0
5.240524 -9.996290 -18.278556 21.482423 -1.087940 2.588418 0.042139 -0.008392 -346321.000000 0 1 0
5.458124 -9.021990 -19.312256 22.003424 -1.026723 2.641824 0.053363 -0.008911 -250776.000000 0 1 0
4.829324 -9.230690 -20.780656 23.245724 -1.088776 2.676893 0.071960 -0.017716 294150.000000 0 1 0
3.422124 -9.062690 -20.783256 22.930046 -1.209743 2.705423 0.065664 -0.019506 28293.100000 0 1 0
2.843324 -9.619090 -21.955856 24.138579 -1.283389 2.713057 0.073254 -0.013698 -910983.000000 0 1 0
1.367124 -9.373590 -22.044656 23.993751 -1.425969 2.735741 0.058072 -0.013324 -1004830.000000 0 1 0
0.996524 -7.983390 -22.249656 23.659560 -1.446614 2.794627 0.053258 -0.011011 -942483.000000 0 1 0
-0.365376 -7.755090 -22.073556 23.399077 1.523717 2.803387 0.054034 -0.019545 -313054.000000 0 1 0
-0.919976 -6.574790 -22.890256 23.833549 1.431774 2.859308 0.061265 -0.024583 69532.100000 0 1 0
-0.768376 -6.859490 -24.268656 25.231145 1.459245 2.864494 0.072699 -0.027374 -364984.000000 0 0 1
-1.523376 -6.091090 -25.201966 25.972315 1.325724 2.897428 0.082634 -0.034467 -54748.400000 0 0 1
-0.968476 -4.707490 -25.507716 25.956540 1.367896 2.955359 0.082070 -0.032088 -314978.000000 0 0 1
-1.682576 -4.145890 -26.592926 26.966705 1.185264 2.974902 0.094371 -0.032417 -204485.000000 0 0 1
-1.453276 -2.781690 -26.906696 27.089114 1.089355 3.025476 0.071293 -0.030283 -774867.000000 0 0 1
-1.988076 -1.646490 -26.004946 26.132750 0.691691 3.042653 0.067247 -0.036819 702025.000000 0 0 1
-3.403776 -1.632190 -25.810016 26.084606 0.447132 2.996366 0.055342 -0.040617 559113.000000 0 0 1
-4.213576 -1.186390 -26.862356 27.216685 0.274458 2.980055 0.073837 -0.035296 420850.000000 0 0 1
-5.770076 -1.189390 -26.663026 27.306142 0.203283 2.924130 0.071664 -0.038110 740961.000000 0 0 1
-6.142376 -0.157690 -25.818666 26.539728 0.025667 2.907956 0.082615 -0.031728 -485340.000000 0 0 1
-7.535676 -0.192090 -25.685036 26.768347 0.025485 2.856125 0.095465 -0.043700 -489717.000000 0 0 1
-8.262076 1.111210 -25.200626 26.543705 -0.133693 2.822120 0.091516 -0.042437 -757132.000000 0 0 1
-8.422276 2.232810 -26.037106 27.456349 -0.259146 2.818661 0.110025 -0.042644 104314.000000 0 0 1
-9.169076 1.989510 -27.239906 28.810460 -0.213668 2.809882 0.100250 -0.039152 1177900.000000 0 0 1
-10.664876 1.515910 -27.044306 29.110687 -0.141195 2.762542 0.091596 -0.038158 842013.000000 0 0 1
-11.720476 2.492810 -26.943106 29.487534 -0.209566 2.723123 0.089762 -0.050934 337677.000000 0 0 1
-12.978276 1.925210 -26.863696 29.896493 -0.147267 2.687266 0.045592 -0.033023 37136.500000 0 0 1
-14.204576 2.542810 -27.567956 31.116364 -0.177137 2.659363 0.027637 -0.028429 922377.000000 0 0 1
-15.485076 1.875610 -27.544666 31.654607 -0.120537 2.626329 0.035672 -0.022784 1716100.000000 0 0 1
-16.574976 2.467510 -28.256296 32.851739 -0.147784 2.606293 0.041766 -0.023738 602320.000000 0 0 1
-17.112276 3.852210 -27.792576 32.864826 -0.221423 2.578603 0.045125 -0.008723 -476720.000000 0 0 1
-16.275576 5.020110 -27.919476 32.704633 -0.299186 2.593818 0.052023 -0.014127 313276.000000 0 0 1
-15.974076 5.519010 -29.246496 33.778516 -0.332658 2.617606 0.047391 -0.021639 7868.610000 0 0 1
-17.148876 6.267810 -29.961566 35.086534 -0.350411 2.594294 0.056221 -0.010587 198710.000000 0 0 1
-17.646276 7.373110 -29.236866 34.936345 -0.395780 2.562320 0.067220 -0.005569 500741.000000 0 0 1
-18.627376 8.008910 -30.092716 36.286270 -0.406059 2.548675 0.064743 -0.009987 345874.000000 0 0 1
-19.528476 8.951610 -29.280576 36.315904 -0.429807 2.508623 0.059520 -0.011873 -258715.000000 0 0 1
-18.798676 9.987810 -28.687066 35.722463 -0.488376 2.503199 0.065957 -0.007700 108727.000000 0 0 1
-19.636676 10.732810 -27.851946 35.728465 -0.500206 2.464735 0.074728 -0.009723 -193128.000000 0 0 1
-9.123976 24.877410 30.109943 40.109116 -1.219271 0.721674 0.063453 -0.018955 -616572.000000 0 0 1
-9.917376 26.042610 30.287983 41.157428 -1.206939 0.743793 0.067255 -0.017445 -169683.000000 0 0 1
-9.501876 26.898710 31.329453 42.371700 -1.231232 0.738624 0.072627 -0.017924 -893912.000000 0 0 1
-8.087276 27.430510 31.316863 42.409703 -1.284091 0.740048 0.070101 -0.024563 -1025470.000000 0 0 1
-7.964076 28.380910 30.285153 42.262195 -1.297219 0.771879 0.081665 -0.013565 1053310.000000 0 0 1
-6.596076 28.674610 29.932323 41.972437 -1.344698 0.776826 0.087479 -0.015597 931466.000000 0 0 1
-6.331776 29.869510 28.927813 42.060640 -1.361907 0.812391 0.117318 -0.020021 -46307.200000 0 0 1
-6.693276 31.135410 29.532783 43.432695 -1.359046 0.823079 0.121499 -0.025622 466506.000000 0 0 1
-6.402076 32.197110 28.652413 43.572942 -1.374516 0.853203 0.129054 -0.022929 -159651.000000 0 0 1
-6.780176 33.560010 29.210373 45.005455 -1.371448 0.864474 0.138993 -0.040775 -516534.000000 0 0 1
-6.039876 33.804910 30.383993 45.852362 -1.393993 0.846447 0.155440 -0.048961 -154657.000000 0 0 1
-6.507376 -32.902713 31.292423 45.871017 1.375540 0.820052 0.152534 -0.054821 -336436.000000 0 0 1
-7.658376 -33.344013 32.237755 47.007944 1.345034 0.815103 0.109528 -0.043681 -46779.000000 0 0 1
-7.364076 33.334910 33.216280 47.631577 -1.353376 0.799091 0.108082 -0.047315 -16582.300000 0 0 1
-7.416376 32.000410 32.699034 46.349280 -1.343058 0.787680 0.109499 -0.040914 -206967.000000 0 0 1
-7.138076 30.874910 33.736963 46.286012 -1.343595 0.754111 0.103323 -0.028144 451563.000000 0 0 1
-5.794476 30.667010 -33.574496 45.839811 -1.384050 2.392682 0.103630 -0.040814 269374.000000 0 0 1
-5.809076 30.460810 -32.179196 44.689003 -1.382353 2.374699 0.094930 -0.028922 451675.000000 0 0 1
-4.452976 30.068710 -31.461876 43.747069 -1.423772 2.373413 0.091562 -0.030040 1072110.000000 0 0 1
-3.901976 28.755610 -31.748316 43.012395 -1.435926 2.401076 0.108318 -0.025536 352437.000000 0 0 1
-3.282876 28.691510 -33.018886 43.866011 -1.456872 2.422982 0.091317 -0.033270 -575739.000000 0 0 1
-2.633376 27.328710 -33.324356 43.177608 -1.474734 2.452459 0.098611 -0.037515 -660325.000000 0 0 1
-1.599676 26.891710 -32.438506 42.166097 -1.511380 2.448546 0.120597 -0.037548 714127.000000 0 0 1
-1.033376 25.572910 -32.670676 41.501984 -1.530409 2.477064 0.131281 -0.036628 310879.000000 0 0 1
-0.383476 25.379010 33.703643 42.192141 -1.555687 0.645476 0.119565 -0.030124 -998312.000000 0 0 1
-1.347776 25.199010 32.721544 41.321980 -1.517362 0.656935 0.121224 -0.022687 -311273.000000 0 0 1
-0.829276 25.288610 31.441223 40.357800 -1.538016 0.677628 0.134862 -0.022746 166641.000000 0 0 1
-0.430476 26.685910 30.871823 40.809222 -1.554667 0.712865 0.108303 -0.027414 -380673.000000 0 0 1
-1.552676 27.396310 30.463283 40.999759 -1.514182 0.733238 0.095416 -0.027233 -452625.000000 0 0 1
-1.207776 28.654310 29.977823 41.487325 -1.528671 0.763272 0.086839 -0.023486 33375.800000 0 0 1
-2.254176 29.797310 30.112673 42.423273 -1.495290 0.781561 0.103530 -0.021627 45205.600000 0 0 1
-2.287376 30.281210 31.427573 43.702130 -1.495402 0.768245 0.116329 -0.033095 -79815.700000 0 0 1
-3.204676 31.327810 31.544373 44.572964 -1.468856 0.784556 0.118558 -0.031866 -25144.400000 0 0 1
-2.863776 32.047210 32.870111 45.996403 -1.481672 0.774711 0.123587 -0.038110 -925911.000000 0 0 1
-1.682776 32.733910 32.785108 46.359508 -1.519434 0.785277 0.173918 -0.052796 -1206760.000000 0 0 1
-1.101876 32.925610 -33.707946 47.133169 -1.537343 2.367655 0.139250 -0.052527 -57765.000000 0 0 1
0.418224 33.176910 33.854563 47.402677 1.558191 0.775329 0.153239 -0.066302 72358.000000 0 0 1
0.676224 -33.147513 33.407802 47.066932 -1.550399 0.781591 0.184065 -0.065562 1450050.000000 0 0 1
2.087824 -32.886713 33.171231 46.757090 -1.507396 0.782097 0.144522 -0.058351 1308840.000000 0 0 1
2.325724 -31.389213 32.878761 45.515982 -1.496838 0.763592 0.147235 -0.057652 62403.900000 0 0 1
1.764624 -30.540013 -33.832246 45.611700 -1.513080 2.406465 0.150599 -0.050732 437806.000000 0 0 1
2.142124 -29.175513 33.655745 44.592695 -1.497506 0.715544 0.124239 -0.051844 -144442.000000 0 0 1
1.660824 -28.176513 -33.033916 43.450130 -1.511921 2.434528 0.131583 -0.046127 -292408.000000 0 0 1
0.269024 -28.228813 -32.894476 43.347258 -1.561267 2.432356 0.127441 -0.054746 -178262.000000 0 0 1
-0.285476 -27.406413 -31.863416 42.029397 1.560380 2.431225 0.117763 -0.047831 814935.000000 0 0 1
-1.803376 -27.056613 -32.049276 41.981765 1.504243 2.439372 0.118132 -0.046506 609329.000000 0 0 1
-2.315976 -26.466713 -30.911896 40.760225 1.483513 2.431626 0.104707 -0.034217 122510.000000 0 0 1
-3.561076 -25.821613 -31.156636 40.622320 1.433750 2.444923 0.128912 -0.040384 229940.000000 0 0 1
-4.091076 -25.082813 -29.895666 39.238186 1.409117 2.437042 0.133450 -0.038667 -420283.000000 0 0 1
-4.594776 -25.954013 -28.855596 39.081558 1.395577 2.401407 0.137638 -0.042142 95532.200000 0 0 1
-4.814976 -25.302113 -27.619216 37.765090 1.382745 2.391085 0.163878 -0.034596 730603.000000 0 0 1
-3.469776 -24.939813 -26.902396 36.847965 1.432558 2.389253 0.162381 -0.045543 766648.000000 0 0 1
-2.593676 -24.039113 -27.546076 36.652318 1.463318 2.421206 0.177871 -0.048181 -183871.000000 0 0 1
-1.410276 -23.889913 -26.809956 35.937314 1.511832 2.412862 0.136996 -0.050463 -998351.000000 0 0 1
-0.435776 -22.802713 -27.306846 35.578328 1.551688 2.445749 0.097908 -0.040831 272761.000000 0 0 1
0.331324 -23.150213 -28.451906 36.681781 -1.556485 2.458527 0.061886 -0.038219 657650.000000 0 0 1
1.384824 -24.099713 -28.200406 37.121110 -1.513397 2.433627 0.043037 -0.022603 274619.000000 0 0 1
2.417824 -24.363013 -29.339866 38.212956 -1.471879 2.446195 0.047033 -0.028139 371024.000000 0 0 1
3.186124 -23.226713 -29.731126 37.862533 -1.434472 2.473878 0.078913 -0.026153 -119008.000000 0 0 1
4.105624 -23.688113 -30.684506 38.981043 -1.399181 2.476995 0.081680 -0.020732 -543567.000000 0 0 1
5.120824 -22.580413 -31.100016 38.772527 -1.347787 2.501624 0.085646 -0.030102 851050.000000 0 0 1
6.356224 -22.523013 -30.342036 38.318753 -1.295739 2.484600 0.045282 -0.024765 2424220.000000 0 0 1
7.411324 -23.544213 -30.455376 39.201883 -1.265833 2.460501 0.055089 -0.013267 1096390.000000 0 0 1
8.097624 -23.741113 -31.812716 40.512478 -1.242090 2.473908 0.057114 -0.011592 -592628.000000 0 0 1
7.270224 -24.545213 -32.616426 41.462692 -1.282832 2.476153 0.062622 -0.018654 154998.000000 0 0 1
7.448124 -24.386713 33.715583 42.272058 -1.274377 0.647514 0.083518 -0.022663 182875.000000 0 0 1
6.745324 -23.090413 33.167002 40.972144 -1.286578 0.627494 0.091727 -0.024950 116866.000000 0 0 1
5.345224 -23.021913 33.363522 40.886483 -1.342659 0.616333 0.098102 -0.029219 203947.000000 0 0 1
4.835724 -21.828613 32.762196 39.664014 -1.352786 0.598835 0.119317 -0.041776 749506.000000 0 0 1
3.308224 -21.680013 33.074608 39.684972 -1.419371 0.585512 0.105317 -0.038611 541603.000000 0 0 1
2.388124 -22.612813 32.588700 39.737460 -1.465577 0.609210 0.109160 -0.044526 -26653.900000 0 0 1
1.915924 -23.475313 33.606514 41.038505 -1.489362 0.611301 0.121425 -0.030250 -99884.200000 0 0 1
0.545924 -24.118013 33.305712 41.124774 -1.548165 0.626866 0.109331 -0.029822 -149980.000000 0 0 1
0.433424 -25.173613 32.364138 41.004098 -1.553581 0.661144 0.119316 -0.026997 -678543.000000 0 0 1
-0.880576 -25.399813 31.970400 40.841552 1.536142 0.671658 0.106109 -0.036571 -607968.000000 0 0 1
-1.085776 -26.410413 30.866513 40.637796 1.529708 0.708172 0.097048 -0.040953 332698.000000 0 0 1
-2.441376 -26.483913 30.443023 40.424443 1.478873 0.718058 0.111249 -0.036627 324596.000000 0 0 1
-2.701776 -27.609113 29.662633 40.613231 1.473249 0.751935 0.132945 -0.036645 767447.000000 0 0 1
-4.115976 -27.606313 28.969693 40.228011 1.422791 0.766796 0.144501 -0.033662 468357.000000 0 0 1
-5.199976 -28.000513 29.737233 41.174889 1.387178 0.763793 0.156196 -0.034769 -391199.000000 0 0 1
-6.359376 -28.195913 28.976603 40.927921 1.348966 0.784147 0.124679 -0.033910 -226727.000000 0 0 1
-7.499676 -28.993513 29.594113 42.103212 1.317677 0.791338 0.100591 -0.030048 -306752.000000 0 0 1
-8.544976 -29.442013 28.721863 42.009453 1.288326 0.817976 0.122918 -0.027825 1492670.000000 0 0 1
-9.804576 -29.696513 29.391143 42.916802 1.251905 0.816412 0.097512 -0.023444 872463.000000 0 0 1
-9.868976 -30.764613 30.511683 44.438957 1.260377 0.813997 0.068647 -0.016746 -1000160.000000 0 0 1
-9.744676 -32.120313 30.118783 45.097830 1.276241 0.839474 0.093926 -0.022255 1608760.000000 0 0 1
-10.968176 -32.681213 29.528613 45.390545 1.246997 0.862494 0.079471 -0.014494 1141620.000000 0 0 1
-10.766276 33.485210 29.123353 45.665542 -1.259712 0.879218 0.076422 -0.016978 -297772.000000 0 0 1
-10.567176 32.642610 30.184823 45.698236 -1.257720 0.849279 0.077684 -0.011385 250737.000000 0 0 1
-10.462676 31.264310 29.797073 44.438613 -1.247859 0.835884 0.085054 -0.011725 -568485.000000 0 0 1
-11.223576 30.407610 30.704993 44.647375 -1.217205 0.812449 0.071423 -0.010292 -1115780.000000 0 0 1
-12.607676 30.463010 30.531893 44.934898 -1.178392 0.823757 0.056283 -0.000307 -486522.000000 0 0 1
-13.287276 29.309410 31.006773 44.687954 -1.145164 0.803973 0.056930 -0.001320 10155.900000 0 0 1
-13.451776 29.070510 32.541727 45.661897 -1.137407 0.777504 0.074371 -0.008484 -596672.000000 0 0 1
-14.415876 29.895910 33.145850 46.906613 -1.121488 0.786065 0.080782 0.001059 247433.000000 0 0 1
-14.382876 29.523310 -33.249396 46.733450 -1.117465 2.362383 0.081028 0.000463 117380.000000 0 0 1
-15.622076 30.068810 -32.497376 46.949570 -1.091636 2.335296 0.072116 0.003580 81266.900000 0 0 1
-15.733276 29.425010 -31.229136 45.701490 -1.079783 2.323108 0.062860 -0.001771 622358.000000 0 0 1
-16.886576 29.872510 -30.488076 45.902572 -1.056291 2.297207 0.071039 -0.000015 680427.000000 0 0 1
-16.845276 29.221610 -29.104696 44.550524 -1.047861 2.282727 0.094690 -0.014487 -5005.240000 0 0 1
-17.183876 27.853810 -29.007046 43.732472 -1.018021 2.295995 0.086193 -0.017148 75118.900000 0 0 1
-17.363876 27.467810 -27.670606 42.680760 -1.007069 2.276166 0.095482 -0.023374 -117474.000000 0 0 1
-17.995676 26.063510 -27.446546 41.910188 -0.966505 2.284833 0.060641 -0.023691 705024.000000 0 0 1
-19.414476 26.114510 -27.621916 42.683250 -0.931509 2.274620 0.068328 -0.026995 100017.000000 0 0 1
-19.899976 24.819310 -27.626106 42.133229 -0.894962 2.285885 0.046113 -0.025755 207141.000000 0 0 1
-21.400176 24.757610 -28.035776 43.091897 -0.858008 2.279176 0.072738 -0.023787 261376.000000 0 0 1
-22.316776 25.051910 -26.985176 43.056201 -0.843076 2.248163 0.079449 -0.027232 853829.000000 0 0 1
-23.638076 24.786310 -27.491866 43.919501 -0.809106 2.247159 0.098895 -0.028885 1316700.000000 0 0 1
-24.818776 24.734910 -26.443916 43.898384 -0.783706 2.217287 0.104138 -0.029323 857996.000000 0 0 1
-25.090016 25.975410 -25.742656 44.349918 -0.802735 2.190071 0.073683 -0.020859 301514.000000 0 0 1
-26.289666 26.016810 -24.958056 44.619789 -0.780182 2.164397 0.082126 -0.017939 422303.000000 0 0 1
-26.286736 25.520710 -23.511156 43.532443 -0.770613 2.141333 0.075493 -0.020361 -536901.000000 0 0 1
-26.307146 24.110310 -23.224856 42.576601 -0.741853 2.147763 0.075266 -0.010687 549037.000000 0 0 1
-27.598836 23.471110 -23.156656 42.997901 -0.704749 2.139515 0.076488 -0.009446 604848.000000 0 0 1
-28.352716 23.680010 -21.801356 42.894272 -0.695835 2.103957 0.085054 -0.017244 -168919.000000 0 0 1
-27.739466 23.180510 -20.610256 41.612459 -0.696104 2.088966 0.079972 -0.011025 120318.000000 0 0 1
-26.667076 23.982910 -20.177256 41.151362 -0.732453 2.083251 0.068100 -0.007021 -252806.000000 0 0 1
-25.906046 23.516210 -18.927156 39.779048 -0.737080 2.066678 0.054806 -0.011258 13365.500000 0 0 1
-26.585456 23.688210 -17.672456 39.752151 -0.727832 2.031486 0.040438 -0.005076 -38046.400000 0 0 1
-25.676906 23.830010 -16.596956 38.763796 -0.748110 2.013248 0.073115 -0.030325 -177116.000000 0 0 1
-26.324456 24.106710 -15.218256 38.803425 -0.741451 1.973806 0.081141 -0.033677 -87215.600000 0 0 1
-26.948216 25.391310 -15.124956 39.996116 -0.755661 1.958605 0.101640 -0.031080 -33940.500000 0 0 1
-27.371616 25.608010 -13.780056 39.935768 -0.752122 1.923094 0.060967 -0.043383 -119057.000000 0 0 1
-26.872686 26.867510 -13.115856 40.199877 -0.785302 1.903147 0.067888 -0.033243 -793012.000000 0 0 1
-25.544066 26.932210 -12.750156 39.248054 -0.811845 1.901661 0.103523 -0.053617 -1101910.000000 0 0 1
-25.214046 27.981310 -11.922656 39.507614 -0.837372 1.877357 0.105663 -0.046220 153717.000000 0 0 1
-23.692376 28.235410 -11.727256 38.679396 -0.872664 1.878836 0.134976 -0.057091 -65162.200000 0 0 1
-23.116976 27.147710 -11.090556 37.341575 -0.865417 1.872349 0.133363 -0.053539 -617592.000000 0 0 1
-21.894376 27.581010 -10.546056 36.759967 -0.899835 1.861775 0.129599 -0.053960 -234789.000000 0 0 1
-21.047976 26.421610 -9.935456 35.211250 -0.898120 1.856849 0.171002 -0.048453 -192622.000000 0 0 1
-20.505176 25.668810 -10.979956 34.639710 -0.896765 1.893336 0.166627 -0.060176 -245531.000000 0 0 1
-19.747376 24.625910 -10.372356 33.226196 -0.894901 1.888277 0.175070 -0.042502 -136133.000000 0 0 1
-18.961976 23.791410 -11.381656 32.482762 -0.897882 1.928784 0.158972 -0.046476 -214771.000000 0 0 1
-18.294476 22.722810 -10.722156 31.080196 -0.892944 1.923018 0.112497 -0.027452 31942.000000 0 0 1
-17.716776 21.871210 -11.705256 30.483553 -0.889957 1.964906 0.118793 -0.013314 54092.000000 0 0 1
-17.130176 20.545110 -11.200756 29.000025 -0.875792 1.967340 0.103758 0.000458 -507632.000000 0 0 1
-18.088276 19.690010 -10.652456 28.781193 -0.827771 1.949933 0.122300 -0.000857 -214050.000000 0 0 1
-17.602676 18.330410 -10.525256 27.507075 -0.805648 1.963446 0.138031 -0.017177 73208.400000 0 0 1
-18.717376 17.198310 -10.336456 27.440197 -0.743128 1.957017 0.112676 -0.008716 774771.000000 0 0 1
-19.419876 16.792710 -11.485456 28.125476 -0.712977 1.991458 0.104236 -0.012893 -135773.000000 0 0 1
-20.340576 17.688110 -12.010256 29.510245 -0.715762 1.989948 0.111421 -0.016088 -692298.000000 0 0 1
-21.235276 17.223010 -13.167756 30.347304 -0.681446 2.019616 0.112462 -0.022573 -207292.000000 0 0 1
-20.445176 16.978810 -14.295356 30.176853 -0.693038 2.064306 0.098402 -0.029072 -105379.000000 0 0 1
-21.185276 16.457210 -15.386856 30.925896 -0.660448 2.091556 0.099977 -0.032851 -91532.000000 0 0 1
-20.377076 16.221610 -16.673556 30.925287 -0.672341 2.140231 0.114578 -0.044066 -119075.000000 0 0 1
-19.874976 17.376810 -17.405256 31.621372 -0.718437 2.153672 0.098052 -0.039878 218864.000000 0 0 1
-18.821376 17.023710 -18.274956 31.273390 -0.735289 2.194889 0.087848 -0.034378 -270510.000000 0 0 1
-18.281076 18.211410 -19.118856 32.115166 -0.783489 2.208462 0.057958 -0.029025 -707616.000000 0 0 1
-17.487376 19.089110 -18.403856 31.763255 -0.829162 2.188797 0.078385 -0.021359 -67779.300000 0 0 1
-17.462376 20.398610 -18.868056 32.818310 -0.862796 2.183308 0.086935 -0.036975 -72908.700000 0 0 1
34.432797 30.209310 1.839144 45.843237 0.720154 1.530667 0.105137 -0.013973 -48489.400000 0 0 1
35.555327 29.995310 1.025944 46.529050 0.700781 1.548745 0.121787 -0.016060 -34981.700000 0 0 1
35.568377 31.000810 0.046644 47.182219 0.716892 1.569808 0.125147 -0.021193 409331.000000 0 0 1
36.956727 31.137010 -0.651656 48.329470 0.700139 1.584280 0.091628 -0.020453 413095.000000 0 0 1
-37.086486 31.664810 0.171244 48.765736 -0.706702 1.567285 0.068866 -0.012769 -74216.200000 0 0 1
-35.909762 31.498110 -0.586556 47.770138 -0.720044 1.583075 0.068349 -0.013907 -414167.000000 0 0 1
-34.871028 32.564210 -0.150256 47.712042 -0.751204 1.573946 0.043858 -0.010515 -232297.000000 0 0 1
-34.246245 32.239010 1.062844 47.045603 -0.755217 1.548203 0.036852 -0.009641 61117.800000 0 0 1
-33.534536 33.376410 1.562844 47.339121 -0.783035 1.537777 0.023905 -0.002444 26537.500000 0 0 1
-32.890276 33.130110 2.986344 46.779191 -0.789031 1.506914 0.042628 -0.006738 5893.040000 0 0 1
-32.458366 -33.299013 3.577544 46.638703 0.798182 1.494013 0.042691 -0.000403 70610.100000 0 0 1
-31.979956 -33.589713 4.878644 46.634618 0.809944 1.465990 0.065517 -0.017180 -473614.000000 0 0 1
-31.788096 -32.349613 5.785644 45.721485 0.794153 1.443915 0.077725 -0.012848 -41571.100000 0 0 1
-32.890746 -31.701713 6.400544 46.127722 0.766992 1.431590 0.082384 -0.009526 75184.600000 0 0 1
-33.424946 -32.380913 7.514044 47.140337 0.769534 1.410716 0.069994 -0.020110 -1405000.000000 0 0 1
-34.434618 -31.599413 8.352044 47.476546 0.742489 1.393957 0.090530 -0.013827 1343210.000000 0 0 1
-35.742274 -31.221113 7.827044 48.099175 0.717984 1.407342 0.062876 -0.017717 1419090.000000 0 0 1
-36.497416 -32.329813 7.352244 49.308556 0.724920 1.421131 0.049222 -0.011924 578504.000000 0 0 1
37.039377 -32.059613 7.034344 49.489556 -0.713455 1.428175 0.045574 -0.005728 1642270.000000 0 0 1
36.268577 -32.173713 8.204044 49.171778 -0.725640 1.403168 0.048023 -0.008103 760261.000000 0 0 1
34.862977 -32.047113 7.917044 48.011708 -0.743339 1.405142 0.042270 0.003677 1227660.000000 0 0 1
33.981047 -32.231513 9.218344 47.734262 -0.758981 1.376457 0.047288 -0.011014 -517753.000000 0 0 1
32.631297 -32.350813 8.934344 46.810245 -0.781082 1.378755 0.050695 -0.016167 -438187.000000 0 0 1
31.684677 -32.331013 9.983944 46.356146 -0.795494 1.353721 0.054116 -0.022071 279333.000000 0 0 1
31.436337 -31.087713 10.909044 45.537856 -0.779822 1.328884 0.069411 -0.019020 -634494.000000 0 0 1
30.798597 -29.946013 10.421544 44.203233 -0.771364 1.332791 0.063562 -0.028458 542788.000000 0 0 1
31.608467 -29.276513 9.459344 44.109959 -0.747116 1.354668 0.071636 -0.032439 426081.000000 0 0 1
30.859727 -27.950613 8.969944 42.591306 -0.735972 1.358602 0.064379 -0.042351 354151.000000 0 0 1
31.487837 -27.176113 7.960444 42.348478 -0.712031 1.381697 0.070964 -0.039250 344370.000000 0 0 1
30.592417 -26.089113 7.626744 40.923159 -0.706115 1.383333 0.077258 -0.040248 597209.000000 0 0 1
30.720077 -25.555013 6.204144 40.438511 -0.693872 1.416766 0.077356 -0.031471 446695.000000 0 0 1
32.037277 -25.064713 5.954644 41.110640 -0.663892 1.425441 0.075906 -0.028345 46186.400000 0 0 1
32.168537 -24.577113 4.631644 40.746795 -0.652408 1.456881 0.074712 -0.028806 66389.700000 0 0 1
33.535307 -24.064613 4.102744 41.479572 -0.622434 1.471724 0.069919 -0.026788 459668.000000 0 0 1
34.460377 -25.140913 3.903244 42.834780 -0.630291 1.479547 0.054327 -0.016056 -977653.000000 0 0 1
35.704947 -24.585813 3.696544 43.508273 -0.603022 1.485732 0.047694 -0.010510 -480607.000000 0 0 1
36.845647 -25.621813 3.450744 45.010961 -0.607620 1.494057 0.048815 -0.008389 134509.000000 0 0 1
36.949997 -26.386713 4.613544 45.638204 -0.620139 1.469534 0.040510 -0.009351 -286366.000000 0 0 1
-37.495056 -27.600313 4.393244 46.764913 0.634549 1.476714 0.041894 -0.013778 -837265.000000 0 0 1
37.311657 -28.611513 5.542644 47.344474 -0.654182 1.453457 0.048466 -0.014611 1578200.000000 0 0 1
35.992797 -29.260513 5.555744 46.717505 -0.682590 1.451592 0.029572 -0.012471 1485430.000000 0 0 1
34.990167 -28.379213 6.024344 45.453099 -0.681450 1.437865 0.041665 -0.016037 549971.000000 0 0 1
33.555257 -28.999113 6.284344 44.792820 -0.712692 1.430034 0.077089 -0.021215 1549020.000000 0 0 1
32.746097 -29.617613 5.260844 44.465563 -0.735275 1.452206 0.052489 -0.024622 312165.000000 0 0 1
32.166977 -28.723913 4.326344 43.341606 -0.728913 1.470810 0.073001 -0.027701 -389830.000000 0 0 1
30.681567 -29.080913 4.115744 42.473490 -0.758621 1.473743 0.067934 -0.033623 119870.000000 0 0 1
30.627907 -30.299113 3.515744 43.225748 -0.780002 1.489372 0.075077 -0.029997 -267877.000000 0 0 1
29.278207 -30.703813 3.539744 42.573081 -0.809161 1.487555 0.102614 -0.029645 160969.000000 0 0 1
28.988907 -32.043213 2.831144 43.302881 -0.835401 1.505370 0.109014 -0.019880 -228918.000000 0 0 1
29.005607 -31.996913 1.444444 43.211272 -0.834395 1.537363 0.107226 -0.012739 202157.000000 0 0 1
28.717807 -33.244913 0.888444 43.940027 -0.858330 1.550575 0.107637 -0.010793 -231058.000000 0 0 1
28.469107 -33.233113 -0.607156 43.764123 -0.862455 1.584670 0.107720 -0.012842 -210939.000000 0 0 1
29.593307 -32.989013 -1.425056 44.340383 -0.839605 1.602941 0.092323 -0.014482 322006.000000 0 0 1
29.298807 -33.302313 -2.753156 44.441467 -0.849264 1.632786 0.086190 -0.010869 919735.000000 0 0 1
30.603447 -33.023513 -3.608756 45.167980 -0.823415 1.650778 0.069583 -0.015187 864586.000000 0 0 1
30.711237 -31.619113 -3.723056 44.235839 -0.799963 1.655060 0.056275 -0.017181 -47495.500000 0 0 1
31.617197 -31.261113 -4.729256 44.713199 -0.779735 1.676763 0.055890 -0.017401 -401353.000000 0 0 1
31.925227 -29.785013 -4.784056 43.923277 -0.750730 1.679931 0.042456 -0.008587 -714442.000000 0 0 1
30.847587 -28.957313 -5.124656 42.618794 -0.753801 1.691332 0.047565 -0.015335 -127207.000000 0 0 1
31.123067 -27.522613 -4.918556 41.836965 -0.724082 1.688634 0.041927 -0.021708 889529.000000 0 0 1
32.331167 -26.792413 -5.698056 42.374586 -0.691990 1.705674 0.049691 -0.019040 76991.600000 0 0 1
33.541257 -27.258613 -5.200756 43.532697 -0.682430 1.690550 0.052480 -0.022021 -355089.000000 0 0 1
34.678367 -26.823713 -5.985756 44.248502 -0.658372 1.706488 0.057260 -0.027453 706434.000000 0 0 1
34.953437 -27.669513 -7.265156 45.167767 -0.669605 1.732346 0.062057 -0.007387 -562785.000000 0 0 1
33.996127 -27.526713 -8.332056 44.529537 -0.680629 1.759019 0.063367 -0.011404 264852.000000 0 0 1
33.941687 -28.659613 -9.254556 45.376847 -0.701221 1.776186 0.042644 -0.005025 309733.000000 0 0 1
33.563837 -30.067413 -8.651656 45.884982 -0.730505 1.760483 0.034578 -0.000883 -133800.000000 0 0 1
34.671297 -30.675313 -8.063856 46.990418 -0.724324 1.743256 0.050985 -0.007783 -613889.000000 0 0 1
34.314367 -31.956113 -7.645856 47.509241 -0.749828 1.732433 0.065785 -0.016435 129305.000000 0 0 1
35.510247 -32.731113 -7.075856 48.809539 -0.744696 1.716278 0.066273 -0.016368 66008.100000 0 0 1
35.182947 33.601010 -6.641856 49.101750 0.762404 1.706479 0.069127 -0.022576 -118251.000000 0 0 1
34.794067 33.609910 -5.284556 48.663946 0.768089 1.679604 0.078151 -0.022990 -889.702000 0 0 1
34.560157 32.145010 -4.865356 47.448686 0.749208 1.673516 0.079477 -0.026740 -403792.000000 0 0 1
33.482777 31.581810 -5.537156 46.359111 0.756190 1.690523 0.089003 -0.037840 -504430.000000 0 0 1
33.215247 30.290510 -5.125356 45.244192 0.739376 1.684322 0.100121 -0.020499 469109.000000 0 0 1
31.893567 29.674410 -5.670056 43.930852 0.749370 1.700225 0.114375 -0.030571 448555.000000 0 0 1
32.058277 29.422210 -7.042056 44.079362 0.742548 1.731242 0.077747 -0.024185 208404.000000 0 0 1
30.851537 28.916810 -7.594856 42.961391 0.753039 1.748514 0.053741 -0.017868 275167.000000 0 0 1
30.973527 28.504910 -9.109556 43.068240 0.743918 1.783921 0.045390 -0.008935 -758956.000000 0 0 1
31.791407 27.388210 -9.311456 42.982680 0.711131 1.789160 0.047330 -0.013329 -120050.000000 0 0 1
32.243187 27.263010 -10.646456 43.545859 0.701901 1.817788 0.041707 -0.002412 859750.000000 0 0 1
33.451657 28.232410 -10.985556 45.130530 0.700987 1.816684 0.049463 -0.017526 -359039.000000 0 0 1
34.712487 27.848510 -10.496056 45.723773 0.676119 1.802415 0.061638 -0.027551 241571.000000 0 0 1
35.767677 28.712810 -10.879556 47.139335 0.676421 1.803692 0.070365 -0.027828 104421.000000 0 0 1
35.932557 30.042810 -10.128256 47.919731 0.696362 1.783761 0.059797 -0.029330 -816773.000000 0 0 1
36.825367 29.931710 -9.033256 48.307501 0.682498 1.758899 0.071478 -0.026456 185831.000000 0 0 1
36.722637 31.017910 -8.161456 48.757278 0.701382 1.738978 0.054735 -0.024089 234914.000000 0 0 1
-37.310736 30.972910 -6.978556 48.990943 -0.692847 1.713728 0.058037 -0.017208 534164.000000 0 0 1
-35.970136 31.183310 -7.331656 48.166407 -0.714237 1.723605 0.062028 -0.013088 -306085.000000 0 0 1
-35.191284 30.032710 -7.582656 46.881626 -0.706472 1.733250 0.078038 -0.013222 -583247.000000 0 0 1
-33.851106 30.332510 -8.255756 46.196494 -0.730632 1.750471 0.081094 -0.011514 -146166.000000 0 0 1
-32.906176 30.945710 -7.375856 45.769604 -0.754704 1.732654 0.083219 -0.016044 -626071.000000 0 0 1
-31.781786 31.467310 -7.962256 45.427647 -0.780426 1.746980 0.067988 -0.022207 -784935.000000 0 0 1
-31.917446 32.847810 -8.692656 46.618283 -0.799762 1.758359 0.043655 -0.019097 -406134.000000 0 0 1
-32.003156 -33.625113 -7.846756 47.078889 0.810107 1.738250 0.034943 -0.015900 -468805.000000 0 0 1
-30.849696 -33.250413 -7.158356 45.918795 0.822833 1.727326 0.054133 -0.024841 -356587.000000 0 0 1
-31.037826 -31.825713 -6.564456 44.936786 0.797931 1.717403 0.042767 -0.026984 395972.000000 0 0 1
-31.967016 -31.668213 -5.478556 45.329686 0.780703 1.691953 0.029449 -0.027107 380857.000000 0 0 1
-31.561516 -32.391613 -4.313156 45.430708 0.798377 1.665879 0.046214 -0.027193 -27437.400000 0 0 1
-32.639436 -32.397713 -3.219656 46.101093 0.781681 1.640692 0.057640 -0.028416 -228864.000000 0 0 1
-33.033976 -31.155313 -2.685656 45.487469 0.756139 1.629872 0.061277 -0.019532 -156756.000000 0 0 1
-33.945826 -31.288413 -1.638056 46.194882 0.744684 1.606263 0.064291 -0.017853 -108111.000000 0 0 1
-34.702017 -29.929913 -1.392556 45.847234 0.711697 1.601175 0.066901 -0.011712 169505.000000 0 0 1
-35.763739 -30.136213 -0.475456 46.770315 0.700210 1.580962 0.063200 -0.010359 122700.000000 0 0 1
-36.656566 -29.013213 -0.493956 46.751624 0.669529 1.581362 0.061813 -0.009190 888058.000000 0 0 1
37.478757 -29.009113 0.779444 47.400352 -0.658694 1.554352 0.053360 -0.004592 709044.000000 0 0 1
36.317297 -29.859713 0.707544 47.021794 -0.688126 1.555749 0.034248 -0.005719 1302250.000000 0 0 1
35.316807 -29.514413 1.695644 46.057058 -0.696136 1.533972 0.045765 -0.009066 894099.000000 0 0 1
34.527947 -28.143813 1.681544 44.576685 -0.683882 1.533065 0.032667 -0.002913 -407423.000000 0 0 1
33.449417 -28.047713 0.773644 43.659319 -0.697786 1.553075 0.040765 -0.016713 2603.200000 0 0 1
32.882497 -26.741613 0.871444 42.392592 -0.682767 1.550238 0.041206 -0.011634 -676786.000000 0 0 1
31.748087 -26.590513 -0.125256 41.412704 -0.697220 1.573821 0.050131 -0.034147 -216346.000000 0 0 1
30.524167 -27.213513 0.280244 40.894725 -0.728121 1.563943 0.058664 -0.025648 443456.000000 0 0 1
30.357347 -28.628213 0.055344 41.727043 -0.756092 1.569470 0.056086 -0.018836 -409168.000000 0 0 1
29.966507 -28.998513 -1.411156 41.724053 -0.768983 1.604624 0.058597 -0.025638 -975428.000000 0 0 1
28.666607 -28.659013 -1.730256 40.572246 -0.785266 1.613456 0.076058 -0.019039 -738961.000000 0 0 1
28.325207 -29.105613 -3.011256 40.724951 -0.798986 1.644805 0.066711 -0.017283 -567942.000000 0 0 1
26.938907 -29.718413 -3.145756 40.234121 -0.834417 1.649062 0.094077 -0.021452 110307.000000 0 0 1
25.857907 -28.824313 -2.895756 38.831144 -0.839593 1.645439 0.097615 -0.022711 228976.000000 0 0 1
24.593807 -29.420513 -3.120056 38.472804 -0.874521 1.651983 0.075393 -0.018328 109616.000000 0 0 1
23.446107 -28.403813 -3.078156 36.959052 -0.880725 1.654178 0.077557 -0.012874 -150063.000000 0 0 1
23.310007 -27.718313 -4.299256 36.471151 -0.871574 1.688952 0.080276 -0.016648 117215.000000 0 0 1
22.646907 -26.481613 -3.995656 35.073116 -0.863295 1.684968 0.090670 -0.027582 318438.000000 0 0 1
22.102007 -25.697413 -5.230956 34.296044 -0.860475 1.723918 0.091635 -0.035954 378426.000000 0 0 1
20.963407 -26.232813 -5.896756 34.093938 -0.896587 1.744627 0.099375 -0.030498 97928.800000 0 0 1
20.631507 -25.552313 -7.139256 33.608760 -0.891546 1.784850 0.112977 -0.030667 1145520.000000 0 0 1
19.083307 -25.555513 -7.427156 32.747816 -0.929385 1.799586 0.115537 -0.025703 1331090.000000 0 0 1
18.276207 -24.819913 -6.492556 31.499223 -0.936087 1.778402 0.117564 -0.026752 -40285.300000 0 0 1
16.919107 -25.119913 -6.714356 31.021746 -0.978055 1.788963 0.112921 -0.028515 724073.000000 0 0 1
15.882907 -24.294413 -5.809656 29.601306 -0.991777 1.768342 0.094281 -0.020288 722228.000000 0 0 1
15.858707 -24.709713 -4.461256 29.698001 -1.000207 1.721588 0.088581 -0.016152 215421.000000 0 0 1
14.892907 -24.027113 -3.675856 28.506363 -1.015918 1.700105 0.086946 -0.019047 206851.000000 0 0 1
14.853107 -24.584413 -2.233656 28.809674 -1.027318 1.648406 0.085859 -0.012330 215263.000000 0 0 1
14.298007 -25.897313 -2.176656 29.662124 -1.066339 1.644244 0.088871 -0.012410 388828.000000 0 0 1
14.710607 -26.330413 -0.903556 30.174641 -1.061304 1.600745 0.080705 -0.011376 -8933.520000 0 0 1
14.677607 -27.858313 -0.634556 31.494767 -1.085887 1.590946 0.083259 -0.018105 1134240.000000 0 0 1
13.345607 -28.406313 -0.437056 31.388132 -1.131590 1.584721 0.089567 -0.012441 983765.000000 0 0 1
12.810407 -29.266113 -1.414856 31.978331 -1.158200 1.615055 0.087215 -0.015047 94739.600000 0 0 1
13.435607 -30.677813 -1.430556 33.521489 -1.158001 1.613485 0.074944 -0.014741 173536.000000 0 0 1
14.786607 -30.697813 -1.864256 34.124403 -1.121910 1.625455 0.083670 -0.012522 -186004.000000 0 0 1
15.273007 -31.993613 -1.551956 35.486118 -1.125411 1.614544 0.084348 -0.020124 -348749.000000 0 0 1
16.738707 -32.194613 -1.951956 36.338513 -1.091338 1.624538 0.079697 -0.019423 -133750.000000 0 0 1
17.600407 -31.328113 -1.224256 35.954468 -1.058932 1.604853 0.084234 -0.008172 -739846.000000 0 0 1
18.821907 -31.176713 -1.858156 36.465111 -1.027648 1.621776 0.081409 -0.008097 -830575.000000 0 0 1
19.657107 -30.111113 -1.148956 35.977785 -0.992442 1.602737 0.078799 -0.010217 -250631.000000 0 0 1
19.043107 -28.848013 -1.244556 34.588967 -0.987341 1.606785 0.084392 -0.009360 230241.000000 0 0 1
19.618307 -27.907713 -0.331856 34.114931 -0.958079 1.580524 0.071923 -0.006676 -52007.400000 0 0 1
19.466507 -26.387013 -0.601456 32.796052 -0.935194 1.589137 0.071139 -0.009673 -171986.000000 0 0 1
19.814607 -26.005413 -1.917056 32.750194 -0.919696 1.629366 0.078006 -0.020573 1266360.000000 0 0 1
18.620007 -25.936613 -2.751656 32.046593 -0.948155 1.656766 0.091775 -0.015352 1084440.000000 0 0 1
33.186257 -29.569013 13.593744 46.480577 -0.727821 1.273997 0.059336 -0.039285 635264.000000 0 0 1
34.061837 -29.868513 14.748544 47.643009 -0.719900 1.256062 0.067909 -0.028352 805713.000000 0 0 1
33.381167 -30.309913 15.916444 47.815544 -0.737214 1.231449 0.061055 -0.020050 -51541.600000 0 0 1
34.392417 -30.642613 17.019644 49.106785 -0.727804 1.216869 0.062579 -0.011803 -481654.000000 0 0 1
33.770077 -31.021313 18.216944 49.341635 -0.742999 1.192648 0.051306 -0.005719 -265376.000000 0 0 1
34.629637 -31.279313 19.273844 50.488495 -0.734609 1.179110 0.036924 -0.002192 -569690.000000 0 0 1
35.467437 -32.559613 19.181044 51.826440 -0.742679 1.191678 0.036411 -0.000075 -215732.000000 0 0 1
36.395757 -32.514913 18.100944 52.053000 -0.729141 1.215636 0.046015 0.000983 87992.600000 0 0 1
37.154097 -33.709813 17.979144 53.291913 -0.736832 1.226674 0.061405 -0.004919 7305.880000 0 0 1
-36.815236 -33.672413 16.909144 52.679333 0.740841 1.244030 0.069741 -0.007095 33992.300000 0 0 1
-35.722751 -32.870313 17.317044 51.540784 0.743837 1.228143 0.079325 -0.011803 -419193.000000 0 0 1
-34.763653 -32.816713 16.303844 50.510034 0.756597 1.242127 0.095185 -0.008703 -586781.000000 0 0 1
-33.449756 -32.231813 16.943544 49.445522 0.766857 1.221038 0.079254 -0.013679 -61356.700000 0 0 1
-32.334136 -32.127513 16.118944 48.347635 0.782193 1.230892 0.092449 -0.015736 -465134.000000 0 0 1
-32.444806 -31.275413 15.006144 47.497381 0.767048 1.249353 0.100070 -0.020122 -365225.000000 0 0 1
-31.098506 -31.132713 14.236344 46.249717 0.785948 1.257901 0.077392 -0.025118 -45248.900000 0 0 1
-30.028796 -30.576513 14.927344 45.381464 0.794435 1.235626 0.074045 -0.026543 -774718.000000 0 0 1
-28.967666 -30.566913 14.004444 44.380021 0.812254 1.249752 0.065889 -0.018870 -522546.000000 0 0 1
-27.637846 -30.024813 14.504444 43.309569 0.826770 1.229296 0.076174 -0.021895 -598588.000000 0 0 1
-26.653476 -30.021113 13.545044 42.369130 0.844749 1.245393 0.075297 -0.017245 -194764.000000 0 0 1
-25.380766 -29.645113 14.088644 41.491034 0.862741 1.224349 0.065456 -0.023972 447417.000000 0 0 1
-24.181376 -29.642613 13.153944 40.453055 0.886517 1.239609 0.066322 -0.023058 -165834.000000 0 0 1
-23.794376 -30.913213 12.707744 41.027866 0.914796 1.255883 0.067774 -0.025087 -239665.000000 0 0 1
-22.470076 -30.875413 12.231244 40.097366 0.941677 1.260817 0.068444 -0.031581 -40812.900000 0 0 1
-22.056076 -32.375613 12.053844 40.987144 0.972761 1.272295 0.056669 -0.028556 -88985.000000 0 0 1
-22.721276 -33.046513 11.005344 41.586608 0.968472 1.302969 0.050310 -0.023845 123671.000000 0 0 1
-22.392976 33.238410 11.017144 41.564586 -0.977935 1.302529 0.054353 -0.019110 284149.000000 0 0 1
-23.333776 32.422010 10.073344 41.196167 -0.946978 1.323770 0.051473 -0.010668 303622.000000 0 0 1
-23.064276 32.727110 8.691244 40.970261 -0.956893 1.357037 0.040475 -0.011080 718661.000000 0 0 1
-24.244676 32.422010 7.948744 41.257407 -0.928715 1.376922 0.048920 -0.020413 154195.000000 0 0 1
-24.032776 32.845210 6.505044 41.215262 -0.939112 1.412303 0.041802 -0.011443 -488876.000000 0 0 1
-23.296676 31.984010 5.655544 39.971205 -0.941273 1.428829 0.041996 -0.012509 1102330.000000 0 0 1
-21.858376 31.985510 5.773444 39.168790 -0.971310 1.422858 0.051578 -0.018453 945283.000000 0 0 1
-21.112776 33.324310 5.340344 39.809274 -1.006069 1.436242 0.063861 -0.021165 -710700.000000 0 0 1
-21.133976 -33.229513 6.214344 39.868077 1.004326 1.414285 0.059682 -0.022519 -83026.200000 0 0 1
-20.383476 -33.504813 7.361444 39.903000 1.024242 1.385250 0.058426 -0.025865 -493915.000000 0 0 1
-20.491776 -32.361413 8.422344 39.218743 1.006310 1.354357 0.052454 -0.024487 -89168.100000 0 0 1
-19.733676 -31.204013 8.033344 37.784163 1.006887 1.356550 0.059501 -0.038559 22598.700000 0 0 1
-19.759276 -30.006913 8.849644 37.002162 0.988475 1.329290 0.057460 -0.037411 179150.000000 0 0 1
-19.135176 -30.098613 10.274944 37.116788 1.004504 1.290305 0.050727 -0.031154 1481320.000000 0 0 1
-17.703976 -30.339013 10.279344 36.599882 1.042569 1.286109 0.054439 -0.037324 768059.000000 0 0 1
-17.185676 -30.395413 11.572244 36.785125 1.056204 1.250771 0.076191 -0.033945 369115.000000 0 0 1
-15.757276 -31.005313 11.483344 36.626334 1.100601 1.251891 0.072168 -0.034070 466976.000000 0 0 1
-14.764176 -30.193713 10.883044 35.328201 1.116002 1.257648 0.091464 -0.029812 -40303.100000 0 0 1
-13.748476 -30.978813 10.303044 35.424005 1.153108 1.275682 0.105739 -0.025076 692734.000000 0 0 1
-12.553276 -30.219513 9.578044 34.096079 1.177082 1.286051 0.120819 -0.018427 906763.000000 0 0 1
-11.750376 -29.629613 10.595944 33.589571 1.193246 1.249862 0.118309 -0.025886 -500989.000000 0 0 1
-10.659776 -28.929513 10.078644 32.436501 1.217759 1.254847 0.118877 -0.022877 212587.000000 0 0 1
-9.563176 -28.605113 11.144044 32.154261 1.248161 1.216873 0.105693 -0.017785 445205.000000 0 0 1
-9.878576 -27.484213 11.911044 31.541103 1.225748 1.183555 0.079123 -0.024806 -655643.000000 0 0 1
-8.924976 -27.257113 12.914244 31.454460 1.254362 1.147718 0.065240 -0.018360 -326486.000000 0 0 1
-9.178876 -25.949713 13.770844 30.777841 1.230813 1.106910 0.066256 -0.029153 34348.300000 0 0 1
-8.925176 -24.775413 13.052144 29.391126 1.225025 1.110644 0.038541 -0.025334 193855.000000 0 0 1
-9.877876 -24.441513 12.018744 28.972576 1.186723 1.143038 0.041181 -0.021471 361883.000000 0 0 1
-9.500776 -23.177213 11.267344 27.466361 1.181769 1.148097 0.030444 -0.018615 638235.000000 0 0 1
-8.408676 -23.318413 10.332944 26.855613 1.224708 1.175849 0.016708 -0.014761 355391.000000 0 0 1
-7.945276 -22.027213 9.956644 25.445240 1.224619 1.168756 0.013996 -0.006001 436524.000000 0 0 1
-6.802376 -21.970613 8.851744 24.644137 1.270544 1.203404 0.024343 -0.012446 157872.000000 0 1 0
-5.696276 -22.593113 9.429444 25.135845 1.323819 1.186249 0.054326 -0.019208 -480888.000000 0 0 1
-4.653776 -22.745013 8.459944 24.709591 1.368975 1.221353 0.051177 -0.022933 -420468.000000 0 1 0
-3.432376 -23.452013 8.952544 25.336261 1.425471 1.209648 0.075440 -0.030459 -567423.000000 0 0 1
-2.738476 -22.706313 9.968444 24.948863 1.450772 1.159765 0.071375 -0.026110 417873.000000 0 1 0
-1.525776 -23.389713 10.299444 25.602445 1.505656 1.156787 0.097733 -0.041668 935721.000000 0 0 1
-0.594776 -22.918713 11.446644 25.625120 1.544851 1.107727 0.092676 -0.037503 -137087.000000 0 0 1
-1.085776 -23.031513 12.728444 26.337099 1.523688 1.066388 0.094037 -0.030158 -807440.000000 0 0 1
-0.196676 -22.720713 13.781644 26.574483 1.562140 1.025578 0.114976 -0.033190 -472430.000000 0 0 1
0.312724 -21.240813 13.777644 25.319822 -1.556075 0.995427 0.087351 -0.029416 567495.000000 0 0 1
1.572624 -21.108013 13.086644 24.885369 -1.496430 1.017050 0.089726 -0.036452 574540.000000 0 1 0
2.038924 -19.795513 13.023644 23.783078 -1.468159 0.991302 0.067090 -0.027539 -140873.000000 0 1 0
3.507824 -19.651813 12.604744 23.608857 -1.394158 1.007591 0.063843 -0.030129 -44480.200000 0 1 0
3.844524 -20.096913 11.299644 23.374093 -1.381781 1.066232 0.080025 -0.028308 121736.000000 0 1 0
5.249124 -20.267513 11.144044 23.717400 -1.317373 1.081655 0.099864 -0.029639 494973.000000 0 1 0
5.630324 -21.041513 9.868344 23.912967 -1.309340 1.145405 0.105606 -0.037539 -540219.000000 0 1 0
5.619124 -20.326613 8.685244 22.807437 -1.301090 1.180127 0.083009 -0.033636 -243897.000000 0 1 0
5.947424 -21.134213 7.520944 23.207572 -1.296479 1.240765 0.081060 -0.035106 26528.500000 0 1 0
7.402224 -21.675613 7.373944 24.062422 -1.241714 1.259334 0.078106 -0.026140 324583.000000 0 1 0
8.408724 -20.773313 6.888244 23.445363 -1.186172 1.272597 0.082854 -0.033503 420615.000000 0 1 0
8.823724 -19.751813 7.798344 22.995790 -1.150665 1.224814 0.092506 -0.022792 -155329.000000 0 1 0
9.697724 -20.177913 9.009444 24.132221 -1.122780 1.188193 0.087895 -0.013388 -80515.600000 0 1 0
8.933724 -20.476513 10.133044 24.531155 -1.159401 1.144976 0.098453 -0.019955 -515430.000000 0 1 0
9.609524 -20.030713 11.253644 24.904154 -1.123488 1.101927 0.096187 -0.015673 221064.000000 0 1 0
8.737024 -20.161113 12.539744 25.299233 -1.161866 1.052205 0.126974 -0.025983 178558.000000 0 0 1
8.791824 -21.506913 12.975744 26.612279 -1.182735 1.061475 0.106948 -0.024145 -160654.000000 0 0 1
7.968024 -21.721413 14.077344 27.082850 -1.219209 1.024193 0.142147 -0.028821 -156246.000000 0 0 1
8.223424 -23.104713 14.705344 28.595447 -1.228858 1.030658 0.134599 -0.028762 -81479.900000 0 0 1
8.073624 -24.169513 13.829744 28.993285 -1.248408 1.073560 0.137716 -0.035696 -169983.000000 0 0 1
8.260324 -25.404913 14.537444 30.413481 -1.256432 1.072427 0.144477 -0.041541 185042.000000 0 0 1
8.494424 -26.604213 13.567644 31.048677 -1.261739 1.118558 0.147695 -0.054413 445965.000000 0 0 1
9.763324 -26.652913 12.916344 31.185448 -1.219663 1.143756 0.124024 -0.043319 291491.000000 0 0 1
9.846524 -27.785813 12.071444 31.854751 -1.230232 1.182132 0.115306 -0.053083 927414.000000 0 0 1
11.302024 -28.050813 11.497644 32.353974 -1.187782 1.207486 0.109722 -0.045632 1170710.000000 0 0 1
12.190124 -28.557913 12.481644 33.465578 -1.167354 1.188589 0.089119 -0.039921 -27350.800000 0 0 1
13.406924 -28.969213 11.915644 34.072620 -1.137350 1.213531 0.131638 -0.034974 -345580.000000 0 0 1
14.355524 -29.740613 12.835644 35.430761 -1.121092 1.200090 0.112051 -0.040838 -777539.000000 0 0 1
14.987324 -28.850213 13.755444 35.301089 -1.091681 1.170533 0.099568 -0.034966 18210.900000 0 0 1
15.898824 -29.517713 14.600344 36.568265 -1.076732 1.160084 0.081816 -0.028900 -94604.300000 0 0 1
17.301924 -29.642713 13.985244 37.062569 -1.042462 1.183872 0.090012 -0.018642 -878260.000000 0 0 1
17.903024 -28.423813 13.647044 36.258422 -1.008710 1.184908 0.066751 -0.023906 -386010.000000 0 0 1
19.111124 -28.502413 12.972744 36.686709 -0.980138 1.209370 0.068662 -0.021497 -519916.000000 0 0 1
19.931224 -27.221113 12.768444 36.073201 -0.938787 1.208995 0.028769 -0.018191 2668070.000000 0 0 1
21.353824 -27.552113 12.439144 37.011309 -0.911465 1.228034 0.027437 -0.021837 2752220.000000 0 0 1
22.162524 -26.394013 12.238444 36.573226 -0.872324 1.229585 0.012459 -0.013004 -281760.000000 0 0 1
23.488824 -26.664213 11.537844 37.360767 -0.848628 1.256842 0.028283 -0.015470 -1095070.000000 0 0 1
24.349924 -27.297313 12.369144 38.614217 -0.842404 1.244723 0.039079 -0.021283 -1108350.000000 0 0 1
25.353924 -27.947413 11.680544 39.500815 -0.834017 1.270604 0.037120 -0.027590 -1127930.000000 0 0 1
26.460724 -28.660313 12.483844 40.956437 -0.825282 1.261060 0.047886 -0.025658 -186048.000000 0 0 1
27.479924 -27.866313 13.051744 41.255613 -0.792379 1.248903 0.038628 -0.025406 208456.000000 0 0 1
28.549524 -27.701113 12.129944 41.588009 -0.770317 1.274825 0.025656 -0.026273 -350367.000000 0 0 1
29.794724 -26.939613 12.644644 42.111225 -0.735116 1.265823 0.054331 -0.036783 -152990.000000 0 0 1
29.693624 -25.518013 12.835744 41.202385 -0.709913 1.253994 0.053220 -0.040052 190535.000000 0 0 1
28.918524 -25.075813 13.928744 40.731895 -0.714349 1.221793 0.055135 -0.033036 84077.900000 0 0 1
29.890524 -24.682013 15.086944 41.596406 -0.690244 1.199635 0.036239 -0.013759 428530.000000 0 0 1
30.347124 -25.873313 15.720044 42.866024 -0.705989 1.195310 0.048375 -0.019608 207694.000000 0 0 1
31.150424 -25.628613 16.886344 43.730119 -0.688452 1.174343 0.060866 0.002488 239038.000000 0 0 1
31.433924 -26.885013 17.770144 45.018590 -0.707555 1.165023 0.050982 0.018747 130737.000000 0 0 1
30.290124 -27.513313 18.327344 44.837099 -0.737396 1.149708 0.027171 0.008939 75549.800000 0 0 1
30.686424 -28.733813 19.012244 46.138422 -0.752549 1.146072 0.051677 -0.000827 390466.000000 0 0 1
29.509624 -29.623213 19.522944 46.146484 -0.787319 1.133971 0.034242 0.011402 -651034.000000 0 0 1
28.749224 -28.969513 20.591344 45.713827 -0.789215 1.103538 0.023840 0.014612 379076.000000 0 0 1
27.745824 -29.743913 21.196544 45.867467 -0.820140 1.090405 0.025782 0.008103 923624.000000 0 0 1
26.613124 -30.382713 20.292644 45.201316 -0.851440 1.105218 0.059731 -0.004856 -652661.000000 0 0 1
27.154724 -31.364213 19.447744 45.818201 -0.857208 1.132437 0.057688 -0.002548 -491499.000000 0 0 1
26.390224 -31.684713 18.322544 45.122949 -0.876313 1.152660 0.067490 -0.003943 -607637.000000 0 0 1
26.595524 -30.766513 17.051744 44.098324 -0.857984 1.173772 0.059932 -0.002525 302595.000000 0 0 1
27.894224 -30.929513 16.487844 44.794770 -0.836952 1.193858 0.045224 -0.004863 266452.000000 0 0 1
28.119924 -29.869713 15.602744 43.890494 -0.815563 1.207355 0.040138 -0.019394 -62104.100000 0 0 1
29.588524 -29.851413 15.098044 44.660256 -0.789821 1.225937 0.064061 -0.016092 101538.000000 0 0 1
30.021324 -30.878013 14.186144 45.342896 -0.799465 1.252590 0.091440 -0.008534 202625.000000 0 0 1
30.051724 -32.193013 14.644644 46.410793 -0.819786 1.249767 0.092238 -0.018175 -399586.000000 0 0 1
29.169624 -33.263613 13.904544 46.375330 -0.850878 1.266286 0.097151 -0.020717 -63049.700000 0 0 1
29.479024 -33.570813 12.570844 46.411619 -0.850205 1.296515 0.094953 -0.018933 162958.000000 0 0 1
28.681324 33.019710 12.077344 45.373801 0.855596 1.301374 0.089406 -0.029474 -183845.000000 0 0 1
29.073124 32.569910 10.629344 44.933601 0.842064 1.331976 0.099264 -0.032894 44081.600000 0 0 1
30.349924 31.944810 10.724444 45.349779 0.810995 1.332052 0.076376 -0.029279 409171.000000 0 0 1
30.602424 31.208210 9.590444 44.748602 0.795199 1.354802 0.074875 -0.036532 -97830.800000 0 0 1
32.087024 30.782810 9.545544 45.478302 0.764656 1.359332 0.058480 -0.026548 -21738.700000 0 0 1
32.399824 29.796510 10.486344 45.249796 0.743566 1.336927 0.049069 -0.011025 420252.000000 0 0 1
33.788424 29.491010 10.501544 46.061477 0.717591 1.340784 0.051198 -0.008020 311799.000000 0 0 1
34.213824 28.551110 11.656144 46.061017 0.695421 1.314956 0.046761 -0.009460 -118588.000000 0 0 1
33.821724 27.198810 11.572044 44.917663 0.677286 1.310230 0.048655 -0.013069 283241.000000 0 0 1
34.098124 26.556210 12.844244 45.087570 0.661691 1.281922 0.061231 -0.030280 6619.080000 0 0 1
33.988224 25.009110 12.812644 44.100100 0.634362 1.276010 0.052545 -0.028752 509573.000000 0 0 1
34.939824 24.434110 11.880444 44.260162 0.610269 1.299041 0.055358 -0.014705 379344.000000 0 0 1
35.018624 22.999610 11.838344 43.536565 0.581128 1.295412 0.068053 -0.017762 221596.000000 0 0 1
33.817524 22.312110 11.085244 42.004021 0.583219 1.303724 0.062762 -0.011774 -376525.000000 0 0 1
32.740424 22.098410 11.890944 41.251299 0.593721 1.278391 0.088545 -0.031381 -801968.000000 0 0 1
31.557824 22.407910 11.155444 40.279705 0.617445 1.290178 0.089003 -0.024961 67993.800000 0 0 1
30.233124 22.207510 11.909344 39.357944 0.633535 1.263387 0.088815 -0.027849 -115133.000000 0 0 1
30.049324 22.953910 13.060344 40.005205 0.652322 1.238234 0.099935 -0.021882 -534424.000000 0 0 1
28.844324 22.627210 13.673244 39.127270 0.665193 1.213806 0.144812 -0.037434 -560604.000000 0 0 1
25.087224 9.826110 25.751953 37.270422 0.373312 0.807996 0.042525 0.003779 -301248.000000 0 0 1
24.973924 8.428210 25.967103 37.000298 0.325478 0.792864 0.043651 -0.005130 982373.000000 0 0 1
23.574224 8.118310 26.064003 36.069145 0.331653 0.763223 0.058379 -0.011288 614052.000000 0 0 1
23.341124 6.813410 26.889683 36.253078 0.284015 0.735163 0.072136 -0.011437 -171972.000000 0 0 1
23.544724 6.845310 28.297893 37.443064 0.282937 0.713986 0.075694 -0.006522 715408.000000 0 0 1
24.919324 6.913110 28.684793 38.620994 0.270614 0.733665 0.051363 -0.008693 337895.000000 0 0 1
25.020824 6.896910 30.189563 39.812294 0.268967 0.710099 0.066240 -0.006532 -147547.000000 0 0 1
24.893224 8.171510 30.891943 40.506275 0.317180 0.703402 0.087942 -0.015706 237244.000000 0 0 1
24.928624 7.991810 32.308425 41.582925 0.310236 0.680968 0.098551 -0.014581 -114371.000000 0 0 1
25.002624 9.268710 33.157039 42.549141 0.355004 0.677305 0.132500 -0.021356 128553.000000 0 0 1
26.146524 10.077710 32.844375 43.173533 0.367885 0.706325 0.107871 -0.023573 270117.000000 0 0 1
26.819024 10.481610 -33.731526 44.350198 0.372574 2.434990 0.125507 -0.021037 185100.000000 0 0 1
27.972824 11.482810 33.755233 45.318314 0.389524 0.730490 0.105802 -0.025881 18162.600000 0 0 1
27.547824 12.768410 33.289514 45.056705 0.434023 0.739455 0.105212 -0.030959 80268.300000 0 0 1
27.126824 13.577110 -33.429786 45.141479 0.464052 2.404693 0.115110 -0.038811 -293986.000000 0 0 1
26.617224 14.938910 -33.851976 45.580741 0.511439 2.407862 0.113942 -0.038300 -590499.000000 0 0 1
27.636924 15.720110 33.278837 46.026106 0.517169 0.762600 0.105214 -0.040031 272196.000000 0 0 1
27.561724 17.136310 33.362902 46.544441 0.556254 0.771599 0.116806 -0.051036 -332454.000000 0 0 1
27.975924 17.861810 -33.091266 46.869270 0.568228 2.354678 0.111486 -0.056129 -484746.000000 0 0 1
27.217624 17.563910 -31.928436 45.483129 0.573074 2.348976 0.125970 -0.053897 449275.000000 0 0 1
28.008624 16.837710 -30.979716 45.030371 0.541273 2.329490 0.121091 -0.043172 272976.000000 0 0 1
27.130824 16.133610 -29.898776 43.477716 0.536484 2.329086 0.127635 -0.037073 39081.400000 0 0 1
26.218524 15.201310 -30.359686 42.897568 0.525429 2.357069 0.143487 -0.031567 -360116.000000 0 0 1
25.474524 14.550110 -29.381846 41.520476 0.518946 2.356959 0.163805 -0.031833 -406109.000000 0 0 1
24.574124 13.493710 -30.007596 41.066088 0.502154 2.390165 0.130340 -0.024835 -299342.000000 0 0 1
23.613224 13.963610 -31.001426 41.396318 0.534033 2.417187 0.151428 -0.028746 999868.000000 0 0 1
23.041724 12.916010 -31.762706 41.311183 0.510906 2.447860 0.123815 -0.027473 -368867.000000 0 0 1
22.140924 11.917410 -31.018956 39.930199 0.493779 2.460412 0.133241 -0.033454 -314458.000000 0 0 1
20.932624 12.544510 -30.542146 39.094273 0.539890 2.467452 0.163321 -0.029432 664932.000000 0 0 1
20.333124 11.667310 -29.607636 37.764721 0.520938 2.471884 0.147453 -0.023592 -216292.000000 0 0 1
19.061524 12.234410 -28.936476 36.747002 0.570616 2.477459 0.138084 -0.011821 141845.000000 0 0 1
18.054124 12.502810 -29.906786 37.103740 0.605687 2.508213 0.103405 -0.003692 -990390.000000 0 0 1
16.912024 12.876010 -29.265646 36.170240 0.650727 2.513430 0.095447 -0.011206 -1172550.000000 0 0 1
15.702024 13.122310 -30.192016 36.473366 0.696138 2.545940 0.086875 -0.016486 21063.500000 0 0 1
15.024424 12.008110 -30.739616 36.260888 0.674277 2.582496 0.075271 -0.005910 752101.000000 0 0 1
13.701924 11.893210 -30.197606 35.229059 0.714849 2.600563 0.067997 -0.012961 240941.000000 0 0 1
12.593424 11.398610 -31.115296 35.449743 0.735639 2.641900 0.072123 -0.010819 -245736.000000 0 0 1
12.113224 12.409710 -31.964566 36.365706 0.797488 2.644506 0.077414 -0.010596 125142.000000 0 0 1
11.132424 11.884710 -32.852496 36.666929 0.818070 2.681409 0.082100 -0.005828 108230.000000 0 0 1
10.703624 12.848910 33.778093 37.691135 0.876233 0.459710 0.097959 -0.015457 25515.500000 0 0 1
11.656824 12.998410 32.737403 37.102261 0.839758 0.489951 0.076864 -0.006598 309024.000000 0 0 1
11.069124 13.535610 31.586523 36.103278 0.885309 0.505580 0.084086 -0.017224 -164455.000000 0 0 1
11.981424 13.364610 30.349223 35.259647 0.839916 0.534084 0.079988 -0.015810 -133596.000000 0 0 1
12.078724 11.987710 29.943743 34.441669 0.781616 0.516800 0.085210 -0.018610 185265.000000 0 0 1
12.349724 11.856810 28.581953 33.317078 0.765038 0.539673 0.092077 -0.017778 -622148.000000 0 0 1
12.987124 10.526310 28.158513 32.747068 0.681122 0.535764 0.105691 -0.011430 563049.000000 0 0 1
12.109924 9.334310 28.240773 32.114185 0.656680 0.496225 0.111661 -0.020899 846722.000000 0 0 1
12.821724 8.144310 27.957323 31.817264 0.565898 0.497698 0.103018 -0.026720 -67600.100000 0 0 1
12.002324 6.817410 28.024543 31.239524 0.516563 0.457666 0.093207 -0.019676 69866.300000 0 0 1
10.940924 6.704810 27.091653 29.976924 0.549792 0.442345 0.091557 -0.016590 256755.000000 0 0 1
9.933624 5.787010 27.497863 29.804343 0.527503 0.395997 0.080869 -0.026638 316521.000000 0 0 1
10.355424 4.305510 27.176373 29.399447 0.394030 0.391379 0.077123 -0.025205 842.300000 0 0 1
11.183024 3.596410 28.084263 30.442077 0.311150 0.396165 0.086207 -0.026841 282718.000000 0 0 1
11.410524 2.346010 27.498983 29.864660 0.202775 0.400704 0.074750 -0.023215 19404.100000 0 0 1
11.942324 1.221010 28.448113 30.877259 0.101888 0.399311 0.060195 -0.022098 -92899.400000 0 0 1
10.885924 0.712710 29.214513 31.184917 0.065378 0.357383 0.053252 -0.019245 -218969.000000 0 0 1
11.244024 -0.302490 30.059983 32.095516 -0.026896 0.358059 0.065712 -0.027707 -258406.000000 0 0 1
10.246824 -0.358490 31.202303 32.843715 -0.034971 0.317485 0.077979 -0.025035 -91890.400000 0 0 1
10.508624 0.643410 32.153031 33.832862 0.061151 0.316440 0.058795 -0.025800 617084.000000 0 0 1
9.306024 0.818310 32.914693 34.214745 0.087708 0.276550 0.073317 -0.031305 525360.000000 0 0 1
9.333324 2.226910 33.675707 35.016044 0.234219 0.277577 0.076899 -0.034016 -646.687000 0 0 1
9.240424 3.425010 32.837595 34.284454 0.354956 0.291554 0.053789 -0.028316 442100.000000 0 0 1
10.348924 3.663810 31.969127 33.801610 0.340259 0.330787 0.061474 -0.028256 -47941.100000 0 0 1
10.373424 5.077910 31.295023 33.358231 0.455222 0.353549 0.064894 -0.022167 39693.600000 0 0 1
10.664624 6.119910 32.200680 34.468410 0.520971 0.364763 0.064657 -0.020798 -88032.700000 0 0 1
10.840924 7.304110 31.463963 34.071346 0.592893 0.393760 0.069197 -0.022136 -327652.000000 0 0 1
10.902424 8.624110 32.234894 35.104509 0.669246 0.407145 0.082900 -0.023984 -585132.000000 0 0 1
9.731224 9.065310 32.844437 35.434921 0.749986 0.384744 0.094754 -0.025318 -523313.000000 0 0 1
9.310124 8.291310 -33.804236 36.029857 0.727580 2.788271 0.083085 -0.027032 124807.000000 0 0 1
7.878124 8.758610 -33.372726 35.390916 0.838273 2.802252 0.090652 -0.029697 490234.000000 0 0 1
7.345724 7.839010 -32.421746 34.155225 0.817872 2.821630 0.098512 -0.023767 -831369.000000 0 0 1
6.005024 8.132410 -32.231516 33.779684 0.934757 2.837666 0.083159 -0.028974 -713918.000000 0 0 1
5.483524 7.423610 -30.958106 32.304541 0.934592 2.851861 0.093546 -0.024874 -311433.000000 0 0 1
5.892324 8.066210 -29.784446 31.414908 0.939896 2.818000 0.099512 -0.030106 96268.800000 0 0 1
5.403224 7.542810 -28.562776 30.032000 0.949187 2.827503 0.095030 -0.031264 131092.000000 0 0 1
3.924524 7.699310 -28.145856 29.442664 1.099400 2.843692 0.084598 -0.031697 -145511.000000 0 0 1
2.970924 6.900610 -28.769156 29.733973 1.164251 2.886151 0.061704 -0.025879 128952.000000 0 0 1
1.689224 7.030110 -28.154556 29.068109 1.334983 2.890220 0.073604 -0.016293 608655.000000 0 0 1
0.528224 6.603810 -29.091126 29.835934 1.490979 2.917682 0.064297 -0.031993 -120024.000000 0 0 1
0.403424 7.349810 -30.251946 31.134590 1.515962 2.902912 0.066655 -0.032205 -364280.000000 0 0 1
-0.231676 6.624110 -31.217546 31.913441 -1.535836 2.932378 0.095153 -0.037337 -944791.000000 0 0 1
-0.216976 7.425910 -32.564716 33.401377 -1.541586 2.917298 0.110348 -0.042216 516657.000000 0 0 1
1.043224 7.839510 -33.141486 34.072046 1.438501 2.907342 0.073134 -0.027377 748274.000000 0 0 1
1.923024 6.836210 -33.599616 34.341899 1.296583 2.933301 0.079458 -0.034974 -128578.000000 0 0 1
1.826624 6.569710 32.595257 33.300877 1.299609 0.206226 0.105028 -0.042203 -58564.700000 0 0 1
0.842524 5.617810 32.202130 32.699340 1.421932 0.174609 0.107162 -0.041525 -33159.200000 0 0 1
0.628124 5.610810 30.809393 31.322427 1.459312 0.181240 0.134908 -0.041137 253486.000000 0 0 1
1.324824 4.552010 29.862873 30.236851 1.287579 0.157441 0.142192 -0.044734 211365.000000 0 0 1
0.954824 4.767410 28.513513 28.925081 1.373130 0.168894 0.124580 -0.040653 323819.000000 0 0 1
1.669624 3.909010 27.590483 27.915995 1.167130 0.152860 0.104996 -0.030523 338414.000000 0 0 1
1.636724 4.448510 26.158783 26.584771 1.218242 0.179258 0.100050 -0.031760 -274504.000000 0 0 1
2.402124 5.587110 26.012473 26.713943 1.164749 0.229671 0.112232 -0.029950 -355343.000000 0 0 1
2.240424 6.185910 24.735813 25.595809 1.223311 0.259957 0.095805 -0.030828 -500069.000000 0 0 1
3.066724 7.476910 24.530333 25.827238 1.181563 0.318247 0.100726 -0.030748 583520.000000 0 0 1
4.471524 7.479010 24.324103 25.837804 1.031940 0.343994 0.087098 -0.019234 141681.000000 0 0 1
4.957824 6.834510 23.199373 24.688084 0.943219 0.349047 0.072639 -0.023111 244895.000000 0 1 0
6.500424 6.501010 23.216903 24.970848 0.785443 0.377035 0.089458 -0.026015 1003440.000000 0 1 0
6.970824 5.516810 24.154683 25.738615 0.669484 0.352650 0.095190 -0.020585 52570.000000 0 0 1
6.412024 4.220710 24.156883 25.347257 0.582153 0.307685 0.096540 -0.023015 -708150.000000 0 0 1
6.604024 3.397010 22.805313 23.984060 0.475089 0.314817 0.092821 -0.023571 154177.000000 0 1 0
5.767424 3.745110 21.712083 22.775065 0.575922 0.306727 0.057529 -0.021526 65785.900000 0 1 0
4.408324 3.381310 21.860083 22.555040 0.654311 0.248882 0.056435 -0.031078 -112224.000000 0 1 0
3.434624 3.904010 20.784483 21.425048 0.849272 0.245145 0.018395 -0.031835 -15351.000000 0 1 0
3.261124 5.275910 20.882183 21.783841 1.017163 0.288721 0.017740 -0.032024 277361.000000 0 1 0
2.047924 5.691010 20.262883 21.146301 1.225371 0.290071 0.022069 -0.025357 118731.000000 0 1 0
1.841424 7.149110 20.764383 22.037700 1.318702 0.341597 0.037611 -0.007345 108763.000000 0 1 0
2.960124 7.919910 20.384783 22.068682 1.213116 0.393175 0.043280 -0.000597 -152025.000000 0 1 0
2.742724 9.348310 20.541483 22.734687 1.285412 0.442858 0.051608 -0.003444 -296335.000000 0 1 0
3.648924 10.249910 19.745783 22.544872 1.228790 0.503615 0.085036 -0.020521 -859257.000000 0 1 0
3.184224 10.458610 18.411883 21.413063 1.275253 0.535833 0.040523 -0.012239 -59451.600000 0 1 0
3.954124 11.330510 17.608683 21.309183 1.235030 0.598214 0.045684 -0.021087 -34390.400000 0 1 0
5.480724 11.204010 17.427683 21.431107 1.115846 0.621174 0.056856 -0.022514 -85038.300000 0 1 0
5.738624 9.903610 17.025183 20.515120 1.045626 0.591895 0.047163 -0.018609 812970.000000 0 1 0
7.106924 9.598510 17.404583 21.108275 0.933455 0.601410 0.044018 -0.009305 1183960.000000 0 1 0
7.158724 8.038010 17.643283 20.667423 0.843194 0.547793 0.052229 -0.019578 29653.400000 0 1 0
6.732624 7.711310 18.970383 21.556159 0.853052 0.494840 0.060938 -0.022055 12317.600000 0 1 0
6.957124 6.323510 19.335783 21.500253 0.737725 0.452566 0.064489 -0.036014 -37402.300000 0 1 0
8.366924 5.976410 19.892683 22.392895 0.620252 0.477062 0.096907 -0.027349 332852.000000 0 1 0
9.393424 6.005410 18.892583 21.936979 0.568831 0.533129 0.087799 -0.021931 453539.000000 0 1 0
10.539724 5.240710 19.295283 22.602185 0.461432 0.547764 0.113771 -0.021161 377148.000000 0 1 0
10.429324 3.698610 19.177783 22.141316 0.340799 0.523342 0.113322 -0.030676 -456120.000000 0 1 0
9.643624 3.176310 20.227983 22.633156 0.318178 0.465199 0.126965 -0.033535 119895.000000 0 1 0
9.515924 1.785610 20.102783 22.312846 0.185488 0.448840 0.112438 -0.043727 -26338.900000 0 1 0
8.674624 1.025010 21.163783 22.895534 0.117617 0.391434 0.105444 -0.034034 -339914.000000 0 1 0
9.275824 1.094810 22.445283 24.311114 0.117485 0.394336 0.134509 -0.040005 388168.000000 0 1 0
8.676824 0.171210 23.354873 24.915190 0.019729 0.355781 0.125447 -0.040901 -258833.000000 0 1 0
9.419724 0.340410 24.723713 26.459574 0.036122 0.364237 0.133306 -0.036862 490331.000000 0 0 1
10.765024 -0.114090 24.757123 26.996554 -0.010598 0.410184 0.127905 -0.040855 387020.000000 0 0 1
10.878424 -1.533790 24.721793 27.052905 -0.140070 0.418176 0.127392 -0.044304 -143877.000000 0 0 1
12.343824 -2.028990 24.903463 27.868787 -0.162916 0.465501 0.124889 -0.037734 320086.000000 0 0 1
12.519324 -3.369290 24.867783 28.044469 -0.262898 0.480580 0.126388 -0.026346 679454.000000 0 0 1
13.898724 -3.761490 24.878823 28.745072 -0.264304 0.524651 0.131979 -0.021238 665983.000000 0 0 1
14.149124 -5.308090 24.897393 29.124795 -0.358905 0.545531 0.137331 -0.021349 -87539.800000 0 0 1
13.642624 -5.883090 23.740593 28.006208 -0.407134 0.559180 0.152688 -0.033940 281640.000000 0 0 1
13.180324 -7.222890 23.919373 28.249380 -0.501311 0.561003 0.154539 -0.034146 243990.000000 0 0 1
12.875224 -8.064290 22.659283 27.280896 -0.559564 0.590627 0.153489 -0.027980 427115.000000 0 0 1
12.216224 -9.300490 22.961113 27.621512 -0.650708 0.589396 0.161666 -0.023959 -39772.500000 0 0 1
12.524624 -10.228990 21.956083 27.268444 -0.684847 0.634813 0.167590 -0.030043 160547.000000 0 0 1
11.928924 -11.629790 22.148783 27.714975 -0.772701 0.644895 0.188273 -0.028887 -641104.000000 0 0 1
10.549524 -11.703990 22.019383 27.076356 -0.837230 0.621110 0.171837 -0.019456 -1052270.000000 0 0 1
10.065024 -12.966190 22.362083 27.739674 -0.910705 0.633195 0.158418 -0.019063 96514.300000 0 0 1
8.523524 -13.045090 22.487683 27.359107 -0.992042 0.605979 0.119569 -0.013415 37086.800000 0 0 1
7.935924 -12.562090 21.339983 26.003459 -1.007368 0.608232 0.107263 -0.023119 1021070.000000 0 0 1
6.481924 -12.521790 21.469783 25.685835 -1.093127 0.581097 0.061446 -0.019862 1823020.000000 0 0 1
5.780324 -11.262490 20.927483 24.458442 -1.096615 0.544021 0.041861 -0.009769 23317.300000 0 1 0
5.774324 -10.075490 21.756483 24.661769 -1.050387 0.490293 0.050272 0.000246 -227669.000000 0 1 0
4.958924 -9.095090 21.155683 23.555775 -1.071622 0.455343 0.034343 0.000040 201861.000000 0 1 0
5.377024 -7.691590 21.635983 23.583653 -0.960689 0.409263 0.045286 -0.020981 326862.000000 0 1 0
4.574924 -6.639190 21.089283 22.578012 -0.967438 0.365170 0.027008 -0.022484 116086.000000 0 1 0
5.151424 -5.394090 21.362583 22.627270 -0.808405 0.335919 0.054595 -0.033055 53303.000000 0 1 0
-8.136176 -15.354190 -20.716856 27.039538 1.083516 2.443655 0.067952 0.001503 120366.000000 0 0 1
-7.557476 -14.928990 -19.507756 25.701026 1.102179 2.432613 0.043936 0.002755 -197505.000000 0 0 1
-6.971476 -13.649790 -19.765956 25.012222 1.098595 2.482016 0.060344 -0.006149 -175589.000000 0 0 1
-6.183476 -13.151890 -18.593656 23.599399 1.131305 2.478166 0.044724 -0.009868 -230568.000000 0 1 0
-5.083876 -13.973790 -18.276356 23.561362 1.221867 2.458607 0.043067 0.001602 -165418.000000 0 1 0
-4.487076 -13.562690 -17.078456 22.265535 1.251292 2.445004 0.043484 -0.004575 319895.000000 0 1 0
-3.560676 -14.557790 -16.317356 22.155445 1.330917 2.398669 0.042254 -0.003068 38787.700000 0 1 0
-2.326676 -14.764690 -16.918056 22.574988 1.414498 2.417976 0.037515 -0.011581 -1493610.000000 0 1 0
-1.451076 -15.529890 -16.197756 22.486672 1.477629 2.375070 0.039701 -0.007421 -397287.000000 0 1 0
-0.136076 -15.666790 -17.016456 23.130642 1.562111 2.397448 0.053543 -0.012186 165341.000000 0 1 0
-0.149176 -16.412490 -18.147456 24.468801 1.561707 2.406333 0.096670 -0.016473 -430043.000000 0 1 0
-0.411076 -17.793490 -18.028156 25.333608 1.547698 2.362612 0.082097 -0.012642 -54384.100000 0 0 1
-0.654376 -18.484690 -19.438556 26.832246 1.535410 2.381029 0.095766 -0.016989 -323837.000000 0 0 1
-1.865676 -18.016290 -19.939056 26.937583 1.467609 2.404156 0.114753 -0.021535 -723376.000000 0 0 1
-2.005376 -18.515990 -21.229756 28.241210 1.462912 2.421477 0.130071 -0.031266 1061810.000000 0 0 1
-3.201076 -17.786890 -22.007856 28.477466 1.392734 2.454064 0.133985 -0.032384 1064150.000000 0 0 1
-3.017776 -16.361690 -22.063856 27.633777 1.388405 2.495493 0.125059 -0.026835 -350047.000000 0 0 1
-3.353776 -15.599190 -20.915556 26.306711 1.359023 2.489912 0.098989 -0.008999 261553.000000 0 0 1
-2.564576 -14.227090 -20.672856 25.226060 1.392451 2.531341 0.090079 -0.010837 453161.000000 0 0 1
-2.809776 -13.241990 -21.667856 25.548799 1.361711 2.583179 0.085234 -0.019277 458637.000000 0 0 1
-1.943276 -12.074290 -21.510556 24.744066 1.411221 2.624625 0.073134 -0.007680 592860.000000 0 1 0
-1.897476 -11.086090 -22.695456 25.329539 1.401281 2.681491 0.081003 -0.011341 323047.000000 0 0 1
-3.090676 -10.305790 -22.808456 25.218788 1.279434 2.700822 0.079675 -0.009732 439953.000000 0 0 1
-3.210876 -9.598790 -24.000256 26.047241 1.247989 2.742496 0.095321 -0.019231 -344874.000000 0 0 1
-4.362576 -8.602490 -23.958456 25.827166 1.101461 2.758855 0.075982 -0.022327 -1559810.000000 0 0 1
-5.602576 -9.163090 -24.095056 26.380349 1.022016 2.722286 0.064043 -0.019176 -962494.000000 0 0 1
-6.539176 -8.155090 -23.766756 25.963918 0.894927 2.727238 0.080863 -0.025618 -576906.000000 0 0 1
-8.016976 -8.585690 -23.704456 26.455382 0.819639 2.681511 0.052615 -0.025836 22168.200000 0 0 1
-8.669276 -8.821090 -24.923256 27.823312 0.794078 2.680954 0.058245 -0.033593 -36319.600000 0 0 1
-9.218976 -7.632490 -25.457696 28.130743 0.691530 2.702124 0.044758 -0.031102 -551006.000000 0 0 1
-9.758676 -7.879890 -26.848876 29.634213 0.679282 2.704555 0.043605 -0.033705 -53062.900000 0 0 1
-10.458076 -6.723690 -27.297366 29.995426 0.571381 2.714203 0.045440 -0.038600 100366.000000 0 0 1
-10.976676 -7.044290 -28.605506 31.438582 0.570554 2.713804 0.058280 -0.035721 -91592.700000 0 0 1
-11.848176 -5.904190 -29.206516 32.066483 0.462303 2.716041 0.053538 -0.041266 -145507.000000 0 0 1
-11.208876 -4.851390 -29.888106 32.287363 0.408473 2.753653 0.025208 -0.033661 -223420.000000 0 0 1
-12.042176 -4.232090 -30.822106 33.360558 0.337956 2.748970 0.052395 -0.045686 -217170.000000 0 0 1
-11.150176 -3.293490 -31.634316 33.703167 0.287209 2.789391 0.038380 -0.038100 -2885.780000 0 0 1
-10.220576 -3.926190 -32.483086 34.278653 0.366765 2.816492 0.038874 -0.024232 -91217.700000 0 0 1
-9.605876 -2.929990 -33.258766 34.741952 0.296056 2.848339 0.036173 -0.022535 332867.000000 0 0 1
-8.408776 -3.350790 33.547106 34.746851 0.379202 0.263548 0.040675 -0.019524 -104078.000000 0 0 1
-7.259076 -3.618290 -33.504806 34.472572 0.462407 2.904081 0.058363 -0.026404 -1729800.000000 0 0 1
-6.185576 -4.007790 33.451512 34.253867 0.574915 0.216868 0.065415 -0.024351 -483987.000000 0 0 1
-4.886676 -3.417690 -33.742626 34.265508 0.610316 2.966672 0.095255 -0.030364 -362559.000000 0 0 1
-4.841476 -1.989190 -33.840946 34.243341 0.389837 2.988138 0.119938 -0.047100 181554.000000 0 0 1
-3.503976 -1.547390 -33.629916 33.847356 0.415855 3.028182 0.116825 -0.047333 484633.000000 0 0 1
-3.324576 -0.025490 -33.215356 33.381332 0.007667 3.041830 0.125248 -0.052698 1387.220000 0 0 1
-3.691676 0.095310 -31.840736 32.054174 -0.025812 3.026128 0.123142 -0.048679 -73021.100000 0 0 1
-4.458676 1.230010 -31.556176 31.893338 -0.269174 2.996058 0.148321 -0.045801 -479095.000000 0 0 1
-4.970876 1.122010 -30.066616 30.495408 -0.221997 2.973700 0.131044 -0.053680 427622.000000 0 0 1
-5.912776 0.088910 -29.769686 30.351327 -0.015036 2.945505 0.122444 -0.055449 28242.000000 0 0 1
-7.231476 0.421210 -30.120846 30.979623 -0.058181 2.905585 0.128382 -0.055206 -627671.000000 0 0 1
-8.219076 -0.741190 -30.144246 31.253450 0.089936 2.874375 0.101967 -0.054185 -89618.400000 0 0 1
-8.532076 -1.173590 -28.791746 30.052259 0.136693 2.850936 0.085403 -0.050298 278207.000000 0 0 1
-9.500376 -2.227190 -28.850936 30.456429 0.230273 2.815451 0.031689 -0.031789 12008.600000 0 0 1
-9.798776 -2.691690 -27.409926 29.232948 0.268084 2.786569 0.024046 -0.030991 -145896.000000 0 0 1
-10.560276 -1.765390 -26.646616 28.717211 0.165641 2.759529 0.032481 -0.030798 164779.000000 0 0 1
-10.875676 -2.238190 -25.366716 27.690434 0.202964 2.728995 0.030668 -0.034605 314912.000000 0 0 1
-11.854276 -1.345790 -24.547756 27.293357 0.113044 2.689201 0.050680 -0.033616 508846.000000 0 0 1
-11.165176 -0.197590 -24.133756 26.592074 0.017695 2.708220 0.051185 -0.035394 414644.000000 0 0 1
-12.064376 0.628610 -23.385356 26.321459 -0.052058 2.664758 0.072784 -0.035646 564482.000000 0 0 1
-11.413276 1.950810 -22.931556 25.689002 -0.169289 2.674010 0.082310 -0.036330 71243.200000 0 0 1
-11.046276 2.803510 -23.934256 26.509027 -0.248549 2.697200 0.068796 -0.031348 -227148.000000 0 0 1
-10.165376 3.820210 -23.531656 25.916553 -0.359477 2.709229 0.085627 -0.027312 -680151.000000 0 0 1
-10.242376 5.107710 -24.409156 26.959263 -0.462594 2.703138 0.114967 -0.040869 659209.000000 0 0 1
-11.535776 5.721010 -24.299956 27.500763 -0.460391 2.654314 0.108394 -0.043530 614944.000000 0 0 1
-12.419376 5.207510 -25.296806 28.658114 -0.397037 2.652395 0.091007 -0.040250 -202935.000000 0 0 1
-13.745776 6.010910 -25.286636 29.402234 -0.412235 2.606114 0.075785 -0.030459 -44181.800000 0 0 1
-13.693976 7.332410 -25.838496 30.148252 -0.491602 2.600309 0.083005 -0.034511 -510623.000000 0 0 1
-14.924676 7.877810 -26.196396 31.161788 -0.485669 2.569293 0.077499 -0.023407 -498897.000000 0 0 1
-14.902376 9.405910 -26.232046 31.601776 -0.563023 2.550050 0.094592 -0.025300 -92231.400000 0 0 1
-14.702876 9.908010 -24.923556 30.586384 -0.592982 2.523280 0.125095 -0.040680 -136689.000000 0 0 1
-15.155776 11.213910 -24.820756 31.169204 -0.637012 2.491988 0.097306 -0.034739 -187606.000000 0 0 1
-14.740476 11.803510 -23.411056 30.077933 -0.675201 2.462824 0.106014 -0.039898 142530.000000 0 0 1
-15.493276 11.223610 -22.354956 29.423717 -0.626927 2.433740 0.123739 -0.037652 169640.000000 0 0 1
-15.183576 11.811210 -21.095856 28.549621 -0.661115 2.402261 0.115994 -0.032573 -198447.000000 0 0 1
-16.330976 11.608410 -20.066756 28.357198 -0.617952 2.356952 0.117773 -0.036184 23988.300000 0 0 1
-17.467176 12.362410 -20.367156 29.542385 -0.615909 2.331486 0.097391 -0.033357 -73307.700000 0 0 1
-18.285676 12.669810 -19.228956 29.404809 -0.605933 2.283576 0.092507 -0.027321 401241.000000 0 0 1
-19.687576 13.181010 -19.666556 30.791446 -0.589968 2.263606 0.083541 -0.035871 123168.000000 0 0 1
-19.781776 14.474010 -20.193556 31.758390 -0.631675 2.259905 0.067348 -0.036768 740454.000000 0 0 1
-21.163576 14.805910 -20.386256 32.904580 -0.610453 2.238974 0.064748 -0.040418 755443.000000 0 0 1
-21.434776 16.149310 -21.108556 34.144121 -0.645684 2.237272 0.068312 -0.032673 -58182.600000 0 0 1
-21.176476 16.045410 -22.475656 34.800194 -0.648411 2.272931 0.074287 -0.030715 190295.000000 0 0 1
-21.635076 17.209710 -23.095656 36.023048 -0.671963 2.266773 0.074388 -0.018511 -39393.100000 0 0 1
-21.142376 17.190110 -24.575256 36.693912 -0.682656 2.304650 0.074080 -0.010404 -613790.000000 0 0 1
-19.750676 17.079110 -24.636656 35.899165 -0.712987 2.327150 0.066008 -0.017791 -562958.000000 0 0 1
-19.269976 17.012710 -25.959296 36.532853 -0.723265 2.361110 0.045373 -0.021684 -126489.000000 0 0 1
-18.956776 18.319610 -26.730336 37.543020 -0.768307 2.363128 0.039094 -0.019824 -559788.000000 0 0 1
-20.041876 19.204910 -26.818166 38.596884 -0.764076 2.338976 0.052219 -0.024268 152623.000000 0 0 1
-19.550076 20.447610 -27.215186 39.255275 -0.807834 2.336837 0.039517 -0.020791 -311346.000000 0 0 1
-20.764076 21.366010 -27.403316 40.479563 -0.799685 2.314430 0.082454 -0.019380 208099.000000 0 0 1
-21.491076 21.586110 -26.196246 40.175488 -0.787604 2.281076 0.106857 -0.012033 164080.000000 0 0 1
-22.601676 20.765710 -25.958726 40.198333 -0.743088 2.272823 0.146602 -0.022315 -454815.000000 0 0 1
-23.429376 21.214010 -24.729256 40.131110 -0.735815 2.234720 0.149823 -0.008161 145548.000000 0 0 1
-22.934476 20.611110 -23.566456 38.809611 -0.732094 2.223369 0.109992 -0.003857 119021.000000 0 0 1
-23.770976 20.945210 -22.479256 38.846855 -0.722289 2.187885 0.101747 -0.017490 126405.000000 0 0 1
-23.324476 20.318810 -21.151556 37.473639 -0.716638 2.170549 0.074750 -0.021145 681764.000000 0 0 1
-22.051276 20.743910 -20.650256 36.646987 -0.754858 2.169402 0.079353 -0.021863 517439.000000 0 0 1
-21.331476 19.931410 -19.737256 35.239925 -0.751481 2.165281 0.077336 -0.022178 -364582.000000 0 0 1
-21.949476 19.639110 -18.367756 34.710930 -0.729902 2.128411 0.084156 -0.029391 -665979.000000 0 0 1
-22.882276 18.560410 -18.485756 34.782332 -0.681488 2.131131 0.103737 -0.037175 526576.000000 0 0 1
-23.741976 18.281410 -17.363756 34.632231 -0.656181 2.095984 0.086419 -0.032253 826950.000000 0 0 1
-24.906776 19.295910 -17.137156 35.865886 -0.659138 2.068959 0.078544 -0.028751 -346249.000000 0 0 1
-25.934476 19.244710 -18.105156 37.023677 -0.638394 2.081757 0.077042 -0.018890 -480843.000000 0 0 1
-26.967866 20.024810 -17.620356 37.930671 -0.638712 2.053913 0.075757 -0.021242 -1142420.000000 0 0 1
-28.322966 20.024410 -18.383356 39.257040 -0.615410 2.058141 0.064130 -0.005820 579371.000000 0 0 1
-29.321076 19.087910 -18.054056 39.370329 -0.577075 2.047182 0.064536 -0.012940 114145.000000 0 0 1
-29.756676 19.104510 -16.716656 39.113792 -0.570748 2.012395 0.071598 -0.019570 -1187140.000000 0 0 1
-30.699746 17.938910 -16.363256 39.141220 -0.528821 2.002102 0.075930 -0.026547 -217085.000000 0 0 1
-30.163286 16.614710 -16.211256 38.061493 -0.503477 2.010778 0.109261 -0.048237 95600.200000 0 0 1
-31.143216 15.685810 -15.772956 38.271801 -0.466577 1.995587 0.101155 -0.040598 268646.000000 0 0 1
-30.476616 14.302310 -15.631356 37.117644 -0.438778 2.005487 0.149742 -0.037931 -137761.000000 0 0 1
-29.643846 14.095510 -14.510956 35.888841 -0.443852 1.987043 0.156270 -0.037874 265050.000000 0 0 1
-30.354886 14.122710 -13.244556 36.004005 -0.435466 1.947507 0.124045 -0.022332 575538.000000 0 0 1
-29.483796 14.641110 -12.031556 35.048748 -0.460909 1.921204 0.144898 -0.043593 462565.000000 0 0 1
-29.377936 16.047310 -11.917256 35.533088 -0.499949 1.912810 0.131006 -0.035231 280904.000000 0 0 1
-30.541826 16.649310 -11.341356 36.587280 -0.499098 1.885969 0.092992 -0.024158 516701.000000 0 0 1
-30.572846 18.172410 -11.397956 37.347675 -0.536290 1.880929 0.147373 -0.003227 160501.000000 0 0 1
-29.424446 18.790610 -10.847156 36.558800 -0.568323 1.872036 0.083271 -0.030130 -85514.400000 0 0 1
-29.553186 20.165910 -10.803856 37.373494 -0.598789 1.864060 0.039568 -0.022086 939968.000000 0 0 1
-28.167056 20.938810 -10.816656 36.726243 -0.639250 1.869751 0.119382 -0.026227 1041440.000000 0 0 1
-28.340526 22.300210 -10.532856 37.568948 -0.666681 1.854966 0.089916 -0.028985 -384694.000000 0 0 1
-27.054396 22.841210 -10.488356 36.927860 -0.701158 1.858783 0.086692 -0.018581 -601067.000000 0 0 1
-27.033536 24.324610 -10.108156 37.744848 -0.732701 1.841908 0.105208 -0.001745 32660.000000 0 0 1
-27.253776 24.590810 -8.736756 37.733370 -0.734079 1.804456 0.096114 -0.006787 537738.000000 0 0 1
-28.616636 24.450310 -8.316256 38.547240 -0.707048 1.788248 0.109188 -0.014470 267900.000000 0 0 1
-28.878866 24.008910 -6.814656 38.168786 -0.693576 1.750299 0.105723 -0.004917 -116484.000000 0 0 1
-28.953946 22.561310 -6.723156 37.316813 -0.661937 1.751950 0.125395 -0.029693 311245.000000 0 0 1
-29.188216 22.104310 -5.396256 37.009081 -0.648158 1.717127 0.101477 -0.014369 -836667.000000 0 0 1
-29.263296 20.558310 -5.224956 36.142562 -0.612421 1.715870 0.125921 -0.035049 729865.000000 0 0 1
-28.013816 19.823210 -5.209556 34.711281 -0.615824 1.721448 0.140417 -0.039137 864229.000000 0 0 1
-27.214806 19.839610 -6.356356 34.273300 -0.629925 1.757337 0.129534 -0.029459 -961568.000000 0 0 1
-27.552776 18.875310 -7.426556 34.213836 -0.600629 1.789601 0.141307 -0.033281 -413709.000000 0 0 1
-27.121926 17.521410 -7.282156 33.100280 -0.573575 1.792614 0.134538 -0.029308 295802.000000 0 0 1
-27.451696 16.865210 -8.492656 33.319006 -0.550911 1.828529 0.099983 -0.037590 5904.290000 0 0 1
-27.247906 15.331810 -8.361556 32.363999 -0.512525 1.832120 0.161105 -0.039475 137269.000000 0 0 1
-28.299156 14.661410 -7.701856 32.788989 -0.478012 1.807903 0.154255 -0.033133 -43066.400000 0 0 1
-28.284016 13.293810 -7.974956 32.253851 -0.439370 1.820644 0.161192 -0.042093 -125632.000000 0 0 1
-29.272586 12.484610 -7.139856 32.614833 -0.403136 1.791498 0.144534 -0.038480 -621316.000000 0 0 1
-30.611956 12.608410 -7.506556 33.947198 -0.390704 1.793764 0.154854 -0.035088 -550940.000000 0 0 1
-31.492426 11.812210 -6.742156 34.303905 -0.358842 1.768626 0.169094 -0.041530 160151.000000 0 0 1
-31.962296 10.495510 -7.442856 34.454901 -0.317278 1.788530 0.141256 -0.029261 -420106.000000 0 0 1
-30.887876 9.693110 -7.821456 33.304541 -0.304083 1.807857 0.151665 -0.028292 -207897.000000 0 0 1
-31.345766 8.397610 -8.082956 33.442654 -0.261756 1.814910 0.139162 -0.025938 -243446.000000 0 0 1
-30.179136 7.419510 -8.287656 32.163872 -0.241068 1.831406 0.170458 -0.031077 -172997.000000 0 0 1
-29.730136 7.531910 -9.639456 32.148558 -0.248122 1.875322 0.157450 -0.035185 57413.800000 0 0 1
-28.778606 6.544310 -9.937956 31.141598 -0.223599 1.895599 0.179833 -0.041851 -192334.000000 0 0 1
-28.137746 6.701810 -11.354056 31.073487 -0.233822 1.944852 0.149391 -0.034227 -219714.000000 0 0 1
-27.246036 7.777010 -11.443856 30.557981 -0.278043 1.954650 0.176212 -0.039803 -260509.000000 0 0 1
-26.470716 7.611610 -12.561556 30.272564 -0.279994 1.998683 0.159823 -0.025630 -523965.000000 0 0 1
-32.543286 25.937510 -33.551726 53.455947 -0.672919 2.249330 0.046250 -0.007556 28732.400000 0 0 1
-33.099436 27.195210 33.808153 54.572368 -0.687786 0.902677 0.046876 -0.020078 395420.000000 0 0 1
-32.970406 27.364510 32.429093 53.735558 -0.692751 0.922920 0.049650 -0.020990 -64621.100000 0 0 1
-33.113226 28.881910 32.167817 54.455661 -0.717251 0.938851 0.068474 -0.030381 -944.178000 0 0 1
-33.443876 29.251610 30.850293 54.091498 -0.718630 0.963882 0.094873 -0.025733 216797.000000 0 0 1
-33.401736 30.641010 30.730283 54.762193 -0.742317 0.975011 0.096178 -0.033146 -100637.000000 0 0 1
-33.208446 31.241010 29.283933 54.188102 -0.754881 0.999869 0.110168 -0.038200 59266.600000 0 0 1
-31.891406 31.021810 28.822513 53.010865 -0.771577 0.995946 0.097317 -0.032916 40399.800000 0 0 1
-31.595256 31.935110 27.788803 52.823566 -0.790748 1.016826 0.099909 -0.029465 350126.000000 0 0 1
-30.073886 31.854910 27.475543 51.711502 -0.814149 1.010634 0.124676 -0.026842 216043.000000 0 0 1
-29.700256 30.725710 26.652263 50.363853 -0.802367 1.013146 0.151026 -0.026234 946603.000000 0 0 1
-28.443066 30.921810 25.973813 49.394386 -0.827128 1.017088 0.123710 -0.021855 658490.000000 0 0 1
-28.596106 31.619510 24.610393 49.226032 -0.835566 1.047259 0.130255 -0.039177 -178031.000000 0 0 1
-28.924566 32.980310 24.672313 50.329459 -0.850820 1.058459 0.112592 -0.030618 -171729.000000 0 0 1
-30.147346 33.332410 24.065093 50.980788 -0.835531 1.079190 0.128219 -0.026687 -146592.000000 0 0 1
-30.642166 -32.943313 24.472633 51.216345 0.821572 1.072615 0.122743 -0.030372 -149823.000000 0 0 1
-30.914916 -32.954513 25.869003 52.066662 0.817321 1.050838 0.125138 -0.039260 120524.000000 0 0 1
-30.962926 -31.634113 26.324043 51.501215 0.796120 1.034292 0.096784 -0.038532 -293114.000000 0 0 1
-31.248166 -31.536013 27.818793 52.391347 0.789983 1.011039 0.107425 -0.041388 106895.000000 0 0 1
-32.563296 -31.981113 28.106643 53.601709 0.776379 1.018832 0.103560 -0.052300 129182.000000 0 0 1
-32.829166 -32.162313 29.519993 54.622326 0.775138 0.999838 0.084385 -0.042844 -853822.000000 0 0 1
-34.275505 -32.546713 29.705443 55.825730 0.759532 1.009705 0.093539 -0.047620 -695065.000000 0 0 1
-34.507674 -32.940913 31.050973 56.921404 0.762173 0.993803 0.090445 -0.047603 -1360020.000000 0 0 1
-35.802913 -33.293013 31.290383 58.046200 0.749089 1.001476 0.089555 -0.049911 -1464850.000000 0 0 1
-36.187076 33.770110 32.701041 59.323545 -0.750863 0.986956 0.112886 -0.046732 -39448.000000 0 0 1
-35.666776 32.475710 32.991097 58.439740 -0.738603 0.970930 0.079019 -0.034669 515344.000000 0 0 1
-36.585986 31.758510 33.823863 59.086302 -0.714881 0.961307 0.113386 -0.042185 628390.000000 0 0 1
-35.908410 30.499410 -33.326906 57.708844 -0.704126 2.186460 0.085927 -0.029361 1004380.000000 0 0 1
-34.985188 30.834010 -32.225656 56.685029 -0.722412 2.175482 0.088164 -0.031827 611989.000000 0 0 1
-34.312181 29.600410 -31.875096 55.403356 -0.711809 2.183801 0.060989 -0.025931 318553.000000 0 0 1
-33.597126 29.695410 -30.518566 54.239904 -0.723830 2.168395 0.055885 -0.023269 411154.000000 0 0 1
-34.517532 29.849210 -29.418306 54.294310 -0.712998 2.143410 0.075326 -0.025898 161788.000000 0 0 1
-34.874378 31.168910 -29.080926 55.076524 -0.729350 2.127051 0.070056 -0.015867 216266.000000 0 0 1
-36.143466 31.254510 -28.217796 55.492690 -0.712986 2.104233 0.084817 -0.017543 244945.000000 0 0 1
-35.772835 30.978910 -26.890076 54.428530 -0.713704 2.087531 0.082813 -0.030812 -203131.000000 0 0 1
-36.920236 30.775910 -26.118486 54.703161 -0.694883 2.068556 0.126098 -0.031352 -260025.000000 0 0 1
-36.648686 30.387710 -24.642856 53.607924 -0.692272 2.048439 0.118680 -0.037734 -129507.000000 0 0 1
-36.211856 31.490310 -23.793456 53.563670 -0.715771 2.031087 0.117241 -0.038014 66377.800000 0 0 1
-36.075766 31.195710 -22.432056 52.705127 -0.712982 2.010437 0.102725 -0.040468 37306.500000 0 0 1
-37.424276 30.917610 -21.705156 53.175078 -0.690477 1.991259 0.090171 -0.034771 257180.000000 0 0 1
36.714747 31.996310 -21.635756 53.290172 0.716835 1.988868 0.088234 -0.042229 48596.000000 0 0 1
37.012317 33.254010 -21.013056 54.011937 0.731962 1.970391 0.084867 -0.046968 -500547.000000 0 0 1
37.255577 33.209310 -19.545356 53.599041 0.728039 1.944063 0.070844 -0.041253 433053.000000 0 0 1
-36.649196 32.479010 -19.218056 52.605925 -0.725146 1.944774 0.069886 -0.045482 126203.000000 0 0 1
-36.531396 32.273910 -17.810156 51.897494 -0.723600 1.921096 0.063495 -0.036869 375271.000000 0 0 1
-35.288141 31.369110 -17.523556 50.362179 -0.726672 1.926181 0.081415 -0.042715 449924.000000 0 0 1
-35.337808 30.740410 -16.298156 49.591969 -0.715935 1.905665 0.043489 -0.028190 623325.000000 0 0 1
-34.073100 30.071310 -16.132956 48.223772 -0.723092 1.911917 0.072190 -0.031494 565195.000000 0 0 1
-33.656956 29.975910 -14.649956 47.391636 -0.727614 1.885070 0.061293 -0.020259 292942.000000 0 0 1
-34.718194 29.481110 -13.799256 47.591053 -0.704003 1.864976 0.051226 -0.010965 117016.000000 0 0 1
-34.261157 28.817110 -12.633956 46.517412 -0.699305 1.845848 0.073132 -0.014509 -803384.000000 0 0 1
-35.227071 28.295310 -11.611456 46.651871 -0.676705 1.822336 0.078852 -0.023390 -545610.000000 0 0 1
-34.508075 27.610410 -10.602356 45.448344 -0.674811 1.806249 0.110221 -0.021469 103751.000000 0 0 1
-35.302680 26.658810 -9.995456 45.352845 -0.646789 1.793014 0.112859 -0.034718 -200817.000000 0 0 1
-34.519221 25.858610 -8.936056 44.046538 -0.642930 1.775092 0.137191 -0.028104 -23529.200000 0 0 1
-34.233548 26.691510 -7.832856 44.110387 -0.662233 1.749317 0.124614 -0.026990 633274.000000 0 0 1
-32.975346 26.333210 -7.259056 42.819450 -0.673870 1.741146 0.109630 -0.033091 281500.000000 0 0 1
-32.615076 27.059010 -5.943356 42.793186 -0.692559 1.710132 0.107743 -0.038624 -577677.000000 0 0 1
-31.515706 26.476110 -5.337556 41.505586 -0.698714 1.699752 0.113998 -0.028454 -403171.000000 0 0 1
-31.384296 26.952810 -3.998456 41.562191 -0.709580 1.667150 0.103125 -0.017977 -199375.000000 0 0 1
-30.474876 26.092910 -3.149156 40.242704 -0.708089 1.649131 0.110601 -0.013352 -568865.000000 0 0 1
-31.047796 24.870910 -2.929356 39.888707 -0.675382 1.644301 0.099601 -0.009999 -162708.000000 0 0 1
-30.262306 24.093010 -2.071356 38.737202 -0.672382 1.624294 0.128799 -0.013857 148874.000000 0 0 1
-31.098446 22.915410 -1.530556 38.659695 -0.635043 1.610397 0.124862 -0.022583 27293.800000 0 0 1
-31.678426 22.129510 -2.510956 38.723931 -0.609764 1.635684 0.121868 -0.028863 198788.000000 0 0 1
-32.486466 21.045110 -2.028456 38.760570 -0.574835 1.623153 0.112816 -0.026738 340986.000000 0 0 1
-33.133946 20.234310 -3.168756 38.952878 -0.548237 1.652235 0.144564 -0.024716 121866.000000 0 0 1
-32.182056 19.534210 -3.933256 37.851560 -0.545544 1.674897 0.138487 -0.028056 475789.000000 0 0 1
-32.875336 18.633110 -4.846356 38.098133 -0.515635 1.698349 0.132861 -0.027513 180071.000000 0 0 1
-31.870546 17.819710 -5.645456 36.947868 -0.509824 1.724192 0.112572 -0.042482 -415385.000000 0 0 1
-31.092876 16.983510 -4.824156 35.755826 -0.499935 1.706128 0.164401 -0.038585 23841.100000 0 0 1
-30.415946 16.029510 -5.648656 34.842249 -0.485021 1.733636 0.159007 -0.046988 -282243.000000 0 0 1
-29.897826 14.934810 -4.707356 33.750375 -0.463270 1.710728 0.174830 -0.039658 -420754.000000 0 0 1
-30.879476 14.122910 -4.123156 34.205249 -0.428954 1.691632 0.177764 -0.042668 297164.000000 0 0 1
-30.288436 12.983810 -3.439656 33.133064 -0.404977 1.674797 0.197868 -0.051866 254842.000000 0 0 1
-31.330296 12.164910 -2.637656 33.712457 -0.370362 1.649116 0.179871 -0.055012 385942.000000 0 0 1
-32.241476 11.473210 -3.483756 34.398894 -0.341879 1.672245 0.133924 -0.037986 484306.000000 0 0 1
-33.225316 10.726910 -2.797756 35.025929 -0.312289 1.650758 0.140508 -0.034592 947460.000000 0 0 1
-34.460896 10.126310 -3.591456 36.097010 -0.285804 1.670456 0.114869 -0.025108 713802.000000 0 0 1
-34.142700 9.132710 -4.523256 35.631310 -0.261368 1.698086 0.129493 -0.030032 -324855.000000 0 0 1
-35.240179 8.513910 -5.101856 36.611280 -0.237054 1.710603 0.131768 -0.027011 -517016.000000 0 0 1
-34.788759 7.496910 -6.227856 36.128211 -0.212252 1.744044 0.139270 -0.031074 -44814.700000 0 0 1
-33.827146 6.583410 -5.767656 34.941136 -0.192216 1.736623 0.142486 -0.037266 267696.000000 0 0 1
-33.499776 5.637110 -6.806256 34.645882 -0.166711 1.768535 0.149596 -0.035457 -529246.000000 0 0 1
-32.483886 4.604810 -6.368056 33.420941 -0.140819 1.762509 0.174332 -0.039460 -944166.000000 0 0 1
-31.171096 5.059810 -6.338356 32.208907 -0.160920 1.768878 0.176197 -0.041387 -657111.000000 0 0 1
-30.276926 4.021210 -6.065156 31.139180 -0.132042 1.766825 0.178852 -0.042605 -12319.400000 0 0 1
-28.827336 4.525210 -5.806056 29.752364 -0.155706 1.767203 0.214322 -0.046942 444382.000000 0 0 1
-28.074716 4.875510 -6.978756 29.337064 -0.171947 1.810981 0.210631 -0.041584 -100475.000000 0 0 1
-26.746146 4.487710 -6.794756 27.958265 -0.166241 1.816287 0.228961 -0.047589 -58627.500000 0 0 1
-25.767856 4.793910 -7.983556 27.398926 -0.183939 1.866468 0.208882 -0.042859 178417.000000 0 0 1
-25.970336 4.008910 -9.121456 27.816015 -0.153156 1.904898 0.203164 -0.053601 48644.700000 0 0 1
-24.976676 4.179110 -10.078556 27.255763 -0.165785 1.949565 0.195125 -0.053787 -229359.000000 0 0 1
-25.426776 3.371210 -11.392256 28.065451 -0.131816 1.988779 0.175056 -0.052739 -368126.000000 0 0 1
-26.414176 3.965610 -12.124856 29.333375 -0.149019 1.996923 0.163639 -0.038614 -382973.000000 0 0 1
-26.953586 3.253610 -13.213156 30.193862 -0.120130 2.023736 0.156044 -0.036879 -296904.000000 0 0 1
-27.963116 4.044410 -13.986256 31.526314 -0.143638 2.030450 0.135506 -0.030307 -731518.000000 0 0 1
-27.275246 5.101310 -14.701356 31.402107 -0.184895 2.058009 0.107227 -0.023216 255589.000000 0 0 1
-27.960526 6.033610 -15.500056 32.533786 -0.212531 2.067386 0.147385 -0.024646 -396225.000000 0 0 1
-28.827076 5.462710 -16.673256 33.746689 -0.187279 2.087562 0.081520 -0.011397 317536.000000 0 0 1
-29.987906 4.839810 -16.134956 34.395277 -0.160012 2.059072 0.090925 -0.018419 -251862.000000 0 0 1
-30.703126 4.208810 -17.154656 35.421438 -0.136232 2.076361 0.088008 -0.006640 466841.000000 0 0 1
-32.110386 3.641610 -16.741256 36.395163 -0.112927 2.048775 0.081734 -0.007190 429118.000000 0 0 1
-32.204646 2.556210 -15.786056 35.956544 -0.079208 2.025317 0.105833 -0.021060 134907.000000 0 0 1
-31.827106 1.348810 -16.371256 35.816226 -0.042354 2.045518 0.141696 -0.031157 -260912.000000 0 0 1
-31.911016 0.122610 -15.423556 35.443110 -0.003842 2.021016 0.152882 -0.028186 -318844.000000 0 0 1
-31.471156 -1.110590 -15.957856 35.303261 0.035274 2.039827 0.155807 -0.014437 302601.000000 0 0 1
-31.601886 -2.163890 -15.038756 35.064595 0.068367 2.014057 0.182743 -0.036766 -99246.200000 0 0 1
-31.458036 -3.579490 -15.709756 35.344267 0.113299 2.031388 0.171282 -0.025366 676544.000000 0 0 1
-32.447026 -3.780390 -16.760656 36.715398 0.115987 2.044856 0.177040 -0.028506 836185.000000 0 0 1
-32.117126 -4.934590 -17.569656 36.939854 0.152451 2.066475 0.168297 -0.020042 325683.000000 0 0 1
-33.148896 -5.211390 -18.738056 38.433353 0.155935 2.080074 0.173643 -0.016205 325640.000000 0 0 1
-32.796066 -6.212190 -19.669456 38.743526 0.187201 2.103290 0.163014 -0.017442 348842.000000 0 0 1
-33.629926 -6.079490 -20.836856 40.026325 0.178845 2.118325 0.153984 -0.017735 306584.000000 0 0 1
-33.316016 -7.192590 -21.905056 40.515698 0.212627 2.142013 0.148030 -0.017188 -656209.000000 0 0 1
-32.132176 -7.062890 -22.612556 39.921033 0.216367 2.172966 0.145637 -0.011796 -659538.000000 0 0 1
-32.030986 -7.983490 -23.682956 40.627609 0.244266 2.193124 0.131968 -0.010313 -643746.000000 0 0 1
-30.744716 -7.843390 -24.464256 40.065648 0.249785 2.227620 0.113725 -0.002665 -803080.000000 0 0 1
-30.556646 -6.736590 -25.343836 40.266615 0.216991 2.251578 0.099339 -0.000982 -152707.000000 0 0 1
-30.726126 -6.976190 -26.738346 41.324342 0.223259 2.274487 0.080472 -0.004624 197948.000000 0 0 1
-32.117616 -7.157690 -27.423716 42.834962 0.219275 2.265578 0.107108 -0.001022 168183.000000 0 0 1
-32.815716 -8.247790 -26.861786 43.202463 0.246236 2.241791 0.109724 -0.012427 -515395.000000 0 0 1
-34.086132 -8.388290 -27.441066 44.556031 0.241296 2.234296 0.110664 -0.014750 -35786.000000 0 0 1
-34.967368 -9.415290 -26.713006 44.999435 0.263021 2.206358 0.095450 -0.016316 -567775.000000 0 0 1
-34.561965 -10.765090 -26.936756 45.122117 0.301948 2.210521 0.100877 -0.009221 -292448.000000 0 0 1
-35.410287 -11.806590 -26.573806 45.819768 0.321831 2.189481 0.083639 -0.015243 464017.000000 0 0 1
-36.732426 -12.031490 -27.436466 47.400291 0.316531 2.188083 0.071476 -0.006075 1001230.000000 0 0 1
37.452127 -10.925790 -27.197096 47.557509 -0.283850 2.179590 0.068495 -0.021225 -46178.500000 0 0 1
36.635217 -10.774290 -28.340716 47.554396 -0.286032 2.209262 0.066180 -0.022524 -32135.400000 0 0 1
35.495097 -9.764090 -28.099916 46.312467 -0.268443 2.222757 0.080126 -0.019458 250925.000000 0 0 1
34.430637 -10.127690 -27.220266 45.044220 -0.286079 2.219685 0.058954 -0.018851 -36889.000000 0 0 1
33.467977 -9.121090 -27.281886 44.131633 -0.266070 2.237239 0.052563 -0.026484 365865.000000 0 0 1
32.128537 -9.440690 -26.540006 42.728695 -0.285797 2.240978 0.053714 -0.014064 545346.000000 0 0 1
32.403957 -9.483390 -25.185946 42.122238 -0.284711 2.211706 0.037212 -0.000550 22950.500000 0 0 1
31.231957 -9.676890 -24.435056 40.818492 -0.300459 2.212582 0.023011 0.000278 -150482.000000 0 0 1
31.521127 -9.675690 -22.927456 40.160536 -0.297829 2.178392 0.013634 0.002017 -200230.000000 0 0 1
32.271007 -10.776790 -22.568356 40.827537 -0.322302 2.156484 -0.011007 0.003943 -219449.000000 0 0 1
32.539527 -10.657890 -21.194756 40.269456 -0.316525 2.125067 -0.004288 -0.001131 56467.400000 0 0 1
33.292347 -11.861690 -20.511156 40.863034 -0.342266 2.096647 0.024301 -0.008793 437245.000000 0 0 1
34.657977 -11.851790 -20.906856 42.175074 -0.329498 2.089455 0.033930 -0.008830 257572.000000 0 0 1
35.437547 -12.645290 -19.998356 42.610530 -0.342749 2.059327 0.065180 -0.011769 335586.000000 0 0 1
36.962227 -12.634990 -20.314056 44.028514 -0.329383 2.050351 0.084341 -0.024227 -313304.000000 0 0 1
-37.473256 -11.398590 -20.103456 44.026375 0.295287 2.044992 0.111973 -0.022598 177748.000000 0 0 1
37.499927 -10.380090 -21.081856 44.254213 -0.270042 2.067330 0.122703 -0.015481 -786080.000000 0 0 1
-36.754116 -10.598390 -22.363856 44.309514 0.280743 2.099853 0.093857 -0.024219 -148222.000000 0 0 1
-37.125876 -11.632890 -23.289956 45.343984 0.303647 2.110205 0.085155 -0.020686 -381275.000000 0 0 1
36.671987 -11.582590 -23.834056 45.244372 -0.305928 2.125610 0.081382 -0.014841 -471751.000000 0 0 1
36.222167 -12.813190 -24.689356 45.670422 -0.340002 2.141945 0.060342 -0.018433 -191181.000000 0 0 1
36.151027 -14.053290 -23.955556 45.587941 -0.370760 2.124076 0.041497 -0.023145 -91798.300000 0 0 1
34.901597 -14.279690 -23.378956 44.368982 -0.388362 2.125770 0.009651 -0.020918 -701333.000000 0 0 1
-30.681136 8.216010 -18.816856 36.917598 -0.261648 2.105631 0.059304 -0.003437 302549.000000 0 0 1
-29.382366 7.632110 -18.871356 35.744939 -0.254135 2.126975 0.058390 -0.000405 348043.000000 0 0 1
-28.680856 8.298010 -19.929456 35.897517 -0.281632 2.159371 0.081824 -0.021768 263854.000000 0 0 1
-27.306696 7.656710 -20.238556 34.840781 -0.273377 2.190614 0.077167 -0.018892 625610.000000 0 0 1
-26.265466 7.771810 -19.253556 33.480968 -0.287686 2.183473 0.084030 -0.023684 258799.000000 0 0 1
-25.278216 6.815110 -19.457356 32.619360 -0.263343 2.209926 0.097484 -0.025621 87162.300000 0 0 1
-23.896976 7.245010 -18.875756 31.302553 -0.294369 2.218065 0.070235 -0.024339 907151.000000 0 0 1
-23.150576 8.219810 -19.670156 31.471090 -0.341174 2.245957 0.071452 -0.022625 327184.000000 0 0 1
-21.789676 8.276010 -19.306856 30.266104 -0.362984 2.262569 0.071971 -0.018825 40350.900000 0 0 1
-21.057576 9.461310 -20.015656 30.554286 -0.422277 2.285092 0.076481 -0.012647 -182189.000000 0 0 1
-20.790476 9.213910 -21.376856 31.210736 -0.417167 2.325290 0.089247 -0.023083 74185.500000 0 0 1
-19.946376 10.131510 -22.025356 31.394613 -0.469977 2.348387 0.083290 -0.021188 -152882.000000 0 0 1
-19.010676 9.493110 -23.055256 31.353944 -0.463133 2.396939 0.100664 -0.016108 -103913.000000 0 0 1
-19.651676 8.989910 -24.210356 32.452245 -0.429043 2.412877 0.095134 -0.012229 -382248.000000 0 0 1
-18.782076 8.202910 -24.950856 32.289307 -0.411774 2.453924 0.085314 -0.008795 -563301.000000 0 0 1
-19.415776 7.180010 -25.914106 33.167240 -0.354207 2.467568 0.067876 -0.004598 -194723.000000 0 0 1
-19.876176 6.061710 -25.139576 32.616024 -0.296014 2.450851 0.083107 -0.003101 291526.000000 0 0 1
-20.572376 5.131310 -25.960176 33.518409 -0.244439 2.456729 0.068885 -0.003452 -561445.000000 0 0 1
-20.798376 3.803710 -25.177806 32.877996 -0.180886 2.443073 0.070178 -0.000657 295375.000000 0 0 1
-19.703376 2.925710 -24.889856 31.879269 -0.147411 2.466667 0.071943 0.000289 656237.000000 0 0 1
-18.620676 3.442310 -24.118556 30.664048 -0.182801 2.475985 0.069438 -0.006454 -432416.000000 0 0 1
-17.821676 2.278210 -23.552356 29.622894 -0.127144 2.489924 0.065433 -0.008072 -665839.000000 0 0 1
-18.368976 1.503510 -22.499556 29.084530 -0.081668 2.455286 0.075241 -0.009727 642457.000000 0 0 1
-19.566576 0.776310 -22.846356 30.090024 -0.039655 2.432982 0.071266 -0.010451 581424.000000 0 0 1
-20.108776 -0.013390 -21.647856 29.546451 0.000666 2.393036 0.084825 -0.013396 -87523.700000 0 0 1
-19.315876 -1.166690 -21.393456 28.846910 0.060327 2.406279 0.105257 -0.020277 266641.000000 0 0 1
-19.814376 -1.949290 -20.371656 28.485323 0.098062 2.367654 0.088966 -0.018874 -204530.000000 0 0 1
-19.005876 -3.263690 -20.241556 27.957031 0.170061 2.380414 0.082046 -0.034768 37180.400000 0 0 1
-19.236176 -4.164890 -21.317556 29.014048 0.213222 2.396068 0.090835 -0.040993 347024.000000 0 0 1
-19.402876 -5.494490 -20.860456 29.014129 0.275954 2.373124 0.090986 -0.034678 -513961.000000 0 0 1
-19.397876 -6.466690 -22.084256 30.096678 0.321784 2.394661 0.075076 -0.036187 166383.000000 0 0 1
-18.078276 -6.660290 -22.578156 29.680914 0.352984 2.435181 0.084915 -0.032549 234828.000000 0 0 1
-18.020676 -7.210190 -23.880256 30.773337 0.380598 2.459103 0.098993 -0.034731 264744.000000 0 0 1
-16.623176 -7.700790 -24.347756 30.470402 0.433823 2.496531 0.084786 -0.034196 -391474.000000 0 0 1
-16.699476 -8.121090 -25.741896 31.740665 0.452634 2.516667 0.094265 -0.055236 -31789.900000 0 0 1
-15.465876 -8.214790 -26.405376 31.684696 0.488260 2.555991 0.094715 -0.045246 64537.900000 0 0 1
-14.347976 -9.183990 -25.924086 31.020450 0.569377 2.560220 0.073744 -0.038658 -245824.000000 0 0 1
-13.715976 -8.614490 -24.788656 29.611061 0.560798 2.562833 0.063289 -0.030252 368072.000000 0 0 1
-12.675476 -9.485990 -24.287056 28.991599 0.642459 2.563905 0.045553 -0.015646 665559.000000 0 0 1
-11.958376 -8.804690 -23.076456 27.441723 0.634661 2.569788 0.058272 -0.020194 -120299.000000 0 0 1
-12.801076 -8.651990 -21.969956 26.858955 0.594354 2.528678 0.064396 -0.020955 392763.000000 0 0 1
-12.075976 -7.921790 -20.975356 25.466635 0.580579 2.538597 0.071716 -0.022912 -239393.000000 0 0 1
-12.866576 -7.730090 -19.674356 24.746381 0.540999 2.489869 0.062332 -0.019306 299077.000000 0 1 0
-13.776976 -6.630990 -19.515156 24.791459 0.448584 2.477007 0.057193 -0.016301 973596.000000 0 1 0
-15.113176 -7.039890 -19.857756 25.928722 0.435925 2.443173 0.073951 -0.029356 460023.000000 0 0 1
-16.157676 -5.924690 -19.656356 26.125558 0.351456 2.422465 0.091745 -0.025380 -674772.000000 0 0 1
-16.264476 -5.547690 -18.305056 25.107472 0.328717 2.387756 0.079558 -0.019948 -113965.000000 0 0 1
-15.349776 -4.603790 -17.858356 23.994403 0.291388 2.410240 0.080305 -0.024526 -928220.000000 0 1 0
-15.258876 -4.436090 -16.280456 22.750065 0.282923 2.368311 0.088907 -0.021283 -947993.000000 0 1 0
-16.369776 -4.053790 -15.564256 22.948831 0.242755 2.316128 0.107392 -0.030791 -693295.000000 0 1 0
-16.769176 -2.707490 -15.666956 23.108208 0.160075 2.315811 0.066722 -0.033430 314664.000000 0 1 0
-18.028676 -2.354690 -14.807156 23.448446 0.129873 2.254253 0.064322 -0.033285 196195.000000 0 1 0
-17.865976 -2.678090 -13.432556 22.512193 0.148791 2.210153 0.098815 -0.038206 370341.000000 0 1 0
-18.673476 -2.026390 -12.464956 22.542850 0.108094 2.156691 0.084133 -0.044407 -167981.000000 0 1 0
-18.071576 -0.731890 -11.824256 21.608576 0.040477 2.149814 0.077715 -0.041458 -48957.800000 0 1 0
-17.701076 0.254010 -12.805756 21.849028 -0.014349 2.197036 0.099569 -0.042687 545453.000000 0 1 0
-16.847076 1.167810 -12.173756 20.817975 -0.069208 2.195395 0.091022 -0.038056 -983886.000000 0 1 0
-16.451076 2.299210 -13.179756 21.204487 -0.138861 2.241523 0.103451 -0.036554 187387.000000 0 1 0
-15.753076 1.827010 -14.336356 21.378225 -0.115462 2.305821 0.099242 -0.036051 -281024.000000 0 1 0
-14.426676 1.532310 -14.060056 20.203023 -0.105817 2.340522 0.089210 -0.029400 -1264190.000000 0 1 0
-13.710176 0.478810 -14.963156 20.300104 -0.034910 2.399562 0.077293 -0.036363 78922.700000 0 1 0
-13.537476 0.895810 -16.315256 21.219174 -0.066076 2.447903 0.092926 -0.037110 299377.000000 0 1 0
-12.825676 -0.071390 -17.078756 21.358534 0.005566 2.497462 0.055151 -0.033245 -5127.390000 0 1 0
-12.240176 0.551910 -18.362656 22.075182 -0.045060 2.553181 0.073252 -0.036744 647827.000000 0 1 0
-10.992076 1.232710 -18.157956 21.261625 -0.111679 2.594470 0.039193 -0.026879 357414.000000 0 1 0
-10.658476 2.104110 -19.234356 22.090515 -0.194906 2.627433 0.050391 -0.026104 -904565.000000 0 1 0
-9.258876 2.629310 -19.158256 21.440122 -0.276693 2.676033 0.039925 -0.023410 -2493170.000000 0 1 0
-8.294676 1.627010 -19.407856 21.168696 -0.193692 2.730835 0.046112 -0.017880 264416.000000 0 1 0
-6.941476 2.028910 -19.193256 20.510525 -0.284367 2.781250 0.039131 -0.014481 655457.000000 0 1 0
-6.519676 3.222610 -20.106056 21.380947 -0.459069 2.794520 0.040061 -0.011539 -1941230.000000 0 1 0
-6.490376 2.837910 -21.487356 22.624880 -0.412200 2.823145 0.035665 -0.011344 206436.000000 0 1 0
-6.085476 3.932010 -22.269056 23.418040 -0.573650 2.827043 0.036730 -0.014424 -371527.000000 0 1 0
-5.663776 3.507010 -23.666956 24.586629 -0.554418 2.867217 0.062542 -0.024635 43151.500000 0 1 0
-4.436376 2.802410 -23.583656 24.160376 -0.563395 2.922659 0.068835 -0.030429 -112960.000000 0 1 0
-4.053076 2.249110 -24.808656 25.237974 -0.506608 2.956881 0.100436 -0.037023 271407.000000 0 0 1
-2.615676 1.656110 -24.724956 24.918024 -0.564437 3.017028 0.072719 -0.034715 -828852.000000 0 1 0
-1.619276 2.611210 -24.584156 24.775415 -1.015710 3.017257 0.070692 -0.033927 -1058400.000000 0 1 0
-0.306276 2.173510 -24.680856 24.778269 -1.430805 3.052891 0.075079 -0.029078 -489448.000000 0 1 0
0.261824 1.051310 -23.781056 23.805723 1.326717 3.096066 0.074862 -0.027033 -1288480.000000 0 1 0
-0.261376 -0.268090 -23.800756 23.803701 0.798077 3.125863 0.056440 -0.028750 -471283.000000 0 1 0
0.441524 -1.038590 -22.856156 22.884001 -1.168825 3.092257 0.061593 -0.019848 -468844.000000 0 1 0
0.021824 -2.528490 -22.727856 22.868082 -1.562165 3.030793 0.069038 -0.026736 723900.000000 0 1 0
-1.091276 -2.746290 -21.818556 22.017774 1.192565 3.006969 0.062247 -0.031000 916504.000000 0 1 0
-2.407876 -2.840590 -22.343856 22.652036 0.867658 2.976451 0.070381 -0.035416 347181.000000 0 1 0
-3.167976 -1.547090 -22.562256 22.836045 0.454286 2.986587 0.076071 -0.036469 -1622130.000000 0 1 0
-3.537376 -0.929290 -21.348456 21.659483 0.256901 2.971920 0.049773 -0.027658 552091.000000 0 1 0
-4.527776 0.101810 -21.462756 21.935383 -0.022482 2.933630 0.040824 -0.021058 916381.000000 0 1 0
-5.882376 -0.161490 -22.172856 22.940444 0.027446 2.882177 0.042068 -0.020481 -411461.000000 0 1 0
-6.668176 -1.157690 -21.535856 22.574276 0.171901 2.837102 0.053137 -0.014971 -696287.000000 0 1 0
-8.022576 -0.859790 -21.586956 23.045556 0.106764 2.783902 0.038896 -0.015831 -700498.000000 0 1 0
-8.913776 -1.997790 -21.128556 23.018741 0.220480 2.733514 0.036792 -0.015005 -509536.000000 0 1 0
-9.003176 -2.976790 -22.125056 24.071489 0.319323 2.736687 0.059074 -0.025012 -48192.400000 0 1 0
-9.272976 -4.245390 -21.568056 23.857755 0.429341 2.699895 0.040811 -0.027559 -422774.000000 0 1 0
-10.020576 -5.152190 -22.593756 25.247472 0.474912 2.678985 0.036652 -0.029360 166285.000000 0 0 1
-11.380876 -4.792690 -22.698856 25.840516 0.398578 2.643345 0.042446 -0.028511 -146399.000000 0 0 1
-12.035776 -5.233290 -23.865956 27.236576 0.410151 2.638813 0.029745 -0.034737 275634.000000 0 0 1
-13.582776 -5.166490 -23.774456 27.864120 0.363471 2.592941 0.091234 -0.037842 21774.300000 0 0 1
-14.110876 -3.920690 -24.000856 28.116361 0.271013 2.593704 0.074559 -0.040238 -1219240.000000 0 0 1
-15.461376 -3.957490 -24.267656 29.045396 0.250580 2.559853 0.068456 -0.045985 -811693.000000 0 0 1
-16.057976 -2.505290 -24.331656 29.260290 0.154768 2.552705 0.077762 -0.037977 -255578.000000 0 0 1
-15.777576 -1.788690 -25.487866 30.029363 0.112887 2.584441 0.079951 -0.031064 152416.000000 0 0 1
-16.576776 -0.648790 -25.728496 30.613166 0.039118 2.568889 0.061978 -0.025597 539271.000000 0 0 1
-18.106976 -0.647790 -26.070786 31.748514 0.035760 2.534247 0.078285 -0.018877 707648.000000 0 0 1
-18.479176 -1.455490 -27.195456 32.911871 0.078601 2.543323 0.080471 -0.029231 -17738.600000 0 0 1
-18.150976 -0.849390 -28.392506 33.709254 0.046762 2.572289 0.076449 -0.024970 -322989.000000 0 0 1
-18.544176 -1.683190 -29.649356 35.011483 0.090518 2.580824 0.073551 -0.022560 13333.600000 0 0 1
-19.913876 -1.767690 -29.961106 36.018816 0.088535 2.553172 0.076392 -0.024805 18331.800000 0 0 1
-20.088876 -2.504390 -31.204756 37.196394 0.124026 2.566090 0.074871 -0.030724 84774.400000 0 0 1
-21.495776 -3.103290 -31.537216 38.292229 0.143377 2.538514 0.055335 -0.021372 1048560.000000 0 0 1
-22.557176 -2.256990 -31.990776 39.208800 0.099724 2.525094 0.044904 -0.011715 897688.000000 0 0 1
-23.156676 -1.441890 -30.953836 38.683985 0.062186 2.498378 0.037526 -0.008644 32999.300000 0 0 1
-24.220576 -0.444990 -31.479386 39.721356 0.018370 2.485702 0.027411 -0.005110 279021.000000 0 0 1
-23.574276 0.706210 -32.059306 39.800055 -0.029948 2.507330 0.026038 -0.005305 571049.000000 0 0 1
-24.544876 1.489510 -32.708886 40.921154 -0.060611 2.496951 0.023767 -0.011763 -32088.200000 0 0 1
-24.008976 2.831510 -33.299846 41.150069 -0.117393 2.513636 0.032282 -0.009726 -950463.000000 0 0 1
-23.523776 3.786510 -32.386546 40.206891 -0.159596 2.507311 0.029364 -0.013319 325862.000000 0 0 1
-24.354876 4.238210 -31.311326 39.893879 -0.172294 2.473275 0.027894 -0.017848 537828.000000 0 0 1
-25.696206 4.924210 -31.781326 41.165466 -0.189336 2.452839 0.035665 -0.025266 416958.000000 0 0 1
-26.636726 4.085910 -32.423206 42.160101 -0.152207 2.448149 0.057182 -0.034948 -775595.000000 0 0 1
-27.706406 4.802310 -32.904936 43.283276 -0.171623 2.434452 0.075627 -0.037985 27211.500000 0 0 1
-28.808966 3.841510 -33.538036 44.379203 -0.132562 2.427542 0.092286 -0.037928 462688.000000 0 0 1
-28.390276 3.357410 32.960781 43.631332 -0.117712 0.714473 0.104662 -0.038466 256497.000000 0 0 1
-29.421886 2.785810 32.174874 43.687878 -0.094404 0.742957 0.120301 -0.042722 -53088.400000 0 0 1
-29.351966 1.254510 32.045044 43.474091 -0.042714 0.742017 0.108372 -0.030161 -60774.900000 0 0 1
-29.554576 0.702910 33.312952 44.538970 -0.023779 0.725827 0.108888 -0.021522 120671.000000 0 0 1
-29.847316 -0.672490 33.061604 44.546428 0.022527 0.734474 0.091646 -0.013032 -648686.000000 0 0 1
-29.959686 -1.375590 -33.328336 44.835846 0.045882 2.408848 0.052632 -0.003545 150293.000000 0 0 1
-28.719876 -1.656890 -32.703336 43.555537 0.057628 2.420133 0.058630 -0.008544 329505.000000 0 0 1
-27.945196 -0.554190 -32.293446 42.709575 0.019829 2.428156 0.049311 -0.002418 -923730.000000 0 0 1
-28.100456 -0.056990 -30.864556 41.740385 0.002028 2.403036 0.066956 -0.005805 -429720.000000 0 0 1
-27.465126 -0.953490 -29.973206 40.664916 0.034702 2.399532 0.045966 -0.011491 337723.000000 0 0 1
-27.534516 -0.487690 -28.625636 39.721713 0.017710 2.375542 0.055875 -0.014583 -381458.000000 0 0 1
-26.435446 -0.967390 -27.665876 38.277531 0.036578 2.378599 0.059042 -0.013321 -234327.000000 0 0 1
-26.465286 -2.376790 -27.469496 38.218238 0.089568 2.372804 0.050736 -0.001193 716093.000000 0 0 1
-25.533166 -2.791890 -26.421416 36.848724 0.108911 2.370320 0.059567 -0.007426 452723.000000 0 0 1
-25.765406 -4.129690 -25.708216 36.630901 0.158929 2.348742 0.054466 -0.011815 -1020600.000000 0 0 1
-26.879546 -4.133090 -24.934056 36.895794 0.152568 2.312841 0.065886 -0.007374 -1242240.000000 0 0 1
-27.133966 -5.292890 -24.207556 36.746055 0.192646 2.289992 0.049005 -0.004598 -648570.000000 0 0 1
-28.171606 -5.088190 -23.170456 36.829324 0.178688 2.251231 0.074860 -0.010512 -701808.000000 0 0 1
-28.240776 -6.066990 -22.133156 36.389922 0.211614 2.224615 0.077094 -0.010074 -1117410.000000 0 0 1
-29.288516 -5.823290 -21.311456 36.686592 0.196266 2.190637 0.117473 -0.007674 -1087370.000000 0 0 1
-29.687246 -7.027090 -20.445756 36.725217 0.232426 2.161231 0.126541 -0.027541 -25360.200000 0 0 1
-28.759496 -7.400190 -19.434256 35.490305 0.251849 2.150282 0.120960 -0.034759 332529.000000 0 0 1
-29.360526 -8.397390 -18.671256 35.793470 0.278573 2.119567 0.135153 -0.026794 171232.000000 0 0 1
-30.132356 -7.989290 -17.419056 35.710099 0.259176 2.080354 0.137766 -0.036711 150947.000000 0 0 1
-29.255756 -7.731990 -16.330256 34.385465 0.258382 2.065667 0.139428 -0.044564 214117.000000 0 0 1
-29.779286 -6.766190 -15.471356 34.233756 0.223418 2.039727 0.142441 -0.044576 -94987.500000 0 0 1
-28.725616 -6.093690 -14.540756 32.767784 0.209036 2.030577 0.164927 -0.048664 295546.000000 0 0 1
-28.010826 -4.974390 -15.055756 32.187369 0.175756 2.057544 0.163235 -0.038795 882758.000000 0 0 1
-26.808756 -4.770590 -14.297556 30.755293 0.176106 2.054297 0.154975 -0.054044 545737.000000 0 0 1
-14.325676 21.239610 -4.828956 26.070383 -0.977405 1.757100 0.092048 -0.039123 -202313.000000 0 0 1
-14.567576 20.482710 -6.009856 25.843260 -0.952584 1.805495 0.116560 -0.040995 406746.000000 0 0 1
-15.384676 19.318110 -5.871256 25.384036 -0.898263 1.804207 0.096003 -0.045285 -118999.000000 0 0 1
-15.513676 18.562710 -7.215756 25.245109 -0.874637 1.860667 0.121173 -0.047145 -175270.000000 0 0 1
-14.326776 17.938710 -7.699956 24.214524 -0.896878 1.894404 0.095053 -0.038948 110383.000000 0 1 0
-14.468476 17.039110 -8.830956 24.034431 -0.866806 1.947040 0.082951 -0.038138 -289500.000000 0 1 0
-15.099676 15.634510 -8.578556 23.367280 -0.802798 1.946705 0.099346 -0.039068 284093.000000 0 1 0
-16.476676 15.682310 -8.251356 24.197120 -0.760702 1.918783 0.096610 -0.031162 71494.100000 0 1 0
-16.765976 14.983410 -7.085056 23.575381 -0.729312 1.876042 0.101402 -0.014596 806272.000000 0 1 0
-18.254876 15.221510 -6.654756 24.682396 -0.695033 1.843790 0.119642 -0.025562 1540720.000000 0 1 0
-19.310976 14.600610 -7.423456 25.321914 -0.647380 1.868330 0.121186 -0.032542 967919.000000 0 0 1
-20.595676 15.129110 -7.088456 26.520145 -0.633557 1.841372 0.097369 -0.028249 868444.000000 0 0 1
-21.704076 14.494910 -8.008056 27.300152 -0.588816 1.868508 0.099878 -0.020888 245114.000000 0 0 1
-21.885076 13.121310 -7.755056 26.669575 -0.540092 1.865841 0.127659 -0.030780 581692.000000 0 0 1
-22.804776 12.542810 -8.723556 27.449597 -0.502849 1.894207 0.141239 -0.032530 628389.000000 0 0 1
-23.101676 11.062210 -8.289556 26.921677 -0.446584 1.883796 0.146718 -0.032355 -657534.000000 0 0 1
-22.024176 10.203610 -8.295256 25.651302 -0.433852 1.900101 0.152175 -0.028490 -705786.000000 0 0 1
-22.359876 9.018210 -7.637356 25.290737 -0.383366 1.877568 0.169003 -0.040288 -133570.000000 0 0 1
-21.125176 8.177510 -7.312356 23.803683 -0.369335 1.883040 0.130027 -0.022945 -359111.000000 0 1 0
-20.946676 6.993210 -8.097856 23.521129 -0.322222 1.922268 0.136074 -0.027439 1676120.000000 0 1 0
-19.685076 6.323810 -7.761856 22.084819 -0.310835 1.929923 0.087547 -0.015845 1174650.000000 0 1 0
-19.494276 5.044410 -8.610956 21.900261 -0.253210 1.974894 0.078358 -0.029550 -361624.000000 0 1 0
-20.446576 4.026710 -8.348056 22.449208 -0.194450 1.951813 0.098046 -0.035831 573876.000000 0 1 0
-20.333576 2.994410 -9.332856 22.572617 -0.146213 1.997046 0.098925 -0.035908 331646.000000 0 1 0
-21.349776 1.808810 -9.102656 23.279671 -0.084521 1.972528 0.117201 -0.046464 489517.000000 0 1 0
-20.980876 0.921010 -8.015056 22.478580 -0.043869 1.935384 0.106489 -0.042534 486426.000000 0 1 0
-21.900776 -0.164890 -7.912456 23.286867 0.007529 1.917481 0.125642 -0.043266 -125070.000000 0 1 0
-21.867876 -1.287590 -8.919156 23.651918 0.058813 1.957460 0.105973 -0.051716 -166347.000000 0 1 0
-20.730476 -2.115590 -8.778056 22.611560 0.101700 1.969486 0.081041 -0.034521 300358.000000 0 1 0
-20.840076 -3.489090 -9.204256 23.047795 0.165884 1.981610 0.078422 -0.030872 -20055.200000 0 1 0
-21.947776 -4.220490 -8.404256 23.877792 0.189978 1.930471 0.099633 -0.031347 110523.000000 0 1 0
-21.572576 -4.287390 -7.034456 23.092019 0.196186 1.880343 0.095432 -0.034315 214378.000000 0 1 0
-22.524576 -4.941190 -6.236056 23.888497 0.215948 1.834905 0.135827 -0.039331 -470713.000000 0 1 0
-22.609776 -6.492290 -6.409256 24.380943 0.279622 1.836802 0.129926 -0.038307 -722185.000000 0 1 0
-21.624476 -7.323990 -5.914956 23.584858 0.326564 1.824297 0.108774 -0.036838 -188107.000000 0 1 0
-21.919576 -8.702290 -6.050956 24.347726 0.377926 1.821951 0.123363 -0.037582 -725418.000000 0 1 0
-20.839376 -9.637890 -5.518456 23.614019 0.433187 1.806672 0.111806 -0.034834 -9098.280000 0 1 0
-19.607476 -9.370690 -6.218756 22.603891 0.445823 1.849510 0.104233 -0.036766 618346.000000 0 1 0
-18.535576 -9.882190 -5.456256 21.702442 0.489812 1.824935 0.093443 -0.035197 -230428.000000 0 1 0
-17.805376 -11.166690 -5.909756 21.832352 0.560146 1.844904 0.087595 -0.038892 -62028.600000 0 1 0
-16.839276 -11.162690 -6.978156 21.374319 0.585388 1.903367 0.093885 -0.037438 786820.000000 0 1 0
-17.296476 -10.960290 -8.327956 22.105449 0.564811 1.957068 0.103138 -0.031641 -312052.000000 0 1 0
-16.203676 -11.151890 -9.399856 21.800942 0.602784 2.016583 0.085817 -0.020428 194482.000000 0 1 0
-15.888976 -12.529490 -9.668956 22.426243 0.667729 2.016557 0.075202 -0.022443 257654.000000 0 1 0
-14.941976 -12.615390 -10.721056 22.301385 0.701171 2.072289 0.077456 -0.011831 179770.000000 0 1 0
-15.113276 -13.966290 -11.397956 23.524068 0.745976 2.076614 0.092633 -0.012906 135484.000000 0 1 0
-16.248976 -13.968390 -12.246456 24.680373 0.710068 2.090015 0.102254 -0.014111 144957.000000 0 1 0
-16.313176 -15.133690 -13.004156 25.773171 0.747908 2.099671 0.082380 -0.009231 187193.000000 0 0 1
-16.882676 -15.019490 -14.501556 26.849673 0.727061 2.141354 0.106967 -0.007976 268063.000000 0 0 1
-16.944376 -16.279590 -15.167556 27.967690 0.765392 2.143997 0.090403 0.004928 81110.100000 0 0 1
-17.284276 -16.100990 -16.556456 28.846218 0.749970 2.182125 0.094002 0.000980 44599.000000 0 0 1
-17.959076 -17.304390 -17.258856 30.328838 0.766835 2.176156 0.112689 -0.007431 1007910.000000 0 0 1
-19.241676 -17.631390 -16.687856 30.977291 0.741755 2.139705 0.092942 -0.002802 1433130.000000 0 0 1
-20.279476 -17.974690 -17.674956 32.353527 0.725222 2.148745 0.090485 -0.000137 1370070.000000 0 0 1
-21.705276 -17.645290 -17.170056 32.822037 0.682587 2.121311 0.081682 -0.004448 -68895.600000 0 0 1
-21.928076 -16.262790 -16.744256 32.026379 0.638131 2.120960 0.079215 -0.005846 274172.000000 0 0 1
-21.536776 -16.009690 -15.396956 30.938797 0.639241 2.091694 0.076706 -0.004158 -268375.000000 0 0 1
-21.710276 -14.529990 -14.978056 30.113101 0.589801 2.091388 0.094484 -0.021503 601677.000000 0 0 1
-23.062176 -14.174490 -14.662556 30.785884 0.551101 2.067210 0.103225 -0.023191 916830.000000 0 0 1
-23.123776 -12.939290 -13.980856 29.959950 0.510158 2.056297 0.113454 -0.030328 348739.000000 0 0 1
-24.619076 -12.514490 -13.817256 30.880867 0.470285 2.034694 0.139013 -0.041477 129229.000000 0 0 1
-25.175956 -13.166590 -12.739256 31.136418 0.481864 1.992311 0.154565 -0.042321 237042.000000 0 0 1
-26.580506 -12.941890 -12.724756 32.185948 0.453108 1.977247 0.140871 -0.045865 120546.000000 0 0 1
-27.101566 -13.102490 -11.297556 32.152837 0.450327 1.929831 0.158721 -0.048928 559474.000000 0 0 1
-28.459286 -12.684790 -11.060656 33.063166 0.419287 1.911904 0.162609 -0.048850 738068.000000 0 0 1
-28.919756 -12.999990 -9.783256 33.182286 0.422454 1.870078 0.147290 -0.040797 611455.000000 0 0 1
-29.667996 -11.697590 -9.172656 33.183749 0.375568 1.850863 0.144581 -0.039411 828559.000000 0 0 1
-28.749896 -10.722890 -8.655156 31.881791 0.356991 1.845723 0.147377 -0.046694 404838.000000 0 0 1
-29.512116 -9.729390 -8.048356 32.099876 0.318454 1.824229 0.160221 -0.050063 -170562.000000 0 0 1
-28.702396 -8.550490 -7.539156 30.883285 0.289531 1.817406 0.165726 -0.046848 47921.000000 0 0 1
-27.961326 -8.840290 -6.335956 30.002180 0.306217 1.783582 0.154726 -0.050130 419263.000000 0 0 1
-27.159936 -7.792390 -5.784556 28.841716 0.279402 1.772728 0.158006 -0.047164 344750.000000 0 0 1
-27.898216 -6.432690 -5.371856 29.129827 0.226616 1.756269 0.168109 -0.048641 494671.000000 0 0 1
-28.865416 -6.533590 -4.314756 29.908480 0.222596 1.715567 0.165352 -0.048462 411436.000000 0 0 1
-28.258446 -6.761390 -3.058256 29.216590 0.234854 1.675664 0.162589 -0.038573 -633753.000000 0 0 1
-27.601526 -5.625690 -2.302656 28.262959 0.201064 1.652359 0.181554 -0.041887 -518829.000000 0 0 1
-28.428436 -4.630290 -1.741356 28.855639 0.161458 1.631180 0.198577 -0.041857 83729.000000 0 0 1
-27.741606 -3.672890 -0.926056 27.999007 0.131631 1.603877 0.194154 -0.049287 -77010.000000 0 0 1
-28.665526 -2.546290 -0.289056 28.779846 0.088595 1.580840 0.193534 -0.049223 -131009.000000 0 0 1
-29.488436 -2.982690 0.759044 29.648616 0.100805 1.545192 0.178637 -0.033885 -406728.000000 0 0 1
-28.945156 -3.442490 1.986644 29.216768 0.118375 1.502747 0.187094 -0.033429 -588002.000000 0 0 1
-30.006326 -3.859390 3.029944 30.404853 0.127917 1.470977 0.161128 -0.032518 42878.300000 0 0 1
-30.697476 -5.027990 2.651244 31.219302 0.162350 1.485771 0.167419 -0.029831 714725.000000 0 0 1
-31.738096 -5.348190 3.601144 32.386388 0.166942 1.459373 0.176378 -0.030658 485486.000000 0 0 1
-32.405056 -6.690990 3.464444 33.269496 0.203618 1.466474 0.196255 -0.034268 149360.000000 0 0 1
-31.495046 -7.722190 3.849944 32.655661 0.240444 1.452626 0.187057 -0.023543 645988.000000 0 0 1
-32.139816 -8.985190 3.833544 33.591628 0.272606 1.456425 0.198728 -0.025013 40722.900000 0 0 1
-31.174706 -10.128790 4.183044 33.044705 0.314145 1.443868 0.187558 -0.023359 -11139.800000 0 0 1
-31.154256 -10.572890 5.496844 33.355494 0.327176 1.405245 0.167570 -0.017688 439349.000000 0 0 1
-30.212766 -11.646190 5.640244 32.867268 0.367920 1.398336 0.164190 -0.016227 266336.000000 0 0 1
-30.020376 -12.050590 7.118444 33.122680 0.381724 1.354195 0.142906 -0.023908 142434.000000 0 0 1
-29.278566 -11.091790 7.900744 32.290618 0.362130 1.323611 0.124145 -0.010294 408237.000000 0 0 1
-29.432336 -11.285890 9.272144 32.857364 0.366160 1.284716 0.156936 -0.017014 -285433.000000 0 0 1
-29.551666 -9.994790 10.065544 32.779749 0.326137 1.258688 0.159640 -0.028350 -507997.000000 0 0 1
-28.414306 -9.210890 10.215644 31.568539 0.313475 1.241262 0.119703 -0.014719 -387116.000000 0 0 1
-28.716796 -8.121390 11.052544 31.824049 0.275612 1.216104 0.144309 -0.011910 166824.000000 0 0 1
-27.747136 -6.909090 10.922844 30.609600 0.244039 1.205909 0.157311 -0.004426 -93406.500000 0 0 1
-27.983386 -6.007990 9.889844 30.281593 0.211488 1.238097 0.187751 0.001656 94097.600000 0 0 1
-27.349886 -4.796490 10.176344 29.573308 0.173610 1.219510 0.170834 -0.005945 -638117.000000 0 0 1
-27.461916 -3.806190 8.983244 29.143483 0.137721 1.257452 0.190519 -0.013447 53567.100000 0 0 1
-26.541826 -4.150390 7.975744 28.023325 0.155116 1.282196 0.137548 -0.010073 417223.000000 0 0 1
-26.856156 -3.434390 6.825244 27.921893 0.127191 1.323854 0.161670 -0.033951 -365142.000000 0 0 1
-26.027416 -3.968790 5.687844 26.935650 0.151319 1.358031 0.150608 -0.020674 -821556.000000 0 0 1
-24.683876 -3.583290 5.742144 25.595037 0.144160 1.344524 0.165465 -0.037206 196205.000000 0 0 1
-24.024476 -4.112590 4.555444 24.795986 0.169540 1.386030 0.166664 -0.026112 1263500.000000 0 1 0
-22.504976 -3.722090 4.343644 23.220576 0.163906 1.382628 0.153691 -0.026084 1086620.000000 0 1 0
-22.336976 -2.340990 4.268944 22.861422 0.104422 1.382962 0.134041 -0.025151 308299.000000 0 1 0
-20.958876 -2.089290 4.466844 21.531194 0.099357 1.361819 0.104639 -0.021663 -92748.500000 0 1 0
-20.545476 -0.585390 4.634444 21.069821 0.028485 1.349026 0.080046 -0.029890 -527946.000000 0 1 0
-20.646976 0.257410 3.518444 20.946201 -0.012467 1.402021 0.087856 -0.023181 1007930.000000 0 1 0
-21.949876 0.855110 3.497044 22.243147 -0.038938 1.412922 0.098221 -0.041903 443209.000000 0 1 0
-21.954476 2.049410 2.530444 22.194645 -0.093078 1.456536 0.123183 -0.032691 -298667.000000 0 1 0
-21.314776 3.176410 3.111044 21.773559 -0.147935 1.427424 0.095534 -0.038143 256454.000000 0 1 0
-21.467376 4.430410 2.328044 22.043062 -0.203521 1.464986 0.118509 -0.024987 -36061.700000 0 1 0
-20.589676 4.576110 1.048344 21.118110 -0.218698 1.521134 0.094166 -0.007687 -207580.000000 0 1 0
-21.207976 5.312410 -0.009956 21.863213 -0.245441 1.571252 0.138272 -0.004732 1249540.000000 0 1 0
-22.234476 4.614810 -0.761956 22.721113 -0.204646 1.604338 0.181793 -0.022195 516007.000000 0 1 0
-21.694076 3.521610 -1.741756 22.046959 -0.160927 1.649881 0.161321 -0.021049 -280637.000000 0 1 0
-21.202476 2.448310 -1.029356 21.368173 -0.114964 1.618987 0.105415 -0.016800 489537.000000 0 1 0
-20.566276 1.435910 -1.805056 20.695212 -0.069706 1.658128 0.084899 -0.017406 -27731.000000 0 1 0
-19.816976 0.311110 -1.053256 19.847385 -0.015698 1.623889 0.090757 -0.017263 -190153.000000 0 1 0
-20.692676 -0.456490 -0.229856 20.698987 0.022057 1.581901 0.117838 -0.020954 689613.000000 0 1 0
-20.126276 -1.235390 0.833344 20.181369 0.061305 1.529492 0.101576 -0.016761 69697.500000 0 1 0
-19.244276 -2.456990 0.380344 19.404217 0.126987 1.551194 0.072624 -0.015111 206066.000000 0 1 0
-18.609076 -3.125590 1.433844 18.924136 0.166407 1.494956 0.069102 -0.014600 1250940.000000 0 1 0
-17.644076 -4.150390 1.066744 18.157013 0.231028 1.512011 0.040683 -0.008239 693338.000000 0 1 0
-18.387976 -5.452590 0.618644 19.189349 0.288270 1.538552 0.036143 -0.011012 35400.900000 0 1 0
-19.031776 -6.013290 1.761344 20.036729 0.306034 1.482777 0.047281 -0.010187 646058.000000 0 1 0
-19.938676 -7.056090 1.378644 21.195279 0.340136 1.505706 0.072165 -0.017143 -255936.000000 0 1 0
-20.801976 -7.347990 2.647644 22.219928 0.339554 1.451356 0.094822 -0.011848 -281359.000000 0 1 0
-20.115776 -8.073990 3.628344 21.977230 0.381692 1.404941 0.077469 -0.007115 483297.000000 0 1 0
-20.997376 -8.565190 4.592844 23.137556 0.387313 1.370967 0.082582 -0.009266 -188400.000000 0 1 0
-20.227676 -9.468490 5.550744 23.013516 0.437800 1.327199 0.079240 0.001273 -70301.500000 0 1 0
-19.809776 -10.700590 5.010044 23.065784 0.495263 1.351844 0.090510 -0.002815 96460.300000 0 1 0
-18.909976 -11.287690 5.904944 22.800603 0.538150 1.308828 0.093203 -0.009789 88592.800000 0 1 0
-18.208876 -12.607290 5.429544 22.803221 0.605587 1.330383 0.076242 -0.008166 -287045.000000 0 1 0
-19.072276 -13.670390 5.450844 24.090309 0.621891 1.342553 0.095334 -0.008045 -615037.000000 0 1 0
-18.457376 -14.772390 4.967244 24.157230 0.674955 1.363698 0.096260 -0.006640 -207854.000000 0 1 0
-19.402676 -16.004390 4.968644 25.637702 0.689714 1.375760 0.110645 -0.006731 162475.000000 0 0 1
-18.721776 -17.141490 4.571344 25.792106 0.741362 1.392617 0.115524 -0.018304 300284.000000 0 0 1
-19.438076 -18.322290 4.986644 27.173732 0.755858 1.386241 0.119791 -0.017444 222469.000000 0 0 1
-18.602976 -19.579090 4.764544 27.424667 0.810957 1.396178 0.111205 -0.022372 -1115820.000000 0 0 1
-18.455476 -19.949290 3.446544 27.394478 0.824275 1.444650 0.115348 -0.026254 -35105.500000 0 0 1
-17.531876 -20.972190 3.291944 27.532459 0.874511 1.450944 0.092285 -0.021999 1747460.000000 0 0 1
-15.995176 -20.783290 3.749744 26.492478 0.914858 1.428779 0.088357 -0.023385 1002050.000000 0 0 1
-15.367476 -22.030790 3.879944 27.139804 0.961720 1.427343 0.072157 -0.021521 1071210.000000 0 0 1
-13.939676 -21.836290 4.090644 26.227304 1.002639 1.414188 0.068668 -0.021311 1390560.000000 0 0 1
-13.189876 -23.179690 4.290144 27.012519 1.053462 1.411300 0.069713 -0.015079 -243829.000000 0 0 1
-12.999376 -23.897190 3.101344 27.380244 1.072594 1.457283 0.079294 -0.017386 35275.000000 0 0 1
-12.390476 -25.147920 3.377144 28.237331 1.113003 1.450911 0.083539 -0.020224 -83967.100000 0 0 1
19.609324 19.150310 -23.922356 36.380477 0.773556 2.288372 0.086255 -0.013209 -915293.000000 0 0 1
18.836824 19.361510 -24.986256 36.796834 0.799133 2.317241 0.066354 -0.019453 -887388.000000 0 0 1
19.552924 19.225910 -26.175276 37.909069 0.776966 2.332942 0.086937 -0.023064 -339267.000000 0 0 1
18.664724 19.282710 -27.434046 38.377360 0.801682 2.367206 0.077142 -0.020265 105619.000000 0 0 1
18.233324 20.594310 -27.747056 39.070178 0.846130 2.360557 0.053280 -0.014806 572490.000000 0 0 1
17.109124 20.579410 -28.627076 39.188566 0.877217 2.389844 0.050833 -0.019379 136472.000000 0 0 1
16.735024 21.922410 -29.236826 40.192600 0.918790 2.385348 0.062639 -0.011169 -600903.000000 0 0 1
16.231424 22.860410 -28.296596 39.834091 0.953375 2.360808 0.056332 -0.019708 438603.000000 0 0 1
15.996224 24.127710 -28.882996 40.893191 0.985349 2.355059 0.053937 -0.014059 -240889.000000 0 0 1
15.219724 25.097810 -27.920676 40.510545 1.025672 2.331208 0.054105 -0.022108 -476452.000000 0 0 1
13.894524 24.683410 -27.774126 39.670274 1.058096 2.346368 0.068339 -0.037002 -274050.000000 0 0 1
13.217624 25.610610 -26.879926 39.409889 1.094352 2.321373 0.065386 -0.026803 414344.000000 0 0 1
11.841824 25.095610 -26.298216 38.231069 1.129906 2.329354 0.098133 -0.035230 718189.000000 0 0 1
11.204524 25.954910 -25.361866 37.979244 1.163271 2.302022 0.083392 -0.041571 162281.000000 0 0 1
10.632924 27.133810 -25.945246 39.018695 1.197318 2.298215 0.098244 -0.048859 -609470.000000 0 0 1
9.996424 27.986410 -24.871656 38.752638 1.227732 2.267647 0.122149 -0.056478 327642.000000 0 0 1
10.994724 28.512210 -23.973356 38.840081 1.202752 2.236017 0.101332 -0.043259 602917.000000 0 0 1
10.366624 29.083910 -22.838256 38.404774 1.228397 2.207654 0.125820 -0.048803 107080.000000 0 0 1
11.391824 29.557010 -21.779556 38.441379 1.202923 2.173128 0.093666 -0.043431 -78025.900000 0 0 1
12.088724 30.721610 -22.066256 39.709876 1.195912 2.159985 0.085073 -0.047418 -284160.000000 0 0 1
12.993524 31.154710 -21.088156 39.801482 1.175666 2.129200 0.073462 -0.037972 -421115.000000 0 0 1
14.152324 31.889610 -21.778356 41.128242 1.153118 2.128835 0.074622 -0.021743 -595764.000000 0 0 1
15.125724 31.004510 -22.249756 41.050199 1.116911 2.143627 0.066304 -0.022895 -799423.000000 0 0 1
16.151824 31.758510 -22.835156 42.319366 1.100306 2.140748 0.066062 -0.018307 -58338.700000 0 0 1
17.373124 30.870010 -23.216556 42.353175 1.058192 2.150966 0.019724 -0.006120 -186886.000000 0 0 1
18.066224 30.419910 -22.118756 41.725277 1.034878 2.129520 0.026295 -0.002265 -1069980.000000 0 0 1
19.275124 29.933710 -22.583456 42.161237 0.998702 2.136068 0.019207 -0.000695 -917541.000000 0 0 1
20.199224 29.316610 -21.541756 41.611531 0.967489 2.114942 0.019117 0.004998 -348358.000000 0 0 1
21.004824 30.224710 -20.804256 42.279461 0.963464 2.085257 0.027138 0.006891 -255732.000000 0 0 1
22.052324 29.483010 -20.272656 42.030150 0.928598 2.074116 0.045379 0.007715 -600193.000000 0 0 1
22.799924 30.127210 -19.133256 42.350523 0.922965 2.039560 0.048653 -0.004034 -170150.000000 0 0 1
23.750424 31.138010 -19.448256 43.725199 0.919187 2.031729 0.042103 -0.005695 219490.000000 0 0 1
24.268824 31.691210 -18.268656 43.898205 0.917266 2.000014 0.049063 -0.010792 -243389.000000 0 0 1
25.475224 32.635810 -18.480456 45.338840 0.908003 1.990629 0.044861 -0.011081 -35320.300000 0 0 1
26.696124 31.956510 -18.547456 45.584095 0.874846 1.989837 0.046429 -0.010505 -1060890.000000 0 0 1
27.784324 32.817310 -18.576556 46.840505 0.868258 1.978597 0.051845 -0.019203 -871833.000000 0 0 1
29.039924 32.111810 -19.034456 47.294778 0.835590 1.985003 0.066601 -0.023874 -578653.000000 0 0 1
29.567324 31.184010 -18.069856 46.617474 0.812003 1.968844 0.056510 -0.008880 294746.000000 0 0 1
30.810924 30.657110 -18.519956 47.245743 0.782896 1.973592 0.050768 -0.005151 165202.000000 0 0 1
31.282424 29.486810 -17.689956 46.486520 0.755859 1.961176 0.046743 -0.015378 -381258.000000 0 0 1
31.601724 29.930610 -16.372956 46.503592 0.758247 1.930588 0.042840 -0.015796 -16285.500000 0 0 1
31.963724 28.860310 -15.542156 45.783794 0.734420 1.917148 0.042221 -0.014134 -550623.000000 0 0 1
32.576524 29.303910 -14.182456 46.055305 0.732561 1.883828 0.048742 -0.023160 -164230.000000 0 0 1
33.937724 29.622810 -14.215056 47.237144 0.717615 1.876464 0.036024 -0.015022 -566036.000000 0 0 1
34.242724 30.907710 -14.733856 48.424552 0.734253 1.879962 0.042967 -0.015657 -465938.000000 0 0 1
35.772824 31.036110 -14.793056 49.616223 0.714617 1.873550 0.059944 -0.028760 15004.300000 0 0 1
36.341924 31.161410 -13.492156 49.737382 0.708804 1.845506 0.056877 -0.020921 623056.000000 0 0 1
-37.314059 31.303410 -13.634856 50.578175 -0.698025 1.843753 0.040814 -0.023739 573737.000000 0 0 1
-36.653959 31.607110 -12.318056 49.942534 -0.711598 1.820013 0.044950 -0.018859 -552749.000000 0 0 1
-36.973459 32.891510 -11.775156 50.867892 -0.727038 1.804400 0.046946 -0.019265 282811.000000 0 0 1
-36.200559 33.080410 -10.607156 50.172760 -0.740392 1.783816 0.029010 -0.008569 18730.500000 0 0 1
-36.382959 -33.093113 -10.030056 50.194381 0.738081 1.771975 0.023009 0.001324 291810.000000 0 0 1
-35.432059 -32.624513 -9.074856 49.011658 0.744168 1.757028 0.024739 0.000363 3133.680000 0 0 1
-35.396059 -33.278513 -7.821656 49.208929 0.754573 1.730421 0.037063 -0.007558 121968.000000 0 0 1
-35.059359 -32.177713 -6.762356 48.065511 0.742566 1.711955 0.045606 -0.009214 506603.000000 0 0 1
-36.203259 -31.341513 -6.585356 48.335632 0.713544 1.707464 0.044194 -0.004038 185101.000000 0 0 1
-36.022259 -30.464413 -5.550856 47.502585 0.701999 1.687918 0.064701 -0.011236 -924774.000000 0 0 1
-37.317059 -29.895313 -5.068056 48.083030 0.675421 1.676395 0.057528 -0.011358 -1143820.000000 0 0 1
36.853824 -30.823813 -4.556656 48.260490 -0.696534 1.665355 0.046216 -0.013027 -130077.000000 0 0 1
35.591124 -30.297313 -4.213256 46.929807 -0.705225 1.660695 0.047979 -0.013936 -152587.000000 0 0 1
35.418024 -29.442213 -2.887756 46.147800 -0.693524 1.633413 0.040538 -0.007736 -691371.000000 0 0 1
35.945224 -28.168913 -2.967456 45.764097 -0.664699 1.635684 0.058022 -0.016326 47988.700000 0 0 1
35.096824 -27.252513 -2.308856 44.495138 -0.660243 1.622710 0.058105 -0.012477 -145875.000000 0 0 1
35.647824 -25.836413 -2.251856 44.083539 -0.627156 1.621900 0.067526 -0.023242 -331849.000000 0 0 1
35.498624 -25.242513 -3.496556 43.698543 -0.618126 1.650897 0.056210 -0.020306 221086.000000 0 0 1
35.753124 -23.877913 -3.522956 43.137591 -0.588825 1.652555 0.057002 -0.024499 -305564.000000 0 0 1
35.207924 -23.235913 -4.814756 42.458066 -0.583347 1.684441 0.064684 -0.030945 -447645.000000 0 0 1
35.979024 -23.472213 -5.995956 43.374951 -0.578051 1.709476 0.060031 -0.030693 274497.000000 0 0 1
35.450024 -22.886113 -7.218156 42.808645 -0.573267 1.740220 0.061685 -0.031149 -208341.000000 0 0 1
36.490824 -22.689513 -8.321256 43.767996 -0.556285 1.762083 0.075457 -0.037469 -204291.000000 0 0 1
37.127624 -23.888213 -8.745456 45.006557 -0.571727 1.766356 0.062259 -0.016309 82620.700000 0 0 1
-36.709959 -23.500513 -9.311556 44.571294 0.569432 1.781260 0.069615 -0.022515 271553.000000 0 0 1
-35.963559 -24.660113 -10.011956 44.740787 0.601062 1.796484 0.052916 -0.025085 -177369.000000 0 0 1
-35.449059 -25.688613 -9.144756 44.723229 0.627087 1.776723 0.054427 -0.009633 -94518.600000 0 0 1
-36.289659 -26.784913 -8.896956 45.973109 0.635833 1.765550 0.042813 -0.003893 19133.900000 0 0 1
-35.426859 -27.986213 -8.475356 45.936065 0.668596 1.756363 0.045536 -0.002977 420767.000000 0 0 1
-34.535659 -28.507913 -9.473056 45.772826 0.690076 1.779261 0.045739 -0.001407 409400.000000 0 0 1
-33.750859 -29.512613 -8.840756 45.697634 0.718505 1.765486 0.025317 0.000057 108822.000000 0 0 1
-33.167659 -30.604113 -9.806556 46.183047 0.745221 1.784766 0.028446 -0.000495 73007.900000 0 0 1
-32.287859 -30.125713 -10.812656 45.464029 0.750770 1.810926 0.034448 0.016120 125560.000000 0 0 1
-32.208659 -31.044813 -11.872656 46.283237 0.767001 1.830218 0.040381 0.010736 -176488.000000 0 0 1
-32.272859 -30.386113 -13.261256 46.267853 0.755296 1.861492 0.023846 0.016222 -333398.000000 0 0 1
-31.196459 -29.526513 -13.537156 45.036525 0.757904 1.876099 0.023305 0.011633 -321525.000000 0 0 1
-31.430659 -28.938313 -14.755956 45.200116 0.744136 1.903351 0.015371 0.017123 178389.000000 0 0 1
-30.350759 -27.905213 -15.195756 43.940647 0.743443 1.923914 0.037412 -0.003533 465551.000000 0 0 1
-29.198259 -28.597513 -15.681156 43.775047 0.775004 1.937158 0.063962 -0.014712 -266733.000000 0 0 1
-28.218959 -27.633613 -16.027256 42.623927 0.774918 1.956289 0.084597 -0.005769 466599.000000 0 0 1
-26.892859 -28.346713 -16.477356 42.405958 0.811711 1.969867 0.117342 -0.023291 236476.000000 0 0 1
-26.981159 -29.074813 -17.713056 43.440534 0.822730 1.990789 0.102658 -0.024919 -298673.000000 0 0 1
-27.223059 -28.349413 -18.919356 43.620250 0.805664 2.019423 0.078214 -0.003688 49306.300000 0 0 1
-26.011659 -27.604813 -19.536756 42.665172 0.815103 2.046438 0.086886 -0.007407 65319.600000 0 0 1
-25.694459 -26.412713 -18.863656 41.396547 0.799181 2.043934 0.104052 -0.013697 -496569.000000 0 0 1
-24.299059 -26.273613 -18.800356 40.425244 0.824422 2.054504 0.108952 -0.031231 -340676.000000 0 0 1
-23.808359 -25.268413 -17.759256 38.996433 0.815140 2.043626 0.122802 -0.028573 3922.300000 0 0 1
-24.118359 -25.533913 -16.376556 38.753936 0.813900 2.007084 0.138230 -0.029084 8575.300000 0 0 1
-23.615559 -24.527613 -15.533956 37.424620 0.804341 1.998820 0.145153 -0.025358 -48987.000000 0 0 1
-24.217759 -24.561413 -14.125256 37.273123 0.792443 1.959475 0.130803 -0.018697 320605.000000 0 0 1
-25.588459 -24.173013 -14.111756 37.924206 0.756961 1.952071 0.097200 0.001622 202735.000000 0 0 1
-26.055859 -24.052913 -12.798456 37.699481 0.745447 1.917167 0.092522 0.003018 133145.000000 0 0 1
-27.589559 -23.945313 -12.646856 38.658825 0.714801 1.904072 0.082130 0.022593 -313721.000000 0 0 1
-28.279359 -25.171513 -12.862956 39.984783 0.727320 1.898317 0.090822 0.012667 675819.000000 0 0 1
-29.676959 -25.225113 -12.603456 40.937456 0.704488 1.883751 0.069866 0.014952 761316.000000 0 0 1
-30.684759 -24.257713 -13.323956 41.322135 0.668950 1.899104 0.079318 0.010317 -578411.000000 0 0 1
-30.803059 -22.908313 -12.898956 40.496942 0.639459 1.894961 0.095532 0.004674 286341.000000 0 0 1
-31.251859 -22.678313 -11.538256 40.300322 0.627743 1.861166 0.119813 -0.004051 775387.000000 0 0 1
-32.676359 -23.237413 -10.994156 41.576355 0.618162 1.838412 0.088199 -0.010206 1973050.000000 0 0 1
-33.803459 -22.382213 -11.238756 42.070737 0.584854 1.841220 0.121797 -0.035427 543757.000000 0 0 1
-34.145959 -22.162513 -12.598156 42.612639 0.575709 1.870926 0.110447 -0.017267 -578901.000000 0 0 1
-35.632659 -21.821613 -12.882356 43.724413 0.549491 1.869861 0.070413 -0.027758 266997.000000 0 0 1
-36.550459 -22.882613 -12.783456 44.977403 0.559358 1.858989 0.068050 -0.019794 567563.000000 0 0 1
37.187724 -22.373713 -12.810056 45.250496 -0.541626 1.857813 0.083150 -0.033124 830458.000000 0 0 1
36.132324 -23.447713 -12.455956 44.838498 -0.575630 1.852295 0.057716 -0.007789 -228079.000000 0 0 1
36.038424 -24.483213 -13.434056 45.592429 -0.596742 1.869891 0.023832 0.010700 -30923.600000 0 0 1
35.562924 -25.685513 -12.835156 45.707859 -0.625507 1.855433 0.028013 0.005325 186587.000000 0 0 1
35.437424 -26.918913 -13.766756 46.582855 -0.649628 1.870809 0.021453 0.003622 25131.600000 0 0 1
34.542124 -26.858413 -14.830556 46.200412 -0.660905 1.897587 0.019605 -0.000994 -556886.000000 0 0 1
34.652824 -27.915913 -15.744456 47.201740 -0.678139 1.910870 0.020431 0.009815 44635.100000 0 0 1
33.819724 -27.825613 -17.047356 46.996285 -0.688467 1.942001 0.018396 -0.002864 200890.000000 0 0 1
32.426024 -27.885813 -16.813856 45.954013 -0.710261 1.945379 0.071761 -0.004938 -122430.000000 0 0 1
31.704024 -27.569913 -18.013456 45.713563 -0.715765 1.975831 0.063857 -0.007906 1258850.000000 0 0 1
30.145124 -27.708013 -17.825056 44.656411 -0.743297 1.981397 0.077922 -0.023412 857134.000000 0 0 1
29.603324 -26.735013 -16.982056 43.353292 -0.734530 1.973289 0.072614 -0.021169 1032450.000000 0 0 1
28.155524 -26.856713 -16.940856 42.438298 -0.761793 1.981427 0.111912 -0.025240 1332270.000000 0 0 1
27.433624 -25.842613 -16.053156 40.965207 -0.755544 1.973463 0.094120 -0.027086 -233698.000000 0 0 1
27.300924 -24.502413 -16.577756 40.255815 -0.731429 1.995236 0.094740 -0.026650 -54976.600000 0 0 1
27.270924 -23.672313 -15.477656 39.289178 -0.714876 1.975713 0.084551 -0.020232 -81026.900000 0 0 1
27.034624 -22.197913 -15.789256 38.378624 -0.687470 1.994794 0.077712 -0.022571 190717.000000 0 0 1
25.691724 -21.856113 -16.084956 37.369508 -0.704904 2.015765 0.092920 -0.024581 178559.000000 0 0 1
25.500724 -20.489213 -16.331756 36.562563 -0.676857 2.033847 0.077963 -0.026520 854831.000000 0 0 1
24.011324 -19.976713 -16.301056 35.232615 -0.693933 2.051800 0.078117 -0.024020 857142.000000 0 0 1
23.407224 -19.931313 -15.019956 34.216289 -0.705366 2.025249 0.088111 -0.029061 -673934.000000 0 0 1
22.047024 -19.689113 -15.151356 33.215900 -0.728962 2.044458 0.074280 -0.029937 -534251.000000 0 0 1
21.451824 -18.477713 -14.360756 31.746463 -0.711051 2.040204 0.051221 -0.024826 -55705.600000 0 0 1
21.116624 -18.829613 -13.056356 31.159823 -0.728208 2.003154 0.055168 -0.035715 -194801.000000 0 0 1
20.798924 -17.641913 -12.367756 29.946514 -0.703456 1.996536 0.061463 -0.046716 -288690.000000 0 0 1
19.938124 -17.815313 -11.086756 28.945298 -0.729229 1.963865 0.078005 -0.043585 -487718.000000 0 0 1
20.503924 -18.330913 -9.939156 29.244146 -0.729501 1.917573 0.078686 -0.052096 -73987.100000 0 0 1
19.568624 -18.271213 -8.871456 28.204095 -0.751125 1.890774 0.067916 -0.050062 198231.000000 0 0 1
20.182924 -18.981013 -7.632756 28.738271 -0.754719 1.839618 0.069593 -0.044670 104678.000000 0 0 1
21.101924 -18.187713 -6.921356 28.705213 -0.711361 1.814314 0.062524 -0.043870 -89656.200000 0 0 1
21.658124 -18.785613 -5.772256 29.245384 -0.714492 1.769474 0.057398 -0.035735 -375577.000000 0 0 1
22.995924 -18.108713 -5.453956 29.773875 -0.667057 1.755016 0.067328 -0.034120 4574.640000 0 0 1
23.969024 -18.312213 -6.508556 30.857941 -0.652398 1.783312 0.066547 -0.042960 295625.000000 0 0 1
25.039924 -17.454613 -6.216356 31.149709 -0.608758 1.771709 0.093757 -0.034979 -357834.000000 0 0 1
26.212324 -17.411413 -7.246856 32.291797 -0.586324 1.797142 0.110004 -0.047266 656956.000000 0 0 1
27.102324 -18.540613 -7.136456 33.603858 -0.599973 1.784796 0.131633 -0.052942 525359.000000 0 0 1
26.837724 -19.537013 -8.095656 34.168669 -0.629251 1.810003 0.132649 -0.057171 -464289.000000 0 0 1
27.873224 -20.680913 -7.945456 35.605435 -0.638338 1.795844 0.131513 -0.055636 352780.000000 0 0 1
29.155324 -20.124313 -8.271356 36.379062 -0.604149 1.800168 0.132086 -0.038241 89141.600000 0 0 1
30.075024 -21.134313 -7.885856 37.594587 -0.612549 1.782126 0.133999 -0.042021 -138495.000000 0 0 1
-31.076186 29.365810 4.282844 42.970024 -0.757108 1.470960 0.067732 -0.021934 205668.000000 0 0 1
-30.420036 30.144110 3.318544 42.954147 -0.780842 1.493461 0.055669 -0.021974 -309913.000000 0 0 1
-29.490086 31.029510 3.895544 42.984543 -0.810829 1.480045 0.059779 -0.013179 82635.100000 0 0 1
-28.923606 32.010910 2.855244 43.236857 -0.836021 1.504711 0.054521 -0.011853 -326885.000000 0 0 1
-28.051056 31.437810 1.891644 42.175538 -0.842268 1.525930 0.055779 -0.021850 278520.000000 0 0 1
-27.522936 32.370110 0.957344 42.500030 -0.866153 1.548269 0.051823 -0.032608 -85543.300000 0 0 1
-26.542036 33.486310 1.422144 42.753189 -0.900569 1.537526 0.083232 -0.016669 -1018200.000000 0 0 1
-25.275226 32.939310 1.612044 41.550378 -0.916298 1.531989 0.056999 -0.024854 -1123900.000000 0 0 1
-24.491476 -33.778613 2.300444 41.786590 0.943450 1.515716 0.058489 -0.017455 199838.000000 0 0 1
-22.992776 33.449110 2.244244 40.651536 -0.968580 1.515561 0.063905 -0.031345 379871.000000 0 0 1
-22.373076 33.544110 0.972644 40.332467 -0.982580 1.546678 0.105852 -0.029647 -624489.000000 0 0 1
-21.031376 33.176110 1.057444 39.294927 -1.005800 1.543883 0.115272 -0.036548 -1094540.000000 0 0 1
-20.212276 33.550010 -0.194656 39.168574 -1.028576 1.575766 0.130568 -0.036334 -41281.700000 0 0 1
-19.882276 -32.726013 -0.382856 38.294169 1.024853 1.580794 0.126336 -0.032067 461572.000000 0 0 1
-18.970276 -32.201513 0.575744 37.378340 1.038422 1.555393 0.133350 -0.030189 -320492.000000 0 0 1
-18.914976 -30.668713 0.346344 36.034237 1.018150 1.561185 0.138275 -0.032549 121671.000000 0 0 1
-17.887876 -30.266113 -0.558656 35.161425 1.037006 1.586685 0.153266 -0.023279 331241.000000 0 0 1
-17.717776 -28.853513 -0.445756 33.862125 1.020103 1.583961 0.110044 -0.022244 -395458.000000 0 0 1
-16.478276 -28.255413 -1.080256 32.727189 1.042829 1.603810 0.091422 -0.017708 -386479.000000 0 0 1
-16.726176 -28.338713 -2.523856 33.003295 1.037596 1.647344 0.091192 -0.018911 517081.000000 0 0 1
-15.722976 -27.697213 -3.316056 32.020990 1.054485 1.674541 0.074376 -0.003919 235976.000000 0 0 1
-16.184776 -27.632613 -4.786556 32.379305 1.040948 1.719168 0.104690 -0.015103 -40145.200000 0 0 1
-17.335076 -26.854013 -4.963656 32.346263 0.997570 1.724859 0.106720 -0.014693 -632927.000000 0 0 1
-17.754876 -26.738813 -6.294956 32.708198 0.984634 1.764463 0.128290 -0.014467 335072.000000 0 0 1
-18.479976 -25.376713 -6.524256 32.063265 0.941377 1.775708 0.096882 -0.016888 77658.600000 0 0 1
-17.526076 -24.380113 -6.600656 30.742835 0.947519 1.787187 0.063821 0.002101 -201669.000000 0 0 1
-18.152176 -23.148213 -6.682656 30.166192 0.905781 1.794177 0.046094 0.003855 -25234.800000 0 0 1
-17.096276 -22.036613 -6.597556 28.660473 0.910979 1.803076 0.063718 0.005531 -272991.000000 0 0 1
-16.273676 -22.000513 -7.695156 28.426581 0.933923 1.844919 0.076893 0.004464 108323.000000 0 0 1
-15.091476 -21.200913 -7.425756 27.062395 0.952174 1.848756 0.094308 -0.018976 1255870.000000 0 0 1
-14.129576 -21.010213 -8.612656 26.744192 0.978759 1.898678 0.103377 -0.011615 568876.000000 0 0 1
-14.735276 -20.215413 -9.609256 26.797930 0.940928 1.937545 0.107899 -0.008804 382824.000000 0 0 1
-13.715276 -20.069213 -10.617456 26.525695 0.971299 1.982608 0.110064 -0.005601 879939.000000 0 0 1
-14.201176 -19.195613 -11.774556 26.623019 0.933846 2.028924 0.130289 -0.003426 390392.000000 0 0 1
-15.236276 -19.868113 -12.509756 27.988927 0.916585 2.034153 0.100675 0.028630 160392.000000 0 0 1
-15.677176 -19.003313 -13.546356 28.114116 0.881014 2.073544 0.118428 0.005269 -101378.000000 0 0 1
-16.979476 -19.429213 -14.222856 29.463309 0.852581 2.074567 0.127633 0.004635 -205004.000000 0 0 1
-18.150376 -19.383013 -13.448756 29.765859 0.818227 2.039599 0.114799 0.004585 -393992.000000 0 0 1
-19.255276 -19.705113 -14.232256 31.009906 0.796944 2.047619 0.100683 0.003324 -97458.500000 0 0 1
-20.670076 -19.498513 -13.607756 31.505794 0.756240 2.017409 0.070676 0.012806 799702.000000 0 0 1
-21.598276 -20.069713 -14.558956 32.882246 0.748730 2.029471 0.093374 0.003905 935738.000000 0 0 1
-22.948976 -19.824113 -14.103656 33.444941 0.712471 2.006113 0.078830 0.008350 1085460.000000 0 0 1
-24.050176 -20.525213 -14.951556 34.974910 0.706484 2.012515 0.099855 -0.008690 42233.800000 0 0 1
-24.128676 -19.990713 -16.223156 35.284733 0.691882 2.048542 0.101894 -0.018365 89979.500000 0 0 1
-24.922576 -20.763613 -17.085956 36.663228 0.694615 2.055588 0.109722 -0.027370 -224571.000000 0 0 1
-25.157336 -20.228013 -18.496156 37.204460 0.677212 2.091106 0.106615 -0.022109 1398010.000000 0 0 1
-23.919976 -19.861013 -19.199056 36.540783 0.692952 2.123998 0.087175 -0.026097 1540060.000000 0 0 1
-24.291176 -19.423613 -20.474456 37.236290 0.674507 2.152984 0.097346 -0.028439 -123680.000000 0 0 1
-23.192176 -18.598913 -21.165056 36.493235 0.675927 2.189491 0.073553 -0.016648 -13042.700000 0 0 1
-22.071876 -19.404413 -21.475856 36.399332 0.721174 2.201864 0.057952 -0.015379 -229466.000000 0 0 1
-21.112376 -18.652113 -22.207056 35.871815 0.723606 2.238350 0.057143 -0.016740 226475.000000 0 0 1
-19.774476 -19.401413 -22.382956 35.615186 0.775876 2.250377 0.058301 -0.014919 -70937.300000 0 0 1
-19.932176 -20.588613 -23.122356 36.821542 0.801597 2.249722 0.036606 -0.008592 306962.000000 0 0 1
-18.671376 -21.256413 -23.176456 36.573262 0.850051 2.257122 0.041410 -0.010035 356778.000000 0 0 1
-18.682176 -22.572913 -23.945456 37.841049 0.879429 2.255948 0.041888 -0.011279 -146596.000000 0 0 1
-18.497776 -22.363313 -25.325176 38.518178 0.879719 2.288274 0.046372 -0.012116 98965.400000 0 0 1
-18.585076 -23.629613 -25.996726 39.744099 0.904331 2.283792 0.063191 -0.014805 -92007.900000 0 0 1
-18.417876 -23.645613 -27.547316 40.708571 0.909046 2.314062 0.077984 -0.007293 276712.000000 0 0 1
-17.038276 -23.481013 -27.829496 40.201265 0.943082 2.335404 0.067149 -0.011720 130259.000000 0 0 1
-16.844176 -23.499313 -29.229356 41.113249 0.948888 2.361641 0.103922 -0.015882 338059.000000 0 0 1
-15.381476 -23.312413 -29.721746 40.785299 0.987564 2.387272 0.066455 -0.024589 722595.000000 0 0 1
-14.508176 -24.416513 -29.463266 40.923555 1.034656 2.374539 0.080715 -0.015584 824151.000000 0 0 1
-13.166176 -24.207513 -29.916876 40.673964 1.072658 2.397243 0.112037 -0.020441 1004180.000000 0 0 1
-12.270676 -25.486313 -29.707146 41.019948 1.122089 2.380688 0.104052 -0.021416 -432572.000000 0 0 1
-12.492176 -26.658813 -30.525286 42.409195 1.132587 2.374282 0.099858 -0.012591 310087.000000 0 0 1
-11.505376 -27.680113 -30.331376 42.644515 1.176868 2.362087 0.079241 -0.013940 -140909.000000 0 0 1
-10.227076 -27.445313 -31.108446 42.726733 1.214101 2.386312 0.092325 -0.019691 -627125.000000 0 0 1
-9.399076 -26.421313 -30.576136 41.488896 1.229018 2.399375 0.126073 -0.033834 429743.000000 0 0 1
-8.301376 -25.946913 -31.368776 41.547024 1.261151 2.426479 0.120724 -0.025854 261511.000000 0 0 1
-7.525376 -24.831713 -30.644936 40.154170 1.276539 2.439019 0.168832 -0.038879 -821648.000000 0 0 1
-7.999576 -23.527813 -30.466146 39.315865 1.243053 2.457365 0.188550 -0.035142 -798114.000000 0 0 1
-8.951076 -23.360513 -29.481956 38.665502 1.204881 2.437945 0.170031 -0.025918 -456765.000000 0 0 1
-9.404776 -21.891813 -29.379936 37.827000 1.165034 2.460194 0.181710 -0.041682 -162628.000000 0 0 1
-10.247976 -21.405813 -30.377826 38.549217 1.124295 2.478394 0.171327 -0.040215 -128593.000000 0 0 1
-10.425476 -19.991313 -30.301026 37.768973 1.090097 2.501889 0.193511 -0.037864 319232.000000 0 0 1
-11.143176 -19.472513 -31.600626 38.754983 1.051030 2.524208 0.163393 -0.036902 352280.000000 0 0 1
-11.754376 -18.189013 -31.446836 38.182575 0.997072 2.538510 0.161829 -0.036612 412823.000000 0 0 1
-12.617476 -17.924413 -32.546906 39.240112 0.957440 2.548882 0.151135 -0.028311 517050.000000 0 0 1
-13.587476 -16.673913 -32.409276 38.897301 0.887039 2.555668 0.152951 -0.030926 803756.000000 0 0 1
-12.979676 -15.388413 -32.641816 38.350533 0.870105 2.588957 0.152228 -0.031838 696458.000000 0 0 1
-11.903576 -14.895013 -31.829916 37.103909 0.896565 2.601885 0.149874 -0.025985 575421.000000 0 0 1
-11.889976 -13.322813 -32.005616 36.650080 0.842167 2.632681 0.130352 -0.037780 61108.800000 0 0 1
-11.123476 -12.818313 -33.102766 37.199919 0.856070 2.667837 0.128718 -0.032275 301289.000000 0 0 1
-11.594176 -13.199613 33.315918 37.664374 0.850059 0.485274 0.137610 -0.033228 -336125.000000 0 0 1
-12.494776 -12.115913 32.784734 37.118103 0.770005 0.488038 0.115836 -0.028376 -511656.000000 0 0 1
-13.632676 -11.781913 33.518355 38.054480 0.712704 0.493249 0.106599 -0.023313 -564447.000000 0 0 1
-14.582776 -11.097813 32.733003 37.513575 0.650518 0.510369 0.081189 -0.028941 503000.000000 0 0 1
-15.661076 -10.294713 33.508712 38.393804 0.581521 0.509961 0.081268 -0.027862 214538.000000 0 0 1
-15.224376 -9.077913 -33.690716 38.069075 0.537676 2.657267 0.099915 -0.031894 -185287.000000 0 0 1
-16.005476 -8.579913 -32.595126 37.312631 0.492079 2.633282 0.084650 -0.037465 177189.000000 0 0 1
-15.204776 -7.676113 -31.654566 35.946064 0.467519 2.647950 0.081997 -0.043742 -270663.000000 0 0 1
-14.816176 -6.395813 -32.204336 36.021449 0.407513 2.677063 0.073992 -0.049504 137211.000000 0 0 1
-15.851776 -5.450713 -32.296636 36.387660 0.331190 2.662842 0.074231 -0.038955 -72671.300000 0 0 1
-16.321976 -4.761813 -30.989816 35.347567 0.283864 2.639790 0.084105 -0.049009 -35249.400000 0 0 1
-16.806076 -5.588813 -29.961146 34.804444 0.321043 2.607719 0.088695 -0.052174 -81826.100000 0 0 1
-17.165976 -4.891513 -28.800646 33.883253 0.277597 2.586775 0.098894 -0.055001 880760.000000 0 0 1
-15.919076 -4.485613 -27.888456 32.423814 0.274655 2.606306 0.083384 -0.054702 861629.000000 0 0 1
-15.261576 -3.417513 -28.436336 32.453356 0.220295 2.638762 0.088707 -0.046268 -498500.000000 0 0 1
-14.076676 -3.001313 -27.823576 31.325901 0.210066 2.664203 0.062556 -0.041617 -164497.000000 0 0 1
-13.606876 -1.632313 -28.288046 31.432866 0.119392 2.690454 0.037060 -0.022588 -6757.900000 0 0 1
-13.711376 -1.562313 -29.721296 32.768859 0.113453 2.706897 0.037004 -0.028684 255006.000000 0 0 1
-13.693376 -0.241313 -30.233076 33.190446 0.017621 2.716249 0.024109 -0.030033 -83022.000000 0 0 1
-13.875476 -0.261313 -31.758416 34.658248 0.018830 2.729615 0.019812 -0.027206 -645067.000000 0 0 1
-15.101176 -0.834313 -32.147906 35.527869 0.055192 2.701858 0.035821 -0.025189 -44700.600000 0 0 1
-15.129676 -1.134313 -33.526176 36.799433 0.074833 2.716623 0.030274 -0.020628 -57283.300000 0 0 1
-16.473476 -1.582313 33.601994 37.456283 0.095758 0.457637 0.039516 -0.014504 -44532.400000 0 0 1
-16.404376 -1.444313 32.204741 36.170913 0.087818 0.472685 0.037921 -0.012250 747543.000000 0 0 1
-17.633576 -1.640313 31.468323 36.109403 0.092755 0.512601 0.041441 -0.008204 752120.000000 0 0 1
-17.604676 -1.443313 29.940493 34.762637 0.081802 0.533006 0.044714 -0.001564 -26834.500000 0 0 1
-17.389276 -0.072313 29.632493 34.358068 0.004158 0.530684 0.040318 0.003594 33300.800000 0 0 1
-17.229776 0.109687 28.233873 33.076107 -0.006366 0.547933 0.039105 -0.008103 -414395.000000 0 0 1
-16.842976 1.603687 27.935113 32.659275 -0.094928 0.544570 0.045407 -0.007285 -201788.000000 0 0 1
-17.724476 2.604687 28.417633 33.593204 -0.145910 0.562482 0.037676 -0.004099 408401.000000 0 0 1
-19.052376 2.632687 27.910693 33.895883 -0.137312 0.603377 0.045017 -0.008564 159680.000000 0 0 1
-19.207976 3.194687 26.502043 32.886330 -0.164812 0.633656 0.065375 -0.016867 -825567.000000 0 0 1
-19.015876 4.585687 26.450673 32.897875 -0.236633 0.636765 0.068786 -0.018259 116369.000000 0 0 1
-19.246376 5.118687 25.155913 32.084949 -0.259939 0.669647 0.077404 -0.018590 -492994.000000 0 0 1
-18.770676 6.569687 25.003693 31.948142 -0.336672 0.671911 0.076297 -0.016566 -1107860.000000 0 0 1
-17.442276 6.881687 25.059623 31.298168 -0.375791 0.642377 0.078205 -0.017369 -1356780.000000 0 0 1
-16.772076 6.769687 23.830243 29.916746 -0.383630 0.649226 0.070969 -0.024876 338070.000000 0 0 1
-15.534676 7.705687 23.670523 29.342758 -0.460468 0.632266 0.067647 -0.014923 429706.000000 0 0 1
-14.414376 7.437687 24.460283 29.349598 -0.476358 0.585545 0.070942 -0.019591 -198712.000000 0 0 1
-13.249676 8.060687 24.002383 28.576966 -0.546550 0.573659 0.068733 -0.010962 4262.870000 0 0 1
-11.962276 7.915687 24.860303 28.701722 -0.584571 0.523328 0.059658 -0.002926 378752.000000 0 0 1
-10.974376 8.747687 24.245873 28.014663 -0.672971 0.524707 0.043394 -0.002551 1171450.000000 0 0 1
-9.738176 8.826687 25.022813 28.264530 -0.736340 0.483640 0.043242 -0.012933 957310.000000 0 0 1
-9.471276 10.145687 25.744863 29.247872 -0.819764 0.494449 0.047561 -0.024280 -520816.000000 0 0 1
-10.441976 10.404687 26.742123 30.535775 -0.783609 0.503781 0.039040 -0.019318 282625.000000 0 0 1
-10.533576 11.738687 27.141593 31.391386 -0.839454 0.526404 0.049712 -0.027038 -91906.100000 0 0 1
-11.346476 12.741687 26.213843 31.277127 -0.843255 0.576977 0.045247 -0.031458 313095.000000 0 0 1
-12.730076 12.512687 26.030163 31.562503 -0.776786 0.601093 0.054309 -0.029610 180713.000000 0 0 1
-12.980776 11.590687 24.979933 30.444074 -0.728885 0.608478 0.046595 -0.024344 -699564.000000 0 0 1
-14.462276 11.569687 24.597303 30.790298 -0.674735 0.645390 0.060707 -0.021110 -393305.000000 0 0 1
-14.847776 12.757687 23.963713 30.943087 -0.709829 0.684959 0.058994 -0.031289 -383808.000000 0 0 1
-16.069276 12.772687 23.273823 31.032790 -0.671594 0.722772 0.068439 -0.022722 -216418.000000 0 0 1
-16.182376 12.033687 21.902983 29.772800 -0.639411 0.744140 0.055291 -0.007244 -294705.000000 0 0 1
-16.276276 10.597687 21.852783 29.236489 -0.577157 0.726583 0.060435 -0.006188 4557.420000 0 0 1
-16.280376 10.110687 20.479283 28.047775 -0.555743 0.752244 0.067006 -0.016253 -30397.400000 0 0 1
-16.822776 8.685687 20.244083 27.717682 -0.476607 0.751937 0.071878 -0.013968 438166.000000 0 0 1
-18.240076 8.646687 20.261183 28.600370 -0.442672 0.783534 0.074412 -0.006185 -201877.000000 0 0 1
-18.756276 7.363687 20.383283 28.661822 -0.374110 0.779642 0.069829 -0.005514 -559563.000000 0 0 1
-20.264176 7.376687 20.578283 29.808021 -0.349115 0.808809 0.081323 -0.006690 -459762.000000 0 0 1
-20.664476 7.529687 21.965083 31.083463 -0.349426 0.786046 0.081950 -0.017706 -99437.100000 0 0 1
-22.060076 7.539687 22.135283 32.147545 -0.329333 0.811305 0.083263 -0.018107 -433875.000000 0 0 1
-22.395076 8.123687 23.569903 33.512297 -0.347983 0.790738 0.084164 -0.013696 -599646.000000 0 0 1
-22.387876 9.542687 23.656573 33.939849 -0.402923 0.799571 0.082567 -0.015397 1053650.000000 0 0 1
-21.115976 10.205687 23.459773 33.172300 -0.450211 0.785253 0.079667 -0.014962 968290.000000 0 0 1
-20.047176 10.056687 24.556913 33.257604 -0.464968 0.740124 0.084013 -0.020225 -332840.000000 0 0 1
-20.354676 10.840687 25.672933 34.509895 -0.489378 0.731865 0.092653 -0.015099 206782.000000 0 0 1
-20.275176 10.027687 26.816683 35.082357 -0.459302 0.700698 0.090177 -0.016123 -22625.900000 0 0 1
-31.874986 -13.417090 20.201883 40.051831 0.398417 1.042117 0.067683 -0.013553 -217757.000000 0 0 1
-31.453706 -14.761690 20.355283 40.268855 0.438800 1.040853 0.076588 -0.024634 111000.000000 0 0 1
-32.171226 -15.780890 19.631683 40.858625 0.456041 1.069596 0.074823 -0.016096 256992.000000 0 0 1
-31.875426 -15.853890 18.142583 39.956751 0.461542 1.099484 0.081699 -0.010626 271635.000000 0 0 1
-32.521756 -14.761190 17.546483 39.792417 0.426081 1.114139 0.078489 -0.028065 -118617.000000 0 0 1
-32.092346 -14.739890 16.225483 38.864500 0.430558 1.140117 0.074674 -0.026866 -883830.000000 0 0 1
-32.778086 -13.650790 15.442583 38.719767 0.394616 1.160556 0.078927 -0.032752 1411350.000000 0 0 1
-34.132904 -13.936490 14.935383 39.778720 0.387642 1.185902 0.088058 -0.028755 1771230.000000 0 0 1
-35.214767 -14.060290 15.804083 41.079686 0.379879 1.175894 0.083545 -0.030517 -824744.000000 0 0 1
-35.582629 -12.770890 16.642383 41.306029 0.344589 1.156108 0.090098 -0.034100 -1140550.000000 0 0 1
-36.723516 -13.009090 17.387783 42.663662 0.340451 1.151021 0.066659 -0.032514 -607785.000000 0 0 1
-37.233716 -11.820590 17.907483 42.973875 0.307406 1.140977 0.065363 -0.027370 169737.000000 0 0 1
36.769767 -11.905690 18.997983 43.066049 -0.313137 1.113932 0.062716 -0.015173 -146998.000000 0 0 1
37.338967 -12.422090 20.187783 44.227292 -0.321166 1.096789 0.057400 -0.016374 -6892.240000 0 0 1
36.583817 -12.180890 21.349383 44.074322 -0.321413 1.065125 0.051935 -0.013721 -879123.000000 0 0 1
37.474537 -12.480990 22.553683 45.483894 -0.321498 1.051970 0.039629 -0.021516 278735.000000 0 0 1
-36.443966 -11.708790 22.750813 44.529293 0.310865 1.034544 0.052312 -0.018616 -89788.800000 0 0 1
-35.320382 -12.300890 22.135583 43.460618 0.335129 1.036396 0.048345 -0.022421 -370554.000000 0 0 1
-33.995016 -11.538090 22.351983 42.289476 0.327205 1.013908 0.072597 -0.022073 -87827.100000 0 0 1
-33.943276 -10.318490 21.599483 41.534984 0.295115 1.023909 0.087559 -0.021454 49114.000000 0 0 1
-32.641376 -9.759790 21.523083 40.298338 0.290540 1.007361 0.103383 -0.028215 -120608.000000 0 0 1
-32.622286 -8.502490 20.632983 39.525003 0.254962 1.021575 0.118991 -0.014710 60439.500000 0 0 1
-32.893126 -8.607390 19.256083 39.074821 0.255939 1.055491 0.124313 -0.015995 -536527.000000 0 0 1
-34.226433 -8.776590 18.889883 40.066257 0.251019 1.079844 0.107031 -0.020458 -697965.000000 0 0 1
-34.522466 -8.697490 17.343583 39.601097 0.246801 1.117471 0.120041 -0.020113 -642214.000000 0 0 1
-35.873217 -8.816190 17.043583 40.682879 0.240984 1.138521 0.069842 -0.019391 -763010.000000 0 0 1
-36.129126 -8.496190 15.727083 40.309306 0.230965 1.169991 0.089786 -0.014464 -288695.000000 0 0 1
37.436347 -8.383790 15.528783 41.387330 -0.220313 1.186177 0.066037 -0.013974 -421979.000000 0 0 1
36.785327 -9.605690 15.657883 41.116892 -0.255425 1.180120 0.055315 -0.008540 -273118.000000 0 0 1
35.394207 -9.380390 15.567483 39.788040 -0.259070 1.168796 0.049438 -0.006393 244653.000000 0 0 1
34.473647 -10.624290 15.677483 39.333082 -0.298950 1.160825 0.041198 -0.012376 173725.000000 0 0 1
34.311137 -11.055090 17.014883 39.861954 -0.311698 1.129795 0.032902 -0.017271 342129.000000 0 0 1
33.164727 -11.909390 17.005283 39.126874 -0.344757 1.121181 0.051343 -0.017258 355200.000000 0 0 1
32.765567 -12.371790 18.444283 39.583268 -0.361035 1.086075 0.047763 -0.016249 -114759.000000 0 0 1
33.537947 -13.423690 19.010783 40.821553 -0.380725 1.086366 0.036007 -0.009764 -137530.000000 0 0 1
33.316747 -13.580590 20.389583 41.354239 -0.387058 1.055208 0.042488 -0.012284 -834121.000000 0 0 1
33.981757 -14.808290 21.052683 42.629341 -0.410959 1.054280 0.037363 -0.012747 -22619.500000 0 0 1
34.312707 -14.606390 22.410783 43.508064 -0.402450 1.029678 0.035427 -0.023726 -305095.000000 0 0 1
34.754667 -15.844690 22.888393 44.528862 -0.427750 1.030940 0.032816 -0.010338 42986.200000 0 0 1
35.249467 -15.708790 24.337133 45.624412 -0.419227 1.008153 0.044682 -0.008726 -846148.000000 0 0 1
36.373917 -14.940790 24.404533 46.280344 -0.389744 1.015353 0.042934 -0.013810 -1327540.000000 0 0 1
36.831757 -14.944090 25.727973 47.347996 -0.385444 0.996338 0.045407 -0.014416 -230494.000000 0 0 1
-37.040636 -14.004390 25.869103 47.300551 0.361470 0.992129 0.041620 -0.020289 -686274.000000 0 0 1
-35.859306 -14.537790 25.349803 46.258509 0.385163 0.990821 0.029008 -0.016806 -1041100.000000 0 0 1
-34.858268 -13.607990 25.597533 45.337732 0.372186 0.970852 0.035580 -0.019805 265846.000000 0 0 1
-33.413806 -14.197990 25.411113 44.314671 0.401798 0.960117 0.030599 -0.016565 304312.000000 0 0 1
-33.102506 -14.573590 24.079033 43.450722 0.414722 0.983432 0.032301 -0.020425 873235.000000 0 0 1
-31.726036 -14.957090 23.849783 42.415423 0.440544 0.973643 0.048737 -0.024378 1028580.000000 0 0 1
-31.350716 -16.365390 24.349133 42.936857 0.481100 0.967826 0.048077 -0.019843 -758296.000000 0 0 1
-31.309496 -16.437590 25.762683 43.751511 0.483450 0.941172 0.053018 -0.014476 91384.600000 0 0 1
-30.905256 -17.709290 26.180663 44.206119 0.520344 0.936959 0.057297 -0.022917 -424628.000000 0 0 1
-30.514126 -17.767090 27.650943 44.848144 0.527272 0.906448 0.069599 -0.031095 -311627.000000 0 0 1
-29.326736 -17.081890 27.947613 43.964958 0.527429 0.881908 0.078447 -0.032448 -204472.000000 0 0 1
-28.801586 -17.505690 29.184223 44.583623 0.546137 0.857149 0.092715 -0.038646 188570.000000 0 0 1
-27.479596 -16.830290 29.594533 43.751837 0.549535 0.827908 0.073655 -0.034851 95373.000000 0 0 1
-27.793186 -15.513590 30.021343 43.754014 0.509101 0.814628 0.090238 -0.040311 995989.000000 0 0 1
-26.626956 -14.637890 29.877143 42.613452 0.502643 0.793829 0.073642 -0.035609 1075590.000000 0 0 1
-26.698686 -13.221990 30.504803 42.640167 0.459824 0.773599 0.079782 -0.032072 -139990.000000 0 0 1
-26.431316 -13.303790 31.920913 43.526429 0.466312 0.747533 0.075381 -0.035161 100278.000000 0 0 1
-26.127486 -11.975290 32.358599 43.279696 0.429768 0.726261 0.079413 -0.031371 -458404.000000 0 0 1
-25.269206 -11.865090 33.624114 43.702336 0.438990 0.692912 0.071029 -0.036343 -67806.500000 0 0 1
-23.902676 -12.211790 33.501749 42.928230 0.472327 0.675470 0.049982 -0.029663 164301.000000 0 0 1
-23.543676 -13.562990 33.682183 43.275268 0.522644 0.678804 0.048051 -0.025141 -253441.000000 0 0 1
-23.509676 -14.188190 -32.641696 42.655480 0.542992 2.442211 0.046024 -0.027389 -631915.000000 0 0 1
-22.567776 -13.681590 -31.732216 41.272557 0.544998 2.447830 0.028725 -0.014663 -237052.000000 0 0 1
-22.566876 -14.593190 -30.645136 40.759655 0.574027 2.421659 0.035714 -0.009517 139412.000000 0 0 1
-21.230176 -14.615090 -29.857866 39.443801 0.602906 2.429464 0.028269 -0.007842 319921.000000 0 0 1
-20.925876 -13.474890 -29.027706 38.237059 0.572099 2.432804 0.054524 -0.017623 111281.000000 0 0 1
-21.295276 -13.730390 -27.647786 37.502166 0.572684 2.399760 0.052385 -0.014710 111303.000000 0 0 1
-20.770776 -12.734290 -26.573446 36.051842 0.549987 2.399550 0.054280 -0.016264 346080.000000 0 0 1
-19.377876 -12.714590 -26.287166 35.045370 0.580679 2.418994 0.062281 -0.018721 358546.000000 0 0 1
-19.017576 -11.596890 -25.477586 33.841741 0.547593 2.423170 0.076450 -0.024407 -81402.600000 0 0 1
-17.614276 -11.653790 -24.868356 32.626809 0.584494 2.437511 0.092019 -0.026362 -581785.000000 0 0 1
-17.454676 -12.595990 -23.820656 32.105270 0.625102 2.406778 0.097251 -0.025751 -41976.900000 0 0 1
-16.157476 -12.694290 -23.284556 31.054462 0.665936 2.418552 0.107979 -0.027693 -113012.000000 0 0 1
-15.111176 -13.493190 -24.060956 31.453830 0.728894 2.441777 0.073637 -0.023552 -530485.000000 0 0 1
-14.391476 -12.747890 -25.043256 31.571949 0.724911 2.486862 0.061927 -0.025527 -6734.000000 0 0 1
-13.854976 -13.589190 -25.997476 32.442183 0.775714 2.500341 0.084776 -0.027513 -2603.320000 0 0 1
-12.828576 -12.812590 -26.881456 32.424489 0.784775 2.548199 0.106376 -0.026309 723888.000000 0 0 1
-13.584276 -11.974690 -27.737726 33.125628 0.722506 2.563213 0.108986 -0.026905 -83816.700000 0 0 1
-12.704676 -11.301390 -28.537366 33.219143 0.727009 2.604234 0.098958 -0.028605 -406303.000000 0 0 1
-13.451676 -10.297490 -29.452556 33.977036 0.653358 2.619620 0.090260 -0.032015 39222.700000 0 0 1
-12.710776 -9.295990 -30.131276 33.998133 0.631456 2.660009 0.076686 -0.024623 -163857.000000 0 0 1
-12.050576 -9.720390 -31.300066 34.919858 0.678772 2.682241 0.096142 -0.016177 -124921.000000 0 0 1
-11.336676 -8.531590 -32.003556 35.007654 0.645141 2.724295 0.083289 -0.026321 50716.800000 0 0 1
-10.068176 -8.263590 -31.440546 34.031794 0.687274 2.748837 0.086534 -0.022371 -134370.000000 0 0 1
-9.488476 -7.112690 -32.023646 34.148725 0.643254 2.786948 0.068159 -0.031779 -794939.000000 0 0 1
-7.988076 -7.049690 -31.766826 33.505801 0.723077 2.818000 0.089430 -0.021467 -491478.000000 0 0 1
-7.386976 -6.827990 -30.462326 32.080246 0.746095 2.822647 0.076993 -0.021440 290020.000000 0 0 1
-7.673676 -5.604190 -29.789296 31.268105 0.630782 2.832814 0.050561 -0.024479 -594490.000000 0 0 1
-6.814876 -4.451890 -30.307566 31.381689 0.578664 2.879201 0.057429 -0.025672 -625392.000000 0 0 1
-5.457176 -4.540090 -30.003286 30.831646 0.693920 2.909264 0.092426 -0.031331 -559822.000000 0 0 1
-4.827576 -3.300490 -30.201096 30.762070 0.599685 2.950325 0.103474 -0.046783 -67040.400000 0 0 1
-3.302176 -3.245590 -30.024726 30.379638 0.776756 2.988587 0.091226 -0.032012 -108182.000000 0 0 1
-2.510376 -3.706990 -31.117026 31.437447 0.975536 2.998696 0.108558 -0.036259 -130642.000000 0 0 1
-1.122976 -3.591790 -30.985546 31.213236 1.267774 3.020733 0.107988 -0.035064 -187905.000000 0 0 1
-0.423276 -2.281290 -31.240896 31.326938 1.387340 3.067460 0.099861 -0.033308 657341.000000 0 0 1
1.031624 -2.273790 -31.183406 31.283209 -1.144868 3.061693 0.110244 -0.022929 1511200.000000 0 0 1
1.572524 -0.983990 -31.429246 31.483942 -0.559131 3.082639 0.061278 -0.025945 -16097.800000 0 0 1
1.524924 -0.022190 -30.191546 30.230040 -0.014550 3.091122 0.071413 -0.035664 -1497830.000000 0 0 1
0.248824 0.195010 -29.736296 29.737977 0.664741 3.130962 0.091552 -0.030833 -1513530.000000 0 0 1
0.089524 1.257910 -28.827376 28.854947 1.499748 3.097874 0.097417 -0.049361 -929921.000000 0 0 1
-1.251176 1.436210 -28.171746 28.236066 -0.854143 3.074083 0.086519 -0.042796 -678277.000000 0 0 1
-2.184076 2.236910 -28.888316 29.056992 -0.797348 3.033791 0.086399 -0.062987 -56288.200000 0 0 1
-2.150776 3.666910 -28.673976 28.987394 -1.040335 2.994408 0.120221 -0.054649 -1227470.000000 0 0 1
-3.293176 4.469510 -29.180726 29.704146 -0.935791 2.953587 0.153503 -0.053022 -958768.000000 0 0 1
-3.136976 4.787610 -30.519236 31.051338 -0.990755 2.956199 0.157275 -0.056060 488202.000000 0 0 1
-4.376976 5.118410 -31.130846 31.850991 -0.863324 2.928541 0.168165 -0.053852 -145559.000000 0 0 1
-4.146076 5.741310 -32.505336 33.267844 -0.945360 2.927078 0.169349 -0.047964 -60450.500000 0 0 1
-3.822176 4.887410 -33.598196 34.166279 -0.907100 2.958982 0.187397 -0.045407 576632.000000 0 0 1
-2.507676 4.335410 -33.519216 33.891328 -1.046398 2.993271 0.177796 -0.051170 -134531.000000 0 0 1
-2.003376 3.729210 32.928762 33.199758 -1.077824 0.127857 0.129990 -0.051116 -742190.000000 0 0 1
-2.832176 2.711910 32.424888 32.661125 -0.763709 0.120347 0.139718 -0.051425 -226227.000000 0 0 1
-2.512476 2.010010 31.261713 31.426858 -0.674748 0.102562 0.128988 -0.043515 -322607.000000 0 0 1
-2.645476 2.817910 29.958253 30.206557 -0.816949 0.128308 0.119228 -0.039801 547271.000000 0 0 1
-3.952876 3.381810 29.785513 30.236380 -0.707697 0.172908 0.112336 -0.044859 595221.000000 0 0 1
-3.971376 4.356710 28.764453 29.362332 -0.831634 0.202146 0.105702 -0.046060 -119546.000000 0 0 1
-5.187376 5.297810 28.710293 29.652261 -0.795930 0.252732 0.107769 -0.039314 -182412.000000 0 0 1
-5.159576 6.167710 27.633293 28.779520 -0.874165 0.283179 0.103170 -0.033690 -100994.000000 0 0 1
-6.343076 6.941310 27.612103 29.169242 -0.830401 0.328222 0.093689 -0.028296 -100897.000000 0 0 1
-6.532376 7.726010 26.284063 28.164076 -0.868918 0.367446 0.085949 -0.025316 -437408.000000 0 0 1
-5.703576 8.855210 26.202753 28.240570 -0.998585 0.382215 0.110242 -0.030190 -93038.200000 0 0 1
-5.558276 9.338310 24.892093 27.160905 -1.033905 0.411635 0.089553 -0.027995 -214930.000000 0 0 1
-4.925876 10.682810 25.064093 27.687461 -1.138748 0.438827 0.093622 -0.032881 -526139.000000 0 0 1
-4.607076 11.332810 23.784693 26.746390 -1.184677 0.475055 0.098284 -0.035472 381917.000000 0 0 1
-3.990576 12.618010 23.962653 27.374215 -1.264489 0.504589 0.086762 -0.024813 606817.000000 0 0 1
-2.441276 12.612310 24.199933 27.398302 -1.379598 0.488018 0.086529 -0.019682 304586.000000 0 0 1
-1.883476 12.107410 25.441083 28.238017 -1.416469 0.448839 0.095728 -0.027750 293376.000000 0 0 1
-2.244176 12.843510 26.643723 29.662773 -1.397810 0.455091 0.090755 -0.026473 -690790.000000 0 0 1
-1.285476 12.538110 27.781513 30.506870 -1.468628 0.425908 0.095100 -0.025689 -252583.000000 0 0 1
0.028824 12.987210 27.533533 30.442798 1.568577 0.440743 0.098218 -0.022735 -520112.000000 0 0 1
0.803324 12.639510 28.651093 31.325512 1.507325 0.416217 0.103764 -0.029333 -725276.000000 0 0 1
2.301824 12.705110 28.392763 31.190820 1.391567 0.426807 0.092990 -0.025239 -403969.000000 0 0 1
2.822124 14.035310 28.434843 31.835431 1.372369 0.466424 0.088303 -0.025687 1360930.000000 0 0 1
4.268524 14.084310 28.272683 31.873699 1.276526 0.479941 0.090718 -0.028039 1324530.000000 0 0 1
4.765824 15.493010 28.541093 32.822865 1.272371 0.516508 0.084844 -0.029565 -312970.000000 0 0 1
4.589424 15.830410 29.921163 34.160514 1.288620 0.503500 0.093109 -0.024920 658230.000000 0 0 1
3.699124 16.978010 30.073443 34.732526 1.356272 0.523933 0.079983 -0.023946 437599.000000 0 0 1
4.070124 18.358010 29.408213 34.905952 1.352617 0.568892 0.081220 -0.020212 -1034070.000000 0 0 1
5.214324 18.904210 29.917893 35.772038 1.301660 0.580208 0.103801 -0.017645 -848940.000000 0 0 1
5.626624 20.019610 29.119283 35.782347 1.296809 0.620154 0.079498 -0.021542 789582.000000 0 0 1
6.788824 20.903510 29.737283 36.977708 1.256773 0.636477 0.082505 -0.016448 631740.000000 0 0 1
6.341424 21.733510 30.789333 38.217040 1.286897 0.634034 0.081138 -0.028590 756888.000000 0 0 1
7.419724 22.538610 31.320793 39.294190 1.252770 0.648345 0.054465 -0.023637 560013.000000 0 0 1
7.650324 23.926310 30.689063 39.658724 1.261325 0.685932 0.052850 -0.016846 -20394.000000 0 0 1
8.183024 23.807310 29.384363 38.693549 1.239728 0.708387 0.026287 -0.013023 131628.000000 0 0 1
8.360624 25.050210 28.795543 39.071683 1.248667 0.742186 0.029261 -0.013010 -116751.000000 0 0 1
8.798824 24.779910 27.354563 37.943845 1.229604 0.765664 0.052144 -0.020938 -169679.000000 0 0 1
7.829224 24.122910 26.559043 36.723212 1.256966 0.762340 0.056649 -0.025435 274190.000000 0 0 1
8.176924 24.256410 25.199193 35.919840 1.245656 0.793241 0.069339 -0.027076 -237508.000000 0 0 1
27.948607 3.172810 7.138444 29.019799 0.113039 1.322260 0.229323 -0.026088 -17107.000000 0 0 1
28.906507 4.141210 7.535944 30.158352 0.142294 1.318241 0.215248 -0.048673 273484.000000 0 0 1
28.944007 4.104710 8.946344 30.571903 0.140876 1.273817 0.185304 -0.028643 84099.000000 0 0 1
29.884207 5.165110 9.574644 31.802798 0.171147 1.264989 0.177636 -0.031846 -81841.900000 0 0 1
29.433207 6.495410 9.516644 31.608077 0.217202 1.264969 0.180947 -0.037801 -60056.300000 0 0 1
29.938207 7.138910 8.331244 31.885261 0.234083 1.306440 0.191041 -0.051635 -70382.000000 0 0 1
29.266507 8.449910 7.933144 31.477995 0.281079 1.316027 0.227467 -0.052680 -1026750.000000 0 0 1
28.044807 8.419610 7.327544 30.184332 0.291659 1.325587 0.173302 -0.056282 -1061760.000000 0 0 1
28.088807 9.207110 6.173844 30.197157 0.316749 1.364893 0.192263 -0.080120 -788992.000000 0 0 1
26.809507 9.177310 5.396444 28.846044 0.329813 1.382610 0.163237 -0.058373 -783533.000000 0 0 1
25.672207 9.820310 5.927744 28.118301 0.365353 1.358388 0.136347 -0.053635 -369220.000000 0 0 1
24.637907 9.744410 4.996144 26.961851 0.376625 1.384415 0.166564 -0.047137 449718.000000 0 0 1
23.339407 10.507810 5.498544 26.179686 0.423035 1.359190 0.076414 -0.040183 807044.000000 0 0 1
23.565007 11.899110 5.617044 26.989804 0.467598 1.361147 0.073201 -0.036945 -499392.000000 0 0 1
22.445307 12.454710 6.185844 26.404096 0.506591 1.334323 0.074212 -0.021698 -724395.000000 0 0 1
22.596307 14.009410 6.315544 27.326594 0.554986 1.337574 0.066099 -0.004885 -184312.000000 0 0 1
22.519007 14.698910 5.098044 27.370672 0.578294 1.383443 0.061548 -0.008280 311703.000000 0 0 1
22.777607 16.065410 5.281244 28.369144 0.614285 1.383542 0.109620 -0.012637 -117789.000000 0 0 1
22.268207 16.814810 4.005544 28.189630 0.646760 1.428221 0.096274 -0.027555 626964.000000 0 0 1
20.844307 16.910910 3.865244 27.118335 0.681591 1.427777 0.118202 -0.014635 964913.000000 0 0 1
20.606207 17.756610 2.786144 27.343657 0.711254 1.468726 0.107636 -0.013960 -5874.250000 0 0 1
19.106707 17.835310 2.438144 26.250887 0.750996 1.477784 0.095909 -0.011258 -145665.000000 0 0 1
18.295007 18.589310 3.289144 26.288556 0.793377 1.445351 0.093825 -0.019618 124344.000000 0 0 1
16.940907 18.185310 3.183444 25.056619 0.820810 1.443402 0.083173 -0.031787 272091.000000 0 0 1
16.003107 19.325210 3.777944 25.373924 0.879158 1.421350 0.088719 -0.035080 -598706.000000 0 0 1
14.678507 18.930810 3.820444 24.257575 0.911251 1.412643 0.090054 -0.042833 -622789.000000 0 1 0
13.813707 20.034910 3.993744 24.661024 0.967164 1.408134 0.068554 -0.042416 838720.000000 0 1 0
12.296307 19.691410 3.803044 23.524752 1.012592 1.408422 0.054276 -0.040423 800165.000000 0 1 0
11.582507 19.102010 4.866544 22.863169 1.025721 1.356300 0.047868 -0.042384 100353.000000 0 1 0
10.197107 19.374510 4.775644 22.408914 1.086319 1.356036 0.044571 -0.025239 106218.000000 0 1 0
9.393207 18.932710 5.990844 21.967477 1.110244 1.294583 0.038425 -0.022953 -721807.000000 0 1 0
9.611207 19.727910 7.125244 23.072383 1.117451 1.256843 0.062449 -0.026180 176730.000000 0 1 0
8.895407 19.102410 8.185444 22.606013 1.134988 1.200286 0.061270 -0.019128 -182044.000000 0 1 0
7.651207 19.754610 8.790244 22.935867 1.201275 1.177480 0.058082 -0.025053 -186006.000000 0 1 0
6.571107 19.761810 7.897444 22.272813 1.249782 1.208334 0.052118 -0.034041 -398077.000000 0 1 0
6.275607 21.065010 7.420944 23.198886 1.281252 1.245190 0.062603 -0.034271 -609661.000000 0 1 0
5.104807 21.199710 6.388944 22.722354 1.334499 1.285779 0.045202 -0.027536 406605.000000 0 1 0
3.802107 21.330310 6.916844 22.743810 1.394400 1.261782 0.030968 -0.025794 -9354.150000 0 1 0
3.536607 22.498210 7.751144 24.057375 1.414877 1.242750 0.055858 -0.023670 -1197070.000000 0 1 0
3.507707 23.839210 6.975044 25.085119 1.424704 1.289028 0.084625 -0.024111 -36228.800000 0 0 1
2.413707 24.050710 6.099444 24.929217 1.470772 1.323616 0.049715 -0.021831 228348.000000 0 1 0
2.638607 25.185610 5.285244 25.869113 1.466411 1.365040 0.069750 -0.019343 1071660.000000 0 0 1
1.342507 25.488410 4.394944 25.899361 1.518174 1.400278 0.067133 -0.017898 1297760.000000 0 0 1
0.253407 25.940710 5.196144 26.457222 1.561028 1.373113 0.079133 -0.022766 161105.000000 0 0 1
-0.902293 26.077010 4.380644 26.457790 -1.536209 1.404459 0.079174 -0.022896 -475581.000000 0 0 1
-2.139993 26.474710 5.144644 27.054708 -1.490140 1.379474 0.106943 -0.026492 -1018260.000000 0 0 1
-3.094893 27.013410 4.313944 27.530217 -1.456725 1.413449 0.142048 -0.035193 -366383.000000 0 0 1
-4.243693 27.535010 4.987344 28.302992 -1.417880 1.393659 0.138279 -0.040515 -66469.400000 0 0 1
-5.242593 28.067310 3.976744 28.828340 -1.386138 1.432409 0.161645 -0.047318 -609220.000000 0 0 1
-4.755593 29.195410 3.313444 29.765191 -1.409326 1.459246 0.150752 -0.046672 -8326.420000 0 0 1
-5.498693 29.428810 2.126044 30.013507 -1.386079 1.499901 0.152297 -0.054975 -293474.000000 0 0 1
-4.761293 30.170510 0.976744 30.559510 -1.414274 1.538829 0.135944 -0.043507 59660.000000 0 0 1
-4.390693 31.534410 1.226644 31.862233 -1.432451 1.532288 0.134408 -0.040997 1269030.000000 0 0 1
-3.126893 31.570110 1.958844 31.785003 -1.472072 1.509129 0.134733 -0.044032 617841.000000 0 0 1
-2.386293 32.931510 2.069844 33.082670 -1.498460 1.508190 0.122401 -0.042990 -945915.000000 0 0 1
-1.649493 33.093410 0.897844 33.146655 -1.520994 1.543706 0.089649 -0.028813 -70068.000000 0 0 1
-0.711893 -33.516713 1.048544 33.540666 1.549560 1.539529 0.093455 -0.031907 -78972.400000 0 0 1
0.643907 -33.731313 1.713744 33.780956 -1.551709 1.520043 0.079962 -0.024088 -683226.000000 0 0 1
0.457107 -33.697713 3.111044 33.844104 -1.557232 1.478744 0.072991 -0.026788 718779.000000 0 0 1
1.660407 33.596710 3.811944 33.853018 1.521415 1.457954 0.077486 -0.022229 690419.000000 0 0 1
1.499707 -33.715013 5.308744 34.163342 -1.526344 1.414771 0.075869 -0.024351 837529.000000 0 0 1
0.456907 33.155110 5.956744 33.689062 1.557016 1.393046 0.090843 -0.033489 523846.000000 0 0 1
0.109407 33.578010 7.236844 34.349187 1.567538 1.358521 0.098988 -0.042784 -191766.000000 0 0 1
1.177507 33.491110 8.349444 34.536274 1.535652 1.326618 0.090783 -0.034168 -60039.800000 0 0 1
1.443607 32.111310 8.569944 33.266563 1.525870 1.310244 0.098706 -0.039580 563877.000000 0 0 1
2.579407 32.014410 9.450644 33.479703 1.490400 1.284627 0.114812 -0.038044 307215.000000 0 0 1
3.020607 30.580810 9.612344 32.197938 1.472341 1.267635 0.107030 -0.038319 39026.400000 0 0 1
2.216707 29.800010 10.481844 31.667388 1.496547 1.233435 0.116085 -0.040494 564454.000000 0 0 1
2.768507 28.469710 10.378444 30.428624 1.473857 1.222736 0.103418 -0.035015 419376.000000 0 0 1
2.266607 27.427010 11.475844 29.817334 1.488342 1.175728 0.087392 -0.040681 -288159.000000 0 0 1
2.558707 27.837110 12.830944 30.758492 1.479137 1.140488 0.085714 -0.036711 -7717.710000 0 0 1
2.289407 26.829110 13.776044 30.246023 1.485670 1.097900 0.088464 -0.027946 -432943.000000 0 0 1
0.800107 26.640510 14.087444 30.146526 1.540772 1.084563 0.075124 -0.037617 -413921.000000 0 0 1
0.030507 27.648810 14.717144 31.321749 1.569693 1.081653 0.085208 -0.044330 178080.000000 0 0 1
-0.315393 28.782110 13.882644 31.956801 -1.559839 1.121403 0.099145 -0.047006 -559684.000000 0 0 1
-1.077693 29.864410 14.651444 33.282266 -1.534726 1.114955 0.083557 -0.040514 -43536.300000 0 0 1
-2.343293 29.384410 15.089444 33.115343 -1.491219 1.097679 0.080641 -0.039560 124784.000000 0 0 1
-3.051693 30.501310 15.572044 34.382137 -1.471077 1.100769 0.089808 -0.031877 334030.000000 0 0 1
-4.360293 30.173610 16.382644 34.609969 -1.427283 1.077706 0.082593 -0.029250 677912.000000 0 0 1
-5.318793 29.504410 15.603044 33.797260 -1.392441 1.090924 0.093147 -0.040365 -909075.000000 0 0 1
-6.586493 29.578710 16.132944 34.330073 -1.351694 1.081578 0.082876 -0.029718 -1553610.000000 0 0 1
-7.647893 29.058610 15.180744 33.665236 -1.313444 1.102987 0.064675 -0.034055 -782947.000000 0 0 1
-8.872793 28.891210 15.843544 34.123986 -1.272829 1.087960 0.053567 -0.028893 -206292.000000 0 0 1
-9.840693 28.241810 15.028944 33.471006 -1.235508 1.105135 0.058555 -0.028994 365671.000000 0 0 1
-11.072393 27.801910 15.856044 33.866772 -1.191791 1.083556 0.047370 -0.022531 182535.000000 0 0 1
-11.906493 28.853010 16.384644 35.252196 -1.179424 1.087406 0.042526 -0.035530 566384.000000 0 0 1
-11.968093 28.838710 17.817744 35.949666 -1.177425 1.052236 0.054676 -0.033291 -266391.000000 0 0 1
-12.897893 29.904310 18.419344 37.415180 -1.163597 1.056071 0.057242 -0.035298 446343.000000 0 0 1
-14.273193 29.831010 17.994544 37.648597 -1.124522 1.072465 0.076843 -0.032880 937528.000000 0 0 1
-15.054093 30.862910 18.594944 39.050184 -1.116978 1.074490 0.073643 -0.034021 49029.500000 0 0 1
-15.732793 30.461810 19.971844 39.677667 -1.094055 1.043322 0.068858 -0.044953 -470380.000000 0 0 1
-14.937093 29.900210 20.981944 39.463671 -1.107497 1.010216 0.049203 -0.046718 80001.300000 0 0 1
-15.646793 30.154610 22.171744 40.567338 -1.092155 0.992567 0.050390 -0.039232 346848.000000 0 0 1
-14.648293 30.441910 23.337644 41.060054 -1.122311 0.966263 0.027443 -0.025307 -339567.000000 0 0 1
-13.709993 29.426410 23.623944 40.149325 -1.134793 0.941715 0.032145 -0.026678 557629.000000 0 0 1
-13.254593 29.279910 25.022144 40.732114 -1.145711 0.909285 0.033819 -0.017747 118814.000000 0 0 1
-12.880493 30.564110 25.823544 42.034835 -1.171957 0.909251 0.024810 -0.004600 -362516.000000 0 0 1
-14.038893 31.364110 25.996044 43.088192 -1.149932 0.923137 0.026108 -0.004325 396431.000000 0 0 1
-13.761693 32.682010 26.465244 44.248245 -1.172252 0.929658 0.027631 -0.006959 -565572.000000 0 0 1
-14.992493 33.418110 26.994544 45.500004 -1.149079 0.935661 0.048282 -0.009345 -528709.000000 0 0 1
-15.560493 32.821610 28.128344 45.941167 -1.128088 0.911869 0.024914 -0.009621 410975.000000 0 0 1
-14.893693 33.108010 29.380244 46.702903 -1.148066 0.890417 0.050551 -0.001082 -126594.000000 0 0 1
-15.448093 32.240210 30.529644 47.012061 -1.123962 0.864001 0.041477 -0.004881 -458857.000000 0 0 1
-16.708093 32.694410 30.928644 48.006936 -1.098357 0.870749 0.054689 -0.004646 -395538.000000 0 0 1
-17.267593 32.052310 32.067044 48.516138 -1.076646 0.848704 0.050025 0.001109 736404.000000 0 0 1
-18.793093 32.373710 32.166644 49.355146 -1.044835 0.860922 0.046286 0.002325 502444.000000 0 0 1
-19.021893 33.717210 32.589144 50.603705 -1.057147 0.871072 0.064959 -0.002781 689914.000000 0 0 1
-20.420393 -33.621813 32.718544 51.165632 1.024986 0.876996 0.072150 -0.004142 708354.000000 0 0 1
-20.773893 -32.182713 32.884744 50.484532 0.997592 0.861391 0.080004 -0.005504 -150099.000000 0 0 1
-20.391893 -31.515613 -33.683096 50.434255 0.996504 2.302128 0.087618 -0.008980 100971.000000 0 0 1
-21.190793 -31.914313 -32.570796 50.283494 0.984649 2.275415 0.086483 -0.010683 186230.000000 0 0 1
-21.055093 -31.131013 -31.256596 48.881813 0.976128 2.264556 0.100407 -0.014511 185978.000000 0 0 1
-21.640993 -29.848313 -31.376696 48.412306 0.943467 2.275902 0.092186 -0.015507 245688.000000 0 0 1
-20.969093 -28.903213 -30.503796 46.963604 0.943165 2.277749 0.098218 -0.007990 490246.000000 0 0 1
-21.507993 -27.446613 -30.617696 46.404241 0.906117 2.291354 0.104100 -0.016326 268533.000000 0 0 1
-22.757393 -27.120713 -30.044496 46.433864 0.872656 2.274490 0.093162 -0.008676 62784.000000 0 0 1
-23.107293 -25.726013 -30.055296 45.815887 0.838973 2.286305 0.103120 -0.013422 213204.000000 0 0 1
-24.378893 -25.432713 -29.221896 45.771962 0.806551 2.263245 0.097508 -0.019203 -16224.400000 0 0 1
-24.246593 -25.538513 -27.780996 44.854171 0.811342 2.238727 0.095153 -0.012902 116173.000000 0 0 1
-23.354393 -24.624513 -27.164296 43.470602 0.811864 2.245786 0.102689 -0.018370 87049.200000 0 0 1
-23.210993 -25.065013 -25.707896 42.753959 0.823784 2.215922 0.103786 -0.019538 1144840.000000 0 0 1
-24.430893 -24.791913 -24.959796 42.831050 0.792732 2.192905 0.086372 -0.023336 1261600.000000 0 0 1
-24.319093 -25.354413 -23.657496 42.354948 0.806238 2.163437 0.095436 -0.015185 -1039420.000000 0 0 1
-25.508493 -24.984013 -22.769696 42.347883 0.775011 2.138482 0.088652 -0.015400 574768.000000 0 0 1
-26.775893 -25.579213 -23.096696 43.642891 0.762545 2.128477 0.089379 -0.011311 527548.000000 0 0 1
-26.813893 -27.026813 -23.105496 44.534227 0.789353 2.116273 0.083693 0.002398 -315819.000000 0 0 1
-28.248593 -27.697113 -23.045396 45.784313 0.775541 2.098264 0.054624 0.004628 1373320.000000 0 0 1
-28.934393 -27.418413 -21.817496 45.441958 0.758503 2.071585 0.067195 0.007909 -35945.500000 0 0 1
-29.920793 -26.417313 -21.959196 45.555840 0.723291 2.073764 0.059274 0.010035 211190.000000 0 0 1
-30.726693 -26.000813 -20.699096 45.261733 0.702282 2.045776 0.065574 0.015313 344139.000000 0 0 1
-31.589993 -26.987513 -20.138096 46.171381 0.706988 2.022123 0.059246 0.013201 91925.200000 0 0 1
-32.208693 -26.488913 -18.992496 45.823327 0.688260 1.998159 0.063025 0.008669 -656849.000000 0 0 1
-33.077493 -27.582013 -18.307296 46.797917 0.695049 1.972730 0.043231 0.003881 194268.000000 0 0 1
-34.326193 -27.953313 -18.899596 48.133875 0.683426 1.974304 0.037432 0.015645 967959.000000 0 0 1
-35.378793 -27.023213 -19.083696 48.436561 0.652291 1.975769 0.017330 0.018892 -322290.000000 0 0 1
-35.939693 -26.382313 -17.774096 47.995900 0.633229 1.950156 0.036121 0.010647 -1085720.000000 0 0 1
-35.050693 -25.491513 -17.147696 46.609139 0.628798 1.947550 0.034401 0.017842 -218153.000000 0 0 1
-35.504193 -25.003513 -15.963896 46.266287 0.613567 1.923082 0.035774 0.011563 -202813.000000 0 0 1
-34.940293 -25.726013 -14.673396 45.803497 0.634666 1.896901 0.047471 0.006909 484320.000000 0 0 1
-35.613593 -26.983913 -14.312396 46.918059 0.648402 1.880788 0.041725 0.016410 788938.000000 0 0 1
-35.014793 -27.508413 -13.143496 46.427363 0.665913 1.857819 0.027302 0.018111 405643.000000 0 0 1
-35.872793 -28.755913 -12.757596 47.712850 0.675721 1.841472 0.027952 0.012963 293038.000000 0 0 1
-35.612193 -29.799213 -13.588496 48.382524 0.696763 1.855482 0.025047 0.016619 239848.000000 0 0 1
-36.097693 -31.041613 -13.002796 49.352790 0.710233 1.837410 0.010375 0.011724 -62387.100000 0 0 1
-35.737893 -32.254013 -13.880996 50.101900 0.734203 1.851524 0.010697 0.013282 -1081210.000000 0 0 1
-34.373993 -32.478813 -13.956896 49.307602 0.757057 1.857777 0.024929 0.004386 -984732.000000 0 0 1
-34.203893 -33.540113 -14.886296 50.164203 0.775600 1.872085 0.061388 -0.021076 -785428.000000 0 0 1
-32.746993 33.819210 -15.146096 49.452086 -0.801504 1.882077 0.064410 -0.023034 -652874.000000 0 0 1
-32.385993 33.027110 -16.266696 49.033132 -0.795199 1.908953 0.084087 -0.029630 125775.000000 0 0 1
-30.998093 32.709110 -16.351996 47.939081 -0.812249 1.918883 0.099269 -0.038356 406156.000000 0 0 1
9.797224 19.783110 -9.207456 23.919329 1.110971 1.965937 0.087969 -0.029704 -331276.000000 0 1 0
8.389024 19.680210 -9.217056 23.294646 1.167853 1.977597 0.086194 -0.036751 -177629.000000 0 1 0
7.931824 19.638810 -10.538556 23.657089 1.186945 2.032497 0.097873 -0.038006 -153229.000000 0 1 0
8.195824 18.411410 -11.479556 23.193356 1.151984 2.088574 0.090104 -0.023875 -853513.000000 0 1 0
9.488824 18.134410 -11.914456 23.682248 1.088722 2.097974 0.122732 -0.032663 -705168.000000 0 1 0
9.466324 16.978510 -12.708556 23.224739 1.062177 2.149811 0.121502 -0.040076 433307.000000 0 1 0
10.838324 16.519810 -13.298856 23.816653 0.990159 2.163234 0.159612 -0.041393 554660.000000 0 1 0
10.703424 15.269410 -13.885856 23.249412 0.959419 2.210872 0.171386 -0.050846 760772.000000 0 1 0
11.926324 14.873510 -14.546356 23.980304 0.894928 2.222568 0.181038 -0.061387 617253.000000 0 1 0
11.840824 13.634610 -15.482156 23.786653 0.855695 2.279534 0.155865 -0.054349 -261560.000000 0 1 0
11.690524 12.301510 -15.019956 22.662625 0.810859 2.295299 0.168110 -0.047509 219640.000000 0 1 0
12.752624 11.832910 -14.208856 22.461941 0.748007 2.255669 0.180505 -0.048964 539050.000000 0 1 0
14.046624 11.298210 -14.921656 23.401133 0.677379 2.262236 0.203884 -0.057965 286451.000000 0 1 0
14.737024 12.196310 -15.715456 24.756927 0.691343 2.258533 0.171634 -0.049500 -287461.000000 0 1 0
15.683724 11.456110 -16.436356 25.443574 0.630869 2.273119 0.168769 -0.059664 49580.800000 0 0 1
16.397624 12.218710 -17.611156 26.987623 0.640391 2.281760 0.122967 -0.057854 763480.000000 0 0 1
17.318924 13.284310 -17.271756 27.834001 0.654318 2.240211 0.093784 -0.041255 743236.000000 0 0 1
17.897624 13.888410 -18.477656 29.234169 0.659929 2.255001 0.078540 -0.030349 -206564.000000 0 0 1
18.966624 14.928710 -18.201156 30.230470 0.666828 2.216900 0.065274 -0.016987 -580733.000000 0 0 1
18.547924 16.184610 -17.639956 30.284239 0.717460 2.192572 0.069022 -0.028668 -168373.000000 0 0 1
17.835224 16.979510 -18.526656 30.816164 0.760824 2.215797 0.071006 -0.020320 -290439.000000 0 0 1
17.603624 18.333010 -17.902356 31.088281 0.805692 2.184446 0.070100 -0.014140 223611.000000 0 0 1
18.780824 19.135410 -17.815156 32.191040 0.794750 2.157261 0.080507 -0.015005 530185.000000 0 0 1
18.433424 20.522410 -17.482756 32.658953 0.838971 2.135674 0.061932 -0.009822 -348185.000000 0 0 1
19.631324 21.458310 -17.601656 33.995092 0.829832 2.115039 0.071683 -0.006863 381548.000000 0 0 1
20.772124 21.178310 -16.769656 34.076727 0.795080 2.085314 0.094769 -0.009375 206088.000000 0 0 1
20.651924 21.430610 -15.385456 33.503511 0.803900 2.047912 0.094890 -0.010564 -1351660.000000 0 0 1
21.603224 22.476610 -14.890456 34.548849 0.805209 2.016394 0.084265 -0.011957 178107.000000 0 0 1
22.948224 22.020510 -14.709156 35.041163 0.764771 2.003986 0.087670 -0.026111 83386.300000 0 0 1
23.648524 22.987110 -13.981756 35.821075 0.771217 1.971778 0.078269 -0.029866 1357820.000000 0 0 1
25.221224 22.701310 -13.928356 36.680495 0.732863 1.960291 0.062329 -0.019427 1691270.000000 0 0 1
25.862824 22.828610 -15.195956 37.695466 0.723164 1.985725 0.082083 -0.008987 75838.300000 0 0 1
26.986424 23.680310 -15.127856 38.959931 0.720238 1.969575 0.056359 -0.002190 -238970.000000 0 0 1
27.284024 24.046710 -16.588556 39.973021 0.722414 1.998732 0.075597 -0.001676 -304630.000000 0 0 1
28.045024 22.988310 -17.184356 40.128392 0.686634 2.013334 0.078966 -0.006101 42503.100000 0 0 1
27.917124 23.000910 -18.637956 40.691290 0.689145 2.046578 0.080143 -0.009410 -743667.000000 0 0 1
28.857724 22.056410 -19.382656 41.169659 0.652600 2.060993 0.073357 -0.010179 -964466.000000 0 0 1
30.180524 22.445910 -19.455056 42.345981 0.639471 2.048151 0.070555 -0.001821 -1472390.000000 0 0 1
30.728824 21.618810 -20.432556 42.768247 0.613095 2.068889 0.080621 -0.010451 86663.400000 0 0 1
32.248724 21.894710 -20.599156 44.087229 0.596446 2.056959 0.093793 -0.016914 -222579.000000 0 0 1
32.537724 23.112610 -21.215456 45.199467 0.617627 2.059378 0.085460 -0.005949 707214.000000 0 0 1
33.926424 23.480710 -21.127556 46.354284 0.605409 2.044050 0.076953 -0.011488 865589.000000 0 0 1
34.055824 24.908910 -21.643956 47.420605 0.631500 2.044770 0.085257 -0.012785 -189835.000000 0 0 1
34.062224 25.170610 -23.055356 48.221823 0.636398 2.069298 0.092781 -0.011417 900666.000000 0 0 1
32.832324 24.834410 -23.757356 47.530216 0.647585 2.094207 0.101618 -0.014467 679640.000000 0 0 1
32.809824 25.493210 -25.168666 48.578288 0.660558 2.115431 0.102466 -0.012653 -264866.000000 0 0 1
32.338324 26.865010 -25.311036 49.072849 0.693211 2.112720 0.106695 -0.012210 947770.000000 0 0 1
30.921724 26.986210 -25.553056 48.346326 0.717541 2.127678 0.094176 -0.004828 928067.000000 0 0 1
30.546324 26.762410 -27.024606 48.781491 0.719467 2.157949 0.100556 -0.000274 -572919.000000 0 0 1
30.599624 25.378410 -27.436506 48.302821 0.692395 2.174883 0.096539 -0.011554 -13996.200000 0 0 1
30.322024 25.274210 -28.822786 48.877028 0.694852 2.201484 0.107150 -0.019925 -131465.000000 0 0 1
29.665424 23.918110 -29.214006 48.016367 0.678548 2.224862 0.117947 -0.030254 339064.000000 0 0 1
28.318524 23.940810 -28.773946 46.936565 0.701824 2.230698 0.124594 -0.029039 227238.000000 0 0 1
27.588324 22.736410 -28.931946 45.990406 0.689283 2.251174 0.134642 -0.041400 841222.000000 0 0 1
26.074224 22.843810 -28.525606 44.893374 0.719457 2.259333 0.116959 -0.036809 620221.000000 0 0 1
25.884724 23.056110 -27.144306 44.027452 0.727666 2.235126 0.110513 -0.024724 992225.000000 0 0 1
24.482324 23.114310 -26.834496 43.055147 0.756664 2.243699 0.065030 -0.011401 715155.000000 0 0 1
24.290924 23.222910 -25.261756 42.041752 0.762924 2.215389 0.079233 -0.010043 -159993.000000 0 0 1
24.675024 22.021010 -24.655156 41.251163 0.728623 2.211405 0.084009 -0.017573 188316.000000 0 0 1
24.959124 22.236410 -23.264256 40.726422 0.727772 2.178803 0.099315 -0.006873 -289196.000000 0 0 1
25.476624 20.945610 -22.646956 40.008269 0.688102 2.172511 0.094261 -0.004395 239954.000000 0 0 1
26.685424 20.478010 -23.221756 40.874328 0.654535 2.175023 0.090270 -0.002310 -17909.600000 0 0 1
27.470624 19.682110 -22.406356 40.547077 0.621700 2.156278 0.102395 -0.013834 -516717.000000 0 0 1
28.644024 19.071510 -23.145856 41.472078 0.587410 2.162899 0.121247 -0.022381 -121420.000000 0 0 1
29.691224 18.756910 -22.229856 41.563890 0.563426 2.135110 0.125052 -0.027647 700814.000000 0 0 1
30.830524 18.222610 -22.949956 42.535693 0.533818 2.140694 0.110497 -0.019348 789054.000000 0 0 1
31.971924 17.706010 -22.035856 42.676524 0.505755 2.113375 0.077307 -0.011951 369729.000000 0 0 1
32.748224 18.799710 -21.553356 43.478988 0.521134 2.089459 0.074017 -0.009909 -348763.000000 0 0 1
34.033424 18.395410 -21.168156 44.099387 0.495528 2.071463 0.081010 -0.018151 -21125.200000 0 0 1
34.791824 19.456910 -20.291456 44.730141 0.509908 2.041644 0.046285 -0.024544 146270.000000 0 0 1
34.125024 19.787310 -19.075156 43.816852 0.525470 2.021210 0.049458 -0.019092 438308.000000 0 0 1
34.833924 20.837510 -18.358456 44.549265 0.539092 1.995547 0.023565 -0.006002 376399.000000 0 0 1
34.348824 20.853910 -16.875556 43.583388 0.545639 1.968391 0.017555 -0.013178 139420.000000 0 0 1
34.550024 19.603610 -16.209256 42.903912 0.516102 1.958219 0.024943 -0.030979 198009.000000 0 0 1
34.091124 19.652110 -14.869556 42.065590 0.522930 1.932090 0.024041 -0.029109 -327096.000000 0 0 1
34.289324 18.263710 -14.133656 41.341034 0.489414 1.919713 0.025564 -0.014252 -531064.000000 0 0 1
35.639124 18.011510 -13.834356 42.260514 0.467947 1.904303 0.015486 -0.020886 -215764.000000 0 0 1
35.838624 16.964610 -12.861256 41.684732 0.442110 1.884450 0.015438 -0.014186 -142289.000000 0 0 1
35.858424 17.459710 -11.383156 41.475828 0.453118 1.848817 0.024855 -0.018404 -39384.400000 0 0 1
36.968224 18.265710 -10.953756 42.664628 0.458910 1.830445 0.020808 -0.020689 -120539.000000 0 0 1
36.839724 18.819210 -9.640756 42.476724 0.472282 1.799757 0.026938 -0.017553 -434115.000000 0 0 1
35.727224 19.888710 -9.357656 41.947122 0.507959 1.795772 0.030761 -0.016086 332436.000000 0 0 1
34.429024 19.358010 -9.500956 40.624604 0.512206 1.806855 0.061687 -0.028459 -133065.000000 0 0 1
33.393524 20.342710 -9.457256 40.229255 0.547143 1.808101 0.038255 -0.015094 455575.000000 0 0 1
31.980424 19.738510 -9.600256 38.788158 0.552975 1.820900 0.024535 -0.015195 51106.000000 0 0 1
31.805624 19.221910 -10.942556 38.740406 0.543616 1.857152 0.034273 -0.025703 -787094.000000 0 0 1
30.685224 18.420810 -11.025056 37.449447 0.540651 1.869622 0.044548 -0.031419 -835323.000000 0 0 1
30.435724 17.899110 -12.455456 37.441285 0.531620 1.909926 0.051170 -0.021348 -250738.000000 0 0 1
31.417024 17.061410 -13.025356 38.049718 0.497501 1.920186 0.070316 -0.021156 -183825.000000 0 0 1
30.922824 16.232510 -14.032856 37.638232 0.483397 1.952859 0.053109 -0.022648 333642.000000 0 0 1
32.124824 15.609110 -14.827556 38.671760 0.452296 1.964294 0.059304 -0.023390 736966.000000 0 0 1
33.027124 14.907110 -13.971856 38.835880 0.423984 1.938814 0.045954 -0.023823 658551.000000 0 0 1
34.113324 14.298410 -14.729456 39.813569 0.396901 1.949763 0.048062 -0.021289 660756.000000 0 0 1
34.847424 13.305510 -13.824256 39.780518 0.364738 1.925714 0.039415 -0.032301 -527793.000000 0 0 1
35.705024 13.903710 -12.900056 40.429857 0.371339 1.895547 0.039733 -0.012846 20616.000000 0 0 1
36.312624 12.913310 -12.047856 40.379587 0.341668 1.873776 0.038825 -0.015011 23555.200000 0 0 1
37.429724 13.492910 -11.169556 41.325559 0.345986 1.844482 0.064555 -0.009715 -485379.000000 0 0 1
-36.397759 13.591110 -11.760056 40.593276 -0.357372 1.864714 0.050154 -0.013679 -935925.000000 0 0 1
-35.524859 14.168010 -10.848056 39.754603 -0.379488 1.847177 0.044538 -0.018350 -1079920.000000 0 0 1
-34.079259 14.387010 -11.374456 38.700907 -0.399465 1.869108 0.095394 -0.028459 -49990.400000 0 0 1
-33.294859 13.305810 -11.700456 37.715950 -0.380192 1.886227 0.124891 -0.036871 -297677.000000 0 0 1
-33.111059 12.415010 -10.597156 36.915775 -0.358727 1.861956 0.134692 -0.028477 -363018.000000 0 0 1
-31.856159 11.465510 -10.813956 35.541728 -0.345480 1.879959 0.167399 -0.032237 876970.000000 0 0 1
-32.068559 10.684710 -11.993256 35.866331 -0.321616 1.911752 0.153224 -0.020976 361303.000000 0 0 1
-31.190559 9.561310 -11.946856 34.741862 -0.297451 1.921837 0.160490 -0.031356 139336.000000 0 0 1
-31.038459 8.880010 -13.301156 34.916490 -0.278653 1.961611 0.148852 -0.033472 -202731.000000 0 0 1
-32.226759 8.334410 -13.804656 36.036023 -0.253073 1.963924 0.117684 -0.028354 -136104.000000 0 0 1
-31.978959 7.466710 -14.915456 36.067665 -0.229379 1.997136 0.113323 -0.027242 75151.800000 0 0 1
-33.228459 7.035610 -15.741156 37.435469 -0.208653 2.004779 0.096142 -0.028048 529963.000000 0 0 1
-34.190559 6.386810 -14.910256 37.843116 -0.184672 1.975778 0.102800 -0.029734 141933.000000 0 0 1
-35.182959 5.637310 -15.548156 38.876279 -0.158878 1.982247 0.085895 -0.038091 -131453.000000 0 0 1
-36.250059 5.172410 -14.531556 39.395263 -0.141730 1.948585 0.099896 -0.039459 757357.000000 0 0 1
-37.426259 4.550910 -15.117656 40.619936 -0.121003 1.952146 0.101440 -0.035230 634072.000000 0 0 1
36.814524 4.100310 -14.094456 39.633009 0.110920 1.934378 0.103717 -0.039569 227900.000000 0 0 1
35.693024 3.191710 -14.681256 38.726196 0.089184 1.959624 0.105703 -0.039682 -163734.000000 0 0 1
36.253224 2.008510 -15.167556 39.349525 0.055346 1.966500 0.122294 -0.041631 699344.000000 0 0 1
35.303424 0.912010 -15.322956 38.496188 0.025828 1.980174 0.118643 -0.039426 842094.000000 0 0 1
34.546924 0.431110 -14.055056 37.299067 0.012478 1.957158 0.111167 -0.039552 -122609.000000 0 0 1
35.432624 -0.179690 -13.123056 37.785152 -0.005071 1.925494 0.130091 -0.043408 200986.000000 0 0 1
35.025224 -0.193090 -11.728156 36.937152 -0.005513 1.893906 0.117514 -0.037932 -245162.000000 0 0 1
35.245424 1.146610 -10.973556 36.932012 0.032521 1.872480 0.117912 -0.046960 608997.000000 0 0 1
34.276024 2.105910 -11.444456 36.197462 0.061363 1.892483 0.117701 -0.035943 1010000.000000 0 0 1
34.569524 3.331510 -10.703556 36.341671 0.096075 1.869755 0.135670 -0.031184 -68214.500000 0 0 1
33.563424 4.420710 -11.030056 35.604891 0.130958 1.885769 0.137702 -0.034225 -272520.000000 0 0 1
33.780424 4.868910 -12.382156 36.306213 0.143148 1.918828 0.118932 -0.031426 177988.000000 0 0 1
32.768624 5.697010 -12.888456 35.670028 0.172135 1.940484 0.129049 -0.037177 -404835.000000 0 0 1
33.025824 6.323010 -14.254456 36.522254 0.189167 1.971748 0.101744 -0.032818 -438194.000000 0 0 1
32.920124 5.355510 -15.292256 36.691540 0.161269 2.000695 0.100725 -0.026623 -4650.390000 0 0 1
33.279724 5.811210 -16.532756 37.611730 0.172874 2.025909 0.095536 -0.024506 -430797.000000 0 0 1
32.308024 6.821810 -17.260356 37.259434 0.208093 2.052453 0.100885 -0.025448 1047730.000000 0 0 1
31.047524 6.398010 -17.809856 36.360339 0.203227 2.082674 0.086078 -0.023001 1108760.000000 0 0 1
30.075824 6.142810 -16.809356 34.997768 0.201473 2.071791 0.080579 -0.015263 -1282810.000000 0 0 1
28.638524 6.165610 -17.289056 34.016044 0.212054 2.103962 0.064333 -0.009008 -739804.000000 0 0 1
28.252124 5.097510 -18.110256 33.943313 0.178509 2.133582 0.076767 -0.016111 215533.000000 0 0 1
27.284224 5.504910 -19.064156 33.736849 0.199089 2.171331 0.054488 -0.016339 -141732.000000 0 0 1
26.820324 4.301310 -19.871056 33.655459 0.159021 2.202383 0.064606 0.001088 -8475.090000 0 0 1
26.070624 3.392410 -19.060856 32.473098 0.129397 2.198112 0.070104 -0.014204 317622.000000 0 0 1
25.555224 2.265710 -19.764056 32.385503 0.088428 2.227204 0.069998 -0.014923 -424537.000000 0 0 1
24.393824 1.553010 -19.080856 31.008862 0.063578 2.233608 0.082076 -0.017600 1073960.000000 0 0 1
23.076224 2.177210 -19.137556 30.058250 0.094070 2.260985 0.085173 -0.019143 1252740.000000 0 0 1
22.112324 1.371010 -18.480256 28.850553 0.061923 2.266012 0.108954 -0.024050 -857069.000000 0 0 1
20.857124 2.198810 -18.345856 27.864401 0.105035 2.289484 0.122112 -0.035506 -1992720.000000 0 0 1
20.169024 2.256010 -19.604756 28.217469 0.111392 2.338902 0.125877 -0.024166 1157690.000000 0 0 1
18.960924 3.053210 -19.526656 27.388483 0.159656 2.364494 0.129237 -0.022841 1548410.000000 0 0 1
17.767224 2.530210 -18.651056 25.883163 0.141458 2.375444 0.171971 -0.038359 -754411.000000 0 0 1
17.979024 2.694810 -17.242656 25.056266 0.148779 2.329743 0.180538 -0.043799 155561.000000 0 0 1
16.873524 2.361110 -16.417656 23.660729 0.139027 2.337657 0.141500 -0.027124 751590.000000 0 1 0
15.732224 3.438110 -16.282856 22.900980 0.215157 2.361732 0.133942 -0.029633 208071.000000 0 1 0
15.058424 3.721410 -17.463456 23.357597 0.242277 2.415322 0.126490 -0.021300 -540954.000000 0 1 0
13.768724 4.112710 -17.114856 22.347493 0.290263 2.443161 0.112342 -0.034437 -655308.000000 0 1 0
-20.074376 -21.951190 -17.057056 34.289626 0.830027 2.091442 0.123838 -0.015621 107063.000000 0 0 1
-20.116376 -22.271690 -18.393256 35.199554 0.836202 2.120626 0.118583 -0.021920 -35809.000000 0 0 1
-21.379376 -21.953990 -18.940256 36.024834 0.798658 2.124399 0.121986 -0.020285 45341.100000 0 0 1
-21.538076 -22.662190 -20.304156 37.278980 0.810825 2.146773 0.098421 -0.011770 16200.500000 0 0 1
-21.597976 -24.084090 -20.159356 38.117130 0.839767 2.128076 0.086489 -0.017551 -35865.000000 0 0 1
-21.238276 -24.701590 -21.327556 38.937097 0.860644 2.150462 0.079662 -0.020105 -139743.000000 0 0 1
-21.020376 -26.253390 -21.161456 39.735424 0.895645 2.132417 0.082505 -0.008600 -359051.000000 0 0 1
-22.158976 -27.032040 -20.952856 40.752590 0.884140 2.110810 0.087348 0.000861 -384267.000000 0 0 1
-21.810576 -28.421720 -20.931356 41.492373 0.916257 2.099556 0.116789 -0.024092 231446.000000 0 0 1
-23.119476 -29.177760 -21.239556 42.859895 0.900727 2.089273 0.105174 -0.018392 426371.000000 0 0 1
-23.744976 -28.966010 -22.529456 43.708466 0.884126 2.112327 0.084430 -0.008589 174714.000000 0 0 1
-23.208576 -29.687390 -23.602356 44.464034 0.907273 2.130363 0.077779 -0.008776 -545130.000000 0 0 1
-23.544676 -29.054450 -24.972356 44.968115 0.889768 2.159562 0.072756 0.002223 689922.000000 0 0 1
-24.953276 -28.993780 -25.254746 45.837839 0.860156 2.154309 0.066433 0.009857 939604.000000 0 0 1
-25.257156 -28.264670 -26.415746 46.201809 0.841531 2.179430 0.067646 0.015967 -282573.000000 0 0 1
-24.736176 -28.751850 -27.794736 47.022278 0.860334 2.203215 0.072348 -0.002240 -234219.000000 0 0 1
-25.255186 -29.985920 -28.316286 48.361057 0.870828 2.196316 0.059455 0.001366 268033.000000 0 0 1
-24.847776 -30.052300 -29.617776 48.966982 0.879916 2.220376 0.090588 -0.008202 107730.000000 0 0 1
-25.464216 -31.317130 -30.267436 50.451032 0.888114 2.214219 0.054525 -0.003057 496108.000000 0 0 1
-24.762676 -32.497020 -29.862806 50.606656 0.919660 2.201975 0.058934 -0.007473 233895.000000 0 0 1
-25.502256 -33.590910 -30.409396 51.994669 0.921432 2.195499 0.050811 -0.009168 -118353.000000 0 0 1
-24.837676 32.696884 -30.550406 51.179329 -0.921158 2.210464 0.065721 -0.008902 -128126.000000 0 0 1
-23.849276 32.620268 -31.564516 51.275613 -0.939489 2.233925 0.079825 -0.019501 -219761.000000 0 0 1
-23.322876 31.344833 -31.498796 50.185947 -0.931099 2.249317 0.080832 -0.014192 -1115980.000000 0 0 1
-22.171576 31.221093 -32.449086 50.192416 -0.953292 2.273776 0.073466 -0.008745 -970447.000000 0 0 1
-22.433476 30.955173 -33.821636 51.042989 -0.943679 2.295096 0.065777 0.001029 130588.000000 0 0 1
-21.873676 29.707633 33.504238 49.835080 -0.936122 0.833482 0.050667 0.011293 -33551.800000 0 0 1
-22.032776 29.566943 31.943510 48.785605 -0.930385 0.856914 0.051066 0.013672 370678.000000 0 0 1
-21.107776 30.375253 31.190963 48.384609 -0.963501 0.870236 0.041759 0.011139 565621.000000 0 0 1
-21.109576 30.036003 29.864943 47.325369 -0.958188 0.887883 0.057274 0.008944 -172879.000000 0 0 1
-20.690976 31.217203 28.965423 47.345813 -0.985471 0.912482 0.050738 -0.011792 -41517.700000 0 0 1
-21.597276 32.307043 28.929563 48.446951 -0.981525 0.930867 0.049906 -0.005622 -89454.800000 0 0 1
-20.983776 33.528559 28.778793 48.915254 -1.011588 0.941792 0.058283 -0.021362 -374679.000000 0 0 1
-22.004276 -32.975620 28.766293 48.980397 0.982363 0.943075 0.080319 -0.029869 86667.300000 0 0 1
-22.588376 -32.652100 30.044993 49.790521 0.965602 0.923003 0.071156 -0.019327 785769.000000 0 0 1
-23.771676 -31.831090 30.054463 49.815476 0.929342 0.923144 0.075930 -0.019649 434175.000000 0 0 1
-23.614576 -30.352290 29.782483 48.640580 0.909605 0.911834 0.093285 -0.017803 -574992.000000 0 0 1
-23.184676 -30.174210 28.410163 47.488415 0.915648 0.929475 0.064600 -0.011644 143293.000000 0 0 1
-23.122876 -28.796490 27.970133 46.327460 0.894244 0.922601 0.061953 -0.015006 383611.000000 0 0 1
-24.477076 -28.221790 27.444053 46.354857 0.856338 0.937205 0.059034 -0.005259 357112.000000 0 0 1
-25.586986 -28.035430 28.320393 47.357405 0.831027 0.929775 0.069615 -0.007423 1127860.000000 0 0 1
-26.538456 -29.130250 28.309453 48.520988 0.831922 0.947829 0.064540 -0.016684 270924.000000 0 0 1
-27.589186 -29.173000 27.171123 48.481925 0.813294 0.975882 0.043858 -0.006135 -292938.000000 0 0 1
-26.992636 -29.528950 25.893483 47.655364 0.830241 0.996375 0.053108 -0.007835 475274.000000 0 0 1
-27.953356 -29.673700 24.864393 47.750986 0.815242 1.023114 0.056281 -0.007792 122290.000000 0 0 1
-27.313806 -29.778220 23.421663 46.705039 0.828537 1.045487 0.056953 -0.007540 -633975.000000 0 0 1
-26.717656 -28.583430 23.023463 45.397417 0.819124 1.038917 0.035558 -0.010752 519006.000000 0 0 1
-25.953036 -28.695660 21.798383 44.409126 0.835543 1.057727 0.066962 -0.016826 437761.000000 0 0 1
-24.697976 -29.595160 21.719783 44.244915 0.875354 1.057675 0.079973 -0.024515 -816977.000000 0 0 1
-24.952776 -30.960900 21.520183 45.214341 0.892441 1.074742 0.096618 -0.034009 865156.000000 0 0 1
-23.794676 -31.768450 21.230983 45.013061 0.927933 1.079621 0.090091 -0.023185 323657.000000 0 0 1
-22.884776 -32.302160 22.290383 45.431307 0.954415 1.057973 0.076480 -0.019176 -367114.000000 0 0 1
-22.125876 -31.328390 22.982343 44.712532 0.955884 1.030952 0.073951 -0.026009 -93959.500000 0 0 1
-21.316276 -32.040620 23.882793 45.292083 0.983748 1.015369 0.066467 -0.028560 -382633.000000 0 0 1
-20.708876 -31.136690 24.978903 44.969952 0.983882 0.981883 0.057994 -0.019821 -331515.000000 0 0 1
-19.583776 -30.376140 24.557863 43.695798 0.998149 0.973972 0.067716 -0.026364 259798.000000 0 0 1
-19.055776 -29.612300 25.647553 43.563837 0.998998 0.941303 0.085849 -0.027483 -504200.000000 0 0 1
-18.059676 -30.205780 26.607703 44.119280 1.031931 0.923433 0.071645 -0.029503 -1284310.000000 0 0 1
-18.519176 -31.380080 27.162733 45.447589 1.037646 0.930203 0.077025 -0.031781 259930.000000 0 0 1
-17.724776 -31.914110 28.244393 46.156515 1.063824 0.912302 0.075303 -0.025022 -10346.800000 0 0 1
-18.122976 -31.341560 29.652233 46.797335 1.046530 0.884559 0.097179 -0.027343 -134974.000000 0 0 1
-17.584676 -30.075100 29.840843 45.871651 1.041709 0.862515 0.099798 -0.024191 70897.700000 0 0 1
-17.832276 -29.530730 31.128483 46.465434 1.027547 0.836685 0.121759 -0.023572 -333514.000000 0 0 1
-17.645776 -27.944960 31.179613 45.436356 1.007574 0.814508 0.130905 -0.028776 93557.200000 0 0 1
-18.702576 -27.160120 30.622853 45.002418 0.967759 0.822391 0.124748 -0.026320 400246.000000 0 0 1
-18.808376 -27.097250 29.188823 44.045469 0.964037 0.846381 0.115853 -0.022054 206973.000000 0 0 1
-17.522676 -26.700460 28.387053 42.729188 0.990027 0.844175 0.111429 -0.025413 343289.000000 0 0 1
-17.249676 -25.332880 28.366343 41.760694 0.972991 0.824043 0.109034 -0.016592 -886866.000000 0 0 1
-16.100476 -25.129250 27.650513 40.684830 1.000982 0.823542 0.102719 -0.019673 -965422.000000 0 0 1
-16.053676 -23.828890 26.839943 39.318177 0.977936 0.819435 0.105468 -0.012000 -276392.000000 0 0 1
-17.085776 -23.674190 25.894623 39.024640 0.945651 0.845248 0.120782 -0.019804 -226088.000000 0 0 1
-16.882476 -22.671990 24.962713 37.711725 0.930734 0.847399 0.113680 -0.024220 -243999.000000 0 0 1
-17.808276 -21.441290 25.118653 37.520799 0.877697 0.837315 0.095846 -0.018610 -285171.000000 0 0 1
-17.525876 -20.513690 24.142283 36.205216 0.863782 0.840866 0.100914 -0.024276 236363.000000 0 0 1
-18.128276 -19.270390 24.462703 36.033403 0.815928 0.824547 0.085675 -0.011136 -86939.600000 0 0 1
-17.578476 -18.159690 23.532043 34.533089 0.801660 0.821075 0.090553 -0.022758 -881484.000000 0 0 1
-16.218776 -18.003990 23.655983 33.864404 0.837515 0.797427 0.102396 -0.032852 -1259040.000000 0 0 1
-15.788076 -16.737990 23.166333 32.651227 0.814595 0.781995 0.101777 -0.028754 111112.000000 0 0 1
-14.406776 -16.320190 23.712353 32.189742 0.847589 0.742703 0.121931 -0.037852 -173497.000000 0 0 1
-13.347976 -17.097690 23.215273 31.771817 0.907942 0.751468 0.103098 -0.036995 -409078.000000 0 0 1
-12.066276 -16.576690 23.418103 31.125379 0.941586 0.719129 0.098852 -0.042623 -444316.000000 0 0 1
-11.464076 -15.844790 22.198983 29.585085 0.944457 0.722214 0.101774 -0.033758 45983.700000 0 0 1
-10.869776 -16.576690 21.099083 28.950129 0.990406 0.754217 0.120292 -0.031227 746094.000000 0 0 1
-9.687676 -17.322490 21.432783 29.211024 1.060876 0.747012 0.105418 -0.033088 173324.000000 0 0 1
-9.402176 -18.380290 20.354283 28.991944 1.097963 0.792501 0.096806 -0.028811 168501.000000 0 0 1
-9.015976 -17.968290 19.035183 27.685474 1.105732 0.812685 0.093013 -0.028899 -128084.000000 0 0 1
-8.939076 -19.142990 18.196083 27.882944 1.133925 0.859801 0.074916 -0.027844 168627.000000 0 0 1
-8.556876 -18.730890 16.743183 26.540545 1.142275 0.888144 0.065905 -0.028630 -297270.000000 0 0 1
-7.282176 -18.174590 16.695683 25.731141 1.189705 0.864723 0.057079 -0.020278 -716582.000000 0 0 1
-7.054676 -17.707090 15.353783 24.475460 1.191662 0.892698 0.064640 -0.019332 43382.400000 0 1 0
-5.916976 -16.694590 15.211683 23.347703 1.230185 0.861199 0.045945 -0.016328 -279494.000000 0 1 0
-6.278576 -15.416990 15.706383 22.886559 1.184055 0.814447 0.059405 -0.024596 384444.000000 0 1 0
-5.325776 -14.363290 15.508283 21.798505 1.215721 0.779254 0.036476 -0.017405 -4358.500000 0 1 0
-5.702276 -13.337290 16.620183 22.059686 1.166773 0.717550 0.024966 -0.009184 117447.000000 0 1 0
-5.404776 -13.608590 18.034083 23.230012 1.192741 0.681979 0.040850 -0.012410 -116650.000000 0 1 0
-6.014176 -14.681990 18.767683 24.575538 1.182016 0.701812 0.067206 -0.021051 -637807.000000 0 1 0
-7.353176 -14.297990 19.370983 25.174128 1.095790 0.692770 0.103461 -0.032225 -471013.000000 0 0 1
-7.145676 -13.379290 20.369383 25.396414 1.080254 0.640064 0.090515 -0.028632 309557.000000 0 0 1
-8.372576 -12.955790 20.955583 26.020934 0.997067 0.634555 0.097027 -0.021421 611615.000000 0 0 1
-8.041576 -11.849690 21.946783 26.205789 0.974556 0.578144 0.089241 -0.017634 -767938.000000 0 0 1
-7.693176 -10.666990 21.344583 25.071116 0.945975 0.552221 0.061722 -0.016270 -108655.000000 0 0 1
-7.187376 -9.723290 22.232483 25.307786 0.934248 0.498117 0.058851 -0.028832 83258.400000 0 0 1
-5.764376 -9.982390 22.793883 25.542851 1.047119 0.468209 0.060971 -0.022897 -435853.000000 0 0 1
-5.673776 -10.958890 23.802933 26.811726 1.093063 0.478296 0.074637 -0.017812 -503820.000000 0 0 1
-4.329576 -11.290990 24.012773 26.885776 1.204635 0.466517 0.059626 -0.015359 -582435.000000 0 0 1
-4.115076 -12.331890 25.099233 28.266250 1.248721 0.477911 0.067432 -0.021126 -534375.000000 0 0 1
-2.809176 -12.512790 25.613003 28.644150 1.349954 0.464202 0.030707 -0.017791 92816.100000 0 0 1
-2.767376 -13.615090 26.516403 29.935742 1.370270 0.482630 0.052020 -0.026652 -60786.000000 0 0 1
-2.833676 -15.050490 25.916553 30.103400 1.384697 0.533725 0.066147 -0.039939 550061.000000 0 0 1
-1.559876 -15.585990 25.501273 29.927767 1.471047 0.550823 0.058075 -0.036798 671325.000000 0 0 1
-1.621976 -16.911590 25.000213 30.226534 1.475180 0.596877 0.074931 -0.035454 -163166.000000 0 0 1
-0.256676 -17.664590 24.872953 30.508481 1.556267 0.617584 0.086338 -0.033572 708590.000000 0 0 1
0.390524 -18.116590 26.052703 31.734944 -1.549244 0.607729 0.094958 -0.031178 180181.000000 0 0 1
0.910824 -17.093090 26.904873 31.888486 -1.517561 0.566625 0.099590 -0.039787 -633677.000000 0 0 1
1.683024 -17.721390 28.090703 33.256095 -1.476109 0.564832 0.096600 -0.035716 -955353.000000 0 0 1
2.875824 -18.313790 27.700663 33.331547 -1.415038 0.589778 0.090986 -0.035799 -89435.900000 0 0 1
3.815624 -18.377990 28.815473 34.389548 -1.366085 0.577347 0.103536 -0.050121 1018640.000000 0 0 1
4.690724 -17.090890 29.114503 34.084537 -1.302934 0.546815 0.116340 -0.047099 -492675.000000 0 0 1
3.998824 -15.929090 29.508353 33.770836 -1.324840 0.507870 0.117479 -0.052827 -163623.000000 0 0 1
4.836124 -14.914090 30.014523 33.862808 -1.257229 0.481380 0.140167 -0.060038 -36533.000000 0 0 1
3.980124 -13.855790 30.772753 33.982152 -1.291074 0.438107 0.128975 -0.056503 245136.000000 0 0 1
3.498924 -14.463390 31.939557 35.235883 -1.333441 0.435996 0.107332 -0.061590 -272844.000000 0 0 1
2.467224 -13.739490 32.541913 35.409559 -1.393118 0.405222 0.107401 -0.051363 -56699.000000 0 0 1
1.627124 -14.526390 33.586866 36.629784 -1.459250 0.410484 0.096857 -0.051370 248072.000000 0 0 1
2.371724 -14.721890 -32.971436 36.186665 -1.411067 2.716860 0.113472 -0.047499 -16766.300000 0 0 1
1.544724 -15.042090 -31.865546 35.271287 -1.468462 2.698527 0.096999 -0.052911 353647.000000 0 0 1
2.295924 -15.604390 -30.614096 34.438222 -1.424711 2.665859 0.105098 -0.041829 662641.000000 0 0 1
1.406424 -15.820790 -29.492706 33.497688 -1.482132 2.647586 0.092772 -0.036124 -5085.800000 0 0 1
2.151424 -15.994690 -28.293256 32.572489 -1.437090 2.623215 0.093203 -0.031922 39078.700000 0 0 1
2.084424 -17.377490 -27.580496 32.665054 -1.451417 2.576133 0.087719 -0.038757 220936.000000 0 0 1
2.972624 -18.342490 -28.194966 33.767433 -1.410131 2.558884 0.067052 -0.036274 309276.000000 0 0 1
2.871024 -19.557990 -27.530846 33.892554 -1.425042 2.518877 0.071467 -0.042505 -494597.000000 0 0 1
4.021824 -20.565290 -27.816656 34.826320 -1.377670 2.495970 0.050123 -0.035239 -121557.000000 0 0 1
5.322124 -20.288190 -27.368276 34.481273 -1.314251 2.487687 0.063498 -0.025885 80683.100000 0 0 1
5.479424 -20.333490 -25.939796 33.411793 -1.307571 2.459677 0.085607 -0.028720 -867839.000000 0 0 1
6.386724 -21.457590 -25.371906 33.837140 -1.281502 2.418593 0.039164 -0.020594 -404833.000000 0 0 1
5.883124 -22.781590 -25.471876 34.676050 -1.318077 2.395824 0.047231 -0.019283 223352.000000 0 0 1
5.996224 -23.378290 -26.758316 36.034797 -1.319722 2.407694 0.027108 -0.009116 -302251.000000 0 0 1
5.405624 -24.753890 -26.996896 37.024427 -1.355797 2.387897 0.043728 -0.003938 -71379.500000 0 0 1
6.043024 -25.702830 -26.151316 37.162413 -1.339879 2.351393 0.052388 -0.011021 24096.700000 0 0 1
5.394924 -26.955580 -26.234606 37.999514 -1.373265 2.332829 0.070789 -0.012631 -106036.000000 0 0 1
5.808224 -28.022280 -25.204016 38.134316 -1.366419 2.292850 0.096980 -0.020275 -795441.000000 0 0 1
7.169524 -28.240160 -25.365076 38.630244 -1.322172 2.287114 0.121053 -0.031335 -966477.000000 0 0 1
7.613424 -29.377020 -24.691656 39.123540 -1.317213 2.253793 0.122939 -0.043608 -628634.000000 0 0 1
9.108524 -29.631370 -24.822156 39.713004 -1.272569 2.245977 0.131417 -0.051760 -656148.000000 0 0 1
9.511824 -29.936730 -26.116986 40.850698 -1.263153 2.264420 0.129732 -0.046888 -1346150.000000 0 0 1
10.823024 -30.319180 -26.175516 41.491543 -1.227926 2.253462 0.139369 -0.027353 -970179.000000 0 0 1
11.495824 -30.041950 -27.561356 42.359191 -1.205328 2.279247 0.128247 -0.045795 228196.000000 0 0 1
10.935624 -30.921910 -28.540256 43.477564 -1.230871 2.286881 0.132083 -0.050549 253167.000000 0 0 1
11.381324 -30.556660 -29.839796 44.200197 -1.214249 2.311904 0.112584 -0.026596 -75250.500000 0 0 1
-35.961569 -4.969590 -5.652256 36.740703 0.137322 1.725252 0.191738 -0.054925 160046.000000 0 0 1
-35.482378 -4.216990 -4.523256 36.017246 0.118293 1.696715 0.176271 -0.058737 297727.000000 0 0 1
-34.656096 -3.098290 -4.802656 35.124207 0.089164 1.707960 0.199442 -0.068960 -217017.000000 0 0 1
-35.336486 -1.814390 -5.384556 35.790400 0.051301 1.721817 0.215660 -0.056365 -315289.000000 0 0 1
-36.229006 -1.266290 -4.441256 36.522173 0.034938 1.692702 0.160389 -0.044524 69207.300000 0 0 1
-37.056406 -0.317790 -5.090956 37.405829 0.008576 1.707321 0.148093 -0.045239 185814.000000 0 0 1
36.886497 0.277410 -4.233956 37.129732 0.007521 1.685076 0.157354 -0.038341 -156976.000000 0 0 1
37.352727 1.104010 -3.226656 37.508084 0.029548 1.656928 0.164122 -0.032530 158098.000000 0 0 1
36.360537 1.729910 -2.398156 36.480575 0.047541 1.636582 0.144314 -0.033277 -233329.000000 0 0 1
37.038317 2.822810 -1.523156 37.176944 0.076066 1.611778 0.144964 -0.036962 364895.000000 0 0 1
-37.305076 3.830710 -2.191656 37.565229 -0.102327 1.629172 0.182931 -0.058766 1133060.000000 0 0 1
-35.984180 3.406910 -2.582456 36.237237 -0.094397 1.642122 0.159737 -0.036821 4204.060000 0 0 1
-34.964011 4.514810 -2.862356 35.370308 -0.128417 1.651810 0.145870 -0.045098 -398348.000000 0 0 1
-34.564655 5.232010 -1.720456 35.000704 -0.150228 1.619971 0.163218 -0.044114 307544.000000 0 0 1
-34.044407 6.555810 -2.052456 34.730576 -0.190238 1.629927 0.176943 -0.058608 -55247.000000 0 0 1
-33.530376 7.367710 -0.834256 34.340432 -0.216295 1.595092 0.184643 -0.055943 -363452.000000 0 0 1
-32.216816 6.948410 -0.499556 32.961390 -0.212423 1.585953 0.207333 -0.046165 397853.000000 0 0 1
-31.692986 7.532210 0.716544 32.583631 -0.233333 1.548804 0.222870 -0.049635 163368.000000 0 0 1
-31.569206 9.084510 0.790644 32.859827 -0.280195 1.546733 0.226704 -0.053290 -237523.000000 0 0 1
-32.817136 9.773210 0.814744 34.251188 -0.289445 1.547007 0.190405 -0.051570 257104.000000 0 0 1
-32.675476 11.116610 1.205844 34.535776 -0.327929 1.535873 0.195925 -0.039737 -992590.000000 0 0 1
-33.994936 11.792110 1.380944 36.008562 -0.333891 1.532436 0.176069 -0.050543 -1112540.000000 0 0 1
-34.710736 11.984110 0.165444 36.721676 -0.332443 1.566291 0.143568 -0.041833 143848.000000 0 0 1
-36.004762 12.525510 0.265144 38.122193 -0.334789 1.563841 0.150164 -0.033217 489814.000000 0 0 1
-37.154736 11.467110 0.377944 38.885883 -0.299356 1.561077 0.175890 -0.051588 105831.000000 0 0 1
-37.426006 10.742710 -0.777256 38.945037 -0.279524 1.590755 0.175405 -0.047689 -396364.000000 0 0 1
36.540367 9.934210 -0.544056 37.870608 0.265453 1.585163 0.203582 -0.049503 -16877.600000 0 0 1
36.235197 9.074010 -1.792756 37.397074 0.245374 1.618753 0.201061 -0.055336 228739.000000 0 0 1
35.465337 9.712710 -2.801256 36.877824 0.267311 1.646830 0.186453 -0.054409 169748.000000 0 0 1
35.159087 8.712910 -3.793456 36.420688 0.242920 1.675142 0.169516 -0.056394 85268.800000 0 0 1
34.315967 9.224210 -5.003356 35.884609 0.262595 1.710681 0.144154 -0.049275 -1205280.000000 0 0 1
33.035527 9.523510 -4.655356 34.694605 0.280671 1.705383 0.164165 -0.041554 -977687.000000 0 0 1
32.244757 9.734610 -5.835156 34.183856 0.293197 1.742336 0.146190 -0.025102 172739.000000 0 0 1
30.850597 10.402910 -5.703256 33.053093 0.325229 1.744213 0.165249 -0.031370 12725.100000 0 0 1
29.897007 9.389410 -5.609956 31.834944 0.304304 1.747941 0.153351 -0.021541 -401385.000000 0 0 1
28.574607 9.765110 -5.854256 30.759354 0.329298 1.762289 0.151871 -0.018744 -79123.900000 0 0 1
27.541707 8.603010 -5.960756 29.463333 0.302760 1.774513 0.158492 -0.010252 114779.000000 0 0 1
27.883707 7.733010 -7.033856 29.778779 0.270532 1.809253 0.173979 -0.008881 212885.000000 0 0 1
26.784007 6.962910 -7.431756 28.654775 0.254335 1.833151 0.189834 -0.010423 -168369.000000 0 0 1
27.161207 6.049410 -8.642656 29.137982 0.219146 1.871939 0.193833 -0.026332 325243.000000 0 0 1
28.185107 5.088910 -8.356656 29.835062 0.178629 1.854690 0.176517 -0.022814 746755.000000 0 0 1
28.337607 4.219610 -9.447956 30.167680 0.147819 1.889337 0.168443 -0.020077 -137877.000000 0 0 1
29.153107 2.954410 -9.078756 30.676636 0.100996 1.871246 0.138602 -0.017410 -1082310.000000 0 0 1
30.523677 3.003110 -9.317756 32.055172 0.098071 1.865732 0.150961 -0.011175 -195120.000000 0 0 1
31.248467 2.584110 -8.154156 32.398064 0.082508 1.825219 0.113895 -0.013091 -44332.400000 0 0 1
31.451717 1.078610 -7.900056 32.446645 0.034281 1.816747 0.099467 -0.017413 -144636.000000 0 0 1
30.262877 0.367310 -7.515156 31.184198 0.012137 1.814185 0.130956 -0.021643 629530.000000 0 0 1
30.383827 -1.019590 -7.176456 31.236485 -0.033544 1.802613 0.116836 -0.027715 -491125.000000 0 0 1
30.329777 -2.051590 -8.343056 31.523181 -0.067540 1.838652 0.116915 -0.020871 -455713.000000 0 0 1
31.461697 -2.032090 -9.175756 32.835381 -0.064500 1.854015 0.109251 -0.018453 121008.000000 0 0 1
31.422927 -3.093090 -10.089756 33.147710 -0.098118 1.880092 0.091138 -0.032356 -872162.000000 0 0 1
32.530717 -3.023390 -11.096656 34.503973 -0.092673 1.898221 0.097329 -0.037036 -872415.000000 0 0 1
33.750417 -3.515590 -10.598456 35.549645 -0.103790 1.873530 0.114690 -0.029753 5881.860000 0 0 1
34.680027 -3.876890 -11.604656 36.775026 -0.111328 1.891841 0.129016 -0.047890 1016950.000000 0 0 1
36.133277 -4.140790 -11.041856 38.008978 -0.114100 1.865552 0.167964 -0.044867 330285.000000 0 0 1
36.261247 -5.371890 -10.352656 38.090848 -0.147074 1.846047 0.159077 -0.053732 -36088.600000 0 0 1
-37.491116 -5.678890 -10.036756 39.224610 0.150330 1.829553 0.185860 -0.051206 -250688.000000 0 0 1
-37.387436 -6.957290 -9.149456 39.114407 0.183982 1.806899 0.179370 -0.058172 -98768.300000 0 0 1
37.319317 -6.748690 -7.778656 38.714128 -0.178903 1.773099 0.173776 -0.056542 369781.000000 0 0 1
36.785047 -7.982990 -7.305256 38.343638 -0.213703 1.762489 0.172362 -0.046795 -214697.000000 0 0 1
36.159597 -7.785390 -5.894856 37.455014 -0.212069 1.728838 0.165029 -0.037754 -153939.000000 0 0 1
37.121647 -7.565990 -4.840456 38.192812 -0.201062 1.697875 0.173607 -0.034543 819641.000000 0 0 1
-37.489356 -8.690390 -4.051056 38.696069 0.227786 1.675678 0.196106 -0.034382 215506.000000 0 0 1
-36.801536 -9.877490 -4.813156 38.406827 0.262219 1.696447 0.193652 -0.040551 -470175.000000 0 0 1
37.390377 -10.489390 -5.693856 39.249045 -0.273507 1.716380 0.184250 -0.043047 -88557.100000 0 0 1
-37.074946 -11.582990 -6.302756 39.350248 0.302813 1.731660 0.148864 -0.038298 -112254.000000 0 0 1
37.427217 -11.948890 -7.637256 40.023745 -0.309029 1.762792 0.150117 -0.047565 -143909.000000 0 0 1
-37.453056 -11.002490 -8.670056 39.986949 0.285729 1.789354 0.162124 -0.054731 155010.000000 0 0 1
37.132037 -11.508990 -9.902756 40.116201 -0.300558 1.820226 0.175313 -0.039534 -136249.000000 0 0 1
37.345167 -10.554790 -11.062756 40.354053 -0.275444 1.848494 0.153808 -0.044721 357536.000000 0 0 1
36.339557 -9.522890 -11.195856 39.199439 -0.256290 1.860442 0.150935 -0.050113 729191.000000 0 0 1
36.261107 -8.988490 -12.478656 39.387532 -0.242985 1.893168 0.152073 -0.058520 -529010.000000 0 0 1
35.282747 -7.833190 -12.608956 38.278151 -0.218469 1.906468 0.140197 -0.052731 -441440.000000 0 0 1
35.147987 -7.420890 -13.963356 38.541223 -0.208077 1.941527 0.141977 -0.038283 676048.000000 0 0 1
34.198297 -6.352290 -14.016756 37.501260 -0.183656 1.953864 0.116740 -0.044566 152470.000000 0 0 1
34.471087 -5.365490 -15.130056 38.025819 -0.154413 1.980011 0.109613 -0.043670 -41675.500000 0 0 1
35.672187 -4.688790 -14.840956 38.919707 -0.130692 1.962023 0.127408 -0.034861 118911.000000 0 0 1
35.555757 -3.380990 -15.417656 38.901761 -0.094805 1.978305 0.120997 -0.036464 185461.000000 0 0 1
36.904727 -2.640090 -15.479156 40.106523 -0.071416 1.967035 0.131777 -0.044314 316489.000000 0 0 1
-37.242276 -2.987390 -16.528356 40.854598 0.080044 1.987300 0.143587 -0.034495 -39236.400000 0 0 1
-35.978075 -2.440690 -16.415456 39.621283 0.067734 1.997980 0.162696 -0.028971 -509153.000000 0 0 1
-35.641388 -0.904890 -16.316956 39.209316 0.025383 2.000003 0.159981 -0.027427 -671599.000000 0 0 1
-36.195276 -0.054590 -17.272956 40.105561 0.001508 2.016051 0.130112 -0.018022 221501.000000 0 0 1
-35.902441 1.258210 -16.830556 39.671602 -0.035031 2.008926 0.132569 -0.025184 94490.500000 0 0 1
-36.048046 2.363210 -17.908456 40.320704 -0.065464 2.031022 0.114874 -0.024719 -117367.000000 0 0 1
-34.990482 2.341510 -18.826956 39.802900 -0.066819 2.063494 0.097509 -0.010991 -20085.500000 0 0 1
-35.061317 3.377710 -19.727156 40.371594 -0.096041 2.081326 0.088755 -0.009005 -150157.000000 0 0 1
-33.895516 3.376110 -20.722156 39.871191 -0.099276 2.117328 0.071440 0.001228 -778031.000000 0 0 1
-32.659596 3.855710 -20.329556 38.662729 -0.117514 2.124473 0.083786 -0.002012 -568135.000000 0 0 1
-32.034806 4.543610 -21.417756 38.801978 -0.140894 2.155528 0.070718 0.002184 -1067810.000000 0 0 1
-30.645656 5.006610 -21.054256 37.516718 -0.161940 2.166627 0.078978 -0.003961 -885260.000000 0 0 1
-29.823896 3.896010 -20.763556 36.548173 -0.129898 2.175010 0.083512 0.004738 -588231.000000 0 0 1
-28.483416 4.268910 -20.769356 35.509080 -0.148766 2.195556 0.062062 0.008652 -870570.000000 0 0 1
-27.518126 3.288810 -20.139556 34.258798 -0.118950 2.199214 0.081929 0.006554 -350814.000000 0 0 1
-27.489016 3.142310 -18.739656 33.416984 -0.113817 2.166127 0.084281 0.004043 -315490.000000 0 0 1
-26.546036 2.189810 -18.363156 32.352632 -0.082305 2.174377 0.083441 -0.000072 -687093.000000 0 0 1
-25.892366 2.382910 -17.001956 31.067015 -0.091773 2.149892 0.097873 -0.006814 -322123.000000 0 0 1
-24.922876 3.397210 -17.030856 30.376650 -0.135474 2.165974 0.089387 -0.010431 -737104.000000 0 0 1
-24.130776 3.273510 -15.919156 29.093466 -0.134834 2.149779 0.108862 -0.024532 -182904.000000 0 0 1
-22.962876 4.318310 -15.987356 28.311430 -0.185885 2.170861 0.118132 -0.030866 485440.000000 0 0 1
-21.839476 3.871910 -16.713856 27.772422 -0.175466 2.216568 0.132528 -0.040355 201660.000000 0 0 1
-20.710976 4.725910 -16.762956 27.060589 -0.224343 2.238851 0.127388 -0.038967 -478113.000000 0 0 1
-19.480376 4.027510 -17.279056 26.349036 -0.203875 2.286006 0.160228 -0.049562 -889611.000000 0 0 1
-19.029976 3.045810 -16.362356 25.281291 -0.158707 2.274718 0.191503 -0.048209 -480243.000000 0 0 1
-17.944576 2.371410 -16.894456 24.759928 -0.131391 2.321742 0.151402 -0.051131 -1007280.000000 0 1 0
-18.013776 0.832610 -16.555756 24.480246 -0.046188 2.313511 0.169559 -0.047756 -99839.400000 0 1 0
-18.962676 0.141710 -17.324356 25.685336 -0.007473 2.311062 0.107634 -0.034290 927118.000000 0 0 1
-20.288776 0.218810 -16.749456 26.310200 -0.010784 2.260897 0.108674 -0.037625 627641.000000 0 0 1
-21.280676 -0.788390 -17.401156 27.500709 0.037030 2.255900 0.087820 -0.038040 -301288.000000 0 0 1
-21.079176 -2.134290 -16.997056 27.162231 0.100907 2.246903 0.080913 -0.040278 301592.000000 0 0 1
-22.154076 -3.015790 -17.247656 28.237913 0.135296 2.227864 0.084225 -0.023576 -144858.000000 0 0 1
-22.186476 -4.208290 -16.273756 27.834952 0.187451 2.195247 0.100005 -0.029691 -199146.000000 0 0 1
-22.689976 -3.932790 -15.009056 27.487700 0.171622 2.148412 0.094710 -0.031557 173252.000000 0 0 1
-22.850976 -5.126590 -14.264156 27.421072 0.220695 2.117869 0.095833 -0.037569 -85468.000000 0 0 1
-22.944576 -4.659490 -12.764356 26.666331 0.200351 2.069935 0.106581 -0.047113 365030.000000 0 0 1
-24.088076 -3.802890 -12.649556 27.471961 0.156582 2.049302 0.095618 -0.047660 755280.000000 0 0 1
-24.195876 -3.232990 -11.382856 26.934403 0.132831 2.007124 0.117508 -0.058172 -219805.000000 0 0 1
-25.334676 -2.175490 -11.320856 27.834158 0.085660 1.989663 0.185325 -0.059681 -35487.700000 0 0 1
-25.500936 -1.585090 -10.036456 27.450696 0.062078 1.945093 0.189465 -0.063538 424063.000000 0 0 1
-26.055836 -0.300590 -10.048956 27.928095 0.011536 1.938866 0.214452 -0.062661 -389604.000000 0 0 1
-26.349686 0.223510 -8.641356 27.731371 -0.008482 1.887683 0.237576 -0.054938 -343992.000000 0 0 1
-25.219516 0.448910 -7.842656 26.414632 -0.017798 1.872247 0.204117 -0.056447 198845.000000 0 0 1
-25.612986 0.706210 -6.505056 26.435574 -0.027565 1.819422 0.202954 -0.060806 -536203.000000 0 0 1
-24.454376 1.036210 -5.582156 25.104795 -0.042348 1.795025 0.153673 -0.050034 -545545.000000 0 0 1
-24.088676 2.396210 -5.825656 24.898683 -0.099148 1.806960 0.182558 -0.044275 -60562.000000 0 1 0
-22.754676 2.645410 -5.480356 23.554358 -0.115738 1.805617 0.165859 -0.031771 -376269.000000 0 1 0
-22.363576 4.109110 -5.556956 23.407138 -0.181714 1.810489 0.156827 -0.031494 -142939.000000 0 1 0
-22.857876 4.846210 -4.431656 23.782511 -0.208921 1.758233 0.167158 -0.034945 704698.000000 0 1 0
-22.371076 6.162310 -4.579956 23.651958 -0.268793 1.765667 0.132610 -0.038123 -555854.000000 0 1 0
-22.971276 7.250810 -3.665256 24.365711 -0.305749 1.721796 0.155166 -0.038357 46875.700000 0 1 0
-22.253976 7.311510 -2.419856 23.548956 -0.317438 1.673737 0.137755 -0.038153 1212390.000000 0 1 0
-20.871176 7.641410 -2.399356 22.355180 -0.350965 1.678332 0.127350 -0.034517 -104262.000000 0 1 0
-20.451176 9.102210 -2.526156 22.527368 -0.418747 1.683170 0.118337 -0.038555 -776766.000000 0 1 0
-20.616576 9.704710 -3.817556 23.104077 -0.439953 1.736791 0.117517 -0.029916 758284.000000 0 1 0
-20.133676 11.049710 -3.976756 23.308273 -0.501935 1.742251 0.121589 -0.023820 -161069.000000 0 1 0
-20.220876 11.437910 -5.440256 23.860135 -0.514778 1.800826 0.136706 -0.029153 25552.400000 0 1 0
-19.190876 10.758910 -6.145856 22.843280 -0.510965 1.843197 0.110704 -0.026877 430945.000000 0 1 0
-18.971576 11.357210 -7.386256 23.312308 -0.539421 1.893192 0.097661 -0.023589 575611.000000 0 1 0
-17.689576 10.810010 -8.134156 22.269754 -0.548538 1.944704 0.085919 -0.019931 740122.000000 0 1 0
-17.805376 9.529710 -8.752256 22.010198 -0.491421 1.979746 0.113706 -0.017699 117923.000000 0 1 0
-18.645176 9.375110 -9.897356 23.097466 -0.465899 2.013633 0.113453 -0.004310 102800.000000 0 1 0
-18.278176 10.202210 -11.189856 23.735832 -0.509089 2.061711 0.093907 -0.011852 -516004.000000 0 1 0
-17.173876 9.715010 -11.882856 23.033144 -0.514806 2.112857 0.096677 -0.014782 -585730.000000 0 1 0
-16.898876 10.511010 -12.987456 23.763993 -0.556435 2.148997 0.085045 -0.023058 -8943.180000 0 1 0
-15.657476 9.959810 -13.711356 23.072834 -0.566546 2.207147 0.074097 -0.022776 -531883.000000 0 1 0
-15.899076 8.680610 -14.350456 23.109938 -0.499753 2.240769 0.089538 -0.040324 101979.000000 0 1 0
-15.524276 7.581910 -13.553356 21.958643 -0.454317 2.236003 0.075568 -0.032014 -302234.000000 0 1 0
-15.770476 6.169510 -14.223156 22.114903 -0.372903 2.269399 0.098054 -0.038440 -19298.200000 0 1 0
-15.175876 6.083010 -15.530256 22.549925 -0.381225 2.330498 0.126330 -0.030792 464771.000000 0 1 0
-14.985776 4.795710 -16.060656 22.483705 -0.309719 2.366454 0.115979 -0.036436 -65163.300000 0 1 0
33.698167 -15.793690 28.083343 46.622754 -0.438280 0.924351 0.066170 -0.011795 -255957.000000 0 0 1
32.855407 -14.699190 28.329533 45.805091 -0.420682 0.903989 0.072960 -0.010394 -364155.000000 0 0 1
32.031957 -14.795090 29.458313 45.964477 -0.432694 0.875135 0.081239 -0.010355 -73532.100000 0 0 1
32.698417 -14.665390 30.824673 47.269658 -0.421610 0.860442 0.068761 -0.020038 -191684.000000 0 0 1
32.963987 -13.352690 31.271443 47.358441 -0.384869 0.849559 0.068888 -0.025002 78703.700000 0 0 1
33.012867 -13.283490 32.694492 48.324220 -0.382550 0.827708 0.061718 -0.027482 -129473.000000 0 0 1
33.145637 -11.864690 33.262370 48.433350 -0.343745 0.813766 0.069511 -0.024148 -100257.000000 0 0 1
32.799437 -11.797490 -33.119316 48.081939 -0.345277 2.330642 0.066484 -0.032551 90634.400000 0 0 1
32.760507 -10.447290 -32.738616 47.478560 -0.308704 2.331657 0.072962 -0.026839 -180365.000000 0 0 1
32.268687 -10.225090 -31.286236 46.093917 -0.306864 2.316855 0.073205 -0.028676 375647.000000 0 0 1
30.974937 -10.774090 -31.019976 45.141628 -0.334743 2.328383 0.111755 -0.033033 541915.000000 0 0 1
30.467197 -10.575190 -29.722346 43.857754 -0.334090 2.315425 0.109334 -0.034879 -580200.000000 0 0 1
29.532807 -9.313490 -29.598686 42.837016 -0.305489 2.333613 0.101373 -0.022923 4213.330000 0 0 1
29.001707 -9.138290 -28.316006 41.550012 -0.305247 2.320596 0.093610 -0.027835 494835.000000 0 0 1
27.926507 -10.021390 -28.006596 40.800581 -0.344536 2.327360 0.098778 -0.026976 -1231230.000000 0 0 1
27.485407 -10.001090 -26.512706 39.476486 -0.348977 2.307173 0.100791 -0.018563 -535315.000000 0 0 1
26.469307 -9.052290 -26.139906 38.286588 -0.329523 2.322307 0.097298 -0.012841 1680510.000000 0 0 1
25.157507 -9.094190 -26.748846 37.829951 -0.346874 2.356158 0.097239 -0.016241 702052.000000 0 0 1
24.427007 -10.452490 -26.700566 37.667671 -0.404330 2.358657 0.102812 -0.012764 -1553510.000000 0 0 1
24.988107 -11.524290 -27.503286 38.905597 -0.432121 2.355936 0.103273 -0.018001 139305.000000 0 0 1
24.386107 -12.765490 -27.195906 38.694408 -0.482250 2.350176 0.120533 -0.024535 81904.000000 0 0 1
25.144607 -13.914090 -27.879956 40.039294 -0.505421 2.341047 0.109568 -0.016225 114702.000000 0 0 1
25.247207 -13.661390 -29.314546 41.029229 -0.495988 2.366676 0.107390 -0.023569 286597.000000 0 0 1
26.125907 -14.654790 -29.816126 42.264965 -0.511196 2.353864 0.104322 -0.017974 -269919.000000 0 0 1
26.263607 -14.736190 -31.350496 43.471668 -0.511316 2.376287 0.112077 -0.021351 816085.000000 0 0 1
25.039607 -15.214890 -31.985496 43.376799 -0.546013 2.399990 0.120059 -0.018442 1094030.000000 0 0 1
25.195207 -15.477790 -33.395176 44.604912 -0.550879 2.416878 0.122613 -0.020715 29431.500000 0 0 1
25.307007 -14.248290 33.453491 44.301178 -0.512783 0.714932 0.093376 -0.020410 1045460.000000 0 0 1
24.084607 -13.464990 33.351397 43.286140 -0.509780 0.691192 0.090369 -0.018505 1006960.000000 0 0 1
24.232207 -12.424690 32.391305 42.317483 -0.473783 0.699078 0.079139 -0.015817 -948110.000000 0 0 1
23.150307 -11.397590 32.532146 41.523274 -0.457493 0.670570 0.080717 -0.018940 378284.000000 0 0 1
21.753507 -11.656390 32.375657 40.709577 -0.491907 0.651321 0.068786 -0.012258 935245.000000 0 0 1
21.320807 -12.181890 31.122833 39.643486 -0.519096 0.667990 0.057541 -0.008417 -100718.000000 0 0 1
19.776807 -12.462990 31.009433 38.833402 -0.562317 0.645956 0.061285 -0.003784 1020640.000000 0 0 1
19.004407 -11.278090 31.029123 38.094216 -0.535586 0.618867 0.062597 -0.008279 -2969.810000 0 0 1
18.434807 -11.037190 32.322182 38.812177 -0.539474 0.586678 0.038979 0.004790 -410172.000000 0 0 1
17.567507 -9.788690 32.443731 38.171081 -0.508357 0.554895 0.049297 -0.001759 141929.000000 0 0 1
16.424107 -9.846890 31.546383 36.903751 -0.540080 0.545576 0.094819 -0.005208 1004430.000000 0 0 1
15.718407 -8.577290 31.544483 36.272478 -0.499524 0.516297 0.102358 -0.006566 763412.000000 0 0 1
14.593507 -8.233890 32.599158 36.653410 -0.513692 0.474788 0.107986 -0.014806 173474.000000 0 0 1
13.496807 -9.117290 32.369885 36.236697 -0.594103 0.466184 0.114814 -0.013001 74446.200000 0 0 1
12.457807 -9.019390 33.321644 36.699841 -0.626649 0.432429 0.110150 -0.017482 -190407.000000 0 0 1
11.299007 -8.172290 32.802777 35.643738 -0.626177 0.401961 0.146995 -0.025898 -822815.000000 0 0 1
11.583607 -6.772390 33.100972 35.717217 -0.529058 0.385126 0.132179 -0.028146 929170.000000 0 0 1
10.571707 -5.963590 32.464992 34.659791 -0.513611 0.357782 0.152869 -0.022022 675278.000000 0 0 1
10.941007 -4.481190 32.568928 34.648546 -0.388735 0.348226 0.147194 -0.027629 53269.700000 0 0 1
10.732507 -3.947390 33.870113 35.748471 -0.352441 0.325608 0.131629 -0.053877 579247.000000 0 0 1
11.311807 -2.608390 -33.701096 35.644418 -0.226629 2.809863 0.100901 -0.046422 4248.410000 0 0 1
10.821107 -1.995390 -32.376486 34.195245 -0.182350 2.813978 0.085972 -0.050772 1075660.000000 0 0 1
9.424207 -1.646390 -32.251296 33.640339 -0.172953 2.853224 0.086223 -0.029577 925614.000000 0 0 1
9.121207 -0.783290 -31.223946 32.538358 -0.085665 2.856388 0.084752 -0.023832 454989.000000 0 0 1
7.571307 -0.629390 -31.123896 32.037755 -0.082938 2.902172 0.086991 -0.026090 247293.000000 0 0 1
7.006207 0.278110 -32.049276 32.807322 0.039674 2.926207 0.092053 -0.025461 -41304.800000 0 0 1
5.604707 0.320910 -31.859626 32.350448 0.057195 2.967176 0.112541 -0.025926 119470.000000 0 0 1
4.969307 1.262610 -32.905236 33.302294 0.248817 2.987018 0.103250 -0.025839 -268232.000000 0 0 1
5.521907 2.536310 -32.882826 33.439566 0.430576 2.958860 0.088792 -0.025903 -7616.040000 0 0 1
5.127007 3.168010 33.610940 34.147003 0.553482 0.177426 0.086048 -0.022724 241717.000000 0 0 1
5.870707 4.495610 33.439220 34.247002 0.653518 0.217625 0.078622 -0.020525 136091.000000 0 0 1
5.459907 5.260810 32.291714 33.169889 0.766829 0.230620 0.100017 -0.035473 -245753.000000 0 0 1
6.256207 6.378110 32.075960 33.296961 0.795047 0.271648 0.100458 -0.029633 -398000.000000 0 0 1
5.570107 7.474810 31.247753 32.608603 0.930385 0.289919 0.109032 -0.027838 323847.000000 0 0 1
4.511707 8.136110 31.979240 33.305009 1.064483 0.283104 0.124475 -0.033684 534486.000000 0 0 1
4.105107 9.389810 31.445253 33.073016 1.158648 0.315044 0.132032 -0.039401 357323.000000 0 0 1
3.534207 9.533910 29.927893 31.607987 1.215802 0.327511 0.137799 -0.041992 334634.000000 0 0 1
2.342607 8.823910 29.650763 31.024458 1.311298 0.298692 0.125700 -0.043186 -135466.000000 0 0 1
2.040307 8.960610 28.317593 29.771488 1.346916 0.313808 0.098964 -0.032513 -507359.000000 0 0 1
0.823907 8.209610 27.849173 29.045705 1.470772 0.288030 0.112905 -0.038253 46623.000000 0 0 1
-0.422693 8.580710 28.436973 29.706375 -1.521575 0.293392 0.107136 -0.030980 -149312.000000 0 0 1
-1.498193 8.325010 27.602243 28.869261 -1.392739 0.297365 0.110689 -0.032054 127771.000000 0 0 1
-2.922193 8.554510 28.159803 29.575216 -1.241627 0.310628 0.100528 -0.035030 131409.000000 0 0 1
-3.139493 9.801610 28.654133 30.446467 -1.260818 0.344834 0.099705 -0.031291 -44709.600000 0 0 1
-4.503193 9.996410 28.984883 30.989199 -1.147542 0.361628 0.084052 -0.023333 -81368.700000 0 0 1
-4.662993 11.257410 29.820283 32.213694 -1.178096 0.387909 0.065361 -0.021158 -177544.000000 0 0 1
-4.855093 12.488010 29.156693 32.087928 -1.199999 0.430757 0.060573 -0.025876 649382.000000 0 0 1
-5.986293 12.668510 28.288523 31.568456 -1.129362 0.459891 0.064640 -0.032281 328622.000000 0 0 1
-6.071593 14.075310 27.660073 31.623698 -1.163547 0.506057 0.047660 -0.026384 -23707.200000 0 0 1
-5.181793 14.338110 26.601893 30.660938 -1.224002 0.520411 0.049472 -0.015399 -146765.000000 0 0 1
-5.394093 15.661910 26.206983 31.003188 -1.239112 0.563671 0.043250 -0.013637 -330265.000000 0 0 1
-4.195593 16.291610 25.506913 30.555232 -1.318742 0.583062 0.070431 -0.020579 -308749.000000 0 0 1
-3.992893 15.877310 24.172963 29.195279 -1.324421 0.595309 0.062823 -0.011774 -196363.000000 0 0 1
-3.081993 16.777910 23.599243 29.119087 -1.389128 0.625895 0.071675 -0.009681 -69210.200000 0 0 1
-2.839793 16.479210 22.103283 27.716131 -1.400147 0.647676 0.073912 -0.013143 -19303.600000 0 0 1
-2.070393 15.333010 21.826883 26.754450 -1.436580 0.616646 0.070368 -0.015631 -55538.400000 0 0 1
-2.084593 15.077310 20.422883 25.470865 -1.433407 0.640473 0.073166 -0.020995 -201408.000000 0 0 1
-1.272993 13.862510 20.055583 24.413442 -1.479223 0.606764 0.064785 -0.021252 -361374.000000 0 1 0
-1.898993 12.596410 20.255783 23.928487 -1.421166 0.561395 0.066736 -0.016445 -238097.000000 0 1 0
-1.299693 11.571610 19.503983 22.715562 -1.458948 0.538229 0.056431 -0.019632 -816129.000000 0 1 0
-2.191493 10.373610 19.222383 21.952550 -1.362601 0.504051 0.047798 -0.018347 -458104.000000 0 1 0
-2.531593 9.471010 20.315483 22.557213 -1.309603 0.449602 0.086532 -0.036277 31396.800000 0 1 0
-3.440093 10.026910 21.263383 23.759307 -1.240294 0.462478 0.097126 -0.028465 -18040.100000 0 1 0
-4.949193 9.980610 20.934583 23.714213 -1.110449 0.489036 0.081316 -0.019359 22482.800000 0 1 0
-5.463493 8.629210 20.948183 23.305352 -1.006365 0.453642 0.061462 -0.024043 385781.000000 0 1 0
-6.881493 8.625510 20.814983 23.558818 -0.897394 0.487445 0.050483 -0.019867 542150.000000 0 1 0
-7.541593 7.259910 21.038683 23.499109 -0.766370 0.461699 0.046327 -0.012565 33713.300000 0 1 0
-7.467693 6.798110 22.381383 24.554166 -0.738496 0.423854 0.045762 -0.008535 23868.400000 0 1 0
-8.246093 5.630310 22.508583 24.623866 -0.599079 0.417523 0.047067 -0.006935 130045.000000 0 1 0
-8.274493 4.876510 23.876733 25.736083 -0.532546 0.382450 0.051530 -0.013701 -166293.000000 0 0 1
-9.059193 5.589310 24.807913 26.995221 -0.552809 0.405325 0.050298 -0.015982 -6542.250000 0 0 1
-9.145793 4.958410 26.051113 28.051593 -0.496798 0.379943 0.057044 -0.009985 -294687.000000 0 0 1
-10.173193 5.555110 27.019393 29.400693 -0.499808 0.405246 0.061545 -0.018572 -362490.000000 0 0 1
-9.691793 6.704210 27.600553 30.011129 -0.605161 0.403538 0.059564 -0.021355 -246575.000000 0 0 1
-10.544493 7.162810 28.606683 31.318278 -0.596694 0.419192 0.055967 -0.020298 -444088.000000 0 0 1
-9.844593 8.159910 29.525833 32.175689 -0.692100 0.408685 0.070564 -0.019881 246085.000000 0 0 1
-8.726593 7.602210 30.198663 32.340475 -0.716648 0.365981 0.094139 -0.026919 242972.000000 0 0 1
-8.010293 8.551910 30.969473 33.112056 -0.818089 0.361710 0.090601 -0.025529 436380.000000 0 0 1
-6.913593 7.904910 31.897072 33.581373 -0.852196 0.318059 0.110971 -0.027625 1074720.000000 0 0 1
-5.637093 7.857910 31.252923 32.714963 -0.948502 0.300090 0.113631 -0.037921 -172097.000000 0 0 1
-4.724193 7.107910 31.989134 33.108082 -0.984199 0.260726 0.124405 -0.032347 -784454.000000 0 0 1
-3.273393 7.325510 31.605313 32.607883 -1.150566 0.248617 0.103648 -0.033855 -335531.000000 0 0 1
-2.755293 8.621310 32.023691 33.278153 -1.261464 0.275447 0.094931 -0.037866 51972.500000 0 0 1
-1.424093 8.864110 31.619023 32.868878 -1.411499 0.276655 0.085009 -0.043921 227017.000000 0 0 1
-1.124293 10.332510 31.255993 32.938760 -1.462411 0.321026 0.083971 -0.039814 -104399.000000 0 0 1
-1.253693 11.251110 32.381615 34.303473 -1.459826 0.336322 0.084902 -0.049745 23274.100000 0 0 1
-1.585193 12.527310 31.948011 34.352900 -1.444926 0.376398 0.073137 -0.042929 -219796.000000 0 0 1
-1.792593 13.467710 33.122447 35.800686 -1.438471 0.389260 0.070713 -0.040828 477093.000000 0 0 1
-0.534093 13.778610 33.734583 36.443895 -1.532053 0.388025 0.114810 -0.047876 246905.000000 0 0 1
-0.717493 14.907410 -33.217636 36.416439 -1.522703 2.719321 0.113530 -0.048478 823291.000000 0 0 1
0.597907 15.516810 -32.569506 36.081874 1.532283 2.696697 0.096003 -0.044900 420522.000000 0 0 1
1.343707 16.225910 -33.531176 37.274998 1.488172 2.689562 0.118949 -0.048893 124615.000000 0 0 1
2.692207 16.154610 -33.072806 36.905690 1.405661 2.681798 0.119442 -0.044661 328657.000000 0 0 1
3.726607 16.826910 33.745583 37.891911 1.352847 0.472189 0.122252 -0.037257 -89359.200000 0 0 1
3.597707 18.237410 33.730683 38.513707 1.376026 0.503685 0.111817 -0.031990 173131.000000 0 0 1
4.763907 18.854710 33.205040 38.480769 1.323312 0.529817 0.089129 -0.007910 253640.000000 0 0 1
4.721407 20.387910 33.105225 39.165221 1.343229 0.563724 0.102115 -0.026183 -179189.000000 0 0 1
4.620107 20.991610 -33.372246 39.695087 1.354157 2.569398 0.125409 -0.048776 56389.800000 0 0 1
4.419307 22.388610 -33.437616 40.482766 1.375911 2.542720 0.115654 -0.040895 -57428.800000 0 0 1
4.116407 22.999210 -32.069246 39.678017 1.393691 2.511949 0.129181 -0.047883 38128.800000 0 0 1
3.724007 24.365810 -32.188046 40.541723 1.419133 2.488073 0.131517 -0.048095 247347.000000 0 0 1
3.467807 24.958210 -30.918846 39.886251 1.432736 2.457789 0.137573 -0.053289 -198817.000000 0 0 1
3.053207 26.435910 -30.829876 40.726658 1.455811 2.429498 0.136775 -0.059267 -175957.000000 0 0 1
4.091207 27.399710 -30.799146 41.425469 1.422576 2.409060 0.146160 -0.058518 -236378.000000 0 0 1
3.671607 28.665910 -30.293146 41.867527 1.443407 2.379724 0.129120 -0.057423 -751536.000000 0 0 1
4.664607 29.778610 -30.025416 42.544680 1.415416 2.354261 0.161265 -0.070561 -211890.000000 0 0 1
5.728707 29.441110 -29.142416 41.819583 1.378616 2.341807 0.141358 -0.080750 61675.900000 0 0 1
6.322107 30.593710 -28.563746 42.330034 1.367017 2.311472 0.161900 -0.085146 -845468.000000 0 0 1
7.557307 30.148010 -27.806376 41.703836 1.325184 2.300647 0.165004 -0.081386 -761865.000000 0 0 1
8.601607 29.753110 -28.672306 42.205881 1.289370 2.317664 0.163079 -0.075581 -340542.000000 0 0 1
9.837107 30.382010 -28.528326 42.821731 1.257668 2.299913 0.160125 -0.071691 -462248.000000 0 0 1
9.959807 31.854610 -29.062946 44.255721 1.267762 2.287237 0.172772 -0.075020 -1023270.000000 0 0 1
9.398207 32.896710 -28.211716 44.344343 1.292521 2.260355 0.186057 -0.073389 486232.000000 0 0 1
9.191207 -33.546213 -28.980436 45.273528 -1.303373 2.265449 0.157181 -0.065251 -374176.000000 0 0 1
8.017207 -33.471413 -29.965456 45.634851 -1.335701 2.287145 0.138923 -0.050880 -409813.000000 0 0 1
8.175707 33.258710 -31.007096 46.199827 1.329754 2.306558 0.115061 -0.044576 -146042.000000 0 0 1
6.914707 32.980810 -31.550436 46.162507 1.364131 2.323295 0.112291 -0.047540 -501245.000000 0 0 1
7.026807 32.067910 -32.799236 46.406000 1.355083 2.355745 0.121000 -0.062454 -55651.400000 0 0 1
6.960707 32.793810 33.743203 47.565631 1.361644 0.782145 0.115879 -0.050050 213014.000000 0 0 1
6.879807 31.937310 32.582032 46.140138 1.358623 0.786745 0.104651 -0.042671 -95951.700000 0 0 1
6.128407 32.672010 31.444173 45.757553 1.385377 0.813181 0.094881 -0.041807 129848.000000 0 0 1
6.994507 33.538610 30.740023 46.029453 1.365192 0.839502 0.091145 -0.039207 444000.000000 0 0 1
6.402607 -33.640513 29.522123 45.213197 -1.382721 0.859319 0.069439 -0.045327 -36901.000000 0 0 1
18.876724 -21.822590 29.057913 40.950195 -0.857653 0.781878 0.127501 -0.021681 -81952.400000 0 0 1
17.893624 -20.806890 28.886133 39.843658 -0.860534 0.759781 0.119461 -0.018800 370839.000000 0 0 1
16.534124 -21.152790 28.999123 39.519197 -0.907344 0.746900 0.107336 -0.016659 186737.000000 0 0 1
15.937624 -21.466390 30.400703 40.484769 -0.932148 0.721347 0.105361 -0.017549 -603332.000000 0 0 1
16.280724 -22.747390 30.915333 41.692488 -0.949599 0.735480 0.148825 -0.026395 249640.000000 0 0 1
16.013824 -22.884390 32.308140 42.707772 -0.960224 0.712862 0.123902 -0.030718 102419.000000 0 0 1
16.975024 -23.891590 33.017708 44.148936 -0.953057 0.725947 0.138531 -0.034704 203700.000000 0 0 1
16.814424 -25.237930 32.713042 44.607410 -0.983092 0.747553 0.141786 -0.036425 175050.000000 0 0 1
17.581524 -26.041080 33.641258 46.032402 -0.976947 0.751278 0.140488 -0.037515 473772.000000 0 0 1
17.339924 -27.608330 33.433260 46.697706 -1.009993 0.772811 0.130451 -0.026030 224582.000000 0 0 1
18.158924 -28.142870 32.418568 46.612565 -0.997774 0.801695 0.130898 -0.034437 191254.000000 0 0 1
17.614624 -29.364930 31.901568 46.800471 -1.030485 0.820780 0.119478 -0.032492 -15883.700000 0 0 1
18.488724 -29.984590 30.801533 46.793621 -1.018255 0.852315 0.142760 -0.037823 350201.000000 0 0 1
19.674024 -30.620250 31.275373 47.987664 -0.999700 0.860923 0.132758 -0.040618 326240.000000 0 0 1
20.378624 -31.289180 30.235773 48.046884 -0.993508 0.890148 0.117613 -0.036902 -1207100.000000 0 0 1
21.802824 -31.708740 30.446933 49.069573 -0.968443 0.901435 0.111084 -0.031698 -1142320.000000 0 0 1
22.583824 -30.549630 30.662503 48.821082 -0.934211 0.891740 0.102840 -0.031164 -43134.600000 0 0 1
23.952624 -30.879840 30.512313 49.581185 -0.911067 0.907902 0.074992 -0.028735 -304105.000000 0 0 1
24.831824 -29.648770 30.427683 49.208870 -0.873585 0.904171 0.065852 -0.029307 356390.000000 0 0 1
26.085324 -29.913320 29.785953 49.623118 -0.853651 0.926991 0.063850 -0.036576 3765.920000 0 0 1
26.865724 -28.787260 29.615603 49.270248 -0.819912 0.925938 0.058258 -0.037542 -289001.000000 0 0 1
28.218124 -29.032280 28.923163 49.756257 -0.799618 0.950475 0.037324 -0.026264 -265777.000000 0 0 1
29.094424 -29.809380 29.684973 51.149606 -0.797535 0.951631 0.036823 -0.017460 83986.000000 0 0 1
30.412624 -29.765380 29.139903 51.575570 -0.774643 0.970370 0.032144 -0.035627 152376.000000 0 0 1
31.245224 -30.938340 29.602293 53.006987 -0.780463 0.978268 0.024404 -0.030677 -251003.000000 0 0 1
30.848324 -32.200190 29.094603 53.244410 -0.806837 0.992695 0.017344 -0.032549 1047780.000000 0 0 1
31.857824 -33.167180 29.563873 54.671796 -0.805532 0.999466 0.044049 -0.028099 157847.000000 0 0 1
31.218024 33.114414 29.907033 54.456956 0.814868 0.989406 0.040015 -0.027195 -9329.190000 0 0 1
30.410524 33.052065 31.106723 54.633938 0.826998 0.965062 0.058470 -0.021100 381212.000000 0 0 1
29.258724 -33.805160 31.156303 54.493825 -0.857366 0.962171 0.042171 -0.015652 -332423.000000 0 0 1
28.056924 33.561670 30.182123 53.146376 0.874497 0.966837 0.050115 -0.015677 -317248.000000 0 0 1
27.468524 32.325364 30.409723 52.193872 0.866447 0.948835 0.044800 -0.009812 1141130.000000 0 0 1
26.092624 32.419346 29.910903 51.249402 0.893107 0.947599 0.040580 -0.008595 1647750.000000 0 0 1
25.296124 31.127483 30.059933 50.123983 0.888382 0.927656 0.061483 -0.025632 -291570.000000 0 0 1
25.869224 30.130893 29.281123 49.340365 0.861353 0.935456 0.055149 -0.023569 106244.000000 0 0 1
25.107624 28.947683 29.322203 48.250935 0.856318 0.917632 0.102443 -0.045996 -191246.000000 0 0 1
24.407124 28.527613 28.027543 46.851634 0.863082 0.929519 0.098833 -0.051873 -353183.000000 0 0 1
23.239724 29.278213 27.779593 46.572571 0.899875 0.931688 0.127001 -0.052770 70061.400000 0 0 1
22.674924 28.967223 26.501663 45.338619 0.906645 0.946499 0.113901 -0.041891 1004500.000000 0 0 1
21.232924 29.563383 26.262273 44.883602 0.947949 0.945769 0.128082 -0.034370 908959.000000 0 0 1
21.247224 30.901873 25.835153 45.539274 0.968461 0.967554 0.122541 -0.044194 -605396.000000 0 0 1
19.956624 31.225733 25.438353 44.949117 1.002116 0.969227 0.120913 -0.041523 -804495.000000 0 0 1
19.778124 32.657770 24.823733 45.540332 1.026256 0.994296 0.136956 -0.040593 -262933.000000 0 0 1
20.492824 32.818760 23.616983 45.329778 1.012611 1.022770 0.129919 -0.039797 467822.000000 0 0 1
21.750224 33.461990 23.887863 46.512440 0.994423 1.031444 0.125290 -0.037581 640411.000000 0 0 1
22.611324 33.495980 22.566283 46.287037 0.977015 1.061539 0.123040 -0.042772 213953.000000 0 0 1
22.287224 -33.036080 21.663683 45.358771 -0.977299 1.072867 0.125166 -0.035909 271850.000000 0 0 1
23.149324 -33.021850 20.552283 45.262900 -0.959379 1.099474 0.131229 -0.033085 -35990.000000 0 0 1
22.935824 -31.808380 19.611983 43.845808 -0.946074 1.107058 0.091200 -0.029334 -397978.000000 0 0 1
23.361824 -30.567000 20.181783 43.444455 -0.918217 1.087679 0.087226 -0.025884 13591.600000 0 0 1
22.775524 -29.427710 19.634583 42.074118 -0.912144 1.085278 0.096906 -0.032599 -340574.000000 0 0 1
23.372224 -28.866940 18.311383 41.410962 -0.890197 1.112761 0.075066 -0.027852 -167348.000000 0 0 1
23.072224 -29.680770 17.179983 41.333127 -0.910022 1.142142 0.053450 -0.031833 262724.000000 0 0 1
23.327924 -28.945100 16.008883 40.475859 -0.892446 1.164166 0.050097 -0.025452 -172034.000000 0 0 1
22.768124 -29.511160 14.716483 40.073319 -0.913671 1.194758 0.044829 -0.021615 30823.500000 0 0 1
23.659424 -30.545640 14.315483 41.203610 -0.911761 1.215964 0.060894 -0.018613 271481.000000 0 0 1
23.711124 -30.858180 12.886483 40.993976 -0.915629 1.251024 0.064150 -0.026315 -781232.000000 0 0 1
22.466924 -31.273200 12.085483 40.358823 -0.947822 1.266679 0.067284 -0.028358 -735133.000000 0 0 1
21.758124 -32.290380 12.642983 40.938119 -0.977853 1.256832 0.073797 -0.028963 -652945.000000 0 0 1
20.642924 -32.617650 11.857583 40.381229 -1.006553 1.272763 0.086308 -0.029660 -257554.000000 0 0 1
19.629224 -33.505740 12.604683 40.826695 -1.040849 1.256932 0.105498 -0.018752 273448.000000 0 0 1
18.952224 -32.862650 13.711983 40.338059 -1.047678 1.223957 0.096333 -0.015785 832790.000000 0 0 1
19.643824 -33.301390 14.869483 41.424194 -1.037851 1.203647 0.086511 -0.019414 -375302.000000 0 0 1
19.327524 -32.275700 16.032183 40.893824 -1.031241 1.167944 0.083629 -0.030163 -115099.000000 0 0 1
18.000324 -31.948560 16.373783 40.159966 -1.057711 1.150847 0.108948 -0.042815 -109574.000000 0 0 1
17.222124 -32.986820 16.964683 40.896605 -1.089632 1.143053 0.104965 -0.031015 -187128.000000 0 0 1
17.721024 -33.635460 18.311183 42.198083 -1.085896 1.121942 0.088192 -0.034017 -522304.000000 0 0 1
18.702524 33.031350 18.133783 42.067667 1.055597 1.125127 0.074661 -0.024537 -256725.000000 0 0 1
19.163324 32.615338 19.394683 42.510551 1.039577 1.097040 0.066667 -0.022248 -147629.000000 0 0 1
19.915124 31.310053 19.300483 41.826311 1.004282 1.091175 0.062189 -0.014451 -301584.000000 0 0 1
19.104924 30.132353 19.145883 40.491007 1.005727 1.078282 0.049732 -0.013518 -19366.600000 0 0 1
19.879524 29.009463 18.780683 39.868013 0.970020 1.080291 0.047200 -0.017947 -101155.000000 0 0 1
19.098724 27.704193 18.587783 38.442025 0.967233 1.066116 0.050176 -0.013027 -69644.500000 0 0 1
18.544624 27.155633 19.761083 38.364462 0.971638 1.029686 0.054872 -0.018755 -65972.200000 0 0 1
18.166324 25.815173 19.456983 37.081164 0.957587 1.018418 0.066934 -0.024807 -694431.000000 0 0 1
18.122124 24.780463 20.653483 37.000664 0.939367 0.978591 0.075733 -0.021157 -304665.000000 0 0 1
16.985224 24.846293 21.464983 36.967305 0.971154 0.951272 0.070205 -0.019837 -257106.000000 0 0 1
15.837824 24.242763 20.918683 35.723095 0.992104 0.945203 0.087208 -0.025326 -205275.000000 0 0 1
14.531024 24.508983 21.702583 35.816798 1.035624 0.919858 0.107457 -0.041177 43192.500000 0 0 1
14.057124 25.828743 21.579183 36.474482 1.072383 0.937724 0.116863 -0.039215 79925.300000 0 0 1
12.756024 25.977883 22.125883 36.429676 1.114347 0.918065 0.124794 -0.042395 316820.000000 0 0 1
11.839924 26.984003 21.356783 36.392752 1.157316 0.943644 0.135838 -0.049631 191803.000000 0 0 1
12.212524 28.348403 21.658483 37.707660 1.164022 0.958951 0.122618 -0.055025 -49181.500000 0 0 1
11.781724 29.211053 20.652083 37.664349 1.187422 0.990443 0.136635 -0.058297 316309.000000 0 0 1
12.371324 30.681173 20.730283 39.040091 1.187515 1.011016 0.140640 -0.056686 108047.000000 0 0 1
11.688624 31.406753 21.715783 39.932234 1.214510 0.995819 0.127966 -0.053553 -113882.000000 0 0 1
12.237024 31.292073 23.003413 40.719720 1.198022 0.970459 0.099386 -0.052572 -23331.400000 0 0 1
11.388924 32.091341 24.012363 41.667198 1.229771 0.956615 0.087375 -0.048920 824932.000000 0 0 1
10.044924 31.660683 24.259603 41.131833 1.263574 0.939984 0.085510 -0.053530 451939.000000 0 0 1
9.665724 32.128084 25.535753 42.162954 1.278560 0.920221 0.076055 -0.040776 -612906.000000 0 0 1
8.217324 31.921724 26.010853 41.989110 1.318845 0.902733 0.119871 -0.056644 -485732.000000 0 0 1
7.250924 32.872591 25.526853 42.246934 1.353696 0.921998 0.116688 -0.051997 825541.000000 0 0 1
6.628324 32.494959 24.239413 41.078050 1.369577 0.939636 0.118196 -0.058794 733517.000000 0 0 1
5.526324 31.370803 24.409323 40.130819 1.396424 0.916950 0.112723 -0.055636 -61607.100000 0 0 1
6.133424 30.163043 24.893123 39.586559 1.370189 0.890752 0.093297 -0.055234 -620072.000000 0 0 1
5.448724 28.962473 24.652993 38.422435 1.384839 0.874175 0.084239 -0.045347 -1261300.000000 0 0 1
6.356724 27.727973 24.831413 37.760396 1.345437 0.853162 0.084768 -0.045465 -101640.000000 0 0 1
7.391724 27.496703 23.906183 37.178110 1.308183 0.872364 0.092976 -0.049241 199325.000000 0 0 1
8.410924 28.488373 23.935263 38.147449 1.283712 0.892534 0.110718 -0.049671 -768259.000000 0 0 1
9.708724 28.140343 24.710873 38.688054 1.238573 0.877961 0.093903 -0.051055 -857990.000000 0 0 1
9.573124 27.975403 26.093623 39.435328 1.241089 0.847737 0.084289 -0.045008 718925.000000 0 0 1
10.824524 27.687603 26.750323 39.991918 1.198114 0.838077 0.088422 -0.030746 1031710.000000 0 0 1
11.881724 28.846103 26.732013 41.083739 1.180073 0.862328 0.093540 -0.040448 -837780.000000 0 0 1
11.672024 29.891023 27.603513 42.328045 1.198519 0.860402 0.087898 -0.046630 730493.000000 0 0 1
12.728924 30.880653 27.666363 43.371280 1.179819 0.879033 0.085676 -0.036257 381545.000000 0 0 1
12.221224 32.120232 28.440483 44.608617 1.207227 0.879475 0.061886 -0.039598 -22843.300000 0 0 1
12.055124 31.949908 29.824003 45.338657 1.209999 0.852895 0.062449 -0.052341 89068.800000 0 0 1
10.739924 31.575883 30.154553 44.963090 1.242941 0.835710 0.085038 -0.051215 -354270.000000 0 0 1
10.539524 31.408803 31.667513 45.830404 1.247044 0.807964 0.109414 -0.046500 -175593.000000 0 0 1
10.927724 30.152193 32.215982 45.458106 1.223101 0.783148 0.095460 -0.050074 245813.000000 0 0 1
11.059524 30.223753 33.657415 46.568336 1.220008 0.763018 0.118399 -0.048097 -131082.000000 0 0 1
11.187124 28.786993 -33.450886 45.528063 1.200141 2.396067 0.108957 -0.047890 -1202640.000000 0 0 1
12.415124 28.312163 -33.811726 45.814263 1.157540 2.400924 0.116084 -0.041463 -930909.000000 0 0 1
12.406424 26.914453 -33.567036 44.777819 1.138867 2.418307 0.116924 -0.041724 239056.000000 0 0 1
13.758424 26.202293 -33.864006 44.973607 1.087283 2.423368 0.123629 -0.034146 331492.000000 0 0 1
13.755924 24.880043 -33.485866 43.926589 1.065737 2.437678 0.091987 -0.032380 -41065.100000 0 0 1
14.235124 24.617413 -32.172186 42.938390 1.046520 2.417746 0.084804 -0.026989 -109663.000000 0 0 1
13.954024 23.131803 -31.844536 41.759665 1.027998 2.438068 0.074018 -0.040423 126670.000000 0 0 1
14.879024 22.283733 -32.521906 42.138160 0.982073 2.452451 0.072112 -0.024211 254687.000000 0 0 1
14.736224 20.893833 -32.330786 41.218786 0.956528 2.472476 0.071289 -0.021551 -30813.000000 0 0 1
15.915324 20.056333 -32.922806 41.706896 0.900012 2.480603 0.087178 -0.041695 1203430.000000 0 0 1
17.133124 20.306233 -32.159406 41.714679 0.869949 2.451108 0.112193 -0.050419 285963.000000 0 0 1
18.200424 19.708533 -32.837946 42.402977 0.825160 2.456603 0.119982 -0.052311 -1474570.000000 0 0 1
19.413824 19.904333 -31.996406 42.389256 0.797873 2.426181 0.092872 -0.049187 -1397120.000000 0 0 1
20.127924 21.128233 -32.117276 43.394182 0.809640 2.404058 0.103726 -0.042931 365726.000000 0 0 1
21.223524 21.390133 -31.271036 43.426414 0.789308 2.374732 0.087509 -0.036906 212015.000000 0 0 1
20.785824 21.726533 -29.826766 42.352434 0.807522 2.352165 0.072169 -0.031548 -171134.000000 0 0 1
20.172824 23.014563 -29.815626 42.726859 0.851104 2.343145 0.055051 -0.024371 -66421.100000 0 0 1
19.794324 23.416283 -28.528976 41.881262 0.869024 2.320179 0.049441 -0.003228 -598732.000000 0 0 1
20.894224 24.023053 -27.616546 42.146759 0.854943 2.285306 0.045137 -0.003279 -22885.000000 0 0 1
21.635624 25.115523 -28.145626 43.486389 0.859696 2.274739 0.037694 0.002355 -105689.000000 0 0 1
20.965024 26.342473 -28.351796 44.014571 0.898582 2.270702 0.032954 0.004708 -936473.000000 0 0 1
21.856924 27.276603 -29.127636 45.498982 0.895259 2.265532 0.030771 0.010032 -704908.000000 0 0 1
21.969724 27.042893 -30.521136 46.319829 0.888538 2.290181 0.045151 0.004379 467214.000000 0 0 1
22.632124 25.815273 -30.961816 46.230676 0.851007 2.304634 0.067589 -0.009180 661958.000000 0 0 1
24.082424 25.509393 -30.453106 46.455182 0.814165 2.285690 0.091885 -0.015342 419379.000000 0 0 1
25.015924 26.510003 -30.857896 47.757580 0.814387 2.273307 0.077515 -0.009553 767052.000000 0 0 1
26.333024 26.236473 -30.378466 48.006582 0.783562 2.255958 0.114367 -0.024686 492136.000000 0 0 1
27.541724 27.003673 -30.907436 49.426861 0.775534 2.246333 0.099603 -0.007503 -157736.000000 0 0 1
27.731624 28.291913 -30.388986 49.929609 0.795399 2.225137 0.069972 -0.000509 679696.000000 0 0 1
29.066324 28.799453 -30.516306 51.044144 0.780786 2.211602 0.073472 -0.009664 759396.000000 0 0 1
29.206324 30.061363 -29.618816 51.322210 0.799824 2.185988 0.050402 0.007238 -133196.000000 0 0 1
29.388824 29.891653 -28.234066 50.540839 0.793880 2.163540 0.071224 0.000927 194285.000000 0 0 1
29.017424 31.003543 -27.449276 50.563755 0.818477 2.144641 0.047681 0.007293 -785475.000000 0 0 1
29.357524 30.847973 -25.957186 49.872209 0.810149 2.118202 0.062656 0.003274 -97520.700000 0 0 1
28.772124 29.758913 -25.166636 48.443654 0.802256 2.117066 0.052486 0.007109 1110050.000000 0 0 1
27.338024 29.880883 -25.099726 47.646941 0.829810 2.125611 0.039949 0.007299 460405.000000 0 0 1
26.735024 29.419173 -23.775856 46.319981 0.833161 2.109817 0.042459 0.006597 -147252.000000 0 0 1
26.984224 30.345493 -22.695856 46.519880 0.843962 2.080449 0.051034 0.004069 -51161.800000 0 0 1
26.426824 29.942173 -21.516156 45.363595 0.847681 2.064970 0.046486 -0.004274 -129434.000000 0 0 1
3.267124 -26.259260 -19.579256 32.917626 -1.447014 2.207808 0.087072 -0.025274 -192252.000000 0 0 1
2.997924 -27.290580 -18.652556 33.191582 -1.461383 2.167558 0.087871 -0.019124 57553.700000 0 0 1
2.982724 -26.844150 -17.265856 32.056431 -1.460138 2.139581 0.104161 -0.014433 -44481.700000 0 0 1
3.139224 -28.075560 -16.337456 32.634403 -1.459445 2.095112 0.103894 -0.013501 431014.000000 0 0 1
4.497624 -28.479020 -16.260656 33.101240 -1.414162 2.084309 0.102722 -0.018681 104335.000000 0 0 1
4.560124 -29.587280 -15.356656 33.645635 -1.417875 2.044768 0.104925 -0.017525 832196.000000 0 0 1
6.038224 -30.042030 -15.083656 34.154068 -1.372447 2.028217 0.128568 -0.029038 1086800.000000 0 0 1
6.761024 -29.066320 -14.271356 33.079208 -1.342254 2.016873 0.124531 -0.016538 283754.000000 0 0 1
8.093724 -29.453280 -13.968856 33.587691 -1.302617 1.999720 0.120215 -0.018011 399273.000000 0 0 1
8.307624 -30.212960 -12.671156 33.799375 -1.302459 1.955078 0.109368 -0.026909 -555506.000000 0 0 1
8.373024 -29.358270 -11.510756 32.626876 -1.292971 1.931358 0.101356 -0.027928 -73688.000000 0 0 1
8.481524 -30.005510 -10.272856 32.829840 -1.295318 1.889054 0.104088 -0.023991 552478.000000 0 0 1
9.721624 -30.947500 -10.085256 33.970135 -1.266425 1.872226 0.107011 -0.023431 729214.000000 0 0 1
10.983324 -30.270100 -10.010756 33.721322 -1.222725 1.872207 0.106760 -0.029152 249965.000000 0 0 1
11.964624 -31.291830 -9.967456 34.952554 -1.205592 1.859981 0.108048 -0.027847 552931.000000 0 0 1
13.217624 -30.880900 -9.110156 34.804173 -1.166371 1.835636 0.110655 -0.036071 839310.000000 0 0 1
14.278124 -30.156750 -9.715256 34.751699 -1.128602 1.854134 0.127706 -0.038553 389651.000000 0 0 1
15.349124 -30.002370 -8.833356 34.839144 -1.097914 1.827142 0.116243 -0.031035 747368.000000 0 0 1
16.618024 -29.089840 -9.173356 34.735111 -1.051773 1.838061 0.117257 -0.033721 996832.000000 0 0 1
16.515224 -27.671630 -9.236956 33.523023 -1.032712 1.849948 0.126244 -0.033469 86851.900000 0 0 1
16.038224 -27.186170 -10.491056 33.262211 -1.037806 1.891679 0.117036 -0.030531 -197990.000000 0 0 1
15.718024 -25.657670 -10.569856 31.891913 -1.021160 1.908612 0.105424 -0.034040 -607688.000000 0 0 1
14.604024 -25.269670 -9.794856 30.785921 -1.046765 1.894585 0.092588 -0.033494 365749.000000 0 0 1
14.000924 -23.964590 -9.932856 29.478620 -1.042050 1.914473 0.071720 -0.021034 455208.000000 0 0 1
13.386824 -23.645090 -11.298156 29.426954 -1.055633 1.964855 0.054630 -0.013161 -75258.500000 0 0 1
14.409724 -23.393390 -12.233956 30.075912 -1.018714 1.989711 0.041994 -0.013678 -75008.200000 0 0 1
13.853924 -23.618490 -13.517456 30.536632 -1.040310 2.029363 0.059982 -0.017944 333332.000000 0 0 1
14.606324 -23.008390 -14.733356 30.980679 -1.005162 2.066404 0.053522 -0.016919 426212.000000 0 0 1
15.814924 -23.600790 -15.175356 32.208702 -0.980420 2.061398 0.049510 -0.015738 202660.000000 0 0 1
16.195724 -23.092690 -16.428156 32.641356 -0.959175 2.098201 0.046043 -0.014789 -374243.000000 0 0 1
17.192724 -24.067990 -17.137456 34.184065 -0.950511 2.095930 0.062473 -0.019477 896144.000000 0 0 1
18.545924 -24.052590 -16.709456 34.665318 -0.913954 2.073758 0.106391 -0.028605 442070.000000 0 0 1
19.369924 -22.931390 -17.017556 34.505649 -0.869393 2.086540 0.101502 -0.030282 -340055.000000 0 0 1
20.824624 -23.112990 -16.581456 35.253651 -0.837433 2.060481 0.088906 -0.024821 -199462.000000 0 0 1
21.645324 -23.989890 -17.306456 36.654444 -0.836729 2.062526 0.119452 -0.022825 -689640.000000 0 0 1
22.833224 -24.208590 -16.613756 37.194473 -0.814627 2.033839 0.126405 -0.016239 -253379.000000 0 0 1
23.814924 -25.193080 -17.273856 38.732776 -0.813512 2.033060 0.120816 -0.025464 -139372.000000 0 0 1
24.477424 -24.720190 -18.417356 39.362813 -0.790333 2.057695 0.136444 -0.027511 -319073.000000 0 0 1
25.083624 -25.741800 -19.162256 40.731075 -0.798347 2.060606 0.122650 -0.032732 -347008.000000 0 0 1
26.059724 -25.156540 -20.217656 41.481493 -0.767765 2.079894 0.119879 -0.032993 -399504.000000 0 0 1
25.723224 -24.239590 -21.218356 41.224514 -0.755712 2.111457 0.136474 -0.028872 -441798.000000 0 0 1
25.683224 -22.915390 -20.704056 40.167163 -0.728507 2.112326 0.146089 -0.022959 -506792.000000 0 0 1
24.572824 -22.011790 -21.240656 39.236565 -0.730477 2.142836 0.185079 -0.022651 -804725.000000 0 0 1
24.655224 -21.458290 -22.561056 39.715734 -0.716181 2.174947 0.166369 -0.018518 16511.000000 0 0 1
24.523824 -22.393690 -23.626156 40.756478 -0.740028 2.189146 0.123402 -0.026296 91216.900000 0 0 1
23.895424 -21.737290 -24.893656 40.782290 -0.738140 2.227366 0.113707 -0.030252 128980.000000 0 0 1
24.791524 -20.854790 -25.524126 41.243459 -0.699367 2.238093 0.113314 -0.015273 65979.600000 0 0 1
24.079924 -20.088290 -26.480726 41.044012 -0.695270 2.272054 0.105560 -0.006159 62837.500000 0 0 1
24.863224 -19.271690 -27.535786 41.806667 -0.659378 2.289814 0.110392 -0.003415 -162084.000000 0 0 1
23.959724 -18.379590 -28.108736 41.255045 -0.654358 2.320389 0.113835 -0.003884 281220.000000 0 0 1
24.350324 -18.140290 -29.463766 42.309832 -0.640275 2.341139 0.107944 -0.016270 -234755.000000 0 0 1
23.354824 -17.221490 -30.189266 41.873850 -0.635378 2.375979 0.125584 -0.017145 58142.200000 0 0 1
22.066924 -17.843390 -30.277746 41.497923 -0.679965 2.388564 0.113765 -0.012430 -10012.800000 0 0 1
21.247724 -16.955390 -30.919266 41.169795 -0.673512 2.420399 0.116030 -0.013349 223925.000000 0 0 1
19.960224 -17.599790 -31.574346 41.292886 -0.722636 2.441285 0.105696 -0.010897 765389.000000 0 0 1
20.253424 -18.231590 -32.826746 42.663653 -0.732911 2.448746 0.103018 -0.007039 693307.000000 0 0 1
19.127924 -18.943090 -33.332006 42.845545 -0.780543 2.462205 0.100169 -0.012600 165654.000000 0 0 1
19.553824 -19.721190 33.170515 43.261535 -0.789660 0.697043 0.125756 -0.021819 -21701.700000 0 0 1
20.352424 -20.821790 33.522010 44.401500 -0.796797 0.715181 0.128272 -0.021923 19160.100000 0 0 1
20.629524 -21.583590 32.395887 44.055897 -0.807995 0.744634 0.126502 -0.026006 -256207.000000 0 0 1
21.481324 -22.831890 32.675299 45.281537 -0.815866 0.764681 0.115136 -0.015548 -275608.000000 0 0 1
20.933224 -23.802590 33.554065 46.158839 -0.849451 0.756961 0.130207 -0.022137 -93919.300000 0 0 1
20.921424 -23.347990 -32.823026 45.389268 -0.840157 2.379141 0.133484 -0.025496 -332720.000000 0 0 1
19.976124 -24.102490 -31.892476 44.688987 -0.878740 2.365497 0.134449 -0.029806 -286623.000000 0 0 1
20.218524 -25.518490 -31.802276 45.512271 -0.900763 2.344463 0.138419 -0.039090 22202.500000 0 0 1
21.173624 -25.883650 -30.823806 45.479585 -0.885157 2.315495 0.124658 -0.038530 82422.600000 0 0 1
21.391524 -27.385100 -30.808426 46.440285 -0.907663 2.296148 0.107495 -0.042156 -483183.000000 0 0 1
20.277124 -28.069440 -30.353406 46.047632 -0.945200 2.290516 0.105391 -0.035936 -616430.000000 0 0 1
20.433624 -29.468730 -30.558976 47.114648 -0.964513 2.276552 0.097905 -0.029306 -271384.000000 0 0 1
19.262724 -30.313180 -29.999526 46.796506 -1.004713 2.266679 0.107432 -0.029322 662888.000000 0 0 1
17.972824 -30.116420 -30.575256 46.528136 -1.032749 2.287808 0.121131 -0.034731 367205.000000 0 0 1
17.784724 -30.781510 -31.833486 47.719687 -1.046881 2.301097 0.134703 -0.036568 -1213230.000000 0 0 1
16.392724 -31.214680 -32.224036 47.764695 -1.087223 2.311275 0.139754 -0.046082 114779.000000 0 0 1
15.465824 -30.171850 -32.686376 47.094919 -1.097127 2.337900 0.146220 -0.038308 1281510.000000 0 0 1
14.255024 -30.768180 -33.203696 47.459162 -1.136934 2.345671 0.088055 -0.026340 506074.000000 0 0 1
13.454524 -29.730980 33.800113 46.983008 -1.145830 0.767842 0.085775 -0.011326 -278091.000000 0 0 1
12.772924 -28.802950 -33.137376 45.725739 -1.153395 2.381393 0.097568 -0.021260 -91490.500000 0 0 1
11.830324 -28.065510 33.850833 45.535791 -1.171872 0.732672 0.091058 -0.021280 17650.300000 0 0 1
10.839224 -27.292850 -32.995886 44.171449 -1.192753 2.414328 0.098044 -0.023114 62508.900000 0 0 1
10.061524 -28.173960 -32.212706 43.962082 -1.227791 2.393134 0.082125 -0.015911 -488697.000000 0 0 1
9.210724 -27.498160 -31.341776 42.700037 -1.247584 2.394988 0.067545 -0.022745 17006.900000 0 0 1
8.223124 -28.500690 -30.656686 42.658428 -1.289901 2.372662 0.061308 -0.023576 942080.000000 0 0 1
7.104224 -28.985130 -31.434836 43.344627 -1.330436 2.382165 0.073452 -0.024842 723987.000000 0 0 1
7.316224 -30.327300 -31.873176 44.600130 -1.334077 2.366910 0.078544 -0.020199 551730.000000 0 0 1
5.998924 -31.011350 -32.368456 45.226185 -1.379714 2.368425 0.117065 -0.036658 1122280.000000 0 0 1
5.040124 -31.302790 -31.347516 44.586256 -1.411155 2.350510 0.133514 -0.052290 422272.000000 0 0 1
4.120624 -32.340470 -31.570096 45.382337 -1.444065 2.340117 0.160619 -0.082389 -73100.600000 0 0 1
3.099624 -32.623160 -30.391736 44.693801 -1.476068 2.318557 0.141728 -0.083464 656725.000000 0 0 1
2.030824 -31.730490 -30.212816 43.860717 -1.506881 2.330678 0.135819 -0.069220 1047460.000000 0 0 1
0.878424 -31.900470 -31.099876 44.560228 -1.543267 2.343298 0.111591 -0.038121 966310.000000 0 0 1
-0.207476 -30.826820 -30.822956 43.593468 1.564066 2.356121 0.078530 -0.022368 278760.000000 0 0 1
-1.061676 -30.968580 -29.689706 42.914551 1.536527 2.334821 0.046615 -0.029484 525870.000000 0 0 1
-1.921076 -29.835760 -29.520506 42.015751 1.506497 2.349849 0.084954 -0.021426 157688.000000 0 0 1
-2.547076 -29.782350 -28.131176 41.046791 1.485481 2.325872 0.081610 -0.023997 -523931.000000 0 0 1
-1.678076 -29.483570 -27.098086 40.079959 1.513942 2.313254 0.068673 -0.025278 -469964.000000 0 0 1
-2.361876 -29.465800 -25.893626 39.297477 1.490811 2.290169 0.084094 -0.028587 -190776.000000 0 0 1
-1.364176 -29.717000 -24.732556 38.686695 1.524923 2.264389 0.047545 -0.032748 -317043.000000 0 0 1
-1.860576 -29.735440 -23.441756 37.910078 1.508307 2.237440 0.077012 -0.032554 -638008.000000 0 0 1
-0.899476 -30.257700 -22.581956 37.766151 1.541078 2.211727 0.053643 -0.031178 -327622.000000 0 0 1
-1.324076 -30.282620 -21.106456 36.936063 1.527100 2.179046 0.015905 -0.014182 -258612.000000 0 0 1
-1.445276 -29.036830 -20.375856 35.502138 1.521063 2.182097 0.014970 -0.017091 -214937.000000 0 0 1
-0.203776 -28.473720 -20.044256 34.821925 1.563640 2.184161 0.047673 -0.029527 -359963.000000 0 0 1
-0.329276 -27.080000 -19.355256 33.287546 1.558638 2.191314 0.055713 -0.036022 -283788.000000 0 0 1
-0.930376 -27.219580 -18.066656 32.682949 1.536629 2.156499 0.045990 -0.028267 113299.000000 0 0 1
-0.990076 -25.984500 -17.457556 31.319973 1.532712 2.162040 0.057189 -0.023788 -252059.000000 0 0 1
-1.993776 -26.040440 -16.317356 30.795060 1.494381 2.129243 0.043270 -0.012438 -578340.000000 0 0 1
-2.061876 -24.824490 -15.613356 29.398699 1.487928 2.130683 0.042622 -0.001420 638082.000000 0 0 1
-3.177476 -24.788090 -14.697556 28.992480 1.443306 2.102432 0.035962 -0.001012 473199.000000 0 0 1
-3.005976 -23.674790 -13.647856 27.491736 1.444503 2.090283 0.035596 0.003120 744925.000000 0 0 1
-1.825476 -23.772290 -12.813256 27.067206 1.494157 2.063928 0.041517 0.004473 548829.000000 0 0 1
-1.699476 -22.680390 -11.966556 25.699937 1.496005 2.055138 0.047121 0.000613 -67451.300000 0 0 1
-0.338176 -22.533690 -11.271156 25.197629 1.555790 2.034552 0.054478 0.000717 -82501.100000 0 0 1
-0.041076 -21.224790 -10.803856 23.816311 1.568861 2.041634 0.047120 0.002013 -112167.000000 0 1 0
1.268924 -21.321190 -10.263656 23.696960 -1.511352 2.018749 0.044292 0.005681 245147.000000 0 1 0
1.762624 -19.917690 -9.838656 22.284980 -1.482531 2.028058 0.049693 -0.005250 -1049020.000000 0 1 0
2.169024 -19.204890 -10.978156 22.227289 -1.458332 2.087371 0.050208 0.000096 -285658.000000 0 1 0
3.000224 -18.080490 -10.770656 21.258233 -1.406358 2.102100 0.030646 -0.000427 916527.000000 0 1 0
4.447124 -18.456690 -10.261156 21.580492 -1.334354 2.066309 0.055188 -0.018387 70038.400000 0 1 0
4.566724 -18.762390 -8.912956 21.267887 -1.332041 2.003229 0.054771 -0.019276 324193.000000 0 1 0
5.762024 -19.513490 -8.651356 22.109345 -1.283672 1.972839 0.072920 -0.017965 523653.000000 0 1 0
5.498824 -20.511390 -7.529456 22.531020 -1.308869 1.911533 0.072735 -0.026213 -275627.000000 0 1 0
4.699924 -21.535290 -8.000356 23.449172 -1.355923 1.918967 0.081427 -0.029243 -285459.000000 0 1 0
4.474924 -22.485490 -6.937656 23.953147 -1.374349 1.864641 0.094624 -0.029558 374555.000000 0 1 0
3.414224 -23.560790 -7.321456 24.907257 -1.426887 1.869152 0.085539 -0.023263 769510.000000 0 1 0
3.956824 -24.158890 -8.519756 25.920931 -1.408454 1.905705 0.108261 -0.023762 883492.000000 0 0 1
2.931224 -24.970690 -9.123056 26.746169 -1.453945 1.918881 0.092205 -0.012337 717120.000000 0 0 1
3.411224 -25.826550 -10.303456 28.014431 -1.439474 1.947429 0.098199 -0.014599 12238.600000 0 0 1
3.946724 -27.101730 -10.015556 29.161477 -1.426187 1.921386 0.087478 -0.021685 -22321.100000 0 0 1
4.565224 -27.701860 -11.136156 30.203448 -1.407466 1.948412 0.115205 -0.018313 76552.200000 0 0 1
4.571524 -29.244090 -11.087056 31.607569 -1.415728 1.929192 0.105458 -0.023015 720396.000000 0 0 1
3.245424 -29.781770 -11.195856 31.981772 -1.462251 1.928442 0.112545 -0.019181 656494.000000 0 0 1
3.244224 -31.184880 -11.347356 33.343428 -1.467137 1.918051 0.101311 -0.022576 464589.000000 0 0 1
1.867124 -31.769430 -11.807556 33.944089 -1.512093 1.926077 0.070130 -0.027372 431476.000000 0 0 1
1.542324 -31.484160 -13.203256 34.175386 -1.521848 1.967455 0.076665 -0.031022 333215.000000 0 0 1
0.905824 -32.589990 -13.805356 35.405025 -1.543009 1.971348 0.068239 -0.020496 -297743.000000 0 0 1
0.460824 -32.289140 -15.256056 35.714817 -1.556526 2.012149 0.068442 -0.015998 -230344.000000 0 0 1
-0.642876 -31.434700 -15.349756 34.988121 1.550348 2.024963 0.068517 -0.012609 -245779.000000 0 0 1
-1.136076 -31.418760 -16.696556 35.597810 1.534653 2.058992 0.026938 -0.013079 -81318.800000 0 0 1
-2.293476 -30.406430 -16.837756 34.832758 1.495512 2.075318 0.037069 -0.004001 69695.800000 0 0 1
-3.432576 -30.839420 -16.121056 34.967711 1.459948 2.049948 0.045130 -0.011425 -1030170.000000 0 0 1
-4.575076 -30.556750 -16.851356 35.193955 1.422176 2.070100 0.054963 -0.003531 -700311.000000 0 0 1
-5.860376 -30.528070 -16.031156 34.975777 1.381137 2.046934 0.060618 -0.011562 -720137.000000 0 0 1
-5.954176 -29.359830 -15.210556 33.597810 1.370710 2.040615 0.043109 -0.007251 318707.000000 0 0 1
-7.230076 -28.958870 -14.720556 33.280398 1.326131 2.028979 0.059610 -0.012071 483228.000000 0 0 1
-8.047876 -29.831100 -13.732656 33.811960 1.307288 1.989031 0.054637 -0.023167 30829.200000 0 0 1
-8.356176 -31.090700 -14.280556 35.219193 1.308233 1.988296 0.066584 -0.019544 -277015.000000 0 0 1
-9.088676 -31.975990 -13.466756 35.866718 1.293865 1.955697 0.058740 -0.020779 -150523.000000 0 0 1
-9.272276 -33.361490 -14.137256 37.400884 1.299705 1.958423 0.106914 -0.026950 -954627.000000 0 0 1
-8.129876 33.499657 -14.080456 37.236826 -1.332714 1.958575 0.101673 -0.026139 -527870.000000 0 0 1
-8.272876 32.189162 -14.579656 36.292548 -1.319233 1.984197 0.136262 -0.036089 -81614.000000 0 0 1
-8.080476 -21.958990 -3.421256 23.647332 1.218194 1.715984 0.097441 -0.021193 170179.000000 0 1 0
-7.802776 -20.963090 -4.368656 22.790779 1.214470 1.763675 0.081043 -0.018462 714503.000000 0 1 0
-6.471176 -21.051590 -4.920556 22.566733 1.272568 1.790607 0.072479 -0.016669 877298.000000 0 1 0
-6.196776 -19.989990 -6.016356 21.776048 1.270196 1.850721 0.066507 -0.019373 67507.100000 0 1 0
-6.971076 -20.313790 -7.163756 22.639906 1.240219 1.892751 0.068631 -0.018280 16412.200000 0 1 0
-7.092876 -19.234690 -8.008556 22.009524 1.217512 1.943213 0.046530 -0.018627 137833.000000 0 1 0
-7.952976 -19.433090 -9.304556 22.966706 1.182342 1.987920 0.050196 -0.017821 414561.000000 0 1 0
-7.241676 -20.031890 -10.309756 23.664521 1.223907 2.021571 0.037868 -0.011283 -120393.000000 0 1 0
-8.228376 -20.424590 -11.239356 24.722321 1.187822 2.042746 0.068935 -0.008322 297511.000000 0 1 0
-7.680676 -21.462090 -12.223156 25.865414 1.227126 2.062998 0.057556 0.004382 352812.000000 0 0 1
-6.855876 -20.848390 -13.256356 25.639605 1.253091 2.114170 0.054413 0.018057 317046.000000 0 0 1
-6.685976 -21.583190 -14.463556 26.827799 1.270394 2.140195 0.039014 0.023978 141354.000000 0 0 1
-5.645076 -20.945690 -15.437956 26.625538 1.307541 2.189301 0.025413 0.026106 -370167.000000 0 0 1
-4.347876 -20.957190 -14.919056 26.089961 1.366234 2.179533 0.017351 0.015520 230508.000000 0 0 1
-3.322776 -20.177390 -15.581656 25.709063 1.407583 2.221915 0.031046 0.020939 820611.000000 0 0 1
-3.507276 -18.633690 -15.478156 24.476288 1.384751 2.255410 0.038387 0.019261 -242679.000000 0 1 0
-4.712576 -18.157790 -16.073256 24.703507 1.316864 2.279232 0.043847 0.019249 154222.000000 0 1 0
-4.683976 -18.042990 -17.499856 25.568224 1.316802 2.324628 0.071508 0.002564 -557149.000000 0 0 1
-6.090376 -17.972890 -18.090856 26.218248 1.244076 2.332299 0.076049 0.004526 -382059.000000 0 0 1
-6.801076 -19.158890 -17.912456 27.095641 1.229689 2.293057 0.062374 0.013406 -587458.000000 0 0 1
-8.114276 -19.022490 -18.382656 27.669815 1.167603 2.297431 0.061795 0.010276 -5478.700000 0 0 1
-9.021776 -20.249690 -18.043656 28.583490 1.151669 2.253975 0.086391 -0.001923 201825.000000 0 0 1
-8.561576 -21.500290 -18.562456 29.666948 1.191836 2.246818 0.086912 0.004550 -50120.500000 0 0 1
-9.397476 -22.555790 -18.212056 30.475485 1.176034 2.211297 0.110477 0.005431 -17990.700000 0 0 1
-8.967176 -23.871090 -18.947156 31.768442 1.211456 2.209823 0.124047 -0.018670 -499855.000000 0 0 1
-9.112276 -23.745690 -20.325556 32.557942 1.204381 2.245017 0.125969 -0.022421 361427.000000 0 0 1
-8.370476 -24.696790 -21.137556 33.567731 1.244017 2.251962 0.150728 -0.047359 320116.000000 0 0 1
-6.830876 -24.682790 -21.081256 33.171077 1.300807 2.259493 0.140309 -0.030245 -150912.000000 0 0 1
-6.109176 -23.562090 -21.683156 32.598364 1.317103 2.298506 0.161469 -0.048360 483834.000000 0 0 1
-6.083876 -22.340790 -20.955856 31.229351 1.304922 2.306395 0.130296 -0.039570 -831595.000000 0 0 1
-5.304076 -22.269190 -19.662956 30.177506 1.336973 2.280457 0.119320 -0.013853 -42855.200000 0 0 1
-3.926676 -22.518090 -19.919056 30.319168 1.398154 2.287601 0.098640 -0.027786 138303.000000 0 0 1
-3.118276 -21.904690 -18.919856 29.111854 1.429390 2.278252 0.056454 -0.022384 503876.000000 0 0 1
-1.676176 -22.502490 -18.887056 29.426051 1.496445 2.267702 0.080770 -0.026717 -135961.000000 0 0 1
-0.851676 -21.908990 -19.792256 29.537478 1.531943 2.305103 0.122007 -0.031396 -1341050.000000 0 0 1
0.431924 -22.463990 -19.754056 29.917221 -1.551571 2.292002 0.076335 -0.026118 -227240.000000 0 0 1
1.431124 -21.627490 -20.578856 29.887886 -1.504721 2.330263 0.065734 -0.028605 -99243.200000 0 0 1
1.269024 -21.727790 -21.940256 30.904403 -1.512457 2.360209 0.064242 -0.039733 -825386.000000 0 0 1
2.367324 -21.274990 -22.668856 31.178622 -1.459980 2.384832 0.069142 -0.041767 -769392.000000 0 0 1
2.177424 -21.186890 -24.221356 32.253675 -1.468384 2.420317 0.103233 -0.052080 -26067.700000 0 0 1
1.459424 -20.081390 -24.721156 31.883031 -1.498248 2.458098 0.107064 -0.050270 960587.000000 0 0 1
0.031024 -20.201490 -24.491356 31.747877 -1.569261 2.451886 0.133282 -0.050449 855800.000000 0 0 1
-0.816976 -19.177990 -25.274216 31.737182 1.528222 2.492049 0.149963 -0.053061 110691.000000 0 0 1
-0.462576 -17.823790 -24.968056 30.680699 1.544849 2.521463 0.105728 -0.044124 297356.000000 0 0 1
-1.348076 -16.963490 -25.683216 30.809169 1.491494 2.556430 0.131886 -0.053815 291693.000000 0 0 1
-1.124876 -15.507890 -25.319076 29.712213 1.498387 2.590865 0.133999 -0.036341 917438.000000 0 0 1
0.153024 -15.050190 -25.805956 29.874387 -1.560629 2.613591 0.124309 -0.031660 413550.000000 0 0 1
0.596924 -13.869690 -25.106056 28.688650 -1.527785 2.636483 0.107158 -0.032696 424632.000000 0 0 1
0.343124 -12.538590 -25.851766 28.734087 -1.543438 2.689855 0.102867 -0.021126 174504.000000 0 0 1
1.087624 -11.484590 -25.286876 27.793971 -1.476375 2.713591 0.083741 -0.017839 -7900.090000 0 0 1
0.797524 -10.336490 -26.058766 28.045291 -1.493793 2.762950 0.072013 -0.019121 -123401.000000 0 0 1
1.677124 -9.079990 -25.737146 27.343366 -1.388149 2.797131 0.075548 -0.023892 1179580.000000 0 0 1
3.069324 -9.042590 -26.079596 27.772910 -1.243569 2.790595 0.071032 -0.019024 574062.000000 0 0 1
3.288224 -8.931290 -27.477266 29.078867 -1.218028 2.808153 0.078316 -0.025472 -1819800.000000 0 0 1
4.736624 -8.788190 -27.783156 29.522392 -1.076456 2.796628 0.090242 -0.029844 -2045040.000000 0 0 1
5.031124 -7.417490 -27.911256 29.315006 -0.974798 2.830877 0.078247 -0.024806 447297.000000 0 0 1
6.222224 -7.148990 -28.679416 30.204851 -0.854598 2.822425 0.098773 -0.027344 829996.000000 0 0 1
7.493524 -7.171990 -27.723566 29.600447 -0.763477 2.783574 0.121974 -0.027541 59583.000000 0 0 1
7.952924 -8.414390 -27.268966 29.625115 -0.813585 2.740072 0.098629 -0.023033 328521.000000 0 0 1
8.535424 -9.249590 -28.288426 30.961967 -0.825532 2.722973 0.095826 -0.037580 -608925.000000 0 0 1
9.053524 -10.612990 -27.867536 31.164105 -0.864528 2.677480 0.091697 -0.025300 241577.000000 0 0 1
8.050124 -11.593890 -27.504626 30.914838 -0.963878 2.667462 0.097343 -0.023722 449075.000000 0 0 1
8.504924 -12.697890 -26.746146 30.804650 -0.980634 2.622461 0.088870 -0.019022 482584.000000 0 0 1
9.600524 -13.697890 -27.306746 32.022814 -0.959483 2.591982 0.076739 -0.024151 482548.000000 0 0 1
9.159324 -14.273090 -28.505206 33.168676 -1.000264 2.604894 0.094441 -0.037592 -85324.300000 0 0 1
9.954524 -15.337390 -28.933116 34.226500 -0.995099 2.578002 0.076946 -0.035436 -82930.500000 0 0 1
9.300124 -15.950490 -30.203206 35.399775 -1.042924 2.592893 0.079007 -0.043719 -42148.400000 0 0 1
9.250524 -15.015090 -31.267196 35.897948 -1.018636 2.628035 0.098776 -0.042656 225647.000000 0 0 1
8.619924 -15.594890 -32.395926 36.972959 -1.065852 2.638729 0.113138 -0.044570 268001.000000 0 0 1
7.336524 -14.771890 -32.773426 36.689655 -1.109829 2.675343 0.124752 -0.048169 492938.000000 0 0 1
7.607324 -13.527990 -33.416146 36.844494 -1.058529 2.706785 0.130345 -0.042805 18096.100000 0 0 1
6.384524 -13.018090 33.860893 36.834670 -1.114830 0.404582 0.116512 -0.057379 -103029.000000 0 0 1
6.548424 -11.773690 32.951678 35.599364 -1.063212 0.388111 0.147141 -0.043897 -139355.000000 0 0 1
6.956224 -12.232090 31.690480 34.674192 -1.053720 0.417883 0.147650 -0.041646 303244.000000 0 0 1
7.117124 -11.081790 30.857553 33.550680 -0.999899 0.403405 0.153619 -0.041352 -360022.000000 0 0 1
7.402924 -11.457690 29.402063 32.412394 -0.997161 0.434397 0.163426 -0.029515 -284855.000000 0 0 1
6.330324 -12.066190 28.727783 31.795463 -1.087637 0.442887 0.139401 -0.026224 65439.900000 0 0 1
6.440824 -11.931190 27.314883 30.494923 -1.075794 0.460751 0.132812 -0.024929 -740294.000000 0 0 1
5.481924 -12.728190 26.520093 29.922795 -1.164115 0.481537 0.102827 -0.042279 -1252460.000000 0 0 1
5.740724 -14.043490 26.620353 30.640149 -1.182742 0.518010 0.102072 -0.036455 -170675.000000 0 0 1
5.164124 -14.873690 25.628733 30.078677 -1.236619 0.550895 0.066847 -0.031889 1072970.000000 0 0 1
3.598524 -15.104690 25.667783 29.998935 -1.336917 0.544043 0.067683 -0.037823 955303.000000 0 0 1
2.832024 -13.984890 25.234103 28.988920 -1.370992 0.514632 0.068246 -0.042274 -243159.000000 0 0 1
1.455624 -14.232490 25.097253 28.888661 -1.468876 0.518108 0.056986 -0.033984 -73683.000000 0 0 1
0.695324 -12.968890 24.671133 27.880825 -1.517233 0.484564 0.034467 -0.035543 -339117.000000 0 0 1
1.203924 -12.321890 23.478973 26.543183 -1.473399 0.485252 0.012652 -0.016022 -10885.000000 0 0 1
0.492324 -11.149890 23.132623 25.684250 -1.526670 0.449524 0.018450 -0.011192 503236.000000 0 0 1
-0.958376 -11.285490 22.589283 25.269675 1.486078 0.464761 0.027905 -0.020221 -58047.000000 0 0 1
-1.043076 -11.906590 21.321283 24.442831 1.483414 0.510926 0.022603 -0.015304 -941435.000000 0 1 0
-2.252476 -12.574490 21.288083 24.826879 1.393546 0.540481 0.032084 -0.019028 -571345.000000 0 1 0
-2.358476 -13.467090 20.027183 24.248979 1.397426 0.599003 0.043725 -0.015768 164257.000000 0 1 0
-1.636176 -14.677990 20.160783 24.991551 1.459783 0.632243 0.058630 -0.016389 -247655.000000 0 1 0
-1.597776 -15.442390 19.027383 24.557313 1.467696 0.684373 0.067395 -0.016999 256284.000000 0 1 0
-2.818176 -16.378890 18.743983 25.050889 1.400403 0.725397 0.068779 -0.020429 191040.000000 0 0 1
-2.686476 -17.252790 17.652083 24.828853 1.416324 0.779948 0.060508 -0.024203 -1246660.000000 0 1 0
-3.670876 -18.198390 17.648083 25.614675 1.371753 0.810711 0.070043 -0.028048 -915805.000000 0 0 1
-3.395376 -19.507790 16.900683 26.032970 1.398470 0.864260 0.076761 -0.031911 -454669.000000 0 0 1
-2.357376 -20.190990 17.527083 26.840863 1.454569 0.859257 0.098316 -0.037718 -531255.000000 0 0 1
-2.366276 -21.520190 17.124583 27.603789 1.461280 0.901581 0.096671 -0.057569 -148487.000000 0 0 1
-1.217576 -22.305490 17.747983 28.530830 1.516264 0.899421 0.126541 -0.045607 178055.000000 0 0 1
0.085324 -22.046990 17.276783 28.010074 -1.566926 0.906118 0.124068 -0.056599 -400294.000000 0 0 1
1.058824 -22.835590 17.919583 29.046458 -1.524462 0.905963 0.136909 -0.041146 445828.000000 0 0 1
2.391224 -22.906590 17.126883 28.701218 -1.466783 0.931376 0.136739 -0.047812 587342.000000 0 0 1
3.137624 -21.648990 17.144483 27.793106 -1.426867 0.906048 0.127884 -0.040202 -359172.000000 0 0 1
4.306624 -21.812090 16.399683 27.627231 -1.375862 0.935264 0.115406 -0.031703 -625592.000000 0 0 1
5.143824 -20.552290 16.593083 26.910703 -1.325554 0.906382 0.085244 -0.020192 -1263300.000000 0 0 1
5.847324 -20.628790 17.805183 27.870463 -1.294587 0.877787 0.084423 -0.013909 -194468.000000 0 0 1
6.589824 -19.491090 18.217583 27.481061 -1.244767 0.846092 0.088096 -0.007823 542155.000000 0 0 1
7.621224 -18.814390 17.289683 26.664535 -1.185923 0.865296 0.100019 -0.023094 -117458.000000 0 0 1
6.914724 -18.254290 16.158083 25.340011 -1.208698 0.879351 0.076152 -0.020461 438005.000000 0 0 1
7.791024 -17.497390 15.339283 24.538792 -1.151885 0.895532 0.122459 -0.031961 220280.000000 0 1 0
7.006524 -16.588590 14.357983 23.030944 -1.171155 0.897685 0.069091 -0.028644 298508.000000 0 1 0
6.103924 -17.305090 13.511883 22.788045 -1.231697 0.936095 0.071598 -0.027346 272191.000000 0 1 0
5.542624 -16.463390 12.527783 21.417498 -1.246052 0.946000 0.047120 -0.023794 -154317.000000 0 1 0
6.189224 -16.737190 11.177183 21.056339 -1.216602 1.011225 0.050155 -0.023147 356767.000000 0 1 0
7.546724 -16.311390 11.093383 21.120550 -1.137460 1.017798 0.063469 -0.021087 275182.000000 0 1 0
8.003324 -16.417590 9.765283 20.711137 -1.117211 1.079806 0.064770 -0.026843 -694420.000000 0 1 0
9.441624 -15.934190 9.690283 20.903211 -1.035881 1.088766 0.065767 -0.019365 -563106.000000 0 1 0
10.056524 -16.432690 8.511783 21.062227 -1.021612 1.154774 0.064555 -0.021730 1425420.000000 0 1 0
11.492924 -16.187890 8.692083 21.672272 -0.953410 1.158112 0.062340 -0.013490 1964420.000000 0 1 0
12.527424 -16.954290 7.842783 22.492077 -0.934441 1.214622 0.077389 -0.020797 172126.000000 0 1 0
12.822024 -18.226290 8.324083 23.788491 -0.957732 1.213310 0.103101 -0.029768 290365.000000 0 1 0
13.817624 -18.912590 7.560683 24.612531 -0.939824 1.258559 0.103958 -0.026577 392081.000000 0 1 0
14.500224 -20.070890 8.324283 26.122611 -0.945161 1.246479 0.111043 -0.032308 143087.000000 0 0 1
13.571924 -21.060690 8.744483 26.537064 -0.998354 1.235002 0.108197 -0.028172 170820.000000 0 0 1
14.245324 -22.102590 9.356083 27.910392 -0.998291 1.228959 0.092321 -0.020418 54992.600000 0 0 1
13.212824 -22.966790 10.092583 28.353348 -1.048736 1.206858 0.112742 -0.026782 217903.000000 0 0 1
12.800224 -22.362090 11.347683 28.154550 -1.050913 1.155950 0.125091 -0.029977 -217424.000000 0 0 1
11.715224 -22.898990 12.048283 28.403720 -1.097908 1.132740 0.149277 -0.037661 -172937.000000 0 0 1
12.003024 -24.285690 12.660283 29.902342 -1.111765 1.133615 0.119369 -0.031413 338396.000000 0 0 1
13.167124 -24.350990 13.491183 30.795387 -1.075104 1.117322 0.105395 -0.030411 385171.000000 0 0 1
13.332624 -25.682470 13.938983 32.119205 -1.091960 1.121894 0.098908 -0.043703 -16605.200000 0 0 1
14.598324 -25.965920 14.765483 33.246948 -1.058626 1.110610 0.079869 -0.033731 -28536.500000 0 0 1
14.515724 -25.496600 16.116583 33.474275 -1.053241 1.068475 0.076547 -0.025322 -32464.700000 0 0 1
15.694124 -25.849470 16.768883 34.578838 -1.025147 1.064494 0.084558 -0.029667 -500760.000000 0 0 1
15.628624 -25.353950 18.241683 34.926146 -1.018392 1.021259 0.107561 -0.028133 -106860.000000 0 0 1
15.957824 -23.975990 18.407983 34.181195 -0.983550 1.002091 0.098573 -0.023769 -167045.000000 0 0 1
17.286324 -23.832590 18.843683 34.955596 -0.943276 1.001458 0.095487 -0.028301 -249141.000000 0 0 1
17.775424 -22.408390 19.100183 34.393584 -0.900186 0.982023 0.096165 -0.028775 -174978.000000 0 0 1
17.840624 -21.581990 17.935383 33.252791 -0.880019 1.001114 0.098537 -0.023954 -222395.000000 0 0 1
16.632124 -20.988190 17.551883 32.018748 -0.900675 0.990615 0.114115 -0.023896 -752735.000000 0 0 1
16.852624 -19.763490 16.549183 30.797434 -0.864728 1.003498 0.113483 -0.024107 -183354.000000 0 0 1
17.640124 -18.762290 17.105583 30.915990 -0.816215 0.984485 0.103278 -0.030901 1002000.000000 0 0 1
19.060024 -18.864690 16.863083 31.678456 -0.780248 1.009457 0.097687 -0.022664 707019.000000 0 0 1
19.841624 -17.593490 17.174083 31.593829 -0.725416 0.996088 0.093895 -0.033043 -252582.000000 0 0 1
20.357024 -17.518190 18.527383 32.627585 -0.710586 0.966912 0.092783 -0.029376 659344.000000 0 0 1
20.802324 -16.153790 18.842383 32.383900 -0.660270 0.949802 0.084505 -0.031534 -29443.400000 0 0 1
21.299424 -15.895190 20.296483 33.440540 -0.641112 0.918589 0.068241 -0.024963 -340330.000000 0 0 1
22.498624 -16.577490 20.578883 34.705787 -0.635014 0.936076 0.070277 -0.014711 -222799.000000 0 0 1
22.949924 -16.239090 21.853783 35.608916 -0.615800 0.910037 0.082684 -0.014162 -87589.600000 0 0 1
34.538777 -1.832490 -7.626756 35.418251 -0.053006 1.787830 0.130291 -0.029540 1037440.000000 0 0 1
35.840727 -1.255390 -7.917956 36.726390 -0.035013 1.788095 0.149400 -0.036981 521776.000000 0 0 1
36.782787 -2.261090 -7.988156 37.708044 -0.061394 1.784256 0.188345 -0.054100 -172566.000000 0 0 1
-36.968776 -1.701890 -8.582556 37.990092 0.046003 1.798679 0.170010 -0.056049 -417331.000000 0 0 1
-35.962124 -2.638190 -8.635056 37.078277 0.073229 1.805842 0.204007 -0.047690 -336272.000000 0 0 1
-34.765557 -2.032590 -9.150556 36.007056 0.058399 1.827747 0.296207 -0.064216 400574.000000 0 0 1
-33.612026 -3.066590 -9.035156 34.940039 0.090983 1.832359 0.272257 -0.055555 -34066.900000 0 0 1
-33.127946 -3.388990 -7.740756 34.188673 0.101945 1.799190 0.244836 -0.058158 -85678.900000 0 0 1
-32.135336 -4.368790 -7.748556 33.343759 0.135121 1.805324 0.233161 -0.065893 -412155.000000 0 0 1
-31.564436 -4.615590 -6.342556 32.524534 0.145198 1.767062 0.202979 -0.079541 -223131.000000 0 0 1
-30.910586 -3.501690 -5.799256 31.644234 0.112804 1.755102 0.205399 -0.070974 367361.000000 0 0 1
-30.679296 -3.565890 -4.386156 31.195723 0.115712 1.711865 0.195909 -0.062013 -238644.000000 0 0 1
-30.317466 -2.200490 -3.767656 30.629825 0.072455 1.694115 0.208639 -0.060004 -119768.000000 0 0 1
-29.011226 -1.675990 -3.898256 29.319901 0.057706 1.704147 0.207360 -0.056066 385087.000000 0 0 1
-28.950526 -0.326090 -3.409656 29.152445 0.011263 1.688024 0.234401 -0.067863 -273763.000000 0 0 1
-27.556316 0.239810 -3.070556 27.727899 -0.008702 1.681763 0.266410 -0.046320 -78994.400000 0 0 1
-26.900206 -0.320990 -1.945856 26.972402 0.011932 1.643002 0.241095 -0.046974 -64192.800000 0 0 1
-25.545996 0.041010 -1.909756 25.617314 -0.001605 1.645415 0.225797 -0.040563 -267609.000000 0 0 1
-24.997376 -0.322090 -0.503456 25.004520 0.012884 1.590932 0.220839 -0.039950 -90248.300000 0 0 1
-25.060716 -1.716690 -0.309156 25.121348 0.068394 1.583103 0.215278 -0.041140 184825.000000 0 0 1
-24.441276 -2.111890 0.887044 24.548379 0.086193 1.534654 0.187064 -0.034219 -204922.000000 0 1 0
-24.363876 -3.603090 1.122244 24.654414 0.146822 1.525262 0.187106 -0.019842 239069.000000 0 1 0
-25.573536 -4.251990 1.511044 25.968605 0.164758 1.512576 0.179613 -0.035534 627511.000000 0 0 1
-25.454206 -5.633790 1.167744 26.096357 0.217819 1.526034 0.150821 -0.016435 307695.000000 0 0 1
-26.607996 -6.437690 1.853844 27.438405 0.237384 1.503181 0.158904 -0.018759 201193.000000 0 0 1
-26.627426 -6.626090 3.244944 27.630681 0.243891 1.453085 0.158621 -0.018198 125753.000000 0 0 1
-27.764816 -7.325790 3.713644 28.954160 0.257972 1.442183 0.158643 -0.013109 72303.800000 0 0 1
-27.795716 -7.535290 5.229344 29.269924 0.264732 1.391173 0.154732 -0.010435 288192.000000 0 0 1
-26.884846 -8.583190 5.699544 28.791507 0.309029 1.371521 0.142548 -0.000970 740872.000000 0 0 1
-26.955636 -8.777190 7.132044 29.232028 0.314789 1.324328 0.127045 -0.009052 70517.400000 0 0 1
-26.094306 -7.679990 7.815744 28.301606 0.286235 1.291001 0.111369 0.002452 66521.300000 0 0 1
-24.694376 -7.943890 7.870144 27.108242 0.311234 1.276232 0.124605 -0.005233 403618.000000 0 0 1
-24.033776 -6.767490 8.303944 26.313054 0.274476 1.249726 0.122865 -0.009411 804394.000000 0 0 1
-22.601876 -6.528490 7.706244 24.755851 0.281194 1.254246 0.094058 -0.014908 898873.000000 0 1 0
-21.511576 -6.922890 8.500044 24.143841 0.311354 1.211027 0.093224 -0.020014 759484.000000 0 1 0
-20.251876 -6.407190 8.062544 22.719929 0.306411 1.208025 0.090049 -0.015874 718710.000000 0 1 0
-19.048376 -6.630990 8.990044 22.082381 0.334993 1.151504 0.078053 -0.019163 -34420.800000 0 1 0
-19.043276 -5.658290 9.995444 22.238964 0.288820 1.104640 0.083519 -0.014641 1054590.000000 0 1 0
-17.937876 -5.861790 10.910144 21.798147 0.315844 1.046611 0.079851 -0.022049 711779.000000 0 1 0
-17.905976 -4.691390 11.950644 22.032953 0.256242 0.997507 0.091454 -0.022297 -739472.000000 0 1 0
-19.040776 -4.677090 12.726644 23.375068 0.240867 0.995059 0.118257 -0.029001 -346516.000000 0 1 0
-19.466576 -3.392290 13.221044 23.775013 0.172530 0.981123 0.140986 -0.026746 6454.330000 0 1 0
-20.783376 -3.403890 13.997044 25.287397 0.162338 0.984213 0.143385 -0.030970 -384473.000000 0 0 1
-20.560976 -3.788090 15.319344 25.918828 0.182194 0.938435 0.145606 -0.032639 -219283.000000 0 0 1
-21.756676 -4.015690 15.985544 27.294987 0.182519 0.945104 0.136955 -0.027522 -625729.000000 0 0 1
-21.561176 -4.839690 17.221944 28.016107 0.220803 0.908771 0.139770 -0.023595 -29072.000000 0 0 1
-22.611276 -4.680790 18.157144 29.374504 0.204128 0.904440 0.129246 -0.021566 495417.000000 0 0 1
-22.234176 -5.206690 19.437744 29.988233 0.230030 0.865606 0.138616 -0.013826 -11670.500000 0 0 1
-23.207576 -4.922190 20.610644 31.426393 0.208997 0.855503 0.137067 -0.026639 -235462.000000 0 0 1
-23.213776 -3.555790 20.871044 31.418522 0.151994 0.844251 0.143532 -0.038136 266315.000000 0 0 1
-24.014976 -3.268690 22.000844 32.732866 0.135279 0.833710 0.133228 -0.038245 -79166.300000 0 0 1
-24.151076 -1.725990 22.153244 32.817979 0.071345 0.829786 0.112095 -0.029037 -78450.000000 0 0 1
-25.127176 -1.109890 21.352444 32.992934 0.044142 0.866914 0.130142 -0.035509 -265622.000000 0 0 1
-25.042246 0.266910 21.481944 32.994837 -0.010658 0.861803 0.116914 -0.029099 285490.000000 0 0 1
-26.364436 1.024210 21.103244 33.785787 -0.038829 0.896153 0.132145 -0.026636 283446.000000 0 0 1
-27.323446 0.645710 22.042344 35.112000 -0.023628 0.892108 0.128762 -0.030445 -650383.000000 0 0 1
-28.565486 1.265610 21.819844 35.967963 -0.044277 0.918961 0.108709 -0.027197 568025.000000 0 0 1
-29.609336 1.181810 23.006844 37.515655 -0.039892 0.910615 0.089975 -0.025079 30802.600000 0 0 1
-29.172206 1.980410 24.037344 37.851467 -0.067783 0.882731 0.090469 -0.024046 255128.000000 0 0 1
-29.849676 1.762710 25.287544 39.160825 -0.058984 0.868810 0.086577 -0.027106 -189819.000000 0 0 1
-29.350136 2.719110 26.386744 39.561146 -0.092380 0.840640 0.106823 -0.028438 1128650.000000 0 0 1
-28.046166 2.427210 26.961044 38.979183 -0.086328 0.806986 0.104509 -0.031025 1231370.000000 0 0 1
-27.802466 3.434010 27.901844 39.538367 -0.122892 0.787399 0.092212 -0.026674 -274192.000000 0 0 1
-26.438126 3.097010 28.530544 39.019968 -0.116610 0.750749 0.082643 -0.027317 -389693.000000 0 0 1
-26.459006 1.999210 29.406344 39.608192 -0.075415 0.734105 0.079006 -0.025308 1053660.000000 0 0 1
-25.262886 1.902810 30.212944 39.429127 -0.075178 0.697797 0.058260 -0.025127 827668.000000 0 0 1
-25.357696 0.663610 31.194244 40.206144 -0.026164 0.682723 0.068839 -0.028247 58486.400000 0 0 1
-25.692336 -0.549390 30.508544 39.889462 0.021380 0.700023 0.071886 -0.029256 15474.400000 0 0 1
-26.360496 -1.467290 31.300644 40.948248 0.055605 0.700694 0.062331 -0.022524 -666891.000000 0 0 1
-27.151736 -2.552690 30.487344 40.904904 0.093740 0.729778 0.056308 -0.010035 547651.000000 0 0 1
-28.496456 -2.272590 30.113044 41.521176 0.079581 0.759406 0.075198 -0.027828 482442.000000 0 0 1
-28.630276 -1.233390 29.155444 40.880972 0.043053 0.776774 0.078627 -0.028117 -418125.000000 0 0 1
-30.087716 -1.192290 28.637144 41.554521 0.039606 0.810486 0.111379 -0.044004 821623.000000 0 0 1
-31.030096 -0.797590 29.637744 42.917349 0.025698 0.808509 0.124183 -0.041052 231665.000000 0 0 1
-32.373596 -0.730290 29.166344 43.580485 0.022554 0.837594 0.128176 -0.042953 931487.000000 0 0 1
-33.352006 -0.290390 30.311244 45.068971 0.008707 0.833144 0.137966 -0.039993 190075.000000 0 0 1
-33.620406 -1.328790 31.213644 45.895413 0.039503 0.822892 0.137135 -0.038468 122953.000000 0 0 1
-34.596102 -0.914990 32.162844 47.245910 0.026442 0.822005 0.154115 -0.039130 234480.000000 0 0 1
-34.980456 -1.862390 33.316544 48.343489 0.053191 0.810463 0.146801 -0.035528 -56832.100000 0 0 1
-35.910105 -2.856390 32.964444 48.829798 0.079376 0.829711 0.128642 -0.028076 -226048.000000 0 0 1
-35.964366 -4.019390 33.810144 49.524912 0.111298 0.819359 0.120256 -0.025029 -49543.800000 0 0 1
-37.061236 -5.034090 33.429144 50.163582 0.135005 0.841423 0.115580 -0.028265 -107661.000000 0 0 1
36.778057 -4.825890 -33.718596 50.128419 -0.130471 2.308573 0.106890 -0.033024 -458654.000000 0 0 1
35.707827 -5.371890 33.282044 49.108049 -0.149320 0.826124 0.100139 -0.030219 55307.700000 0 0 1
34.316727 -4.927990 33.823944 48.435338 -0.142628 0.797732 0.098659 -0.031999 -258354.000000 0 0 1
33.782287 -5.460590 -32.725096 47.349686 -0.160255 2.333857 0.099415 -0.029584 294233.000000 0 0 1
33.371057 -6.821290 -32.813096 47.295419 -0.201630 2.337535 0.098764 -0.030741 -1113340.000000 0 0 1
32.024057 -7.022490 -33.477996 46.857569 -0.215871 2.366653 0.102558 -0.037835 -1347310.000000 0 0 1
30.961527 -6.826590 -32.603796 45.477752 -0.217014 2.370167 0.112382 -0.040626 -127972.000000 0 0 1
29.701107 -6.862290 -33.263196 45.118587 -0.227061 2.399771 0.088898 -0.028477 540751.000000 0 0 1
28.506507 -6.781490 -32.272096 43.590110 -0.233551 2.404393 0.101010 -0.033591 -384072.000000 0 0 1
27.249507 -7.117490 -32.756396 43.199256 -0.255489 2.431441 0.088503 -0.033552 -570948.000000 0 0 1
26.255107 -6.612890 -31.904296 41.844295 -0.246738 2.437892 0.087856 -0.036979 -717928.000000 0 0 1
24.851807 -7.112090 -32.237796 41.321539 -0.278730 2.465733 0.069363 -0.035222 -460487.000000 0 0 1
24.507207 -8.491890 -32.060296 41.238064 -0.333559 2.461388 0.075534 -0.037647 205763.000000 0 0 1
24.349707 -8.896990 -30.696096 40.178538 -0.350314 2.440275 0.075568 -0.037789 -421444.000000 0 0 1
23.946607 -10.344990 -30.556596 40.176664 -0.407787 2.434965 0.083843 -0.032074 321861.000000 0 0 1
22.745607 -10.709990 -31.242196 40.101637 -0.440065 2.463986 0.094319 -0.036119 397241.000000 0 0 1
22.590707 -12.133990 -31.359596 40.509233 -0.492903 2.456143 0.090044 -0.021284 -351023.000000 0 0 1
21.438207 -12.689290 -32.251696 40.752750 -0.534443 2.483891 0.085006 -0.016726 1116650.000000 0 0 1
20.100307 -12.557090 -31.757596 39.626351 -0.558399 2.500472 0.068406 -0.012421 578651.000000 0 0 1
19.612007 -11.236890 -31.915296 39.108625 -0.520300 2.525371 0.062379 -0.023609 -1407760.000000 0 0 1
18.195407 -10.926790 -31.479696 37.966285 -0.540805 2.548379 0.064419 -0.023554 -365834.000000 0 0 1
17.194107 -11.349490 -32.385296 38.383012 -0.583429 2.575010 0.042203 -0.002650 -527242.000000 0 0 1
15.917507 -10.961790 -31.959296 37.348687 -0.603076 2.597700 0.076665 -0.018015 251607.000000 0 0 1
14.798707 -11.331590 -32.995896 37.896382 -0.653483 2.627394 0.074771 -0.018451 -457724.000000 0 0 1
14.585907 -12.726690 -33.069996 38.318950 -0.717431 2.612013 0.080650 -0.013322 -364574.000000 0 0 1
13.348807 -13.027390 -33.646796 38.470903 -0.773213 2.635414 0.076512 -0.016166 534020.000000 0 0 1
12.187007 -13.081990 -32.560196 37.146035 -0.820802 2.639434 0.068693 -0.021823 66973.500000 0 0 1
11.799007 -11.873190 -31.986696 36.101771 -0.788532 2.659474 0.154950 -0.024776 -357222.000000 0 0 1
10.642407 -12.093990 -31.223296 35.134308 -0.849156 2.665263 0.138537 -0.036089 65658.700000 0 0 1
9.403007 -11.272790 -31.630896 34.871276 -0.875586 2.707082 0.128625 -0.029992 -29025.200000 0 0 1
9.636707 -9.902690 -31.427096 34.330624 -0.799010 2.727358 0.133015 -0.029674 463940.000000 0 0 1
8.617407 -9.280690 -32.194396 34.595809 -0.822440 2.766808 0.118672 -0.027275 257659.000000 0 0 1
8.904407 -7.785990 -32.358696 34.452798 -0.718489 2.791142 0.138945 -0.033595 -280782.000000 0 0 1
8.791707 -7.031190 -31.222096 33.189622 -0.674590 2.795539 0.142433 -0.041856 211941.000000 0 0 1
9.135907 -5.663890 -31.496296 33.280040 -0.554966 2.812704 0.133619 -0.039045 -163502.000000 0 0 1
9.269007 -4.738490 -30.311996 32.049725 -0.472582 2.810785 0.123192 -0.039814 -1073020.000000 0 0 1
8.145107 -4.671890 -29.523896 30.981119 -0.520768 2.833666 0.136710 -0.037639 -885036.000000 0 0 1
8.172707 -3.566090 -28.666196 30.021008 -0.411437 2.840022 0.133498 -0.033654 206598.000000 0 0 1
6.697007 -3.222690 -28.335996 29.294441 -0.448506 2.885087 0.107174 -0.028229 -509799.000000 0 0 1
5.980507 -2.769090 -29.459896 30.188073 -0.433628 2.921506 0.095713 -0.026944 -234693.000000 0 0 1
4.877107 -1.938190 -29.153596 29.622203 -0.378268 2.963484 0.103304 -0.038005 -63025.200000 0 0 1
3.611207 -2.806290 -28.937896 29.297063 -0.660624 2.984847 0.082871 -0.037356 -849780.000000 0 0 1
3.540107 -3.582090 -27.689296 28.143575 -0.791293 2.961675 0.086973 -0.033404 344427.000000 0 0 1
2.370307 -4.408790 -27.685996 28.134856 -1.077498 2.962727 0.073763 -0.028561 577436.000000 0 0 1
2.415007 -5.430390 -26.543696 27.200904 -1.152341 2.921324 0.053822 -0.029812 -135175.000000 0 0 1
2.439707 -4.799790 -25.269596 25.836846 -1.100535 2.931660 0.059563 -0.035938 -54613.400000 0 0 1
2.880907 -5.647290 -24.247596 25.062669 -1.099070 2.885861 0.069245 -0.047543 -77576.000000 0 0 1
2.777807 -5.064190 -22.865396 23.583650 -1.069091 2.894160 0.087143 -0.050429 91393.400000 0 1 0
3.804607 -4.088790 -22.701996 23.378919 -0.821385 2.900366 0.085109 -0.045868 218439.000000 0 1 0
3.649707 -3.342590 -21.493196 22.055628 -0.741504 2.915275 0.065582 -0.039781 -641367.000000 0 1 0
4.683407 -2.294290 -21.203196 21.835145 -0.455516 2.900418 0.069452 -0.036490 -814900.000000 0 1 0
5.961507 -2.768290 -20.848396 21.859977 -0.434732 2.836185 0.061219 -0.041297 -240592.000000 0 1 0
6.835207 -1.692290 -20.552096 21.724929 -0.242704 2.811506 0.074176 -0.028052 78843.800000 0 1 0
8.306807 -2.122890 -20.439996 22.165359 -0.250205 2.744423 0.090146 -0.032597 -809390.000000 0 1 0
9.031807 -2.243290 -21.701396 23.612633 -0.243450 2.736482 0.098236 -0.044955 1373910.000000 0 1 0
10.341307 -2.846690 -21.584796 24.102898 -0.268621 2.680410 0.085528 -0.040295 1209590.000000 0 1 0
11.426007 -2.162390 -20.748396 23.784984 -0.187039 2.630748 0.093500 -0.037293 -997591.000000 0 1 0
11.108107 -2.229790 -19.315396 22.393001 -0.198103 2.611112 0.074817 -0.022422 406099.000000 0 1 0
12.126407 -1.652190 -18.480296 22.165306 -0.135413 2.556659 0.082515 -0.029207 299533.000000 0 1 0
12.443107 -0.129890 -18.472096 22.272541 -0.010438 2.548769 0.071706 -0.029100 -220115.000000 0 1 0
12.991507 0.322310 -19.690596 23.592429 0.024804 2.558230 0.087693 -0.034099 257330.000000 0 1 0
13.388507 1.664510 -19.605096 23.798792 0.123689 2.538853 0.120318 -0.046777 75316.300000 0 1 0
13.968107 2.340810 -20.889496 25.238035 0.166040 2.545791 0.130569 -0.036967 526605.000000 0 0 1
15.354907 2.210810 -21.204096 26.273076 0.142998 2.509962 0.150855 -0.036634 680424.000000 0 0 1
15.721407 3.173510 -22.167896 27.361458 0.199183 2.515267 0.151539 -0.039818 -146456.000000 0 0 1
17.105207 2.902410 -22.777996 28.633008 0.168079 2.490654 0.129924 -0.026732 -173718.000000 0 0 1
17.188107 1.941310 -23.790296 29.413906 0.112468 2.512924 0.110254 -0.016383 531758.000000 0 0 1
18.521207 1.461310 -23.971696 30.328414 0.078736 2.482264 0.112666 -0.013292 474705.000000 0 0 1
10.158424 26.864310 3.404244 28.921854 1.209277 1.452818 0.032687 -0.010374 63144.600000 0 0 1
10.006924 27.173510 4.758544 29.345901 1.217948 1.407924 0.041716 -0.009833 715019.000000 0 0 1
11.259824 27.517710 5.357944 30.211183 1.182397 1.392504 0.027736 -0.004294 145795.000000 0 0 1
11.033424 27.880410 6.863144 30.759657 1.193967 1.345781 0.042860 -0.011341 85633.800000 0 0 1
10.828624 26.818210 7.804444 29.956382 1.187037 1.307228 0.043212 -0.020881 118928.000000 0 0 1
10.786424 27.341310 9.106044 30.770347 1.195032 1.270361 0.053772 -0.013690 -597715.000000 0 0 1
11.154224 26.401110 10.199744 30.421540 1.171053 1.228894 0.088458 -0.011825 -199835.000000 0 0 1
12.491324 26.038610 10.419844 30.702045 1.123501 1.224532 0.066579 -0.014956 -59401.100000 0 0 1
13.040524 25.080110 9.502044 29.822073 1.091313 1.246518 0.076290 -0.024765 422143.000000 0 0 1
14.398424 24.478110 10.005144 30.109723 1.039086 1.232066 0.096847 -0.030853 669943.000000 0 0 1
15.479524 25.387010 10.079144 31.395941 1.023244 1.243976 0.081180 -0.028179 -307249.000000 0 0 1
16.671524 24.772810 10.444844 31.634263 0.978438 1.234307 0.098423 -0.031789 -252786.000000 0 0 1
17.881224 25.683710 10.693344 33.071721 0.962619 1.241541 0.095421 -0.031376 -492055.000000 0 0 1
18.491124 26.216710 9.507844 33.460972 0.956510 1.282679 0.085768 -0.029890 1406180.000000 0 0 1
19.907524 26.467310 9.653544 34.496651 0.925917 1.287169 0.085781 -0.041893 1172190.000000 0 0 1
20.624224 27.194210 10.808344 35.800894 0.921938 1.264110 0.079493 -0.040756 -900273.000000 0 0 1
20.472824 28.625510 10.905444 36.844064 0.949945 1.270305 0.091921 -0.050356 -111649.000000 0 0 1
19.210424 29.165510 11.223844 36.682994 0.988351 1.259841 0.074879 -0.029689 -261682.000000 0 0 1
19.168624 30.666110 11.453844 37.934641 1.012143 1.264073 0.083972 -0.025241 -464801.000000 0 0 1
19.371324 31.511510 10.317144 38.401392 1.019610 1.298789 0.105522 -0.039712 -131126.000000 0 0 1
18.290924 31.618110 9.444344 37.728748 1.046339 1.317783 0.098998 -0.043557 -115804.000000 0 0 1
17.085824 32.510110 9.863444 38.027887 1.086915 1.308422 0.093427 -0.034378 -175985.000000 0 0 1
17.295124 -33.801113 9.995344 39.262494 -1.097854 1.313386 0.084919 -0.032491 7070.670000 0 0 1
16.146924 -33.064513 10.353144 38.225289 -1.116515 1.296525 0.081950 -0.022466 93241.300000 0 0 1
16.456624 -31.575913 10.326744 37.074255 -1.090351 1.288520 0.088495 -0.010297 22646.800000 0 0 1
16.841624 -31.107713 9.024444 36.507132 -1.074582 1.321010 0.087667 -0.024538 298380.000000 0 0 1
17.086124 -29.695213 9.023544 35.428317 -1.048674 1.313260 0.079554 -0.035829 -157628.000000 0 0 1
17.544524 -29.133813 7.648744 34.858179 -1.028757 1.349572 0.079260 -0.028870 -11132.100000 0 0 1
16.579324 -29.185213 6.632444 34.214616 -1.054184 1.375713 0.078747 -0.021633 23973.200000 0 0 1
17.194924 -28.688113 5.455344 33.888552 -1.030837 1.409114 0.072116 -0.028617 197202.000000 0 0 1
16.572224 -29.198213 4.138144 33.827481 -1.054559 1.448158 0.078201 -0.028416 -186710.000000 0 0 1
16.942324 -30.516413 3.814144 35.111842 -1.063979 1.461953 0.087601 -0.025655 -112460.000000 0 0 1
16.671824 -30.843613 2.509444 35.150753 -1.075255 1.499345 0.088749 -0.022647 -149758.000000 0 0 1
17.113524 -32.252313 2.115044 36.572637 -1.082959 1.512933 0.071417 -0.018154 1156090.000000 0 0 1
18.537624 -32.528513 2.194844 37.504199 -1.052812 1.512240 0.074546 -0.010621 1233870.000000 0 0 1
18.882024 33.804210 1.778944 38.761064 1.061397 1.524885 0.090494 -0.016608 245667.000000 0 0 1
20.384724 33.402310 1.769844 39.171209 1.022853 1.525599 0.112906 -0.026067 358576.000000 0 0 1
20.797124 33.012410 3.043944 39.135728 1.008625 1.492939 0.112353 -0.043775 -251887.000000 0 0 1
22.157024 32.656710 3.076744 39.583592 0.974658 1.492990 0.106311 -0.033716 -150771.000000 0 0 1
22.659724 32.170110 4.466544 39.602135 0.957142 1.457770 0.124754 -0.033037 63573.600000 0 0 1
21.887424 31.047310 4.885144 38.299601 0.956743 1.442897 0.124238 -0.046491 352696.000000 0 0 1
22.389824 30.508910 6.064944 38.325988 0.937693 1.411882 0.101831 -0.043436 427229.000000 0 0 1
21.225724 29.776710 6.781944 37.191109 0.951512 1.387416 0.102937 -0.055765 -674720.000000 0 0 1
20.657624 28.644510 6.174544 35.852063 0.946002 1.397711 0.105957 -0.048043 94111.800000 0 0 1
19.412824 28.280710 6.724144 34.955263 0.969234 1.377225 0.107539 -0.049823 -730383.000000 0 0 1
18.219224 28.855610 6.039444 34.656331 1.007613 1.395635 0.087254 -0.044801 -1700520.000000 0 0 1
17.987524 30.275610 6.341344 35.782345 1.034707 1.392635 0.082350 -0.040907 3181.080000 0 0 1
18.511924 31.169710 5.398644 36.652251 1.034869 1.422965 0.099355 -0.039272 -821627.000000 0 0 1
18.221724 32.652310 5.703544 37.825058 1.061791 1.419432 0.100311 -0.035841 884790.000000 0 0 1
16.808424 32.902710 5.591444 37.368111 1.098505 1.420601 0.062952 -0.029317 772693.000000 0 0 1
16.482624 -33.394613 5.891644 37.703959 -1.112305 1.413893 0.060911 -0.025737 387793.000000 0 0 1
14.973624 -32.993613 5.882644 36.706857 -1.144759 1.409842 0.070346 -0.026057 773808.000000 0 0 1
14.407424 -33.009713 4.529344 36.300550 -1.159259 1.445697 0.064495 -0.018431 165298.000000 0 0 1
13.161324 -32.326413 4.580344 35.202229 -1.184151 1.440311 0.060168 -0.019473 196617.000000 0 0 1
12.622924 -32.003613 3.176044 34.549337 -1.195108 1.478739 0.062365 -0.016643 -852758.000000 0 0 1
11.410824 -31.358713 3.133144 33.517045 -1.221810 1.477181 0.053181 -0.015476 -875568.000000 0 0 1
11.064124 -30.895413 1.851244 32.868959 -1.226910 1.514445 0.059217 -0.016137 -24952.300000 0 0 1
9.782024 -29.995513 1.862744 31.605199 -1.255555 1.511824 0.059739 -0.013715 470202.000000 0 0 1
9.275624 -29.685613 0.595644 31.106713 -1.267946 1.551647 0.080562 -0.010163 -889791.000000 0 0 1
8.465824 -30.627813 0.042444 31.776326 -1.301120 1.569461 0.070545 -0.012327 -1249890.000000 0 0 1
8.884424 -31.105313 -1.337256 32.376870 -1.292580 1.612111 0.088224 -0.017769 -661711.000000 0 0 1
9.996424 -31.915513 -1.219256 33.466625 -1.267260 1.607236 0.088123 -0.025943 -819262.000000 0 0 1
10.023224 -32.918413 -2.258456 34.484598 -1.275228 1.636335 0.091134 -0.022056 -302494.000000 0 0 1
11.284724 -33.776213 -2.181956 35.678263 -1.248354 1.631991 0.080502 -0.027178 -351718.000000 0 0 1
11.415124 33.156510 -0.977856 35.080129 1.239226 1.598675 0.074227 -0.020322 -439837.000000 0 0 1
12.641824 32.505310 -1.047556 34.892811 1.199882 1.600823 0.081888 -0.024662 -635071.000000 0 0 1
12.820124 31.620510 0.239444 34.121395 1.185612 1.563779 0.067561 -0.021330 -556744.000000 0 0 1
13.188724 32.226910 1.517644 34.854260 1.182345 1.527240 0.054685 -0.018633 -202097.000000 0 0 1
14.456024 32.808010 1.659144 35.890039 1.155766 1.524551 0.062731 -0.022306 -567653.000000 0 0 1
15.668924 31.880110 1.630344 35.560015 1.113976 1.524933 0.056444 -0.025154 -1146940.000000 0 0 1
16.067824 31.438110 0.403744 35.308537 1.098313 1.559361 0.070643 -0.026801 -161725.000000 0 0 1
16.908424 30.305410 0.566544 34.707833 1.061882 1.554472 0.073083 -0.023793 -90632.600000 0 0 1
17.568324 29.802210 -0.734356 34.602847 1.038135 1.592020 0.077068 -0.021216 -230036.000000 0 0 1
18.588124 30.560210 -1.322656 35.793774 1.024336 1.607757 0.060289 -0.011848 -55862.100000 0 0 1
18.165824 31.722110 -2.054856 36.613002 1.050726 1.626950 0.079555 -0.025116 -459252.000000 0 0 1
19.341424 32.529610 -2.588656 37.933723 1.034372 1.639091 0.071503 -0.019934 67318.100000 0 0 1
20.227924 33.041310 -1.579556 38.773600 1.021454 1.611546 0.063209 -0.010433 410085.000000 0 0 1
21.294224 33.728410 -2.211756 39.949237 1.007648 1.626189 0.065387 -0.008337 -659030.000000 0 0 1
22.404124 -33.384213 -1.309156 40.226413 -0.979731 1.603347 0.082399 -0.005841 -570576.000000 0 0 1
23.223424 33.314810 -0.635156 40.615360 0.962026 1.586435 0.084985 -0.005787 725495.000000 0 0 1
24.130824 32.473410 -1.350156 40.480143 0.931729 1.604156 0.081773 -0.004434 792795.000000 0 0 1
25.199324 33.134410 -2.310156 41.692108 0.920597 1.626235 0.079774 -0.007571 -22790.600000 0 0 1
24.509524 33.653610 -3.470756 41.777128 0.941336 1.653970 0.073479 -0.016198 99217.300000 0 0 1
25.312524 -33.300013 -4.408156 42.060035 -0.920840 1.675795 0.066321 -0.017031 -550513.000000 0 0 1
24.612124 -32.723413 -5.618656 41.329743 -0.925936 1.707166 0.062647 -0.019303 -682750.000000 0 0 1
23.729124 -31.683813 -5.377156 39.948080 -0.927977 1.705810 0.075242 -0.017772 -87235.800000 0 0 1
23.201124 -31.199613 -6.626256 39.441288 -0.931381 1.739600 0.085149 -0.020611 16888.800000 0 0 1
22.187024 -30.062913 -6.428256 37.912600 -0.935007 1.741174 0.091475 -0.018611 793795.000000 0 0 1
20.899024 -30.401313 -5.886056 37.358462 -0.968551 1.729012 0.112486 -0.017151 828006.000000 0 0 1
20.000724 -29.293913 -6.054056 35.983522 -0.971735 1.739846 0.115785 -0.022749 860345.000000 0 0 1
18.815924 -29.196113 -5.034856 35.097033 -0.998321 1.714748 0.105049 -0.014524 556010.000000 0 0 1
17.665124 -29.883113 -5.491456 35.145599 -1.036916 1.727688 0.113458 -0.022065 378.966000 0 0 1
16.589224 -29.525813 -4.600556 34.178079 -1.058897 1.705812 0.087300 -0.017204 1030100.000000 0 0 1
15.248924 -30.234413 -5.004056 34.229957 -1.103670 1.717511 0.078298 -0.020975 332170.000000 0 0 1
15.305024 -31.665813 -4.889856 35.508846 -1.120574 1.708943 0.074801 -0.010460 -70728.200000 0 0 1
14.052424 -32.225313 -5.239956 35.544318 -1.159589 1.718756 0.080947 -0.009135 238563.000000 0 0 1
14.094024 -33.766013 -5.236656 36.962247 -1.175378 1.712950 0.080518 -0.023146 58080.200000 0 0 1
14.323024 33.313910 -3.949456 36.476895 1.164748 1.679282 0.088952 -0.030650 101998.000000 0 0 1
14.714324 31.913110 -3.900456 35.357764 1.138771 1.681335 0.092626 -0.031014 587638.000000 0 0 1
13.678724 30.891310 -4.578956 34.093216 1.153945 1.705510 0.091411 -0.031025 1151370.000000 0 0 1
12.573324 30.473210 -3.774056 33.180544 1.179473 1.684786 0.086537 -0.030946 523190.000000 0 0 1
12.946024 29.371110 -2.898856 32.228326 1.155641 1.660866 0.092439 -0.037356 338443.000000 0 0 1
11.727424 28.633310 -2.256356 31.024024 1.182065 1.643590 0.071828 -0.031364 302125.000000 0 0 1
10.955424 29.385110 -1.371656 31.390882 1.213936 1.614506 0.065784 -0.033153 -343327.000000 0 0 1
9.954824 28.558610 -0.823256 30.255090 1.235391 1.598010 0.050088 -0.027644 -286744.000000 0 0 1
8.837524 29.250810 -0.056056 30.556749 1.277387 1.572631 0.040828 -0.010254 -279247.000000 0 0 1
8.047124 28.350910 0.664544 29.478330 1.294230 1.548251 0.037544 -0.010836 367814.000000 0 0 1
6.842824 28.979710 1.147144 29.798721 1.338919 1.532290 0.052968 -0.008722 726510.000000 0 0 1
5.873624 28.005010 1.880344 28.676049 1.364058 1.505177 0.059283 -0.012222 262405.000000 0 0 1
5.114124 27.227310 1.003644 27.721616 1.385129 1.534584 0.057593 -0.020028 -626371.000000 0 0 1
4.043924 26.572610 1.585344 26.925272 1.419771 1.511883 0.058897 -0.028865 -574852.000000 0 0 1
3.173724 25.836710 0.599944 26.037820 1.448571 1.547753 0.064395 -0.025548 -484868.000000 0 0 1
1.939524 25.447110 1.141144 25.546416 1.494726 1.526112 0.070762 -0.025710 -97861.600000 0 0 1
1.301624 24.563410 0.222044 24.598875 1.517855 1.561770 0.054809 -0.016185 -305243.000000 0 1 0
-0.084976 24.075510 0.628744 24.083869 -1.567267 1.544687 0.054165 -0.015813 -879084.000000 0 1 0
-1.082576 25.030410 0.520444 25.059216 -1.527573 1.550026 0.063894 -0.022767 87611.700000 0 0 1
-2.318976 24.361010 0.860444 24.486258 -1.475890 1.535649 0.057300 -0.017757 459017.000000 0 1 0
-3.486576 25.210810 1.376344 25.487948 -1.433371 1.516770 0.096001 -0.036016 466220.000000 0 0 1
-4.708776 24.461410 1.224844 24.940598 -1.380624 1.521666 0.088348 -0.028848 1372820.000000 0 1 0
-5.772876 25.009010 2.049344 25.748330 -1.343938 1.491121 0.086008 -0.035268 1432160.000000 0 0 1
-7.108176 25.453010 1.363244 26.462055 -1.298468 1.519257 0.097156 -0.037211 579983.000000 0 0 1
-7.008376 26.668510 0.665144 27.582045 -1.313811 1.546679 0.108275 -0.039208 35194.400000 0 0 1
-8.104676 26.768510 -0.210856 27.969329 -1.276801 1.578335 0.113962 -0.029854 -249458.000000 0 0 1
-7.809676 27.835010 -1.249356 28.936823 -1.297259 1.613985 0.101614 -0.028376 -16027.700000 0 0 1
-7.868676 29.154810 -0.775856 30.207962 -1.307184 1.596483 0.125795 -0.045826 86290.800000 0 0 1
-7.747176 30.157010 -1.802256 31.188334 -1.319339 1.628615 0.122897 -0.041945 -169992.000000 0 0 1
-7.704376 31.593710 -1.251056 32.543588 -1.331607 1.609248 0.107666 -0.038425 -616707.000000 0 0 1
-7.828176 32.652310 -2.163756 33.647222 -1.335494 1.635148 0.098303 -0.020725 -444250.000000 0 0 1
-6.931676 32.748810 -3.217156 33.628601 -1.362213 1.666610 0.087771 -0.022634 -189772.000000 0 0 1
-5.417476 32.943510 -2.973556 33.518144 -1.407808 1.659628 0.101503 -0.031062 -323269.000000 0 0 1
-5.090976 -33.443013 -2.405456 33.913704 1.419728 1.641785 0.103078 -0.034974 147608.000000 0 0 1
-4.526076 -33.588613 -1.091756 33.909765 1.436853 1.602998 0.112677 -0.043251 -261.966000 0 0 1
-4.314676 -32.272113 -0.360156 32.561256 1.437888 1.581857 0.112912 -0.040046 -245943.000000 0 0 1
-5.500476 -31.536413 -0.202056 32.013144 1.398117 1.577108 0.105461 -0.037065 -311491.000000 0 0 1
-5.536476 -30.388413 -1.005656 30.905008 1.390583 1.603342 0.111807 -0.035768 428119.000000 0 0 1
-6.993476 -29.844813 -1.159656 30.675175 1.340621 1.608610 0.120551 -0.040397 494523.000000 0 0 1
-7.421176 -29.272013 0.049144 30.198129 1.322503 1.569169 0.117517 -0.028406 646098.000000 0 0 1
-8.726976 -28.650713 0.031244 29.950366 1.275126 1.569753 0.071238 -0.011496 1003930.000000 0 0 1
-9.003376 -27.854713 1.336244 29.304118 1.258169 1.525181 0.084032 -0.013203 -174351.000000 0 0 1
-8.204976 -26.705513 1.383944 27.971795 1.272712 1.521300 0.089753 -0.024579 -353481.000000 0 0 1
-7.821776 -26.404613 2.665444 27.667460 1.282804 1.474308 0.105535 -0.014770 -174685.000000 0 0 1
-8.634076 -25.282813 3.322744 26.922268 1.241714 1.447061 0.086513 -0.011019 -192875.000000 0 0 1
-8.300276 -23.933013 2.929344 25.500289 1.236964 1.455667 0.091367 -0.015222 2849.290000 0 0 1
-9.101176 -23.052313 3.739744 25.064441 1.194776 1.421032 0.085869 -0.014975 88506.500000 0 0 1
-8.544476 -21.647213 3.898944 23.596857 1.194854 1.404804 0.056739 -0.012228 138224.000000 0 1 0
-7.457676 -21.712113 4.821244 23.457987 1.239942 1.363794 0.041410 -0.007099 -39696.200000 0 1 0
-6.832976 -20.476813 5.081544 22.176824 1.248722 1.339605 0.022983 -0.007663 295445.000000 0 1 0
-7.729176 -19.403613 5.796244 21.675719 1.191724 1.300095 0.026974 -0.009632 183296.000000 0 1 0
-8.065976 -19.818413 7.099144 22.543897 1.184275 1.250442 0.019373 -0.008866 127608.000000 0 1 0
-8.988776 -18.953113 7.749444 22.362300 1.127949 1.216916 0.016382 -0.005057 -209349.000000 0 1 0
-28.597276 29.420710 -5.866256 41.446295 -0.799590 1.712812 0.108746 0.007212 281155.000000 0 0 1
-27.750796 29.954310 -4.867956 41.122554 -0.823565 1.689451 0.096692 -0.007612 -113427.000000 0 0 1
-26.741586 29.160310 -4.335356 39.802405 -0.828638 1.679935 0.076453 0.001169 513330.000000 0 0 1
-25.560206 29.909010 -3.620856 39.509286 -0.863638 1.662571 0.067483 -0.007607 334837.000000 0 0 1
-25.933256 30.381110 -2.308356 40.010926 -0.864217 1.628522 0.037283 -0.014645 -206756.000000 0 0 1
-25.080676 31.346910 -1.794756 40.185697 -0.895994 1.615473 0.036067 -0.018559 -353205.000000 0 0 1
-23.850076 30.809910 -1.041256 38.976415 -0.912046 1.597515 0.039259 -0.011019 -528299.000000 0 0 1
-22.871276 30.225610 -1.815956 37.947075 -0.923030 1.618670 0.079011 -0.023151 -1276510.000000 0 0 1
-21.753676 29.968610 -1.074656 37.047199 -0.942910 1.599808 0.079404 -0.020270 -853901.000000 0 0 1
-20.506676 29.441310 -1.817456 35.925168 -0.962405 1.621408 0.105202 -0.021430 245537.000000 0 0 1
-19.450176 29.150410 -0.915456 35.055582 -0.982400 1.596914 0.114911 -0.020342 584359.000000 0 0 1
-18.360576 28.467210 -1.565256 33.910807 -0.997963 1.616971 0.119848 -0.016289 359042.000000 0 0 1
-16.942076 28.815510 -1.123456 33.445923 -1.039284 1.604393 0.124279 -0.021838 -346227.000000 0 0 1
-16.666076 28.359510 0.201844 32.894691 -1.039491 1.564660 0.116231 -0.039275 203140.000000 0 0 1
-15.617976 29.158610 0.749044 33.086354 -1.079059 1.548155 0.116763 -0.048813 416977.000000 0 0 1
-14.909876 28.583610 2.027744 32.302306 -1.090000 1.507981 0.112561 -0.051282 149696.000000 0 0 1
-15.793076 28.443610 3.168544 32.687917 -1.063938 1.473711 0.094819 -0.042627 239404.000000 0 0 1
-15.180376 27.812610 4.280644 31.973568 -1.071176 1.436512 0.093317 -0.052277 475805.000000 0 0 1
-13.951776 28.493510 4.938844 32.108011 -1.115465 1.416364 0.114539 -0.047312 228766.000000 0 0 1
-14.283976 29.603510 5.744044 33.367557 -1.121239 1.397790 0.093600 -0.046553 -121585.000000 0 0 1
-14.423276 30.811110 4.970144 34.381067 -1.132977 1.425728 0.107641 -0.047478 -174645.000000 0 0 1
-14.078076 32.007010 5.845144 35.451469 -1.156421 1.405163 0.109405 -0.040265 -99353.700000 0 0 1
-15.166676 32.500010 6.593444 36.465768 -1.134169 1.388984 0.091844 -0.034558 -16890.700000 0 0 1
-14.824776 33.657010 7.350044 37.504553 -1.155899 1.373542 0.128109 -0.048617 556274.000000 0 0 1
-16.023776 -33.461013 8.218644 37.999301 1.124188 1.352789 0.089840 -0.035191 604941.000000 0 0 1
-16.223976 33.369010 9.330344 38.259163 -1.118250 1.324440 0.062368 -0.035926 69409.100000 0 0 1
-17.339076 33.767210 10.110844 39.282276 -1.096416 1.310477 0.067940 -0.035139 -377453.000000 0 0 1
-17.500576 33.008410 11.527344 39.098657 -1.083293 1.271522 0.056288 -0.025571 495037.000000 0 0 1
-16.651476 33.481210 12.582444 39.453530 -1.109281 1.246209 0.055898 -0.032177 846039.000000 0 0 1
-15.256476 33.181310 12.442144 38.581944 -1.139830 1.242442 0.068709 -0.027640 395229.000000 0 0 1
-14.424276 33.419310 13.718644 38.898731 -1.163336 1.210367 0.063767 -0.029060 -217787.000000 0 0 1
-14.590276 32.563210 14.844844 38.647228 -1.149557 1.176551 0.051935 -0.026770 -135049.000000 0 0 1
-13.975476 31.288010 14.812244 37.331704 -1.150713 1.162797 0.039208 -0.025846 -404499.000000 0 0 1
-14.735876 30.077310 14.210544 36.383103 -1.115234 1.169534 0.035329 -0.034038 -147580.000000 0 0 1
-14.827576 30.081910 12.779644 35.890077 -1.112839 1.206730 0.039232 -0.029143 -125182.000000 0 0 1
-15.990276 29.531310 12.228244 35.739574 -1.074527 1.221594 0.018452 -0.022042 -305931.000000 0 0 1
-15.996476 29.417210 10.623444 35.130003 -1.072741 1.263583 0.032597 -0.014662 160047.000000 0 0 1
-15.031476 28.479010 10.151644 33.764703 -1.085150 1.265413 0.020516 -0.003393 327618.000000 0 0 1
-15.169076 28.184410 8.776244 33.188617 -1.077051 1.303178 0.036490 -0.005183 -175670.000000 0 0 1
-14.567776 26.792610 8.442144 31.643860 -1.072785 1.300740 0.043556 -0.012608 -824276.000000 0 0 1
-13.224776 26.814810 8.131444 30.984660 -1.112612 1.305252 0.070042 -0.017114 -1108260.000000 0 0 1
-12.770376 25.546410 7.929944 29.640945 -1.107237 1.299964 0.076158 -0.023479 103438.000000 0 0 1
-11.446476 25.537510 7.125144 28.878261 -1.149422 1.321491 0.110023 -0.038533 162990.000000 0 0 1
-11.742376 25.684610 5.737644 28.818452 -1.141991 1.370361 0.124650 -0.045575 1500330.000000 0 0 1
-10.646576 25.196710 4.875344 27.784758 -1.171013 1.394415 0.144887 -0.036729 1012720.000000 0 0 1
-10.886476 25.419910 3.340344 27.853996 -1.166163 1.450584 0.133590 -0.042595 -81960.700000 0 0 1
-10.765676 26.764510 2.905744 28.994519 -1.188363 1.470411 0.142818 -0.041254 284435.000000 0 0 1
-11.550376 27.035910 1.752244 29.452029 -1.167044 1.511266 0.143282 -0.048267 34647.300000 0 0 1
-11.157076 28.421710 1.210744 30.557158 -1.196725 1.531164 0.169199 -0.037314 -204621.000000 0 0 1
-11.489276 29.475110 2.001744 31.698463 -1.199117 1.507605 0.141758 -0.049278 -128245.000000 0 0 1
-10.808076 30.694210 1.776144 32.589933 -1.232233 1.516270 0.132853 -0.051530 -116675.000000 0 0 1
-11.308976 31.755410 2.794344 33.824657 -1.228673 1.488089 0.120927 -0.048458 415528.000000 0 0 1
-12.687676 32.069010 2.688444 34.592287 -1.194057 1.493000 0.136955 -0.049121 -23172.500000 0 0 1
-12.950376 33.110110 1.766344 35.596512 -1.197959 1.521155 0.128564 -0.036464 -257774.000000 0 0 1
-14.456576 33.422210 1.585244 36.449276 -1.162553 1.527291 0.132616 -0.038311 17528.600000 0 0 1
-15.122376 32.574510 0.652944 35.919512 -1.136164 1.552617 0.112653 -0.029430 -153260.000000 0 0 1
-15.222176 32.994210 -0.669856 36.342555 -1.138536 1.589229 0.113814 -0.020563 344105.000000 0 0 1
-13.954976 32.845910 -1.581156 35.722475 -1.169043 1.615073 0.121532 -0.021170 268319.000000 0 0 1
-13.640776 31.554310 -1.945656 34.431539 -1.162763 1.627334 0.119293 -0.022373 148775.000000 0 0 1
-12.265276 31.472810 -2.276356 33.854935 -1.199192 1.638086 0.108822 -0.019859 212221.000000 0 0 1
-11.761876 30.010710 -2.435256 32.325144 -1.197273 1.646204 0.081806 -0.027827 -41897.600000 0 0 1
-11.841176 29.520110 -3.788656 32.031302 -1.189323 1.689354 0.086245 -0.024860 834038.000000 0 0 1
-10.549376 29.348610 -4.418456 31.498461 -1.225727 1.711536 0.080826 -0.021157 863136.000000 0 0 1
-10.625376 28.773110 -5.791556 31.214302 -1.217049 1.757419 0.080404 -0.024125 115666.000000 0 0 1
-11.205976 27.460510 -5.762056 30.213488 -1.183347 1.762683 0.078193 -0.022580 183348.000000 0 0 1
-11.295576 26.904010 -7.081856 30.026130 -1.173298 1.808896 0.057737 -0.024544 -60000.500000 0 0 1
-11.947176 25.523810 -7.071656 29.055262 -1.133009 1.816652 0.073120 -0.027396 -17963.600000 0 0 1
-11.193276 24.513410 -6.395356 27.696522 -1.142452 1.803807 0.052509 -0.020381 -67444.400000 0 0 1
-11.558876 23.203510 -6.685456 26.771362 -1.108628 1.823192 0.075967 -0.034121 -394813.000000 0 0 1
-10.903476 22.096010 -5.832156 25.320615 -1.112395 1.803216 0.086065 -0.039707 -10517.100000 0 0 1
-9.509576 21.908410 -6.105156 24.651236 -1.161276 1.821062 0.088933 -0.034825 654651.000000 0 1 0
-8.908976 20.755010 -5.532456 23.253997 -1.165336 1.811014 0.078861 -0.029735 -143086.000000 0 1 0
-8.779776 20.831710 -3.955056 22.949665 -1.171926 1.743997 0.072707 -0.034371 -154305.000000 0 1 0
-9.988276 20.746810 -3.195256 23.246623 -1.122109 1.708683 0.092433 -0.042602 320541.000000 0 1 0
-10.486676 19.402610 -3.074256 22.268424 -1.075293 1.709293 0.089527 -0.044278 82529.000000 0 1 0
-11.825476 19.381210 -2.281656 22.818395 -1.022946 1.670956 0.085502 -0.043755 -13055.400000 0 1 0
-11.779376 19.385310 -0.921556 22.702274 -1.024775 1.611401 0.086763 -0.046345 231873.000000 0 1 0
-11.173876 18.213610 -0.392756 21.371602 -1.020516 1.589175 0.071706 -0.035173 -316560.000000 0 1 0
-10.934776 18.263710 1.140044 21.317414 -1.031321 1.517291 0.067845 -0.034796 -689071.000000 0 1 0
-12.103876 18.172410 1.885444 21.915639 -0.983215 1.484658 0.086903 -0.044714 -143698.000000 0 1 0
-11.905176 18.599310 3.239444 22.319533 -1.001421 1.425142 0.086536 -0.028324 -271056.000000 0 1 0
-13.279576 18.558810 3.901744 23.151678 -0.949717 1.401459 0.095965 -0.038816 -312755.000000 0 1 0
-13.751576 17.273410 4.067444 22.450404 -0.898430 1.388616 0.061823 -0.030638 360094.000000 0 1 0
-15.029776 17.279110 4.701044 23.378658 -0.854906 1.368333 0.079175 -0.040384 308754.000000 0 1 0
-15.385876 15.886310 5.250944 22.730430 -0.801399 1.337681 0.059219 -0.030680 -148308.000000 0 1 0
-14.698876 15.437510 6.439844 22.267584 -0.809903 1.277403 0.061666 -0.022975 164883.000000 0 1 0
-15.160376 16.063010 7.650844 23.375045 -0.814299 1.237343 0.050290 -0.015781 -785652.000000 0 1 0
-14.142176 15.993610 8.813244 23.096969 -0.846757 1.179296 0.032971 -0.000661 623155.000000 0 1 0
-12.968576 16.783110 8.738744 22.939538 -0.912915 1.179976 0.037819 -0.021643 708180.000000 0 1 0
-12.027776 16.351610 7.716844 21.716175 -0.936594 1.207508 0.039041 -0.023259 -188592.000000 0 1 0
-10.751876 17.216610 7.649344 21.691634 -1.012552 1.210405 0.055245 -0.026517 61525.600000 0 1 0
-9.768576 17.135310 8.641744 21.534244 -1.052664 1.157858 0.051904 -0.030088 -225330.000000 0 1 0
-9.086476 18.342110 8.733344 22.254626 -1.110844 1.167526 0.058036 -0.029320 -546408.000000 0 1 0
-7.754276 18.241710 9.478044 21.970938 -1.168854 1.124763 0.052190 -0.033249 -904013.000000 0 1 0
-6.788376 17.464910 8.814244 20.707391 -1.200081 1.131109 0.042877 -0.027367 503857.000000 0 1 0
-5.500176 17.502110 9.469044 20.645547 -1.266311 1.094323 0.030595 -0.029486 1083480.000000 0 1 0
-4.620576 18.668810 8.941844 21.209215 -1.328170 1.135585 0.023836 -0.025159 -1168470.000000 0 1 0
-4.885476 19.930210 9.486344 22.606899 -1.330407 1.137768 0.039047 -0.029081 -75019.300000 0 1 0
-4.524876 20.976910 8.595644 23.116885 -1.358344 1.189812 0.047429 -0.028807 1126700.000000 0 1 0
-3.110976 21.725310 8.570144 23.560871 -1.428567 1.198511 0.045339 -0.022130 1373640.000000 0 1 0
-2.049276 20.872710 8.182144 22.512598 -1.472930 1.198831 0.028346 -0.009569 -537762.000000 0 1 0
-0.902676 21.602510 7.872444 23.009969 -1.529035 1.221612 0.026240 -0.011158 474336.000000 0 1 0
0.394924 20.717410 7.756944 22.125488 1.551736 1.212597 0.023534 -0.008151 750924.000000 0 1 0
0.789324 20.138710 9.024044 22.082211 1.531622 1.149815 0.023791 -0.009817 -1254400.000000 0 1 0
2.089624 19.701910 8.927944 21.731083 1.465129 1.147424 0.016956 -0.013969 -901722.000000 0 1 0
2.657024 19.130210 10.299244 21.888334 1.432788 1.080898 0.016336 -0.028810 2146080.000000 0 1 0
4.125824 19.078210 10.426144 22.129279 1.357818 1.080206 0.038701 -0.005150 2041430.000000 0 1 0
4.437924 18.256710 11.547344 22.053204 1.332337 1.019710 0.034440 -0.018536 238870.000000 0 1 0
5.933824 18.126010 11.909444 22.485492 1.254427 1.012608 0.058180 -0.023417 158527.000000 0 1 0
6.775924 17.421110 11.010944 21.694449 1.199853 1.038461 0.047066 -0.025513 437891.000000 0 1 0
7.827924 16.837610 11.795644 21.998153 1.135615 1.004855 0.054701 -0.017487 525389.000000 0 1 0
9.090424 16.229210 11.140544 21.682592 1.060211 1.031187 0.052848 -0.017725 -93116.000000 0 1 0
9.997524 17.140110 10.651244 22.520721 1.042760 1.078157 0.065516 -0.031677 -1498980.000000 0 1 0
11.156524 16.505910 10.291744 22.423940 0.976421 1.093969 0.065260 -0.027254 12021.000000 0 1 0
12.221724 17.503210 9.615844 23.413615 0.961242 1.147581 0.075405 -0.027723 1068650.000000 0 1 0
13.343924 16.902810 8.979144 23.332174 0.902522 1.175762 0.075559 -0.022678 131929.000000 0 1 0
13.883924 17.939010 8.188344 24.116808 0.912142 1.224381 0.084954 -0.024480 -224317.000000 0 1 0
14.884224 17.566610 7.100344 24.094414 0.867871 1.271667 0.093651 -0.030710 -699014.000000 0 1 0
16.015024 16.918410 7.568044 24.494671 0.812822 1.256690 0.105162 -0.032722 -577401.000000 0 1 0
16.939224 16.694610 6.544244 24.667275 0.778125 1.302281 0.108395 -0.024365 -515813.000000 0 1 0
18.366624 16.463310 7.051144 25.653306 0.730807 1.292349 0.107369 -0.027728 -398962.000000 0 0 1
18.551924 15.339710 7.797444 25.303769 0.690902 1.257545 0.114306 -0.028851 1059490.000000 0 0 1
19.825324 15.492410 8.469344 26.547844 0.663324 1.246099 0.114464 -0.030678 710180.000000 0 0 1
20.041424 14.347310 9.537544 26.428559 0.621306 1.201585 0.109653 -0.033975 -140190.000000 0 0 1
20.746724 13.212810 9.080744 26.219550 0.567084 1.217135 0.129971 -0.042252 279079.000000 0 0 1
20.865324 12.211110 10.095044 26.198910 0.529492 1.175238 0.127678 -0.047211 -450592.000000 0 0 1
21.867724 11.178710 9.604544 26.370593 0.472565 1.198007 0.114457 -0.040623 -205654.000000 0 0 1
23.242024 11.469210 9.885544 27.739114 0.458409 1.206410 0.113818 -0.043058 1478620.000000 0 0 1
24.198024 10.681010 9.169244 27.994702 0.415679 1.237103 0.129400 -0.048221 253250.000000 0 0 1
24.374124 9.225110 9.522744 27.746770 0.361818 1.220473 0.152757 -0.055498 573805.000000 0 0 1
23.214424 8.407110 9.109744 26.316846 0.347458 1.217325 0.151245 -0.052687 1716450.000000 0 0 1
23.320424 7.036610 9.435644 26.122546 0.293049 1.201234 0.133522 -0.049084 -87568.100000 0 0 1
24.335124 6.178510 8.615744 26.544364 0.248639 1.240230 0.141686 -0.054725 246821.000000 0 0 1
24.146124 6.269610 7.155044 25.952610 0.254043 1.291482 0.131198 -0.036372 852660.000000 0 0 1
25.268424 5.728110 6.450044 26.700329 0.222923 1.326811 0.154240 -0.050206 426869.000000 0 0 1
24.772824 5.257710 5.062244 25.825620 0.209134 1.373503 0.160020 -0.052319 -157016.000000 0 0 1
24.091524 3.991810 5.070044 24.940758 0.164202 1.366086 0.149653 -0.045359 406599.000000 0 1 0
23.648024 3.821010 3.753944 24.247087 0.160194 1.415351 0.155435 -0.044383 -405235.000000 0 1 0
22.645924 2.672610 3.560344 23.079358 0.117474 1.415913 0.146394 -0.030116 -226033.000000 0 1 0
23.114824 1.422510 3.959444 23.494591 0.061464 1.401462 0.166141 -0.029661 -92183.300000 0 1 0
22.207524 0.504210 3.514344 22.489530 0.022701 1.413887 0.147181 -0.025694 -403153.000000 0 1 0
22.806424 -0.922190 3.730244 23.127864 -0.040413 1.408801 0.168267 -0.035146 -61601.600000 0 1 0
22.794424 -1.366490 5.110944 23.400316 -0.059877 1.350608 0.146967 -0.033793 599674.000000 0 1 0
23.171024 -2.706790 5.286944 23.920176 -0.116291 1.347932 0.162839 -0.038489 -243263.000000 0 1 0
22.944024 -3.098690 6.753644 24.117251 -0.134242 1.286967 0.191143 -0.044701 -133047.000000 0 1 0
23.016824 -4.501690 6.966544 24.465733 -0.193144 1.282054 0.179611 -0.047839 491968.000000 0 1 0
22.728224 -4.875790 8.306944 24.685032 -0.211323 1.227580 0.187912 -0.049792 -140812.000000 0 1 0
22.355524 -6.300690 8.639944 24.781379 -0.274714 1.214670 0.180307 -0.057298 -1211060.000000 0 1 0
21.026124 -6.625190 8.629544 23.674037 -0.305246 1.197684 0.181823 -0.053131 -715078.000000 0 1 0
20.764224 -7.899590 9.129444 24.018810 -0.363533 1.180897 0.182568 -0.049773 -359723.000000 0 1 0
-27.973386 -32.770713 5.278144 43.408395 0.864211 1.448902 0.035813 -0.006933 -129508.000000 0 0 1
-28.677896 33.755710 5.690844 44.657087 -0.866551 1.443015 0.048509 -0.013795 -258545.000000 0 0 1
-28.409036 33.449410 7.024344 44.444098 -0.866701 1.412082 0.057194 -0.009567 -404190.000000 0 0 1
-29.196636 32.258710 7.482244 44.148068 -0.835183 1.400494 0.078424 -0.028891 -627031.000000 0 0 1
-30.586116 32.451510 7.439344 45.210119 -0.814981 1.405494 0.070814 -0.020939 -793718.000000 0 0 1
-31.272106 31.327410 7.862144 44.957364 -0.786282 1.395012 0.093767 -0.032900 -873638.000000 0 0 1
-32.763076 31.607310 7.935744 46.210575 -0.767445 1.398211 0.085376 -0.026039 -894092.000000 0 0 1
-33.292766 31.723510 6.639144 46.463616 -0.761266 1.427416 0.066839 -0.021394 -325103.000000 0 0 1
-34.693534 31.834110 6.650744 47.552963 -0.742444 1.430477 0.053049 -0.016765 -300663.000000 0 0 1
-35.407685 31.806010 5.326144 47.892529 -0.731864 1.459355 0.035718 -0.007242 -404687.000000 0 0 1
-35.289060 30.563210 4.719344 46.922274 -0.713757 1.470048 0.042641 -0.012862 1699.030000 0 0 1
-35.869619 30.457410 3.471844 47.184077 -0.703980 1.497149 0.058567 -0.001243 -388080.000000 0 0 1
-35.526090 29.182410 2.746344 46.057123 -0.687676 1.511132 0.068026 -0.016251 19594.000000 0 0 1
-36.036706 28.012410 3.402944 45.770289 -0.660764 1.496379 0.090036 -0.017995 177257.000000 0 0 1
-35.470340 26.876510 2.843344 44.593458 -0.648422 1.506992 0.100528 -0.018706 -270441.000000 0 0 1
-35.942625 25.537910 3.476944 44.228343 -0.617751 1.492102 0.112881 -0.015236 -105999.000000 0 0 1
-37.325406 25.307210 3.300444 45.216521 -0.595819 1.497739 0.114306 -0.009336 -69723.500000 0 0 1
37.291057 24.237910 4.091844 44.663658 0.576351 1.479053 0.113204 -0.008479 798046.000000 0 0 1
35.775337 23.869910 3.918744 43.185691 0.588383 1.479930 0.126734 -0.009158 597483.000000 0 0 1
35.373887 23.232610 2.740544 42.409629 0.581122 1.506130 0.119066 -0.023365 64141.600000 0 0 1
35.630907 21.849410 2.636644 41.879710 0.550080 1.507797 0.116956 -0.017529 -1253370.000000 0 0 1
34.479487 21.092010 2.042244 40.470714 0.548997 1.520313 0.123673 -0.021118 -1141960.000000 0 0 1
33.371527 20.817110 2.836444 39.434202 0.557735 1.498806 0.123125 -0.031613 -322993.000000 0 0 1
33.518727 19.997510 4.004444 39.235711 0.537921 1.468557 0.111354 -0.022786 -663107.000000 0 0 1
33.580697 18.469610 3.840144 38.516703 0.502848 1.470930 0.133097 -0.038681 246033.000000 0 0 1
32.416467 17.891410 3.237344 37.167328 0.504319 1.483584 0.119575 -0.054038 503440.000000 0 0 1
32.543787 16.561510 2.852844 36.626771 0.470742 1.492828 0.124145 -0.051525 19011.900000 0 0 1
31.550917 15.595910 3.564644 35.375125 0.459085 1.469858 0.158332 -0.050832 -295242.000000 0 0 1
30.196147 15.709910 3.250444 34.193186 0.479726 1.475591 0.140055 -0.044350 -277799.000000 0 0 1
29.466607 14.849410 4.150144 33.256722 0.466795 1.445679 0.130846 -0.049474 -474143.000000 0 0 1
27.985707 15.200910 4.145544 32.116242 0.497582 1.441356 0.109678 -0.040119 -432463.000000 0 0 1
27.337107 14.762710 2.934544 31.206835 0.495152 1.476622 0.107631 -0.038678 419707.000000 0 0 1
25.948807 15.054810 2.889044 30.138587 0.525714 1.474790 0.074479 -0.021583 -34095.700000 0 0 1
25.405207 14.491210 1.568644 29.289594 0.518373 1.517214 0.069040 -0.025113 -817729.000000 0 0 1
25.789007 14.897010 0.277544 29.783734 0.523823 1.561478 0.088920 -0.028092 -160793.000000 0 0 1
26.994107 14.305410 -0.140956 30.550719 0.487316 1.575410 0.096416 -0.034614 -1076890.000000 0 0 1
27.669707 15.012710 -1.354256 31.509176 0.497120 1.613789 0.120701 -0.035542 241080.000000 0 0 1
28.357807 16.246310 -1.108256 32.700704 0.520258 1.604694 0.111482 -0.031337 1297860.000000 0 0 1
29.383307 16.203410 -0.086556 33.554980 0.503955 1.573376 0.116031 -0.035777 -98265.100000 0 0 1
30.154047 17.512910 0.251744 34.871649 0.526168 1.563577 0.140236 -0.030900 69393.700000 0 0 1
31.014807 17.925410 -0.797456 35.831195 0.524058 1.593054 0.127060 -0.032023 62150.000000 0 0 1
31.629637 19.130110 -0.448456 36.967501 0.543953 1.582928 0.121769 -0.020189 -64840.200000 0 0 1
32.702657 19.576510 -1.467656 38.142595 0.539405 1.609284 0.112279 -0.018454 -371314.000000 0 0 1
33.064927 20.911010 -1.663156 39.157704 0.563919 1.613282 0.051053 -0.012157 85624.900000 0 0 1
32.058417 21.817710 -2.095856 38.834871 0.597560 1.624791 0.089622 -0.013720 -385428.000000 0 0 1
32.588797 23.247410 -2.574456 40.113583 0.619634 1.635020 0.089391 -0.012942 24709.300000 0 0 1
32.926877 24.211210 -1.621156 40.902201 0.634028 1.610442 0.107556 -0.008539 169768.000000 0 0 1
33.982027 23.838210 -0.764956 41.516546 0.611728 1.589223 0.118418 0.000795 -418613.000000 0 0 1
34.550317 24.879810 0.276044 42.577054 0.624091 1.564313 0.118726 -0.023315 134010.000000 0 0 1
35.233167 25.975410 -0.352056 43.774672 0.635287 1.578839 0.145152 -0.017298 -351361.000000 0 0 1
36.534517 26.031210 0.150044 44.859975 0.619073 1.567452 0.132289 -0.018522 -76948.300000 0 0 1
37.286877 27.391310 -0.223856 46.267107 0.633578 1.575635 0.113704 -0.028893 38232.800000 0 0 1
-37.392006 27.493010 -1.580456 46.438407 -0.634003 1.604836 0.113460 -0.037421 17746.300000 0 0 1
36.668407 27.738710 -2.534656 46.048155 0.647632 1.625868 0.099893 -0.032366 -188391.000000 0 0 1
36.815857 27.214210 -4.009656 45.957566 0.636552 1.658154 0.103784 -0.030337 -299543.000000 0 0 1
-37.389926 27.920310 -4.877556 46.918449 -0.641407 1.674943 0.098094 -0.026528 118228.000000 0 0 1
-37.309296 27.422610 -6.204156 46.716964 -0.633837 1.703993 0.085892 -0.022424 194722.000000 0 0 1
36.464837 27.423410 -7.060956 46.169090 0.644812 1.724336 0.067314 -0.010931 579511.000000 0 0 1
35.448657 26.663110 -6.433656 44.820984 0.644883 1.714835 0.077445 -0.019952 -87596.700000 0 0 1
34.240247 26.685510 -7.189356 44.002248 0.662029 1.734918 0.059178 -0.021578 751423.000000 0 0 1
33.119077 25.729310 -6.621156 42.458337 0.660479 1.727380 0.054396 -0.017413 91502.700000 0 0 1
33.262597 24.337710 -6.719356 41.759720 0.631675 1.732404 0.042600 -0.015608 160366.000000 0 0 1
34.393037 23.770510 -6.063456 42.245516 0.604757 1.714823 0.042066 -0.014907 169793.000000 0 0 1
34.647747 22.271110 -6.257556 41.660841 0.571288 1.721569 0.035594 -0.010299 11664.200000 0 0 1
33.696587 21.514310 -5.529556 40.359652 0.568228 1.708236 0.045353 -0.008234 487279.000000 0 0 1
33.959797 20.194710 -5.907856 39.949930 0.536488 1.719222 0.047859 -0.010082 456889.000000 0 0 1
32.844567 19.234810 -5.373256 38.439763 0.529787 1.711039 0.077668 -0.015026 565304.000000 0 0 1
31.654187 19.214010 -6.137356 37.534422 0.545549 1.735047 0.059227 -0.022760 52951.200000 0 0 1
30.579727 18.722010 -5.358756 36.253960 0.549368 1.719152 0.135208 -0.038873 -960365.000000 0 0 1
29.317207 18.539010 -6.124256 35.223572 0.563874 1.745553 0.097030 -0.035399 -1259800.000000 0 0 1
29.319407 17.435010 -6.980856 34.818667 0.536482 1.772656 0.085315 -0.029555 50986.600000 0 0 1
28.214607 17.395010 -7.868456 34.067037 0.552482 1.803871 0.095443 -0.038153 -72214.300000 0 0 1
28.289907 16.238910 -8.880556 33.806587 0.521096 1.836602 0.084719 -0.030907 -362246.000000 0 0 1
27.558407 16.366410 -10.051956 33.591174 0.535908 1.874697 0.060710 -0.028350 16342.000000 0 0 1
27.762007 15.256610 -10.926156 33.509313 0.502498 1.902933 0.057131 -0.019944 -153002.000000 0 0 1
27.178907 15.457210 -12.376056 33.627148 0.517103 1.947694 0.062518 -0.022354 978750.000000 0 0 1
25.734807 15.489810 -12.386756 32.490710 0.541816 1.961933 0.062650 -0.026343 1203690.000000 0 0 1
25.060107 15.655010 -13.615656 32.534203 0.558382 2.002593 0.055606 -0.028856 -213737.000000 0 0 1
24.891607 14.470710 -14.585556 32.275873 0.526593 2.039693 0.057742 -0.029465 9028.150000 0 0 1
26.112407 13.859810 -15.007656 33.153912 0.487963 2.040550 0.071812 -0.032063 499877.000000 0 0 1
26.683707 14.384010 -16.178456 34.360768 0.494402 2.061040 0.072584 -0.028303 -120695.000000 0 0 1
28.126907 13.978310 -16.529856 35.492988 0.461223 2.055246 0.091999 -0.024958 90327.500000 0 0 1
28.159207 12.581410 -16.829756 35.135075 0.420186 2.070313 0.096695 -0.031005 621248.000000 0 0 1
29.522207 12.182910 -17.026056 36.192134 0.391380 2.060580 0.093251 -0.012652 840282.000000 0 0 1
29.690307 10.840910 -17.822456 36.286080 0.350092 2.084223 0.071011 -0.012250 -62008.300000 0 0 1
29.429607 10.874710 -19.225556 36.796509 0.353954 2.120557 0.078475 -0.017270 -122400.000000 0 0 1
29.246007 9.599610 -19.853856 36.628637 0.317157 2.143648 0.084537 -0.012211 890120.000000 0 0 1
30.591847 8.834810 -20.257756 37.739789 0.281147 2.137406 0.088696 -0.019702 1069350.000000 0 0 1
31.360597 9.679310 -21.165856 39.053419 0.299370 2.143578 0.079698 -0.023350 496337.000000 0 0 1
31.839807 8.856810 -22.286256 39.860928 0.271309 2.164097 0.077428 -0.026161 -459655.000000 0 0 1
33.267547 8.308110 -22.222756 40.860803 0.244730 2.145832 0.082631 -0.017138 -384982.000000 0 0 1
34.220087 9.354510 -22.332256 41.919576 0.266844 2.132632 0.081630 -0.017705 -455360.000000 0 0 1
35.527087 8.853210 -22.198056 42.817133 0.244222 2.115820 0.045121 -0.013888 115411.000000 0 0 1
36.574267 9.978810 -22.020456 43.842378 0.266354 2.097012 0.062187 -0.018100 114855.000000 0 0 1
36.255297 10.708610 -20.845756 43.170203 0.287201 2.074730 0.032102 -0.014274 -489289.000000 0 0 1
37.199637 11.661410 -20.597456 44.091458 0.303779 2.056864 0.015852 -0.006317 -794116.000000 0 0 1
37.037277 12.410410 -19.255956 43.549627 0.323321 2.028803 0.023526 -0.011651 -324881.000000 0 0 1
-37.480856 11.715110 -18.181156 43.273697 -0.302942 2.004400 0.028482 -0.007883 8790.640000 0 0 1
37.322787 12.245710 -16.880756 42.754038 0.317036 1.976684 0.038866 -0.010783 -169314.000000 0 0 1
-37.273916 11.342610 -15.725756 42.015462 -0.295401 1.954422 0.040100 -0.008358 -461180.000000 0 0 1
37.003267 10.203110 -15.570556 41.422064 0.269050 1.956164 0.030108 -0.009611 -182768.000000 0 0 1
37.539927 9.287110 -14.696956 41.370243 0.242523 1.933982 0.025053 -0.013136 -174208.000000 0 0 1
36.634517 8.049610 -14.400756 40.177927 0.216290 1.937376 0.072427 -0.011035 -304270.000000 0 0 1
35.596027 8.277710 -13.495156 38.957885 0.228485 1.924531 0.101551 -0.018138 170082.000000 0 0 1
35.977557 8.182210 -12.128256 38.838483 0.223622 1.888382 0.105836 -0.027702 -583588.000000 0 0 1
34.905027 8.771210 -11.228956 37.701253 0.246190 1.873226 0.127927 -0.029974 -371813.000000 0 0 1
34.569167 10.155310 -11.353156 37.776339 0.285729 1.876051 0.120517 -0.034779 29072.600000 0 0 1
33.612427 10.648510 -10.448556 36.774425 0.306800 1.858891 0.107865 -0.026532 -325838.000000 0 0 1
33.998397 10.545610 -8.947656 36.703698 0.300770 1.817059 0.131975 -0.021528 216518.000000 0 0 1
35.175567 11.290510 -8.612856 37.933856 0.310588 1.799843 0.127841 -0.026647 510547.000000 0 0 1
34.937497 12.623610 -8.131856 38.027770 0.346723 1.786300 0.127805 -0.029205 -345691.000000 0 0 1
34.697257 12.819310 -6.587056 37.571580 0.353906 1.747027 0.123984 -0.032695 -36937.100000 0 0 1
35.836017 12.439310 -5.849456 38.381931 0.334105 1.723794 0.137618 -0.033940 280642.000000 0 0 1
35.610677 12.731410 -4.468456 38.081179 0.343355 1.688408 0.138576 -0.035454 363922.000000 0 0 1
36.944737 12.580010 -3.686956 39.201580 0.328195 1.664987 0.141661 -0.027795 531423.000000 0 0 1
-37.364316 13.769910 -3.707256 39.993078 -0.353087 1.663627 0.137755 -0.025477 470290.000000 0 0 1
-36.073206 13.671010 -3.127756 38.703431 -0.362255 1.651698 0.137011 -0.037906 832437.000000 0 0 1
-35.185946 14.935610 -2.919856 38.335999 -0.401427 1.647035 0.131436 -0.038602 589520.000000 0 0 1
-35.790064 15.833810 -2.013956 39.187935 -0.416523 1.622211 0.147675 -0.032813 744398.000000 0 0 1
-34.883522 16.922010 -1.810656 38.813568 -0.451657 1.617463 0.136820 -0.027413 881374.000000 0 0 1
-35.620153 18.012310 -0.911356 39.925796 -0.468179 1.593625 0.137989 -0.021750 838945.000000 0 0 1
-36.707956 18.634010 -1.619056 41.198565 -0.469732 1.610105 0.111593 -0.017960 642203.000000 0 0 1
37.516537 19.268610 -0.683956 42.181011 0.474471 1.587012 0.108880 -0.016774 104910.000000 0 0 1
36.515987 20.152010 -1.482356 41.733897 0.504276 1.606323 0.110008 -0.012477 -126250.000000 0 0 1
37.077007 21.378210 -1.858856 42.839090 0.523028 1.614202 0.108260 -0.016069 76050.500000 0 0 1
36.638697 21.774610 -3.133656 42.735788 0.536222 1.644188 0.089103 -0.016493 -122626.000000 0 0 1
37.278447 23.110210 -3.573456 44.006068 0.554949 1.652090 0.101091 -0.027615 -98783.100000 0 0 1
-36.410196 23.068010 -3.718956 43.262757 -0.564730 1.656865 0.119691 -0.023278 -44357.700000 0 0 1
-35.767057 24.222310 -4.315056 43.412238 -0.595276 1.670358 0.134385 -0.026423 645387.000000 0 0 1
-34.262143 23.897110 -4.525356 42.017201 -0.609032 1.678708 0.149313 -0.035959 341700.000000 0 0 1
-34.057305 23.045510 -5.599756 41.501239 -0.594895 1.706139 0.118270 -0.022887 503442.000000 0 0 1
-32.667026 23.026210 -5.954756 40.407921 -0.613991 1.718701 0.128997 -0.019108 504195.000000 0 0 1
-32.376856 22.218310 -7.228756 39.927047 -0.601432 1.752849 0.130555 -0.036517 -654485.000000 0 0 1
-33.220256 22.612010 -8.255956 41.024983 -0.597634 1.773422 0.140010 -0.046912 -505077.000000 0 0 1
-32.780086 22.199210 -9.497556 40.712929 -0.595271 1.806247 0.090897 -0.035828 -27345.700000 0 0 1
-33.823766 22.229010 -10.654456 41.853238 -0.581421 1.828196 0.104768 -0.023534 66112.200000 0 0 1
-33.973156 23.532410 -11.157056 42.806887 -0.605794 1.834478 0.092631 -0.028603 -38827.400000 0 0 1
-34.409721 23.400210 -12.490056 43.446522 -0.597208 1.862392 0.060179 -0.021608 -730407.000000 0 0 1
-34.730290 24.735410 -13.171156 44.626371 -0.618877 1.870401 0.059351 -0.019025 366660.000000 0 0 1
-33.674146 25.687610 -13.300156 44.392518 -0.651661 1.875073 0.058934 -0.018229 -72240.400000 0 0 1
-32.616676 25.269310 -14.138056 43.615023 -0.659145 1.900915 0.073332 -0.030375 -1096490.000000 0 0 1
-31.351386 26.037710 -13.856356 43.044981 -0.693071 1.898536 0.081537 -0.033446 -590858.000000 0 0 1
-30.475016 25.536310 -12.809456 41.772143 -0.697452 1.882469 0.064354 -0.029649 506226.000000 0 0 1
-30.931546 25.540810 -11.451556 41.716084 -0.690229 1.848878 0.084834 -0.026397 -366902.000000 0 0 1
-31.025936 26.931210 -10.829456 42.487362 -0.714864 1.828527 0.097743 -0.015939 -539847.000000 0 0 1
-29.831466 27.621210 -10.669356 42.031926 -0.746946 1.827444 0.098098 -0.013718 -679856.000000 0 0 1
-30.031386 28.903410 -10.108856 42.889163 -0.766261 1.808732 0.084326 -0.011275 -93784.600000 0 0 1
-28.666036 29.562110 -9.924556 42.357488 -0.800786 1.807300 0.094453 -0.017315 -5028.800000 0 0 1
-28.802306 30.939310 -9.689456 43.367031 -0.821154 1.796127 0.088371 -0.041493 706876.000000 0 0 1
-27.497756 31.465710 -9.392056 42.830226 -0.852592 1.791879 0.132003 -0.023061 650358.000000 0 0 1
35.862167 -24.561390 33.735463 55.022162 -0.600508 0.910786 0.032036 -0.015140 -107705.000000 0 0 1
35.559567 -23.184790 -33.803626 54.265112 -0.577779 2.243285 0.029374 -0.017058 474031.000000 0 0 1
34.360677 -23.116790 -33.023946 52.968133 -0.592215 2.243967 0.032283 -0.010242 357255.000000 0 0 1
33.896097 -21.678190 -32.764286 51.888223 -0.568993 2.254205 0.029247 -0.007070 -59489.000000 0 0 1
33.524737 -20.994990 33.858923 52.068457 -0.559500 0.862847 0.017910 0.001367 -41198.100000 0 0 1
32.857567 -19.787990 -33.535756 50.949300 -0.542062 2.289246 0.017139 -0.001169 239523.000000 0 0 1
32.649717 -18.883490 33.002598 50.117479 -0.524360 0.851966 0.030355 0.000141 -511086.000000 0 0 1
33.798457 -18.300990 32.480184 50.321211 -0.496274 0.869175 0.044117 -0.010235 -440323.000000 0 0 1
33.684497 -18.183690 31.045653 49.286149 -0.494997 0.889364 0.056343 -0.007871 726375.000000 0 0 1
35.101267 -18.236890 30.357353 49.862330 -0.479166 0.916220 0.049563 -0.007425 554757.000000 0 0 1
35.770367 -17.020490 30.370023 49.915474 -0.444122 0.916717 0.045232 -0.016143 426529.000000 0 0 1
36.998427 -17.064490 29.646433 50.388405 -0.432147 0.941769 0.044794 -0.015271 589870.000000 0 0 1
-37.126606 -15.835790 29.769003 50.153272 0.403170 0.935320 0.044992 -0.021899 1041540.000000 0 0 1
-35.782368 -16.124090 29.358333 49.013017 0.423366 0.928556 0.048820 -0.015657 856895.000000 0 0 1
-34.853764 -15.239290 29.959303 48.420870 0.412188 0.903675 0.053926 -0.024576 52202.000000 0 0 1
-33.400936 -15.510590 29.510713 47.191982 0.434744 0.895238 0.067127 -0.025982 -251734.000000 0 0 1
-32.474736 -14.725790 30.189793 46.721312 0.425722 0.868244 0.073909 -0.026943 387088.000000 0 0 1
-31.463396 -15.525190 30.879623 46.738934 0.458383 0.849068 0.083093 -0.033528 558657.000000 0 0 1
-30.385486 -14.579490 31.440303 46.090476 0.447372 0.820107 0.086384 -0.039390 -369017.000000 0 0 1
-30.829586 -13.906290 32.633416 46.997746 0.423743 0.803264 0.085543 -0.042418 936812.000000 0 0 1
-29.857056 -12.908690 33.019935 46.350773 0.408079 0.777895 0.083528 -0.041407 462419.000000 0 0 1
-30.307296 -12.240590 -33.405956 46.736732 0.383849 2.367090 0.082907 -0.025549 48802.900000 0 0 1
-30.171896 -13.216290 -32.394876 46.200018 0.412858 2.347858 0.087584 -0.028917 196408.000000 0 0 1
-30.566266 -12.597290 -31.207526 45.463150 0.390920 2.327372 0.098725 -0.019767 -370109.000000 0 0 1
-30.589026 -13.444490 -29.886006 44.828743 0.414105 2.300529 0.105821 -0.024444 451743.000000 0 0 1
-31.742866 -14.290590 -29.905066 45.892739 0.423019 2.280527 0.113831 -0.024598 356144.000000 0 0 1
-32.041536 -14.767490 -28.621966 45.430780 0.431870 2.252366 0.116793 -0.018899 101774.000000 0 0 1
-33.259896 -15.706690 -28.581026 46.581068 0.441195 2.231378 0.100609 -0.025478 20415.700000 0 0 1
-33.107626 -16.944190 -29.243776 47.311932 0.473036 2.237127 0.107257 -0.027975 -244385.000000 0 0 1
-34.257089 -17.737690 -29.127616 48.338306 0.477771 2.217524 0.085211 -0.026164 -281920.000000 0 0 1
-34.169555 -19.077390 -29.895896 49.247029 0.509205 2.223152 0.085300 -0.033896 485764.000000 0 0 1
-35.373436 -19.838490 -30.040046 50.470289 0.511120 2.208314 0.049871 -0.035557 361833.000000 0 0 1
-35.062279 -21.032690 -30.729536 51.147257 0.540321 2.215304 0.047917 -0.035635 -73356.000000 0 0 1
-36.296646 -21.827590 -31.237216 52.627501 0.541424 2.206263 0.052249 -0.033227 -111401.000000 0 0 1
-37.140386 -22.181090 -30.178136 52.745890 0.538375 2.179911 0.035686 -0.028481 202528.000000 0 0 1
36.933107 -23.154890 -30.499746 53.201859 -0.559994 2.181304 0.037974 -0.026496 323695.000000 0 0 1
37.463377 -24.617490 -30.617526 54.285894 -0.581356 2.170024 0.040998 -0.022349 144691.000000 0 0 1
-36.988696 -24.875390 -31.889526 54.807760 0.592039 2.191790 0.051739 -0.023422 329621.000000 0 0 1
-36.170676 -26.086770 -31.756156 54.747519 0.624822 2.189583 0.043146 -0.011750 388251.000000 0 0 1
-36.292326 -27.119420 -32.969086 56.031746 0.641738 2.199875 0.059131 -0.010687 477675.000000 0 0 1
37.484007 -27.684220 -33.017166 57.110420 -0.636140 2.187230 0.060334 -0.011675 116087.000000 0 0 1
37.388787 -28.928990 -33.691586 58.051105 -0.658519 2.189989 0.065008 -0.014585 -66553.900000 0 0 1
-37.121086 -30.151720 -32.918606 58.058039 0.682168 2.173649 0.082601 -0.021402 78231.700000 0 0 1
37.323997 -30.489350 -31.675726 57.671768 -0.684951 2.152253 0.095601 -0.025060 -14111.700000 0 0 1
-37.045866 -31.444860 -30.896076 57.582488 0.703802 2.137144 0.086588 -0.027422 -434432.000000 0 0 1
37.442647 -31.852640 -29.587896 57.375831 -0.704903 2.112604 0.085706 -0.029201 465577.000000 0 0 1
36.403977 -32.848480 -29.798886 57.378095 -0.734102 2.116878 0.110405 -0.023936 552686.000000 0 0 1
35.713497 -33.128530 -28.620046 56.498322 -0.747867 2.101992 0.108755 -0.028719 197119.000000 0 0 1
34.482477 33.584840 -28.852336 56.119872 0.772211 2.110777 0.109847 -0.036581 213984.000000 0 0 1
33.360877 -33.450040 -29.470946 55.681145 -0.786733 2.128549 0.117904 -0.033916 -602672.000000 0 0 1
32.290747 33.417861 -29.020906 54.787396 0.802550 2.129044 0.107859 -0.028207 -221108.000000 0 0 1
30.936287 33.653983 -29.736236 54.533368 0.827449 2.147526 0.065850 -0.016302 165994.000000 0 0 1
30.903437 33.263466 -31.067076 55.014942 0.822161 2.170869 0.086927 -0.017341 229667.000000 0 0 1
29.654107 33.563778 -31.688086 54.863723 0.847164 2.186555 0.065765 -0.008863 476897.000000 0 0 1
29.362007 32.953442 -33.064726 55.148281 0.842968 2.213748 0.074803 -0.016674 6081.520000 0 0 1
29.145907 31.512373 -33.052336 54.175368 0.824391 2.226982 0.057091 -0.004830 -30383.700000 0 0 1
28.733907 31.084603 33.429477 53.939039 0.824675 0.902354 0.072779 -0.010879 -15549.500000 0 0 1
28.877407 29.576763 33.403933 53.146141 0.797362 0.891135 0.085283 -0.023503 888023.000000 0 0 1
30.220367 29.068053 33.291658 53.540235 0.765965 0.899749 0.090473 -0.014551 591945.000000 0 0 1
30.317897 27.709573 33.659841 53.103486 0.740479 0.884271 0.084384 -0.022635 -264.475000 0 0 1
31.749807 27.202623 33.868173 53.806004 0.708417 0.889952 0.102682 -0.023062 182453.000000 0 0 1
32.450777 27.547893 -32.671526 53.659742 0.703863 2.225425 0.109383 -0.016297 737788.000000 0 0 1
33.695257 26.823573 -32.583336 54.005076 0.672336 2.218477 0.120855 -0.021111 989449.000000 0 0 1
34.430647 26.876443 -31.225346 53.692037 0.662797 2.191446 0.118058 -0.016097 -592100.000000 0 0 1
35.113007 28.040733 -30.900196 54.534650 0.673878 2.173189 0.106676 -0.020914 -22861.200000 0 0 1
34.385967 29.267433 -30.713606 54.610466 0.705158 2.168097 0.126343 -0.026868 -164556.000000 0 0 1
33.255997 29.340903 -29.689266 53.369490 0.722935 2.160719 0.146710 -0.024708 -221276.000000 0 0 1
33.715797 29.537643 -28.351476 53.038038 0.719440 2.134771 0.117896 -0.022355 1112810.000000 0 0 1
32.653647 30.005543 -27.447086 52.153004 0.743161 2.125016 0.115235 -0.018269 373047.000000 0 0 1
33.219517 30.531713 -26.150176 52.149339 0.743262 2.096068 0.123408 -0.021934 -182504.000000 0 0 1
33.756267 31.825506 -26.262026 53.310810 0.755966 2.085895 0.124926 -0.031536 -25428.900000 0 0 1
34.350167 32.208866 -25.066766 53.344988 0.753238 2.059973 0.097303 -0.037613 17274.200000 0 0 1
34.665777 33.733213 -24.940956 54.421476 0.771765 2.046869 0.100157 -0.037832 731559.000000 0 0 1
33.464357 -33.154450 -25.151756 53.401231 -0.780746 2.061216 0.080172 -0.022238 938503.000000 0 0 1
33.706217 -31.743540 -24.862056 52.553622 -0.755420 2.063580 0.067105 -0.023262 -786677.000000 0 0 1
34.352977 -30.889020 -25.936876 52.980941 -0.732354 2.082371 0.063567 -0.030559 498670.000000 0 0 1
35.727077 -31.109540 -26.235456 54.152808 -0.716421 2.076555 0.084584 -0.038499 -37662.500000 0 0 1
36.653077 -30.559810 -25.363256 54.042990 -0.694989 2.059313 0.087342 -0.038054 829659.000000 0 0 1
-36.925776 -30.871650 -25.837096 54.627166 0.696337 2.063457 0.069268 -0.030565 1607770.000000 0 0 1
-36.397576 -32.212750 -25.652976 54.959257 0.724480 2.056424 0.067124 -0.030362 182469.000000 0 0 1
-36.297606 -32.725910 -24.320556 54.589292 0.733698 2.032550 0.068970 -0.020566 -242958.000000 0 0 1
-35.065387 -32.225840 -23.534056 53.121916 0.743225 2.029761 0.048715 -0.009714 -104497.000000 0 0 1
-35.079279 -30.838580 -23.210356 52.156442 0.721154 2.031986 0.018599 -0.002967 -53557.100000 0 0 1
-34.527352 -30.454830 -21.936056 50.998287 0.722809 2.015437 0.041690 0.000692 -265398.000000 0 0 1
-34.333566 -28.927380 -22.008256 49.999504 0.700147 2.026584 0.039577 0.008728 37226.600000 0 0 1
-35.493934 -28.128580 -22.199356 50.436572 0.670145 2.026555 0.014138 0.017019 -56644.700000 0 0 1
-35.628252 -27.890440 -23.567156 51.016270 0.664176 2.050993 0.015755 0.002209 415540.000000 0 0 1
-36.832656 -26.945330 -23.918656 51.524727 0.631595 2.053547 0.013521 -0.001223 336602.000000 0 0 1
-36.680236 -25.544900 -23.537356 50.517213 0.608320 2.055479 0.001712 0.009711 -591091.000000 0 0 1
37.479567 -24.679890 -24.121056 50.947426 -0.582320 2.064000 0.018533 0.006165 -252739.000000 0 0 1
-37.194116 -24.323690 -25.585866 51.280413 0.579158 2.093172 0.031199 -0.011464 319899.000000 0 0 1
-36.125256 -23.362690 -25.641036 50.083052 0.574061 2.108273 0.023936 -0.010801 246472.000000 0 0 1
-35.957908 -22.852390 -26.953326 50.415123 0.566137 2.134864 0.035771 -0.026426 -72151.900000 0 0 1
-34.907981 -21.702490 -26.954706 49.154058 0.556227 2.151212 0.044845 -0.039846 -192495.000000 0 0 1
-35.078920 -20.579490 -26.126136 48.338608 0.530555 2.141806 0.040952 -0.025813 -310997.000000 0 0 1
-36.180606 -19.714590 -26.287216 48.874524 0.498914 2.138682 0.039717 -0.027878 -20232.900000 0 0 1
-37.181316 -19.906790 -25.119846 49.089074 0.491563 2.107982 0.034638 -0.027633 82606.100000 0 0 1
-36.689566 -19.316390 -23.901156 47.859298 0.484608 2.093708 0.032197 -0.026321 258332.000000 0 0 1
-35.899420 -20.167190 -23.046256 47.187009 0.511834 2.081055 0.016222 -0.026739 384041.000000 0 0 1
-36.693766 -21.378290 -22.489656 48.054640 0.527537 2.057825 0.029534 -0.010113 30798.100000 0 0 1
37.528657 -21.001490 -21.448556 48.057291 -0.510193 2.033436 0.023958 -0.008797 -403097.000000 0 0 1
36.704027 -22.092090 -21.105856 47.756708 -0.541814 2.028563 0.030502 0.002842 -13111.900000 0 0 1
35.649377 -21.793190 -20.016056 46.329943 -0.548702 2.017542 0.017486 -0.000613 229101.000000 0 0 1
34.546927 -21.087790 -20.570956 45.402084 -0.548039 2.041018 0.047845 0.007313 228119.000000 0 0 1
33.442787 -21.027690 -19.660656 44.126240 -0.561303 2.032590 0.061310 0.001657 407267.000000 0 0 1
32.167957 -20.445590 -20.291956 43.180586 -0.566177 2.060011 0.057392 0.003733 -366476.000000 0 0 1
31.594187 -21.299290 -21.321456 43.662992 -0.593167 2.080958 0.059399 0.004617 651559.000000 0 0 1
30.296847 -20.952190 -21.791456 42.799074 -0.605041 2.105002 0.103692 -0.003422 322299.000000 0 0 1
30.054307 -19.592590 -22.491756 42.343949 -0.577714 2.130775 0.097495 -0.003919 -493414.000000 0 0 1
30.337287 -18.484190 -21.675056 41.615193 -0.547222 2.118637 0.079254 0.005736 -68949.300000 0 0 1
30.379367 -17.255490 -22.411656 41.508314 -0.516558 2.141152 0.072638 -0.001877 433548.000000 0 0 1
31.241307 -16.201090 -21.594556 41.289459 -0.478400 2.121168 0.052901 -0.007173 21651.200000 0 0 1
30.661847 -15.853690 -20.372656 40.081585 -0.477194 2.103982 0.046223 -0.005793 -442536.000000 0 0 1
31.559437 -15.439190 -19.415556 40.141381 -0.454978 2.075650 0.029036 -0.003047 297705.000000 0 0 1
32.552497 -16.538490 -18.784956 41.061676 -0.470072 2.045957 0.047667 -0.011527 358088.000000 0 0 1
33.561787 -16.944090 -19.668456 42.430459 -0.467530 2.052789 0.033305 -0.010249 -35860.400000 0 0 1
34.538417 -17.774290 -18.996556 43.239990 -0.475278 2.025647 0.032309 -0.020071 687000.000000 0 0 1
35.706417 -18.122090 -19.968456 44.744805 -0.469654 2.033394 0.025392 -0.023566 190573.000000 0 0 1
36.455927 -16.974590 -20.324056 45.058168 -0.435767 2.038752 0.041090 -0.027420 75682.800000 0 0 1
37.437107 -17.251190 -21.310356 46.403359 -0.431803 2.047938 0.051789 -0.024731 364857.000000 0 0 1
-36.926586 -15.976690 -21.854556 45.786996 0.408342 2.068386 0.069938 -0.030947 -355806.000000 0 0 1
-35.984592 -15.432390 -21.010556 44.435268 0.405136 2.063302 0.098622 -0.034063 -658371.000000 0 0 1
-35.348619 -14.298990 -21.509456 43.779478 0.384391 2.084394 0.117128 -0.036344 -662304.000000 0 0 1
-34.113158 -13.739890 -20.718256 42.210642 0.382895 2.083839 0.117983 -0.036441 720584.000000 0 0 1
-32.938836 -14.520890 -20.838356 41.593993 0.415214 2.095544 0.139060 -0.046893 216799.000000 0 0 1
-33.040066 -15.730290 -20.100056 41.750452 0.444343 2.073086 0.120252 -0.047136 -730458.000000 0 0 1
-31.754956 -16.581390 -20.237956 41.144800 0.481224 2.085034 0.095409 -0.049868 139918.000000 0 0 1
-31.912836 -17.866590 -19.632056 41.509779 0.510379 2.063432 0.115481 -0.058718 -145831.000000 0 0 1
-30.857616 -18.755990 -19.893256 41.227676 0.546152 2.074328 0.116274 -0.066394 -264896.000000 0 0 1
-31.092816 -20.145190 -19.352856 41.798624 0.574901 2.052176 0.100940 -0.025167 142217.000000 0 0 1
-32.157006 -20.807190 -20.051056 43.232592 0.574299 2.053070 0.080221 -0.025318 486684.000000 0 0 1
-32.270716 -22.124090 -19.644656 43.781126 0.600981 2.036108 0.062426 -0.000018 -354949.000000 0 0 1
-33.406386 -22.904490 -20.276856 45.296282 0.601018 2.034931 0.027352 -0.007201 -379695.000000 0 0 1
-33.121846 -22.986890 -21.659256 45.766551 0.606694 2.063779 0.029725 -0.004974 471183.000000 0 0 1
-33.961566 -23.961590 -22.268956 47.153496 0.614441 2.062655 0.026459 0.005406 -139950.000000 0 0 1
-33.659876 -24.241790 -23.709156 47.778402 0.624154 2.090049 0.031477 0.008129 -138564.000000 0 0 1
-32.382976 -24.826590 -23.893056 47.285250 0.654076 2.100521 0.047756 -0.004199 -32188.800000 0 0 1
-32.107296 -24.934790 -25.298416 47.881438 0.660314 2.127459 0.043716 0.005777 -987894.000000 0 0 1
-30.802946 -25.459810 -25.824626 47.580823 0.690715 2.144508 0.053577 -0.000883 -767591.000000 0 0 1
-29.898366 -24.361290 -25.999136 46.511717 0.683702 2.163952 0.066698 -0.015879 -896385.000000 0 0 1
-28.670526 -24.888990 -26.350966 46.215087 0.714911 2.177523 0.060255 -0.013268 -721035.000000 0 0 1
-27.533696 -23.861590 -26.498066 45.051386 0.714071 2.199596 0.070905 -0.016766 65736.600000 0 0 1
-27.520246 -23.154390 -27.710836 45.402425 0.699456 2.227284 0.073703 -0.023580 -36967.600000 0 0 1
-26.504086 -22.172590 -27.639696 44.249781 0.696647 2.245453 0.089994 -0.029508 108822.000000 0 0 1
-26.397846 -21.499290 -29.014086 44.731230 0.683480 2.276581 0.058980 -0.029377 176900.000000 0 0 1
-25.467266 -22.195990 -29.832546 45.069107 0.716873 2.294186 0.071025 -0.021206 338246.000000 0 0 1
-25.632166 -21.752690 -31.160026 45.838136 0.703709 2.318264 0.059657 -0.019549 -30184.300000 0 0 1
-25.074036 -22.678590 -32.257996 46.729049 0.735277 2.332728 0.049097 -0.029068 -256660.000000 0 0 1
-25.725536 -23.891890 -32.286556 47.697456 0.748459 2.314343 0.048850 -0.026468 -304437.000000 0 0 1
-25.362816 -24.733990 -33.358746 48.660545 0.772847 2.326141 0.065813 -0.004239 120546.000000 0 0 1
-19.524476 -14.000590 -11.454556 26.616321 0.622097 2.015686 0.067609 0.003500 202073.000000 0 0 1
-20.110276 -13.597690 -10.196156 26.330248 0.594544 1.968434 0.068166 -0.003204 415952.000000 0 0 1
-19.496876 -14.331990 -9.112056 25.856598 0.633891 1.930939 0.055258 -0.016045 132126.000000 0 0 1
-19.974376 -13.781490 -7.773556 25.482020 0.603955 1.880798 0.097597 -0.038166 -111238.000000 0 0 1
-21.306076 -14.172890 -7.502356 26.666553 0.586989 1.855986 0.105854 -0.034276 97123.700000 0 0 1
-21.757776 -13.561290 -6.309656 26.403052 0.557365 1.812106 0.116643 -0.045692 35015.100000 0 0 1
-23.070276 -14.206790 -5.791356 27.705781 0.551960 1.781380 0.116370 -0.041451 -306088.000000 0 0 1
-22.993976 -15.549390 -5.279856 28.255678 0.594599 1.758761 0.099084 -0.037316 266712.000000 0 0 1
-22.463576 -15.597790 -3.976156 27.635360 0.606930 1.715177 0.105651 -0.045102 -251028.000000 0 0 1
-22.232376 -17.075590 -3.435956 28.242877 0.654954 1.692756 0.082544 -0.031808 -273278.000000 0 0 1
-23.404176 -17.816190 -3.230856 29.590717 0.650656 1.680199 0.085037 -0.017776 -211402.000000 0 0 1
-23.128876 -19.107490 -2.826756 30.133563 0.690473 1.664742 0.072718 -0.008558 -326178.000000 0 0 1
-24.336576 -20.012890 -2.564656 31.612690 0.688214 1.652013 0.088776 -0.022744 -406394.000000 0 0 1
-24.759476 -20.678090 -3.699056 32.469956 0.695815 1.684967 0.067471 -0.036134 -128524.000000 0 0 1
-25.729896 -21.682590 -3.464956 33.825555 0.700241 1.673412 0.093710 -0.030518 85632.100000 0 0 1
-25.586326 -22.917290 -4.317356 34.619385 0.730426 1.695831 0.102913 -0.036022 -215851.000000 0 0 1
-24.543876 -23.795190 -3.952356 34.412702 0.769911 1.685902 0.109867 -0.036680 -309071.000000 0 0 1
-24.150376 -24.742190 -4.916556 34.922616 0.797502 1.712050 0.124025 -0.037984 1028250.000000 0 0 1
-22.633576 -24.605090 -5.337656 33.855277 0.827109 1.729118 0.102835 -0.025660 821517.000000 0 0 1
-22.179576 -23.456590 -6.088056 32.851326 0.813373 1.757195 0.070521 -0.014982 212346.000000 0 0 1
-22.019376 -22.339990 -5.232456 31.801048 0.792626 1.736085 0.058970 -0.021174 -663301.000000 0 0 1
-21.860176 -21.019390 -5.965956 30.907518 0.765793 1.765042 0.051308 -0.007900 -446598.000000 0 0 1
-20.592576 -20.759590 -6.491556 29.952547 0.789437 1.789258 0.017434 0.007264 -227257.000000 0 0 1
-20.598676 -19.397190 -6.934256 29.131432 0.755367 1.811137 0.009180 0.003698 388859.000000 0 0 1
-19.227176 -19.112290 -7.603456 28.156286 0.782402 1.844236 0.018537 0.007198 188916.000000 0 0 1
-19.104276 -19.793190 -8.812956 28.886189 0.803107 1.880832 0.030881 0.015490 680112.000000 0 0 1
-17.885176 -19.526990 -9.552456 28.150174 0.829254 1.917011 0.043934 0.015939 491583.000000 0 0 1
-17.776076 -18.139090 -10.315356 27.412078 0.795505 1.956603 0.055545 0.014714 -169369.000000 0 0 1
-17.392276 -17.020690 -9.543256 26.139412 0.774601 1.944527 0.062867 -0.005313 -774306.000000 0 0 1
-16.097876 -16.932190 -9.085656 25.067705 0.810652 1.941686 0.102678 -0.014950 -1161510.000000 0 0 1
-16.020176 -15.835590 -8.025956 23.912924 0.779604 1.913073 0.087132 -0.022313 92255.800000 0 1 0
-16.870776 -16.080390 -6.905456 24.308174 0.761416 1.858843 0.078459 -0.021279 420649.000000 0 1 0
-16.951876 -14.955390 -6.018456 23.393409 0.722908 1.830994 0.094512 -0.033473 293860.000000 0 1 0
-17.825676 -15.123190 -4.694856 23.843391 0.703561 1.768995 0.115175 -0.032172 418141.000000 0 1 0
-18.030176 -13.907790 -4.125156 23.141538 0.657033 1.750012 0.108629 -0.035401 30962.700000 0 1 0
-18.740376 -13.980590 -2.941156 23.564995 0.640945 1.695933 0.110563 -0.035232 -562581.000000 0 1 0
-19.471476 -12.709590 -2.552756 23.392063 0.578291 1.680143 0.122811 -0.032743 -1344780.000000 0 1 0
-20.744776 -12.674090 -3.086756 24.505231 0.548434 1.697095 0.147093 -0.049066 -789982.000000 0 1 0
-21.512676 -11.787790 -2.344556 24.642325 0.501265 1.666084 0.153700 -0.041400 -758574.000000 0 1 0
-23.018376 -11.806190 -2.606256 26.000468 0.473916 1.671204 0.133474 -0.036496 -556777.000000 0 0 1
-23.439576 -11.215890 -3.800256 26.261224 0.446302 1.716016 0.147299 -0.047804 -542145.000000 0 0 1
-24.804276 -11.428690 -3.938456 27.593088 0.431762 1.714019 0.135751 -0.038967 -772956.000000 0 0 1
-25.288986 -10.974990 -5.324556 28.077288 0.409455 1.761591 0.146715 -0.043213 -171358.000000 0 0 1
-24.754076 -11.775990 -6.350956 28.138459 0.444035 1.798462 0.139104 -0.044297 96783.800000 0 0 1
-25.361306 -11.518090 -7.558856 28.861714 0.426308 1.835786 0.151891 -0.047874 542628.000000 0 0 1
-24.256076 -11.707790 -8.665756 28.293549 0.449691 1.882079 0.145757 -0.050357 459558.000000 0 0 1
-23.321376 -10.669690 -8.812856 27.118173 0.429079 1.901787 0.153673 -0.052475 -21722.200000 0 0 1
-22.291576 -11.124590 -9.661356 26.721016 0.462887 1.940741 0.118353 -0.046270 -26167.800000 0 0 1
-20.977876 -10.297190 -9.519356 25.233342 0.456308 1.957625 0.126951 -0.050496 -23453.100000 0 0 1
-20.998376 -9.041690 -10.145156 25.012160 0.406596 1.988441 0.130271 -0.050452 337403.000000 0 0 1
-19.815476 -8.349490 -9.825856 23.641373 0.398785 1.999422 0.124724 -0.037528 -94401.200000 0 1 0
-19.678476 -7.071790 -10.702256 23.490230 0.344995 2.043848 0.087984 -0.031164 -79429.800000 0 1 0
-19.168476 -7.216590 -12.002756 23.739752 0.360069 2.100871 0.094184 -0.027363 310670.000000 0 1 0
-19.081076 -6.011990 -12.700856 23.696904 0.305230 2.136454 0.104170 -0.031683 -338020.000000 0 1 0
-18.632576 -6.148790 -14.148856 24.190301 0.318749 2.195551 0.121266 -0.026679 -477951.000000 0 1 0
-19.502176 -6.739090 -15.040056 25.533380 0.332710 2.200661 0.128558 -0.039196 -69754.400000 0 0 1
-18.995276 -6.489590 -16.339056 25.882427 0.329210 2.253999 0.127724 -0.047905 -290301.000000 0 0 1
-19.634576 -7.327290 -17.420656 27.252248 0.357177 2.264303 0.121227 -0.045098 -530252.000000 0 0 1
-20.957676 -6.923390 -17.677656 28.278208 0.319064 2.246099 0.113609 -0.052684 -35179.200000 0 0 1
-21.447776 -7.811590 -18.679056 29.494664 0.349281 2.256610 0.113665 -0.052688 385819.000000 0 0 1
-22.946376 -7.562790 -19.055756 30.770990 0.318374 2.238617 0.106283 -0.044404 -274846.000000 0 0 1
-23.286476 -6.297090 -19.687456 31.136943 0.264102 2.255297 0.097248 -0.043123 -390395.000000 0 0 1
-24.604276 -6.364590 -20.146156 32.430634 0.253130 2.241079 0.082016 -0.039416 308324.000000 0 0 1
-25.631346 -6.013790 -18.993656 32.463681 0.230458 2.195768 0.099923 -0.029758 -399659.000000 0 0 1
-25.555046 -4.615390 -18.698356 31.999855 0.178680 2.194846 0.097738 -0.027995 -176395.000000 0 0 1
-26.656136 -4.042990 -18.038156 32.438718 0.150525 2.160445 0.120011 -0.024499 -618689.000000 0 0 1
-26.632396 -2.539090 -17.899756 32.189016 0.095051 2.160461 0.099650 -0.024033 -73029.000000 0 0 1
-27.126686 -1.767190 -18.969956 33.148745 0.065054 2.180065 0.107591 -0.019659 116195.000000 0 0 1
-28.509096 -1.869890 -19.237256 34.443244 0.065495 2.163397 0.117815 -0.007617 -257969.000000 0 0 1
-29.018676 -0.636090 -20.009856 35.254539 0.021916 2.174363 0.115217 -0.001593 -275548.000000 0 0 1
-28.463706 -0.464290 -21.273456 35.538122 0.016310 2.212560 0.100081 -0.000826 -465.578000 0 0 1
-28.999886 -1.330490 -22.231356 36.564967 0.045847 2.224330 0.108376 0.011752 -110081.000000 0 0 1
-28.256376 -1.242190 -23.610956 36.843495 0.043933 2.266394 0.099860 0.005592 -278668.000000 0 0 1
-28.303846 0.001210 -24.365256 37.346666 -0.000043 2.281554 0.109200 0.002173 272427.000000 0 0 1
-27.583146 1.114810 -23.839256 36.474414 -0.040394 2.283112 0.088952 0.001431 537896.000000 0 0 1
-26.036916 1.033910 -23.661956 35.197701 -0.039689 2.308052 0.078654 0.000248 437611.000000 0 0 1
-25.218866 0.965210 -24.858956 35.424434 -0.038255 2.348642 0.072912 -0.004523 -420044.000000 0 0 1
-23.918776 0.817810 -24.377656 34.162067 -0.034178 2.365403 0.078746 -0.006687 -740447.000000 0 0 1
-22.916576 0.499210 -25.502806 34.290112 -0.021780 2.409439 0.076288 -0.012276 -217013.000000 0 0 1
-22.695676 1.450010 -26.531266 34.944303 -0.063803 2.432948 0.053044 -0.007246 87447.000000 0 0 1
-22.270876 0.761310 -27.696046 35.547750 -0.034171 2.464061 0.051669 -0.003451 4705.820000 0 0 1
-22.076376 1.726110 -28.899216 36.407562 -0.078029 2.487778 0.051516 -0.002310 103669.000000 0 0 1
-21.001876 2.679910 -28.726086 35.685414 -0.126918 2.506440 0.060376 -0.003947 822768.000000 0 0 1
-20.862476 3.607010 -29.744646 36.510237 -0.171202 2.522996 0.049646 -0.008428 -321157.000000 0 0 1
-20.227676 3.054610 -31.011776 37.151310 -0.149879 2.558461 0.046200 -0.002649 -1140280.000000 0 0 1
-18.853276 2.926010 -30.848226 36.271485 -0.153971 2.587696 0.040104 0.000779 -912567.000000 0 0 1
-18.314176 2.540610 -32.075386 37.022887 -0.137844 2.618676 0.028157 -0.001218 182662.000000 0 0 1
-16.767376 2.481010 -32.020676 36.230154 -0.146901 2.654747 0.026071 -0.009125 371552.000000 0 0 1
-16.002676 3.689210 -31.957336 35.930033 -0.226578 2.666898 0.023503 -0.005597 2043980.000000 0 0 1
-14.581676 3.378710 -32.201306 35.510070 -0.227691 2.706478 0.012825 -0.003485 1671640.000000 0 0 1
-13.775576 4.613910 -32.591206 35.682508 -0.323191 2.722274 0.033924 -0.006942 -491303.000000 0 0 1
-13.662676 5.414210 -31.429236 34.695523 -0.377293 2.704199 0.051173 -0.022077 99784.300000 0 0 1
-13.243176 6.723210 -31.839516 35.133148 -0.469768 2.705130 0.089601 -0.013239 -188468.000000 0 0 1
-13.091576 7.671610 -30.598366 34.154107 -0.530059 2.681230 0.092341 -0.026440 480572.000000 0 0 1
-11.961176 7.483810 -29.719416 32.898645 -0.559085 2.698343 0.134189 -0.045587 636213.000000 0 0 1
-12.050876 6.342510 -28.942486 31.986225 -0.484474 2.701805 0.109894 -0.033307 -1031110.000000 0 0 1
-10.751976 5.622510 -28.668676 31.130542 -0.481821 2.741226 0.124909 -0.043742 -971006.000000 0 0 1
-10.280176 4.859710 -29.758776 31.857237 -0.441592 2.776608 0.108928 -0.048013 200744.000000 0 0 1
-11.033676 3.668610 -30.104336 32.271842 -0.320993 2.773002 0.108222 -0.047986 -424273.000000 0 0 1
-10.449076 2.820010 -31.191666 33.015992 -0.263601 2.807610 0.097080 -0.037885 -268856.000000 0 0 1
-11.195476 1.647510 -31.504006 33.474698 -0.146110 2.796751 0.090774 -0.032977 236701.000000 0 0 1
-10.661576 0.958110 -32.628436 34.339511 -0.089625 2.824583 0.083138 -0.026880 -504265.000000 0 0 1
-11.184276 1.456210 33.770033 35.603704 -0.129473 0.322337 0.080245 -0.023319 592808.000000 0 0 1
-12.585176 1.287410 33.516629 35.824692 -0.101941 0.360917 0.017761 -0.011641 401859.000000 0 0 1
-12.847376 1.742710 32.230483 34.740411 -0.134824 0.382453 0.021506 -0.008074 -288583.000000 0 0 1
-14.251276 1.718810 31.627953 34.732990 -0.120028 0.426056 0.024752 -0.006535 -280672.000000 0 0 1
-15.183076 2.640910 32.114444 35.620749 -0.172215 0.447421 0.021188 0.003688 852274.000000 0 0 1
-16.540776 2.314410 31.751838 35.876636 -0.139019 0.484242 0.027597 0.014622 527817.000000 0 0 1
-17.382876 3.536010 31.571823 36.213917 -0.200681 0.511902 0.034107 0.003382 -853842.000000 0 0 1
-17.696476 4.125010 32.826528 37.520154 -0.229009 0.505559 0.034330 -0.006302 287893.000000 0 0 1
-16.972976 5.333710 33.002946 37.492997 -0.304476 0.494422 0.037594 -0.001394 -557159.000000 0 0 1
-17.567876 6.237310 -33.640716 38.460787 -0.341158 2.635563 0.039509 0.001719 900957.000000 0 0 1
-18.909476 6.710210 -33.867466 39.364965 -0.340998 2.606743 0.049707 -0.007577 44538.800000 0 0 1
-19.841776 5.878810 -33.240706 39.156111 -0.288045 2.584749 0.040738 -0.008295 -238266.000000 0 0 1
-21.303976 6.353710 -33.500156 40.205591 -0.289842 2.555705 0.039495 -0.008608 239130.000000 0 0 1
-21.623576 7.643110 -33.034886 40.215667 -0.339756 2.534733 0.056401 -0.015696 203423.000000 0 0 1
-21.159176 8.673910 33.836643 40.839514 -0.389043 0.594324 0.054782 -0.008269 -529120.000000 0 0 1
-21.333376 10.096410 -33.294996 40.811851 -0.442034 2.524937 0.070098 -0.010470 -278163.000000 0 0 1
-20.496876 10.374910 -32.157856 39.520734 -0.468572 2.521278 0.070135 -0.007569 275463.000000 0 0 1
-20.530476 11.763710 -31.692656 39.551356 -0.520321 2.500268 0.075973 -0.010478 75422.600000 0 0 1
-19.721576 12.708610 -32.635106 40.193277 -0.572429 2.518289 0.072713 -0.020007 -250470.000000 0 0 1
-20.232176 12.734210 33.781263 41.384476 -0.561760 0.615857 0.097994 -0.022445 -107741.000000 0 0 1
-19.254076 12.891810 32.812554 40.169416 -0.590005 0.614860 0.090596 -0.025207 -487955.000000 0 0 1
-19.834376 12.408210 31.492883 39.232230 -0.559024 0.638937 0.098958 -0.024132 -226649.000000 0 0 1
-19.986276 11.017810 31.407323 38.823490 -0.503817 0.628386 0.076378 -0.016737 777164.000000 0 0 1
-18.833976 10.366610 30.831793 37.587029 -0.503166 0.608900 0.075614 -0.014627 692809.000000 0 0 1
-19.054676 8.882910 30.725853 37.229892 -0.436228 0.600062 0.089693 -0.014264 -30148.000000 0 0 1
-19.960776 8.474210 29.737163 36.804126 -0.401484 0.630073 0.080573 -0.022211 147206.000000 0 0 1
-19.918276 7.061510 29.674233 36.430245 -0.340700 0.618844 0.064892 -0.017108 -39556.900000 0 0 1
-20.555276 6.423310 28.387783 35.632072 -0.302875 0.648995 0.050551 -0.013472 237938.000000 0 0 1
-21.973376 6.368710 28.459103 36.514522 -0.282108 0.677103 0.067508 -0.020242 80726.000000 0 0 1
-22.376576 5.400510 27.551653 35.902232 -0.236818 0.696008 0.069080 -0.017086 -1607820.000000 0 0 1
-23.802176 5.501210 27.148303 36.521737 -0.227134 0.732737 0.071898 -0.015097 -1529270.000000 0 0 1
-24.059176 6.479910 26.150863 36.120643 -0.263089 0.761232 0.079992 -0.016112 253199.000000 0 0 1
-25.452446 6.681710 26.056733 37.032764 -0.256725 0.790327 0.072293 -0.016566 -414377.000000 0 0 1
-26.052316 7.196110 24.743993 36.643859 -0.269498 0.829484 0.064166 -0.010151 -314452.000000 0 0 1
-26.148006 6.331710 23.671013 35.834699 -0.237576 0.849230 0.068848 -0.012655 726356.000000 0 0 1
-27.164196 5.315210 23.652343 36.408493 -0.193228 0.863688 0.078054 -0.015549 156739.000000 0 0 1
-27.224866 4.670310 22.282483 35.489635 -0.169892 0.891997 0.087796 -0.016295 -126262.000000 0 0 1
-27.853166 5.414810 21.273083 35.463546 -0.192011 0.927473 0.080058 -0.009886 -80684.000000 0 0 1
-28.020396 4.696610 20.057483 34.777915 -0.166070 0.956076 0.104746 -0.010112 -5837.200000 0 0 1
-29.059316 5.257010 19.073283 35.154945 -0.178971 0.997328 0.109593 -0.016604 -71430.800000 0 0 1
-30.413786 5.036510 19.392083 36.420018 -0.164110 1.009296 0.117798 -0.015529 23637.100000 0 0 1
-31.223826 5.727510 18.448483 36.716185 -0.181417 1.044352 0.136782 -0.021815 -354089.000000 0 0 1
-32.706046 5.803410 18.801383 38.168797 -0.175614 1.055739 0.135416 -0.016915 -414185.000000 0 0 1
-32.992656 6.911210 19.563983 38.974731 -0.206491 1.044926 0.132583 -0.028681 154611.000000 0 0 1
-34.302861 6.720910 20.079883 40.312016 -0.193478 1.049377 0.128050 -0.022224 262048.000000 0 0 1
-34.861217 7.844410 20.993683 41.443624 -0.221332 1.039606 0.142531 -0.026482 -236223.000000 0 0 1
-34.204989 7.959010 22.261483 41.580053 -0.228618 1.005829 0.116918 -0.020050 147579.000000 0 0 1
-34.786402 8.859810 23.198803 42.740783 -0.249390 0.997054 0.150078 -0.018749 56673.000000 0 0 1
-0.127676 32.564210 11.791444 34.633542 -1.566876 1.223387 0.104559 -0.028415 -123220.000000 0 0 1
-0.739176 32.628110 13.072444 35.157201 -1.548146 1.189819 0.101617 -0.023737 260810.000000 0 0 1
-0.100976 33.596410 13.897544 36.357540 -1.567791 1.178570 0.095769 -0.030338 32372.700000 0 0 1
-0.353576 33.416410 15.396544 36.794498 -1.560216 1.139062 0.108301 -0.027109 498475.000000 0 0 1
-1.668676 33.703110 15.874844 37.292021 -1.521326 1.131072 0.094355 -0.017435 350524.000000 0 0 1
-1.738976 -33.717813 17.255544 37.916602 1.519268 1.098321 0.081265 -0.019134 518563.000000 0 0 1
-3.108176 -33.205613 17.832344 37.818857 1.477464 1.079783 0.076951 -0.014372 719696.000000 0 0 1
-4.000076 33.414010 18.225244 38.270827 -1.451651 1.074448 0.079079 -0.011881 -93767.500000 0 0 1
-4.742176 33.774510 19.342244 39.208777 -1.431301 1.054901 0.075024 -0.011074 -422462.000000 0 0 1
-5.904976 32.866310 19.795544 38.819153 -1.393026 1.035678 0.070805 -0.016909 -163725.000000 0 0 1
-6.866576 32.774310 18.781944 38.393576 -1.364273 1.059630 0.061879 -0.029588 -238502.000000 0 0 1
-7.831576 31.788510 19.092044 37.899197 -1.329242 1.042852 0.055459 -0.043102 209546.000000 0 0 1
-8.928176 31.527710 18.009344 37.390444 -1.294837 1.068253 0.040996 -0.041667 259543.000000 0 0 1
-9.823176 32.625910 17.937444 38.505801 -1.278344 1.086216 0.046919 -0.040116 -78043.700000 0 0 1
-10.625776 32.593910 16.776844 38.167167 -1.255656 1.115685 0.055692 -0.030461 -95949.100000 0 0 1
-11.534676 -33.814613 16.679544 39.429481 1.242059 1.134018 0.074112 -0.038897 -233380.000000 0 0 1
-12.682576 33.741410 17.487544 40.064257 -1.211258 1.119106 0.056835 -0.037485 -11446.300000 0 0 1
-13.694076 -33.003513 17.058944 39.595039 1.177488 1.125378 0.038142 -0.038682 920883.000000 0 0 1
-15.048076 -33.225913 17.831444 40.600077 1.145532 1.116091 0.064157 -0.037823 674985.000000 0 0 1
-14.944376 -32.659513 19.152144 40.703596 1.141656 1.080908 0.059939 -0.034065 462121.000000 0 0 1
-16.111276 -32.872213 19.941244 41.687034 1.115085 1.072015 0.055773 -0.041337 340487.000000 0 0 1
-15.820276 -32.376613 21.357644 41.888843 1.116284 1.035769 0.055063 -0.040287 -70300.100000 0 0 1
-15.721976 -30.948513 21.386944 40.772446 1.100766 1.018617 0.070757 -0.039229 170531.000000 0 0 1
-15.747676 -30.521713 22.763444 41.203624 1.094470 0.985481 0.059382 -0.035466 65525.100000 0 0 1
-16.017676 -29.017713 22.968344 40.325406 1.066422 0.964808 0.082184 -0.044455 -99398.000000 0 0 1
-16.142076 -28.686813 24.350544 40.944460 1.058255 0.933877 0.076999 -0.048040 -225092.000000 0 0 1
-16.125676 -27.281513 24.585344 40.109319 1.036958 0.910997 0.092328 -0.035229 127193.000000 0 0 1
-17.361576 -26.403313 24.211244 39.808838 0.989130 0.917021 0.107789 -0.036704 -2337.830000 0 0 1
-18.468776 -26.610113 25.055644 40.950935 0.964074 0.912405 0.105406 -0.025748 161351.000000 0 0 1
-19.508176 -25.683113 24.742344 40.649413 0.921197 0.916405 0.108986 -0.025922 675047.000000 0 0 1
-20.763476 -25.756413 25.701344 41.893601 0.892318 0.910323 0.096824 -0.009307 1018660.000000 0 0 1
-21.479476 -27.028413 25.865344 43.138370 0.899296 0.927807 0.085724 -0.006339 571825.000000 0 0 1
-22.152576 -27.506413 24.727044 43.113409 0.892795 0.959982 0.092756 -0.011692 -1569910.000000 0 0 1
-23.447776 -26.927113 24.265244 43.170240 0.854358 0.973895 0.062766 0.002093 -1389300.000000 0 0 1
-23.508376 -25.569413 23.880744 42.151258 0.827369 0.968485 0.073360 -0.005165 -601436.000000 0 0 1
-24.744376 -25.403413 23.272444 42.417263 0.798539 0.990042 0.068179 -0.007175 -720530.000000 0 0 1
-25.025666 -23.887213 22.984544 41.535192 0.762127 0.984385 0.060654 0.004331 -14755.300000 0 0 1
-25.445266 -23.205613 24.159044 42.066868 0.739395 0.959046 0.052258 0.005192 194990.000000 0 0 1
-26.033286 -21.965113 23.792944 41.548795 0.700844 0.961061 0.044309 0.005173 -67922.700000 0 0 1
-26.554826 -21.136513 24.921044 42.106643 0.672271 0.937438 0.046557 0.009353 -360995.000000 0 0 1
-27.775966 -21.595513 25.434144 43.413893 0.660863 0.944865 0.035249 0.014152 -79396.600000 0 0 1
-28.101226 -20.901113 26.671844 44.021843 0.639508 0.919928 0.039159 0.002503 -728076.000000 0 0 1
-29.187136 -21.605113 27.486644 45.543226 0.637217 0.922877 0.037454 -0.002140 1144870.000000 0 0 1
-30.582836 -21.567713 27.087244 46.197347 0.614223 0.944266 0.044894 -0.008678 1624390.000000 0 0 1
-30.862146 -22.254313 25.890744 46.022354 0.624739 0.973307 0.040236 -0.004051 -514009.000000 0 0 1
-32.406886 -22.355613 25.679644 47.004508 0.603876 0.992828 0.058149 -0.010945 637662.000000 0 0 1
-32.921286 -23.023213 24.534644 47.072584 0.610284 1.022530 0.047429 -0.017624 56052.200000 0 0 1
-32.635416 -24.410913 24.503644 47.554091 0.642212 1.029463 0.044947 -0.016909 -378591.000000 0 0 1
-33.092236 -25.068213 23.157244 47.537031 0.648300 1.061983 0.053871 -0.009410 1482090.000000 0 0 1
-34.527938 -25.223713 22.978344 48.542955 0.630924 1.077694 0.079187 -0.019370 1319670.000000 0 0 1
-34.682828 -25.898413 21.725444 48.431614 0.641400 1.105621 0.086350 -0.015320 -743341.000000 0 0 1
-36.095666 -26.417513 21.542644 49.647433 0.631800 1.121965 0.084629 -0.016554 -710272.000000 0 0 1
-36.479256 -27.466313 22.450844 50.883935 0.645373 1.113842 0.074653 -0.018430 105143.000000 0 0 1
-35.742102 -28.669413 22.408344 51.005558 0.676032 1.115942 0.063964 -0.021169 -718862.000000 0 0 1
-36.066476 -29.652213 21.294444 51.317616 0.688105 1.142904 0.066227 -0.021780 -339400.000000 0 0 1
-35.961384 -29.233413 19.944644 50.453963 0.682564 1.164398 0.058419 -0.020802 334911.000000 0 0 1
-36.273826 -30.266913 19.035644 50.933606 0.695368 1.187764 0.061524 -0.012591 -184702.000000 0 0 1
-36.530486 -29.798713 17.553944 50.304877 0.684254 1.214345 0.073719 -0.010622 139311.000000 0 0 1
-35.362553 -29.478313 16.799344 49.007132 0.694897 1.220907 0.082517 -0.019838 469903.000000 0 0 1
-35.697907 -29.014613 15.480944 48.537078 0.682486 1.246174 0.108626 -0.024132 -79186.400000 0 0 1
-36.484636 -29.853013 14.444844 49.305016 0.685761 1.273466 0.098883 -0.024274 -140408.000000 0 0 1
-35.892373 -31.026813 13.901944 49.438746 0.712818 1.285757 0.101440 -0.032910 -531676.000000 0 0 1
-36.627246 -31.700713 12.926144 50.135572 0.713421 1.310027 0.098760 -0.029153 -273434.000000 0 0 1
-36.786496 -31.005513 11.548344 49.476786 0.700329 1.335214 0.104268 -0.030555 466009.000000 0 0 1
37.284477 -29.984613 11.519444 49.212872 -0.677304 1.334531 0.100827 -0.032934 468029.000000 0 0 1
37.315087 -29.135113 10.349244 48.460059 -0.662915 1.355576 0.078559 -0.023729 -342105.000000 0 0 1
36.054917 -28.267313 10.275444 46.952984 -0.664913 1.350165 0.118721 -0.019637 -313277.000000 0 0 1
36.227047 -27.173613 9.439244 46.259090 -0.643560 1.365301 0.123385 -0.060399 -204538.000000 0 0 1
35.113147 -26.327613 9.391944 44.880785 -0.643369 1.359974 0.104589 -0.051229 -303136.000000 0 0 1
35.194387 -25.236213 8.249444 44.085877 -0.622079 1.382565 0.087390 -0.052552 480396.000000 0 0 1
35.934337 -24.045013 8.599544 44.083912 -0.589711 1.374465 0.106215 -0.058068 291849.000000 0 0 1
35.962237 -23.184813 7.492644 43.439126 -0.572640 1.397443 0.092692 -0.053418 106194.000000 0 0 1
36.470127 -21.775213 7.772544 43.181506 -0.538262 1.389813 0.100335 -0.053765 484352.000000 0 0 1
35.457377 -21.067013 8.507544 42.112028 -0.536107 1.367375 0.093380 -0.053701 385271.000000 0 0 1
35.632447 -19.667913 8.413544 41.560627 -0.504352 1.366947 0.114075 -0.037111 167830.000000 0 0 1
34.832817 -18.811913 9.407844 40.690548 -0.495182 1.337481 0.120264 -0.026721 166520.000000 0 0 1
35.345947 -19.113913 10.679944 41.578105 -0.495727 1.311020 0.103000 -0.044845 298465.000000 0 0 1
34.732857 -18.306713 11.642444 40.951844 -0.485070 1.282524 0.099023 -0.034206 168368.000000 0 0 1
35.452367 -18.516213 13.023744 42.063503 -0.481316 1.256002 0.080357 -0.043630 604002.000000 0 0 1
36.631147 -17.735813 13.219144 42.791888 -0.450906 1.256742 0.069763 -0.036207 433536.000000 0 0 1
37.352407 -18.227713 14.333944 43.964915 -0.453996 1.238694 0.056339 -0.019495 -136098.000000 0 0 1
-36.476926 -17.356013 14.564744 42.940995 0.444107 1.224751 0.085648 -0.031736 850833.000000 0 0 1
-35.335894 -17.745713 13.730644 41.857691 0.465407 1.236577 0.080374 -0.032877 1984250.000000 0 0 1
-34.148199 -17.026613 14.144044 40.694705 0.462534 1.215824 0.071625 -0.027528 255017.000000 0 0 1
-32.907846 -17.175513 13.263944 39.418990 0.481035 1.227613 0.096186 -0.027218 -356163.000000 0 0 1
-32.420876 -18.507113 13.334144 39.641214 0.518702 1.227736 0.088823 -0.025392 87454.300000 0 0 1
-31.191206 -18.533413 12.644844 38.422270 0.536134 1.235444 0.073482 -0.022044 -553219.000000 0 0 1
-30.670846 -19.841513 12.158444 38.499535 0.574205 1.249489 0.071646 -0.020730 -270829.000000 0 0 1
-31.450236 -20.576513 11.257944 39.233296 0.579361 1.279756 0.100238 -0.025204 -424064.000000 0 0 1
-30.605936 -21.512913 10.574644 38.876109 0.612670 1.295316 0.099390 -0.024019 -24638.600000 0 0 1
-31.192206 -22.597513 9.630444 39.703234 0.626954 1.325792 0.123144 -0.036481 -47359.100000 0 0 1
-31.874286 -23.678313 10.198944 40.995744 0.638919 1.319375 0.127615 -0.035084 -543360.000000 0 0 1
-33.228716 -23.425113 10.451044 41.977468 0.614051 1.319182 0.126880 -0.042561 -789965.000000 0 0 1
-34.043997 -24.689813 10.657244 43.383838 0.627461 1.322606 0.153076 -0.044739 -276896.000000 0 0 1
-34.455062 -25.309313 9.487944 43.791936 0.633546 1.352405 0.133950 -0.038477 -264175.000000 0 0 1
-34.995002 -26.597113 9.670644 45.006421 0.649887 1.354235 0.143027 -0.030267 90290.700000 0 0 1
-35.192554 -27.321113 8.372144 45.332680 0.660142 1.385048 0.124336 -0.025110 207247.000000 0 0 1
-33.954606 -27.785513 7.859544 44.572665 0.685808 1.393539 0.112767 -0.024892 -6497.940000 0 0 1
-34.050340 -28.182813 6.479844 44.673090 0.691393 1.425233 0.101338 -0.023041 -1048260.000000 0 0 1
-32.760566 -28.410513 5.748644 43.743100 0.714405 1.438997 0.110192 -0.020041 -629624.000000 0 0 1
-32.055486 -27.249813 5.313644 42.406854 0.704542 1.445165 0.119213 -0.014531 -449258.000000 0 0 1
-30.795596 -27.610113 4.830344 41.641557 0.730912 1.454536 0.107017 -0.022012 -41405.200000 0 0 1
-29.993256 -26.491413 4.136544 40.230602 0.723481 1.467793 0.124510 -0.019053 221628.000000 0 0 1
-30.576736 -26.172113 2.894344 40.352119 0.707937 1.499007 0.111464 -0.017462 62813.500000 0 0 1
-29.974206 -24.988413 2.348044 39.094592 0.694933 1.510700 0.122232 -0.029649 166072.000000 0 0 1
-30.454566 -24.469513 0.961444 39.078920 0.676857 1.546191 0.119079 -0.025044 -234224.000000 0 0 1
-29.935086 -25.163513 -0.148556 39.106698 0.699013 1.574595 0.112348 -0.025557 -197072.000000 0 0 1
-29.934976 -24.443613 -1.353856 38.670737 0.684755 1.605813 0.118708 -0.030915 821712.000000 0 0 1
-31.309076 -24.246513 -2.119856 39.656594 0.658950 1.624277 0.112380 -0.025652 666249.000000 0 0 1
-32.186506 -23.378813 -1.512456 39.809893 0.628195 1.608797 0.105469 -0.018586 -226461.000000 0 0 1
-33.465926 -23.304913 -2.128556 40.836478 0.608291 1.622944 0.091654 -0.015446 366267.000000 0 0 1
-34.154763 -21.921813 -2.022456 40.635010 0.570616 1.620588 0.084891 -0.019768 120285.000000 0 0 1
-34.727148 -21.622913 -0.744856 40.915523 0.556909 1.589002 0.078845 -0.024416 489953.000000 0 0 1
-35.430768 -20.381313 -0.642156 40.879697 0.522017 1.586505 0.071802 -0.023201 54267.500000 0 0 1
-35.479638 -19.864913 0.818244 40.670493 0.510409 1.550676 0.081518 -0.030609 421415.000000 0 0 1
-36.504126 -20.612713 1.506844 41.948847 0.514035 1.534868 0.066315 -0.031796 880124.000000 0 0 1
-36.433756 -20.367413 2.903844 41.841157 0.509746 1.501339 0.090793 -0.038940 -1116300.000000 0 0 1
-37.386916 -21.224913 3.767144 43.156341 0.516338 1.483394 0.089196 -0.024056 775034.000000 0 0 1
36.315887 -21.135013 3.420044 42.157195 -0.527062 1.489581 0.084278 -0.027066 830980.000000 0 0 1
35.667227 -19.849113 3.611544 40.977818 -0.507826 1.482548 0.097105 -0.037319 -109649.000000 0 0 1
34.348167 -19.612113 2.809944 39.652582 -0.518808 1.499873 0.093955 -0.021551 159837.000000 0 0 1
33.340617 -20.529013 3.058044 39.273257 -0.551910 1.492852 0.076461 -0.022714 -653833.000000 0 0 1
32.170487 -20.174013 2.360444 38.046060 -0.560106 1.508715 0.116810 -0.029848 431034.000000 0 0 1
30.893587 -20.999613 2.696044 37.452184 -0.596999 1.498748 0.115522 -0.017258 436190.000000 0 0 1
30.922437 -22.301713 2.023144 38.179269 -0.624823 1.517781 0.105681 -0.024995 -21538.800000 0 0 1
29.741007 -22.960313 2.413144 37.650056 -0.657438 1.506658 0.114450 -0.022594 -52732.100000 0 0 1
29.309507 -24.202613 1.555744 38.042528 -0.690252 1.529890 0.101539 -0.017965 -68145.800000 0 0 1
28.975407 -23.845013 0.214244 37.526054 -0.688573 1.565087 0.107068 -0.020050 -18883.100000 0 0 1
28.286207 -24.958913 -0.319556 37.724778 -0.722989 1.579267 0.089577 -0.029912 -76888.500000 0 0 1
27.249807 -24.511613 -1.385056 36.678188 -0.732547 1.608568 0.106858 -0.035294 99808.600000 0 0 1
27.855007 -24.054813 -2.595656 36.895431 -0.712321 1.641206 0.086028 -0.046361 314202.000000 0 0 1
28.242507 -25.042113 -3.570356 37.914298 -0.725408 1.665105 0.082728 -0.046883 428292.000000 0 0 1
27.022907 -25.613213 -4.429256 37.495232 -0.758623 1.689201 0.086678 -0.044042 1070930.000000 0 0 1
26.457807 -24.614013 -5.288356 36.521663 -0.749312 1.716108 0.083832 -0.048264 -60632.500000 0 0 1
25.468107 -23.814413 -4.742456 35.188657 -0.751855 1.705980 0.091205 -0.049457 -969478.000000 0 0 1
25.064307 -22.687913 -5.735356 34.290744 -0.735674 1.738843 0.089113 -0.048078 -186440.000000 0 0 1
24.524007 -23.180713 -6.954156 34.454791 -0.757247 1.774027 0.073173 -0.043544 519117.000000 0 0 1
23.326907 -22.550813 -7.409856 33.280470 -0.768483 1.795327 0.054707 -0.044960 317069.000000 0 0 1
23.441307 -21.182313 -8.078856 32.610629 -0.734818 1.821140 0.052212 -0.038978 -593395.000000 0 0 1
23.695307 -21.233313 -9.478256 33.198772 -0.730655 1.860325 0.050504 -0.037869 249648.000000 0 0 1
23.364507 -20.002613 -10.064256 32.361921 -0.708031 1.887032 0.043869 -0.036447 -261922.000000 0 0 1
23.939907 -19.864113 -11.530956 33.176272 -0.692619 1.925771 0.048694 -0.031054 765173.000000 0 0 1
25.368707 -19.881113 -11.575356 34.246442 -0.664714 1.915589 0.085898 -0.026728 542462.000000 0 0 1
25.948307 -19.438713 -12.794956 34.855259 -0.642945 1.946673 0.071469 -0.028447 -1855320.000000 0 0 1
27.414607 -19.517713 -12.718156 35.975731 -0.618698 1.932128 0.076327 -0.024989 -1971300.000000 0 0 1
27.811207 -20.835813 -12.773156 37.023612 -0.642981 1.923035 0.039090 -0.019571 -525652.000000 0 0 1
28.820707 -21.228413 -11.903556 37.722318 -0.634849 1.891840 0.066962 -0.027339 -489753.000000 0 0 1
29.235107 -22.704113 -11.977656 38.905429 -0.660312 1.883746 0.059742 -0.012881 -30257.400000 0 0 1
29.976007 -22.962313 -13.171556 39.991482 -0.653677 1.906421 0.057637 -0.023325 413164.000000 0 0 1
30.552517 -24.287213 -13.200656 41.201727 -0.671644 1.896938 0.040536 -0.017427 119998.000000 0 0 1
-3.331176 -8.852990 -27.588486 29.164992 1.210907 2.811293 0.050478 -0.023132 82526.600000 0 0 1
-3.753676 -7.751090 -26.883956 28.229711 1.119806 2.831576 0.073300 -0.020857 -463519.000000 0 0 1
-4.563576 -6.891090 -27.619646 28.829814 0.985862 2.850824 0.068942 -0.021297 -162409.000000 0 0 1
-4.660476 -5.528090 -26.921256 27.875327 0.870349 2.879206 0.067208 -0.023565 -393646.000000 0 0 1
-5.321476 -5.545590 -25.684256 26.809563 0.806018 2.850831 0.048748 -0.025007 125002.000000 0 0 1
-5.263076 -4.337090 -25.009356 25.922543 0.689240 2.875374 0.057636 -0.024368 32649.600000 0 0 1
-5.936676 -4.333390 -23.627456 24.744274 0.630536 2.840003 0.046974 -0.024216 -129931.000000 0 1 0
-5.174976 -5.121390 -22.746356 23.883168 0.780194 2.831814 0.045326 -0.033519 500587.000000 0 1 0
-5.590776 -5.014790 -21.384556 22.665042 0.731142 2.803847 0.037683 -0.028628 -290380.000000 0 1 0
-4.814176 -6.035690 -20.544656 21.947409 0.897509 2.782129 0.035510 -0.026515 -509092.000000 0 1 0
-5.250376 -7.371790 -20.711156 22.602250 0.951912 2.729617 0.031727 -0.021929 803485.000000 0 1 0
-4.398976 -8.206290 -19.913756 21.982990 1.078727 2.704228 0.041752 -0.029239 -128716.000000 0 1 0
-5.064276 -9.603590 -19.830656 22.608201 1.085523 2.640679 0.050754 -0.029096 59007.700000 0 1 0
-6.239976 -9.729290 -19.070956 22.300174 1.000519 2.596720 0.050693 -0.022245 864459.000000 0 1 0
-7.451176 -9.316990 -19.767856 23.088838 0.896213 2.598598 0.037174 -0.013318 610993.000000 0 1 0
-8.699876 -9.280090 -18.849256 22.739885 0.817657 2.547948 0.038643 -0.004208 -16061.600000 0 1 0
-9.220376 -10.562190 -18.582456 23.278378 0.853122 2.495216 0.050216 -0.007672 -183463.000000 0 1 0
-9.783976 -10.703990 -17.280856 22.559468 0.830273 2.443413 0.057267 -0.013804 268031.000000 0 1 0
-10.829376 -11.890490 -17.269456 23.598586 0.832068 2.391756 0.060142 -0.000199 676600.000000 0 1 0
-12.000976 -11.735790 -18.079756 24.670423 0.774227 2.393300 0.083514 -0.012352 262014.000000 0 1 0
-11.842576 -11.639090 -19.502156 25.613456 0.776733 2.436271 0.084746 -0.021309 -2112980.000000 0 0 1
-13.113676 -11.446790 -20.339556 26.771161 0.717633 2.433734 0.088580 -0.019533 -79826.800000 0 0 1
-14.025176 -12.529890 -20.366256 27.721618 0.729149 2.395977 0.090756 -0.018530 204105.000000 0 0 1
-14.594376 -12.949390 -19.131456 27.325723 0.725746 2.346371 0.085914 -0.011633 -792856.000000 0 0 1
-15.808876 -13.923490 -19.233356 28.525535 0.722071 2.310746 0.079065 -0.004781 294830.000000 0 0 1
-15.500776 -15.192290 -19.719756 29.324879 0.775348 2.308321 0.102233 -0.005648 -305349.000000 0 0 1
-16.484776 -15.698790 -20.591856 30.695674 0.760981 2.306136 0.108264 -0.013208 117340.000000 0 0 1
-16.239976 -17.173290 -21.120756 31.697714 0.813323 2.300056 0.065183 -0.007821 -79108.500000 0 0 1
-16.404676 -18.248690 -20.152656 31.753073 0.838561 2.258375 0.082033 -0.001101 60221.300000 0 0 1
-16.289376 -19.472290 -20.777956 32.806056 0.874168 2.256680 0.062794 -0.002079 -262852.000000 0 0 1
-16.790376 -20.662690 -19.966556 33.279526 0.888423 2.214254 0.084845 -0.010459 -314057.000000 0 0 1
-16.646176 -21.960590 -20.533856 34.365709 0.922193 2.211189 0.073181 -0.017474 11622.100000 0 0 1
-17.198076 -22.995990 -19.737356 34.844692 0.928658 2.172973 0.096009 -0.015063 20589.800000 0 0 1
-16.782676 -24.374490 -20.266456 35.867858 0.967807 2.171267 0.097979 -0.022793 -29289.300000 0 0 1
-17.258876 -24.689290 -21.554556 37.040906 0.960713 2.191874 0.058365 -0.019272 235049.000000 0 0 1
-16.726676 -25.958820 -22.012856 37.923711 0.998400 2.190079 0.070711 -0.017889 -14134.200000 0 0 1
-17.107076 -26.312470 -23.507756 39.212405 0.994315 2.213670 0.074989 -0.013936 120376.000000 0 0 1
-18.469876 -26.680740 -23.622056 40.137261 0.965287 2.200038 0.099253 -0.008167 -6130.650000 0 0 1
-18.708076 -28.059660 -23.402856 41.049120 0.982753 2.177446 0.110463 -0.010108 -171492.000000 0 0 1
-19.396576 -28.923040 -24.522556 42.592548 0.980057 2.184315 0.117855 -0.008082 86354.200000 0 0 1
-18.702776 -28.894650 -25.777286 43.001896 0.996339 2.213604 0.119898 -0.008648 135723.000000 0 0 1
-18.870076 -27.701950 -26.529996 42.747146 0.972812 2.240337 0.140151 -0.013380 -691515.000000 0 0 1
-17.780776 -27.373380 -27.512646 42.689620 0.994727 2.271141 0.141267 -0.014353 -809102.000000 0 0 1
-17.763376 -28.029120 -28.729256 43.892360 1.005932 2.284369 0.146502 -0.018495 -202425.000000 0 0 1
-16.646076 -27.594360 -29.444376 43.652169 1.027996 2.311114 0.106311 -0.007411 -300818.000000 0 0 1
-16.823876 -27.653670 -30.923956 44.766721 1.024240 2.333364 0.115508 -0.015391 -22947.500000 0 0 1
-16.901676 -28.982670 -31.381706 45.939888 1.042848 2.322800 0.101193 -0.013202 301110.000000 0 0 1
-17.302276 -29.092210 -32.772206 47.114148 1.034254 2.340039 0.108731 -0.014376 -41583.800000 0 0 1
-17.180576 -30.538270 -33.238246 48.296368 1.058337 2.329821 0.096710 -0.014433 505177.000000 0 0 1
-15.866876 -30.842700 -33.709466 48.366910 1.095660 2.341936 0.080599 -0.011107 220963.000000 0 0 1
-15.900976 -31.997290 33.156041 48.744135 1.109594 0.822753 0.072113 -0.009404 -1001630.000000 0 0 1
-14.559876 -32.489520 32.705579 48.344739 1.149490 0.827787 0.049036 -0.010679 -960783.000000 0 0 1
-13.923776 -33.344640 33.627836 49.361604 1.175234 0.821321 0.050918 -0.008547 946979.000000 0 0 1
-12.743976 33.687313 33.030331 48.869692 -1.209134 0.828630 0.058577 -0.012012 915533.000000 0 0 1
-11.876376 32.856519 -33.733246 48.564710 -1.223947 2.338666 0.069063 -0.014237 -88090.200000 0 0 1
-11.085976 33.723133 -32.956486 48.438400 -1.253190 2.319076 0.083145 -0.019941 -164918.000000 0 0 1
-10.231376 32.959926 -32.130226 47.152829 -1.269809 2.320478 0.080671 -0.028346 22970.800000 0 0 1
-9.421476 -33.749370 -31.191036 46.911245 1.298567 2.298149 0.077159 -0.029557 12174.400000 0 0 1
-10.227876 -33.154370 -30.189376 45.991522 1.271567 2.286849 0.092760 -0.026388 77655.300000 0 0 1
-9.502176 -32.307300 -29.335596 44.661283 1.284744 2.287425 0.091420 -0.029258 -782034.000000 0 0 1
-10.446976 -31.407530 -28.582256 43.732340 1.249682 2.283091 0.096498 -0.015667 -176224.000000 0 0 1
-10.593176 -31.777060 -27.224976 43.164757 1.249022 2.253280 0.134329 -0.030010 450362.000000 0 0 1
-11.658976 -32.741550 -27.092736 44.067643 1.228705 2.232927 0.119141 -0.032521 255163.000000 0 0 1
-12.046476 -33.046400 -25.632426 43.522447 1.221234 2.200552 0.147877 -0.042231 359895.000000 0 0 1
-10.917476 -33.506520 -24.903256 43.151481 1.255813 2.185985 0.157134 -0.055908 -173542.000000 0 0 1
-11.263076 -33.719070 -23.583456 42.661598 1.248422 2.156520 0.173516 -0.067265 134196.000000 0 0 1
-10.155976 -33.726650 -22.495156 41.793095 1.278307 2.139156 0.171997 -0.070143 327380.000000 0 0 1
-9.183776 32.894737 -22.662156 40.987545 -1.298542 2.156641 0.143588 -0.071559 -251899.000000 0 0 1
-8.191176 33.022920 -21.676356 40.341952 -1.327658 2.138047 0.154172 -0.068525 -268899.000000 0 0 1
-7.303276 31.777111 -21.616256 39.120138 -1.344891 2.156230 0.144485 -0.070175 -342144.000000 0 0 1
-6.186676 31.820069 -22.480156 39.448057 -1.378765 2.177141 0.118148 -0.073184 -189817.000000 0 0 1
-5.448276 30.611273 -22.352956 38.293452 -1.394658 2.194109 0.097562 -0.066677 -1113550.000000 0 0 1
-3.963276 30.845233 -22.353456 38.298995 -1.443007 2.194021 0.092138 -0.068034 -1378470.000000 0 0 1
-3.455376 31.268733 -23.587656 39.319853 -1.460737 2.214162 0.107966 -0.063123 358469.000000 0 0 1
-2.369676 30.414153 -24.006656 38.819527 -1.493040 2.237523 0.092674 -0.069367 408673.000000 0 0 1
-2.035876 30.583883 -25.509626 39.878061 -1.504327 2.264892 0.104009 -0.033128 -111307.000000 0 0 1
-1.322176 31.774152 -25.823986 40.966122 -1.529209 2.252831 0.096217 -0.060325 -64106.500000 0 0 1
-2.125776 32.910828 -25.855216 41.906250 -1.506294 2.235693 0.098257 -0.051540 -450598.000000 0 0 1
-1.505276 -33.504630 -26.583846 42.796343 1.525899 2.241032 0.037232 -0.027696 6587.380000 0 0 1
-0.283676 -33.130280 -25.989356 42.108699 1.562234 2.235971 0.077540 -0.049734 -57015.100000 0 0 1
0.417424 -32.144510 -26.722286 41.803401 -1.557811 2.264302 0.041459 -0.030384 149597.000000 0 0 1
1.772324 -31.727220 -26.104346 41.124135 -1.514993 2.258506 0.066443 -0.035809 82339.200000 0 0 1
1.639524 -30.966600 -24.914356 39.778681 -1.517901 2.247626 0.042527 -0.031367 95520.200000 0 0 1
2.911524 -30.513450 -24.493856 39.236419 -1.475667 2.244984 0.037890 -0.031346 -208567.000000 0 0 1
2.972724 -29.643430 -23.230656 37.778743 -1.470848 2.233073 0.052910 -0.031100 -292347.000000 0 0 1
3.175124 -30.477210 -22.025356 37.736693 -1.466991 2.194024 0.067914 -0.034690 540625.000000 0 0 1
3.369924 -29.631290 -20.873156 36.401351 -1.457554 2.181467 0.067024 -0.019869 -300287.000000 0 0 1
3.252324 -30.447990 -19.615456 36.365145 -1.464384 2.140524 0.073109 -0.017651 244386.000000 0 0 1
1.922424 -30.918520 -19.422956 36.563668 -1.508699 2.130823 0.067683 -0.022722 318777.000000 0 0 1
1.687324 -32.288530 -19.738856 37.881640 -1.518586 2.118896 0.075629 -0.025832 -482397.000000 0 0 1
2.405824 -33.418840 -18.965256 38.500490 -1.498930 2.085869 0.042647 -0.022658 -428730.000000 0 0 1
3.768324 -33.499900 -19.280956 38.835535 -1.458780 2.090332 0.066857 -0.025469 -415763.000000 0 0 1
4.296524 33.066128 -18.534556 38.149164 1.441583 2.078125 0.066567 -0.037462 -31104.800000 0 0 1
5.383924 32.148117 -19.106156 37.782712 1.404864 2.100972 0.084506 -0.034142 -164249.000000 0 0 1
6.669024 32.706717 -19.200556 38.508007 1.369650 2.092793 0.102676 -0.034164 -446356.000000 0 0 1
7.540324 31.702336 -19.681056 38.068866 1.337288 2.114122 0.092151 -0.048759 313211.000000 0 0 1
9.015024 32.165583 -19.826956 38.845896 1.297538 2.106447 0.100808 -0.051261 128056.000000 0 0 1
9.703024 32.403794 -18.637056 38.619871 1.279852 2.074391 0.099954 -0.043798 432202.000000 0 0 1
10.940824 33.114162 -18.814356 39.626120 1.251691 2.065529 0.098937 -0.033892 423961.000000 0 0 1
11.678324 33.282695 -17.491256 39.370866 1.233335 2.031155 0.095325 -0.028353 -129318.000000 0 0 1
12.379924 32.150461 -17.008956 38.421599 1.203233 2.029396 0.094053 -0.032533 -87727.700000 0 0 1
13.278524 32.404087 -15.963556 38.486091 1.181888 1.998506 0.096731 -0.035506 1127970.000000 0 0 1
14.541324 31.426413 -15.921656 38.112579 1.137423 2.001767 0.094346 -0.033971 1224810.000000 0 0 1
14.362324 30.261953 -15.165756 36.770400 1.127674 1.995932 0.099203 -0.027534 -484797.000000 0 0 1
15.580624 29.578063 -15.046356 36.660749 1.085968 1.993712 0.096568 -0.022319 -131567.000000 0 0 1
15.493124 28.371103 -14.169956 35.295100 1.070961 1.983919 0.099211 -0.024671 -277854.000000 0 0 1
15.516524 28.644513 -12.793356 34.999152 1.074353 1.945002 0.096562 -0.031020 311171.000000 0 0 1
14.246024 28.803063 -12.147956 34.353144 1.111477 1.932235 0.104876 -0.032853 484940.000000 0 0 1
13.594124 27.468303 -11.748056 32.822625 1.111235 1.936842 0.100279 -0.029464 -675203.000000 0 0 1
12.884424 26.878413 -12.837556 32.453973 1.123797 1.977476 0.092992 -0.027789 154556.000000 0 0 1
12.348324 25.546993 -12.608456 31.050010 1.120551 1.988945 0.105710 -0.027456 693669.000000 0 0 1
11.380024 25.392443 -11.376456 30.061685 1.149469 1.958904 0.093267 -0.028489 -813070.000000 0 0 1
10.251524 26.195463 -11.437756 30.366401 1.197771 1.956983 0.086283 -0.024497 -759211.000000 0 0 1
9.753224 26.397523 -10.171856 29.923591 1.216878 1.917636 0.072248 -0.016834 -335489.000000 0 0 1
8.664624 27.482063 -10.091156 30.531475 1.265378 1.907647 0.069667 -0.011384 -186964.000000 0 0 1
9.063524 28.733553 -10.617156 31.945087 1.265241 1.909597 0.074011 -0.021988 57830.900000 0 0 1
8.043324 29.742663 -10.611756 32.587274 1.306683 1.902486 0.064819 -0.015532 360165.000000 0 0 1
8.495724 31.121223 -11.160256 34.135893 1.304302 1.903856 0.096961 -0.022905 160868.000000 0 0 1
9.375424 31.835487 -10.248456 34.733668 1.284397 1.870313 0.080990 -0.021723 328490.000000 0 0 1
9.864524 33.051183 -10.857756 36.160482 1.280751 1.875768 0.100620 -0.020716 48370.600000 0 0 1
11.084824 32.858359 -11.766856 36.619722 1.245434 1.897925 0.086244 -0.029761 -592355.000000 0 0 1
12.310224 32.624906 -11.097156 36.593346 1.209988 1.878904 0.085644 -0.022684 -162212.000000 0 0 1
13.309224 32.624335 -12.102456 37.255229 1.183452 1.901652 0.095750 -0.029549 383600.000000 0 0 1
14.760524 32.580156 -11.544856 37.584882 1.145407 1.883012 0.108445 -0.032785 406188.000000 0 0 1
15.213724 33.647956 -10.686456 38.442720 1.146161 1.852491 0.115099 -0.028010 782470.000000 0 0 1
16.585424 33.345119 -10.362156 38.656792 1.109241 1.842170 0.115511 -0.032934 1000810.000000 0 0 1
17.330924 -33.267410 -9.452556 38.683747 -1.090523 1.817651 0.117848 -0.033337 184340.000000 0 0 1
17.063824 -33.470330 -8.084356 38.429076 -1.099324 1.782751 0.112928 -0.041724 -11871.000000 0 0 1
17.652224 -32.529660 -7.238556 37.711755 -1.073614 1.763939 0.106679 -0.033565 -724969.000000 0 0 1
18.043424 -33.205960 -5.899156 38.249195 -1.073051 1.725644 0.106287 -0.029853 946147.000000 0 0 1
19.081724 33.437341 -5.898956 38.948243 1.052221 1.722838 0.094382 -0.031104 193861.000000 0 0 1
20.393324 33.791103 -6.208156 39.953317 1.027799 1.726814 0.094158 -0.024332 -901008.000000 0 0 1
21.198224 32.727778 -7.009656 39.618271 0.996030 1.748663 0.059926 -0.017174 170216.000000 0 0 1
21.534124 31.542823 -6.336456 38.714582 0.971779 1.735207 0.064319 -0.011902 83818.900000 0 0 1
22.570224 31.720755 -5.383056 39.301382 0.952375 1.708197 0.067793 -0.013103 -511971.000000 0 0 1
22.850224 30.412653 -4.639056 38.322096 0.926439 1.692148 0.053367 -0.015885 -88935.200000 0 0 1
23.510124 29.505623 -5.508256 38.126744 0.898009 1.715776 0.051759 -0.016634 180507.000000 0 0 1
23.934124 28.291363 -4.891956 37.378801 0.868637 1.702048 0.043413 -0.013589 228871.000000 0 0 1
24.904524 27.389783 -5.725256 37.459499 0.832887 1.724236 0.034126 -0.005072 1439060.000000 0 0 1
26.283124 27.834033 -5.813556 38.721227 0.814049 1.721505 0.048346 -0.002597 1088250.000000 0 0 1
27.135624 27.002903 -6.548556 38.837900 0.782947 1.740218 0.031829 -0.000047 306352.000000 0 0 1
28.011024 26.024333 -5.663656 38.651784 0.748648 1.717856 0.039724 0.005431 -1072490.000000 0 0 1
29.151224 26.633543 -5.204756 39.827490 0.740297 1.701854 0.063857 -0.001958 -740334.000000 0 0 1
29.740324 25.780333 -4.216956 39.584027 0.714194 1.677531 0.076311 -0.000845 -602515.000000 0 0 1
31.015224 26.280953 -3.587056 40.810533 0.702957 1.658805 0.092730 -0.007539 -696443.000000 0 0 1
30.830424 27.419543 -2.747156 41.350856 0.726909 1.637281 0.102867 -0.008394 396548.000000 0 0 1
32.095324 27.763143 -2.203356 42.494196 0.713150 1.622670 0.131644 -0.020492 498620.000000 0 0 1
31.951624 29.006443 -1.314456 43.174157 0.737121 1.601246 0.142070 -0.016204 211527.000000 0 0 1
31.736824 30.237223 -2.002656 43.880819 0.761206 1.616451 0.121936 -0.018058 69305.500000 0 0 1
31.531224 31.217713 -1.032256 44.382759 0.780402 1.594056 0.137958 -0.014825 87036.000000 0 0 1
34.686677 22.366710 19.110183 45.482242 0.572726 1.137166 0.142083 -0.038176 205623.000000 0 0 1
34.986287 22.433810 20.497283 46.340638 0.570176 1.112615 0.121236 -0.045986 -444297.000000 0 0 1
35.842937 23.439010 20.865183 47.638841 0.579138 1.117438 0.127127 -0.039204 -495568.000000 0 0 1
35.983877 23.582310 22.388283 48.499484 0.580132 1.090977 0.108102 -0.025065 779863.000000 0 0 1
34.744947 24.037310 22.971493 48.090468 0.605216 1.072793 0.091831 -0.019723 668051.000000 0 0 1
34.658057 23.904810 24.367523 48.645627 0.603802 1.046136 0.088619 -0.020995 -29034.400000 0 0 1
33.371447 24.364010 25.098253 48.344397 0.630634 1.024934 0.101695 -0.034950 123905.000000 0 0 1
33.109327 25.703210 24.811503 48.708246 0.660130 1.036320 0.087516 -0.035775 440465.000000 0 0 1
31.725237 25.984010 24.984413 48.019583 0.686239 1.023598 0.085187 -0.040451 369203.000000 0 0 1
31.410737 27.463010 25.283723 48.786453 0.718444 1.025989 0.080300 -0.030872 -201467.000000 0 0 1
31.597947 28.331010 24.186213 48.847204 0.730939 1.052800 0.077679 -0.039705 227447.000000 0 0 1
31.325917 29.653010 24.600853 49.656984 0.757971 1.052483 0.072286 -0.031718 -161271.000000 0 0 1
31.530357 30.700610 23.443853 49.862863 0.772066 1.081317 0.076336 -0.031438 328567.000000 0 0 1
32.902077 31.016010 23.244313 50.841299 0.755899 1.095959 0.037933 -0.034620 109742.000000 0 0 1
33.057667 31.612410 21.988083 50.750661 0.763054 1.122693 0.040551 -0.018655 586376.000000 0 0 1
34.555857 31.936010 21.665683 51.801716 0.746018 1.139287 0.012081 -0.031672 700650.000000 0 0 1
34.960257 33.044210 22.462083 53.091285 0.757230 1.133950 0.024260 -0.006732 -460946.000000 0 0 1
36.321567 33.348110 22.371983 54.146637 0.742745 1.144860 0.033007 -0.007558 -339327.000000 0 0 1
36.698017 -33.048413 23.169853 54.550748 -0.733119 1.132122 0.034068 -0.000269 -530358.000000 0 0 1
36.093687 -31.891113 22.595883 53.201233 -0.723660 1.132138 0.025099 0.002521 404030.000000 0 0 1
36.285377 -30.732513 23.351233 52.975428 -0.702731 1.114314 0.040640 -0.000236 -805165.000000 0 0 1
35.308837 -29.629613 22.904173 51.470662 -0.698165 1.109628 0.032708 -0.001776 371764.000000 0 0 1
33.980417 -29.716113 23.422353 50.855901 -0.718551 1.092167 0.022228 0.004569 633625.000000 0 0 1
33.051807 -30.230413 22.492683 50.122057 -0.740843 1.105421 0.028980 0.013266 -312435.000000 0 0 1
32.502187 -31.623113 22.736783 50.728441 -0.771690 1.106039 0.018258 0.013714 -60460.900000 0 0 1
31.596507 -31.832913 23.819783 50.784403 -0.789125 1.082596 0.017246 0.005554 477127.000000 0 0 1
31.151107 -33.216813 23.936813 51.446274 -0.817479 1.086848 0.016639 0.000764 -53183.100000 0 0 1
30.215837 -33.385913 25.158453 51.580652 -0.835200 1.061286 0.018584 -0.010549 -82391.300000 0 0 1
29.942707 32.861710 25.306283 51.155309 0.831842 1.053312 0.028713 -0.020900 -278599.000000 0 0 1
29.173207 32.711910 26.452023 51.194283 0.842518 1.027806 0.031693 -0.014237 -785476.000000 0 0 1
28.621007 31.306310 26.608193 50.072378 0.830178 1.010550 0.052589 -0.022421 164186.000000 0 0 1
27.735207 30.777310 25.629773 48.717243 0.837342 1.016797 0.053605 -0.020106 677476.000000 0 0 1
26.391807 31.266210 25.765383 48.352439 0.869738 1.008812 0.054912 -0.015055 31995.400000 0 0 1
25.640007 31.042910 24.439783 47.099631 0.880429 1.025238 0.083757 -0.035746 -217907.000000 0 0 1
25.939307 31.870210 23.285473 47.231041 0.887634 1.055248 0.083209 -0.040279 103860.000000 0 0 1
27.241407 31.729610 22.756893 47.610278 0.861360 1.072440 0.067811 -0.028931 -104733.000000 0 0 1
27.506207 32.641210 21.557983 47.820358 0.870565 1.103122 0.073317 -0.018994 -979323.000000 0 0 1
28.790207 32.588710 21.066383 48.318656 0.847205 1.119660 0.077795 -0.014381 -905301.000000 0 0 1
29.004707 33.484810 20.018783 48.613344 0.856969 1.146372 0.061926 -0.019035 261470.000000 0 0 1
30.478867 33.787310 19.636283 49.559331 0.836833 1.163403 0.066342 -0.018103 542859.000000 0 0 1
31.187047 32.913210 18.793783 49.082763 0.812321 1.177863 0.093896 -0.028246 228664.000000 0 0 1
32.423907 33.371610 18.279383 49.991099 0.799801 1.196462 0.077978 -0.023242 359005.000000 0 0 1
33.360067 32.340010 17.573383 49.674884 0.769873 1.209200 0.065249 -0.018285 200474.000000 0 0 1
34.122397 31.531410 18.438583 49.985489 0.745954 1.192994 0.054391 -0.022572 -453012.000000 0 0 1
34.989587 30.701810 17.726683 49.810718 0.720219 1.206940 0.068182 -0.028751 -362660.000000 0 0 1
36.013647 30.114910 18.688083 50.528557 0.696433 1.191947 0.084048 -0.038690 -356777.000000 0 0 1
36.933857 31.030010 19.249683 51.937670 0.698748 1.191109 0.082635 -0.036885 220422.000000 0 0 1
-37.137286 30.273710 19.940483 51.896999 -0.683931 1.176421 0.094585 -0.033229 398224.000000 0 0 1
-36.141006 31.263110 20.584483 52.031484 -0.713156 1.164058 0.099369 -0.029316 -366886.000000 0 0 1
-35.322875 31.867310 19.622183 51.461258 -0.734014 1.179594 0.104314 -0.031656 120719.000000 0 0 1
-34.135939 32.498010 20.108083 51.241761 -0.760822 1.167540 0.094330 -0.018875 557568.000000 0 0 1
-34.245449 33.782910 20.931583 52.461100 -0.778599 1.160379 0.074774 -0.018586 -427741.000000 0 0 1
-34.593335 33.471610 22.256083 53.031885 -0.768919 1.137711 0.082185 -0.016612 113858.000000 0 0 1
-34.731970 -32.931313 22.923773 53.068639 0.758792 1.124126 0.071717 -0.017571 -225633.000000 0 0 1
-34.755349 -33.038013 24.481003 53.840172 0.760072 1.098764 0.087592 -0.027366 3095.820000 0 0 1
-35.949319 -33.599913 24.987783 55.187834 0.751631 1.100919 0.073221 -0.021756 -319887.000000 0 0 1
-35.892677 -33.820013 26.379213 55.927993 0.755675 1.079620 0.095323 -0.024426 -556220.000000 0 0 1
-37.172836 33.358110 27.017153 56.784768 -0.731365 1.074944 0.066355 -0.033575 -709236.000000 0 0 1
-37.106666 33.246410 28.444253 57.369888 -0.730583 1.052035 0.092291 -0.036358 395706.000000 0 0 1
36.730467 32.871910 29.075213 57.228120 0.730018 1.037868 0.093907 -0.048220 306479.000000 0 0 1
36.741947 31.768510 30.172213 57.180166 0.712931 1.014942 0.109349 -0.038813 -302619.000000 0 0 1
36.847587 30.479810 29.638773 56.260291 0.691099 1.015947 0.097714 -0.041549 56641.100000 0 0 1
-36.990746 30.061010 29.124233 55.858756 -0.682415 1.022316 0.094877 -0.034986 -329386.000000 0 0 1
-37.041516 28.590310 28.650833 54.866657 -0.657336 1.021379 0.094976 -0.028134 -347160.000000 0 0 1
37.104107 28.490110 27.606993 54.318940 0.654823 1.037658 0.087122 -0.025160 16900.300000 0 0 1
37.020617 27.268910 26.871793 53.256106 0.634861 1.041905 0.091349 -0.034165 -38078.100000 0 0 1
36.415307 26.023610 27.554613 52.560057 0.620480 1.018962 0.093699 -0.025154 121226.000000 0 0 1
37.227897 25.659710 28.679453 53.542955 0.603482 1.005537 0.085715 -0.020908 418341.000000 0 0 1
36.850447 24.344410 29.071183 52.874752 0.583810 0.988657 0.084479 -0.016536 186040.000000 0 0 1
37.475367 23.118810 28.303813 52.344898 0.552758 0.999506 0.079564 -0.001779 -268748.000000 0 0 1
36.929297 22.968110 27.011963 51.195246 0.556402 1.014992 0.082886 -0.005524 -247242.000000 0 0 1
37.386097 21.907210 26.246263 50.660758 0.530041 1.026193 0.081779 -0.016658 -506987.000000 0 0 1
36.745167 20.568810 26.496793 49.753023 0.510313 1.009166 0.084573 -0.012976 -137669.000000 0 0 1
35.337807 20.582910 26.270723 48.606251 0.527424 0.999788 0.100381 -0.010868 665080.000000 0 0 1
34.678567 19.337410 26.550963 47.764967 0.508674 0.981391 0.108886 -0.006278 -332535.000000 0 0 1
34.582997 18.794110 27.978993 48.291058 0.497800 0.952825 0.092017 -0.001133 -465101.000000 0 0 1
33.667787 19.411010 28.872663 48.414232 0.522995 0.931828 0.094130 -0.017389 274223.000000 0 0 1
33.749367 20.847910 28.995043 49.136215 0.553353 0.939620 0.091339 -0.018327 -924526.000000 0 0 1
32.577907 21.362210 29.807633 49.052615 0.580391 0.917677 0.083246 -0.029062 271371.000000 0 0 1
31.228337 21.154510 29.368453 47.804062 0.595406 0.909234 0.086208 -0.039626 840842.000000 0 0 1
30.660967 21.702610 28.142393 46.937112 0.615959 0.927824 0.102166 -0.032431 94066.000000 0 0 1
30.539677 23.262410 28.111393 47.582161 0.650954 0.938750 0.108188 -0.035447 -359970.000000 0 0 1
31.843737 23.783410 28.030853 48.635408 0.641501 0.956545 0.091886 -0.039055 -69649.400000 0 0 1
32.155597 25.096310 28.621623 49.829755 0.662715 0.958940 0.085994 -0.033328 72817.800000 0 0 1
32.504127 25.122110 30.179833 50.975102 0.657990 0.937196 0.079876 -0.036062 279146.000000 0 0 1
33.892967 24.990210 30.473463 51.979571 0.635341 0.944364 0.060798 -0.028095 320259.000000 0 0 1
34.173247 24.916910 31.844563 52.940905 0.630013 0.925404 0.077149 -0.026665 -14118.800000 0 0 1
33.881917 23.606810 32.610025 52.618243 0.608533 0.902375 0.087379 -0.024246 -426285.000000 0 0 1
34.265277 23.631210 -33.806456 53.622941 0.603749 2.252926 0.081064 -0.034411 51469.300000 0 0 1
33.713307 22.591910 -33.020136 52.319316 0.590389 2.253802 0.070947 -0.035202 -344151.000000 0 0 1
34.105847 22.582610 -31.558266 51.663403 0.584857 2.227922 0.058013 -0.030692 -411155.000000 0 0 1
33.444767 23.442610 -30.646976 51.062173 0.611353 2.214534 0.048347 -0.031235 -72181.400000 0 0 1
33.757777 23.346110 -29.225256 50.385950 0.605051 2.189559 0.072755 -0.037276 22666.300000 0 0 1
35.149107 23.907310 -28.838446 51.368036 0.597292 2.166883 0.082543 -0.012353 178546.000000 0 0 1
35.707357 23.242310 -27.735566 50.837800 0.577015 2.147865 0.072557 -0.014972 -538342.000000 0 0 1
36.641297 24.000210 -27.058026 51.485255 0.579885 2.124157 0.085323 -0.004822 -523232.000000 0 0 1
37.163727 23.330910 -25.782206 50.893969 0.560601 2.102018 0.062986 -0.005166 -562168.000000 0 0 1
-37.010796 22.343510 -26.154096 50.527896 -0.543137 2.114860 0.039984 -0.003847 -298598.000000 0 0 1
-37.109796 21.101410 -25.505876 49.728827 -0.517027 2.109355 0.025975 -0.004378 -719085.000000 0 0 1
-36.040636 20.097210 -25.892276 48.715863 -0.508680 2.131162 0.022297 0.004840 -783353.000000 0 0 1
-34.770377 20.326410 -25.371506 47.601002 -0.529011 2.132943 0.025854 -0.000836 143615.000000 0 0 1
-33.960616 19.089910 -25.397716 46.505829 -0.512100 2.148521 0.001945 -0.000385 608140.000000 0 0 1
-32.571736 19.190410 -24.758156 45.190222 -0.532421 2.150607 0.015317 0.001030 -352837.000000 0 0 1
-32.636936 19.326310 -23.309656 44.519838 -0.534635 2.121843 0.031563 -0.008752 717001.000000 0 0 1
-31.374006 19.657810 -22.699756 43.428524 -0.559723 2.120802 0.060751 -0.008548 680632.000000 0 0 1
-31.573036 20.282710 -21.274956 43.137788 -0.571018 2.086545 0.053878 -0.013591 257956.000000 0 0 1
-32.044196 19.331410 -20.293856 42.571993 -0.542823 2.067688 0.054482 -0.014610 -282188.000000 0 0 1
-32.722266 20.046610 -19.306256 42.957477 -0.549654 2.036920 0.056852 -0.015875 -959606.000000 0 0 1
-33.597646 19.031110 -18.499756 42.816188 -0.515379 2.017587 0.052295 -0.013965 568686.000000 0 0 1
-34.386588 19.546910 -17.392156 43.208868 -0.516895 1.985057 0.057088 -0.019051 28638.300000 0 0 1
-35.376357 20.445710 -17.804156 44.570189 -0.524047 1.981728 0.035528 -0.015867 -1111090.000000 0 0 1
-36.604696 20.412210 -16.863456 45.176745 -0.508689 1.953336 0.029109 -0.020931 -133651.000000 0 0 1
-36.392216 20.921810 -15.555756 44.767143 -0.521758 1.925680 0.044809 -0.025709 226996.000000 0 0 1
-37.499376 20.557410 -14.740456 45.233742 -0.501465 1.902731 0.029347 -0.013326 -763165.000000 0 0 1
37.514727 21.270410 -13.360956 45.147538 0.515792 1.871236 0.037158 -0.016530 -116836.000000 0 0 1
37.073227 22.584510 -13.472756 45.453266 0.547147 1.871727 0.051035 -0.024247 973750.000000 0 0 1
35.691537 22.789810 -13.819956 44.544948 0.568264 1.886250 0.043681 -0.011355 538769.000000 0 0 1
35.336077 24.210010 -14.290556 45.155098 0.600680 1.892810 0.066757 -0.022373 -74752.400000 0 0 1
35.677147 25.211610 -13.428056 45.703356 0.615182 1.869006 0.055663 -0.017513 -32531.700000 0 0 1
35.530957 26.552110 -13.926956 46.491113 0.641768 1.875030 0.049745 -0.009632 348029.000000 0 0 1
36.870187 27.120810 -14.493156 48.010422 0.634205 1.877455 0.071730 -0.011107 337162.000000 0 0 1
37.113517 26.825610 -15.822056 48.449602 0.625864 1.903466 0.074646 -0.014837 -404096.000000 0 0 1
-36.809966 27.525410 -16.153056 48.719022 -0.642073 1.908748 0.092247 -0.022009 -1238320.000000 0 0 1
-36.487656 27.610110 -17.673356 49.051145 -0.647774 1.939391 0.105743 -0.026624 99436.000000 0 0 1
-35.816724 26.380910 -18.109856 48.028711 -0.634839 1.957420 0.096408 -0.031707 1215010.000000 0 0 1
-34.414461 26.387710 -17.780756 46.870265 -0.654143 1.959902 0.110611 -0.026541 425074.000000 0 0 1
-33.629216 25.213510 -18.402956 45.883702 -0.643341 1.983490 0.097710 -0.028660 -19107.000000 0 0 1
-33.425376 25.328110 -19.824456 46.387261 -0.648443 2.012376 0.073593 -0.023585 588398.000000 0 0 1
-32.492076 24.389810 -20.411956 45.466975 -0.643910 2.036375 0.059535 -0.019810 452885.000000 0 0 1
-32.669726 24.194810 -21.919656 46.186266 -0.637450 2.065297 0.050000 -0.016506 -892679.000000 0 0 1
-33.752816 23.367210 -22.146856 46.645068 -0.605542 2.065528 0.054202 -0.008095 -480324.000000 0 0 1
-33.742976 22.825410 -23.450756 47.005593 -0.594745 2.093117 0.036643 -0.009283 -219822.000000 0 0 1
-34.306476 23.800210 -24.584556 48.453945 -0.606521 2.102938 0.035222 -0.001783 -216933.000000 0 0 1
-33.701936 25.061510 -24.760456 48.754282 -0.639407 2.103498 0.038606 -0.007344 -172314.000000 0 0 1
-34.614356 25.778410 -25.547106 50.153113 -0.640121 2.105263 0.065458 -0.010618 265790.000000 0 0 1
-34.135267 27.236610 -25.816366 50.730013 -0.673461 2.104700 0.064081 -0.009806 508940.000000 0 0 1
-32.886726 27.282310 -26.489956 50.275034 -0.692522 2.125746 0.029194 -0.010490 -186441.000000 0 0 1
-32.513466 28.603510 -26.871596 50.964389 -0.721510 2.126172 0.040602 -0.015526 -496192.000000 0 0 1
-31.157006 28.587210 -27.545606 50.465315 -0.742411 2.148179 0.047286 -0.015619 -250734.000000 0 0 1
-30.103846 28.822810 -26.609036 49.447313 -0.763662 2.139012 0.037194 -0.015000 -39065.300000 0 0 1
-28.855276 28.799110 -27.265676 49.045212 -0.784424 2.160277 0.063725 -0.016076 1060870.000000 0 0 1
-27.789266 29.944110 -26.888866 48.907098 -0.822705 2.152915 0.053179 -0.019532 599226.000000 0 0 1
-27.273686 29.831910 -25.560346 47.823929 -0.830166 2.134674 0.050828 -0.024385 -14033.400000 0 0 1
-28.171696 30.272210 -24.521356 48.076482 -0.821323 2.106038 0.053709 -0.015753 189941.000000 0 0 1
-27.439696 30.814410 -23.278656 47.374684 -0.843264 2.084462 0.024778 -0.012216 -44477.000000 0 0 1
-27.120186 32.178510 -23.481756 48.190807 -0.870495 2.079753 0.029437 -0.011259 -179607.000000 0 0 1
-26.297976 32.560910 -22.420556 47.481341 -0.891405 2.062578 0.043681 0.001757 -280710.000000 0 0 1
-25.737506 -33.694513 -22.596356 48.045132 0.918491 2.060444 0.039335 0.020512 274352.000000 0 0 1
-26.782486 -32.735513 -22.444956 47.882057 0.885087 2.058677 0.020049 0.004402 689281.000000 0 0 1
-26.258836 -31.424413 -22.719056 46.831354 0.874711 2.077302 0.041485 0.001470 74756.700000 0 0 1
17.245924 8.098910 -24.960456 31.401252 0.439044 2.489618 0.119906 -0.021007 837017.000000 0 0 1
15.865024 7.872810 -24.620456 30.328979 0.460633 2.517990 0.109285 -0.022874 846819.000000 0 0 1
15.592724 6.537810 -25.039756 30.213662 0.397021 2.547677 0.113598 -0.028202 -668710.000000 0 0 1
14.139524 6.084110 -25.079766 29.426811 0.406344 2.591117 0.093544 -0.028901 -730014.000000 0 0 1
13.651324 5.906210 -23.806356 28.071063 0.408330 2.583137 0.126038 -0.046556 1010430.000000 0 0 1
12.273824 5.469610 -23.913656 27.430391 0.419216 2.629649 0.113657 -0.042200 1069740.000000 0 0 1
11.414424 5.630210 -22.646056 25.977533 0.458236 2.629570 0.130855 -0.045719 -108980.000000 0 0 1
11.942524 4.826610 -21.628456 25.173600 0.384082 2.604446 0.117486 -0.039423 249412.000000 0 0 1
11.268024 5.007910 -20.385456 23.824658 0.418217 2.597593 0.119016 -0.043693 -74011.500000 0 1 0
11.459324 6.464310 -19.759156 23.738738 0.513611 2.554147 0.125263 -0.048611 101471.000000 0 1 0
11.086524 6.488110 -18.399356 22.439761 0.529485 2.532110 0.110710 -0.046092 -257900.000000 0 1 0
11.372724 7.779210 -17.824456 22.529230 0.599923 2.483516 0.119332 -0.050061 1366780.000000 0 1 0
12.863224 8.082910 -17.368856 23.075379 0.561022 2.422951 0.120079 -0.052939 964531.000000 0 1 0
13.350224 7.305510 -16.308256 22.306012 0.500706 2.390751 0.123134 -0.053505 104560.000000 0 1 0
14.723824 7.553410 -16.128456 23.107836 0.473998 2.343348 0.109994 -0.055161 -664963.000000 0 1 0
15.222124 7.052610 -14.820756 22.385423 0.433870 2.294376 0.103777 -0.054259 -918315.000000 0 1 0
16.568624 7.391010 -14.689456 23.343660 0.419593 2.251409 0.088250 -0.055175 -214543.000000 0 1 0
16.974324 7.595210 -13.334956 22.883093 0.420734 2.192896 0.068406 -0.051490 166767.000000 0 1 0
17.931524 8.801710 -13.138756 23.908922 0.456302 2.152602 0.115991 -0.048400 477543.000000 0 1 0
17.187924 10.035910 -13.241956 23.905933 0.528492 2.157861 0.142263 -0.031951 1163280.000000 0 1 0
18.067124 11.152810 -13.095556 24.945936 0.553042 2.123462 0.178581 -0.043295 -405305.000000 0 1 0
17.445024 12.386010 -12.515956 24.786917 0.617408 2.100111 0.221861 -0.039532 -1063810.000000 0 1 0
16.921524 12.189610 -11.222156 23.682512 0.624261 2.064463 0.272266 -0.025859 484216.000000 0 1 0
16.092924 13.194710 -10.656956 23.380618 0.686762 2.044071 0.162287 -0.022324 344027.000000 0 1 0
14.713324 13.433010 -11.338956 22.923778 0.739942 2.088214 0.122212 -0.040995 -440153.000000 0 1 0
13.896424 14.414010 -10.753156 22.726739 0.803679 2.063659 0.152012 -0.049516 198347.000000 0 1 0
14.346624 15.770410 -10.881456 23.936114 0.832638 2.042724 0.169316 -0.047455 -198553.000000 0 1 0
13.395524 16.744110 -10.141756 23.720466 0.896047 2.012580 0.160500 -0.040045 308606.000000 0 1 0
13.436724 16.511010 -8.784356 23.028763 0.887695 1.962162 0.151566 -0.029406 492743.000000 0 1 0
12.382224 17.308310 -8.261456 22.828682 0.949815 1.941090 0.125778 -0.008576 270230.000000 0 1 0
12.244924 17.168410 -6.756056 22.143549 0.951250 1.880843 0.088752 -0.008730 368478.000000 0 1 0
13.200124 18.002810 -6.105556 23.143515 0.938117 1.837769 0.093754 -0.007842 382235.000000 0 1 0
13.440124 17.673910 -4.718256 22.699471 0.920641 1.780180 0.088079 -0.012919 219861.000000 0 1 0
14.532624 18.682310 -4.199856 24.038816 0.909689 1.746409 0.074560 -0.013801 -595411.000000 0 1 0
15.777424 18.351810 -4.705956 24.654859 0.860686 1.762848 0.088259 -0.028435 -739473.000000 0 1 0
16.541024 19.541610 -4.804856 26.049312 0.868366 1.756311 0.080216 -0.024100 -236553.000000 0 0 1
17.862924 19.340610 -5.558656 26.908027 0.825096 1.778874 0.064231 -0.015795 -472394.000000 0 0 1
18.764124 18.463010 -4.963556 26.788281 0.777310 1.757162 0.078904 -0.033006 -83200.200000 0 0 1
19.702224 17.963010 -5.880756 27.302576 0.739255 1.787890 0.100557 -0.032991 156592.000000 0 0 1
20.724124 16.958410 -5.267756 27.291505 0.685796 1.765034 0.112683 -0.043872 -984083.000000 0 0 1
22.031324 17.335610 -5.166156 28.505996 0.666678 1.753034 0.096503 -0.048903 -610783.000000 0 0 1
22.866024 16.347910 -4.535756 28.472483 0.620685 1.730781 0.119278 -0.052620 -200695.000000 0 0 1
24.374424 16.483510 -4.570456 29.777638 0.594617 1.724892 0.134258 -0.053924 -598125.000000 0 0 1
24.875424 17.675110 -3.959356 30.771297 0.617768 1.699824 0.143533 -0.054295 556582.000000 0 0 1
26.289624 17.500410 -3.854756 31.816157 0.587317 1.692252 0.123670 -0.046495 277188.000000 0 0 1
27.001424 18.667710 -3.167856 32.978714 0.604904 1.667002 0.135129 -0.034577 -390033.000000 0 0 1
27.073924 19.878610 -3.919056 33.815906 0.633335 1.686951 0.128206 -0.043593 239045.000000 0 0 1
27.379824 20.972410 -3.043756 34.623131 0.653650 1.658821 0.156041 -0.015693 -257644.000000 0 0 1
27.382424 22.359010 -3.799856 35.555047 0.684749 1.677873 0.102115 -0.014563 775132.000000 0 0 1
28.516824 22.681210 -4.659456 36.733596 0.671907 1.697984 0.098744 -0.004324 1049690.000000 0 0 1
28.666724 21.837810 -5.797756 36.500479 0.650999 1.730313 0.081158 -0.008696 246846.000000 0 0 1
29.615824 22.441410 -6.901956 37.793530 0.648443 1.754450 0.052545 -0.007267 265154.000000 0 0 1
29.008624 23.502810 -7.677056 38.115870 0.680930 1.773597 0.021789 -0.000997 405089.000000 0 0 1
29.857324 24.465010 -8.328356 39.488708 0.686457 1.783297 0.008313 0.004474 -446097.000000 0 0 1
30.889124 23.918510 -9.346056 40.169415 0.658894 1.805614 0.008618 -0.006001 -203277.000000 0 0 1
30.461724 23.485410 -10.598156 39.897394 0.656794 1.839659 0.007054 0.004417 173825.000000 0 0 1
31.521524 22.751510 -11.214656 40.459933 0.625192 1.851653 -0.006183 -0.007682 315740.000000 0 0 1
31.163524 22.219010 -12.614256 40.298500 0.619385 1.889168 0.004150 0.000543 109688.000000 0 0 1
31.144824 23.191210 -13.592556 41.141097 0.640052 1.907512 0.017391 -0.006577 97029.200000 0 0 1
30.829324 22.625210 -14.861956 41.027126 0.633108 1.941474 0.029628 -0.010309 -56070.400000 0 0 1
30.957024 23.580610 -16.064956 42.100657 0.650960 1.962306 0.029430 -0.007255 543902.000000 0 0 1
32.305524 23.958210 -16.404156 43.436610 0.638112 1.958061 0.030463 -0.004319 739872.000000 0 0 1
32.311024 24.767010 -17.536456 44.327580 0.653990 1.977529 0.048907 -0.010341 30499.400000 0 0 1
33.734524 25.351510 -17.670056 45.748749 0.644461 1.967349 0.055251 -0.015048 -396350.000000 0 0 1
34.613624 24.346710 -18.022056 45.996302 0.612994 1.973400 0.050048 -0.008392 -401194.000000 0 0 1
35.929024 24.917010 -17.994156 47.281517 0.606355 1.961214 0.069554 -0.016489 1100730.000000 0 0 1
37.159624 23.940210 -18.088956 47.761717 0.572325 1.959224 0.055984 -0.020333 558755.000000 0 0 1
37.152024 23.213610 -19.260856 47.855252 0.558475 1.985022 0.047527 -0.020213 -751042.000000 0 0 1
-36.753459 23.274510 -19.973156 47.869056 -0.564517 2.001209 0.075588 -0.013740 -697646.000000 0 0 1
-36.757959 22.261710 -21.136356 47.890259 -0.544549 2.027899 0.068618 -0.016153 -16060.900000 0 0 1
-36.567259 20.874210 -20.740256 46.936716 -0.518706 2.028486 0.045124 -0.013703 142702.000000 0 0 1
-36.185959 20.195110 -21.932856 46.886206 -0.509035 2.057584 0.042434 -0.011645 164739.000000 0 0 1
-35.857559 18.675510 -21.907756 45.983573 -0.480168 2.067381 0.039157 -0.011007 279197.000000 0 0 1
-37.002359 17.919910 -21.573856 46.429829 -0.451002 2.054041 0.040353 -0.015561 170848.000000 0 0 1
-36.694359 16.556210 -21.716256 45.740353 -0.423845 2.065502 0.027248 -0.016961 144932.000000 0 0 1
37.175524 15.606210 -21.637856 45.757734 0.397456 2.063351 0.016335 -0.008355 -291076.000000 0 0 1
36.236324 15.701910 -22.655556 45.529061 0.408896 2.091634 0.060669 -0.001496 44914.200000 0 0 1
35.104224 14.866010 -22.518356 44.276192 0.400584 2.104341 0.096767 -0.011103 147523.000000 0 0 1
35.299024 13.504210 -23.169256 44.330567 0.365387 2.120750 0.063910 -0.014509 -486009.000000 0 0 1
35.647924 13.610410 -24.495056 45.343418 0.364720 2.141485 0.082569 -0.006594 629605.000000 0 0 1
36.460524 12.532710 -25.043456 45.974051 0.331081 2.146864 0.057078 -0.006190 414632.000000 0 0 1
36.616724 12.518110 -26.603516 46.959926 0.329413 2.173067 0.044084 0.003147 1103050.000000 0 0 1
35.344424 12.189810 -27.244146 46.260818 0.332112 2.200524 0.043642 0.001117 1501610.000000 0 0 1
34.685724 13.329410 -27.808966 46.412404 0.366891 2.213262 0.066222 0.003632 35832.800000 0 0 1
35.060624 13.615210 -29.283396 47.666955 0.370409 2.232337 0.070958 -0.000478 -721719.000000 0 0 1
36.386724 13.968610 -29.525226 48.896367 0.366544 2.219097 0.057873 0.008382 -737314.000000 0 0 1
36.684724 13.909010 -30.924136 49.955297 0.362404 2.238311 0.066269 0.000876 453956.000000 0 0 1
-36.855259 14.203810 -31.037326 50.233196 -0.367852 2.236821 0.056337 -0.002048 736155.000000 0 0 1
-36.046259 13.110510 -30.679596 49.116758 -0.348839 2.245449 0.047779 0.002468 -77602.500000 0 0 1
-35.813359 12.997210 -29.286396 48.054315 -0.348134 2.226155 0.026073 0.003478 -553463.000000 0 0 1
-34.741359 11.938010 -28.875936 46.725773 -0.330985 2.236976 0.030744 -0.000727 124145.000000 0 0 1
-35.169359 10.621010 -29.194256 46.925412 -0.293287 2.242272 0.032846 -0.003273 -150724.000000 0 0 1
-34.280059 9.620610 -28.859736 45.831899 -0.273609 2.251946 0.032127 -0.006609 -613604.000000 0 0 1
-34.673059 8.259010 -29.441836 46.230445 -0.233839 2.261201 0.042472 -0.005038 -467202.000000 0 0 1
-34.657559 8.252410 -30.884986 47.150091 -0.233760 2.285026 0.051938 -0.009335 214817.000000 0 0 1
-34.969959 7.027710 -31.591756 47.647936 -0.198323 2.295648 0.067068 -0.013321 -130066.000000 0 0 1
-36.392359 6.469410 -31.397396 48.497975 -0.175931 2.274959 0.083852 -0.002064 -319569.000000 0 0 1
-36.476359 5.823810 -30.105506 47.652734 -0.158324 2.254629 0.085257 -0.011318 836488.000000 0 0 1
37.324624 5.197910 -29.945656 48.134064 0.138372 2.242257 0.075360 0.003993 430203.000000 0 0 1
37.252924 4.413610 -28.626146 47.188097 0.117927 2.222622 0.082715 -0.006594 -100625.000000 0 0 1
-37.007659 3.292510 -28.462256 46.802858 -0.088735 2.224500 0.099890 -0.003599 51782.800000 0 0 1
-37.431759 2.590610 -27.292596 46.397561 -0.069099 2.199669 0.117686 -0.003286 -409479.000000 0 0 1
-36.744759 1.295010 -27.127906 45.692206 -0.035229 2.206458 0.145920 -0.011349 -1168390.000000 0 0 1
-35.480959 1.393110 -26.585056 44.357687 -0.039243 2.213465 0.128084 -0.006800 -410046.000000 0 0 1
-34.629159 0.269310 -26.865176 43.829087 -0.007777 2.230589 0.144754 -0.011477 1434160.000000 0 0 1
-33.319559 0.309810 -25.951046 42.234415 -0.009298 2.232488 0.132105 -0.014163 975155.000000 0 0 1
-33.589859 -0.020190 -24.606156 41.638227 0.000601 2.203034 0.125883 -0.000631 214429.000000 0 0 1
-32.402659 0.142810 -23.868756 40.245127 -0.004407 2.205681 0.141758 0.008352 103572.000000 0 0 1
-32.677259 0.098810 -22.356156 39.593064 -0.003024 2.170803 0.131274 0.015746 -325452.000000 0 0 1
-32.770859 -1.239090 -21.860556 39.412542 0.037793 2.158750 0.148082 0.000775 259338.000000 0 0 1
-33.274359 -1.349990 -20.542956 39.128231 0.040549 2.123530 0.147774 -0.003148 901308.000000 0 0 1
-34.765659 -0.991190 -20.168856 40.204680 0.028503 2.096307 0.141227 -0.001449 1098910.000000 0 0 1
-35.729759 -1.972390 -20.536056 41.258158 0.055147 2.091794 0.134794 -0.007212 726075.000000 0 0 1
-37.069459 -1.729990 -20.129856 42.217873 0.046635 2.067817 0.134474 -0.008056 942598.000000 0 0 1
37.152324 -3.013490 -19.803356 42.208402 -0.080935 2.059159 0.130843 -0.019267 299357.000000 0 0 1
36.593824 -3.787190 -20.902856 42.312884 -0.103125 2.087489 0.115882 -0.009791 186390.000000 0 0 1
37.527524 -4.455390 -21.716056 43.586152 -0.118170 2.092356 0.111803 -0.015089 -224957.000000 0 0 1
36.893824 -5.384790 -22.744456 43.674483 -0.144930 2.118552 0.108777 -0.016924 -327869.000000 0 0 1
36.201424 -6.569290 -22.238556 42.991302 -0.179512 2.114466 0.115372 -0.018566 503208.000000 0 0 1
35.887924 -7.408490 -23.336656 43.444543 -0.203574 2.137862 0.113511 -0.017277 -276878.000000 0 0 1
34.494524 -7.113390 -23.908356 42.568556 -0.203367 2.167167 0.091532 -0.012210 -705381.000000 0 0 1
34.441124 -5.825190 -24.497056 42.664149 -0.167549 2.182403 0.105142 -0.018448 -323011.000000 0 0 1
33.158224 -5.817590 -25.066956 41.972187 -0.173682 2.210837 0.086220 -0.021884 -154011.000000 0 0 1
32.898524 -4.599090 -25.999536 42.183413 -0.138896 2.234889 0.113995 -0.039637 -147545.000000 0 0 1
33.549724 -4.763290 -27.204696 43.455361 -0.141034 2.247258 0.130238 -0.043990 58252.600000 0 0 1
33.151224 -3.776490 -28.183976 43.676104 -0.113428 2.272206 0.111229 -0.040823 -265669.000000 0 0 1
32.237524 -4.316090 -29.312366 43.784716 -0.133093 2.304286 0.117419 -0.040864 19632.300000 0 0 1
31.900524 -3.245890 -30.109356 43.985822 -0.101401 2.324747 0.099991 -0.039091 -181212.000000 0 0 1
31.003324 -3.676490 -31.097016 44.065259 -0.118033 2.354212 0.096256 -0.044015 -747173.000000 0 0 1
30.658224 -2.566090 -32.180346 44.520626 -0.083505 2.378669 0.100184 -0.046952 -416336.000000 0 0 1
29.725624 -1.556590 -31.789916 43.550367 -0.052317 2.389056 0.095686 -0.042558 608027.000000 0 0 1
28.388324 -1.941990 -31.506526 42.453851 -0.068302 2.407048 0.111342 -0.044269 337434.000000 0 0 1
27.517424 -2.352690 -32.752996 42.842765 -0.085291 2.441051 0.105787 -0.046671 -1176470.000000 0 0 1
28.071724 -3.397690 -33.497766 43.836815 -0.120450 2.440514 0.111925 -0.046725 -187078.000000 0 0 1
27.508324 -3.558890 32.942644 43.064967 -0.128660 0.699829 0.078985 -0.037619 -150073.000000 0 0 1
28.245424 -4.626690 32.086676 42.997267 -0.162361 0.728387 0.054538 -0.037060 1390800.000000 0 0 1
29.590624 -4.380490 31.593973 43.508308 -0.146969 0.758077 0.061164 -0.029445 1190650.000000 0 0 1
29.642424 -3.541290 30.423763 42.624164 -0.118903 0.775933 0.076207 -0.034717 -294242.000000 0 0 1
30.247524 -2.181790 30.892373 43.289856 -0.072006 0.776149 0.076487 -0.039531 -126499.000000 0 0 1
31.591124 -2.305290 31.298313 44.529741 -0.072844 0.791382 0.082633 -0.037987 -202500.000000 0 0 1
32.076224 -1.152690 31.919520 45.266639 -0.035920 0.788169 0.083900 -0.035633 -165401.000000 0 0 1
33.545324 -1.181190 32.378988 46.637783 -0.035197 0.803398 0.070459 -0.031618 -134065.000000 0 0 1
34.429424 -1.499890 31.326963 46.572669 -0.043537 0.833016 0.086602 -0.029564 -126646.000000 0 0 1
35.723924 -1.620490 31.892034 47.915828 -0.045330 0.842520 0.104258 -0.029071 404960.000000 0 0 1
36.764324 -2.400290 31.024173 48.165093 -0.065196 0.870922 0.123882 -0.029465 183389.000000 0 0 1
37.231024 -1.709490 29.865873 47.760254 -0.045884 0.895243 0.116624 -0.025548 497983.000000 0 0 1
-36.762159 -2.411590 29.250713 47.041220 0.065506 0.899744 0.126854 -0.025268 568900.000000 0 0 1
-36.285259 -1.820890 27.888863 45.800921 0.050141 0.916104 0.112104 -0.025314 90796.200000 0 0 1
-37.182759 -1.918890 26.783223 45.864810 0.051561 0.947198 0.115441 -0.027170 16018.400000 0 0 1
-36.620259 -1.282890 25.633673 44.718837 0.035018 0.960368 0.093174 -0.021485 106762.000000 0 0 1
-27.297066 14.961410 11.781144 33.283164 -0.501380 1.208987 0.161524 -0.032300 -372849.000000 0 0 1
-28.341546 14.194710 12.296144 33.998944 -0.464323 1.200746 0.117446 -0.016857 -707585.000000 0 0 1
-29.283656 15.063010 12.823044 35.339175 -0.475088 1.199465 0.128909 -0.019321 -1271190.000000 0 0 1
-30.363706 14.244110 13.463844 36.140344 -0.438637 1.189048 0.128306 -0.019200 -1055350.000000 0 0 1
-31.475566 14.976310 13.905544 37.528193 -0.444107 1.191210 0.126649 -0.018457 -270469.000000 0 0 1
-32.310146 14.124010 14.675444 38.194265 -0.412107 1.176421 0.146661 -0.026340 264609.000000 0 0 1
-33.521906 14.794910 15.351444 39.727502 -0.415638 1.174051 0.123383 -0.034141 6963.350000 0 0 1
-33.122876 15.545010 16.487944 40.132587 -0.438798 1.147425 0.113725 -0.027384 -165873.000000 0 0 1
-34.165734 15.975710 17.322844 41.504236 -0.437389 1.140241 0.125666 -0.042267 -65954.300000 0 0 1
-33.646686 16.466610 18.729744 41.881405 -0.455130 1.107154 0.161810 -0.028267 284821.000000 0 0 1
-33.164386 15.339310 19.439044 41.388977 -0.433220 1.081883 0.157276 -0.030121 -397503.000000 0 0 1
-32.154956 15.632810 20.355144 41.141923 -0.452523 1.053244 0.130765 -0.029288 18533.300000 0 0 1
-32.671186 15.944110 21.812944 42.396056 -0.454016 1.030367 0.120912 -0.043409 -235970.000000 0 0 1
-33.419206 17.134410 21.805644 43.427151 -0.473765 1.044748 0.141060 -0.047238 -79992.000000 0 0 1
-33.971686 17.612910 22.990144 44.641201 -0.478305 1.029791 0.157109 -0.049584 -929184.000000 0 0 1
-35.048515 16.756210 23.743844 45.529541 -0.445963 1.022183 0.135103 -0.041760 -79329.600000 0 0 1
-36.291036 16.665910 23.085744 46.127470 -0.430503 1.046647 0.131781 -0.036827 -239332.000000 0 0 1
-37.050736 17.852610 23.200444 47.220052 -0.449016 1.057185 0.120681 -0.038601 -1449380.000000 0 0 1
36.559287 17.415910 23.209944 46.675442 0.444569 1.050356 0.125168 -0.039846 -485750.000000 0 0 1
36.143977 16.843610 24.415144 46.756748 0.436091 1.021399 0.117844 -0.030487 -273371.000000 0 0 1
35.067057 15.987210 24.161244 45.486867 0.427753 1.010816 0.120457 -0.031313 -222837.000000 0 0 1
34.550387 15.152310 25.323944 45.438132 0.413297 0.979632 0.097972 -0.025764 -235591.000000 0 0 1
33.851687 15.888110 26.311544 45.723802 0.438824 0.957648 0.114166 -0.025568 192698.000000 0 0 1
33.567177 15.218210 27.569544 46.026395 0.425649 0.928552 0.102612 -0.019280 685262.000000 0 0 1
32.587617 13.954010 27.567444 44.906916 0.404578 0.909830 0.097997 -0.013044 170074.000000 0 0 1
33.102677 12.920510 26.798644 44.507236 0.372130 0.924644 0.105624 -0.021138 -219067.000000 0 0 1
32.518297 11.680810 27.092944 43.907955 0.344854 0.905821 0.100045 -0.020289 -314697.000000 0 0 1
33.368697 10.520010 26.591844 43.946179 0.305403 0.920905 0.109699 -0.021395 -704181.000000 0 0 1
34.360827 10.099310 27.446544 45.121782 0.285869 0.916908 0.111105 -0.019256 -812988.000000 0 0 1
34.960027 8.959210 26.951544 45.042831 0.250871 0.929352 0.105933 -0.019193 75423.500000 0 0 1
36.061197 8.415010 27.935344 46.385404 0.229251 0.924487 0.091392 -0.013800 992720.000000 0 0 1
37.338357 9.067910 27.892544 47.480247 0.238245 0.942885 0.100586 -0.017145 220292.000000 0 0 1
-36.808696 8.204210 28.441644 47.234694 -0.219303 0.924624 0.107665 -0.020367 166190.000000 0 0 1
-35.376220 8.795110 28.618444 46.344862 -0.243676 0.905222 0.105662 -0.019298 505910.000000 0 0 1
-34.542853 8.885710 27.499844 45.037828 -0.251779 0.913985 0.103406 -0.017698 169937.000000 0 0 1
-33.336476 9.566310 27.808344 44.453784 -0.279453 0.894952 0.089212 -0.004021 233043.000000 0 0 1
-32.523276 10.056210 26.613944 43.211027 -0.299876 0.907260 0.081214 -0.007480 32647.900000 0 0 1
-31.925876 9.039610 25.803944 42.033554 -0.275921 0.909818 0.081602 -0.011298 552436.000000 0 0 1
-31.051636 9.637610 24.848844 40.921299 -0.300947 0.918220 0.079754 -0.008823 -113136.000000 0 0 1
-30.475446 8.674610 23.894244 39.685471 -0.277309 0.924680 0.077973 -0.006894 134584.000000 0 0 1
-29.531146 9.284310 23.011544 38.572246 -0.304606 0.931560 0.085947 -0.010270 85840.600000 0 0 1
-28.834016 8.377610 22.215644 37.351301 -0.282761 0.933810 0.064963 -0.001884 -203328.000000 0 0 1
-27.742246 9.087410 21.391944 36.191553 -0.316551 0.938405 0.061746 0.000627 -615633.000000 0 0 1
-26.618286 9.411210 22.191244 35.910379 -0.339844 0.904649 0.058945 -0.005594 1443860.000000 0 0 1
-25.454606 9.970610 21.499544 34.779023 -0.373332 0.904377 0.046066 0.004129 1808410.000000 0 0 1
-24.688276 9.110410 20.406344 33.300592 -0.353516 0.911207 0.043352 0.007263 -772263.000000 0 0 1
-25.395176 9.011910 19.218344 33.097949 -0.341004 0.951269 0.042418 0.001613 205706.000000 0 0 1
-24.738276 8.191610 18.224444 31.799609 -0.319767 0.960509 0.061686 -0.010580 105870.000000 0 0 1
-24.742676 6.674110 18.526944 31.622641 -0.263470 0.944836 0.071317 -0.009611 -548099.000000 0 0 1
-23.605276 6.215010 19.204944 31.059061 -0.257446 0.904172 0.068884 -0.007836 50506.300000 0 0 1
-23.594476 4.824210 19.614844 31.059852 -0.201684 0.887287 0.087067 -0.020470 -293476.000000 0 0 1
-23.575876 3.824110 18.418644 30.161104 -0.160804 0.913883 0.109795 -0.021754 -419931.000000 0 0 1
-24.798976 3.646710 17.733044 30.704211 -0.146004 0.955079 0.127865 -0.019402 264499.000000 0 0 1
-24.864276 2.533810 16.797444 30.113229 -0.101555 0.979052 0.132762 -0.020800 -114160.000000 0 0 1
-24.867976 1.082810 17.299344 30.312638 -0.043515 0.963441 0.129957 -0.022745 77829.700000 0 0 1
-23.585676 0.610110 17.699644 29.494639 -0.025862 0.927174 0.123716 -0.019872 598758.000000 0 0 1
-23.622876 -0.646990 18.261344 29.865290 0.027381 0.912896 0.138757 -0.023018 -647018.000000 0 0 1
-22.220276 -1.185690 18.521944 28.951838 0.053310 0.876623 0.143270 -0.017773 -440539.000000 0 0 1
-21.424576 -0.530090 19.501744 28.976050 0.024737 0.832499 0.112117 -0.019143 66519.600000 0 0 1
-20.357776 -1.421190 19.779644 28.419943 0.069698 0.801016 0.103499 -0.020409 -469294.000000 0 0 1
-19.352776 -0.876190 20.747344 28.385735 0.045244 0.751146 0.117298 -0.023293 -396220.000000 0 0 1
-19.722276 -0.972590 22.096044 29.633583 0.049274 0.729299 0.104022 -0.019627 -265969.000000 0 0 1
-18.642776 -0.610290 22.939244 29.565765 0.032724 0.682701 0.082920 -0.020217 -594911.000000 0 0 1
-18.975176 -0.615790 24.450544 30.955865 0.032441 0.660229 0.089932 -0.016297 -286475.000000 0 0 1
-19.838776 0.389710 24.830044 31.784587 -0.019641 0.674214 0.072064 -0.023323 -108427.000000 0 0 1
-21.215076 0.153010 24.535944 32.436329 -0.007212 0.712952 0.130516 -0.028510 -353567.000000 0 0 1
-22.108576 1.088810 25.357844 33.659990 -0.049209 0.717651 0.096998 -0.026794 -470513.000000 0 0 1
-22.123076 2.406610 24.882744 33.382229 -0.108357 0.729678 0.078952 -0.024269 992613.000000 0 0 1
-23.323676 2.762710 24.156744 33.692354 -0.117902 0.771336 0.087004 -0.023924 331591.000000 0 0 1
-22.993876 3.868610 23.113944 32.831980 -0.166684 0.789772 0.088564 -0.025306 263961.000000 0 0 1
-22.275776 3.475710 21.934044 31.454619 -0.154783 0.799140 0.098525 -0.019103 622911.000000 0 0 1
-20.868976 3.448010 22.122844 30.607567 -0.163743 0.762965 0.099283 -0.023590 -55908.000000 0 0 1
-20.113476 2.749910 20.937744 29.163385 -0.135877 0.769949 0.090350 -0.023558 -8985.730000 0 0 1
-19.877476 3.558210 19.696944 28.208944 -0.177131 0.797844 0.082528 -0.020118 343072.000000 0 0 1
-19.473576 2.700510 18.614744 27.074372 -0.137797 0.812699 0.106856 -0.027855 298072.000000 0 0 1
-18.783876 3.471910 17.413544 25.848011 -0.182772 0.831606 0.075896 -0.021704 119087.000000 0 0 1
-17.514676 4.038710 17.645844 25.188308 -0.226629 0.794619 0.098803 -0.036107 -28977.100000 0 0 1
-16.907476 4.436210 16.466544 24.014366 -0.256598 0.815237 0.097874 -0.030463 517273.000000 0 1 0
-15.533476 5.178910 16.525144 23.263499 -0.321813 0.780806 0.099562 -0.028960 510166.000000 0 1 0
-15.695476 6.358510 17.308744 24.215104 -0.384910 0.774471 0.111277 -0.031341 285509.000000 0 1 0
-16.426376 7.502110 16.823344 24.680608 -0.428421 0.820792 0.124707 -0.041308 234313.000000 0 1 0
-15.844076 8.273810 15.549444 23.691262 -0.481251 0.854843 0.073866 -0.037720 125816.000000 0 1 0
-16.056076 7.567210 14.341944 22.819983 -0.440424 0.891197 0.100947 -0.035867 111855.000000 0 1 0
-17.400776 7.415610 13.963244 23.510646 -0.402857 0.934884 0.076715 -0.044404 -329998.000000 0 1 0
-17.566876 6.497410 12.720144 22.640970 -0.354263 0.974212 0.081993 -0.041195 -410928.000000 0 1 0
-17.247376 5.167410 12.971744 22.190995 -0.291095 0.946471 0.072933 -0.037264 250416.000000 0 1 0
-17.827976 4.337010 12.000444 21.923892 -0.238635 0.991580 0.069587 -0.044815 287331.000000 0 1 0
-17.543376 2.803710 12.293044 21.604392 -0.158476 0.965499 0.074089 -0.022973 -136427.000000 0 1 0
-18.206176 2.493410 13.517244 22.812230 -0.136107 0.936583 0.084757 -0.031104 363692.000000 0 1 0
-17.971876 1.201010 13.928544 22.769170 -0.066728 0.912553 0.080774 -0.020672 -401032.000000 0 1 0
-19.159176 0.730510 14.754344 24.192940 -0.038110 0.914910 0.113076 -0.029202 -319124.000000 0 1 0
-20.394576 0.641210 14.088844 24.796077 -0.031430 0.966494 0.129654 -0.030153 -212776.000000 0 1 0
-21.435476 0.364610 14.999844 26.165013 -0.017008 0.960295 0.134155 -0.031893 -591072.000000 0 0 1
-22.732576 0.257010 14.203944 26.806494 -0.011305 1.012350 0.133226 -0.030686 -784382.000000 0 0 1
-22.720276 -0.932790 13.351244 26.369239 0.041032 1.039886 0.141597 -0.036235 1106630.000000 0 0 1
-24.004376 -1.237690 12.765044 27.215589 0.051515 1.082599 0.159704 -0.028844 782045.000000 0 0 1
-23.968076 -2.494990 11.782544 26.823907 0.103723 1.116027 0.156695 -0.037095 -187810.000000 0 0 1
-23.717476 -3.721790 12.344344 26.995430 0.155652 1.095867 0.133228 -0.029300 345245.000000 0 0 1
-24.045376 -4.701290 11.394244 27.020567 0.193082 1.135490 0.123661 -0.021670 -323017.000000 0 0 1
-23.794276 -6.159290 11.978644 27.342135 0.253296 1.117310 0.104927 -0.018721 211500.000000 0 0 1
-24.758776 -6.429990 12.979144 28.684490 0.254092 1.101253 0.110373 -0.013858 411742.000000 0 0 1
-24.650276 -7.785590 13.406144 29.120031 0.305927 1.092378 0.104750 -0.021429 38622.100000 0 0 1
-25.675246 -8.086290 14.526544 30.588018 0.305111 1.075935 0.119420 -0.016348 37407.400000 0 0 1
-27.013426 -8.075390 14.088544 31.518632 0.290484 1.107398 0.135538 -0.017386 -150735.000000 0 0 1
-27.849116 -8.322690 15.196544 32.799015 0.290401 1.089055 0.135667 -0.013353 59976.300000 0 0 1
-29.338336 -7.852790 15.147144 33.938772 0.261532 1.108161 0.151615 -0.022672 458595.000000 0 0 1
-30.237326 -8.446890 14.230544 34.469613 0.272409 1.145223 0.139935 -0.021286 468578.000000 0 0 1
-30.477716 -9.850790 14.264944 35.063056 0.312615 1.151808 0.130046 -0.022220 -818275.000000 0 0 1
-31.039556 -10.451890 15.640444 36.294897 0.324803 1.125277 0.130275 -0.034165 -339106.000000 0 0 1
-30.052146 -10.504890 16.646144 35.924620 0.336279 1.089010 0.130881 -0.024874 306188.000000 0 0 1
-30.538196 -10.923590 17.955244 37.071512 0.343520 1.065187 0.112842 -0.023593 570271.000000 0 0 1
-29.302186 -10.929290 18.918444 36.550992 0.357003 1.026764 0.131197 -0.024025 704389.000000 0 0 1
-28.340066 -11.887590 18.533044 35.887990 0.397171 1.028139 0.122938 -0.027937 397617.000000 0 0 1
-27.101436 -11.686090 19.248344 35.235653 0.407109 0.992886 0.121621 -0.032380 575844.000000 0 0 1
-26.014146 -12.598390 18.644344 34.395738 0.451001 0.997917 0.110102 -0.028150 -308272.000000 0 0 1
-25.589226 -12.201390 17.360644 33.242659 0.444930 1.021321 0.106898 -0.027876 -362533.000000 0 0 1
-24.709176 -13.139290 16.851544 32.667397 0.488730 1.028794 0.095148 -0.032403 -470884.000000 0 0 1
-24.338376 -12.817890 15.413544 31.531448 0.484742 1.060047 0.087910 -0.028233 -186765.000000 0 0 1
-23.405776 -11.728390 15.296644 30.321161 0.464519 1.042008 0.074665 -0.026476 -71162.400000 0 0 1
-22.870776 -11.765290 14.033944 29.299250 0.475121 1.071297 0.071308 -0.022420 -789357.000000 0 0 1
-21.552176 -11.026790 13.975544 27.953572 0.472910 1.047249 0.071167 -0.023775 -911752.000000 0 0 1
-21.633476 -9.600990 14.025844 27.512008 0.417688 1.035835 0.077274 -0.031847 921501.000000 0 0 1
-20.352576 -8.994190 13.722044 26.142251 0.416113 1.018200 0.082095 -0.024384 936643.000000 0 0 1
-19.876776 -8.924690 12.273444 25.007474 0.422023 1.057799 0.093925 -0.014639 -325405.000000 0 0 1
-19.622776 -10.206890 11.649844 24.999056 0.479641 1.086019 0.101756 -0.023433 371777.000000 0 1 0
-19.275076 -10.157090 10.268144 24.085884 0.484978 1.130383 0.113269 -0.021169 -820076.000000 0 1 0
-18.620676 -11.466890 9.750844 23.943644 0.551967 1.151365 0.102393 -0.014607 932700.000000 0 1 0
-17.197376 -11.627390 9.842244 22.974240 0.594515 1.128071 0.115193 -0.023966 1230230.000000 0 1 0
-16.658276 -11.717490 11.214144 23.249833 0.613007 1.067481 0.109731 -0.017554 -956115.000000 0 1 0
-15.152176 -11.877990 11.239344 22.293450 0.664855 1.042394 0.115594 -0.021073 -713486.000000 0 1 0
-14.797276 -13.158190 10.700644 22.507801 0.726833 1.075356 0.109945 -0.031559 1466750.000000 0 1 0
-13.368376 -13.425390 10.728044 21.772586 0.787526 1.055570 0.119472 -0.035203 1205600.000000 0 1 0
-12.837876 -14.800290 10.787444 22.365790 0.856283 1.067496 0.118802 -0.033848 -209605.000000 0 1 0
-12.920876 -15.512790 9.528344 22.324538 0.876303 1.129834 0.088076 -0.035243 254651.000000 0 1 0
-12.533076 -16.879790 9.750944 23.175120 0.932119 1.136524 0.081540 -0.025192 78832.900000 0 1 0
-13.007976 -17.726190 8.538244 23.586582 0.937726 1.200388 0.071407 -0.017937 -88676.700000 0 1 0
-12.298076 -17.496790 7.352844 22.615142 0.958143 1.239648 0.068186 -0.025421 -199501.000000 0 1 0
-12.512076 -18.518790 6.380744 23.242451 0.976606 1.292696 0.039750 -0.015632 231134.000000 0 1 0
-11.637876 -18.213390 5.089744 22.205252 1.002212 1.339527 0.049150 -0.020820 242834.000000 0 1 0
-11.912776 -19.012090 3.973444 22.785128 1.011055 1.395513 0.062151 -0.023421 537779.000000 0 1 0
-10.956576 -18.869690 2.903644 22.012335 1.044731 1.438501 0.069901 -0.031627 555928.000000 0 1 0
-11.363976 -19.684990 1.595744 22.785635 1.047242 1.500706 0.079308 -0.031600 173614.000000 0 1 0
-11.137876 -21.041290 1.869944 23.880637 1.083958 1.492412 0.072426 -0.030191 -83592.500000 0 1 0
-11.689776 -21.962490 0.908444 24.896327 1.081674 1.534299 0.075706 -0.026610 146372.000000 0 1 0
-11.134476 -21.961790 -0.556756 24.629388 1.101570 1.593404 0.101304 -0.027716 169928.000000 0 1 0
-11.470476 -20.729390 -1.210756 23.722254 1.065390 1.621857 0.109560 -0.044668 -231770.000000 0 1 0
-12.562276 -20.843290 -2.072356 24.424335 1.028393 1.655746 0.121298 -0.036011 369147.000000 0 1 0
-13.800976 -19.967690 -1.646456 24.328715 0.966024 1.638524 0.149586 -0.033776 738749.000000 0 1 0
-14.572276 -20.472690 -0.554356 25.135424 0.952201 1.592853 0.139860 -0.025852 -657373.000000 0 0 1
-15.642376 -19.692190 -0.243056 25.150056 0.899514 1.580461 0.153023 -0.014890 -849461.000000 0 0 1
26.859524 -20.060090 -4.200656 33.785895 -0.641483 1.695451 0.113402 -0.022759 -83423.100000 0 0 1
25.664424 -19.951590 -3.464556 32.691462 -0.660809 1.676973 0.105946 -0.031495 -44964.300000 0 0 1
25.669424 -20.914690 -2.406856 33.198441 -0.683683 1.643359 0.098668 -0.033310 -166226.000000 0 0 1
24.266224 -21.137790 -1.796156 32.231691 -0.716605 1.626552 0.089313 -0.029725 315039.000000 0 0 1
23.384024 -21.867890 -2.649056 32.125296 -0.751906 1.653350 0.094379 -0.033293 -646236.000000 0 0 1
22.297124 -22.368590 -1.964556 31.644510 -0.786998 1.632918 0.064865 -0.025082 -703712.000000 0 0 1
21.285424 -22.977990 -2.944656 31.459947 -0.823618 1.664534 0.073064 -0.028773 -163908.000000 0 0 1
20.577224 -22.090090 -3.768056 30.423551 -0.820841 1.694968 0.073294 -0.037964 123452.000000 0 0 1
19.618224 -22.776890 -4.604756 30.411596 -0.859766 1.722795 0.085967 -0.030133 689047.000000 0 0 1
18.691724 -21.732490 -5.372956 29.164195 -0.860478 1.756086 0.084588 -0.022071 434392.000000 0 0 1
17.578124 -21.238690 -4.655156 27.959665 -0.879424 1.738071 0.095425 -0.019593 355990.000000 0 0 1
17.976724 -20.337190 -3.598656 27.380909 -0.846929 1.702607 0.077281 -0.027709 -91315.200000 0 0 1
16.799024 -19.891490 -2.682656 26.173941 -0.869485 1.673470 0.094750 -0.015268 563102.000000 0 0 1
16.242124 -20.958090 -1.849356 26.579470 -0.911498 1.640431 0.086264 -0.019145 175036.000000 0 0 1
15.519724 -20.377390 -0.801156 25.626972 -0.919903 1.602064 0.105369 -0.010754 -179323.000000 0 0 1
15.248124 -21.232490 0.470144 26.144692 -0.947992 1.552813 0.085241 -0.011342 -7177.510000 0 0 1
14.235124 -22.219790 0.340244 26.390785 -1.001022 1.557903 0.096708 -0.012074 171451.000000 0 0 1
13.555124 -22.435890 1.578644 26.260286 -1.027315 1.510645 0.071694 -0.006894 309499.000000 0 0 1
12.414924 -23.467790 1.568844 26.595653 -1.084203 1.511773 0.080763 -0.016584 -54308.200000 0 0 1
12.912024 -24.785990 1.654844 27.996502 -1.090537 1.511653 0.078290 -0.015503 -460683.000000 0 0 1
11.967524 -25.803970 1.723744 28.496276 -1.136537 1.510269 0.074058 -0.008795 -584246.000000 0 0 1
12.418924 -27.175840 2.362344 29.972264 -1.142150 1.491897 0.076664 -0.010880 -155778.000000 0 0 1
12.537224 -27.068730 3.752344 30.066230 -1.137050 1.445667 0.078599 -0.016505 203433.000000 0 0 1
13.008824 -28.321580 4.262344 31.456461 -1.140214 1.434878 0.073255 -0.018034 -65233.400000 0 0 1
12.546724 -28.547110 5.718244 31.702619 -1.156701 1.389432 0.087369 -0.025094 -55949.900000 0 0 1
13.109524 -29.663730 6.317844 33.041059 -1.154667 1.378400 0.074604 -0.022427 -395188.000000 0 0 1
12.541524 -29.811120 7.577444 33.217621 -1.172574 1.340655 0.075724 -0.024418 136135.000000 0 0 1
13.226924 -30.953380 8.386544 34.690018 -1.166964 1.326620 0.073737 -0.021109 156710.000000 0 0 1
12.632924 -31.194290 9.621244 35.003468 -1.186008 1.292347 0.071649 -0.014011 -193992.000000 0 0 1
11.770924 -32.276320 9.817344 35.730879 -1.221093 1.292458 0.065760 -0.009478 170913.000000 0 0 1
11.257424 -32.451050 11.268044 36.149260 -1.236882 1.253805 0.082149 -0.015042 745126.000000 0 0 1
12.309124 -32.997880 12.125544 37.247864 -1.213756 1.239217 0.080339 -0.022902 990279.000000 0 0 1
11.991324 -33.247640 13.506544 37.836809 -1.224650 1.205776 0.091629 -0.021527 -177212.000000 0 0 1
10.953024 33.278948 13.804944 37.656787 1.252836 1.195445 0.102296 -0.023728 200838.000000 0 0 1
11.412324 31.980044 13.495544 36.538939 1.228025 1.192490 0.118145 -0.025422 178967.000000 0 0 1
10.315024 31.093583 13.491344 35.429183 1.250479 1.180138 0.114013 -0.020965 13820.700000 0 0 1
10.617824 29.840023 12.538044 34.064171 1.228942 1.193862 0.119786 -0.016728 -43348.300000 0 0 1
10.545824 30.125543 11.144444 33.807712 1.234066 1.234872 0.095107 -0.010140 316570.000000 0 0 1
11.681724 30.841973 10.645544 34.655701 1.208733 1.258568 0.061301 -0.008268 145681.000000 0 0 1
11.504624 31.375403 9.175044 34.654779 1.219343 1.302846 0.045385 -0.011470 246629.000000 0 0 1
10.479824 32.370008 9.082544 35.215575 1.257694 1.309935 0.067996 -0.013491 380475.000000 0 0 1
9.798524 32.258328 7.831844 34.611394 1.275901 1.342540 0.063543 -0.005366 19648.500000 0 0 1
9.922024 33.418378 6.816844 35.520472 1.282183 1.377685 0.054177 -0.003893 -115009.000000 0 0 1
9.328024 -33.022810 7.237844 35.069992 -1.295497 1.362920 0.061214 -0.008418 71696.200000 0 0 1
9.654124 -31.950970 6.358844 33.977955 -1.277364 1.382540 0.066878 -0.015655 -76964.700000 0 0 1
8.796024 -30.676290 6.545844 32.576876 -1.291552 1.368484 0.074420 -0.018151 -19824.600000 0 0 1
8.855924 -30.248000 7.915044 32.496412 -1.285979 1.324755 0.087924 -0.024532 507078.000000 0 0 1
8.069924 -29.049310 8.157944 31.233605 -1.299828 1.306540 0.106018 -0.028324 428646.000000 0 0 1
8.804424 -27.696130 7.838644 30.100462 -1.263005 1.307343 0.103706 -0.029016 270429.000000 0 0 1
9.685924 -27.094360 8.815844 30.093862 -1.227466 1.273491 0.103865 -0.036267 1080460.000000 0 0 1
10.618924 -26.094390 8.349144 29.383446 -1.184319 1.282682 0.105235 -0.039237 417749.000000 0 0 1
10.109324 -24.949190 7.392244 27.916048 -1.185818 1.302797 0.100990 -0.037684 -271285.000000 0 0 1
9.700324 -25.350100 6.091744 27.817857 -1.205332 1.350020 0.091635 -0.028877 -322511.000000 0 0 1
9.082124 -24.321090 5.383544 26.513825 -1.213406 1.366328 0.086258 -0.022456 23499.900000 0 0 1
8.689424 -24.842190 3.961744 26.614580 -1.234313 1.421385 0.075335 -0.015853 142424.000000 0 0 1
7.675924 -25.817960 3.905444 27.216527 -1.281810 1.426804 0.069804 -0.013374 -176686.000000 0 0 1
8.077424 -27.189830 4.226744 28.677464 -1.282025 1.422868 0.071704 -0.018272 -286184.000000 0 0 1
7.124924 -28.250350 3.677744 29.366181 -1.323742 1.445229 0.076466 -0.016817 -493086.000000 0 0 1
5.959024 -28.345460 4.466644 29.307438 -1.363585 1.417794 0.069954 -0.015176 -252948.000000 0 0 1
4.941224 -29.175530 3.930944 29.850955 -1.403026 1.438727 0.068722 -0.014245 164364.000000 0 0 1
5.156424 -30.683350 3.944544 31.362654 -1.404299 1.444690 0.076929 -0.012920 48054.000000 0 0 1
6.334224 -31.130430 3.269344 31.936102 -1.370063 1.468245 0.075521 -0.015673 285569.000000 0 0 1
6.531424 -32.486470 3.636544 33.335486 -1.372391 1.461490 0.074302 -0.008288 50002.500000 0 0 1
7.650724 -33.104120 2.786344 34.090761 -1.343673 1.488972 0.072420 -0.006681 53429.600000 0 0 1
7.210124 -33.581970 1.529244 34.381291 -1.359305 1.526303 0.072170 -0.013585 488216.000000 0 0 1
8.182924 33.139628 0.966344 34.148632 1.328716 1.542494 0.059904 -0.012569 290059.000000 0 0 1
7.701724 32.593999 -0.391556 33.493860 1.338760 1.582487 0.077454 -0.014244 574062.000000 0 0 1
6.607424 31.693452 -0.305256 32.376321 1.365261 1.580225 0.060698 -0.010004 754622.000000 0 0 1
5.299024 32.282412 -0.174156 32.714892 1.408101 1.576120 0.056215 -0.014443 386832.000000 0 0 1
4.155924 31.264293 -0.048456 31.539342 1.438642 1.572333 0.058243 -0.015932 -184208.000000 0 0 1
3.798924 30.544333 -1.158556 30.801467 1.447058 1.608419 0.064696 -0.015514 -338533.000000 0 0 1
2.729724 29.699073 -0.852656 29.836444 1.479141 1.599378 0.061194 -0.023693 -62686.900000 0 0 1
2.372524 28.609483 -1.957156 28.774327 1.488058 1.638866 0.051089 -0.018425 -158145.000000 0 0 1
2.057724 29.270293 -3.165056 29.512741 1.500611 1.678247 0.057492 -0.028636 115375.000000 0 0 1
1.788524 28.324533 -4.176156 28.686553 1.507736 1.716894 0.069330 -0.031373 -604958.000000 0 0 1
1.701124 28.969633 -5.580856 29.551302 1.512143 1.760790 0.069425 -0.034274 -166915.000000 0 0 1
0.526824 29.709073 -5.843056 30.282799 1.553065 1.764964 0.074533 -0.030566 116588.000000 0 0 1
0.596824 30.545193 -7.007756 31.344436 1.551260 1.796275 0.063933 -0.033874 -430702.000000 0 0 1
0.468424 29.746343 -8.381056 30.908033 1.555050 1.845395 0.074775 -0.038980 282333.000000 0 0 1
-0.861376 29.239593 -8.616756 30.494988 -1.541346 1.857261 0.083759 -0.038978 856847.000000 0 0 1
-1.084576 28.744243 -9.892156 30.418129 -1.533082 1.902026 0.092877 -0.037360 87126.700000 0 0 1
-1.482976 29.861803 -10.885756 31.818646 -1.521176 1.919967 0.074847 -0.037410 -797565.000000 0 0 1
-0.360776 30.642323 -11.184456 32.621683 -1.559023 1.920749 0.071103 -0.033041 -398121.000000 0 0 1
-0.520176 31.934495 -11.759056 34.034659 -1.554509 1.923570 0.063373 -0.033143 -208846.000000 0 0 1
-0.577276 32.972743 -10.654556 34.656235 -1.553290 1.883293 0.055412 -0.038259 472201.000000 0 0 1
0.666024 33.159597 -9.979456 34.635127 1.550714 1.863071 0.052966 -0.041273 299983.000000 0 0 1
0.413724 -33.712510 -8.860556 34.859919 -1.558525 1.827792 0.048006 -0.033244 -150376.000000 0 0 1
1.598324 -33.535020 -7.892056 34.488211 -1.523171 1.801675 0.042713 -0.034189 -257972.000000 0 0 1
2.646224 -32.782230 -8.453456 33.957886 -1.490250 1.822381 0.057981 -0.027141 -430222.000000 0 0 1
3.433524 -32.286780 -7.386556 33.298445 -1.464850 1.794486 0.056539 -0.028879 -1130610.000000 0 0 1
4.658124 -31.463460 -7.870856 32.765802 -1.423815 1.813384 0.052221 -0.022021 361169.000000 0 0 1
5.509724 -32.291700 -8.697156 33.893236 -1.401800 1.830304 0.065175 -0.018735 654254.000000 0 0 1
6.343124 -33.162050 -7.902456 34.675720 -1.381803 1.800713 0.079800 -0.010534 -1161270.000000 0 0 1
6.695024 33.169382 -8.630556 34.921595 1.371629 1.820525 0.077291 -0.012494 734374.000000 0 0 1
5.653424 32.175801 -8.826556 33.840087 1.396867 1.834680 0.067103 -0.012882 956462.000000 0 0 1
4.518324 32.518161 -9.643756 34.217658 1.432733 1.856503 0.064636 -0.019684 517531.000000 0 0 1
3.640724 31.291193 -9.904256 33.022537 1.454967 1.875409 0.056916 -0.028760 -158385.000000 0 0 1
4.222824 30.467943 -10.876456 32.625529 1.433075 1.910675 0.057167 -0.020053 -52443.900000 0 0 1
3.710724 29.155023 -10.752656 31.295439 1.444201 1.921528 0.043904 -0.028622 48085.900000 0 0 1
4.516024 28.082233 -11.514556 30.685360 1.411347 1.955458 0.051678 -0.029982 -109789.000000 0 0 1
4.265224 28.221573 -12.912056 31.326834 1.420798 1.995633 0.059640 -0.024511 -411457.000000 0 0 1
5.414124 28.167453 -13.707456 31.790133 1.380900 2.016603 0.055347 -0.030563 -461016.000000 0 0 1
5.280324 28.700453 -15.171056 32.890102 1.388851 2.050217 0.060715 -0.022619 -445941.000000 0 0 1
4.370724 28.014403 -15.963156 32.538168 1.416027 2.083572 0.057221 -0.021552 -335112.000000 0 0 1
4.180424 28.694983 -17.191856 33.711095 1.426129 2.105953 0.085538 -0.025930 103971.000000 0 0 1
3.130024 27.926783 -18.027956 33.387265 1.459182 2.141192 0.073875 -0.035478 -50813.400000 0 0 1
3.526624 26.623953 -18.436356 32.575623 1.439102 2.172388 0.089192 -0.025553 -466220.000000 0 0 1
2.708624 26.021293 -19.382756 32.559724 1.467077 2.208433 0.094850 -0.038432 -274690.000000 0 0 1
3.414424 24.867503 -20.110756 32.163544 1.434345 2.246268 0.111663 -0.041512 114553.000000 0 0 1
3.782924 23.842963 -19.212756 30.853321 1.413448 2.243001 0.105946 -0.038512 13176.900000 0 0 1
4.796024 23.024223 -19.751156 30.711966 1.365430 2.269348 0.107361 -0.035135 -83037.500000 0 0 1
5.054824 21.852533 -18.834856 29.288842 1.343479 2.269300 0.112480 -0.035412 -322140.000000 0 0 1
4.114024 20.806933 -18.825356 28.359261 1.375590 2.296707 0.141673 -0.035023 -241748.000000 0 0 1
4.554024 19.838233 -17.948156 27.137261 1.345148 2.293459 0.126470 -0.030328 -80915.000000 0 0 1
3.531024 18.729533 -17.668656 25.989324 1.384456 2.318345 0.108213 -0.035297 623252.000000 0 0 1
2.560324 19.002333 -16.621956 25.375842 1.436866 2.285020 0.111354 -0.035928 190475.000000 0 0 1
1.696424 18.008633 -16.171456 24.263238 1.476873 2.300301 0.084227 -0.027985 40702.400000 0 1 0
2.307324 16.786033 -15.378556 22.882191 1.434197 2.307804 0.068339 -0.027053 54006.000000 0 1 0
3.293524 16.006033 -16.016056 22.881313 1.367861 2.346141 0.084322 -0.033416 -149752.000000 0 1 0
2.759324 15.033533 -16.945256 22.820226 1.389272 2.407672 0.090936 -0.036834 -112695.000000 0 1 0
3.062624 15.427433 -18.471256 24.260517 1.374826 2.436222 0.079191 -0.034856 1273940.000000 0 1 0
4.450424 15.426933 -18.921156 24.815453 1.289938 2.437926 0.108669 -0.040354 1184880.000000 0 1 0
4.565024 15.973333 -20.233656 26.179910 1.292426 2.454147 0.106790 -0.039356 -678838.000000 0 0 1
4.792124 14.965333 -21.425456 26.570206 1.260898 2.508787 0.097142 -0.047632 328951.000000 0 0 1
3.718724 14.095333 -21.708556 26.148972 1.312847 2.550241 0.084679 -0.038430 -42699.700000 0 0 1
2.447924 14.604333 -22.031856 26.545839 1.404724 2.549824 0.091739 -0.040147 -58248.200000 0 0 1
1.495624 13.547333 -22.651256 26.435706 1.460842 2.599912 0.087857 -0.022758 309879.000000 0 0 1
0.837224 12.714033 -21.684956 25.151241 1.505041 2.610358 0.083859 -0.019062 295808.000000 0 0 1
-0.093976 11.830533 -22.284056 25.229933 -1.562853 2.653521 0.045645 -0.013140 24321.800000 0 0 1
-0.683076 10.808033 -21.330556 23.922224 -1.507679 2.671801 0.022001 -0.007186 -1206840.000000 0 1 0
-1.520976 11.259033 -20.347256 23.304292 -1.436520 2.632346 0.024896 -0.007371 -370172.000000 0 1 0
-2.069976 10.230933 -19.507556 22.124682 -1.371166 2.650271 0.009471 -0.003553 850281.000000 0 1 0
-3.161676 9.230133 -20.027956 22.278029 -1.240784 2.688278 0.016904 -0.004819 456080.000000 0 1 0
-2.584976 8.202633 -20.834556 22.539832 -1.265508 2.750109 0.013289 -0.001309 351175.000000 0 1 0
-3.605676 7.225633 -21.005656 22.504406 -1.107940 2.774576 0.018745 -0.003394 418126.000000 0 1 0
-3.034276 6.023433 -21.797056 22.816666 -1.104157 2.841513 0.020518 -0.011528 -314310.000000 0 1 0
-2.222576 5.217633 -21.026456 21.777865 -1.168101 2.878140 0.027145 -0.010421 -371026.000000 0 1 0
-1.981876 4.017733 -21.689956 22.147781 -1.112537 2.937912 0.049946 -0.019045 -120327.000000 0 1 0
-1.110276 2.971533 -20.938856 21.177781 -1.213221 2.991239 0.049298 -0.018732 1255.280000 0 1 0
0.259724 3.267033 -20.848756 21.104777 1.491465 2.985673 0.035993 -0.013921 -156237.000000 0 1 0
0.945424 2.192333 -20.155756 20.296666 1.163652 3.023690 0.040883 -0.008998 -24976.000000 0 1 0
2.462524 2.330833 -20.285456 20.566880 0.757932 2.975975 0.031592 -0.009114 -125246.000000 0 1 0
3.092124 1.656433 -21.377556 21.663446 0.491794 2.978952 0.054988 -0.017034 500123.000000 0 1 0
4.501224 1.837933 -21.349156 21.895787 0.387657 2.917674 0.070415 -0.012143 849612.000000 0 1 0
5.319924 1.116133 -22.530156 23.176611 0.206803 2.904852 0.080530 -0.016264 150108.000000 0 1 0
6.712824 1.284133 -22.445356 23.462843 0.189012 2.846015 0.071581 -0.018017 89126.000000 0 1 0
7.380224 0.662833 -23.605656 24.741343 0.089572 2.837428 0.078062 -0.021916 -902188.000000 0 1 0
8.853924 0.792733 -23.400956 25.032482 0.089297 2.778558 0.096449 -0.033073 -1466040.000000 0 0 1
9.405324 2.029233 -23.686356 25.566020 0.212496 2.755740 0.088291 -0.037158 -1502070.000000 0 0 1
10.697324 2.089433 -23.260556 25.687583 0.192894 2.703394 0.102550 -0.042984 -1504150.000000 0 0 1
13.289724 -19.754490 22.551083 32.793414 -0.978598 0.812520 0.110084 -0.015545 -59822.800000 0 0 1
12.811724 -21.095290 22.295383 33.260121 -1.025007 0.836138 0.096519 -0.013444 202068.000000 0 0 1
11.556824 -21.143390 21.628983 32.379253 -1.070573 0.839293 0.079599 -0.002381 293887.000000 0 0 1
11.483624 -20.920790 20.088583 31.194619 -1.068791 0.871112 0.116564 -0.020700 -306270.000000 0 0 1
11.631124 -19.542490 19.870483 30.199802 -1.033935 0.852680 0.158414 -0.025984 -120128.000000 0 0 1
11.631124 -19.219990 18.474883 29.086291 -1.026593 0.882561 0.157986 -0.026429 56891.600000 0 0 1
11.695324 -17.755490 18.115583 27.932282 -0.988338 0.865114 0.190874 -0.048327 301947.000000 0 0 1
10.597924 -17.029090 18.658083 27.393976 -1.014110 0.821530 0.210718 -0.053275 -18894.500000 0 0 1
10.431524 -15.779490 18.019283 26.124769 -0.986671 0.809667 0.224158 -0.053119 647782.000000 0 0 1
9.159924 -14.963290 18.459683 25.466923 -1.021484 0.759981 0.179924 -0.046986 855384.000000 0 0 1
7.928724 -15.534190 18.052683 25.101296 -1.098860 0.768156 0.150462 -0.037912 -525867.000000 0 0 1
6.864724 -14.870490 18.663983 24.831435 -1.138310 0.720271 0.115807 -0.021533 -627589.000000 0 1 0
5.514524 -15.397590 18.214183 24.479628 -1.226887 0.731677 0.039690 -0.006938 -1001760.000000 0 1 0
5.319824 -15.084490 16.871083 23.248135 -1.231746 0.758751 0.015820 -0.015632 484189.000000 0 1 0
4.005724 -15.323390 16.357083 22.768537 -1.315106 0.769286 0.002437 -0.012412 752364.000000 0 1 0
3.298824 -16.711390 16.485483 23.704935 -1.375902 0.801757 -0.002744 -0.001332 -435352.000000 0 1 0
1.976724 -16.697090 16.027183 23.228664 -1.452957 0.809343 -0.003332 -0.001078 -712816.000000 0 1 0
1.318424 -17.937390 16.114783 24.149005 -1.497427 0.840210 0.016331 -0.004218 -874238.000000 0 1 0
-0.129276 -17.804190 15.762483 23.779440 1.563535 0.846162 0.033893 0.003308 -1424160.000000 0 1 0
-0.336976 -17.292990 14.447883 22.536689 1.551312 0.874888 0.036735 -0.005673 247481.000000 0 1 0
-1.641276 -17.434290 13.896383 22.355261 1.476932 0.899993 0.034849 -0.005667 257963.000000 0 1 0
-1.954876 -18.760690 13.154483 22.996205 1.466970 0.961820 0.035547 0.009767 -537075.000000 0 1 0
-3.337676 -18.995090 13.107783 23.318823 1.396859 0.973859 0.028861 0.004265 -190235.000000 0 1 0
-3.595676 -20.041090 12.167583 23.719702 1.393270 1.032151 0.054544 -0.009907 -353338.000000 0 1 0
-5.064376 -20.453890 12.160583 24.328775 1.328078 1.047378 0.036035 -0.007525 -364272.000000 0 1 0
-5.508776 -20.846990 13.470583 25.424402 1.312453 1.012397 0.020881 -0.014396 353762.000000 0 0 1
-6.907476 -21.111590 13.384883 25.933907 1.254586 1.028487 0.017206 -0.018050 11623.000000 0 0 1
-7.420876 -21.883390 14.524583 27.293143 1.243856 1.009635 0.026760 -0.025005 -1041050.000000 0 0 1
-8.804876 -21.944090 14.515683 27.744801 1.189220 1.020212 0.030329 -0.026780 -1106460.000000 0 0 1
-9.355276 -22.597090 15.626383 29.022982 1.178276 1.002242 0.036017 -0.033852 807336.000000 0 0 1
-10.883376 -22.219390 15.664883 29.283745 1.115330 1.006366 0.074484 -0.034856 800603.000000 0 0 1
-11.019176 -20.862890 15.942483 28.475343 1.084867 0.976568 0.069587 -0.028338 -291012.000000 0 0 1
-12.362776 -20.494690 15.733783 28.643018 1.028014 0.989263 0.076325 -0.023245 -107731.000000 0 0 1
-12.724476 -19.200290 16.490583 28.328480 0.985529 0.949462 0.088773 -0.017294 -187458.000000 0 0 1
-12.588376 -19.331190 17.880383 29.186816 0.993581 0.911427 0.096173 -0.026621 -94451.000000 0 0 1
-13.079576 -18.210790 18.578683 29.118304 0.947938 0.878844 0.106889 -0.031581 -86562.700000 0 0 1
-13.616476 -18.687290 19.924483 30.522258 0.941100 0.859541 0.107691 -0.033482 -25530.600000 0 0 1
-14.736276 -19.533090 19.764583 31.453747 0.924468 0.891341 0.102359 -0.027032 -113739.000000 0 0 1
-15.185476 -20.085890 20.981583 32.776035 0.923449 0.876103 0.099007 -0.026442 -258029.000000 0 0 1
-16.636376 -20.580890 20.940183 33.746604 0.890990 0.901401 0.103720 -0.028387 -830620.000000 0 0 1
-16.877976 -21.640090 19.978783 33.945712 0.908407 0.941531 0.117130 -0.032367 15320.000000 0 0 1
-18.180576 -21.639390 19.461783 34.315558 0.872042 0.967765 0.095859 -0.031465 -137169.000000 0 0 1
-19.365876 -22.151290 20.299383 35.746073 0.852388 0.966872 0.101138 -0.033577 -368201.000000 0 0 1
-19.901676 -21.141690 21.206783 35.955186 0.815601 0.939971 0.112468 -0.028357 -246917.000000 0 0 1
-20.621176 -21.807690 22.180083 37.319758 0.813356 0.934370 0.082748 -0.023593 -500992.000000 0 0 1
-21.262576 -20.702990 23.012583 37.553827 0.772065 0.911211 0.075035 -0.010931 -491755.000000 0 0 1
-22.363776 -20.015990 22.487083 37.502630 0.730056 0.927778 0.080451 -0.011524 -147396.000000 0 0 1
-22.661076 -18.986390 23.408043 37.708671 0.697393 0.901084 0.080792 -0.009992 594462.000000 0 0 1
-23.739076 -17.987790 22.879303 37.557514 0.648429 0.915770 0.085839 -0.008363 448202.000000 0 0 1
-23.134376 -17.201090 21.855883 36.176740 0.639347 0.922108 0.101125 -0.006547 151480.000000 0 0 1
-24.040176 -16.543390 20.966483 35.933372 0.602733 0.947786 0.097315 -0.019191 -257614.000000 0 0 1
-23.368176 -16.014490 19.668083 34.487230 0.600800 0.963925 0.110227 -0.015491 274976.000000 0 0 1
-22.473776 -14.935690 19.871483 33.511510 0.586559 0.936048 0.112477 -0.011565 232973.000000 0 0 1
-21.680376 -14.625290 18.688883 32.143618 0.593466 0.950326 0.108108 -0.020666 426408.000000 0 0 1
-20.726776 -13.426890 18.807083 31.041698 0.574830 0.919943 0.098780 -0.021368 63370.900000 0 0 1
-20.079876 -13.318490 17.531283 29.798146 0.585651 0.941798 0.105631 -0.022457 -269778.000000 0 0 1
-19.256576 -12.196590 17.438883 28.699951 0.564597 0.917726 0.102643 -0.031313 -506068.000000 0 0 1
-18.433576 -12.279590 16.120583 27.394493 0.587647 0.941643 0.076263 -0.032732 -96196.100000 0 0 1
-18.250276 -10.974590 15.592083 26.393697 0.541403 0.938808 0.077730 -0.029643 -195213.000000 0 0 1
-16.956676 -10.518290 15.898683 25.513358 0.555215 0.898031 0.084974 -0.032409 -413532.000000 0 0 1
-16.560276 -9.327790 15.001683 24.213651 0.512969 0.902621 0.084558 -0.037512 -96886.800000 0 1 0
-17.325076 -8.144890 15.190383 24.438601 0.439460 0.900047 0.105302 -0.039779 16676.500000 0 1 0
-16.716176 -6.965990 14.698483 23.323828 0.394838 0.888996 0.086565 -0.039587 -567314.000000 0 1 0
-16.659476 -5.800090 15.744783 23.644817 0.335031 0.842114 0.094470 -0.030832 246767.000000 0 1 0
-15.805676 -5.885790 16.866783 23.852679 0.356476 0.785375 0.069744 -0.020737 -738933.000000 0 1 0
-14.455876 -5.827190 16.537483 22.724807 0.383177 0.755793 0.060396 -0.020257 -1132450.000000 0 1 0
-13.537876 -5.802190 17.777783 23.086556 0.404907 0.691878 0.049293 -0.014047 -74895.900000 0 1 0
-13.657276 -6.980190 18.641283 24.140043 0.472486 0.688478 0.042508 -0.019066 -52452.000000 0 1 0
-13.163276 -8.144790 18.055683 23.782707 0.554093 0.708723 0.029573 -0.021002 -758375.000000 0 1 0
-13.407176 -9.423790 18.906683 25.020449 0.612664 0.714152 0.056437 -0.020959 251576.000000 0 0 1
-14.730376 -9.903790 19.046183 26.035094 0.591919 0.750192 0.072896 -0.022845 -232256.000000 0 0 1
-15.483876 -9.179290 19.983983 26.895527 0.535130 0.733221 0.063739 -0.021317 -1189540.000000 0 0 1
-16.811976 -9.908590 20.320683 28.173620 0.532572 0.765168 0.072461 -0.020642 1166390.000000 0 0 1
-17.850376 -9.784990 19.287283 28.042490 0.501435 0.812359 0.098763 -0.024252 812725.000000 0 0 1
-18.432076 -8.526490 19.137683 27.905078 0.433274 0.815075 0.097030 -0.028471 -962899.000000 0 0 1
-19.516976 -8.472490 18.059783 27.907906 0.409560 0.866995 0.120740 -0.034986 -573324.000000 0 0 1
-20.734876 -8.996090 18.479783 29.195327 0.409353 0.885412 0.126741 -0.038940 -722410.000000 0 0 1
-21.595176 -9.120090 17.375683 29.179480 0.399599 0.932938 0.132045 -0.026705 -250804.000000 0 0 1
-23.053376 -9.532890 17.630283 30.547685 0.392102 0.955574 0.118280 -0.020236 61935.000000 0 0 1
-23.743676 -8.411390 18.217883 31.087054 0.340463 0.944648 0.124945 -0.018847 954364.000000 0 0 1
-25.130326 -8.739090 18.388683 32.342675 0.334670 0.966045 0.128942 -0.019808 361280.000000 0 0 1
-26.002256 -7.625690 18.964183 33.074291 0.285271 0.960169 0.119880 -0.014833 -207451.000000 0 0 1
-25.970496 -7.518090 20.400583 33.869930 0.281783 0.924390 0.116164 -0.021057 -93991.400000 0 0 1
-26.699486 -6.421390 20.823883 34.463472 0.236023 0.921996 0.107998 -0.021905 -744197.000000 0 0 1
-26.939646 -6.372290 22.356483 35.583184 0.232270 0.891446 0.106957 -0.029327 541116.000000 0 0 1
-25.889416 -6.063090 23.297783 35.352647 0.230046 0.851293 0.117598 -0.034849 94467.200000 0 0 1
-24.884776 -7.036390 23.412923 34.884493 0.275565 0.835030 0.122963 -0.033930 -1020750.000000 0 0 1
-23.829376 -6.606090 24.382093 34.727022 0.270433 0.792444 0.120686 -0.030421 -1060160.000000 0 0 1
-22.983576 -5.564390 24.008793 33.699100 0.237532 0.777818 0.108229 -0.036253 642768.000000 0 0 1
-22.150076 -5.199190 25.164183 33.924822 0.230552 0.735101 0.099197 -0.027767 748414.000000 0 0 1
-21.404076 -3.812790 25.011253 33.139623 0.176285 0.715564 0.095593 -0.025599 44972.100000 0 0 1
-20.367676 -3.569790 25.934903 33.169336 0.173505 0.673098 0.089935 -0.027325 -197865.000000 0 0 1
-20.691076 -3.518090 27.330633 34.459558 0.168419 0.654878 0.087716 -0.031144 431983.000000 0 0 1
-21.646876 -2.298490 27.790943 35.301655 0.105785 0.664473 0.085166 -0.031177 696158.000000 0 0 1
-22.933776 -2.323490 27.236483 35.681686 0.100968 0.702362 0.093700 -0.036557 -867529.000000 0 0 1
-23.689176 -1.356190 27.914743 36.636720 0.057187 0.704503 0.081605 -0.020874 575333.000000 0 0 1
-25.101056 -1.093190 27.291843 37.095860 0.043524 0.744080 0.077834 -0.027339 75656.500000 0 0 1
-25.000776 -0.420790 26.062253 36.117266 0.016829 0.764684 0.073555 -0.025160 74193.600000 0 0 1
-26.204766 -0.006390 25.455953 36.533483 0.000244 0.799892 0.094312 -0.032727 -259996.000000 0 0 1
-27.178036 -1.034890 24.900543 36.874838 0.038060 0.829463 0.086147 -0.032744 -490600.000000 0 0 1
-28.056016 -1.677090 25.806833 38.156852 0.059705 0.828020 0.066365 -0.033852 405178.000000 0 0 1
-28.662136 -2.893390 25.365543 38.383597 0.100607 0.848855 0.066172 -0.036048 81493.000000 0 0 1
-27.721346 -4.117890 25.342503 37.784554 0.147467 0.835630 0.073690 -0.033443 85259.700000 0 0 1
-27.099376 -4.309290 26.603973 38.219335 0.157698 0.800864 0.056269 -0.030997 72753.700000 0 0 1
-26.324236 -5.491790 26.715003 37.905363 0.205671 0.788681 0.070136 -0.034667 12779.700000 0 0 1
-25.792686 -5.784290 28.099093 38.578229 0.220611 0.754861 0.044060 -0.024666 157484.000000 0 0 1
-26.880656 -6.192390 28.907373 39.956872 0.226416 0.761989 0.061987 -0.026560 87978.800000 0 0 1
-26.468516 -6.756590 30.108413 40.654033 0.249931 0.736832 0.056751 -0.028325 -174750.000000 0 0 1
-27.639176 -7.147290 31.044793 42.175668 0.253049 0.743531 0.055605 -0.023874 272794.000000 0 0 1
-28.504826 -8.146790 30.459703 42.505162 0.278382 0.771864 0.046903 -0.025978 141675.000000 0 0 1
-29.509776 -8.458190 31.383243 43.900750 0.279140 0.774361 0.062131 -0.023174 -197505.000000 0 0 1
-30.759806 -9.160490 30.816413 44.494175 0.289444 0.805717 0.057655 -0.021584 -130862.000000 0 0 1
-30.443596 -10.444490 30.334113 44.227348 0.330494 0.815001 0.055352 -0.025976 26345.100000 0 0 1
-31.501706 -10.965990 29.585993 44.586337 0.334988 0.845220 0.045990 -0.026649 -431954.000000 0 0 1
-31.068646 -12.185790 28.739303 44.042046 0.373783 0.859862 0.049947 -0.025089 -299420.000000 0 0 1
-30.077406 -11.954090 27.801263 42.666859 0.378301 0.861119 0.066700 -0.027429 -789490.000000 0 0 1
-29.274906 -13.068590 27.518883 42.250410 0.419864 0.861463 0.068731 -0.026640 -285010.000000 0 0 1
-28.018026 -12.596390 26.726283 40.718215 0.422506 0.854797 0.077057 -0.030707 -448382.000000 0 0 1
-27.096166 -11.910190 27.538253 40.427840 0.414132 0.821436 0.071853 -0.031541 -199630.000000 0 0 1
-27.377446 -10.607390 27.966743 40.548490 0.369641 0.809706 0.069204 -0.031468 -1157400.000000 0 0 1
-27.467246 -9.471990 26.903563 39.597600 0.332077 0.823819 0.070660 -0.026097 -32952.000000 0 0 1
-26.279086 -9.079090 26.248403 38.236094 0.332649 0.814156 0.074742 -0.030259 34908.900000 0 0 1
-25.658076 -9.933090 25.302083 37.379119 0.369365 0.827248 0.069420 -0.027574 24929.700000 0 0 1
-26.407746 -10.095390 23.923733 37.035537 0.365146 0.868507 0.083600 -0.025814 -614223.000000 0 0 1
-27.546046 -10.873890 24.006383 38.122599 0.375975 0.889610 0.077711 -0.026390 -577780.000000 0 0 1
-28.213836 -10.990590 22.748013 37.871965 0.371462 0.926475 0.097483 -0.024973 -163076.000000 0 0 1
-29.531066 -11.786290 22.684583 39.058812 0.379743 0.951110 0.089462 -0.029102 -542040.000000 0 0 1
-30.667596 -11.248090 23.255543 40.097896 0.351540 0.952105 0.085199 -0.027581 -848763.000000 0 0 1
-30.681146 -11.036590 24.690833 40.899588 0.345307 0.922670 0.079021 -0.026518 -835478.000000 0 0 1
-32.072386 -10.649590 25.230943 42.174070 0.320594 0.929472 0.053024 -0.026331 -587781.000000 0 0 1
-32.463796 -9.300290 24.978483 42.003787 0.279009 0.933938 0.060656 -0.029492 -721776.000000 0 0 1
-33.805366 -9.035190 25.244563 43.147716 0.261166 0.945826 0.054856 -0.019548 -424428.000000 0 0 1
-34.246946 -9.073790 26.754263 44.395693 0.259001 0.924001 0.050724 -0.019560 -460647.000000 0 0 1
-34.556629 -10.387190 27.172953 45.171050 0.291993 0.925348 0.050736 -0.031578 -19003.900000 0 0 1
-34.988572 -10.323690 28.529703 46.311151 0.286918 0.907086 0.071158 -0.028384 -862613.000000 0 0 1
-35.458019 -11.648290 29.154523 47.359688 0.317403 0.907652 0.072024 -0.024342 798380.000000 0 0 1
-36.676766 -12.168890 28.569693 48.057200 0.320359 0.934161 0.047865 -0.023908 1923410.000000 0 0 1
37.214917 -11.542890 29.146393 48.659023 -0.300759 0.928554 0.059763 -0.020018 -443444.000000 0 0 1
35.959777 -11.999890 28.490653 47.421727 -0.322083 0.926303 0.056869 -0.022900 -980298.000000 0 0 1
35.725067 -11.506190 27.195393 46.349349 -0.311585 0.943759 0.052730 -0.019040 -577357.000000 0 0 1
34.578487 -12.082890 26.640833 45.292405 -0.336170 0.941969 0.065302 -0.014863 -240180.000000 0 0 1
34.283957 -11.580290 25.210513 44.102866 -0.325743 0.962305 0.057946 -0.021633 -7938.140000 0 0 1
33.773427 -10.302590 25.073193 43.306497 -0.296084 0.953331 0.075392 -0.030103 -200545.000000 0 0 1
34.037197 -9.932290 23.746453 42.674057 -0.283923 0.980676 0.065849 -0.019042 -489998.000000 0 0 1
33.500627 -8.553890 23.424073 41.763001 -0.249994 0.975347 0.078429 0.000123 -1296580.000000 0 0 1
32.159797 -8.417490 23.629443 40.785503 -0.255997 0.952854 0.086250 -0.007232 -1645480.000000 0 0 1
31.689957 -7.122890 23.178953 39.903042 -0.221094 0.950985 0.098587 0.006048 1215870.000000 0 0 1
30.128197 -6.917490 23.135293 38.610901 -0.225690 0.928306 0.104672 0.011048 1067720.000000 0 0 1
29.516207 -7.823090 22.217583 37.762788 -0.259087 0.941785 0.106085 0.016278 -823934.000000 0 0 1
28.166907 -7.602490 22.003583 36.542169 -0.263627 0.924615 0.105267 -0.005552 -891159.000000 0 0 1
15.870524 -17.237390 25.010663 34.271481 -0.826660 0.752795 0.113976 -0.010185 14131.200000 0 0 1
15.087824 -18.423690 25.179173 34.656392 -0.884615 0.757527 0.121127 -0.013583 321650.000000 0 0 1
15.842624 -19.575190 25.544883 35.870849 -0.890397 0.778262 0.088306 -0.010663 -341788.000000 0 0 1
15.041524 -20.941890 25.530513 36.285221 -0.947926 0.790336 0.081898 -0.018057 249859.000000 0 0 1
14.323824 -21.198990 26.724283 36.996708 -0.976577 0.763613 0.081750 -0.018930 1236880.000000 0 0 1
12.978624 -20.653690 26.712613 36.174345 -1.009761 0.740041 0.096343 -0.024202 638850.000000 0 0 1
12.113824 -20.994090 27.920643 36.973759 -1.047452 0.714917 0.080891 -0.018639 -218903.000000 0 0 1
12.559624 -20.389290 29.156423 37.730151 -1.018701 0.687615 0.074888 -0.024851 413242.000000 0 0 1
11.706324 -19.343190 29.725343 37.346928 -1.026569 0.650263 0.066756 -0.024304 390295.000000 0 0 1
11.754924 -17.977190 29.048653 36.127300 -0.991698 0.636697 0.088303 -0.025066 489080.000000 0 0 1
13.042024 -17.364990 29.101073 36.311289 -0.926622 0.641109 0.080290 -0.006614 65934.500000 0 0 1
12.895924 -15.999990 28.759433 35.346987 -0.892410 0.620424 0.101795 -0.004122 -214630.000000 0 0 1
13.998224 -14.982090 29.043603 35.551992 -0.819335 0.614723 0.083612 -0.000291 -303995.000000 0 0 1
13.557224 -13.676790 28.834593 34.674005 -0.789788 0.588830 0.134565 -0.005542 311261.000000 0 0 1
14.311924 -12.756290 29.638583 35.298721 -0.727990 0.574157 0.116926 0.002243 135330.000000 0 0 1
13.698724 -11.368890 29.494033 34.450032 -0.692722 0.543044 0.121748 0.002591 -2750.640000 0 0 1
13.845224 -10.603990 28.282293 33.226840 -0.653597 0.552551 0.158095 -0.005819 495754.000000 0 0 1
15.186824 -10.447390 27.813843 33.367611 -0.602576 0.585279 0.147345 -0.005891 6668.250000 0 0 1
15.345624 -9.527290 26.577673 32.134563 -0.555608 0.596914 0.146117 -0.005446 83921.100000 0 0 1
15.810724 -8.214190 26.761583 32.150182 -0.479151 0.587385 0.149124 -0.010408 -395915.000000 0 0 1
17.097624 -8.048090 27.263673 33.172404 -0.439945 0.606096 0.136002 -0.018280 -935357.000000 0 0 1
17.619024 -6.583390 26.954523 32.868181 -0.357589 0.609246 0.124864 -0.016948 354817.000000 0 0 1
19.000124 -6.482790 27.278603 33.869654 -0.328811 0.634447 0.095035 -0.027566 122769.000000 0 0 1
19.519924 -5.314590 26.731913 33.524133 -0.265822 0.647833 0.095990 -0.028887 481930.000000 0 0 1
21.075024 -5.151090 26.656093 34.369138 -0.239717 0.683159 0.091392 -0.026402 -185996.000000 0 0 1
21.673824 -5.999890 25.720803 34.165963 -0.270064 0.718461 0.090320 -0.015554 1187400.000000 0 0 1
23.060924 -5.754190 25.379723 34.771357 -0.244528 0.752616 0.082452 -0.019765 1104500.000000 0 0 1
24.140324 -5.887690 26.440513 36.283893 -0.239224 0.754357 0.079853 -0.023647 -1239700.000000 0 0 1
24.279024 -4.706190 27.238303 36.790547 -0.191463 0.737188 0.088458 -0.030648 -149526.000000 0 0 1
25.027724 -4.868490 28.402463 38.167906 -0.192125 0.731542 0.084701 -0.035068 -368112.000000 0 0 1
25.645124 -3.614790 29.085143 38.944635 -0.140032 0.727509 0.090116 -0.036562 193621.000000 0 0 1
26.519724 -3.000390 28.125363 38.772853 -0.112659 0.759198 0.081986 -0.028918 350375.000000 0 0 1
26.763724 -1.647490 28.466063 39.106622 -0.061479 0.755529 0.072748 -0.032585 -757988.000000 0 0 1
27.542824 -0.957690 27.410383 38.869698 -0.034757 0.788110 0.085458 -0.031505 266220.000000 0 0 1
28.936024 -1.270890 27.353183 39.838490 -0.043892 0.813992 0.085497 -0.033444 498296.000000 0 0 1
29.674524 -0.420790 26.494693 39.783454 -0.014179 0.841999 0.085615 -0.012122 843956.000000 0 0 1
31.203724 -0.388090 26.824163 41.150440 -0.012437 0.860767 0.076798 -0.014098 698663.000000 0 0 1
31.512924 0.425910 27.962703 42.132630 0.013515 0.845065 0.058347 -0.007872 -289784.000000 0 0 1
32.864524 0.274210 28.313513 43.379801 0.008343 0.859668 0.062897 -0.013592 -143713.000000 0 0 1
33.264524 1.346710 29.313033 44.357593 0.040463 0.848866 0.090426 -0.022272 -14554.400000 0 0 1
33.547824 2.644810 28.714513 44.237708 0.078674 0.864401 0.071921 -0.012324 231405.000000 0 0 1
34.130424 3.542010 29.650293 45.349438 0.103409 0.858176 0.064933 -0.005905 80542.100000 0 0 1
34.288224 5.023410 29.140953 45.278164 0.145471 0.871606 0.072017 -0.001351 -27980.600000 0 0 1
34.486124 6.023910 30.109683 46.175462 0.172932 0.860483 0.072505 -0.002396 1262500.000000 0 0 1
33.239924 6.549510 30.665603 45.696475 0.194545 0.835143 0.056812 0.001097 1133280.000000 0 0 1
33.392524 7.293310 31.984571 46.810958 0.215035 0.818563 0.056292 -0.002705 189489.000000 0 0 1
33.944324 6.489310 33.064416 47.828693 0.188896 0.807497 0.048033 0.003177 392760.000000 0 0 1
34.113924 7.150410 -33.428236 48.294256 0.206613 2.335299 0.055113 -0.004835 -297208.000000 0 0 1
34.295324 6.195310 -32.213206 47.457789 0.178719 2.316891 0.076251 -0.006437 -255318.000000 0 0 1
33.246624 5.336210 -31.830686 46.335793 0.159146 2.328089 0.057082 -0.000594 -81544.200000 0 0 1
33.305024 4.076510 -32.502056 46.714304 0.121793 2.340277 0.075956 -0.012864 33776.600000 0 0 1
33.482824 2.874610 -31.489806 46.053998 0.085643 2.323697 0.079987 -0.031643 -103885.000000 0 0 1
33.600224 1.570810 -32.089436 46.488433 0.046716 2.332654 0.084912 -0.030138 140510.000000 0 0 1
33.779824 0.593310 -31.077836 45.904906 0.017562 2.314481 0.070769 -0.032660 -59137.900000 0 0 1
34.135524 -0.757690 -31.693046 46.586020 -0.022193 2.318985 0.075574 -0.051047 -917224.000000 0 0 1
35.385924 -0.796290 -32.341036 47.945180 -0.022499 2.311140 0.091917 -0.039244 -74930.900000 0 0 1
36.171924 -1.962690 -32.131666 48.422146 -0.054207 2.296382 0.103614 -0.037431 452629.000000 0 0 1
36.868224 -1.923090 -30.729776 48.034189 -0.052114 2.264967 0.102172 -0.033494 -686351.000000 0 0 1
35.943824 -1.885690 -29.662376 46.640871 -0.052414 2.260066 0.089196 -0.033205 -390264.000000 0 0 1
36.599924 -1.670790 -28.454706 46.389829 -0.045618 2.231133 0.109871 -0.036161 -358921.000000 0 0 1
35.707224 -1.304090 -27.258996 44.941733 -0.036506 2.222499 0.116283 -0.034628 -457423.000000 0 0 1
35.105524 -0.030090 -27.427786 44.549772 -0.000857 2.234027 0.107487 -0.026066 255981.000000 0 0 1
34.482324 0.402010 -26.229916 43.326675 0.011658 2.221063 0.106976 -0.020828 -135431.000000 0 0 1
33.923324 1.843810 -26.318596 42.975109 0.054299 2.229908 0.080358 -0.015632 71131.100000 0 0 1
32.891024 2.071610 -27.258736 42.768560 0.062901 2.261857 0.101472 -0.033189 412005.000000 0 0 1
32.339924 3.365810 -27.090436 42.321284 0.103703 2.265443 0.076440 -0.014886 -6258.040000 0 0 1
31.330524 3.699010 -28.209636 42.321011 0.117520 2.300385 0.098222 -0.020032 137488.000000 0 0 1
30.341424 4.630910 -27.756086 41.381731 0.151458 2.305993 0.078829 -0.020906 387338.000000 0 0 1
29.585524 5.109010 -28.842076 41.632566 0.171000 2.336129 0.079028 -0.027654 -84763.800000 0 0 1
28.449724 6.072610 -28.392066 40.649389 0.210295 2.344043 0.071542 -0.022416 -791468.000000 0 0 1
27.314024 5.395910 -27.991896 39.480603 0.195040 2.358881 0.092854 -0.026089 -319210.000000 0 0 1
26.429424 6.261810 -27.295166 38.506503 0.232636 2.358657 0.105963 -0.027150 88837.500000 0 0 1
24.979524 5.757210 -27.134076 37.328008 0.226522 2.384607 0.121675 -0.021394 60082.400000 0 0 1
24.277524 5.592010 -28.357606 37.746822 0.226388 2.420763 0.133135 -0.021234 272182.000000 0 0 1
22.945224 5.184010 -28.112326 36.655970 0.222199 2.444830 0.134883 -0.016384 258023.000000 0 0 1
22.073924 4.874310 -29.358796 37.053420 0.217330 2.485427 0.123469 -0.013209 155822.000000 0 0 1
22.511924 3.685910 -30.028686 37.710670 0.162291 2.491936 0.101349 -0.013608 64463.200000 0 0 1
21.698624 3.218810 -31.073076 38.035866 0.147268 2.526884 0.074365 -0.015946 -178817.000000 0 0 1
22.084824 3.905710 -32.356416 39.369172 0.175041 2.535486 0.100975 -0.009761 -1269560.000000 0 0 1
23.289224 3.603810 -32.891496 40.462648 0.153524 2.519886 0.087994 -0.013359 -1314290.000000 0 0 1
23.503624 4.174510 33.523886 41.154560 0.175778 0.618783 0.096065 -0.020632 496924.000000 0 0 1
24.896424 3.725510 32.970079 41.481773 0.148538 0.652104 0.087335 -0.008660 654630.000000 0 0 1
24.886324 2.355210 32.615410 41.093078 0.094358 0.653935 0.093576 -0.017894 -123439.000000 0 0 1
26.207324 1.909710 32.431562 41.740592 0.072741 0.680944 0.077477 -0.018435 -576700.000000 0 0 1
26.375124 0.386610 32.197567 41.623070 0.014657 0.686371 0.059909 -0.018270 -611588.000000 0 0 1
25.866424 -0.142790 30.989003 40.365958 -0.005520 0.695550 0.060897 -0.021846 527758.000000 0 0 1
24.457924 -0.113690 30.830333 39.353684 -0.004648 0.670652 0.087094 -0.030982 -347422.000000 0 0 1
23.528324 -1.024790 31.645993 39.447447 -0.043528 0.639772 0.085754 -0.036779 -832838.000000 0 0 1
23.814024 -2.404290 31.416143 39.495093 -0.100620 0.651056 0.080895 -0.047896 278510.000000 0 0 1
23.262224 -3.157690 32.483247 40.078216 -0.134919 0.625797 0.084079 -0.037165 -136325.000000 0 0 1
23.113324 -4.600990 32.104745 39.825990 -0.196494 0.633221 0.084220 -0.038461 -90323.200000 0 0 1
24.355124 -5.197890 31.854330 40.433754 -0.210266 0.663543 0.082971 -0.032914 -118963.000000 0 0 1
24.070224 -6.565290 31.837179 40.448544 -0.266278 0.664698 0.077702 -0.026115 274283.000000 0 0 1
25.329424 -7.477990 31.692123 41.253978 -0.287074 0.694741 0.082288 -0.031273 474817.000000 0 0 1
26.008324 -7.251790 30.481103 40.720007 -0.271919 0.724918 0.080190 -0.029695 -601025.000000 0 0 1
27.230924 -7.899890 30.337073 41.524324 -0.282356 0.751617 0.078378 -0.022522 127223.000000 0 0 1
27.923524 -7.596590 28.953273 40.935600 -0.265621 0.785141 0.084978 -0.027555 199264.000000 0 0 1
27.060224 -8.059390 27.958273 39.735054 -0.289466 0.790321 0.084514 -0.023375 -97448.300000 0 0 1
27.560724 -7.795990 26.665043 39.133048 -0.275664 0.821130 0.099226 -0.020263 294272.000000 0 0 1
26.807924 -8.713590 25.659013 38.117927 -0.314266 0.832339 0.086292 -0.025778 -178674.000000 0 0 1
25.503524 -8.398190 25.299393 36.891986 -0.318112 0.815136 0.076335 -0.027090 -1025940.000000 0 0 1
25.040424 -9.453890 24.513083 36.294491 -0.361000 0.829297 0.082254 -0.031309 597197.000000 0 0 1
23.610324 -9.301690 23.893213 34.854762 -0.375295 0.815495 0.083433 -0.020475 354089.000000 0 0 1
22.574824 -9.406990 24.841993 34.860275 -0.394822 0.777576 0.069683 -0.016899 -1036820.000000 0 0 1
21.423124 -8.967190 24.220513 33.555834 -0.396416 0.764401 0.083563 -0.011770 -499036.000000 0 0 1
20.192724 -8.922190 25.170973 33.480285 -0.416057 0.719986 0.088861 -0.007308 92918.300000 0 0 1
19.598124 -10.132290 25.685493 33.859922 -0.477157 0.709664 0.109188 -0.008001 139958.000000 0 0 1
20.063524 -10.650890 26.904453 35.211306 -0.488028 0.701174 0.075524 -0.010597 -618599.000000 0 0 1
19.017424 -11.549190 27.499753 35.373473 -0.545766 0.680256 0.087271 -0.010238 -200137.000000 0 0 1
18.476424 -12.624690 26.689833 34.829703 -0.599421 0.697742 0.096503 -0.012182 766836.000000 0 0 1
17.698124 -13.644490 27.351203 35.319739 -0.656779 0.685048 0.089421 -0.002594 516541.000000 0 0 1
18.584524 -14.737090 28.017443 36.708902 -0.670444 0.702494 0.083890 0.008813 -69406.200000 0 0 1
17.785524 -15.837490 28.424593 37.082454 -0.727525 0.697385 0.077511 0.005506 217741.000000 0 0 1
18.440624 -16.996290 28.909363 38.271161 -0.744663 0.714559 0.078301 0.004013 -330827.000000 0 0 1
19.067724 -17.995190 27.912453 38.295039 -0.756468 0.754113 0.085727 -0.003418 -11098.200000 0 0 1
20.166924 -17.493390 27.190813 38.105955 -0.714526 0.776232 0.089697 -0.008680 90948.700000 0 0 1
20.391424 -18.371390 26.070023 37.854514 -0.733333 0.811116 0.088189 -0.001796 618040.000000 0 0 1
21.640424 -17.844090 25.249333 37.739214 -0.689545 0.837870 0.070094 -0.016504 730770.000000 0 0 1
22.823124 -17.845890 26.014143 38.937211 -0.663620 0.839137 0.074463 -0.012684 171244.000000 0 0 1
23.929624 -17.259590 25.338293 38.891508 -0.624855 0.861220 0.073687 -0.014010 209321.000000 0 0 1
25.134024 -16.872990 26.222903 40.050688 -0.591218 0.856954 0.082368 -0.016952 397496.000000 0 0 1
25.925524 -17.906490 26.786223 41.355494 -0.604450 0.866226 0.082608 -0.016597 380393.000000 0 0 1
27.005424 -18.358290 25.982323 41.730095 -0.597040 0.898700 0.078393 -0.018846 -69175.800000 0 0 1
27.564924 -19.740290 26.342943 42.935471 -0.621475 0.910251 0.060279 -0.014050 78298.200000 0 0 1
28.453524 -19.718990 27.450663 44.181223 -0.606029 0.900371 0.064601 -0.014268 222673.000000 0 0 1
29.127624 -20.925990 27.699293 45.316292 -0.622984 0.913165 0.051540 -0.009399 122431.000000 0 0 1
28.222124 -22.031790 28.352363 45.669952 -0.662834 0.901021 0.058609 -0.006300 96350.100000 0 0 1
27.875024 -21.736990 29.649413 46.136768 -0.662303 0.872855 0.064864 -0.008182 -286074.000000 0 0 1
27.347424 -22.847090 30.262653 46.751463 -0.695979 0.866747 0.089501 -0.023520 -198688.000000 0 0 1
26.834624 -22.608990 31.731846 47.309338 -0.700142 0.835602 0.083495 -0.021972 19058.100000 0 0 1
26.418424 -23.823290 32.299271 48.049195 -0.733791 0.833603 0.084659 -0.023787 178889.000000 0 0 1
26.147824 -23.630690 33.693103 48.758008 -0.734875 0.807887 0.108240 -0.024058 -411911.000000 0 0 1
25.966424 -24.964790 -33.282406 49.042986 -0.765734 2.316702 0.093563 -0.027740 1643820.000000 0 0 1
24.652924 -25.596270 -33.428996 48.789686 -0.804169 2.325627 0.119879 -0.033777 1126300.000000 0 0 1
24.202724 -25.998190 33.037065 48.509024 -0.821149 0.821601 0.110908 -0.037774 1072730.000000 0 0 1
22.775824 -26.706020 33.171540 48.293899 -0.864659 0.813625 0.141261 -0.042846 1457230.000000 0 0 1
22.818324 -28.101210 33.421963 49.268464 -0.888778 0.825262 0.130888 -0.037561 -302537.000000 0 0 1
21.489424 -28.519690 33.580469 49.018526 -0.925063 0.816115 0.142317 -0.035544 -167084.000000 0 0 1
21.358124 -30.040560 33.623997 49.891661 -0.952742 0.831267 0.113529 -0.033509 -432186.000000 0 0 1
21.937924 -30.513810 -32.941736 49.975224 -0.947465 2.290499 0.076186 -0.030270 -662557.000000 0 0 1
22.998024 -31.343100 -33.269286 51.167806 -0.937776 2.278643 0.047943 -0.014079 -1014550.000000 0 0 1
23.723724 -31.773180 -32.023606 50.969220 -0.929437 2.250153 0.034897 -0.006337 -356690.000000 0 0 1
24.726024 -32.812960 -32.226726 52.217128 -0.925031 2.235934 0.029355 -0.000634 894376.000000 0 0 1
25.156624 -33.377780 -31.016726 52.047759 -0.924935 2.209217 0.021499 0.012021 457326.000000 0 0 1
26.269224 -32.524410 -30.297686 51.631958 -0.891392 2.197899 0.025888 0.006057 -241394.000000 0 0 1
26.745424 -33.068050 -29.108386 51.537479 -0.890713 2.170988 0.029364 0.015835 481531.000000 0 0 1
27.619424 -32.048310 -28.516466 51.020737 -0.859488 2.163878 0.034304 0.012884 441035.000000 0 0 1
28.082024 -32.331530 -27.089466 50.673139 -0.855623 2.134821 0.026697 0.008126 468920.000000 0 0 1
29.169924 -33.263310 -27.023176 51.841916 -0.850869 2.119124 0.026871 0.011145 104017.000000 0 0 1
29.937724 -32.961150 -25.888116 51.506303 -0.833429 2.097423 0.030826 0.003486 -39157.800000 0 0 1
-27.424046 -30.705513 9.434844 42.236514 0.841789 1.345514 0.081029 -0.015610 -419970.000000 0 0 1
-27.524726 -31.977513 10.135744 43.392455 0.860093 1.335035 0.072534 -0.018270 32178.000000 0 0 1
-26.289156 -32.263813 10.768444 42.988751 0.887085 1.317605 0.053770 -0.013364 98453.500000 0 0 1
-26.299346 -33.399113 11.814344 44.121821 0.903769 1.299722 0.053753 -0.013669 -21264.600000 0 0 1
-26.461896 32.842810 11.467444 43.707945 -0.892581 1.305324 0.066575 -0.006374 -393837.000000 0 0 1
-27.791526 32.495610 11.203044 44.202283 -0.863268 1.314552 0.050754 -0.025767 -550108.000000 0 0 1
-27.840786 30.946310 10.829944 43.012454 -0.838176 1.316271 0.063380 -0.016700 390.654000 0 0 1
-27.417586 30.891910 9.536144 42.390709 -0.844912 1.343896 0.088062 -0.033205 -184622.000000 0 0 1
-27.461176 29.557510 9.035944 41.345023 -0.822147 1.350468 0.110004 -0.030596 -201266.000000 0 0 1
-26.739406 29.344710 7.676544 40.435593 -0.831818 1.379791 0.088547 -0.016902 171422.000000 0 0 1
-25.376606 28.957510 7.840044 39.293458 -0.851208 1.369923 0.074813 -0.009105 163612.000000 0 0 1
-24.827876 29.019710 6.560044 38.750500 -0.863088 1.400688 0.063255 -0.006476 -943859.000000 0 0 1
-23.524976 28.244610 6.485944 37.326264 -0.876313 1.396146 0.086718 -0.004320 -965589.000000 0 0 1
-23.533176 26.812610 6.505544 36.263598 -0.850444 1.390424 0.086644 -0.006004 -110997.000000 0 0 1
-24.267176 26.098310 5.536744 36.064847 -0.821739 1.416665 0.071328 -0.007382 -503343.000000 0 0 1
-24.308176 24.592110 5.844644 35.068778 -0.791204 1.403353 0.090255 0.005015 109886.000000 0 0 1
-25.239676 24.213310 6.898444 35.649883 -0.764647 1.376063 0.108738 -0.006852 800835.000000 0 0 1
-25.539246 22.863710 7.114244 35.008782 -0.730178 1.366158 0.122587 -0.025517 -78316.300000 0 0 1
-26.186286 22.153510 5.887144 34.801696 -0.702165 1.400816 0.123247 -0.034543 357826.000000 0 0 1
-27.580236 22.497410 5.707544 36.046900 -0.684246 1.411791 0.125085 -0.033379 1270050.000000 0 0 1
-28.139536 21.977110 4.485244 35.985335 -0.663051 1.445830 0.120134 -0.024891 31463.300000 0 0 1
-27.875966 22.872310 3.232944 36.203094 -0.687118 1.481377 0.098669 -0.027745 320792.000000 0 0 1
-26.478546 23.110610 3.023344 35.275407 -0.717586 1.484984 0.095053 -0.027489 904754.000000 0 0 1
-26.249536 23.834810 1.817144 35.502653 -0.737222 1.519591 0.079424 -0.025156 -223836.000000 0 0 1
-25.010776 24.720910 1.896844 35.217330 -0.779570 1.516909 0.071234 -0.018009 -206629.000000 0 0 1
-24.591276 25.347210 0.698544 35.322796 -0.800534 1.551019 0.049324 -0.016765 -1418470.000000 0 0 1
-23.304176 25.757810 0.882144 34.746620 -0.835367 1.545406 0.070607 -0.020694 -2221060.000000 0 0 1
-22.691576 26.482610 -0.367256 34.876513 -0.862340 1.581327 0.094068 -0.017107 178789.000000 0 0 1
-22.218076 25.559010 -1.339256 33.892470 -0.855212 1.610321 0.102395 -0.018126 444106.000000 0 0 1
-21.254476 24.602410 -0.894956 32.524334 -0.858277 1.598316 0.096065 -0.036279 -359335.000000 0 0 1
-20.604376 23.598310 -1.935456 31.387363 -0.853027 1.632499 0.126370 -0.046643 -121617.000000 0 0 1
-21.592976 22.758410 -2.449356 31.467463 -0.811669 1.648713 0.114926 -0.031250 -163349.000000 0 0 1
-21.127776 21.766710 -3.321956 30.515701 -0.800293 1.679873 0.127792 -0.032936 -914045.000000 0 0 1
-22.177976 21.102410 -4.156556 30.894196 -0.760552 1.705747 0.116821 -0.024515 -518797.000000 0 0 1
-22.759876 21.991910 -5.099656 32.057177 -0.768239 1.730555 0.113264 -0.016046 335399.000000 0 0 1
-24.125576 21.719110 -5.370056 32.902898 -0.732955 1.734739 0.111624 -0.014651 206285.000000 0 0 1
-24.636976 22.336810 -6.644656 33.912611 -0.736470 1.768007 0.115355 -0.009363 -271403.000000 0 0 1
-24.149476 21.707310 -7.797956 33.394800 -0.732192 1.806480 0.130972 -0.019854 70653.100000 0 0 1
-23.618276 22.624610 -8.758556 33.858652 -0.763913 1.832452 0.124100 -0.030701 -175465.000000 0 0 1
-23.118676 21.903410 -10.029356 33.388929 -0.758412 1.875887 0.114361 -0.038954 59768.100000 0 0 1
-24.070676 21.200710 -10.846256 33.860137 -0.722088 1.896869 0.070142 -0.025277 121405.000000 0 0 1
-23.625476 20.988910 -12.131456 33.850698 -0.726370 1.937330 0.062039 -0.013387 295405.000000 0 0 1
-24.801676 20.649510 -13.118956 34.837228 -0.694297 1.956897 0.041791 -0.028013 453119.000000 0 0 1
-25.246856 19.341610 -12.979756 34.350775 -0.653726 1.958279 0.060032 -0.019159 106062.000000 0 0 1
-26.603156 19.334010 -13.406156 35.514179 -0.628458 1.957878 0.069293 -0.033084 276411.000000 0 0 1
-27.150046 17.890610 -13.730456 35.294821 -0.582643 1.970366 0.136872 -0.040177 -20507.100000 0 0 1
-26.447676 17.258910 -14.780456 34.868488 -0.578178 2.008534 0.126757 -0.042892 -73483.500000 0 0 1
-26.881606 15.908610 -14.979256 34.642211 -0.534370 2.017948 0.155734 -0.061069 -184825.000000 0 0 1
-26.215086 15.314710 -16.193656 34.409383 -0.528717 2.060787 0.163056 -0.053491 615718.000000 0 0 1
-24.805176 15.090910 -16.074956 33.187898 -0.546557 2.076430 0.140046 -0.057102 578638.000000 0 0 1
-24.356976 14.544010 -17.306656 33.231173 -0.538298 2.118579 0.147907 -0.060547 6011.860000 0 0 1
-23.513876 13.256410 -17.174756 31.993860 -0.513353 2.137453 0.147241 -0.057496 -56536.900000 0 0 1
-22.291576 13.426710 -16.487156 30.806124 -0.542125 2.135530 0.121907 -0.063076 174550.000000 0 0 1
-21.515576 12.223510 -16.531056 29.759201 -0.516651 2.159753 0.117404 -0.049070 -367465.000000 0 0 1
-20.197776 12.430510 -15.815456 28.506077 -0.551695 2.158931 0.100138 -0.049222 -844580.000000 0 0 1
-19.206476 13.257710 -16.340556 28.489812 -0.604168 2.181639 0.085640 -0.037577 -221520.000000 0 0 1
-18.201476 13.509510 -15.414556 27.411843 -0.638504 2.168000 0.088359 -0.020846 -649976.000000 0 0 1
-17.203576 14.630110 -15.676156 27.490817 -0.704733 2.177585 0.077449 -0.011566 -235849.000000 0 0 1
-16.286176 14.281010 -16.703856 27.353347 -0.719893 2.227702 0.097916 -0.026877 146303.000000 0 0 1
-15.649976 15.446410 -17.159056 27.891693 -0.778852 2.233440 0.085275 -0.012759 -92252.800000 0 0 1
-14.875476 15.351710 -18.518756 28.282488 -0.801152 2.284685 0.103131 -0.016821 892669.000000 0 0 1
-13.810876 14.399010 -18.458156 27.180422 -0.806244 2.317329 0.101650 -0.012681 284173.000000 0 0 1
-12.869376 14.411710 -19.511356 27.459266 -0.841873 2.361085 0.118826 -0.023442 223182.000000 0 0 1
-11.827376 13.299310 -19.372756 26.307075 -0.843912 2.398543 0.107711 -0.023879 -181481.000000 0 0 1
-12.334376 12.064410 -19.817556 26.275890 -0.774334 2.425248 0.121833 -0.028872 -33043.900000 0 0 1
-11.467176 10.950210 -19.618356 25.224653 -0.762341 2.461867 0.093637 -0.022242 177892.000000 0 0 1
-12.001276 9.723810 -20.395556 25.584406 -0.680949 2.493418 0.114585 -0.032004 168328.000000 0 0 1
-11.572476 10.015910 -21.694856 26.550093 -0.713421 2.527210 0.115976 -0.034736 24706.900000 0 0 1
-11.995776 9.009310 -22.598556 27.124916 -0.644167 2.555538 0.108916 -0.021864 7679.520000 0 0 1
-11.819376 9.443210 -24.066656 28.426674 -0.674107 2.580402 0.096486 -0.037081 9351.470000 0 0 1
-10.476676 9.532710 -24.560356 28.352150 -0.738257 2.618465 0.097962 -0.045714 306010.000000 0 0 1
-10.326476 8.784110 -25.774476 29.122506 -0.704865 2.657368 0.087767 -0.050222 -307906.000000 0 0 1
-10.046376 9.616910 -27.053186 30.418572 -0.763561 2.666749 0.123006 -0.051268 158157.000000 0 0 1
-8.728676 10.083910 -27.276246 30.362290 -0.857313 2.686816 0.101096 -0.058802 25012.400000 0 0 1
-8.266476 11.060210 -26.393776 29.787486 -0.928957 2.659592 0.088188 -0.047459 549452.000000 0 0 1
-6.749376 11.439510 -26.635996 29.763951 -1.037758 2.679021 0.077647 -0.044797 965345.000000 0 0 1
-6.526176 12.146810 -27.878346 31.102061 -1.077775 2.682264 0.072772 -0.055780 28984.200000 0 0 1
-5.123976 12.259610 -27.930576 30.930087 -1.174907 2.697551 0.091507 -0.050969 -410858.000000 0 0 1
-4.508576 12.757210 -29.256866 32.234111 -1.231083 2.708416 0.093288 -0.050056 -444863.000000 0 0 1
-3.111076 12.748410 -29.170466 31.986198 -1.331438 2.718858 0.104458 -0.056717 -142676.000000 0 0 1
-2.428876 12.609110 -30.404976 33.005328 -1.380499 2.741986 0.106745 -0.053552 1552390.000000 0 0 1
-0.871776 12.311410 -30.360866 32.773664 -1.500104 2.755480 0.125656 -0.061000 755753.000000 0 0 1
-0.576176 11.032210 -29.849756 31.828440 -1.518617 2.787129 0.095217 -0.035896 188239.000000 0 0 1
0.800824 10.689210 -29.878256 31.742885 1.496017 2.797134 0.098587 -0.042596 631735.000000 0 0 1
1.491524 10.408110 -31.262396 32.983190 1.428461 2.817149 0.106076 -0.046356 -323268.000000 0 0 1
1.643224 11.538610 -32.106236 34.156260 1.429337 2.793371 0.116831 -0.052556 100308.000000 0 0 1
1.487624 11.113610 -33.461096 35.289805 1.437731 2.818255 0.124850 -0.045663 -117997.000000 0 0 1
1.995424 12.207210 33.327288 35.548641 1.408767 0.355386 0.124587 -0.049949 157675.000000 0 0 1
3.412824 12.294110 33.171970 35.541133 1.300016 0.367189 0.123732 -0.052940 506346.000000 0 0 1
3.766224 13.255510 32.126216 34.956927 1.293966 0.405202 0.125425 -0.047668 695611.000000 0 0 1
5.308624 13.243110 31.890301 34.936410 1.189549 0.420684 0.122771 -0.045813 502951.000000 0 0 1
5.919724 12.048710 31.414073 34.162239 1.114120 0.403849 0.130267 -0.046522 314946.000000 0 0 1
7.319224 12.187510 31.246763 34.328802 1.029972 0.426981 0.110207 -0.032373 345979.000000 0 0 1
8.010924 10.916710 30.667863 33.524130 0.937730 0.415785 0.091769 -0.023223 249494.000000 0 0 1
7.683524 10.668510 29.259433 32.077532 0.946638 0.422303 0.100015 -0.028600 143334.000000 0 0 1
8.619124 9.772910 28.724563 31.542029 0.848049 0.425879 0.089570 -0.024693 119053.000000 0 0 1
7.967224 8.933310 27.614063 30.096797 0.842499 0.409027 0.096584 -0.021091 622750.000000 0 0 1
7.036024 7.957610 28.127413 30.066270 0.846786 0.361085 0.095435 -0.020573 422793.000000 0 0 1
6.497724 7.133210 27.091693 28.758702 0.831985 0.342153 0.103536 -0.021331 1332.850000 0 0 1
5.513024 6.126810 27.697113 28.897428 0.838081 0.289233 0.127272 -0.034611 17994.500000 0 0 1
6.218324 5.051610 28.255953 29.369801 0.682241 0.276286 0.105942 -0.027067 -8751.610000 0 0 1
5.366524 4.258910 29.041453 29.838631 0.670831 0.231673 0.111887 -0.032476 -364059.000000 0 0 1
6.017624 3.073810 29.797893 30.554452 0.472251 0.222997 0.112560 -0.022964 30915.900000 0 0 1
6.139624 1.833310 29.055193 29.753324 0.290175 0.217054 0.108927 -0.018788 229183.000000 0 0 1
7.499324 1.637210 28.691603 29.700647 0.214942 0.261411 0.113465 -0.019806 197049.000000 0 0 1
7.733924 0.275910 28.032323 29.080936 0.035660 0.269359 0.107137 -0.024935 -96863.300000 0 0 1
7.983324 -0.812790 28.929643 30.021964 -0.101461 0.270580 0.084527 -0.031649 -84971.300000 0 0 1
7.989024 -2.060690 28.255203 29.435140 -0.252438 0.284101 0.105465 -0.030845 -94016.400000 0 0 1
8.650024 -3.193090 29.141863 30.565780 -0.353625 0.306436 0.098488 -0.021477 -578628.000000 0 0 1
10.013824 -3.057490 29.314953 31.128627 -0.296337 0.343041 0.089628 -0.025151 -1100680.000000 0 0 1
10.775024 -3.928190 28.495693 30.717037 -0.349590 0.382636 0.106334 -0.020662 117439.000000 0 0 1
12.299124 -3.775490 28.820103 31.561387 -0.297841 0.419864 0.095170 -0.016807 468898.000000 0 0 1
13.154924 -4.744590 28.315733 31.580752 -0.346149 0.458734 0.122324 -0.019119 -176330.000000 0 0 1
13.310424 -5.903690 29.155403 32.589239 -0.417468 0.463188 0.129749 -0.013721 -134358.000000 0 0 1
12.426424 -7.142690 28.794953 32.164940 -0.521683 0.461854 0.146547 -0.010424 -85439.300000 0 0 1
11.054224 -6.960290 29.014793 31.819801 -0.561936 0.423035 0.140114 -0.009820 -541088.000000 0 0 1
10.369424 -8.207790 28.871933 31.756594 -0.669560 0.429526 0.136001 0.000555 60980.800000 0 0 1
8.887524 -7.917690 28.582683 30.962036 -0.727752 0.394594 0.129271 -0.005826 -494355.000000 0 0 1
8.212324 -7.241090 29.560873 31.523338 -0.722632 0.354715 0.140414 -0.017634 -1307420.000000 0 0 1
6.853824 -7.217290 29.319683 30.963010 -0.811223 0.327262 0.127852 -0.031858 -1077530.000000 0 0 1
6.074224 -6.707390 30.524643 31.837700 -0.834895 0.288197 0.118650 -0.036562 -305730.000000 0 0 1
6.111824 -7.572890 31.624563 33.088005 -0.891762 0.298525 0.118699 -0.032966 -168366.000000 0 0 1
5.501424 -6.994590 32.743142 33.930861 -0.904326 0.265368 0.117907 -0.028874 -117120.000000 0 0 1
6.217824 -5.847990 33.592062 34.659587 -0.754756 0.248836 0.129770 -0.030345 -422364.000000 0 0 1
6.691324 -4.776990 32.833211 33.846908 -0.619999 0.245358 0.130213 -0.030215 -35110.000000 0 0 1
7.039124 -3.693990 33.635983 34.562613 -0.483274 0.232081 0.106699 -0.019521 -87113.200000 0 0 1
7.149224 -2.427390 32.791891 33.649840 -0.327319 0.226298 0.106550 -0.027138 -242534.000000 0 0 1
5.901524 -1.926190 32.398297 32.987692 -0.315487 0.189318 0.117450 -0.036954 -340129.000000 0 0 1
5.958424 -0.654890 31.718505 32.279952 -0.109470 0.186782 0.108847 -0.017455 78630.100000 0 0 1
4.607624 -0.181690 31.116003 31.455824 -0.039412 0.147123 0.119204 -0.031777 788584.000000 0 0 1
3.567224 -0.020090 32.095376 32.293013 -0.005632 0.110692 0.108125 -0.030781 471667.000000 0 0 1
2.397624 0.569710 31.506173 31.602407 0.233288 0.078060 0.125956 -0.038134 170103.000000 0 0 1
1.340224 0.778810 32.567577 32.604445 0.526410 0.047560 0.122766 -0.037183 -969250.000000 0 0 1
1.725124 1.674210 33.482976 33.569163 0.770422 0.071674 0.105110 -0.033394 -852834.000000 0 0 1
0.822624 2.181810 -33.346926 33.428349 1.210241 3.071783 0.080093 -0.031793 -972455.000000 0 0 1
1.409324 3.332310 -32.522456 32.723090 1.170683 3.030800 0.066465 -0.033192 123200.000000 0 0 1
2.259924 2.884310 -31.459986 31.672658 0.906183 3.025643 0.053557 -0.016527 -72487.800000 0 0 1
2.860224 3.939910 -30.796206 31.178680 0.942858 2.984798 0.048349 -0.017828 -56574.600000 0 0 1
3.808324 3.425610 -29.673786 30.112651 0.732542 2.970656 0.062018 -0.014977 -107207.000000 0 0 1
3.090624 2.866710 -28.618366 28.927165 0.747830 2.995346 0.076805 -0.027915 257648.000000 0 0 1
3.927324 2.743710 -27.512266 27.926271 0.609800 2.969188 0.093601 -0.035878 -140086.000000 0 0 1
3.181124 1.877210 -26.499516 26.755706 0.533115 3.003097 0.070007 -0.038049 -142387.000000 0 0 1
3.699124 0.571210 -26.434786 26.698459 0.153208 3.000935 0.094604 -0.036922 97216.800000 0 0 1
3.280224 -0.168590 -25.322956 25.535082 -0.051351 3.012606 0.094117 -0.033955 -227726.000000 0 0 1
3.932624 -1.622890 -25.262026 25.617753 -0.391384 2.974750 0.093249 -0.036578 501378.000000 0 0 1
5.295824 -1.634890 -24.878856 25.488745 -0.299431 2.922395 0.085219 -0.043386 -36971.000000 0 0 1
5.778524 -2.956690 -24.823256 25.657892 -0.472939 2.885830 0.088532 -0.039094 -29457.800000 0 0 1
7.263924 -3.057990 -24.398156 25.639538 -0.398463 2.829143 0.109017 -0.046578 315710.000000 0 0 1
8.109724 -2.472190 -25.398926 26.776572 -0.295894 2.819422 0.118609 -0.048522 -230489.000000 0 0 1
9.400024 -2.998790 -25.124936 26.992881 -0.308813 2.767388 0.108247 -0.034831 87670.100000 0 0 1
-31.287136 -4.007190 17.456583 36.051002 0.127384 1.065326 0.183768 -0.009822 -281412.000000 0 0 1
-32.614226 -3.952290 17.884983 37.405628 0.120595 1.072265 0.151798 0.002883 -638952.000000 0 0 1
-33.016406 -5.055990 18.669683 38.264908 0.151955 1.061107 0.121104 -0.007740 -458464.000000 0 0 1
-34.441654 -5.119990 19.203683 39.764599 0.147576 1.066794 0.115754 -0.000539 -133997.000000 0 0 1
-35.342005 -5.300990 18.113083 40.065467 0.148881 1.101692 0.111118 0.003897 -429559.000000 0 0 1
-36.687706 -5.155790 18.422583 41.375857 0.139617 1.109343 0.071799 0.007884 -318183.000000 0 0 1
37.439527 -5.180490 17.186483 41.520246 -0.137496 1.144029 0.063498 0.002550 -255803.000000 0 0 1
36.094067 -5.130990 17.551783 40.462004 -0.141210 1.122108 0.042708 0.020503 -1034280.000000 0 0 1
35.304967 -5.007890 16.415483 39.255416 -0.140907 1.139365 0.049265 0.013688 892935.000000 0 0 1
33.778977 -5.228990 16.791083 38.082832 -0.153581 1.114185 0.061783 0.018031 1042730.000000 0 0 1
33.191097 -4.179090 17.573983 37.788339 -0.125251 1.087090 0.073502 0.017404 416931.000000 0 0 1
32.193287 -4.773490 18.414083 37.393480 -0.147203 1.055904 0.100937 0.007923 268783.000000 0 0 1
31.691117 -3.840290 19.541783 37.429347 -0.120591 1.021487 0.106975 0.008365 -476854.000000 0 0 1
30.758757 -2.869890 19.219783 36.383203 -0.093034 1.014247 0.123933 0.012508 -389676.000000 0 0 1
31.263127 -1.656990 18.739283 36.486839 -0.052952 1.031433 0.108275 0.017407 -128950.000000 0 0 1
30.287297 -0.494190 19.026583 35.771154 -0.016315 1.009957 0.141042 0.013487 330404.000000 0 0 1
30.794537 0.781210 18.620383 35.994895 0.025363 1.027096 0.126626 0.007289 78696.700000 0 0 1
29.905307 1.780410 19.049883 35.502046 0.059465 1.004411 0.128973 0.000369 57173.200000 0 0 1
29.998907 3.207110 18.317183 35.295030 0.106503 1.025147 0.124235 0.000174 58716.400000 0 0 1
29.693607 3.057010 16.938583 34.321585 0.102590 1.054657 0.124945 0.001292 13889.800000 0 0 1
29.398607 4.234010 16.306783 33.883862 0.143037 1.068710 0.125373 -0.002455 76174.200000 0 0 1
28.894007 4.106910 14.847783 32.744267 0.141191 1.100168 0.132717 -0.003114 -140801.000000 0 0 1
28.742907 5.366410 14.241883 32.523596 0.184579 1.117542 0.147115 -0.019996 251165.000000 0 0 1
28.207207 5.312810 12.936583 31.483768 0.186168 1.147359 0.137048 -0.021491 -62897.800000 0 0 1
27.489707 6.635910 12.517383 30.925785 0.236865 1.154085 0.151348 -0.023193 -301202.000000 0 0 1
26.308207 6.909710 13.216783 30.241514 0.256844 1.118490 0.101957 -0.018135 -265887.000000 0 0 1
25.780007 8.103810 12.782883 29.894524 0.304565 1.128961 0.138293 -0.038984 -1144040.000000 0 0 1
24.569707 8.575210 13.578483 29.352682 0.335798 1.089873 0.138651 -0.037670 -542950.000000 0 0 1
23.363707 8.059110 13.058183 27.952248 0.332161 1.084720 0.127738 -0.026173 470265.000000 0 0 1
22.979007 6.785110 13.631983 27.566346 0.287116 1.053519 0.134655 -0.025790 -1160950.000000 0 0 1
21.533607 6.368610 13.391283 26.145399 0.287555 1.033069 0.140949 -0.023034 -784010.000000 0 0 1
21.338107 6.009610 12.052283 25.232672 0.274526 1.072823 0.158575 -0.034619 516657.000000 0 0 1
20.217107 5.149910 11.936883 24.036268 0.249426 1.051096 0.128659 -0.026580 -11709.200000 0 1 0
19.861507 4.947210 10.410683 22.963812 0.244118 1.100274 0.133984 -0.032499 163282.000000 0 1 0
20.877307 4.189710 9.766683 23.426560 0.198052 1.140757 0.146726 -0.035344 754317.000000 0 1 0
20.573007 4.082210 8.388783 22.589483 0.195881 1.190325 0.166310 -0.034212 419542.000000 0 1 0
21.722507 3.447310 7.532583 23.248463 0.157385 1.240838 0.156636 -0.032084 -548036.000000 0 1 0
21.826007 2.067110 7.855683 23.288608 0.094427 1.226729 0.140284 -0.034234 1004190.000000 0 1 0
22.853407 1.320110 7.178683 23.990714 0.057700 1.266913 0.135825 -0.023029 504165.000000 0 1 0
24.340307 1.739310 7.325583 25.478224 0.071337 1.279156 0.132531 -0.029496 -547775.000000 0 0 1
25.037907 1.274510 8.442983 26.453830 0.050859 1.245954 0.142320 -0.020274 524853.000000 0 0 1
24.739207 2.063010 9.594783 26.614737 0.083198 1.201986 0.126195 -0.016669 -395489.000000 0 0 1
25.677807 1.518110 10.676083 27.850191 0.059053 1.177387 0.113415 -0.009444 -740405.000000 0 0 1
26.996807 1.931110 10.621383 29.075256 0.071409 1.196834 0.125765 -0.018440 -707432.000000 0 0 1
27.802007 1.235810 11.507383 30.114758 0.044421 1.178709 0.121628 -0.011181 115058.000000 0 0 1
29.316607 1.134810 11.184083 31.398008 0.038689 1.206594 0.180445 -0.008828 467903.000000 0 0 1
30.116857 2.262610 11.441383 32.296280 0.074987 1.208670 0.168778 -0.003714 -324789.000000 0 0 1
31.442297 1.931810 11.717683 33.610326 0.061363 1.214684 0.184597 -0.015254 -281535.000000 0 0 1
32.218487 3.046310 12.506983 34.694892 0.094271 1.202009 0.167699 -0.023387 30859.700000 0 0 1
32.535647 4.128510 11.565083 34.775912 0.126217 1.231779 0.182483 -0.035632 218540.000000 0 0 1
33.376157 5.115510 12.079483 35.861542 0.152085 1.227241 0.159271 -0.036609 1084880.000000 0 0 1
34.929527 4.974110 11.876683 37.227264 0.141453 1.246089 0.154777 -0.034410 933218.000000 0 0 1
35.735377 4.053710 12.601183 38.108261 0.112954 1.233785 0.132377 -0.035594 975335.000000 0 0 1
37.040827 4.032010 12.023683 39.151614 0.108426 1.258646 0.122124 -0.029193 -21172.000000 0 0 1
-37.007366 3.105710 12.608783 39.219536 -0.083725 1.243491 0.142741 -0.013950 -902187.000000 0 0 1
-37.077926 1.740210 12.356383 39.121364 -0.046899 1.249447 0.142955 -0.013535 509286.000000 0 0 1
36.952107 0.948210 12.921683 39.157722 0.025655 1.234503 0.142523 -0.014487 143384.000000 0 0 1
36.828897 0.916310 14.426783 39.564369 0.024875 1.197549 0.137240 -0.006682 23973.900000 0 0 1
-37.262216 0.118410 15.059283 40.190407 -0.003178 1.186725 0.103589 0.001949 494733.000000 0 0 1
37.476177 -0.056990 16.409283 40.911265 -0.001521 1.158085 0.097122 -0.003669 186997.000000 0 0 1
-36.602456 -1.023590 17.108383 40.416387 0.027958 1.133708 0.086651 0.002053 619546.000000 0 0 1
-35.287025 -0.475990 17.260583 39.285219 0.013488 1.115904 0.098669 -0.007487 283880.000000 0 0 1
-34.428856 -1.174590 18.101383 38.915111 0.034103 1.086992 0.091059 0.002341 -234401.000000 0 0 1
-34.645203 -1.034490 19.613983 39.825477 0.029851 1.055838 0.077172 -0.007042 -166153.000000 0 0 1
-35.757004 -1.738390 20.167183 41.088936 0.048579 1.057768 0.068061 -0.005431 312982.000000 0 0 1
-35.826251 -1.547090 21.554183 41.838936 0.043156 1.029590 0.061616 -0.005258 57446.600000 0 0 1
-36.184526 -2.815890 22.395983 42.647734 0.077664 1.017918 0.055549 0.004621 128752.000000 0 0 1
-35.251886 -3.892090 22.349283 41.920571 0.109963 1.008496 0.075099 -0.007024 206171.000000 0 0 1
-35.738375 -5.006990 23.083463 42.838624 0.139195 1.001729 0.077854 -0.011319 189210.000000 0 0 1
-35.684735 -4.944090 24.627873 43.639162 0.137673 0.971148 0.079147 -0.021047 -302005.000000 0 0 1
-34.356094 -4.974290 25.047263 42.807128 0.143787 0.945770 0.087963 -0.027679 -885229.000000 0 0 1
-34.214992 -4.736390 26.419453 43.486625 0.137556 0.917848 0.100115 -0.037358 321707.000000 0 0 1
-33.049026 -3.794890 26.817843 42.729803 0.114325 0.892311 0.106578 -0.042632 85762.000000 0 0 1
-33.254546 -2.417890 26.497793 42.589249 0.072581 0.899284 0.107323 -0.037894 -420064.000000 0 0 1
-32.715746 -2.104690 25.281783 41.399497 0.064244 0.913879 0.089891 -0.032248 -412012.000000 0 0 1
-32.571556 -0.606390 25.065393 41.104111 0.018615 0.914985 0.075889 -0.030678 -333577.000000 0 0 1
-33.801486 0.031310 25.274813 42.206133 -0.000926 0.928742 0.089527 -0.036300 -387468.000000 0 0 1
-33.727536 1.393110 24.859323 41.922231 -0.041281 0.936033 0.064688 -0.020080 478725.000000 0 0 1
-35.062682 2.043710 24.352473 42.738874 -0.058221 0.964538 0.084681 -0.020430 492159.000000 0 0 1
-35.675039 1.499510 23.199463 42.581358 -0.042008 0.994614 0.083187 -0.013522 170952.000000 0 0 1
-36.774366 2.273410 22.716193 43.284499 -0.061742 1.018303 0.090037 -0.008794 572460.000000 0 0 1
-36.400246 3.705210 22.124483 42.757447 -0.101441 1.026938 0.082140 0.000099 -43140.700000 0 0 1
-35.840191 3.868710 20.792383 41.615015 -0.107527 1.047617 0.066738 -0.007351 -551490.000000 0 0 1
-36.699246 3.627810 19.725583 41.822175 -0.098532 1.079631 0.099287 -0.010369 -445917.000000 0 0 1
-36.049996 2.883110 18.571883 40.655005 -0.079805 1.096383 0.099873 -0.003749 -13404.900000 0 0 1
-35.103465 3.595210 17.800083 39.522421 -0.102062 1.103606 0.111648 -0.022452 90442.900000 0 0 1
-34.668512 2.785110 16.727183 38.593539 -0.080163 1.122513 0.134074 -0.015475 -343370.000000 0 0 1
-33.909116 3.622010 15.731983 37.555857 -0.106412 1.138568 0.135803 -0.019238 205580.000000 0 0 1
-34.736871 4.536010 15.044683 38.125688 -0.129847 1.165156 0.147406 -0.022511 94447.200000 0 0 1
-33.802696 5.280810 14.292483 37.078084 -0.154972 1.175079 0.176541 -0.026847 -73607.600000 0 0 1
-34.264672 6.576710 13.566083 37.434737 -0.189632 1.199962 0.201545 -0.036975 -485092.000000 0 0 1
-33.245476 7.200710 12.865083 36.367874 -0.213298 1.209221 0.219989 -0.035741 -256456.000000 0 0 1
-33.525276 8.581710 12.777583 36.889789 -0.250596 1.217096 0.204020 -0.043842 -21873.600000 0 0 1
-32.458666 9.218710 11.882883 35.773629 -0.276727 1.232194 0.228047 -0.045909 12615.000000 0 0 1
-32.604186 10.621410 11.830183 36.273965 -0.314927 1.238585 0.207375 -0.042537 -155850.000000 0 0 1
-31.982156 11.170910 10.715383 35.531212 -0.336038 1.264450 0.180725 -0.041033 -126973.000000 0 0 1
-32.075196 12.659710 10.717783 36.110350 -0.375919 1.269450 0.165166 -0.032410 -38233.500000 0 0 1
-31.548146 13.276910 9.583183 35.544329 -0.398347 1.297806 0.151419 -0.026707 -27786.500000 0 0 1
-31.444336 14.680010 9.815783 36.063813 -0.436783 1.295140 0.140163 -0.031653 130156.000000 0 0 1
-30.822086 15.522610 8.636083 35.574350 -0.466539 1.325585 0.136683 -0.027109 313302.000000 0 0 1
-29.475636 15.286510 8.288783 34.222719 -0.478429 1.326162 0.165266 -0.022939 45542.600000 0 0 1
-28.824326 16.244810 7.483583 33.922554 -0.513209 1.348359 0.158774 -0.037255 -371634.000000 0 0 1
-27.316586 16.326610 7.728483 32.748795 -0.538713 1.332556 0.166080 -0.023715 -444628.000000 0 0 1
-26.899706 16.849410 8.983983 32.988010 -0.559590 1.294971 0.162803 -0.029382 78245.500000 0 0 1
-27.148436 18.229710 9.170983 33.962728 -0.591330 1.297371 0.159124 -0.042674 -414992.000000 0 0 1
-27.002566 18.690610 10.630783 34.517982 -0.605458 1.257729 0.165838 -0.022195 -461372.000000 0 0 1
-25.783886 18.481310 11.267983 33.665042 -0.621898 1.229500 0.154872 -0.024928 -364718.000000 0 0 1
-25.748486 19.030910 12.583783 34.402205 -0.636494 1.196321 0.162414 -0.032032 44826.500000 0 0 1
-26.204146 18.033510 13.753483 34.655780 -0.602758 1.162703 0.135669 -0.022303 -4681.120000 0 0 1
-25.278746 17.014810 14.038883 33.550097 -0.592435 1.139063 0.148259 -0.023979 107984.000000 0 0 1
-25.683106 16.165810 15.093283 33.893400 -0.561781 1.109269 0.137606 -0.018427 -911999.000000 0 0 1
-24.577876 15.188010 15.391983 32.736231 -0.553517 1.081299 0.125044 -0.007583 86319.400000 0 0 1
-23.508076 15.887710 16.092783 32.619422 -0.594327 1.054860 0.111387 -0.006831 236073.000000 0 0 1
-22.528976 15.025110 16.615783 31.770945 -0.588181 1.020445 0.101015 -0.029101 -357860.000000 0 0 1
-22.843776 13.985410 17.683083 32.095502 -0.549356 0.987292 0.093658 -0.012126 -643226.000000 0 0 1
-22.967176 14.583010 18.986483 33.175924 -0.565722 0.961492 0.097592 -0.009594 17884.100000 0 0 1
-23.362576 13.607610 19.933883 33.590724 -0.527418 0.935477 0.091351 -0.010170 -408874.000000 0 0 1
-22.941376 13.826510 21.405583 34.288163 -0.542394 0.896580 0.084838 -0.010308 137288.000000 0 0 1
-21.547276 13.913010 21.624283 33.547975 -0.573344 0.870325 0.102977 -0.012801 -107300.000000 0 0 1
-21.023076 15.198310 21.625283 33.772937 -0.625953 0.875889 0.112005 0.000212 345409.000000 0 0 1
-19.528376 15.258310 22.128183 33.223937 -0.663259 0.841921 0.115774 -0.013395 985967.000000 0 0 1
-18.536576 14.686110 21.330383 31.847633 -0.670014 0.836906 0.100579 -0.017098 -191981.000000 0 0 1
-18.065076 15.448410 20.254683 31.229034 -0.707478 0.865072 0.094802 -0.021577 -868718.000000 0 0 1
-16.779376 14.859210 19.598183 29.773015 -0.724782 0.852300 0.076472 -0.011773 435853.000000 0 0 1
-15.673576 14.704310 20.443783 29.661861 -0.753502 0.810373 0.074301 -0.013698 224269.000000 0 0 1
-15.069676 15.886310 21.062883 30.382809 -0.811773 0.804807 0.060837 -0.019694 -74960.600000 0 0 1
-13.914476 15.572110 22.094783 30.402018 -0.841556 0.757212 0.033054 -0.017525 150545.000000 0 0 1
-12.703276 15.159410 21.529283 29.235099 -0.873322 0.743034 0.025570 0.001806 -641106.000000 0 0 1
-12.012676 14.443010 22.508783 29.318088 -0.877005 0.695484 0.048721 -0.007621 -19277.300000 0 0 1
-10.742576 13.714110 22.034583 28.089191 -0.906307 0.668987 0.034300 -0.005733 -320627.000000 0 0 1
-10.132076 12.823110 22.968563 28.189467 -0.902095 0.618425 0.040391 -0.010871 131259.000000 0 0 1
-8.934076 12.176910 22.596283 27.178795 -0.937816 0.589185 0.046117 0.003159 1049390.000000 0 0 1
-7.667676 13.108310 22.813693 27.405942 -1.041518 0.587307 0.048524 0.008990 9987.240000 0 0 1
-7.119676 13.652510 21.661083 26.575992 -1.090103 0.617960 0.036850 0.004297 -271104.000000 0 0 1
-6.414676 14.861010 21.926383 27.253697 -1.163311 0.635915 0.043117 0.004236 -360132.000000 0 0 1
-7.191976 16.062110 22.481283 28.550377 -1.149806 0.664176 0.050973 -0.014875 212571.000000 0 0 1
-8.223176 16.475610 21.563183 28.355550 -1.107859 0.706779 0.022472 -0.018657 -30030.800000 0 0 1
-7.844276 17.302510 20.444083 27.908244 -1.145151 0.748741 0.028840 -0.015403 -873804.000000 0 0 1
-8.993576 17.497410 19.441283 27.658765 -1.096016 0.791333 0.026452 -0.011750 659800.000000 0 0 1
-10.084976 18.345510 19.796483 28.812588 -1.068165 0.813337 0.016150 -0.005561 59368.600000 0 0 1
-10.972076 17.863110 20.749883 29.496353 -1.019979 0.790524 0.025216 -0.012789 -415427.000000 0 0 1
-12.300376 18.638410 21.008183 30.659964 -0.987460 0.815919 0.019998 -0.016097 818582.000000 0 0 1
-13.224876 18.588710 19.913383 30.281683 -0.952429 0.853161 0.019093 -0.008259 -347642.000000 0 0 1
-14.403576 19.266510 20.171183 31.393281 -0.928835 0.872998 0.008161 -0.018348 -886695.000000 0 0 1
-15.275976 19.440310 18.979083 31.168682 -0.904781 0.916104 0.031414 -0.012406 -506978.000000 0 0 1
-15.764576 18.283010 18.343983 30.319830 -0.859232 0.921010 0.054318 -0.011062 -6287.510000 0 0 1
-16.392076 18.576010 17.118983 30.113584 -0.847772 0.966139 0.085680 -0.017753 -640848.000000 0 0 1
-16.990276 17.312010 16.501783 29.337417 -0.794777 0.973411 0.098008 -0.025889 938443.000000 0 0 1
-18.148276 16.688410 17.094983 30.001690 -0.743517 0.964533 0.091489 -0.027221 1050030.000000 0 0 1
-19.394576 17.371810 16.964383 31.076031 -0.730437 0.993334 0.108193 -0.025280 333128.000000 0 0 1
36.025877 -9.332490 11.370644 38.913374 -0.253478 1.274266 0.083175 -0.029814 133566.000000 0 0 1
34.673597 -9.701990 11.617144 37.833119 -0.272832 1.258691 0.084443 -0.017992 511164.000000 0 0 1
34.618327 -11.081690 11.987344 38.274388 -0.309803 1.252241 0.055895 -0.022179 172184.000000 0 0 1
33.153287 -11.658590 11.949144 37.119337 -0.338150 1.243048 0.104298 -0.011709 784420.000000 0 0 1
32.278767 -11.067190 12.868644 36.469212 -0.330302 1.210167 0.101300 -0.002470 1251470.000000 0 0 1
30.883017 -11.442090 12.671844 35.288210 -0.354818 1.203498 0.120452 -0.013706 1576520.000000 0 0 1
30.285397 -12.070890 13.941844 35.458238 -0.379274 1.166697 0.111797 -0.005644 -713991.000000 0 0 1
30.224887 -11.126790 14.983944 35.522778 -0.352737 1.135353 0.138586 -0.010404 383157.000000 0 0 1
29.276107 -11.323290 16.043644 35.252033 -0.369054 1.098298 0.136105 -0.014592 404248.000000 0 0 1
27.796507 -11.049490 15.706244 33.784954 -0.378361 1.087287 0.137520 -0.027841 -290621.000000 0 0 1
27.544707 -9.680790 15.789644 33.192490 -0.337973 1.075037 0.121551 -0.007522 -58129.500000 0 0 1
26.315707 -9.240590 15.233844 31.780102 -0.337693 1.070881 0.151901 -0.017377 112115.000000 0 0 1
26.098407 -7.747190 15.496844 31.325675 -0.288560 1.053306 0.160935 -0.025863 408277.000000 0 0 1
27.157107 -6.858490 15.088044 31.815034 -0.247376 1.076693 0.143247 -0.017064 247632.000000 0 0 1
27.095707 -5.535690 15.636044 31.769593 -0.201528 1.056215 0.135361 -0.011732 -532851.000000 0 0 1
28.367407 -4.727890 15.451344 32.646695 -0.165148 1.077775 0.137213 -0.002474 -419761.000000 0 0 1
28.578407 -4.379890 14.079844 32.158214 -0.152075 1.117612 0.139279 -0.005185 -555568.000000 0 0 1
29.796107 -3.725490 13.978744 33.122387 -0.124387 1.135110 0.141575 0.006209 -733771.000000 0 0 1
30.025507 -3.186790 12.569844 32.706080 -0.105740 1.176317 0.145300 -0.012943 -138420.000000 0 0 1
30.623707 -4.174590 11.755044 33.066897 -0.135484 1.207355 0.139065 -0.026218 194675.000000 0 0 1
30.767607 -3.617090 10.449144 32.694243 -0.117024 1.245487 0.150745 -0.034240 -156875.000000 0 0 1
31.481257 -4.571490 9.493144 33.197708 -0.144205 1.280791 0.174772 -0.029622 994212.000000 0 0 1
32.897707 -4.769690 9.689644 34.625110 -0.143982 1.287164 0.166598 -0.033984 1016980.000000 0 0 1
33.374977 -5.569390 8.657644 34.926522 -0.165350 1.320303 0.165399 -0.040310 -428968.000000 0 0 1
34.768357 -6.187990 8.815644 36.398426 -0.176133 1.326165 0.145412 -0.032857 106542.000000 0 0 1
35.818507 -5.228690 8.690244 37.226670 -0.144953 1.335181 0.157008 -0.034246 376034.000000 0 0 1
37.085377 -5.883890 8.745744 38.554291 -0.157346 1.341962 0.143958 -0.034335 33748.700000 0 0 1
-36.830466 -5.008790 8.365544 38.099259 0.135167 1.349420 0.147932 -0.028904 -476792.000000 0 0 1
-36.962016 -4.541990 7.012044 37.894446 0.122270 1.384682 0.147873 -0.034158 20598.200000 0 0 1
-35.990837 -3.595690 6.609344 36.768910 0.099575 1.390060 0.143515 -0.025488 -6331.670000 0 0 1
-36.062696 -3.135890 5.119744 36.559043 0.086738 1.430294 0.136405 -0.034781 -101650.000000 0 0 1
-35.482729 -4.020590 4.175344 35.953063 0.112830 1.454400 0.159683 -0.039458 222196.000000 0 0 1
-35.510719 -3.461390 2.951144 35.800861 0.097168 1.488270 0.170230 -0.031780 47229.000000 0 0 1
-34.891073 -4.307290 1.811244 35.202562 0.122828 1.519322 0.190595 -0.040259 -31798.200000 0 0 1
-35.726175 -5.329190 1.275744 36.143981 0.148076 1.535493 0.170779 -0.029894 4698.550000 0 0 1
-36.469186 -4.978890 0.132344 36.807722 0.135684 1.567201 0.147794 -0.019884 -535643.000000 0 0 1
-35.805088 -5.124790 -1.216556 36.190438 0.142165 1.604418 0.174168 -0.029828 -1687730.000000 0 0 1
-35.453947 -6.482890 -1.473056 36.071874 0.180856 1.611644 0.177615 -0.044676 378816.000000 0 0 1
-34.542812 -6.666490 -2.544456 35.272117 0.190648 1.642997 0.161285 -0.042994 325938.000000 0 0 1
-33.135256 -6.048690 -2.323156 33.762833 0.180557 1.639659 0.163247 -0.049380 -752284.000000 0 0 1
-32.418636 -6.647190 -1.249956 33.116695 0.202239 1.608549 0.173341 -0.047116 -174576.000000 0 0 1
-31.294456 -5.920490 -0.821856 31.860173 0.186977 1.596595 0.169095 -0.055278 -217457.000000 0 0 1
-30.435746 -6.750290 0.165944 31.175769 0.218255 1.565473 0.160981 -0.049605 -341545.000000 0 0 1
-29.938656 -7.926790 -0.406656 30.972932 0.258829 1.583926 0.144875 -0.038077 168355.000000 0 0 1
-29.596646 -8.831290 0.582744 30.891629 0.289977 1.551931 0.168605 -0.029532 -229732.000000 0 0 1
-29.233706 -10.214090 0.029944 30.966726 0.336135 1.569829 0.136389 -0.027761 -117262.000000 0 0 1
-28.144936 -10.219690 -0.880056 29.955867 0.348305 1.600179 0.130024 -0.035886 188350.000000 0 0 1
-27.745686 -11.546090 -1.195056 30.075961 0.394342 1.610541 0.114099 -0.018552 -123767.000000 0 0 1
-28.620326 -12.423990 -2.124856 31.272889 0.409550 1.638794 0.109980 -0.022606 340808.000000 0 0 1
-29.630406 -13.278190 -1.538156 32.505957 0.421295 1.618133 0.137605 -0.031328 895426.000000 0 0 1
-29.917676 -14.419290 -2.331856 33.292954 0.449116 1.640894 0.127932 -0.021796 143889.000000 0 0 1
-30.955206 -15.315090 -1.589256 34.573147 0.459439 1.616780 0.152249 -0.024628 552525.000000 0 0 1
-30.317276 -16.051990 -0.514356 34.308427 0.486942 1.585789 0.115910 -0.013891 978163.000000 0 0 1
-31.284426 -16.783590 0.249644 35.503050 0.492407 1.563765 0.132481 -0.014211 181359.000000 0 0 1
-31.498046 -18.278290 -0.088156 36.417449 0.525808 1.573217 0.126215 -0.014772 97939.900000 0 0 1
-30.463236 -19.222090 0.241844 36.021604 0.562897 1.564082 0.149625 -0.020095 349335.000000 0 0 1
-30.810756 -20.594290 0.145044 37.060066 0.589210 1.566883 0.135332 -0.021583 254592.000000 0 0 1
-31.926916 -21.153890 1.064644 38.313816 0.585163 1.543005 0.119301 -0.025020 264996.000000 0 0 1
-31.348826 -21.543590 2.306944 38.107705 0.602098 1.510222 0.138433 -0.025549 1157410.000000 0 0 1
-32.410796 -21.898190 3.221944 39.247565 0.594193 1.488611 0.131120 -0.024676 778215.000000 0 0 1
-31.769536 -22.207090 4.546844 39.027324 0.610058 1.454027 0.139676 -0.030854 100560.000000 0 0 1
-31.260586 -21.018190 5.169144 38.022475 0.591930 1.434424 0.125264 -0.028923 -174691.000000 0 0 1
-30.388456 -21.399390 6.187744 37.678645 0.613536 1.405825 0.137288 -0.034041 -94560.100000 0 0 1
-29.621006 -20.182890 6.729944 36.469785 0.598113 1.385198 0.139766 -0.026780 446064.000000 0 0 1
-28.485056 -20.366590 7.581244 35.828364 0.620717 1.357586 0.140541 -0.033830 359969.000000 0 0 1
-28.050266 -19.114790 8.020144 34.878580 0.598166 1.338775 0.128113 -0.032682 -75136.400000 0 0 1
-26.945006 -19.194890 9.067844 34.303104 0.618982 1.303272 0.130696 -0.029245 -177665.000000 0 0 1
-27.433086 -19.629990 10.293544 35.268509 0.621092 1.274623 0.121148 -0.029788 -57516.800000 0 0 1
-26.394306 -19.807990 11.245844 34.863804 0.643798 1.242358 0.115187 -0.016593 179872.000000 0 0 1
-26.149436 -18.520590 12.136244 34.265050 0.616248 1.208751 0.105370 -0.017131 -341662.000000 0 0 1
-25.437926 -17.535190 11.422344 32.939959 0.603531 1.216679 0.105514 -0.020771 109650.000000 0 0 1
-25.328846 -16.248590 12.118544 32.441119 0.570380 1.187958 0.107641 -0.014789 463959.000000 0 0 1
-24.358276 -16.218990 13.395244 32.184061 0.587438 1.141526 0.097678 -0.009858 216213.000000 0 0 1
-24.907576 -16.751290 14.573944 33.367543 0.592056 1.118791 0.092333 -0.030479 -181275.000000 0 0 1
-23.969276 -17.052890 15.577144 33.286253 0.618368 1.083798 0.102444 -0.027260 -188835.000000 0 0 1
-24.578076 -17.754190 16.776844 34.651920 0.625575 1.065401 0.098409 -0.006686 146964.000000 0 0 1
-25.574186 -16.993290 17.438344 35.311566 0.586481 1.054293 0.103864 -0.014086 80439.800000 0 0 1
-26.448386 -17.823690 18.175144 36.708812 0.592997 1.052827 0.075606 -0.004341 -212179.000000 0 0 1
-27.488786 -17.015190 18.960344 37.478590 0.554263 1.040374 0.082099 -0.011897 -322944.000000 0 0 1
-27.005996 -16.444490 20.159144 37.498482 0.546952 1.003209 0.094345 -0.016102 190631.000000 0 0 1
-27.942366 -15.505990 20.701044 38.075514 0.506619 0.995976 0.094020 -0.021335 419277.000000 0 0 1
-27.344856 -14.842990 21.971044 38.089136 0.497304 0.955951 0.089522 -0.019628 121847.000000 0 0 1
-26.208516 -14.073490 21.658744 36.797427 0.492793 0.941478 0.091771 -0.021306 312241.000000 0 0 1
-25.424536 -13.636290 22.787444 36.764426 0.492298 0.902279 0.092251 -0.020554 -289592.000000 0 0 1
-24.145376 -12.912990 22.444744 35.404958 0.491100 0.884155 0.106491 -0.018793 -681354.000000 0 0 1
-24.337976 -11.622090 21.902144 34.743546 0.445510 0.888735 0.113429 -0.024712 285123.000000 0 0 1
-23.203176 -11.217790 21.156544 33.344048 0.450328 0.883445 0.130776 -0.029014 -540641.000000 0 0 1
-23.037576 -9.657390 21.376344 32.877700 0.396949 0.862978 0.141578 -0.029696 -42196.000000 0 0 1
-22.494776 -9.352290 22.658144 33.269682 0.394013 0.821608 0.123056 -0.031563 -541572.000000 0 0 1
-21.121876 -9.523890 22.721144 32.451325 0.423604 0.795174 0.089998 -0.023244 -1044190.000000 0 0 1
-20.496776 -9.541290 24.134244 33.069862 0.435670 0.752773 0.078042 -0.023357 216150.000000 0 0 1
-20.781776 -10.681390 24.896344 34.143846 0.474768 0.753702 0.099317 -0.017829 245994.000000 0 0 1
-19.853176 -10.657490 25.980344 34.390536 0.492664 0.714455 0.087728 -0.020665 -804420.000000 0 0 1
-20.035476 -11.792390 26.962844 35.601625 0.531977 0.711553 0.088260 -0.028177 -46490.000000 0 0 1
-21.183276 -11.819590 27.764644 36.868812 0.508940 0.718087 0.084545 -0.020926 -442726.000000 0 0 1
-22.387976 -12.158490 27.102844 37.196969 0.497516 0.754476 0.078510 -0.021547 -408345.000000 0 0 1
-23.444676 -12.591290 28.123944 38.718854 0.492857 0.757781 0.067546 -0.021583 -274979.000000 0 0 1
-23.360876 -13.844290 28.673044 39.490991 0.534981 0.758214 0.061569 -0.013092 393856.000000 0 0 1
-22.303876 -14.084490 29.639244 39.677708 0.563247 0.727258 0.047035 -0.014767 662366.000000 0 0 1
-22.517976 -15.254890 30.589444 40.932688 0.595434 0.726790 0.039698 -0.019058 -723915.000000 0 0 1
-22.504976 -16.514590 29.997244 40.976094 0.633065 0.749445 0.045324 -0.012483 -87507.700000 0 0 1
-22.625776 -17.457990 31.033044 42.187166 0.657181 0.744239 0.032475 -0.013508 10606.400000 0 0 1
-23.985876 -17.804390 31.728744 43.577881 0.638546 0.755261 0.060082 -0.019177 351894.000000 0 0 1
-24.548276 -16.771490 32.519844 44.061786 0.599365 0.740619 0.064430 -0.024428 136131.000000 0 0 1
-25.864056 -17.157090 32.897944 45.228197 0.585707 0.756305 0.073329 -0.037013 10457.100000 0 0 1
-26.874056 -16.161090 33.432744 45.838238 0.541422 0.753405 0.068755 -0.040463 -122335.000000 0 0 1
-26.594906 -15.894490 -32.939796 45.221167 0.538691 2.386803 0.074062 -0.040661 -25437.900000 0 0 1
-27.359296 -14.822490 -32.414996 44.932942 0.496504 2.376630 0.079536 -0.031836 -276273.000000 0 0 1
-26.826986 -14.250290 -31.101296 43.474689 0.488289 2.367976 0.067911 -0.019118 -262769.000000 0 0 1
-27.011206 -14.996490 -29.938496 43.021082 0.506823 2.340473 0.075088 -0.013221 217311.000000 0 0 1
-26.266216 -14.410790 -28.867596 41.604363 0.501801 2.337632 0.076692 -0.000343 88797.200000 0 0 1
-26.490076 -15.130390 -27.495896 41.069175 0.518953 2.304335 0.072497 -0.004663 222340.000000 0 0 1
-27.763806 -14.981490 -26.890196 41.453065 0.494827 2.276658 0.089934 -0.011803 101118.000000 0 0 1
-27.959136 -13.805190 -26.121396 40.677068 0.458646 2.268116 0.106686 -0.014787 -155962.000000 0 0 1
-27.244346 -13.782990 -24.710496 39.278923 0.468359 2.251195 0.091963 -0.014392 604133.000000 0 0 1
-25.835656 -13.565590 -24.814696 38.305032 0.483504 2.275513 0.060546 -0.012977 1207250.000000 0 0 1
-25.020016 -13.975690 -23.683296 37.178214 0.509407 2.261424 0.057831 -0.011663 417949.000000 0 0 1
-24.678076 -15.465090 -23.617496 37.496167 0.559802 2.252175 0.056096 -0.002621 -829457.000000 0 0 1
-23.836876 -15.732990 -24.727596 37.778004 0.583392 2.284384 0.065066 0.001103 56544.400000 0 0 1
-23.405176 -17.081990 -24.765896 38.117532 0.630472 2.278018 0.066794 -0.003156 -277702.000000 0 0 1
-22.524576 -17.295490 -26.028596 38.522439 0.654827 2.312674 0.047699 -0.002291 -122632.000000 0 0 1
-23.120776 -17.133590 -27.284796 39.655898 0.637747 2.329579 0.050286 -0.005947 -78699.200000 0 0 1
-23.964176 -18.220490 -27.635696 40.865629 0.650075 2.313467 0.058407 -0.010801 -325653.000000 0 0 1
-24.605576 -18.069190 -28.970496 42.085860 0.633412 2.330031 0.051770 -0.012357 -406373.000000 0 0 1
-23.701576 -18.176990 -30.036596 42.359943 0.654236 2.358989 0.046197 -0.012535 178114.000000 0 0 1
-24.334876 -17.799390 -31.253896 43.425919 0.631513 2.374175 0.042492 -0.016236 8674.490000 0 0 1
-23.449976 -18.208090 -32.461396 43.990660 0.660225 2.400773 0.038311 -0.016895 960282.000000 0 0 1
-22.139676 -17.550990 -32.565096 43.112504 0.670298 2.426987 0.042476 -0.010462 1932380.000000 0 0 1
-21.045076 -18.322290 -32.042596 42.489169 0.716345 2.425133 0.050505 -0.011688 276740.000000 0 0 1
-20.690576 -19.563690 -32.883596 43.499066 0.757411 2.427917 0.054713 -0.010839 -1071890.000000 0 0 1
-20.192976 -19.157490 33.565044 43.604792 0.759090 0.692338 0.054335 -0.011902 263489.000000 0 0 1
-20.005476 -20.229190 32.605544 43.273094 0.790958 0.717453 0.059337 -0.010155 327065.000000 0 0 1
-21.330676 -20.781390 31.960344 43.684408 0.772355 0.750102 0.053703 -0.010711 661592.000000 0 0 1
-22.300076 -21.370890 32.802944 45.055981 0.764124 0.755325 0.050205 -0.011260 731642.000000 0 0 1
-23.455576 -21.939990 32.127144 45.427751 0.752024 0.785246 0.049488 -0.002785 660164.000000 0 0 1
-23.413576 -23.217190 31.278544 45.448661 0.781187 0.811768 0.062356 0.005111 -671211.000000 0 0 1
-23.091976 -24.417290 31.920944 46.350729 0.813287 0.811126 0.068681 0.007230 23779.100000 0 0 1
-23.035576 -25.516390 31.003344 46.291805 0.836450 0.836941 0.071632 0.009664 -162632.000000 0 0 1
-22.496376 -26.813340 31.678244 47.207555 0.872723 0.835183 0.100468 -0.005426 -202088.000000 0 0 1
-23.274676 -27.307550 32.735244 48.569630 0.864959 0.831205 0.077988 -0.002897 -456136.000000 0 0 1
-22.816776 -28.517270 33.313144 49.432838 0.895992 0.831312 0.082961 -0.014745 -984181.000000 0 0 1
-23.832076 -29.403760 -33.667796 50.656386 0.889679 2.297796 0.078363 -0.007892 -542300.000000 0 0 1
-24.864276 -29.875920 33.252744 51.152202 0.876697 0.863114 0.056279 -0.007590 491568.000000 0 0 1
-25.950786 -29.018410 32.887644 50.961834 0.841147 0.869330 0.045685 -0.002176 -408250.000000 0 0 1
-27.064286 -28.792410 -33.835196 52.022100 0.816327 2.278908 0.025343 -0.002889 -829221.000000 0 0 1
-27.923126 -27.782820 33.471344 51.690588 0.782879 0.866454 0.026060 0.003019 -652655.000000 0 0 1
-28.913316 -27.431890 -33.378896 51.986913 0.759112 2.267983 0.025414 0.009729 -178987.000000 0 0 1
-30.058976 -26.545050 33.804044 52.448976 0.723399 0.870410 0.025642 0.001470 647741.000000 0 0 1
-30.963436 -27.221410 32.904044 52.748608 0.721174 0.897214 0.030539 -0.004938 -248799.000000 0 0 1
-31.973336 -26.370390 32.489144 52.661524 0.689658 0.905944 0.036870 -0.007251 -469302.000000 0 0 1
